# vtk DataFile Version 3.0
Some data
ASCII
DATASET UNSTRUCTURED_GRID
POINTS 861 float
0.0 0.0 0.0
0.4 0.0 0.0
0.8 0.0 0.0
1.2000000000000002 0.0 0.0
1.6 0.0 0.0
2.0 0.0 0.0
2.4000000000000004 0.0 0.0
2.8000000000000003 0.0 0.0
3.2 0.0 0.0
3.6 0.0 0.0
4.0 0.0 0.0
4.4 0.0 0.0
4.800000000000001 0.0 0.0
5.2 0.0 0.0
5.6000000000000005 0.0 0.0
6.0 0.0 0.0
6.4 0.0 0.0
6.800000000000001 0.0 0.0
7.2 0.0 0.0
7.6000000000000005 0.0 0.0
8.0 0.0 0.0
8.4 0.0 0.0
8.8 0.0 0.0
9.200000000000001 0.0 0.0
9.600000000000001 0.0 0.0
10.0 0.0 0.0
10.4 0.0 0.0
10.8 0.0 0.0
11.200000000000001 0.0 0.0
11.600000000000001 0.0 0.0
12.0 0.0 0.0
12.4 0.0 0.0
12.8 0.0 0.0
13.200000000000001 0.0 0.0
13.600000000000001 0.0 0.0
14.0 0.0 0.0
14.4 0.0 0.0
14.8 0.0 0.0
15.200000000000001 0.0 0.0
15.600000000000001 0.0 0.0
16.0 0.0 0.0
0.0 0.1 0.0
0.4 0.1 0.0
0.8 0.1 0.0
1.2000000000000002 0.1 0.0
1.6 0.1 0.0
2.0 0.1 0.0
2.4000000000000004 0.1 0.0
2.8000000000000003 0.1 0.0
3.2 0.1 0.0
3.6 0.1 0.0
4.0 0.1 0.0
4.4 0.1 0.0
4.800000000000001 0.1 0.0
5.2 0.1 0.0
5.6000000000000005 0.1 0.0
6.0 0.1 0.0
6.4 0.1 0.0
6.800000000000001 0.1 0.0
7.2 0.1 0.0
7.6000000000000005 0.1 0.0
8.0 0.1 0.0
8.4 0.1 0.0
8.8 0.1 0.0
9.200000000000001 0.1 0.0
9.600000000000001 0.1 0.0
10.0 0.1 0.0
10.4 0.1 0.0
10.8 0.1 0.0
11.200000000000001 0.1 0.0
11.600000000000001 0.1 0.0
12.0 0.1 0.0
12.4 0.1 0.0
12.8 0.1 0.0
13.200000000000001 0.1 0.0
13.600000000000001 0.1 0.0
14.0 0.1 0.0
14.4 0.1 0.0
14.8 0.1 0.0
15.200000000000001 0.1 0.0
15.600000000000001 0.1 0.0
16.0 0.1 0.0
0.0 0.2 0.0
0.4 0.2 0.0
0.8 0.2 0.0
1.2000000000000002 0.2 0.0
1.6 0.2 0.0
2.0 0.2 0.0
2.4000000000000004 0.2 0.0
2.8000000000000003 0.2 0.0
3.2 0.2 0.0
3.6 0.2 0.0
4.0 0.2 0.0
4.4 0.2 0.0
4.800000000000001 0.2 0.0
5.2 0.2 0.0
5.6000000000000005 0.2 0.0
6.0 0.2 0.0
6.4 0.2 0.0
6.800000000000001 0.2 0.0
7.2 0.2 0.0
7.6000000000000005 0.2 0.0
8.0 0.2 0.0
8.4 0.2 0.0
8.8 0.2 0.0
9.200000000000001 0.2 0.0
9.600000000000001 0.2 0.0
10.0 0.2 0.0
10.4 0.2 0.0
10.8 0.2 0.0
11.200000000000001 0.2 0.0
11.600000000000001 0.2 0.0
12.0 0.2 0.0
12.4 0.2 0.0
12.8 0.2 0.0
13.200000000000001 0.2 0.0
13.600000000000001 0.2 0.0
14.0 0.2 0.0
14.4 0.2 0.0
14.8 0.2 0.0
15.200000000000001 0.2 0.0
15.600000000000001 0.2 0.0
16.0 0.2 0.0
0.0 0.30000000000000004 0.0
0.4 0.30000000000000004 0.0
0.8 0.30000000000000004 0.0
1.2000000000000002 0.30000000000000004 0.0
1.6 0.30000000000000004 0.0
2.0 0.30000000000000004 0.0
2.4000000000000004 0.30000000000000004 0.0
2.8000000000000003 0.30000000000000004 0.0
3.2 0.30000000000000004 0.0
3.6 0.30000000000000004 0.0
4.0 0.30000000000000004 0.0
4.4 0.30000000000000004 0.0
4.800000000000001 0.30000000000000004 0.0
5.2 0.30000000000000004 0.0
5.6000000000000005 0.30000000000000004 0.0
6.0 0.30000000000000004 0.0
6.4 0.30000000000000004 0.0
6.800000000000001 0.30000000000000004 0.0
7.2 0.30000000000000004 0.0
7.6000000000000005 0.30000000000000004 0.0
8.0 0.30000000000000004 0.0
8.4 0.30000000000000004 0.0
8.8 0.30000000000000004 0.0
9.200000000000001 0.30000000000000004 0.0
9.600000000000001 0.30000000000000004 0.0
10.0 0.30000000000000004 0.0
10.4 0.30000000000000004 0.0
10.8 0.30000000000000004 0.0
11.200000000000001 0.30000000000000004 0.0
11.600000000000001 0.30000000000000004 0.0
12.0 0.30000000000000004 0.0
12.4 0.30000000000000004 0.0
12.8 0.30000000000000004 0.0
13.200000000000001 0.30000000000000004 0.0
13.600000000000001 0.30000000000000004 0.0
14.0 0.30000000000000004 0.0
14.4 0.30000000000000004 0.0
14.8 0.30000000000000004 0.0
15.200000000000001 0.30000000000000004 0.0
15.600000000000001 0.30000000000000004 0.0
16.0 0.30000000000000004 0.0
0.0 0.4 0.0
0.4 0.4 0.0
0.8 0.4 0.0
1.2000000000000002 0.4 0.0
1.6 0.4 0.0
2.0 0.4 0.0
2.4000000000000004 0.4 0.0
2.8000000000000003 0.4 0.0
3.2 0.4 0.0
3.6 0.4 0.0
4.0 0.4 0.0
4.4 0.4 0.0
4.800000000000001 0.4 0.0
5.2 0.4 0.0
5.6000000000000005 0.4 0.0
6.0 0.4 0.0
6.4 0.4 0.0
6.800000000000001 0.4 0.0
7.2 0.4 0.0
7.6000000000000005 0.4 0.0
8.0 0.4 0.0
8.4 0.4 0.0
8.8 0.4 0.0
9.200000000000001 0.4 0.0
9.600000000000001 0.4 0.0
10.0 0.4 0.0
10.4 0.4 0.0
10.8 0.4 0.0
11.200000000000001 0.4 0.0
11.600000000000001 0.4 0.0
12.0 0.4 0.0
12.4 0.4 0.0
12.8 0.4 0.0
13.200000000000001 0.4 0.0
13.600000000000001 0.4 0.0
14.0 0.4 0.0
14.4 0.4 0.0
14.8 0.4 0.0
15.200000000000001 0.4 0.0
15.600000000000001 0.4 0.0
16.0 0.4 0.0
0.0 0.5 0.0
0.4 0.5 0.0
0.8 0.5 0.0
1.2000000000000002 0.5 0.0
1.6 0.5 0.0
2.0 0.5 0.0
2.4000000000000004 0.5 0.0
2.8000000000000003 0.5 0.0
3.2 0.5 0.0
3.6 0.5 0.0
4.0 0.5 0.0
4.4 0.5 0.0
4.800000000000001 0.5 0.0
5.2 0.5 0.0
5.6000000000000005 0.5 0.0
6.0 0.5 0.0
6.4 0.5 0.0
6.800000000000001 0.5 0.0
7.2 0.5 0.0
7.6000000000000005 0.5 0.0
8.0 0.5 0.0
8.4 0.5 0.0
8.8 0.5 0.0
9.200000000000001 0.5 0.0
9.600000000000001 0.5 0.0
10.0 0.5 0.0
10.4 0.5 0.0
10.8 0.5 0.0
11.200000000000001 0.5 0.0
11.600000000000001 0.5 0.0
12.0 0.5 0.0
12.4 0.5 0.0
12.8 0.5 0.0
13.200000000000001 0.5 0.0
13.600000000000001 0.5 0.0
14.0 0.5 0.0
14.4 0.5 0.0
14.8 0.5 0.0
15.200000000000001 0.5 0.0
15.600000000000001 0.5 0.0
16.0 0.5 0.0
0.0 0.6000000000000001 0.0
0.4 0.6000000000000001 0.0
0.8 0.6000000000000001 0.0
1.2000000000000002 0.6000000000000001 0.0
1.6 0.6000000000000001 0.0
2.0 0.6000000000000001 0.0
2.4000000000000004 0.6000000000000001 0.0
2.8000000000000003 0.6000000000000001 0.0
3.2 0.6000000000000001 0.0
3.6 0.6000000000000001 0.0
4.0 0.6000000000000001 0.0
4.4 0.6000000000000001 0.0
4.800000000000001 0.6000000000000001 0.0
5.2 0.6000000000000001 0.0
5.6000000000000005 0.6000000000000001 0.0
6.0 0.6000000000000001 0.0
6.4 0.6000000000000001 0.0
6.800000000000001 0.6000000000000001 0.0
7.2 0.6000000000000001 0.0
7.6000000000000005 0.6000000000000001 0.0
8.0 0.6000000000000001 0.0
8.4 0.6000000000000001 0.0
8.8 0.6000000000000001 0.0
9.200000000000001 0.6000000000000001 0.0
9.600000000000001 0.6000000000000001 0.0
10.0 0.6000000000000001 0.0
10.4 0.6000000000000001 0.0
10.8 0.6000000000000001 0.0
11.200000000000001 0.6000000000000001 0.0
11.600000000000001 0.6000000000000001 0.0
12.0 0.6000000000000001 0.0
12.4 0.6000000000000001 0.0
12.8 0.6000000000000001 0.0
13.200000000000001 0.6000000000000001 0.0
13.600000000000001 0.6000000000000001 0.0
14.0 0.6000000000000001 0.0
14.4 0.6000000000000001 0.0
14.8 0.6000000000000001 0.0
15.200000000000001 0.6000000000000001 0.0
15.600000000000001 0.6000000000000001 0.0
16.0 0.6000000000000001 0.0
0.0 0.7000000000000001 0.0
0.4 0.7000000000000001 0.0
0.8 0.7000000000000001 0.0
1.2000000000000002 0.7000000000000001 0.0
1.6 0.7000000000000001 0.0
2.0 0.7000000000000001 0.0
2.4000000000000004 0.7000000000000001 0.0
2.8000000000000003 0.7000000000000001 0.0
3.2 0.7000000000000001 0.0
3.6 0.7000000000000001 0.0
4.0 0.7000000000000001 0.0
4.4 0.7000000000000001 0.0
4.800000000000001 0.7000000000000001 0.0
5.2 0.7000000000000001 0.0
5.6000000000000005 0.7000000000000001 0.0
6.0 0.7000000000000001 0.0
6.4 0.7000000000000001 0.0
6.800000000000001 0.7000000000000001 0.0
7.2 0.7000000000000001 0.0
7.6000000000000005 0.7000000000000001 0.0
8.0 0.7000000000000001 0.0
8.4 0.7000000000000001 0.0
8.8 0.7000000000000001 0.0
9.200000000000001 0.7000000000000001 0.0
9.600000000000001 0.7000000000000001 0.0
10.0 0.7000000000000001 0.0
10.4 0.7000000000000001 0.0
10.8 0.7000000000000001 0.0
11.200000000000001 0.7000000000000001 0.0
11.600000000000001 0.7000000000000001 0.0
12.0 0.7000000000000001 0.0
12.4 0.7000000000000001 0.0
12.8 0.7000000000000001 0.0
13.200000000000001 0.7000000000000001 0.0
13.600000000000001 0.7000000000000001 0.0
14.0 0.7000000000000001 0.0
14.4 0.7000000000000001 0.0
14.8 0.7000000000000001 0.0
15.200000000000001 0.7000000000000001 0.0
15.600000000000001 0.7000000000000001 0.0
16.0 0.7000000000000001 0.0
0.0 0.8 0.0
0.4 0.8 0.0
0.8 0.8 0.0
1.2000000000000002 0.8 0.0
1.6 0.8 0.0
2.0 0.8 0.0
2.4000000000000004 0.8 0.0
2.8000000000000003 0.8 0.0
3.2 0.8 0.0
3.6 0.8 0.0
4.0 0.8 0.0
4.4 0.8 0.0
4.800000000000001 0.8 0.0
5.2 0.8 0.0
5.6000000000000005 0.8 0.0
6.0 0.8 0.0
6.4 0.8 0.0
6.800000000000001 0.8 0.0
7.2 0.8 0.0
7.6000000000000005 0.8 0.0
8.0 0.8 0.0
8.4 0.8 0.0
8.8 0.8 0.0
9.200000000000001 0.8 0.0
9.600000000000001 0.8 0.0
10.0 0.8 0.0
10.4 0.8 0.0
10.8 0.8 0.0
11.200000000000001 0.8 0.0
11.600000000000001 0.8 0.0
12.0 0.8 0.0
12.4 0.8 0.0
12.8 0.8 0.0
13.200000000000001 0.8 0.0
13.600000000000001 0.8 0.0
14.0 0.8 0.0
14.4 0.8 0.0
14.8 0.8 0.0
15.200000000000001 0.8 0.0
15.600000000000001 0.8 0.0
16.0 0.8 0.0
0.0 0.9 0.0
0.4 0.9 0.0
0.8 0.9 0.0
1.2000000000000002 0.9 0.0
1.6 0.9 0.0
2.0 0.9 0.0
2.4000000000000004 0.9 0.0
2.8000000000000003 0.9 0.0
3.2 0.9 0.0
3.6 0.9 0.0
4.0 0.9 0.0
4.4 0.9 0.0
4.800000000000001 0.9 0.0
5.2 0.9 0.0
5.6000000000000005 0.9 0.0
6.0 0.9 0.0
6.4 0.9 0.0
6.800000000000001 0.9 0.0
7.2 0.9 0.0
7.6000000000000005 0.9 0.0
8.0 0.9 0.0
8.4 0.9 0.0
8.8 0.9 0.0
9.200000000000001 0.9 0.0
9.600000000000001 0.9 0.0
10.0 0.9 0.0
10.4 0.9 0.0
10.8 0.9 0.0
11.200000000000001 0.9 0.0
11.600000000000001 0.9 0.0
12.0 0.9 0.0
12.4 0.9 0.0
12.8 0.9 0.0
13.200000000000001 0.9 0.0
13.600000000000001 0.9 0.0
14.0 0.9 0.0
14.4 0.9 0.0
14.8 0.9 0.0
15.200000000000001 0.9 0.0
15.600000000000001 0.9 0.0
16.0 0.9 0.0
0.0 1.0 0.0
0.4 1.0 0.0
0.8 1.0 0.0
1.2000000000000002 1.0 0.0
1.6 1.0 0.0
2.0 1.0 0.0
2.4000000000000004 1.0 0.0
2.8000000000000003 1.0 0.0
3.2 1.0 0.0
3.6 1.0 0.0
4.0 1.0 0.0
4.4 1.0 0.0
4.800000000000001 1.0 0.0
5.2 1.0 0.0
5.6000000000000005 1.0 0.0
6.0 1.0 0.0
6.4 1.0 0.0
6.800000000000001 1.0 0.0
7.2 1.0 0.0
7.6000000000000005 1.0 0.0
8.0 1.0 0.0
8.4 1.0 0.0
8.8 1.0 0.0
9.200000000000001 1.0 0.0
9.600000000000001 1.0 0.0
10.0 1.0 0.0
10.4 1.0 0.0
10.8 1.0 0.0
11.200000000000001 1.0 0.0
11.600000000000001 1.0 0.0
12.0 1.0 0.0
12.4 1.0 0.0
12.8 1.0 0.0
13.200000000000001 1.0 0.0
13.600000000000001 1.0 0.0
14.0 1.0 0.0
14.4 1.0 0.0
14.8 1.0 0.0
15.200000000000001 1.0 0.0
15.600000000000001 1.0 0.0
16.0 1.0 0.0
0.0 1.1 0.0
0.4 1.1 0.0
0.8 1.1 0.0
1.2000000000000002 1.1 0.0
1.6 1.1 0.0
2.0 1.1 0.0
2.4000000000000004 1.1 0.0
2.8000000000000003 1.1 0.0
3.2 1.1 0.0
3.6 1.1 0.0
4.0 1.1 0.0
4.4 1.1 0.0
4.800000000000001 1.1 0.0
5.2 1.1 0.0
5.6000000000000005 1.1 0.0
6.0 1.1 0.0
6.4 1.1 0.0
6.800000000000001 1.1 0.0
7.2 1.1 0.0
7.6000000000000005 1.1 0.0
8.0 1.1 0.0
8.4 1.1 0.0
8.8 1.1 0.0
9.200000000000001 1.1 0.0
9.600000000000001 1.1 0.0
10.0 1.1 0.0
10.4 1.1 0.0
10.8 1.1 0.0
11.200000000000001 1.1 0.0
11.600000000000001 1.1 0.0
12.0 1.1 0.0
12.4 1.1 0.0
12.8 1.1 0.0
13.200000000000001 1.1 0.0
13.600000000000001 1.1 0.0
14.0 1.1 0.0
14.4 1.1 0.0
14.8 1.1 0.0
15.200000000000001 1.1 0.0
15.600000000000001 1.1 0.0
16.0 1.1 0.0
0.0 1.2000000000000002 0.0
0.4 1.2000000000000002 0.0
0.8 1.2000000000000002 0.0
1.2000000000000002 1.2000000000000002 0.0
1.6 1.2000000000000002 0.0
2.0 1.2000000000000002 0.0
2.4000000000000004 1.2000000000000002 0.0
2.8000000000000003 1.2000000000000002 0.0
3.2 1.2000000000000002 0.0
3.6 1.2000000000000002 0.0
4.0 1.2000000000000002 0.0
4.4 1.2000000000000002 0.0
4.800000000000001 1.2000000000000002 0.0
5.2 1.2000000000000002 0.0
5.6000000000000005 1.2000000000000002 0.0
6.0 1.2000000000000002 0.0
6.4 1.2000000000000002 0.0
6.800000000000001 1.2000000000000002 0.0
7.2 1.2000000000000002 0.0
7.6000000000000005 1.2000000000000002 0.0
8.0 1.2000000000000002 0.0
8.4 1.2000000000000002 0.0
8.8 1.2000000000000002 0.0
9.200000000000001 1.2000000000000002 0.0
9.600000000000001 1.2000000000000002 0.0
10.0 1.2000000000000002 0.0
10.4 1.2000000000000002 0.0
10.8 1.2000000000000002 0.0
11.200000000000001 1.2000000000000002 0.0
11.600000000000001 1.2000000000000002 0.0
12.0 1.2000000000000002 0.0
12.4 1.2000000000000002 0.0
12.8 1.2000000000000002 0.0
13.200000000000001 1.2000000000000002 0.0
13.600000000000001 1.2000000000000002 0.0
14.0 1.2000000000000002 0.0
14.4 1.2000000000000002 0.0
14.8 1.2000000000000002 0.0
15.200000000000001 1.2000000000000002 0.0
15.600000000000001 1.2000000000000002 0.0
16.0 1.2000000000000002 0.0
0.0 1.3 0.0
0.4 1.3 0.0
0.8 1.3 0.0
1.2000000000000002 1.3 0.0
1.6 1.3 0.0
2.0 1.3 0.0
2.4000000000000004 1.3 0.0
2.8000000000000003 1.3 0.0
3.2 1.3 0.0
3.6 1.3 0.0
4.0 1.3 0.0
4.4 1.3 0.0
4.800000000000001 1.3 0.0
5.2 1.3 0.0
5.6000000000000005 1.3 0.0
6.0 1.3 0.0
6.4 1.3 0.0
6.800000000000001 1.3 0.0
7.2 1.3 0.0
7.6000000000000005 1.3 0.0
8.0 1.3 0.0
8.4 1.3 0.0
8.8 1.3 0.0
9.200000000000001 1.3 0.0
9.600000000000001 1.3 0.0
10.0 1.3 0.0
10.4 1.3 0.0
10.8 1.3 0.0
11.200000000000001 1.3 0.0
11.600000000000001 1.3 0.0
12.0 1.3 0.0
12.4 1.3 0.0
12.8 1.3 0.0
13.200000000000001 1.3 0.0
13.600000000000001 1.3 0.0
14.0 1.3 0.0
14.4 1.3 0.0
14.8 1.3 0.0
15.200000000000001 1.3 0.0
15.600000000000001 1.3 0.0
16.0 1.3 0.0
0.0 1.4000000000000001 0.0
0.4 1.4000000000000001 0.0
0.8 1.4000000000000001 0.0
1.2000000000000002 1.4000000000000001 0.0
1.6 1.4000000000000001 0.0
2.0 1.4000000000000001 0.0
2.4000000000000004 1.4000000000000001 0.0
2.8000000000000003 1.4000000000000001 0.0
3.2 1.4000000000000001 0.0
3.6 1.4000000000000001 0.0
4.0 1.4000000000000001 0.0
4.4 1.4000000000000001 0.0
4.800000000000001 1.4000000000000001 0.0
5.2 1.4000000000000001 0.0
5.6000000000000005 1.4000000000000001 0.0
6.0 1.4000000000000001 0.0
6.4 1.4000000000000001 0.0
6.800000000000001 1.4000000000000001 0.0
7.2 1.4000000000000001 0.0
7.6000000000000005 1.4000000000000001 0.0
8.0 1.4000000000000001 0.0
8.4 1.4000000000000001 0.0
8.8 1.4000000000000001 0.0
9.200000000000001 1.4000000000000001 0.0
9.600000000000001 1.4000000000000001 0.0
10.0 1.4000000000000001 0.0
10.4 1.4000000000000001 0.0
10.8 1.4000000000000001 0.0
11.200000000000001 1.4000000000000001 0.0
11.600000000000001 1.4000000000000001 0.0
12.0 1.4000000000000001 0.0
12.4 1.4000000000000001 0.0
12.8 1.4000000000000001 0.0
13.200000000000001 1.4000000000000001 0.0
13.600000000000001 1.4000000000000001 0.0
14.0 1.4000000000000001 0.0
14.4 1.4000000000000001 0.0
14.8 1.4000000000000001 0.0
15.200000000000001 1.4000000000000001 0.0
15.600000000000001 1.4000000000000001 0.0
16.0 1.4000000000000001 0.0
0.0 1.5 0.0
0.4 1.5 0.0
0.8 1.5 0.0
1.2000000000000002 1.5 0.0
1.6 1.5 0.0
2.0 1.5 0.0
2.4000000000000004 1.5 0.0
2.8000000000000003 1.5 0.0
3.2 1.5 0.0
3.6 1.5 0.0
4.0 1.5 0.0
4.4 1.5 0.0
4.800000000000001 1.5 0.0
5.2 1.5 0.0
5.6000000000000005 1.5 0.0
6.0 1.5 0.0
6.4 1.5 0.0
6.800000000000001 1.5 0.0
7.2 1.5 0.0
7.6000000000000005 1.5 0.0
8.0 1.5 0.0
8.4 1.5 0.0
8.8 1.5 0.0
9.200000000000001 1.5 0.0
9.600000000000001 1.5 0.0
10.0 1.5 0.0
10.4 1.5 0.0
10.8 1.5 0.0
11.200000000000001 1.5 0.0
11.600000000000001 1.5 0.0
12.0 1.5 0.0
12.4 1.5 0.0
12.8 1.5 0.0
13.200000000000001 1.5 0.0
13.600000000000001 1.5 0.0
14.0 1.5 0.0
14.4 1.5 0.0
14.8 1.5 0.0
15.200000000000001 1.5 0.0
15.600000000000001 1.5 0.0
16.0 1.5 0.0
0.0 1.6 0.0
0.4 1.6 0.0
0.8 1.6 0.0
1.2000000000000002 1.6 0.0
1.6 1.6 0.0
2.0 1.6 0.0
2.4000000000000004 1.6 0.0
2.8000000000000003 1.6 0.0
3.2 1.6 0.0
3.6 1.6 0.0
4.0 1.6 0.0
4.4 1.6 0.0
4.800000000000001 1.6 0.0
5.2 1.6 0.0
5.6000000000000005 1.6 0.0
6.0 1.6 0.0
6.4 1.6 0.0
6.800000000000001 1.6 0.0
7.2 1.6 0.0
7.6000000000000005 1.6 0.0
8.0 1.6 0.0
8.4 1.6 0.0
8.8 1.6 0.0
9.200000000000001 1.6 0.0
9.600000000000001 1.6 0.0
10.0 1.6 0.0
10.4 1.6 0.0
10.8 1.6 0.0
11.200000000000001 1.6 0.0
11.600000000000001 1.6 0.0
12.0 1.6 0.0
12.4 1.6 0.0
12.8 1.6 0.0
13.200000000000001 1.6 0.0
13.600000000000001 1.6 0.0
14.0 1.6 0.0
14.4 1.6 0.0
14.8 1.6 0.0
15.200000000000001 1.6 0.0
15.600000000000001 1.6 0.0
16.0 1.6 0.0
0.0 1.7000000000000002 0.0
0.4 1.7000000000000002 0.0
0.8 1.7000000000000002 0.0
1.2000000000000002 1.7000000000000002 0.0
1.6 1.7000000000000002 0.0
2.0 1.7000000000000002 0.0
2.4000000000000004 1.7000000000000002 0.0
2.8000000000000003 1.7000000000000002 0.0
3.2 1.7000000000000002 0.0
3.6 1.7000000000000002 0.0
4.0 1.7000000000000002 0.0
4.4 1.7000000000000002 0.0
4.800000000000001 1.7000000000000002 0.0
5.2 1.7000000000000002 0.0
5.6000000000000005 1.7000000000000002 0.0
6.0 1.7000000000000002 0.0
6.4 1.7000000000000002 0.0
6.800000000000001 1.7000000000000002 0.0
7.2 1.7000000000000002 0.0
7.6000000000000005 1.7000000000000002 0.0
8.0 1.7000000000000002 0.0
8.4 1.7000000000000002 0.0
8.8 1.7000000000000002 0.0
9.200000000000001 1.7000000000000002 0.0
9.600000000000001 1.7000000000000002 0.0
10.0 1.7000000000000002 0.0
10.4 1.7000000000000002 0.0
10.8 1.7000000000000002 0.0
11.200000000000001 1.7000000000000002 0.0
11.600000000000001 1.7000000000000002 0.0
12.0 1.7000000000000002 0.0
12.4 1.7000000000000002 0.0
12.8 1.7000000000000002 0.0
13.200000000000001 1.7000000000000002 0.0
13.600000000000001 1.7000000000000002 0.0
14.0 1.7000000000000002 0.0
14.4 1.7000000000000002 0.0
14.8 1.7000000000000002 0.0
15.200000000000001 1.7000000000000002 0.0
15.600000000000001 1.7000000000000002 0.0
16.0 1.7000000000000002 0.0
0.0 1.8 0.0
0.4 1.8 0.0
0.8 1.8 0.0
1.2000000000000002 1.8 0.0
1.6 1.8 0.0
2.0 1.8 0.0
2.4000000000000004 1.8 0.0
2.8000000000000003 1.8 0.0
3.2 1.8 0.0
3.6 1.8 0.0
4.0 1.8 0.0
4.4 1.8 0.0
4.800000000000001 1.8 0.0
5.2 1.8 0.0
5.6000000000000005 1.8 0.0
6.0 1.8 0.0
6.4 1.8 0.0
6.800000000000001 1.8 0.0
7.2 1.8 0.0
7.6000000000000005 1.8 0.0
8.0 1.8 0.0
8.4 1.8 0.0
8.8 1.8 0.0
9.200000000000001 1.8 0.0
9.600000000000001 1.8 0.0
10.0 1.8 0.0
10.4 1.8 0.0
10.8 1.8 0.0
11.200000000000001 1.8 0.0
11.600000000000001 1.8 0.0
12.0 1.8 0.0
12.4 1.8 0.0
12.8 1.8 0.0
13.200000000000001 1.8 0.0
13.600000000000001 1.8 0.0
14.0 1.8 0.0
14.4 1.8 0.0
14.8 1.8 0.0
15.200000000000001 1.8 0.0
15.600000000000001 1.8 0.0
16.0 1.8 0.0
0.0 1.9000000000000001 0.0
0.4 1.9000000000000001 0.0
0.8 1.9000000000000001 0.0
1.2000000000000002 1.9000000000000001 0.0
1.6 1.9000000000000001 0.0
2.0 1.9000000000000001 0.0
2.4000000000000004 1.9000000000000001 0.0
2.8000000000000003 1.9000000000000001 0.0
3.2 1.9000000000000001 0.0
3.6 1.9000000000000001 0.0
4.0 1.9000000000000001 0.0
4.4 1.9000000000000001 0.0
4.800000000000001 1.9000000000000001 0.0
5.2 1.9000000000000001 0.0
5.6000000000000005 1.9000000000000001 0.0
6.0 1.9000000000000001 0.0
6.4 1.9000000000000001 0.0
6.800000000000001 1.9000000000000001 0.0
7.2 1.9000000000000001 0.0
7.6000000000000005 1.9000000000000001 0.0
8.0 1.9000000000000001 0.0
8.4 1.9000000000000001 0.0
8.8 1.9000000000000001 0.0
9.200000000000001 1.9000000000000001 0.0
9.600000000000001 1.9000000000000001 0.0
10.0 1.9000000000000001 0.0
10.4 1.9000000000000001 0.0
10.8 1.9000000000000001 0.0
11.200000000000001 1.9000000000000001 0.0
11.600000000000001 1.9000000000000001 0.0
12.0 1.9000000000000001 0.0
12.4 1.9000000000000001 0.0
12.8 1.9000000000000001 0.0
13.200000000000001 1.9000000000000001 0.0
13.600000000000001 1.9000000000000001 0.0
14.0 1.9000000000000001 0.0
14.4 1.9000000000000001 0.0
14.8 1.9000000000000001 0.0
15.200000000000001 1.9000000000000001 0.0
15.600000000000001 1.9000000000000001 0.0
16.0 1.9000000000000001 0.0
0.0 2.0 0.0
0.4 2.0 0.0
0.8 2.0 0.0
1.2000000000000002 2.0 0.0
1.6 2.0 0.0
2.0 2.0 0.0
2.4000000000000004 2.0 0.0
2.8000000000000003 2.0 0.0
3.2 2.0 0.0
3.6 2.0 0.0
4.0 2.0 0.0
4.4 2.0 0.0
4.800000000000001 2.0 0.0
5.2 2.0 0.0
5.6000000000000005 2.0 0.0
6.0 2.0 0.0
6.4 2.0 0.0
6.800000000000001 2.0 0.0
7.2 2.0 0.0
7.6000000000000005 2.0 0.0
8.0 2.0 0.0
8.4 2.0 0.0
8.8 2.0 0.0
9.200000000000001 2.0 0.0
9.600000000000001 2.0 0.0
10.0 2.0 0.0
10.4 2.0 0.0
10.8 2.0 0.0
11.200000000000001 2.0 0.0
11.600000000000001 2.0 0.0
12.0 2.0 0.0
12.4 2.0 0.0
12.8 2.0 0.0
13.200000000000001 2.0 0.0
13.600000000000001 2.0 0.0
14.0 2.0 0.0
14.4 2.0 0.0
14.8 2.0 0.0
15.200000000000001 2.0 0.0
15.600000000000001 2.0 0.0
16.0 2.0 0.0
CELLS 800 4000
4 0 1 42 41
4 1 2 43 42
4 2 3 44 43
4 3 4 45 44
4 4 5 46 45
4 5 6 47 46
4 6 7 48 47
4 7 8 49 48
4 8 9 50 49
4 9 10 51 50
4 10 11 52 51
4 11 12 53 52
4 12 13 54 53
4 13 14 55 54
4 14 15 56 55
4 15 16 57 56
4 16 17 58 57
4 17 18 59 58
4 18 19 60 59
4 19 20 61 60
4 20 21 62 61
4 21 22 63 62
4 22 23 64 63
4 23 24 65 64
4 24 25 66 65
4 25 26 67 66
4 26 27 68 67
4 27 28 69 68
4 28 29 70 69
4 29 30 71 70
4 30 31 72 71
4 31 32 73 72
4 32 33 74 73
4 33 34 75 74
4 34 35 76 75
4 35 36 77 76
4 36 37 78 77
4 37 38 79 78
4 38 39 80 79
4 39 40 81 80
4 41 42 83 82
4 42 43 84 83
4 43 44 85 84
4 44 45 86 85
4 45 46 87 86
4 46 47 88 87
4 47 48 89 88
4 48 49 90 89
4 49 50 91 90
4 50 51 92 91
4 51 52 93 92
4 52 53 94 93
4 53 54 95 94
4 54 55 96 95
4 55 56 97 96
4 56 57 98 97
4 57 58 99 98
4 58 59 100 99
4 59 60 101 100
4 60 61 102 101
4 61 62 103 102
4 62 63 104 103
4 63 64 105 104
4 64 65 106 105
4 65 66 107 106
4 66 67 108 107
4 67 68 109 108
4 68 69 110 109
4 69 70 111 110
4 70 71 112 111
4 71 72 113 112
4 72 73 114 113
4 73 74 115 114
4 74 75 116 115
4 75 76 117 116
4 76 77 118 117
4 77 78 119 118
4 78 79 120 119
4 79 80 121 120
4 80 81 122 121
4 82 83 124 123
4 83 84 125 124
4 84 85 126 125
4 85 86 127 126
4 86 87 128 127
4 87 88 129 128
4 88 89 130 129
4 89 90 131 130
4 90 91 132 131
4 91 92 133 132
4 92 93 134 133
4 93 94 135 134
4 94 95 136 135
4 95 96 137 136
4 96 97 138 137
4 97 98 139 138
4 98 99 140 139
4 99 100 141 140
4 100 101 142 141
4 101 102 143 142
4 102 103 144 143
4 103 104 145 144
4 104 105 146 145
4 105 106 147 146
4 106 107 148 147
4 107 108 149 148
4 108 109 150 149
4 109 110 151 150
4 110 111 152 151
4 111 112 153 152
4 112 113 154 153
4 113 114 155 154
4 114 115 156 155
4 115 116 157 156
4 116 117 158 157
4 117 118 159 158
4 118 119 160 159
4 119 120 161 160
4 120 121 162 161
4 121 122 163 162
4 123 124 165 164
4 124 125 166 165
4 125 126 167 166
4 126 127 168 167
4 127 128 169 168
4 128 129 170 169
4 129 130 171 170
4 130 131 172 171
4 131 132 173 172
4 132 133 174 173
4 133 134 175 174
4 134 135 176 175
4 135 136 177 176
4 136 137 178 177
4 137 138 179 178
4 138 139 180 179
4 139 140 181 180
4 140 141 182 181
4 141 142 183 182
4 142 143 184 183
4 143 144 185 184
4 144 145 186 185
4 145 146 187 186
4 146 147 188 187
4 147 148 189 188
4 148 149 190 189
4 149 150 191 190
4 150 151 192 191
4 151 152 193 192
4 152 153 194 193
4 153 154 195 194
4 154 155 196 195
4 155 156 197 196
4 156 157 198 197
4 157 158 199 198
4 158 159 200 199
4 159 160 201 200
4 160 161 202 201
4 161 162 203 202
4 162 163 204 203
4 164 165 206 205
4 165 166 207 206
4 166 167 208 207
4 167 168 209 208
4 168 169 210 209
4 169 170 211 210
4 170 171 212 211
4 171 172 213 212
4 172 173 214 213
4 173 174 215 214
4 174 175 216 215
4 175 176 217 216
4 176 177 218 217
4 177 178 219 218
4 178 179 220 219
4 179 180 221 220
4 180 181 222 221
4 181 182 223 222
4 182 183 224 223
4 183 184 225 224
4 184 185 226 225
4 185 186 227 226
4 186 187 228 227
4 187 188 229 228
4 188 189 230 229
4 189 190 231 230
4 190 191 232 231
4 191 192 233 232
4 192 193 234 233
4 193 194 235 234
4 194 195 236 235
4 195 196 237 236
4 196 197 238 237
4 197 198 239 238
4 198 199 240 239
4 199 200 241 240
4 200 201 242 241
4 201 202 243 242
4 202 203 244 243
4 203 204 245 244
4 205 206 247 246
4 206 207 248 247
4 207 208 249 248
4 208 209 250 249
4 209 210 251 250
4 210 211 252 251
4 211 212 253 252
4 212 213 254 253
4 213 214 255 254
4 214 215 256 255
4 215 216 257 256
4 216 217 258 257
4 217 218 259 258
4 218 219 260 259
4 219 220 261 260
4 220 221 262 261
4 221 222 263 262
4 222 223 264 263
4 223 224 265 264
4 224 225 266 265
4 225 226 267 266
4 226 227 268 267
4 227 228 269 268
4 228 229 270 269
4 229 230 271 270
4 230 231 272 271
4 231 232 273 272
4 232 233 274 273
4 233 234 275 274
4 234 235 276 275
4 235 236 277 276
4 236 237 278 277
4 237 238 279 278
4 238 239 280 279
4 239 240 281 280
4 240 241 282 281
4 241 242 283 282
4 242 243 284 283
4 243 244 285 284
4 244 245 286 285
4 246 247 288 287
4 247 248 289 288
4 248 249 290 289
4 249 250 291 290
4 250 251 292 291
4 251 252 293 292
4 252 253 294 293
4 253 254 295 294
4 254 255 296 295
4 255 256 297 296
4 256 257 298 297
4 257 258 299 298
4 258 259 300 299
4 259 260 301 300
4 260 261 302 301
4 261 262 303 302
4 262 263 304 303
4 263 264 305 304
4 264 265 306 305
4 265 266 307 306
4 266 267 308 307
4 267 268 309 308
4 268 269 310 309
4 269 270 311 310
4 270 271 312 311
4 271 272 313 312
4 272 273 314 313
4 273 274 315 314
4 274 275 316 315
4 275 276 317 316
4 276 277 318 317
4 277 278 319 318
4 278 279 320 319
4 279 280 321 320
4 280 281 322 321
4 281 282 323 322
4 282 283 324 323
4 283 284 325 324
4 284 285 326 325
4 285 286 327 326
4 287 288 329 328
4 288 289 330 329
4 289 290 331 330
4 290 291 332 331
4 291 292 333 332
4 292 293 334 333
4 293 294 335 334
4 294 295 336 335
4 295 296 337 336
4 296 297 338 337
4 297 298 339 338
4 298 299 340 339
4 299 300 341 340
4 300 301 342 341
4 301 302 343 342
4 302 303 344 343
4 303 304 345 344
4 304 305 346 345
4 305 306 347 346
4 306 307 348 347
4 307 308 349 348
4 308 309 350 349
4 309 310 351 350
4 310 311 352 351
4 311 312 353 352
4 312 313 354 353
4 313 314 355 354
4 314 315 356 355
4 315 316 357 356
4 316 317 358 357
4 317 318 359 358
4 318 319 360 359
4 319 320 361 360
4 320 321 362 361
4 321 322 363 362
4 322 323 364 363
4 323 324 365 364
4 324 325 366 365
4 325 326 367 366
4 326 327 368 367
4 328 329 370 369
4 329 330 371 370
4 330 331 372 371
4 331 332 373 372
4 332 333 374 373
4 333 334 375 374
4 334 335 376 375
4 335 336 377 376
4 336 337 378 377
4 337 338 379 378
4 338 339 380 379
4 339 340 381 380
4 340 341 382 381
4 341 342 383 382
4 342 343 384 383
4 343 344 385 384
4 344 345 386 385
4 345 346 387 386
4 346 347 388 387
4 347 348 389 388
4 348 349 390 389
4 349 350 391 390
4 350 351 392 391
4 351 352 393 392
4 352 353 394 393
4 353 354 395 394
4 354 355 396 395
4 355 356 397 396
4 356 357 398 397
4 357 358 399 398
4 358 359 400 399
4 359 360 401 400
4 360 361 402 401
4 361 362 403 402
4 362 363 404 403
4 363 364 405 404
4 364 365 406 405
4 365 366 407 406
4 366 367 408 407
4 367 368 409 408
4 369 370 411 410
4 370 371 412 411
4 371 372 413 412
4 372 373 414 413
4 373 374 415 414
4 374 375 416 415
4 375 376 417 416
4 376 377 418 417
4 377 378 419 418
4 378 379 420 419
4 379 380 421 420
4 380 381 422 421
4 381 382 423 422
4 382 383 424 423
4 383 384 425 424
4 384 385 426 425
4 385 386 427 426
4 386 387 428 427
4 387 388 429 428
4 388 389 430 429
4 389 390 431 430
4 390 391 432 431
4 391 392 433 432
4 392 393 434 433
4 393 394 435 434
4 394 395 436 435
4 395 396 437 436
4 396 397 438 437
4 397 398 439 438
4 398 399 440 439
4 399 400 441 440
4 400 401 442 441
4 401 402 443 442
4 402 403 444 443
4 403 404 445 444
4 404 405 446 445
4 405 406 447 446
4 406 407 448 447
4 407 408 449 448
4 408 409 450 449
4 410 411 452 451
4 411 412 453 452
4 412 413 454 453
4 413 414 455 454
4 414 415 456 455
4 415 416 457 456
4 416 417 458 457
4 417 418 459 458
4 418 419 460 459
4 419 420 461 460
4 420 421 462 461
4 421 422 463 462
4 422 423 464 463
4 423 424 465 464
4 424 425 466 465
4 425 426 467 466
4 426 427 468 467
4 427 428 469 468
4 428 429 470 469
4 429 430 471 470
4 430 431 472 471
4 431 432 473 472
4 432 433 474 473
4 433 434 475 474
4 434 435 476 475
4 435 436 477 476
4 436 437 478 477
4 437 438 479 478
4 438 439 480 479
4 439 440 481 480
4 440 441 482 481
4 441 442 483 482
4 442 443 484 483
4 443 444 485 484
4 444 445 486 485
4 445 446 487 486
4 446 447 488 487
4 447 448 489 488
4 448 449 490 489
4 449 450 491 490
4 451 452 493 492
4 452 453 494 493
4 453 454 495 494
4 454 455 496 495
4 455 456 497 496
4 456 457 498 497
4 457 458 499 498
4 458 459 500 499
4 459 460 501 500
4 460 461 502 501
4 461 462 503 502
4 462 463 504 503
4 463 464 505 504
4 464 465 506 505
4 465 466 507 506
4 466 467 508 507
4 467 468 509 508
4 468 469 510 509
4 469 470 511 510
4 470 471 512 511
4 471 472 513 512
4 472 473 514 513
4 473 474 515 514
4 474 475 516 515
4 475 476 517 516
4 476 477 518 517
4 477 478 519 518
4 478 479 520 519
4 479 480 521 520
4 480 481 522 521
4 481 482 523 522
4 482 483 524 523
4 483 484 525 524
4 484 485 526 525
4 485 486 527 526
4 486 487 528 527
4 487 488 529 528
4 488 489 530 529
4 489 490 531 530
4 490 491 532 531
4 492 493 534 533
4 493 494 535 534
4 494 495 536 535
4 495 496 537 536
4 496 497 538 537
4 497 498 539 538
4 498 499 540 539
4 499 500 541 540
4 500 501 542 541
4 501 502 543 542
4 502 503 544 543
4 503 504 545 544
4 504 505 546 545
4 505 506 547 546
4 506 507 548 547
4 507 508 549 548
4 508 509 550 549
4 509 510 551 550
4 510 511 552 551
4 511 512 553 552
4 512 513 554 553
4 513 514 555 554
4 514 515 556 555
4 515 516 557 556
4 516 517 558 557
4 517 518 559 558
4 518 519 560 559
4 519 520 561 560
4 520 521 562 561
4 521 522 563 562
4 522 523 564 563
4 523 524 565 564
4 524 525 566 565
4 525 526 567 566
4 526 527 568 567
4 527 528 569 568
4 528 529 570 569
4 529 530 571 570
4 530 531 572 571
4 531 532 573 572
4 533 534 575 574
4 534 535 576 575
4 535 536 577 576
4 536 537 578 577
4 537 538 579 578
4 538 539 580 579
4 539 540 581 580
4 540 541 582 581
4 541 542 583 582
4 542 543 584 583
4 543 544 585 584
4 544 545 586 585
4 545 546 587 586
4 546 547 588 587
4 547 548 589 588
4 548 549 590 589
4 549 550 591 590
4 550 551 592 591
4 551 552 593 592
4 552 553 594 593
4 553 554 595 594
4 554 555 596 595
4 555 556 597 596
4 556 557 598 597
4 557 558 599 598
4 558 559 600 599
4 559 560 601 600
4 560 561 602 601
4 561 562 603 602
4 562 563 604 603
4 563 564 605 604
4 564 565 606 605
4 565 566 607 606
4 566 567 608 607
4 567 568 609 608
4 568 569 610 609
4 569 570 611 610
4 570 571 612 611
4 571 572 613 612
4 572 573 614 613
4 574 575 616 615
4 575 576 617 616
4 576 577 618 617
4 577 578 619 618
4 578 579 620 619
4 579 580 621 620
4 580 581 622 621
4 581 582 623 622
4 582 583 624 623
4 583 584 625 624
4 584 585 626 625
4 585 586 627 626
4 586 587 628 627
4 587 588 629 628
4 588 589 630 629
4 589 590 631 630
4 590 591 632 631
4 591 592 633 632
4 592 593 634 633
4 593 594 635 634
4 594 595 636 635
4 595 596 637 636
4 596 597 638 637
4 597 598 639 638
4 598 599 640 639
4 599 600 641 640
4 600 601 642 641
4 601 602 643 642
4 602 603 644 643
4 603 604 645 644
4 604 605 646 645
4 605 606 647 646
4 606 607 648 647
4 607 608 649 648
4 608 609 650 649
4 609 610 651 650
4 610 611 652 651
4 611 612 653 652
4 612 613 654 653
4 613 614 655 654
4 615 616 657 656
4 616 617 658 657
4 617 618 659 658
4 618 619 660 659
4 619 620 661 660
4 620 621 662 661
4 621 622 663 662
4 622 623 664 663
4 623 624 665 664
4 624 625 666 665
4 625 626 667 666
4 626 627 668 667
4 627 628 669 668
4 628 629 670 669
4 629 630 671 670
4 630 631 672 671
4 631 632 673 672
4 632 633 674 673
4 633 634 675 674
4 634 635 676 675
4 635 636 677 676
4 636 637 678 677
4 637 638 679 678
4 638 639 680 679
4 639 640 681 680
4 640 641 682 681
4 641 642 683 682
4 642 643 684 683
4 643 644 685 684
4 644 645 686 685
4 645 646 687 686
4 646 647 688 687
4 647 648 689 688
4 648 649 690 689
4 649 650 691 690
4 650 651 692 691
4 651 652 693 692
4 652 653 694 693
4 653 654 695 694
4 654 655 696 695
4 656 657 698 697
4 657 658 699 698
4 658 659 700 699
4 659 660 701 700
4 660 661 702 701
4 661 662 703 702
4 662 663 704 703
4 663 664 705 704
4 664 665 706 705
4 665 666 707 706
4 666 667 708 707
4 667 668 709 708
4 668 669 710 709
4 669 670 711 710
4 670 671 712 711
4 671 672 713 712
4 672 673 714 713
4 673 674 715 714
4 674 675 716 715
4 675 676 717 716
4 676 677 718 717
4 677 678 719 718
4 678 679 720 719
4 679 680 721 720
4 680 681 722 721
4 681 682 723 722
4 682 683 724 723
4 683 684 725 724
4 684 685 726 725
4 685 686 727 726
4 686 687 728 727
4 687 688 729 728
4 688 689 730 729
4 689 690 731 730
4 690 691 732 731
4 691 692 733 732
4 692 693 734 733
4 693 694 735 734
4 694 695 736 735
4 695 696 737 736
4 697 698 739 738
4 698 699 740 739
4 699 700 741 740
4 700 701 742 741
4 701 702 743 742
4 702 703 744 743
4 703 704 745 744
4 704 705 746 745
4 705 706 747 746
4 706 707 748 747
4 707 708 749 748
4 708 709 750 749
4 709 710 751 750
4 710 711 752 751
4 711 712 753 752
4 712 713 754 753
4 713 714 755 754
4 714 715 756 755
4 715 716 757 756
4 716 717 758 757
4 717 718 759 758
4 718 719 760 759
4 719 720 761 760
4 720 721 762 761
4 721 722 763 762
4 722 723 764 763
4 723 724 765 764
4 724 725 766 765
4 725 726 767 766
4 726 727 768 767
4 727 728 769 768
4 728 729 770 769
4 729 730 771 770
4 730 731 772 771
4 731 732 773 772
4 732 733 774 773
4 733 734 775 774
4 734 735 776 775
4 735 736 777 776
4 736 737 778 777
4 738 739 780 779
4 739 740 781 780
4 740 741 782 781
4 741 742 783 782
4 742 743 784 783
4 743 744 785 784
4 744 745 786 785
4 745 746 787 786
4 746 747 788 787
4 747 748 789 788
4 748 749 790 789
4 749 750 791 790
4 750 751 792 791
4 751 752 793 792
4 752 753 794 793
4 753 754 795 794
4 754 755 796 795
4 755 756 797 796
4 756 757 798 797
4 757 758 799 798
4 758 759 800 799
4 759 760 801 800
4 760 761 802 801
4 761 762 803 802
4 762 763 804 803
4 763 764 805 804
4 764 765 806 805
4 765 766 807 806
4 766 767 808 807
4 767 768 809 808
4 768 769 810 809
4 769 770 811 810
4 770 771 812 811
4 771 772 813 812
4 772 773 814 813
4 773 774 815 814
4 774 775 816 815
4 775 776 817 816
4 776 777 818 817
4 777 778 819 818
4 779 780 821 820
4 780 781 822 821
4 781 782 823 822
4 782 783 824 823
4 783 784 825 824
4 784 785 826 825
4 785 786 827 826
4 786 787 828 827
4 787 788 829 828
4 788 789 830 829
4 789 790 831 830
4 790 791 832 831
4 791 792 833 832
4 792 793 834 833
4 793 794 835 834
4 794 795 836 835
4 795 796 837 836
4 796 797 838 837
4 797 798 839 838
4 798 799 840 839
4 799 800 841 840
4 800 801 842 841
4 801 802 843 842
4 802 803 844 843
4 803 804 845 844
4 804 805 846 845
4 805 806 847 846
4 806 807 848 847
4 807 808 849 848
4 808 809 850 849
4 809 810 851 850
4 810 811 852 851
4 811 812 853 852
4 812 813 854 853
4 813 814 855 854
4 814 815 856 855
4 815 816 857 856
4 816 817 858 857
4 817 818 859 858
4 818 819 860 859
CELL_TYPES 800
9
9
9
9
9
9
9
9
9
9
9
9
9
9
9
9
9
9
9
9
9
9
9
9
9
9
9
9
9
9
9
9
9
9
9
9
9
9
9
9
9
9
9
9
9
9
9
9
9
9
9
9
9
9
9
9
9
9
9
9
9
9
9
9
9
9
9
9
9
9
9
9
9
9
9
9
9
9
9
9
9
9
9
9
9
9
9
9
9
9
9
9
9
9
9
9
9
9
9
9
9
9
9
9
9
9
9
9
9
9
9
9
9
9
9
9
9
9
9
9
9
9
9
9
9
9
9
9
9
9
9
9
9
9
9
9
9
9
9
9
9
9
9
9
9
9
9
9
9
9
9
9
9
9
9
9
9
9
9
9
9
9
9
9
9
9
9
9
9
9
9
9
9
9
9
9
9
9
9
9
9
9
9
9
9
9
9
9
9
9
9
9
9
9
9
9
9
9
9
9
9
9
9
9
9
9
9
9
9
9
9
9
9
9
9
9
9
9
9
9
9
9
9
9
9
9
9
9
9
9
9
9
9
9
9
9
9
9
9
9
9
9
9
9
9
9
9
9
9
9
9
9
9
9
9
9
9
9
9
9
9
9
9
9
9
9
9
9
9
9
9
9
9
9
9
9
9
9
9
9
9
9
9
9
9
9
9
9
9
9
9
9
9
9
9
9
9
9
9
9
9
9
9
9
9
9
9
9
9
9
9
9
9
9
9
9
9
9
9
9
9
9
9
9
9
9
9
9
9
9
9
9
9
9
9
9
9
9
9
9
9
9
9
9
9
9
9
9
9
9
9
9
9
9
9
9
9
9
9
9
9
9
9
9
9
9
9
9
9
9
9
9
9
9
9
9
9
9
9
9
9
9
9
9
9
9
9
9
9
9
9
9
9
9
9
9
9
9
9
9
9
9
9
9
9
9
9
9
9
9
9
9
9
9
9
9
9
9
9
9
9
9
9
9
9
9
9
9
9
9
9
9
9
9
9
9
9
9
9
9
9
9
9
9
9
9
9
9
9
9
9
9
9
9
9
9
9
9
9
9
9
9
9
9
9
9
9
9
9
9
9
9
9
9
9
9
9
9
9
9
9
9
9
9
9
9
9
9
9
9
9
9
9
9
9
9
9
9
9
9
9
9
9
9
9
9
9
9
9
9
9
9
9
9
9
9
9
9
9
9
9
9
9
9
9
9
9
9
9
9
9
9
9
9
9
9
9
9
9
9
9
9
9
9
9
9
9
9
9
9
9
9
9
9
9
9
9
9
9
9
9
9
9
9
9
9
9
9
9
9
9
9
9
9
9
9
9
9
9
9
9
9
9
9
9
9
9
9
9
9
9
9
9
9
9
9
9
9
9
9
9
9
9
9
9
9
9
9
9
9
9
9
9
9
9
9
9
9
9
9
9
9
9
9
9
9
9
9
9
9
9
9
9
9
9
9
9
9
9
9
9
9
9
9
9
9
9
9
9
9
9
9
9
9
9
9
9
9
9
9
9
9
9
9
9
9
9
9
9
9
9
9
9
9
9
9
9
9
9
9
9
9
9
9
9
9
9
9
9
9
9
9
9
9
9
9
9
9
9
9
9
9
9
9
9
9
9
9
9
9
9
9
9
9
9
9
9
9
9
9
9
9
9
9
9
9
9
9
9
9
9
9
9
9
9
9
9
9
9
9
9
9
9
9
9
9
9
9
9
9
9
9
9
9
9
9
9
9
9
9
9
9
9
9
9
9
9
9
9
9
9
9
9
9
9
9
9
9
9
9
9
9
9
9
9
9
9
9
9
9
9
9
9
9
9
9
9
9
9
9
POINT_DATA 861
SCALARS Disp float 2
LOOKUP_TABLE default
0.0 0.0
0.0028934042992823073 -0.08723067958665699
0.003774159181331126 -0.16911915797534985
0.00445863081979519 -0.2505653824496486
0.005257959156495471 -0.3317252036426959
0.006275576058856656 -0.4124792510602546
0.007699261286814936 -0.49265919207443964
0.009643865476548592 -0.5720993236040712
0.012232748303863405 -0.6505878948638265
0.01561474132835942 -0.7278434030779921
0.019983096532686755 -0.8034853411379625
0.025628079987385467 -0.8769930640478099
0.03298319089518527 -0.9476681889444786
0.04260725059847242 -1.0146355074915916
0.055161962645618956 -1.076858440000147
0.07132106516256047 -1.1331518088388035
0.09162101952200391 -1.182189192516751
0.11627690041253383 -1.222525453138583
0.14502430139167455 -1.2527075768404117
0.17706382197863949 -1.2714995712831758
0.21107610065645568 -1.278107967243872
0.24508837933427166 -1.2714995712831536
0.27712789992123366 -1.2527075768403646
0.3058753009003693 -1.2225254531385152
0.3305311817908927 -1.1821891925166663
0.35083113615032996 -1.1331518088387085
0.3669902386672657 -1.0768584400000425
0.3795449507144058 -1.0146355074914801
0.3891690104176858 -0.9476681889443637
0.39652412132547854 -0.8769930640476945
0.4021691047801706 -0.8034853411378499
0.4065374599844923 -0.7278434030778846
0.40991945300898364 -0.6505878948637254
0.4125083358362944 -0.5720993236039784
0.41445294002602484 -0.4926591920743559
0.4158766252539807 -0.4124792510601826
0.41689424215634074 -0.3317252036426356
0.4176935704930405 -0.25056538244960125
0.4183780421315043 -0.16911915797531493
0.41925879701355256 -0.08723067958663562
0.42215220131283354 0.0
0.02178401446750902 -0.0013856237013332886
0.023660886167518873 -0.08726232762811083
0.024150467832512634 -0.169195155847042
0.024779140034894544 -0.25063755766101314
0.025495784723620428 -0.3318137751284788
0.026394634938125165 -0.4126183264799164
0.027653282350658465 -0.49288588214926454
0.02938661665449029 -0.5724373684176768
0.031704573025634945 -0.6510681481607287
0.03473371748967501 -0.7285028100222087
0.0386419838237416 -0.804376902381087
0.04367987261482408 -0.8781998997428602
0.050226315413971274 -0.9493101956411862
0.058802309743146944 -1.0168624716953605
0.07002397192570772 -1.0798383149698287
0.08452575128277828 -1.1370400750642697
0.10281144625574337 -1.1870862677223288
0.12508677878420088 -1.2284340488155436
0.15112774794502282 -1.259505993328512
0.18021480731093145 -1.2789386724968017
0.211076100656453 -1.2857941726571465
0.2419373940019741 -1.278938672496779
0.2710244533678801 -1.2595059933284645
0.2970654225286978 -1.2284340488154748
0.3193407550571499 -1.187086267722243
0.3376264500301097 -1.1370400750641734
0.35212822938717486 -1.0798383149697228
0.36334989156972985 -1.0168624716952477
0.37192588589889924 -0.9493101956410699
0.37847232869804015 -0.8781998997427433
0.3835102174891167 -0.804376902380973
0.38741848382317806 -0.7285028100221
0.39044762828721397 -0.6510681481606266
0.3927655846583549 -0.5724373684175832
0.3944989189621838 -0.4928858821491802
0.39575756637471504 -0.4126183264798441
0.39665641658921885 -0.33181377512841836
0.39737306127794436 -0.25063755766096574
0.398001733480326 -0.16919515584700706
0.3984913151453199 -0.0872623276280895
0.40036818684532743 -0.001385623701331699
0.042966694830944466 -0.0024660243918858613
0.044283009945201984 -0.08726519551802943
0.04456151619591693 -0.16924061166972393
0.04507332214219283 -0.2507056492088146
0.04571415774153341 -0.3318906295299179
0.046506881090021504 -0.41273202374985896
0.047594677275352666 -0.49307515506456795
0.04911426906773738 -0.5727255300936857
0.05115850893617314 -0.6514818884264524
0.053834914709952206 -0.729073910495938
0.05728603513450199 -0.8051514028842668
0.06172628808081536 -0.8792488669063823
0.06748244742300494 -0.9507399238163179
0.07501838831016205 -1.0188131495014725
0.08491006139623138 -1.0824662163647834
0.09774237742535659 -1.1404905350320615
0.11398661498717162 -1.191454310326142
0.1338533843169207 -1.2337271699828842
0.15717127993830562 -1.2656199635445304
0.18329565118761343 -1.2856409731547305
0.21107610065645063 -1.2927284978037341
0.2388565501252872 -1.2856409731547076
0.2649809213745926 -1.265619963544482
0.2882988169959738 -1.2337271699828143
0.3081655863257185 -1.191454310326055
0.32440982388752887 -1.1404905350319643
0.33724213991664925 -1.0824662163646763
0.3471338130027133 -1.0188131495013586
0.35466975388986494 -0.9507399238162001
0.36042591323204903 -0.8792488669062641
0.36486616617835704 -0.8051514028841515
0.36831728660290225 -0.7290739104958285
0.37099369237667756 -0.6514818884263496
0.37303793224511 -0.5727255300935914
0.37455752403749215 -0.4930751550644831
0.37564532022282154 -0.4127320237497864
0.376438043571309 -0.33189062952985743
0.3770788791706492 -0.25070564920876715
0.377590685116925 -0.16924061166968904
0.37786919136764013 -0.08726519551800802
0.3791855064818953 -0.002466024391882707
0.06383025204438379 -0.0033274993094411145
0.06479529825768886 -0.08727123754107115
0.06495943213426893 -0.16926422113524278
0.06535330909190157 -0.25076194412293845
0.06590737197980412 -0.3319606650344255
0.0666072596380969 -0.4128243760550192
0.06753074093478342 -0.49322622043136194
0.06883146658959029 -0.5729651673878361
0.07060013844109096 -0.6518302060459726
0.07292405310646001 -0.7295585725566727
0.07592223612609089 -0.8058112330034335
0.07977313828030749 -0.8801447514780151
0.08475447566204496 -0.9519635386823114
0.09127108463165357 -1.0204905208407913
0.09983738398830691 -1.0847426480424145
0.11099472203980919 -1.1435001117552348
0.12518140670926048 -1.1952877102403883
0.1426149400030851 -1.2383996384120777
0.16318259700539559 -1.271045180550777
0.18634027386832017 -1.2916131643759763
0.21107610065644847 -1.2989297995392854
0.23581192744457607 -1.2916131643759532
0.2589696043074984 -1.271045180550728
0.2795372613098057 -1.2383996384120066
0.29697079460362663 -1.1952877102403008
0.31115747927307374 -1.1435001117551362
0.3223148173245717 -1.0847426480423064
0.33088111668122044 -1.0204905208406763
0.33739772565082427 -0.9519635386821924
0.342379063032557 -0.8801447514778957
0.34622996518676885 -0.8058112330033173
0.3492281482063958 -0.7295585725565624
0.3515520628717615 -0.6518302060458693
0.3533207347232592 -0.5729651673877413
0.35462146037806386 -0.49322622043127684
0.3555449416747491 -0.4128243760549465
0.35624482933304136 -0.331960665034365
0.3567988922209436 -0.25076194412289093
0.3571927691785762 -0.16926422113520792
0.3573569030551564 -0.0872712375410496
0.3583219492684594 -0.0033274993094365886
0.08450490040261284 -0.004017596235373316
0.08522502805149881 -0.08728747938659906
0.0853264451242319 -0.16927520765362586
0.08561784615339976 -0.25080473125802594
0.08607857321114339 -0.3320220153449753
0.08668384783338914 -0.412903216164842
0.08746722565147752 -0.49334266540266514
0.08854387902887587 -0.5731565399735296
0.0900352816430105 -0.6521150199372515
0.09200751244060802 -0.7299589690203208
0.09455665980289797 -0.8063599597562121
0.09782808836241719 -0.880891743960247
0.10204953801514745 -0.9529868984498546
0.10756438675774369 -1.0219008097527136
0.11482581440642123 -1.0866697535240832
0.12431167871532962 -1.1460678930059698
0.136430055989637 -1.1985829684582185
0.15140956782856935 -1.2424456600657643
0.16919841458230364 -1.2757769934567524
0.18937391997605346 -1.29685835935521
0.21107610065644647 -1.3044078875927883
0.23277828133683864 -1.2968583593551863
0.2529537867305863 -1.275776993456703
0.2707426334843179 -1.2424456600656928
0.28572214532324686 -1.1985829684581302
0.2978405225975506 -1.1460678930058703
0.3073263869064553 -1.0866697535239744
0.31458781455512896 -1.0219008097525977
0.32010266329772114 -0.9529868984497347
0.3243241129504473 -0.8808917439601269
0.3275955415099625 -0.8063599597560951
0.33014468887224907 -0.7299589690202097
0.3321169196698437 -0.6521150199371474
0.33360832228397586 -0.5731565399734343
0.33468497566137234 -0.4933426654025798
0.33546835347945986 -0.41290321616476927
0.33607362810170516 -0.33202201534491466
0.3365343551594485 -0.2508047312579784
0.3368257561886164 -0.16927520765359103
0.33692717326134947 -0.08728747938657737
0.33764730091023376 -0.004017596235367642
0.10505335426488903 -0.004567997904263961
0.10559452048774 -0.08731378200517813
0.10565835108775001 -0.16927973201699467
0.1058640734021294 -0.250834948104125
0.10623030863709511 -0.3320727103862809
0.10673542236156473 -0.4129709192750515
0.10739190378196943 -0.4934337700027454
0.10826595960455435 -0.573299093477796
0.10947083645014283 -0.6523382390908061
0.11109215035242942 -0.7302780757980601
0.11319659887087401 -0.8068009186734051
0.11589734173152214 -0.8814951733452782
0.11937537473189479 -0.953816539281141
0.12391168764936501 -1.0230503260127208
0.12988490570077735 -1.0882536389463164
0.13771715050689096 -1.1481962681886577
0.1477725849314674 -1.2013382187431705
0.16027847657030775 -1.245859729062551
0.17525601089713905 -1.279809434434178
0.1924198267946999 -1.3013750328318372
0.2110761006564444 -1.3091665443502816
0.22973237451818806 -1.301375032831813
0.246896190415747 -1.2798094344341282
0.26187372474257586 -1.2458597290624789
0.2743796163814132 -1.2013382187430814
0.28443505080598663 -1.1481962681885576
0.2922672956120971 -1.0882536389462067
0.29824051366350623 -1.023050326012604
0.30277682658097305 -0.9538165392810204
0.3062548595813423 -0.8814951733451574
0.30895560244198716 -0.8068009186732875
0.31106005096042894 -0.7302780757979485
0.3126813648627131 -0.6523382390907015
0.31388624170829954 -0.5732990934777003
0.3147602975308832 -0.49343377000266
0.31541677895128717 -0.41297091927497875
0.31592189267575643 -0.33207271038622027
0.3162881279107219 -0.25083494810407747
0.31649385022510124 -0.16927973201695984
0.31655768082511127 -0.08731378200515635
0.317098847047961 -0.0045679979042573485
0.1255105724536632 -0.00500433723500503
0.1259196118685957 -0.08734798816461951
0.12595701919065458 -0.16928114803500777
0.12609057501139712 -0.2508542198625302
0.1263646559184037 -0.33211190257838874
0.1267648966684812 -0.413026998109949
0.12729392623088698 -0.4935074070675067
0.1279881392612063 -0.5734031671678395
0.12892197220287874 -0.652500336067098
0.13018601474647157 -0.730519087544095
0.13185043479946446 -0.8071386898109248
0.13398925407237952 -0.8819607519157443
0.13673994341957943 -0.9544598722711056
0.1403202435883923 -1.023947825654568
0.1450356811529586 -1.0895008110733941
0.1512330579246287 -1.1498909295324877
0.1592367312474757 -1.2035556420822393
0.169267389512859 -1.2486375219694403
0.1814000656247487 -1.2831344196559167
0.19550312429980843 -1.3051564940221638
0.2110761006564422 -1.3132041482277785
0.22664907701307527 -1.3051564940221394
0.2407521356881334 -1.2831344196558663
0.252884811800021 -1.2486375219693675
0.2629154700654017 -1.2035556420821498
0.27091914338824613 -1.1498909295323867
0.2771165201599137 -1.089500811073284
0.2818319577244775 -1.0239478256544505
0.2854122578932877 -0.9544598722709844
0.2881629472404849 -0.881960751915623
0.2903017665133974 -0.8071386898108067
0.291966186566388 -0.7305190875439829
0.29323022910997903 -0.6525003360669931
0.29416406205164997 -0.5734031671677435
0.2948582750819684 -0.4935074070674212
0.2953873046443736 -0.4130269981098762
0.2957875453944508 -0.3321119025783281
0.29606162630145727 -0.2508542198624827
0.29619518212219975 -0.1692811480349729
0.2962325894442585 -0.08734798816459767
0.2966416288591902 -0.005004337234997682
0.14590233585190177 -0.00534504408603028
0.14620847860619549 -0.08738960899869513
0.1462269853325496 -0.16928060947064355
0.1462978002762433 -0.25086416425998237
0.1464834598737438 -0.33213955397882644
0.14677683248238454 -0.41307016380783956
0.14717498026562348 -0.4935648632964878
0.14769682478191096 -0.5734797330634613
0.14838655225879244 -0.6526103641591808
0.14930532098040425 -0.7306849976756777
0.15052799183304613 -0.807378559752578
0.1521125699191669 -0.8822953687429393
0.1541516355694024 -0.9549257549421288
0.15680132601733096 -1.0246035106281413
0.16028879562128523 -1.0904224414519492
0.1648850496627673 -1.151159708491037
0.17085693735925672 -1.2052395440857329
0.17841145850513868 -1.2507786973475354
0.18767448587575342 -1.2857431063426823
0.19865340059452422 -1.3081901586983475
0.21107610065643986 -1.316513119982077
0.22349880071835504 -1.3081901586983227
0.23447771543712445 -1.2857431063426317
0.24374074280773747 -1.2507786973474624
0.25129526395361745 -1.205239544085643
0.2572671516501049 -1.1511597084909353
0.26186340569158495 -1.0904224414518384
0.26535087529553725 -1.0246035106280234
0.26800056574346415 -0.954925754942007
0.2700396313936975 -0.8822953687428177
0.2716242094798164 -0.8073785597524594
0.27284688033245674 -0.7306849976755653
0.2737656490540672 -0.6526103641590757
0.27445537653094776 -0.5734797330633653
0.27497722104723465 -0.49356486329640237
0.2753753688304732 -0.4130701638077668
0.2756687414391137 -0.33213955397876577
0.27585440103661407 -0.25086416425993485
0.2759252159803078 -0.16928060947060866
0.27594372270666184 -0.08738960899867328
0.276249865460955 -0.00534504408602238
0.16624315064231357 -0.00560966887106719
0.16647209237600175 -0.08743619962971777
0.1664720715910628 -0.16927868839897536
0.16648792744184593 -0.2508660628879048
0.1665891875179788 -0.33215590962772734
0.16677487317419076 -0.41309970414763475
0.1670385784292064 -0.4936062360733291
0.16738720358658396 -0.5735338545595753
0.16784759223901655 -0.6526822042220929
0.1684497792136043 -0.73078704058034
0.16924331905355822 -0.8075273361693911
0.1702806961865635 -0.8825081979863414
0.17162074274046427 -0.9552256458682156
0.17336427376923644 -1.0250311587939562
0.1756585641917534 -1.0910328171639994
0.1786923743176186 -1.1520156032318318
0.182662174351716 -1.2063987607365532
0.1877556339740469 -1.2522856059902583
0.19412727731873522 -1.2876278578770812
0.20190446403511184 -1.3104587461601205
0.21107610065643734 -1.3190803875017412
0.22024773727776256 -1.3104587461600952
0.22802492399413823 -1.28762785787703
0.2343965673388252 -1.2522856059901848
0.23949002696115465 -1.206398760736463
0.24345982699525073 -1.15201560323173
0.24649363712111458 -1.0910328171638881
0.24878792754363038 -1.0250311587938383
0.25053145857240156 -0.9552256458680934
0.2518715051263011 -0.8825081979862193
0.2529088822593052 -0.8075273361692723
0.2537024220992581 -0.7307870405802274
0.25430460907384506 -0.6526822042219876
0.25476499772627714 -0.5735338545594793
0.25511362288365436 -0.49360623607324355
0.2553773281386698 -0.41309970414756186
0.2555630137948816 -0.33215590962766667
0.2556642738710145 -0.25086606288785723
0.25568012972179754 -0.16927868839894047
0.2556801089368586 -0.08743619962969588
0.25590905067054637 -0.005609668871058918
0.18653790794397063 -0.005822619976417642
0.18671571597891523 -0.08748410057791443
0.18669731399746609 -0.16927559556313437
0.18666390489822843 -0.2508609373273291
0.1866847385502108 -0.33216131048842346
0.18676316164469284 -0.4131154045890637
0.18689039641550367 -0.493630492322394
0.18706433326148592 -0.5735663508947915
0.18729215261642718 -0.6527248423277804
0.18759569612057156 -0.730844080530601
0.18798709192000268 -0.8076040970286612
0.18850105378318013 -0.8826153581762326
0.1891589546353374 -0.955376761710347
0.1900171134385498 -1.025250944386477
0.1911519009126581 -1.0913542950633401
0.19266292571734608 -1.1524805547349328
0.19466824955653528 -1.207049825557692
0.19731359376449192 -1.2531699813959354
0.20079954486760987 -1.2887881039551363
0.20530882412177898 -1.3119408423461294
0.21107610065643467 -1.3208845008701833
0.21684337719109018 -1.311940842346104
0.22135265644525884 -1.288788103955085
0.22483860754837598 -1.2531699813958617
0.2274839517563317 -1.2070498255576017
0.2294892755955204 -1.1524805547348307
0.2310003004002078 -1.0913542950632287
0.23213508787431572 -1.0252509443863589
0.23299324667752783 -0.9553767617102249
0.23365114752968466 -0.8826153581761103
0.23416510939286164 -0.8076040970285423
0.23455650519229246 -0.7308440805304881
0.23486004869643656 -0.6527248423276751
0.23508786805137766 -0.5735663508946954
0.23526180489735973 -0.4936304923223085
0.2353890396681705 -0.41311540458899076
0.23546746276265254 -0.3321613104883628
0.23548829641463498 -0.25086093732728154
0.23545488731539732 -0.16927559556309948
0.23543648533394818 -0.0874841005778925
0.2356142933688926 -0.005822619976409142
0.20680357646221262 -0.005994497678661964
0.20694350500318592 -0.08753092810649354
0.20690782722783319 -0.16927117330466354
0.20682932253538247 -0.25084955833257044
0.2067734913294727 -0.33215622141434753
0.2067460648756167 -0.4131172033420269
0.20673596494538754 -0.4936373980955199
0.20673380773779526 -0.5735770409219763
0.20673412282077674 -0.6527387550013747
0.2067346689762775 -0.7308631071112692
0.20673502219339232 -0.8076285357527297
0.2067353183869648 -0.8826486807794307
0.20673546054420958 -0.9554206635105587
0.2067344123611615 -1.0253099710976827
0.20673198778042334 -1.0914393182410784
0.2067373533431849 -1.1526058413813969
0.2067875908240481 -1.2072371216772821
0.20699562670441618 -1.2534677931948328
0.2075993980231407 -1.2892571663035297
0.20887930121754283 -1.3126334905955974
0.21107610065643181 -1.3219054393653678
0.21327290009532093 -1.3126334905955723
0.21455280328972295 -1.2892571663034784
0.21515657460844725 -1.253467793194759
0.21536461048881533 -1.207237121677192
0.2154148479696788 -1.1526058413812945
0.2154202135324406 -1.091439318240967
0.21541778895170272 -1.0253099710975646
0.21541674076865505 -0.9554206635104366
0.21541688292590025 -0.8826486807793082
0.21541717911947303 -0.807628535752611
0.21541753233658809 -0.7308631071111563
0.21541807849208908 -0.6527387550012694
0.2154183935750707 -0.5735770409218801
0.2154162363674785 -0.49363739809543444
0.21540613643724948 -0.4131172033419539
0.2153787099833936 -0.33215622141428686
0.2153228787774839 -0.2508495583325228
0.21524437408503325 -0.16927117330462865
0.21520869630968056 -0.08753092810647159
0.21534862485065373 -0.005994497678653291
0.22705312352198878 -0.0061312496546075766
0.2271608615906909 -0.08757464997950394
0.22710862494448653 -0.16926522714931053
0.22698821950996537 -0.2508324693533292
0.22685919719915473 -0.33214117294373885
0.22672804825765472 -0.41310527212679793
0.22658154936865094 -0.49362691006795056
0.2264033798072892 -0.5735657399764758
0.22617618630783248 -0.6527250624640872
0.22587369505100766 -0.7308442665063181
0.2254829760160489 -0.8076042428963814
0.22496961990005424 -0.8826154549456203
0.22431205187868616 -0.9553765949885408
0.22345214220384363 -1.0252501101389255
0.2223123471721228 -1.0913537759753948
0.2208084448402407 -1.1524870596237948
0.218896452622713 -1.207089441569186
0.21663346580819734 -1.2533157571705957
0.21424168171396638 -1.2891660809157044
0.21213435418958315 -1.3126378376901688
0.21107610065642926 -1.3222467147534678
0.21001784712327526 -1.3126378376901435
0.20791051959889184 -1.2891660809156529
0.20551873550466151 -1.253315757170522
0.2032557486901468 -1.207089441569096
0.20134375647262023 -1.152487059623693
0.1998398541407391 -1.0913537759752838
0.19870005910901925 -1.0252501101388076
0.19784014943417788 -0.9553765949884189
0.19718258141281098 -0.8826154549454981
0.19666922529681743 -0.8076042428962625
0.19627850626185955 -0.7308442665062053
0.19597601500503542 -0.652725062463982
0.19574882150557915 -0.5735657399763797
0.19557065194421777 -0.4936269100678652
0.19542415305521427 -0.41310527212672504
0.1952930041137145 -0.3321411729436782
0.19516398180290404 -0.25083246935328163
0.195043576368383 -0.1692652271492756
0.19499133972217866 -0.08757464997948197
0.19509907779088068 -0.0061312496545987616
0.24729542333817453 -0.006237259828746522
0.24737375549936305 -0.08761363772735528
0.24730465164983378 -0.16925743348948322
0.247144836412229 -0.2508100927099367
0.24694589375895037 -0.33211672304956935
0.2467136837547711 -0.4130799679398438
0.2464330444705218 -0.4935992904325831
0.2460808916430962 -0.5735326962951811
0.24562103198390184 -0.6526826367723217
0.24501976038123346 -0.7307874153120067
0.24422680771732352 -0.8075276010187592
0.2431898972172674 -0.8825084194511286
0.24185045698510366 -0.9552254411872668
0.24010638587092306 -1.0250293866322375
0.23780694647800674 -1.0910308939933502
0.2347731895012639 -1.1520289246211002
0.23087678933390957 -1.2064833883699748
0.2261231399957069 -1.252588587560309
0.2207334291335243 -1.288398786040497
0.21532469755882055 -1.3120224324511003
0.21107610065642668 -1.3220319834907817
0.20682750375403236 -1.3120224324510752
0.20141877217932885 -1.2883987860404458
0.19602906131714745 -1.2525885875602356
0.1912754119789466 -1.2064833883698851
0.18737901181159416 -1.1520289246209985
0.18434525483485298 -1.0910308939932392
0.18204581544193835 -1.0250293866321198
0.18030174432775967 -0.9552254411871453
0.17896230409559793 -0.8825084194510064
0.17792539359554374 -0.8075276010186407
0.17713244093163538 -0.7307874153118942
0.17653116932896815 -0.6526826367722166
0.1760713096697746 -0.5735326962950851
0.17571915684234957 -0.4935992904324976
0.1754385175581007 -0.4130799679397709
0.17520630755392178 -0.33211672304950873
0.17500736490064336 -0.2508100927098891
0.17484754966303875 -0.1692574334894483
0.17477844581350951 -0.08761363772733326
0.174856777974698 -0.00623725982873761
0.26753665681611044 -0.006316543294057923
0.2675877685853686 -0.08764668516513655
0.2675009701766094 -0.16924735637575467
0.26730357181785563 -0.25078277471200955
0.2670377603641574 -0.33208341560739146
0.26670766181284356 -0.4130419164939381
0.26629655999003543 -0.49355495465089705
0.26577181922668514 -0.5734781380366979
0.2650825262896184 -0.6526110010205043
0.2641644913098082 -0.7306855757379971
0.2629422496848783 -0.807378946769256
0.2613578896645941 -0.8822957276381463
0.25931973560511695 -0.9549257427344996
0.2566717484884068 -1.024601264021401
0.25318243099533627 -1.0904188178926026
0.2485813856861457 -1.1511764288428463
0.2426502262010328 -1.2053596031564022
0.23533791151973618 -1.25121317129818
0.22691646541371202 -1.2868863475742254
0.21824886762558374 -1.3106399778402251
0.21107610065642404 -1.321258883254801
0.20390333368726418 -1.3106399778402
0.1952357358991364 -1.286886347574174
0.18681428979311404 -1.2512131712981067
0.17950197511181976 -1.2053596031563127
0.1735708156267096 -1.151176428842745
0.16896977031752122 -1.090418817892492
0.16548045282445306 -1.0246012640212838
0.16283246570774557 -0.9549257427343786
0.16079431164827113 -0.8822957276380247
0.1592099516279897 -0.8073789467691379
0.15798771000306214 -0.7306855757378848
0.15706967502325364 -0.6526110010203993
0.15638038208618815 -0.5734781380366019
0.15585564132283863 -0.4935549546508117
0.15544453950003112 -0.41304191649386535
0.1551144409487177 -0.33208341560733085
0.15484862949501974 -0.250782774711962
0.1546512311362662 -0.16924735637571975
0.15456443272750706 -0.08764668516511451
0.1546155444967652 -0.006316543294048935
0.28778164986493104 -0.006372873281471023
0.2878078090550397 -0.08767305029721817
0.2877024860113565 -0.1692345206934257
0.2874688212600598 -0.25075077308287297
0.2871389230600106 -0.3320418770260828
0.2867147852650726 -0.4129916507547621
0.2861766732796463 -0.49349488275895365
0.28548144330238556 -0.5734013229165029
0.2845477098660214 -0.652501164327146
0.28328414358873966 -0.7305198704301871
0.281619817526516 -0.8071391243951163
0.2794810218630166 -0.881961210573503
0.27673138422718657 -0.9544603131821905
0.27315582982092906 -1.023946264011742
0.2684465313672714 -1.089496644005767
0.26224556834114526 -1.1499075088291284
0.25423828812708077 -1.2036926962060253
0.24432316099558501 -1.2491661392000042
0.2328524825888798 -1.2846128533809238
0.2209822413917016 -1.3085098958907053
0.21107610065642146 -1.319947280592109
0.20116995992114164 -1.30850989589068
0.18929971872396428 -1.2846128533808727
0.17782904031726124 -1.2491661391999314
0.16791391318576837 -1.2036926962059367
0.15990663297170726 -1.149907508829028
0.15370566994558396 -1.0894966440056566
0.14899637149192924 -1.0239462640116255
0.1454208170856751 -0.95446031318207
0.1426711794498485 -0.881961210573382
0.14053238378635255 -0.8071391243949988
0.1388680577241319 -0.7305198704300752
0.1376044914468525 -0.6525011643270412
0.13667075801049017 -0.5734013229164071
0.1359755280332305 -0.49349488275886827
0.1354374160478049 -0.4129916507546894
0.1350132782528675 -0.3320418770260222
0.13468338005281863 -0.25075077308282545
0.1344497153015221 -0.16923452069339082
0.134344392257839 -0.08767305029719612
0.1343705514479477 -0.0063728732814619755
0.30803422581828643 -0.006409937207005441
0.30803812975467315 -0.0876924010662663
0.3079139257757948 -0.1692184989197441
0.30764518563814564 -0.25071433687090383
0.30725383356009545 -0.3319926416958331
0.30673957640919947 -0.4129302799167787
0.3060794888603498 -0.49341952355539603
0.3052045127995498 -0.5732969910698199
0.30399968190466164 -0.652339246195045
0.30237831812705535 -0.7302789760209217
0.30027371276780285 -0.8068013586367875
0.29757273327417527 -0.8814956590279704
0.2940959024737243 -0.9538176759634291
0.28956754259287015 -1.023051071245472
0.2836114320405264 -1.0882517445823885
0.27578331608216583 -1.1482098282760316
0.26568491515184167 -1.201471400613935
0.25316677525578807 -1.246438998431105
0.23865909587151532 -1.281577254624881
0.22364351933723464 -1.305651199326665
0.21107610065641907 -1.3181159110576401
0.198508681975604 -1.30565119932664
0.18349310544132466 -1.2815772546248305
0.1689854260570544 -1.2464389984310331
0.15646728616100422 -1.2014714006138474
0.14636888523068373 -1.1482098282759317
0.13854076927232678 -1.0882517445822788
0.1325846587199867 -1.023051071245356
0.12805629883913655 -0.9538176759633096
0.12457946803868986 -0.8814956590278502
0.12187848854506629 -0.8068013586366707
0.11977388318581735 -0.7302789760208105
0.118152519408214 -0.6523392461949408
0.11694768851332825 -0.5732969910697243
0.11607271245252983 -0.4934195235553107
0.11541262490368098 -0.41293027991670606
0.11489836775278557 -0.3319926416957726
0.1145070156747358 -0.25071433687085637
0.11423827553708693 -0.16921849891970916
0.11411407155820867 -0.08769240106624424
0.11411797549459539 -0.006409937206996362
0.3282972812171313 -0.00643145689813405
0.3282823377068813 -0.08770476345960397
0.32813986836466474 -0.16919900173939884
0.3278372300252913 -0.25067368379594485
0.32738649168177186 -0.3319362014945778
0.3267865714247457 -0.41285878838343804
0.32600458032253554 -0.4933270493745531
0.3249282064943354 -0.5731542961949911
0.32343611646460685 -0.6521160765392301
0.321463213468873 -0.7299598713717742
0.318913626265982 -0.8063603413402419
0.3156418718143298 -0.8808922202156346
0.3114221238649843 -0.9529889928694987
0.3059181317304236 -1.0219054740243634
0.29868337137142714 -1.0866736529839138
0.28921533380691616 -1.1460782211577263
0.2770389918783761 -1.1986956994014646
0.26195353588593406 -1.2430347839526554
0.2444638389657409 -1.277786252856679
0.22633076657741158 -1.302067485246014
0.21107610065641683 -1.3157628094550309
0.1958214347354227 -1.302067485245989
0.1776883623470951 -1.2777862528566293
0.1601986654269049 -1.243034783952584
0.14511320943446657 -1.1986956994013775
0.13293686750593067 -1.1460782211576273
0.12346882994142398 -1.086673652983805
0.11623406958243185 -1.0219054740242484
0.11073007744787573 -0.9529889928693802
0.10651032949853519 -0.8808922202155154
0.10323857504688773 -0.806360341340126
0.10068898784400085 -0.7299598713716638
0.0987160848482705 -0.6521160765391264
0.09722399481854477 -0.5731542961948958
0.09614762099034675 -0.493327049374468
0.09536562988813774 -0.41285878838336554
0.09476570963111214 -0.3319362014945173
0.09431497128759322 -0.2506736837958974
0.09401233294822005 -0.16919900173936392
0.09386986360600359 -0.0877047634595819
0.09385492009575365 -0.006431456898124952
0.3485726702953789 -0.006441271359110264
0.3485433582331367 -0.08771050365862183
0.3483848575260675 -0.16917597901599107
0.3480496511591214 -0.2506289259598154
0.34754092406693793 -0.33187320495835715
0.3468596673806494 -0.41277809076048877
0.3459431232100745 -0.49321006924729344
0.3446427127091179 -0.5729627996703652
0.34287207896515803 -0.651831062209441
0.34054685222414893 -0.7295593629011019
0.3375479698985843 -0.8058115016858978
0.3336968771908346 -0.8801452772483445
0.32871837913088303 -0.9519669689862152
0.3222150242339433 -1.0205002250048572
0.31367997895485883 -1.0847551186387148
0.3025549076901242 -1.1435108516749972
0.2883352893365917 -1.1953753789946164
0.2707816070702793 -1.2389720187009972
0.250402238373307 -1.2732500352726592
0.2291383873450086 -1.297743996175554
0.21107610065641458 -1.3128645344686205
0.1930138139678212 -1.2977439961755293
0.17174996293952496 -1.2732500352726097
0.15137059424255603 -1.2389720187009263
0.1338169119762478 -1.1953753789945303
0.11959729362272005 -1.143510851674899
0.10847222235799027 -1.084755118638607
0.0999371770789107 -1.020500225004743
0.09343382218197627 -0.9519669689860978
0.08845532412203036 -0.8801452772482264
0.08460423141428601 -0.8058115016857827
0.08160534908872609 -0.7295593629009921
0.079280122347721 -0.6518310622093378
0.07750948860376437 -0.5729627996702704
0.07620907810281044 -0.49321006924720845
0.07529253393223702 -0.41277809076041627
0.07461127724594911 -0.33187320495829675
0.07410255015376617 -0.250628925959768
0.07376734378682037 -0.16917597901595618
0.07360884307975132 -0.08771050365859977
0.07357953101750919 -0.006441271359101162
0.368860877835642 -0.006443371275359226
0.3688233604229933 -0.08771037493753096
0.36865362272886393 -0.1691497551899828
0.36828745417513187 -0.25057992891685626
0.36772103587351823 -0.3318047141591042
0.36695907365347036 -0.4126858656648559
0.3658829985951884 -0.4930594754214779
0.36436206549279293 -0.5727226498466216
0.3623143645669448 -0.6514822993365087
0.35963613046907045 -0.7290744784276745
0.35618407134862434 -0.805151525705099
0.3517440599546897 -0.8792496249208133
0.3459924723308968 -0.9507452079575109
0.3384716295037639 -1.0188283984203628
0.3286107497477755 -1.0824882795427961
0.3158193679442493 -1.1405075406361618
0.2996002195902549 -1.1915306467482423
0.27973009394102977 -1.2342859488703033
0.25661613728193317 -1.2679841015159559
0.2321920542180425 -1.2926465817177828
0.21107610065641225 -1.3093698776141185
0.18996014709478268 -1.2926465817177584
0.1655360640308946 -1.2679841015159072
0.14242210737180183 -1.2342859488702336
0.1225519817225815 -1.1915306467481572
0.10633283336859232 -1.1405075406360647
0.09354145156507157 -1.0824882795426898
0.08368057180908875 -1.0188283984202497
0.07615972898196192 -0.9507452079573948
0.07040814135817525 -0.8792496249206965
0.06596812996424666 -0.8051515257049852
0.06251607084380569 -0.7290744784275657
0.05983783674593584 -0.6514822993364063
0.057790135820091515 -0.5727226498465274
0.056269202717699085 -0.4930594754213934
0.055193127659419 -0.4126858656647835
0.05443116543937195 -0.3318047141590438
0.053864747137758816 -0.25057992891680897
0.053498578584027075 -0.16914975518994793
0.053328840889897894 -0.08771037493750891
0.05329132347724926 -0.006443371275350125
0.389160344387663 -0.006441862591576953
0.389123704075642 -0.08770569705839035
0.38895143864031245 -0.16912116204952818
0.38855627651157126 -0.25052627786720527
0.3879305761466801 -0.3317317928010868
0.38707567436570334 -0.41257523016152664
0.38582907498566416 -0.49287084063002695
0.3840914613340119 -0.5724333853545134
0.38176893300279097 -0.6510679173815049
0.37873742284671086 -0.7285030497004186
0.37482807177370514 -0.8043768832011182
0.3697911562313483 -0.8782011918221935
0.36325135154529825 -0.9493179210425922
0.35469171485565654 -1.0168833137938105
0.3434975711940727 -1.079869396341438
0.32904022712494074 -1.1370690344285233
0.3108461510167517 -1.1871786698174704
0.2887946659371794 -1.22903314878454
0.26328840870603976 -1.2620305460080523
0.23571064813042977 -1.2867170453204715
0.21107610065640967 -1.3051771756698314
0.1864415531823905 -1.2867170453204477
0.15886379260678343 -1.2620305460080044
0.13335753537564837 -1.229033148784471
0.11130605029608141 -1.1871786698173865
0.09311197418789824 -1.137069034428427
0.07865463011877245 -1.0798693963413328
0.06746048645719485 -1.0168833137936983
0.05890084976755989 -0.9493179210424775
0.052361045081516795 -0.8782011918220781
0.04732412953916655 -0.8043768832010056
0.04341477846616648 -0.7285030497003109
0.040383268310091355 -0.6510679173814033
0.038060739978874686 -0.5724333853544198
0.03632312632722585 -0.492870840629943
0.0350765269471889 -0.41257523016145453
0.03422162516621323 -0.33173179280102655
0.03359592480132258 -0.250526277867158
0.03320076267258173 -0.16912116204949332
0.0330284972372523 -0.08770569705836831
0.03299185692523132 -0.006441862591567849
0.4094661467951316 -0.006440798460606799
0.4094449828548907 -0.08769884685358252
0.4092849306693894 -0.16909147624867749
0.4088626304745102 -0.2504679214881497
0.40817017988371673 -0.3316514557597255
0.40720371075783324 -0.41244267913894767
0.4057869738062109 -0.49264334642015867
0.40383581451221107 -0.5720940785097387
0.4012414575912403 -0.6505868027989367
0.3978564311611216 -0.7278432175168307
0.3934870400111161 -0.8034852431136645
0.3878439950707932 -0.8769952641834108
0.38049755231541343 -0.9476789281726246
0.37089070739148616 -1.0146617555732627
0.3583602220246769 -1.0768974715054966
0.3422494379235831 -1.133197589822561
0.322106829242927 -1.182329682724999
0.2979226038085948 -1.223252824446079
0.27033086017083796 -1.2555279207472356
0.2404351104956609 -1.2799108821486165
0.21107610065640697 -1.3
0.18171709081715381 -1.2799108821485932
0.15182134114198 -1.2555279207471883
0.1242295975042288 -1.2232528244460112
0.10004537206990279 -1.1823296827249166
0.07990276338925319 -1.1331975898224662
0.06379197928816634 -1.0768974715053927
0.05126149392136408 -1.014661755573152
0.04165464899744426 -0.9476789281725116
0.034308206242072044 -0.8769952641832971
0.028665161301756413 -0.8034852431135534
0.024295770151757018 -0.7278432175167241
0.02091074372164375 -0.650586802798836
0.018316386800677726 -0.572094078509646
0.016365227506681602 -0.49264334642007523
0.014948490555061941 -0.4124426791388759
0.01398202142917968 -0.33165145575966526
0.013289570838386802 -0.2504679214881025
0.012867270643507947 -0.16909147624864265
0.012707218458006765 -0.08769884685356047
0.012686054517765903 -0.006440798460597693
SCALARS Stress float 6
LOOKUP_TABLE default
-760.5089041269046 -1511.0917182782705 -1039.7625101583953 8.098473636596527 0.0 0.0
987.0741245238822 574.9494128347727 638.5857437041311 -16.51890063058026 0.0 0.0
441.5388323427733 19.581544843231015 137.15683967391385 -29.587013249030484 0.0 0.0
417.77294775436667 18.430696810250126 130.2952830901757 -4.018630703243939 0.0 0.0
503.73092084010386 27.2883031231246 161.7141215358715 -3.3051921572338516 0.0 0.0
560.2107488120192 53.79484506994605 216.4311392586685 -2.1895161666516505 0.0 0.0
634.0012031467425 62.88638793723379 274.84292084928427 -3.309892890650389 0.0 0.0
705.5282963509914 93.98355547826037 343.6934657986109 -3.684384793295139 0.0 0.0
780.5928325611413 134.37009111272252 415.5679991967316 -3.6558855717529872 0.0 0.0
865.4621181910413 187.31750614364773 494.1532975965747 -3.7968962644040234 0.0 0.0
963.6748670493226 254.05040466332252 582.8051745564584 -4.0418389088836175 0.0 0.0
1074.4534191989178 334.4228051287361 682.0042769820365 -4.5019858578238825 0.0 0.0
1194.3210094068054 421.14856615525423 786.4785728289329 -4.8432278424033015 0.0 0.0
1320.130659323503 512.055114069583 894.7255517833082 -5.168545216567206 0.0 0.0
1444.7596912421445 601.1743156221016 1000.8252472828431 -5.5087149567589 0.0 0.0
1561.9531300464512 683.7644932016161 1099.8617971610568 -5.908023145740791 0.0 0.0
1666.8449730606503 756.894572103446 1188.2814581790024 -6.1435374032259595 0.0 0.0
1754.5162334253118 817.3798329922754 1262.1767173240473 -5.759844596008531 0.0 0.0
1820.2891030973444 861.9823936658313 1317.472041550911 -4.544552931610357 0.0 0.0
1856.0742539008916 884.1296033864494 1346.6646150708775 -3.3394198070028454 0.0 0.0
1856.9666889986524 881.321878836198 1346.0327130627647 -1.1620926443356439e-11 0.0 0.0
1856.0742539014468 884.1296033870357 1346.664615071269 3.33941980697111 0.0 0.0
1820.2891030963624 861.9823936648489 1317.4720415501606 4.544552931661206 0.0 0.0
1754.516233424354 817.379832991339 1262.176717323333 5.759844596015791 0.0 0.0
1666.8449730609314 756.894572103779 1188.2814581789994 6.1435374032346 0.0 0.0
1561.9531300463632 683.7644932015879 1099.8617971608703 5.908023145773798 0.0 0.0
1444.759691241492 601.1743156215026 1000.8252472821678 5.508714956735048 0.0 0.0
1320.1306593229535 512.0551140691109 894.725551782746 5.168545216523183 0.0 0.0
1194.3210094063475 421.148566154905 786.4785728284626 4.843227842385156 0.0 0.0
1074.4534191987332 334.42280512869047 682.0042769817967 4.50198585780298 0.0 0.0
963.6748670488064 254.05040466294153 582.8051745559488 4.041838908882477 0.0 0.0
865.4621181911787 187.31750614399243 494.1532975965376 3.796896264383122 0.0 0.0
780.5928325608102 134.37009111257376 415.5679991963457 3.6558855717677723 0.0 0.0
705.528296350626 93.98355547809402 343.6934657982404 3.6843847932721623 0.0 0.0
634.0012031463385 62.88638793701971 274.84292084889347 3.309892890629003 0.0 0.0
560.2107488115566 53.79484506970384 216.43113925831847 2.189516166583619 0.0 0.0
503.7309208397519 27.28830312305392 161.71412153570105 3.3051921571837486 0.0 0.0
417.7729477541548 18.430696810338322 130.29528309014415 4.018630703263049 0.0 0.0
441.53883234244165 19.581544843117968 137.15683967379732 29.587013248986143 0.0 0.0
987.0741245235167 574.9494128342392 638.5857437036507 16.51890063060045 0.0 0.0
-760.5089041248115 -1511.0917182761284 -1039.7625101563353 -8.098473637100177 0.0 0.0
-963.8801684007628 -1677.049357037795 -1178.0418292637864 11.592554695362209 0.0 0.0
658.1216309452537 337.6149045888007 397.00698916212133 -40.276370605824766 0.0 0.0
306.2806592536504 -2.3301810869603465 91.32395300798822 -22.069595620097097 0.0 0.0
371.95023303367475 5.132986686349848 113.07293930730512 -15.382841035520201 0.0 0.0
447.76974239020313 10.52322801141703 137.82662606271958 -15.62645419572369 0.0 0.0
523.732844575047 13.69953879174749 179.07190952111358 -17.03898619325472 0.0 0.0
578.0975776667532 21.89284156408086 230.09067817675808 -19.138006335671793 0.0 0.0
639.5161217399195 39.96706911470491 287.0572569698486 -19.36231629354946 0.0 0.0
699.2206892415585 64.0445797076657 343.6888464762056 -18.93801454865016 0.0 0.0
762.2825655296651 95.54485784880981 401.78578057342816 -18.5393948418362 0.0 0.0
830.6320987536262 133.32112791153247 462.23936079243356 -17.867024371409855 0.0 0.0
903.4438383273005 173.79994318796247 523.4563159471459 -17.292625268101233 0.0 0.0
975.4730498264155 214.58674001728872 582.1262357596885 -16.757405943402265 0.0 0.0
1045.175129957698 249.32865395711627 634.926511217851 -16.250855349449107 0.0 0.0
1105.660114026828 274.4233861368597 677.6265505154013 -16.027949118546154 0.0 0.0
1152.1394332338803 286.5344700152994 706.6820698780034 -15.976891153303889 0.0 0.0
1182.1477168294145 284.92322446608597 720.776723616108 -15.64154481005655 0.0 0.0
1197.5568681585999 273.1179291349611 722.7216477535796 -14.301856627179918 0.0 0.0
1201.6157293645153 255.90634545764263 716.5289940874136 -11.6815071125112 0.0 0.0
1188.411331056683 228.77149635937334 697.0329383406615 -8.382633676060113 0.0 0.0
1160.4187386266358 196.93034064879453 667.9412029709661 9.380940468872723e-12 0.0 0.0
1188.4113310568641 228.77149635957048 697.032938340747 8.382633676038097 0.0 0.0
1201.6157293641804 255.90634545732357 716.528994087158 11.681507112529145 0.0 0.0
1197.5568681581508 273.1179291345515 722.7216477532481 14.301856627219589 0.0 0.0
1182.1477168291317 284.92322446583114 720.7767236157989 15.641544810133315 0.0 0.0
1152.139433233693 286.53447001516344 706.6820698777917 15.976891153361901 0.0 0.0
1105.6601140262342 274.4233861363138 677.6265505148483 16.027949118548346 0.0 0.0
1045.1751299574673 249.32865395696427 634.9265112175908 16.250855349410536 0.0 0.0
975.4730498262163 214.58674001720203 582.1262357594434 16.75740594341072 0.0 0.0
903.4438383270433 173.79994318782917 523.4563159468812 17.292625268121174 0.0 0.0
830.632098753484 133.3211279115504 462.2393607922258 17.867024371396823 0.0 0.0
762.2825655294125 95.5448578487154 401.78578057316014 18.53939484183026 0.0 0.0
699.2206892413651 64.04457970765569 343.68884647595235 18.938014548652614 0.0 0.0
639.5161217396897 39.96706911469531 287.057256969585 19.36231629355274 0.0 0.0
578.0975776665414 21.892841564106217 230.09067817652374 19.138006335678114 0.0 0.0
523.7328445746973 13.699538791662528 179.0719095208687 17.03898619317976 0.0 0.0
447.7697423898587 10.523228011306216 137.82662606256628 15.626454195682303 0.0 0.0
371.9502330335479 5.132986686429011 113.07293930729324 15.382841035501102 0.0 0.0
306.28065925355935 -2.330181087088147 91.32395300792021 22.069595620045156 0.0 0.0
658.1216309448547 337.6149045883905 397.0069891617003 40.27637060586806 0.0 0.0
-963.8801683991493 -1677.0493570360634 -1178.041829262081 -11.592554695813138 0.0 0.0
-782.3092361854908 -1460.1741850450364 -966.8117062171357 -32.5483452214406 0.0 0.0
468.25874386684296 233.49128261616474 272.7385442239844 -98.95730431648971 0.0 0.0
226.12509233300753 21.01483275724716 74.14197752707639 -19.672738823077598 0.0 0.0
316.1389841742573 -1.1907213721941128 94.48654839507556 -33.95692366214685 0.0 0.0
399.71061079624224 7.478080031487994 121.56088669842227 -36.747859732979 0.0 0.0
492.43752679037163 9.716931554526143 158.04631253519483 -34.32544490106117 0.0 0.0
548.5865780790907 21.68464256722322 208.50056018259448 -36.61917234093689 0.0 0.0
612.0712170343476 33.38502910321373 262.4411164770986 -37.383001562689756 0.0 0.0
671.1887106158376 55.497557325048895 318.57254533323095 -36.87854594089182 0.0 0.0
732.1201380578586 83.26350603282742 374.91389370490197 -36.023764441900276 0.0 0.0
796.6558425591675 116.81267050772445 432.8132878560787 -34.902411763624656 0.0 0.0
864.5748474309305 154.40046836909036 491.65302662734797 -33.570559149151876 0.0 0.0
935.0290234577091 190.83966967232215 548.3363473986907 -32.46531930191215 0.0 0.0
1000.4214069934493 223.21729658993112 598.4971661057804 -31.58955788400193 0.0 0.0
1057.9011585843787 245.34411644156975 638.4152405060915 -31.137626949590565 0.0 0.0
1102.087906566334 255.35148495342418 665.3148754055118 -30.899140261046654 0.0 0.0
1132.1920501205057 254.01486909408203 679.5660928645057 -30.0497329992702 0.0 0.0
1149.3002160056903 243.910581179835 683.2308059381296 -27.503398111010213 0.0 0.0
1152.2557658524224 225.31271861642162 675.8802540514881 -22.87998323673335 0.0 0.0
1142.759341150696 201.67301495740213 659.8508947959875 -16.182133678020225 0.0 0.0
1105.0096691676367 160.15636556602811 621.3285959653748 1.1321610315917496e-11 0.0 0.0
1142.7593411502871 201.67301495701363 659.85089479564 16.182133678093123 0.0 0.0
1152.255765852496 225.3127186165135 675.8802540515443 22.879983236818386 0.0 0.0
1149.3002160060585 243.91058118024614 683.2308059383347 27.5033981110553 0.0 0.0
1132.1920501198122 254.01486909340784 679.5660928638763 30.0497329992918 0.0 0.0
1102.087906566377 255.3514849535429 665.3148754054646 30.899140261090277 0.0 0.0
1057.9011585838803 245.34411644111964 638.4152405056467 31.13762694961111 0.0 0.0
1000.4214069933219 223.2172965898894 598.4971661056362 31.58955788399301 0.0 0.0
935.029023457544 190.83966967225876 548.3363473984648 32.465319301927885 0.0 0.0
864.5748474306034 154.40046836889343 491.65302662702965 33.570559149175374 0.0 0.0
796.6558425591594 116.8126705078582 432.8132878559728 34.90241176358176 0.0 0.0
732.120138057287 83.26350603240377 374.91389370441385 36.023764441907765 0.0 0.0
671.1887106155293 55.497557324909096 318.5725453329337 36.878545940877956 0.0 0.0
612.07121703413 33.385029103229954 262.44111647684764 37.383001562687454 0.0 0.0
548.5865780788063 21.68464256717734 208.50056018234295 36.61917234088986 0.0 0.0
492.43752679011044 9.716931554569248 158.0463125350403 34.32544490096991 0.0 0.0
399.7106107959274 7.478080031544635 121.56088669835705 36.74785973294219 0.0 0.0
316.13898417415055 -1.1907213721291554 94.48654839506379 33.95692366207474 0.0 0.0
226.12509233295933 21.01483275708859 74.14197752701436 19.67273882301068 0.0 0.0
468.2587438665568 233.49128261597812 272.73854422368214 98.95730431640098 0.0 0.0
-782.3092361840986 -1460.1741850435403 -966.8117062155944 32.54834522115522 0.0 0.0
-623.053445155345 -1266.593131880093 -782.975265051866 -51.15777233174316 0.0 0.0
334.3605706628623 136.57880933056575 179.08850476068983 -135.9837905880946 0.0 0.0
167.83288618585556 33.910815066546526 60.523110375720606 -41.4414296737871 0.0 0.0
261.85611093538876 3.341983119707817 79.55918637609875 -49.84129687882491 0.0 0.0
346.6498645873609 3.6585729486394256 104.94611619245016 -58.19119538606078 0.0 0.0
444.0826666854375 6.032803838844534 136.50908888023707 -54.8003177805328 0.0 0.0
521.5656140203284 16.364134160496437 183.42375125965475 -55.75433485252621 0.0 0.0
578.9677637633856 27.051275471606843 234.8297025974881 -55.90710779753326 0.0 0.0
638.7429170101012 46.45033825589509 289.84454077977466 -54.752632639982394 0.0 0.0
697.7981528595512 71.02324598778068 344.8433433205624 -53.39345984225182 0.0 0.0
758.3229333069731 100.58849329974646 400.3746271843997 -51.60876744108397 0.0 0.0
822.9651179801158 133.35695876386634 456.63499856558485 -49.70495121212565 0.0 0.0
889.0230069010769 167.97423054206794 511.7826483063025 -47.87942623192752 0.0 0.0
952.5608331989583 195.63658335414777 559.4696592574153 -46.74899100710413 0.0 0.0
1006.4902318430853 215.18829171515077 596.7519582886582 -46.086837359924836 0.0 0.0
1049.1928438424718 224.68309906540435 622.7433229178578 -45.57671188019256 0.0 0.0
1079.8961075642374 223.6794024870916 637.4153868049676 -44.36711142834347 0.0 0.0
1098.086282217759 214.3794275002712 642.0530181663223 -40.96469963410784 0.0 0.0
1102.702142688323 196.92497978737566 636.131762741102 -34.40592574960371 0.0 0.0
1094.7020063539017 174.06607537403374 621.2061989809657 -23.664085380943785 0.0 0.0
1039.9044157019607 115.28193012607579 566.1226666970271 6.972200594645983e-12 0.0 0.0
1094.7020063539917 174.06607537416556 621.206198981023 23.664085381052953 0.0 0.0
1102.702142687953 196.92497978704083 636.1317627408347 34.40592574976958 0.0 0.0
1098.086282217721 214.37942750025869 642.0530181662294 40.96469963421144 0.0 0.0
1079.8961075638222 223.6794024867163 637.4153868045686 44.36711142840022 0.0 0.0
1049.1928438425487 224.68309906554143 622.7433229178471 45.576711880272086 0.0 0.0
1006.4902318425193 215.18829171463773 596.7519582881802 46.08683735993338 0.0 0.0
952.5608331988664 195.63658335417077 559.4696592572863 46.74899100720289 0.0 0.0
889.023006900765 167.97423054185936 511.7826483059955 47.87942623198188 0.0 0.0
822.9651179796043 133.3569587634507 456.6349985651583 49.70495121211157 0.0 0.0
758.3229333066288 100.58849329951863 400.37462718406414 51.60876744103028 0.0 0.0
697.7981528592695 71.0232459876672 344.84334332027487 53.393459842218746 0.0 0.0
638.7429170098068 46.45033825578221 289.84454077949044 54.75263263996629 0.0 0.0
578.9677637630848 27.05127547155977 234.82970259720472 55.90710779755207 0.0 0.0
521.5656140198386 16.364134160203204 183.42375125930016 55.75433485243991 0.0 0.0
444.08266668499414 6.032803838793884 136.50908888006362 54.800317780472454 0.0 0.0
346.64986458723894 3.658572948952251 104.94611619251002 58.19119538601926 0.0 0.0
261.8561109352908 3.3419831197225722 79.55918637607368 49.8412968787424 0.0 0.0
167.8328861858512 33.91081506645439 60.52311037569167 41.44142967369749 0.0 0.0
334.36057066265084 136.57880933052428 179.08850476049622 135.9837905879487 0.0 0.0
-623.0534451541848 -1266.5931318787989 -782.975265050541 51.15777233160284 0.0 0.0
-485.43523425812316 -1092.2415366539813 -623.4101550375203 -57.50543331606994 0.0 0.0
241.26054644263078 54.82101163917039 111.02273266270083 -162.31750304918953 0.0 0.0
123.24981405211672 35.776423877407716 47.70787137885734 -69.38231322139534 0.0 0.0
211.0023477952959 10.205422476536043 66.36233108154956 -67.668312542122 0.0 0.0
293.98226240782236 3.0212680559092595 89.1341398909729 -77.46769457600641 0.0 0.0
385.50961075256396 0.881564843630666 115.1585495320643 -79.20579793571261 0.0 0.0
480.6680094666921 8.034688231705857 154.94287102218607 -75.46641154360981 0.0 0.0
540.3715073350224 24.03435644360353 205.8139060296855 -73.76966915990849 0.0 0.0
600.1365460012821 37.34178148656116 257.20994276108723 -72.725525192177 0.0 0.0
657.7157343947138 58.76258911585005 310.62492295075674 -70.60879838812417 0.0 0.0
715.7538960766689 83.90065118123532 363.9912289440122 -68.21913958752563 0.0 0.0
776.5145824877085 112.45776646814427 418.02186554214467 -65.60526227042975 0.0 0.0
839.7033553000282 142.0923816958917 470.8892630093874 -63.364006497639956 0.0 0.0
899.1434102080764 168.85316001216262 517.6632445012646 -61.75890201257289 0.0 0.0
951.1687044996801 185.31975044012972 553.091758795945 -60.84279435321597 0.0 0.0
992.4525786041241 192.4508524672843 577.3564748816967 -60.15898810724907 0.0 0.0
1023.7414498164749 193.04611028511016 593.1218787180405 -58.638195081294086 0.0 0.0
1044.2292694547805 185.81233198712474 599.9558927912885 -54.64630065131484 0.0 0.0
1051.2382403917538 169.82063701969346 596.0265062640808 -46.21338919443352 0.0 0.0
1043.1595981576884 145.39539932668433 580.3276592021077 -31.476251001183616 0.0 0.0
966.814539734077 64.67944921783379 504.3698340490603 3.9117153960432915e-11 0.0 0.0
1043.1595981582452 145.39539932729167 580.327659202535 31.476251001322957 0.0 0.0
1051.238240390981 169.82063701894452 596.0265062634811 46.21338919459468 0.0 0.0
1044.229269454357 185.81233198673007 599.955892790951 54.64630065138014 0.0 0.0
1023.7414498165131 193.04611028518195 593.1218787179782 58.63819508130437 0.0 0.0
992.4525786036955 192.45085246689928 577.3564748813337 60.15898810723324 0.0 0.0
951.1687044994525 185.3197504399702 553.0917587957251 60.842794353247825 0.0 0.0
899.1434102082997 168.85316001251672 517.6632445013493 61.75890201266265 0.0 0.0
839.7033552995774 142.09238169550883 470.8892630089993 63.36400649763404 0.0 0.0
776.5145824871631 112.45776646768867 418.0218655417059 65.60526227037998 0.0 0.0
715.7538960761545 83.9006511808285 363.991228943547 68.21913958748294 0.0 0.0
657.7157343945576 58.76258911587749 310.6249229505493 70.60879838808609 0.0 0.0
600.1365460010257 37.3417814865091 257.2099427608255 72.72552519216455 0.0 0.0
540.3715073347867 24.03435644367669 205.8139060294721 73.76966915990094 0.0 0.0
480.6680094662696 8.034688231547529 154.94287102192234 75.4664115435884 0.0 0.0
385.50961075206516 0.8815648434506489 115.15854953187404 79.20579793560171 0.0 0.0
293.9822624077106 3.021268056115656 89.13413989100368 77.4676945759387 0.0 0.0
211.00234779519013 10.205422476434501 66.3623310814874 67.66831254199681 0.0 0.0
123.24981405209641 35.77642387738009 47.70787137884297 69.38231322122144 0.0 0.0
241.26054644237877 54.82101163911721 111.02273266252955 162.31750304901203 0.0 0.0
-485.4352342572026 -1092.2415366528794 -623.4101550364246 57.505433315986856 0.0 0.0
-365.24222588736916 -938.2881322432793 -486.86436238494355 -65.86257078609988 0.0 0.0
168.6395865900032 -3.744823038513138 61.95630568555819 -171.64445772173607 0.0 0.0
87.28778000686059 30.881156945866877 35.450681085818225 -96.04517627463343 0.0 0.0
163.93459573869725 15.874602015233155 53.94275932617911 -86.73682089392494 0.0 0.0
241.35241223180194 4.697414957639229 73.82518892382383 -95.31992242931653 0.0 0.0
320.25592918326976 0.321342208726003 95.9648313872004 -100.21092849175596 0.0 0.0
413.48292725784825 3.7630064613597445 127.48568104509961 -97.67051981543042 0.0 0.0
499.25120953495167 12.660282792633826 170.8534395062739 -94.75747050181289 0.0 0.0
550.4463613238294 31.35152954344921 221.28100193817136 -89.11744689444947 0.0 0.0
611.0530839330926 46.01313681259998 271.23898277605826 -87.96048743304046 0.0 0.0
666.739895851143 67.14959865366282 322.52998064638416 -84.76538466491544 0.0 0.0
723.8281931934595 91.1903562439031 374.19647495774643 -81.48956712009783 0.0 0.0
783.5050106125641 117.35418831255282 425.6724465988949 -78.63626133440947 0.0 0.0
840.5941306306391 139.46626940164333 470.8567008836272 -76.72314148632015 0.0 0.0
890.2654353474582 154.71736143445125 505.7876158943306 -75.54711938353914 0.0 0.0
930.3770738975104 161.8468831590531 529.9842458299001 -74.38253427065105 0.0 0.0
962.3785869936955 161.25927631938603 545.5068662704641 -72.80124643850219 0.0 0.0
985.5848540201815 156.77682557887624 555.1247897551874 -68.48008514332817 0.0 0.0
996.2435748815722 143.8290210112269 554.7057964417011 -58.44060834212012 0.0 0.0
987.848150194326 116.73311478149492 537.6381672052611 -40.030298000956115 0.0 0.0
884.8161626649742 8.867878728986192 436.00669831121644 3.9831249409871816e-11 0.0 0.0
987.8481501944757 116.73311478169677 537.638167205416 40.030298001082734 0.0 0.0
996.2435748813003 143.82902101102306 554.7057964414997 58.44060834233716 0.0 0.0
985.5848540203889 156.77682557916245 555.124789755324 68.48008514350386 0.0 0.0
962.3785869936753 161.25927631937833 545.5068662703969 72.80124643854106 0.0 0.0
930.3770738976109 161.84688315924382 529.9842458298565 74.38253427065187 0.0 0.0
890.2654353473505 154.7173614344147 505.78761589422146 75.54711938360046 0.0 0.0
840.5941306303158 139.4662694014152 470.856700883355 76.72314148637987 0.0 0.0
783.5050106123063 117.35418831239537 425.67244659866026 78.63626133444026 0.0 0.0
723.8281931929646 91.19035624348987 374.1964749573542 81.4895671200681 0.0 0.0
666.7398958508682 67.1495986535218 322.52998064609744 84.76538466488546 0.0 0.0
611.0530839328017 46.013136812493045 271.23898277575927 87.96048743299306 0.0 0.0
550.4463613234484 31.351529543282872 221.28100193784923 89.11744689447721 0.0 0.0
499.25120953461465 12.660282792526562 170.85343950602106 94.75747050177849 0.0 0.0
413.4829272574433 3.763006461435265 127.48568104497178 97.67051981540166 0.0 0.0
320.2559291828515 0.3213422085937574 95.96483138704403 100.21092849164143 0.0 0.0
241.3524122316244 4.69741495760892 73.82518892376036 95.31992242923843 0.0 0.0
163.93459573859138 15.874602015153245 53.9427593261234 86.73682089377185 0.0 0.0
87.2877800068869 30.88115694594608 35.450681085849894 96.04517627443322 0.0 0.0
168.63958658977026 -3.7448230385716244 61.95630568541949 171.64445772151063 0.0 0.0
-365.24222588661377 -938.2881322423057 -486.8643623840467 65.86257078612131 0.0 0.0
-265.33402113624265 -793.7938325573391 -372.18833205656995 -73.50026545647043 0.0 0.0
113.5192929462187 -49.99459235659154 25.937026237511745 -175.55958335571398 0.0 0.0
57.029449799174564 23.476957992054388 24.15192233736868 -118.43218449157087 0.0 0.0
120.3299626901502 19.464318232703512 41.93828427685611 -105.36990835820268 0.0 0.0
188.3469888613371 7.295515350465843 58.69955010189418 -111.5240135353841 0.0 0.0
255.74233253013273 0.212885633579693 76.72739516822229 -118.49799496135495 0.0 0.0
339.743209508538 -2.8714782714565676 99.92165485986983 -121.913022382852 0.0 0.0
423.1361813032757 7.283442566319895 135.51014446222672 -114.97031011930946 0.0 0.0
500.82194465892815 15.002394107980953 177.53516858672452 -112.07368927243107 0.0 0.0
551.1024611338435 35.38713423677169 226.49483345169045 -103.96668852842541 0.0 0.0
608.9872535284488 49.91237646051579 274.0222507710603 -101.28304678711618 0.0 0.0
663.1398656867524 69.22605557934412 323.0884721531504 -97.63716280227904 0.0 0.0
719.5396833489874 91.23252912829184 373.05708256043283 -94.2172820038804 0.0 0.0
773.5515864881514 110.3719842044148 417.95097411889134 -91.81017585275396 0.0 0.0
821.515959859647 123.70451181731516 453.2822243887176 -90.05244012720108 0.0 0.0
861.4754499193721 128.42381813984224 477.15628506562274 -88.9297056516469 0.0 0.0
893.1335464054509 130.67019538749125 494.3401444452996 -86.70940227011383 0.0 0.0
919.9403301681446 127.95286957278857 506.77007359337495 -82.22670437138476 0.0 0.0
935.5378267388178 117.37642409404448 510.2402197494424 -71.35980554744263 0.0 0.0
927.9738005601939 88.67759176290552 493.05583620924494 -49.81861578675955 0.0 0.0
792.0197128328834 -52.44458260066996 360.20623607168415 4.2806647115867236e-11 0.0 0.0
927.9738005602511 88.6775917630641 493.05583620931316 49.81861578690368 0.0 0.0
935.537826738894 117.37642409419922 510.24021974952365 71.35980554771602 0.0 0.0
919.9403301680715 127.95286957280288 506.77007359328246 82.22670437158618 0.0 0.0
893.1335464048885 130.67019538699043 494.3401444448852 86.70940227022412 0.0 0.0
861.4754499197913 128.42381814034246 477.15628506586614 88.92970565174285 0.0 0.0
821.515959859501 123.70451181727209 453.2822243885506 90.05244012722957 0.0 0.0
773.5515864874926 110.37198420382279 417.9509741183755 91.81017585279817 0.0 0.0
719.5396833490142 91.2325291284737 373.0570825604052 94.21728200396652 0.0 0.0
663.1398656862604 69.2260555789229 323.08847215277103 97.63716280224217 0.0 0.0
608.9872535282972 49.912376460531405 274.02225077087587 101.28304678710691 0.0 0.0
551.1024611335389 35.38713423662759 226.49483345141613 103.96668852836402 0.0 0.0
500.82194465869037 15.002394108067453 177.53516858655598 112.07368927248751 0.0 0.0
423.13618130267605 7.2834425659662525 135.51014446188893 114.97031011929924 0.0 0.0
339.7432095080637 -2.8714782715812697 99.92165485969846 121.91302238276887 0.0 0.0
255.74233252983373 0.21288563344936895 76.72739516809577 118.49799496124234 0.0 0.0
188.34698886118895 7.295515350411482 58.69955010183271 111.52401353527213 0.0 0.0
120.32996269009979 19.46431823273265 41.93828427684973 105.36990835802212 0.0 0.0
57.029449799162855 23.476957992148687 24.15192233739346 118.4321844914368 0.0 0.0
113.51929294597228 -49.99459235665738 25.937026237387972 175.55958335550733 0.0 0.0
-265.33402113562306 -793.793832556458 -372.18833205586276 73.50026545656455 0.0 0.0
-173.52587409105416 -682.6557208818373 -274.46905231535004 -93.80640520319959 0.0 0.0
63.053269690401905 -78.44522133191231 -2.2307856992120287 -169.140870950178 0.0 0.0
31.479198207861693 16.193981685121347 14.301953967894908 -135.994774966752 0.0 0.0
79.48103287807379 21.048986206397366 30.15900572534135 -122.07065253727544 0.0 0.0
135.8204460658626 9.853569923619764 43.70348950238923 -125.74745186803867 0.0 0.0
190.7552974330683 1.8834076030888924 57.79644567422254 -133.19500347471165 0.0 0.0
253.99954242899486 -1.4583526836436127 75.38148290269781 -139.3497005093045 0.0 0.0
331.76693802309927 -0.6926549674821676 99.43973333545252 -137.7737439847389 0.0 0.0
411.7822089211197 6.4252937329902355 132.43223391661235 -131.5981567969009 0.0 0.0
481.74056448777293 15.214509636336535 171.56206917209414 -126.96958967639539 0.0 0.0
535.6398843892845 31.486593923205536 215.78821224831492 -118.31531184753254 0.0 0.0
587.8442331644477 47.00315145523318 261.31477411041715 -113.40137493015972 0.0 0.0
642.606222911404 64.3533994483448 309.07894621796225 -110.14766783193305 0.0 0.0
693.9039962531738 79.71450491450106 353.7736827886392 -107.12536564225603 0.0 0.0
741.1252044305845 90.49267856968217 390.6941688847805 -104.94755091297911 0.0 0.0
780.3062862225105 95.99934269303292 417.098708956481 -103.06680337178106 0.0 0.0
813.6523522598511 97.00011307437424 435.5564253633903 -100.9884952310643 0.0 0.0
842.6227392719632 97.10949156915653 451.0255399243364 -96.00618734347574 0.0 0.0
864.3182243036674 92.27357217902697 461.0264564719123 -84.55090571875907 0.0 0.0
860.816004209196 63.303301513698436 446.259587314696 -61.43516324184874 0.0 0.0
682.7973841891821 -119.58454592070927 274.56405421939775 8.828315856135305e-11 0.0 0.0
860.8160042094161 63.30330151399739 446.25958731485844 61.43516324202726 0.0 0.0
864.3182243039513 92.27357217949006 461.026456472116 84.5509057190419 0.0 0.0
842.6227392715498 97.10949156881435 451.0255399240174 96.00618734367788 0.0 0.0
813.6523522595016 97.00011307409576 435.5564253630891 100.98849523120582 0.0 0.0
780.3062862223094 95.99934269288293 417.0987089563625 103.06680337183494 0.0 0.0
741.1252044307125 90.49267856990949 390.69416888481487 104.94755091299712 0.0 0.0
693.9039962524511 79.71450491378788 353.7736827881171 107.12536564226484 0.0 0.0
642.6062229113569 64.3533994484202 309.0789462178776 110.14766783197985 0.0 0.0
587.8442331641999 47.00315145514774 261.3147741102014 113.40137493015013 0.0 0.0
535.6398843890321 31.486593923117308 215.78821224807967 118.3153118475579 0.0 0.0
481.74056448752066 15.214509636298184 171.56206917190227 126.96958967636728 0.0 0.0
411.7822089208957 6.425293733105622 132.4322339165111 131.5981567968995 0.0 0.0
331.7669380225847 -0.6926549676864866 99.43973333523513 137.77374398467742 0.0 0.0
253.99954242864496 -1.4583526837519027 75.38148290256783 139.34970050915572 0.0 0.0
190.75529743287302 1.883407603043291 57.79644567415145 133.19500347458833 0.0 0.0
135.82044606575082 9.853569923591552 43.70348950234678 125.74745186792398 0.0 0.0
79.48103287806612 21.048986206480663 30.159005725364032 122.07065253708568 0.0 0.0
31.47919820787215 16.193981685177377 14.301953967914859 135.99477496659262 0.0 0.0
63.05326969013978 -78.44522133189331 -2.230785699309126 169.1408709498852 0.0 0.0
-173.52587409064097 -682.6557208811895 -274.469052314872 93.80640520328302 0.0 0.0
-127.28321358514833 -568.1945222088307 -212.28482306418968 -102.88180401072344 0.0 0.0
23.356339470032264 -95.39324185536094 -21.116452694611244 -158.2796863663127 0.0 0.0
8.222532699121802 9.031420771997897 5.177731454373242 -148.94344719461324 0.0 0.0
41.275705781296715 21.23566803072004 18.753412143605022 -135.84641738572364 0.0 0.0
84.01502092008764 12.099884625519719 28.834903177550277 -137.35438178729336 0.0 0.0
125.06552564955679 3.9703807042346373 38.73146010309491 -144.55345710059117 0.0 0.0
168.15248014011885 0.009999617727267651 50.47146322260325 -151.33639942888564 0.0 0.0
225.33164468077993 -2.2854100385280014 66.04281816387271 -158.96041453259758 0.0 0.0
292.50699713267915 -1.5560868421470664 86.96343509820666 -154.4540875450376 0.0 0.0
366.2640730734789 -3.1184435357079052 111.47649224246595 -150.37460830104405 0.0 0.0
426.50260417773444 8.724085998484234 145.25322771524358 -138.9447876334989 0.0 0.0
483.61501024434585 20.067341325559823 182.23386951360013 -130.78326498671845 0.0 0.0
538.767473267624 35.56101071342501 225.39058464401347 -125.91710044703164 0.0 0.0
589.3123547968239 47.253110969235266 268.4885454508428 -122.72005492598328 0.0 0.0
636.2091169409817 56.300876567231334 307.918820753319 -120.32423341543554 0.0 0.0
676.4031936423418 60.41132050622457 338.3262260884507 -117.7178897136582 0.0 0.0
712.5210290134523 63.912070174930626 362.40050618167464 -115.29783324383514 0.0 0.0
742.2480868550941 64.3766157552562 380.8545307770957 -110.27790521051725 0.0 0.0
770.8477660287133 62.48369941340688 397.19329158809387 -98.2707980861086 0.0 0.0
780.9079846786279 41.20642125220877 394.1910606788309 -75.71149613330117 0.0 0.0
549.3242933955834 -190.43204975341172 177.20131274840426 9.125855626734847e-11 0.0 0.0
780.9079846786129 41.20642125228033 394.1910606788892 75.71149613348852 0.0 0.0
770.8477660288486 62.483699413678806 397.1932915882107 98.27079808643384 0.0 0.0
742.248086854899 64.37661575510612 380.85453077693387 110.27790521072437 0.0 0.0
712.5210290132454 63.91207017469239 362.4005061814683 115.2978332438558 0.0 0.0
676.4031936420117 60.411320505929226 338.326226088228 117.7178897136437 0.0 0.0
636.2091169412429 56.30087656765055 307.91882075348207 120.32423341547829 0.0 0.0
589.3123547959992 47.2531109683877 268.4885454502747 122.72005492597415 0.0 0.0
538.7674732674692 35.5610107133544 225.39058464388984 125.91710044713788 0.0 0.0
483.61501024426246 20.067341325719884 182.23386951352518 130.78326498676418 0.0 0.0
426.50260417753043 8.724085998396017 145.2532277150843 138.94478763350457 0.0 0.0
366.2640730733689 -3.1184435352494897 111.47649224254492 150.37460830101622 0.0 0.0
292.5069971322394 -1.5560868422974758 86.96343509803532 154.45408754497538 0.0 0.0
225.331644680455 -2.2854100387439957 66.04281816371365 158.96041453252258 0.0 0.0
168.15248013993244 0.009999617643782654 50.47146322252321 151.3363994286953 0.0 0.0
125.06552564951892 3.9703807044316233 38.731460103143355 144.55345710039518 0.0 0.0
84.01502092000247 12.0998846254585 28.834903177506057 137.35438178714926 0.0 0.0
41.275705781284096 21.235668030756287 18.753412143612113 135.84641738554257 0.0 0.0
8.22253269910398 9.031420772004832 5.1777314543697255 148.94344719443248 0.0 0.0
23.356339469928855 -95.39324185529036 -21.11645269462766 158.27968636606363 0.0 0.0
-127.28321358501715 -568.1945222082422 -212.28482306393505 102.88180401070007 0.0 0.0
-100.76168474730348 -469.0402395175199 -170.01005104135942 -105.34041876396277 0.0 0.0
-1.2245493485850405 -104.21051236065718 -31.757346795530893 -150.50321375741413 0.0 0.0
-13.101216423944894 2.64347711127064 -3.1364503370202614 -157.11291870418842 0.0 0.0
5.289737174294107 20.40390421132948 7.7080924156870765 -146.16678376373432 0.0 0.0
33.2191013125254 13.899523664285242 14.137375013175793 -145.8580392859012 0.0 0.0
59.11996753345197 6.103628570785602 19.564583723468036 -152.38426957147698 0.0 0.0
83.40469274761669 1.4699423806288665 25.45256989047929 -159.9391959054127 0.0 0.0
110.73219363568259 -0.5721187295213994 32.97164466909808 -165.7592056148062 0.0 0.0
146.0679108852592 0.7082466680938238 43.94868117060507 -165.6484943922378 0.0 0.0
188.21943515979396 -0.7751331866069942 56.72643543838163 -161.53101201000317 0.0 0.0
246.4792877120541 -5.479071121319197 71.84936419305244 -164.7424466989883 0.0 0.0
300.9140863270207 -9.195403805362467 89.48853183949707 -156.74539843778345 0.0 0.0
357.4286078498794 -8.467653754746085 111.03222465322908 -151.5898865750473 0.0 0.0
419.2024718908699 -7.618570711142178 136.97676282961282 -144.68287234678124 0.0 0.0
465.49099534858715 2.1783744138109498 169.7106117868552 -137.30261998104146 0.0 0.0
504.49852110721315 14.885140309812655 202.7388670940209 -136.1020690862437 0.0 0.0
544.750917548952 28.04201360391965 237.97224649099837 -137.23377674751947 0.0 0.0
580.1938569529918 28.68175105425464 267.715949978243 -132.63461399991124 0.0 0.0
613.6269456261863 20.074559499181497 290.0464020577023 -117.81469897414922 0.0 0.0
654.2139425112636 17.13101182702372 314.64132498529915 -94.1589436453223 0.0 0.0
360.4387232879598 -267.88804047126246 53.915326435848655 7.702993798375246e-11 0.0 0.0
654.2139425108363 17.131011826645796 314.6413249850675 94.15894364551518 0.0 0.0
613.6269456257704 20.07455949879916 290.04640205742066 117.81469897445288 0.0 0.0
580.1938569529511 28.681751054301962 267.7159499782117 132.6346140002012 0.0 0.0
544.750917548443 28.04201360318985 237.972246490612 137.23377674756648 0.0 0.0
504.498521107027 14.885140309644814 202.73886709389595 136.10206908623144 0.0 0.0
465.4909953488592 2.178374414299963 169.7106117870609 137.30261998109626 0.0 0.0
419.20247189071114 -7.618570711243088 136.9767628295108 144.6828723468205 0.0 0.0
357.4286078496396 -8.467653755058862 111.03222465305424 151.58988657515283 0.0 0.0
300.9140863269813 -9.195403805216955 89.48853183950995 156.74539843781758 0.0 0.0
246.47928771178064 -5.479071121477989 71.8493641929261 164.74244669892627 0.0 0.0
188.21943515986123 -0.7751331861460584 56.72643543853458 161.53101200997943 0.0 0.0
146.06791088504994 0.7082466679142572 43.94868117048927 165.648494392211 0.0 0.0
110.73219363546949 -0.5721187297814256 32.97164466895658 165.75920561471574 0.0 0.0
83.40469274748219 1.469942380454344 25.452569890387327 159.93919590526434 0.0 0.0
59.119967533548454 6.103628571036348 19.564583723572593 152.38426957124437 0.0 0.0
33.21910131251083 13.899523664238357 14.137375013157195 145.85803928572466 0.0 0.0
5.289737174334514 20.40390421140319 7.708092415721311 146.16678376354173 0.0 0.0
-13.101216423947161 2.643477111260222 -3.1364503370243506 157.1129187040179 0.0 0.0
-1.2245493485964225 -104.21051236058392 -31.757346795510543 150.50321375723263 0.0 0.0
-100.76168474721621 -469.0402395170079 -170.0100510411906 105.34041876388297 0.0 0.0
-83.94329330979596 -374.99761752871655 -137.72260841966488 -97.23720988300724 0.0 0.0
-17.145700819951763 -106.87089041497725 -37.200184225959234 -143.85369881755489 0.0 0.0
-32.445981904974474 -2.511818328216483 -10.485207584337838 -160.93738189355463 0.0 0.0
-28.788255957738947 18.949370211397394 -2.9511157291520185 -152.6879275209186 0.0 0.0
-16.40376128519214 15.101996406302003 -0.3904107630230911 -150.93634091200258 0.0 0.0
-6.7837322413635235 8.227670460020814 0.4332273926725976 -155.94051302611936 0.0 0.0
-2.063445765318219 3.0606281134301003 0.2977426219959751 -163.2791035093527 0.0 0.0
-0.2668187571276519 0.5574236627352349 0.08536300213626902 -168.00876601180443 0.0 0.0
0.16386913449116136 -0.17280562155229573 -0.0031302287844097165 -170.3887924130383 0.0 0.0
0.19080238799634586 -0.1163355623114457 0.02270176650683986 -166.31684908650814 0.0 0.0
0.11914787393416759 -0.08829007945028966 0.010354584225249042 -167.0239641501802 0.0 0.0
0.12012279482154753 -0.08769815324071484 -0.0003788496157053345 -162.30292350698394 0.0 0.0
-0.24892434405251151 0.13086421676126214 -0.03140148408846599 -159.57916651522856 0.0 0.0
-0.6654457641529632 0.55897835493586 0.021608921473575293 -157.2888972943576 0.0 0.0
2.1682229842342906 0.25167570563384345 0.71593493736356 -154.58016645096873 0.0 0.0
20.26062307602048 -5.081471676985 3.3105287119798845 -144.91505184831442 0.0 0.0
57.04534182826532 -4.74783470205405 10.083314908597487 -135.53117824743626 0.0 0.0
132.04886880331304 -12.346181233304847 23.237375212097305 -133.79438981423428 0.0 0.0
257.42212328812724 -61.830714026893766 36.762760023011865 -130.13820874735845 0.0 0.0
379.6794641906893 -59.95777554021239 110.72909705812584 -119.09493635811367 0.0 0.0
-87.18884257524644 -393.28005855419696 -179.06650847039992 -6.743050562363351e-12 0.0 0.0
379.67946419076276 -59.957775540240476 110.72909705808121 119.09493635827594 0.0 0.0
257.42212328801486 -61.83071402711111 36.76276002289893 130.1382087477934 0.0 0.0
132.0488688033068 -12.346181233461905 23.23737521205963 133.7943898146127 0.0 0.0
57.04534182778664 -4.747834703121633 10.083314908100178 135.5311782476186 0.0 0.0
20.260623075991262 -5.081471677386787 3.310528711832859 144.9150518483734 0.0 0.0
2.168222984228926 0.2516757052374672 0.7159349372373036 154.58016645099994 0.0 0.0
-0.6654457640256553 0.5589783548301153 0.02160892147171367 157.28889729438012 0.0 0.0
-0.24892434392388196 0.1308642165744356 -0.03140148410125043 159.5791665153395 0.0 0.0
0.1201227948086725 -0.08769815372294598 -0.00037884976418034455 162.30292350701183 0.0 0.0
0.11914787413161676 -0.08829007935329791 0.010354584313596149 167.02396415014073 0.0 0.0
0.19080238813668515 -0.11633556228507391 0.022701766558197 166.31684908645394 0.0 0.0
0.16386913462654462 -0.17280562147947442 -0.003130228721927253 170.3887924130277 0.0 0.0
-0.26681875708957214 0.5574236626893645 0.0853630021340468 168.00876601167926 0.0 0.0
-2.0634457652791642 3.060628113379109 0.2977426219922381 163.27910350920993 0.0 0.0
-6.783732241304314 8.227670459980487 0.43322739267821486 155.94051302592672 0.0 0.0
-16.403761285154665 15.101996406259413 -0.39041076302457767 150.93634091183995 0.0 0.0
-28.78825595772486 18.949370211360993 -2.9511157291588193 152.68792752071627 0.0 0.0
-32.445981904932154 -2.511818328147097 -10.485207584304614 160.9373818933756 0.0 0.0
-17.14570081997544 -106.87089041495571 -37.20018422595931 143.8536988174121 0.0 0.0
-83.94329330971426 -374.99761752831824 -137.72260841952442 97.23720988287728 0.0 0.0
-67.5390788069891 -295.7169129882228 -108.97679753856353 -88.40511018702438 0.0 0.0
-29.038868288316685 -103.33486361376288 -39.71193119119385 -135.86645987025318 0.0 0.0
-50.17154936953415 -6.4058909016460035 -16.97432223150955 -160.6071366954408 0.0 0.0
-61.179927254467955 17.15698306880078 -13.205340062232148 -155.2057856444085 0.0 0.0
-64.76614089897777 15.64348095325002 -14.738460802972773 -152.2099493312163 0.0 0.0
-71.93008294886201 10.056998017833399 -18.56830367609095 -155.2496892416782 0.0 0.0
-87.41203102881926 4.579231135899863 -24.815824243585375 -161.29571238833307 0.0 0.0
-111.30604492927235 1.6341431224700298 -32.818444217103774 -166.0464018103524 0.0 0.0
-145.7603037870857 -1.0432840896465665 -43.953812166550875 -165.60095436775325 0.0 0.0
-187.88491103697723 0.5462484520658712 -56.68827162350249 -161.49704863914155 0.0 0.0
-246.18600979812834 5.300416343352036 -71.82454096480683 -164.63045962906443 0.0 0.0
-300.8615430995451 9.146771826148441 -89.45949382256643 -157.13999811650405 0.0 0.0
-357.85641352882317 8.610598024357131 -111.12193639774547 -151.39782167917122 0.0 0.0
-420.0023302751863 8.518935944739635 -136.87088365863477 -144.2712756111779 0.0 0.0
-463.62851921796016 0.07543775123478724 -167.6971514644773 -137.91030056773758 0.0 0.0
-496.28695824051994 -4.361870243038439 -191.99336415632598 -138.93284815042716 0.0 0.0
-517.568691679761 -2.8377743798718527 -204.62216069885523 -144.07342171722993 0.0 0.0
-524.7733777909573 11.111750702668097 -197.55610456876855 -152.19364756919683 0.0 0.0
-514.3305276579208 21.03662586868986 -172.7002022632597 -150.91040072697885 0.0 0.0
-331.10664883330816 1.5040316223971928 -121.24018250624714 -97.1848300379703 0.0 0.0
-552.1038728676743 -566.7941284386172 -520.2792286709627 -8.162714948412031e-11 0.0 0.0
-331.10664883369907 1.504031622059557 -121.24018250649799 97.18483003839434 0.0 0.0
-514.3305276577881 21.036625868660423 -172.70020226324021 150.91040072733279 0.0 0.0
-524.773377791118 11.111750702342796 -197.55610456890176 152.19364756951273 0.0 0.0
-517.5686916800287 -2.8377743804162208 -204.6221606990705 144.0734217173244 0.0 0.0
-496.28695824023623 -4.361870242789546 -191.9933641561028 138.93284815043822 0.0 0.0
-463.6285192180147 0.0754377509447437 -167.69715146447302 137.91030056775722 0.0 0.0
-420.00233027507636 8.518935944511668 -136.87088365860842 144.27127561127128 0.0 0.0
-357.85641352838655 8.610598024498227 -111.12193639754369 151.39782167926495 0.0 0.0
-300.8615430993186 9.146771825719506 -89.45949382260072 157.1399981165341 0.0 0.0
-246.1860097977269 5.300416343030428 -71.82454096478747 164.63045962903553 0.0 0.0
-187.88491103664256 0.5462484518919344 -56.68827162345183 161.49704863908096 0.0 0.0
-145.76030378689683 -1.043284089911137 -43.95381216657152 165.60095436777559 0.0 0.0
-111.30604492897962 1.6341431226071195 -32.81844421697686 166.0464018102405 0.0 0.0
-87.41203102856757 4.579231136046351 -24.815824243466935 161.2957123881792 0.0 0.0
-71.93008294870074 10.056998017852496 -18.568303676037083 155.2496892415083 0.0 0.0
-64.76614089888344 15.64348095319929 -14.738460802960041 152.20994933103634 0.0 0.0
-61.179927254397434 17.156983068768188 -13.205340062221227 155.2057856442078 0.0 0.0
-50.171549369439866 -6.405890901558676 -16.974322231454792 160.60713669528423 0.0 0.0
-29.038868288286547 -103.33486361368261 -39.711931191160744 135.86645987010337 0.0 0.0
-67.5390788069115 -295.71691298792297 -108.97679753845028 88.4051101869217 0.0 0.0
-54.17660657522919 -226.83792968647148 -84.3043608785102 -78.71371353180426 0.0 0.0
-38.45307913347858 -95.63943570841582 -40.22775445256832 -126.20631557941678 0.0 0.0
-66.72680402454469 -8.963029179074256 -22.70766236556607 -156.43957685280844 0.0 0.0
-92.05709603344363 15.145389752876545 -23.07537222239117 -153.62430457520338 0.0 0.0
-111.81740309757487 15.59827797326247 -28.857944918333864 -149.69485405995837 0.0 0.0
-136.16992195542107 11.421906974696993 -37.39370813769581 -150.69858605806323 0.0 0.0
-171.15621081641677 5.375085006959405 -49.82540135362775 -152.73137738785383 0.0 0.0
-225.7723407060282 3.182619886752035 -65.91323387356907 -159.33115937497246 0.0 0.0
-292.2313462275005 1.1787285101879963 -87.00081198963021 -154.31491084747464 0.0 0.0
-366.1085213284734 2.9113419057979977 -111.46606638610025 -150.31713050202225 0.0 0.0
-426.42659994256576 -8.774716787187701 -145.2228429356855 -138.9494425270443 0.0 0.0
-483.5666988095192 -20.11749894438628 -182.21674119821648 -130.81255456885725 0.0 0.0
-538.9092222140848 -35.66474760891967 -225.4899865393408 -125.71050298668037 0.0 0.0
-589.5989551728549 -46.98242986337433 -268.4973880881558 -122.22072914224971 0.0 0.0
-634.9249830760853 -54.47383981149006 -306.45370116878354 -120.54120581175023 0.0 0.0
-668.6464804612368 -54.33493621900215 -331.7898460097631 -121.00472781652428 0.0 0.0
-689.4252644134664 -48.02925596818992 -344.23038863244454 -124.75280420890411 0.0 0.0
-696.4854107959513 -40.29445397706024 -346.35557942794134 -132.47352251782405 0.0 0.0
-686.2685815655169 -28.954198044900323 -334.4703897465923 -141.25039357723537 0.0 0.0
-677.0596895288392 -37.42745849131209 -326.6935253061986 -137.85906232898122 0.0 0.0
-1164.732992940079 -776.8456577238646 -899.5887306615994 2.914291030720051e-11 0.0 0.0
-677.0596895290603 -37.42745849182832 -326.6935253063921 137.85906232927317 0.0 0.0
-686.2685815652012 -28.954198044758897 -334.47038974644335 141.25039357759488 0.0 0.0
-696.4854107958034 -40.294453977053124 -346.3555794278295 132.4735225180703 0.0 0.0
-689.4252644129575 -48.02925596770477 -344.2303886320731 124.75280420892798 0.0 0.0
-668.6464804607305 -54.33493621847094 -331.78984600939924 121.0047278165233 0.0 0.0
-634.9249830758113 -54.473839811279205 -306.45370116856014 120.54120581173055 0.0 0.0
-589.5989551727355 -46.98242986343996 -268.4973880880665 122.22072914227978 0.0 0.0
-538.9092222137914 -35.66474760881266 -225.48998653912147 125.71050298675117 0.0 0.0
-483.56669880923755 -20.1174989443395 -182.21674119799656 130.81255456890057 0.0 0.0
-426.4265999422591 -8.774716787253405 -145.22284293549197 138.94944252705454 0.0 0.0
-366.1085213281634 2.91134190532718 -111.46606638611745 150.31713050203007 0.0 0.0
-292.2313462269515 1.1787285101034832 -87.0008119894959 154.31491084748828 0.0 0.0
-225.77234070561843 3.18261988683589 -65.91323387342126 159.3311593749409 0.0 0.0
-171.15621081608126 5.375085007112572 -49.82540135348271 152.73137738771314 0.0 0.0
-136.16992195517145 11.4219069747639 -37.393708137602026 150.69858605788994 0.0 0.0
-111.81740309742065 15.598277973210669 -28.857944918303794 149.69485405977437 0.0 0.0
-92.05709603330934 15.145389752901266 -23.075372222343958 153.62430457501554 0.0 0.0
-66.72680402446474 -8.96302917902418 -22.707662365526847 156.43957685265866 0.0 0.0
-38.45307913346204 -95.63943570836605 -40.227754452548425 126.20631557927503 0.0 0.0
-54.17660657515311 -226.83792968624772 -84.30436087842024 78.71371353172337 0.0 0.0
-43.83637803269779 -167.8127913815973 -63.49475082428851 -68.78631107030462 0.0 0.0
-46.28640936835917 -85.12557089729312 -39.42359407969568 -114.8652749028967 0.0 0.0
-82.42293185831625 -10.146770168376191 -27.77128752523675 -148.53059579454694 0.0 0.0
-121.66586242084765 13.044818013538585 -32.58602071588674 -148.09164438864198 0.0 0.0
-157.3840109563568 14.819621055600091 -42.76430451514281 -143.0203292351278 0.0 0.0
-198.17916921470862 11.741204797702936 -56.019306704928226 -140.68858935874775 0.0 0.0
-257.0622920923855 7.431306785446209 -74.25144696846104 -143.44722878577767 0.0 0.0
-332.23236548792136 1.2681670666224907 -99.3734176437971 -138.21623248676457 0.0 0.0
-411.75009633302005 -6.684475004111134 -132.46426377164977 -131.46952917890852 0.0 0.0
-481.8332987591527 -15.37902872950748 -171.59834592485626 -126.90524085651313 0.0 0.0
-535.5816704229774 -31.55590303494901 -215.7968956935733 -118.26244241147018 0.0 0.0
-587.7856905362187 -46.99628302770955 -261.2671322226394 -113.425486572582 0.0 0.0
-642.58839494072 -64.40715306233409 -309.02267442347164 -110.0174072572455 0.0 0.0
-694.264081391808 -79.84401109216498 -353.90073738975883 -106.59350912399375 0.0 0.0
-740.8550412219836 -89.76774613490268 -390.22899509805336 -104.66521666626608 0.0 0.0
-775.0235641252575 -91.41532512787087 -412.6496272574269 -105.4834535653189 0.0 0.0
-795.7415767962511 -83.2978466198843 -421.40152071634907 -109.70366915554288 0.0 0.0
-797.4371056601706 -65.11745679934414 -414.9250288535619 -117.17982146380395 0.0 0.0
-779.983515141379 -41.65139037137675 -394.18587939923685 -125.78099106253126 0.0 0.0
-740.5501602434131 -17.186895642001346 -361.14951643243586 -129.62521173506488 0.0 0.0
-1563.2613595691996 -985.116635999135 -1205.8234691993766 3.005595772265224e-11 0.0 0.0
-740.5501602430859 -17.18689564184244 -361.14951643225254 129.62521173534589 0.0 0.0
-779.9835151411389 -41.651390371294674 -394.1858793990709 125.7809910628307 0.0 0.0
-797.4371056596868 -65.11745679894634 -414.92502885321437 117.17982146397007 0.0 0.0
-795.7415767958576 -83.29784661955497 -421.4015207160931 109.70366915563494 0.0 0.0
-775.0235641252474 -91.41532512795824 -412.64962725739014 105.48345356543169 0.0 0.0
-740.8550412215097 -89.76774613450428 -390.22899509768274 104.66521666628589 0.0 0.0
-694.2640813918614 -79.84401109240736 -353.9007373897845 106.59350912407488 0.0 0.0
-642.5883949402005 -64.40715306195182 -309.0226744230861 110.01740725729051 0.0 0.0
-587.7856905359836 -46.99628302765848 -261.26713222238567 113.42548657258213 0.0 0.0
-535.5816704226584 -31.555903034848658 -215.79689569331137 118.26244241143547 0.0 0.0
-481.83329875876694 -15.37902872947965 -171.5983459245784 126.9052408565016 0.0 0.0
-411.75009633247873 -6.6844750038996645 -132.46426377134688 131.46952917892676 0.0 0.0
-332.2323654873789 1.2681670665840998 -99.37341764365098 138.2162324867223 0.0 0.0
-257.0622920919721 7.431306785417366 -74.25144696835355 143.44722878565884 0.0 0.0
-198.17916921453784 11.741204797421865 -56.01930670496145 140.6885893586096 0.0 0.0
-157.3840109562202 14.819621055496839 -42.76430451513354 143.02032923498984 0.0 0.0
-121.66586242076602 13.04481801343953 -32.58602071589213 148.09164438848313 0.0 0.0
-82.42293185821251 -10.146770168299085 -27.771287525182363 148.53059579437962 0.0 0.0
-46.28640936834266 -85.12557089729702 -39.423594079691895 114.86527490277855 0.0 0.0
-43.83637803261112 -167.81279138141124 -63.49475082420668 68.78631107022603 0.0 0.0
-36.27395643503546 -118.17665489800409 -46.33518339991185 -58.66134834520566 0.0 0.0
-53.016239835504564 -72.95849963250554 -37.79242184040302 -101.94257064773531 0.0 0.0
-97.43389868910276 -10.04589503101765 -32.24393811603613 -137.10580662624432 0.0 0.0
-150.1443197607851 10.818083904479378 -41.8060059705697 -138.49869217979997 0.0 0.0
-201.4369420839424 13.477259726554829 -56.3780356136718 -132.45108886464473 0.0 0.0
-260.5215385237621 12.35717847974006 -74.15030978505625 -128.50867075341748 0.0 0.0
-339.50354274198037 6.3903812198060574 -99.1478264046976 -123.7579826980677 0.0 0.0
-422.8375545728966 -7.010867818426581 -135.3862939293062 -115.27370787279382 0.0 0.0
-501.0149900002016 -15.270535992054823 -177.63973138789854 -111.89821797151701 0.0 0.0
-551.2631371293189 -35.568897074059365 -226.60138529902073 -103.8578122678687 0.0 0.0
-609.0277934936754 -49.91342299627357 -274.0395309153635 -101.28006888144405 0.0 0.0
-663.0068607240935 -69.12170464395888 -322.970721273414 -97.66619429129491 0.0 0.0
-719.2521590133662 -91.07257147490716 -372.7533681404109 -94.16611256844169 0.0 0.0
-773.8068833660534 -110.66520942874139 -418.07900482950606 -91.35116207786588 0.0 0.0
-822.5729463066073 -124.46582587304678 -454.19137714972294 -89.41656856564857 0.0 0.0
-860.197428785205 -127.20492467659861 -476.2482546206144 -90.42842215212333 0.0 0.0
-879.3625868591585 -118.85209353067448 -482.78355441726785 -93.89083686682574 0.0 0.0
-874.0314890638865 -89.69442297559452 -466.97038164875283 -100.15310119232466 0.0 0.0
-840.2762632901444 -46.11735913669182 -428.94875663870823 -108.99857568607767 0.0 0.0
-774.4391470314862 5.959061166489274 -369.81233802159727 -117.60476830491345 0.0 0.0
-1865.7471759232865 -1193.4906447032781 -1466.00760557105 3.5413449950283393e-11 0.0 0.0
-774.4391470312141 5.9590611666001365 -369.81233802146215 117.60476830514 0.0 0.0
-840.2762632903393 -46.117359137037376 -428.94875663883414 108.99857568639037 0.0 0.0
-874.0314890640223 -89.69442297574147 -466.9703816488253 100.15310119240682 0.0 0.0
-879.3625868592867 -118.85209353090767 -482.78355441735766 93.89083686687873 0.0 0.0
-860.197428785131 -127.20492467662118 -476.2482546204893 90.42842215217009 0.0 0.0
-822.5729463059968 -124.4658258724607 -454.1913771492376 89.41656856565751 0.0 0.0
-773.8068833657263 -110.66520942854723 -418.07900482923384 91.35116207789706 0.0 0.0
-719.2521590128833 -91.07257147452276 -372.7533681400378 94.16611256846123 0.0 0.0
-663.0068607235874 -69.12170464360231 -322.97072127298503 97.66619429130586 0.0 0.0
-609.0277934935184 -49.91342299637638 -274.0395309151749 101.28006888142305 0.0 0.0
-551.2631371289085 -35.56889707387825 -226.60138529866288 103.85781226783453 0.0 0.0
-501.01499000002104 -15.270535992286721 -177.6397313877544 111.89821797154761 0.0 0.0
-422.837554572332 -7.010867818286922 -135.38629392902368 115.27370787282678 0.0 0.0
-339.50354274143257 6.390381219805902 -99.14782640454781 123.7579826979739 0.0 0.0
-260.52153852339535 12.357178479728073 -74.15030978495638 128.5086707532906 0.0 0.0
-201.4369420837036 13.477259726510285 -56.37803561361438 132.45108886449094 0.0 0.0
-150.14431976065504 10.81808390441657 -41.80600597054899 138.49869217963578 0.0 0.0
-97.43389868896789 -10.045895030918459 -32.2439381159659 137.105806626107 0.0 0.0
-53.01623983547776 -72.95849963250956 -37.792421840396194 101.94257064762613 0.0 0.0
-36.27395643498282 -118.17665489787586 -46.3351833998576 58.66134834512519 0.0 0.0
-31.170590891470564 -77.73642539636981 -32.6721048863521 -48.307914396226195 0.0 0.0
-58.78164644573158 -60.04176318640688 -35.64702288964154 -87.54299090119616 0.0 0.0
-111.74910420050301 -8.860655616864388 -36.18292794521021 -122.34676840426896 0.0 0.0
-177.65257164215126 8.553127553293832 -50.73497340292683 -125.02634809976531 0.0 0.0
-243.63840062149106 11.507001115322712 -69.68553982272142 -117.72879143946545 0.0 0.0
-321.01063389684225 11.391512780686856 -92.19038791488408 -111.13724466945398 0.0 0.0
-412.53789176653436 -0.8305809846420891 -126.46282227847388 -100.53894448700979 0.0 0.0
-498.96481735688064 -12.558936334512994 -170.78878983418997 -94.96794692074363 0.0 0.0
-550.6960307314828 -31.553929714455652 -221.40224007330391 -88.93399148268679 0.0 0.0
-611.2274971766085 -46.14378470570403 -271.3617826218379 -87.86824489160142 0.0 0.0
-666.7877942647101 -67.17029163885846 -322.5748099608253 -84.75294474159162 0.0 0.0
-723.6331044873729 -91.00747929747504 -374.0149553436609 -81.514668024739 0.0 0.0
-782.9211604145753 -116.91999169228664 -425.10224197946764 -78.6287583353778 0.0 0.0
-840.4719759854005 -139.60539034316406 -470.7416859740464 -76.41778805121882 0.0 0.0
-892.5677921400815 -157.01541388885482 -508.08080852903294 -74.84988498404594 0.0 0.0
-933.3381740153872 -164.485121416802 -533.0305814902288 -74.98478318609338 0.0 0.0
-953.2473214283539 -152.34735631351754 -537.2513273422693 -77.8864896026446 0.0 0.0
-938.2965455299944 -113.07105403334702 -511.3813322682832 -82.49508157508507 0.0 0.0
-884.0614018833398 -48.06621635968382 -453.4060202413056 -90.90106213290795 0.0 0.0
-793.3001423657709 29.84160798267938 -369.8868633237579 -105.27710352994129 0.0 0.0
-2135.5289022403103 -1403.456424161565 -1709.110181921546 7.535660984103743e-11 0.0 0.0
-793.3001423658002 29.84160798258185 -369.8868633238134 105.2771035301097 0.0 0.0
-884.0614018836052 -48.0662163600582 -453.4060202414866 90.90106213311863 0.0 0.0
-938.2965455301901 -113.07105403360008 -511.38133226830377 82.49508157518802 0.0 0.0
-953.2473214280651 -152.3473563133024 -537.251327342048 77.88648960270835 0.0 0.0
-933.3381740151258 -164.48512141659387 -533.0305814899465 74.98478318611127 0.0 0.0
-892.5677921397503 -157.0154138885876 -508.08080852876054 74.849884984068 0.0 0.0
-840.4719759846814 -139.6053903424992 -470.74168597347864 76.41778805119851 0.0 0.0
-782.9211604143953 -116.91999169226885 -425.10224197932297 78.62875833542945 0.0 0.0
-723.6331044869291 -91.00747929719327 -374.014955343266 81.51466802477994 0.0 0.0
-666.78779426431 -67.1702916386273 -322.5748099604557 84.75294474156541 0.0 0.0
-611.2274971765146 -46.14378470590519 -271.3617826216793 87.86824489159412 0.0 0.0
-550.6960307312053 -31.553929714506733 -221.40224007303365 88.9339914827232 0.0 0.0
-498.9648173562547 -12.558936334156801 -170.78878983376217 94.96794692076027 0.0 0.0
-412.53789176606915 -0.8305809846050777 -126.46282227828027 100.53894448696015 0.0 0.0
-321.0106338964199 11.391512780728625 -92.19038791475127 111.13724466940376 0.0 0.0
-243.63840062117265 11.507001115366535 -69.6855398226177 117.72879143930646 0.0 0.0
-177.6525716419381 8.553127553354976 -50.73497340284409 125.02634809964997 0.0 0.0
-111.74910420037 -8.86065561679124 -36.182927945148364 122.34676840416869 0.0 0.0
-58.781646445690924 -60.04176318638848 -35.64702288962382 87.54299090109883 0.0 0.0
-31.17059089142229 -77.73642539629714 -32.67210488631583 48.30791439616406 0.0 0.0
-28.135527344124903 -46.49121732860096 -22.388023401817755 -37.772616785593485 0.0 0.0
-63.41928247752116 -47.07265112282317 -33.147580080103296 -71.79143532797234 0.0 0.0
-125.26514067760263 -6.959891331044634 -39.667509602594166 -104.34551300481881 0.0 0.0
-204.2422783986282 6.298227672367475 -59.389098360803715 -107.60974980086911 0.0 0.0
-284.9980521932082 9.489457471554763 -82.5611869294033 -99.86951579825279 0.0 0.0
-376.6710064952726 5.189190338460667 -111.73989264125481 -87.7492783207149 0.0 0.0
-478.711648174172 -5.544068981128817 -153.58659409468555 -78.12871908611045 0.0 0.0
-540.1214868023656 -23.965971094053018 -205.7239546721562 -73.76607221748965 0.0 0.0
-600.3725268942837 -37.443873763063735 -257.34427624671696 -72.55480777119566 0.0 0.0
-657.8928599630086 -58.87029692319318 -310.7604177047761 -70.53895336315293 0.0 0.0
-715.7795419583617 -83.8990387496917 -364.0175761570679 -68.21617878452236 0.0 0.0
-776.2555385414624 -112.20655757908517 -417.7724554379605 -65.6188541021909 0.0 0.0
-838.9357805308732 -141.47605954086498 -470.15826933531747 -63.35932481483685 0.0 0.0
-898.6194254746512 -168.7243618908369 -517.2609195709895 -61.63800502918304 0.0 0.0
-953.7150794085634 -188.16827865206676 -555.80048494763 -60.3839875756433 0.0 0.0
-998.5764658961784 -198.21704944716362 -583.5021652273715 -60.00088918704342 0.0 0.0
-1020.2308272118531 -188.7331188887821 -589.6057062163618 -61.326163738153994 0.0 0.0
-997.4057131976676 -139.89277087546918 -554.7227610538996 -64.3004048731782 0.0 0.0
-921.3129661635173 -50.51273267508401 -474.3567384342606 -72.58654846984642 0.0 0.0
-798.2447793292891 59.24427806983383 -360.32806429029074 -93.82913784392426 0.0 0.0
-2386.2139498323745 -1612.2229563803776 -1941.4540224809928 3.9676706364843994e-11 0.0 0.0
-798.2447793295263 59.24427806951241 -360.3280642904448 93.82913784409101 0.0 0.0
-921.3129661631518 -50.512732674794684 -474.35673843402895 72.58654847000751 0.0 0.0
-997.4057131974625 -139.89277087531192 -554.7227610536612 64.3004048733263 0.0 0.0
-1020.2308272114288 -188.73311888838674 -589.605706216 61.326163738156474 0.0 0.0
-998.5764658960741 -198.21704944712522 -583.5021652272153 60.000889187064985 0.0 0.0
-953.7150794083057 -188.16827865188935 -555.8004849473837 60.383987575703145 0.0 0.0
-898.6194254742003 -168.72436189045973 -517.2609195705796 61.638005029179475 0.0 0.0
-838.9357805305323 -141.4760595406457 -470.1582693350707 63.359324814862816 0.0 0.0
-776.2555385413282 -112.20655757909891 -417.7724554377702 65.61885410218063 0.0 0.0
-715.7795419579693 -83.89903874944565 -364.017576156697 68.21617878445231 0.0 0.0
-657.8928599625182 -58.87029692290578 -310.76041770433005 70.53895336310762 0.0 0.0
-600.3725268937196 -37.44387376273871 -257.34427624626466 72.55480777120461 0.0 0.0
-540.1214868019376 -23.96597109388081 -205.72395467180152 73.76607221747142 0.0 0.0
-478.7116481736149 -5.5440689808538455 -153.5865940943246 78.12871908602762 0.0 0.0
-376.6710064946314 5.189190338531905 -111.73989264107013 87.74927832065129 0.0 0.0
-284.9980521929119 9.489457471571612 -82.56118692931167 99.86951579816403 0.0 0.0
-204.2422783983602 6.298227672504801 -59.3890983606814 107.60974980076486 0.0 0.0
-125.26514067750524 -6.959891331084528 -39.66750960257693 104.345513004699 0.0 0.0
-63.41928247745239 -47.07265112277983 -33.14758008006966 71.79143532789132 0.0 0.0
-28.135527344074717 -46.49121732855943 -22.38802340179024 37.772616785569625 0.0 0.0
-26.60295183138583 -24.493987296063906 -15.329081738234917 -27.31520432506553 0.0 0.0
-66.44361155304296 -34.64229278314628 -30.325771300856765 -54.8669992724074 0.0 0.0
-137.73994832282375 -4.91431915369928 -42.796280242956904 -83.01969657662895 0.0 0.0
-229.91869754731601 4.480954936691015 -67.63347162400193 -86.18122418634904 0.0 0.0
-325.16173619568184 5.77582618184085 -95.63561284714962 -78.08937841496422 0.0 0.0
-434.80894339978715 0.2295000110108285 -131.739295695587 -63.415999766341535 0.0 0.0
-519.1848818967446 -15.202936233412137 -182.27396888924133 -57.28065246308833 0.0 0.0
-578.7775122027643 -26.793909457814333 -234.71536048814716 -55.83313603118897 0.0 0.0
-638.9688673522414 -46.49710574669763 -290.00382320336666 -54.62000925699678 0.0 0.0
-697.9736451597838 -71.12598045258913 -344.9861807470214 -53.34455982960758 0.0 0.0
-758.3008599340677 -100.54093419000955 -400.35351383980105 -51.61176554171874 0.0 0.0
-822.6392638710286 -133.04926875955684 -456.3174601293087 -49.702070404996746 0.0 0.0
-888.2552091078031 -167.36748412599331 -511.07312485400524 -47.86195567245271 0.0 0.0
-951.9063526284681 -195.3999891002307 -559.0047582845779 -46.770447546275676 0.0 0.0
-1008.1321006563516 -217.3171814921769 -598.6899549438592 -45.9869426238792 0.0 0.0
-1054.8818899243588 -230.27035188085424 -628.577465700252 -45.07237962508505 0.0 0.0
-1081.8638895296538 -224.7295411235092 -639.087823693956 -44.81943016571055 0.0 0.0
-1058.627627130244 -174.56511690193685 -602.8764021401773 -46.04401847138677 0.0 0.0
-960.4856884600998 -61.20413110958857 -499.9441569164893 -53.86378423746019 0.0 0.0
-788.2005264114642 99.52168742461632 -337.89841349330976 -81.94374332639002 0.0 0.0
-2621.370605712229 -1812.5446811970726 -2161.6134715524163 6.199485369506874e-11 0.0 0.0
-788.2005264114969 99.52168742453374 -337.89841349330493 81.94374332652256 0.0 0.0
-960.4856884599346 -61.20413110945171 -499.9441569163869 53.86378423754289 0.0 0.0
-1058.6276271303218 -174.56511690204943 -602.8764021401847 46.04401847145539 0.0 0.0
-1081.8638895295985 -224.72954112350968 -639.0878236938682 44.81943016575448 0.0 0.0
-1054.8818899241073 -230.2703518806494 -628.5774656999644 45.07237962512122 0.0 0.0
-1008.1321006564572 -217.31718149236872 -598.6899549438621 45.986942623922026 0.0 0.0
-951.9063526281714 -195.3999891000289 -559.0047582842733 46.77044754631332 0.0 0.0
-888.2552091074513 -167.3674841257559 -511.07312485372427 47.86195567247771 0.0 0.0
-822.6392638708444 -133.04926875954038 -456.3174601290817 49.7020704050355 0.0 0.0
-758.3008599336464 -100.54093418973272 -400.3535138394316 51.61176554169768 0.0 0.0
-697.9736451590811 -71.12598045203602 -344.98618074644986 53.34455982952467 0.0 0.0
-638.9688673517691 -46.49710574640643 -290.00382320294057 54.62000925697849 0.0 0.0
-578.7775122024756 -26.79390945781809 -234.71536048786376 55.83313603121367 0.0 0.0
-519.1848818962485 -15.202936233200568 -182.27396888887702 57.28065246306402 0.0 0.0
-434.80894339908957 0.22950001137959886 -131.739295695249 63.41599976629189 0.0 0.0
-325.16173619527484 5.775826181985644 -95.63561284698982 78.08937841492597 0.0 0.0
-229.91869754709154 4.480954936672841 -67.63347162393953 86.18122418626706 0.0 0.0
-137.73994832271956 -4.914319153755438 -42.796280242942494 83.01969657653177 0.0 0.0
-66.44361155299814 -34.64229278316003 -30.32577130084745 54.86699927237254 0.0 0.0
-26.60295183134278 -24.49398729603528 -15.329081738213414 27.31520432503141 0.0 0.0
-25.593200321223108 -11.618220430728815 -11.163426225585573 -17.62605338532271 0.0 0.0
-66.97627618597784 -23.42214008905801 -27.119524882510753 -37.019283134848706 0.0 0.0
-148.72789122475953 -3.5021001260981737 -45.6689974052573 -58.00283868706185 0.0 0.0
-254.6273616613625 3.6692226681564217 -75.28841407264449 -60.42599268475342 0.0 0.0
-365.8723250075992 -0.9129715865098706 -109.92213626829069 -52.642488942456055 0.0 0.0
-482.88380488425224 -5.598568164081842 -153.1394285025189 -39.84986819355502 0.0 0.0
-546.6458947338477 -20.948065462109426 -207.46459706134834 -37.293754871216926 0.0 0.0
-611.8845859729108 -32.75104088695118 -262.22485116279915 -37.34869776487051 0.0 0.0
-671.451237303356 -55.59702268446442 -318.7990599986265 -36.78086424526404 0.0 0.0
-732.2707207487998 -83.34023214338379 -375.03930684943936 -35.99508553054495 0.0 0.0
-796.5690113037189 -116.70414667669183 -432.7247015588185 -34.90664407699957 0.0 0.0
-864.1935538688365 -154.05924273427058 -491.28302409927977 -33.55252965873716 0.0 0.0
-934.4274448446668 -190.4118236410499 -547.8099042850449 -32.44213149580363 0.0 0.0
-999.9415577606214 -223.11687471952615 -598.24015435378 -31.683282242038928 0.0 0.0
-1058.1816654538645 -246.12039207804912 -639.0556739726724 -31.2850774511222 0.0 0.0
-1103.3092249005756 -256.8395663264772 -666.889441038016 -30.497012234040323 0.0 0.0
-1131.6550900566683 -253.30018241289469 -679.0680366773531 -29.110545491876163 0.0 0.0
-1129.8280302485018 -224.51461574764448 -663.5340055620829 -28.583137576769897 0.0 0.0
-1019.258820345457 -96.33873006307935 -546.9541149411035 -33.90973951136498 0.0 0.0
-757.4815042782666 158.06407663197558 -295.72832559819636 -67.52131336376726 0.0 0.0
-2829.6620013923584 -1989.4341234030214 -2357.448830270002 4.560618549476203e-11 0.0 0.0
-757.4815042784488 158.06407663176913 -295.7283255982902 67.52131336383194 0.0 0.0
-1019.2588203457334 -96.33873006338472 -546.9541149412814 33.90973951138606 0.0 0.0
-1129.8280302479782 -224.51461574715873 -663.5340055615985 28.58313757682885 0.0 0.0
-1131.6550900566776 -253.30018241295068 -679.0680366772943 29.110545491933287 0.0 0.0
-1103.3092248998285 -256.83956632577815 -666.8894410373691 30.497012234029228 0.0 0.0
-1058.1816654537417 -246.1203920780031 -639.0556739724642 31.285077451170984 0.0 0.0
-999.9415577599472 -223.1168747189316 -598.2401543532148 31.683282242049533 0.0 0.0
-934.4274448443334 -190.41182364082923 -547.8099042847618 32.442131495801 0.0 0.0
-864.1935538685128 -154.0592427341003 -491.2830240989683 33.552529658758296 0.0 0.0
-796.5690113033243 -116.70414667644368 -432.7247015584599 34.906644076967176 0.0 0.0
-732.270720748509 -83.34023214325755 -375.0393068491268 35.99508553047177 0.0 0.0
-671.4512373028558 -55.59702268415353 -318.79905999817305 36.78086424521814 0.0 0.0
-611.8845859723497 -32.751040886624644 -262.2248511623364 37.34869776489115 0.0 0.0
-546.6458947335626 -20.948065462164642 -207.4645970610864 37.293754871224024 0.0 0.0
-482.88380488372184 -5.598568163881772 -153.13942850222475 39.849868193512826 0.0 0.0
-365.87232500721336 -0.9129715866175894 -109.92213626822388 52.64248894243921 0.0 0.0
-254.62736166112097 3.669222668214043 -75.28841407255396 60.42599268470174 0.0 0.0
-148.72789122464462 -3.50210012614358 -45.668997405236446 58.00283868701846 0.0 0.0
-66.97627618592465 -23.42214008907265 -27.119524882499178 37.019283134811424 0.0 0.0
-25.593200321207053 -11.618220430724522 -11.163426225579473 17.62605338525644 0.0 0.0
-23.177432272338034 -7.105916300855149 -9.085004571957956 -10.249336121904276 0.0 0.0
-63.654001157333134 -14.612062091137753 -23.479818974541264 -18.53939715014615 0.0 0.0
-157.3387333091969 -3.3880930607335142 -48.21804791097912 -28.398946799280147 0.0 0.0
-278.89173182117287 3.5029928909510373 -82.63174782373804 -29.78857204373176 0.0 0.0
-412.48590957121274 -5.154689409249057 -124.58974374019529 -24.762391342986525 0.0 0.0
-515.3614082026204 -14.369188436348162 -175.74131422568732 -18.653126768769322 0.0 0.0
-575.8224046020323 -20.249777753310934 -228.73845915371334 -19.64454831993826 0.0 0.0
-639.3525690938518 -39.67665887612169 -287.1311691185938 -19.381343861217026 0.0 0.0
-699.5516503677505 -64.08009856213086 -343.9009617032657 -18.870476817947843 0.0 0.0
-762.4055435147523 -95.59348126977176 -401.88696628417733 -18.528271147725185 0.0 0.0
-830.4772080671263 -133.15277092095627 -462.0801770274778 -17.86739002677612 0.0 0.0
-903.0322598297845 -173.45479867631158 -523.0612407419729 -17.268362891729907 0.0 0.0
-975.131947502391 -214.4403497865846 -581.8791003020806 -16.738921569655734 0.0 0.0
-1045.0157787825765 -249.48743086842782 -635.0023921150985 -16.34839359497349 0.0 0.0
-1104.5469105072464 -273.7193166878991 -676.8935112532204 -16.216782009126696 0.0 0.0
-1147.4179392487658 -282.35623407446315 -702.4864035004255 -15.803162035799584 0.0 0.0
-1169.3227242050857 -273.0722396689587 -708.670720368215 -14.54134500294887 0.0 0.0
-1179.115080541247 -256.81829732756535 -704.8445057650503 -13.246139542015793 0.0 0.0
-1153.6151685477207 -212.43974701549666 -671.0042918551128 -14.90150617510485 0.0 0.0
-736.7396777418301 205.90918258193147 -262.61311294270524 -42.61608602701054 0.0 0.0
-2908.0794420493585 -2034.6415586943904 -2425.7693064853024 2.737721160883666e-11 0.0 0.0
-736.7396777419287 205.90918258180886 -262.6131129427474 42.616086027061684 0.0 0.0
-1153.6151685473926 -212.43974701518528 -671.0042918548895 14.901506175111738 0.0 0.0
-1179.1150805406623 -256.81829732700635 -704.8445057645171 13.246139542060764 0.0 0.0
-1169.322724205331 -273.0722396692455 -708.6707203683117 14.541345002938904 0.0 0.0
-1147.4179392476726 -282.35623407340694 -702.4864034995692 15.803162035753076 0.0 0.0
-1104.546910506759 -273.71931668748005 -676.8935112527696 16.21678200915807 0.0 0.0
-1045.0157787816986 -249.4874308676189 -635.0023921143647 16.34839359498769 0.0 0.0
-975.1319475023189 -214.4403497866293 -581.8791003019584 16.738921569651488 0.0 0.0
-903.0322598295153 -173.45479867618602 -523.0612407416987 17.268362891745912 0.0 0.0
-830.4772080667686 -133.15277092074962 -462.0801770271572 17.867390026706506 0.0 0.0
-762.4055435144023 -95.59348126960903 -401.886966283824 18.528271147719877 0.0 0.0
-699.5516503670517 -64.08009856160992 -343.9009617027088 18.870476817957645 0.0 0.0
-639.3525690933818 -39.676658875860426 -287.13116911815297 19.381343861221673 0.0 0.0
-575.82240460163 -20.24977775315826 -228.7384591533501 19.64454831990586 0.0 0.0
-515.3614082022159 -14.369188436259567 -175.74131422541458 18.653126768778026 0.0 0.0
-412.48590957081433 -5.154689409249165 -124.58974374005874 24.762391342982927 0.0 0.0
-278.8917318208839 3.5029928910420054 -82.63174782362425 29.78857204373454 0.0 0.0
-157.33873330907454 -3.3880930607400668 -48.21804791094436 28.398946799270245 0.0 0.0
-63.6540011572904 -14.61206209110781 -23.479818974519464 18.539397150092128 0.0 0.0
-23.177432272335068 -7.105916300860982 -9.08500457195881 10.249336121905218 0.0 0.0
-13.017116350381775 -3.2400147651986773 -4.877139334674135 -6.69976213475734 0.0 0.0
-53.08211369268279 -7.694082114852404 -18.232858742260554 -7.735341738523882 0.0 0.0
-161.73112703111488 -4.0698218030103135 -49.740284650237555 -9.724846341425135 0.0 0.0
-307.8329284160074 -3.6683971094760146 -93.4360202421733 -10.468892838425983 0.0 0.0
-461.94219550744776 -25.366657620064423 -147.83076298913778 -6.723306871779931 0.0 0.0
-567.3970889351701 -47.66801076703974 -211.6835858443244 -3.026742261997004 0.0 0.0
-632.1987178105194 -61.339089239157744 -273.9262971227114 -3.4967114652920657 0.0 0.0
-706.1339817125051 -94.07613679107311 -344.2032919795767 -3.7283443419742355 0.0 0.0
-781.0092652986538 -134.58446400524292 -415.9479522857473 -3.634830655991429 0.0 0.0
-865.6334350086648 -187.41362274286246 -494.30301188609735 -3.8057021996038856 0.0 0.0
-963.35621555385 -253.72864330047696 -582.4872603323387 -4.0442468406031455 0.0 0.0
-1073.7189842819553 -333.7804086151806 -681.2922230036477 -4.469501510558407 0.0 0.0
-1193.8555282424065 -420.8866256415057 -786.0982958446683 -4.804491865070119 0.0 0.0
-1320.3432180448299 -512.5379410185651 -895.1591699082062 -5.238935490699378 0.0 0.0
-1442.6319241458375 -599.3941522300433 -999.1431613555001 -5.72862358383783 0.0 0.0
-1546.6231451379736 -669.1344519037962 -1085.3898617414604 -6.0136130310456615 0.0 0.0
-1614.8070219621998 -706.6021682679233 -1137.9266692801175 -5.658556601501694 0.0 0.0
-1627.0043180844823 -693.9282012175145 -1137.426458447504 -4.823329287378272 0.0 0.0
-1621.787090914082 -670.6676979459389 -1124.1022276408605 -4.977640682759564 0.0 0.0
-1487.1484311507297 -527.0378727525998 -989.2225333402687 -27.848332678069905 0.0 0.0
-4075.0090442903206 -3174.498709964915 -3563.376195655627 4.604316927725449e-12 0.0 0.0
-1487.148431150651 -527.0378727525367 -989.2225333402049 27.84833267808161 0.0 0.0
-1621.7870909131366 -670.6676979449973 -1124.102227640187 4.977640682744767 0.0 0.0
-1627.0043180842922 -693.9282012173694 -1137.4264584472435 4.8233292874033395 0.0 0.0
-1614.8070219627277 -706.6021682685139 -1137.9266692803626 5.658556601519969 0.0 0.0
-1546.6231451366552 -669.1344519025121 -1085.3898617403909 6.01361303104332 0.0 0.0
-1442.6319241455033 -599.3941522297794 -999.1431613551817 5.728623583870611 0.0 0.0
-1320.3432180439631 -512.5379410177674 -895.1591699074195 5.238935490689634 0.0 0.0
-1193.8555282424886 -420.88662564172495 -786.0982958446023 4.8044918650509985 0.0 0.0
-1073.718984281489 -333.7804086148633 -681.2922230031712 4.469501510603951 0.0 0.0
-963.3562155534319 -253.72864330021264 -582.4872603319455 4.044246840553875 0.0 0.0
-865.633435008126 -187.41362274251156 -494.3030118856211 3.805702199652373 0.0 0.0
-781.0092652978949 -134.58446400465445 -415.9479522851248 3.6348306560351453 0.0 0.0
-706.1339817122786 -94.07613679110904 -344.20329197923184 3.728344341987608 0.0 0.0
-632.198717809883 -61.3390892387354 -273.9262971221725 3.4967114652546663 0.0 0.0
-567.3970889347974 -47.66801076697368 -211.68358584402347 3.026742262056466 0.0 0.0
-461.9421955068134 -25.366657619600495 -147.83076298878711 6.723306871736472 0.0 0.0
-307.8329284157791 -3.6683971095627754 -93.43602024213524 10.468892838444173 0.0 0.0
-161.73112703095802 -4.06982180298326 -49.74028465018238 9.724846341411647 0.0 0.0
-53.08211369261052 -7.694082114782241 -18.23285874221783 7.73534173849266 0.0 0.0
-13.017116350398055 -3.2400147652107276 -4.877139334682633 6.699762134827754 0.0 0.0
SCALARS Strain float 6
LOOKUP_TABLE default
0.007233510748205774 -0.013856237013332915 0.0 -0.00023655429155231968 0.0 0.0
0.004717698976663911 -0.00031648041453834 0.0 -0.003724128786821682 0.0 0.0
0.0019565331506411045 -0.0007599787169212668 0.0 -0.00040529206692442317 0.0 0.0
0.001854749968955429 -0.0007217521136458449 0.0 -5.246493318900014e-05 0.0 0.0
0.0022711815488268335 -0.0008857148578286329 0.0 -1.4080092007927468e-05 0.0 0.0
0.0030516276628993312 -0.001390754196618063 0.0 2.3103253005477434e-05 0.0 0.0
0.004210361772114922 -0.0022669007482483995 0.0 1.5119958664588362e-05 0.0 0.0
0.005666858771310592 -0.0033804481360548665 0.0 1.663329268334902e-05 0.0 0.0
0.007463594814763535 -0.004802532969022346 0.0 3.8147875314370884e-05 0.0 0.0
0.009687935286029193 -0.006594069442166671 0.0 6.795377048593427e-05 0.0 0.0
0.012516673323782559 -0.008915612431244354 0.0 0.00015179669827631746 0.0 0.0
0.016250117953123148 -0.012068356950503758 0.0 0.0002893665162411976 0.0 0.0
0.021223963263858704 -0.01642006696707671 0.0 0.00037819088313267586 0.0 0.0
0.027723464688042147 -0.022269642037689344 0.0 0.0004627776271593529 0.0 0.0
0.035892268205110156 -0.02979874969681598 0.0 0.0004747161168724641 0.0 0.0
0.045573821095481255 -0.03888266225466304 0.0 0.0003834205564231985 0.0 0.0
0.05619479406246668 -0.0489707520557804 0.0 0.00018721196267034324 0.0 0.0
0.0667541023370883 -0.05908595676960503 0.0 -4.919668790520312e-05 0.0 0.0
0.0759836519576321 -0.06798416488100391 0.0 -0.0001831821472584878 0.0 0.0
0.08256474908097661 -0.07439101213626015 0.0 -0.00024063468140576643 0.0 0.0
0.0850306966945404 -0.07686205413274516 0.0 3.690624195140657e-16 0.0 0.0
0.08256474908097247 -0.07439101213625289 0.0 0.00024063468140848822 0.0 0.0
0.07598365195762209 -0.06798416488099937 0.0 0.00018318214726326153 0.0 0.0
0.06675410233707385 -0.05908595676959583 0.0 4.919668790727633e-05 0.0 0.0
0.05619479406245095 -0.04897075205576351 0.0 -0.00018721196266959232 0.0 0.0
0.04557382109546637 -0.03888266225464874 0.0 -0.00038342055642237973 0.0 0.0
0.035892268205094814 -0.029798749696804502 0.0 -0.00047471611687341657 0.0 0.0
0.027723464688025203 -0.022269642037675584 0.0 -0.0004627776271607932 0.0 0.0
0.021223963263841034 -0.016420066967061598 0.0 -0.00037819088313367343 0.0 0.0
0.01625011795310607 -0.01206835695048762 0.0 -0.00028936651624163597 0.0 0.0
0.012516673323767356 -0.008915612431231963 0.0 -0.00015179669827686032 0.0 0.0
0.009687935286016365 -0.006594069442152947 0.0 -6.795377048654711e-05 0.0 0.0
0.007463594814752613 -0.004802532969013151 0.0 -3.814787531450646e-05 0.0 0.0
0.0056668587713014605 -0.003380448136047539 0.0 -1.6633292683800483e-05 0.0 0.0
0.004210361772107838 -0.002266900748243333 0.0 -1.511995866489824e-05 0.0 0.0
0.003051627662894816 -0.0013907541966156573 0.0 -2.3103253006090673e-05 0.0 0.0
0.0022711815488246517 -0.0008857148578276387 0.0 1.4080092007493611e-05 0.0 0.0
0.0018547499689543904 -0.0007217521136451152 0.0 5.246493318926256e-05 0.0 0.0
0.0019565331506400025 -0.0007599787169212887 0.0 0.0004052920669235929 0.0 0.0
0.004717698976661524 -0.00031648041453870984 0.0 0.0037241287868168115 0.0 0.0
0.00723351074820246 -0.013856237013317016 0.0 0.00023655429152959835 0.0 0.0
0.004692179250024636 -0.012330121959429327 0.0 0.00014171433777848528 0.0 0.0
0.002958066706254517 -0.000172579656862164 0.0 -0.002813886952537486 0.0 0.0
0.001397817334219589 -0.0006072684718702326 0.0 -0.00028225246819881406 0.0 0.0
0.0016816461138847484 -0.0007013337958300882 0.0 -0.00019981748980775816 0.0 0.0
0.00201936862903828 -0.0008271294361096011 0.0 -0.00019496809843943548 0.0 0.0
0.0026968720337975484 -0.0012638634480217315 0.0 -0.00018360862015779484 0.0 0.0
0.003739977145456405 -0.002079814950641219 0.0 -0.0002967224795117578 0.0 0.0
0.005064113343720597 -0.00313103244807165 0.0 -0.0003758145583861939 0.0 0.0
0.006683876043980903 -0.004469967813130044 0.0 -0.00045299884411624026 0.0 0.0
0.008671763497633326 -0.006152537089729518 0.0 -0.0005350758674839629 0.0 0.0
0.011182693906436338 -0.008330308731521152 0.0 -0.0006066691417379992 0.0 0.0
0.014480414487787098 -0.011279014292862276 0.0 -0.0006755761079745094 0.0 0.0
0.018903046410403586 -0.015358674359196793 0.0 -0.0008319323015268188 0.0 0.0
0.024747070639670583 -0.02088821004940526 0.0 -0.001104460602354776 0.0 0.0
0.03215430192453921 -0.028038881823181025 0.0 -0.001481510458074667 0.0 0.0
0.04098434291254456 -0.0366936309662902 0.0 -0.0019533796266444506 0.0 0.0
0.05070128437677818 -0.04632558904695499 0.0 -0.002414489863253543 0.0 0.0
0.06039537711159926 -0.05600858422150495 0.0 -0.0026422374857944715 0.0 0.0
0.0689100356584132 -0.06456193352059406 0.0 -0.0023958868684170907 0.0 0.0
0.07493544088928783 -0.07070700935777441 0.0 -0.0017010781159231701 0.0 0.0
0.07715323336380338 -0.07310265279931051 0.0 2.916720684420504e-15 0.0 0.0
0.07493544088928387 -0.0707070093577695 0.0 0.0017010781159302701 0.0 0.0
0.06891003565840462 -0.06456193352058731 0.0 0.002395886868425088 0.0 0.0
0.06039537711158724 -0.056008584221495336 0.0 0.002642237485799707 0.0 0.0
0.050701284376764896 -0.04632558904694335 0.0 0.0024144898632561633 0.0 0.0
0.04098434291253112 -0.036693630966277806 0.0 0.001953379626645258 0.0 0.0
0.03215430192452513 -0.02803888182317035 0.0 0.0014815104580744832 0.0 0.0
0.024747070639655522 -0.020888210049391464 0.0 0.0011044606023537015 0.0 0.0
0.018903046410387828 -0.015358674359182107 0.0 0.0008319323015261835 0.0 0.0
0.014480414487771688 -0.01127901429284818 0.0 0.000675576107973922 0.0 0.0
0.01118269390642228 -0.008330308731507757 0.0 0.0006066691417364106 0.0 0.0
0.008671763497621533 -0.006152537089718955 0.0 0.0005350758674828625 0.0 0.0
0.006683876043971071 -0.0044699678131211226 0.0 0.0004529988441154227 0.0 0.0
0.00506411334371232 -0.003131032448064378 0.0 0.0003758145583854966 0.0 0.0
0.003739977145450172 -0.002079814950635829 0.0 0.00029672247951134873 0.0 0.0
0.002696872033793776 -0.00126386344801932 0.0 0.0001836086201568523 0.0 0.0
0.002019368629036666 -0.0008271294361092039 0.0 0.0001949680984390293 0.0 0.0
0.0016816461138840597 -0.0007013337958295193 0.0 0.00019981748980751006 0.0 0.0
0.0013978173342194193 -0.0006072684718706367 0.0 0.0002822524681981941 0.0 0.0
0.0029580667062517833 -0.0001725796568618903 0.0 0.002813886952532266 0.0 0.0
0.004692179250018972 -0.012330121959413567 0.0 -0.00014171433779555816 0.0 0.0
0.003290787785643806 -0.009709378040539132 0.0 -0.0017667399309851473 0.0 0.0
0.0019935267062155793 -4.454956480159472e-05 0.0 -0.0027961736464477724 0.0 0.0
0.0009878902462385525 -0.00034532644100389016 0.0 -0.00025574560470000886 0.0 0.0
0.0014408019320206003 -0.0006219323096263226 0.0 -0.0004416770402073916 0.0 0.0
0.0017919486847858455 -0.0007344495297335396 0.0 -0.0004750318953871156 0.0 0.0
0.0023506494172740706 -0.0010302478755138862 0.0 -0.0004175334184539612 0.0 0.0
0.0032592349721448453 -0.001701691410487029 0.0 -0.000604590009158623 0.0 0.0
0.004454789576025595 -0.0026389948507962737 0.0 -0.0007841670268556172 0.0 0.0
0.005900807052768535 -0.003810289426220301 0.0 -0.0009576484255351654 0.0 0.0
0.007659407747911075 -0.0052788126723199 0.0 -0.001135214988342914 0.0 0.0
0.009864216713578945 -0.007171653111732998 0.0 -0.0013174340013088212 0.0 0.0
0.012745515360628684 -0.009724258675773947 0.0 -0.0015193228376468703 0.0 0.0
0.01661512528668337 -0.013266715205625921 0.0 -0.0018145520034945543 0.0 0.0
0.02178451746653304 -0.018140245727154714 0.0 -0.0023139912430490384 0.0 0.0
0.028404986393993196 -0.02452166536292912 0.0 -0.0030296716002406886 0.0 0.0
0.036345691988675315 -0.032300183454824764 0.0 -0.003890263666543997 0.0 0.0
0.04513875861445506 -0.04100721259029688 0.0 -0.0046959914209430305 0.0 0.0
0.05398083118891746 -0.04982794798267006 0.0 -0.005066260428564711 0.0 0.0
0.06180283358836586 -0.05769593611132519 0.0 -0.00461800866294418 0.0 0.0
0.0673810258976813 -0.0633724593958731 0.0 -0.003258335037060951 0.0 0.0
0.06945112367209229 -0.06567813441069421 0.0 5.732827407234353e-15 0.0 0.0
0.06738102589767742 -0.06337245939587147 0.0 0.0032583350370752506 0.0 0.0
0.06180283358835825 -0.05769593611131715 0.0 0.004618008662958327 0.0 0.0
0.05398083118890739 -0.04982794798265809 0.0 0.0050662604285734904 0.0 0.0
0.04513875861444385 -0.04100721259028966 0.0 0.004695991420946243 0.0 0.0
0.03634569198866349 -0.0323001834548127 0.0 0.003890263666543623 0.0 0.0
0.028404986393980525 -0.024521665362919248 0.0 0.0030296716002408486 0.0 0.0
0.021784517466519677 -0.018140245727141985 0.0 0.002313991243048496 0.0 0.0
0.016615125286669825 -0.013266715205613285 0.0 0.0018145520034932405 0.0 0.0
0.012745515360615203 -0.009724258675762145 0.0 0.001519322837645362 0.0 0.0
0.009864216713566553 -0.00717165311172057 0.0 0.00131743400130589 0.0 0.0
0.007659407747900736 -0.005278812672312524 0.0 0.0011352149883413793 0.0 0.0
0.005900807052759672 -0.0038102894262129266 0.0 0.0009576484255335589 0.0 0.0
0.004454789576018144 -0.0026389948507897277 0.0 0.0007841670268541529 0.0 0.0
0.0032592349721395036 -0.0017016914104828504 0.0 0.0006045900091571205 0.0 0.0
0.0023506494172711545 -0.0010302478755117139 0.0 0.00041753341845268254 0.0 0.0
0.0017919486847845605 -0.0007344495297329018 0.0 0.0004750318953867553 0.0 0.0
0.0014408019320200029 -0.0006219323096258325 0.0 0.00044167704020644984 0.0 0.0
0.000987890246238642 -0.00034532644100451754 0.0 0.0002557456046991388 0.0 0.0
0.001993526706212874 -4.454956480043907e-05 0.0 0.002796173646440749 0.0 0.0
0.003290787785637981 -0.009709378040524448 0.0 0.0017667399309737753 0.0 0.0
0.00241261553326264 -0.007757859217437251 0.0 -0.0021683177207332824 0.0 0.0
0.0014114751123563962 -0.00011141934284816026 0.0 -0.002710811750768037 0.0 0.0
0.0006975135427658772 -0.0001729799195096316 0.0 -0.0005387385857592321 0.0 0.0
0.0011849248069189795 -0.0004954102460565887 0.0 -0.0006479348179437978 0.0 0.0
0.0015674381827441401 -0.0006569290752872393 0.0 -0.0007559625670509814 0.0 0.0
0.002029211193724123 -0.0008559620749150834 0.0 -0.0006971105293322897 0.0 0.0
0.0027802586893667333 -0.0013375516904857744 0.0 -0.0008132472853968224 0.0 0.0
0.003836746882884428 -0.002155049399219467 0.0 -0.001106932212570981 0.0 0.0
0.00511573314608717 -0.0031656575539956264 0.0 -0.0013578929268588846 0.0 0.0
0.006652622106249903 -0.004425292621914112 0.0 -0.0016132950435470456 0.0 0.0
0.00856135646730934 -0.006042784359727102 0.0 -0.001879600309698061 0.0 0.0
0.01104029941994258 -0.008214385269323443 0.0 -0.002181380690588191 0.0 0.0
0.0143724329391826 -0.011234873167683703 0.0 -0.002596758742757471 0.0 0.0
0.018853635407827453 -0.015438301256206419 0.0 -0.0032438944622205637 0.0 0.0
0.024654546760194573 -0.021017685796500776 0.0 -0.004183223592105537 0.0 0.0
0.031680028401191974 -0.027886789869540532 0.0 -0.005334821297602003 0.0 0.0
0.03952527245409485 -0.03564329066038226 0.0 -0.00640720330872639 0.0 0.0
0.047501487870168876 -0.04359245041440018 0.0 -0.006915920329742313 0.0 0.0
0.054656667331543854 -0.0507851495611102 0.0 -0.006381234234883247 0.0 0.0
0.05986687956381621 -0.05608693100239841 0.0 -0.004464429793435415 0.0 0.0
0.06183956697031994 -0.0583969489452698 0.0 8.069283088940615e-15 0.0 0.0
0.059866879563812356 -0.05608693100239402 0.0 0.004464429793454152 0.0 0.0
0.0546566673315371 -0.05078514956110539 0.0 0.006381234234902482 0.0 0.0
0.04750148787016034 -0.04359245041439193 0.0 0.006915920329753982 0.0 0.0
0.03952527245408506 -0.035643290660374825 0.0 0.00640720330872996 0.0 0.0
0.03168002840118138 -0.027886789869529485 0.0 0.005334821297602258 0.0 0.0
0.024654546760183367 -0.02101768579649269 0.0 0.0041832235921051624 0.0 0.0
0.018853635407815705 -0.015438301256195035 0.0 0.003243894462221202 0.0 0.0
0.014372432939170687 -0.011234873167673447 0.0 0.002596758742756692 0.0 0.0
0.011040299419930764 -0.008214385269314338 0.0 0.002181380690585484 0.0 0.0
0.008561356467298548 -0.006042784359718117 0.0 0.0018796003096942081 0.0 0.0
0.0066526221062407995 -0.004425292621906378 0.0 0.0016132950435439643 0.0 0.0
0.00511573314607931 -0.003165657553989151 0.0 0.0013578929268566852 0.0 0.0
0.0038367468828780634 -0.002155049399214364 0.0 0.0011069322125694823 0.0 0.0
0.0027802586893623657 -0.0013375516904836815 0.0 0.0008132472853948302 0.0 0.0
0.0020292111937218016 -0.0008559620749140981 0.0 0.0006971105293316616 0.0 0.0
0.0015674381827430178 -0.0006569290752856152 0.0 0.0007559625670504518 0.0 0.0
0.0011849248069185022 -0.0004954102460563279 0.0 0.000647934817942723 0.0 0.0
0.000697513542766037 -0.00017297991951004238 0.0 0.0005387385857580677 0.0 0.0
0.0014114751123540609 -0.00011141934284671784 0.0 0.002710811750761163 0.0 0.0
0.0024126155332576064 -0.007757859217424656 0.0 0.002168317720725567 0.0 0.0
0.0018003191222149741 -0.0062024929741142255 0.0 -0.002059196775538168 0.0 0.0
0.0010269309020238444 -0.00021272232053484036 0.0 -0.0025759031225600798 0.0 0.0
0.0004910226273761863 -7.755440875942255e-05 0.0 -0.0009019700718781393 0.0 0.0
0.000940160108639351 -0.0003650199059325878 0.0 -0.0008796880630475865 0.0 0.0
0.0013325020999867179 -0.0005602267592773089 0.0 -0.0010084228470651638 0.0 0.0
0.0017358155504176578 -0.0007327161001611399 0.0 -0.0010099989547731518 0.0 0.0
0.0023250389943583944 -0.0010377478569172259 0.0 -0.0010108405249294107 0.0 0.0
0.003210069989416234 -0.0016696304497996108 0.0 -0.0012929780934127246 0.0 0.0
0.004329541764665217 -0.0025401652241673553 0.0 -0.0016495462632295582 0.0 0.0
0.005651722699859348 -0.0035975162069367076 0.0 -0.0019656885438537218 0.0 0.0
0.007275719902261437 -0.004948428349857602 0.0 -0.0022941549509921935 0.0 0.0
0.00936609776531185 -0.006752109336315849 0.0 -0.0026626561109798987 0.0 0.0
0.012170372994158128 -0.009265002994147514 0.0 -0.003156836891334119 0.0 0.0
0.01597034548909221 -0.012799025859649208 0.0 -0.003900553754228816 0.0 0.0
0.020934114946982448 -0.017554954519510932 0.0 -0.0049712455042182505 0.0 0.0
0.027005301979019715 -0.02348078216711349 0.0 -0.006279376332260099 0.0 0.0
0.03387236139154959 -0.03025254251391033 0.0 -0.007516317713708413 0.0 0.0
0.040960448240833246 -0.03730045325236684 0.0 -0.00817484841205404 0.0 0.0
0.04745544018435511 -0.04382126941700405 0.0 -0.0076488046530900754 0.0 0.0
0.05234710759267864 -0.04880934227930569 0.0 -0.005390853038145734 0.0 0.0
0.05425545170098158 -0.051183724054979646 0.0 9.159556793592039e-15 0.0 0.0
0.052347107592674746 -0.048809342279298576 0.0 0.00539085303816641 0.0 0.0
0.04745544018434903 -0.04382126941700225 0.0 0.007648804653110556 0.0 0.0
0.04096044824082572 -0.03730045325236162 0.0 0.008174848412066069 0.0 0.0
0.03387236139154094 -0.03025254251390158 0.0 0.007516317713710884 0.0 0.0
0.02700530197901054 -0.023480782167106688 0.0 0.006279376332258967 0.0 0.0
0.02093411494697293 -0.017554954519502643 0.0 0.004971245504217362 0.0 0.0
0.015970345489082362 -0.012799025859638028 0.0 0.003900553754228488 0.0 0.0
0.012170372994147957 -0.009265002994139784 0.0 0.0031568368913322256 0.0 0.0
0.00936609776530174 -0.0067521093363086225 0.0 0.0026626561109762163 0.0 0.0
0.007275719902252217 -0.0049484283498511545 0.0 0.002294154950988113 0.0 0.0
0.005651722699851468 -0.003597516206929498 0.0 0.0019656885438499713 0.0 0.0
0.0043295417646584955 -0.002540165224161774 0.0 0.0016495462632269628 0.0 0.0
0.0032100699894107958 -0.0016696304497949256 0.0 0.0012929780934106251 0.0 0.0
0.002325038994355031 -0.001037747856915551 0.0 0.0010108405249284766 0.0 0.0
0.0017358155504160228 -0.0007327161001612427 0.0 0.0010099989547720028 0.0 0.0
0.0013325020999858516 -0.0005602267592761918 0.0 0.0010084228470643051 0.0 0.0
0.0009401601086390682 -0.0003650199059328439 0.0 0.0008796880630459586 0.0 0.0
0.0004910226273761477 -7.755440875950856e-05 0.0 0.0009019700718758789 0.0 0.0
0.0010269309020217313 -0.00021272232053367937 0.0 0.0025759031225539948 0.0 0.0
0.0018003191222108078 -0.0062024929741038215 0.0 0.0020591967755325654 0.0 0.0
0.0013529155571274016 -0.004933704998158588 0.0 -0.001836099997033604 0.0 0.0
0.0007562460285762293 -0.0003025438901021327 0.0 -0.0024167485554291036 0.0 0.0
0.00033694114298677525 -2.9701906909683777e-05 0.0 -0.0012485872915702348 0.0 0.0
0.0007149469366813679 -0.00024744302252114876 0.0 -0.0011275786716210244 0.0 0.0
0.001089186199294167 -0.00044943616706763685 0.0 -0.0012395504273566241 0.0 0.0
0.0014519939310929334 -0.0006189097255345408 0.0 -0.001296080345120295 0.0 0.0
0.001913171553737025 -0.0008237083242084097 0.0 -0.0012767148563832779 0.0 0.0
0.0025986658352167356 -0.0012331359715490172 0.0 -0.0014092851984240015 0.0 0.0
0.0035327384348438342 -0.0019265806492329333 0.0 -0.0017902751009891166 0.0 0.0
0.004657203025913977 -0.0028005926188704746 0.0 -0.0021858379489311085 0.0 0.0
0.006006489223865908 -0.003893650273563528 0.0 -0.002552496951190098 0.0 0.0
0.007723469826275992 -0.005345039777485774 0.0 -0.0029636972098583325 0.0 0.0
0.010017932397303605 -0.00736486910625558 0.0 -0.003491913812143498 0.0 0.0
0.013136913711103199 -0.010235079509271376 0.0 -0.004267090428226516 0.0 0.0
0.01725682857190746 -0.01415528774655497 0.0 -0.005383093987234852 0.0 0.0
0.02235959903836256 -0.019115182632589628 0.0 -0.006748828699572511 0.0 0.0
0.02820165757927097 -0.024863368120103868 0.0 -0.008045949803173427 0.0 0.0
0.03435428245708956 -0.030959309518381092 0.0 -0.008799911192311416 0.0 0.0
0.04017668778049017 -0.036787130995821156 0.0 -0.008385874499382676 0.0 0.0
0.04477511219913176 -0.04149067333476956 0.0 -0.006050365776354739 0.0 0.0
0.04664068465436029 -0.043981303174949936 0.0 8.820852034907567e-15 0.0 0.0
0.044775112199128234 -0.041490673334765 0.0 0.00605036577637489 0.0 0.0
0.0401766877804847 -0.036787130995817034 0.0 0.008385874499403362 0.0 0.0
0.03435428245708269 -0.03095930951837294 0.0 0.008799911192323767 0.0 0.0
0.02820165757926345 -0.024863368120096558 0.0 0.00804594980317623 0.0 0.0
0.022359599038354827 -0.019115182632581405 0.0 0.0067488286995707625 0.0 0.0
0.0172568285718995 -0.014155287746547519 0.0 0.0053830939872342234 0.0 0.0
0.013136913711094983 -0.010235079509264805 0.0 0.0042670904282257095 0.0 0.0
0.010017932397295095 -0.007364869106248367 0.0 0.003491913812141579 0.0 0.0
0.007723469826267664 -0.005345039777480048 0.0 0.0029636972098549003 0.0 0.0
0.006006489223858294 -0.0038936502735573185 0.0 0.0025524969511859057 0.0 0.0
0.00465720302590735 -0.0028005926188652396 0.0 0.002185837948926985 0.0 0.0
0.0035327384348382146 -0.0019265806492290527 0.0 0.0017902751009870564 0.0 0.0
0.0025986658352126777 -0.001233135971546353 0.0 0.0014092851984220012 0.0 0.0
0.0019131715537345074 -0.0008237083242068062 0.0 0.0012767148563827071 0.0 0.0
0.0014519939310914704 -0.0006189097255344913 0.0 0.0012960803451190436 0.0 0.0
0.001089186199293397 -0.0004494361670674093 0.0 0.0012395504273555774 0.0 0.0
0.0007149469366810419 -0.00024744302252130586 0.0 0.001127578671619034 0.0 0.0
0.00033694114298674056 -2.970190690937476e-05 0.0 0.0012485872915676318 0.0 0.0
0.0007562460285746886 -0.000302543890101452 0.0 0.0024167485554238742 0.0 0.0
0.0013529155571242834 -0.004933704998150218 0.0 0.0018360999970303304 0.0 0.0
0.0010225985373312914 -0.0038852309088315967 0.0 -0.0016142193889726042 0.0 0.0
0.0005580584212392216 -0.00037913496758494364 0.0 -0.0022762229077261387 0.0 0.0
0.00021370392850173826 -4.38726824454292e-06 0.0 -0.001539618398390421 0.0 0.0
0.0005095459096864116 -0.00014608077928699185 0.0 -0.001369808808656635 0.0 0.0
0.0008429020713551101 -0.0003342179627277158 0.0 -0.0014502166260299961 0.0 0.0
0.0011615878906040956 -0.0004962226639402259 0.0 -0.0015373300072983778 0.0 0.0
0.0015290532409064062 -0.0006554664687125031 0.0 -0.0015548289040928243 0.0 0.0
0.0020350574649896968 -0.0009031979283260518 0.0 -0.001586835362706307 0.0 0.0
0.0027473443565815556 -0.001360625341874288 0.0 -0.001816321427071361 0.0 0.0
0.003660578245732159 -0.002034609388087547 0.0 -0.002232089039909666 0.0 0.0
0.004754049157384948 -0.0028882053958648986 0.0 -0.002645115653700814 0.0 0.0
0.006111885775143696 -0.0040009769883052005 0.0 -0.003075337137002218 0.0 0.0
0.007913736895015986 -0.005546078304940556 0.0 -0.0036025379859917195 0.0 0.0
0.010369672166723964 -0.007765923077101047 0.0 -0.004352981663031132 0.0 0.0
0.013641017920295543 -0.010844012528164184 0.0 -0.005409430244860478 0.0 0.0
0.017751312618146425 -0.01481720151189676 0.0 -0.006729042981674527 0.0 0.0
0.022542914485287793 -0.019506626712811302 0.0 -0.008011478407243726 0.0 0.0
0.027704167971591195 -0.024594841424922603 0.0 -0.008808562292942053 0.0 0.0
0.03279466848368679 -0.029668359542522185 0.0 -0.00855634017283251 0.0 0.0
0.03709504378961695 -0.034075629332552246 0.0 -0.006419291715705972 0.0 0.0
0.03893244089158362 -0.03673287815897583 0.0 7.65013052905772e-15 0.0 0.0
0.037095043789613966 -0.034075629332548735 0.0 0.006419291715725079 0.0 0.0
0.0327946684836822 -0.029668359542516946 0.0 0.008556340172852193 0.0 0.0
0.02770416797158546 -0.024594841424917135 0.0 0.008808562292953622 0.0 0.0
0.022542914485281444 -0.019506626712807906 0.0 0.008011478407247218 0.0 0.0
0.0177513126181401 -0.014817201511888096 0.0 0.006729042981673386 0.0 0.0
0.013641017920289215 -0.010844012528158562 0.0 0.005409430244859222 0.0 0.0
0.010369672166717464 -0.007765923077098086 0.0 0.00435298166303019 0.0 0.0
0.007913736895009326 -0.005546078304933538 0.0 0.0036025379859903842 0.0 0.0
0.006111885775137178 -0.004000976988301268 0.0 0.003075337136998703 0.0 0.0
0.0047540491573789465 -0.0028882053958595366 0.0 0.0026451156536966792 0.0 0.0
0.003660578245727109 -0.002034609388083944 0.0 0.002232089039905711 0.0 0.0
0.0027473443565774664 -0.0013606253418708388 0.0 0.001816321427069902 0.0 0.0
0.0020350574649866827 -0.00090319792832562 0.0 0.0015868353627055275 0.0 0.0
0.0015290532409046383 -0.0006554664687122753 0.0 0.0015548289040921005 0.0 0.0
0.0011615878906030396 -0.0004962226639402815 0.0 0.001537330007297022 0.0 0.0
0.0008429020713545265 -0.00033421796272766033 0.0 0.0014502166260285025 0.0 0.0
0.0005095459096861254 -0.00014608077928676103 0.0 0.0013698088086542878 0.0 0.0
0.0002137039285015011 -4.3872682440910365e-06 0.0 0.0015396183983886786 0.0 0.0
0.0005580584212380832 -0.00037913496758467747 0.0 0.002276222907722534 0.0 0.0
0.0010225985373292592 -0.0038852309088251475 0.0 0.0016142193889710644 0.0 0.0
0.0007653568857343172 -0.003026658180310799 0.0 -0.0014485213384101971 0.0 0.0
0.0004058118508097861 -0.0004410573254912311 0.0 -0.002157054193736596 0.0 0.0
0.00011165208755978408 1.229818016197184e-05 0.0 -0.0017679320745677763 0.0 0.0
0.000320593176492761 -5.921512687313588e-05 0.0 -0.0015869184829845808 0.0 0.0
0.0005987902576765255 -0.0002200352466927821 0.0 -0.0016348414369458744 0.0 0.0
0.0008644004898495614 -0.0003635301884288018 0.0 -0.0017317541185287067 0.0 0.0
0.0011499903744079732 -0.0004941450291118748 0.0 -0.0017887005779299477 0.0 0.0
0.0015144649914611973 -0.0006534369586790575 0.0 -0.001811554451478051 0.0 0.0
0.0020106202481166313 -0.0009093407749751863 0.0 -0.0018784805845813743 0.0 0.0
0.002676799467817137 -0.0013397651812247298 0.0 -0.0021414221560827847 0.0 0.0
0.0035090611734533354 -0.0019432317923317264 0.0 -0.002548542563608131 0.0 0.0
0.004529554670445327 -0.002737230352985131 0.0 -0.002976783416018566 0.0 0.0
0.0058609451227050816 -0.003828867985549659 0.0 -0.003481180752078253 0.0 0.0
0.007671450064853584 -0.005416665696940952 0.0 -0.004150707233055174 0.0 0.0
0.010104654556795448 -0.007660030453025352 0.0 -0.0050808321346459484 0.0 0.0
0.01321017717246437 -0.010623368496720324 0.0 -0.006224796327279854 0.0 0.0
0.01690801105296421 -0.014215593271568985 0.0 -0.007396520549421202 0.0 0.0
0.02102193564562085 -0.018240420104089935 0.0 -0.00818823051524687 0.0 0.0
0.02530242761173191 -0.0224671911058227 0.0 -0.008128268218582601 0.0 0.0
0.02925201847585812 -0.02651126068978296 0.0 -0.006455818372726676 0.0 0.0
0.031056750154788593 -0.02938119636981284 0.0 6.962095830398418e-15 0.0 0.0
0.0292520184758557 -0.02651126068977916 0.0 0.006455818372743132 0.0 0.0
0.02530242761172801 -0.022467191105816887 0.0 0.008128268218599624 0.0 0.0
0.021021935645616247 -0.018240420104087503 0.0 0.008188230515257177 0.0 0.0
0.016908011052959297 -0.01421559327156591 0.0 0.007396520549423621 0.0 0.0
0.013210177172459304 -0.010623368496716187 0.0 0.006224796327278672 0.0 0.0
0.010104654556790382 -0.0076600304530195125 0.0 0.005080832134643951 0.0 0.0
0.007671450064849015 -0.0054166656969403025 0.0 0.004150707233054068 0.0 0.0
0.005860945122700351 -0.0038288679855450394 0.0 0.0034811807520762766 0.0 0.0
0.004529554670440323 -0.0027372303529812243 0.0 0.002976783416015701 0.0 0.0
0.003509061173448966 -0.0019432317923285067 0.0 0.002548542563604984 0.0 0.0
0.0026767994678134665 -0.0013397651812220243 0.0 0.0021414221560800014 0.0 0.0
0.002010620248113762 -0.0009093407749727368 0.0 0.0018784805845795394 0.0 0.0
0.001514464991459241 -0.0006534369586789738 0.0 0.001811554451477214 0.0 0.0
0.0011499903744067413 -0.0004941450291118194 0.0 0.001788700577928359 0.0 0.0
0.0008644004898487859 -0.0003635301884286501 0.0 0.0017317541185272014 0.0 0.0
0.0005987902576760624 -0.00022003524669268393 0.0 0.0016348414369443474 0.0 0.0
0.00032059317649256355 -5.9215126872741853e-05 0.0 0.0015869184829821143 0.0 0.0
0.00011165208755972238 1.2298180162206392e-05 0.0 0.0017679320745657033 0.0 0.0
0.00040581185080899076 -0.00044105732549111617 0.0 0.0021570541937334857 0.0 0.0
0.0007653568857327708 -0.0030266581803061756 0.0 0.001448521338408839 0.0 0.0
0.0005723543342204753 -0.002387879451936814 0.0 -0.0013884664362819172 0.0 0.0
0.00028615118593658514 -0.00047245789609646506 0.0 -0.0020500875462867497 0.0 0.0
1.9793832305226704e-05 2.506953754575919e-05 0.0 -0.0019356857481513771 0.0 0.0
0.00014639490864499596 1.6134663266247604e-05 0.0 -0.0017660034260144073 0.0 0.0
0.0003586821654310626 -0.00010878254798474718 0.0 -0.0017856581923273046 0.0 0.0
0.0005617386390345038 -0.0002262039061207312 0.0 -0.0018812622454605211 0.0 0.0
0.0007654130154914888 -0.0003281451295305897 0.0 -0.0019656072655248264 0.0 0.0
0.0010112672622626432 -0.0004330891566503935 0.0 -0.0020074177880801433 0.0 0.0
0.0013282195337753927 -0.000572390842997915 0.0 -0.0020384807377824055 0.0 0.0
0.0017446585181770944 -0.0007954142746166204 0.0 -0.002104539233286009 0.0 0.0
0.0022886462161990154 -0.0011276863804160913 0.0 -0.002355946322718914 0.0 0.0
0.002971779608632564 -0.001599947166465553 0.0 -0.0026804678034643087 0.0 0.0
0.003854471978341179 -0.0022550338410910527 0.0 -0.003117105679843379 0.0 0.0
0.005047276814111417 -0.0032371687916776105 0.0 -0.0036800270136356527 0.0 0.0
0.00666012568547772 -0.0046592680569546565 0.0 -0.004415029090480473 0.0 0.0
0.008754512699953237 -0.006604231219479202 0.0 -0.005318049192798441 0.0 0.0
0.011329074570535329 -0.00905140735979521 0.0 -0.006280942461640085 0.0 0.0
0.01433137870877399 -0.011956420241999095 0.0 -0.007025695128893544 0.0 0.0
0.01768603757633113 -0.015224988062270711 0.0 -0.007091130253045512 0.0 0.0
0.02118602917212765 -0.018753418238908314 0.0 -0.006038544394550876 0.0 0.0
0.022929091553313415 -0.021856904440532263 0.0 5.52964792011057e-15 0.0 0.0
0.021186029172126117 -0.018753418238906555 0.0 0.006038544394564175 0.0 0.0
0.017686037576328292 -0.015224988062266819 0.0 0.007091130253060331 0.0 0.0
0.014331378708770508 -0.011956420241996621 0.0 0.007025695128901081 0.0 0.0
0.011329074570531901 -0.00905140735979309 0.0 0.006280942461639783 0.0 0.0
0.0087545126999499 -0.006604231219477558 0.0 0.005318049192796241 0.0 0.0
0.006660125685474547 -0.004659268056949795 0.0 0.004415029090478802 0.0 0.0
0.0050472768141087065 -0.003237168791679386 0.0 0.003680027013636105 0.0 0.0
0.003854471978338378 -0.002255033841088952 0.0 0.003117105679842506 0.0 0.0
0.002971779608629574 -0.0015999471664625592 0.0 0.0026804678034622414 0.0 0.0
0.002288646216196324 -0.0011276863804143013 0.0 0.0023559463227161414 0.0 0.0
0.0017446585181748416 -0.0007954142746135126 0.0 0.0021045392332843587 0.0 0.0
0.0013282195337737856 -0.0005723908429978312 0.0 0.002038480737781493 0.0 0.0
0.001011267262261668 -0.0004330891566508186 0.0 0.002007417788079321 0.0 0.0
0.0007654130154908269 -0.00032814512953062766 0.0 0.001965607265522518 0.0 0.0
0.0005617386390339612 -0.00022620390611977317 0.0 0.0018812622454580713 0.0 0.0
0.00035868216543078835 -0.00010878254798485423 0.0 0.0017856581923253925 0.0 0.0
0.00014639490864486784 1.613466326643718e-05 0.0 0.0017660034260120533 0.0 0.0
1.9793832305133276e-05 2.5069537545823812e-05 0.0 0.0019356857481491203 0.0 0.0
0.0002861511859360791 -0.0004724578960960576 0.0 0.0020500875462836515 0.0 0.0
0.00057235433421945 -0.0023878794519338396 0.0 0.0013884664362811547 0.0 0.0
0.00044452008736149424 -0.0019241440379738602 0.0 -0.0013515724042465643 0.0 0.0
0.00019925756686932887 -0.0004736423838788752 0.0 -0.001959156347475194 0.0 0.0
-6.47638508584796e-05 3.7575471559090535e-05 0.0 -0.0020422677529163655 0.0 0.0
-1.5719309069054285e-05 8.252277667167563e-05 0.0 -0.0019001681889285467 0.0 0.0
0.00012407093308054398 -1.5589331005710703e-06 0.0 -0.001896565019698774 0.0 0.0
0.00025707233161606784 -8.749597196065659e-05 0.0 -0.0019805187853333722 0.0 0.0
0.0003764645209913392 -0.0001558101109538894 0.0 -0.002076750301253972 0.0 0.0
0.0005021952511544069 -0.00021593181200388835 0.0 -0.002134916750676693 0.0 0.0
0.0006642035738570597 -0.00028275389640914327 0.0 -0.002164509135960876 0.0 0.0
0.0008686741294693747 -0.00038033265464623717 0.0 -0.0021746195627347768 0.0 0.0
0.0011316970782607111 -0.0005059979166931365 0.0 -0.002255581357868959 0.0 0.0
0.0014648283941683573 -0.0007024139654460468 0.0 -0.002442719850100807 0.0 0.0
0.0018950745692120593 -0.0009750882117153343 0.0 -0.0027208937440788878 0.0 0.0
0.0024911828466509037 -0.0013940615186322223 0.0 -0.003121223731616135 0.0 0.0
0.003307265348495378 -0.0020325053853968715 0.0 -0.00366989499222007 0.0 0.0
0.004395435804846449 -0.0029511907478243556 0.0 -0.004394517990108283 0.0 0.0
0.0058133350589322985 -0.004191804703644559 0.0 -0.005234700964592507 0.0 0.0
0.007664119138843252 -0.005910936022872271 0.0 -0.005972884344958766 0.0 0.0
0.009994037946608776 -0.008146542132242638 0.0 -0.00610297266571541 0.0 0.0
0.012845694736031038 -0.01087372217738386 0.0 -0.005246310231653889 0.0 0.0
0.014418191336639038 -0.014125259318133944 0.0 4.067926551165613e-15 0.0 0.0
0.01284569473603017 -0.01087372217738507 0.0 0.005246310231664478 0.0 0.0
0.009994037946607224 -0.008146542132243246 0.0 0.006102972665726883 0.0 0.0
0.007664119138841099 -0.005910936022870168 0.0 0.005972884344964286 0.0 0.0
0.005813335058930546 -0.004191804703646058 0.0 0.0052347009645919915 0.0 0.0
0.004395435804845085 -0.0029511907478239514 0.0 0.004394517990106437 0.0 0.0
0.0033072653484941495 -0.0020325053853937087 0.0 0.003669894992219532 0.0 0.0
0.00249118284665005 -0.0013940615186320926 0.0 0.0031212237316166954 0.0 0.0
0.0018950745692111652 -0.0009750882117158951 0.0 0.00272089374407852 0.0 0.0
0.0014648283941672826 -0.0007024139654447334 0.0 0.0024427198500991307 0.0 0.0
0.0011316970782597744 -0.000505997916693317 0.0 0.002255581357867175 0.0 0.0
0.0008686741294686434 -0.00038033265464414373 0.0 0.002174619562733715 0.0 0.0
0.0006642035738565014 -0.0002827538964095943 0.0 0.0021645091359607546 0.0 0.0
0.0005021952511539562 -0.000215931812004667 0.0 0.002134916750675564 0.0 0.0
0.0003764645209910801 -0.00015581011095443237 0.0 0.0020767503012522046 0.0 0.0
0.0002570723316160228 -8.7495971959708e-05 0.0 0.00198051878533046 0.0 0.0
0.00012407093308056672 -1.5589331007539227e-06 0.0 0.001896565019696437 0.0 0.0
-1.5719309069014196e-05 8.252277667193225e-05 0.0 0.001900168188926043 0.0 0.0
-6.476385085846977e-05 3.757547155904717e-05 0.0 0.002042267752914221 0.0 0.0
0.00019925756686910802 -0.00047364238387849 0.0 0.001959156347472764 0.0 0.0
0.0004445200873610341 -0.0019241440379718635 0.0 0.0013515724042457513 0.0 0.0
0.0003498213524332996 -0.0015431483909496546 0.0 -0.0012649981794882036 0.0 0.0
0.00013031345702573723 -0.0004527470079475137 0.0 -0.0018701164736237325 0.0 0.0
-0.00014272808475428823 5.1842069119230626e-05 0.0 -0.0020917330474938788 0.0 0.0
-0.00016791987295060076 0.0001423398699996136 0.0 -0.001984737078420597 0.0 0.0
-0.00010407207470722489 0.00010068772342339848 0.0 -0.001962263017100892 0.0 0.0
-4.690798010646053e-05 5.0662311329120304e-05 0.0 -0.00202703778665602 0.0 0.0
-1.5321422276797498e-05 1.7911272217013255e-05 0.0 -0.002119032209200335 0.0 0.0
-2.302655763503265e-06 3.0545915789909516e-06 0.0 -0.0021814634033022417 0.0 0.0
1.0765481028007638e-06 -1.100681534491914e-06 0.0 -0.002187414279589578 0.0 0.0
1.1242157694659453e-06 -9.298785850824543e-07 0.0 -0.002222231287013358 0.0 0.0
8.117633591087829e-07 -7.293386016906373e-07 0.0 -0.0022525466049705765 0.0 0.0
5.479385215863405e-07 -4.838469376560972e-07 0.0 -0.0023973291129156978 0.0 0.0
-1.1325322541055785e-06 8.336090313462122e-07 0.0 -0.002561126681071163 0.0 0.0
-4.340954732780548e-06 4.1712377572933974e-06 0.0 -0.0028481745866807415 0.0 0.0
3.6762275292606607e-06 2.5954397252026863e-06 0.0 -0.0033176065573196226 0.0 0.0
6.950380453097521e-05 -3.252444430894421e-05 0.0 -0.004019658680781756 0.0 0.0
0.0003228417015391224 -0.00019808005746950496 0.0 -0.004936424435906238 0.0 0.0
0.001014758998865761 -0.0007288788733015509 0.0 -0.005925695564282363 0.0 0.0
0.0023545931414083346 -0.0018898848028398433 0.0 -0.006746437519173526 0.0 0.0
0.004345878291613932 -0.0034849767201967285 0.0 -0.006682690988276905 0.0 0.0
0.005491998597222648 -0.006811069416422334 0.0 4.2912721986976265e-15 0.0 0.0
0.004345878291613937 -0.003484976720196729 0.0 0.006682690988287254 0.0 0.0
0.002354593141407934 -0.0018898848028403282 0.0 0.006746437519181582 0.0 0.0
0.0010147589988654976 -0.0007288788733016886 0.0 0.0059256955642858575 0.0 0.0
0.0003228417015394406 -0.0001980800574739112 0.0 0.004936424435906454 0.0 0.0
6.950380453157369e-05 -3.2524444310698804e-05 0.0 0.004019658680780741 0.0 0.0
3.676227529899527e-06 2.595439723507509e-06 0.0 0.0033176065573187977 0.0 0.0
-4.340954731915138e-06 4.171237756467683e-06 0.0 0.0028481745866806925 0.0 0.0
-1.1325322530724693e-06 8.336090301709913e-07 0.0 0.0025611266810711695 0.0 0.0
5.479385225076142e-07 -4.838469398646305e-07 0.0 0.0023973291129139587 0.0 0.0
8.117633598228927e-07 -7.293386016390564e-07 0.0 0.0022525466049692737 0.0 0.0
1.1242157700686397e-06 -9.298785852489708e-07 0.0 0.002222231287012345 0.0 0.0
1.0765481032663337e-06 -1.1006815344160978e-06 0.0 0.0021874142795894193 0.0 0.0
-2.3026557632402716e-06 3.054591578707968e-06 0.0 0.002181463403300848 0.0 0.0
-1.532142227652156e-05 1.7911272216705945e-05 0.0 0.0021190322091986027 0.0 0.0
-4.6907980106116366e-05 5.066231132882517e-05 0.0 0.002027037786653628 0.0 0.0
-0.00010407207470697547 0.00010068772342313579 0.0 0.0019622630170988142 0.0 0.0
-0.00016791987295046933 0.00014233986999942396 0.0 0.0019847370784180107 0.0 0.0
-0.00014272808475423093 5.184206911946319e-05 0.0 0.0020917330474916037 0.0 0.0
0.00013031345702558267 -0.00045274700794736356 0.0 0.0018701164736218494 0.0 0.0
0.00034982135243293364 -0.001543148390948048 0.0 0.0012649981794865721 0.0 0.0
0.0002693451717552339 -0.001213810750422785 0.0 -0.0011492664324313166 0.0 0.0
6.937677812213311e-05 -0.00041354810430868004 0.0 -0.0017662193874930592 0.0 0.0
-0.00021580260090694255 6.869907590156313e-05 0.0 -0.0020881521072785548 0.0 0.0
-0.00031178468166474663 0.000197328113168948 0.0 -0.00201736285880304 0.0 0.0
-0.00032521406538831016 0.00019749182389090905 0.0 -0.0019789913194475117 0.0 0.0
-0.00034705978812977573 0.00018617701091553656 0.0 -0.0020190770094925953 0.0 0.0
-0.0004058355629569509 0.00019053831468394136 0.0 -0.002090187186425956 0.0 0.0
-0.0005067038260230761 0.00022172313397526367 0.0 -0.002137270968666204 0.0 0.0
-0.0006621059453518977 0.00028059114526533146 0.0 -0.0021636123466772334 0.0 0.0
-0.0008665128647294472 0.00037845899631261935 0.0 -0.0021735185155880013 0.0 0.0
-0.001130093938691777 0.0005046736698526105 0.0 -0.002255057929471652 0.0 0.0
-0.0014636551717034122 0.0007013066415114864 0.0 -0.0024425459636862614 0.0 0.0
-0.0018968471202632322 0.0009761116164588089 0.0 -0.002718336787161453 0.0 0.0
-0.002499630883204195 0.0014029223272260317 0.0 -0.0031116086847599532 0.0 0.0
-0.0033046217045036757 0.0020421212386412713 0.0 -0.003671393368170128 0.0 0.0
-0.004269868186762272 0.0028845838014825032 0.0 -0.004490401201843917 0.0 0.0
-0.005218723790054211 0.003768666536537235 0.0 -0.005589879384193824 0.0 0.0
-0.005818463635933318 0.004396028172619199 0.0 -0.006958232726694186 0.0 0.0
-0.0056238895232677555 0.004291901315162776 0.0 -0.00848244509754808 0.0 0.0
-0.003956976321921423 0.0030552907224871053 0.0 -0.00912381059081575 0.0 0.0
-0.002645633832884889 -0.0006327206270696196 0.0 5.870304242705515e-15 0.0 0.0
-0.0039569763219217645 0.0030552907224854877 0.0 0.009123810590825489 0.0 0.0
-0.005623889523267211 0.004291901315162475 0.0 0.008482445097556371 0.0 0.0
-0.005818463635931385 0.004396028172616027 0.0 0.006958232726697523 0.0 0.0
-0.005218723790051663 0.0037686665365326295 0.0 0.005589879384192838 0.0 0.0
-0.004269868186759644 0.0028845838014813865 0.0 0.004490401201842439 0.0 0.0
-0.00330462170450124 0.002042121238638151 0.0 0.00367139336816852 0.0 0.0
-0.002499630883201521 0.0014029223272231748 0.0 0.003111608684759827 0.0 0.0
-0.0018968471202603335 0.0009761116164574688 0.0 0.0027183367871603564 0.0 0.0
-0.001463655171700573 0.0007013066415081727 0.0 0.0024425459636840457 0.0 0.0
-0.0011300939386893227 0.0005046736698503548 0.0 0.0022550579294697564 0.0 0.0
-0.000866512864727531 0.00037845899631112597 0.0 0.0021735185155870623 0.0 0.0
-0.0006621059453504792 0.00028059114526372017 0.0 0.0021636123466771766 0.0 0.0
-0.0005067038260220601 0.00022172313397536125 0.0 0.0021372709686650624 0.0 0.0
-0.0004058355629561127 0.00019053831468413639 0.0 0.0020901871864241533 0.0 0.0
-0.00034705978812908715 0.00018617701091531644 0.0 0.002019077009490465 0.0 0.0
-0.0003252140653877932 0.0001974918238905049 0.0 0.001978991319445264 0.0 0.0
-0.00031178468166437475 0.0001973281131686738 0.0 0.002017362858800548 0.0 0.0
-0.00021580260090667906 6.86990759017723e-05 0.0 0.0020881521072764536 0.0 0.0
6.937677812211373e-05 -0.0004135481043083737 0.0 0.001766219387491118 0.0 0.0
0.00026934517175500235 -0.0012138107504215722 0.0 0.0011492664324299821 0.0 0.0
0.00019583040297132653 -0.0009264681972517485 0.0 -0.0010232782759134554 0.0 0.0
1.1535389574083276e-05 -0.00036017592816300887 0.0 -0.001640682102532418 0.0 0.0
-0.0002861488589175732 8.935386777920309e-05 0.0 -0.0020338425676121813 0.0 0.0
-0.0004484473636042793 0.00024847320659836274 0.0 -0.001997350410656226 0.0 0.0
-0.0005389408218223967 0.0002887866817371041 0.0 -0.0019445282123706693 0.0 0.0
-0.0006410616105356885 0.0003167781642988486 0.0 -0.0019551414528229828 0.0 0.0
-0.0007909901395935766 0.0003597770852674063 0.0 -0.0019908573372489653 0.0 0.0
-0.0010150156082749475 0.00043800969888925707 0.0 -0.0020119858276936354 0.0 0.0
-0.0013264140773284483 0.0005703072179145631 0.0 -0.002036698862102187 0.0 0.0
-0.0017427803332229212 0.0007934538416053699 0.0 -0.0021022240140441653 0.0 0.0
-0.002287328954957612 0.001126480635626734 0.0 -0.0023548868297553435 0.0 0.0
-0.002970438415274884 0.0015986365373706402 0.0 -0.00268095138793516 0.0 0.0
-0.0038543891829304396 0.0022542612702057484 0.0 -0.0031127903442321986 0.0 0.0
-0.005054388133871157 0.0032442305876223855 0.0 -0.0036587845847884572 0.0 0.0
-0.006666495462073929 0.00467479041396121 0.0 -0.00439900337001124 0.0 0.0
-0.008662696430121457 0.006553153904741451 0.0 -0.00545091374125565 0.0 0.0
-0.01081256188194627 0.008649192063918072 0.0 -0.006930710782411697 0.0 0.0
-0.01267920025048155 0.010512929362079646 0.0 -0.008872018530458447 0.0 0.0
-0.013498053046107926 0.011398666707393899 0.0 -0.010918387614760423 0.0 0.0
-0.012071660596372043 0.00998929924971935 0.0 -0.011468929632852802 0.0 0.0
-0.010621492255985254 0.0049391574933341596 0.0 5.341647263401583e-15 0.0 0.0
-0.0120716605963723 0.009989299249717731 0.0 0.011468929632864337 0.0 0.0
-0.01349805304610614 0.011398666707393331 0.0 0.010918387614772842 0.0 0.0
-0.012679200250477807 0.010512929362076429 0.0 0.008872018530463993 0.0 0.0
-0.010812561881941594 0.008649192063916124 0.0 0.0069307107824109985 0.0 0.0
-0.008662696430117009 0.006553153904739808 0.0 0.005450913741254012 0.0 0.0
-0.006666495462069775 0.004674790413958474 0.0 0.004399003370008582 0.0 0.0
-0.005054388133866671 0.0032442305876181857 0.0 0.0036587845847866826 0.0 0.0
-0.0038543891829255425 0.0022542612702020908 0.0 0.0031127903442304946 0.0 0.0
-0.0029704384152699267 0.0015986365373667785 0.0 0.0026809513879315905 0.0 0.0
-0.002287328954953211 0.0011264806356232019 0.0 0.002354886829751852 0.0 0.0
-0.0017427803332194956 0.0007934538416015882 0.0 0.0021022240140428482 0.0 0.0
-0.0013264140773259496 0.0005703072179132621 0.0 0.002036698862102256 0.0 0.0
-0.0010150156082732206 0.0004380096988888131 0.0 0.0020119858276931644 0.0 0.0
-0.0007909901395923934 0.0003597770852674904 0.0 0.001990857337247338 0.0 0.0
-0.0006410616105347142 0.00031677816429869496 0.0 0.00195514145282089 0.0 0.0
-0.0005389408218216135 0.00028878668173658626 0.0 0.0019445282123683903 0.0 0.0
-0.000448447363603728 0.0002484732065982239 0.0 0.001997350410653878 0.0 0.0
-0.0002861488589173016 8.935386777927012e-05 0.0 0.002033842567610199 0.0 0.0
1.1535389574061477e-05 -0.0003601759281628145 0.0 0.0016406821025305757 0.0 0.0
0.0001958304029712363 -0.0009264681972508785 0.0 0.001023278275912404 0.0 0.0
0.00012777942314533963 -0.000678067263622507 0.0 -0.0008942220439139602 0.0 0.0
-4.460829937631265e-05 -0.0002970628493143833 0.0 -0.001493248573737657 0.0 0.0
-0.0003552459593911812 0.0001145639802873227 0.0 -0.0019309401259774133 0.0 0.0
-0.0005790122655649966 0.000296598135318605 0.0 -0.0019251498003919863 0.0 0.0
-0.0007448875062650724 0.00037423011743327336 0.0 -0.001858780722109446 0.0 0.0
-0.0009265004676525007 0.00044158592540863273 0.0 -0.0018339162528742108 0.0 0.0
-0.0011698032326981115 0.0005220383681473107 0.0 -0.001827132882827044 0.0 0.0
-0.0015175421255212286 0.0006568668933910365 0.0 -0.0018172996655623067 0.0 0.0
-0.0020091598960961772 0.0009073622258786143 0.0 -0.001875907716026642 0.0 0.0
-0.0026753457559252586 0.0013377244090982256 0.0 -0.002138016148408958 0.0 0.0
-0.003508252056517628 0.0019423831182146284 0.0 -0.002547640829224116 0.0 0.0
-0.004528142599701571 0.002736044388128434 0.0 -0.0029778717278085283 0.0 0.0
-0.0058576764702340635 0.0038256400253810106 0.0 -0.0034772842686531364 0.0 0.0
-0.007671630762225828 0.005415613102478361 0.0 -0.004119124197598376 0.0 0.0
-0.010112953502826334 0.007671249937916458 0.0 -0.00502103158048308 0.0 0.0
-0.013165255992879328 0.010607078959858213 0.0 -0.006314087380342263 0.0 0.0
-0.016554342708011906 0.013953460819746924 0.0 -0.008238434103310406 0.0 0.0
-0.01966720098415098 0.01711224180152482 0.0 -0.010908325522888247 0.0 0.0
-0.021361304867690552 0.018929663297866575 0.0 -0.013688240900779188 0.0 0.0
-0.019800455946610004 0.017562682801974303 0.0 -0.014677950436314197 0.0 0.0
-0.01793191742289948 0.010423514493364046 0.0 5.6517290847324375e-15 0.0 0.0
-0.01980045594660953 0.01756268280197517 0.0 0.014677950436329947 0.0 0.0
-0.021361304867687655 0.018929663297864663 0.0 0.013688240900793805 0.0 0.0
-0.019667200984145806 0.017112241801522102 0.0 0.010908325522895475 0.0 0.0
-0.016554342708005553 0.013953460819742535 0.0 0.008238434103310988 0.0 0.0
-0.013165255992873135 0.01060707895985194 0.0 0.006314087380341368 0.0 0.0
-0.010112953502820649 0.007671249937913249 0.0 0.005021031580481439 0.0 0.0
-0.007671630762219599 0.005415613102471494 0.0 0.004119124197596561 0.0 0.0
-0.005857676470227433 0.0038256400253769557 0.0 0.003477284268651383 0.0 0.0
-0.0045281425996948265 0.002736044388122771 0.0 0.002977871727803998 0.0 0.0
-0.003508252056511252 0.0019423831182096164 0.0 0.0025476408292190098 0.0 0.0
-0.0026753457559200696 0.0013377244090944196 0.0 0.0021380161484057174 0.0 0.0
-0.002009159896092452 0.0009073622258770004 0.0 0.0018759077160252157 0.0 0.0
-0.0015175421255187772 0.0006568668933898856 0.0 0.0018172996655619498 0.0 0.0
-0.0011698032326963286 0.0005220383681465118 0.0 0.001827132882825835 0.0 0.0
-0.0009265004676511847 0.00044158592540702974 0.0 0.0018339162528724796 0.0 0.0
-0.0007448875062642684 0.0003742301174325545 0.0 0.0018587807221077351 0.0 0.0
-0.000579012265564435 0.00029659813531799766 0.0 0.0019251498003899506 0.0 0.0
-0.0003552459593908566 0.00011456398028746868 0.0 0.0019309401259752215 0.0 0.0
-4.460829937622997e-05 -0.0002970628493144333 0.0 0.0014932485737361215 0.0 0.0
0.0001277794231453713 -0.0006780672636218295 0.0 0.0008942220439129384 0.0 0.0
6.539797527169657e-05 -0.00046696956473759937 0.0 -0.0007625975284876736 0.0 0.0
-9.895481696816003e-05 -0.00022857950564866627 0.0 -0.0013252534184205588 0.0 0.0
-0.00042373474372493336 0.0001442872800526201 0.0 -0.0017823754861411765 0.0 0.0
-0.000704453689182417 0.00034218920552866593 0.0 -0.0018011263143712193 0.0 0.0
-0.0009425449937339441 0.0004538695577918253 0.0 -0.0017207311101707598 0.0 0.0
-0.0012028122254553065 0.0005581828857971494 0.0 -0.0016566841843084728 0.0 0.0
-0.00154167745335879 0.0006771554775050462 0.0 -0.0015974458506040055 0.0 0.0
-0.002036204267031139 0.0009057348343898797 0.0 -0.001594384095916617 0.0 0.0
-0.0027466246420574107 0.0013587741272971013 0.0 -0.0018124063168888783 0.0 0.0
-0.0036598654243817424 0.0020329985853769442 0.0 -0.002228315998726914 0.0 0.0
-0.00475390215715381 0.002887940662343184 0.0 -0.002644359764521486 0.0 0.0
-0.006110541624161786 0.004000343050878856 0.0 -0.0030772679359365963 0.0 0.0
-0.007906490052609377 0.005540333855352006 0.0 -0.003600482454761879 0.0 0.0
-0.01035606607489397 0.007750963879645365 0.0 -0.004316443007153808 0.0 0.0
-0.013637826849729823 0.010835366551071063 0.0 -0.0053065507957826006 0.0 0.0
-0.01776030405023835 0.01483300283407352 0.0 -0.006735413270222116 0.0 0.0
-0.02240300918195031 0.019441012712336097 0.0 -0.00889984320955023 0.0 0.0
-0.026732256922751173 0.023870864335374706 0.0 -0.012005877788364015 0.0 0.0
-0.0291761495048542 0.026545464746723105 0.0 -0.015466543574359996 0.0 0.0
-0.02722047741557294 0.024943892567799737 0.0 -0.017194775455726664 0.0 0.0
-0.024765351838199966 0.015714860985804734 0.0 6.592382889580861e-15 0.0 0.0
-0.027220477415571438 0.024943892567799282 0.0 0.01719477545574456 0.0 0.0
-0.02917614950485052 0.026545464746718078 0.0 0.015466543574377465 0.0 0.0
-0.02673225692274489 0.023870864335367708 0.0 0.012005877788371647 0.0 0.0
-0.022403009181942504 0.019441012712327416 0.0 0.00889984320955138 0.0 0.0
-0.017760304050230546 0.01483300283406606 0.0 0.006735413270220781 0.0 0.0
-0.013637826849722524 0.010835366551067123 0.0 0.00530655079578075 0.0 0.0
-0.010356066074886074 0.007750963879639052 0.0 0.004316443007151528 0.0 0.0
-0.00790649005260091 0.0055403338553460186 0.0 0.00360048245475932 0.0 0.0
-0.006110541624153174 0.0040003430508728285 0.0 0.0030772679359326242 0.0 0.0
-0.004753902157145713 0.002887940662335571 0.0 0.002644359764516405 0.0 0.0
-0.003659865424375057 0.0020329985853721573 0.0 0.0022283159987226647 0.0 0.0
-0.002746624642052197 0.0013587741272920722 0.0 0.0018124063168863552 0.0 0.0
-0.0020362042670275075 0.0009057348343882213 0.0 0.001594384095916123 0.0 0.0
-0.0015416774533565907 0.000677155477504242 0.0 0.001597445850603256 0.0 0.0
-0.0012028122254537513 0.0005581828857965038 0.0 0.0016566841843070603 0.0 0.0
-0.0009425449937327968 0.0004538695577911816 0.0 0.0017207311101688659 0.0 0.0
-0.0007044536891816891 0.0003421892055281141 0.0 0.0018011263143690422 0.0 0.0
-0.0004237347437245129 0.00014428728005280833 0.0 0.001782375486139391 0.0 0.0
-9.89548169680302e-05 -0.00022857950564873682 0.0 0.0013252534184191394 0.0 0.0
6.539797527168605e-05 -0.00046696956473711874 0.0 0.0007625975284866275 0.0 0.0
9.759840966730062e-06 -0.0002929180833151151 0.0 -0.0006280028871509406 0.0 0.0
-0.00015037505311458538 -0.00015856581192897465 0.0 -0.0011380588817155503 0.0 0.0
-0.0004911801456594033 0.00017759477013424787 0.0 -0.001590507989255496 0.0 0.0
-0.0008251152696241727 0.0003854464346406042 0.0 -0.0016256346439534471 0.0 0.0
-0.0011320115361827426 0.0005283776575249626 0.0 -0.0015320856985372132 0.0 0.0
-0.0014679308746820298 0.0006643118566199505 0.0 -0.0014246715260877688 0.0 0.0
-0.001918829512062 0.0008391669220026997 0.0 -0.0013188537268554734 0.0 0.0
-0.0025997586946101907 0.001235133607559024 0.0 -0.001415837339811659 0.0 0.0
-0.003532743340618048 0.0019254389395795624 0.0 -0.0017854481959500125 0.0 0.0
-0.004657461421073514 0.00279999529206521 0.0 -0.002182291151511155 0.0 0.0
-0.0060069810661001685 0.003893915274371381 0.0 -0.002551810061480573 0.0 0.0
-0.007722262867598249 0.00534495178934123 0.0 -0.0029661469017356803 0.0 0.0
-0.010006488351631412 0.007356601563458753 0.0 -0.0034905670828881447 0.0 0.0
-0.013105588041497375 0.010203949936892154 0.0 -0.00423107622622656 0.0 0.0
-0.017230283138380414 0.014114955109264464 0.0 -0.005264246267421304 0.0 0.0
-0.02240814611085595 0.019146438357011103 0.0 -0.006675742710578759 0.0 0.0
-0.028270676032972182 0.024984984022803906 0.0 -0.008782943937364916 0.0 0.0
-0.03378227410040788 0.030656776236744607 0.0 -0.011980443061937344 0.0 0.0
-0.03690406989819174 0.03413300262122309 0.0 -0.015958469235144785 0.0 0.0
-0.03447874401887034 0.03221205322345665 0.0 -0.01893069461239947 0.0 0.0
-0.03141854670203838 0.02092235568539152 0.0 8.399097389810706e-15 0.0 0.0
-0.034478744018867996 0.03221205322345391 0.0 0.01893069461241742 0.0 0.0
-0.03690406989818703 0.03413300262121669 0.0 0.015958469235162417 0.0 0.0
-0.03378227410040062 0.030656776236736426 0.0 0.011980443061946927 0.0 0.0
-0.02827067603296337 0.024984984022796544 0.0 0.008782943937367935 0.0 0.0
-0.02240814611084679 0.019146438357003446 0.0 0.006675742710577909 0.0 0.0
-0.017230283138371265 0.014114955109257067 0.0 0.005264246267419594 0.0 0.0
-0.013105588041487797 0.010203949936886475 0.0 0.004231076226224579 0.0 0.0
-0.010006488351621066 0.007356601563449097 0.0 0.0034905670828856263 0.0 0.0
-0.007722262867587844 0.005344951789333066 0.0 0.002966146901732368 0.0 0.0
-0.006006981066090669 0.0038939152743638836 0.0 0.0025518100614756747 0.0 0.0
-0.004657461421065367 0.002799995292057169 0.0 0.002182291151506925 0.0 0.0
-0.003532743340611367 0.0019254389395738747 0.0 0.0017854481959476702 0.0 0.0
-0.002599758694605218 0.0012351336075568712 0.0 0.001415837339810231 0.0 0.0
-0.001918829512059089 0.0008391669220011803 0.0 0.0013188537268543383 0.0 0.0
-0.001467930874680334 0.0006643118566194489 0.0 0.0014246715260873026 0.0 0.0
-0.0011320115361814849 0.000528377657524637 0.0 0.001532085698535333 0.0 0.0
-0.0008251152696233112 0.00038544643464045666 0.0 0.0016256346439519197 0.0 0.0
-0.0004911801456589407 0.00017759477013432133 0.0 0.0015905079892541928 0.0 0.0
-0.00015037505311443623 -0.00015856581192897032 0.0 0.001138058881714285 0.0 0.0
9.759840966807992e-06 -0.0002929180833148785 0.0 0.0006280028871501328 0.0 0.0
-3.735877562499643e-05 -0.00015667076052409084 0.0 -0.0004910440182127152 0.0 0.0
-0.00019676606558321612 -9.051296177767916e-05 0.0 -0.0009332886592636402 0.0 0.0
-0.0005563846019875549 0.00021259951876507192 0.0 -0.001356491669062645 0.0 0.0
-0.0009417208536160984 0.0004270545554419696 0.0 -0.0013991720890950876 0.0 0.0
-0.0013133232506819107 0.0005971836873797971 0.0 -0.0012959282001544093 0.0 0.0
-0.0017273891990454162 0.0007609457814492825 0.0 -0.0011381049927193156 0.0 0.0
-0.002322956163012896 0.0010472715405129226 0.0 -0.0010512130158187422 0.0 0.0
-0.0032105798224108624 0.0016709569972737127 0.0 -0.0012952844080060392 0.0 0.0
-0.004331241281827992 0.0025409199280198636 0.0 -0.0016449836684974818 0.0 0.0
-0.005653112748280983 0.0035980655990990266 0.0 -0.001962660515797116 0.0 0.0
-0.007276677068178989 0.004949284754448746 0.0 -0.0022941504009185033 0.0 0.0
-0.009364378001247143 0.006751908898130122 0.0 -0.002665094828274432 0.0 0.0
-0.012154675104882726 0.009253534886068617 0.0 -0.003154183975117542 0.0 0.0
-0.01592344061694642 0.012754231203073459 0.0 -0.003868416937653425 0.0 0.0
-0.020878497404384286 0.017483129718367758 0.0 -0.004873199345042176 0.0 0.0
-0.027055474366313732 0.023494883005172305 0.0 -0.0061695999821473335 0.0 0.0
-0.03407724740122761 0.0304801080965936 0.0 -0.007943832569911682 0.0 0.0
-0.04071894114079406 0.03733489865054001 0.0 -0.010789032746561728 0.0 0.0
-0.04452846163565307 0.04163609676110736 0.0 -0.015075164107739403 0.0 0.0
-0.04173467288665511 0.0395360157555556 0.0 -0.019996355709069998 0.0 0.0
-0.03813666480248615 0.026256882945098647 0.0 8.380449112443955e-15 0.0 0.0
-0.04173467288665215 0.03953601575555123 0.0 0.019996355709088053 0.0 0.0
-0.04452846163564727 0.041636096761103296 0.0 0.015075164107757853 0.0 0.0
-0.04071894114078564 0.03733489865053281 0.0 0.010789032746572976 0.0 0.0
-0.03407724740121776 0.0304801080965861 0.0 0.00794383256991402 0.0 0.0
-0.027055474366303216 0.023494883005162392 0.0 0.006169599982147391 0.0 0.0
-0.020878497404373513 0.01748312971835836 0.0 0.004873199345041278 0.0 0.0
-0.015923440616935333 0.012754231203064861 0.0 0.0038684169376516225 0.0 0.0
-0.012154675104870847 0.009253534886058347 0.0 0.003154183975115268 0.0 0.0
-0.009364378001235001 0.006751908898118602 0.0 0.0026650948282706116 0.0 0.0
-0.007276677068167925 0.0049492847544397025 0.0 0.0022941504009133555 0.0 0.0
-0.0056531127482715195 0.0035980655990920114 0.0 0.0019626605157932455 0.0 0.0
-0.004331241281820095 0.002540919928014647 0.0 0.0016449836684952624 0.0 0.0
-0.0032105798224046876 0.0016709569972694477 0.0 0.0012952844080036808 0.0 0.0
-0.0023229561630087945 0.0010472715405112074 0.0 0.0010512130158166653 0.0 0.0
-0.0017273891990432619 0.0007609457814489221 0.0 0.0011381049927192833 0.0 0.0
-0.0013133232506806413 0.0005971836873793374 0.0 0.0012959282001533113 0.0 0.0
-0.00094172085361513 0.00042705455544205634 0.0 0.0013991720890937013 0.0 0.0
-0.000556384601987034 0.00021259951876470058 0.0 0.0013564916690610872 0.0 0.0
-0.00019676606558298774 -9.051296177761606e-05 0.0 0.0009332886592625868 0.0 0.0
-3.735877562484911e-05 -0.0001566707605239997 0.0 0.000491044018212405 0.0 0.0
-7.328015560548092e-05 -5.9571886125888435e-05 0.0 -0.0003550976562258519 0.0 0.0
-0.00023476596163921022 -2.8057389634881907e-05 0.0 -0.0007132709905412962 0.0 0.0
-0.0006171338425191344 0.00024623274708017445 0.0 -0.0010792560554961758 0.0 0.0
-0.0010549168239119735 0.0004687743954427194 0.0 -0.0011204116787548305 0.0 0.0
-0.0014874797230900157 0.0006574366773680346 0.0 -0.0010137350421101877 0.0 0.0
-0.0019972510710793605 0.0008646135929106333 0.0 -0.000808569217547128 0.0 0.0
-0.0027711933394144006 0.0013378697653756036 0.0 -0.0008387947740814602 0.0 0.0
-0.003838805306145553 0.0021582317418481017 0.0 -0.0011069462103968529 0.0 0.0
-0.00511982560621123 0.0031688860136066194 0.0 -0.0013544635267311504 0.0 0.0
-0.006655136333217221 0.004426964720498434 0.0 -0.0016109643445843607 0.0 0.0
-0.008562468791643022 0.00604407817571526 0.0 -0.0018801675208418706 0.0 0.0
-0.011036988459626586 0.0082129764741068 0.0 -0.002183393423597132 0.0 0.0
-0.014352316196114004 0.0112189245599384 0.0 -0.002591942366078775 0.0 0.0
-0.018798000220030246 0.015385378020003691 0.0 -0.0032176981989229412 0.0 0.0
-0.024575145679773924 0.020926867205589148 0.0 -0.00412639145593358 0.0 0.0
-0.031680862022833954 0.027853402607823007 0.0 -0.005255154758211793 0.0 0.0
-0.03971662577480606 0.035825263266111816 0.0 -0.006520320223105703 0.0 0.0
-0.04741631370410586 0.043744175411761156 0.0 -0.0084605300720752 0.0 0.0
-0.05205402465658841 0.04901075670361605 0.0 -0.012703480262234834 0.0 0.0
-0.04915767214611558 0.04710451764115524 0.0 -0.020211685791796816 0.0 0.0
-0.04515571672148432 0.03196465920456091 0.0 7.985799521659231e-15 0.0 0.0
-0.04915767214611199 0.04710451764115144 0.0 0.020211685791813545 0.0 0.0
-0.05205402465658145 0.04901075670360992 0.0 0.012703480262251366 0.0 0.0
-0.047416313704096484 0.04374417541175134 0.0 0.008460530072084369 0.0 0.0
-0.03971662577479501 0.03582526326610107 0.0 0.00652032022310889 0.0 0.0
-0.031680862022821936 0.027853402607812473 0.0 0.005255154758212427 0.0 0.0
-0.024575145679761674 0.020926867205576304 0.0 0.004126391455933016 0.0 0.0
-0.018798000220017538 0.015385378019992575 0.0 0.0032176981989219455 0.0 0.0
-0.014352316196100452 0.011218924559926588 0.0 0.0025919423660772122 0.0 0.0
-0.01103698845961284 0.008212976474093909 0.0 0.002183393423594655 0.0 0.0
-0.008562468791630357 0.00604407817570473 0.0 0.0018801675208380752 0.0 0.0
-0.006655136333206267 0.004426964720491134 0.0 0.0016109643445804812 0.0 0.0
-0.005119825606202143 0.003168886013599907 0.0 0.0013544635267287732 0.0 0.0
-0.0038388053061381936 0.002158231741841877 0.0 0.0011069462103951713 0.0 0.0
-0.0027711933394091977 0.0013378697653725448 0.0 0.0008387947740800671 0.0 0.0
-0.0019972510710766747 0.0008646135929107566 0.0 0.0008085692175466969 0.0 0.0
-0.0014874797230885605 0.000657436677368002 0.0 0.0010137350421097835 0.0 0.0
-0.0010549168239109045 0.00046877439544218793 0.0 0.0011204116787537487 0.0 0.0
-0.0006171338425185508 0.00024623274707971584 0.0 0.0010792560554949131 0.0 0.0
-0.00023476596163897944 -2.8057389635031805e-05 0.0 0.0007132709905408431 0.0 0.0
-7.328015560534084e-05 -5.957188612584214e-05 0.0 0.0003550976562254084 0.0 0.0
-9.379353162164395e-05 -2.956162333431063e-06 0.0 -0.00022913869400919526 0.0 0.0
-0.00025906888347253606 2.4033001157442803e-05 0.0 -0.00048125068075303317 0.0 0.0
-0.0006698828098267642 0.00027408483231453436 0.0 -0.0007540369029318041 0.0 0.0
-0.0011657335691821094 0.0005132404630504081 0.0 -0.0007855719491523863 0.0 0.0
-0.001660475652076874 0.0007070607863520738 0.0 -0.0006841605362888333 0.0 0.0
-0.0022975465979122684 0.0010143029948105613 0.0 -0.0004884166526974613 0.0 0.0
-0.0032462602008468387 0.001696143086332228 0.0 -0.0006162213492586494 0.0 0.0
-0.004460792535304499 0.0026470715792591766 0.0 -0.0007847867693187192 0.0 0.0
-0.005907418779653005 0.00381572413968011 0.0 -0.0009555155381515744 0.0 0.0
-0.0076628665229005 0.005281566003417251 0.0 -0.0011336798479287282 0.0 0.0
-0.009865088142975929 0.00717309242389747 0.0 -0.001318423740819713 0.0 0.0
-0.012739498772159524 0.009720427130754758 0.0 -0.0015207076129462131 0.0 0.0
-0.016590538063657293 0.013245239718115758 0.0 -0.0018086048023610972 0.0 0.0
-0.021727153228901622 0.018084556055233764 0.0 -0.002295386373040714 0.0 0.0
-0.028315326949393253 0.02442861148638408 0.0 -0.0030109665736797954 0.0 0.0
-0.036263162696900754 0.03220908623237059 0.0 -0.0038763618327256086 0.0 0.0
-0.04511159250402439 0.04098354588573058 0.0 -0.0046687018918760035 0.0 0.0
-0.05373010288540215 0.0496943495822857 0.0 -0.005501524125141367 0.0 0.0
-0.05942254965373406 0.056097446323034775 0.0 -0.008519939395685903 0.0 0.0
-0.05692504578190121 0.05513475427541227 0.0 -0.01887091619559786 0.0 0.0
-0.05278988390407488 0.03843679399394406 0.0 5.667341596016229e-15 0.0 0.0
-0.056925045781897006 0.055134754275407066 0.0 0.01887091619561075 0.0 0.0
-0.05942254965372605 0.05609744632302528 0.0 0.008519939395698575 0.0 0.0
-0.05373010288539141 0.0496943495822779 0.0 0.005501524125149426 0.0 0.0
-0.04511159250401189 0.04098354588571807 0.0 0.00466870189187929 0.0 0.0
-0.03626316269688743 0.03220908623236147 0.0 0.003876361832725622 0.0 0.0
-0.028315326949379452 0.024428611486371033 0.0 0.003010966573679951 0.0 0.0
-0.02172715322888709 0.018084556055222897 0.0 0.0022953863730396135 0.0 0.0
-0.016590538063641903 0.013245239718102049 0.0 0.0018086048023595426 0.0 0.0
-0.012739498772144099 0.009720427130740941 0.0 0.001520707612944463 0.0 0.0
-0.009865088142961975 0.007173092423885518 0.0 0.0013184237408164494 0.0 0.0
-0.007662866522888516 0.005281566003406729 0.0 0.0011336798479253452 0.0 0.0
-0.0059074187796427065 0.0038157241396723435 0.0 0.0009555155381495374 0.0 0.0
-0.004460792535295924 0.0026470715792533033 0.0 0.0007847867693176013 0.0 0.0
-0.0032462602008406457 0.0016961430863270187 0.0 0.0006162213492576193 0.0 0.0
-0.0022975465979089313 0.0010143029948092746 0.0 0.0004884166526969739 0.0 0.0
-0.0016604756520752376 0.0007070607863511275 0.0 0.0006841605362887557 0.0 0.0
-0.0011657335691811059 0.000513240463050184 0.0 0.0007855719491516982 0.0 0.0
-0.0006698828098261533 0.0002740848323141037 0.0 0.0007540369029312398 0.0 0.0
-0.00025906888347226534 2.403300115727243e-05 0.0 0.00048125068075254853 0.0 0.0
-9.379353162157928e-05 -2.956162333442834e-06 0.0 0.00022913869400833367 0.0 0.0
-9.160078005247054e-05 1.2864073762168239e-05 0.0 -0.0001332413695847556 0.0 0.0
-0.0002611321841881472 5.7640419742122824e-05 0.0 -0.00024101216295189994 0.0 0.0
-0.0007092844550884155 0.0002913947065265964 0.0 -0.0003691863083906419 0.0 0.0
-0.0012760781170405144 0.0005600371435325948 0.0 -0.0003874069425559873 0.0 0.0
-0.0018507526823349622 0.0007662919968936481 0.0 -0.00031547031690913277 0.0 0.0
-0.0026268764512699275 0.0012159326295406155 0.0 -0.0002006242643603602 0.0 0.0
-0.0037302662896143033 0.002080645006596189 0.0 -0.00030281793612043674 0.0 0.0
-0.005075177478591523 0.003142856684414388 0.0 -0.0003776008422566332 0.0 0.0
-0.006692548109126405 0.004477482687860112 0.0 -0.0004516153109036078 0.0 0.0
-0.008676076536357356 0.00615630455421995 0.0 -0.0005347038142604752 0.0 0.0
-0.011182833269203184 0.008331412957172057 0.0 -0.0006078343397601794 0.0 0.0
-0.01447090028550856 0.011271803687012426 0.0 -0.0006766217213245045 0.0 0.0
-0.018874301719614642 0.015331398924432527 0.0 -0.0008272525419379412 0.0 0.0
-0.02469222543903197 0.02083321423549977 0.0 -0.0010939546849462883 0.0 0.0
-0.032064359663394874 0.027954040186498143 0.0 -0.0014847894088839977 0.0 0.0
-0.040814275221651215 0.036549754068003905 0.0 -0.0019862419483715043 0.0 0.0
-0.0503069514847016 0.04600482011621708 0.0 -0.0024220946816604495 0.0 0.0
-0.05944717788838992 0.05516562212112221 0.0 -0.0026022959004019007 0.0 0.0
-0.06635502225843695 0.06228090384360031 0.0 -0.0035312562253898426 0.0 0.0
-0.06526538506203772 0.0636784978458325 0.0 -0.012718005689131805 0.0 0.0
-0.06158636868504918 0.04684938807059103 0.0 3.43908929112402e-15 0.0 0.0
-0.06526538506203276 0.063678497845827 0.0 0.012718005689139326 0.0 0.0
-0.06635502225842768 0.06228090384359272 0.0 0.00353125622539769 0.0 0.0
-0.059447177888377535 0.05516562212111313 0.0 0.0026022959004068187 0.0 0.0
-0.05030695148468767 0.046004820116201876 0.0 0.0024220946816609764 0.0 0.0
-0.04081427522163623 0.03654975406799493 0.0 0.0019862419483711235 0.0 0.0
-0.03206435966337922 0.0279540401864852 0.0 0.0014847894088844183 0.0 0.0
-0.024692225439015735 0.02083321423548836 0.0 0.0010939546849459184 0.0 0.0
-0.018874301719597593 0.015331398924415787 0.0 0.0008272525419370483 0.0 0.0
-0.014470900285491688 0.01127180368699688 0.0 0.0006766217213237198 0.0 0.0
-0.01118283326918791 0.008331412957158562 0.0 0.0006078343397579414 0.0 0.0
-0.008676076536343995 0.006156304554208327 0.0 0.0005347038142591296 0.0 0.0
-0.006692548109114742 0.004477482687851999 0.0 0.0004516153109029986 0.0 0.0
-0.005075177478581879 0.0031428566844070903 0.0 0.0003776008422559787 0.0 0.0
-0.0037302662896072426 0.0020806450065909655 0.0 0.00030281793611938506 0.0 0.0
-0.0026268764512657875 0.001215932629538007 0.0 0.00020062426436049172 0.0 0.0
-0.0018507526823329126 0.0007662919968926672 0.0 0.0003154703169091747 0.0 0.0
-0.001276078117039379 0.0005600371435324464 0.0 0.0003874069425560146 0.0 0.0
-0.000709284455087846 0.000291394706526328 0.0 0.00036918630839051313 0.0 0.0
-0.0002611321841880111 5.764041974217572e-05 0.0 0.00024101216295119773 0.0 0.0
-9.160078005244561e-05 1.2864073762135896e-05 0.0 0.00013324136958476783 0.0 0.0
-5.2909850602099665e-05 1.0641309701590472e-05 0.0 -8.709690775184542e-05 0.0 0.0
-0.00022652015717774453 6.850204807815297e-05 0.0 -0.0001005594426008105 0.0 0.0
-0.0007279404754757027 0.00029685800850697713 0.0 -0.00012642300243852675 0.0 0.0
-0.0013934384820907984 0.0005835637905554847 0.0 -0.00013643475941935374 0.0 0.0
-0.002073649645846151 0.0008033704136128511 0.0 -7.240969313087727e-05 0.0 0.0
-0.0029790075968822807 0.0013255102257892118 0.0 4.050059575849067e-05 0.0 0.0
-0.004209870307027789 0.0022749420986830117 0.0 1.4738991979563088e-05 0.0 0.0
-0.005681895268713264 0.0033930684477469514 0.0 1.4211308519997395e-05 0.0 0.0
-0.007474229188861666 0.004811145825682375 0.0 3.882212562950115e-05 0.0 0.0
-0.009693021975155173 0.006598321835879923 0.0 6.703275069884886e-05 0.0 0.0
-0.012515545112910555 0.008916400874537225 0.0 0.0001496240408847254 0.0 0.0
-0.016236859619628383 0.012059276387826813 0.0 0.0002862820707503725 0.0 0.0
-0.021191609599133833 0.016389928699676672 0.0 0.00037889346383749114 0.0 0.0
-0.027671662863420723 0.022215582205477508 0.0 0.0004667461922062549 0.0 0.0
-0.035801586834878885 0.02971924835941609 0.0 0.0004567154944195061 0.0 0.0
-0.04531674097718739 0.038714446059620954 0.0 0.00030184396204649844 0.0 0.0
-0.05540854264373526 0.048489870924714754 0.0 3.7738982355468506e-05 0.0 0.0
-0.06471996134011121 0.05780324338461221 0.0 -0.0002184188136417648 0.0 0.0
-0.07185936664116735 0.06502625260816554 0.0 -0.0003980574801896687 0.0 0.0
-0.07406844939303878 0.06806163171855159 0.0 -0.00834547541364451 0.0 0.0
-0.07339752459813394 0.05177175669831219 0.0 2.2273849431542203e-15 0.0 0.0
-0.07406844939303364 0.06806163171854687 0.0 0.008345475413648095 0.0 0.0
-0.07185936664115626 0.0650262526081596 0.0 0.00039805748019327084 0.0 0.0
-0.06471996134009651 0.05780324338459872 0.0 0.0002184188136440373 0.0 0.0
-0.055408542643719486 0.048489870924696254 0.0 -3.7738982354873496e-05 0.0 0.0
-0.04531674097717053 0.03871444605961139 0.0 -0.00030184396204632324 0.0 0.0
-0.03580158683486132 0.02971924835940038 0.0 -0.00045671549441914094 0.0 0.0
-0.027671662863402613 0.022215582205464327 0.0 -0.00046674619220684384 0.0 0.0
-0.02119160959911507 0.01638992869965744 0.0 -0.00037889346383809114 0.0 0.0
-0.016236859619609825 0.012059276387810777 0.0 -0.0002862820707500739 0.0 0.0
-0.012515545112893801 0.008916400874522617 0.0 -0.00014962404088558474 0.0 0.0
-0.009693021975140818 0.006598321835868296 0.0 -6.703275069867734e-05 0.0 0.0
-0.007474229188849107 0.004811145825673759 0.0 -3.882212562930892e-05 0.0 0.0
-0.005681895268702674 0.003393068447737431 0.0 -1.4211308519765809e-05 0.0 0.0
-0.004209870307019735 0.0022749420986781536 0.0 -1.4738991980132185e-05 0.0 0.0
-0.0029790075968774074 0.0013255102257858187 0.0 -4.050059575741758e-05 0.0 0.0
-0.0020736496458439186 0.0008033704136135162 0.0 7.240969313047788e-05 0.0 0.0
-0.0013934384820896639 0.000583563790554709 0.0 0.0001364347594195871 0.0 0.0
-0.0007279404754750418 0.00029685800850679433 0.0 0.0001264230024383514 0.0 0.0
-0.00022652015717755251 6.850204807833132e-05 0.0 0.0001005594426004046 0.0 0.0
-5.290985060215023e-05 1.0641309701567392e-05 0.0 8.709690775276081e-05 0.0 0.0
SCALARS Statev float 8
LOOKUP_TABLE default
0.0 0.00941683535977272 0.0072097739261852995 -0.009001185543369511 0.0017914116171842149 -0.0003418344488280744 0.0 0.0
0.0 0.0023910914772470784 0.0016026310888528552 -0.0007527376763701835 -0.0008498934124826729 -0.0035093830786241394 0.0 0.0
0.0 -4.0068181842345174e-05 -1.6053434297045524e-05 1.0157066887608658e-05 5.8963674094372814e-06 -2.0660894687026822e-05 0.0 0.0
0.0 7.149623777442509e-05 -1.102579996576422e-05 8.196748569717583e-06 2.829051396046456e-06 -2.2273404682893211e-07 0.0 0.0
0.0 0.0003275399194893231 3.603058161480747e-05 -2.3988809880292575e-05 -1.2041771734514615e-05 2.8887406036112586e-05 0.0 0.0
0.0 0.0005633914856923893 0.0006559128953321564 -0.0004947655898617617 -0.00016114730547039477 5.15669631719489e-05 0.0 0.0
0.0 0.0016617250150301735 0.0015469497195609863 -0.0012180665019405287 -0.00032888321762045684 5.8148566243043366e-05 0.0 0.0
0.0 0.002997851301366679 0.0027957328214709407 -0.002276533270221765 -0.0005191995512491773 6.453029499618582e-05 0.0 0.0
0.0 0.004738247619514454 0.0043855377874220105 -0.0036801421769491484 -0.0007053956104728619 8.567438774715975e-05 0.0 0.0
0.0 0.007012108154643033 0.006382830900684323 -0.0054912338492034835 -0.0008915970514808407 0.00011731342192318627 0.0 0.0
0.0 0.010007848966960907 0.008953582357365621 -0.007866144392152297 -0.0010874379652133248 0.00020434060409180472 0.0 0.0
0.0 0.013746198282013448 0.012402491480294722 -0.011105784431876016 -0.001296707048418702 0.0003478923323929081 0.0 0.0
0.0 0.018974716433509176 0.017063798925300962 -0.015554610424499373 -0.001509188500801575 0.00044115284508391874 0.0 0.0
0.0 0.025967944692594364 0.023232982390203962 -0.021507633291377053 -0.001725349098826913 0.0005299687149747266 0.0 0.0
0.0 0.0349137647865239 0.03107146909325685 -0.02913624386713901 -0.0019352252261178454 0.0005463294113103297 0.0 0.0
0.0 0.0456909138965091 0.040439494880793 -0.03830876232985984 -0.0021307325509331856 0.000460224857317829 0.0 0.0
0.0 0.05761529161179524 0.050778333242587084 -0.04847253526943818 -0.0023057979731488675 0.0002670779489122809 0.0 0.0
0.0 0.06953315064746748 0.06110085599543622 -0.05864781650844236 -0.0024530394869938547 2.5681291842906883e-05 0.0 0.0
0.0 0.07998992551378249 0.07015138809497048 -0.06758743513236065 -0.0025639529626097918 -0.00012410295914755333 0.0 0.0
0.0 0.0872749148966504 0.07663056913915814 -0.07400755184973473 -0.0026230172894233764 -0.00019722222391472806 0.0 0.0
0.0 0.08996059265731843 0.07908689513739557 -0.07646416442383402 -0.0026227307135615486 5.212844045310305e-16 0.0 0.0
0.0 0.0872749148966442 0.07663056913915267 -0.074007551849729 -0.002623017289423621 0.00019722222391786292 0.0 0.0
0.0 0.07998992551377389 0.0701513880949628 -0.06758743513235384 -0.002563952962608988 0.00012410295915166614 0.0 0.0
0.0 0.06953315064745386 0.0611008559954241 -0.058647816508431004 -0.002453039486993127 -2.5681291840929515e-05 0.0 0.0
0.0 0.057615291611776503 0.05077833324257045 -0.0484725352694225 -0.0023057979731479308 -0.0002670779489116421 0.0 0.0
0.0 0.04569091389649254 0.04043949488077824 -0.03830876232984582 -0.0021307325509324223 -0.00046022485731743944 0.0 0.0
0.0 0.03491376478650858 0.03107146909324286 -0.02913624386712653 -0.0019352252261163477 -0.0005463294113109725 0.0 0.0
0.0 0.025967944692576878 0.023232982390188235 -0.021507633291362592 -0.001725349098825635 -0.0005299687149755952 0.0 0.0
0.0 0.018974716433490538 0.01706379892528435 -0.015554610424483913 -0.0015091885008004346 -0.00044115284508468094 0.0 0.0
0.0 0.013746198281994842 0.012402491480278138 -0.01110578443186028 -0.001296707048417848 -0.00034789233239307436 0.0 0.0
0.0 0.010007848966945522 0.00895358235735166 -0.007866144392139538 -0.001087437965212123 -0.0002043406040923325 0.0 0.0
0.0 0.007012108154628306 0.006382830900671266 -0.005491233849191334 -0.0008915970514799313 -0.00011731342192352777 0.0 0.0
0.0 0.004738247619503775 0.0043855377874119405 -0.0036801421769402875 -0.000705395610471653 -8.567438774748757e-05 0.0 0.0
0.0 0.002997851301358426 0.002795732821462833 -0.00227653327021471 -0.0005191995512481229 -6.453029499633853e-05 0.0 0.0
0.0 0.0016617250150248184 0.0015469497195550145 -0.0012180665019355839 -0.0003288832176194297 -5.814856624307517e-05 0.0 0.0
0.0 0.000563391485689888 0.0006559128953290652 -0.0004947655898593635 -0.0001611473054697016 -5.1566963171677696e-05 0.0 0.0
0.0 0.00032753991948742973 3.603058161402489e-05 -2.3988809879728996e-05 -1.2041771734296475e-05 -2.888740603589512e-05 0.0 0.0
0.0 7.149623777388238e-05 -1.1025799965659802e-05 8.196748569641746e-06 2.8290513960185217e-06 2.2273404684293704e-07 0.0 0.0
0.0 -4.006818184254706e-05 -1.6053434296832065e-05 1.0157066887479618e-05 5.8963674093524485e-06 2.0660894686773044e-05 0.0 0.0
0.0 0.0023910914772424705 0.0016026310888507768 -0.0007527376763691556 -0.0008498934124816202 0.003509383078619006 0.0 0.0
0.0 0.009416835359761504 0.007209773926177821 -0.009001185543358093 0.0017914116171802684 0.0003418344488119006 0.0 0.0
0.0 0.007409674117717674 0.005228943312576078 -0.007157758170737176 0.0019288148581610956 -8.988873261223725e-06 0.0 0.0
0.0 0.0010931468587185244 0.0007693913921546312 -0.0002779612496451051 -0.0004914301425095249 -0.002290294134661763 0.0 0.0
0.0 1.7363418688224285e-05 -9.530416712126858e-08 7.893519570272149e-07 -6.94047789906129e-07 4.652274862448173e-06 0.0 0.0
0.0 7.467978065355359e-06 -7.961622931434474e-07 5.360292496322876e-07 2.6013304351136995e-07 1.594436540044148e-07 0.0 0.0
0.0 0.00010033619335195494 3.044698198469421e-06 -1.351023487302259e-06 -1.693674711167936e-06 8.175806104972372e-06 0.0 0.0
0.0 0.0005538991292921085 0.0003673649833916044 -0.00027815401083622815 -8.921097255537607e-05 3.789820035451658e-05 0.0 0.0
0.0 0.0013102152981548357 0.0012274645367338962 -0.0009769967746963563 -0.0002504677620375394 -4.792839714802442e-05 0.0 0.0
0.0 0.0025504782618183336 0.0023570692241478303 -0.0019410077255805234 -0.00041606149856730665 -0.00012410444657005106 0.0 0.0
0.0 0.004157949693933628 0.003799372737048918 -0.0032258264080917264 -0.0005735463289571921 -0.00020680465498378815 0.0 0.0
0.0 0.006181458875029246 0.005606346627618356 -0.004884158859818926 -0.0007221877677994284 -0.00029406373454009255 0.0 0.0
0.0 0.008827025759223093 0.007922874145724158 -0.007057607181759727 -0.0008652669639644308 -0.0003743978249096707 0.0 0.0
0.0 0.01250105643812572 0.011009079684853254 -0.010007663777390416 -0.001001415907462834 -0.00045077197948919335 0.0 0.0
0.0 0.01703093292212299 0.01522075062493697 -0.01409520913090408 -0.0011255414940328863 -0.0006140860242625896 0.0 0.0
0.0 0.023492267903552477 0.020847577737644542 -0.019614700857427517 -0.0012328768802170348 -0.0008931994828119367 0.0 0.0
0.0 0.03177274338568997 0.028054076259383463 -0.02673606875705198 -0.0013180075023314754 -0.0012731471195335667 0.0 0.0
0.0 0.04175945013288351 0.03671347055621511 -0.03533807106169887 -0.0013753994945162472 -0.0017456800416514998 0.0 0.0
0.0 0.05287263464521929 0.04629909571475439 -0.04489581850861714 -0.00140327720613729 -0.0022111497807228058 0.0 0.0
0.0 0.06405512450330504 0.055901352136139074 -0.05449375609331148 -0.0014075960428275578 -0.0024563133496411332 0.0 0.0
0.0 0.0739074300888981 0.06436061002090819 -0.0629642481627044 -0.0013963618582038323 -0.002244027275954444 0.0 0.0
0.0 0.08096246123853704 0.07038209088605446 -0.06902270043547523 -0.001359390450579224 -0.0015921038781343893 0.0 0.0
0.0 0.08371536568543224 0.07264844698609985 -0.0713447645901581 -0.001303682395941685 2.7952900411021275e-15 0.0 0.0
0.0 0.08096246123853204 0.07038209088605003 -0.06902270043547093 -0.0013593904505790828 0.0015921038781417749 0.0 0.0
0.0 0.07390743008888918 0.06436061002090043 -0.06296424816269693 -0.0013963618582035352 0.0022440272759622105 0.0 0.0
0.0 0.0640551245032927 0.05590135213612818 -0.054493756093300996 -0.001407596042827187 0.002456313349645852 0.0 0.0
0.0 0.05287263464520486 0.04629909571474169 -0.04489581850860511 -0.0014032772061365506 0.0022111497807244303 0.0 0.0
0.0 0.041759450132868844 0.036713470556202096 -0.035338071061686405 -0.0013753994945156739 0.0017456800416515536 0.0 0.0
0.0 0.031772743385675775 0.028054076259370706 -0.026736068757040286 -0.001318007502330421 0.0012731471195333542 0.0 0.0
0.0 0.023492267903536045 0.020847577737630022 -0.01961470085741371 -0.001232876880216306 0.0008931994828113644 0.0 0.0
0.0 0.01703093292210576 0.015220750624921713 -0.014095209130889625 -0.00112554149403209 0.0006140860242618445 0.0 0.0
0.0 0.012501056438109465 0.011009079684838535 -0.01000766377737644 -0.001001415907462097 0.00045077197948834664 0.0 0.0
0.0 0.008827025759207774 0.007922874145710525 -0.007057607181746946 -0.0008652669639635773 0.000374397824908252 0.0 0.0
0.0 0.006181458875017496 0.005606346627607284 -0.0048841588598086735 -0.000722187767798609 0.000294063734539069 0.0 0.0
0.0 0.004157949693924221 0.003799372737039656 -0.0032258264080834245 -0.00057354632895623 0.0002068046549829387 0.0 0.0
0.0 0.002550478261810702 0.002357069224140292 -0.001941007725573943 -0.000416061498566348 0.00012410444656931087 0.0 0.0
0.0 0.0013102152981496978 0.0012274645367284101 -0.000976996774691763 -0.0002504677620366475 4.7928397147533216e-05 0.0 0.0
0.0 0.0005538991292888916 0.0003673649833890875 -0.000278154010834284 -8.921097255480387e-05 -3.78982003544846e-05 0.0 0.0
0.0 0.00010033619335068634 3.044698198181576e-06 -1.3510234870975058e-06 -1.6936747110839234e-06 -8.175806104840709e-06 0.0 0.0
0.0 7.467978065023354e-06 -7.961622930962181e-07 5.360292495970548e-07 2.601330434990899e-07 -1.5944365400420054e-07 0.0 0.0
0.0 1.7363418688176194e-05 -9.53041671293857e-08 7.89351957023409e-07 -6.94047789894257e-07 -4.652274862392903e-06 0.0 0.0
0.0 0.0010931468587147618 0.0007693913921526449 -0.00027796124964401056 -0.000491430142508634 0.0022902941346559804 0.0 0.0
0.0 0.007409674117705849 0.0052289433125675055 -0.007157758170725092 0.0019288148581575856 8.988873250012668e-06 0.0 0.0
0.0 0.005172327765788965 0.0035618551296780028 -0.005032188528917889 0.001470333399239887 -0.0013436114431064198 0.0 0.0
0.0 0.0006953781179043544 0.0004115777271415877 -0.00010051004574617762 -0.0003110676813954101 -0.0015097286903334056 0.0 0.0
0.0 0.0 0.0 0.0 0.0 0.0 0.0 0.0
0.0 1.6196987412902269e-07 5.07516836358892e-08 -4.040391135278601e-08 -1.0347772283147763e-08 -2.370325994826249e-07 0.0 0.0
0.0 2.0306249352903206e-05 -1.304591910050038e-05 1.0067316351017153e-05 2.978602749483998e-06 2.690281141611457e-06 0.0 0.0
0.0 0.0003324913823977732 0.00014010664945679404 -0.00010310677429816752 -3.6999875158627746e-05 2.8697365259833708e-05 0.0 0.0
0.0 0.0008626105261662131 0.0008615798858741194 -0.0006744839159306176 -0.00018709596994350168 -0.00012854076872644325 0.0 0.0
0.0 0.0019890316364987995 0.0018381727092243254 -0.0014941514960451732 -0.0003440212131791514 -0.0002981880065406503 0.0 0.0
0.0 0.003364758904123291 0.003105968653676767 -0.0026031353289219417 -0.000502833324754825 -0.0004782273283035715 0.0 0.0
0.0 0.005172580279218857 0.004686073157228377 -0.004034579154839896 -0.000651494002388481 -0.0006669060505982105 0.0 0.0
0.0 0.007493007661291964 0.0067053764383288115 -0.005911512768648753 -0.0007938636696800562 -0.0008637026483817013 0.0 0.0
0.0 0.010482937105867745 0.00939172136596869 -0.00846191920653198 -0.0009298021594367089 -0.0010829055687078958 0.0 0.0
0.0 0.014851417321050931 0.01304874419500134 -0.01199586549770293 -0.0010528786972984073 -0.001392502852569696 0.0 0.0
0.0 0.020286084103744745 0.018014982125609362 -0.016857954350455524 -0.0011570277751538323 -0.0019033269905570133 0.0 0.0
0.0 0.02769605970674927 0.024441119636492793 -0.02320391134650126 -0.0012372082899915343 -0.002624882449896011 0.0 0.0
0.0 0.036670196101025225 0.03221625199638205 -0.03092583670663411 -0.0012904152897479219 -0.0034885748431503893 0.0 0.0
0.0 0.04669285624622135 0.04087816980679041 -0.03955964972128977 -0.0013185200855006468 -0.004305344891952517 0.0 0.0
0.0 0.05682473193172503 0.049625042189565934 -0.0482987043556535 -0.0013263378339123603 -0.004708716253121581 0.0 0.0
0.0 0.06585393490283739 0.05739334421810561 -0.05608029567455143 -0.0013130485435541737 -0.004320568880866645 0.0 0.0
0.0 0.07235318556595821 0.06295951505655792 -0.061676909116740106 -0.0012826059398177907 -0.0030479672992466894 0.0 0.0
0.0 0.07494255418173439 0.06509830276855122 -0.06388940884082485 -0.0012088939277263772 5.586243273514313e-15 0.0 0.0
0.0 0.07235318556595557 0.06295951505655495 -0.06167690911673765 -0.0012826059398172503 0.0030479672992600407 0.0 0.0
0.0 0.06585393490282855 0.057393344218097865 -0.056080295674543666 -0.0013130485435542082 0.004320568880879689 0.0 0.0
0.0 0.05682473193171255 0.04962504218955496 -0.048298704355642735 -0.0013263378339122168 0.004708716253129772 0.0 0.0
0.0 0.04669285624621053 0.04087816980678071 -0.03955964972128116 -0.0013185200854995503 0.00430534489195545 0.0 0.0
0.0 0.03667019610101174 0.03221625199637012 -0.030925836706622665 -0.0012904152897474438 0.003488574843149448 0.0 0.0
0.0 0.027696059706736387 0.02444111963648127 -0.023203911346490552 -0.0012372082899907337 0.0026248824498959038 0.0 0.0
0.0 0.02028608410372996 0.01801498212559635 -0.016857954350442995 -0.0011570277751533629 0.0019033269905565867 0.0 0.0
0.0 0.01485141732103634 0.01304874419498819 -0.011995865497690564 -0.0010528786972976197 0.0013925028525681785 0.0 0.0
0.0 0.01048293710585358 0.00939172136595607 -0.00846191920652016 -0.000929802159435903 0.0010829055687060821 0.0 0.0
0.0 0.007493007661278958 0.006705376438316502 -0.005911512768637163 -0.0007938636696793374 0.0008637026483793268 0.0 0.0
0.0 0.005172580279209874 0.004686073157219527 -0.004034579154831993 -0.0006514940023875336 0.0006669060505965782 0.0 0.0
0.0 0.003364758904114954 0.0031059686536687894 -0.002603135328914779 -0.0005028333247540115 0.00047822732830214536 0.0 0.0
0.0 0.001989031636492264 0.001838172709217609 -0.0014941514960394107 -0.0003440212131781986 0.000298188006539216 0.0 0.0
0.0 0.0008626105261618077 0.0008615798858697532 -0.0006744839159270136 -0.00018709596994273924 0.00012854076872555214 0.0 0.0
0.0 0.00033249138239509137 0.00014010664945501622 -0.0001031067742968341 -3.6999875158181935e-05 -2.869736525992633e-05 0.0 0.0
0.0 2.0306249352145812e-05 -1.3045919100224333e-05 1.0067316350801792e-05 2.9786027494226596e-06 -2.6902811414931383e-06 0.0 0.0
0.0 1.6196987402351605e-07 5.0751683652012e-08 -4.040391136506354e-08 -1.0347772286923351e-08 2.370325994783513e-07 0.0 0.0
0.0 0.0 0.0 0.0 0.0 0.0 0.0 0.0
0.0 0.0006953781179010936 0.0004115777271395798 -0.00010051004574497133 -0.0003110676813946086 0.001509728690327536 0.0 0.0
0.0 0.005172327765777407 0.0035618551296697732 -0.005032188528906283 0.0014703333992365127 0.001343611443098758 0.0 0.0
0.0 0.0036860281990376198 0.0024535301636414274 -0.003533936623347603 0.0010804064597061736 -0.0015032666804206214 0.0 0.0
0.0 0.0003815034243253841 0.00021317323017896837 -2.4139776365660827e-05 -0.00018903345381330724 -0.0009430224731228075 0.0 0.0
0.0 0.0 0.0 0.0 0.0 0.0 0.0 0.0
0.0 2.7969504051437723e-08 -3.993514254552682e-09 2.784312103542317e-09 1.2092021510114187e-09 2.0414809259877924e-09 0.0 0.0
0.0 2.080256192215134e-05 -2.9041064810298503e-06 2.1720311392801126e-06 7.320753417496707e-07 5.229729678087888e-07 0.0 0.0
0.0 9.176853127367622e-05 2.2610699375557723e-05 -1.5238460760794648e-05 -7.372238614762451e-06 1.5293601814636984e-05 0.0 0.0
0.0 0.0006396680506771214 0.00047211244739531866 -0.0003618883133682823 -0.0001102241340270368 -8.844093231398159e-05 0.0 0.0
0.0 0.0014503938477008582 0.0013347295311711429 -0.0010696095770361908 -0.0002651199541349519 -0.0003801398112030487 0.0 0.0
0.0 0.002647798865438871 0.002426460879590168 -0.0020050280585902874 -0.00042143282099987915 -0.0006461087025391134 0.0 0.0
0.0 0.004190903424984591 0.0037874312259146615 -0.0032164466075828464 -0.000570984618331814 -0.000919180065597772 0.0 0.0
0.0 0.006119100937958218 0.005521186481500692 -0.004807680485488775 -0.0007135059960119191 -0.0012086863329639694 0.0 0.0
0.0 0.008791512387460634 0.007810461766036183 -0.0069617698883242245 -0.0008486918777119522 -0.0015352163248305568 0.0 0.0
0.0 0.012243680711051504 0.010946953222949774 -0.00997353583758297 -0.0009734173853667956 -0.0019743262017424133 0.0 0.0
0.0 0.01739922717949419 0.015223490605750005 -0.014148438434292594 -0.0010750521714574172 -0.0026361575791282094 0.0 0.0
0.0 0.023778560348089818 0.02084000597598485 -0.019688763969878915 -0.001151242006105937 -0.0035840947064265127 0.0 0.0
0.0 0.031530434010927234 0.027705203814954508 -0.02650230111472706 -0.0012029027002274735 -0.004742324043159499 0.0 0.0
0.0 0.04053679141167906 0.03541743410021176 -0.034185720431263916 -0.0012317136689478445 -0.005830430860157924 0.0 0.0
0.0 0.049671574123095745 0.04329570512757998 -0.04205413860132542 -0.0012415665262545666 -0.0063833792344989105 0.0 0.0
0.0 0.05788197091891879 0.05039274173189496 -0.04916152360190294 -0.0012312181299919617 -0.005933957200138399 0.0 0.0
0.0 0.06387089706710372 0.05558627794357919 -0.05438339907126627 -0.0012028788723129251 -0.004156796683483148 0.0 0.0
0.0 0.06639359730512523 0.0576621517870448 -0.056564317972301686 -0.001097833814743081 7.977993266017336e-15 0.0 0.0
0.0 0.0638708970670999 0.05558627794357518 -0.05438339907126234 -0.001202878872312879 0.004156796683500461 0.0 0.0
0.0 0.05788197091891256 0.05039274173188915 -0.04916152360189742 -0.0012312181299916833 0.005933957200155481 0.0 0.0
0.0 0.049671574123086294 0.043295705127571464 -0.042054138601317306 -0.0012415665262541775 0.00638337923450923 0.0 0.0
0.0 0.04053679141166908 0.03541743410020288 -0.03418572043125582 -0.0012317136689470355 0.005830430860160759 0.0 0.0
0.0 0.03153043401091499 0.02770520381494371 -0.026502301114716596 -0.0012029027002270999 0.0047423240431587205 0.0 0.0
0.0 0.023778560348078858 0.020840005975975 -0.019688763969869835 -0.001151242006105164 0.0035840947064260287 0.0 0.0
0.0 0.017399227179481475 0.015223490605738556 -0.014148438434281667 -0.0010750521714568758 0.0026361575791275654 0.0 0.0
0.0 0.012243680711038955 0.010946953222938642 -0.009973535837572604 -0.0009734173853660408 0.001974326201740927 0.0 0.0
0.0 0.008791512387449643 0.0078104617660256555 -0.006961769888314448 -0.0008486918777112092 0.0015352163248280334 0.0 0.0
0.0 0.006119100937947621 0.0055211864814907734 -0.004807680485479672 -0.0007135059960110999 0.0012086863329608141 0.0 0.0
0.0 0.004190903424975803 0.0037874312259063643 -0.003216446607575396 -0.0005709846183309695 0.0009191800655951206 0.0 0.0
0.0 0.002647798865432014 0.0024264608795831854 -0.002005028058584117 -0.0004214328209990686 0.0006461087025371235 0.0 0.0
0.0 0.0014503938476952494 0.0013347295311657847 -0.0010696095770317284 -0.0002651199541340563 0.0003801398112013053 0.0 0.0
0.0 0.0006396680506734582 0.0004721124473924284 -0.0003618883133659896 -0.00011022413402643838 8.84409323131113e-05 0.0 0.0
0.0 9.176853127214369e-05 2.2610699375116825e-05 -1.5238460760481097e-05 -7.3722386146360286e-06 -1.529360181448032e-05 0.0 0.0
0.0 2.0802561921652033e-05 -2.9041064809835387e-06 2.1720311392470534e-06 7.320753417365763e-07 -5.2297296779852e-07 0.0 0.0
0.0 2.7969504081147853e-08 -3.993514257424873e-09 2.7843121058454295e-09 1.209202151577698e-09 -2.0414809282561615e-09 0.0 0.0
0.0 0.0 0.0 0.0 0.0 0.0 0.0 0.0
0.0 0.00038150342432251316 0.00021317323017733708 -2.4139776364618515e-05 -0.00018903345381271868 0.0009430224731178295 0.0 0.0
0.0 0.0036860281990285827 0.002453530163634521 -0.0035339366233377526 0.0010804064597032307 0.0015032666804147305 0.0 0.0
0.0 0.002455334941722428 0.0016540177559683377 -0.0024045533747877835 0.0007505356188194454 -0.0013116261424292585 0.0 0.0
0.0 0.00034736297492641747 6.939378626349738e-05 4.159753992730519e-05 -0.00011099132619080238 -0.00046577558292061556 0.0 0.0
0.0 0.0 0.0 0.0 0.0 0.0 0.0 0.0
0.0 0.0 0.0 0.0 0.0 0.0 0.0 0.0
0.0 -6.007613561243623e-06 8.23899867929426e-07 -6.584961086623942e-07 -1.654037592671026e-07 -1.342817577080663e-06 0.0 0.0
0.0 5.270936923159635e-05 -1.767233178161928e-05 1.387831604764907e-05 3.7940157339704116e-06 1.967641839111187e-05 0.0 0.0
0.0 0.00040694941648504045 0.0001661652859057712 -0.00012450497734243796 -4.166030856333344e-05 -2.9777174862483268e-05 0.0 0.0
0.0 0.0009523516602775266 0.0008529848464510562 -0.0006705241119705665 -0.00018246073448048914 -0.000333972394333914 0.0 0.0
0.0 0.001963841080023023 0.0017706866210302796 -0.0014408543984566074 -0.0003298322225736716 -0.0007041144357312571 0.0 0.0
0.0 0.0032270368205610123 0.00291722529598569 -0.0024388181664977515 -0.0004784071294879383 -0.001047774164808107 0.0 0.0
0.0 0.004867338875523665 0.004368788242065965 -0.0037483139182327577 -0.0006204743238332049 -0.0014073061363543608 0.0 0.0
0.0 0.007071500764679709 0.006279244300888739 -0.005522593496611791 -0.0007566508042769438 -0.0018097877014643115 0.0 0.0
0.0 0.010179732642819466 0.008891328684715906 -0.008009575975162846 -0.0008817527095530574 -0.002333104806864799 0.0 0.0
0.0 0.014142558441849926 0.012504403044821972 -0.011518081677646008 -0.0009863213671759638 -0.0030976880280653694 0.0 0.0
0.0 0.019792712400080705 0.017285888688338157 -0.016225162576768138 -0.0010607261115700116 -0.004180289177626442 0.0 0.0
0.0 0.026748851820543866 0.023197750077022572 -0.02208832284922118 -0.0011094272278013716 -0.0054973094868658616 0.0 0.0
0.0 0.03441253640669106 0.029932906125971936 -0.028792478072534104 -0.0011404280534378249 -0.006754021177651593 0.0 0.0
0.0 0.04248833677271896 0.036917954230726954 -0.035763237168933364 -0.0011547170617935854 -0.007464446503586945 0.0 0.0
0.0 0.04991691092593467 0.04334801969732199 -0.04219947548211877 -0.0011485442152032333 -0.007048030593562442 0.0 0.0
0.0 0.055524788265325524 0.04821989418968338 -0.047101088389899404 -0.00111880579978398 -0.004981661775130346 0.0 0.0
0.0 0.05804410762052174 0.05027495292721153 -0.04930034474039411 -0.000974608186817436 8.65084913426184e-15 0.0 0.0
0.0 0.0555247882653203 0.048219894189678265 -0.04710108838989387 -0.0011188057997843699 0.004981661775149211 0.0 0.0
0.0 0.049916910925930875 0.04334801969731776 -0.04219947548211527 -0.0011485442152025182 0.007048030593580827 0.0 0.0
0.0 0.04248833677271213 0.03691795423072045 -0.035763237168927306 -0.001154717061793124 0.007464446503598126 0.0 0.0
0.0 0.034412536406680974 0.029932906125963117 -0.02879247807252575 -0.0011404280534373483 0.006754021177653922 0.0 0.0
0.0 0.02674885182053486 0.02319775007701441 -0.022088322849213644 -0.0011094272278007768 0.005497309486864934 0.0 0.0
0.0 0.019792712400070713 0.017285888688329216 -0.016225162576759728 -0.001060726111569492 0.004180289177625139 0.0 0.0
0.0 0.014142558441838324 0.01250440304481166 -0.01151808167763614 -0.0009863213671755225 0.003097688028063873 0.0 0.0
0.0 0.010179732642809892 0.008891328684706833 -0.008009575975154462 -0.0008817527095523669 0.0023331048068629835 0.0 0.0
0.0 0.007071500764670342 0.006279244300880014 -0.005522593496603763 -0.0007566508042762521 0.0018097877014612764 0.0 0.0
0.0 0.004867338875514935 0.004368788242058009 -0.003748313918225745 -0.000620474323832261 0.0014073061363508341 0.0 0.0
0.0 0.0032270368205533466 0.0029172252959783216 -0.0024388181664912268 -0.00047840712948709404 0.0010477741648048516 0.0 0.0
0.0 0.0019638410800166253 0.0017706866210243685 -0.0014408543984515423 -0.00032983222257282563 0.0007041144357288239 0.0 0.0
0.0 0.0009523516602727752 0.000852984846446586 -0.0006705241119669212 -0.0001824607344796653 0.0003339723943319128 0.0 0.0
0.0 0.0004069494164819259 0.00016616528590388682 -0.00012450497734100083 -4.166030856288588e-05 2.9777174861827058e-05 0.0 0.0
0.0 5.270936923094254e-05 -1.767233178131589e-05 1.3878316047412564e-05 3.7940157339035023e-06 -1.967641839081951e-05 0.0 0.0
0.0 -6.007613561658323e-06 8.238998679779565e-07 -6.584961086988178e-07 -1.6540375927918512e-07 1.3428175771020366e-06 0.0 0.0
0.0 0.0 0.0 0.0 0.0 0.0 0.0 0.0
0.0 0.0 0.0 0.0 0.0 0.0 0.0 0.0
0.0 0.0003473629749231479 6.939378626230723e-05 4.1597539928096964e-05 -0.00011099132619040381 0.0004657755829168383 0.0 0.0
0.0 0.0024553349417151824 0.0016540177559628646 -0.002404553374779864 0.0007505356188169999 0.0013116261424247365 0.0 0.0
0.0 0.0016364453788923216 0.0010413979446219136 -0.0015204242193506588 0.0004790262747287453 -0.0009798865768143056 0.0 0.0
0.0 7.633773381521749e-05 3.6531959678068153e-07 6.207406350377502e-05 -6.243938310055592e-05 -0.00018537060504653346 0.0 0.0
0.0 0.0 0.0 0.0 0.0 0.0 0.0 0.0
0.0 0.0 0.0 0.0 0.0 0.0 0.0 0.0
0.0 -2.3964272506979403e-06 2.080439573516981e-07 -1.568401223943266e-07 -5.1203834957356944e-08 -3.9143577550891687e-07 0.0 0.0
0.0 -4.770082001799214e-08 -4.856454429526198e-06 3.814704277534471e-06 1.0417501519916253e-06 6.661725272531997e-06 0.0 0.0
0.0 6.755385392655656e-05 4.262994870747256e-05 -3.1070444060786276e-05 -1.1559504646685956e-05 -6.998098782682103e-06 0.0 0.0
0.0 0.0007391962019525898 0.000377680370990339 -0.00029128041195034844 -8.639995903999156e-05 -0.00017743808190043398 0.0 0.0
0.0 0.0012047725258597733 0.0011594554254471187 -0.0009257472520571788 -0.00023370817338993924 -0.0006317482913612729 0.0 0.0
0.0 0.002350549095965533 0.002077815785631501 -0.0017072202028697479 -0.00037059558276175285 -0.0010423516123015827 0.0 0.0
0.0 0.003657422652500077 0.003257309113560265 -0.0027454934520855516 -0.0005118156614747123 -0.0014505469505461976 0.0 0.0
0.0 0.005407726734142103 0.00480240910711117 -0.00415395455647848 -0.0006484545506326888 -0.0019043328372970601 0.0 0.0
0.0 0.007845099678933001 0.006914947296607955 -0.006137873862001156 -0.0007770734346067999 -0.0024696424147961746 0.0 0.0
0.0 0.011341855882281635 0.009849427513377909 -0.008965234609008192 -0.0008841929043697123 -0.003269689588904355 0.0 0.0
0.0 0.015894315478016202 0.013796258861163339 -0.012834794976864542 -0.0009614638842987895 -0.004400981435248843 0.0 0.0
0.0 0.021535373099636167 0.018745460362358437 -0.01773387506879378 -0.001011585293564655 -0.0057818557540540464 0.0 0.0
0.0 0.028474586871180346 0.02444991385818726 -0.023407836321804553 -0.0010420775363826978 -0.007099533599472899 0.0 0.0
0.0 0.03539280944678144 0.030494210609989747 -0.029432129180612426 -0.0010620814293773508 -0.00790967008544815 0.0 0.0
0.0 0.041835126439660385 0.03624327213226171 -0.03517985204389239 -0.001063420088369307 -0.007626146590935116 0.0 0.0
0.0 0.04714663592065279 0.04081742837114027 -0.03978610943257765 -0.0010313189385625738 -0.005529971902342313 0.0 0.0
0.0 0.04972290997336484 0.04288391570659572 -0.04204440827713059 -0.0008395074294651418 8.302386556024999e-15 0.0 0.0
0.0 0.0471466359206494 0.04081742837113651 -0.03978610943257366 -0.0010313189385628223 0.005529971902360812 0.0 0.0
0.0 0.041835126439656076 0.036243272132256976 -0.035179852043887946 -0.0010634200883690133 0.0076261465909529804 0.0 0.0
0.0 0.03539280944677341 0.03049421060998247 -0.02943212918060518 -0.0010620814293772944 0.007909670085458214 0.0 0.0
0.0 0.028474586871171628 0.02444991385817974 -0.023407836321797337 -0.0010420775363824048 0.007099533599475194 0.0 0.0
0.0 0.021535373099627348 0.018745460362350422 -0.017733875068786428 -0.0010115852935640014 0.005781855754052289 0.0 0.0
0.0 0.015894315478007556 0.0137962588611557 -0.012834794976857236 -0.0009614638842984598 0.004400981435247416 0.0 0.0
0.0 0.011341855882273757 0.00984942751337056 -0.008965234609001374 -0.0008841929043691789 0.0032696895889027704 0.0 0.0
0.0 0.007845099678924274 0.0069149472966001475 -0.006137873861993896 -0.0007770734346062491 0.0024696424147938553 0.0 0.0
0.0 0.00540772673413445 0.004802409107104106 -0.004153954556472021 -0.0006484545506320892 0.0019043328372940146 0.0 0.0
0.0 0.0036574226524925374 0.003257309113553384 -0.0027454934520794796 -0.0005118156614739026 0.001450546950542395 0.0 0.0
0.0 0.0023505490959591794 0.002077815785625718 -0.0017072202028648638 -0.0003705955827608542 0.0010423516122980755 0.0 0.0
0.0 0.0012047725258556873 0.0011594554254426707 -0.000925747252053521 -0.00023370817338914934 0.0006317482913588522 0.0 0.0
0.0 0.0007391962019482988 0.0003776803709874253 -0.00029128041194803205 -8.639995903939351e-05 0.0001774380818988808 0.0 0.0
0.0 6.755385392480441e-05 4.262994870690194e-05 -3.107044406036025e-05 -1.1559504646541183e-05 6.998098782485667e-06 0.0 0.0
0.0 -4.7700820911654355e-08 -4.856454429330916e-06 3.814704277383055e-06 1.0417501519476885e-06 -6.6617252722954725e-06 0.0 0.0
0.0 -2.396427250475455e-06 2.0804395732853704e-07 -1.5684012237674526e-07 -5.120383495174616e-08 3.914357754775536e-07 0.0 0.0
0.0 0.0 0.0 0.0 0.0 0.0 0.0 0.0
0.0 0.0 0.0 0.0 0.0 0.0 0.0 0.0
0.0 7.633773381286433e-05 3.6531959610896577e-07 6.207406350419053e-05 -6.24393831002994e-05 0.00018537060504423563 0.0 0.0
0.0 0.0016364453788874336 0.001041397944617825 -0.0015204242193446798 0.00047902627472685386 0.0009798865768107531 0.0 0.0
0.0 0.0008770627548495323 0.0006002953960916416 -0.0008725452758341196 0.0002722498797424773 -0.0006587159380384886 0.0 0.0
0.0 -2.8749830608370832e-06 -4.5624392670491645e-05 8.002247297360978e-05 -3.4398080303118015e-05 6.051675898143298e-06 0.0 0.0
0.0 0.0 0.0 0.0 0.0 0.0 0.0 0.0
0.0 0.0 0.0 0.0 0.0 0.0 0.0 0.0
0.0 -2.246165107375649e-06 1.5972522696470997e-07 -1.2573103519818578e-07 -3.399419176652718e-08 -4.0445007000256713e-07 0.0 0.0
0.0 1.8382854765680856e-07 -1.7133508438652101e-06 1.417499439408032e-06 2.958514044571335e-07 3.143927199236774e-06 0.0 0.0
0.0 1.7352346327798206e-05 -2.4087541753664395e-05 1.8388219197391657e-05 5.699322556272802e-06 3.0040386884251893e-05 0.0 0.0
0.0 0.0001820003091047535 0.00013356693901613801 -0.0001016456525093975 -3.1921286506740195e-05 -9.2221331155284e-05 0.0 0.0
0.0 0.000979868653469298 0.0005320409773289722 -0.0004181016425457133 -0.00011393933478325873 -0.0003593634665297564 0.0 0.0
0.0 0.0014078864653519652 0.0012978888915956346 -0.0010451491173931048 -0.00025273977420252976 -0.000880522089040135 0.0 0.0
0.0 0.002535847536687967 0.0021950148305900676 -0.0018132530217182133 -0.00038176180887185507 -0.0013284360454683033 0.0 0.0
0.0 0.0038870670182901018 0.0033846582383086758 -0.002867764759442067 -0.0005168934788666073 -0.0018060540205725904 0.0 0.0
0.0 0.005746069623966828 0.0050124728958041345 -0.004363345801717886 -0.0006491270940862458 -0.002377713319941274 0.0 0.0
0.0 0.008402562965620038 0.007294398671768168 -0.006530529157212557 -0.0007638695145556079 -0.003159449376945331 0.0 0.0
0.0 0.01199830771226434 0.01039891822530636 -0.009550337810878213 -0.0008485804144281455 -0.004238748523206863 0.0 0.0
0.0 0.0168949856295984 0.014352305523357763 -0.013451373000118474 -0.0009009325232392927 -0.005572956808203118 0.0 0.0
0.0 0.02201015425395566 0.01901476226300972 -0.018078767153472633 -0.0009359951095370847 -0.006884256177732247 0.0 0.0
0.0 0.028083459452866832 0.024056550735499716 -0.023094540167144257 -0.0009620105683554748 -0.007739615136114052 0.0 0.0
0.0 0.03400114068487155 0.029058404315757933 -0.028086574593260024 -0.0009718297224979194 -0.007628662700715756 0.0 0.0
0.0 0.03883687889192537 0.033327774928774194 -0.03238747283621262 -0.0009403020925615765 -0.0057716497104780985 0.0 0.0
0.0 0.04154676264435227 0.03543398480762572 -0.03474231632261562 -0.0006916684850101009 7.095019016745141e-15 0.0 0.0
0.0 0.03883687889192332 0.03332777492877127 -0.0323874728362097 -0.0009403020925615933 0.0057716497104953295 0.0 0.0
0.0 0.03400114068486712 0.029058404315753322 -0.028086574593255323 -0.0009718297224979784 0.007628662700731885 0.0 0.0
0.0 0.028083459452861042 0.024056550735494227 -0.023094540167139122 -0.0009620105683551011 0.007739615136122999 0.0 0.0
0.0 0.022010154253950077 0.019014762263004806 -0.0180787671534682 -0.000935995109536607 0.006884256177734304 0.0 0.0
0.0 0.016894985629589764 0.014352305523350456 -0.013451373000111316 -0.0009009325232391305 0.005572956808200729 0.0 0.0
0.0 0.011998307712258082 0.010398918225300443 -0.009550337810872845 -0.0008485804144275941 0.004238748523205237 0.0 0.0
0.0 0.008402562965614854 0.007294398671763299 -0.006530529157208399 -0.0007638695145549041 0.0031594493769438133 0.0 0.0
0.0 0.0057460696239592934 0.005012472895797573 -0.004363345801711779 -0.0006491270940857943 0.002377713319938819 0.0 0.0
0.0 0.0038870670182841543 0.0033846582383034165 -0.0028677647594373347 -0.0005168934788660809 0.0018060540205695548 0.0 0.0
0.0 0.0025358475366815533 0.0021950148305845715 -0.001813253021713434 -0.0003817618088711366 0.0013284360454642887 0.0 0.0
0.0 0.001407886465347583 0.001297888891591481 -0.00104514911738965 -0.00025273977420183153 0.0008805220890369786 0.0 0.0
0.0 0.0009798686534647724 0.0005320409773259502 -0.00041810164254330696 -0.00011393933478264302 0.00035936346652756487 0.0 0.0
0.0 0.0001820003091028636 0.00013356693901508506 -0.00010164565250860386 -3.192128650648114e-05 9.222133115463698e-05 0.0 0.0
0.0 1.735234632733516e-05 -2.408754175350561e-05 1.8388219197274427e-05 5.6993225562314576e-06 -3.0040386883894872e-05 0.0 0.0
0.0 1.8382854683663124e-07 -1.7133508438115686e-06 1.417499439365835e-06 2.958514044457722e-07 -3.1439271991286602e-06 0.0 0.0
0.0 -2.246165107184204e-06 1.5972522694812237e-07 -1.2573103518529555e-07 -3.3994191762862533e-08 4.0445006996416107e-07 0.0 0.0
0.0 0.0 0.0 0.0 0.0 0.0 0.0 0.0
0.0 0.0 0.0 0.0 0.0 0.0 0.0 0.0
0.0 -2.8749830621418884e-06 -4.562439267068209e-05 8.002247297364973e-05 -3.439808030296765e-05 -6.051675899061021e-06 0.0 0.0
0.0 0.0008770627548460878 0.0006002953960888931 -0.0008725452758300854 0.00027224987974119224 0.0006587159380357253 0.0 0.0
0.0 0.0006969590974348251 0.00019729909639380698 -0.00028537196551121853 8.807286911741315e-05 -0.00022903807076860263 0.0 0.0
0.0 -8.58933791640777e-05 -3.0468508188909974e-05 4.2402507155115136e-05 -1.193399896620538e-05 4.1777128615718204e-05 0.0 0.0
0.0 0.0 0.0 0.0 0.0 0.0 0.0 0.0
0.0 0.0 0.0 0.0 0.0 0.0 0.0 0.0
0.0 -6.002912790000251e-07 2.3616486225867755e-08 -1.719295850321522e-08 -6.42352772264967e-09 -1.2456266137164213e-07 0.0 0.0
0.0 -1.2171783037190896e-06 1.4378260018682216e-07 -1.1961178330990175e-07 -2.417081687692274e-08 -2.1907335745530865e-07 0.0 0.0
0.0 -2.0824052493075963e-08 -9.122642408420017e-06 7.218272303882107e-06 1.904370104537839e-06 2.2845528691011155e-05 0.0 0.0
0.0 3.457070353198652e-07 3.750918897656291e-06 -3.1636768038192063e-06 -5.872420938369577e-07 -2.0495779676444493e-05 0.0 0.0
0.0 0.0002532415767616179 0.00015999549498543555 -0.00012514557938353936 -3.484991560189666e-05 -0.00016770454622166191 0.0 0.0
0.0 0.0009812964679717278 0.0005482615135909185 -0.00043588377891661147 -0.00011237773467430665 -0.0004908174902896442 0.0 0.0
0.0 0.0015152187325501822 0.0012017739607641947 -0.0009735226169913554 -0.00022825134377283958 -0.001010443509590208 0.0 0.0
0.0 0.002426061700357432 0.0020528103929715632 -0.0016985075993489994 -0.00035430279362256423 -0.0015025655419264885 0.0 0.0
0.0 0.0037882611879257876 0.003208062526647522 -0.002723107229097334 -0.0004849552975501879 -0.0020492610702631236 0.0 0.0
0.0 0.005692562339087996 0.004852162365142424 -0.004243721702950738 -0.0006084406621916842 -0.002758077479705845 0.0 0.0
0.0 0.008448658567757884 0.007120808805824218 -0.006414764785900714 -0.0007060440199235028 -0.0037165139727772193 0.0 0.0
0.0 0.011914230103102975 0.010078292818826088 -0.009307257717417004 -0.0007710351014090902 -0.0048849278834466985 0.0 0.0
0.0 0.016313526972251993 0.0136385840993216 -0.01282678067050599 -0.000811803428815613 -0.006083670111417366 0.0 0.0
0.0 0.020939525921153876 0.01763102449650127 -0.016785495143141274 -0.0008455293533600024 -0.006940150079781687 0.0 0.0
0.0 0.025595748596484273 0.021810786533189984 -0.02094054194555446 -0.0008702445876355204 -0.007029106444238731 0.0 0.0
0.0 0.030187603463233022 0.025712282788054732 -0.024867163810065606 -0.000845118977989138 -0.005657161250582646 0.0 0.0
0.0 0.03312445844868779 0.027875232496290713 -0.027347231482596428 -0.0005280010136942795 5.811757325391298e-15 0.0 0.0
0.0 0.030187603463231082 0.0257122827880519 -0.024867163810062726 -0.0008451189779891717 0.0056571612505967785 0.0 0.0
0.0 0.025595748596480384 0.021810786533185668 -0.020940541945550235 -0.0008702445876354188 0.007029106444252079 0.0 0.0
0.0 0.02093952592115041 0.01763102449649775 -0.01678549514313822 -0.0008455293533595411 0.006940150079789363 0.0 0.0
0.0 0.016313526972247257 0.013638584099317562 -0.012826780670502507 -0.0008118034288150498 0.006083670111417945 0.0 0.0
0.0 0.01191423010309765 0.010078292818821624 -0.009307257717412592 -0.0007710351014090244 0.004884927883444817 0.0 0.0
0.0 0.008448658567751916 0.007120808805818905 -0.006414764785895767 -0.0007060440199231412 0.0037165139727749893 0.0 0.0
0.0 0.005692562339084682 0.004852162365139618 -0.004243721702948389 -0.000608440662191228 0.0027580774797046244 0.0 0.0
0.0 0.003788261187920637 0.003208062526643013 -0.0027231072290932893 -0.0004849552975497232 0.0020492610702605384 0.0 0.0
0.0 0.0024260617003526315 0.0020528103929673483 -0.001698507599345362 -0.00035430279362198597 0.0015025655419237496 0.0 0.0
0.0 0.0015152187325458445 0.0012017739607606001 -0.0009735226169884255 -0.00022825134377217444 0.0010104435095867315 0.0 0.0
0.0 0.0009812964679680482 0.000548261513588164 -0.00043588377891438105 -0.0001123777346737832 0.0004908174902872269 0.0 0.0
0.0 0.00025324157675876306 0.0001599954949837087 -0.00012514557938215503 -3.484991560155358e-05 0.0001677045462198463 0.0 0.0
0.0 3.4570703499258945e-07 3.750918897639773e-06 -3.163676803811611e-06 -5.872420938282378e-07 2.0495779676407495e-05 0.0 0.0
0.0 -2.0824053527684356e-08 -9.122642408259397e-06 7.218272303759141e-06 1.90437010450029e-06 -2.2845528690665376e-05 0.0 0.0
0.0 -1.2171783042646017e-06 1.4378260021254756e-07 -1.1961178332985465e-07 -2.417081688270689e-08 2.1907335755365172e-07 0.0 0.0
0.0 -6.002912788133741e-07 2.3616486215689595e-08 -1.7192958495346648e-08 -6.423527720333701e-09 1.2456266133570848e-07 0.0 0.0
0.0 0.0 0.0 0.0 0.0 0.0 0.0 0.0
0.0 0.0 0.0 0.0 0.0 0.0 0.0 0.0
0.0 -8.589337916392079e-05 -3.0468508188511797e-05 4.2402507154596434e-05 -1.1933998966084743e-05 -4.177712861502132e-05 0.0 0.0
0.0 0.0006969590974304188 0.00019729909639188363 -0.0002853719655084969 8.807286911661431e-05 0.0002290380707661591 0.0 0.0
0.0 0.00013887912535610932 3.805138423668666e-05 -5.62588958666666e-05 1.8207511629980034e-05 -5.100298414251212e-05 0.0 0.0
0.0 -1.7542024342744314e-05 -5.395053238534329e-06 7.868143343471079e-06 -2.47309010493677e-06 7.5483764753148726e-06 0.0 0.0
0.0 2.6872475098897426e-06 -5.102850825596392e-09 1.2829916012259741e-08 -7.727065186663307e-09 5.790653785945233e-07 0.0 0.0
0.0 0.0 0.0 0.0 0.0 0.0 0.0 0.0
0.0 -2.8591288976220683e-07 9.24253522926734e-09 -7.084965888905891e-09 -2.157569340360503e-09 -5.122909249099934e-08 0.0 0.0
0.0 -8.00512691849985e-06 4.637719977144235e-07 -3.603310129269071e-07 -1.0344098478751364e-07 -2.0673031528361106e-06 0.0 0.0
0.0 1.7730010431822288e-05 3.7280905139004974e-07 -2.5921257514295335e-07 -1.1359647624709983e-07 1.7659270506875428e-06 0.0 0.0
0.0 2.938843210102603e-05 -1.975484895323987e-05 1.539958780922557e-05 4.355261144014373e-06 5.906760084362501e-05 0.0 0.0
0.0 4.110826711761692e-05 -6.204429503913898e-06 4.595239559148964e-06 1.6091899447648033e-06 -3.057759969691565e-05 0.0 0.0
0.0 0.00025982535637542156 7.587522586983693e-05 -6.321120896416371e-05 -1.2664016905673428e-05 -0.00014966932537243503 0.0 0.0
0.0 0.0005399096080712141 0.0003870991658809351 -0.0003136730625690451 -7.342610331188992e-05 -0.0005496640834834278 0.0 0.0
0.0 0.0011551052842912503 0.0008571563736695748 -0.0007015105534564328 -0.00015564582021314213 -0.000980285358636969 0.0 0.0
0.0 0.0019868016617280984 0.001552062005039216 -0.001286601807790722 -0.0002654601972484941 -0.0014801833740319679 0.0 0.0
0.0 0.003195899797806399 0.0025743275247574137 -0.0021867329961522872 -0.0003875945286051258 -0.0020846662995978697 0.0 0.0
0.0 0.004978553800898365 0.004025409646753637 -0.003524580533249362 -0.0005008291135042753 -0.0028508140560798124 0.0 0.0
0.0 0.007408830347102671 0.005970603051633542 -0.005384193692414135 -0.0005864093592194041 -0.003787716626520887 0.0 0.0
0.0 0.010415807729173554 0.008405938290002971 -0.007758585407877173 -0.0006473528821257995 -0.004782070629470229 0.0 0.0
0.0 0.0137515010894385 0.011287984994297048 -0.01059364939432709 -0.0006943355999699536 -0.005592082361156819 0.0 0.0
0.0 0.017497425865634565 0.014521314232689818 -0.013785344972912535 -0.0007359692597772898 -0.005813609877926099 0.0 0.0
0.0 0.021657166994518185 0.017934585471631074 -0.017196801777133168 -0.0007377836944978999 -0.005054294944817959 0.0 0.0
0.0 0.02454444844840792 0.020162623980827993 -0.019814955782549222 -0.0003476681982787636 4.341362339066457e-15 0.0 0.0
0.0 0.021657166994518195 0.017934585471629808 -0.017196801777131697 -0.0007377836944981064 0.005054294944828822 0.0 0.0
0.0 0.017497425865632174 0.014521314232686884 -0.013785344972909626 -0.000735969259777262 0.005813609877936688 0.0 0.0
0.0 0.013751501089434907 0.011287984994294073 -0.010593649394324403 -0.0006943355999696619 0.005592082361161663 0.0 0.0
0.0 0.01041580772916973 0.008405938289999916 -0.007758585407874481 -0.0006473528821254345 0.004782070629469657 0.0 0.0
0.0 0.007408830347099542 0.005970603051631077 -0.005384193692411845 -0.0005864093592192288 0.003787716626518873 0.0 0.0
0.0 0.004978553800893795 0.004025409646750032 -0.0035245805332459602 -0.0005008291135040703 0.0028508140560775845 0.0 0.0
0.0 0.0031958997978061145 0.002574327524756706 -0.0021867329961519134 -0.00038759452860479335 0.0020846662995984405 0.0 0.0
0.0 0.001986801661725579 0.0015520620050368987 -0.001286601807788685 -0.00026546019724821393 0.0014801833740297132 0.0 0.0
0.0 0.0011551052842881568 0.0008571563736671297 -0.0007015105534544773 -0.00015564582021265283 0.0009802853586343063 0.0 0.0
0.0 0.0005399096080681613 0.00038709916587889126 -0.0003136730625673592 -7.342610331153169e-05 0.000549664083480581 0.0 0.0
0.0 0.0002598253563736384 7.587522586894016e-05 -6.321120896339475e-05 -1.2664016905545632e-05 0.0001496693253711482 0.0 0.0
0.0 4.1108267116977104e-05 -6.204429503804608e-06 4.595239559068172e-06 1.6091899447361501e-06 3.057759969681353e-05 0.0 0.0
0.0 2.938843210027199e-05 -1.9754848953152468e-05 1.539958780915423e-05 4.355261143998287e-06 -5.9067600843472505e-05 0.0 0.0
0.0 1.773001043153132e-05 3.7280905141489004e-07 -2.592125751630752e-07 -1.1359647625177191e-07 -1.7659270505210538e-06 0.0 0.0
0.0 -8.005126919045947e-06 4.637719977288638e-07 -3.603310129378832e-07 -1.034409847909842e-07 2.067303152934318e-06 0.0 0.0
0.0 -2.8591288957305156e-07 9.242535222802489e-09 -7.084965883942201e-09 -2.1575693388636718e-09 5.122909245254697e-08 0.0 0.0
0.0 0.0 0.0 0.0 0.0 0.0 0.0 0.0
0.0 2.6872475094896635e-06 -5.1028508247719e-09 1.2829916010191829e-08 -7.727065185422114e-09 -5.790653785028842e-07 0.0 0.0
0.0 -1.754202434315948e-05 -5.395053238442204e-06 7.868143343346163e-06 -2.473090104903926e-06 -7.548376475175721e-06 0.0 0.0
0.0 0.0001388791253543908 3.805138423627015e-05 -5.625889586605667e-05 1.8207511629786233e-05 5.100298414205441e-05 0.0 0.0
0.0 6.064056748617343e-05 -1.0246924740307295e-05 1.4899555930745555e-05 -4.652631190438118e-06 1.7853039684951692e-05 0.0 0.0
0.0 -9.332427900057968e-06 1.4285248779719651e-06 -2.0626662917631326e-06 6.341414137911497e-07 -2.614568628810147e-06 0.0 0.0
0.0 9.70285583999249e-07 2.771422620445596e-09 1.5858612896310194e-09 -4.357283910076113e-09 2.0019023808334223e-07 0.0 0.0
0.0 0.0 0.0 0.0 0.0 0.0 0.0 0.0
0.0 -1.8527693940129905e-06 3.077453410851788e-08 -2.1836933445506085e-08 -8.937600663009364e-09 -4.1050898205858424e-07 0.0 0.0
0.0 2.5641008230703663e-06 -2.5187609811561108e-08 1.2712070795361655e-08 1.247553901618772e-08 4.767190958285863e-07 0.0 0.0
0.0 1.0231868674108152e-05 -1.7517434008211462e-07 1.2607110011024468e-07 4.910323997188788e-08 2.4592455163937857e-06 0.0 0.0
0.0 3.5905577649911946e-06 -2.8664281146410315e-06 2.4845391008896117e-06 3.8188901375137895e-07 1.995292231578782e-05 0.0 0.0
0.0 2.7459301582726412e-05 8.494111888119462e-07 -1.2702416658160146e-06 4.2083047700411285e-07 -1.107870886178443e-05 0.0 0.0
0.0 5.748624880693701e-05 1.1503907048066678e-05 -9.038182815938888e-06 -2.465724232127697e-06 -7.471640660473536e-05 0.0 0.0
0.0 0.0002284608839746471 -1.1439206919591642e-06 -1.1095832288808576e-06 2.253503920840031e-06 -0.00011392955078211089 0.0 0.0
0.0 0.00026844104342355497 8.069765458445579e-05 -7.083301916945791e-05 -9.864635414998076e-06 -0.00040502967040962213 0.0 0.0
0.0 0.0005710946313915934 0.0002617783863103867 -0.00023005869418694116 -3.171969212344547e-05 -0.0007502252186032729 0.0 0.0
0.0 0.0010946478893956628 0.00058920777537426 -0.0005216998129957875 -6.750796237847246e-05 -0.0012403463911079796 0.0 0.0
0.0 0.0019797613314738536 0.0012376438510534422 -0.001090594846762763 -0.00014704900429067888 -0.0018849609324665308 0.0 0.0
0.0 0.0032692424120002476 0.002199379210416133 -0.001964760367071568 -0.00023461884334456597 -0.002625191091987116 0.0 0.0
0.0 0.005017556326262134 0.0034886018613299145 -0.0031579300256042316 -0.00033067183572568494 -0.003450661866874753 0.0 0.0
0.0 0.007340232407619442 0.00520774640562704 -0.004782480067746693 -0.0004252663378803452 -0.0042486343629599185 0.0 0.0
0.0 0.010018024885216624 0.00739108466081317 -0.0068914049082127145 -0.0004996797526004599 -0.004571381579051469 0.0 0.0
0.0 0.01298786069845496 0.010072283528693203 -0.009506094335274134 -0.0005661891934190648 -0.004022243964264701 0.0 0.0
0.0 0.01655627492961856 0.012295038649146122 -0.012164288041191918 -0.00013075060795419703 3.0680753076994804e-15 0.0 0.0
0.0 0.012987860698457187 0.010072283528693559 -0.009506094335274447 -0.000566189193419114 0.0040222439642727805 0.0 0.0
0.0 0.010018024885216971 0.0073910846608127015 -0.006891404908212457 -0.0004996797526002498 0.004571381579058993 0.0 0.0
0.0 0.007340232407616628 0.005207746405625114 -0.004782480067744933 -0.00042526633788017836 0.0042486343629616705 0.0 0.0
0.0 0.005017556326259966 0.0034886018613290333 -0.003157930025603423 -0.000330671835725611 0.003450661866873627 0.0 0.0
0.0 0.00326924241199915 0.0021993792104152607 -0.0019647603670707916 -0.00023461884334447194 0.0026251910919854278 0.0 0.0
0.0 0.001979761331471814 0.001237643851051895 -0.0010905948467613284 -0.0001470490042905662 0.0018849609324652814 0.0 0.0
0.0 0.001094647889395218 0.0005892077753738961 -0.0005216998129955444 -6.75079623783518e-05 0.0012403463911080286 0.0 0.0
0.0 0.000571094631390742 0.0002617783863099599 -0.00023005869418655988 -3.171969212340002e-05 0.0007502252186015336 0.0 0.0
0.0 0.00026844104342185 8.069765458381519e-05 -7.083301916891174e-05 -9.864635414903315e-06 0.0004050296704075019 0.0 0.0
0.0 0.00022846088397358486 -1.1439206919566601e-06 -1.1095832288668943e-06 2.2535039208234096e-06 0.00011392955078113343 0.0 0.0
0.0 5.7486248806785604e-05 1.1503907047919812e-05 -9.03818281581964e-06 -2.4657242321001923e-06 7.471640660398382e-05 0.0 0.0
0.0 2.7459301582523497e-05 8.494111888569857e-07 -1.2702416658567965e-06 4.2083047699987673e-07 1.1078708862012059e-05 0.0 0.0
0.0 3.590557764736023e-06 -2.866428114628505e-06 2.4845391008792592e-06 3.818890137492383e-07 -1.9952922315740706e-05 0.0 0.0
0.0 1.0231868673595072e-05 -1.7517434006847845e-07 1.2607110010023376e-07 4.910323996818523e-08 -2.4592455162314793e-06 0.0 0.0
0.0 2.5641008225903857e-06 -2.5187609805984845e-08 1.27120707918033e-08 1.247553901419601e-08 -4.7671909571658267e-07 0.0 0.0
0.0 -1.8527693938404611e-06 3.077453410586465e-08 -2.1836933443671594e-08 -8.937600662192741e-09 4.1050898201648453e-07 0.0 0.0
0.0 0.0 0.0 0.0 0.0 0.0 0.0 0.0
0.0 9.702855836726998e-07 2.7714226198560375e-09 1.5858612888147212e-09 -4.357283908669878e-09 -2.0019023801254523e-07 0.0 0.0
0.0 -9.332427899700307e-06 1.4285248779484127e-06 -2.0626662917306603e-06 6.341414137822021e-07 2.614568628740195e-06 0.0 0.0
0.0 6.064056748497083e-05 -1.024692474018251e-05 1.4899555930565845e-05 -4.6526311903830105e-06 -1.7853039684727367e-05 0.0 0.0
0.0 -5.770224573590775e-06 4.574800597073866e-07 -6.591559002634143e-07 2.016758405559572e-07 -9.144510091093165e-07 0.0 0.0
0.0 1.2526523167751828e-07 -6.465083590863763e-08 8.861655850596377e-08 -2.3965722597317412e-08 -1.8388995518681798e-08 0.0 0.0
0.0 2.064854093868739e-06 6.285901752654254e-09 4.376526344576679e-09 -1.0662428097228783e-08 4.5291712233124875e-07 0.0 0.0
0.0 9.979078676547741e-07 1.8788561462081473e-08 -1.6038587709835963e-08 -2.7499737522443674e-09 2.0597935134464145e-07 0.0 0.0
0.0 -3.409514213561971e-07 1.4110183654137794e-08 -1.3516680434408293e-08 -5.935032197278356e-10 -9.058524485849523e-08 0.0 0.0
0.0 1.3548064262676173e-06 2.027879397198529e-09 -1.7982440201379955e-09 -2.2963537705411468e-10 1.8888268353207425e-07 0.0 0.0
0.0 1.185770666220879e-05 3.336265293268062e-08 -4.042306512063541e-08 7.0604121879602115e-09 3.5961364212498655e-06 0.0 0.0
0.0 -5.373588168719338e-07 -4.381980557725164e-09 -4.710367172288647e-09 9.092347730022338e-09 2.650554851215526e-06 0.0 0.0
0.0 3.435557650598179e-05 -6.701345160053846e-09 4.454931829675135e-09 2.2464133303352477e-09 2.764002177992045e-05 0.0 0.0
0.0 4.6317671102800065e-05 2.9753135777267133e-08 -2.7944541770420385e-08 -1.8085940068567014e-09 -6.011224888875121e-05 0.0 0.0
0.0 0.0001484560390590116 9.912074660046347e-08 -9.363451720002344e-08 -5.4862294004381185e-09 -8.123507101823337e-05 0.0 0.0
0.0 0.0001690536026369905 -1.8479095680601466e-07 1.3425974635627224e-07 5.053121044975344e-08 -0.00028739110732490695 0.0 0.0
0.0 0.0002792080361082322 2.612835651660964e-07 -2.4120079467153506e-07 -2.0082770494591582e-08 -0.00048659751637319184 0.0 0.0
0.0 0.00044285188667470053 -1.4284499740160817e-07 4.105907185951384e-07 -2.6774572119352325e-07 -0.000803418921854092 0.0 0.0
0.0 0.0006761799950340431 -5.713471427414783e-06 5.663298079430418e-06 5.017334798434117e-08 -0.001308064393457029 0.0 0.0
0.0 0.0009722032781910628 -3.4455725296634744e-05 2.8239641757981214e-05 6.216083538653659e-06 -0.0021357630067536685 0.0 0.0
0.0 0.0016041736726564425 4.561821270761092e-05 -7.364789885394037e-05 2.802968614632941e-05 -0.003174519118689569 0.0 0.0
0.0 0.0026543797394840097 0.0003708514458173843 -0.00043421860111191084 6.336715529452575e-05 -0.004186368496697318 0.0 0.0
0.0 0.004151030602573366 0.001029880593961875 -0.0011394539077386658 0.00010957331377679065 -0.0050546408054578645 0.0 0.0
0.0 0.00619169668995827 0.0025236379529373553 -0.0024495750006224446 -7.406295231491388e-05 -0.005134456815621428 0.0 0.0
0.0 0.01082345663406491 0.005069422959561986 -0.005244052150219819 0.00017462919065783458 4.378225212930964e-15 0.0 0.0
0.0 0.006191696689961062 0.002523637952936885 -0.0024495750006222603 -7.40629523146229e-05 0.005134456815629667 0.0 0.0
0.0 0.004151030602573425 0.0010298805939615411 -0.001139453907738402 0.00010957331377686078 0.005054640805460268 0.0 0.0
0.0 0.0026543797394825187 0.0003708514458168597 -0.00043421860111132944 6.336715529446922e-05 0.004186368496695891 0.0 0.0
0.0 0.0016041736726550467 4.561821270797573e-05 -7.36478988544728e-05 2.802968614649662e-05 0.003174519118687412 0.0 0.0
0.0 0.0009722032781901281 -3.445572529671358e-05 2.8239641757971226e-05 6.216083538742502e-06 0.0021357630067518874 0.0 0.0
0.0 0.0006761799950337219 -5.7134714275327035e-06 5.663298079519526e-06 5.0173348013089465e-08 0.0013080643934557986 0.0 0.0
0.0 0.00044285188667472634 -1.4284499733441898e-07 4.1059071848626333e-07 -2.67745721151824e-07 0.0008034189218537504 0.0 0.0
0.0 0.0002792080361077143 2.6128356525679576e-07 -2.412007947388173e-07 -2.0082770517942854e-08 0.00048659751637175597 0.0 0.0
0.0 0.000169053602636008 -1.8479095676639216e-07 1.342597463168886e-07 5.053121044948154e-08 0.0002873911073228052 0.0 0.0
0.0 0.00014845603905804685 9.912074660521956e-08 -9.363451720473464e-08 -5.486229400511599e-09 8.12350710174441e-05 0.0 0.0
0.0 4.631767110260735e-05 2.9753135794865513e-08 -2.7944541781275112e-08 -1.8085940135624495e-09 6.011224888844364e-05 0.0 0.0
0.0 3.435557650574563e-05 -6.701345168489394e-09 4.454931838219024e-09 2.2464133302437813e-09 -2.764002177994101e-05 0.0 0.0
0.0 -5.373588171545591e-07 -4.381980557286825e-09 -4.710367172148754e-09 9.092347729450187e-09 -2.650554850982575e-06 0.0 0.0
0.0 1.1857706661694837e-05 3.336265293126263e-08 -4.042306511999389e-08 7.0604121887327254e-09 -3.5961364211262723e-06 0.0 0.0
0.0 1.354806425769798e-06 2.0278793932332602e-09 -1.7982440164227105e-09 -2.296353768149288e-10 -1.8888268341893876e-07 0.0 0.0
0.0 -3.409514215391008e-07 1.411018365014793e-08 -1.3516680430154398e-08 -5.935032199939456e-10 9.058524489440264e-08 0.0 0.0
0.0 9.979078674524573e-07 1.878856145814937e-08 -1.603858770646789e-08 -2.7499737516794493e-09 -2.0597935130014157e-07 0.0 0.0
0.0 2.0648540936528203e-06 6.285901752263818e-09 4.376526343534383e-09 -1.0662428095788475e-08 -4.529171222794224e-07 0.0 0.0
0.0 1.2526523183754334e-07 -6.465083591264989e-08 8.86165585127285e-08 -2.396572260007342e-08 1.838899549225652e-08 0.0 0.0
0.0 -5.770224574193189e-06 4.5748005974096255e-07 -6.591559003143907e-07 2.01675840573369e-07 9.144510091677869e-07 0.0 0.0
0.0 0.0 0.0 0.0 0.0 0.0 0.0 0.0
0.0 2.0609542807601947e-07 9.273562815650639e-10 1.4540868594685771e-11 -9.418971501595445e-10 4.459082023228434e-08 0.0 0.0
0.0 -1.2248514128461229e-06 -1.5173759005097848e-08 9.723008227579325e-09 5.450750777516546e-09 -2.59330237824527e-07 0.0 0.0
0.0 1.4903171002598552e-06 4.241911744608187e-08 -3.470315010608801e-08 -7.715967339986727e-09 3.123545742705125e-07 0.0 0.0
0.0 -9.046999605495438e-07 -2.5830668005375024e-08 1.7516571733125683e-08 8.314096272246535e-09 -2.6197814169887365e-07 0.0 0.0
0.0 -2.49720434533152e-06 -1.7633187285197221e-07 1.4444088894009927e-07 3.1890983911848076e-08 -8.31049350779347e-07 0.0 0.0
0.0 2.6100054048342988e-05 8.697025256169745e-07 -6.996239041648338e-07 -1.700786214521416e-07 6.65707462237303e-06 0.0 0.0
0.0 6.3677985094279065e-06 3.0499469813351907e-06 -2.6343153566506447e-06 -4.156316246845855e-07 2.1332254868377103e-05 0.0 0.0
0.0 2.803714609895813e-05 -8.000708007653317e-07 1.2363917831094283e-06 -4.363209823439871e-07 -1.0799939896441519e-05 0.0 0.0
0.0 5.685601330456131e-05 -1.1301344301715696e-05 8.86798006157032e-06 2.4333642401453425e-06 -7.405688327916048e-05 0.0 0.0
0.0 0.00022481049449889928 1.0499233666826342e-06 1.1557619914474992e-06 -2.205685358130363e-06 -0.00011486195429381463 0.0 0.0
0.0 0.00027754869312650635 -7.981653920031361e-05 7.009122699757658e-05 9.725312202737213e-06 -0.0003997259881717084 0.0 0.0
0.0 0.0005734539143008169 -0.00026133206017919916 0.00022959110144717056 3.1740958732028375e-05 -0.0007501651053322269 0.0 0.0
0.0 0.0011037100049827342 -0.0005921471533991058 0.0005250178266016023 6.712932679750395e-05 -0.0012360821018146393 0.0 0.0
0.0 0.001971851795060434 -0.001237911678983739 0.001094755543861441 0.00014315613512229863 -0.0018785594607895384 0.0 0.0
0.0 0.0031486465065307507 -0.002082966247158718 0.0018739726691024258 0.00020899357805629265 -0.002684274175888366 0.0 0.0
0.0 0.004410449174742129 -0.002942070234273496 0.00269956912986867 0.00024250110440482674 -0.0037169249018698357 0.0 0.0
0.0 0.0056059457665281805 -0.003474263277777684 0.003256975195566271 0.00021728808221140955 -0.004979715308294628 0.0 0.0
0.0 0.0059182680723750035 -0.0032797322495700058 0.003156172090937555 0.00012356015863245224 -0.006520609888097351 0.0 0.0
0.0 0.0053053464719182205 -0.0024810473040806566 0.0023692503173657863 0.00011179698671486937 -0.007860407800322131 0.0 0.0
0.0 0.010117570122772661 -0.0015157245042108861 0.0005926753628155118 0.0009230491413953757 6.930870807830836e-15 0.0 0.0
0.0 0.005305346471919891 -0.002481047304079927 0.0023692503173648955 0.00011179698671503054 0.00786040780032636 0.0 0.0
0.0 0.005918268072375847 -0.0032797322495701406 0.00315617209093763 0.00012356015863250968 0.006520609888101041 0.0 0.0
0.0 0.005605945766524595 -0.003474263277775631 0.0032569751955642844 0.00021728808221134564 0.004979715308293856 0.0 0.0
0.0 0.004410449174738373 -0.0029420702342707493 0.0026995691298660612 0.00024250110440468542 0.003716924901867621 0.0 0.0
0.0 0.0031486465065287197 -0.0020829662471568006 0.0018739726691008275 0.00020899357805597544 0.002684274175886742 0.0 0.0
0.0 0.001971851795057697 -0.0012379116789814576 0.0010947555438596966 0.00014315613512175991 0.001878559460787676 0.0 0.0
0.0 0.0011037100049803093 -0.0005921471533972844 0.0005250178266000894 6.712932679719498e-05 0.0012360821018133005 0.0 0.0
0.0 0.0005734539142977454 -0.0002613320601779687 0.00022959110144608232 3.174095873188611e-05 0.0007501651053299122 0.0 0.0
0.0 0.00027754869312430466 -7.98165391993011e-05 7.009122699669617e-05 9.725312202604863e-06 0.00039972598816910283 0.0 0.0
0.0 0.00022481049449719724 1.049923366676173e-06 1.155761991431204e-06 -2.205685358107228e-06 0.00011486195429229424 0.0 0.0
0.0 5.6856013304566175e-05 -1.1301344301658028e-05 8.867980061524671e-06 2.4333642401333282e-06 7.405688327900977e-05 0.0 0.0
0.0 2.8037146098600655e-05 -8.000708007191413e-07 1.2363917830734006e-06 -4.3632098235424257e-07 1.0799939896093781e-05 0.0 0.0
0.0 6.367798509089744e-06 3.049946981283304e-06 -2.634315356608935e-06 -4.156316246743915e-07 -2.1332254868064084e-05 0.0 0.0
0.0 2.6100054047664613e-05 8.697025255942156e-07 -6.996239041471111e-07 -1.7007862144711584e-07 -6.657074622176598e-06 0.0 0.0
0.0 -2.497204345732415e-06 -1.7633187286029646e-07 1.4444088894724497e-07 3.189098391306514e-08 8.310493508575193e-07 0.0 0.0
0.0 -9.04699961019965e-07 -2.5830668017235507e-08 1.7516571743234694e-08 8.314096274002637e-09 2.6197814179128124e-07 0.0 0.0
0.0 1.490317099709025e-06 4.2419117432873625e-08 -3.4703150095152404e-08 -7.7159673377218e-09 -3.123545741534368e-07 0.0 0.0
0.0 -1.2248514125423912e-06 -1.517375899988092e-08 9.72300822369931e-09 5.450750776178706e-09 2.593302377583429e-07 0.0 0.0
0.0 2.060954280464219e-07 9.273562814277173e-10 1.4540868585699457e-11 -9.418971500126806e-10 -4.459082022546827e-08 0.0 0.0
0.0 0.0 0.0 0.0 0.0 0.0 0.0 0.0
0.0 0.0 0.0 0.0 0.0 0.0 0.0 0.0
0.0 0.0 0.0 0.0 0.0 0.0 0.0 0.0
0.0 -6.184246970149612e-07 -2.0876111810172227e-08 1.7314089408234478e-08 3.562022401937719e-09 -1.2806852567251785e-07 0.0 0.0
0.0 -9.073015981519399e-07 -5.685714133296699e-08 4.755545022776246e-08 9.30169110519889e-09 -2.3445117858209914e-07 0.0 0.0
0.0 6.939413693331901e-06 2.566932478706198e-07 -2.177301530713073e-07 -3.8963094799286765e-08 1.5048904087892627e-06 0.0 0.0
0.0 1.690702464335916e-05 8.302974969186489e-07 -6.768157143116402e-07 -1.5348178260704522e-07 3.94016593183917e-06 0.0 0.0
0.0 -9.640543534027815e-06 -1.884560031495341e-06 1.4292419775425885e-06 4.553180539528243e-07 -5.349431206866161e-06 0.0 0.0
0.0 3.5055856195403424e-05 1.9750174274967808e-05 -1.5431762413898916e-05 -4.318411861068836e-06 5.931924418100655e-05 0.0 0.0
0.0 4.0289735149815406e-05 6.009528589890868e-06 -4.434661962073059e-06 -1.5748666278177973e-06 -3.0605021085016595e-05 0.0 0.0
0.0 0.00025719781950560256 -7.506981330100747e-05 6.253525050451945e-05 1.2534562796488258e-05 -0.000148101317517876 0.0 0.0
0.0 0.0005379692472764956 -0.0003861922948290927 0.0003128800552452954 7.331223958379726e-05 -0.0005485440769037672 0.0 0.0
0.0 0.0011542677949764597 -0.0008561062814411928 0.0007005488720809678 0.00015555740936022434 -0.0009803881785400163 0.0 0.0
0.0 0.0019875498485397787 -0.0015515751730824053 0.0012859861951202084 0.000265588977962197 -0.0014785538054053536 0.0 0.0
0.0 0.00320164284055564 -0.0025796130849341783 0.0021919982220477414 0.0003876148628864358 -0.002069915105939211 0.0 0.0
0.0 0.004983394392499167 -0.004033261858163911 0.0035350915866513566 0.0004981702715125546 -0.0028319676944584884 0.0 0.0
0.0 0.0073243675646605015 -0.00589865120115842 0.005324174096129963 0.0005744771050284573 -0.0038778522796408337 0.0 0.0
0.0 0.009919669405972525 -0.007953825026779887 0.007338854864190154 0.0006149701625897381 -0.005308924327695943 0.0 0.0
0.0 0.012104149169882134 -0.009776748246609294 0.00915014014662911 0.0006266080999801899 -0.007149862737726731 0.0 0.0
0.0 0.013541231040684356 -0.010611847019967577 0.010012329240650236 0.0005995177793173355 -0.009082132498256361 0.0 0.0
0.0 0.012756277038321613 -0.009232543624424114 0.00867080671992335 0.0005617369045007662 -0.00967676182257605 0.0 0.0
0.0 0.012835624460266702 -0.007312478873863055 0.0057269031965509675 0.0015855756773120824 4.963477545638639e-15 0.0 0.0
0.0 0.012756277038324118 -0.009232543624424328 0.008670806719923693 0.0005617369045006274 0.009676761822583788 0.0 0.0
0.0 0.01354123104068493 -0.010611847019966937 0.01001232924064966 0.0005995177793172762 0.009082132498264108 0.0 0.0
0.0 0.01210414916987851 -0.009776748246606112 0.009150140146626242 0.000626608099979863 0.0071498627377290765 0.0 0.0
0.0 0.009919669405968405 -0.00795382502677647 0.0073388548641871 0.0006149701625893717 0.005308924327694935 0.0 0.0
0.0 0.007324367564656778 -0.0058986512011551615 0.005324174096126968 0.0005744771050281946 0.003877852279639208 0.0 0.0
0.0 0.004983394392494847 -0.004033261858160477 0.0035350915866483134 0.000498170271512165 0.002831967694456085 0.0 0.0
0.0 0.0032016428405513397 -0.0025796130849302526 0.002191998222044182 0.0003876148628860693 0.002069915105937046 0.0 0.0
0.0 0.001987549848535441 -0.001551575173078485 0.0012859861951167837 0.0002655889779617013 0.0014785538054027296 0.0 0.0
0.0 0.0011542677949716042 -0.0008561062814372429 0.0007005488720776251 0.00015555740935961775 0.000980388178535883 0.0 0.0
0.0 0.0005379692472723989 -0.0003861922948260332 0.00031288005524284196 7.331223958319107e-05 0.0005485440769001429 0.0 0.0
0.0 0.00025719781950245057 -7.50698132998639e-05 6.253525050353099e-05 1.2534562796332977e-05 0.00014810131751645796 0.0 0.0
0.0 4.028973514935078e-05 6.00952858971888e-06 -4.434661961926402e-06 -1.5748666277923393e-06 3.060502108490889e-05 0.0 0.0
0.0 3.505585619465315e-05 1.9750174274993524e-05 -1.543176241392598e-05 -4.318411861067451e-06 -5.9319244181067224e-05 0.0 0.0
0.0 -9.64054353438192e-06 -1.8845600315420677e-06 1.4292419775815495e-06 4.5531805396048153e-07 5.349431207067182e-06 0.0 0.0
0.0 1.6907024642783286e-05 8.302974968858689e-07 -6.768157142847567e-07 -1.534817826011506e-07 -3.940165931679167e-06 0.0 0.0
0.0 6.939413692862606e-06 2.566932478499369e-07 -2.1773015305387495e-07 -3.896309479599238e-08 -1.5048904086759496e-06 0.0 0.0
0.0 -9.073015986455803e-07 -5.685714134533184e-08 4.7555450237640396e-08 9.301691107664112e-09 2.3445117867591146e-07 0.0 0.0
0.0 -6.184246968346537e-07 -2.0876111804557736e-08 1.7314089403673093e-08 3.562022400887866e-09 1.2806852563539354e-07 0.0 0.0
0.0 0.0 0.0 0.0 0.0 0.0 0.0 0.0
0.0 0.0 0.0 0.0 0.0 0.0 0.0 0.0
0.0 0.0 0.0 0.0 0.0 0.0 0.0 0.0
0.0 0.0 0.0 0.0 0.0 0.0 0.0 0.0
0.0 -2.2098314800529048e-07 -8.38664001924742e-09 6.502053874168221e-09 1.884586145079983e-09 -4.238064830287919e-08 0.0 0.0
0.0 2.0226143929595992e-07 5.242485719426157e-09 -3.779454189556672e-09 -1.4630315298730378e-09 4.157666035962229e-08 0.0 0.0
0.0 2.3140902412834673e-06 1.1552332739743595e-07 -9.046105197643214e-08 -2.5062275420996453e-08 4.835579472159823e-07 0.0 0.0
0.0 -1.4526175653651061e-05 -2.0217744397956252e-06 1.5821875406630072e-06 4.395868991325945e-07 -4.964591210490118e-06 0.0 0.0
0.0 3.6085005325745986e-05 1.5278017489294306e-05 -1.2088774371190374e-05 -3.1892431181038897e-06 3.768109138806581e-05 0.0 0.0
0.0 7.429894206144294e-06 -3.5381739473836567e-06 3.1173833603464625e-06 4.207905870372399e-07 -2.048864323436736e-05 0.0 0.0
0.0 0.0002518563139694499 -0.0001591325225947177 0.0001244630607421654 3.466946185255223e-05 -0.00016680383670083116 0.0 0.0
0.0 0.0009793468155486137 -0.0005466453241110406 0.0004344720857197492 0.00011217323839129118 -0.0004882480172742871 0.0 0.0
0.0 0.0015098734604451383 -0.0012013729024955243 0.0009730947842145476 0.00022827811828097705 -0.001010229077875004 0.0 0.0
0.0 0.0024253656842623 -0.002051609269896 0.0016974465691286952 0.0003541627007673045 -0.0015033404023649625 0.0 0.0
0.0 0.0037854792923962786 -0.003204879236759171 0.0027202591866463924 0.00048462005011277716 -0.0020470579743089453 0.0 0.0
0.0 0.00568959188043058 -0.0048509274779896736 0.0042425859297668365 0.000608341548222835 -0.002733408578986457 0.0 0.0
0.0 0.008447045617933073 -0.007128673408565849 0.0064234626141109145 0.0007052107944549376 -0.003660383763821621 0.0 0.0
0.0 0.011864201406315403 -0.010046235600830993 0.00928264579842354 0.0007635898024074422 -0.0049428024839931195 0.0 0.0
0.0 0.015999346117093746 -0.013332683875034992 0.012544235406577446 0.0007884484684575419 -0.00681228640428835 0.0 0.0
0.0 0.019750705341865727 -0.016400079184329484 0.015619285883750937 0.0007807933005785375 -0.009384987843858793 0.0 0.0
0.0 0.022088815473292146 -0.01811514319663958 0.01737666615791253 0.0007384770387270507 -0.012053088016966277 0.0 0.0
0.0 0.020781375103954842 -0.016665209763504586 0.015996067765170527 0.0006691419983340576 -0.01299282268375835 0.0 0.0
0.0 0.018718407977082567 -0.01340202078285125 0.011195470430206855 0.0022065503526443814 5.258814217423691e-15 0.0 0.0
0.0 0.020781375103958374 -0.016665209763505242 0.015996067765171377 0.0006691419983338705 0.012992822683770451 0.0 0.0
0.0 0.022088815473291747 -0.018115143196637512 0.017376666157910826 0.0007384770387267049 0.012053088016977003 0.0 0.0
0.0 0.019750705341861803 -0.016400079184325612 0.015619285883747483 0.0007807933005781227 0.00938498784386386 0.0 0.0
0.0 0.015999346117087473 -0.013332683875029736 0.012544235406572386 0.000788448468457347 0.0068122864042877325 0.0 0.0
0.0 0.011864201406308537 -0.010046235600824922 0.009282645798417777 0.000763589802407143 0.004942802483990757 0.0 0.0
0.0 0.00844704561792822 -0.007128673408561379 0.006423462614106986 0.0007052107944543923 0.0036603837638197224 0.0 0.0
0.0 0.005689591880423354 -0.00485092747798358 0.004242585929761062 0.0006083415482225193 0.0027334085789835877 0.0 0.0
0.0 0.003785479292390515 -0.003204879236753989 0.002720259186641786 0.0004846200501122025 0.0020470579743066064 0.0 0.0
0.0 0.0024253656842555126 -0.0020516092698899735 0.0016974465691235092 0.0003541627007664651 0.0015033404023604307 0.0 0.0
0.0 0.0015098734604387129 -0.0012013729024902004 0.0009730947842099046 0.00022827811828029623 0.0010102290778703485 0.0 0.0
0.0 0.0009793468155435215 -0.000546645324107322 0.0004344720857167998 0.00011217323839052216 0.00048824801727119656 0.0 0.0
0.0 0.00025185631396655844 -0.0001591325225929273 0.00012446306074076035 3.466946185216687e-05 0.00016680383669916778 0.0 0.0
0.0 7.4298942053082995e-06 -3.538173947483444e-06 3.117383360420416e-06 4.207905870628546e-07 2.0488643234560218e-05 0.0 0.0
0.0 3.6085005324705985e-05 1.5278017489127813e-05 -1.2088774371063442e-05 -3.1892431180643087e-06 -3.768109138772972e-05 0.0 0.0
0.0 -1.4526175654018506e-05 -2.021774439804834e-06 1.5821875406714561e-06 4.3958689913337276e-07 4.964591210555158e-06 0.0 0.0
0.0 2.3140902408674115e-06 1.15523327377649e-07 -9.046105196029126e-08 -2.5062275417359505e-08 -4.835579471334804e-07 0.0 0.0
0.0 2.0226143915763118e-07 5.242485716237932e-09 -3.77945418719882e-09 -1.463031529031556e-09 -4.157666033030567e-08 0.0 0.0
0.0 -2.2098314792527552e-07 -8.386640016207881e-09 6.502053871768999e-09 1.8845861444370603e-09 4.238064828660179e-08 0.0 0.0
0.0 0.0 0.0 0.0 0.0 0.0 0.0 0.0
0.0 0.0 0.0 0.0 0.0 0.0 0.0 0.0
0.0 0.0 0.0 0.0 0.0 0.0 0.0 0.0
0.0 0.0 0.0 0.0 0.0 0.0 0.0 0.0
0.0 0.0 0.0 0.0 0.0 0.0 0.0 0.0
0.0 -3.216566219922162e-06 -2.1397347762671908e-07 1.7329740923679004e-07 4.067606838992204e-08 -6.433160338192215e-07 0.0 0.0
0.0 5.719953617343283e-06 2.885528550921863e-07 -2.3920738736991065e-07 -4.934546772224029e-08 1.133045069621961e-06 0.0 0.0
0.0 3.2707349245135196e-05 7.1057702055300775e-06 -5.61077906477835e-06 -1.4949911407518103e-06 1.3928535485954267e-05 0.0 0.0
0.0 7.011833199815607e-06 1.6704092573773925e-05 -1.2773482314000702e-05 -3.93061025977322e-06 1.1407924470874613e-05 0.0 0.0
0.0 0.00019038812853915826 -0.00013561223678825428 0.00010345340072870845 3.215883605954589e-05 -9.582589357029741e-05 0.0 0.0
0.0 0.000978125822685675 -0.000530915093126333 0.00041714472517522487 0.00011377036795110791 -0.0003577294832591576 0.0 0.0
0.0 0.001405389868359436 -0.0012968051622947673 0.0010440462871047316 0.0002527588751900363 -0.0008781644392446207 0.0 0.0
0.0 0.0025360794598806376 -0.0021946926205528897 0.0018129067907109938 0.0003817858298418949 -0.0013277188690627125 0.0 0.0
0.0 0.003886303772962659 -0.003383645959417379 0.0028669852011023894 0.0005166607583149914 -0.0018076074101497624 0.0 0.0
0.0 0.005740056125396451 -0.005005968166965524 0.0043576884219958785 0.0006482797449696447 -0.0023763229913721373 0.0 0.0
0.0 0.00838590685546161 -0.007280147979451075 0.006516461094495732 0.0007636868849553383 -0.003128877900141551 0.0 0.0
0.0 0.011978983061374397 -0.010392947922730943 0.009542549195251805 0.0008503987274791331 -0.00414413540442917 0.0 0.0
0.0 0.016882681597280177 -0.014364496675258142 0.013464358932347782 0.0009001377429103658 -0.005559843782244514 0.0 0.0
0.0 0.021912136779282873 -0.018908649719576426 0.017992053968074823 0.0009165957515015887 -0.007679262330281496 0.0 0.0
0.0 0.02732105919274394 -0.023197096684368264 0.022307833644183726 0.0008892630401845425 -0.010703887472863795 0.0 0.0
0.0 0.03076572776609002 -0.025687367362066577 0.024872214012513286 0.0008151533495532877 -0.014049562090440986 0.0 0.0
0.0 0.029076158283522478 -0.023894061595698173 0.02319772003438766 0.0006963415613104916 -0.01566591346776279 0.0 0.0
0.0 0.024987374587353114 -0.019425863333995024 0.01668468203707962 0.0027411812969154047 6.134849572791978e-15 0.0 0.0
0.0 0.02907615828352473 -0.02389406159569766 0.023197720034387262 0.0006963415613103891 0.01566591346777774 0.0 0.0
0.0 0.030765727766087294 -0.025687367362062636 0.024872214012509504 0.0008151533495531053 0.014049562090454389 0.0 0.0
0.0 0.02732105919273684 -0.023197096684361634 0.02230783364417714 0.0008892630401844811 0.010703887472870358 0.0 0.0
0.0 0.02191213677927376 -0.018908649719568474 0.01799205396806699 0.0009165957515014977 0.007679262330281957 0.0 0.0
0.0 0.016882681597271704 -0.014364496675250558 0.013464358932340735 0.0009001377429098178 0.0055598437822425685 0.0 0.0
0.0 0.01197898306136798 -0.010392947922725085 0.009542549195246573 0.0008503987274785018 0.004144135404427201 0.0 0.0
0.0 0.008385906855454092 -0.007280147979444115 0.0065164610944893515 0.0007636868849547595 0.0031288779001388644 0.0 0.0
0.0 0.005740056125388302 -0.005005968166958334 0.004357688421989249 0.0006482797449690796 0.002376322991369324 0.0 0.0
0.0 0.003886303772954815 -0.003383645959410119 0.00286698520109598 0.0005166607583141406 0.0018076074101456476 0.0 0.0
0.0 0.002536079459872112 -0.0021946926205454464 0.0018129067907044123 0.00038178582984103247 0.001327718869057905 0.0 0.0
0.0 0.0014053898683538595 -0.001296805162289326 0.0010440462871001907 0.00025275887518913455 0.0008781644392408149 0.0 0.0
0.0 0.0009781258226794448 -0.0005309150931221537 0.00041714472517184265 0.00011377036795031088 0.00035772948325623634 0.0 0.0
0.0 0.00019038812853644063 -0.0001356122367868123 0.00010345340072762235 3.2158836059190005e-05 9.582589356937505e-05 0.0 0.0
0.0 7.011833199198747e-06 1.6704092573459096e-05 -1.2773482313757949e-05 -3.93061025970084e-06 -1.1407924470404694e-05 0.0 0.0
0.0 3.270734924378859e-05 7.10577020538337e-06 -5.61077906466423e-06 -1.4949911407190475e-06 -1.3928535485718438e-05 0.0 0.0
0.0 5.719953616914112e-06 2.8855285506468617e-07 -2.392073873468006e-07 -4.934546771788691e-08 -1.1330450695166714e-06 0.0 0.0
0.0 -3.2165662197370074e-06 -2.139734776125392e-07 1.732974092253024e-07 4.0676068387236426e-08 6.43316033777429e-07 0.0 0.0
0.0 0.0 0.0 0.0 0.0 0.0 0.0 0.0
0.0 0.0 0.0 0.0 0.0 0.0 0.0 0.0
0.0 0.0 0.0 0.0 0.0 0.0 0.0 0.0
0.0 0.0 0.0 0.0 0.0 0.0 0.0 0.0
0.0 0.0 0.0 0.0 0.0 0.0 0.0 0.0
0.0 0.0 0.0 0.0 0.0 0.0 0.0 0.0
0.0 -1.649479723669036e-06 -1.2518018786631028e-07 9.947930651809292e-08 2.5700881348227217e-08 -2.9211865649805987e-07 0.0 0.0
0.0 -7.134309776455306e-06 -1.087341136384832e-06 8.567412820301849e-07 2.3059985435458844e-07 -1.611409824162677e-06 0.0 0.0
0.0 4.8301009709066e-05 1.5923982100886208e-05 -1.2447240001073319e-05 -3.476742099812815e-06 2.011265461513298e-05 0.0 0.0
0.0 9.349832883146395e-05 -4.708015812400278e-05 3.4818755858397835e-05 1.226140226560487e-05 -1.1847448524346324e-05 0.0 0.0
0.0 0.0007457440486029488 -0.0003799561970788413 0.00029329787844498253 8.665831863385937e-05 -0.0001812540298419912 0.0 0.0
0.0 0.001204566146061322 -0.0011586974416422733 0.0009250611819446613 0.00023363625969761238 -0.000629306306675084 0.0 0.0
0.0 0.0023494445372416023 -0.002077582286181783 0.0017068302958960606 0.00037075199028572067 -0.0010400039679203364 0.0 0.0
0.0 0.003657446741707422 -0.003257659747176146 0.0027457228262273703 0.0005119369209487738 -0.0014500217798398822 0.0 0.0
0.0 0.005407135568851942 -0.004801630997123088 0.0041535170960820544 0.0006481139010410333 -0.0019064562174140728 0.0 0.0
0.0 0.007835006513078264 -0.006904915900066169 0.006129166418329122 0.000775749481737046 -0.002468393224528234 0.0 0.0
0.0 0.011306799358564375 -0.009818748776046186 0.008935156395668805 0.000883592380377385 -0.0032376449815607155 0.0 0.0
0.0 0.01584717899016717 -0.01376508851130684 0.012799059277705067 0.0009660292336017604 -0.004291197762628705 0.0 0.0
0.0 0.021557148940714758 -0.01878772879513956 0.01776931083083669 0.0010184179643028615 -0.005700940529159543 0.0 0.0
0.0 0.028578088809457544 -0.024538837451314105 0.023510972831215556 0.00102786462009854 -0.0077704195725305375 0.0 0.0
0.0 0.035033959158967246 -0.030027469952210346 0.029047614690213924 0.0009798552619964033 -0.010908007001461236 0.0 0.0
0.0 0.03892155633219276 -0.033235971243676526 0.03236713256983454 0.0008688386738419929 -0.014776755427416988 0.0 0.0
0.0 0.037062313252476255 -0.0310223111900531 0.030318064675008957 0.0007042465150441527 -0.01756209226651024 0.0 0.0
0.0 0.03183519628535593 -0.025409752099961488 0.022172679179956564 0.00323707292000492 7.422014391966769e-15 0.0 0.0
0.0 0.037062313252476164 -0.031022311190050847 0.03031806467500659 0.0007042465150442394 0.017562092266525994 0.0 0.0
0.0 0.038921556332188606 -0.0332359712436713 0.03236713256982935 0.0008688386738419375 0.014776755427431877 0.0 0.0
0.0 0.03503395915895909 -0.030027469952202526 0.029047614690206683 0.0009798552619958336 0.01090800700146948 0.0 0.0
0.0 0.028578088809448583 -0.02453883745130607 0.023510972831207892 0.0010278646200981888 0.007770419572532724 0.0 0.0
0.0 0.021557148940705043 -0.018787728795130968 0.017769310830828812 0.001018417964302153 0.005700940529158462 0.0 0.0
0.0 0.015847178990157713 -0.013765088511298533 0.012799059277697238 0.0009660292336012958 0.004291197762626708 0.0 0.0
0.0 0.011306799358556193 -0.009818748776038354 0.008935156395661732 0.0008835923803766218 0.0032376449815589973 0.0 0.0
0.0 0.007835006513067509 -0.006904915900056479 0.006129166418319865 0.0007757494817366184 0.002468393224525043 0.0 0.0
0.0 0.005407135568841818 -0.004801630997113887 0.004153517096073738 0.0006481139010401465 0.001906456217410228 0.0 0.0
0.0 0.0036574467416982167 -0.0032576597471677443 0.002745722826219872 0.0005119369209478726 0.001450021779835324 0.0 0.0
0.0 0.0023494445372331807 -0.002077582286174172 0.0017068302958894047 0.0003707519902847674 0.0010400039679162017 0.0 0.0
0.0 0.001204566146056037 -0.0011586974416366508 0.00092506118194005 0.00023363625969660063 0.0006293063066722679 0.0 0.0
0.0 0.0007457440485983352 -0.00037995619707582433 0.00029329787844263014 8.665831863319406e-05 0.00018125402984034728 0.0 0.0
0.0 9.3498328829441e-05 -4.708015812307158e-05 3.481875585768167e-05 1.2261402265390176e-05 1.1847448523856502e-05 0.0 0.0
0.0 4.8301009708313774e-05 1.592398210073157e-05 -1.2447240000950909e-05 -3.4767420997804964e-06 -2.0112654614946545e-05 0.0 0.0
0.0 -7.134309777568279e-06 -1.0873411364981444e-06 8.567412821188098e-07 2.3059985437932596e-07 1.6114098243485744e-06 0.0 0.0
0.0 -1.6494797235226471e-06 -1.251801878543305e-07 9.947930650851927e-08 2.5700881345804934e-08 2.921186564701545e-07 0.0 0.0
0.0 0.0 0.0 0.0 0.0 0.0 0.0 0.0
0.0 0.0 0.0 0.0 0.0 0.0 0.0 0.0
0.0 0.0 0.0 0.0 0.0 0.0 0.0 0.0
0.0 0.0 0.0 0.0 0.0 0.0 0.0 0.0
0.0 0.0 0.0 0.0 0.0 0.0 0.0 0.0
0.0 0.0 0.0 0.0 0.0 0.0 0.0 0.0
0.0 -1.6427912561948415e-06 -1.4576765561191955e-07 1.163519409844636e-07 2.9415714627468992e-08 -2.453416837895156e-07 0.0 0.0
0.0 1.6384755437595584e-05 2.0594160973577558e-06 -1.6024586618940837e-06 -4.5695743546365556e-07 2.3755052228765983e-06 0.0 0.0
0.0 -1.1645867696577706e-05 -3.860220023244455e-06 2.383481052188069e-06 1.4767389710563775e-06 2.6356254499784833e-06 0.0 0.0
0.0 0.00043350706830791734 -0.00016809391675575615 0.00012654452201528037 4.154939474047643e-05 -3.55396676993063e-05 0.0 0.0
0.0 0.0009546876828493337 -0.0008545072770483485 0.0006720186905321953 0.0001824885865161532 -0.0003363254691786738 0.0 0.0
0.0 0.001965516462491962 -0.0017715608723712453 0.0014415640921236815 0.0003299967802475634 -0.0007017711674719382 0.0 0.0
0.0 0.003227730101756764 -0.002918094520407893 0.0024394371672133153 0.00047865735319457803 -0.0010456541220761287 0.0 0.0
0.0 0.004868166190297527 -0.0043696542807473175 0.0037490842710240593 0.0006205700097232586 -0.0014073400767197117 0.0 0.0
0.0 0.007070598912621382 -0.0062780688280654005 0.005521899695056413 0.0007561691330089813 -0.0018120497249459503 0.0 0.0
0.0 0.010164912577672883 -0.008877447695542629 0.007997274108973657 0.0008801735865689802 -0.0023305127525246627 0.0 0.0
0.0 0.014090844146372225 -0.012459321411765902 0.011474032494959182 0.0009852889168067158 -0.003067122872274045 0.0 0.0
0.0 0.0197167642762003 -0.017225875152741005 0.016159697765093795 0.0010661773876472053 -0.004088207506558814 0.0 0.0
0.0 0.026768854517189116 -0.02323517085884464 0.022112850305722794 0.001122320553121844 -0.005389588422715769 0.0 0.0
0.0 0.03463785984951076 -0.030143601502826065 0.02900901889089519 0.001134582611930857 -0.007146592441315679 0.0 0.0
0.0 0.042417610505071576 -0.036773835872699764 0.03570616979354001 0.0010676660791597932 -0.009953127483210412 0.0 0.0
0.0 0.04729810924617088 -0.04070920101149952 0.03979515586758613 0.000914045143913401 -0.014131538977631397 0.0 0.0
0.0 0.04500647623324975 -0.03819507466933935 0.03750193509977705 0.0006931395695622707 -0.01877657691709898 0.0 0.0
0.0 0.03853638083813845 -0.03153611052161634 0.027826495768530482 0.0037096147530858376 7.867838325292809e-15 0.0 0.0
0.0 0.0450064762332482 -0.03819507466933592 0.0375019350997737 0.0006931395695622025 0.018776576917114873 0.0 0.0
0.0 0.047298109246167 -0.04070920101149474 0.03979515586758149 0.0009140451439132251 0.014131538977647759 0.0 0.0
0.0 0.04241761050506314 -0.0367738358726918 0.03570616979353267 0.0010676660791591446 0.00995312748321973 0.0 0.0
0.0 0.034637859849500935 -0.030143601502817197 0.029009018890886883 0.0011345826119302765 0.007146592441317987 0.0 0.0
0.0 0.02676885451717756 -0.023235170858834357 0.022112850305713083 0.0011223205531212773 0.005389588422715545 0.0 0.0
0.0 0.019716764276188944 -0.017225875152730896 0.016159697765084267 0.0010661773876466264 0.004088207506557138 0.0 0.0
0.0 0.01409084414636121 -0.012459321411755894 0.011474032494949991 0.0009852889168059085 0.0030671228722722894 0.0 0.0
0.0 0.01016491257766112 -0.008877447695531757 0.00799727410896317 0.0008801735865685867 0.002330512752522052 0.0 0.0
0.0 0.007070598912608653 -0.006278068828053664 0.005521899695045451 0.0007561691330082107 0.001812049724942264 0.0 0.0
0.0 0.004868166190286556 -0.0043696542807372925 0.0037490842710149307 0.0006205700097223622 0.0014073400767154755 0.0 0.0
0.0 0.0032277301017482832 -0.0029180945203997836 0.002439437167206268 0.0004786573531935141 0.0010456541220728467 0.0 0.0
0.0 0.0019655164624849406 -0.001771560872365 0.0014415640921183635 0.00032999678024663617 0.0007017711674696022 0.0 0.0
0.0 0.000954687682844299 -0.0008545072770435229 0.0006720186905282428 0.00018248858651528016 0.0003363254691765523 0.0 0.0
0.0 0.0004335070683039684 -0.00016809391675348694 0.00012654452201356733 4.154939473992001e-05 3.5539667698306475e-05 0.0 0.0
0.0 -1.16458676973883e-05 -3.860220023912374e-06 2.3834810527107276e-06 1.4767389712016118e-06 -2.6356254491839274e-06 0.0 0.0
0.0 1.6384755436451734e-05 2.059416097308227e-06 -1.6024586618561987e-06 -4.569574354520813e-07 -2.375505222821038e-06 0.0 0.0
0.0 -1.642791256004414e-06 -1.4576765559379935e-07 1.1635194096994413e-07 2.941571462384305e-08 2.4534168375822876e-07 0.0 0.0
0.0 0.0 0.0 0.0 0.0 0.0 0.0 0.0
0.0 0.0 0.0 0.0 0.0 0.0 0.0 0.0
0.0 0.0 0.0 0.0 0.0 0.0 0.0 0.0
0.0 0.0 0.0 0.0 0.0 0.0 0.0 0.0
0.0 0.0 0.0 0.0 0.0 0.0 0.0 0.0
0.0 0.0 0.0 0.0 0.0 0.0 0.0 0.0
0.0 -5.301947324137244e-07 -5.2111206359757394e-08 4.136700228751207e-08 1.0744204072252427e-08 -5.5764332293221864e-08 0.0 0.0
0.0 2.4825010272405424e-05 3.53927789043017e-06 -2.6384771054167123e-06 -9.008007850134323e-07 1.426877284346955e-06 0.0 0.0
0.0 0.00010876646772929678 -2.0471047607288572e-05 1.3643734212517926e-05 6.8273133947706136e-06 1.583877941531196e-05 0.0 0.0
0.0 0.0006424188063092345 -0.0004714842876146573 0.0003616961703636851 0.00010978811725097184 -9.414629206131195e-05 0.0 0.0
0.0 0.0014547939458144222 -0.001337181650050674 0.0010719619801008058 0.0002652196699498683 -0.0003811154419913963 0.0 0.0
0.0 0.002652088427713646 -0.00242973266287512 0.002007912506506695 0.00042182015636842434 -0.0006444034063901924 0.0 0.0
0.0 0.004193232096005818 -0.0037894363492177183 0.003218154883901171 0.0005712814653165485 -0.0009174850667994618 0.0 0.0
0.0 0.00612050263530506 -0.005522306164017397 0.0048088012860045045 0.000713504878012889 -0.0012092145687995267 0.0 0.0
0.0 0.008789040959384722 -0.00780784223360474 0.00695978773190408 0.0008480545017006654 -0.0015372665083321743 0.0 0.0
0.0 0.01222333090216058 -0.010928701064044989 0.009956769479625652 0.0009719315844193314 -0.0019697369423368892 0.0 0.0
0.0 0.017337498594313425 -0.015170075577965122 0.014096011299135267 0.001074064278829842 -0.0026096823808213574 0.0 0.0
0.0 0.02368170495184604 -0.020758495881146227 0.019603220029649718 0.0011552758514965043 -0.0035285612018231514 0.0 0.0
0.0 0.03150898357809318 -0.027694724299583827 0.026479565333790367 0.0012151589657934418 -0.004669213823085687 0.0 0.0
0.0 0.04072873602490163 -0.03560303237438399 0.03436748340189395 0.001235548972490036 -0.005937667630951464 0.0 0.0
0.0 0.04967792289414694 -0.043289337847017814 0.04212474495236522 0.0011645928946526151 -0.007861957831947172 0.0 0.0
0.0 0.0554706197738515 -0.04809331864632703 0.047126132591099115 0.0009671860552279139 -0.012003251067147854 0.0 0.0
0.0 0.05327671753408683 -0.04557423460316129 0.04491776079417499 0.0006564738089862768 -0.01914641712855374 0.0 0.0
0.0 0.0460624756875346 -0.03801010092204743 0.03385290649464931 0.0041571944273981285 7.183489914019958e-15 0.0 0.0
0.0 0.0532767175340847 -0.04557423460315767 0.04491776079417158 0.0006564738089860798 0.019146417128568752 0.0 0.0
0.0 0.05547061977384509 -0.04809331864632054 0.047126132591092704 0.0009671860552278555 0.012003251067163306 0.0 0.0
0.0 0.04967792289413611 -0.04328933784700823 0.04212474495235583 0.0011645928946523664 0.007861957831955448 0.0 0.0
0.0 0.04072873602488935 -0.03560303237437309 0.03436748340188342 0.0012355489724896794 0.005937667630954083 0.0 0.0
0.0 0.031508983578080255 -0.027694724299572312 0.02647956533377961 0.0012151589657926863 0.004669213823085851 0.0 0.0
0.0 0.023681704951831816 -0.020758495881133737 0.019603220029637675 0.0011552758514960723 0.003528561201822031 0.0 0.0
0.0 0.017337498594300175 -0.015170075577953123 0.014096011299124052 0.001074064278829066 0.0026096823808198716 0.0 0.0
0.0 0.012223330902146364 -0.01092870106403242 0.009956769479613607 0.0009719315844188109 0.001969736942335002 0.0 0.0
0.0 0.008789040959370645 -0.007807842233591552 0.006959787731891724 0.0008480545016998312 0.0015372665083291936 0.0 0.0
0.0 0.006120502635292759 -0.005522306164005868 0.004808801285993775 0.0007135048780120899 0.0012092145687960059 0.0 0.0
0.0 0.004193232095996053 -0.0037894363492085893 0.0032181548838930165 0.000571281465315573 0.0009174850667966604 0.0 0.0
0.0 0.002652088427706145 -0.002429732662867317 0.002007912506499875 0.00042182015636743977 0.000644403406388053 0.0 0.0
0.0 0.0014547939458081347 -0.001337181650044337 0.0010719619800954579 0.0002652196699488786 0.00038111544198939323 0.0 0.0
0.0 0.000642418806304767 -0.00047148428761107134 0.00036169617036085964 0.0001097881172502113 9.414629206023462e-05 0.0 0.0
0.0 0.00010876646772752213 -2.0471047607030698e-05 1.3643734212350703e-05 6.827313394679858e-06 -1.5838779415097668e-05 0.0 0.0
0.0 2.4825010271440088e-05 3.5392778903079047e-06 -2.638477105323103e-06 -9.008007849847367e-07 -1.4268772842538581e-06 0.0 0.0
0.0 -5.301947322778795e-07 -5.211120634663761e-08 4.136700227712206e-08 1.0744204069519997e-08 5.576433227657831e-08 0.0 0.0
0.0 0.0 0.0 0.0 0.0 0.0 0.0 0.0
0.0 0.0 0.0 0.0 0.0 0.0 0.0 0.0
0.0 0.0 0.0 0.0 0.0 0.0 0.0 0.0
0.0 0.0 0.0 0.0 0.0 0.0 0.0 0.0
0.0 0.0 0.0 0.0 0.0 0.0 0.0 0.0
0.0 0.0 0.0 0.0 0.0 0.0 0.0 0.0
0.0 -3.496294827607134e-07 -2.554798202866444e-08 2.0686108615403197e-08 4.86187341325861e-09 -3.404425059177649e-08 0.0 0.0
0.0 -1.8038931903132657e-06 2.6333111789217704e-06 -2.066047629211727e-06 -5.672635497101464e-07 1.9181996309545432e-07 0.0 0.0
0.0 0.0003048751360055612 -0.00012123456849090775 8.826098555081394e-05 3.2973582940093546e-05 2.9631633818754108e-05 0.0 0.0
0.0 0.0008553262857842977 -0.0008556497209627864 0.0006697176759499811 0.00018593204501280618 -0.00013140253593282937 0.0 0.0
0.0 0.0020043811831275222 -0.001843833443514571 0.0014996626279903677 0.00034417081552420305 -0.0002992536983754027 0.0 0.0
0.0 0.003370603920735689 -0.0031117567171608605 0.0026083338071494575 0.000503422910011402 -0.00047736430296314186 0.0 0.0
0.0 0.005176490415937345 -0.0046890822276457345 0.0040373021227368125 0.0006517801049089209 -0.0006657437360316436 0.0 0.0
0.0 0.007494563989619774 -0.006706386358810599 0.0059126725879871216 0.0007937137708234765 -0.0008646373678187188 0.0 0.0
0.0 0.010477561544668999 -0.009386544403065668 0.008457508477473938 0.0009290359255917389 -0.0010845247273826302 0.0 0.0
0.0 0.01482533693723365 -0.013025733431323103 0.011973942812626445 0.0010517906186966494 -0.00138685709291565 0.0 0.0
0.0 0.02022191007756321 -0.017959480983708476 0.016802867860659793 0.0011566131230486786 -0.001883503703894208 0.0 0.0
0.0 0.027593812218827604 -0.024352182721200016 0.02311335743763452 0.0012388252835654917 -0.0026042605668152074 0.0 0.0
0.0 0.03657396150558589 -0.032132210083444614 0.03083798606509509 0.0012942240183495012 -0.0034799006736830848 0.0 0.0
0.0 0.0466549121666394 -0.04085186938237642 0.039533962107694026 0.0013179072746824212 -0.0042902648004816135 0.0 0.0
0.0 0.05654339027681199 -0.049413035666124226 0.04812687960730804 0.001286156058816196 -0.005129943336643356 0.0 0.0
0.0 0.0634858647072549 -0.055291194819513056 0.05422982057042033 0.001061374249092712 -0.008079112782038158 0.0 0.0
0.0 0.06196175762605035 -0.05334413463395921 0.052764619147437686 0.0005795154865215458 -0.017993139121868885 0.0 0.0
0.0 0.0543901957939851 -0.04516189832762262 0.04060329836346563 0.004558599964156939 5.0671272733282535e-15 0.0 0.0
0.0 0.06196175762604633 -0.05334413463395454 0.05276461914743311 0.0005795154865214321 0.017993139121880938 0.0 0.0
0.0 0.06348586470724538 -0.055291194819504376 0.054229820570411674 0.001061374249092731 0.008079112782050557 0.0 0.0
0.0 0.056543390276801435 -0.04941303566611465 0.04812687960729933 0.0012861560588152874 0.00512994333665065 0.0 0.0
0.0 0.04665491216662515 -0.040851869382363876 0.039533962107681855 0.0013179072746820298 0.004290264800484157 0.0 0.0
0.0 0.03657396150557301 -0.032132210083433 0.03083798606508456 0.0012942240183484366 0.0034799006736832418 0.0 0.0
0.0 0.02759381221881237 -0.024352182721186444 0.023113357437621742 0.0012388252835647039 0.0026042605668147294 0.0 0.0
0.0 0.020221910077548727 -0.01795948098369557 0.016802867860647806 0.001156613123047756 0.0018835037038929694 0.0 0.0
0.0 0.014825336937217522 -0.013025733431308624 0.011973942812612551 0.0010517906186960654 0.0013868570929141293 0.0 0.0
0.0 0.010477561544652571 -0.009386544403051138 0.008457508477460221 0.0009290359255909228 0.001084524727380605 0.0 0.0
0.0 0.007494563989606158 -0.006706386358797712 0.005912672587975062 0.0007937137708226478 0.0008646373678158764 0.0 0.0
0.0 0.005176490415925867 -0.004689082227634549 0.004037302122726564 0.0006517801049079842 0.0006657437360292123 0.0 0.0
0.0 0.003370603920726839 -0.0031117567171519175 0.0026083338071415676 0.0005034229100103512 0.0004773643029617018 0.0 0.0
0.0 0.0020043811831205217 -0.0018438334435076172 0.001499662627984397 0.0003441708155232203 0.00029925369837401647 0.0 0.0
0.0 0.0008553262857791553 -0.0008556497209577091 0.0006697176759458678 0.00018593204501184124 0.00013140253593170708 0.0 0.0
0.0 0.00030487513600294667 -0.00012123456848948202 8.826098554976375e-05 3.2973582939718534e-05 -2.9631633818692956e-05 0.0 0.0
0.0 -1.8038931912126897e-06 2.6333111785678966e-06 -2.066047628940621e-06 -5.672635496270899e-07 -1.918199629538068e-07 0.0 0.0
0.0 -3.4962948259329757e-07 -2.5547982010916308e-08 2.0686108601423818e-08 4.86187340948535e-09 3.404425057573326e-08 0.0 0.0
0.0 0.0 0.0 0.0 0.0 0.0 0.0 0.0
0.0 0.0 0.0 0.0 0.0 0.0 0.0 0.0
0.0 0.0 0.0 0.0 0.0 0.0 0.0 0.0
0.0 0.0 0.0 0.0 0.0 0.0 0.0 0.0
0.0 0.0 0.0 0.0 0.0 0.0 0.0 0.0
0.0 0.0 0.0 0.0 0.0 0.0 0.0 0.0
0.0 -2.648122376227234e-06 -3.125903338309129e-07 2.3695961047333237e-07 7.563072335754801e-08 -1.5550598747438445e-07 0.0 0.0
0.0 5.472738371122619e-05 1.7060215796934968e-05 -1.3548036027218494e-05 -3.5121797697162026e-06 6.440770549692067e-06 0.0 0.0
0.0 0.0004683247743676002 -0.00033523516424987816 0.00025112448807989473 8.411067616998362e-05 4.186638363364106e-05 0.0 0.0
0.0 0.0012984142527463986 -0.001224636621964678 0.0009750525997291253 0.00024958402223555185 -4.743880796123928e-05 0.0 0.0
0.0 0.002551288030161878 -0.002368626375114337 0.0019515143714763275 0.00041711200363800903 -0.0001256433720608118 0.0 0.0
0.0 0.004172481954908173 -0.003806761447685748 0.0032327042625642415 0.0005740571851215067 -0.00020629911227028585 0.0 0.0
0.0 0.006186651746969146 -0.005610269490114516 0.004887833195870415 0.0007224362942441006 -0.00029383628934004765 0.0 0.0
0.0 0.008828070554231179 -0.007923296650790206 0.007058340734134933 0.0008649559166552648 -0.00037555826941208976 0.0 0.0
0.0 0.012491836677053812 -0.011000513045487062 0.009999937429536344 0.0010005756159507206 -0.00045213300373201596 0.0 0.0
0.0 0.01699903426815989 -0.015193121157235685 0.014068084101658742 0.0011250370555769397 -0.0006096465615324166 0.0 0.0
0.0 0.023429968679387826 -0.020793881279594383 0.01956062413349539 0.0012332571460989866 -0.0008814255682116334 0.0 0.0
0.0 0.03167506354989419 -0.02796754435277032 0.02665047613729693 0.0013170682154733844 -0.0012739712427653504 0.0 0.0
0.0 0.041581513949172214 -0.03655444948176974 0.03518667872425242 0.0013677707575172838 -0.0017808008419061094 0.0 0.0
0.0 0.05244639003007022 -0.04593295230373193 0.04455319114770191 0.0013797611560300094 -0.0022330571966221137 0.0 0.0
0.0 0.06295929113408208 -0.05499409669032261 0.05362377422830059 0.0013703224620220326 -0.002430096086355695 0.0 0.0
0.0 0.07096038588137972 -0.061912112474004286 0.060606173388073566 0.0013059390859307385 -0.003337536645113479 0.0 0.0
0.0 0.07124641508467003 -0.061666742568869726 0.061149922746896054 0.0005168198219736785 -0.012163996570780666 0.0 0.0
0.0 0.06434624888856047 -0.053736587772571925 0.049021822741261 0.004714765031310889 3.090409872452682e-15 0.0 0.0
0.0 0.0712464150846646 -0.06166674256886453 0.06114992274689093 0.000516819821973558 0.012163996570787526 0.0 0.0
0.0 0.07096038588137019 -0.06191211247399584 0.060606173388065246 0.0013059390859305807 0.0033375366451212363 0.0 0.0
0.0 0.0629592911340696 -0.054994096690311495 0.053623774228290406 0.001370322462021083 0.002430096086360029 0.0 0.0
0.0 0.052446390030053656 -0.04593295230371736 0.044553191147687646 0.0013797611560296935 0.002233057196622771 0.0 0.0
0.0 0.04158151394915846 -0.03655444948175733 0.0351866787242411 0.001367770757516227 0.0017808008419063323 0.0 0.0
0.0 0.0316750635498779 -0.02796754435275579 0.026650476137283316 0.0013170682154724888 0.001273971242765363 0.0 0.0
0.0 0.023429968679372023 -0.020793881279580217 0.019560624133482356 0.001233257146097848 0.0008814255682110786 0.0 0.0
0.0 0.016999034268140784 -0.01519312115721889 0.014068084101642519 0.0011250370555763705 0.0006096465615315789 0.0 0.0
0.0 0.012491836677035937 -0.01100051304547094 0.009999937429520989 0.001000575615949942 0.00045213300373102283 0.0 0.0
0.0 0.008828070554215108 -0.007923296650775931 0.007058340734121421 0.0008649559166545086 0.00037555826941075684 0.0 0.0
0.0 0.00618665174695595 -0.005610269490102133 0.004887833195859032 0.0007224362942431027 0.00029383628933877116 0.0 0.0
0.0 0.00417248195489826 -0.0038067614476759606 0.0032327042625554074 0.0005740571851205512 0.00020629911226954914 0.0 0.0
0.0 0.0025512880301535538 -0.0023686263751059905 0.0019515143714690895 0.00041711200363690146 0.00012564337206009697 0.0 0.0
0.0 0.0012984142527409622 -0.0012246366219588547 0.0009750525997242871 0.00024958402223456804 4.7438807960608834e-05 0.0 0.0
0.0 0.0004683247743642656 -0.00033523516424721937 0.00025112448807785935 8.411067616936001e-05 -4.186638363362261e-05 0.0 0.0
0.0 5.4727383709820516e-05 1.7060215797197653e-05 -1.3548036027396544e-05 -3.5121797698014374e-06 -6.440770549603319e-06 0.0 0.0
0.0 -2.6481223762910176e-06 -3.125903338328666e-07 2.36959610474324e-07 7.563072335853993e-08 1.5550598746556588e-07 0.0 0.0
0.0 0.0 0.0 0.0 0.0 0.0 0.0 0.0
0.0 0.0 0.0 0.0 0.0 0.0 0.0 0.0
0.0 0.0 0.0 0.0 0.0 0.0 0.0 0.0
0.0 0.0 0.0 0.0 0.0 0.0 0.0 0.0
0.0 0.0 0.0 0.0 0.0 0.0 0.0 0.0
0.0 0.0 0.0 0.0 0.0 0.0 0.0 0.0
0.0 1.6004297711181226e-06 6.953396176498085e-08 2.3531155938533583e-09 -7.188707735865485e-08 -3.3915251981599474e-07 0.0 0.0
0.0 0.00017517656712731178 -2.373479922271571e-05 1.5544263968294995e-05 8.19053525442072e-06 1.499329620226189e-05 0.0 0.0
0.0 0.0007052544082370579 -0.0005310495471234759 0.00039522926745516867 0.0001358202796683073 7.984824516445173e-05 0.0 0.0
0.0 0.0016473675390536343 -0.0015517747975179951 0.001222450022478954 0.0003293247750390415 6.019624102835994e-05 0.0 0.0
0.0 0.0030183069491406403 -0.002808644503306712 0.0022879432211641948 0.0005207012821425163 6.267978496566257e-05 0.0 0.0
0.0 0.004750362970633771 -0.004394981486804883 0.0036886323193319887 0.0007063491674728919 8.607492415738983e-05 0.0 0.0
0.0 0.007018151485504856 -0.00638742975205529 0.005495485279252093 0.0008919444728031961 0.00011650687929369932 0.0 0.0
0.0 0.010007970735587634 -0.008953087890590529 0.007866278877210328 0.0010868090133802036 0.0002021992498125665 0.0 0.0
0.0 0.013733452437406512 -0.012390873645646849 0.011095661619974311 0.0012952120256725342 0.0003443855903876318 0.0 0.0
0.0 0.018939218998441563 -0.017032809340151063 0.015524431091753587 0.0015083782483974737 0.0004413518580834025 0.0 0.0
0.0 0.025908117580973937 -0.023181492439586733 0.021455018328640777 0.0017264741109459386 0.0005348523535853474 0.0 0.0
0.0 0.03481540621440182 -0.03098623318452801 0.029053556492314305 0.001932676692213679 0.0005311876010093979 0.0 0.0
0.0 0.04543981077529305 -0.04021541172196541 0.038112098808820785 0.002103312913144647 0.00038002093145009025 0.0 0.0
0.0 0.056864109401565555 -0.050101300790246314 0.04789378122919089 0.002207519561055404 0.0001113002181749893 0.0 0.0
0.0 0.06757247994209169 -0.059331971739186334 0.0571262382259018 0.0022057335132845256 -0.00015571553290584777 0.0 0.0
0.0 0.07574355612887987 -0.06644258607497715 0.06426075712006281 0.0021818289549142703 -0.00033334815131379376 0.0 0.0
0.0 0.07820074374920864 -0.06890709784642443 0.0669822646355781 0.0019248332108463494 -0.007983447088829601 0.0 0.0
0.0 0.07468057535811175 -0.06312929173511315 0.05618667238821784 0.006942619346895284 2.1649348980190553e-15 0.0 0.0
0.0 0.07820074374920305 -0.06890709784641949 0.06698226463557329 0.0019248332108462423 0.007983447088833034 0.0 0.0
0.0 0.07574355612886985 -0.06644258607496835 0.0642607571200546 0.002181828954913736 0.00033334815131758934 0.0 0.0
0.0 0.06757247994207549 -0.059331971739171964 0.057126238225888276 0.0022057335132837233 0.000155715532907795 0.0 0.0
0.0 0.056864109401546 -0.05010130079022916 0.0478937812291742 0.0022075195610549514 -0.00011130021817463368 0.0 0.0
0.0 0.0454398107752779 -0.040215411721951616 0.03811209880880839 0.002103312913143203 -0.0003800209314498851 0.0 0.0
0.0 0.034815406214382894 -0.03098623318451126 0.029053556492298252 0.001932676692212985 -0.0005311876010094586 0.0 0.0
0.0 0.02590811758095598 -0.02318149243957058 0.021455018328626094 0.0017264741109445014 -0.0005348523535858092 0.0 0.0
0.0 0.01893921899842013 -0.017032809340132113 0.01552443109173543 0.0015083782483966911 -0.0004413518580837538 0.0 0.0
0.0 0.013733452437387083 -0.01239087364562943 0.011095661619958105 0.001295212025671328 -0.00034438559038792497 0.0 0.0
0.0 0.010007970735570268 -0.008953087890574878 0.007866278877195616 0.001086809013379261 -0.00020219924981278495 0.0 0.0
0.0 0.007018151485490277 -0.006387429752042386 0.005495485279240233 0.0008919444728021501 -0.00011650687929415826 0.0 0.0
0.0 0.0047503629706224645 -0.0043949814867943 0.0036886323193225014 0.0007063491674718 -8.607492415776572e-05 0.0 0.0
0.0 0.0030183069491304445 -0.002808644503296791 0.0022879432211557107 0.0005207012821410778 -6.267978496560483e-05 0.0 0.0
0.0 0.0016473675390477082 -0.0015517747975116818 0.0012224500224737474 0.0003293247750379354 -6.0196241028442963e-05 0.0 0.0
0.0 0.0007052544082330279 -0.0005310495471199174 0.0003952292674524563 0.0001358202796674611 -7.984824516415163e-05 0.0 0.0
0.0 0.00017517656712601814 -2.3734799222432105e-05 1.554426396811777e-05 8.190535254314813e-06 -1.4993296202096325e-05 0.0 0.0
0.0 1.6004297705406918e-06 6.953396168526615e-08 2.3531156513319553e-09 -7.188707733667413e-08 3.391525198128718e-07 0.0 0.0
0.0 0.0 0.0 0.0 0.0 0.0 0.0 0.0
0.0 0.0 0.0 0.0 0.0 0.0 0.0 0.0
0.0 0.0 0.0 0.0 0.0 0.0 0.0 0.0
SCALARS Wm float 4
LOOKUP_TABLE default
6.829620498348488 1.8334163101983383 2.285440057188858 2.710764130961288
2.491061864507643 1.385515706552858 0.4386288132111084 0.6669173447436777
0.38467718572632437 0.39321134502367094 -0.0024982366343511827 -0.006035922662995453
0.3829679877928399 0.3863545480293912 -0.0004873687015177926 -0.002899191535033343
0.5798596274906953 0.5598406334680072 0.008770214190569912 0.011248779832118059
0.9677938814414551 0.6818217973299475 0.08038177779744163 0.20559030631406594
1.6318094542662132 0.8778270846382622 0.2653051722942298 0.48867719733372095
2.534051096166035 1.0790786823567022 0.55960462884318 0.8953677849661519
3.7236797019485457 1.3119929269270665 0.9934887742524545 1.4181980007690236
5.303268872493626 1.6022707274768462 1.618637331010519 2.0823608140062593
7.44177783270896 1.983850346893533 2.5151742470392735 2.9427532387761515
10.347091008016374 2.4871925524202956 3.756896519686859 4.103001935909216
14.432223289050963 3.1239722560030208 5.625966506436098 5.68228452661184
20.01753817317035 3.9066693266443755 8.325411148727873 7.785457697798105
27.300738420831173 4.784393429749318 12.055552025344596 10.460792965737246
36.186997723184376 5.647525294058397 16.882201233082846 13.657271196043139
46.088267190263394 6.332030820802842 22.547623215180916 17.208613154279625
55.96269026860726 6.689386018203373 28.51287565321551 20.760428597188394
64.55369545635291 6.711853015019167 33.9628338431156 23.879008598218157
70.47690271041107 6.4792326908404165 37.86872895439802 26.128941065172622
72.51221954490553 6.17076378195885 39.33308723966489 27.008368523281824
70.47690271041137 6.479232690846021 37.8687289543946 26.128941065170764
64.55369545633899 6.711853015012492 33.96283384311103 23.87900859821545
55.96269026859011 6.689386018197316 28.51287565320852 20.760428597184276
46.08826719024892 6.332030820803294 22.547623215171715 17.208613154273937
36.18699772317151 5.647525294058131 16.8822012330752 13.657271196038181
27.300738420816202 4.7843934297456086 12.055552025337999 10.460792965732592
20.017538173155955 3.9066693266422705 8.325411148720828 7.785457697792862
14.432223289035967 3.123972256000555 5.625966506429174 5.682284526606231
10.347091008003503 2.487192552419447 3.756896519680465 4.103001935903594
7.441777832697236 1.9838503468913697 2.515174247034389 2.9427532387714774
5.30326887248501 1.6022707274768302 1.6186373310062816 2.082360814001896
3.7236797019412293 1.3119929269258868 0.9934887742496374 1.4181980007657058
2.5340510961603515 1.0790786823556024 0.5596046288412407 0.8953677849635074
1.6318094542621062 0.8778270846371887 0.2653051722931397 0.48867719733177756
0.9677938814390876 0.6818217973289883 0.08038177779720947 0.20559030631288958
0.5798596274895732 0.55984063346725 0.00877021419044754 0.011248779831875704
0.38296798779240804 0.38635454802892455 -0.0004873687015116937 -0.002899191535004801
0.3846771857259299 0.3932113450231728 -0.002498236634321921 -0.006035922662920719
2.491061864505694 1.3855157065531842 0.43862881321013125 0.6669173447423783
6.8296204983333855 1.8334163101901624 2.2854400571853475 2.7107641309578763
7.546651387419908 3.6876772126971997 1.6966102182625855 2.1623639564601227
0.7294351536486906 0.23441249194406763 0.16580324423166357 0.3292194174729592
0.1962122335384223 0.19565069619818826 0.0002568795672874247 0.0003046577729466048
0.3127238051052734 0.31296261394668373 -9.213948674856948e-06 -0.00022959489273551763
0.45741528128747133 0.4556260597000395 0.0004332312385883812 0.0013559903488435663
0.7918073730284914 0.6284035322002837 0.04938670825419045 0.11401713257401733
1.351871557593692 0.76633111579518 0.19635651104638266 0.38918393075212965
2.145545561003423 0.9319029317260337 0.455193773489448 0.7584488557879412
3.18362949773161 1.1071705229784436 0.8414650817473391 1.2349938930058275
4.5291814236438395 1.3081152164804433 1.3823260479627877 1.8387401592006072
6.3287724116107125 1.5509063534547118 2.1575644317761755 2.620301626379823
8.841077542848138 1.8536764323524995 3.3201987810103986 3.66720232948524
12.245438719127579 2.2201345929557244 4.9183734226462485 5.106930703525607
17.040707219773005 2.6538344611362774 7.347530354288805 7.039342404347922
23.363026312981784 3.1257550615065655 10.710504011896806 9.526767239578419
31.14662955834293 3.5573940288225745 15.069286402318667 12.51994912720168
39.916081154734904 3.842189009826617 20.250641881189214 15.823250263719057
48.788650046141285 3.9064747182019732 25.739784804887375 19.14239052305193
56.60066064051985 3.7503208091214595 30.77362671429008 22.076713117108326
62.08410727595634 3.4320535593611603 34.48396747750596 24.168086239089217
64.07520146941205 3.143478487345768 35.95381299058544 24.977909991480843
62.08410727595211 3.4320535593609685 34.48396747750335 24.168086239087796
56.600660640513176 3.750320809122028 30.77362671428548 22.076713117105676
48.7886500461305 3.9064747182011894 25.73978480488114 19.142390523048185
39.91608115471993 3.842189009822884 20.250641881182304 15.823250263714737
31.146629558331014 3.557394028821678 15.06928640231203 12.519949127197306
23.36302631296888 3.125755061503929 10.710504011890809 9.526767239574152
17.040707219761348 2.653834461135979 7.347530354282361 7.03934240434301
12.245438719115159 2.2201345929547247 4.9183734226400135 5.1069307035204226
8.84107754283631 1.8536764323511512 3.3201987810049176 3.6672023294802374
6.328772411600886 1.5509063534541903 2.1575644317714846 2.62030162637521
4.529181423635612 1.308115216479266 1.3823260479594397 1.838740159196906
3.1836294977253843 1.1071705229777253 0.8414650817449068 1.234993893002752
2.145545560998451 0.9319029317252552 0.45519377348771356 0.7584488557854817
1.3518715575903122 0.7663311157945158 0.19635651104550153 0.38918393075029467
0.7918073730265189 0.6284035321994793 0.0493867082537612 0.11401713257327863
0.4574152812867009 0.4556260596993959 0.00043323123854963915 0.0013559903487553448
0.3127238051050162 0.31296261394641206 -9.21394867310587e-06 -0.00022959489272272572
0.19621223353838285 0.19565069619815775 0.0002568795672843412 0.0003046577729407981
0.7294351536471029 0.2344124919443114 0.1658032442309003 0.32921941747189165
7.546651387404857 3.687677212689183 1.6966102182591325 2.1623639564565402
5.5195885326828655 2.9064669859865364 1.0845002533218435 1.5286212933744863
0.37948826951753184 0.07981356428508588 0.09079425699355276 0.20888044823889293
0.1207005632093076 0.1207005632093076 0.0 0.0
0.23545207961311396 0.23542781466641402 1.0145746364015119e-05 1.4119200336005697e-05
0.3671055885056003 0.37207334994126245 -0.0011473093139327353 -0.0038204521217294306
0.6251442505612166 0.5633056445728959 0.018918591271312776 0.04292001471700779
1.0902099306030058 0.6958634242964947 0.12183265342064861 0.27251385288586244
1.7835649013923192 0.8605810387301175 0.3317300099581245 0.5912538527040772
2.681463429554337 1.0256065118384903 0.6464540292507811 1.0094028884650652
3.8523662218484596 1.2110122814908943 1.1051372130214872 1.5362167273360792
5.39893105659738 1.429150559702949 1.754523166037817 2.2152573308566135
7.498506215187909 1.6926386112740954 2.6788823659214507 3.126985237992367
10.520176549644193 2.0220062783622237 4.124316963738099 4.373853307543866
14.607937093918574 2.4070067051940933 6.11827845175628 6.082651936968199
20.147467990113373 2.8225958482414466 9.025200515435307 8.29967162643662
27.01508976494027 3.210100981745389 12.813012375633507 10.99197640756138
34.8094714759118 3.487860329661164 17.31717696981208 14.004434176438556
42.758065740198006 3.5849979972117656 22.143071331300348 17.029996411685893
49.81276709873608 3.4676409976800424 26.6345656539572 19.710560447098857
54.80565119728873 3.2091025034332272 29.97217335828671 21.62437533556879
56.59808868498641 2.885887037933989 31.31434295015393 22.3978586968985
54.805651197284504 3.209102503431168 29.972173358285367 21.62437533556799
49.81276709872887 3.467640997679942 26.634565653952716 19.71056044709621
42.758065740191306 3.5849979972148898 22.143071331294383 17.029996411682017
34.809471475901795 3.4878603296594215 17.317176969807015 14.004434176435353
27.015089764931112 3.2101009817461748 12.81301237562761 10.991976407557335
20.14746799010282 2.8225958482400437 9.025200515430042 8.299671626432737
14.607937093907903 2.407006705193459 6.118278451750683 6.082651936963756
10.520176549633613 2.022006278361248 4.124316963732976 4.373853307539387
7.498506215177976 1.6926386112729415 2.6788823659169307 3.1269852379881033
5.398931056588811 1.4291505597024976 1.7545231660338998 2.215257330852414
3.852366221841616 1.2110122814894273 1.1051372130190367 1.5362167273331513
2.681463429548726 1.0256065118375535 0.6464540292487702 1.0094028884624018
1.7835649013879507 0.8605810387293813 0.3317300099567752 0.5912538527017942
1.0902099306000166 0.6958634242956716 0.12183265341995456 0.27251385288439073
0.6251442505596991 0.5633056445721816 0.01891859127106857 0.0429200147164491
0.36710558850506947 0.37207334994062546 -0.0011473093139069202 -0.00382045212164921
0.23545207961288597 0.2354278146661811 1.0145746364596143e-05 1.4119200340271062e-05
0.1207005632092564 0.1207005632092564 0.0 0.0
0.3794882695162538 0.07981356428552731 0.09079425699292318 0.20888044823780338
5.519588532669825 2.906466985980208 1.0845002533187131 1.5286212933709042
4.066750491083909 2.265969526383826 0.7078309264264644 1.0929500382736204
0.22363717173521142 0.06275975214662588 0.0395595793576525 0.12131784023093278
0.08459031315995444 0.08459031315995444 0.0 0.0
0.17264126088472276 0.17264237311518527 -2.0746257414353945e-07 -9.047678883628789e-07
0.29659744801198556 0.2975712839350364 -0.00012195298916981461 -0.0008518829338809653
0.48183111601186146 0.4731725213753084 0.0017286349699725196 0.006929959666580471
0.8580043091687223 0.6445500707582009 0.06362875768339968 0.14982548072712173
1.435817478948346 0.784018989311544 0.22149295535436106 0.43030553428244084
2.208580808223733 0.9403922453521664 0.47654915322814473 0.7916394096434215
3.203040733567664 1.1101861677438276 0.8482723914433634 1.244582174380473
4.494300918267572 1.3023967198417594 1.3652440530443275 1.8266601453814848
6.2821964578528355 1.5372590896778366 2.1426062380077777 2.602331130167222
8.752030306036383 1.8208536432531328 3.2576212254844163 3.673555437298836
12.334056245202174 2.1604455456726646 5.032291630314855 5.141319069214654
17.06127206723152 2.527194436739633 7.448649824304418 7.085427806187463
22.962635334992918 2.8733746121986576 10.61805085564755 9.471209867146712
29.81438032691063 3.142985628971017 14.522037024348545 12.149357673591071
36.871546251399224 3.270525985440174 18.714017384536916 14.887002881422134
43.207115476155614 3.206993181777585 22.645533161019973 17.354589133358058
47.75779251487381 2.9948221782897484 25.606582999821782 19.15638733676227
49.40220489332874 2.614577537877367 26.891972842828277 19.89565451262308
47.75779251487353 2.994822178292613 25.60658299981984 19.156387336761075
43.20711547614832 3.20699318177516 22.645533161016935 17.35458913335622
36.871546251389326 3.270525985437575 18.71401738453246 14.887002881419281
29.814380326901613 3.142985628969463 14.522037024344066 12.14935767358809
22.962635334983354 2.8733746121979458 10.618050855642363 9.47120986714304
17.061272067222113 2.5271944367378345 7.448649824300102 7.085427806184175
12.334056245193242 2.160445545672258 5.032291630310207 5.141319069210775
8.752030306027327 1.8208536432520215 3.257621225480263 3.673555437295047
6.2821964578440905 1.5372590896761082 2.142606238004327 2.602331130163656
4.494300918259921 1.3023967198405015 1.3652440530413226 1.826660145378098
3.203040733561828 1.1101861677430163 0.8482723914411054 1.2445821743777057
2.2085808082190472 0.9403922453513993 0.47654915322659336 0.7916394096410547
1.4358174789447458 0.7840189893107576 0.2214929553533004 0.4303055342806878
0.8580043091662756 0.6445500707571762 0.06362875768290334 0.14982548072619584
0.48183111601071377 0.4731725213743573 0.0017286349699106647 0.006929959666445767
0.2965974480115662 0.297571283934602 -0.00012195298916930079 -0.0008518829338665157
0.17264126088451665 0.17264237311498015 -2.0746257418463764e-07 -9.047678893264398e-07
0.08459031315988814 0.08459031315988814 0.0 0.0
0.22363717173407233 0.06275975214687736 0.0395595793571765 0.12131784023001821
4.066750491073749 2.26596952637901 0.7078309264241681 1.092950038270571
2.9401489752241683 1.7422048863237476 0.43656185013515864 0.7613822387652625
0.17982476457307367 0.11214237020359194 0.021445199156952498 0.04623719521252921
0.07592735298497999 0.07592735298497999 0.0 0.0
0.1315121150624794 0.1315121150624794 0.0 0.0
0.23816957072357425 0.2378113572034345 6.265377292168604e-05 0.00029555974721811934
0.3782702615072659 0.3865659406902594 -0.002144985181503783 -0.006150694001489693
0.6511517724142346 0.5726460214224742 0.025947773595646106 0.05255797739611427
1.1074099303198237 0.7033771875393476 0.1272249542750682 0.2768077885054072
1.7557014278048282 0.8488706622631902 0.3243459777221665 0.5824847878194723
2.579657925802691 1.0027207653792047 0.611601250449068 0.9653359099744181
3.651811592719575 1.1749441645533576 1.0243451631983689 1.45252226496785
5.109563113239676 1.3785664499636268 1.6321421832110166 2.098854480065033
7.184924461734045 1.6273039325071321 2.566714703584331 2.990905825642583
10.04711156421332 1.9170483890735224 3.894692735526513 4.235370439613281
14.045955228924011 2.232437272294871 5.921913408116867 5.8916045485122766
19.11628682268112 2.544385996548867 8.622170336962832 7.9497304891694185
24.93949930193324 2.807157344316798 11.830018765359087 10.30232319225735
31.092469487637153 2.962902315171772 15.399320507237974 12.730246665227405
36.745562819315495 2.9569977136422816 18.831652591309883 14.956912514363314
40.931143931187975 2.7858048772939297 21.50818779823294 16.637151255661102
42.465370668003494 2.33922896493712 22.73338143825508 17.392760264811294
40.93114393118576 2.7858048772958024 21.50818779823039 16.63715125565956
36.74556281930987 2.9569977136396206 18.831652591308096 14.956912514362154
31.092469487632172 2.9629023151719402 15.399320507234858 12.730246665225367
24.9394993019267 2.8071573443176283 11.83001876535474 10.302323192254331
19.116286822672897 2.5443859965470534 8.622170336959172 7.949730489166678
14.045955228917341 2.23243727229499 5.921913408113108 5.891604548509242
10.047111564206148 1.9170483890738796 3.894692735522518 4.23537043960975
7.184924461726421 1.6273039325057064 2.5667147035812117 2.990905825639502
5.109563113232694 1.3785664499623824 1.6321421832082605 2.098854480062051
3.6518115927130887 1.174944164551918 1.024345163196041 1.4525222649651286
2.579657925797707 1.002720765378549 0.6116012504472161 0.9653359099719429
1.7557014278007415 0.8488706622624183 0.32434597772086055 0.5824847878174629
1.1074099303169065 0.7033771875387217 0.1272249542742594 0.2768077885039251
0.6511517724124343 0.5726460214215805 0.02594777359533457 0.05255797739551918
0.3782702615065138 0.3865659406893682 -0.0021449851814681316 -0.00615069400138619
0.23816957072322414 0.23781135720306967 6.265377292273318e-05 0.0002955597472317761
0.13151211506228286 0.13151211506228286 0.0 0.0
0.0759273529847871 0.0759273529847871 0.0 0.0
0.17982476457194344 0.11214237020353243 0.021445199156526363 0.04623719521188453
2.940148975216532 1.742204886320276 0.43656185013347254 0.7613822387627832
2.0871336705538224 1.3430791148787182 0.25360830330738754 0.49044625236771683
0.14600961383660463 0.14145180352604875 -0.0036843370746584446 0.008242147385214229
0.0853683589809753 0.0853683589809753 0.0 0.0
0.11091396140731202 0.11091396140731202 0.0 0.0
0.19291445532317494 0.19281996557851386 8.906198487426528e-06 8.558354617364152e-05
0.3020825473223056 0.30454876487843974 -0.0005204329841502781 -0.0019457845719837669
0.4762125789739786 0.4614733777658453 0.0015756328871087257 0.013163568321024574
0.826804419615513 0.6364940907187553 0.06583147295078781 0.1244788559459697
1.3137278273468649 0.7407019216532991 0.18743911507963454 0.38558679061393164
1.9952858888177372 0.890590349512798 0.40666883185439884 0.6980267074505409
2.8514793796835325 1.0415508362605401 0.7154842480207971 1.094444295402195
4.002641577413157 1.2163930300078727 1.1686559604974047 1.6175925869078802
5.626976498688201 1.4285217490460091 1.8597263863217453 2.338728363320448
7.9720889226401015 1.6764330826864753 2.943602820548661 3.352053019404966
11.167856595564539 1.950066759861142 4.491807835539468 4.725982000163924
15.267684447470035 2.219150815676729 6.592853556456807 6.455680075336501
20.236802784316513 2.46763492782299 9.322609800013709 8.446558056479823
25.462130643503034 2.656786175010392 12.243714427115174 10.561630041377462
30.379585819638997 2.710897528621375 15.108987740234797 12.559700550782821
34.247784208132636 2.58170373837362 17.539006313224164 14.127074156534851
35.70632036628674 2.0630131898206834 18.74517548596844 14.898131690497618
34.247784208130305 2.5817037383738786 17.539006313222572 14.127074156533856
30.379585819636947 2.71089752862255 15.108987740232857 12.559700550781542
25.462130643498078 2.656786175011318 12.243714427111682 10.56163004137509
20.236802784308544 2.4676349278212037 9.322609800010122 8.446558056477219
15.26768444746561 2.2191508156783684 6.592853556453436 6.455680075333808
11.167856595557856 1.9500667598601578 4.491807835536383 4.725982000161309
7.9720889226331275 1.67643308268462 2.943602820546039 3.3520530194024696
5.626976498682498 1.4285217490455957 1.8597263863191453 2.3387283633177587
4.002641577407354 1.2163930300066148 1.1686559604953002 1.6175925869054386
2.8514793796786306 1.041550836259901 0.7154842480189282 1.0944442953998
1.9952858888135556 0.8905903495119768 0.40666883185301395 0.6980267074485649
1.3137278273437376 0.7407019216524873 0.1874391150788192 0.3855867906124314
0.8268044196131332 0.6364940907179326 0.06583147295020163 0.12447885594499891
0.476212578972784 0.46147337776491887 0.0015756328870330679 0.013163568320832028
0.30208254732170803 0.30454876487775706 -0.000520432984134594 -0.001945784571914395
0.19291445532286244 0.19281996557821052 8.906198486428142e-06 8.558354616546122e-05
0.1109139614070657 0.1109139614070657 0.0 0.0
0.08536835898072524 0.08536835898072524 0.0 0.0
0.14600961383568167 0.14145180352575076 -0.0036843370748845094 0.00824214738481549
2.087133670548419 1.3430791148762449 0.25360830330633577 0.49044625236583833
1.4292688313748492 1.0171885958128815 0.1239547475330513 0.2881254880289162
0.1426171894103164 0.17268980493775035 -0.010546187963857626 -0.01952642756357628
0.10388859250858355 0.10388859250858355 0.0 0.0
0.10656285744736056 0.10656285744736056 0.0 0.0
0.16187066991527477 0.1617845270655633 7.828390201934371e-06 7.831445950952713e-05
0.24338630014837206 0.24425912950539294 -9.65455346631648e-05 -0.0007762838223576798
0.3587573898073633 0.37144190652254616 -0.0035132175912328248 -0.009171299123950037
0.5637725006737556 0.506167722910909 0.011607932002810632 0.04599684576003602
0.9492876960453048 0.6656761994482144 0.10053896590909583 0.18307253068799467
1.4295484800071254 0.7603020094586146 0.22378340389072093 0.44546306665779045
2.1035785559377445 0.9014979756009825 0.4478041712954324 0.7542764090413289
2.979015725443365 1.0502508959464132 0.7702330971028152 1.1585317323941375
4.201069121092995 1.2279646881103923 1.2574951797049345 1.7156092532776674
5.964453107588338 1.4353073951861508 2.0241058271919865 2.5050398852101994
8.422968437007837 1.6632541172757533 3.167104879948403 3.5926094397836796
11.722825314300447 1.9056989996314315 4.833897231787597 4.98322908288142
15.532190145178609 2.130665919118347 6.773601374441107 6.627922851619154
19.890677202447485 2.3343037743936303 9.174731697068388 8.381641730985464
24.219125835737756 2.457616964631896 11.64111352612332 10.120395344982544
27.73249781019778 2.384349564684169 13.753896807035886 11.594251438477722
29.1581656152431 1.791276449584331 14.964996033560313 12.401893132098452
27.732497810197444 2.3843495646853987 13.753896807034964 11.594251438477086
24.219125835733823 2.457616964631146 11.641113526121414 10.120395344981258
19.890677202441733 2.334303774391948 9.174731697066003 8.381641730983777
15.532190145173084 2.1306659191166535 6.773601374438957 6.627922851617471
11.722825314294859 1.9056989996314986 4.8338972317844835 4.98322908287888
8.422968437004 1.6632541172759885 3.16710487994632 3.592609439781687
5.96445310758382 1.4353073951848254 2.0241058271904073 2.5050398852085887
4.201069121088434 1.227964688110213 1.2574951797028506 1.715609253275369
2.9790157254390284 1.0502508959454138 0.7702330971013239 1.1585317323922901
2.103578555933751 0.9014979756004061 0.44780417129399114 0.7542764090393542
1.4295484800040743 0.7603020094578916 0.2237834038898424 0.4454630666563401
0.9492876960430822 0.6656761994476913 0.10053896590842841 0.18307253068696258
0.563772500672301 0.5061677229099791 0.011607932002638228 0.0459968457596837
0.3587573898065852 0.3714419065216839 -0.0035132175912185506 -0.0091712991238801
0.24338630014792376 0.24425912950491485 -9.654553465666197e-05 -0.0007762838223343983
0.1618706699149794 0.16178452706527652 7.82839020086291e-06 7.83144595019974e-05
0.10656285744707035 0.10656285744707035 0.0 0.0
0.10388859250836677 0.10388859250836677 0.0 0.0
0.14261718940978457 0.17268980493739589 -0.010546187963910814 -0.01952642756370052
1.4292688313710686 1.017188595811053 0.12395474753242594 0.28812548802758914
0.977192513084978 0.8311167335544618 0.04883691766397519 0.09723886186654099
0.14373408072086394 0.16644211426956373 -0.007353320891289046 -0.015354712657410806
0.12500431622428188 0.12500431622428188 0.0 0.0
0.11330918636802156 0.11330918636802156 0.0 0.0
0.14460627165550077 0.1445838595443206 1.8172994548582708e-06 2.0594811725311177e-05
0.20016237525928302 0.2001179531657133 6.052758745100029e-06 3.836933482461185e-05
0.2742670577849109 0.2803397253633201 -0.0012512202625983247 -0.004821447315810883
0.3897914119121992 0.38773798012128274 -0.0014553723690411172 0.0035088041599575597
0.5947627960190588 0.5163427868960282 0.01789797523502452 0.06052203388800605
0.9556691443399964 0.6508226700728889 0.1058740205784232 0.1989724536886845
1.4074069656580233 0.7499057988684692 0.22590360767360884 0.43159755911594505
2.024948514675058 0.8700440931946327 0.4265893582640553 0.7283150632163701
2.8890079564731503 1.0183401721715752 0.7433366602051268 1.1273311240964485
4.127776721023105 1.186314186741707 1.2414517979024284 1.7000107363789705
5.910679563806993 1.378694727743631 2.031315040626177 2.5006697954371857
8.264784702449983 1.582099091130582 3.129795262492147 3.552890348827253
11.240725874355148 1.79353903451503 4.633381534633957 4.813805305206159
14.562080438584545 2.0022862497468465 6.331458502645111 6.2283356861925805
18.02595952067676 2.173406319258988 8.172032732239611 7.680520469178165
21.24581063153968 2.1801949874246604 10.041390819568928 9.024224824546097
22.687059381553357 1.5199725154520478 11.28621842000042 9.880868446100886
21.245810631539307 2.1801949874256557 10.04139081956811 9.024224824545533
18.025959520676814 2.1734063192617348 8.172032732238053 7.680520469177027
14.562080438581498 2.002286249746143 6.331458502643809 6.228335686191547
11.240725874351421 1.7935390345144056 4.63338153463226 4.813805305204751
8.26478470244542 1.5820990911293702 3.1297952624903775 3.5528903488256725
5.910679563803586 1.378694727743885 2.0313150406243525 2.500669795435347
4.127776721019051 1.1863141867395293 1.2414517979015203 1.7000107363780006
2.8890079564700653 1.018340172171397 0.7433366602038325 1.1273311240948356
2.024948514671984 0.8700440931941418 0.42658935826297606 0.728315063214865
1.4074069656552468 0.7499057988678905 0.22590360767278797 0.4315975591145684
0.9556691443379356 0.6508226700723929 0.10587402057780694 0.19897245368773575
0.5947627960175007 0.516342786895421 0.017897975234727262 0.06052203388735237
0.3897914119113589 0.38773798012045346 -0.0014553723690353293 0.003508804159940738
0.27426705778436933 0.28033972536268614 -0.0012512202625793317 -0.004821447315737519
0.20016237525894134 0.2001179531653527 6.052758746180462e-06 3.836933484245664e-05
0.14460627165523224 0.14458385954405908 1.817299454299904e-06 2.0594811718880137e-05
0.11330918636769924 0.11330918636769924 0.0 0.0
0.12500431622399114 0.12500431622399114 0.0 0.0
0.14373408072044463 0.16644211426885727 -0.007353320891204122 -0.015354712657208506
0.9771925130824038 0.8311167335532974 0.04883691766349289 0.09723886186561398
0.6511491157012059 0.6247683828021442 0.006297968799202504 0.020082764099859398
0.1511164296921687 0.15483459082546544 -0.0008703934475124861 -0.002847767685784271
0.14461840287070882 0.1447191021679996 -8.195463380971078e-06 -9.250383390982974e-05
0.1264459455958335 0.1264459455958335 0.0 0.0
0.1387369934181233 0.13872796508078017 2.549862235143415e-07 8.77335111961922e-06
0.1723184471335417 0.17191741642854091 5.71716004888338e-05 0.0003438591045119141
0.2164614461782584 0.21655858827715507 4.574194770809769e-05 -0.00014288404660473957
0.2765941371718696 0.2916745568509709 -0.003335920041550507 -0.011744499637550742
0.36924038192811937 0.3668977916576023 -0.0005593354836429245 0.002901925754159979
0.5324683303872509 0.4798695954190414 0.01489961213597936 0.03769912283223025
0.7914264041087246 0.5651626750818661 0.0638434988143479 0.16242023021251067
1.1674131244591879 0.6685220904294922 0.16127795491828267 0.33761307911141303
1.7005524718114533 0.7849885804432406 0.32702974411609065 0.5885341472521224
2.469252910818377 0.9156357197412666 0.5984371369756136 0.9551800541014964
3.5905883551649995 1.0684967108068109 1.0437842340475678 1.4783074103106202
5.137903737047621 1.2371679979595567 1.7167201645545562 2.1840155745335084
7.130983710525193 1.4310650554964004 2.6314603266974093 3.068458328331383
9.479107054644356 1.6251757186776299 3.7511127120778878 4.102818623888839
12.146052906515344 1.8313243891150683 5.074511158556678 5.240217358843596
14.992143001916022 1.959052934086638 6.609076089385578 6.4240139784438055
16.413826101461265 1.2624066535115928 7.757395162173293 7.394024285776383
14.992143001915316 1.9590529340859504 6.609076089385559 6.424013978443808
12.1460529065119 1.8313243891132422 5.074511158555766 5.240217358842891
9.479107054642094 1.625175718677551 3.7511127120766794 4.102818623887861
7.1309837105221225 1.4310650554957314 2.631460326696177 3.0684583283302183
5.137903737045 1.2371679979587709 1.7167201645536418 2.184015574532586
3.5905883551630104 1.0684967108073173 1.043784234046379 1.4783074103093146
2.4692529108171546 0.9156357197402537 0.5984371369755581 0.9551800541013435
1.7005524718094787 0.7849885804428046 0.3270297441155002 0.5885341472511739
1.1674131244574268 0.6685220904292639 0.1612779549177032 0.33761307911045996
0.7914264041069562 0.5651626750814224 0.06384349881388429 0.1624202302116496
0.5324683303862577 0.47986959541860236 0.014899612135805224 0.03769912283185008
0.3692403819273855 0.36689779165685865 -0.0005593354836428687 0.0029019257541697766
0.27659413717147313 0.2916745568505231 -0.003335920041535076 -0.011744499637514883
0.21646144617772878 0.21655858827659175 4.5741947714221236e-05 -0.00014288404657718026
0.17231844713313652 0.17191741642811917 5.717160048947009e-05 0.00034385910452787254
0.138736993417829 0.13872796508049282 2.5498622295421426e-07 8.773351113255556e-06
0.12644594559550512 0.12644594559550512 0.0 0.0
0.1446184028703745 0.14471910216764924 -8.195463379370206e-06 -9.250383389538218e-05
0.15111642969172545 0.15483459082496182 -0.0008703934474968733 -0.002847767685739513
0.6511491156997304 0.6247683828009888 0.006297968799093926 0.020082764099647876
0.4530919092298714 0.4592969528650287 -0.0010284565283978054 -0.00517658710675956
0.1531790529359302 0.15230233162376927 0.0001416314793506401 0.0007350898328102752
0.15969928930977623 0.15973371470532083 -2.281992438070464e-06 -3.2143403106540925e-05
0.14201061554605052 0.14201061554605052 0.0 0.0
0.14169101780919108 0.14161909673686815 6.634304785623763e-06 6.528676753730804e-05
0.15903831019604575 0.1591226872206428 -3.60487358258856e-06 -8.07721510144646e-05
0.18371214744489847 0.18414465326762733 -4.7167554159993356e-05 -0.0003853382685688896
0.20914923575610042 0.2134964007393739 -0.0008827142956851122 -0.0034644506875883565
0.24150349625421105 0.2396552673496152 -0.00010927810882989608 0.0019575070134258323
0.2850518910698278 0.2680274623994373 0.003343645143651859 0.013680783526738585
0.3725814456944183 0.3451098591548518 0.011158326687366509 0.016313259852200074
0.5007822499399084 0.40184361548057423 0.025871696929011756 0.07306693753032246
0.7154943419301961 0.482929580549994 0.06936534228279563 0.16319941909740623
1.0645331578436654 0.5944190002578392 0.1569944533921 0.3131197041937262
1.5996443814377639 0.69211206536247 0.32708636194722285 0.5804459541280712
2.3875230099317886 0.8037201878126945 0.6124983567562763 0.9713044653628182
3.4954497136232385 0.9580326834001316 1.048207284214735 1.4892097460083717
4.994174557257857 1.1486221947501418 1.6933648165606647 2.152187545947049
6.775578841018389 1.3325888172885891 2.50220515470406 2.940784869025739
8.942434158780122 1.597983244694678 3.4828893367678813 3.861561577317561
10.692985534676831 1.022250959343105 4.735726835783412 4.93500773955031
8.942434158780424 1.5979832446935927 3.4828893367686176 3.861561577318211
6.775578841018399 1.3325888172883338 2.502205154704181 2.940784869025885
4.994174557256216 1.1486221947501138 1.6933648165598383 2.1521875459462647
3.495449713620448 0.9580326833984506 1.0482072842141716 1.4892097460078264
2.387523009930808 0.8037201878124565 0.6124983567559674 0.9713044653623832
1.5996443814368828 0.6921120653625954 0.3270863619468124 0.5804459541274752
1.0645331578435355 0.5944190002578853 0.15699445339205137 0.3131197041935985
0.7154943419294506 0.4829295805497932 0.06936534228259085 0.1631994190970667
0.5007822499390815 0.40184361548042496 0.025871696928768798 0.07306693752988767
0.37258144569370655 0.34510985915435505 0.011158326687288864 0.01631325985206262
0.2850518910694634 0.2680274623992516 0.0033436451436124823 0.013680783526599315
0.24150349625411882 0.23965526734947773 -0.00010927810882424408 0.001957507013465338
0.20914923575579195 0.2134964007390535 -0.0008827142956806569 -0.0034644506875809535
0.18371214744457498 0.18414465326727394 -4.716755415570341e-05 -0.00038533826854328997
0.15903831019559392 0.15912268722017134 -3.604873580517767e-06 -8.07721509969055e-05
0.14169101780885437 0.14161909673653894 6.634304784765777e-06 6.528676753071895e-05
0.14201061554568675 0.14201061554568675 0.0 0.0
0.15969928930944574 0.15973371470497807 -2.2819924370101156e-06 -3.214340309535219e-05
0.15317905293557674 0.15230233162343412 0.00014163147934767882 0.0007350898327949224
0.4530919092289893 0.45929695286406813 -0.0010284565283815038 -0.005176587106697388
0.31196911590036475 0.31170682506046915 3.299210283869165e-05 0.00022929873705692912
0.1493364377086344 0.14934703883661826 -2.3468567167310386e-06 -8.254271267126989e-06
0.16873377875378942 0.168812575948189 -6.824361895284084e-06 -7.197283250431845e-05
0.1569110424911207 0.15694718957579842 -2.5788110146112936e-06 -3.356827366314893e-05
0.15085918840946158 0.15084411409171553 2.0553473429290935e-06 1.3018970403105077e-05
0.1591048509911802 0.15913710977043855 2.19443135302791e-06 -3.445321061137496e-05
0.17463311183079414 0.17528288074097392 -8.470487422678322e-05 -0.000565064035953009
0.1886590987327277 0.18925459116355312 -0.00015251475947134115 -0.00044297767135406565
0.19611617464032777 0.20193980738204156 -0.0012711312446287962 -0.00455250149708495
0.20977793634764227 0.1965408696697593 0.0027347672952702465 0.010502299382612663
0.22679293663599745 0.20512874455548005 0.007094677317080506 0.014569514763436969
0.25930191114488776 0.1929048614693558 0.01727713071058637 0.04911991896494562
0.2995465985095187 0.18360960339952553 0.03234075286261478 0.08359624224737836
0.3646208147138653 0.16870128749945465 0.061159042423539714 0.13476048479087085
0.4862967922742738 0.1840952502833545 0.10713312228140792 0.19506841970951178
0.6944354646385027 0.22868987453079023 0.173629581002523 0.29211600910518903
1.0398163370500222 0.26306315669310243 0.30194942474508657 0.4748037556118327
1.5896501558128602 0.2630142033325488 0.534563033800323 0.7920729186799889
2.4901480104383453 0.3778794080115184 0.89737295992933 1.2148956424974977
4.090068291188931 0.8741845599206469 1.3896141171726637 1.8262696140956214
6.6949036616704465 0.7842047346177019 2.7059747314035905 3.2047241956491535
4.090068291192457 0.874184559922435 1.3896141171736018 1.8262696140964207
2.490148010438373 0.3778794080114976 0.8973729599293497 1.2148956424975248
1.5896501558113592 0.2630142033319831 0.5345630337999057 0.7920729186794707
1.0398163370496316 0.26306315669300157 0.3019494247448926 0.4748037556117376
0.6944354646378231 0.22868987453053924 0.17362958100233095 0.2921160091049534
0.4862967922733882 0.18409525028264123 0.10713312228132532 0.19506841970942168
0.3646208147136377 0.1687012874992315 0.06115904242353412 0.13476048479087205
0.2995465985093746 0.1836096033997352 0.03234075286250952 0.08359624224712986
0.2593019111442295 0.19290486146920283 0.017277130710515363 0.049119918964511275
0.226792936635762 0.20512874455546465 0.007094677316981488 0.01456951476331588
0.20977793634746608 0.1965408696696506 0.0027347672952550443 0.010502299382560452
0.1961161746402646 0.20193980738198403 -0.0012711312446296657 -0.00455250149708983
0.18865909873245207 0.18925459116323098 -0.00015251475946264706 -0.000442977671316245
0.17463311183049526 0.1752828807406535 -8.47048742239088e-05 -0.0005650640359342689
0.15910485099076524 0.15913710977000395 2.1944313549771556e-06 -3.445321059367567e-05
0.15085918840914736 0.150844114091395 2.0553473433322507e-06 1.3018970409013375e-05
0.1569110424907053 0.15694718957537523 -2.5788110138589306e-06 -3.3568273656049957e-05
0.1687337787534282 0.1688125759478187 -6.824361894285506e-06 -7.19728324962014e-05
0.14933643770837116 0.14934703883636063 -2.3468567171188603e-06 -8.25427127238769e-06
0.311969115899695 0.3117068250597816 3.2992102839009944e-05 0.00022929873707435794
0.2086543211932883 0.2086543211932883 0.0 0.0
0.138847042139419 0.13885479874743964 -6.416713336762902e-07 -7.114936686946431e-06
0.17121930654196474 0.17117390052126466 3.5521755465659176e-06 4.185384515343439e-05
0.16904673451548732 0.16910255094167428 -4.477284794513158e-06 -5.133914139245427e-05
0.16403301274660514 0.16398547841931704 7.508383691118098e-06 4.0025943596957376e-05
0.17135629019901738 0.17119338075218068 2.972100390691209e-05 0.00013318844292978442
0.1887980449439861 0.19002534459070292 -0.00016131895827561874 -0.0010659806884411862
0.21025248672378744 0.21487064192359084 -0.0009308041546866183 -0.0036873510451167907
0.24114138996894013 0.23933777789511754 -0.00010720196263363756 0.0019108140364562415
0.28443476986607147 0.26760471323506047 0.003282766003159307 0.013547290627851616
0.3717377266818748 0.3443458435823925 0.0107807678842201 0.016611115215262255
0.5017260529617884 0.4030149111738378 0.027079162097518067 0.07163197969043252
0.7165429995938111 0.48387425046907706 0.06946898122474854 0.16319976789998528
1.0679522137053203 0.5966347606821827 0.15770601410982302 0.3136114389133153
1.59238294154241 0.6883933564622194 0.3259507506833574 0.5780388343968335
2.300053639205392 0.7828411630882295 0.5867418278481855 0.9304706482689763
3.0903756416098864 0.8726664946731904 0.9030863543083874 1.3146227926283078
3.7782711893557503 0.9304901813989379 1.2317451888753703 1.6160358190814417
4.057873921108852 0.9387299671241833 1.3836609394178863 1.7354830145667834
3.4057289603226697 0.4851202239337487 1.3224198027931018 1.5981889335958206
6.734794497673326 1.381912700580931 2.3927802289015343 2.960101568190858
3.4057289603211762 0.4851202239312219 1.3224198027936755 1.598188933596277
4.057873921109577 0.9387299671243994 1.3836609394181372 1.735483014567041
3.7782711893538354 0.9304901813989768 1.2317451888744038 1.6160358190804562
3.090375641608534 0.8726664946740328 0.9030863543073757 1.3146227926271261
2.300053639204603 0.7828411630886614 0.5867418278476906 0.9304706482682512
1.5923829415415505 0.68839335646278 0.3259507506828053 0.5780388343959655
1.067952213704155 0.5966347606820529 0.15770601410942175 0.3136114389126807
0.7165429995922294 0.4838742504684977 0.06946898122435649 0.16319976789937526
0.5017260529606108 0.40301491117350746 0.027079162097220794 0.07163197968988255
0.3717377266805185 0.34434584358137155 0.01078076788409566 0.016611115215051445
0.284434769865611 0.26760471323463375 0.0032827660031584356 0.013547290627818804
0.24114138996858622 0.2393377778948459 -0.00010720196265361385 0.0019108140363940443
0.21025248672341823 0.2148706419231525 -0.000930804154670774 -0.003687351045063576
0.1887980449436356 0.19002534459031464 -0.00016131895826979457 -0.0010659806884092213
0.1713562901986416 0.17119338075179188 2.9721003907639913e-05 0.00013318844294204826
0.16403301274622492 0.1639854784189206 7.508383692202177e-06 4.002594361213402e-05
0.16904673451507912 0.16910255094124532 -4.47728479277181e-06 -5.133914137345498e-05
0.17121930654161407 0.17117390052092574 3.552175545517957e-06 4.185384514281073e-05
0.13884704213912755 0.13885479874714698 -6.416713335551483e-07 -7.114936685872767e-06
0.20865432119285543 0.20865432119285543 0.0 0.0
0.13425514535086486 0.13425514535086486 0.0 0.0
0.12299714733674567 0.12299714733674567 0.0 0.0
0.16719260615643852 0.1671693926970611 1.88827716884134e-06 2.1325182208540644e-05
0.1772860040208914 0.1772404703824721 6.741537791932319e-06 3.879210062737888e-05
0.1796759844525765 0.17995289894881886 -2.658144819851299e-05 -0.00025033304804387285
0.1946813430279202 0.19542874324637563 -8.906184876859221e-05 -0.0006583383696868605
0.22517566430210637 0.2238623807255352 0.0002555284229722095 0.0010577551535990335
0.2785204260420144 0.29365254754330367 -0.0033598856474071326 -0.011772235853882108
0.3685878668614633 0.36614987210385425 -0.00050879240960503 0.0029467871672141516
0.5313615311752342 0.47937084842476885 0.014672244886292029 0.03731843786417341
0.7905701258503066 0.5649481941833755 0.06358424571487026 0.1620376859520611
1.1669262447169269 0.668466768757835 0.16111567953264258 0.3373437964264495
1.7008893229846935 0.7852267639625974 0.3271500175373836 0.5885125414847125
2.4720471750385276 0.9161581030704292 0.5996663319296414 0.9562227400384566
3.5884859594061513 1.065793403965656 1.04467207804787 1.4780204773926244
5.064439180527382 1.2160235053027812 1.6917167310479704 2.1566989441766307
6.756546457428179 1.3549104948908375 2.477052872215972 2.924583090321369
8.335200161133848 1.4787935859052845 3.21181924524252 3.6445873299860434
9.30101871350563 1.5305527689603284 3.7028830505914936 4.067582893953803
8.751599524341808 1.5588172593344762 3.467016964718669 3.725765300288664
10.332536782827187 3.0386146270033394 3.4333072688075954 3.860614887016251
8.751599524346615 1.558817259337547 3.46701696471962 3.7257653002894497
9.301018713505618 1.5305527689599279 3.702883050591697 4.067582893953995
8.335200161132384 1.4787935859060637 3.2118192452413092 3.644587329985013
6.756546457425932 1.3549104948911264 2.4770528722146774 2.9245830903201253
5.064439180523337 1.2160235053009676 1.6917167310468677 2.1566989441755027
3.5884859594029304 1.0657934039648629 1.0446720780467156 1.478020477391352
2.4720471750358097 0.9161581030701131 0.5996663319285865 0.9562227400371102
1.7008893229817001 0.785226763961988 0.3271500175364347 0.5885125414832778
1.1669262447138067 0.6684667687571666 0.16111567953172248 0.3373437964249174
0.7905701258481022 0.5649481941829573 0.06358424571425136 0.16203768595089335
0.5313615311736622 0.47937084842390376 0.014672244886059595 0.03731843786369882
0.36858786686076606 0.3661498721031168 -0.0005087924095873611 0.002946787167236553
0.27852042604147015 0.2936525475427727 -0.0033598856474052327 -0.011772235853897249
0.22517566430159486 0.2238623807249833 0.0002555284229792945 0.0010577551536323116
0.1946813430274393 0.19542874324586326 -8.906184876391693e-05 -0.0006583383696600243
0.1796759844521374 0.17995289894835856 -2.6581448195931356e-05 -0.00025033304802520766
0.17728600402046749 0.17724047038203172 6.741537792735469e-06 3.879210064301524e-05
0.16719260615610884 0.1671693926967381 1.8882771683331395e-06 2.1325182202372398e-05
0.12299714733649783 0.12299714733649783 0.0 0.0
0.13425514535060365 0.13425514535060365 0.0 0.0
0.08263643860978104 0.08263643860978104 0.0 0.0
0.10395458452136705 0.10395458452136705 0.0 0.0
0.1573650334674117 0.15735727674837524 4.7276083499528125e-07 7.283958201470016e-06
0.18145349371499722 0.18146142381921018 -4.521355835348512e-07 -7.477968629409893e-06
0.19708726372523555 0.19717881189405045 -8.726735944573644e-06 -8.282143287035757e-05
0.22756304585449094 0.2263859725279734 0.00019298803601259444 0.0009840852905049465
0.286051303668403 0.295829667426613 -0.001929324591962548 -0.007849039166247487
0.3923416817688353 0.39001092604413845 -0.0011910893657990662 0.0035218450904958504
0.5939425944605994 0.5160061111349497 0.01773443222921049 0.060202051096439294
0.954681356533813 0.6507890681003817 0.10577333575441149 0.19811895267901952
1.4062407999075164 0.7496017709112028 0.22452195142555909 0.43211707757075474
2.024335478010877 0.8699197106095024 0.4264122133697381 0.7280035540316367
2.887319659348232 1.0181322476505548 0.742685029973029 1.1265023817246484
4.126434107492805 1.1867457774209493 1.2406783544182316 1.6990099756536226
5.9082245801758955 1.377733811507535 2.030740854845317 2.499749913823044
8.213703286104817 1.5640981534935419 3.1128699952772063 3.5367351373340674
10.97339784363534 1.7337470344329877 4.521134292316898 4.718516516885453
13.607694058743757 1.8448333205191425 5.887489021460219 5.8753717167643895
15.227696125794447 1.833575613676544 6.7987953434310375 6.595325168686866
14.259789720319402 1.6947760202050492 6.339447460513728 6.225566239600624
15.958306627275267 4.856818170694154 5.518453664220537 5.583034792360579
14.259789720320324 1.6947760202035633 6.339447460515089 6.225566239601671
15.227696125793356 1.833575613675787 6.7987953434308555 6.595325168686714
13.607694058739945 1.844833320517953 5.88748902145876 5.8753717167632304
10.973397843628376 1.733747034430137 4.521134292314641 4.7185165168835965
8.213703286099971 1.5640981534930924 3.112869995274916 3.536735137331962
5.908224580172204 1.377733811506857 2.030740854843826 2.4997499138215185
4.126434107488587 1.1867457774208425 1.24067835441625 1.6990099756514945
2.887319659344263 1.0181322476498056 0.7426850299715932 1.126502381722864
2.0243354780066336 0.8699197106089829 0.4264122133681975 0.7280035540294529
1.4062407999032978 0.7496017709101893 0.22452195142438547 0.43211707756872286
0.9546813565310579 0.6507890680997197 0.10577333575358046 0.19811895267775775
0.5939425944586966 0.5160061111339961 0.017734432228911086 0.06020205109578915
0.3923416817678586 0.39001092604312854 -0.0011910893657996159 0.0035218450905298787
0.28605130366772763 0.2958296674258356 -0.0019293245919365272 -0.007849039166171528
0.22756304585394596 0.2263859725274212 0.00019298803601154314 0.0009840852905131552
0.19708726372484578 0.19717881189364506 -8.726735943247965e-06 -8.282143285599838e-05
0.18145349371461575 0.18146142381882355 -4.521355831248496e-07 -7.477968624652542e-06
0.15736503346705277 0.15735727674801928 4.727608347461193e-07 7.2839581987408026e-06
0.10395458452118796 0.10395458452118796 0.0 0.0
0.08263643860960503 0.08263643860960503 0.0 0.0
0.048258101433739625 0.048258101433739625 0.0 0.0
0.08387940895476892 0.08387940895476892 0.0 0.0
0.1431485146632053 0.1431485146632053 0.0 0.0
0.182065504833346 0.18193401828347616 1.3736583309134642e-05 0.00011774996656073778
0.2159509953881707 0.21617299448207086 -1.8858699178954403e-05 -0.00020314039472115635
0.27079746702953683 0.2745179061081129 -0.0005889146183235978 -0.003131524460252554
0.36921440778228287 0.3771151520555279 -0.002582454949048619 -0.0053182893241966
0.5661517242517082 0.5069459269428163 0.012280624196129644 0.04692517311276241
0.948620104271761 0.665721085409923 0.10025027531570585 0.18264874354613206
1.4287035864604898 0.7603887338228025 0.22326828136633595 0.44504657127135117
2.1034235863265316 0.9015553061063957 0.4479232869162124 0.7539449933039236
2.9783036127086815 1.0499649661016934 0.7700460648245383 1.1582925817824503
4.196498628884724 1.2269036702462772 1.2558640092342128 1.713730949404234
5.953775246204946 1.4348029864120582 2.019116002247187 2.499856257545699
8.412725629515569 1.6652410382898846 3.1607465353225255 3.586738055903157
11.713134395727026 1.903444660827051 4.8296056449094955 4.980084089990479
15.423692960247042 2.0901852495167157 6.734968114289012 6.5985395964413165
19.17504668329454 2.1574099914716 8.863530609173598 8.154106082649342
21.443291598934145 2.018774409284508 10.280952669722518 9.14356451992711
20.049682478383946 1.7691873134709764 9.607359296524109 8.67313586838886
22.033764856525757 6.61364823037584 7.930690864586012 7.489425761563902
20.049682478385503 1.7691873134708893 9.607359296525075 8.673135868389535
21.443291598931804 2.0187744092840894 10.280952669721374 9.143564519926345
19.17504668328804 2.157409991470105 8.863530609170692 8.154106082647244
15.423692960241613 2.090185249517549 6.73496811428551 6.59853959643856
11.713134395721772 1.9034446608274211 4.829605644906434 4.9800840899879155
8.412725629509293 1.6652410382877616 3.1607465353203836 3.5867380559011464
5.953775246200036 1.4348029864117826 2.0191160022448953 2.499856257543355
4.196498628878354 1.2269036702446436 1.2558640092319662 1.7137309494017432
2.978303612703001 1.0499649661005406 0.7700460648225449 1.1582925817799152
2.1034235863215636 0.9015553061059515 0.4479232869143015 0.7539449933013106
1.4287035864563915 0.7603887338217169 0.22326828136522095 0.44504657126945446
0.9486201042687619 0.6657210854092825 0.10025027531477534 0.182648743544704
0.5661517242500059 0.506945926941832 0.012280624195898121 0.04692517311227568
0.36921440778135334 0.37711515205444274 -0.0025824549490139743 -0.005318289324075461
0.2707974670289544 0.27451790610746146 -0.0005889146183107805 -0.0031315244601962397
0.21595099538766865 0.21617299448154828 -1.8858699176254455e-05 -0.00020314039470336486
0.182065504832921 0.18193401828305986 1.3736583307990824e-05 0.00011774996655311035
0.1431485146629138 0.1431485146629138 0.0 0.0
0.08387940895460533 0.08387940895460533 0.0 0.0
0.04825810143362393 0.04825810143362393 0.0 0.0
0.02653435779347697 0.02653435779347697 0.0 0.0
0.06454165240281681 0.06454165240281681 0.0 0.0
0.12625962690554624 0.12625962690554624 0.0 0.0
0.18027062050741421 0.1802065337788713 6.040838194752111e-06 5.804589034815593e-05
0.23699840353396157 0.23652599781686487 8.475328196099189e-05 0.0003876524351356873
0.3233888524449137 0.33072965109404456 -0.001413354807783021 -0.00592744384134783
0.4848750609111479 0.4672867583257262 0.0025667089698609025 0.015021593615560921
0.8286504349997741 0.6368158603898787 0.06639593875035364 0.12543863585954176
1.3136698941403555 0.7410348020682513 0.18740159125890174 0.3852335008132025
1.9950763075374756 0.8907990161426287 0.40644249406341215 0.6978347973314352
2.851638224022864 1.0416473086509557 0.7154982927466661 1.0944926226252425
4.001850553122628 1.2159138156375484 1.1685028404277655 1.617433897057313
5.618615423908875 1.4262585570152626 1.8567245450481562 2.3356323218454564
7.947041574216054 1.6734222340705465 2.932190480774691 3.3414288593708164
11.14331617686756 1.955952239019721 4.475361489283672 4.712002448564165
15.304234195045352 2.2403849081271385 6.601154841968523 6.462694444949689
20.29765237998396 2.4546400157608583 9.364731858971552 8.478280505251547
24.992708883336828 2.4536772962424087 12.086133726361663 10.452897860732763
27.633005002393443 2.1326200903888615 13.8067895849092 11.693595327095382
25.90862943575291 1.8309242322105537 13.00434737502827 11.073357828514077
28.664344668672992 8.473434516958532 10.727451128889992 9.463459022824463
25.908629435751784 1.8309242322094732 13.004347375028251 11.07335782851407
27.633005002391997 2.132620090390536 13.806789584907332 11.69359532709413
24.992708883333297 2.453677296244848 12.086133726358131 10.452897860730312
20.297652379976867 2.45464001576013 9.364731858967877 8.478280505248865
15.30423419503755 2.240384908125916 6.601154841964825 6.462694444946801
11.143316176859788 1.95595223901819 4.4753614892803055 4.712002448561293
7.947041574208891 1.6734222340686948 2.9321904807719714 3.341428859368226
5.618615423901588 1.4262585570145712 1.8567245450449352 2.33563232184208
4.001850553115315 1.2159138156361577 1.1685028404250022 1.617433897054155
2.8516382240165274 1.0416473086498075 0.7154982927443843 1.0944926226223346
1.99507630753249 0.8907990161420486 0.40644249406157873 0.6978347973288621
1.3136698941367977 0.7410348020676165 0.1874015912578656 0.38523350081131597
0.8286504349970278 0.6368158603887226 0.06639593874975089 0.12543863585855433
0.48487506090970356 0.4672867583247279 0.0025667089697369774 0.015021593615238629
0.32338885244428917 0.3307296510933392 -0.0014133548077610773 -0.005927443841288938
0.23699840353341103 0.23652599781626552 8.475328196535077e-05 0.00038765243518016983
0.180270620507063 0.1802065337785263 6.040838194052553e-06 5.804589034264557e-05
0.12625962690532463 0.12625962690532463 0.0 0.0
0.06454165240267919 0.06454165240267919 0.0 0.0
0.026534357793414683 0.026534357793414683 0.0 0.0
0.013714728849604958 0.013714728849604958 0.0 0.0
0.047309949012671 0.047309949012671 0.0 0.0
0.10856550097061576 0.10856550097061576 0.0 0.0
0.17796150110737163 0.17789867143548863 5.622717784753524e-06 5.720695409827208e-05
0.26182301178580075 0.26264102267316214 -9.448036732923581e-05 -0.0007235305200322445
0.38772388091620463 0.38753775572792026 -0.0007494611759266982 0.0009355863642110307
0.6553581543390911 0.574899932213694 0.027000949733815855 0.05345727239158128
1.1086308705288854 0.703525800838123 0.12745772218501986 0.27764734750574255
1.7566234263126872 0.849281841551496 0.32475856768335887 0.5825830170778327
2.580281598464273 1.003010067084989 0.6117663738473424 0.9655051575319418
3.6523719664738916 1.175026166878855 1.0245688922648106 1.4527769073302252
5.108269681664761 1.3778244384125489 1.631881202947789 2.098564040304422
7.1722931353516355 1.6238937844897963 2.5619932668808567 2.9864060839809827
10.007880805390462 1.911167248018412 3.8769045027714792 4.219809054600573
14.001829362199889 2.2392460253688453 5.8935993824535915 5.868983954377455
19.174608077155238 2.5870851575449136 8.630822192148432 7.956700727461895
25.126385116957252 2.8285077679491817 11.927089916175175 10.370787432832891
30.80766197087198 2.7341502894899237 15.36495102629155 12.708560655090505
33.99527572648792 2.222302775769493 17.602603174883953 14.170369775834482
31.921718815919824 1.86121197317577 16.56696107332993 13.493545769414112
35.660113956577376 10.458666375942924 13.636972537901805 11.564475042732639
31.921718815920123 1.8612119731772467 16.566961073329242 13.493545769413645
33.995275726485225 2.2223027757697373 17.602603174882145 14.170369775833333
30.8076619708648 2.734150289489104 15.364951026287716 12.708560655087977
25.126385116948054 2.828507767947166 11.92708991617092 10.370787432829967
19.174608077146374 2.5870851575442186 8.630822192143746 7.9567007274584025
14.001829362191032 2.2392460253677133 5.893599382449326 5.868983954373992
10.007880805381934 1.9111672480170545 3.8769045027676756 4.219809054597203
7.172293135343001 1.6238937844886994 2.561993266877046 2.9864060839772546
5.1082696816561075 1.3778244384116827 1.6318812029440453 2.098564040300379
3.6523719664664385 1.1750261668777462 1.0245688922618936 1.4527769073267986
2.5802815984584053 1.0030100670838513 0.6117663738453176 0.9655051575292373
1.7566234263079021 0.8492818415502273 0.324758567681914 0.582583017075761
1.1086308705253978 0.7035258008371037 0.1274577221841539 0.27764734750413994
0.6553581543368976 0.5748999322126092 0.02700094973343209 0.05345727239085654
0.38772388091533694 0.38753775572676785 -0.0007494611758728285 0.0009355863644418044
0.2618230117852976 0.26264102267264355 -9.448036732915054e-05 -0.0007235305200167257
0.17796150110701192 0.1778986714351369 5.622717783863718e-06 5.720695409117878e-05
0.10856550097038185 0.10856550097038185 0.0 0.0
0.0473099490125653 0.0473099490125653 0.0 0.0
0.013714728849583968 0.013714728849583968 0.0 0.0
0.006780803022130488 0.006780803022130488 0.0 0.0
0.03313832664697391 0.03313832664697391 0.0 0.0
0.09195578459069916 0.09195578459069916 0.0 0.0
0.1775654308436953 0.17754644738789727 1.3006158643001404e-06 1.7682839933716896e-05
0.2918963005980452 0.29309259935089077 -0.00014944336320277387 -0.0010468553896426475
0.477612184350508 0.4697601762301873 0.0016018471355828436 0.006250160984738018
0.8569054884654974 0.6433084869319559 0.06364824457794384 0.14994875695559745
1.4379183089249554 0.7843127612879154 0.22242780577693433 0.4311777418601063
2.2109881805016536 0.940829411636723 0.47747903210372467 0.7926797367612055
3.2045329426000198 1.1105238491639136 0.8488412829034413 1.245167810532666
4.495022191628325 1.3023605019539484 1.3656282358055196 1.8270334538688575
6.279501611468338 1.5361114815989343 2.141839323887118 2.6015508059822854
8.735038265120076 1.816760272195367 3.250850876644391 3.6674271162803147
12.286112443800983 2.1533586750641334 5.009892989775523 5.122860778961324
16.997665943486137 2.530246728475398 7.4108276017518815 7.056591613258862
22.990930405272856 2.9165434450845242 10.609563156707482 9.464823803480849
30.009168420240357 3.1926920978117317 14.609208915177561 12.207267407251063
36.64431778388974 3.0406060502966255 18.715602300350998 14.888109433242104
40.42156205289 2.3261483924865662 21.461155602425528 16.634258057977906
38.22979106427691 1.8271871007742648 20.437061853578314 15.965542109924328
43.403048937925334 12.562459867626071 17.041237742668702 13.799351327630575
38.22979106427501 1.8271871007740128 20.43706185357735 15.965542109923659
40.42156205288259 2.326148392484224 21.461155602422405 16.63425805797596
36.644317783881604 3.040606050296787 18.715602300345896 14.888109433238926
30.009168420230523 3.192692097811155 14.609208915172022 12.207267407247347
22.990930405262855 2.9165434450838204 10.609563156702047 9.464823803476989
16.99766594347526 2.530246728474392 7.410827601746294 7.056591613254573
12.286112443791316 2.1533586750633633 5.009892989770692 5.122860778957262
8.735038265109763 1.8167602721940606 3.2508508766396798 3.6674271162760244
6.279501611458728 1.5361114815982078 2.1418393238827287 2.6015508059777925
4.495022191619609 1.3023605019526365 1.365628235802038 1.8270334538649329
3.2045329425925906 1.1105238491620353 0.8488412829009369 1.2451678105296191
2.2109881804960287 0.9408294116354521 0.47747903210202103 0.7926797367585561
1.437918308920899 0.7843127612871487 0.22242780577579957 0.43117774185795066
0.8569054884625958 0.6433084869308201 0.06364824457730889 0.14994875695446686
0.4776121843492198 0.469760176229016 0.0016018471355433096 0.006250160984660449
0.2918963005975264 0.293092599350326 -0.0001494433631973383 -0.0010468553896022502
0.17756543084332493 0.17754644738753195 1.3006158638795505e-06 1.768283992909949e-05
0.091955784590504 0.091955784590504 0.0 0.0
0.033138326646923934 0.033138326646923934 0.0 0.0
0.0067808030221151935 0.0067808030221151935 0.0 0.0
0.003358790239325059 0.003358790239325059 0.0 0.0
0.02246931702437703 0.02246931702437703 0.0 0.0
0.07840746622865968 0.07840746622865968 0.0 0.0
0.1822900034709645 0.18228067492545133 -1.392926486306911e-07 9.4678381617896e-06
0.33117673906713796 0.3321366510505438 -0.0002210696155782416 -0.0007388423678275529
0.605310106247628 0.5521387901938327 0.016384253914821192 0.036787062138973994
1.086125518617023 0.694331676156304 0.12020575368279672 0.2715880887779225
1.7887998280907151 0.8610207569923993 0.3348610718671719 0.592917999231144
2.685338013684099 1.0260949851722219 0.6479327559670847 1.0113102725447922
3.8546605563045184 1.2113427127146748 1.1061317755554376 1.5371860680344056
5.399449359009877 1.4288779502815707 1.754950743016348 2.215620665711958
7.493435419096944 1.69097609858999 2.6771457240466052 3.125313596460346
10.49905545105005 2.0179062591176793 4.115177742777865 4.3659714491545065
14.55841857377444 2.400965776870556 6.094065708020957 6.063387088882931
20.073334440767642 2.8206532385571705 8.983659467725584 8.269021734484888
26.95764724214725 3.2228895748434256 12.771681490773751 10.963076176530077
34.798188485717525 3.5046580083074352 17.304210275646778 13.98932020176331
42.3713063542385 3.4196601834796683 21.997674977786136 16.95397119297268
46.93973801050205 2.5070414189105428 25.437522109390954 18.995174482200525
44.888300843583 1.6641282148142231 24.691563553325874 18.532609075442917
51.95275988559327 14.690220318475275 20.955648880821137 16.30689068629685
44.88830084357889 1.6641282148132954 24.691563553323846 18.53260907544174
46.93973801049634 2.507041418912457 25.437522109386208 18.99517448219768
42.37130635423026 3.419660183479751 21.997674977781003 16.953971192969494
34.79818848570752 3.5046580083083034 17.304210275640138 13.989320201759076
26.957647242135074 3.222889574840757 12.771681490768117 10.963076176526208
20.073334440756927 2.820653238557259 8.983659467719368 8.269021734480297
14.558418573762795 2.4009657768687145 6.0940657080155 6.063387088878583
10.499055451038107 2.0179062591163364 4.115177742772207 4.365971449149564
7.493435419085537 1.69097609858878 2.677145724041355 3.125313596455401
5.399449359000038 1.4288779502801967 1.7549507430122553 2.215620665707586
3.854660556296616 1.2113427127136553 1.106131775552298 1.5371860680306615
2.6853380136777534 1.026094985170983 0.6479327559649368 1.0113102725418337
1.7887998280857127 0.8610207569911531 0.33486107186569525 0.5929179992288647
1.0861255186136174 0.6943316761554157 0.12020575368205422 0.2715880887761472
0.6053101062459167 0.5521387901927565 0.016384253914622175 0.03678706213853808
0.33117673906648726 0.3321366510497604 -0.00022106961554987337 -0.0007388423677233645
0.18229000347065788 0.18228067492515096 -1.392926491735977e-07 9.467838156118176e-06
0.07840746622852472 0.07840746622852472 0.0 0.0
0.022469317024334697 0.022469317024334697 0.0 0.0
0.00335879023930766 0.00335879023930766 0.0 0.0
0.0015943545389417763 0.0015943545389417763 0.0 0.0
0.015085632781975757 0.015085632781975757 0.0 0.0
0.07044158100426451 0.07044158100426451 0.0 0.0
0.19655493314664266 0.1964520954885493 9.7558651427082e-06 9.308179295064185e-05
0.3931344707793327 0.3997996789795907 -0.0016929072308286947 -0.004972300969429145
0.7587835209058568 0.6123515119234693 0.04258012821243638 0.10385188076995128
1.3469303851133734 0.764061255754993 0.19453391282225355 0.3883352165361267
2.149955614594418 0.9317352417045577 0.45584148822885995 0.7623788846609998
3.1901517810203015 1.1079546322398153 0.8446941363213684 1.237503012459119
4.532157598581069 1.3083856283441555 1.3837189215388677 1.840053048698045
6.328638919983385 1.5503055609438168 2.1578445276324056 2.6204888314071613
8.832885957259549 1.851481284505042 3.3170653338795972 3.664339338874912
12.220821062652304 2.2166350201255782 4.906834528743747 5.097351513782979
16.994262878912455 2.6504533589714185 7.323164533645388 7.020644986295654
23.2855330289992 3.118727971764105 10.669675669437254 9.497129387797841
30.982068492393076 3.525519542522785 14.98930257267191 12.467246377198364
39.481443541840086 3.7341618814255404 20.045469734825595 15.701811925588956
47.71087572958109 3.696118480604493 25.192588004867613 18.82216924410899
53.520992920874164 3.078274599492401 29.244131229065 21.19858709231677
51.93744102061714 1.2970447540749366 29.39062011146714 21.24977615507505
61.20894676544536 16.073140701795893 25.89230018940311 19.243505874246367
51.93744102061325 1.2970447540754484 29.390620111464344 21.249776155073466
53.520992920866924 3.078274599492973 29.244131229060063 21.1985870923139
47.71087572956692 3.6961184806002163 25.192588004861392 18.822169244105307
39.48144354182742 3.7341618814258273 20.045469734817672 15.701811925583925
30.982068492378687 3.525519542518751 14.989302572665707 12.46724637719423
23.285533028984528 3.1187279717611958 10.669675669430365 9.49712938779296
16.994262878897644 2.650453358967539 7.323164533639188 7.020644986290911
12.22082106263852 2.216635020124439 4.9068345287368444 5.097351513777237
8.83288595724714 1.8514812845041353 3.3170653338735727 3.6643393388694294
6.328638919972246 1.5503055609424465 2.157844527627482 2.6204888314023176
4.53215759857208 1.3083856283430395 1.3837189215351278 1.8400530486939126
3.190151781012715 1.1079546322380498 0.8446941363187992 1.2375030124558661
2.14995561458849 0.9317352417032312 0.4558414882269898 0.7623788846582689
1.346930385109504 0.7640612557540052 0.194533912821299 0.3883352165342002
0.7587835209036843 0.6123515119225138 0.04258012821202152 0.1038518807691488
0.39313447077847274 0.3997996789788405 -0.0016929072308564971 -0.004972300969511301
0.19655493314630204 0.19645209548820852 9.755865142070194e-06 9.30817929514431e-05
0.07044158100415256 0.07044158100415256 0.0 0.0
0.015085632781946776 0.015085632781946776 0.0 0.0
0.0015943545389378291 0.0015943545389378291 0.0 0.0
0.00035531497112418803 0.00035531497112418803 0.0 0.0
0.010497851802512921 0.010497851802512921 0.0 0.0
0.07147743045760632 0.07147743045760632 0.0 0.0
0.2281589865104637 0.22816504712957814 1.2501714780865336e-05 -1.8562333895261066e-05
0.4898137543056549 0.4785706579272441 0.0037148382306278057 0.007528258147782746
0.9478614831503911 0.7085895866694101 0.07481617106738793 0.16445572541359305
1.6285251250829107 0.8748908258511633 0.262895045592213 0.4907392536395344
2.5444447565990598 1.0807385355367027 0.56402816581807 0.8996780552442868
3.730862690968448 1.3129458402642575 0.9965637446199628 1.421353106084227
5.306762628126949 1.6025516340003245 1.6203043714711378 2.0839066226554843
7.440110004227259 1.982312748900548 2.5151486888068333 2.942648566519877
10.334617010091685 2.482966184696526 3.752501970882342 4.099148854512817
14.40448016928568 3.1200841158128783 5.612766996975112 5.671629056497686
19.975903529430973 3.9069661247243737 8.301439877640714 7.767497527065886
27.208792857529275 4.763518943565522 12.012206149154439 10.433067764809318
35.84827813510925 5.497100238833005 16.766278638802156 13.584899257474095
45.00366935499072 5.834148242967806 22.18127860174995 16.988242510272975
53.26101256514298 5.568774980754347 27.51245547624325 20.179782108145375
59.5531794309353 5.207208120198736 31.727128922439505 22.618842388297047
57.86602861626818 1.4240269206102765 33.01203931727518 23.429962378382708
88.18116308113613 34.81670772979261 31.15701849290366 22.207436858439866
57.86602861626396 1.4240269206106588 33.012039317272276 23.42996237838101
59.5531794309219 5.207208120193512 31.727128922434304 22.618842388294084
53.26101256512791 5.5687749807525115 27.51245547623497 20.17978210814046
45.00366935497994 5.834148242972379 22.181278601740416 16.988242510267128
35.848278135090155 5.497100238825417 16.766278638795168 13.584899257469573
27.208792857513487 4.763518943563611 12.012206149146277 10.433067764803607
19.97590352941305 3.9069661247190597 8.301439877633515 7.767497527060476
14.404480169271121 3.1200841158127153 5.612766996967155 5.671629056491252
10.334617010077439 2.482966184694818 3.752501970875672 4.09914885450695
7.440110004214665 1.9823127488987433 2.5151486888013177 2.9426485665146016
5.306762628116592 1.6025516339984551 1.620304371466956 2.0839066226511824
3.7308626909597162 1.312945840262005 0.9965637446169853 1.4213531060807267
2.5444447565925072 1.0807385355357753 0.564028165815672 0.8996780552410603
1.6285251250782105 0.8748908258496896 0.2628950455910655 0.49073925363745563
0.9478614831477215 0.708589586668408 0.07481617106685359 0.16445572541245954
0.48981375430453733 0.478570657926246 0.0037148382305897103 0.007528258147701777
0.2281589865100992 0.22816504712918922 1.250171478375796e-05 -1.8562333873742905e-05
0.07147743045748417 0.07147743045748417 0.0 0.0
0.010497851802488828 0.010497851802488828 0.0 0.0
0.00035531497112771727 0.00035531497112771727 0.0 0.0
CELL_DATA 800
SCALARS Stress float 6
LOOKUP_TABLE default
113.00892389542398 -488.49196894521555 -186.2738123604106 -98.61478398230125 0.0 0.0
397.4923926831381 53.76696240206461 136.08620395149592 71.3400250590175 0.0 0.0
357.1703331452169 -10.64850322840384 103.76036297013877 -9.788889395890841 0.0 0.0
418.81015434152783 1.218345712718389 125.58789796856252 -9.959152220928466 0.0 0.0
486.0213326611291 -8.359440223235916 151.01279199164017 -10.697525224928885 0.0 0.0
549.4128679792623 8.233206521465638 204.39808958980726 -8.860283647528632 0.0 0.0
608.6625581166239 20.569538316714628 257.6422409692351 -8.921308124290176 0.0 0.0
667.0833033764516 41.33888366807402 312.60703572325764 -9.380998441413771 0.0 0.0
725.2708498102638 66.4655107733766 366.07396695424166 -9.734720164748879 0.0 0.0
783.9412250211215 94.10224977161232 417.424518350929 -9.879139150561624 0.0 0.0
843.0554010419268 121.82166139484406 465.9257457395896 -9.844132251749091 0.0 0.0
902.9828753746154 150.4391069812092 512.9431050908299 -9.775583589627223 0.0 0.0
964.9832508505074 178.5378115865405 559.0854566606546 -9.782705979192444 0.0 0.0
1029.4499652365917 207.5629719602262 606.1230227435698 -9.83128175565681 0.0 0.0
1096.92146041577 239.80467356961964 655.9720494026747 -9.885471460809562 0.0 0.0
1166.974666748876 276.4360011999589 709.2665871956686 -9.715598369543411 0.0 0.0
1236.8841505634123 316.61211677890174 764.3349131781905 -9.005312592092263 0.0 0.0
1301.5129420161575 356.8494653556529 816.8385174525159 -7.622589132898046 0.0 0.0
1355.3915414644289 393.03995919595263 861.8867155700221 -5.969814523331745 0.0 0.0
1400.9391668016422 429.2923485167273 902.4844320165864 -5.308686066429287 0.0 0.0
1400.9391668019607 429.2923485170533 902.4844320168063 5.30868606638727 0.0 0.0
1355.3915414640257 393.0399591955582 861.8867155697325 5.969814523379066 0.0 0.0
1301.5129420155204 356.8494653550356 816.8385174520296 7.622589132909804 0.0 0.0
1236.8841505630749 316.6121167786038 764.3349131778664 9.005312592146808 0.0 0.0
1166.974666749137 276.43600120026946 709.2665871957614 9.715598369558407 0.0 0.0
1096.9214604155388 239.80467356944536 655.9720494023658 9.885471460846299 0.0 0.0
1029.4499652363365 207.56297196004118 606.1230227432317 9.83128175563412 0.0 0.0
964.9832508499826 178.53781158610377 559.0854566601661 9.782705979170885 0.0 0.0
902.9828753744421 150.4391069811607 512.943105090611 9.77558358964351 0.0 0.0
843.055401041606 121.82166139466048 465.9257457392671 9.844132251749595 0.0 0.0
783.9412250209972 94.10224977165596 417.42451835073484 9.879139150516272 0.0 0.0
725.2708498102177 66.46551077350699 366.0739669541068 9.734720164770668 0.0 0.0
667.0833033762053 41.338883668019065 312.6070357229819 9.380998441425945 0.0 0.0
608.6625581162826 20.569538316573837 257.64224096890536 8.921308124288743 0.0 0.0
549.4128679789488 8.233206521384602 204.3980895895295 8.860283647440701 0.0 0.0
486.02133266081887 -8.359440223311791 151.01279199146043 10.697525224900929 0.0 0.0
418.81015434130893 1.2183457127997919 125.58789796852562 9.959152220895492 0.0 0.0
357.1703331450709 -10.648503228382697 103.76036297010485 9.788889395891959 0.0 0.0
397.4923926829618 53.76696240193539 136.086203951395 -71.34002505894533 0.0 0.0
113.00892389600374 -488.49196894468065 -186.27381235987502 98.61478398195833 0.0 0.0
27.21600429997497 -512.7380295403123 -226.90766702046875 -136.50450591660294 0.0 0.0
230.61206051705545 45.73075934191161 82.9028459576901 21.581172473456675 0.0 0.0
318.30666321174976 11.639811174972039 98.98394231601652 -8.318987524174293 0.0 0.0
373.82093312766847 0.212421112069869 112.02695270065115 -29.9853420670331 0.0 0.0
455.1569735419583 -9.187035948290045 134.88436082271318 -30.318613329171978 0.0 0.0
520.9779864987183 4.922421986674533 183.20137706509195 -26.92469643284494 0.0 0.0
585.5400685488069 17.06919513782264 236.88306816799107 -27.11890474637258 0.0 0.0
644.3222575979245 35.83973754462753 291.4558002636872 -27.33861666572257 0.0 0.0
700.9214433858657 58.671468815568275 344.2741378030344 -27.45754930721406 0.0 0.0
757.1496687355952 83.83188060250663 394.63273252466325 -27.25210881516434 0.0 0.0
813.5814636375334 109.44073221392844 442.1472232658663 -26.689255466921434 0.0 0.0
871.0008133606744 134.29230248494366 487.0948758557206 -26.010511340024156 0.0 0.0
929.0920772918927 159.38585135468713 530.4666284520058 -25.49259575270781 0.0 0.0
989.8052776008622 185.23117722038467 574.3500854057627 -25.27842515149111 0.0 0.0
1053.4639111381803 213.8163099993871 620.6259883688755 -25.17050731712538 0.0 0.0
1119.0733976582746 246.2262273156253 669.6517802518994 -24.62115150067051 0.0 0.0
1184.237621652736 281.6986883398296 719.9679235027592 -22.93288056241079 0.0 0.0
1245.0938563666036 317.9470606021888 768.521113513323 -19.862319072408805 0.0 0.0
1299.0499021208682 353.97099774306764 813.44604977805 -15.868719753549659 0.0 0.0
1335.055512531941 380.04270981468017 844.4265253366493 -9.92185904856383 0.0 0.0
1335.055512531739 380.0427098144832 844.4265253364701 9.921859048569384 0.0 0.0
1299.049902120876 353.970997743096 813.4460497779941 15.868719753609122 0.0 0.0
1245.093856366466 317.9470606020752 768.5211135131493 19.862319072420014 0.0 0.0
1184.2376216521125 281.69868833923454 719.9679235022494 22.93288056248072 0.0 0.0
1119.0733976576134 246.22622731499433 669.651780251343 24.621151500654364 0.0 0.0
1053.4639111376475 213.81630999890598 620.6259883684222 25.17050731716335 0.0 0.0
989.8052776006163 185.23117722020828 574.3500854054973 25.27842515146781 0.0 0.0
929.0920772915813 159.38585135446235 530.4666284516926 25.49259575268739 0.0 0.0
871.000813360321 134.29230248470034 487.0948758553505 26.010511340029854 0.0 0.0
813.5814636375297 109.44073221408206 442.14722326575946 26.689255466912403 0.0 0.0
757.14966873526 83.8318806023155 394.63273252433595 27.252108815128928 0.0 0.0
700.9214433855209 58.67146881538399 344.2741378026944 27.457549307225122 0.0 0.0
644.3222575976716 35.83973754457925 291.4558002634077 27.338616665703213 0.0 0.0
585.5400685487224 17.069195138003206 236.883068167836 27.11890474644127 0.0 0.0
520.9779864984689 4.922421986714079 183.20137706488998 26.9246964327954 0.0 0.0
455.15697354167617 -9.187035948252019 134.88436082260938 30.318613329135914 0.0 0.0
373.82093312740557 0.21242111197454516 112.0269527005481 29.985342066967927 0.0 0.0
318.30666321162505 11.63981117487589 98.98394231595026 8.318987524159349 0.0 0.0
230.6120605171481 45.73075934197573 82.90284595773714 -21.581172473512183 0.0 0.0
27.216004300359785 -512.7380295398804 -226.90766702004333 136.50450591638463 0.0 0.0
-8.917429619516469 -505.9475432873164 -228.07654885898899 -150.43970007400267 0.0 0.0
131.85879943933796 23.926860682170123 46.73569803645242 -31.498340626033254 0.0 0.0
258.698450559956 23.063753929293554 84.52866134677484 -24.14893985994362 0.0 0.0
329.27005124481377 2.2627391262317076 99.45271757723167 -47.20988115586542 0.0 0.0
409.93254753546535 -4.308354441227995 121.28816197408898 -51.3847237009634 0.0 0.0
492.01910762195166 -2.650620502029483 159.1357592555945 -48.02572412115488 0.0 0.0
557.3346070184879 14.681278158803687 213.92586695636209 -45.4797185600086 0.0 0.0
616.3783009181757 29.93006072785367 266.8741791375064 -45.344052229802244 0.0 0.0
672.6696260053002 50.70212596619247 319.37932185848007 -45.03571583203124 0.0 0.0
727.0675339603542 73.4090517064972 369.1076171925014 -44.31558714745845 0.0 0.0
780.9647168457035 96.21015081254637 415.5103431740783 -43.24639770064285 0.0 0.0
834.815319336095 118.52901694351493 458.84252210903907 -41.957541151880704 0.0 0.0
890.3989942551352 139.93954343565474 500.0396095070476 -41.03776129638403 0.0 0.0
947.5933396813272 162.8973232833541 541.2345713620807 -40.54051930264725 0.0 0.0
1007.0447922977195 187.73150218065464 583.7365039027312 -40.286760582821145 0.0 0.0
1068.0481961539783 215.5749470929045 628.2616577454987 -39.43014232875244 0.0 0.0
1128.3541365703563 246.0500330535006 673.6141115097254 -36.9932788468765 0.0 0.0
1186.275682225352 279.0078534876098 718.973265496252 -32.49977201652754 0.0 0.0
1236.75896080881 310.8791582733105 760.1213823321998 -25.583698610473853 0.0 0.0
1269.226489388069 332.4860493397133 787.2277298834164 -14.271058604682802 0.0 0.0
1269.2264893876538 332.48604933929533 787.2277298830977 14.271058604713824 0.0 0.0
1236.7589608084202 310.879158272946 760.1213823319168 25.58369861063308 0.0 0.0
1186.2756822257481 279.0078534880525 718.9732654964955 32.49977201664553 0.0 0.0
1128.3541365706074 246.05003305380723 673.6141115097829 36.99327884698266 0.0 0.0
1068.0481961539529 215.57494709293073 628.2616577453558 39.43014232878764 0.0 0.0
1007.0447922978148 187.73150218082952 583.7365039027019 40.2867605829062 0.0 0.0
947.5933396809642 162.8973232830595 541.2345713617676 40.540519302663284 0.0 0.0
890.3989942548702 139.93954343549402 500.0396095067628 41.03776129645907 0.0 0.0
834.8153193358842 118.52901694342937 458.84252210879157 41.957541151917624 0.0 0.0
780.9647168453707 96.21015081234822 415.5103431737598 43.24639770062901 0.0 0.0
727.0675339600161 73.4090517062886 369.10761719218294 44.31558714739905 0.0 0.0
672.6696260048792 50.70212596593743 319.37932185810655 45.035715832047416 0.0 0.0
616.3783009177886 29.93006072765735 266.8741791371585 45.34405222976734 0.0 0.0
557.3346070181061 14.68127815865115 213.92586695604834 45.47971855998682 0.0 0.0
492.01910762155916 -2.650620502166424 159.13575925533436 48.025724121050345 0.0 0.0
409.93254753523865 -4.308354441007209 121.28816197408797 51.38472370089012 0.0 0.0
329.2700512446541 2.262739126351629 99.45271757722108 47.20988115580724 0.0 0.0
258.69845055995745 23.063753929373483 84.52866134679927 24.148939859847545 0.0 0.0
131.85879943949823 23.926860682339452 46.7356980365513 31.498340625878463 0.0 0.0
-8.91742961923714 -505.9475432869218 -228.0765488586062 150.43970007386773 0.0 0.0
-18.462846058374296 -484.2151570387367 -209.93526168377596 -153.4033784528373 0.0 0.0
73.65943645482162 1.6470508861537747 22.591946202292615 -76.32122366411173 0.0 0.0
199.5991377863847 26.45056073201446 67.81490955551973 -48.177537139520574 0.0 0.0
281.43655153249017 6.1789114949401185 86.2846389082291 -64.71652183524587 0.0 0.0
358.968040749455 -0.9448861617298749 107.2272198173272 -72.75490948714102 0.0 0.0
447.25306059530783 -5.34321999223428 136.664403316389 -71.12709543136147 0.0 0.0
520.6559211167336 9.407616969833173 186.25446455023075 -64.69522677044723 0.0 0.0
582.9990429653865 24.68274611880872 239.39855950703148 -63.84517709819397 0.0 0.0
639.1274812887912 42.36413318205882 290.57341256584107 -62.56638422547077 0.0 0.0
692.1759908514621 62.4761610098538 339.62129577248857 -61.22572970610814 0.0 0.0
743.974882275634 82.74240077801929 385.4413255046844 -59.59155920865907 0.0 0.0
795.6152627673403 102.28330625613435 427.9627030810357 -57.731263227818864 0.0 0.0
847.540544889219 120.77783213096433 467.22099444349294 -56.4150703535971 0.0 0.0
902.1024162253539 140.48436683041083 506.25661129777086 -55.74538873678639 0.0 0.0
957.8990925917958 161.50624326482296 545.3793083903181 -55.27513554086744 0.0 0.0
1013.4049695191724 184.70219358328848 584.9578803343235 -54.13060846210058 0.0 0.0
1069.105305576733 210.29575716320664 625.5524664419069 -51.243326036186275 0.0 0.0
1123.11015630287 238.5596358221457 666.5586562480896 -45.43888374764009 0.0 0.0
1170.5548038181237 266.10255310143833 704.0618404783925 -35.4578102002436 0.0 0.0
1201.6339564070026 284.7798721984552 729.133257379036 -18.89519006092304 0.0 0.0
1201.6339564071288 284.77987219859517 729.1332573791215 18.89519006099596 0.0 0.0
1170.5548038181269 266.1025531014844 704.0618404783636 35.45781020042904 0.0 0.0
1123.1101563021177 238.55963582143056 666.5586562474772 45.43888374776339 0.0 0.0
1069.1053055759478 210.29575716244233 625.5524664412811 51.24332603619956 0.0 0.0
1013.4049695187967 184.70219358293826 584.9578803340061 54.130608462080076 0.0 0.0
957.899092591445 161.5062432645255 545.3793083900205 55.27513554089586 0.0 0.0
902.1024162249173 140.48436683004206 506.2566112973752 55.74538873682638 0.0 0.0
847.5405448889758 120.77783213084214 467.22099444325556 56.415070353700884 0.0 0.0
795.6152627667508 102.28330625563504 427.9627030805401 57.73126322780094 0.0 0.0
743.9748822750093 82.74240077749572 385.4413255041692 59.591559208608764 0.0 0.0
692.1759908511688 62.47616100968816 339.62129577218417 61.22572970601803 0.0 0.0
639.1274812886844 42.36413318214328 290.5734125656849 62.566384225471936 0.0 0.0
582.9990429651539 24.682746118823637 239.3985595067898 63.84517709821398 0.0 0.0
520.6559211162179 9.407616969582278 186.2544645498627 64.69522677048025 0.0 0.0
447.25306059483376 -5.343219992419714 136.66440331614996 71.1270954312899 0.0 0.0
358.9680407491982 -0.9448861616350452 107.22721981728439 72.75490948708358 0.0 0.0
281.4365515323975 6.178911495095569 86.2846389082479 64.716521835169 0.0 0.0
199.5991377863497 26.45056073195068 67.8149095554901 48.17753713943411 0.0 0.0
73.65943645492877 1.6470508863308504 22.591946202377883 76.32122366393344 0.0 0.0
-18.462846058181754 -484.2151570383472 -209.93526168343269 153.40337845273947 0.0 0.0
-16.10691862033879 -453.99091426194695 -183.35421595638206 -151.93557920370247 0.0 0.0
37.82740028015814 -17.664061361111873 6.049001675713878 -110.39275767367675 0.0 0.0
147.25811977002348 24.933469497197997 51.657476780166434 -74.25065793647353 0.0 0.0
231.62468269755175 10.353559172931295 72.5934725611449 -82.99958369036874 0.0 0.0
305.61474958840114 0.5921000586663134 91.79048826222734 -93.05126256229924 0.0 0.0
390.56786825521783 -4.215545874408133 116.5404259529268 -94.55684947023138 0.0 0.0
476.24553939167697 2.485169013628391 156.3172807175316 -87.6353710857435 0.0 0.0
543.2487950259463 19.400203708465483 208.09401904002357 -82.04790585260733 0.0 0.0
598.8356506194034 33.90445679232544 257.4105017810756 -80.44249313935993 0.0 0.0
651.5334454087146 51.22479470048495 305.57494801947246 -78.20916534320143 0.0 0.0
701.9055380521593 68.8106405992884 350.92020339291906 -75.91556286032419 0.0 0.0
751.1080198938662 85.58160185890821 392.8114956427214 -73.43738780305966 0.0 0.0
800.9516699033979 101.51579691418446 431.61584248947116 -71.79353431075869 0.0 0.0
851.5911147346453 118.13164804494019 468.4265941754478 -70.82307939373074 0.0 0.0
903.4756520939217 135.38291769178437 504.3081148005669 -70.17736670698092 0.0 0.0
955.5226580411238 153.95588633623308 540.0900983249848 -68.86806702126508 0.0 0.0
1005.5757999718596 174.2273138988835 575.27585539031 -65.62067046389693 0.0 0.0
1054.780093563503 196.86864496853593 611.0645012909245 -58.70529008967404 0.0 0.0
1099.5621624109494 219.7683628019303 644.9591467251116 -45.82691944363179 0.0 0.0
1130.6419310052408 236.0829332109739 668.9836393186652 -24.128106690720475 0.0 0.0
1130.641931005258 236.08293321100294 668.9836393186881 24.12810669080494 0.0 0.0
1099.5621624105274 219.76836280155499 644.9591467248089 45.8269194438446 0.0 0.0
1054.7800935631956 196.868644968284 611.064501290687 58.705290089817254 0.0 0.0
1005.5757999719553 174.2273138990372 575.2758553903163 65.62067046396979 0.0 0.0
955.5226580411895 153.9558863363378 540.0900983249306 68.86806702123468 0.0 0.0
903.4756520937948 135.3829176917207 504.30811480041217 70.17736670702138 0.0 0.0
851.5911147346899 118.13164804507488 468.4265941754288 70.82307939377314 0.0 0.0
800.9516699034058 101.51579691433491 431.61584248942074 71.7935343108623 0.0 0.0
751.1080198936596 85.58160185879893 392.81149564250325 73.43738780302459 0.0 0.0
701.9055380516061 68.81064059884372 350.920203392456 75.91556286029527 0.0 0.0
651.533445408282 51.22479470017102 305.57494801905295 78.20916534312298 0.0 0.0
598.8356506190864 33.90445679219974 257.41050178077074 80.44249313935488 0.0 0.0
543.2487950256807 19.400203708449006 208.0940190397749 82.04790585255088 0.0 0.0
476.2455393914016 2.4851690137321203 156.317280717379 87.63537108577837 0.0 0.0
390.56786825479935 -4.215545874460698 116.54042595277662 94.55684947013089 0.0 0.0
305.6147495881121 0.5921000585901881 91.79048826212073 93.05126256221129 0.0 0.0
231.62468269738764 10.353559172836551 72.59347256106724 82.9995836902417 0.0 0.0
147.25811977001493 24.933469497206538 51.657476780166434 74.25065793627604 0.0 0.0
37.82740028021858 -17.664061360976167 6.049001675772725 110.39275767341202 0.0 0.0
-16.106918620215318 -453.99091426161635 -183.35421595609452 151.93557920359495 0.0 0.0
-9.449831791066337 -418.4070207021671 -154.62834934819605 -148.3689445895878 0.0 0.0
13.519198318664674 -33.35130781342042 -5.949632848426723 -135.00691799652228 0.0 0.0
102.24488600160996 21.08541661790124 36.99909078585335 -98.80856403496767 0.0 0.0
181.76180709852164 13.65181786303043 58.62408748846562 -101.1585995874371 0.0 0.0
249.8660821882231 2.2197157009910837 75.58318118941958 -111.48337369049011 0.0 0.0
322.735095746433 -2.526413513793364 96.44593287691627 -115.92083151812685 0.0 0.0
409.54564446990275 -0.7928725247120321 127.13837410825288 -112.48905333646414 0.0 0.0
488.670421086481 11.375995913201553 171.22053419980833 -103.50686503087303 0.0 0.0
550.5679416139293 25.54798125679837 219.46004998689259 -98.57771964474186 0.0 0.0
602.9863572020946 39.751949959106206 265.84734110085736 -95.60139972131779 0.0 0.0
652.0679396730056 54.20488804868075 310.0792357906667 -92.41781197089858 0.0 0.0
700.1128692956889 68.49078123966343 352.06891562060576 -89.36263867789518 0.0 0.0
747.697926380467 82.11986661684824 390.98380640052795 -87.23186065285374 0.0 0.0
795.9330147446365 95.70226991352708 427.09505301667025 -86.02129805909281 0.0 0.0
844.2553711231951 109.19768164957136 460.47675607216223 -85.15302634314858 0.0 0.0
890.9647280778036 123.69028320342365 492.07562361121165 -83.53258993909796 0.0 0.0
936.6001687416425 138.26080064760322 522.4421058548902 -80.15718568397733 0.0 0.0
980.5584759253419 154.06819573041284 552.3095309746999 -72.38885654337396 0.0 0.0
1022.0898464921793 171.62023695668188 581.9704942755601 -56.966502579173934 0.0 0.0
1054.342619284495 185.67938213520685 605.5967155081298 -30.334860098857924 0.0 0.0
1054.342619284391 185.6793821351195 605.5967155080626 30.33486009892951 0.0 0.0
1022.0898464920716 171.62023695664175 581.9704942754993 56.96650257941679 0.0 0.0
980.5584759254909 154.06819573065684 552.3095309748061 72.38885654359638 0.0 0.0
936.6001687415903 138.2608006476558 522.4421058548617 80.157185684148 0.0 0.0
890.9647280779636 123.69028320364218 492.07562361124917 83.5325899391191 0.0 0.0
844.2553711232623 109.19768164972564 460.4767560721355 85.15302634320314 0.0 0.0
795.9330147440396 95.70226991300726 427.0950530162068 86.0212980591584 0.0 0.0
747.6979263800774 82.11986661654925 390.98380640021804 87.2318606528948 0.0 0.0
700.1128692953583 68.4907812394531 352.06891562033474 89.36263867791055 0.0 0.0
652.0679396726728 54.20488804847035 310.0792357903559 92.41781197086206 0.0 0.0
602.9863572017568 39.75194995890038 265.84734110054046 95.60139972123753 0.0 0.0
550.5679416136039 25.54798125669774 219.46004998661095 98.57771964477897 0.0 0.0
488.6704210860032 11.375995913015458 171.22053419949378 103.506865030927 0.0 0.0
409.5456444693461 -0.792872524991699 127.13837410796515 112.48905333643424 0.0 0.0
322.73509574608545 -2.5264135137736794 96.44593287682079 115.92083151799329 0.0 0.0
249.8660821879919 2.219715700937754 75.5831811893364 111.48337369039413 0.0 0.0
181.76180709842424 13.651817863013086 58.624087488431186 101.15859958729084 0.0 0.0
102.24488600159339 21.085416617955147 36.99909078586456 98.80856403481503 0.0 0.0
13.519198318692432 -33.351307813298725 -5.949632848381888 135.00691799632696 0.0 0.0
-9.449831790976859 -418.4070207018154 -154.62834934794805 148.3689445895148 0.0 0.0
-4.29694339777015 -377.74061176663145 -126.7928018213606 -142.80356723939474 0.0 0.0
-4.884081617596095 -47.23852916731646 -15.636783235473764 -152.77200234207072 0.0 0.0
63.35218048066481 16.814854175236288 24.05011039677033 -119.98663364386954 0.0 0.0
133.0304786957255 15.698998682917754 44.61884321359296 -118.16880326513252 0.0 0.0
192.6062069206974 4.683396370571686 59.176000086978426 -127.23251480949094 0.0 0.0
254.35778434363178 -2.016473749350464 75.58971325439862 -135.3533943367848 0.0 0.0
327.347701941668 -1.4268921158145291 99.0598452958864 -135.3175192377544 0.0 0.0
410.66165035426235 4.876888809784562 132.701753170372 -128.4517149733077 0.0 0.0
484.0639413517212 15.737492978321182 174.61004725900347 -119.19382823437094 0.0 0.0
542.4361907190467 28.3518339340832 219.19360827901627 -113.64102104435972 0.0 0.0
590.8841204614536 39.08512591946348 260.93718089588356 -109.68447180855047 0.0 0.0
638.6811392754583 50.9258379221733 302.74115065362923 -105.85031110708462 0.0 0.0
685.2809336017937 62.109167524149036 342.4349228459942 -103.13409182102372 0.0 0.0
731.1903578203635 73.20697782613172 379.13126435776866 -101.4459156726922 0.0 0.0
775.7606216648901 83.14453066600149 411.090763128478 -100.26751614435263 0.0 0.0
819.3023671293521 93.4830762846162 440.23778856424326 -98.46046855625112 0.0 0.0
859.441877201996 102.74958660517429 465.85221426182403 -94.7113992780391 0.0 0.0
897.2361138388898 111.09303332924522 489.33036724533656 -86.41455435510257 0.0 0.0
935.5535734061673 121.06021720891442 513.7411731559969 -69.26174136446114 0.0 0.0
970.4912232202179 132.6129607282116 537.6025014396253 -38.10260174667111 0.0 0.0
970.4912232203533 132.61296072838314 537.6025014397057 38.10260174680562 0.0 0.0
935.5535734058534 121.06021720868375 513.7411731557756 69.26174136471354 0.0 0.0
897.2361138384676 111.09303332893083 489.3303672450312 86.41455435533314 0.0 0.0
859.4418772015442 102.74958660481305 465.8522142614876 94.71139927819726 0.0 0.0
819.302367129096 93.48307628444708 440.2377885640382 98.46046855635814 0.0 0.0
775.7606216650146 83.1445306662216 411.0907631284946 100.26751614439632 0.0 0.0
731.1903578201958 73.20697782606491 379.1312643576155 101.44591567274986 0.0 0.0
685.2809336017156 62.10916752419474 342.43492284588183 103.13409182109412 0.0 0.0
638.6811392752174 50.925837922068126 302.7411506534062 105.85031110709852 0.0 0.0
590.8841204611472 39.08512591931128 260.9371808956276 109.68447180856973 0.0 0.0
542.4361907187829 28.35183393399979 219.19360827878046 113.64102104432669 0.0 0.0
484.0639413514108 15.737492978280168 174.61004725879297 119.19382823440183 0.0 0.0
410.6616503538773 4.876888809803791 132.70175317020343 128.45171497333044 0.0 0.0
327.34770194120125 -1.426892116020098 99.05984529567748 135.3175192377149 0.0 0.0
254.35778434321705 -2.0164737497295953 75.58971325416206 135.3533943366868 0.0 0.0
192.60620692047866 4.683396370447605 59.176000086877124 127.23251480937581 0.0 0.0
133.0304786956411 15.698998682906007 44.61884321356413 118.16880326497666 0.0 0.0
63.35218048068003 16.81485417534651 24.05011039680796 119.98663364369449 0.0 0.0
-4.884081617607837 -47.23852916727269 -15.636783235464156 152.77200234193194 0.0 0.0
-4.2969433977729885 -377.7406117662908 -126.792801821188 142.80356723930586 0.0 0.0
-4.471694676839125 -334.65920107572447 -104.47983940759877 -136.28465996912018 0.0 0.0
-19.549669343606023 -57.46585758071997 -23.104658077297795 -163.33549307002127 0.0 0.0
29.18100414841257 12.53080809191514 12.513543672098312 -137.5072674812448 0.0 0.0
86.02819199779694 16.809580281151483 30.851331683684524 -132.86704031885208 0.0 0.0
134.76454159893566 7.295583743562209 42.61131845026935 -140.36556092400923 0.0 0.0
181.99238990570166 -0.129982966990089 54.51295037926612 -149.79180840026373 0.0 0.0
236.6825740998786 -2.1163669512151335 70.7416565038934 -154.9091391871693 0.0 0.0
306.59714622184475 2.3864050813094204 94.93513195296377 -151.88875296373965 0.0 0.0
385.32649970169393 5.784820265350927 124.7785712216458 -144.85405439599324 0.0 0.0
453.9316352497075 16.277072502969844 162.87467143123195 -134.2663433297858 0.0 0.0
510.31589133022806 23.527967097879532 200.86400298790818 -129.2333237668671 0.0 0.0
557.8435921928374 32.38367982375159 239.91743184695258 -123.72717375362024 0.0 0.0
604.9814240052808 41.78293854267839 280.15133063596414 -120.1302264594984 0.0 0.0
650.2295693478708 50.02595386596356 318.28479866869776 -117.66024121394975 0.0 0.0
693.5991182997615 57.45223352314288 352.0626206569298 -115.9454981407286 0.0 0.0
732.9247016605807 63.21670013085405 379.6349507875668 -113.65504539187579 0.0 0.0
769.4737864933271 67.510759706348 402.6902000755679 -109.62772920287733 0.0 0.0
802.2047693085664 68.93675054426676 421.37723440722493 -100.5471993353018 0.0 0.0
833.4994914212409 68.18492479512759 437.531490321281 -82.60798752976787 0.0 0.0
871.1726633461923 75.06933232273983 460.58097776412814 -48.20097754313562 0.0 0.0
871.1726633464687 75.06933232306575 460.5809777643333 48.2009775433141 0.0 0.0
833.4994914216825 68.184924795705 437.53149032159433 82.60798753006534 0.0 0.0
802.204769308719 68.93675054462511 421.37723440735374 100.54719933562355 0.0 0.0
769.4737864930587 67.51075970614855 402.6902000753571 109.62772920297877 0.0 0.0
732.9247016601917 63.21670013049696 379.63495078726635 113.65504539187543 0.0 0.0
693.5991182997815 57.45223352320409 352.0626206569327 115.94549814070449 0.0 0.0
650.229569347246 50.025953865370234 318.28479866826444 117.66024121397426 0.0 0.0
604.9814240049403 41.782938542405645 280.1513306356933 120.13022645954837 0.0 0.0
557.8435921927197 32.38367982376731 239.91743184680467 123.72717375360307 0.0 0.0
510.31589132997743 23.527967097839007 200.86400298770684 129.23332376690516 0.0 0.0
453.9316352494715 16.27707250292591 162.8746714310436 134.26634332970116 0.0 0.0
385.3264997013369 5.784820265361759 124.77857122149936 144.85405439596718 0.0 0.0
306.5971462215016 2.38640508123071 94.93513195282011 151.8887529636788 0.0 0.0
236.68257409963584 -2.1163669512321555 70.74165650381312 154.9091391870268 0.0 0.0
181.99238990555773 -0.12998296691135636 54.51295037924803 149.7918084000495 0.0 0.0
134.76454159887135 7.29558374369773 42.611318450291826 140.36556092386115 0.0 0.0
86.02819199775931 16.80958028115976 30.851331683675717 132.86704031869513 0.0 0.0
29.1810041484123 12.530808091982127 12.513543672118326 137.5072674810569 0.0 0.0
-19.549669343605757 -57.46585758070155 -23.10465807729219 163.33549306979282 0.0 0.0
-4.4716946768848285 -334.65920107541035 -104.47983940748344 136.28465996894343 0.0 0.0
-14.044830130006492 -291.8539826486921 -92.01271569360614 -127.9409537670721 0.0 0.0
-32.05038279973358 -62.97680032807575 -28.507326753992146 -169.11230513187496 0.0 0.0
-1.165960681819973 8.531507418406093 2.2096640209758363 -150.75353865202817 0.0 0.0
40.93040843087664 17.239076008397312 17.450845331782183 -144.62557177488998 0.0 0.0
76.71954872602205 9.67874730933344 25.91641783576521 -150.29394903094223 0.0 0.0
108.61832788846189 2.5188082777576204 33.30865374084381 -160.04762799821646 0.0 0.0
143.30342375854346 -1.169204056424756 42.58557169537379 -168.5209339841499 0.0 0.0
185.29487023920214 0.42937471857057297 56.56965739174633 -168.8384853747691 0.0 0.0
240.15317443478244 2.035919521460829 74.69731538017797 -166.77270755382017 0.0 0.0
303.76226983086667 4.744156560288771 97.57632439705591 -159.5312345076477 0.0 0.0
372.7379713816872 10.124158882881952 126.92211944622707 -152.54900114598973 0.0 0.0
431.95749787180443 13.320452359412293 157.74909849816737 -146.43093848283348 0.0 0.0
484.30052613278076 20.639739142404714 193.8622930850215 -140.6641502621737 0.0 0.0
532.0488179290369 26.451207885674 231.51492992195426 -136.16513065385575 0.0 0.0
575.8632509104981 31.19364877294726 267.391425807407 -132.87903856107636 0.0 0.0
613.7102642484452 33.37999655915219 297.3213493973092 -129.49907526018978 0.0 0.0
646.7222387473487 31.458864249915017 319.9707238931241 -125.06536224525092 0.0 0.0
681.0740538578696 28.112757662571063 340.2560090281088 -114.98368315672481 0.0 0.0
707.627362940184 15.084370026381883 350.473838464357 -96.48045489105822 0.0 0.0
744.6000727900097 9.198370550508841 367.4983930199957 -61.555746216002916 0.0 0.0
744.6000727898381 9.198370550408555 367.4983930199045 61.5557462162407 0.0 0.0
707.6273629398277 15.08437002609891 350.47383846414175 96.48045489135235 0.0 0.0
681.0740538574416 28.112757662256158 340.25600902782963 114.98368315700748 0.0 0.0
646.7222387471361 31.4588642498055 319.9707238929815 125.0653622453566 0.0 0.0
613.7102642481562 33.379996558783404 297.3213493970672 129.49907526012694 0.0 0.0
575.8632509104134 31.1936487728955 267.39142580731476 132.87903856107872 0.0 0.0
532.048817929176 26.451207886010643 231.5149299220648 136.1651306539509 0.0 0.0
484.3005261323142 20.639739141929706 193.8622930847072 140.66415026226028 0.0 0.0
431.9574978715601 13.32045235927977 157.74909849799928 146.43093848286114 0.0 0.0
372.73797138166884 10.124158883322849 126.92211944631107 152.54900114601566 0.0 0.0
303.7622698306777 4.744156560451888 97.5763243970297 159.53123450757286 0.0 0.0
240.15317443459946 2.035919521569345 74.69731538014487 166.77270755388275 0.0 0.0
185.29487023895092 0.42937471841238306 56.56965739162146 168.83848537476052 0.0 0.0
143.3034237582985 -1.1692040566761062 42.5855716952248 168.52093398403792 0.0 0.0
108.61832788832005 2.518808277602581 33.308653740755574 160.04762799796723 0.0 0.0
76.71954872600227 9.678747309424793 25.916417835787314 150.29394903073003 0.0 0.0
40.93040843086116 17.239076008354075 17.45084533176457 144.6255717747042 0.0 0.0
-1.1659606818466606 8.531507418400755 2.209664020966228 150.75353865185096 0.0 0.0
-32.05038279969362 -62.97680032798217 -28.507326753952213 169.1123051316961 0.0 0.0
-14.044830130060086 -291.85398264839597 -92.01271569353696 127.94095376694571 0.0 0.0
-19.163846989809542 -248.70174413024563 -80.31212598983524 -117.7807857557759 0.0 0.0
-42.66461282685376 -64.88439655424159 -32.2640138907187 -171.0272605939168 0.0 0.0
-28.547187647328524 5.129505546208882 -7.02530463033589 -159.61570404008663 0.0 0.0
-2.27721401326576 17.120830076337533 4.453084818921531 -152.9187093468908 0.0 0.0
19.063481343716322 11.783116920569523 9.25210490885074 -156.67683149345163 0.0 0.0
34.42020112251241 5.16118069488172 11.866578323617281 -165.7591357022327 0.0 0.0
47.68484891288368 1.0705959786551191 14.617328325638017 -174.73992226732372 0.0 0.0
62.45884512160877 -0.12274322046320219 18.74116985285451 -179.6272445338854 0.0 0.0
81.84585774822958 0.6721053309910294 25.189938542617604 -176.93719885981673 0.0 0.0
103.49870863033259 0.5212607515257996 32.15990411740075 -175.75767265163103 0.0 0.0
131.82376233089855 2.6183670228650424 42.565837948269824 -169.74849010461287 0.0 0.0
162.5978779736047 2.2591043119800727 53.358890066901324 -167.1005995760762 0.0 0.0
203.69284153354104 5.327844730945593 69.35217279471796 -163.90682136158213 0.0 0.0
252.3250559629742 6.313051123499168 88.96397890951712 -159.84563109365038 0.0 0.0
299.5333188124244 8.347557739481125 114.08854259844533 -153.87921679083314 0.0 0.0
352.7450590055004 6.549641429771121 143.97420946216127 -148.19761056885878 0.0 0.0
403.87858301373217 -3.975641291250824 170.68981726149653 -141.3477450605501 0.0 0.0
455.94906616594966 -16.124549186694438 199.06662844545386 -131.95232590708892 0.0 0.0
513.5683219346284 -29.40764408612243 229.80185785520626 -110.27406624185244 0.0 0.0
540.3790981032712 -75.19846836739966 228.39999209823904 -76.43475346634574 0.0 0.0
540.3790981031523 -75.19846836750642 228.3999920981625 76.43475346660607 0.0 0.0
513.5683219342498 -29.407644086485874 229.80185785494848 110.27406624222311 0.0 0.0
455.9490661656748 -16.12454918697243 199.0666284452575 131.95232590735583 0.0 0.0
403.8785830132833 -3.9756412917444948 170.68981726120722 141.34774506069198 0.0 0.0
352.74505900529164 6.549641429360676 143.97420946195516 148.19761056885267 0.0 0.0
299.53331881247084 8.347557739613833 114.08854259847436 153.8792167908738 0.0 0.0
252.3250559630785 6.313051123697168 88.96397890960336 159.84563109373516 0.0 0.0
203.69284153350605 5.3278447307951495 69.35217279465013 163.90682136171318 0.0 0.0
162.5978779734962 2.259104311665123 53.35889006676965 167.10059957609116 0.0 0.0
131.82376233093174 2.6183670229433496 42.56583794829713 169.74849010460693 0.0 0.0
103.49870863028882 0.5212607514172696 32.159904117351836 175.7576726515668 0.0 0.0
81.84585774820489 0.6721053309457448 25.189938542593925 176.93719885980323 0.0 0.0
62.45884512161823 -0.12274322043784824 18.741169852864793 179.62724453384106 0.0 0.0
47.68484891282651 1.0705959785817205 14.617328325598585 174.73992226715717 0.0 0.0
34.420201122533435 5.161180694855154 11.866578323615903 165.75913570206305 0.0 0.0
19.063481343805414 11.78311692071781 9.252104908922147 156.67683149324327 0.0 0.0
-2.2772140132046426 17.120830076412528 4.453084818962365 152.9187093467136 0.0 0.0
-28.547187647291693 5.129505546273467 -7.025304630305466 159.6157040398603 0.0 0.0
-42.664612826851865 -64.88439655426203 -32.26401389072445 171.02726059374635 0.0 0.0
-19.163846989804 -248.70174413000652 -80.31212598976501 117.78078575562571 0.0 0.0
-20.770188449244515 -207.22442027606553 -68.398382617593 -106.94386188495373 0.0 0.0
-51.381332346597475 -63.531908960982136 -34.472566309065925 -169.08378996867123 0.0 0.0
-53.654299701487616 2.322360712723019 -15.399053883024596 -164.1358587061783 0.0 0.0
-43.673398527135795 16.60385932790303 -8.12028412605162 -157.421366702378 0.0 0.0
-37.8201318532485 13.46267582497325 -7.302951475064166 -159.18122591260678 0.0 0.0
-39.81232794147374 7.629591368723245 -9.64341845207408 -166.82172980604034 0.0 0.0
-48.15505304348903 3.351842092352537 -13.428586970539007 -175.0503450689387 0.0 0.0
-61.81362345284491 0.8326041620521796 -18.33428403640739 -179.64366418420713 0.0 0.0
-81.3748640866906 -0.8953142663944522 -25.112654377809193 -176.89984048362973 0.0 0.0
-103.24334900611777 -0.7507885186841676 -32.15084537903745 -175.74327591022913 0.0 0.0
-131.62169320280776 -2.7267976796197644 -42.517235234560154 -169.76763119005162 0.0 0.0
-162.3666630254146 -2.078898426926406 -53.209714054058495 -167.06093319460993 0.0 0.0
-204.21516175561328 -4.778061802408335 -69.28173568603945 -163.744797556919 0.0 0.0
-254.2381620946927 -6.442800123274758 -89.69823446703191 -159.67683667734713 0.0 0.0
-298.86432601772947 -11.368097948755242 -115.54299851990103 -154.71631906996924 0.0 0.0
-336.50440888488185 -18.446416408483294 -142.4912208760232 -152.190673594224 0.0 0.0
-347.9175762448783 -27.21035087279425 -159.92607589119825 -152.08729485789019 0.0 0.0
-306.82576429127295 -45.242936958132034 -157.6357532855774 -154.83662320872847 0.0 0.0
-164.17464983130031 -41.388489593400905 -94.73133367851109 -150.13339139143608 0.0 0.0
44.103984443370535 -151.94869504983194 -44.62030498750621 -102.69556833916548 0.0 0.0
44.10398444347331 -151.94869504961738 -44.6203049874771 102.69556833952873 0.0 0.0
-164.17464983122733 -41.38848959320251 -94.73133367841827 150.1333913918367 0.0 0.0
-306.8257642913013 -45.24293695835148 -157.635753285631 154.8366232090426 0.0 0.0
-347.9175762450402 -27.210350873326888 -159.92607589136077 152.0872948579863 0.0 0.0
-336.5044088850712 -18.4464164091958 -142.4912208762593 152.19067359430392 0.0 0.0
-298.8643260180777 -11.368097949732586 -115.54299852026165 154.716319070025 0.0 0.0
-254.23816209490695 -6.442800124196054 -89.69823446733969 159.676836677452 0.0 0.0
-204.2151617553497 -4.77806180261862 -69.28173568600945 163.74479755703828 0.0 0.0
-162.3666630251813 -2.07889842722156 -53.209714054066 167.0609331946272 0.0 0.0
-131.6216932025431 -2.7267976797578637 -42.5172352345098 169.76763119006597 0.0 0.0
-103.24334900577784 -0.7507885185043417 -32.15084537887374 175.74327591015174 0.0 0.0
-81.37486408641288 -0.8953142663117708 -25.11265437769776 176.8998404836329 0.0 0.0
-61.813623452615445 0.8326041622270974 -18.334284036284398 179.64366418415506 0.0 0.0
-48.155053043431664 3.3518420922045866 -13.428586970566386 175.05034506876856 0.0 0.0
-39.81232794141343 7.629591368564543 -9.643418452104058 166.82172980587032 0.0 0.0
-37.82013185321357 13.462675824815765 -7.30295147510121 159.18122591239856 0.0 0.0
-43.67339852711685 16.603859327774863 -8.120284126084643 157.42136670220177 0.0 0.0
-53.65429970144675 2.322360712714399 -15.399053883015206 164.1358587059908 0.0 0.0
-51.38133234653007 -63.531908960889254 -34.47256630901805 169.08378996851468 0.0 0.0
-20.770188449234244 -207.22442027588497 -68.39838261753574 106.94386188484057 0.0 0.0
-21.03285839659032 -168.35245798346878 -56.81559491401772 -96.05801193012712 0.0 0.0
-58.83233300113745 -59.49307460929117 -35.49762228312858 -163.3356226785375 0.0 0.0
-76.90358188054358 0.20118270322563347 -23.00976285178924 -164.37614201040765 0.0 0.0
-83.38215394125302 15.753314186363317 -20.282918896019268 -157.9662919370312 0.0 0.0
-93.61457999513276 14.596542915169842 -23.696101160661165 -157.59769815052314 0.0 0.0
-113.30892154378603 9.714121674529494 -31.057002610069016 -163.02318432650569 0.0 0.0
-143.68551662705735 5.336872380800115 -41.444557090472266 -169.3988284366555 0.0 0.0
-184.73386305564895 0.20386492026066172 -56.20479337114499 -168.850787077129 0.0 0.0
-239.7663700868535 -2.2545727445228376 -74.63862915960291 -166.6586284381661 0.0 0.0
-303.55719042592324 -4.936774998221384 -97.56816653472836 -159.47690011932133 0.0 0.0
-372.57977384987294 -10.240641074817352 -126.90278982190789 -152.55709799151563 0.0 0.0
-431.8053248848223 -13.22019607759892 -157.63139808084367 -146.39569241015502 0.0 0.0
-484.235509789171 -20.023504812654092 -193.5357086325305 -140.28860461428422 0.0 0.0
-532.4930133022876 -26.32439256485906 -231.69038769940155 -135.8378489305308 0.0 0.0
-578.103871758373 -34.96732098772965 -270.42341329641033 -134.1926982795561 0.0 0.0
-618.193169638886 -45.78754308178656 -305.79402306634825 -135.0452737851185 0.0 0.0
-652.365696863398 -62.61279548782187 -337.36207935331595 -140.59601528210527 0.0 0.0
-676.3626776583686 -87.44656559991692 -363.46389076531005 -152.11602157740307 0.0 0.0
-703.2627443027816 -139.02354183962822 -398.5003650971428 -162.40845060107137 0.0 0.0
-664.6192972897414 -184.76428069689752 -392.0566898436009 -156.70716089275882 0.0 0.0
-664.619297290372 -184.76428069776267 -392.05668984410397 156.70716089305654 0.0 0.0
-703.2627443030126 -139.0235418401792 -398.5003650974347 162.40845060144846 0.0 0.0
-676.3626776582947 -87.44656560004614 -363.4638907653375 152.11602157766424 0.0 0.0
-652.365696863365 -62.61279548792221 -337.36207935330555 140.5960152821985 0.0 0.0
-618.1931696385391 -45.78754308156556 -305.79402306611826 135.0452737851718 0.0 0.0
-578.1038717579379 -34.96732098722309 -270.42341329605745 134.19269827947264 0.0 0.0
-532.4930133019119 -26.324392564538023 -231.6903876991062 135.8378489305294 0.0 0.0
-484.2355097889133 -20.023504812691836 -193.53570863237582 140.2886046143978 0.0 0.0
-431.8053248842531 -13.220196077278253 -157.631398080488 146.39569241017648 0.0 0.0
-372.57977384960134 -10.240641075284595 -126.90278982190308 152.5570979915158 0.0 0.0
-303.55719042564647 -4.936774998721475 -97.56816653476523 159.47690011931337 0.0 0.0
-239.76637008659165 -2.2545727449573656 -74.63862915964185 166.65862843823936 0.0 0.0
-184.7338630554364 0.20386492001831336 -56.20479337114643 168.85078707712495 0.0 0.0
-143.68551662674963 5.336872380930281 -41.44455709034119 169.39882843653604 0.0 0.0
-113.30892154339102 9.714121674986659 -31.057002609814408 163.02318432633373 0.0 0.0
-93.61457999489754 14.596542915303495 -23.696101160551244 157.59769815030273 0.0 0.0
-83.38215394108605 15.75331418649296 -20.28291889593079 157.9662919368296 0.0 0.0
-76.90358188043595 0.20118270326256682 -23.00976285174645 164.37614201019437 0.0 0.0
-58.832333001099826 -59.49307460925674 -35.49762228310696 163.3356226783667 0.0 0.0
-21.03285839654549 -168.35245798328944 -56.81559491395048 96.05801193000542 0.0 0.0
-21.24342903775708 -132.54487957954854 -46.136492585191675 -85.1474532617029 0.0 0.0
-65.71921618518499 -53.40749270873755 -35.738012668176765 -154.14812707898975 0.0 0.0
-98.65447824557543 -1.171420774070958 -29.94481956527559 -160.40841484073812 0.0 0.0
-121.47924464009512 14.618869115458086 -32.04734107318628 -154.42218240014745 0.0 0.0
-148.13284497583027 15.009663628950126 -39.92244562724187 -151.89431272634585 0.0 0.0
-185.48581924428683 11.307178469935662 -52.19148215728938 -154.4397837333389 0.0 0.0
-236.85242167101302 5.740518159432631 -69.71149030028334 -156.06587322867694 0.0 0.0
-306.2146377452816 -1.8771927938717496 -94.64351637258333 -151.93195348706467 0.0 0.0
-385.1329437202348 -5.9905967524162715 -124.75475900876509 -144.67472511295674 0.0 0.0
-453.9306397397939 -16.43147415187755 -162.89975785117596 -134.17889635187862 0.0 0.0
-510.35682381602624 -23.657135803828492 -200.91495937948264 -129.23920028622854 0.0 0.0
-557.8006189261456 -32.36739518669596 -239.85275378876906 -123.70450435641898 0.0 0.0
-604.63917432393 -41.19620241036812 -279.64835856350777 -119.76493421799907 0.0 0.0
-650.0798629151805 -49.50419861748817 -317.89221324897545 -117.15001307183283 0.0 0.0
-695.6380926466918 -60.15013115013586 -354.53350740825715 -116.68811578098119 0.0 0.0
-739.1314344907607 -73.73029700673693 -388.6605717288589 -118.36737790396289 0.0 0.0
-779.7767330253716 -92.45150847703229 -420.99558143037336 -124.40136838998558 0.0 0.0
-823.9588472246262 -128.29590793986546 -460.0815289625881 -135.1357276494976 0.0 0.0
-870.2973777954268 -183.25887579350737 -506.9169053142889 -145.86604274631267 0.0 0.0
-915.4839919954662 -270.7977425445827 -563.1835680413595 -148.35007697784292 0.0 0.0
-915.4839919952719 -270.79774254453287 -563.1835680413011 148.35007697807902 0.0 0.0
-870.2973777950733 -183.25887579334562 -506.9169053140958 145.86604274663253 0.0 0.0
-823.9588472240861 -128.29590793947207 -460.08152896222134 135.135727649723 0.0 0.0
-779.7767330246832 -92.45150847641925 -420.99558142987064 124.4013683900598 0.0 0.0
-739.1314344900632 -73.73029700603038 -388.66057172834076 118.36737790396161 0.0 0.0
-695.638092646515 -60.15013115003013 -354.5335074081314 116.6881157809982 0.0 0.0
-650.0798629151961 -49.50419861762903 -317.89221324896863 117.1500130718549 0.0 0.0
-604.6391743237632 -41.1962024103919 -279.6483585633663 119.76493421808956 0.0 0.0
-557.8006189260029 -32.36739518682072 -239.852753788645 123.70450435648725 0.0 0.0
-510.3568238154123 -23.65713580341047 -200.9149593790262 129.23920028617826 0.0 0.0
-453.9306397394048 -16.431474151880508 -162.89975785093412 134.17889635185696 0.0 0.0
-385.13294371972637 -5.9905967524858985 -124.75475900858288 144.67472511303032 0.0 0.0
-306.2146377445878 -1.8771927934767385 -94.64351637224962 151.9319534870859 0.0 0.0
-236.85242167063615 5.740518159509618 -69.71149030014385 156.065873228601 0.0 0.0
-185.48581924411423 11.30717846964954 -52.19148215732504 154.4397837331888 0.0 0.0
-148.13284497566244 15.00966362882064 -39.92244562723162 151.89431272618236 0.0 0.0
-121.47924464000383 14.618869115346104 -32.047341073193365 154.4221823999842 0.0 0.0
-98.65447824545268 -1.171420774051808 -29.9448195652336 160.40841484056352 0.0 0.0
-65.71921618514604 -53.40749270869645 -35.73801266815274 154.14812707885523 0.0 0.0
-21.24342903771928 -132.54487957944255 -46.136492585148545 85.1474532616111 0.0 0.0
-21.704072998510597 -100.17550325730377 -36.563872876744306 -74.05623200564409 0.0 0.0
-72.46170981388462 -45.922545692400504 -35.515276651885536 -141.91503741851693 0.0 0.0
-119.2016361907223 -1.8146446690570008 -36.304884257933786 -152.36630941318518 0.0 0.0
-158.095498869876 13.11148001411288 -43.48398862323754 -146.81049790392618 0.0 0.0
-200.99206325271695 14.898325878882916 -55.79317782163757 -142.00845883379375 0.0 0.0
-255.38586103576347 11.31781476462578 -73.34650607654565 -140.69182512617067 0.0 0.0
-327.0019170753005 4.701585019470608 -97.9638504801737 -137.0876134329897 0.0 0.0
-410.5570700386048 -4.640347924653192 -132.56453154758066 -128.39944856340367 0.0 0.0
-484.1275184951469 -15.887074661611306 -174.6311896049388 -118.99762895617113 0.0 0.0
-542.511009520353 -28.505527605308586 -219.26906247088587 -113.52496652529969 0.0 0.0
-590.9488268043121 -39.17805225040401 -260.99682635197547 -109.70187738625792 0.0 0.0
-638.71355943483 -51.02273252663805 -302.7669752246644 -105.87320180727419 0.0 0.0
-684.9292592561567 -61.701596685822494 -342.0086909922431 -102.84511618026765 0.0 0.0
-730.558903093251 -72.32492679649076 -378.3163955780692 -100.75704695116025 0.0 0.0
-776.8107088891201 -84.40190867616207 -412.3078406237795 -100.41357087643671 0.0 0.0
-824.2698356689566 -100.74255184150087 -446.9450142382982 -102.27867684226113 0.0 0.0
-873.1317211118342 -124.79703994666605 -484.3747505552418 -107.25033580069935 0.0 0.0
-929.9939137292316 -168.199412727555 -533.0687653052503 -116.95631702103911 0.0 0.0
-994.7802918043589 -236.66920646950365 -595.7595104890747 -127.59707879970094 0.0 0.0
-1061.2098824145319 -337.7689105200968 -671.126991810938 -132.92360321060193 0.0 0.0
-1061.2098824144352 -337.7689105200712 -671.1269918108978 132.92360321078303 0.0 0.0
-994.7802918040185 -236.66920646935557 -595.7595104888592 127.59707880001952 0.0 0.0
-929.993913729075 -168.19941272755477 -533.068765305168 116.95631702126205 0.0 0.0
-873.1317211118036 -124.79703994669251 -484.3747505551918 107.25033580074764 0.0 0.0
-824.2698356691906 -100.74255184187939 -446.9450142384386 102.27867684238694 0.0 0.0
-776.8107088887007 -84.40190867583932 -412.3078406234297 100.41357087651289 0.0 0.0
-730.5589030928833 -72.32492679619503 -378.316395577761 100.75704695117841 0.0 0.0
-684.9292592558525 -61.70159668570163 -342.008690992012 102.84511618036368 0.0 0.0
-638.7135594343465 -51.02273252627397 -302.7669752242563 105.87320180725482 0.0 0.0
-590.9488268041272 -39.1780522504126 -260.9968263517565 109.7018773861903 0.0 0.0
-542.5110095199336 -28.50552760511971 -219.2690624705365 113.5249665252376 0.0 0.0
-484.12751849463467 -15.887074661402142 -174.63118960458468 118.9976289561621 0.0 0.0
-410.5570700382033 -4.640347924777395 -132.5645315474209 128.39944856344698 0.0 0.0
-327.0019170748422 4.701585019437476 -97.96385048003687 137.08761343294148 0.0 0.0
-255.38586103548593 11.317814764388364 -73.3465060765372 140.6918251259956 0.0 0.0
-200.99206325251467 14.898325878719094 -55.79317782162747 142.00845883364767 0.0 0.0
-158.09549886972715 13.111480014060987 -43.483988623209626 146.81049790377625 0.0 0.0
-119.20163619063236 -1.814644669128251 -36.30488425792817 152.3663094129845 0.0 0.0
-72.46170981384834 -45.92254569241544 -35.515276651879134 141.91503741835467 0.0 0.0
-21.70407299846633 -100.1755032572076 -36.56387287670217 74.05623200555655 0.0 0.0
-22.429540842444098 -71.6068302319742 -28.210911322325487 -62.60137144735979 0.0 0.0
-79.16524530428985 -37.58619893977194 -35.02543327321854 -126.97369167291905 0.0 0.0
-138.81434590444923 -1.8457244527491614 -42.198021107159505 -140.46863177982547 0.0 0.0
-193.38014380361938 11.36313315085721 -54.58555761229324 -135.13060798534082 0.0 0.0
-252.36615875111605 13.840376736717035 -71.45563854934535 -128.124483260323 0.0 0.0
-323.1863993782533 10.313478152239826 -94.17668384398017 -122.34110539859722 0.0 0.0
-408.87342822153346 3.0105738631530246 -126.28829382800785 -113.8256577898789 0.0 0.0
-488.62798870355016 -11.214875457278014 -171.13489591183236 -103.44725187767392 0.0 0.0
-550.7709865403831 -25.71764786366973 -219.5612964847922 -98.3426344389039 0.0 0.0
-603.1225684960696 -39.86213016685279 -265.9470207740614 -95.51318547905119 0.0 0.0
-652.1385163107202 -54.28202235196564 -310.14567488840356 -92.43044774197656 0.0 0.0
-700.2176195436076 -68.67471529645002 -352.1785271013649 -89.4201138973149 0.0 0.0
-747.5115062134458 -82.0370929104381 -390.8228677428177 -87.05150205376913 0.0 0.0
-794.9256924251594 -94.65594661524722 -426.0685155891862 -85.29331205859253 0.0 0.0
-843.5069499582295 -108.45855392839375 -459.75892022923824 -84.83136906880365 0.0 0.0
-894.4345526728999 -127.92383614203166 -496.2519634599531 -86.12317992613089 0.0 0.0
-951.8946382839065 -157.58168812121292 -540.224663339842 -89.80252481369239 0.0 0.0
-1020.7094231019712 -209.6251876871408 -599.2901962169885 -97.89338461262903 0.0 0.0
-1100.2937285811727 -291.24652844351516 -676.3575249290495 -109.53579624293386 0.0 0.0
-1169.1132445885062 -395.8173312236363 -755.8788129753087 -121.80487514315175 0.0 0.0
-1169.1132445882306 -395.81733122345037 -755.8788129751817 121.80487514331433 0.0 0.0
-1100.2937285814924 -291.24652844394365 -676.3575249292917 109.53579624315918 0.0 0.0
-1020.7094231022294 -209.6251876875165 -599.2901962171524 97.89338461281048 0.0 0.0
-951.8946382840547 -157.58168812141722 -540.2246633399152 89.80252481372186 0.0 0.0
-894.4345526727702 -127.92383614198694 -496.2519634598331 86.123179926186 0.0 0.0
-843.5069499578331 -108.45855392805478 -459.7589202289105 84.83136906882378 0.0 0.0
-794.9256924248593 -94.65594661500134 -426.06851558891105 85.2933120585602 0.0 0.0
-747.5115062128123 -82.03709290988085 -390.8228677423186 87.05150205376216 0.0 0.0
-700.2176195431585 -68.67471529617818 -352.1785271009829 89.42011389739565 0.0 0.0
-652.1385163102148 -54.28202235165313 -310.14567488798264 92.43044774198319 0.0 0.0
-603.1225684957876 -39.862130166799204 -265.9470207737825 95.51318547901319 0.0 0.0
-550.7709865403241 -25.717647863979778 -219.56129648468144 98.34263443895952 0.0 0.0
-488.62798870311684 -11.214875457274815 -171.13489591156124 103.4472518777662 0.0 0.0
-408.8734282209565 3.0105738632942187 -126.28829382774768 113.82565778988882 0.0 0.0
-323.1863993777802 10.313478152400485 -94.1766838437917 122.34110539851 0.0 0.0
-252.366158750711 13.840376736890704 -71.45563854917467 128.12448326018665 0.0 0.0
-193.38014380340755 11.363133150842714 -54.58555761223562 135.1306079851726 0.0 0.0
-138.8143459042943 -1.8457244527132746 -42.19802110710227 140.46863177968243 0.0 0.0
-79.16524530419858 -37.58619893968707 -35.02543327316569 126.97369167281656 0.0 0.0
-22.429540842417477 -71.6068302319281 -28.210911322303666 62.60137144728826 0.0 0.0
-23.2625976268549 -47.2027445502878 -21.13960265314281 -50.64586697296011 0.0 0.0
-85.62960594103879 -28.857977263099684 -34.346274961241534 -109.58980470773817 0.0 0.0
-157.58876324555828 -1.4388597379341173 -47.708286895047706 -124.86270227338277 0.0 0.0
-227.4200135478529 9.278749641000898 -65.4320590384665 -119.46360380579299 0.0 0.0
-301.4679082948679 11.76383645242834 -86.82747161892593 -110.01201196623205 0.0 0.0
-386.6906703081661 9.577960337241764 -114.27216148246171 -100.76941471336718 0.0 0.0
-475.09898588676685 -0.9819241137019237 -155.59013144526708 -88.90085557053837 0.0 0.0
-543.3930117538235 -19.395393474872247 -208.12584604748906 -81.79289179451833 0.0 0.0
-599.0862668470794 -34.07278878404732 -257.5719153001798 -80.22525969658267 0.0 0.0
-651.6266928530756 -51.284255299554346 -305.6545389545257 -78.14921869786771 0.0 0.0
-701.9695814389707 -68.86849285446667 -350.98036930306506 -75.92887009192684 0.0 0.0
-751.262379426579 -85.81558348847909 -392.9789900424463 -73.49832905348683 0.0 0.0
-800.9872051284121 -101.77293390406459 -431.7590830046943 -71.72933621130001 0.0 0.0
-850.4362149432305 -117.19357725022164 -467.4424784364485 -70.26083361393898 0.0 0.0
-901.050175508809 -132.92678620751562 -501.87219812893954 -69.52178195752056 0.0 0.0
-956.8924048850005 -155.1186440604213 -541.4324109052171 -70.02398098584106 0.0 0.0
-1020.7106282989264 -190.4791208680646 -591.2684538424402 -71.97313555635112 0.0 0.0
-1099.6519255771161 -250.83417101964196 -659.8334770655977 -78.4168809222617 0.0 0.0
-1190.418090159055 -342.5815090281653 -748.1163553116428 -92.33867116194817 0.0 0.0
-1262.3854644525895 -451.9296664205687 -832.4485371073696 -114.36158546551036 0.0 0.0
-1262.3854644526373 -451.929666420707 -832.4485371074232 114.36158546569882 0.0 0.0
-1190.4180901591922 -342.5815090283876 -748.1163553117142 92.33867116212578 0.0 0.0
-1099.6519255769979 -250.83417101962027 -659.8334770654526 78.41688092247063 0.0 0.0
-1020.7106282983259 -190.47912086750165 -591.2684538419206 71.97313555638067 0.0 0.0
-956.8924048846532 -155.11864406013115 -541.432410904866 70.02398098586924 0.0 0.0
-901.0501755085852 -132.9267862073613 -501.87219812870023 69.52178195755604 0.0 0.0
-850.4362149429685 -117.19357725004225 -467.4424784362163 70.26083361396076 0.0 0.0
-800.9872051278651 -101.77293390360805 -431.7590830042566 71.72933621131563 0.0 0.0
-751.2623794263122 -85.81558348836424 -392.97899004221676 73.49832905350142 0.0 0.0
-701.9695814386835 -68.86849285434334 -350.9803693027622 75.92887009189437 0.0 0.0
-651.6266928527726 -51.28425529944605 -305.6545389541909 78.14921869782468 0.0 0.0
-599.0862668468427 -34.07278878409072 -257.571915299922 80.22525969663104 0.0 0.0
-543.3930117532798 -19.3953934746022 -208.1258460470745 81.7928917945332 0.0 0.0
-475.09898588624526 -0.9819241135248455 -155.59013144494222 88.90085557047765 0.0 0.0
-386.69067030779183 9.577960337085278 -114.27216148237774 100.76941471329384 0.0 0.0
-301.4679082945457 11.763836452337294 -86.82747161886745 110.01201196615699 0.0 0.0
-227.42001354753648 9.278749641154004 -65.43205903832713 119.4636038056764 0.0 0.0
-157.58876324537385 -1.438859737891684 -47.70828689497965 124.86270227327708 0.0 0.0
-85.62960594096793 -28.857977263078464 -34.346274961213915 109.58980470760152 0.0 0.0
-23.262597626810702 -47.20274455023626 -21.139602653114085 50.645866972918476 0.0 0.0
-23.86754458531334 -27.32198063995334 -15.35685756758 -38.16350413171098 0.0 0.0
-91.31731020776914 -20.14420504521609 -33.43845457589556 -89.96873908959945 0.0 0.0
-175.55510720147072 -0.7537717267713866 -52.89266367847264 -105.57575186915119 0.0 0.0
-260.76786345969924 6.699054535750898 -76.21115751514282 -99.96865507217551 0.0 0.0
-348.91407379112223 9.148885669792193 -101.73500352567798 -88.52374601125021 0.0 0.0
-442.726168319587 9.440307093585664 -134.1043087427052 -76.89009952461372 0.0 0.0
-519.8955990152845 -8.644445345362815 -185.75853164844932 -65.29159569889215 0.0 0.0
-583.4102694955791 -24.87272437676485 -239.64222864502784 -63.49232337225807 0.0 0.0
-639.3331680155397 -42.46108789372385 -290.729828401769 -62.40225726896434 0.0 0.0
-692.2396835423629 -62.50192005881182 -339.68153914270874 -61.19100575412385 0.0 0.0
-744.0337565800614 -82.79199831104276 -385.49716564889513 -59.599213427424644 0.0 0.0
-795.7870566888189 -102.53757997445092 -428.16199271337223 -57.7734137884073 0.0 0.0
-847.6823599320007 -121.20504240813571 -467.52223537390216 -56.44330017243337 0.0 0.0
-901.1514089277226 -139.92977821531125 -505.5889248940946 -55.472437894578825 0.0 0.0
-954.9064291539282 -158.58901155288666 -542.4380077514863 -54.52341146359011 0.0 0.0
-1012.1254149068548 -182.83295052769876 -583.2920869172892 -53.88751681412311 0.0 0.0
-1081.5572982602905 -222.29110561950495 -637.8988615756318 -54.12210526254241 0.0 0.0
-1168.339017992573 -288.6152821973294 -713.7546213432836 -58.90949091184175 0.0 0.0
-1270.3648384654198 -390.3172010336118 -813.1284596939367 -75.54841615006049 0.0 0.0
-1350.7894564407316 -510.2536718238452 -907.6421105532324 -108.92309297693527 0.0 0.0
-1350.7894564404278 -510.2536718235825 -907.6421105530526 108.92309297704902 0.0 0.0
-1270.3648384650462 -390.3172010332802 -813.1284596936674 75.54841615016609 0.0 0.0
-1168.3390179922012 -288.6152821970039 -713.7546213430096 58.9094909119682 0.0 0.0
-1081.55729825996 -222.29110561921487 -637.8988615753333 54.12210526256797 0.0 0.0
-1012.1254149066963 -182.8329505275915 -583.2920869171185 53.88751681416591 0.0 0.0
-954.9064291535669 -158.58901155258664 -542.4380077511893 54.52341146362491 0.0 0.0
-901.1514089276459 -139.9297782153267 -505.5889248939419 55.47243789461628 0.0 0.0
-847.6823599315006 -121.20504240773559 -467.5222353734593 56.44330017246412 0.0 0.0
-795.7870566884533 -102.53757997422147 -428.16199271303094 57.773413788418594 0.0 0.0
-744.0337565798902 -82.79199831104322 -385.4971656487063 59.5992134274162 0.0 0.0
-692.2396835416271 -62.50192005818771 -339.6815391421182 61.19100575400664 0.0 0.0
-639.333168014795 -42.461087893131506 -290.72982840118345 62.4022572689377 0.0 0.0
-583.4102694952575 -24.872724376704614 -239.6422286447243 63.492323372274534 0.0 0.0
-519.8955990146801 -8.644445345041271 -185.7585316480151 65.29159569888138 0.0 0.0
-442.72616831878844 9.440307094120126 -134.10430874226714 76.89009952453407 0.0 0.0
-348.9140737906978 9.14888566994776 -101.73500352551048 88.52374601120206 0.0 0.0
-260.76786345940775 6.699054535770266 -76.21115751505124 99.96865507206175 0.0 0.0
-175.55510720132008 -0.7537717268166224 -52.89266367844101 105.57575186901882 0.0 0.0
-91.31731020770548 -20.144205045222364 -33.438454575878346 89.9687390895023 0.0 0.0
-23.867544585262266 -27.321980639921346 -15.35685756755508 38.16350413168643 0.0 0.0
-23.627916641008177 -12.292398514371357 -10.776094546613859 -25.326638577366925 0.0 0.0
-95.26145399999072 -11.867494462443009 -32.13868453873011 -68.24865761625784 0.0 0.0
-192.64298159319273 0.09901774291312648 -57.76318915508388 -82.38921110289373 0.0 0.0
-294.08527970708815 3.1185088872064313 -87.27949477312283 -76.69434829838472 0.0 0.0
-394.3464926530805 9.248829716129547 -115.12441630866755 -64.71248991220665 0.0 0.0
-487.29805223819005 5.395156225649634 -156.43681840179428 -52.23667920847914 0.0 0.0
-557.5227930199162 -14.901008553993671 -214.05682662320837 -45.44497437613553 0.0 0.0
-616.8379881288257 -30.116203578608406 -267.22323523296745 -45.03578780911435 0.0 0.0
-672.8089934249904 -50.73031243452388 -319.5053525434838 -44.93575981600872 0.0 0.0
-727.1168836214564 -73.41631387431151 -369.154070695287 -44.294160210218365 0.0 0.0
-781.0265732905958 -96.269102592017 -415.5736168453485 -43.24688769213431 0.0 0.0
-834.959830000829 -118.77212666601996 -459.0382050843044 -41.97954377162007 0.0 0.0
-890.4990283482359 -140.33553769289637 -500.3199785071205 -41.11218302454372 0.0 0.0
-947.0352253254378 -162.7849450914696 -540.9687754703602 -40.52031684778723 0.0 0.0
-1004.8841870682933 -185.80408737681975 -581.719556332399 -39.70115207343601 0.0 0.0
-1065.6881248722752 -212.86616294413403 -625.5666913640202 -38.26582046885041 0.0 0.0
-1133.6408222255213 -250.69739511667737 -678.5365371983162 -36.64980100517626 0.0 0.0
-1224.8329578106109 -320.00082793170606 -758.4855933075883 -39.28515300513791 0.0 0.0
-1341.4420533290443 -433.65647861168907 -871.489739490946 -57.96552554720485 0.0 0.0
-1443.0991905197566 -575.1583840051915 -987.9643011827044 -103.86593771060357 0.0 0.0
-1443.099190519879 -575.1583840053786 -987.9643011828019 103.86593771072808 0.0 0.0
-1341.44205332926 -433.65647861194265 -871.4897394910597 57.965525547282084 0.0 0.0
-1224.8329578108894 -320.0008279320285 -758.4855933077093 39.28515300521505 0.0 0.0
-1133.6408222257203 -250.6973951169215 -678.5365371984016 36.64980100522397 0.0 0.0
-1065.6881248719606 -212.86616294387525 -625.5666913637015 38.265820468901126 0.0 0.0
-1004.8841870683085 -185.80408737690348 -581.7195563322845 39.70115207347018 0.0 0.0
-947.0352253255808 -162.78494509170224 -540.9687754703924 40.52031684782815 0.0 0.0
-890.4990283479979 -140.33553769276327 -500.31997850688646 41.112183024567 0.0 0.0
-834.9598300004864 -118.77212666582017 -459.03820508396547 41.97954377166481 0.0 0.0
-781.0265732901221 -96.26910259170629 -415.5736168449323 43.24688769217332 0.0 0.0
-727.1168836211407 -73.41631387416237 -369.15407069498355 44.29416021016315 0.0 0.0
-672.8089934245882 -50.73031243430458 -319.50535254310574 44.93575981595876 0.0 0.0
-616.8379881284533 -30.116203578463484 -267.2232352326034 45.035787809122176 0.0 0.0
-557.5227930195549 -14.901008553964804 -214.0568266228935 45.44497437620401 0.0 0.0
-487.2980522377952 5.395156225692972 -156.43681840155426 52.236679208482755 0.0 0.0
-394.3464926525811 9.248829716287874 -115.12441630847783 64.71248991216217 0.0 0.0
-294.0852797067449 3.118508887332409 -87.27949477298405 76.69434829833921 0.0 0.0
-192.6429815930622 0.09901774281657838 -57.763189155073675 82.38921110282328 0.0 0.0
-95.26145399992757 -11.86749446250746 -32.13868453873051 68.24865761618952 0.0 0.0
-23.627916640994364 -12.292398514392508 -10.77609454661606 25.326638577358388 0.0 0.0
-21.387755654459795 -2.367760200385459 -7.126654756453574 -12.653587529466607 0.0 0.0
-95.90238803219424 -4.539463447626403 -30.132555443946195 -44.442979538539255 0.0 0.0
-208.76848538679718 0.9060228623693707 -62.35873875732834 -54.68620701910842 0.0 0.0
-328.28385947649724 -1.466426394632887 -98.89286152338941 -49.73458137219728 0.0 0.0
-436.8762344028558 12.737515811824196 -127.50912868275653 -40.01224539149883 0.0 0.0
-518.2102048621491 -4.061716471131556 -181.2238656671477 -28.572226230914808 0.0 0.0
-586.412523225453 -17.844744231386336 -237.58624492520164 -26.83310306678232 0.0 0.0
-644.5433696945606 -35.95000678575064 -291.7837914078715 -27.188015617494873 0.0 0.0
-701.0277013793025 -58.659546219814395 -344.3762054730337 -27.39135508924193 0.0 0.0
-757.194798101106 -83.83374570075432 -394.67474901363767 -27.240183844802523 0.0 0.0
-813.6476239791164 -109.51905661695656 -442.2236480850519 -26.68458037580572 0.0 0.0
-871.078543852364 -134.49181295842521 -487.2498029944067 -26.021607530869595 0.0 0.0
-929.0795579037015 -159.6550799620651 -530.6362064407575 -25.572232535043934 0.0 0.0
-989.622753930641 -185.4379162895636 -574.4093959868287 -25.356141914466015 0.0 0.0
-1052.9769515425378 -213.67757100790553 -620.3256253692573 -24.830372684541786 0.0 0.0
-1118.0381810197935 -245.4260466232075 -668.5932151950383 -23.30299014346728 0.0 0.0
-1185.1244355814242 -283.0822497489027 -720.8574788300532 -20.73685173098786 0.0 0.0
-1257.346352084527 -332.4870881260892 -781.9112570204221 -19.646493152173456 0.0 0.0
-1402.3149588112624 -469.96439444946077 -921.1431583902055 -37.4319915965747 0.0 0.0
-1550.1817233907461 -655.2068415138594 -1083.078728380701 -96.85409875913975 0.0 0.0
-1550.1817233910438 -655.2068415142004 -1083.0787283809113 96.85409875922244 0.0 0.0
-1402.314958811518 -469.9643944497456 -921.143158390355 37.43199159662099 0.0 0.0
-1257.3463520838147 -332.487088125394 -781.9112570197989 19.646493152194076 0.0 0.0
-1185.1244355806366 -283.08224974814726 -720.8574788293708 20.736851731020728 0.0 0.0
-1118.0381810190897 -245.42604662254107 -668.5932151944477 23.30299014344316 0.0 0.0
-1052.976951541588 -213.67757100700035 -620.3256253684675 24.83037268454065 0.0 0.0
-989.6227539298031 -185.43791628879117 -574.4093959861029 25.356141914479487 0.0 0.0
-929.079557902941 -159.65507996139183 -530.6362064401249 25.572232535025414 0.0 0.0
-871.0785438520704 -134.4918129582584 -487.2498029941054 26.021607530845845 0.0 0.0
-813.6476239787116 -109.51905661670622 -442.22364808470616 26.684580375775255 0.0 0.0
-757.1947981007663 -83.83374570057384 -394.67474901330104 27.240183844723163 0.0 0.0
-701.0277013788436 -58.65954621952677 -344.376205472617 27.391355089190604 0.0 0.0
-644.543369693852 -35.95000678522162 -291.783791407305 27.188015617486986 0.0 0.0
-586.4125232248977 -17.84474423106132 -237.58624492473587 26.833103066748286 0.0 0.0
-518.2102048617854 -4.061716471066041 -181.2238656668701 28.57222623090312 0.0 0.0
-436.87623440259785 12.7375158115489 -127.50912868273295 40.01224539148684 0.0 0.0
-328.28385947625435 -1.4664263947585052 -98.8928615233566 49.73458137215923 0.0 0.0
-208.7684853865676 0.9060228624860631 -62.35873875722445 54.686207019090276 0.0 0.0
-95.90238803212053 -4.539463447631409 -30.132555443925572 44.442979538483755 0.0 0.0
-21.38775565445809 -2.367760200397502 -7.126654756456677 12.653587529403623 0.0 0.0
-14.887391177749667 2.3167617787304446 -3.771188819705766 -1.3036647037765707 0.0 0.0
-90.75919605356289 1.2526584589243441 -26.851961278391556 -18.174149320141797 0.0 0.0
-224.31394742634302 0.6150993516164451 -67.10965442241798 -21.363181642774208 0.0 0.0
-363.86858918162625 -3.2033887531271072 -110.0388183260983 -19.76778962560033 0.0 0.0
-475.1647235772675 12.025000390527198 -142.99693375034806 -14.445773756288153 0.0 0.0
-549.7354168613438 -10.327090121574926 -204.40961918748374 -8.507913780773439 0.0 0.0
-609.1997238918688 -20.97554945383004 -258.3051810794135 -8.850852864325374 0.0 0.0
-667.5125504626832 -41.46944786803727 -313.0177159315909 -9.324500309802021 0.0 0.0
-725.3654327353372 -66.43381491003422 -366.1692033382761 -9.701934823381944 0.0 0.0
-783.9777389730768 -94.09813601150785 -417.45733679348996 -9.870714772928679 0.0 0.0
-843.1217760881868 -121.92011412501294 -466.0140958706188 -9.840070504829963 0.0 0.0
-902.9801352387336 -150.5835418027666 -513.0397019758996 -9.786065545605847 0.0 0.0
-964.8623110194021 -178.67413944079476 -559.1368317316482 -9.830080147929976 0.0 0.0
-1029.6350035576238 -208.05420385723468 -606.4962941078433 -9.85988320809857 0.0 0.0
-1098.0395184164513 -241.3289292499904 -657.2880539654054 -9.64201438883864 0.0 0.0
-1168.7964177872127 -279.14429748875335 -711.4080316683425 -8.770249512445469 0.0 0.0
-1237.9845752261253 -319.88941961026785 -766.1664990220542 -6.923309028276207 0.0 0.0
-1300.41276439811 -360.50797720631306 -817.9558032612015 -3.699691031024223 0.0 0.0
-1363.4909719120046 -411.1608628734337 -874.3209902773017 -10.134220115761005 0.0 0.0
-1731.7377858649659 -805.8711830921807 -1250.0172476234966 -79.43952874167499 0.0 0.0
-1731.7377858648833 -805.8711830921065 -1250.0172476234347 79.43952874168714 0.0 0.0
-1363.4909719115362 -411.1608628729791 -874.3209902769444 10.134220115800737 0.0 0.0
-1300.4127643976499 -360.5079772058766 -817.9558032608521 3.6996910310074593 0.0 0.0
-1237.984575226431 -319.889419610621 -766.1664990221975 6.9233090282910394 0.0 0.0
-1168.7964177868562 -279.1442974884421 -711.408031667992 8.770249512456017 0.0 0.0
-1098.0395184158301 -241.3289292494218 -657.2880539648924 9.642014388835761 0.0 0.0
-1029.6350035570183 -208.05420385669998 -606.4962941073163 9.859883208140452 0.0 0.0
-964.862311019252 -178.6741394407488 -559.1368317314444 9.830080147904845 0.0 0.0
-902.9801352387544 -150.58354180292764 -513.0397019758066 9.786065545632692 0.0 0.0
-843.121776087753 -121.92011412473323 -466.0140958702206 9.84007050484729 0.0 0.0
-783.9777389726854 -94.09813601127681 -417.45733679314367 9.870714772896818 0.0 0.0
-725.3654327347613 -66.43381490963255 -366.1692033378099 9.701934823438442 0.0 0.0
-667.5125504623074 -41.46944786788265 -313.01771593121146 9.324500309835615 0.0 0.0
-609.199723891467 -20.975549453671356 -258.3051810790197 8.850852864313072 0.0 0.0
-549.7354168608978 -10.327090121369626 -204.40961918711432 8.50791378078922 0.0 0.0
-475.1647235768421 12.02500039064958 -142.99693375012924 14.445773756312866 0.0 0.0
-363.868589181252 -3.2033887530217364 -110.0388183259593 19.7677896255733 0.0 0.0
-224.313947426158 0.6150993515920469 -67.10965442236977 21.363181642771007 0.0 0.0
-90.75919605347015 1.2526584589610414 -26.85196127835273 18.174149320116175 0.0 0.0
-14.88739117774006 2.3167617787595347 -3.7711888196941565 1.3036647037915157 0.0 0.0
SCALARS Strain float 6
LOOKUP_TABLE default
0.005962844999115202 -0.007086358713935606 0.0 -0.0036267477130652453 0.0 0.0
0.001712920683803223 -0.0005382295657298253 0.0 0.0009423193375602962 0.0 0.0
0.0016414298010574684 -0.0007408654152835648 0.0 -0.00012669352893296404 0.0 0.0
0.001894966281782708 -0.0008037334857370904 0.0 -0.0001283744145196969 0.0 0.0
0.0023955838960824033 -0.0011382345272233363 0.0 -0.00016382622927806068 0.0 0.0
0.0033529158006144737 -0.001828827472433403 0.0 -0.00019397113885610828 0.0 0.0
0.00459742311695685 -0.0028236744421517024 0.0 -0.0002556610386287017 0.0 0.0
0.006133548998074335 -0.004091490552538768 0.0 -0.00032630925494278595 0.0 0.0
0.008013921860670101 -0.005698301205594336 0.0 -0.00040870817912137813 0.0 0.0
0.010345776922992414 -0.0077548409367050875 0.0 -0.0005057207617086834 0.0 0.0
0.013353590307226479 -0.010491984690873757 0.0 -0.000610000747058137 0.0 0.0
0.017376942133683758 -0.014244211958790443 0.0 -0.0007571902626203886 0.0 0.0
0.022750067540578515 -0.019344854502383102 0.0 -0.0009585749343064276 0.0 0.0
0.029720467787134185 -0.026034195867253418 0.0 -0.0012131276049633238 0.0 0.0
0.03832610234251515 -0.034340705975739017 0.0 -0.0015354341648391862 0.0 0.0
0.048232061665510625 -0.04392670715522162 0.0 -0.0018789061502215987 0.0 0.0
0.05866401677373417 -0.05402835441269316 0.0 -0.002103526616775736 0.0 0.0
0.06848546267495335 -0.06353506082530469 0.0 -0.0020009606434197302 0.0 0.0
0.0764082249410919 -0.07118758850863105 0.0 -0.0015086825856160668 0.0 0.0
0.08109196502917246 -0.07562653313450252 0.0 -0.0010749434898550403 0.0 0.0
0.08109196502917126 -0.07562653313449963 0.0 0.001074943489855873 0.0 0.0
0.07640822494108498 -0.07118758850862639 0.0 0.0015086825856240882 0.0 0.0
0.06848546267494167 -0.06353506082529647 0.0 0.002000960643423755 0.0 0.0
0.05866401677371938 -0.05402835441268028 0.0 0.0021035266167793165 0.0 0.0
0.048232061665496415 -0.04392670715520608 0.0 0.001878906150219517 0.0 0.0
0.038326102342501056 -0.03434070597572636 0.0 0.0015354341648404768 0.0 0.0
0.02972046778711887 -0.02603419586723965 0.0 0.0012131276049623385 0.0 0.0
0.022750067540561844 -0.019344854502369335 0.0 0.0009585749343059002 0.0 0.0
0.017376942133667 -0.014244211958774566 0.0 0.0007571902626198335 0.0 0.0
0.013353590307210728 -0.010491984690859657 0.0 0.0006100007470575264 0.0 0.0
0.010345776922978875 -0.007754840936692098 0.0 0.000505720761706574 0.0 0.0
0.00801392186065901 -0.005698301205583345 0.0 0.00040870817912141977 0.0 0.0
0.0061335489980646335 -0.004091490552530219 0.0 0.0003263092549420643 0.0 0.0
0.00459742311694912 -0.002823674442145596 0.0 0.00025566103862842415 0.0 0.0
0.0033529158006089105 -0.0018288274724291842 0.0 0.0001939711388545401 0.0 0.0
0.002395583896079717 -0.001138234527221782 0.0 0.00016382622927756108 0.0 0.0
0.0018949662817816376 -0.0008037334857363687 0.0 0.00012837441451928056 0.0 0.0
0.0016414298010568457 -0.0007408654152832594 0.0 0.0001266935289329918 0.0 0.0
0.0017129206838025907 -0.0005382295657300057 0.0 -0.0009423193375591721 0.0 0.0
0.005962844999110747 -0.0070863587139278535 0.0 0.0036267477130488 0.0 0.0
0.0039914835178342205 -0.0054163429023558335 0.0 -0.004320823110558564 0.0 0.0
0.0009601098946358747 -0.00024161856300256024 0.0 0.00028055524215493677 0.0 0.0
0.001425597685822266 -0.0005677368524167892 0.0 -0.00010814683781426582 0.0 0.0
0.0016968503600830812 -0.0007247297462023017 0.0 -0.00038872160965490454 0.0 0.0
0.0021144669537410416 -0.0009527583569082787 0.0 -0.0004043361151767483 0.0 0.0
0.002933054497330575 -0.001514850926229605 0.0 -0.0004951533471185543 0.0 0.0
0.004066157620270676 -0.002387172956561434 0.0 -0.0006570899322059787 0.0 0.0
0.0054527452994755175 -0.003509509708663039 0.0 -0.000825980975846824 0.0 0.0
0.00713193779727392 -0.004924203697264984 0.0 -0.0010076892596299625 0.0 0.0
0.009199233448270477 -0.006728004884544947 0.0 -0.0012132382788208884 0.0 0.0
0.011847677171744796 -0.009117338333510139 0.0 -0.0014482428461022878 0.0 0.0
0.015378252676670975 -0.01239347669326829 0.0 -0.0017389536352024199 0.0 0.0
0.020139919020415977 -0.016902029906218807 0.0 -0.0021708242939171285 0.0 0.0
0.02639166908578764 -0.02289289600533362 0.0 -0.0027752974845301343 0.0 0.0
0.03416761923274478 -0.03039180681373188 0.0 -0.0035190203866395514 0.0 0.0
0.04316241566847511 -0.03909251285802351 0.0 -0.0043034855701414715 0.0 0.0
0.05267762732275812 -0.04830581885576746 0.0 -0.004816929616705851 0.0 0.0
0.061698580977758585 -0.05703545691679435 0.0 -0.0046552349632554 0.0 0.0
0.06901428826902048 -0.0640813543697365 0.0 -0.0036952316232881643 0.0 0.0
0.07330217851794865 -0.06818312902258206 0.0 -0.002024561628287458 0.0 0.0
0.07330217851794704 -0.06818312902258161 0.0 0.002024561628296173 0.0 0.0
0.06901428826901423 -0.06408135436973028 0.0 0.0036952316233032634 0.0 0.0
0.06169858097774862 -0.05703545691678524 0.0 0.004655234963264809 0.0 0.0
0.05267762732274599 -0.0483058188557588 0.0 0.004816929616711985 0.0 0.0
0.04316241566846277 -0.03909251285801485 0.0 0.004303485570139487 0.0 0.0
0.03416761923273186 -0.03039180681372189 0.0 0.0035190203866404812 0.0 0.0
0.026391669085773825 -0.022892896005321184 0.0 0.0027752974845296485 0.0 0.0
0.02013991902040141 -0.01690202990620593 0.0 0.0021708242939164624 0.0 0.0
0.015378252676656268 -0.012393476693255523 0.0 0.0017389536352006851 0.0 0.0
0.011847677171730672 -0.009117338333495928 0.0 0.001448242846100456 0.0 0.0
0.009199233448258223 -0.0067280048845344 0.0 0.0012132382788178353 0.0 0.0
0.007131937797264079 -0.004924203697256879 0.0 0.001007689259629213 0.0 0.0
0.005452745299466696 -0.0035095097086553784 0.0 0.0008259809758451031 0.0 0.0
0.004066157620263786 -0.0023871729565546618 0.0 0.0006570899322058121 0.0 0.0
0.0029330544973258654 -0.0015148509262257193 0.0 0.0004951533471169584 0.0 0.0
0.0021144669537390137 -0.0009527583569069464 0.0 0.0004043361151760405 0.0 0.0
0.0016968503600821583 -0.0007247297462023017 0.0 0.00038872160965408575 0.0 0.0
0.001425597685821886 -0.0005677368524169835 0.0 0.00010814683781407153 0.0 0.0
0.0009601098946361714 -0.00024161856300244922 0.0 -0.0002805552421556584 0.0 0.0
0.003991483517828465 -0.0054163429023475936 0.0 0.004320823110545213 0.0 0.0
0.0028517016594532263 -0.00433758470298487 0.0 -0.004049409067586177 0.0 0.0
0.000553300159118756 -0.00014825744280283493 0.0 -0.00040947842813843227 0.0 0.0
0.0011321036298856772 -0.0003995218982136284 0.0 -0.0003139362181792671 0.0 0.0
0.0014936231090539077 -0.0006316520931573533 0.0 -0.0006136206008408029 0.0 0.0
0.00186576375847608 -0.0008119390483394273 0.0 -0.0006634176189380392 0.0 0.0
0.0025140968525221123 -0.001217088359771079 0.0 -0.0007490085762838772 0.0 0.0
0.0035253968089894623 -0.0019535133047221542 0.0 -0.0009703465755716012 0.0 0.0
0.004766139649920554 -0.0029397745683534815 0.0 -0.0012326111047755162 0.0 0.0
0.006250400548935154 -0.004164898401275208 0.0 -0.001496646218103706 0.0 0.0
0.008061629305225828 -0.00572246089950712 0.0 -0.0017859941033785826 0.0 0.0
0.010363943875662453 -0.007778573453997795 0.0 -0.002123472165466017 0.0 0.0
0.01342187090490882 -0.010597497188131522 0.0 -0.002542912950129275 0.0 0.0
0.01756568732095715 -0.014504931026561474 0.0 -0.0031266370018854794 0.0 0.0
0.02307246555340334 -0.01976901508474982 0.0 -0.003981398013332596 0.0 0.0
0.02998706760078442 -0.026430042004022214 0.0 -0.005078891942482955 0.0 0.0
0.038038652789082854 -0.03421488318709809 0.0 -0.006203535541334987 0.0 0.0
0.046625378279467056 -0.04252934171719991 0.0 -0.00694924774427319 0.0 0.0
0.05485694077961926 -0.05048842717720081 0.0 -0.006808555859160126 0.0 0.0
0.06160256014029044 -0.05698704113746178 0.0 -0.005456543055265745 0.0 0.0
0.06564534532120707 -0.06086746478398464 0.0 -0.0027820863618683855 0.0 0.0
0.06564534532120517 -0.06086746478398508 0.0 0.002782086361882069 0.0 0.0
0.0616025601402846 -0.056987041137458005 0.0 0.005456543055287255 0.0 0.0
0.05485694077961076 -0.050488427177190154 0.0 0.006808555859175114 0.0 0.0
0.04662537827945698 -0.042529341717188585 0.0 0.006949247744281517 0.0 0.0
0.03803865278907191 -0.03421488318708743 0.0 0.006203535541334515 0.0 0.0
0.029987067600772924 -0.026430042004010224 0.0 0.005078891942483843 0.0 0.0
0.023072465553390972 -0.019769015084739383 0.0 0.003981398013332693 0.0 0.0
0.017565687320944406 -0.01450493102655015 0.0 0.00312663700188609 0.0 0.0
0.013421870904896077 -0.010597497188119864 0.0 0.002542912950127346 0.0 0.0
0.010363943875649873 -0.0077785734539869145 0.0 0.0021234721654636024 0.0 0.0
0.008061629305215215 -0.0057224608994982384 0.0 0.001785994103374322 0.0 0.0
0.006250400548926283 -0.004164898401268435 0.0 0.0014966462181023599 0.0 0.0
0.004766139649912696 -0.0029397745683474863 0.0 0.0012326111047730737 0.0 0.0
0.003525396808983547 -0.0019535133047179354 0.0 0.0009703465755698804 0.0 0.0
0.0025140968525183133 -0.0012170883597688587 0.0 0.000749008576281518 0.0 0.0
0.0018657637584746228 -0.000811939048337984 0.0 0.0006634176189370816 0.0 0.0
0.0014936231090529745 -0.0006316520931565206 0.0 0.0006136206008400674 0.0 0.0
0.001132103629885528 -0.00039952189821326756 0.0 0.0003139362181780181 0.0 0.0
0.000553300159119155 -0.00014825744280237696 0.0 0.00040947842813642 0.0 0.0
0.0028517016594477723 -0.0043375847029773025 0.0 0.004049409067575366 0.0 0.0
0.0021064673277388056 -0.00353169385730058 0.0 -0.003495135968374752 0.0 0.0
0.0003319386866414385 -0.00013614181955490245 0.0 -0.0009921759076334524 0.0 0.0
0.0008565974835006221 -0.00026886826735278424 0.0 -0.0006263079828137674 0.0 0.0
0.0012684874320576973 -0.0005206872281863784 0.0 -0.0008413147838581964 0.0 0.0
0.0016314528506731554 -0.0007009521018630505 0.0 -0.0009421926674179487 0.0 0.0
0.002133573893468625 -0.0009764254056296995 0.0 -0.0009862524577754495 0.0 0.0
0.0029717237902565016 -0.0015390877849829065 0.0 -0.0011965411292748779 0.0 0.0
0.004075093082044155 -0.0023809323848617003 0.0 -0.0015416200712975725 0.0 0.0
0.005370181828708225 -0.003426051774634842 0.0 -0.0018723818118737134 0.0 0.0
0.006934162977401029 -0.004745616082133419 0.0 -0.00222764892353991 0.0 0.0
0.008902913392169764 -0.006478596175053086 0.0 -0.0026347595536865415 0.0 0.0
0.011503483793084676 -0.008851761248875656 0.0 -0.0031423649413189897 0.0 0.0
0.015039322140256047 -0.012168243397328693 0.0 -0.0038592944307103416 0.0 0.0
0.01978465875666362 -0.016686971967956543 0.0 -0.00486767599521927 0.0 0.0
0.02580400295051339 -0.02247443366201951 0.0 -0.006167568525209943 0.0 0.0
0.0328813274296983 -0.029315197342824728 0.0 -0.007550312642267826 0.0 0.0
0.04051630641594616 -0.036706399357582464 0.0 -0.008501889194739848 0.0 0.0
0.047945629695055954 -0.04388917279830973 0.0 -0.008418867400147856 0.0 0.0
0.05416647782084298 -0.04988503942604705 0.0 -0.0068143687313643175 0.0 0.0
0.05804750933565185 -0.05361641516368287 0.0 -0.003414473712452487 0.0 0.0
0.058047509335649665 -0.05361641516367999 0.0 0.0034144737124706392 0.0 0.0
0.054166477820837444 -0.0498850394260415 0.0 0.006814368731388687 0.0 0.0
0.047945629695048675 -0.04388917279830662 0.0 0.008418867400164842 0.0 0.0
0.04051630641593737 -0.03670639935757802 0.0 0.008501889194746926 0.0 0.0
0.03288132742968866 -0.02931519734281718 0.0 0.007550312642266355 0.0 0.0
0.02580400295050328 -0.022474433662011295 0.0 0.00616756852520961 0.0 0.0
0.019784658756653 -0.016686971967948327 0.0 0.0048676759952190896 0.0 0.0
0.015039322140245073 -0.012168243397318923 0.0 0.0038592944307109245 0.0 0.0
0.01150348379307363 -0.008851761248867773 0.0 0.003142364941315978 0.0 0.0
0.008902913392158887 -0.006478596175045537 0.0 0.002634759553682947 0.0 0.0
0.006934162977391842 -0.004745616082125759 0.0 0.0022276489235345254 0.0 0.0
0.005370181828700429 -0.0034260517746274033 0.0 0.001872381811871271 0.0 0.0
0.004075093082037351 -0.002380932384855816 0.0 0.0015416200712952688 0.0 0.0
0.002971723790251457 -0.001539087784980131 0.0 0.0011965411292736428 0.0 0.0
0.00213357389346594 -0.0009764254056288113 0.0 0.0009862524577738535 0.0 0.0
0.0016314528506719134 -0.0007009521018622178 0.0 0.0009421926674172965 0.0 0.0
0.0012684874320569722 -0.0005206872281854902 0.0 0.0008413147838571972 0.0 0.0
0.0008565974835005874 -0.0002688682673530063 0.0 0.0006263079828126433 0.0 0.0
0.00033193868664158077 -0.0001361418195543057 0.0 0.0009921759076311348 0.0 0.0
0.0021064673277341878 -0.0035316938572941114 0.0 0.0034951359683663835 0.0 0.0
0.0015766173396711824 -0.0028835214373485185 0.0 -0.0029298525725880153 0.0 0.0
0.00020655959092888768 -0.0001541349097393674 0.0 -0.0014351058497577979 0.0 0.0
0.0006214041794340708 -0.00017370604733929484 0.0 -0.0009652585531741559 0.0 0.0
0.0010337028658866446 -0.0004045594370233885 0.0 -0.0010789945879747936 0.0 0.0
0.0013879854333942454 -0.0005919907575756556 0.0 -0.001207712365160124 0.0 0.0
0.0017998240481163566 -0.0007940385514488835 0.0 -0.0012466116635587166 0.0 0.0
0.0024383864999790693 -0.001168290521733395 0.0 -0.0013652040265418885 0.0 0.0
0.0033703493246539026 -0.0018288632891050316 0.0 -0.0017088550568611915 0.0 0.0
0.004491930874855148 -0.0027116296564695386 0.0 -0.0021287686431353398 0.0 0.0
0.005816994850918175 -0.00380032847466083 0.0 -0.0025319071150583655 0.0 0.0
0.007465214275209166 -0.0052219415111204315 0.0 -0.002986586409479852 0.0 0.0
0.009624353316378662 -0.0071653510815876675 0.0 -0.003545200102576751 0.0 0.0
0.012563952075083075 -0.009895785456468964 0.0 -0.004318934501205102 0.0 0.0
0.016543307125112344 -0.013667008411202275 0.0 -0.0054333599513199105 0.0 0.0
0.021647636393777564 -0.018561303024605014 0.0 -0.006853145475697653 0.0 0.0
0.027717264623604722 -0.024418127338200035 0.0 -0.008331278841493234 0.0 0.0
0.034356754347215815 -0.030846596408693694 0.0 -0.009423063990813746 0.0 0.0
0.040957976350706984 -0.03723254987106106 0.0 -0.009468773170400263 0.0 0.0
0.046674151614138314 -0.04274557227026232 0.0 -0.007791189702736789 0.0 0.0
0.050448068177672084 -0.0463766511706023 0.0 -0.003946765601806623 0.0 0.0
0.050448068177669766 -0.04637665117059986 0.0 0.00394676560182472 0.0 0.0
0.04667415161413323 -0.042745572270259435 0.0 0.007791189702760881 0.0 0.0
0.04095797635070052 -0.037232549871056175 0.0 0.009468773170417832 0.0 0.0
0.03435675434720788 -0.030846596408685256 0.0 0.009423063990821323 0.0 0.0
0.027717264623596513 -0.024418127338191598 0.0 0.00833127884149154 0.0 0.0
0.021647636393768876 -0.01856130302459702 0.0 0.006853145475697098 0.0 0.0
0.01654330712510356 -0.013667008411193171 0.0 0.005433359951319272 0.0 0.0
0.012563952075073742 -0.009895785456459416 0.0 0.004318934501204574 0.0 0.0
0.009624353316369266 -0.007165351081579341 0.0 0.0035452001025729762 0.0 0.0
0.007465214275200138 -0.005221941511114325 0.0 0.0029865864094762717 0.0 0.0
0.005816994850910404 -0.00380032847465539 0.0 0.002531907115053106 0.0 0.0
0.004491930874848435 -0.0027116296564643205 0.0 0.002128768643132606 0.0 0.0
0.003370349324648289 -0.0018288632891004797 0.0 0.0017088550568578331 0.0 0.0
0.002438386499975201 -0.0011682905217301753 0.0 0.0013652040265405563 0.0 0.0
0.0017998240481143374 -0.0007940385514481063 0.0 0.0012466116635571484 0.0 0.0
0.0013879854333931352 -0.000591990757575489 0.0 0.0012077123651590554 0.0 0.0
0.0010337028658860825 -0.0004045594370234995 0.0 0.0010789945879731422 0.0 0.0
0.0006214041794340153 -0.00017370604733923933 0.0 0.0009652585531715885 0.0 0.0
0.00020655959092889808 -0.0001541349097388678 0.0 0.0014351058497543562 0.0 0.0
0.0015766173396675465 -0.0028835214373433993 0.0 0.002929852572581479 0.0 0.0
0.00118775704722935 -0.0023527274509122093 0.0 -0.0024502459400115584 0.0 0.0
0.0001265474025860941 -0.00017811088727245905 0.0 -0.0017550899339547898 0.0 0.0
0.00042409766890241785 -0.00010343888209168872 0.0 -0.0012845113324545798 0.0 0.0
0.0008003951774653642 -0.0002923197525653287 0.0 -0.0013150617946366822 0.0 0.0
0.001131693093183908 -0.0004763551350266404 0.0 -0.0014475225842882217 0.0 0.0
0.0014818887285131116 -0.0006485794982939996 0.0 -0.0015215908273943646 0.0 0.0
0.0019603360661303026 -0.0008885537740234151 0.0 -0.0015803439413819287 0.0 0.0
0.0026733872340761328 -0.001330853331677151 0.0 -0.0018038160933968594 0.0 0.0
0.003606695557349271 -0.0020155436116340297 0.0 -0.0022232344964235873 0.0 0.0
0.004711085714296875 -0.0028939144177727583 0.0 -0.002689554814555878 0.0 0.0
0.006049452666953989 -0.004016748539929282 0.0 -0.0031666546236264748 0.0 0.0
0.0077859029344657105 -0.005544557802153793 0.0 -0.00374320272132031 0.0 0.0
0.010145766357853886 -0.007704163159058197 0.0 -0.004536552010243389 0.0 0.0
0.013360819519973276 -0.01072335884462361 0.0 -0.00564871598448502 0.0 0.0
0.017537026972229725 -0.014709167354539865 0.0 -0.0070825202771990226 0.0 0.0
0.022573884684279254 -0.019560423414494377 0.0 -0.008608060211600072 0.0 0.0
0.02817068738027949 -0.024976081229791225 0.0 -0.009738941465429057 0.0 0.0
0.03388776304840127 -0.030513890643140362 0.0 -0.009893415471824957 0.0 0.0
0.039083593215775696 -0.03553223206032685 0.0 -0.008347829791292005 0.0 0.0
0.042786562772972984 -0.039095325339117304 0.0 -0.004382469629542196 0.0 0.0
0.042786562772970896 -0.03909532533911575 0.0 0.0043824696295591825 0.0 0.0
0.0390835932157713 -0.035532232060322855 0.0 0.00834782979131582 0.0 0.0
0.03388776304839561 -0.0305138906431337 0.0 0.009893415471842693 0.0 0.0
0.028170687380272563 -0.02497608122978434 0.0 0.00973894146543719 0.0 0.0
0.022573884684272322 -0.019560423414486605 0.0 0.008608060211598878 0.0 0.0
0.017537026972222564 -0.014709167354532315 0.0 0.007082520277197579 0.0 0.0
0.013360819519966122 -0.010723358844619613 0.0 0.005648715984484798 0.0 0.0
0.010145766357846336 -0.007704163159052646 0.0 0.0045365520102425005 0.0 0.0
0.0077859029344580916 -0.005544557802147798 0.0 0.0037432027213173402 0.0 0.0
0.006049452666946731 -0.004016748539923731 0.0 0.003166654623622589 0.0 0.0
0.004711085714290492 -0.0028939144177680953 0.0 0.0026895548145502712 0.0 0.0
0.0036066955573439696 -0.002015543611630144 0.0 0.0022232344964211725 0.0 0.0
0.0026733872340717335 -0.0013308533316747084 0.0 0.0018038160933954162 0.0 0.0
0.0019603360661276104 -0.000888553774022971 0.0 0.0015803439413807352 0.0 0.0
0.0014818887285115434 -0.000648579498293278 0.0 0.0015215908273927131 0.0 0.0
0.001131693093183006 -0.00047635513502647386 0.0 0.0014475225842870698 0.0 0.0
0.0008003951774649548 -0.0002923197525652177 0.0 0.001315061794634781 0.0 0.0
0.00042409766890223743 -0.00010343888209141117 0.0 0.0012845113324525953 0.0 0.0
0.00012654740258598307 -0.00017811088727195945 0.0 0.0017550899339522502 0.0 0.0
0.0011877570472267618 -0.002352727450908243 0.0 0.00245024594000727 0.0 0.0
0.000893977711532809 -0.0019116384255043334 0.0 -0.0020821191236576053 0.0 0.0
6.989256051620485e-05 -0.0002054113485569775 0.0 -0.0019860360304469193 0.0 0.0
0.0002554634555453142 -4.7029165439971266e-05 0.0 -0.0015598262373703042 0.0 0.0
0.0005746756306338613 -0.00018797898944938884 0.0 -0.0015361944424467228 0.0 0.0
0.0008670166983977823 -0.0003540854916412872 0.0 -0.0016534328544994814 0.0 0.0
0.0011589716820558718 -0.0005031096343585117 0.0 -0.0017539363145578912 0.0 0.0
0.00152007193325851 -0.00067011062301503 0.0 -0.0018145895569272041 0.0 0.0
0.0020294505231923804 -0.0009329699385235424 0.0 -0.001918422110630702 0.0 0.0
0.0027285140815057896 -0.0013796911183276972 0.0 -0.00219729979263536 0.0 0.0
0.003608863632043491 -0.0020289003661791982 0.0 -0.0026571390920908655 0.0 0.0
0.004654246698794787 -0.0028724338442411845 0.0 -0.003169224467130277 0.0 0.0
0.005987193746794239 -0.004002497491091717 0.0 -0.0037368432101367033 0.0 0.0
0.007787488270926818 -0.0056078382229829415 0.0 -0.004493263443035439 0.0 0.0
0.010253633960650724 -0.007886576760642194 0.0 -0.005543910816966535 0.0 0.0
0.013492038516440263 -0.010952046685521521 0.0 -0.0068837008404004085 0.0 0.0
0.017469451274170524 -0.014763404810214098 0.0 -0.008319695930960852 0.0 0.0
0.021981474264081508 -0.01912538690794352 0.0 -0.009454915915950546 0.0 0.0
0.02674462935313055 -0.023749310324303607 0.0 -0.009734187135606948 0.0 0.0
0.03135246674228813 -0.02821175681474597 0.0 -0.008462925673788091 0.0 0.0
0.03499459552318693 -0.03171318215241081 0.0 -0.004711887888113164 0.0 0.0
0.03499459552318526 -0.03171318215240837 0.0 0.004711887888128985 0.0 0.0
0.031352466742284375 -0.02821175681474375 0.0 0.00846292567380913 0.0 0.0
0.026744629353125805 -0.023749310324300943 0.0 0.009734187135622796 0.0 0.0
0.021981474264075887 -0.01912538690794019 0.0 0.00945491591595754 0.0 0.0
0.017469451274164827 -0.014763404810209657 0.0 0.008319695930960824 0.0 0.0
0.013492038516434546 -0.010952046685515082 0.0 0.006883700840399076 0.0 0.0
0.010253633960645062 -0.00788657676063731 0.0 0.0055439108169653695 0.0 0.0
0.007787488270921419 -0.0056078382229778345 0.0 0.0044932634430344676 0.0 0.0
0.005987193746788216 -0.004002497491086832 0.0 0.0037368432101335947 0.0 0.0
0.0046542466987892495 -0.0028724338442370767 0.0 0.003169224467127141 0.0 0.0
0.0036088636320386613 -0.0020289003661755345 0.0 0.0026571390920864246 0.0 0.0
0.00272851408150189 -0.0013796911183249216 0.0 0.0021972997926334448 0.0 0.0
0.0020294505231893134 -0.000932969938521544 0.0 0.001918422110629342 0.0 0.0
0.0015200719332566365 -0.000670110623014919 0.0 0.0018145895569263992 0.0 0.0
0.0011589716820547546 -0.0005031096343594554 0.0 0.0017539363145566977 0.0 0.0
0.0008670166983970606 -0.00035408549164145375 0.0 0.0016534328544980798 0.0 0.0
0.0005746756306335005 -0.00018797898944927782 0.0 0.0015361944424446966 0.0 0.0
0.00025546345554516847 -4.702916543949942e-05 0.0 0.0015598262373680283 0.0 0.0
6.989256051606607e-05 -0.00020541134855675547 0.0 0.0019860360304451152 0.0 0.0
0.0008939777115310327 -0.0019116384255015361 0.0 0.0020821191236550657 0.0 0.0
0.000668855609977391 -0.0015560770802977159 0.0 -0.0018167267880539462 0.0 0.0
2.310742676899652e-05 -0.00022334779677224414 0.0 -0.0021233614099102766 0.0 0.0
0.00010833849309604265 1.1221872880939898e-07 0.0 -0.0017875944772561825 0.0 0.0
0.0003586495920417307 -9.127138411646474e-05 0.0 -0.001727271524145077 0.0 0.0
0.0005988228310658608 -0.0002294799434803263 0.0 -0.001824163755944394 0.0 0.0
0.0008273162978182091 -0.0003545655831822536 0.0 -0.001943344990982171 0.0 0.0
0.0010880870920812746 -0.0004774713647761608 0.0 -0.002033225475245093 0.0 0.0
0.0014376451616425687 -0.0006298077951303327 0.0 -0.0020916320233109464 0.0 0.0
0.001901194620249444 -0.0008694148378720623 0.0 -0.0021968462763092 0.0 0.0
0.0025202633657447834 -0.0012540966073769644 0.0 -0.002493394813878669 0.0 0.0
0.003277444023907547 -0.001808028301075515 0.0 -0.0029548210695959365 0.0 0.0
0.0042238902551703095 -0.002563600847443226 0.0 -0.0034986254090372815 0.0 0.0
0.005491526845875942 -0.0036376954595080946 0.0 -0.004193811149854648 0.0 0.0
0.007227200033089076 -0.0051901193893240105 0.0 -0.005112154880445918 0.0 0.0
0.009537580209184104 -0.007331352264224433 0.0 -0.006264600257053193 0.0 0.0
0.012427109663233495 -0.010075556958075493 0.0 -0.007515933137718367 0.0 0.0
0.01580997596026603 -0.013330626467715545 0.0 -0.008535435837546873 0.0 0.0
0.0195433383941288 -0.01695830088560868 0.0 -0.008898491543012033 0.0 0.0
0.023445126793934228 -0.020766694980858924 0.0 -0.008078151380533388 0.0 0.0
0.02699292085405154 -0.02417927490718541 0.0 -0.004925436078762113 0.0 0.0
0.026992920854050487 -0.024179274907182746 0.0 0.004925436078774992 0.0 0.0
0.02344512679393134 -0.020766694980853373 0.0 0.008078151380551762 0.0 0.0
0.01954333839412497 -0.016958300885603572 0.0 0.008898491543025966 0.0 0.0
0.01580997596026179 -0.013330626467712658 0.0 0.00853543583755112 0.0 0.0
0.012427109663229408 -0.010075556958073495 0.0 0.0075159331377161465 0.0 0.0
0.00953758020917983 -0.007331352264219992 0.0 0.006264600257050501 0.0 0.0
0.007227200033085107 -0.005190119389323344 0.0 0.005112154880445086 0.0 0.0
0.0054915268458726185 -0.0036376954595065403 0.0 0.0041938111498547315 0.0 0.0
0.004223890255166146 -0.002563600847439562 0.0 0.0034986254090340896 0.0 0.0
0.003277444023903786 -0.0018080283010727394 0.0 0.0029548210695935773 0.0 0.0
0.002520263365741515 -0.001254096607374633 0.0 0.0024933948138742834 0.0 0.0
0.0019011946202467933 -0.000869414837870397 0.0 0.002196846276307174 0.0 0.0
0.0014376451616407715 -0.0006298077951296666 0.0 0.002091632023309198 0.0 0.0
0.0010880870920801505 -0.0004774713647757167 0.0 0.0020332254752430667 0.0 0.0
0.000827316297817432 -0.000354565583181643 0.0 0.0019433449909795064 0.0 0.0
0.0005988228310653265 -0.00022947994347960465 0.0 0.001824163755942576 0.0 0.0
0.00035864959204154334 -9.127138411635372e-05 0.0 0.001727271524143037 0.0 0.0
0.00010833849309591082 1.1221872911471031e-07 0.0 0.00178759447725374 0.0 0.0
2.3107426768961825e-05 -0.00022334779677216088 0.0 0.0021233614099073067 0.0 0.0
0.000668855609976135 -0.0015560770802956923 0.0 0.0018167267880511984 0.0 0.0
0.0005084372107909893 -0.0013042602677355991 0.0 -0.0016681096773316362 0.0 0.0
-2.302845798508174e-05 -0.00022404056177852127 0.0 -0.002198149646513256 0.0 0.0
-2.1941560568172758e-05 4.1091982083296674e-05 0.0 -0.001959796002476366 0.0 0.0
0.00015261716014411397 -1.3765006020016735e-06 0.0 -0.0018801324330735697 0.0 0.0
0.00033013593836748317 -0.00010550651062524175 0.0 -0.001953163262014168 0.0 0.0
0.0004886750322830868 -0.00019978345246896012 0.0 -0.0020764922897841404 0.0 0.0
0.0006532025041997361 -0.000283762921404751 0.0 -0.0021846080173088256 0.0 0.0
0.0008602600092173229 -0.00037567220451828476 0.0 -0.00227510110782031 0.0 0.0
0.0011321630984151426 -0.0004983902797423001 0.0 -0.0023277067794451878 0.0 0.0
0.0014811695492313315 -0.0006690040476549086 0.0 -0.002426941241830627 0.0 0.0
0.0019391737452284022 -0.0009196052458068094 0.0 -0.002669501390346468 0.0 0.0
0.0024974342575725325 -0.0012913801601137642 0.0 -0.0030557168125369683 0.0 0.0
0.0032521122899807145 -0.0018545071732603002 0.0 -0.0036443616814058333 0.0 0.0
0.004286347370781603 -0.0027063174593082717 0.0 -0.0044003793575428385 0.0 0.0
0.0056810436631914915 -0.003932147012209786 0.0 -0.005316866571121015 0.0 0.0
0.007468904841608198 -0.005580081621198385 0.0 -0.006307402386616867 0.0 0.0
0.009673504787859437 -0.0076772011340786595 0.0 -0.00718857638861381 0.0 0.0
0.012321993059757827 -0.010223107418660726 0.0 -0.007549331360931472 0.0 0.0
0.015358082463182127 -0.013211711320320285 0.0 -0.007096395164831598 0.0 0.0
0.018673641444976595 -0.01643104777225557 0.0 -0.004934824398770882 0.0 0.0
0.018673641444975873 -0.01643104777225557 0.0 0.0049348243987811236 0.0 0.0
0.015358082463180427 -0.013211711320320285 0.0 0.007096395164846309 0.0 0.0
0.012321993059755114 -0.01022310741866006 0.0 0.00754933136094299 0.0 0.0
0.009673504787856509 -0.007677201134076661 0.0 0.007188576388616363 0.0 0.0
0.007468904841605957 -0.005580081621197941 0.0 0.006307402386613953 0.0 0.0
0.005681043663189035 -0.003932147012207787 0.0 0.005316866571119072 0.0 0.0
0.004286347370779667 -0.002706317459305163 0.0 0.004400379357542339 0.0 0.0
0.003252112289979091 -0.0018545071732611884 0.0 0.00364436168140711 0.0 0.0
0.002497434257570444 -0.001291380160112765 0.0 0.003055716812535303 0.0 0.0
0.0019391737452264177 -0.0009196052458038118 0.0 0.0026695013903444975 0.0 0.0
0.001481169549229673 -0.0006690040476533543 0.0 0.0024269412418279623 0.0 0.0
0.0011321630984138173 -0.0004983902797411899 0.0 0.0023277067794450212 0.0 0.0
0.0008602600092164764 -0.0003756722045185068 0.0 0.002275101107820171 0.0 0.0
0.0006532025041991116 -0.00028376292140541715 0.0 0.0021846080173073823 0.0 0.0
0.0004886750322827607 -0.0001997834524694042 0.0 0.002076492289781018 0.0 0.0
0.00033013593836722643 -0.00010550651062479766 0.0 0.0019531632620115175 0.0 0.0
0.00015261716014412785 -1.376500602168207e-06 0.0 0.001880132433071155 0.0 0.0
-2.194156056828378e-05 4.109198208332443e-05 0.0 0.0019597960024740624 0.0 0.0
-2.302845798508174e-05 -0.00022404056177817433 0.0 0.00219814964651098 0.0 0.0
0.0005084372107902191 -0.0013042602677342053 0.0 0.0016681096773300957 0.0 0.0
0.00039717071989739394 -0.0010935261541171748 0.0 -0.0015301010740969428 0.0 0.0
-6.759969600233368e-05 -0.00021202635054129448 0.0 -0.0022231639560483796 0.0 0.0
-0.0001398922396104521 7.900626614754103e-05 0.0 -0.002075004152521126 0.0 0.0
-4.374694240921739e-05 8.234034417320402e-05 0.0 -0.0019879432215095805 0.0 0.0
6.37458007825345e-05 1.6451605563738703e-05 0.0 -0.0020355649844706197 0.0 0.0
0.00014641855072707044 -4.352263044504756e-05 0.0 -0.0021517443044900136 0.0 0.0
0.00021472454798746043 -8.797900155310678e-05 0.0 -0.0022691617176011925 0.0 0.0
0.0002851680474034307 -0.00012301350389543053 0.0 -0.002343033487189422 0.0 0.0
0.00038011207455644624 -0.00016469627131276976 0.0 -0.0023997725906160505 0.0 0.0
0.0004896862706824101 -0.00021732652368389171 0.0 -0.0024722907789227755 0.0 0.0
0.0006428225709374166 -0.0002888066363333497 0.0 -0.0026282833319686283 0.0 0.0
0.0008225537617525466 -0.0003861220170475743 0.0 -0.002862880268268697 0.0 0.0
0.0010713882752054066 -0.0005146425570869972 0.0 -0.0032353386716480192 0.0 0.0
0.0014154536167126919 -0.0007202494447207108 0.0 -0.0038039433234386966 0.0 0.0
0.0018954879593119436 -0.0010515491210112415 0.0 -0.004593406046868642 0.0 0.0
0.002569451650065495 -0.0015629138302706291 0.0 -0.005531844431547223 0.0 0.0
0.0035667251104059203 -0.002425539592437964 0.0 -0.006431663157556805 0.0 0.0
0.005112153027303071 -0.0038343707364536517 0.0 -0.006849939107597153 0.0 0.0
0.007236478060714029 -0.0058085529893066035 0.0 -0.006309677097352612 0.0 0.0
0.009955094966930922 -0.0085679337232627 0.0 -0.004917123638475379 0.0 0.0
0.009955094966930762 -0.008567933723263144 0.0 0.004917123638482845 0.0 0.0
0.0072364780607133625 -0.005808552989307936 0.0 0.006309677097365601 0.0 0.0
0.005112153027301794 -0.0038343707364538737 0.0 0.006849939107605202 0.0 0.0
0.0035667251104047892 -0.0024255395924392964 0.0 0.006431663157558248 0.0 0.0
0.0025694516500651757 -0.0015629138302719614 0.0 0.005531844431545807 0.0 0.0
0.0018954879593114718 -0.0010515491210103534 0.0 0.0045934060468678095 0.0 0.0
0.0014154536167125809 -0.0007202494447198227 0.0 0.003803943323439002 0.0 0.0
0.0010713882752055662 -0.0005146425570876634 0.0 0.0032353386716492682 0.0 0.0
0.0008225537617525466 -0.00038612201704868454 0.0 0.0028628802682676147 0.0 0.0
0.0006428225709372501 -0.0002888066363329056 0.0 0.0026282833319668797 0.0 0.0
0.0004896862706823407 -0.00021732652368422478 0.0 0.002472290778920916 0.0 0.0
0.0003801120745563699 -0.00016469627131288078 0.0 0.0023997725906152456 0.0 0.0
0.0002851680474034099 -0.0001230135038953195 0.0 0.0023430334871887004 0.0 0.0
0.00021472454798734247 -8.797900155332883e-05 0.0 0.0022691617175990275 0.0 0.0
0.0001464185507272231 -4.3522630445214094e-05 0.0 0.002151744304487946 0.0 0.0
6.374580078265246e-05 1.6451605564238303e-05 0.0 0.0020355649844680385 0.0 0.0
-4.3746942409085554e-05 8.234034417342606e-05 0.0 0.0019879432215072768 0.0 0.0
-0.00013989223961041047 7.900626614776307e-05 0.0 0.002075004152518184 0.0 0.0
-6.75996960022851e-05 -0.00021202635054139163 0.0 0.0022231639560462146 0.0 0.0
0.0003971707198969915 -0.0010935261541161426 0.0 0.0015301010740950555 0.0 0.0
0.0003095832620942651 -0.0009023692447800713 0.0 -0.0013902702045043985 0.0 0.0
-0.0001098930269463963 -0.00018887858828689486 0.0 -0.00219775643917941 0.0 0.0
-0.0002486376587148356 0.00011517567297125719 0.0 -0.002133560583726102 0.0 0.0
-0.0002310668959005155 0.0001606872492499467 0.0 -0.002046194118909092 0.0 0.0
-0.0001982192441950248 0.00013489842918834594 0.0 -0.002067905129823064 0.0 0.0
-0.00019574852404120185 0.00011209621399155267 0.0 -0.002164451841799836 0.0 0.0
-0.00022540846119253194 0.00010894486534918091 0.0 -0.002272308454940586 0.0 0.0
-0.0002835980205940364 0.00012496741393963617 0.0 -0.0023431179260142987 0.0 0.0
-0.00037743137665506576 0.00016266571119327722 0.0 -0.0023989973812275356 0.0 0.0
-0.0004879572723049258 0.00021566730649724697 0.0 -0.002471856802471445 0.0 0.0
-0.0006413249030277415 0.0002875934507937661 0.0 -0.0026279196661945503 0.0 0.0
-0.0008217823301541055 0.00038647177914130637 0.0 -0.00286193922973077 0.0 0.0
-0.0010761973223632343 0.000519647403875112 0.0 -0.0032319225360928072 0.0 0.0
-0.0014277745155737154 0.0007270161222037164 0.0 -0.003800820052924009 0.0 0.0
-0.0018731709614006956 0.0010216201164279237 0.0 -0.00461750404212205 0.0 0.0
-0.0023271934208305978 0.0013323093284918208 0.0 -0.005642311322992227 0.0 0.0
-0.0025686886676844906 0.0014985806616667485 0.0 -0.0068377293864698985 0.0 0.0
-0.00223501596938306 0.0012156070603130953 0.0 -0.008149007094222616 0.0 0.0
-0.0010342804124763502 0.0004336914662699254 0.0 -0.00907341801883546 0.0 0.0
0.001423182382168861 -0.001728112413356797 0.0 -0.007325767431147989 0.0 0.0
0.0014231823821688888 -0.001728112413356131 0.0 0.007325767431158592 0.0 0.0
-0.0010342804124767319 0.0004336914662710356 0.0 0.009073418018846646 0.0 0.0
-0.0022350159693825533 0.001215607060311985 0.0 0.00814900709422886 0.0 0.0
-0.002568688667683318 0.001498580661663862 0.0 0.00683772938646976 0.0 0.0
-0.002327193420828877 0.001332309328487824 0.0 0.005642311322990784 0.0 0.0
-0.0018731709613991829 0.0010216201164230387 0.0 0.004617504042120524 0.0 0.0
-0.001427774515572161 0.0007270161221992755 0.0 0.0038008200529234815 0.0 0.0
-0.0010761973223612914 0.0005196474038733356 0.0 0.0032319225360933623 0.0 0.0
-0.0008217823301521349 0.00038647177913919695 0.0 0.0028619392297294932 0.0 0.0
-0.0006413249030259444 0.0002875934507923228 0.0 0.002627919666192663 0.0 0.0
-0.00048795727230355884 0.00021566730649724697 0.0 0.0024718568024690857 0.0 0.0
-0.00037743137665390003 0.00016266571119305517 0.0 0.0023989973812270637 0.0 0.0
-0.00028359802059331474 0.00012496741393996924 0.0 0.002343117926013355 0.0 0.0
-0.0002254084611919907 0.00010894486534840375 0.0 0.002272308454938504 0.0 0.0
-0.00019574852404062593 0.00011209621399072 0.0 0.0021644518417977543 0.0 0.0
-0.00019821924419456682 0.00013489842918756878 0.0 0.0020679051298204687 0.0 0.0
-0.00023106689590018936 0.00016068724924933608 0.0 0.0020461941189069133 0.0 0.0
-0.00024863765871464133 0.00011517567297114617 0.0 0.0021335605837237565 0.0 0.0
-0.0001098930269462714 -0.00018887858828660342 0.0 0.0021977564391774257 0.0 0.0
0.0003095832620939598 -0.0009023692447792699 0.0 0.0013902702045029275 0.0 0.0
0.00023258778736327812 -0.0007249896099514319 0.0 -0.0012487541550916526 0.0 0.0
-0.00015167561966705767 -0.00015597044012005679 0.0 -0.0021233630948209875 0.0 0.0
-0.00035027584015744073 0.0001508515160992263 0.0 -0.002136658742535519 0.0 0.0
-0.0004099562051115696 0.0002341326878097516 0.0 -0.0020526001022565243 0.0 0.0
-0.00045419868209913006 0.0002487704056178819 0.0 -0.002047519807106879 0.0 0.0
-0.0005339227165663402 0.00026461911160768903 0.0 -0.002115547547428362 0.0 0.0
-0.0006629029859841901 0.00030331658331073097 0.0 -0.0021952600255144006 0.0 0.0
-0.0008588164483138427 0.0003773468653007761 0.0 -0.002274791146558347 0.0 0.0
-0.0011297035743665362 0.0004963844303845777 0.0 -0.0023254231959186356 0.0 0.0
-0.001479589623585853 0.0006674653596681068 0.0 -0.002425717463517413 0.0 0.0
-0.001937833270063527 0.0009183868605703305 0.0 -0.002669493009571311 0.0 0.0
-0.0024962603169147446 0.0012909464788282143 0.0 -0.0030542901056702376 0.0 0.0
-0.003254975986278927 0.001859386539810215 0.0 -0.003633581876709535 0.0 0.0
-0.004299043030796437 0.00271802744366334 0.0 -0.004387251632161138 0.0 0.0
-0.005672074135781149 0.0039050849236961227 0.0 -0.005367423010651906 0.0 0.0
-0.007260490481102555 0.005320941009528513 0.0 -0.006595650256733088 0.0 0.0
-0.00877079519089792 0.006666114047488847 0.0 -0.008064338996148945 0.0 0.0
-0.00972686869551695 0.0074723224274697575 0.0 -0.009668544746283092 0.0 0.0
-0.009395073873858732 0.006913500571379627 0.0 -0.01045880003735769 0.0 0.0
-0.006633563044434743 0.004150682508774262 0.0 -0.008571318282551421 0.0 0.0
-0.006633563044435409 0.004150682508770931 0.0 0.008571318282561025 0.0 0.0
-0.009395073873858663 0.006913500571377407 0.0 0.010458800037370403 0.0 0.0
-0.009726868695514673 0.007472322427467315 0.0 0.009668544746291585 0.0 0.0
-0.008770795190894486 0.006666114047485294 0.0 0.008064338996149362 0.0 0.0
-0.007260490481098739 0.005320941009526292 0.0 0.006595650256731117 0.0 0.0
-0.005672074135777895 0.0039050849236954566 0.0 0.005367423010649436 0.0 0.0
-0.0042990430307931204 0.0027180274436620078 0.0 0.004387251632159084 0.0 0.0
-0.003254975986275069 0.0018593865398071063 0.0 0.00363358187670923 0.0 0.0
-0.0024962603169108102 0.001290946478826771 0.0 0.003054290105667934 0.0 0.0
-0.0019378332700596898 0.0009183868605661116 0.0 0.0026694930095683966 0.0 0.0
-0.0014795896235828207 0.0006674653596645541 0.0 0.0024257174635149703 0.0 0.0
-0.001129703574364184 0.0004963844303818021 0.0 0.0023254231959186633 0.0 0.0
-0.0008588164483122399 0.00037734686529911077 0.0 0.002274791146557681 0.0 0.0
-0.0006629029859830521 0.00030331658331073097 0.0 0.0021952600255129018 0.0 0.0
-0.0005339227165654589 0.0002646191116090213 0.0 0.0021155475474262803 0.0 0.0
-0.000454198682098339 0.0002487704056180484 0.0 0.002047519807104131 0.0 0.0
-0.00040995620511107694 0.00023413268781002916 0.0 0.0020526001022539986 0.0 0.0
-0.0003502758401570383 0.00015085151609919856 0.0 0.002136658742532868 0.0 0.0
-0.0001516756196669536 -0.00015597044011997352 0.0 0.002123363094818767 0.0 0.0
0.0002325877873631324 -0.0007249896099507033 0.0 0.0012487541550900705 0.0 0.0
0.0001618049130583249 -0.0005616545154633196 0.0 -0.0011069168924021378 0.0 0.0
-0.00019487782286055355 -0.00011485162026364515 0.0 -0.0020039256520268667 0.0 0.0
-0.0004465169954481901 0.0001869755582783461 0.0 -0.002084827283873908 0.0 0.0
-0.0005809426337210905 0.00030312720052544373 0.0 -0.0020060789895999243 0.0 0.0
-0.0007028856943663842 0.00035679444041814 0.0 -0.0019729589046290352 0.0 0.0
-0.0008646763838218163 0.0004119361379585351 0.0 -0.0020029829241922092 0.0 0.0
-0.0010961169884698696 0.0004944702008461421 0.0 -0.0020485210449856517 0.0 0.0
-0.001436440745326284 0.0006309700515028105 0.0 -0.002091394879656455 0.0 0.0
-0.0018991332280983292 0.0008673766291354967 0.0 -0.0021930654000160144 0.0 0.0
-0.002518992861049854 0.001252469117564159 0.0 -0.002491081441866966 0.0 0.0
-0.003276588150425405 0.0018067303124267298 0.0 -0.0029548270521674025 0.0 0.0
-0.004221992864551036 0.0025619513287478135 0.0 -0.003497440703914001 0.0 0.0
-0.005490072788613423 0.00363910531801781 0.0 -0.004176127227354609 0.0 0.0
-0.007235946107483543 0.005200993557920253 0.0 -0.00506959086632669 0.0 0.0
-0.009543502857416716 0.007322859395006542 0.0 -0.00627614846143526 0.0 0.0
-0.012284449565584082 0.009881404959131368 0.0 -0.00788888231801288 0.0 0.0
-0.015082455024374088 0.012496007378508533 0.0 -0.010007417209377062 0.0 0.0
-0.017263946210258424 0.014439273642004258 0.0 -0.012365179424207062 0.0 0.0
-0.01759541170354005 0.014474465385733604 0.0 -0.013685564110999054 0.0 0.0
-0.01427670483944199 0.01077777423427917 0.0 -0.01116472023401871 0.0 0.0
-0.014276704839442718 0.010777774234280502 0.0 0.011164720234030368 0.0 0.0
-0.01759541170353908 0.014474465385734048 0.0 0.013685564111015958 0.0 0.0
-0.01726394621025471 0.014439273642003148 0.0 0.01236517942421786 0.0 0.0
-0.015082455024368925 0.01249600737850698 0.0 0.010007417209379338 0.0 0.0
-0.01228444956557824 0.00988140495912937 0.0 0.007888882318010854 0.0 0.0
-0.0095435028574119 0.007322859395002546 0.0 0.006276148461433484 0.0 0.0
-0.007235946107478512 0.005200993557914924 0.0 0.005069590866324275 0.0 0.0
-0.005490072788607747 0.003639105318012703 0.0 0.004176127227353582 0.0 0.0
-0.0042219928645452 0.0025619513287422624 0.0 0.0034974407039114475 0.0 0.0
-0.003276588150419542 0.0018067303124238432 0.0 0.00295482705216224 0.0 0.0
-0.0025189928610449344 0.0012524691175604952 0.0 0.0024910814418629412 0.0 0.0
-0.0018991332280946446 0.0008673766291330542 0.0 0.0021930654000150707 0.0 0.0
-0.001436440745323772 0.0006309700515031436 0.0 0.002091394879656344 0.0 0.0
-0.001096116988468239 0.000494470200845698 0.0 0.002048521044984458 0.0 0.0
-0.0008646763838205049 0.0004119361379569253 0.0 0.0020029829241903774 0.0 0.0
-0.0007028856943653988 0.00035679444041725183 0.0 0.001972958904627037 0.0 0.0
-0.0005809426337204798 0.0003031272005247776 0.0 0.002006078989597912 0.0 0.0
-0.0004465169954476836 0.00018697555827820733 0.0 0.002084827283871729 0.0 0.0
-0.0001948778228604564 -0.00011485162026353413 0.0 0.002003925652025118 0.0 0.0
0.0001618049130582902 -0.000561654515462911 0.0 0.0011069168924009443 0.0 0.0
9.658869920851909e-05 -0.0004134755974736365 0.0 -0.0009627310160733732 0.0 0.0
-0.00024015181555299414 -6.764724876334727e-05 0.0 -0.0018448954864407202 0.0 0.0
-0.0005388288875631253 0.0002241865573276991 0.0 -0.0019807620223714073 0.0 0.0
-0.0007446370671842784 0.0003677010522262769 0.0 -0.0019076203579527773 0.0 0.0
-0.0009427954328147248 0.00045902160242378143 0.0 -0.0018439125286207891 0.0 0.0
-0.001186517260293063 0.000551688155597696 0.0 -0.001834153992238144 0.0 0.0
-0.0015249634257638311 0.0006844350606918237 0.0 -0.001838342602631049 0.0 0.0
-0.002028782966788545 0.0009332590677668673 0.0 -0.0019168422325448742 0.0 0.0
-0.0027270015713650314 0.001377710005841637 0.0 -0.0021924217489950604 0.0 0.0
-0.0036082096089419397 0.0020276384097488442 0.0 -0.002654680642389301 0.0 0.0
-0.004653944604729496 0.0028716971939161118 0.0 -0.0031700836087948936 0.0 0.0
-0.005984739619133914 0.0039997330847616475 0.0 -0.003737493028840272 0.0 0.0
-0.007779426903709585 0.00560214780984114 0.0 -0.004473190372606239 0.0 0.0
-0.010248269933410228 0.007885869482474606 0.0 -0.0054690088092459455 0.0 0.0
-0.01350251041914595 0.010955469502767823 0.0 -0.006819179582332913 0.0 0.0
-0.017423049623971745 0.014679134820474227 0.0 -0.008699229207827786 0.0 0.0
-0.021534302265990457 0.018569695242762974 0.0 -0.011292206910211544 0.0 0.0
-0.02486515564091169 0.02160263145738761 0.0 -0.014293529816123418 0.0 0.0
-0.025672298731633035 0.022017880714107152 0.0 -0.016216386263297966 0.0 0.0
-0.02134863463054988 0.017208423061058742 0.0 -0.01390349381439801 0.0 0.0
-0.021348634630549555 0.017208423061058742 0.0 0.013903493814411833 0.0 0.0
-0.025672298731631404 0.02201788071410693 0.0 0.016216386263318477 0.0 0.0
-0.024865155640906765 0.02160263145738317 0.0 0.014293529816136408 0.0 0.0
-0.021534302265983914 0.018569695242756534 0.0 0.01129220691021443 0.0 0.0
-0.01742304962396414 0.014679134820465123 0.0 0.008699229207827008 0.0 0.0
-0.013502510419139552 0.010955469502763604 0.0 0.006819179582332413 0.0 0.0
-0.010248269933403623 0.007885869482469943 0.0 0.005469008809243586 0.0 0.0
-0.007779426903702057 0.005602147809834923 0.0 0.004473190372605018 0.0 0.0
-0.005984739619126295 0.0039997330847565404 0.0 0.0037374930288366637 0.0 0.0
-0.00465394460472171 0.0028716971939091174 0.0 0.003170083608788815 0.0 0.0
-0.0036082096089352506 0.0020276384097440703 0.0 0.002654680642383611 0.0 0.0
-0.0027270015713598827 0.0013777100058386393 0.0 0.002192421748992035 0.0 0.0
-0.002028782966784784 0.0009332590677639807 0.0 0.0019168422325433476 0.0 0.0
-0.0015249634257614858 0.0006844350606906024 0.0 0.0018383426026300498 0.0 0.0
-0.0011865172602914115 0.0005516881555961417 0.0 0.0018341539922360345 0.0 0.0
-0.0009427954328135174 0.0004590216024226712 0.0 0.001843912528618985 0.0 0.0
-0.000744637067183529 0.0003677010522257773 0.0 0.0019076203579509315 0.0 0.0
-0.0005388288875625771 0.0002241865573271995 0.0 0.0019807620223687983 0.0 0.0
-0.00024015181555279985 -6.764724876348605e-05 0.0 0.0018448954864386108 0.0 0.0
9.658869920853297e-05 -0.0004134755974732852 0.0 0.0009627310160722352 0.0 0.0
3.757890811922904e-05 -0.00028207347291271667 0.0 -0.0008138178288156772 0.0 0.0
-0.0002869087782019636 -1.6644976832597136e-05 0.0 -0.0016506579917479475 0.0 0.0
-0.0006280061111823831 0.00026228992825366726 0.0 -0.001826092213137731 0.0 0.0
-0.0009015628476242293 0.00042835771109411835 0.0 -0.0017553865693198112 0.0 0.0
-0.0011729936822924697 0.0005530308411649809 0.0 -0.001660756715972267 0.0 0.0
-0.0014977494178448764 0.0006836502077048889 0.0 -0.0016025609293587595 0.0 0.0
-0.0019627575475759107 0.0008984552512031341 0.0 -0.0016004592006274299 0.0 0.0
-0.002673205414065405 0.0013312498939200834 0.0 -0.0018024129908122688 0.0 0.0
-0.003606162568610044 0.0020140627068323536 0.0 -0.0022173120263669355 0.0 0.0
-0.004711164276845203 0.0028933008379712355 0.0 -0.0026866968279806724 0.0 0.0
-0.006049718946408766 0.004016586519306586 0.0 -0.0031674499497337805 0.0 0.0
-0.007783085545351259 0.005540943821468414 0.0 -0.003745251141700351 0.0 0.0
-0.01012989285888953 0.007689149925156125 0.0 -0.004518027547099068 0.0 0.0
-0.013331761257501809 0.010700460948242618 0.0 -0.005555749437696711 0.0 0.0
-0.0175363487306084 0.014712899882376673 0.0 -0.006947943574878046 0.0 0.0
-0.022632101430485843 0.01959488072593607 0.0 -0.008886575814592512 0.0 0.0
-0.02804158378443662 0.024742181804946695 0.0 -0.011600094589116317 0.0 0.0
-0.032472947238722405 0.0288136976247102 0.0 -0.014980075254176717 0.0 0.0
-0.03360727216432352 0.029471476600416047 0.0 -0.017624277873614203 0.0 0.0
-0.028091949270119758 0.023450330492544857 0.0 -0.016571230812820387 0.0 0.0
-0.028091949270118592 0.023450330492544857 0.0 0.016571230812836485 0.0 0.0
-0.03360727216432084 0.029471476600411384 0.0 0.01762427787363452 0.0 0.0
-0.03247294723871668 0.028813697624702872 0.0 0.014980075254191233 0.0 0.0
-0.02804158378442881 0.024742181804938035 0.0 0.011600094589120147 0.0 0.0
-0.02263210143047703 0.019594880725927855 0.0 0.008886575814592124 0.0 0.0
-0.017536348730600282 0.014712899882370678 0.0 0.006947943574876908 0.0 0.0
-0.013331761257493503 0.010700460948235957 0.0 0.005555749437693103 0.0 0.0
-0.010129892858880378 0.0076891499251503515 0.0 0.004518027547097181 0.0 0.0
-0.007783085545341614 0.005540943821460975 0.0 0.003745251141697936 0.0 0.0
-0.006049718946399406 0.004016586519299703 0.0 0.0031674499497293673 0.0 0.0
-0.004711164276836981 0.002893300837964241 0.0 0.0026866968279752323 0.0 0.0
-0.0036061625686034417 0.00201406270682547 0.0 0.002217312026363924 0.0 0.0
-0.0026732054140601036 0.0013312498939161976 0.0 0.00180241299081077 0.0 0.0
-0.0019627575475726217 0.0008984552512018018 0.0 0.0016004592006264723 0.0 0.0
-0.0014977494178430653 0.0006836502077047224 0.0 0.0016025609293576631 0.0 0.0
-0.0011729936822910264 0.0005530308411650364 0.0 0.0016607567159706155 0.0 0.0
-0.0009015628476232752 0.00042835771109367426 0.0 0.0017553865693177295 0.0 0.0
-0.0006280061111817482 0.0002622899282535285 0.0 0.0018260922131358714 0.0 0.0
-0.0002869087782017138 -1.664497683238897e-05 0.0 0.0016506579917466152 0.0 0.0
3.757890811926026e-05 -0.0002820734729125588 0.0 0.0008138178288147474 0.0 0.0
-1.3799467329128623e-05 -0.00016941042233144243 0.0 -0.0006583962706484814 0.0 0.0
-0.0003333416513686821 3.5673935037922044e-05 0.0 -0.001424667461200596 0.0 0.0
-0.0007142230962783186 0.00030075127652123834 0.0 -0.001623215129553976 0.0 0.0
-0.0010526130269619682 0.0004854663810713311 0.0 -0.001552515610342614 0.0 0.0
-0.0013927217599026681 0.000639658672979937 0.0 -0.0014270157011440493 0.0 0.0
-0.0018025983138247742 0.000819828570918002 0.0 -0.001336448398505538 0.0 0.0
-0.0024391873612501502 0.0011758452783586781 0.0 -0.001386967133721273 0.0 0.0
-0.0033711511557709267 0.001829322653218557 0.0 -0.0017044030631765683 0.0 0.0
-0.004492833466675103 0.0027113715248124892 0.0 -0.0021227563142118266 0.0 0.0
-0.005817740702679389 0.0038006097284650764 0.0 -0.0025295215304328433 0.0 0.0
-0.007465917431599772 0.0052222805444067655 0.0 -0.00298746389155094 0.0 0.0
-0.009620723437245585 0.007160609531330575 0.0 -0.0035466873295808 0.0 0.0
-0.012540440019268517 0.009871401575194172 0.0 -0.004303292902067379 0.0 0.0
-0.016488588639175267 0.01361844409791546 0.0 -0.005348423028313176 0.0 0.0
-0.02162019190358941 0.018548493583898873 0.0 -0.006683529556065104 0.0 0.0
-0.027843428573580256 0.024536541653878974 0.0 -0.008418340970628269 0.0 0.0
-0.034504494860619545 0.030899578454600674 0.0 -0.010929166177049032 0.0 0.0
-0.0399967203805824 0.035976081233257684 0.0 -0.014404637750391414 0.0 0.0
-0.041435811153262433 0.03687357924426471 0.0 -0.01798401969188651 0.0 0.0
-0.034777605752263005 0.02968407841630194 0.0 -0.019263808724116982 0.0 0.0
-0.034777605752261485 0.02968407841629994 0.0 0.019263808724135106 0.0 0.0
-0.041435811153258645 0.036873579244260046 0.0 0.01798401969190716 0.0 0.0
-0.03999672038057562 0.03597608123325147 0.0 0.014404637750408122 0.0 0.0
-0.03450449486061063 0.030899578454595122 0.0 0.010929166177054223 0.0 0.0
-0.027843428573570507 0.024536541653871202 0.0 0.008418340970629296 0.0 0.0
-0.021620191903579507 0.018548493583890213 0.0 0.006683529556064605 0.0 0.0
-0.016488588639165254 0.013618444097906801 0.0 0.0053484230283110945 0.0 0.0
-0.012540440019257859 0.0098714015751864 0.0 0.004303292902065756 0.0 0.0
-0.009620723437234038 0.00716060953132025 0.0 0.0035466873295777746 0.0 0.0
-0.007465917431588795 0.0052222805443972176 0.0 0.0029874638915457358 0.0 0.0
-0.005817740702669792 0.0038006097284569718 0.0 0.0025295215304275837 0.0 0.0
-0.0044928334666670955 0.002711371524805384 0.0 0.0021227563142091205 0.0 0.0
-0.0033711511557643625 0.001829322653214449 0.0 0.0017044030631741952 0.0 0.0
-0.0024391873612455497 0.0011758452783561246 0.0 0.001386967133718539 0.0 0.0
-0.0018025983138223386 0.0008198285709161701 0.0 0.0013364483985040532 0.0 0.0
-0.001392721759901256 0.0006396586729791043 0.0 0.001427015701143411 0.0 0.0
-0.0010526130269608615 0.00048546638107144213 0.0 0.0015525156103411708 0.0 0.0
-0.0007142230962775623 0.0003007512765210718 0.0 0.001623215129552602 0.0 0.0
-0.0003333416513684011 3.567393503788041e-05 0.0 0.0014246674611988197 0.0 0.0
-1.3799467329028009e-05 -0.00016941042233129412 0.0 0.0006583962706479402 0.0 0.0
-5.531946561526668e-05 -7.77732999704267e-05 0.0 -0.0004961255537122428 0.0 0.0
-0.0003762125616071782 8.641262194941657e-05 0.0 -0.0011695936081647929 0.0 0.0
-0.0007973058828994878 0.00033890279768605813 0.0 -0.0013724847742989654 0.0 0.0
-0.0011993317946285692 0.0005387718617503867 0.0 -0.0012992282764879987 0.0 0.0
-0.0016014711791433739 0.0007184707958493575 0.0 -0.0011466991583913427 0.0 0.0
-0.002123169090981425 0.0009883887510440115 0.0 -0.0010671051301868323 0.0 0.0
-0.0029709804114458754 0.001542383259427682 0.0 -0.0012097260427807177 0.0 0.0
-0.004078404717110531 0.0023825542720757875 0.0 -0.0015352100274753644 0.0 0.0
-0.005372662170928688 0.0034276140023066226 0.0 -0.0018671131261212004 0.0 0.0
-0.006935586910569502 0.004746740625081736 0.0 -0.0022258490021891675 0.0 0.0
-0.008903558949252502 0.0064789131081725015 0.0 -0.002635323001764084 0.0 0.0
-0.011497807511621258 0.008844834252867972 0.0 -0.0031417772776511643 0.0 0.0
-0.015009183789375477 0.012136364513947395 0.0 -0.003846432619791451 0.0 0.0
-0.019712257047601156 0.016618916823526897 0.0 -0.004811340307003309 0.0 0.0
-0.025741386036557026 0.02242951913964042 0.0 -0.006019469179420867 0.0 0.0
-0.032994950352590674 0.029438449447886983 0.0 -0.007423150247079013 0.0 0.0
-0.04079892282344298 0.03691542829253214 0.0 -0.009297812109160641 0.0 0.0
-0.04733633202145689 0.04299491417839052 0.0 -0.012454503885050372 0.0 0.0
-0.04924615427078457 0.04429853327239863 0.0 -0.01723889073947127 0.0 0.0
-0.0416461907619861 0.036108820284350474 0.0 -0.02198172428963066 0.0 0.0
-0.041646190761984385 0.03610882028435025 0.0 0.02198172428964751 0.0 0.0
-0.049246154270779746 0.044298533272395746 0.0 0.01723889073949103 0.0 0.0
-0.047336332021448956 0.042994914178384525 0.0 0.01245450388506622 0.0 0.0
-0.04079892282343318 0.036915428292524144 0.0 0.009297812109165082 0.0 0.0
-0.032994950352579586 0.02943844944787677 0.0 0.00742315024708054 0.0 0.0
-0.02574138603654556 0.02242951913963087 0.0 0.006019469179421144 0.0 0.0
-0.019712257047589624 0.016618916823515795 0.0 0.004811340307002185 0.0 0.0
-0.01500918378936324 0.012136364513937847 0.0 0.003846432619789786 0.0 0.0
-0.01149780751160806 0.008844834252856648 0.0 0.0031417772776488884 0.0 0.0
-0.008903558949239793 0.006478913108160511 0.0 0.00263532300175974 0.0 0.0
-0.006935586910558497 0.00474674062507463 0.0 0.002225849002183769 0.0 0.0
-0.005372662170919293 0.0034276140023010715 0.0 0.0018671131261185497 0.0 0.0
-0.004078404717102944 0.0023825542720695703 0.0 0.0015352100274731578 0.0 0.0
-0.0029709804114399357 0.0015423832594244624 0.0 0.001209726042778525 0.0 0.0
-0.002123169090978049 0.000988388751044178 0.0 0.001067105130185153 0.0 0.0
-0.0016014711791418786 0.0007184707958493575 0.0 0.001146699158390857 0.0 0.0
-0.0011993317946273202 0.0005387718617499426 0.0 0.0012992282764865831 0.0 0.0
-0.0007973058828987141 0.00033890279768555853 0.0 0.0013724847742972446 0.0 0.0
-0.00037621256160687636 8.641262194926391e-05 0.0 0.00116959360816353 0.0 0.0
-5.531946561509668e-05 -7.777329997038073e-05 0.0 0.0004961255537119236 0.0 0.0
-8.353684361356306e-05 -9.855975790423743e-06 0.0 -0.00032924630150577006 0.0 0.0
-0.00041029800149819384 0.00013176273549586615 0.0 -0.000887232549011352 0.0 0.0
-0.0008767186508477076 0.0003761043448369805 0.0 -0.0010710597443376185 0.0 0.0
-0.0013439317422463681 0.0005874392110603588 0.0 -0.00099675618803316 0.0 0.0
-0.0018040236329205095 0.0008035794744292724 0.0 -0.0008349562378479614 0.0 0.0
-0.0024907740360710917 0.001214094607242422 0.0 -0.000810577014608474 0.0 0.0
-0.003526679504190125 0.001953718247795888 0.0 -0.0009737402163244036 0.0 0.0
-0.004772918337259929 0.0029445634833791257 0.0 -0.0012266981088945028 0.0 0.0
-0.006254326048604333 0.004168236731798336 0.0 -0.0014927804949918522 0.0 0.0
-0.008063676807513409 0.0057243022711312985 0.0 -0.001784584102968001 0.0 0.0
-0.010363880127105499 0.007778141541649575 0.0 -0.002123422403225078 0.0 0.0
-0.013412607104680577 0.010587066781178267 0.0 -0.0025402136488655858 0.0 0.0
-0.01753024715509073 0.014467938065994224 0.0 -0.003117065752695658 0.0 0.0
-0.022994906293841155 0.019693328402066612 0.0 -0.003956588131677652 0.0 0.0
-0.029895566335326057 0.026350750673771017 0.0 -0.004992587426851713 0.0 0.0
-0.03804845838440865 0.0342402164260478 0.0 -0.005962589250682604 0.0 0.0
-0.04677975989442182 0.04265401038534078 0.0 -0.00687284166348362 0.0 0.0
-0.05436665669508618 0.04976001793698637 0.0 -0.009158282624760261 0.0 0.0
-0.05710991761523625 0.051816741072372885 0.0 -0.015107722472601781 0.0 0.0
-0.04897280031278052 0.04296035656136521 0.0 -0.024536458371594932 0.0 0.0
-0.04897280031277869 0.042960356561362545 0.0 0.024536458371609837 0.0 0.0
-0.05710991761523031 0.05181674107236578 0.0 0.015107722472619323 0.0 0.0
-0.05436665669507718 0.04976001793697593 0.0 0.00915828262477375 0.0 0.0
-0.046779759894410675 0.04265401038532857 0.0 0.006872841663488144 0.0 0.0
-0.038048458384396217 0.03424021642603714 0.0 0.005962589250684769 0.0 0.0
-0.02989556633531314 0.02635075067375814 0.0 0.004992587426851519 0.0 0.0
-0.02299490629382798 0.019693328402052623 0.0 0.003956588131676986 0.0 0.0
-0.017530247155076638 0.014467938065981345 0.0 0.0031170657526941176 0.0 0.0
-0.013412607104665714 0.010587066781165166 0.0 0.0025402136488645033 0.0 0.0
-0.010363880127091218 0.007778141541637695 0.0 0.00212342240322215 0.0 0.0
-0.008063676807501103 0.005724302271120529 0.0 0.0017845841029637127 0.0 0.0
-0.006254326048593675 0.004168236731789676 0.0 0.0014927804949890072 0.0 0.0
-0.004772918337251172 0.0029445634833721313 0.0 0.001226698108892671 0.0 0.0
-0.0035266795041829415 0.001953718247790115 0.0 0.0009737402163234737 0.0 0.0
-0.002490774036066904 0.0012140946072395908 0.0 0.0008105770146072944 0.0 0.0
-0.0018040236329187036 0.0008035794744291613 0.0 0.0008349562378474895 0.0 0.0
-0.0013439317422450966 0.0005874392110603033 0.0 0.0009967561880326187 0.0 0.0
-0.0008767186508469253 0.00037610434483628663 0.0 0.0010710597443367026 0.0 0.0
-0.000410298001497781 0.0001317627354954498 0.0 0.0008872325490104638 0.0 0.0
-8.353684361345898e-05 -9.855975790546909e-06 0.0 0.00032924630150565903 0.0 0.0
-9.269715583704041e-05 3.093281461444275e-05 0.0 -0.0001644966378830659 0.0 0.0
-0.00042750391182361236 0.00016635509797607861 0.0 -0.0005777587340010104 0.0 0.0
-0.0009516633530915475 0.0004112209505280351 0.0 -0.0007109206912484095 0.0 0.0
-0.0014901483331310472 0.000632862038342008 0.0 -0.0006460621721557647 0.0 0.0
-0.002021080001280748 0.0009177843067331715 0.0 -0.0005250311557654097 0.0 0.0
-0.0029033430479014494 0.0014963514739005923 0.0 -0.0005231397678592264 0.0 0.0
-0.004073183442559705 0.0023894964177956224 0.0 -0.0006547877785644807 0.0 0.0
-0.005462786571336281 0.003518232235559915 0.0 -0.0008229055107730476 0.0 0.0
-0.0071371803174430926 0.004929053411298789 0.0 -0.0010048351951669199 0.0 0.0
-0.009201762741814778 0.006730356156183781 0.0 -0.0012121369590497866 0.0 0.0
-0.011846158670364357 0.009115378013002107 0.0 -0.0014475262872904737 0.0 0.0
-0.015364240387303704 0.012378600067693313 0.0 -0.0017355128660707098 0.0 0.0
-0.0201005993959682 0.016861857707355155 0.0 -0.002165906186117561 0.0 0.0
-0.026318779271965395 0.022819839139551323 0.0 -0.0027729205966279258 0.0 0.0
-0.03406090734082276 0.03028694704498336 0.0 -0.0034852208406208063 0.0 0.0
-0.043016530577729195 0.0389524156920531 0.0 -0.0040819738403434225 0.0 0.0
-0.052402013410996734 0.048023885082675966 0.0 -0.00420970924818076 0.0 0.0
-0.060775267362795315 0.05603177796833325 0.0 -0.004685220235174814 0.0 0.0
-0.06500230454937572 0.059415459526073855 0.0 -0.010731897710338417 0.0 0.0
-0.05718812629456319 0.05061119170799255 0.0 -0.02638631324519647 0.0 0.0
-0.057188126294560875 0.050611191707988556 0.0 0.026386313245205933 0.0 0.0
-0.06500230454936888 0.05941545952606564 0.0 0.01073189771035149 0.0 0.0
-0.06077526736278485 0.05603177796832681 0.0 0.004685220235185583 0.0 0.0
-0.05240201341098407 0.04802388508266775 0.0 0.004209709248183341 0.0 0.0
-0.043016530577715505 0.03895241569204333 0.0 0.004081973840344311 0.0 0.0
-0.03406090734080815 0.030286947044974033 0.0 0.003485220840620709 0.0 0.0
-0.026318779271950508 0.02281983913954111 0.0 0.002772920596628037 0.0 0.0
-0.020100599395952302 0.016861857707343386 0.0 0.0021659061861158263 0.0 0.0
-0.015364240387287197 0.012378600067678325 0.0 0.0017355128660694469 0.0 0.0
-0.01184615867034859 0.00911537801298834 0.0 0.0014475262872877814 0.0 0.0
-0.009201762741801296 0.006730356156172013 0.0 0.001212136959046206 0.0 0.0
-0.007137180317431217 0.0049290534112892415 0.0 0.0010048351951649909 0.0 0.0
-0.005462786571326234 0.0035182322355534756 0.0 0.0008229055107716737 0.0 0.0
-0.004073183442551573 0.0023894964177901823 0.0 0.0006547877785627737 0.0 0.0
-0.0029033430478963163 0.001496351473896873 0.0 0.000523139767858033 0.0 0.0
-0.0020210800012784042 0.00091778430673084 0.0 0.0005250311557650073 0.0 0.0
-0.001490148333129748 0.0006328620383410088 0.0 0.0006460621721553067 0.0 0.0
-0.0009516633530907304 0.00041122095052811836 0.0 0.0007109206912481736 0.0 0.0
-0.00042750391182326715 0.00016635509797591208 0.0 0.0005777587340002888 0.0 0.0
-9.269715583700919e-05 3.0932814614384636e-05 0.0 0.0001644966378822471 0.0 0.0
-7.225531532728535e-05 3.957167888983537e-05 0.0 -1.6947641149095416e-05 0.0 0.0
-0.0004153970260386136 0.00018268002829255336 0.0 -0.00023626394116184335 0.0 0.0
-0.001021827904525513 0.0004402108995312237 0.0 -0.00027772136135606473 0.0 0.0
-0.0016476886946058256 0.0006934671020841221 0.0 -0.00025652300694292696 0.0 0.0
-0.0022767136335753307 0.0010644403197011543 0.0 -0.00020512527874420872 0.0 0.0
-0.003329170414576879 0.0018002261622360738 0.0 -0.00019067112375478756 0.0 0.0
-0.004610966182065204 0.002834005273214979 0.0 -0.00025533602385285903 0.0 0.0
-0.006146106565239617 0.004102107136714994 0.0 -0.0003246815619933896 0.0 0.0
-0.00802067073274848 0.0057047338307811835 0.0 -0.00040676928170804705 0.0 0.0
-0.010348427778764033 0.007757361355207881 0.0 -0.0005049411128077996 0.0 0.0
-0.013349950603349717 0.010487838631182078 0.0 -0.0006088767292466157 0.0 0.0
-0.017357809301787264 0.014224602543752463 0.0 -0.0007552934642143516 0.0 0.0
-0.022708102016961232 0.019302755452577536 0.0 -0.0009593086600959699 0.0 0.0
-0.029655786285491467 0.02596741528244606 0.0 -0.0012190312676576553 0.0 0.0
-0.03821016021278227 0.034216847209518564 0.0 -0.0015153873589535682 0.0 0.0
-0.04792085598605636 0.04360215849216775 0.0 -0.0017027152401430379 0.0 0.0
-0.05779463814238055 0.053146557154663654 0.0 -0.0015289453722331925 0.0 0.0
-0.06637250108612061 0.06141474799638935 0.0 -0.0007386702247678678 0.0 0.0
-0.07184188781348373 0.06654394216335824 0.0 -0.0025022567421031927 0.0 0.0
-0.06749194664159278 0.05991669420843149 0.0 -0.02456424842478752 0.0 0.0
-0.06749194664159035 0.05991669420842949 0.0 0.024564248424791435 0.0 0.0
-0.07184188781347604 0.06654394216335313 0.0 0.002502256742109854 0.0 0.0
-0.06637250108610793 0.06141474799637914 0.0 0.0007386702247727805 0.0 0.0
-0.057794638142366156 0.05314655715464767 0.0 0.0015289453722326513 0.0 0.0
-0.047920855986041025 0.04360215849215443 0.0 0.0017027152401435375 0.0 0.0
-0.038210160212765756 0.03421684720950546 0.0 0.0015153873589531242 0.0 0.0
-0.029655786285474807 0.025967415282432738 0.0 0.0012190312676586823 0.0 0.0
-0.022708102016943555 0.01930275545256066 0.0 0.0009593086600946515 0.0 0.0
-0.017357809301769125 0.014224602543734144 0.0 0.0007552934642146847 0.0 0.0
-0.013349950603332394 0.010487838631166979 0.0 0.0006088767292457969 0.0 0.0
-0.010348427778749326 0.007757361355195114 0.0 0.0005049411128063702 0.0 0.0
-0.00802067073273549 0.00570473383077108 0.0 0.00040676928170835236 0.0 0.0
-0.006146106565228361 0.004102107136705557 0.0 0.00032468156199334797 0.0 0.0
-0.004610966182056191 0.0028340052732078735 0.0 0.0002553360238521374 0.0 0.0
-0.003329170414570785 0.0018002261622320215 0.0 0.0001906711237546349 0.0 0.0
-0.00227671363357241 0.0010644403196997665 0.0 0.00020512527874431974 0.0 0.0
-0.0016476886946044217 0.0006934671020839556 0.0 0.0002565230069425939 0.0 0.0
-0.0010218279045246235 0.0004402108995307519 0.0 0.0002777213613560231 0.0 0.0
-0.0004153970260382632 0.0001826800282925395 0.0 0.00023626394116151028 0.0 0.0
-7.225531532729836e-05 3.9571678889948995e-05 0.0 1.6947641149289705e-05 0.0 0.0
SCALARS Statev float 8
LOOKUP_TABLE default
0.0 0.005925191800487247 0.004385651707679643 -0.004753796201907008 0.0003681444942273657 -0.002344755521295329 0.0 0.0
0.0 9.115339330164429e-05 1.0238469917872934e-05 -6.696482788197252e-06 -3.5419871296755972e-06 1.4899011793068682e-05 0.0 0.0
0.0 3.342380937747103e-05 -4.754075056013673e-06 3.773145031487882e-06 9.80930024525693e-07 5.620332136169097e-07 0.0 0.0
0.0 5.964197818941148e-05 -8.875124403010095e-06 6.7718641644531875e-06 2.1032602385566872e-06 1.0945643523731552e-06 0.0 0.0
0.0 0.00038361184465772024 0.00017945726042936384 -0.00014088613912800277 -3.85711213013611e-05 -2.475840135398516e-05 0.0 0.0
0.0 0.0009930024564145745 0.000924798404885072 -0.0007392770686871272 -0.0001855213361979446 -7.87874514382361e-05 0.0 0.0
0.0 0.002131946638842843 0.001971427995302655 -0.0016270649351064871 -0.00034436306019616764 -0.0001396840330129294 0.0 0.0
0.0 0.0036343578585345104 0.003329051360279074 -0.002828649462229574 -0.0005004018980494998 -0.0002043562752044069 0.0 0.0
0.0 0.005563844108176015 0.00503637682821021 -0.004393611534314461 -0.0006427652938957479 -0.0002821568169796427 0.0 0.0
0.0 0.008044671531171308 0.007193360950070619 -0.006423303570505074 -0.0007700573795655445 -0.00037729195275138227 0.0 0.0
0.0 0.011355450939052663 0.010019934412718496 -0.009137621277675702 -0.0008823131350427922 -0.00048202702778539887 0.0 0.0
0.0 0.015602623375409297 0.013857101074918736 -0.012872518522998321 -0.0009845825519204125 -0.0006301076759552347 0.0 0.0
0.0 0.021469340444142254 0.01903158618869677 -0.01795144049904906 -0.0010801456896477012 -0.0008313997565769258 0.0 0.0
0.0 0.02923986937831494 0.025793746953006923 -0.024618651245084305 -0.0011750957079226223 -0.001085320942139785 0.0 0.0
0.0 0.038897330660651305 0.03418516012489474 -0.032910389078859445 -0.0012747710460352891 -0.0014069230358486617 0.0 0.0
0.0 0.05009631630578269 0.043875742214359685 -0.0424945252803046 -0.0013812169340550915 -0.0017526033714175345 0.0 0.0
0.0 0.0619226287003929 0.05410101656585275 -0.05260958640097526 -0.0014914301648774816 -0.0019864575530785366 0.0 0.0
0.0 0.07306313391098293 0.06373842993908482 -0.06214178096287994 -0.0015966489762048645 -0.0019018669846920556 0.0 0.0
0.0 0.08204524941482846 0.07151365724591871 -0.06982687091905913 -0.001686786326859539 -0.0014310749968127541 0.0 0.0
0.0 0.08716937111863035 0.07608493436596422 -0.07431785947885881 -0.0017670748871053779 -0.0010059305709914596 0.0 0.0
0.0 0.08716937111862809 0.07608493436596225 -0.07431785947885675 -0.001767074887105511 0.0010059305709928384 0.0 0.0
0.0 0.08204524941482177 0.0715136572459128 -0.06982687091905354 -0.0016867863268592873 0.0014310749968201603 0.0 0.0
0.0 0.07306313391097145 0.06373842993907466 -0.062141780962870326 -0.0015966489762043146 0.0019018669846959273 0.0 0.0
0.0 0.06192262870037708 0.05410101656583871 -0.05260958640096189 -0.001491430164876814 0.001986457553081408 0.0 0.0
0.0 0.050096316305765706 0.04387574221434477 -0.04249452528029008 -0.0013812169340546973 0.0017526033714152576 0.0 0.0
0.0 0.03889733066063607 0.03418516012488108 -0.03291038907884673 -0.0012747710460343528 0.001406923035849475 0.0 0.0
0.0 0.029239869378298342 0.025793746952992098 -0.024618651245070504 -0.0011750957079215928 0.001085320942139095 0.0 0.0
0.0 0.021469340444124924 0.019031586188681338 -0.017951440499034632 -0.0010801456896467013 0.0008313997565766787 0.0 0.0
0.0 0.015602623375390916 0.013857101074902447 -0.012872518522982792 -0.000984582551919651 0.0006301076759544678 0.0 0.0
0.0 0.011355450939036206 0.010019934412703588 -0.00913762127766165 -0.000882313135041936 0.00048202702778478163 0.0 0.0
0.0 0.008044671531156587 0.007193360950057475 -0.00642330357049278 -0.0007700573795646947 0.0003772919527498625 0.0 0.0
0.0 0.0055638441081644315 0.005036376828199342 -0.004393611534304394 -0.0006427652938949474 0.0002821568169794011 0.0 0.0
0.0 0.0036343578585253567 0.0033290513602701076 -0.002828649462221534 -0.0005004018980485732 0.00020435627520352703 0.0 0.0
0.0 0.002131946638836266 0.0019714279952959255 -0.0016270649351006832 -0.000344363060195242 0.0001396840330126705 0.0 0.0
0.0 0.000993002456410331 0.0009247984048805373 -0.0007392770686833898 -0.00018552133619714726 7.878745143781098e-05 0.0 0.0
0.0 0.00038361184465546743 0.00017945726042784552 -0.00014088613912680413 -3.85711213010416e-05 2.4758401353849016e-05 0.0 0.0
0.0 5.964197818879073e-05 -8.875124402918782e-06 6.771864164384042e-06 2.103260238534788e-06 -1.0945643523608391e-06 0.0 0.0
0.0 3.342380937689642e-05 -4.754075055925718e-06 3.7731450314176655e-06 9.80930024508012e-07 -5.620332136036602e-07 0.0 0.0
0.0 9.115339330093057e-05 1.0238469917777012e-05 -6.696482788147447e-06 -3.5419871296293255e-06 -1.4899011792882715e-05 0.0 0.0
0.0 0.005925191800478603 0.004385651707673895 -0.004753796201900257 0.0003681444942263599 0.002344755521283342 0.0 0.0
0.0 0.003959387061259961 0.0027459349514931744 -0.0031521902487350126 0.0004062552972418376 -0.0025462645336427254 0.0 0.0
0.0 0.0 0.0 0.0 0.0 0.0 0.0 0.0
0.0 0.0 0.0 0.0 0.0 0.0 0.0 0.0
0.0 2.818381018083203e-05 -3.89524483617999e-06 2.9799769798284316e-06 9.152678563517335e-07 1.0878372165257407e-06 0.0 0.0
0.0 0.00019877657617967942 2.722807334288493e-05 -2.176117561982141e-05 -5.466897723063638e-06 -1.019414189751255e-05 0.0 0.0
0.0 0.0006533837253882036 0.0006103502634146329 -0.0004831939908172623 -0.0001271562725973705 -0.00014513229349157004 0.0 0.0
0.0 0.0016461081045471412 0.0015193856724853626 -0.0012388842271753506 -0.00028050144531001136 -0.0003045441705031351 0.0 0.0
0.0 0.002973490449794273 0.0027220773181983672 -0.0022850413095937593 -0.0004370360086046081 -0.00047057895919243054 0.0 0.0
0.0 0.0046595188425696535 0.0042317489902724955 -0.0036497676695594755 -0.0005819813207130214 -0.0006507411186361797 0.0 0.0
0.0 0.0068151908322428584 0.006131182024283256 -0.005419490685667092 -0.0007116913386161638 -0.000858960864223752 0.0 0.0
0.0 0.009663216597418763 0.008607151786776821 -0.007780948964224681 -0.0008262028225521389 -0.0011012825250323092 0.0 0.0
0.0 0.013590736163390182 0.011955329377378598 -0.011027794671868416 -0.0009275347055101761 -0.0014008169877821057 0.0 0.0
0.0 0.018709064472523896 0.016529237353666553 -0.015509621104376398 -0.0010196162492901594 -0.001839420549131927 0.0 0.0
0.0 0.025605443332143908 0.02258201459172255 -0.021472818846925604 -0.0011091957447969434 -0.00244667795756075 0.0 0.0
0.0 0.03432131107465657 0.030151963124606267 -0.028949753514468234 -0.0012022096101380263 -0.003191803791516922 0.0 0.0
0.0 0.04444105893505714 0.03894086569153502 -0.03764055622773638 -0.0013003094637986474 -0.003983410600632755 0.0 0.0
0.0 0.05518239652438924 0.04825893913225832 -0.04685800397973336 -0.0014009351525249483 -0.00451880216939451 0.0 0.0
0.0 0.0653938992618 0.05710281395709883 -0.0556047697649854 -0.0014980441921134268 -0.004397024815314086 0.0 0.0
0.0 0.07365898116289782 0.0642701643296978 -0.06268246543060346 -0.0015876988990943465 -0.003488938266492019 0.0 0.0
0.0 0.07848405730959666 0.06846360480801594 -0.06681411951485257 -0.0016494852931633146 -0.0018955774606561281 0.0 0.0
0.0 0.07848405730959548 0.06846360480801478 -0.06681411951485172 -0.001649485293163018 0.0018955774606647712 0.0 0.0
0.0 0.0736589811628909 0.06427016432969149 -0.06268246543059745 -0.0015876988990940135 0.003488938266506345 0.0 0.0
0.0 0.06539389926178922 0.057102813957089125 -0.0556047697649762 -0.0014980441921129345 0.004397024815323349 0.0 0.0
0.0 0.055182396524377474 0.04825893913224766 -0.04685800397972342 -0.001400935152524227 0.004518802169399735 0.0 0.0
0.0 0.04444105893504504 0.038940865691524204 -0.037640556227726385 -0.0013003094637978043 0.0039834106006309804 0.0 0.0
0.0 0.034321311074643535 0.03015196312459461 -0.028949753514457312 -0.0012022096101372815 0.0031918037915173577 0.0 0.0
0.0 0.02560544333212896 0.022582014591709304 -0.021472818846913055 -0.0011091957447962502 0.002446677957560567 0.0 0.0
0.0 0.018709064472508367 0.016529237353652734 -0.01550962110436333 -0.0010196162492893976 0.0018394205491315263 0.0 0.0
0.0 0.013590736163374991 0.011955329377364739 -0.011027794671855516 -0.0009275347055092204 0.0014008169877802968 0.0 0.0
0.0 0.009663216597403115 0.008607151786762787 -0.007780948964211405 -0.0008262028225513801 0.0011012825250305948 0.0 0.0
0.0 0.006815190832230595 0.0061311820242719 -0.0054194906856565835 -0.0007116913386153167 0.0008589608642211592 0.0 0.0
0.0 0.004659518842560567 0.004231748990263592 -0.0036497676695514767 -0.0005819813207121147 0.0006507411186352865 0.0 0.0
0.0 0.002973490449785895 0.0027220773181903185 -0.002285041309586656 -0.0004370360086036623 0.0004705789591909613 0.0 0.0
0.0 0.0016461081045409584 0.0015193856724789326 -0.0012388842271698404 -0.00028050144530909196 0.0003045441705020756 0.0 0.0
0.0 0.0006533837253843574 0.0006103502634109271 -0.00048319399081425153 -0.00012715627259667558 0.00014513229349061814 0.0 0.0
0.0 0.00019877657617780047 2.722807334216904e-05 -2.176117561925816e-05 -5.466897722910855e-06 1.0194141897273614e-05 0.0 0.0
0.0 2.8183810180206067e-05 -3.895244836085688e-06 2.979976979756023e-06 9.152678563296789e-07 -1.0878372164973423e-06 0.0 0.0
0.0 0.0 0.0 0.0 0.0 0.0 0.0 0.0
0.0 0.0 0.0 0.0 0.0 0.0 0.0 0.0
0.0 0.003959387061250067 0.0027459349514867806 -0.0031521902487277164 0.0004062552972409358 0.002546264533632213 0.0 0.0
0.0 0.002769873587470033 0.0017952526693313503 -0.002163337954266046 0.0003680852849346958 -0.0020936929666241417 0.0 0.0
0.0 0.0 0.0 0.0 0.0 0.0 0.0 0.0
0.0 0.0 0.0 0.0 0.0 0.0 0.0 0.0
0.0 1.4183303336775373e-06 -1.539621149661279e-07 1.1836444455633038e-07 3.5597670409800244e-08 1.0785418544746333e-07 0.0 0.0
0.0 7.144792729831602e-05 -8.42926790195537e-06 6.433788131044106e-06 1.9954797709110143e-06 4.583789174484942e-06 0.0 0.0
0.0 0.00048567946847199127 0.0002887290225427016 -0.00022710295694461258 -6.16260655980893e-05 -0.00012467416270886365 0.0 0.0
0.0 0.0011825955072904569 0.0010816344915697714 -0.0008700289845538978 -0.00021160550701587315 -0.0003791102342914894 0.0 0.0
0.0 0.0023335069359572847 0.0021294545051277155 -0.0017645461519092268 -0.0003649083532184881 -0.000643138425788087 0.0 0.0
0.0 0.003801705220510204 0.0034421745906456614 -0.0029303356093104997 -0.0005118389813351615 -0.0009111819122873 0.0 0.0
0.0 0.005659902767405106 0.005090066638772555 -0.004445243431310323 -0.0006448232074622295 -0.0012098914704616226 0.0 0.0
0.0 0.008125223996406169 0.007226701032413872 -0.006464911618030854 -0.000761789414383017 -0.00156126899535766 0.0 0.0
0.0 0.011415281323537503 0.010113851616807177 -0.009249655510681395 -0.0008641961061257806 -0.001997464915154826 0.0 0.0
0.0 0.016070197379463157 0.014073661079095526 -0.013118970838096473 -0.0009546902409990534 -0.002593146105032487 0.0 0.0
0.0 0.022079415792597732 0.01939069669696486 -0.01835025983460148 -0.0010404368623633821 -0.0034543712623981817 0.0 0.0
0.0 0.02977168180422251 0.026109045648420905 -0.024982527570624812 -0.0011265180777960946 -0.00455516405490628 0.0 0.0
0.0 0.038834054161556 0.033964166715570565 -0.032748293141713396 -0.0012158735738571698 -0.005690943691061205 0.0 0.0
0.0 0.04850344549434123 0.04236310381346011 -0.04105663951034729 -0.0013064643031128421 -0.006468335119263795 0.0 0.0
0.0 0.05774515404190591 0.05042253404696829 -0.04902559302305646 -0.0013969410239118173 -0.0063860588229452675 0.0 0.0
0.0 0.06529573649068321 0.057025266147154655 -0.05554611641411682 -0.0014791497330378185 -0.0051239549733295845 0.0 0.0
0.0 0.06979688349039925 0.06097878354310142 -0.059445213701775974 -0.0015335698413254093 -0.002596562600007509 0.0 0.0
0.0 0.0697968834903986 0.06097878354310049 -0.05944521370177543 -0.001533569841325065 0.0025965626000207893 0.0 0.0
0.0 0.06529573649067826 0.05702526614714979 -0.05554611641411223 -0.0014791497330375355 0.005123954973349025 0.0 0.0
0.0 0.05774515404189549 0.05042253404695884 -0.04902559302304705 -0.0013969410239117776 0.006386058822958722 0.0 0.0
0.0 0.048503445494329334 0.04236310381344933 -0.04105663951033704 -0.0013064643031122922 0.006468335119270743 0.0 0.0
0.0 0.03883405416154367 0.033964166715559574 -0.03274829314170312 -0.0012158735738564538 0.005690943691060275 0.0 0.0
0.0 0.029771681804209214 0.026109045648409143 -0.024982527570613595 -0.0011265180777955434 0.004555164054906063 0.0 0.0
0.0 0.022079415792584847 0.019390696696953393 -0.018350259834590585 -0.0010404368623628032 0.0034543712623980706 0.0 0.0
0.0 0.016070197379449862 0.014073661079083439 -0.013118970838085171 -0.0009546902409982678 0.002593146105032122 0.0 0.0
0.0 0.011415281323523882 0.010113851616794987 -0.009249655510669998 -0.0008641961061249877 0.0019974649151524174 0.0 0.0
0.0 0.008125223996393701 0.007226701032402181 -0.00646491161801996 -0.0007617894143822206 0.0015612689953554252 0.0 0.0
0.0 0.005659902767394849 0.005090066638762841 -0.004445243431301383 -0.0006448232074614582 0.0012098914704581345 0.0 0.0
0.0 0.0038017052205021303 0.0034421745906379527 -0.002930335609303644 -0.000511838981334308 0.0009111819122857433 0.0 0.0
0.0 0.002333506935950377 0.0021294545051209765 -0.0017645461519033526 -0.00036490835321762355 0.0006431384257860981 0.0 0.0
0.0 0.0011825955072856029 0.0010816344915650653 -0.0008700289845499596 -0.00021160550701510583 0.00037911023429005165 0.0 0.0
0.0 0.0004856794684686983 0.0002887290225402694 -0.00022710295694268633 -6.162606559758282e-05 0.00012467416270786342 0.0 0.0
0.0 7.144792729727774e-05 -8.429267901949362e-06 6.43378813104193e-06 1.9954797709073064e-06 -4.583789174489937e-06 0.0 0.0
0.0 1.418330333417905e-06 -1.539621149372118e-07 1.1836444453399425e-07 3.5597670403225686e-08 -1.078541854267823e-07 0.0 0.0
0.0 0.0 0.0 0.0 0.0 0.0 0.0 0.0
0.0 0.0 0.0 0.0 0.0 0.0 0.0 0.0
0.0 0.0027698735874617446 0.0017952526693256659 -0.002163337954259458 0.00036808528493379264 0.0020936929666150856 0.0 0.0
0.0 0.0018973878672536894 0.001157555929946908 -0.0014532152337201217 0.0002956593037732134 -0.001500892048487867 0.0 0.0
0.0 0.0 0.0 0.0 0.0 0.0 0.0 0.0
0.0 0.0 0.0 0.0 0.0 0.0 0.0 0.0
0.0 0.0 0.0 0.0 0.0 0.0 0.0 0.0
0.0 3.091413199917303e-05 -3.963852590723633e-06 3.0652197957721597e-06 8.986327949515943e-07 3.6211559148845185e-06 0.0 0.0
0.0 0.0002474937260070865 9.429036547831792e-05 -7.383310980098288e-05 -2.0457255677334838e-05 -6.160021716775038e-05 0.0 0.0
0.0 0.0007922253141526539 0.0006619373069529299 -0.0005257602913316261 -0.00013617701562130375 -0.0003555031812590638 0.0 0.0
0.0 0.0017266063799470986 0.0015562198256559821 -0.0012707497117471172 -0.00028547011390886445 -0.0007116327690210509 0.0 0.0
0.0 0.002976300997857531 0.002673950740886119 -0.0022433210997631877 -0.0004306296411229306 -0.0010590188169425935 0.0 0.0
0.0 0.004544119360030562 0.004076429208317232 -0.0035103009572467624 -0.0005661282510704693 -0.001431714437360504 0.0 0.0
0.0 0.0066159627345342455 0.00588531457021565 -0.005198183867272705 -0.0006871307029429423 -0.0018600692839739737 0.0 0.0
0.0 0.009436960293046052 0.00832077649325373 -0.007527810831383764 -0.0007929656618699671 -0.002391858519357344 0.0 0.0
0.0 0.013331112207147491 0.011683617655671639 -0.010799990248984447 -0.0008836274066871899 -0.003125898516113579 0.0 0.0
0.0 0.01864951990795283 0.016244258142729125 -0.01527685526082391 -0.0009674028819052075 -0.004142985941641047 0.0 0.0
0.0 0.025435885720547304 0.02207483581503712 -0.021027047276870454 -0.0010477885381666623 -0.005448991763178667 0.0 0.0
0.0 0.03322839032332236 0.028968792692978855 -0.027841164035960927 -0.001127628657017926 -0.006846614732260518 0.0 0.0
0.0 0.041822579786482926 0.036424552223470165 -0.03521589148537054 -0.0012086607380996253 -0.007835725956269426 0.0 0.0
0.0 0.05013831660279758 0.043687756351646956 -0.042397467758594015 -0.001290288593052925 -0.007828161911428535 0.0 0.0
0.0 0.057038256675047076 0.04976895039212211 -0.04840362722510947 -0.001365323167012619 -0.006353417198761151 0.0 0.0
0.0 0.061291285300504664 0.053560209247983076 -0.05214416370399609 -0.001416045543986993 -0.003168836241660487 0.0 0.0
0.0 0.061291285300502096 0.05356020924798059 -0.052144163703993586 -0.001416045543987022 0.0031688362416776917 0.0 0.0
0.0 0.05703825667504163 0.04976895039211658 -0.04840362722510419 -0.0013653231670124014 0.00635341719878311 0.0 0.0
0.0 0.050138316602792485 0.043687756351641446 -0.04239746775858938 -0.0012902885930520642 0.007828161911443917 0.0 0.0
0.0 0.04182257978647582 0.03642455222346321 -0.03521589148536439 -0.0012086607380988206 0.00783572595627633 0.0 0.0
0.0 0.03322839032331247 0.028968792692970095 -0.027841164035952666 -0.001127628657017428 0.006846614732259313 0.0 0.0
0.0 0.025435885720536927 0.022074835815027873 -0.021027047276861725 -0.0010477885381661464 0.005448991763177964 0.0 0.0
0.0 0.01864951990794228 0.01624425814271954 -0.0152768552608151 -0.0009674028819044371 0.0041429859416403465 0.0 0.0
0.0 0.013331112207136175 0.011683617655661342 -0.010799990248974788 -0.0008836274066865513 0.0031258985161128133 0.0 0.0
0.0 0.009436960293035972 0.008320776493244137 -0.0075278108313750125 -0.000792965661869122 0.002391858519354566 0.0 0.0
0.0 0.006615962734524436 0.005885314570206338 -0.005198183867264248 -0.0006871307029420887 0.001860069283971033 0.0 0.0
0.0 0.004544119360021451 0.004076429208308806 -0.0035103009572391704 -0.0005661282510696355 0.0014317144373562909 0.0 0.0
0.0 0.002976300997850079 0.0026739507408787494 -0.002243321099756566 -0.0004306296411221834 0.0010590188169401359 0.0 0.0
0.0 0.0017266063799408664 0.0015562198256500017 -0.0012707497117420189 -0.0002854701139079828 0.0007116327690184869 0.0 0.0
0.0 0.0007922253141487972 0.0006619373069495348 -0.0005257602913289216 -0.0001361770156206132 0.0003555031812573997 0.0 0.0
0.0 0.0002474937260049121 9.42903654773663e-05 -7.38331098002373e-05 -2.045725567712874e-05 6.160021716708475e-05 0.0 0.0
0.0 3.091413199829632e-05 -3.96385259060396e-06 3.0652197956813065e-06 8.986327949227772e-07 -3.621155914790049e-06 0.0 0.0
0.0 0.0 0.0 0.0 0.0 0.0 0.0 0.0
0.0 0.0 0.0 0.0 0.0 0.0 0.0 0.0
0.0 0.0 0.0 0.0 0.0 0.0 0.0 0.0
0.0 0.0018973878672464497 0.0011575559299424269 -0.001453215233714797 0.0002956593037723701 0.0015008920484807702 0.0 0.0
0.0 0.0012241053449066844 0.000701134237445383 -0.0009127585679038648 0.0002116243304584818 -0.0009546900429398828 0.0 0.0
0.0 0.0 0.0 0.0 0.0 0.0 0.0 0.0
0.0 0.0 0.0 0.0 0.0 0.0 0.0 0.0
0.0 0.0 0.0 0.0 0.0 0.0 0.0 0.0
0.0 1.3070422527309446e-05 -1.5144320664198957e-06 1.1565989069555581e-06 3.578331594643518e-07 1.954048149766107e-06 0.0 0.0
0.0 0.000101523443088093 1.547202695804524e-05 -1.2298380764625945e-05 -3.173646193419456e-06 -1.7372620445708413e-05 0.0 0.0
0.0 0.0005293059744291957 0.00029536247761742437 -0.00023187213663772416 -6.349034097970009e-05 -0.0002259442024272231 0.0 0.0
0.0 0.0011955638003444688 0.0009953466836469047 -0.0007988500865484044 -0.0001964965970985005 -0.0006422322807772964 0.0 0.0
0.0 0.0021914064640580107 0.0019347250596182324 -0.0015967827118304474 -0.0003379423477877847 -0.0010830162323236608 0.0 0.0
0.0 0.0034874313130447013 0.003094527237954538 -0.0026207898580209747 -0.0004737373799335629 -0.001515187965596747 0.0 0.0
0.0 0.005192826512516568 0.00458528285093668 -0.0039867561019492565 -0.000598526748987424 -0.0019996840922956375 0.0 0.0
0.0 0.007499116809228864 0.0065864028631617754 -0.005877379817577327 -0.0007090230455844453 -0.002590514061136975 0.0 0.0
0.0 0.01077999093606031 0.009358891184671567 -0.008554513172450583 -0.0008043780122209825 -0.0033856185551652384 0.0 0.0
0.0 0.015139701229894817 0.013165188914769699 -0.012277640088061837 -0.0008875488267078611 -0.004512659919201412 0.0 0.0
0.0 0.02090020028452712 0.01808979468204648 -0.017126541962722203 -0.0009632527193242754 -0.005940839708506901 0.0 0.0
0.0 0.02785637303090041 0.023980720310390932 -0.02294448763533204 -0.0010362326750588888 -0.007435993970216787 0.0 0.0
0.0 0.035184447289758336 0.030453130101290304 -0.029346455495144856 -0.0011066746061454353 -0.008569995274783086 0.0 0.0
0.0 0.04248538521040741 0.03689597560227866 -0.035718126203622094 -0.001177849398656564 -0.0087056043992345 0.0 0.0
0.0 0.04877330564538757 0.04247343206637413 -0.04122763212056788 -0.0012457999458062386 -0.007195439749969576 0.0 0.0
0.0 0.052849170507439674 0.04615245838144034 -0.04485762748117131 -0.0012948309002690042 -0.0036331002148272573 0.0 0.0
0.0 0.05284917050743737 0.046152458381438013 -0.04485762748116895 -0.00129483090026905 0.0036331002148442555 0.0 0.0
0.0 0.04877330564538419 0.04247343206637013 -0.041227632120564205 -0.0012457999458059205 0.007195439749990901 0.0 0.0
0.0 0.04248538521040212 0.03689597560227299 -0.03571812620361677 -0.001177849398656216 0.008705604399250208 0.0 0.0
0.0 0.03518444728974963 0.030453130101282134 -0.029346455495137036 -0.001106674606145093 0.008569995274789716 0.0 0.0
0.0 0.02785637303089091 0.023980720310382467 -0.022944487635324105 -0.001036232675058362 0.00743599397021549 0.0 0.0
0.0 0.020900200284517768 0.018089794682038102 -0.017126541962714313 -0.0009632527193237881 0.00594083970850582 0.0 0.0
0.0 0.015139701229884936 0.013165188914760866 -0.01227764008805337 -0.0008875488267074971 0.004512659919200222 0.0 0.0
0.0 0.010779990936050298 0.009358891184662346 -0.00855451317244185 -0.0008043780122204928 0.0033856185551633645 0.0 0.0
0.0 0.007499116809219181 0.0065864028631529205 -0.005877379817569092 -0.0007090230455838287 0.0025905140611336567 0.0 0.0
0.0 0.005192826512508272 0.004585282850929058 -0.003986756101942451 -0.0005985267489866055 0.001999684092292433 0.0 0.0
0.0 0.0034874313130374398 0.0030945272379478295 -0.002620789858015243 -0.0004737373799325854 0.001515187965592507 0.0 0.0
0.0 0.002191406464052 0.0019347250596124582 -0.0015967827118255333 -0.00033794234778692457 0.0010830162323209925 0.0 0.0
0.0 0.0011955638003390814 0.0009953466836422216 -0.0007988500865445414 -0.00019649659709768022 0.0006422322807746715 0.0 0.0
0.0 0.0005293059744253976 0.00029536247761485936 -0.0002318721366356651 -6.349034097919456e-05 0.00022594420242543734 0.0 0.0
0.0 0.00010152344308671257 1.547202695781425e-05 -1.229838076443889e-05 -3.1736461933751498e-06 1.7372620445446785e-05 0.0 0.0
0.0 1.307042252677285e-05 -1.5144320663590542e-06 1.1565989069092544e-06 3.5783315944974357e-07 -1.9540481496913783e-06 0.0 0.0
0.0 0.0 0.0 0.0 0.0 0.0 0.0 0.0
0.0 0.0 0.0 0.0 0.0 0.0 0.0 0.0
0.0 0.0 0.0 0.0 0.0 0.0 0.0 0.0
0.0 0.0012241053449009412 0.0007011342374420566 -0.0009127585678997818 0.0002116243304577251 0.0009546900429347444 0.0 0.0
0.0 0.0006917541686107297 0.00037545315110913707 -0.0005068096191102675 0.00013135646800113023 -0.0005214496603469167 0.0 0.0
0.0 0.0 0.0 0.0 0.0 0.0 0.0 0.0
0.0 0.0 0.0 0.0 0.0 0.0 0.0 0.0
0.0 0.0 0.0 0.0 0.0 0.0 0.0 0.0
0.0 1.0042081989539105e-05 -9.329724215915323e-07 7.201815348681859e-07 2.1279088672333964e-07 1.7612736881498078e-06 0.0 0.0
0.0 3.209640345357559e-05 9.092528825631059e-06 -7.175887790008993e-06 -1.9166410356220456e-06 -1.462001765871553e-05 0.0 0.0
0.0 0.00022654533064666427 0.00010212609615609982 -7.956338353262142e-05 -2.2562712623478255e-05 -0.00011798624800789492 0.0 0.0
0.0 0.0007308278611571995 0.000503929923813243 -0.00039789687831372493 -0.000106033045499518 -0.00045822684799551013 0.0 0.0
0.0 0.001491660127951065 0.001221367896145161 -0.0009882415305167889 -0.00023312636562837166 -0.0009417241410419431 0.0 0.0
0.0 0.0024989799488108412 0.0021545528648763473 -0.0017894236201138614 -0.00036512924476248573 -0.0014467366181787466 0.0 0.0
0.0 0.003830888995792551 0.0033355391543479817 -0.0028445522169771777 -0.0004909869373708041 -0.001965223068004793 0.0 0.0
0.0 0.005667299091683457 0.004916178133277669 -0.004308739030977668 -0.0006074391023000003 -0.002581488418507673 0.0 0.0
0.0 0.008246834479694981 0.007116932235477614 -0.006406739892970946 -0.000710192342506667 -0.0034025378217562904 0.0 0.0
0.0 0.011841133445410238 0.01016535043064539 -0.009367328092549285 -0.0007980223380961061 -0.004530439109716814 0.0 0.0
0.0 0.016607133077144273 0.014170261773196349 -0.013298057571994686 -0.0008722042012016616 -0.0059755309347380905 0.0 0.0
0.0 0.022163401582274863 0.019042709904112186 -0.018104314302977972 -0.0009383956011342176 -0.007522136542391798 0.0 0.0
0.0 0.02855763664763409 0.024478740896325017 -0.023478821821134442 -0.0009999190751905826 -0.008696898051537352 0.0 0.0
0.0 0.03494874428375306 0.03004453725883223 -0.028984929611442365 -0.0010596076473898671 -0.008952360336761096 0.0 0.0
0.0 0.04044499320589364 0.03510353008016316 -0.03398424273395865 -0.001119287346204509 -0.007607265257762744 0.0 0.0
0.0 0.04437890981414852 0.03870176382301552 -0.0375338132476044 -0.001167950575411097 -0.003988116448257043 0.0 0.0
0.0 0.044378909814146966 0.03870176382301371 -0.03753381324760267 -0.0011679505754110472 0.003988116448273099 0.0 0.0
0.0 0.04044499320589036 0.03510353008015916 -0.03398424273395471 -0.001119287346204426 0.007607265257783401 0.0 0.0
0.0 0.03494874428374762 0.030044537258826352 -0.02898492961143654 -0.0010596076473898095 0.00895236033677594 0.0 0.0
0.0 0.028557636647627182 0.02447874089631839 -0.023478821821127944 -0.0009999190751904395 0.008696898051543266 0.0 0.0
0.0 0.02216340158226656 0.01904270990410484 -0.018104314302971 -0.0009383956011338372 0.007522136542390329 0.0 0.0
0.0 0.016607133077136082 0.014170261773189044 -0.013298057571987848 -0.0008722042012011958 0.0059755309347359386 0.0 0.0
0.0 0.011841133445404274 0.010165350430639744 -0.009367328092544279 -0.000798022338095464 0.004530439109715739 0.0 0.0
0.0 0.008246834479687867 0.0071169322354710995 -0.006406739892964949 -0.0007101923425061506 0.003402537821754868 0.0 0.0
0.0 0.005667299091675957 0.004916178133270981 -0.004308739030971525 -0.000607439102299457 0.002581488418504503 0.0 0.0
0.0 0.003830888995785448 0.0033355391543416065 -0.0028445522169715403 -0.0004909869373700651 0.001965223068001382 0.0 0.0
0.0 0.002498979948804509 0.002154552864870868 -0.0017894236201091514 -0.0003651292447617167 0.0014467366181741834 0.0 0.0
0.0 0.0014916601279462267 0.0012213678961409129 -0.0009882415305133103 -0.00023312636562760253 0.0009417241410390458 0.0 0.0
0.0 0.0007308278611538127 0.0005039299238104812 -0.0003978968783115404 -0.00010603304549894099 0.00045822684799336503 0.0 0.0
0.0 0.00022654533064513208 0.00010212609615534008 -7.956338353204576e-05 -2.2562712623294245e-05 0.00011798624800709001 0.0 0.0
0.0 3.2096403452598836e-05 9.092528825686568e-06 -7.175887790050248e-06 -1.916641035636299e-06 1.4620017658800216e-05 0.0 0.0
0.0 1.0042081989046382e-05 -9.329724215423734e-07 7.201815348297952e-07 2.1279088671252578e-07 -1.761273688053899e-06 0.0 0.0
0.0 0.0 0.0 0.0 0.0 0.0 0.0 0.0
0.0 0.0 0.0 0.0 0.0 0.0 0.0 0.0
0.0 0.0 0.0 0.0 0.0 0.0 0.0 0.0
0.0 0.0006917541686067533 0.00037545315110700103 -0.0005068096191075532 0.00013135646800055187 0.0005214496603435777 0.0 0.0
0.0 0.00034483531924027174 0.00015866230813967174 -0.0002195699844998721 6.090767636020072e-05 -0.00022567274954547338 0.0 0.0
0.0 0.0 0.0 0.0 0.0 0.0 0.0 0.0
0.0 0.0 0.0 0.0 0.0 0.0 0.0 0.0
0.0 0.0 0.0 0.0 0.0 0.0 0.0 0.0
0.0 3.1613189766570845e-06 -2.2524151937945443e-07 1.7083701736800547e-07 5.44045020114313e-08 5.898380239007696e-07 0.0 0.0
0.0 2.658242930864141e-05 -2.457380404714994e-06 1.8939807852861015e-06 5.63399619428864e-07 5.6578118203109945e-06 0.0 0.0
0.0 9.25961089719626e-05 2.978285332027761e-05 -2.336484157962579e-05 -6.4180117406518385e-06 -5.546180683639711e-05 0.0 0.0
0.0 0.00034394391963007466 0.00018251023439130328 -0.00014230927728551366 -4.020095710578966e-05 -0.0002485498159777018 0.0 0.0
0.0 0.0008586881337764851 0.00059371568510317 -0.00047036760030321606 -0.0001233480847999537 -0.0006477800255885375 0.0 0.0
0.0 0.0015867446685273383 0.001268000841767906 -0.00102821483735252 -0.00023978600441538654 -0.0011798058185141893 0.0 0.0
0.0 0.002569332883190198 0.002149859556710539 -0.0017901275218024963 -0.00035973203490804204 -0.0017433263336191212 0.0 0.0
0.0 0.0039311424785156415 0.003324288533280651 -0.002844993245808952 -0.0004792952874716986 -0.0023607891657446032 0.0 0.0
0.0 0.005887869122211866 0.004967899738473064 -0.004376810275932005 -0.000591089462541057 -0.0031525202493621306 0.0 0.0
0.0 0.008600696383114444 0.007276189534824758 -0.006587129216505655 -0.0006890603183191009 -0.0042251139132215365 0.0 0.0
0.0 0.012270155203418145 0.010354588348807533 -0.009587492261661478 -0.0007670960871460528 -0.005580223130523824 0.0 0.0
0.0 0.016790564149086765 0.014173520735797052 -0.013341509958096784 -0.000832010777700264 -0.007039709839729588 0.0 0.0
0.0 0.021825217068981485 0.018537167579372023 -0.017651193703773663 -0.0008859738755983648 -0.008223667725336037 0.0 0.0
0.0 0.027097832067556393 0.023159083884797975 -0.022224925769323493 -0.0009341581154744806 -0.008610797928990613 0.0 0.0
0.0 0.03216432322311407 0.027626900960804657 -0.026643115780947295 -0.000983785179857362 -0.007562523036050096 0.0 0.0
0.0 0.036029768207011245 0.031147462600337593 -0.030114106369062105 -0.001033356231275482 -0.00421655406540644 0.0 0.0
0.0 0.036029768207009455 0.03114746260033563 -0.030114106369060197 -0.0010333562312754244 0.004216554065420512 0.0 0.0
0.0 0.03216432322311223 0.0276269009608018 -0.026643115780944724 -0.0009837851798570726 0.007562523036067853 0.0 0.0
0.0 0.027097832067553836 0.02315908388479441 -0.02222492576932035 -0.0009341581154740585 0.008610797929003464 0.0 0.0
0.0 0.02182521706897731 0.018537167579367617 -0.017651193703769705 -0.000885973875597902 0.008223667725340977 0.0 0.0
0.0 0.016790564149081075 0.014173520735792075 -0.01334150995809219 -0.0008320107776998773 0.007039709839728169 0.0 0.0
0.0 0.01227015520341144 0.010354588348801546 -0.009587492261655926 -0.0007670960871456189 0.005580223130521924 0.0 0.0
0.0 0.008600696383108748 0.007276189534819603 -0.006587129216500917 -0.0006890603183186868 0.004225113913219621 0.0 0.0
0.0 0.005887869122206201 0.0049678997384679565 -0.004376810275927412 -0.0005910894625405439 0.003152520249360244 0.0 0.0
0.0 0.003931142478509742 0.003324288533275341 -0.002844993245804237 -0.0004792952874711028 0.0023607891657413138 0.0 0.0
0.0 0.002569332883184951 0.0021498595567059214 -0.0017901275217984708 -0.00035973203490745033 0.0017433263336157343 0.0 0.0
0.0 0.001586744668522522 0.0012680008417639173 -0.0010282148373491886 -0.00023978600441472837 0.0011798058185101775 0.0 0.0
0.0 0.0008586881337730509 0.0005937156851004454 -0.0004703676003010169 -0.00012334808479942853 0.000647780025586221 0.0 0.0
0.0 0.0003439439196276429 0.0001825102343899378 -0.00014230927728444193 -4.020095710549574e-05 0.00024854981597604637 0.0 0.0
0.0 9.259610897095894e-05 2.978285332011635e-05 -2.336484157950047e-05 -6.41801174061575e-06 5.5461806836105864e-05 0.0 0.0
0.0 2.6582429308295138e-05 -2.4573804046819166e-06 1.8939807852611378e-06 5.633996194208481e-07 -5.657811820230416e-06 0.0 0.0
0.0 3.16131897615778e-06 -2.2524151934554124e-07 1.708370173418097e-07 5.440450200374948e-08 -5.898380238059186e-07 0.0 0.0
0.0 0.0 0.0 0.0 0.0 0.0 0.0 0.0
0.0 0.0 0.0 0.0 0.0 0.0 0.0 0.0
0.0 0.0 0.0 0.0 0.0 0.0 0.0 0.0
0.0 0.00034483531923779195 0.00015866230813867956 -0.00021956998449852385 6.0907676359844486e-05 0.00022567274954408964 0.0 0.0
0.0 0.0001351388427152998 3.2505522636601844e-05 -4.620837604575027e-05 1.370285340914855e-05 -4.50262084553837e-05 0.0 0.0
0.0 0.0 0.0 0.0 0.0 0.0 0.0 0.0
0.0 0.0 0.0 0.0 0.0 0.0 0.0 0.0
0.0 0.0 0.0 0.0 0.0 0.0 0.0 0.0
0.0 2.9414467647017034e-06 -1.395236380701475e-07 1.0592787567012979e-07 3.3595762400001796e-08 5.885360677257692e-07 0.0 0.0
0.0 1.7011890293375043e-05 -1.0712005918851233e-06 8.42342080148463e-07 2.2885851173667705e-07 3.948518221257476e-06 0.0 0.0
0.0 4.561277676339034e-05 7.612155910899102e-06 -5.753184114427228e-06 -1.858971796471867e-06 -1.9406665811891945e-05 0.0 0.0
0.0 0.00014198507050407826 5.064173608475442e-05 -3.944140327466702e-05 -1.1200332810087584e-05 -0.0001170782347823311 0.0 0.0
0.0 0.0003870438548911397 0.00017040720897146917 -0.0001331813328138074 -3.722587615766179e-05 -0.0003137435691612878 0.0 0.0
0.0 0.0007471415976553007 0.0005193328053975484 -0.0004102725098704045 -0.00010906029552714376 -0.0007479323505914533 0.0 0.0
0.0 0.0014646585791663433 0.001062452522385088 -0.0008588982950877084 -0.00020355422729737943 -0.0012747878606266642 0.0 0.0
0.0 0.0023423409578781653 0.0018431239617121785 -0.001528877710502299 -0.00031424625120987946 -0.0018901721502402183 0.0 0.0
0.0 0.003645637578180752 0.0029495211296175013 -0.002518911020259619 -0.00043061010935788207 -0.002632118205881169 0.0 0.0
0.0 0.005548874290883623 0.004528518315151714 -0.003987477606628975 -0.0005410407085227376 -0.0035825717446645714 0.0 0.0
0.0 0.008199069197617608 0.006683856898955407 -0.006050120823405111 -0.0006337360755502926 -0.004757308781223722 0.0 0.0
0.0 0.011479966751553453 0.009426763631308222 -0.008722800980057541 -0.0007039626512506819 -0.006038417547623982 0.0 0.0
0.0 0.015347133769930242 0.01266790846747227 -0.011909934286393942 -0.000757974181078327 -0.007110275357909468 0.0 0.0
0.0 0.019397957986930982 0.016267785525013206 -0.015467611632756326 -0.0008001738922568748 -0.0075913779516531095 0.0 0.0
0.0 0.02351988990492638 0.020036203959502636 -0.019201073132220782 -0.0008351308272818526 -0.007004247542646407 0.0 0.0
0.0 0.027163630529673022 0.023440533002450883 -0.02255699110713363 -0.0008835418953172429 -0.00429882337070135 0.0 0.0
0.0 0.027163630529671603 0.02344053300244924 -0.02255699110713187 -0.0008835418953173651 0.0042988233707119084 0.0 0.0
0.0 0.023519889904923513 0.02003620395949888 -0.019201073132216983 -0.0008351308272818902 0.007004247542660913 0.0 0.0
0.0 0.019397957986927866 0.01626778552500934 -0.015467611632752589 -0.0008001738922567528 0.0075913779516628595 0.0 0.0
0.0 0.015347133769926784 0.012667908467468755 -0.011909934286390776 -0.0007579741810779749 0.007110275357912395 0.0 0.0
0.0 0.011479966751549688 0.009426763631305093 -0.008722800980054794 -0.0007039626512502987 0.006038417547621766 0.0 0.0
0.0 0.008199069197612414 0.006683856898951128 -0.006050120823400942 -0.0006337360755501853 0.004757308781221343 0.0 0.0
0.0 0.0055488742908810194 0.004528518315149329 -0.00398747760662693 -0.0005410407085223981 0.00358257174466342 0.0 0.0
0.0 0.0036456375781782797 0.0029495211296150653 -0.0025189110202576185 -0.00043061010935744763 0.0026321182058806026 0.0 0.0
0.0 0.002342340957873564 0.0018431239617084053 -0.0015288777104991123 -0.00031424625120929286 0.0018901721502372496 0.0 0.0
0.0 0.0014646585791626614 0.0010624525223822175 -0.000858898295085408 -0.00020355422729680968 0.0012747878606238102 0.0 0.0
0.0 0.0007471415976519373 0.0005193328053951119 -0.0004102725098684899 -0.00010906029552662204 0.0007479323505881686 0.0 0.0
0.0 0.00038704385488930865 0.00017040720897040058 -0.00013318133281295155 -3.7225876157448984e-05 0.00031374356915960037 0.0 0.0
0.0 0.00014198507050283435 5.064173608433994e-05 -3.944140327433769e-05 -1.120033281000222e-05 0.00011707823478137336 0.0 0.0
0.0 4.561277676262257e-05 7.612155910842717e-06 -5.753184114382575e-06 -1.8589717964600796e-06 1.940666581171838e-05 0.0 0.0
0.0 1.701189029290454e-05 -1.0712005918517917e-06 8.423420801224218e-07 2.2885851172940093e-07 -3.9485182211370824e-06 0.0 0.0
0.0 2.94144676419533e-06 -1.3952363804583855e-07 1.0592787565141571e-07 3.3595762394410604e-08 -5.885360676186246e-07 0.0 0.0
0.0 0.0 0.0 0.0 0.0 0.0 0.0 0.0
0.0 0.0 0.0 0.0 0.0 0.0 0.0 0.0
0.0 0.0 0.0 0.0 0.0 0.0 0.0 0.0
0.0 0.00013513884271358165 3.250552263621854e-05 -4.620837604519307e-05 1.3702853408974533e-05 4.502620845493383e-05 0.0 0.0
0.0 2.742537779256867e-05 2.8613139275744436e-06 -4.0766732275572925e-06 1.2153592999827982e-06 -4.877278359698763e-06 0.0 0.0
0.0 1.4400916002750037e-06 -2.734609515630081e-09 6.875531268888254e-09 -4.14092175325815e-09 3.1032020111844965e-07 0.0 0.0
0.0 0.0 0.0 0.0 0.0 0.0 0.0 0.0
0.0 0.0 0.0 0.0 0.0 0.0 0.0 0.0
0.0 3.0628381032003893e-06 -6.905754497911045e-08 5.370267077192337e-08 1.5354874207180573e-08 6.580753880809897e-07 0.0 0.0
0.0 1.669848219011466e-05 -6.754141313205313e-07 5.129785862102976e-07 1.624355451102145e-07 4.126874192673731e-06 0.0 0.0
0.0 2.589327274018622e-05 -1.1900631345577345e-06 9.165920582486255e-07 2.7347107630910796e-07 6.164124485123245e-06 0.0 0.0
0.0 6.4339854555949e-05 1.928420618678762e-05 -1.5022286664714972e-05 -4.261919522072697e-06 -8.020079794831117e-05 0.0 0.0
0.0 0.00016822720494805984 4.6497078593688624e-05 -3.6294142627163696e-05 -1.0202935966525023e-05 -0.0001596615812455254 0.0 0.0
0.0 0.00029874994082867653 0.0001158389215130149 -9.071693911446858e-05 -2.5121982398546463e-05 -0.000353035193231207 0.0 0.0
0.0 0.0005284025249646504 0.00028105330581362943 -0.0002207359039793477 -6.0317401834281695e-05 -0.0006863643754486019 0.0 0.0
0.0 0.0010009232506292295 0.0005942510944998799 -0.00047342252735586805 -0.00012082856714401192 -0.0011521146122601333 0.0 0.0
0.0 0.0017336544285757054 0.0011523627076579501 -0.0009404616401456206 -0.00021190106751232938 -0.001815727727997575 0.0 0.0
0.0 0.0028454159660042714 0.0020130524878478606 -0.0016932278769601552 -0.00031982461088770524 -0.0026302326590427133 0.0 0.0
0.0 0.004413672219466706 0.0032496050205095325 -0.0028232332409976646 -0.00042637177951186737 -0.003589439069827023 0.0 0.0
0.0 0.00645980465897099 0.0048964055393006635 -0.004380434183525515 -0.0005159713557751497 -0.004623914408234399 0.0 0.0
0.0 0.009016528549270986 0.006967037976337251 -0.006384456011367525 -0.0005825819649697252 -0.0055627266794255475 0.0 0.0
0.0 0.011945796245608552 0.009469175940504499 -0.008831676112644614 -0.000637499827859883 -0.006054543479894049 0.0 0.0
0.0 0.015186337199610395 0.012368282961217314 -0.011699981368345384 -0.0006683015928719365 -0.005842149251247841 0.0 0.0
0.0 0.01846483539909457 0.015515686226382304 -0.014808891926293104 -0.0007067943000892012 -0.004134599697962844 0.0 0.0
0.0 0.01846483539909496 0.015515686226382152 -0.014808891926293 -0.0007067943000891523 0.004134599697969994 0.0 0.0
0.0 0.015186337199610992 0.01236828296121665 -0.011699981368344825 -0.000668301592871819 0.005842149251258729 0.0 0.0
0.0 0.011945796245608232 0.009469175940503035 -0.008831676112643435 -0.0006374998278596016 0.006054543479901893 0.0 0.0
0.0 0.009016528549268607 0.006967037976335009 -0.006384456011365512 -0.0005825819649694949 0.005562726679426727 0.0 0.0
0.0 0.006459804658968666 0.004896405539298951 -0.004380434183524023 -0.0005159713557749268 0.004623914408232302 0.0 0.0
0.0 0.0044136722194639206 0.0032496050205072834 -0.0028232332409956723 -0.0004263717795116105 0.0035894390698250488 0.0 0.0
0.0 0.0028454159660017938 0.0020130524878458995 -0.0016932278769583552 -0.000319824610887544 0.002630232659040977 0.0 0.0
0.0 0.0017336544285753812 0.0011523627076574752 -0.000940461640145305 -0.00021190106751217021 0.0018157277279977264 0.0 0.0
0.0 0.0010009232506275009 0.0005942510944985618 -0.0004734225273548248 -0.00012082856714373676 0.0011521146122581082 0.0 0.0
0.0 0.0005284025249624684 0.0002810533058125241 -0.00022073590397845617 -6.0317401834067863e-05 0.0006863643754462939 0.0 0.0
0.0 0.00029874994082722495 0.0001158389215125068 -9.071693911405267e-05 -2.5121982398454197e-05 0.0003530351932295151 0.0 0.0
0.0 0.0001682272049473553 4.649707859339143e-05 -3.6294142626920245e-05 -1.0202935966471223e-05 0.00015966158124454546 0.0 0.0
0.0 6.43398545555869e-05 1.9284206186772605e-05 -1.502228666471021e-05 -4.261919522062418e-06 8.02007979482842e-05 0.0 0.0
0.0 2.5893272739868665e-05 -1.1900631345579126e-06 9.165920582483198e-07 2.7347107630955466e-07 -6.164124485110842e-06 0.0 0.0
0.0 1.6698482189689227e-05 -6.754141313023855e-07 5.129785861963078e-07 1.6243554510606457e-07 -4.126874192556078e-06 0.0 0.0
0.0 3.0628381027185974e-06 -6.905754496673606e-08 5.3702670762731366e-08 1.535487420400285e-08 -6.580753879731063e-07 0.0 0.0
0.0 0.0 0.0 0.0 0.0 0.0 0.0 0.0
0.0 0.0 0.0 0.0 0.0 0.0 0.0 0.0
0.0 1.4400916000606018e-06 -2.7346095151882377e-09 6.875531267780064e-09 -4.140921752592997e-09 -3.1032020106934037e-07 0.0 0.0
0.0 2.7425377791898218e-05 2.8613139276201834e-06 -4.076673227620945e-06 1.2153593000008079e-06 4.877278359801573e-06 0.0 0.0
0.0 6.935391212700624e-06 -5.308503336795636e-07 7.686070645861012e-07 -2.3775673090646271e-07 1.049140728143854e-06 0.0 0.0
0.0 9.058458586408483e-07 7.524644947399427e-10 2.6921535547623604e-09 -3.4446180495020276e-09 1.904316725388036e-07 0.0 0.0
0.0 0.0 0.0 0.0 0.0 0.0 0.0 0.0
0.0 0.0 0.0 0.0 0.0 0.0 0.0 0.0
0.0 5.455561020486616e-06 -1.877319191674498e-08 9.400339741681261e-09 9.372852175065115e-09 1.2338249442516948e-06 0.0 0.0
0.0 1.2649162497041946e-05 -1.40816357743154e-07 1.0163524973838207e-07 3.9181108004787066e-08 3.1244596390112657e-06 0.0 0.0
0.0 1.48069181413961e-05 -1.678101205182618e-07 1.2128441140015504e-07 4.652570911810822e-08 2.457271874015842e-06 0.0 0.0
0.0 5.501135447977331e-05 8.01461743973827e-07 -5.997653314196072e-07 -2.0169641255423496e-07 -7.879308248911903e-06 0.0 0.0
0.0 9.42963603878781e-05 9.675851625711357e-06 -7.503103531454176e-06 -2.1727480942571547e-06 -9.958900543843277e-05 0.0 0.0
0.0 0.0001950116971317013 2.1214474834136952e-05 -1.6444908319920706e-05 -4.769566514216219e-06 -0.00018744103445157213 0.0 0.0
0.0 0.0002548776178484753 5.148006673962613e-05 -4.031407102892235e-05 -1.1165995710703773e-05 -0.00042155296060866055 0.0 0.0
0.0 0.0004161284742605127 9.299136345284519e-05 -7.348238654671568e-05 -1.9508976906129498e-05 -0.0006905724737797062 0.0 0.0
0.0 0.0006716092481934481 0.0001649440938261966 -0.0001317142592493368 -3.322983457685983e-05 -0.0011045499939474515 0.0 0.0
0.0 0.0010805523895416782 0.00029674388194734526 -0.00023988114802946973 -5.686273391787561e-05 -0.0017259501192212418 0.0 0.0
0.0 0.0017164631116617667 0.0005814755157567112 -0.00047285411759234264 -0.00010862139816436846 -0.0025929762285878113 0.0 0.0
0.0 0.0025960627494824107 0.0010315121313758913 -0.0008505831347179923 -0.0001809289966578991 -0.0036052754941520585 0.0 0.0
0.0 0.003775855794143396 0.0017974034592926282 -0.001543808785568867 -0.00025359467372376097 -0.004594142471769654 0.0 0.0
0.0 0.00539062210569938 0.0031068208153614617 -0.002771224448603074 -0.00033559636675838654 -0.005134558870804997 0.0 0.0
0.0 0.007408201520906813 0.004969227771694512 -0.00454645949919124 -0.00042276827250327246 -0.004876114236208531 0.0 0.0
0.0 0.009954786085758439 0.0074830017620108255 -0.007038772746123435 -0.0004442290158873879 -0.003923471843412884 0.0 0.0
0.0 0.009954786085759152 0.007483001762010985 -0.007038772746123639 -0.00044422901588734383 0.003923471843416966 0.0 0.0
0.0 0.007408201520908778 0.004969227771694807 -0.004546459499191709 -0.0004227682725030965 0.0048761142362167016 0.0 0.0
0.0 0.005390622105699808 0.0031068208153608476 -0.0027712244486026135 -0.00033559636675823377 0.005134558870809576 0.0 0.0
0.0 0.0037758557941430324 0.0017974034592925668 -0.0015438087855688385 -0.0002535946737237279 0.004594142471769253 0.0 0.0
0.0 0.0025960627494815286 0.0010315121313756912 -0.0008505831347178946 -0.00018092899665779732 0.0036052754941507227 0.0 0.0
0.0 0.001716463111660592 0.0005814755157562499 -0.00047285411759200486 -0.00010862139816424484 0.00259297622858645 0.0 0.0
0.0 0.0010805523895410832 0.0002967438819471392 -0.0002398811480292858 -5.686273391785337e-05 0.0017259501192204447 0.0 0.0
0.0 0.0006716092481933022 0.00016494409382620376 -0.00013171425924940488 -3.322983457679888e-05 0.001104549993946997 0.0 0.0
0.0 0.00041612847425977987 9.299136345271772e-05 -7.34823865466114e-05 -1.9508976906106302e-05 0.0006905724737784295 0.0 0.0
0.0 0.00025487761784750903 5.1480066739452217e-05 -4.031407102877911e-05 -1.1165995710673115e-05 0.00042155296060698936 0.0 0.0
0.0 0.00019501169713074935 2.1214474834050226e-05 -1.644490831985017e-05 -4.769566514200049e-06 0.0001874410344505474 0.0 0.0
0.0 9.429636038748538e-05 9.675851625654994e-06 -7.503103531411292e-06 -2.172748094243701e-06 9.958900543780334e-05 0.0 0.0
0.0 5.501135447946762e-05 8.014617439591282e-07 -5.997653314057452e-07 -2.0169641255338573e-07 7.879308248766488e-06 0.0 0.0
0.0 1.480691814109503e-05 -1.6781012051963441e-07 1.2128441140020522e-07 4.6525709119420415e-08 -2.4572718740157434e-06 0.0 0.0
0.0 1.2649162496547092e-05 -1.4081635773750347e-07 1.0163524973413121e-07 3.9181108003369014e-08 -3.12445963887376e-06 0.0 0.0
0.0 5.45556101996866e-06 -1.8773191914669415e-08 9.400339740582529e-09 9.372852174088403e-09 -1.2338249441241808e-06 0.0 0.0
0.0 0.0 0.0 0.0 0.0 0.0 0.0 0.0
0.0 0.0 0.0 0.0 0.0 0.0 0.0 0.0
0.0 9.058458584084025e-07 7.524644945423904e-10 2.6921535540279696e-09 -3.444618048570202e-09 -1.9043167248770486e-07 0.0 0.0
0.0 6.935391212252483e-06 -5.308503336457555e-07 7.686070645365576e-07 -2.3775673089073374e-07 -1.04914072807861e-06 0.0 0.0
0.0 0.0 0.0 0.0 0.0 0.0 0.0 0.0
0.0 1.5383172175747233e-06 6.921881519037933e-09 1.0853452076309987e-10 -7.030416039799502e-09 3.328304133161107e-07 0.0 0.0
0.0 1.0066126532131434e-06 1.880003715012459e-08 -1.6160969126220894e-08 -2.6390680239026013e-09 2.0557945421627096e-07 0.0 0.0
0.0 1.383063941498802e-06 2.5459537940592414e-08 -2.257136934956544e-08 -2.888168591028672e-09 2.836482218219604e-07 0.0 0.0
0.0 6.329568722991083e-06 1.2100159608131477e-07 -9.957492898929318e-08 -2.142666709203334e-08 1.4508070408241616e-06 0.0 0.0
0.0 1.6603222805849884e-05 2.923750411405768e-07 -2.3536244238526396e-07 -5.7012598755332366e-08 4.230645678688613e-06 0.0 0.0
0.0 1.566311577424647e-05 2.516867076335371e-07 -1.8980513362383193e-07 -6.188157400970431e-08 3.3460309556175357e-06 0.0 0.0
0.0 5.503917117615796e-05 -7.824231413446608e-07 5.825318954968325e-07 1.9989124584787952e-07 -7.75029161960622e-06 0.0 0.0
0.0 9.395587820102372e-05 -9.56900918791824e-06 7.411004828499826e-06 2.158004359418417e-06 -9.929945494034872e-05 0.0 0.0
0.0 0.0001947125350258546 -2.1092978120919377e-05 1.6329957512935008e-05 4.763020607984345e-06 -0.00018719421563846586 0.0 0.0
0.0 0.00025573430686556505 -5.108248638497263e-05 4.0019046535813056e-05 1.106343984915954e-05 -0.0004209404607238795 0.0 0.0
0.0 0.00041597621919834093 -9.288193374850978e-05 7.350170565672874e-05 1.938022809178102e-05 -0.0006901470982008409 0.0 0.0
0.0 0.0006717806170085325 -0.00016621120981783938 0.00013329236672467455 3.2918843093164834e-05 -0.0011032401678528604 0.0 0.0
0.0 0.0010835108389848365 -0.00030079525698571176 0.00024332552797750332 5.746972900820835e-05 -0.0017250211761184958 0.0 0.0
0.0 0.0017154840960945969 -0.0005692159760150324 0.00045684961936525413 0.00011236635664977813 -0.0026061918942124505 0.0 0.0
0.0 0.00253487455213288 -0.0008860778323329479 0.0007060479658928797 0.0001800298664400683 -0.0036638325662673153 0.0 0.0
0.0 0.003391943496202175 -0.0011098054266060876 0.0008728669378266049 0.00023693848877948253 -0.004860594553317326 0.0 0.0
0.0 0.004139726257906307 -0.0010052051832922593 0.00074512946873848 0.0002600757145537797 -0.006136130992509145 0.0 0.0
0.0 0.004427456928212956 -0.0004175868982277164 0.0002522749389722127 0.0001653119592555037 -0.007121683930746792 0.0 0.0
0.0 0.0040832292082515 0.0009078089598960014 -0.0009691434189238409 6.133445902783884e-05 -0.005990725042738838 0.0 0.0
0.0 0.004083229208253906 0.0009078089598958807 -0.0009691434189240497 6.133445902816923e-05 0.005990725042744718 0.0 0.0
0.0 0.004427456928216026 -0.00041758689822802626 0.0002522749389725798 0.00016531195925544655 0.0071216839307527684 0.0 0.0
0.0 0.004139726257906769 -0.0010052051832920204 0.000745129468738344 0.0002600757145536759 0.006136130992511306 0.0 0.0
0.0 0.003391943496200205 -0.001109805426605148 0.000872866937825895 0.0002369384887792532 0.0048605945533159375 0.0 0.0
0.0 0.002534874552130798 -0.0008860778323317033 0.0007060479658918073 0.00018002986643989597 0.003663832566264833 0.0 0.0
0.0 0.0017154840960924831 -0.0005692159760137857 0.0004568496193641927 0.00011236635664959289 0.002606191894210199 0.0 0.0
0.0 0.0010835108389832997 -0.0003007952569849298 0.00024332552797688578 5.74697290080439e-05 0.0017250211761166057 0.0 0.0
0.0 0.0006717806170075038 -0.000166211209817485 0.00013329236672439006 3.29188430930949e-05 0.0011032401678518645 0.0 0.0
0.0 0.0004159762191974139 -9.28819337481595e-05 7.350170565643377e-05 1.9380228091725714e-05 0.0006901470981993393 0.0 0.0
0.0 0.0002557343068644771 -5.108248638463039e-05 4.001904653553281e-05 1.1063439849097585e-05 0.0004209404607218052 0.0 0.0
0.0 0.00019471253502474542 -2.109297812073669e-05 1.632995751279132e-05 4.763020607945421e-06 0.00018719421563711316 0.0 0.0
0.0 9.395587820058553e-05 -9.56900918784991e-06 7.411004828448087e-06 2.15800435940182e-06 9.929945493983625e-05 0.0 0.0
0.0 5.5039171175757216e-05 -7.824231413234459e-07 5.825318954839974e-07 1.9989124583947918e-07 7.750291619339166e-06 0.0 0.0
0.0 1.566311577391022e-05 2.5168670762491954e-07 -1.8980513361625215e-07 -6.18815740086756e-08 -3.3460309554870647e-06 0.0 0.0
0.0 1.660322280540092e-05 2.923750411319481e-07 -2.353624423789323e-07 -5.7012598753028695e-08 -4.230645678559954e-06 0.0 0.0
0.0 6.329568722541222e-06 1.2100159607286122e-07 -9.95749289822081e-08 -2.1426667090650783e-08 -1.4508070407127971e-06 0.0 0.0
0.0 1.3830639409702123e-06 2.545953793022371e-08 -2.2571369340467936e-08 -2.8881685897572623e-09 -2.83648221709575e-07 0.0 0.0
0.0 1.0066126527697196e-06 1.88000371412546e-08 -1.616096911875171e-08 -2.639068022502714e-09 -2.0557945412396978e-07 0.0 0.0
0.0 1.5383172173538042e-06 6.921881518012765e-09 1.0853452069602514e-10 -7.0304160387032955e-09 -3.3283041326523493e-07 0.0 0.0
0.0 0.0 0.0 0.0 0.0 0.0 0.0 0.0
0.0 0.0 0.0 0.0 0.0 0.0 0.0 0.0
0.0 0.0 0.0 0.0 0.0 0.0 0.0 0.0
0.0 1.1358547083792243e-06 2.9199022431756486e-08 -2.4414515401068504e-08 -4.784507030685914e-09 2.3110359978051093e-07 0.0 0.0
0.0 4.433390297601944e-06 1.6015753021163607e-07 -1.3149237797341269e-07 -2.8665152238211024e-08 9.616929248813422e-07 0.0 0.0
0.0 5.593573495796702e-06 2.2488050829672393e-07 -1.783306916581879e-07 -4.6549816638530954e-08 1.2502688499216848e-06 0.0 0.0
0.0 1.5193019753149584e-05 6.075697492807933e-07 -5.003829957410301e-07 -1.0718675353973588e-07 3.7538488162118154e-06 0.0 0.0
0.0 2.9176782363061217e-05 1.363070086588503e-06 -1.0628891695640136e-06 -3.0018091702449283e-07 6.924744162121124e-06 0.0 0.0
0.0 6.442997493965852e-05 -1.914852571192445e-05 1.4919556059281896e-05 4.228969652642546e-06 -7.973091455566979e-05 0.0 0.0
0.0 0.00016672672032440675 -4.621152678845743e-05 3.604979523750732e-05 1.0161731550950137e-05 -0.0001588610262224765 0.0 0.0
0.0 0.00029768612395387946 -0.00011556108375566129 9.046119921823638e-05 2.5099884537424908e-05 -0.00035251776196623517 0.0 0.0
0.0 0.0005274968368534063 -0.00028064954715925026 0.00022036622043674606 6.0283326722504126e-05 -0.0006862507356816079 0.0 0.0
0.0 0.0009997252684152413 -0.0005935110837282966 0.00047289237476771007 0.00012061870896058654 -0.0011511461043382221 0.0 0.0
0.0 0.0017343449599314174 -0.0011541372575008483 0.0009428472362409332 0.0002112900212599149 -0.00180983001672384 0.0 0.0
0.0 0.0028557233366303405 -0.0020236001346813897 0.0017033743049851015 0.00032022582969628785 -0.0026213595960642377 0.0 0.0
0.0 0.0044181555595658095 -0.0032396408784154942 0.0028071306010525963 0.00043251027736289783 -0.0036229179330176764 0.0 0.0
0.0 0.006314615434862114 -0.0046968969821303275 0.004163897935879594 0.0005329990462507327 -0.0048400616975265475 0.0 0.0
0.0 0.008271307557574072 -0.0061089290188426374 0.005494586360602885 0.0006143426582397502 -0.006236590797481577 0.0 0.0
0.0 0.00974815178770259 -0.0070214209917729455 0.0063498154028338236 0.0006716055889391221 -0.007691036465776852 0.0 0.0
0.0 0.009713945148325662 -0.006685046012749981 0.0059559736164778825 0.0007290723962720992 -0.008347490179543763 0.0 0.0
0.0 0.007011477843096069 -0.0041756980137967825 0.0034894899315587357 0.000686208082238046 -0.006534125190945556 0.0 0.0
0.0 0.0070114778430972555 -0.004175698013796349 0.0034894899315580305 0.0006862080822383182 0.0065341251909512895 0.0 0.0
0.0 0.009713945148327668 -0.006685046012750022 0.005955973616477633 0.000729072396272386 0.008347490179551574 0.0 0.0
0.0 0.009748151787701803 -0.007021420991771275 0.0063498154028320975 0.0006716055889391765 0.0076910364657819495 0.0 0.0
0.0 0.008271307557570313 -0.006108929018839502 0.0054945863605999 0.000614342658239597 0.006236590797480781 0.0 0.0
0.0 0.006314615434858556 -0.004696896982127569 0.004163897935877134 0.0005329990462504346 0.004840061697523884 0.0 0.0
0.0 0.004418155559563205 -0.0032396408784131263 0.002807130601050579 0.0004325102773625457 0.0036229179330162916 0.0 0.0
0.0 0.002855723336627174 -0.0020236001346790274 0.001703374304983171 0.00032022582969585634 0.0026213595960622015 0.0 0.0
0.0 0.0017343449599282335 -0.0011541372574981035 0.0009428472362386319 0.0002112900212594715 0.0018098300167220583 0.0 0.0
0.0 0.00099972526841196 -0.0005935110837261941 0.0004728923747660508 0.00012061870896014308 0.0011511461043356395 0.0 0.0
0.0 0.0005274968368501907 -0.00028064954715746485 0.00022036622043527816 6.028332672218667e-05 0.0006862507356786909 0.0 0.0
0.0 0.00029768612395165994 -0.0001155610837548182 9.046119921754395e-05 2.5099884537274282e-05 0.0003525177619638964 0.0 0.0
0.0 0.0001667267203234178 -4.621152678812458e-05 3.6049795237238805e-05 1.0161731550885778e-05 0.00015886102622155165 0.0 0.0
0.0 6.44299749391139e-05 -1.914852571175005e-05 1.4919556059145014e-05 4.22896965260506e-06 7.97309145550563e-05 0.0 0.0
0.0 2.9176782362619032e-05 1.3630700865797244e-06 -1.0628891695566413e-06 -3.0018091702302884e-07 -6.92474416206674e-06 0.0 0.0
0.0 1.519301975257843e-05 6.07569749254635e-07 -5.003829957201351e-07 -1.0718675353450862e-07 -3.753848816058526e-06 0.0 0.0
0.0 5.593573495293337e-06 2.2488050827704833e-07 -1.7833069164221596e-07 -4.654981663483093e-08 -1.2502688498043295e-06 0.0 0.0
0.0 4.433390297185643e-06 1.6015753019653384e-07 -1.314923779608683e-07 -2.86651522356573e-08 -9.616929247861855e-07 0.0 0.0
0.0 1.1358547077892155e-06 2.9199022415728776e-08 -2.4414515387892006e-08 -4.78450702783608e-09 -2.3110359965855258e-07 0.0 0.0
0.0 0.0 0.0 0.0 0.0 0.0 0.0 0.0
0.0 0.0 0.0 0.0 0.0 0.0 0.0 0.0
0.0 0.0 0.0 0.0 0.0 0.0 0.0 0.0
0.0 0.0 0.0 0.0 0.0 0.0 0.0 0.0
0.0 2.3595770755575334e-06 8.103527066722901e-08 -6.628456757561009e-08 -1.4750703091619284e-08 4.821090556875273e-07 0.0 0.0
0.0 6.590687281837416e-06 3.10881542792901e-07 -2.570236217687858e-07 -5.385792102411917e-08 1.409381601992583e-06 0.0 0.0
0.0 7.627299154539806e-06 4.0935751532963017e-07 -3.3681363121879136e-07 -7.254388411084961e-08 1.667160813460528e-06 0.0 0.0
0.0 2.0386492939198233e-05 1.4262568685873572e-06 -1.1157064935075056e-06 -3.1055037507982356e-07 4.73426434119655e-06 0.0 0.0
0.0 4.920692349949704e-05 -7.81133832608069e-06 5.921742092034524e-06 1.88959623404618e-06 -1.9664693012851356e-05 0.0 0.0
0.0 0.0001421975472569519 -5.014862034955861e-05 3.9068784295371906e-05 1.1079836054186722e-05 -0.00011627948432461438 0.0 0.0
0.0 0.0003843755293113517 -0.00016958654313892706 0.00013249805880407832 3.708848433484881e-05 -0.0003122939735475767 0.0 0.0
0.0 0.0007448053559369331 -0.0005183365103554645 0.0004093808919370918 0.00010895561841837265 -0.0007467557892925437 0.0 0.0
0.0 0.0014634826968098606 -0.0010616621741202403 0.0008581083166526089 0.00020355385746763114 -0.0012747174484464315 0.0 0.0
0.0 0.00234071841642824 -0.001841319993383505 0.0015273082456089214 0.0003140117477745829 -0.0018892821472805544 0.0 0.0
0.0 0.0036413727210097384 -0.002948143758454587 0.002518655030738494 0.0004294887277160918 -0.0026191830825206216 0.0 0.0
0.0 0.005549602467678704 -0.004536641410707336 0.00399655643676146 0.0005400849739458745 -0.003546640696392863 0.0 0.0
0.0 0.008203338064366622 -0.006687337852020847 0.006048352650674799 0.0006389852013460443 -0.004759202956282505 0.0 0.0
0.0 0.01138513868597652 -0.009282378696233672 0.008558368434835623 0.0007240102613980484 -0.006350106405261362 0.0 0.0
0.0 0.014804754836289243 -0.011953741994108338 0.011157106449210077 0.0007966355448982612 -0.00839019942030725 0.0 0.0
0.0 0.017434466338931923 -0.014026718129488972 0.013154692617422763 0.0008720255120662033 -0.010608414964763594 0.0 0.0
0.0 0.01806927310094628 -0.014279188486224613 0.013324938340036566 0.0009542501461880436 -0.01178930555529699 0.0 0.0
0.0 0.013957748934799261 -0.010950256845343571 0.009913761606946844 0.001036495238396725 -0.009236169233306753 0.0 0.0
0.0 0.013957748934802798 -0.010950256845345108 0.009913761606948306 0.0010364952383967985 0.009236169233315342 0.0 0.0
0.0 0.018069273100949357 -0.014279188486224875 0.013324938340037024 0.0009542501461878508 0.011789305555309736 0.0 0.0
0.0 0.017434466338931233 -0.014026718129486821 0.013154692617421047 0.0008720255120657698 0.01060841496477146 0.0 0.0
0.0 0.01480475483628587 -0.011953741994104945 0.011157106449207244 0.0007966355448977001 0.00839019942030856 0.0 0.0
0.0 0.011385138685971699 -0.00928237869622948 0.008558368434831917 0.0007240102613975636 0.006350106405259353 0.0 0.0
0.0 0.008203338064361665 -0.006687337852016567 0.006048352650670726 0.0006389852013458394 0.004759202956280507 0.0 0.0
0.0 0.005549602467672924 -0.004536641410702428 0.003996556436756822 0.0005400849739456056 0.0035466406963901615 0.0 0.0
0.0 0.0036413727210042835 -0.0029481437584495678 0.002518655030733968 0.00042948872771559894 0.0026191830825184176 0.0 0.0
0.0 0.002340718416422514 -0.0018413199933783842 0.0015273082456043943 0.00031401174777398976 0.0018892821472771132 0.0 0.0
0.0 0.0014634826968043194 -0.001061662174116135 0.0008581083166492379 0.00020355385746689676 0.0012747174484419226 0.0 0.0
0.0 0.0007448053559322991 -0.0005183365103521323 0.0004093808919343894 0.00010895561841774269 0.0007467557892888008 0.0 0.0
0.0 0.00038437552930887603 -0.00016958654313761604 0.00013249805880302 3.708848433459612e-05 0.0003122939735456763 0.0 0.0
0.0 0.00014219754725626195 -5.014862034942263e-05 3.906878429527121e-05 1.1079836054151362e-05 0.00011627948432422745 0.0 0.0
0.0 4.920692349872038e-05 -7.811338326009624e-06 5.921742091980029e-06 1.8895962340295282e-06 1.966469301264535e-05 0.0 0.0
0.0 2.0386492938733195e-05 1.4262568685531833e-06 -1.1157064934812938e-06 -3.1055037507188146e-07 -4.73426434107734e-06 0.0 0.0
0.0 7.627299153988424e-06 4.0935751529703973e-07 -3.3681363119245467e-07 -7.254388410461007e-08 -1.6671608133338516e-06 0.0 0.0
0.0 6.590687281367154e-06 3.108815427685181e-07 -2.5702362174870477e-07 -5.385792101978286e-08 -1.40938160188229e-06 0.0 0.0
0.0 2.359577075132882e-06 8.103527065174102e-08 -6.628456756303808e-08 -1.4750703088705987e-08 -4.821090555965945e-07 0.0 0.0
0.0 0.0 0.0 0.0 0.0 0.0 0.0 0.0
0.0 0.0 0.0 0.0 0.0 0.0 0.0 0.0
0.0 0.0 0.0 0.0 0.0 0.0 0.0 0.0
0.0 0.0 0.0 0.0 0.0 0.0 0.0 0.0
0.0 0.0 0.0 0.0 0.0 0.0 0.0 0.0
0.0 4.567888438524369e-06 2.816642514147399e-07 -2.2557908395780664e-07 -5.608516745694391e-08 9.161147982631984e-07 0.0 0.0
0.0 1.0652708672248226e-05 8.226055347280341e-07 -6.478885821649108e-07 -1.7471695256313932e-07 2.1974362185297753e-06 0.0 0.0
0.0 3.0195311180815607e-05 -2.6309920821252374e-06 2.0005311061035122e-06 6.304609760217314e-07 -5.1602655979251455e-06 0.0 0.0
0.0 0.00010556294421948173 -2.9847238578382907e-05 2.347848426125931e-05 6.36875431712367e-06 -5.620362800218276e-05 0.0 0.0
0.0 0.0003442688162843663 -0.00018180493580387125 0.00014177840501085505 4.002653079301624e-05 -0.0002476494012206265 0.0 0.0
0.0 0.0008555320258589474 -0.0005921413752891218 0.00046900731699956496 0.00012313405828955686 -0.0006454525725648357 0.0 0.0
0.0 0.0015827421461353844 -0.0012673164464544664 0.0010274959397885291 0.00023982050666593698 -0.0011788560775604052 0.0 0.0
0.0 0.002569034087138114 -0.002149462788611504 0.0017896689754337007 0.0003597938131778034 -0.001743959202773541 0.0 0.0
0.0 0.003928805132380335 -0.003321856383586717 0.0028426259454055964 0.00047923043818111995 -0.0023611414053457073 0.0 0.0
0.0 0.005877068382443294 -0.0049603460389458995 0.004370248867897653 0.0005900971710482468 -0.00313620386226276 0.0 0.0
0.0 0.008583981725170428 -0.007271437401505813 0.006584181168450079 0.0006872562330557332 -0.004159167198880862 0.0 0.0
0.0 0.012267261623771182 -0.01036352149865026 0.009593801221879285 0.0007697202767709746 -0.005513803160939235 0.0 0.0
0.0 0.01678518732681518 -0.01412323179474666 0.01327602530482085 0.0008472064899258051 -0.00736960640887839 0.0 0.0
0.0 0.021563254356455324 -0.01808240134618415 0.017157420734995692 0.0009249806111884587 -0.009897952544802451 0.0 0.0
0.0 0.025553120457996382 -0.021267088339314743 0.020249034502473666 0.0010180538368410718 -0.01277309769484991 0.0 0.0
0.0 0.026600746209460874 -0.021947040348049104 0.02081541704301452 0.0011316233050345805 -0.014557624238901855 0.0 0.0
0.0 0.02133113126046623 -0.017555929071973772 0.01629876230232102 0.0012571667696527468 -0.012175486972660184 0.0 0.0
0.0 0.02133113126046845 -0.01755592907197383 0.016298762302321097 0.0012571667696527297 0.012175486972671653 0.0 0.0
0.0 0.026600746209463434 -0.021947040348048633 0.020815417043014393 0.0011316233050342355 0.014557624238918224 0.0 0.0
0.0 0.02555312045799335 -0.021267088339310476 0.02024903450246958 0.001018053836840895 0.01277309769486 0.0 0.0
0.0 0.021563254356448562 -0.018082401346177723 0.017157420734989506 0.000924980611188215 0.009897952544804712 0.0 0.0
0.0 0.016785187326806006 -0.014123231794738664 0.013276025304813074 0.0008472064899255885 0.007369606408875978 0.0 0.0
0.0 0.012267261623765449 -0.010363521498644952 0.009593801221874605 0.0007697202767703385 0.005513803160937745 0.0 0.0
0.0 0.008583981725164083 -0.007271437401500141 0.006584181168444951 0.0006872562330551877 0.004159167198878266 0.0 0.0
0.0 0.0058770683824359874 -0.004960346038939365 0.004370248867891635 0.0005900971710477292 0.00313620386226029 0.0 0.0
0.0 0.0039288051323734694 -0.003321856383580357 0.002842625945400006 0.0004792304381803509 0.0023611414053423506 0.0 0.0
0.0 0.002569034087129962 -0.002149462788604328 0.001789668975427355 0.0003597938131769731 0.001743959202768341 0.0 0.0
0.0 0.001582742146128805 -0.0012673164464490664 0.0010274959397839636 0.00023982050666510263 0.0011788560775555222 0.0 0.0
0.0 0.0008555320258544631 -0.0005921413752856894 0.00046900731699682106 0.00012313405828886828 0.0006454525725619276 0.0 0.0
0.0 0.00034426881628139437 -0.00018180493580206505 0.00014177840500943155 4.002653079263356e-05 0.00024764940121853687 0.0 0.0
0.0 0.00010556294421796178 -2.9847238578173636e-05 2.3478484261096454e-05 6.368754317077255e-06 5.6203628001810646e-05 0.0 0.0
0.0 3.0195311180005664e-05 -2.6309920822049584e-06 2.0005311061652516e-06 6.304609760397251e-07 5.160265598091704e-06 0.0 0.0
0.0 1.0652708671817191e-05 8.226055346933095e-07 -6.478885821374208e-07 -1.7471695255591085e-07 -2.197436218434703e-06 0.0 0.0
0.0 4.567888438027894e-06 2.8166425138388424e-07 -2.2557908393276395e-07 -5.608516745111872e-08 -9.161147981597317e-07 0.0 0.0
0.0 0.0 0.0 0.0 0.0 0.0 0.0 0.0
0.0 0.0 0.0 0.0 0.0 0.0 0.0 0.0
0.0 0.0 0.0 0.0 0.0 0.0 0.0 0.0
0.0 0.0 0.0 0.0 0.0 0.0 0.0 0.0
0.0 0.0 0.0 0.0 0.0 0.0 0.0 0.0
0.0 0.0 0.0 0.0 0.0 0.0 0.0 0.0
0.0 6.934682311029604e-06 5.04234701713622e-07 -4.0650678403662876e-07 -9.772791767698894e-08 1.3113344896194137e-06 0.0 0.0
0.0 2.4522623338747396e-05 2.41421874416821e-06 -1.9037384692963827e-06 -5.104802748717368e-07 4.861566411932286e-06 0.0 0.0
0.0 4.8673606643013675e-05 -7.6122294912203294e-06 6.038192110339634e-06 1.5740373808807806e-06 -1.2126559176995433e-05 0.0 0.0
0.0 0.0002381633172825532 -0.00010330698641552563 8.065979881305703e-05 2.264718760246868e-05 -0.0001207256493590041 0.0 0.0
0.0 0.0007316155063493244 -0.0005035901276013192 0.00039767994428339964 0.00010591018331791951 -0.00045759871640250804 0.0 0.0
0.0 0.0014893590111413578 -0.0012202260524308214 0.0009871525216129393 0.00023307353081788182 -0.0009388577786611849 0.0 0.0
0.0 0.0024981613092791397 -0.002154265160776227 0.001789007104900303 0.00036525805587592355 -0.001445025416753007 0.0 0.0
0.0 0.0038310218738229367 -0.0033356679107157195 0.002844570344267729 0.0004910975664479892 -0.001965854129088085 0.0 0.0
0.0 0.005664336680992517 -0.004913277311229943 0.0043057231779832054 0.0006075541332467379 -0.002582789661035257 0.0 0.0
0.0 0.008227706550542977 -0.007101625268802185 0.0063918338287739206 0.0007097914400282629 -0.0033863580204000696 0.0 0.0
0.0 0.011799767295932873 -0.010138219488682662 0.009342249369297336 0.0007959701193853213 -0.004446936380935008 0.0 0.0
0.0 0.016590124013482647 -0.014171140192053702 0.013300293846737442 0.0008708463453162567 -0.0058451357769835986 0.0 0.0
0.0 0.02225138660596509 -0.01909619236652432 0.01814847013244695 0.0009477222340773684 -0.007766974475552811 0.0 0.0
0.0 0.028589986010103673 -0.02432882012020867 0.023291911293117137 0.0010369088270915311 -0.010432661766538315 0.0 0.0
0.0 0.03381658946196865 -0.028582773199068743 0.027431824134167462 0.0011509490649012754 -0.01370746125421254 0.0 0.0
0.0 0.03516874985735753 -0.029557209601476505 0.02826273236236829 0.0012944772391082161 -0.016200312522456062 0.0 0.0
0.0 0.0286903991004469 -0.023973927263475643 0.022541929062317317 0.0014319982011583305 -0.014987767435959413 0.0 0.0
0.0 0.028690399100448998 -0.023973927263475386 0.02254192906231699 0.001431998201158388 0.014987767435973399 0.0 0.0
0.0 0.03516874985735637 -0.029557209601473233 0.028262732362364925 0.0012944772391083044 0.01620031252247345 0.0 0.0
0.0 0.03381658946196321 -0.028582773199062536 0.02743182413416138 0.0011509490649011431 0.013707461254224697 0.0 0.0
0.0 0.0285899860100949 -0.02432882012020053 0.023291911293109167 0.0010369088270913683 0.010432661766541763 0.0 0.0
0.0 0.022251386605955648 -0.01909619236651591 0.018148470132438886 0.0009477222340770301 0.007766974475551705 0.0 0.0
0.0 0.016590124013474775 -0.014171140192046563 0.013300293846730836 0.0008708463453157208 0.005845135776982199 0.0 0.0
0.0 0.011799767295924407 -0.010138219488675076 0.009342249369290309 0.0007959701193847646 0.00444693638093182 0.0 0.0
0.0 0.00822770655053494 -0.007101625268794615 0.00639183382876706 0.0007097914400275537 0.003386358020398273 0.0 0.0
0.0 0.00566433668098323 -0.004913277311221563 0.004305723177975654 0.0006075541332459095 0.002582789661031793 0.0 0.0
0.0 0.0038310218738140437 -0.0033356679107077853 0.0028445703442606723 0.0004910975664471116 0.001965854129083586 0.0 0.0
0.0 0.0024981613092709388 -0.0021542651607689145 0.0017890071048938818 0.0003652580558750324 0.001445025416748061 0.0 0.0
0.0 0.0014893590111345282 -0.0012202260524248128 0.000987152521607861 0.00023307353081695157 0.0009388577786574501 0.0 0.0
0.0 0.0007316155063446226 -0.0005035901275977735 0.00039767994428055475 0.00010591018331721882 0.0004575987163998094 0.0 0.0
0.0 0.0002381633172803259 -0.00010330698641451949 8.065979881227456e-05 2.264718760224511e-05 0.00012072564935791737 0.0 0.0
0.0 4.867360664189746e-05 -7.612229491251073e-06 6.03819211036216e-06 1.5740373808890307e-06 1.2126559177033214e-05 0.0 0.0
0.0 2.452262333810597e-05 2.414218744102643e-06 -1.903738469245527e-06 -5.104802748570536e-07 -4.8615664118109176e-06 0.0 0.0
0.0 6.934682310525032e-06 5.04234701673154e-07 -4.065067840040159e-07 -9.772791766911185e-08 -1.311334489514374e-06 0.0 0.0
0.0 0.0 0.0 0.0 0.0 0.0 0.0 0.0
0.0 0.0 0.0 0.0 0.0 0.0 0.0 0.0
0.0 0.0 0.0 0.0 0.0 0.0 0.0 0.0
0.0 0.0 0.0 0.0 0.0 0.0 0.0 0.0
0.0 0.0 0.0 0.0 0.0 0.0 0.0 0.0
0.0 0.0 0.0 0.0 0.0 0.0 0.0 0.0
0.0 3.200659700653277e-06 2.5707668109785343e-07 -2.0547601315242337e-07 -5.1600667945449464e-08 5.112391326946205e-07 0.0 0.0
0.0 2.3180549204408224e-05 2.022328821925308e-06 -1.603579152895538e-06 -4.187496690297157e-07 3.1404544169673405e-06 0.0 0.0
0.0 0.00011362838091780754 -2.6186264001773313e-05 2.0494521545851442e-05 5.691742455922006e-06 -2.644600723176454e-05 0.0 0.0
0.0 0.0005394697789346984 -0.00029855051515476934 0.00023472122292913697 6.382929222563228e-05 -0.00023125601130427424 0.0 0.0
0.0 0.0011962619703867702 -0.0009954679562853505 0.0007990213338909492 0.00019644662239440164 -0.0006410954698478301 0.0 0.0
0.0 0.0021909583215317732 -0.0019348691885660461 0.001596748195511837 0.000338120993054209 -0.0010798279381562521 0.0 0.0
0.0 0.0034876606491564765 -0.0030950154297951305 0.002621109157251446 0.00047390627254368376 -0.0015135816873605632 0.0 0.0
0.0 0.00519347813271325 -0.004585842817641216 0.003987198082566045 0.0005986447350751692 -0.002000388580355891 0.0 0.0
0.0 0.00749478824919783 -0.006582603400409077 0.005873325394569432 0.0007092780058396446 -0.0025912090518854713 0.0 0.0
0.0 0.010752065715385627 -0.009335802018989594 0.008531146812514837 0.0008046552064747563 -0.003370811531320479 0.0 0.0
0.0 0.015073073982075032 -0.01311336164798912 0.012227593944097052 0.0008857677038920644 -0.00443503219133197 0.0 0.0
0.0 0.02085934611876715 -0.018067139502550046 0.01710874395447983 0.0009583955480702111 -0.005779746390617338 0.0 0.0
0.0 0.02799864641656031 -0.024103793131603712 0.023064647650495755 0.0010391454811079534 -0.007508029217812335 0.0 0.0
0.0 0.03544390366603653 -0.03057356308119067 0.02943400543572895 0.0011395576454617147 -0.009993515414816467 0.0 0.0
0.0 0.04169726816579702 -0.03586446222482468 0.034591023984391824 0.001273438240432852 -0.013385218298402012 0.0 0.0
0.0 0.04346448510202163 -0.03711976749897687 0.0356786851211995 0.0014410823777773836 -0.016783616966781184 0.0 0.0
0.0 0.03619343749651888 -0.030392245735291964 0.028801475746064842 0.001590769989227111 -0.017777108113065345 0.0 0.0
0.0 0.036193437496519765 -0.030392245735290497 0.028801475746063385 0.0015907699892271003 0.017777108113081024 0.0 0.0
0.0 0.04346448510201947 -0.03711976749897283 0.035678685121195625 0.0014410823777772017 0.016783616966799524 0.0 0.0
0.0 0.04169726816579141 -0.03586446222481824 0.03459102398438589 0.0012734382404323362 0.013385218298416005 0.0 0.0
0.0 0.035443903666028787 -0.03057356308118313 0.029434005435722263 0.0011395576454608625 0.009993515414821274 0.0 0.0
0.0 0.027998646416550487 -0.024103793131594737 0.02306464765048758 0.0010391454811071532 0.007508029217812996 0.0 0.0
0.0 0.020859346118756696 -0.01806713950254067 0.01710874395447109 0.0009583955480695814 0.005779746390616377 0.0 0.0
0.0 0.015073073982064571 -0.013113361647979799 0.012227593944088235 0.0008857677038915657 0.004435032191329605 0.0 0.0
0.0 0.010752065715375753 -0.00933580201898033 0.008531146812506258 0.0008046552064740734 0.0033708115313186527 0.0 0.0
0.0 0.007494788249186081 -0.006582603400398348 0.005873325394559278 0.0007092780058390695 0.002591209051882256 0.0 0.0
0.0 0.0051934781327021215 -0.004585842817631036 0.003987198082556766 0.0005986447350742713 0.002000388580351109 0.0 0.0
0.0 0.0034876606491469914 -0.003095015429786385 0.002621109157243757 0.00047390627254262655 0.0015135816873558627 0.0 0.0
0.0 0.002190958321524239 -0.001934869188558901 0.0015967481955056902 0.0003381209930532102 0.001079827938152917 0.0 0.0
0.0 0.001196261970381294 -0.0009954679562804783 0.0007990213338869288 0.0001964466223935495 0.0006410954698452636 0.0 0.0
0.0 0.0005394697789304855 -0.00029855051515202354 0.00023472122292696762 6.38292922250559e-05 0.00023125601130232967 0.0 0.0
0.0 0.00011362838091608606 -2.6186264001318158e-05 2.049452154548947e-05 5.691742455828924e-06 2.644600723123335e-05 0.0 0.0
0.0 2.318054920355588e-05 2.0223288216772134e-06 -1.6035791527018678e-06 -4.1874966897528694e-07 -3.140454416629795e-06 0.0 0.0
0.0 3.200659700228882e-06 2.570766810613841e-07 -2.0547601312327432e-07 -5.1600667938105344e-08 -5.112391326224368e-07 0.0 0.0
0.0 0.0 0.0 0.0 0.0 0.0 0.0 0.0
0.0 0.0 0.0 0.0 0.0 0.0 0.0 0.0
0.0 0.0 0.0 0.0 0.0 0.0 0.0 0.0
0.0 0.0 0.0 0.0 0.0 0.0 0.0 0.0
0.0 0.0 0.0 0.0 0.0 0.0 0.0 0.0
0.0 0.0 0.0 0.0 0.0 0.0 0.0 0.0
0.0 2.618405318439777e-06 2.393682008394056e-07 -1.9194239063089624e-07 -4.742581020851728e-08 3.6423945028289323e-07 0.0 0.0
0.0 3.3624237427715145e-05 4.220013028408844e-06 -3.2472484748037782e-06 -9.727645536051238e-07 4.109539754910055e-06 0.0 0.0
0.0 0.00026151215451507525 -9.653425185716912e-05 7.59414999826449e-05 2.0592751874524136e-05 -6.75338363668539e-05 0.0 0.0
0.0 0.0007958238704153414 -0.0006631068818601714 0.0005271242901588957 0.00013598259170127577 -0.00036093529869511964 0.0 0.0
0.0 0.001729701171040277 -0.0015581257991653251 0.0012723391467487017 0.00028578665241662355 -0.0007098098236360095 0.0 0.0
0.0 0.0029783983575548114 -0.002675782705294229 0.0022448249471492794 0.00043095775814495 -0.001055883781624664 0.0 0.0
0.0 0.00454546524484339 -0.0040776636816599685 0.0035113683913481873 0.0005662952903117817 -0.0014303659273855573 0.0 0.0
0.0 0.0066166079430707144 -0.005885823912292101 0.005198576716384281 0.0006872471959078197 -0.0018605332272075635 0.0 0.0
0.0 0.009429967006990177 -0.008314921587208897 0.0075215985786369404 0.0007933230085719564 -0.002390722898401869 0.0 0.0
0.0 0.013295538815436363 -0.01165386290638853 0.01076958283302922 0.0008842800733593064 -0.0031126697175498175 0.0 0.0
0.0 0.018566211214384364 -0.016174778057626654 0.015208455213870728 0.0009663228437559225 -0.004090198614373784 0.0 0.0
0.0 0.025362427281146006 -0.022018394419743945 0.02097644754204673 0.0010419468776972098 -0.005310664830394196 0.0 0.0
0.0 0.03335062030003371 -0.02908351083422388 0.027959487947789262 0.001124022886434616 -0.006722612528495413 0.0 0.0
0.0 0.042155580862526416 -0.03668142128293424 0.03544769958087578 0.0012337217020584662 -0.00859422474074759 0.0 0.0
0.0 0.049567247648553 -0.04299819178680494 0.04161485013037338 0.001383341656431564 -0.011688680503196429 0.0 0.0
0.0 0.05186332214310163 -0.044699498569548794 0.04312487933032766 0.001574619239221137 -0.016256761329520482 0.0 0.0
0.0 0.04380750512033915 -0.03701908715334806 0.035272441292978754 0.0017466458603692977 -0.0205657240809305 0.0 0.0
0.0 0.04380750512034065 -0.0370190871533472 0.03527244129297794 0.0017466458603692483 0.020565724080945872 0.0 0.0
0.0 0.051863322143099244 -0.044699498569544936 0.04312487933032408 0.001574619239220848 0.01625676132953887 0.0 0.0
0.0 0.04956724764854625 -0.042998191786797965 0.041614850130366726 0.0013833416564312407 0.011688680503210633 0.0 0.0
0.0 0.0421555808625166 -0.036681421282925196 0.03544769958086728 0.0012337217020579041 0.008594224740751699 0.0 0.0
0.0 0.033350620300021706 -0.02908351083421317 0.027959487947779003 0.001124022886434161 0.006722612528496383 0.0 0.0
0.0 0.02536242728113418 -0.02201839441973339 0.02097644754203667 0.0010419468776967165 0.005310664830394021 0.0 0.0
0.0 0.018566211214371707 -0.016174778057615295 0.015208455213860047 0.0009663228437552511 0.0040901986143721735 0.0 0.0
0.0 0.013295538815424349 -0.01165386290637753 0.010769582833019086 0.0008842800733584422 0.0031126697175477523 0.0 0.0
0.0 0.009429967006977041 -0.008314921587196673 0.007521598578625529 0.0007933230085711428 0.0023907228983994465 0.0 0.0
0.0 0.006616607943057609 -0.005885823912279966 0.0051985767163728325 0.0006872471959071317 0.0018605332272033294 0.0 0.0
0.0 0.004545465244833578 -0.00407766368165082 0.003511368391339951 0.000566295290310869 0.0014303659273816826 0.0 0.0
0.0 0.002978398357547343 -0.0026757827052867897 0.0022448249471427612 0.00043095775814402796 0.0010558837816223596 0.0 0.0
0.0 0.001729701171033703 -0.0015581257991587995 0.0012723391467431208 0.00028578665241567856 0.0007098098236335889 0.0 0.0
0.0 0.0007958238704106849 -0.0006631068818561197 0.0005271242901556262 0.0001359825917004934 0.0003609352986930671 0.0 0.0
0.0 0.000261512154512672 -9.65342518563275e-05 7.59414999819941e-05 2.0592751874333324e-05 6.75338363662102e-05 0.0 0.0
0.0 3.3624237426677116e-05 4.220013028266174e-06 -3.247248474693658e-06 -9.72764553572584e-07 -4.109539754769875e-06 0.0 0.0
0.0 2.6184053179973456e-06 2.3936820079710257e-07 -1.9194239059710804e-07 -4.742581019997605e-08 -3.6423945021951685e-07 0.0 0.0
0.0 0.0 0.0 0.0 0.0 0.0 0.0 0.0
0.0 0.0 0.0 0.0 0.0 0.0 0.0 0.0
0.0 0.0 0.0 0.0 0.0 0.0 0.0 0.0
0.0 0.0 0.0 0.0 0.0 0.0 0.0 0.0
0.0 0.0 0.0 0.0 0.0 0.0 0.0 0.0
0.0 0.0 0.0 0.0 0.0 0.0 0.0 0.0
0.0 2.505328812516062e-06 2.531774601983128e-07 -2.0049509598987184e-07 -5.2682364208456706e-08 2.703398458413968e-07 0.0 0.0
0.0 6.436331433646125e-05 8.895450456086003e-06 -6.871037593997346e-06 -2.02441286208858e-06 6.306131010725169e-06 0.0 0.0
0.0 0.0004778724410056521 -0.0002808462681443583 0.00022151652015419727 5.9329747990160886e-05 -0.00013150018489824515 0.0 0.0
0.0 0.0011834524955756267 -0.0010825022918563468 0.0008708538611011696 0.00021164843075517707 -0.0003829555494346416 0.0 0.0
0.0 0.0023407558680577038 -0.0021347375548331645 0.001769052666229478 0.0003656848886036863 -0.0006412328673760163 0.0 0.0
0.0 0.00380588335060003 -0.0034456345789463925 0.002933416775018244 0.0005122178039281475 -0.0009086156173837387 0.0 0.0
0.0 0.005662295479998554 -0.005091947966260524 0.004446977409027741 0.0006449705572327832 -0.0012087600202351622 0.0 0.0
0.0 0.008125105977141958 -0.007226511339808567 0.006464586769405744 0.0007619245704028237 -0.0015612128632273323 0.0 0.0
0.0 0.011404127725343497 -0.010104523452301919 0.009239930361880666 0.0008645930904212489 -0.0019944795798345245 0.0 0.0
0.0 0.01602904697888336 -0.014038735287649576 0.013083387244175671 0.0009553480434739041 -0.00258260737337659 0.0 0.0
0.0 0.021992044480749567 -0.01931536074805671 0.018275247126330264 0.0010401136217264406 -0.003429824012656418 0.0 0.0
0.0 0.029669998363137218 -0.026022430865548417 0.024899865495554077 0.0011225653699943256 -0.004476472449897046 0.0 0.0
0.0 0.038836069782443805 -0.03397766704150951 0.032767665016414024 0.0012100020250954877 -0.005465133584587549 0.0 0.0
0.0 0.04864609541695964 -0.0425054066817667 0.04118923132178841 0.001316175359978283 -0.006396394250416328 0.0 0.0
0.0 0.05715611297795746 -0.04986022153789207 0.0483850442499676 0.0014751772879244664 -0.00864757563569347 0.0 0.0
0.0 0.06035120084901033 -0.052360426675744975 0.050665625776201345 0.00169480089954363 -0.014354170640488117 0.0 0.0
0.0 0.052054256974145174 -0.04410198838796359 0.04218955324383747 0.0019124351441261003 -0.023186201181357086 0.0 0.0
0.0 0.052054256974144834 -0.04410198838796157 0.042189553243835415 0.0019124351441261239 0.023186201181370374 0.0 0.0
0.0 0.0603512008490043 -0.052360426675738515 0.05066562577619501 0.0016948008995434952 0.014354170640504656 0.0 0.0
0.0 0.057156112977946996 -0.049860221537882346 0.04838504424995818 0.0014751772879241702 0.008647575635705954 0.0 0.0
0.0 0.04864609541694645 -0.04250540668175505 0.041189231321776994 0.0013161753599780454 0.006396394250420233 0.0 0.0
0.0 0.03883606978243075 -0.03397766704149778 0.03276766501640302 0.001210002025094754 0.005465133584589054 0.0 0.0
0.0 0.029669998363122542 -0.02602243086553538 0.024899865495541764 0.0011225653699936044 0.004476472449896407 0.0 0.0
0.0 0.021992044480734205 -0.019315360748043214 0.018275247126317173 0.0010401136217260377 0.00342982401265522 0.0 0.0
0.0 0.016029046978868283 -0.014038735287636123 0.013083387244162834 0.0009553480434732907 0.0025826073733747467 0.0 0.0
0.0 0.011404127725327987 -0.010104523452287961 0.00923993036186759 0.0008645930904203677 0.001994479579832861 0.0 0.0
0.0 0.00812510597712807 -0.0072265113397955655 0.006464586769393645 0.0007619245704019189 0.0015612128632238966 0.0 0.0
0.0 0.0056622954799865 -0.005091947966249118 0.004446977409017155 0.0006449705572319634 0.0012087600202315917 0.0 0.0
0.0 0.003805883350590074 -0.00344563457893685 0.0029334167750096583 0.0005122178039271898 0.0009086156173815432 0.0 0.0
0.0 0.0023407558680499686 -0.002134737554825506 0.001769052666222864 0.000365684888602642 0.0006412328673740825 0.0 0.0
0.0 0.0011834524955695246 -0.0010825022918504543 0.0008708538610962665 0.00021164843075418811 0.00038295554943282165 0.0 0.0
0.0 0.00047787244100190487 -0.0002808462681417196 0.0002215165201521018 5.932974798961791e-05 0.0001315001848970185 0.0 0.0
0.0 6.436331433524684e-05 8.895450455917108e-06 -6.8710375938664015e-06 -2.024412862050632e-06 -6.306131010618698e-06 0.0 0.0
0.0 2.505328812069941e-06 2.5317746015063734e-07 -2.0049509595215908e-07 -5.268236419847302e-08 -2.7033984579089287e-07 0.0 0.0
0.0 0.0 0.0 0.0 0.0 0.0 0.0 0.0
0.0 0.0 0.0 0.0 0.0 0.0 0.0 0.0
0.0 0.0 0.0 0.0 0.0 0.0 0.0 0.0
0.0 0.0 0.0 0.0 0.0 0.0 0.0 0.0
0.0 0.0 0.0 0.0 0.0 0.0 0.0 0.0
0.0 0.0 0.0 0.0 0.0 0.0 0.0 0.0
0.0 6.045045006529798e-06 7.320323744054415e-07 -5.709111846573905e-07 -1.6112118974801157e-07 4.873856828000473e-07 0.0 0.0
0.0 0.00014584270788504044 -8.856248572867183e-06 7.518683045632073e-06 1.337565527235274e-06 -4.871965675924891e-06 0.0 0.0
0.0 0.0006343554841628023 -0.0005902203967981224 0.00046750895046230505 0.00012271144633581744 -0.00015170082685733396 0.0 0.0
0.0 0.0016502859875043492 -0.001524267310167322 0.0012427219867265722 0.00028154532344074946 -0.00030595743869631044 0.0 0.0
0.0 0.0029765247493039573 -0.0027316704201539115 0.00229349152783502 0.0004381788923188911 -0.0004694613077456143 0.0 0.0
0.0 0.004665843439873718 -0.004236595438085852 0.003654245282119357 0.0005823501559664933 -0.0006487475790067748 0.0 0.0
0.0 0.006818333190505394 -0.006133551493380835 0.005421720564015437 0.0007118309293653981 -0.0008580145690673538 0.0 0.0
0.0 0.00966144920396045 -0.008605534607521786 0.007779166387990638 0.00082636821953115 -0.0011006267424049994 0.0 0.0
0.0 0.013574401070440369 -0.01194146009197113 0.011013566612215284 0.0009278934797558499 -0.001397231968169405 0.0 0.0
0.0 0.018664039530047343 -0.016490638536053925 0.015470559460648792 0.001020079075405138 -0.0018334671631619899 0.0 0.0
0.0 0.025523324533641117 -0.02251043647072678 0.021400980496122938 0.0011094559746038365 -0.0024432907517398677 0.0 0.0
0.0 0.034199984747509266 -0.030047027377675818 0.02884538103465519 0.0012016463430206217 -0.003162425995721763 0.0 0.0
0.0 0.04426480697387865 -0.0387973685653576 0.03749959883084689 0.00129776973451069 -0.0037790349684783484 0.0 0.0
0.0 0.054815789440359614 -0.047982300825958044 0.04658032345980326 0.0014019773661547753 -0.003940130175677917 0.0 0.0
0.0 0.06422958539444318 -0.05616013312009245 0.05463532699530627 0.0015248061247861867 -0.004429815824196559 0.0 0.0
0.0 0.06898560563358135 -0.060077391084578914 0.058280094322518954 0.0017972967620599428 -0.010245281819582947 0.0 0.0
0.0 0.06123455494267506 -0.0520446460324513 0.04993733523790468 0.0021073107945465976 -0.02512720996132765 0.0 0.0
0.0 0.06123455494267277 -0.05204464603244832 0.04993733523790163 0.002107310794546691 0.025127209961336043 0.0 0.0
0.0 0.06898560563357342 -0.06007739108457144 0.058280094322511564 0.0017972967620598795 0.010245281819595418 0.0 0.0
0.0 0.06422958539443371 -0.05616013312008357 0.05463532699529836 0.0015248061247851818 0.00442981582420706 0.0 0.0
0.0 0.05481578944034775 -0.04798230082594716 0.04658032345979348 0.001401977366153679 0.003940130175680071 0.0 0.0
0.0 0.04426480697386523 -0.03879736856534553 0.03749959883083573 0.0012977697345097924 0.0037790349684795493 0.0 0.0
0.0 0.03419998474749553 -0.030047027377663404 0.02884538103464395 0.001201646343019455 0.0031624259957216804 0.0 0.0
0.0 0.025523324533626823 -0.02251043647071383 0.021400980496111208 0.0011094559746026229 0.002443290751739803 0.0 0.0
0.0 0.018664039530031682 -0.016490638536039874 0.015470559460635747 0.0010200790754041258 0.001833467163160496 0.0 0.0
0.0 0.013574401070422917 -0.011941460091955389 0.011013566612200352 0.0009278934797550339 0.0013972319681684509 0.0 0.0
0.0 0.009661449203944076 -0.00860553460750715 0.007779166387976744 0.0008263682195304038 0.001100626742402703 0.0 0.0
0.0 0.006818333190491803 -0.006133551493368276 0.005421720564003781 0.0007118309293644952 0.000858014569064805 0.0 0.0
0.0 0.00466584343986284 -0.004236595438075214 0.0036542452821096845 0.0005823501559655296 0.000648747579005513 0.0 0.0
0.0 0.002976524749295685 -0.002731670420145763 0.002293491527827848 0.00043817889231791455 0.00046946130774434293 0.0 0.0
0.0 0.0016502859874979162 -0.00152426731016078 0.0012427219867210387 0.000281545323439741 0.00030595743869504593 0.0 0.0
0.0 0.00063435548415891 -0.0005902203967942934 0.00046750895045922006 0.00012271144633507338 0.00015170082685629234 0.0 0.0
0.0 0.00014584270788314737 -8.856248572191e-06 7.518683045099401e-06 1.3375655270914521e-06 4.871965675678269e-06 0.0 0.0
0.0 6.0450450061054435e-06 7.320323743512644e-07 -5.70911184615012e-07 -1.611211897362353e-07 -4.873856827632469e-07 0.0 0.0
0.0 0.0 0.0 0.0 0.0 0.0 0.0 0.0
0.0 0.0 0.0 0.0 0.0 0.0 0.0 0.0
0.0 0.0 0.0 0.0 0.0 0.0 0.0 0.0
0.0 0.0 0.0 0.0 0.0 0.0 0.0 0.0
0.0 0.0 0.0 0.0 0.0 0.0 0.0 0.0
0.0 0.0 0.0 0.0 0.0 0.0 0.0 0.0
0.0 1.3220964968997595e-05 1.7909406834675475e-06 -1.377065411829079e-06 -4.1387527163845865e-07 4.582581898773336e-07 0.0 0.0
0.0 0.0003314248756348471 -9.734791572872463e-05 7.707283175709507e-05 2.0275083971630015e-05 -1.7330219912462726e-05 0.0 0.0
0.0 0.0009693229138291377 -0.000902598394233748 0.0007206440587707072 0.0001819543354630407 -8.006824460473285e-05 0.0 0.0
0.0 0.002136691243113174 -0.001983888658405726 0.0016376256630272058 0.0003462629953785195 -0.0001402749366166292 0.0 0.0
0.0 0.0036486649472063353 -0.0033402745586256434 0.002838658976463769 0.0005016155821618739 -0.0002034630579659633 0.0 0.0
0.0 0.005572242895061244 -0.00504274809644426 0.0043996009512209345 0.0006431471452233235 -0.00028064412900408175 0.0 0.0
0.0 0.008048129474792746 -0.007195872293106144 0.00642569942161557 0.0007701728714905732 -0.00037662182075972673 0.0 0.0
0.0 0.01135127349139713 -0.01001624303790223 0.009133735393868934 0.0008825076440332946 -0.00048095581268382614 0.0 0.0
0.0 0.015580598768059947 -0.013838343491261593 0.012853490496944347 0.0009848529943172475 -0.0006280746121214756 0.0 0.0
0.0 0.02142172756288247 -0.018990506918622883 0.017910127435654937 0.0010803794829679454 -0.0008315176181728802 0.0 0.0
0.0 0.02916580611230829 -0.025729437014650965 0.024553489355234034 0.0011759476594169287 -0.001090852785952374 0.0 0.0
0.0 0.03875839750261241 -0.03406788809552311 0.03279050049719573 0.0012773875983273651 -0.0013900411718986662 0.0 0.0
0.0 0.04971362372964528 -0.04356270239085594 0.042177573305428186 0.0013851290854277633 -0.0015887019964812466 0.0 0.0
0.0 0.06087106843519954 -0.0532337991441984 0.051739777641342716 0.0014940215028556815 -0.0014389423548656014 0.0 0.0
0.0 0.07052832170358801 -0.061638132934831336 0.06003973503093195 0.001598397903899373 -0.0006905742413645529 0.0 0.0
0.0 0.07673246265947176 -0.06695265573364981 0.06524302853444144 0.0017096271992083512 -0.0023705118805982996 0.0 0.0
0.0 0.07223815673884507 -0.06191709035834146 0.05947341757365969 0.002443672784681764 -0.023531534551145743 0.0 0.0
0.0 0.07223815673884301 -0.06191709035833924 0.059473417573657546 0.0024436727846816894 0.0235315345511495 0.0 0.0
0.0 0.07673246265946436 -0.06695265573364326 0.06524302853443531 0.0017096271992079492 0.0023705118806044445 0.0 0.0
0.0 0.07052832170357481 -0.06163813293481976 0.06003973503092076 0.0015983979038989714 0.0006905742413696836 0.0 0.0
0.0 0.06087106843518223 -0.053233799144183226 0.051739777641327825 0.00149402150285541 0.0014389423548648679 0.0 0.0
0.0 0.049713623729628925 -0.043562702390841396 0.04217757330541437 0.001385129085427012 0.0015887019964816091 0.0 0.0
0.0 0.038758397502595465 -0.03406788809550808 0.032790500497181484 0.001277387598326584 0.0013900411718982594 0.0 0.0
0.0 0.029165806112291196 -0.025729437014635738 0.024553489355219733 0.0011759476594160043 0.0010908527859528564 0.0 0.0
0.0 0.021421727562862834 -0.018990506918605585 0.01791012743563836 0.0010803794829672211 0.0008315176181718885 0.0 0.0
0.0 0.01558059876803946 -0.013838343491243455 0.012853490496926941 0.0009848529943165096 0.0006280746121214597 0.0 0.0
0.0 0.011351273491379276 -0.01001624303788606 0.009133735393853686 0.0008825076440323735 0.00048095581268278216 0.0 0.0
0.0 0.008048129474777444 -0.007195872293092529 0.0064256994216027544 0.0007701728714897753 0.00037662182075871154 0.0 0.0
0.0 0.0055722428950490946 -0.005042748096432846 0.0043996009512103865 0.0006431471452224588 0.00028064412900365263 0.0 0.0
0.0 0.0036486649471959317 -0.003340274558615465 0.0028386589764546923 0.0005016155821607723 0.00020346305796548498 0.0 0.0
0.0 0.0021366912431053844 -0.001983888658397892 0.0016376256630205005 0.00034626299537739093 0.00014027493661606744 0.0 0.0
0.0 0.0009693229138247456 -0.0009025983942290224 0.0007206440587668517 0.00018195433546217064 8.006824460437504e-05 0.0 0.0
0.0 0.00033142487563225993 -9.73479157274189e-05 7.707283175606165e-05 2.0275083971357572e-05 1.7330219912252472e-05 0.0 0.0
0.0 1.3220964968241572e-05 1.7909406833667015e-06 -1.377065411752633e-06 -4.1387527161402535e-07 -4.582581898590264e-07 0.0 0.0
0.0 0.0 0.0 0.0 0.0 0.0 0.0 0.0
0.0 0.0 0.0 0.0 0.0 0.0 0.0 0.0
0.0 0.0 0.0 0.0 0.0 0.0 0.0 0.0