# vtk DataFile Version 3.0
Some data
ASCII
DATASET UNSTRUCTURED_GRID
POINTS 861 float
0.0 0.0 0.0
0.4 0.0 0.0
0.8 0.0 0.0
1.2000000000000002 0.0 0.0
1.6 0.0 0.0
2.0 0.0 0.0
2.4000000000000004 0.0 0.0
2.8000000000000003 0.0 0.0
3.2 0.0 0.0
3.6 0.0 0.0
4.0 0.0 0.0
4.4 0.0 0.0
4.800000000000001 0.0 0.0
5.2 0.0 0.0
5.6000000000000005 0.0 0.0
6.0 0.0 0.0
6.4 0.0 0.0
6.800000000000001 0.0 0.0
7.2 0.0 0.0
7.6000000000000005 0.0 0.0
8.0 0.0 0.0
8.4 0.0 0.0
8.8 0.0 0.0
9.200000000000001 0.0 0.0
9.600000000000001 0.0 0.0
10.0 0.0 0.0
10.4 0.0 0.0
10.8 0.0 0.0
11.200000000000001 0.0 0.0
11.600000000000001 0.0 0.0
12.0 0.0 0.0
12.4 0.0 0.0
12.8 0.0 0.0
13.200000000000001 0.0 0.0
13.600000000000001 0.0 0.0
14.0 0.0 0.0
14.4 0.0 0.0
14.8 0.0 0.0
15.200000000000001 0.0 0.0
15.600000000000001 0.0 0.0
16.0 0.0 0.0
0.0 0.1 0.0
0.4 0.1 0.0
0.8 0.1 0.0
1.2000000000000002 0.1 0.0
1.6 0.1 0.0
2.0 0.1 0.0
2.4000000000000004 0.1 0.0
2.8000000000000003 0.1 0.0
3.2 0.1 0.0
3.6 0.1 0.0
4.0 0.1 0.0
4.4 0.1 0.0
4.800000000000001 0.1 0.0
5.2 0.1 0.0
5.6000000000000005 0.1 0.0
6.0 0.1 0.0
6.4 0.1 0.0
6.800000000000001 0.1 0.0
7.2 0.1 0.0
7.6000000000000005 0.1 0.0
8.0 0.1 0.0
8.4 0.1 0.0
8.8 0.1 0.0
9.200000000000001 0.1 0.0
9.600000000000001 0.1 0.0
10.0 0.1 0.0
10.4 0.1 0.0
10.8 0.1 0.0
11.200000000000001 0.1 0.0
11.600000000000001 0.1 0.0
12.0 0.1 0.0
12.4 0.1 0.0
12.8 0.1 0.0
13.200000000000001 0.1 0.0
13.600000000000001 0.1 0.0
14.0 0.1 0.0
14.4 0.1 0.0
14.8 0.1 0.0
15.200000000000001 0.1 0.0
15.600000000000001 0.1 0.0
16.0 0.1 0.0
0.0 0.2 0.0
0.4 0.2 0.0
0.8 0.2 0.0
1.2000000000000002 0.2 0.0
1.6 0.2 0.0
2.0 0.2 0.0
2.4000000000000004 0.2 0.0
2.8000000000000003 0.2 0.0
3.2 0.2 0.0
3.6 0.2 0.0
4.0 0.2 0.0
4.4 0.2 0.0
4.800000000000001 0.2 0.0
5.2 0.2 0.0
5.6000000000000005 0.2 0.0
6.0 0.2 0.0
6.4 0.2 0.0
6.800000000000001 0.2 0.0
7.2 0.2 0.0
7.6000000000000005 0.2 0.0
8.0 0.2 0.0
8.4 0.2 0.0
8.8 0.2 0.0
9.200000000000001 0.2 0.0
9.600000000000001 0.2 0.0
10.0 0.2 0.0
10.4 0.2 0.0
10.8 0.2 0.0
11.200000000000001 0.2 0.0
11.600000000000001 0.2 0.0
12.0 0.2 0.0
12.4 0.2 0.0
12.8 0.2 0.0
13.200000000000001 0.2 0.0
13.600000000000001 0.2 0.0
14.0 0.2 0.0
14.4 0.2 0.0
14.8 0.2 0.0
15.200000000000001 0.2 0.0
15.600000000000001 0.2 0.0
16.0 0.2 0.0
0.0 0.30000000000000004 0.0
0.4 0.30000000000000004 0.0
0.8 0.30000000000000004 0.0
1.2000000000000002 0.30000000000000004 0.0
1.6 0.30000000000000004 0.0
2.0 0.30000000000000004 0.0
2.4000000000000004 0.30000000000000004 0.0
2.8000000000000003 0.30000000000000004 0.0
3.2 0.30000000000000004 0.0
3.6 0.30000000000000004 0.0
4.0 0.30000000000000004 0.0
4.4 0.30000000000000004 0.0
4.800000000000001 0.30000000000000004 0.0
5.2 0.30000000000000004 0.0
5.6000000000000005 0.30000000000000004 0.0
6.0 0.30000000000000004 0.0
6.4 0.30000000000000004 0.0
6.800000000000001 0.30000000000000004 0.0
7.2 0.30000000000000004 0.0
7.6000000000000005 0.30000000000000004 0.0
8.0 0.30000000000000004 0.0
8.4 0.30000000000000004 0.0
8.8 0.30000000000000004 0.0
9.200000000000001 0.30000000000000004 0.0
9.600000000000001 0.30000000000000004 0.0
10.0 0.30000000000000004 0.0
10.4 0.30000000000000004 0.0
10.8 0.30000000000000004 0.0
11.200000000000001 0.30000000000000004 0.0
11.600000000000001 0.30000000000000004 0.0
12.0 0.30000000000000004 0.0
12.4 0.30000000000000004 0.0
12.8 0.30000000000000004 0.0
13.200000000000001 0.30000000000000004 0.0
13.600000000000001 0.30000000000000004 0.0
14.0 0.30000000000000004 0.0
14.4 0.30000000000000004 0.0
14.8 0.30000000000000004 0.0
15.200000000000001 0.30000000000000004 0.0
15.600000000000001 0.30000000000000004 0.0
16.0 0.30000000000000004 0.0
0.0 0.4 0.0
0.4 0.4 0.0
0.8 0.4 0.0
1.2000000000000002 0.4 0.0
1.6 0.4 0.0
2.0 0.4 0.0
2.4000000000000004 0.4 0.0
2.8000000000000003 0.4 0.0
3.2 0.4 0.0
3.6 0.4 0.0
4.0 0.4 0.0
4.4 0.4 0.0
4.800000000000001 0.4 0.0
5.2 0.4 0.0
5.6000000000000005 0.4 0.0
6.0 0.4 0.0
6.4 0.4 0.0
6.800000000000001 0.4 0.0
7.2 0.4 0.0
7.6000000000000005 0.4 0.0
8.0 0.4 0.0
8.4 0.4 0.0
8.8 0.4 0.0
9.200000000000001 0.4 0.0
9.600000000000001 0.4 0.0
10.0 0.4 0.0
10.4 0.4 0.0
10.8 0.4 0.0
11.200000000000001 0.4 0.0
11.600000000000001 0.4 0.0
12.0 0.4 0.0
12.4 0.4 0.0
12.8 0.4 0.0
13.200000000000001 0.4 0.0
13.600000000000001 0.4 0.0
14.0 0.4 0.0
14.4 0.4 0.0
14.8 0.4 0.0
15.200000000000001 0.4 0.0
15.600000000000001 0.4 0.0
16.0 0.4 0.0
0.0 0.5 0.0
0.4 0.5 0.0
0.8 0.5 0.0
1.2000000000000002 0.5 0.0
1.6 0.5 0.0
2.0 0.5 0.0
2.4000000000000004 0.5 0.0
2.8000000000000003 0.5 0.0
3.2 0.5 0.0
3.6 0.5 0.0
4.0 0.5 0.0
4.4 0.5 0.0
4.800000000000001 0.5 0.0
5.2 0.5 0.0
5.6000000000000005 0.5 0.0
6.0 0.5 0.0
6.4 0.5 0.0
6.800000000000001 0.5 0.0
7.2 0.5 0.0
7.6000000000000005 0.5 0.0
8.0 0.5 0.0
8.4 0.5 0.0
8.8 0.5 0.0
9.200000000000001 0.5 0.0
9.600000000000001 0.5 0.0
10.0 0.5 0.0
10.4 0.5 0.0
10.8 0.5 0.0
11.200000000000001 0.5 0.0
11.600000000000001 0.5 0.0
12.0 0.5 0.0
12.4 0.5 0.0
12.8 0.5 0.0
13.200000000000001 0.5 0.0
13.600000000000001 0.5 0.0
14.0 0.5 0.0
14.4 0.5 0.0
14.8 0.5 0.0
15.200000000000001 0.5 0.0
15.600000000000001 0.5 0.0
16.0 0.5 0.0
0.0 0.6000000000000001 0.0
0.4 0.6000000000000001 0.0
0.8 0.6000000000000001 0.0
1.2000000000000002 0.6000000000000001 0.0
1.6 0.6000000000000001 0.0
2.0 0.6000000000000001 0.0
2.4000000000000004 0.6000000000000001 0.0
2.8000000000000003 0.6000000000000001 0.0
3.2 0.6000000000000001 0.0
3.6 0.6000000000000001 0.0
4.0 0.6000000000000001 0.0
4.4 0.6000000000000001 0.0
4.800000000000001 0.6000000000000001 0.0
5.2 0.6000000000000001 0.0
5.6000000000000005 0.6000000000000001 0.0
6.0 0.6000000000000001 0.0
6.4 0.6000000000000001 0.0
6.800000000000001 0.6000000000000001 0.0
7.2 0.6000000000000001 0.0
7.6000000000000005 0.6000000000000001 0.0
8.0 0.6000000000000001 0.0
8.4 0.6000000000000001 0.0
8.8 0.6000000000000001 0.0
9.200000000000001 0.6000000000000001 0.0
9.600000000000001 0.6000000000000001 0.0
10.0 0.6000000000000001 0.0
10.4 0.6000000000000001 0.0
10.8 0.6000000000000001 0.0
11.200000000000001 0.6000000000000001 0.0
11.600000000000001 0.6000000000000001 0.0
12.0 0.6000000000000001 0.0
12.4 0.6000000000000001 0.0
12.8 0.6000000000000001 0.0
13.200000000000001 0.6000000000000001 0.0
13.600000000000001 0.6000000000000001 0.0
14.0 0.6000000000000001 0.0
14.4 0.6000000000000001 0.0
14.8 0.6000000000000001 0.0
15.200000000000001 0.6000000000000001 0.0
15.600000000000001 0.6000000000000001 0.0
16.0 0.6000000000000001 0.0
0.0 0.7000000000000001 0.0
0.4 0.7000000000000001 0.0
0.8 0.7000000000000001 0.0
1.2000000000000002 0.7000000000000001 0.0
1.6 0.7000000000000001 0.0
2.0 0.7000000000000001 0.0
2.4000000000000004 0.7000000000000001 0.0
2.8000000000000003 0.7000000000000001 0.0
3.2 0.7000000000000001 0.0
3.6 0.7000000000000001 0.0
4.0 0.7000000000000001 0.0
4.4 0.7000000000000001 0.0
4.800000000000001 0.7000000000000001 0.0
5.2 0.7000000000000001 0.0
5.6000000000000005 0.7000000000000001 0.0
6.0 0.7000000000000001 0.0
6.4 0.7000000000000001 0.0
6.800000000000001 0.7000000000000001 0.0
7.2 0.7000000000000001 0.0
7.6000000000000005 0.7000000000000001 0.0
8.0 0.7000000000000001 0.0
8.4 0.7000000000000001 0.0
8.8 0.7000000000000001 0.0
9.200000000000001 0.7000000000000001 0.0
9.600000000000001 0.7000000000000001 0.0
10.0 0.7000000000000001 0.0
10.4 0.7000000000000001 0.0
10.8 0.7000000000000001 0.0
11.200000000000001 0.7000000000000001 0.0
11.600000000000001 0.7000000000000001 0.0
12.0 0.7000000000000001 0.0
12.4 0.7000000000000001 0.0
12.8 0.7000000000000001 0.0
13.200000000000001 0.7000000000000001 0.0
13.600000000000001 0.7000000000000001 0.0
14.0 0.7000000000000001 0.0
14.4 0.7000000000000001 0.0
14.8 0.7000000000000001 0.0
15.200000000000001 0.7000000000000001 0.0
15.600000000000001 0.7000000000000001 0.0
16.0 0.7000000000000001 0.0
0.0 0.8 0.0
0.4 0.8 0.0
0.8 0.8 0.0
1.2000000000000002 0.8 0.0
1.6 0.8 0.0
2.0 0.8 0.0
2.4000000000000004 0.8 0.0
2.8000000000000003 0.8 0.0
3.2 0.8 0.0
3.6 0.8 0.0
4.0 0.8 0.0
4.4 0.8 0.0
4.800000000000001 0.8 0.0
5.2 0.8 0.0
5.6000000000000005 0.8 0.0
6.0 0.8 0.0
6.4 0.8 0.0
6.800000000000001 0.8 0.0
7.2 0.8 0.0
7.6000000000000005 0.8 0.0
8.0 0.8 0.0
8.4 0.8 0.0
8.8 0.8 0.0
9.200000000000001 0.8 0.0
9.600000000000001 0.8 0.0
10.0 0.8 0.0
10.4 0.8 0.0
10.8 0.8 0.0
11.200000000000001 0.8 0.0
11.600000000000001 0.8 0.0
12.0 0.8 0.0
12.4 0.8 0.0
12.8 0.8 0.0
13.200000000000001 0.8 0.0
13.600000000000001 0.8 0.0
14.0 0.8 0.0
14.4 0.8 0.0
14.8 0.8 0.0
15.200000000000001 0.8 0.0
15.600000000000001 0.8 0.0
16.0 0.8 0.0
0.0 0.9 0.0
0.4 0.9 0.0
0.8 0.9 0.0
1.2000000000000002 0.9 0.0
1.6 0.9 0.0
2.0 0.9 0.0
2.4000000000000004 0.9 0.0
2.8000000000000003 0.9 0.0
3.2 0.9 0.0
3.6 0.9 0.0
4.0 0.9 0.0
4.4 0.9 0.0
4.800000000000001 0.9 0.0
5.2 0.9 0.0
5.6000000000000005 0.9 0.0
6.0 0.9 0.0
6.4 0.9 0.0
6.800000000000001 0.9 0.0
7.2 0.9 0.0
7.6000000000000005 0.9 0.0
8.0 0.9 0.0
8.4 0.9 0.0
8.8 0.9 0.0
9.200000000000001 0.9 0.0
9.600000000000001 0.9 0.0
10.0 0.9 0.0
10.4 0.9 0.0
10.8 0.9 0.0
11.200000000000001 0.9 0.0
11.600000000000001 0.9 0.0
12.0 0.9 0.0
12.4 0.9 0.0
12.8 0.9 0.0
13.200000000000001 0.9 0.0
13.600000000000001 0.9 0.0
14.0 0.9 0.0
14.4 0.9 0.0
14.8 0.9 0.0
15.200000000000001 0.9 0.0
15.600000000000001 0.9 0.0
16.0 0.9 0.0
0.0 1.0 0.0
0.4 1.0 0.0
0.8 1.0 0.0
1.2000000000000002 1.0 0.0
1.6 1.0 0.0
2.0 1.0 0.0
2.4000000000000004 1.0 0.0
2.8000000000000003 1.0 0.0
3.2 1.0 0.0
3.6 1.0 0.0
4.0 1.0 0.0
4.4 1.0 0.0
4.800000000000001 1.0 0.0
5.2 1.0 0.0
5.6000000000000005 1.0 0.0
6.0 1.0 0.0
6.4 1.0 0.0
6.800000000000001 1.0 0.0
7.2 1.0 0.0
7.6000000000000005 1.0 0.0
8.0 1.0 0.0
8.4 1.0 0.0
8.8 1.0 0.0
9.200000000000001 1.0 0.0
9.600000000000001 1.0 0.0
10.0 1.0 0.0
10.4 1.0 0.0
10.8 1.0 0.0
11.200000000000001 1.0 0.0
11.600000000000001 1.0 0.0
12.0 1.0 0.0
12.4 1.0 0.0
12.8 1.0 0.0
13.200000000000001 1.0 0.0
13.600000000000001 1.0 0.0
14.0 1.0 0.0
14.4 1.0 0.0
14.8 1.0 0.0
15.200000000000001 1.0 0.0
15.600000000000001 1.0 0.0
16.0 1.0 0.0
0.0 1.1 0.0
0.4 1.1 0.0
0.8 1.1 0.0
1.2000000000000002 1.1 0.0
1.6 1.1 0.0
2.0 1.1 0.0
2.4000000000000004 1.1 0.0
2.8000000000000003 1.1 0.0
3.2 1.1 0.0
3.6 1.1 0.0
4.0 1.1 0.0
4.4 1.1 0.0
4.800000000000001 1.1 0.0
5.2 1.1 0.0
5.6000000000000005 1.1 0.0
6.0 1.1 0.0
6.4 1.1 0.0
6.800000000000001 1.1 0.0
7.2 1.1 0.0
7.6000000000000005 1.1 0.0
8.0 1.1 0.0
8.4 1.1 0.0
8.8 1.1 0.0
9.200000000000001 1.1 0.0
9.600000000000001 1.1 0.0
10.0 1.1 0.0
10.4 1.1 0.0
10.8 1.1 0.0
11.200000000000001 1.1 0.0
11.600000000000001 1.1 0.0
12.0 1.1 0.0
12.4 1.1 0.0
12.8 1.1 0.0
13.200000000000001 1.1 0.0
13.600000000000001 1.1 0.0
14.0 1.1 0.0
14.4 1.1 0.0
14.8 1.1 0.0
15.200000000000001 1.1 0.0
15.600000000000001 1.1 0.0
16.0 1.1 0.0
0.0 1.2000000000000002 0.0
0.4 1.2000000000000002 0.0
0.8 1.2000000000000002 0.0
1.2000000000000002 1.2000000000000002 0.0
1.6 1.2000000000000002 0.0
2.0 1.2000000000000002 0.0
2.4000000000000004 1.2000000000000002 0.0
2.8000000000000003 1.2000000000000002 0.0
3.2 1.2000000000000002 0.0
3.6 1.2000000000000002 0.0
4.0 1.2000000000000002 0.0
4.4 1.2000000000000002 0.0
4.800000000000001 1.2000000000000002 0.0
5.2 1.2000000000000002 0.0
5.6000000000000005 1.2000000000000002 0.0
6.0 1.2000000000000002 0.0
6.4 1.2000000000000002 0.0
6.800000000000001 1.2000000000000002 0.0
7.2 1.2000000000000002 0.0
7.6000000000000005 1.2000000000000002 0.0
8.0 1.2000000000000002 0.0
8.4 1.2000000000000002 0.0
8.8 1.2000000000000002 0.0
9.200000000000001 1.2000000000000002 0.0
9.600000000000001 1.2000000000000002 0.0
10.0 1.2000000000000002 0.0
10.4 1.2000000000000002 0.0
10.8 1.2000000000000002 0.0
11.200000000000001 1.2000000000000002 0.0
11.600000000000001 1.2000000000000002 0.0
12.0 1.2000000000000002 0.0
12.4 1.2000000000000002 0.0
12.8 1.2000000000000002 0.0
13.200000000000001 1.2000000000000002 0.0
13.600000000000001 1.2000000000000002 0.0
14.0 1.2000000000000002 0.0
14.4 1.2000000000000002 0.0
14.8 1.2000000000000002 0.0
15.200000000000001 1.2000000000000002 0.0
15.600000000000001 1.2000000000000002 0.0
16.0 1.2000000000000002 0.0
0.0 1.3 0.0
0.4 1.3 0.0
0.8 1.3 0.0
1.2000000000000002 1.3 0.0
1.6 1.3 0.0
2.0 1.3 0.0
2.4000000000000004 1.3 0.0
2.8000000000000003 1.3 0.0
3.2 1.3 0.0
3.6 1.3 0.0
4.0 1.3 0.0
4.4 1.3 0.0
4.800000000000001 1.3 0.0
5.2 1.3 0.0
5.6000000000000005 1.3 0.0
6.0 1.3 0.0
6.4 1.3 0.0
6.800000000000001 1.3 0.0
7.2 1.3 0.0
7.6000000000000005 1.3 0.0
8.0 1.3 0.0
8.4 1.3 0.0
8.8 1.3 0.0
9.200000000000001 1.3 0.0
9.600000000000001 1.3 0.0
10.0 1.3 0.0
10.4 1.3 0.0
10.8 1.3 0.0
11.200000000000001 1.3 0.0
11.600000000000001 1.3 0.0
12.0 1.3 0.0
12.4 1.3 0.0
12.8 1.3 0.0
13.200000000000001 1.3 0.0
13.600000000000001 1.3 0.0
14.0 1.3 0.0
14.4 1.3 0.0
14.8 1.3 0.0
15.200000000000001 1.3 0.0
15.600000000000001 1.3 0.0
16.0 1.3 0.0
0.0 1.4000000000000001 0.0
0.4 1.4000000000000001 0.0
0.8 1.4000000000000001 0.0
1.2000000000000002 1.4000000000000001 0.0
1.6 1.4000000000000001 0.0
2.0 1.4000000000000001 0.0
2.4000000000000004 1.4000000000000001 0.0
2.8000000000000003 1.4000000000000001 0.0
3.2 1.4000000000000001 0.0
3.6 1.4000000000000001 0.0
4.0 1.4000000000000001 0.0
4.4 1.4000000000000001 0.0
4.800000000000001 1.4000000000000001 0.0
5.2 1.4000000000000001 0.0
5.6000000000000005 1.4000000000000001 0.0
6.0 1.4000000000000001 0.0
6.4 1.4000000000000001 0.0
6.800000000000001 1.4000000000000001 0.0
7.2 1.4000000000000001 0.0
7.6000000000000005 1.4000000000000001 0.0
8.0 1.4000000000000001 0.0
8.4 1.4000000000000001 0.0
8.8 1.4000000000000001 0.0
9.200000000000001 1.4000000000000001 0.0
9.600000000000001 1.4000000000000001 0.0
10.0 1.4000000000000001 0.0
10.4 1.4000000000000001 0.0
10.8 1.4000000000000001 0.0
11.200000000000001 1.4000000000000001 0.0
11.600000000000001 1.4000000000000001 0.0
12.0 1.4000000000000001 0.0
12.4 1.4000000000000001 0.0
12.8 1.4000000000000001 0.0
13.200000000000001 1.4000000000000001 0.0
13.600000000000001 1.4000000000000001 0.0
14.0 1.4000000000000001 0.0
14.4 1.4000000000000001 0.0
14.8 1.4000000000000001 0.0
15.200000000000001 1.4000000000000001 0.0
15.600000000000001 1.4000000000000001 0.0
16.0 1.4000000000000001 0.0
0.0 1.5 0.0
0.4 1.5 0.0
0.8 1.5 0.0
1.2000000000000002 1.5 0.0
1.6 1.5 0.0
2.0 1.5 0.0
2.4000000000000004 1.5 0.0
2.8000000000000003 1.5 0.0
3.2 1.5 0.0
3.6 1.5 0.0
4.0 1.5 0.0
4.4 1.5 0.0
4.800000000000001 1.5 0.0
5.2 1.5 0.0
5.6000000000000005 1.5 0.0
6.0 1.5 0.0
6.4 1.5 0.0
6.800000000000001 1.5 0.0
7.2 1.5 0.0
7.6000000000000005 1.5 0.0
8.0 1.5 0.0
8.4 1.5 0.0
8.8 1.5 0.0
9.200000000000001 1.5 0.0
9.600000000000001 1.5 0.0
10.0 1.5 0.0
10.4 1.5 0.0
10.8 1.5 0.0
11.200000000000001 1.5 0.0
11.600000000000001 1.5 0.0
12.0 1.5 0.0
12.4 1.5 0.0
12.8 1.5 0.0
13.200000000000001 1.5 0.0
13.600000000000001 1.5 0.0
14.0 1.5 0.0
14.4 1.5 0.0
14.8 1.5 0.0
15.200000000000001 1.5 0.0
15.600000000000001 1.5 0.0
16.0 1.5 0.0
0.0 1.6 0.0
0.4 1.6 0.0
0.8 1.6 0.0
1.2000000000000002 1.6 0.0
1.6 1.6 0.0
2.0 1.6 0.0
2.4000000000000004 1.6 0.0
2.8000000000000003 1.6 0.0
3.2 1.6 0.0
3.6 1.6 0.0
4.0 1.6 0.0
4.4 1.6 0.0
4.800000000000001 1.6 0.0
5.2 1.6 0.0
5.6000000000000005 1.6 0.0
6.0 1.6 0.0
6.4 1.6 0.0
6.800000000000001 1.6 0.0
7.2 1.6 0.0
7.6000000000000005 1.6 0.0
8.0 1.6 0.0
8.4 1.6 0.0
8.8 1.6 0.0
9.200000000000001 1.6 0.0
9.600000000000001 1.6 0.0
10.0 1.6 0.0
10.4 1.6 0.0
10.8 1.6 0.0
11.200000000000001 1.6 0.0
11.600000000000001 1.6 0.0
12.0 1.6 0.0
12.4 1.6 0.0
12.8 1.6 0.0
13.200000000000001 1.6 0.0
13.600000000000001 1.6 0.0
14.0 1.6 0.0
14.4 1.6 0.0
14.8 1.6 0.0
15.200000000000001 1.6 0.0
15.600000000000001 1.6 0.0
16.0 1.6 0.0
0.0 1.7000000000000002 0.0
0.4 1.7000000000000002 0.0
0.8 1.7000000000000002 0.0
1.2000000000000002 1.7000000000000002 0.0
1.6 1.7000000000000002 0.0
2.0 1.7000000000000002 0.0
2.4000000000000004 1.7000000000000002 0.0
2.8000000000000003 1.7000000000000002 0.0
3.2 1.7000000000000002 0.0
3.6 1.7000000000000002 0.0
4.0 1.7000000000000002 0.0
4.4 1.7000000000000002 0.0
4.800000000000001 1.7000000000000002 0.0
5.2 1.7000000000000002 0.0
5.6000000000000005 1.7000000000000002 0.0
6.0 1.7000000000000002 0.0
6.4 1.7000000000000002 0.0
6.800000000000001 1.7000000000000002 0.0
7.2 1.7000000000000002 0.0
7.6000000000000005 1.7000000000000002 0.0
8.0 1.7000000000000002 0.0
8.4 1.7000000000000002 0.0
8.8 1.7000000000000002 0.0
9.200000000000001 1.7000000000000002 0.0
9.600000000000001 1.7000000000000002 0.0
10.0 1.7000000000000002 0.0
10.4 1.7000000000000002 0.0
10.8 1.7000000000000002 0.0
11.200000000000001 1.7000000000000002 0.0
11.600000000000001 1.7000000000000002 0.0
12.0 1.7000000000000002 0.0
12.4 1.7000000000000002 0.0
12.8 1.7000000000000002 0.0
13.200000000000001 1.7000000000000002 0.0
13.600000000000001 1.7000000000000002 0.0
14.0 1.7000000000000002 0.0
14.4 1.7000000000000002 0.0
14.8 1.7000000000000002 0.0
15.200000000000001 1.7000000000000002 0.0
15.600000000000001 1.7000000000000002 0.0
16.0 1.7000000000000002 0.0
0.0 1.8 0.0
0.4 1.8 0.0
0.8 1.8 0.0
1.2000000000000002 1.8 0.0
1.6 1.8 0.0
2.0 1.8 0.0
2.4000000000000004 1.8 0.0
2.8000000000000003 1.8 0.0
3.2 1.8 0.0
3.6 1.8 0.0
4.0 1.8 0.0
4.4 1.8 0.0
4.800000000000001 1.8 0.0
5.2 1.8 0.0
5.6000000000000005 1.8 0.0
6.0 1.8 0.0
6.4 1.8 0.0
6.800000000000001 1.8 0.0
7.2 1.8 0.0
7.6000000000000005 1.8 0.0
8.0 1.8 0.0
8.4 1.8 0.0
8.8 1.8 0.0
9.200000000000001 1.8 0.0
9.600000000000001 1.8 0.0
10.0 1.8 0.0
10.4 1.8 0.0
10.8 1.8 0.0
11.200000000000001 1.8 0.0
11.600000000000001 1.8 0.0
12.0 1.8 0.0
12.4 1.8 0.0
12.8 1.8 0.0
13.200000000000001 1.8 0.0
13.600000000000001 1.8 0.0
14.0 1.8 0.0
14.4 1.8 0.0
14.8 1.8 0.0
15.200000000000001 1.8 0.0
15.600000000000001 1.8 0.0
16.0 1.8 0.0
0.0 1.9000000000000001 0.0
0.4 1.9000000000000001 0.0
0.8 1.9000000000000001 0.0
1.2000000000000002 1.9000000000000001 0.0
1.6 1.9000000000000001 0.0
2.0 1.9000000000000001 0.0
2.4000000000000004 1.9000000000000001 0.0
2.8000000000000003 1.9000000000000001 0.0
3.2 1.9000000000000001 0.0
3.6 1.9000000000000001 0.0
4.0 1.9000000000000001 0.0
4.4 1.9000000000000001 0.0
4.800000000000001 1.9000000000000001 0.0
5.2 1.9000000000000001 0.0
5.6000000000000005 1.9000000000000001 0.0
6.0 1.9000000000000001 0.0
6.4 1.9000000000000001 0.0
6.800000000000001 1.9000000000000001 0.0
7.2 1.9000000000000001 0.0
7.6000000000000005 1.9000000000000001 0.0
8.0 1.9000000000000001 0.0
8.4 1.9000000000000001 0.0
8.8 1.9000000000000001 0.0
9.200000000000001 1.9000000000000001 0.0
9.600000000000001 1.9000000000000001 0.0
10.0 1.9000000000000001 0.0
10.4 1.9000000000000001 0.0
10.8 1.9000000000000001 0.0
11.200000000000001 1.9000000000000001 0.0
11.600000000000001 1.9000000000000001 0.0
12.0 1.9000000000000001 0.0
12.4 1.9000000000000001 0.0
12.8 1.9000000000000001 0.0
13.200000000000001 1.9000000000000001 0.0
13.600000000000001 1.9000000000000001 0.0
14.0 1.9000000000000001 0.0
14.4 1.9000000000000001 0.0
14.8 1.9000000000000001 0.0
15.200000000000001 1.9000000000000001 0.0
15.600000000000001 1.9000000000000001 0.0
16.0 1.9000000000000001 0.0
0.0 2.0 0.0
0.4 2.0 0.0
0.8 2.0 0.0
1.2000000000000002 2.0 0.0
1.6 2.0 0.0
2.0 2.0 0.0
2.4000000000000004 2.0 0.0
2.8000000000000003 2.0 0.0
3.2 2.0 0.0
3.6 2.0 0.0
4.0 2.0 0.0
4.4 2.0 0.0
4.800000000000001 2.0 0.0
5.2 2.0 0.0
5.6000000000000005 2.0 0.0
6.0 2.0 0.0
6.4 2.0 0.0
6.800000000000001 2.0 0.0
7.2 2.0 0.0
7.6000000000000005 2.0 0.0
8.0 2.0 0.0
8.4 2.0 0.0
8.8 2.0 0.0
9.200000000000001 2.0 0.0
9.600000000000001 2.0 0.0
10.0 2.0 0.0
10.4 2.0 0.0
10.8 2.0 0.0
11.200000000000001 2.0 0.0
11.600000000000001 2.0 0.0
12.0 2.0 0.0
12.4 2.0 0.0
12.8 2.0 0.0
13.200000000000001 2.0 0.0
13.600000000000001 2.0 0.0
14.0 2.0 0.0
14.4 2.0 0.0
14.8 2.0 0.0
15.200000000000001 2.0 0.0
15.600000000000001 2.0 0.0
16.0 2.0 0.0
CELLS 800 4000
4 0 1 42 41
4 1 2 43 42
4 2 3 44 43
4 3 4 45 44
4 4 5 46 45
4 5 6 47 46
4 6 7 48 47
4 7 8 49 48
4 8 9 50 49
4 9 10 51 50
4 10 11 52 51
4 11 12 53 52
4 12 13 54 53
4 13 14 55 54
4 14 15 56 55
4 15 16 57 56
4 16 17 58 57
4 17 18 59 58
4 18 19 60 59
4 19 20 61 60
4 20 21 62 61
4 21 22 63 62
4 22 23 64 63
4 23 24 65 64
4 24 25 66 65
4 25 26 67 66
4 26 27 68 67
4 27 28 69 68
4 28 29 70 69
4 29 30 71 70
4 30 31 72 71
4 31 32 73 72
4 32 33 74 73
4 33 34 75 74
4 34 35 76 75
4 35 36 77 76
4 36 37 78 77
4 37 38 79 78
4 38 39 80 79
4 39 40 81 80
4 41 42 83 82
4 42 43 84 83
4 43 44 85 84
4 44 45 86 85
4 45 46 87 86
4 46 47 88 87
4 47 48 89 88
4 48 49 90 89
4 49 50 91 90
4 50 51 92 91
4 51 52 93 92
4 52 53 94 93
4 53 54 95 94
4 54 55 96 95
4 55 56 97 96
4 56 57 98 97
4 57 58 99 98
4 58 59 100 99
4 59 60 101 100
4 60 61 102 101
4 61 62 103 102
4 62 63 104 103
4 63 64 105 104
4 64 65 106 105
4 65 66 107 106
4 66 67 108 107
4 67 68 109 108
4 68 69 110 109
4 69 70 111 110
4 70 71 112 111
4 71 72 113 112
4 72 73 114 113
4 73 74 115 114
4 74 75 116 115
4 75 76 117 116
4 76 77 118 117
4 77 78 119 118
4 78 79 120 119
4 79 80 121 120
4 80 81 122 121
4 82 83 124 123
4 83 84 125 124
4 84 85 126 125
4 85 86 127 126
4 86 87 128 127
4 87 88 129 128
4 88 89 130 129
4 89 90 131 130
4 90 91 132 131
4 91 92 133 132
4 92 93 134 133
4 93 94 135 134
4 94 95 136 135
4 95 96 137 136
4 96 97 138 137
4 97 98 139 138
4 98 99 140 139
4 99 100 141 140
4 100 101 142 141
4 101 102 143 142
4 102 103 144 143
4 103 104 145 144
4 104 105 146 145
4 105 106 147 146
4 106 107 148 147
4 107 108 149 148
4 108 109 150 149
4 109 110 151 150
4 110 111 152 151
4 111 112 153 152
4 112 113 154 153
4 113 114 155 154
4 114 115 156 155
4 115 116 157 156
4 116 117 158 157
4 117 118 159 158
4 118 119 160 159
4 119 120 161 160
4 120 121 162 161
4 121 122 163 162
4 123 124 165 164
4 124 125 166 165
4 125 126 167 166
4 126 127 168 167
4 127 128 169 168
4 128 129 170 169
4 129 130 171 170
4 130 131 172 171
4 131 132 173 172
4 132 133 174 173
4 133 134 175 174
4 134 135 176 175
4 135 136 177 176
4 136 137 178 177
4 137 138 179 178
4 138 139 180 179
4 139 140 181 180
4 140 141 182 181
4 141 142 183 182
4 142 143 184 183
4 143 144 185 184
4 144 145 186 185
4 145 146 187 186
4 146 147 188 187
4 147 148 189 188
4 148 149 190 189
4 149 150 191 190
4 150 151 192 191
4 151 152 193 192
4 152 153 194 193
4 153 154 195 194
4 154 155 196 195
4 155 156 197 196
4 156 157 198 197
4 157 158 199 198
4 158 159 200 199
4 159 160 201 200
4 160 161 202 201
4 161 162 203 202
4 162 163 204 203
4 164 165 206 205
4 165 166 207 206
4 166 167 208 207
4 167 168 209 208
4 168 169 210 209
4 169 170 211 210
4 170 171 212 211
4 171 172 213 212
4 172 173 214 213
4 173 174 215 214
4 174 175 216 215
4 175 176 217 216
4 176 177 218 217
4 177 178 219 218
4 178 179 220 219
4 179 180 221 220
4 180 181 222 221
4 181 182 223 222
4 182 183 224 223
4 183 184 225 224
4 184 185 226 225
4 185 186 227 226
4 186 187 228 227
4 187 188 229 228
4 188 189 230 229
4 189 190 231 230
4 190 191 232 231
4 191 192 233 232
4 192 193 234 233
4 193 194 235 234
4 194 195 236 235
4 195 196 237 236
4 196 197 238 237
4 197 198 239 238
4 198 199 240 239
4 199 200 241 240
4 200 201 242 241
4 201 202 243 242
4 202 203 244 243
4 203 204 245 244
4 205 206 247 246
4 206 207 248 247
4 207 208 249 248
4 208 209 250 249
4 209 210 251 250
4 210 211 252 251
4 211 212 253 252
4 212 213 254 253
4 213 214 255 254
4 214 215 256 255
4 215 216 257 256
4 216 217 258 257
4 217 218 259 258
4 218 219 260 259
4 219 220 261 260
4 220 221 262 261
4 221 222 263 262
4 222 223 264 263
4 223 224 265 264
4 224 225 266 265
4 225 226 267 266
4 226 227 268 267
4 227 228 269 268
4 228 229 270 269
4 229 230 271 270
4 230 231 272 271
4 231 232 273 272
4 232 233 274 273
4 233 234 275 274
4 234 235 276 275
4 235 236 277 276
4 236 237 278 277
4 237 238 279 278
4 238 239 280 279
4 239 240 281 280
4 240 241 282 281
4 241 242 283 282
4 242 243 284 283
4 243 244 285 284
4 244 245 286 285
4 246 247 288 287
4 247 248 289 288
4 248 249 290 289
4 249 250 291 290
4 250 251 292 291
4 251 252 293 292
4 252 253 294 293
4 253 254 295 294
4 254 255 296 295
4 255 256 297 296
4 256 257 298 297
4 257 258 299 298
4 258 259 300 299
4 259 260 301 300
4 260 261 302 301
4 261 262 303 302
4 262 263 304 303
4 263 264 305 304
4 264 265 306 305
4 265 266 307 306
4 266 267 308 307
4 267 268 309 308
4 268 269 310 309
4 269 270 311 310
4 270 271 312 311
4 271 272 313 312
4 272 273 314 313
4 273 274 315 314
4 274 275 316 315
4 275 276 317 316
4 276 277 318 317
4 277 278 319 318
4 278 279 320 319
4 279 280 321 320
4 280 281 322 321
4 281 282 323 322
4 282 283 324 323
4 283 284 325 324
4 284 285 326 325
4 285 286 327 326
4 287 288 329 328
4 288 289 330 329
4 289 290 331 330
4 290 291 332 331
4 291 292 333 332
4 292 293 334 333
4 293 294 335 334
4 294 295 336 335
4 295 296 337 336
4 296 297 338 337
4 297 298 339 338
4 298 299 340 339
4 299 300 341 340
4 300 301 342 341
4 301 302 343 342
4 302 303 344 343
4 303 304 345 344
4 304 305 346 345
4 305 306 347 346
4 306 307 348 347
4 307 308 349 348
4 308 309 350 349
4 309 310 351 350
4 310 311 352 351
4 311 312 353 352
4 312 313 354 353
4 313 314 355 354
4 314 315 356 355
4 315 316 357 356
4 316 317 358 357
4 317 318 359 358
4 318 319 360 359
4 319 320 361 360
4 320 321 362 361
4 321 322 363 362
4 322 323 364 363
4 323 324 365 364
4 324 325 366 365
4 325 326 367 366
4 326 327 368 367
4 328 329 370 369
4 329 330 371 370
4 330 331 372 371
4 331 332 373 372
4 332 333 374 373
4 333 334 375 374
4 334 335 376 375
4 335 336 377 376
4 336 337 378 377
4 337 338 379 378
4 338 339 380 379
4 339 340 381 380
4 340 341 382 381
4 341 342 383 382
4 342 343 384 383
4 343 344 385 384
4 344 345 386 385
4 345 346 387 386
4 346 347 388 387
4 347 348 389 388
4 348 349 390 389
4 349 350 391 390
4 350 351 392 391
4 351 352 393 392
4 352 353 394 393
4 353 354 395 394
4 354 355 396 395
4 355 356 397 396
4 356 357 398 397
4 357 358 399 398
4 358 359 400 399
4 359 360 401 400
4 360 361 402 401
4 361 362 403 402
4 362 363 404 403
4 363 364 405 404
4 364 365 406 405
4 365 366 407 406
4 366 367 408 407
4 367 368 409 408
4 369 370 411 410
4 370 371 412 411
4 371 372 413 412
4 372 373 414 413
4 373 374 415 414
4 374 375 416 415
4 375 376 417 416
4 376 377 418 417
4 377 378 419 418
4 378 379 420 419
4 379 380 421 420
4 380 381 422 421
4 381 382 423 422
4 382 383 424 423
4 383 384 425 424
4 384 385 426 425
4 385 386 427 426
4 386 387 428 427
4 387 388 429 428
4 388 389 430 429
4 389 390 431 430
4 390 391 432 431
4 391 392 433 432
4 392 393 434 433
4 393 394 435 434
4 394 395 436 435
4 395 396 437 436
4 396 397 438 437
4 397 398 439 438
4 398 399 440 439
4 399 400 441 440
4 400 401 442 441
4 401 402 443 442
4 402 403 444 443
4 403 404 445 444
4 404 405 446 445
4 405 406 447 446
4 406 407 448 447
4 407 408 449 448
4 408 409 450 449
4 410 411 452 451
4 411 412 453 452
4 412 413 454 453
4 413 414 455 454
4 414 415 456 455
4 415 416 457 456
4 416 417 458 457
4 417 418 459 458
4 418 419 460 459
4 419 420 461 460
4 420 421 462 461
4 421 422 463 462
4 422 423 464 463
4 423 424 465 464
4 424 425 466 465
4 425 426 467 466
4 426 427 468 467
4 427 428 469 468
4 428 429 470 469
4 429 430 471 470
4 430 431 472 471
4 431 432 473 472
4 432 433 474 473
4 433 434 475 474
4 434 435 476 475
4 435 436 477 476
4 436 437 478 477
4 437 438 479 478
4 438 439 480 479
4 439 440 481 480
4 440 441 482 481
4 441 442 483 482
4 442 443 484 483
4 443 444 485 484
4 444 445 486 485
4 445 446 487 486
4 446 447 488 487
4 447 448 489 488
4 448 449 490 489
4 449 450 491 490
4 451 452 493 492
4 452 453 494 493
4 453 454 495 494
4 454 455 496 495
4 455 456 497 496
4 456 457 498 497
4 457 458 499 498
4 458 459 500 499
4 459 460 501 500
4 460 461 502 501
4 461 462 503 502
4 462 463 504 503
4 463 464 505 504
4 464 465 506 505
4 465 466 507 506
4 466 467 508 507
4 467 468 509 508
4 468 469 510 509
4 469 470 511 510
4 470 471 512 511
4 471 472 513 512
4 472 473 514 513
4 473 474 515 514
4 474 475 516 515
4 475 476 517 516
4 476 477 518 517
4 477 478 519 518
4 478 479 520 519
4 479 480 521 520
4 480 481 522 521
4 481 482 523 522
4 482 483 524 523
4 483 484 525 524
4 484 485 526 525
4 485 486 527 526
4 486 487 528 527
4 487 488 529 528
4 488 489 530 529
4 489 490 531 530
4 490 491 532 531
4 492 493 534 533
4 493 494 535 534
4 494 495 536 535
4 495 496 537 536
4 496 497 538 537
4 497 498 539 538
4 498 499 540 539
4 499 500 541 540
4 500 501 542 541
4 501 502 543 542
4 502 503 544 543
4 503 504 545 544
4 504 505 546 545
4 505 506 547 546
4 506 507 548 547
4 507 508 549 548
4 508 509 550 549
4 509 510 551 550
4 510 511 552 551
4 511 512 553 552
4 512 513 554 553
4 513 514 555 554
4 514 515 556 555
4 515 516 557 556
4 516 517 558 557
4 517 518 559 558
4 518 519 560 559
4 519 520 561 560
4 520 521 562 561
4 521 522 563 562
4 522 523 564 563
4 523 524 565 564
4 524 525 566 565
4 525 526 567 566
4 526 527 568 567
4 527 528 569 568
4 528 529 570 569
4 529 530 571 570
4 530 531 572 571
4 531 532 573 572
4 533 534 575 574
4 534 535 576 575
4 535 536 577 576
4 536 537 578 577
4 537 538 579 578
4 538 539 580 579
4 539 540 581 580
4 540 541 582 581
4 541 542 583 582
4 542 543 584 583
4 543 544 585 584
4 544 545 586 585
4 545 546 587 586
4 546 547 588 587
4 547 548 589 588
4 548 549 590 589
4 549 550 591 590
4 550 551 592 591
4 551 552 593 592
4 552 553 594 593
4 553 554 595 594
4 554 555 596 595
4 555 556 597 596
4 556 557 598 597
4 557 558 599 598
4 558 559 600 599
4 559 560 601 600
4 560 561 602 601
4 561 562 603 602
4 562 563 604 603
4 563 564 605 604
4 564 565 606 605
4 565 566 607 606
4 566 567 608 607
4 567 568 609 608
4 568 569 610 609
4 569 570 611 610
4 570 571 612 611
4 571 572 613 612
4 572 573 614 613
4 574 575 616 615
4 575 576 617 616
4 576 577 618 617
4 577 578 619 618
4 578 579 620 619
4 579 580 621 620
4 580 581 622 621
4 581 582 623 622
4 582 583 624 623
4 583 584 625 624
4 584 585 626 625
4 585 586 627 626
4 586 587 628 627
4 587 588 629 628
4 588 589 630 629
4 589 590 631 630
4 590 591 632 631
4 591 592 633 632
4 592 593 634 633
4 593 594 635 634
4 594 595 636 635
4 595 596 637 636
4 596 597 638 637
4 597 598 639 638
4 598 599 640 639
4 599 600 641 640
4 600 601 642 641
4 601 602 643 642
4 602 603 644 643
4 603 604 645 644
4 604 605 646 645
4 605 606 647 646
4 606 607 648 647
4 607 608 649 648
4 608 609 650 649
4 609 610 651 650
4 610 611 652 651
4 611 612 653 652
4 612 613 654 653
4 613 614 655 654
4 615 616 657 656
4 616 617 658 657
4 617 618 659 658
4 618 619 660 659
4 619 620 661 660
4 620 621 662 661
4 621 622 663 662
4 622 623 664 663
4 623 624 665 664
4 624 625 666 665
4 625 626 667 666
4 626 627 668 667
4 627 628 669 668
4 628 629 670 669
4 629 630 671 670
4 630 631 672 671
4 631 632 673 672
4 632 633 674 673
4 633 634 675 674
4 634 635 676 675
4 635 636 677 676
4 636 637 678 677
4 637 638 679 678
4 638 639 680 679
4 639 640 681 680
4 640 641 682 681
4 641 642 683 682
4 642 643 684 683
4 643 644 685 684
4 644 645 686 685
4 645 646 687 686
4 646 647 688 687
4 647 648 689 688
4 648 649 690 689
4 649 650 691 690
4 650 651 692 691
4 651 652 693 692
4 652 653 694 693
4 653 654 695 694
4 654 655 696 695
4 656 657 698 697
4 657 658 699 698
4 658 659 700 699
4 659 660 701 700
4 660 661 702 701
4 661 662 703 702
4 662 663 704 703
4 663 664 705 704
4 664 665 706 705
4 665 666 707 706
4 666 667 708 707
4 667 668 709 708
4 668 669 710 709
4 669 670 711 710
4 670 671 712 711
4 671 672 713 712
4 672 673 714 713
4 673 674 715 714
4 674 675 716 715
4 675 676 717 716
4 676 677 718 717
4 677 678 719 718
4 678 679 720 719
4 679 680 721 720
4 680 681 722 721
4 681 682 723 722
4 682 683 724 723
4 683 684 725 724
4 684 685 726 725
4 685 686 727 726
4 686 687 728 727
4 687 688 729 728
4 688 689 730 729
4 689 690 731 730
4 690 691 732 731
4 691 692 733 732
4 692 693 734 733
4 693 694 735 734
4 694 695 736 735
4 695 696 737 736
4 697 698 739 738
4 698 699 740 739
4 699 700 741 740
4 700 701 742 741
4 701 702 743 742
4 702 703 744 743
4 703 704 745 744
4 704 705 746 745
4 705 706 747 746
4 706 707 748 747
4 707 708 749 748
4 708 709 750 749
4 709 710 751 750
4 710 711 752 751
4 711 712 753 752
4 712 713 754 753
4 713 714 755 754
4 714 715 756 755
4 715 716 757 756
4 716 717 758 757
4 717 718 759 758
4 718 719 760 759
4 719 720 761 760
4 720 721 762 761
4 721 722 763 762
4 722 723 764 763
4 723 724 765 764
4 724 725 766 765
4 725 726 767 766
4 726 727 768 767
4 727 728 769 768
4 728 729 770 769
4 729 730 771 770
4 730 731 772 771
4 731 732 773 772
4 732 733 774 773
4 733 734 775 774
4 734 735 776 775
4 735 736 777 776
4 736 737 778 777
4 738 739 780 779
4 739 740 781 780
4 740 741 782 781
4 741 742 783 782
4 742 743 784 783
4 743 744 785 784
4 744 745 786 785
4 745 746 787 786
4 746 747 788 787
4 747 748 789 788
4 748 749 790 789
4 749 750 791 790
4 750 751 792 791
4 751 752 793 792
4 752 753 794 793
4 753 754 795 794
4 754 755 796 795
4 755 756 797 796
4 756 757 798 797
4 757 758 799 798
4 758 759 800 799
4 759 760 801 800
4 760 761 802 801
4 761 762 803 802
4 762 763 804 803
4 763 764 805 804
4 764 765 806 805
4 765 766 807 806
4 766 767 808 807
4 767 768 809 808
4 768 769 810 809
4 769 770 811 810
4 770 771 812 811
4 771 772 813 812
4 772 773 814 813
4 773 774 815 814
4 774 775 816 815
4 775 776 817 816
4 776 777 818 817
4 777 778 819 818
4 779 780 821 820
4 780 781 822 821
4 781 782 823 822
4 782 783 824 823
4 783 784 825 824
4 784 785 826 825
4 785 786 827 826
4 786 787 828 827
4 787 788 829 828
4 788 789 830 829
4 789 790 831 830
4 790 791 832 831
4 791 792 833 832
4 792 793 834 833
4 793 794 835 834
4 794 795 836 835
4 795 796 837 836
4 796 797 838 837
4 797 798 839 838
4 798 799 840 839
4 799 800 841 840
4 800 801 842 841
4 801 802 843 842
4 802 803 844 843
4 803 804 845 844
4 804 805 846 845
4 805 806 847 846
4 806 807 848 847
4 807 808 849 848
4 808 809 850 849
4 809 810 851 850
4 810 811 852 851
4 811 812 853 852
4 812 813 854 853
4 813 814 855 854
4 814 815 856 855
4 815 816 857 856
4 816 817 858 857
4 817 818 859 858
4 818 819 860 859
CELL_TYPES 800
9
9
9
9
9
9
9
9
9
9
9
9
9
9
9
9
9
9
9
9
9
9
9
9
9
9
9
9
9
9
9
9
9
9
9
9
9
9
9
9
9
9
9
9
9
9
9
9
9
9
9
9
9
9
9
9
9
9
9
9
9
9
9
9
9
9
9
9
9
9
9
9
9
9
9
9
9
9
9
9
9
9
9
9
9
9
9
9
9
9
9
9
9
9
9
9
9
9
9
9
9
9
9
9
9
9
9
9
9
9
9
9
9
9
9
9
9
9
9
9
9
9
9
9
9
9
9
9
9
9
9
9
9
9
9
9
9
9
9
9
9
9
9
9
9
9
9
9
9
9
9
9
9
9
9
9
9
9
9
9
9
9
9
9
9
9
9
9
9
9
9
9
9
9
9
9
9
9
9
9
9
9
9
9
9
9
9
9
9
9
9
9
9
9
9
9
9
9
9
9
9
9
9
9
9
9
9
9
9
9
9
9
9
9
9
9
9
9
9
9
9
9
9
9
9
9
9
9
9
9
9
9
9
9
9
9
9
9
9
9
9
9
9
9
9
9
9
9
9
9
9
9
9
9
9
9
9
9
9
9
9
9
9
9
9
9
9
9
9
9
9
9
9
9
9
9
9
9
9
9
9
9
9
9
9
9
9
9
9
9
9
9
9
9
9
9
9
9
9
9
9
9
9
9
9
9
9
9
9
9
9
9
9
9
9
9
9
9
9
9
9
9
9
9
9
9
9
9
9
9
9
9
9
9
9
9
9
9
9
9
9
9
9
9
9
9
9
9
9
9
9
9
9
9
9
9
9
9
9
9
9
9
9
9
9
9
9
9
9
9
9
9
9
9
9
9
9
9
9
9
9
9
9
9
9
9
9
9
9
9
9
9
9
9
9
9
9
9
9
9
9
9
9
9
9
9
9
9
9
9
9
9
9
9
9
9
9
9
9
9
9
9
9
9
9
9
9
9
9
9
9
9
9
9
9
9
9
9
9
9
9
9
9
9
9
9
9
9
9
9
9
9
9
9
9
9
9
9
9
9
9
9
9
9
9
9
9
9
9
9
9
9
9
9
9
9
9
9
9
9
9
9
9
9
9
9
9
9
9
9
9
9
9
9
9
9
9
9
9
9
9
9
9
9
9
9
9
9
9
9
9
9
9
9
9
9
9
9
9
9
9
9
9
9
9
9
9
9
9
9
9
9
9
9
9
9
9
9
9
9
9
9
9
9
9
9
9
9
9
9
9
9
9
9
9
9
9
9
9
9
9
9
9
9
9
9
9
9
9
9
9
9
9
9
9
9
9
9
9
9
9
9
9
9
9
9
9
9
9
9
9
9
9
9
9
9
9
9
9
9
9
9
9
9
9
9
9
9
9
9
9
9
9
9
9
9
9
9
9
9
9
9
9
9
9
9
9
9
9
9
9
9
9
9
9
9
9
9
9
9
9
9
9
9
9
9
9
9
9
9
9
9
9
9
9
9
9
9
9
9
9
9
9
9
9
9
9
9
9
9
9
9
9
9
9
9
9
9
9
9
9
9
9
9
9
9
9
9
9
9
9
9
9
9
9
9
9
9
9
9
9
9
9
9
9
9
9
9
9
9
9
9
9
9
9
9
9
9
9
9
9
9
9
9
9
9
9
9
9
9
9
9
9
9
9
9
9
9
9
9
9
9
9
9
9
9
9
9
9
9
9
9
9
9
9
9
9
9
9
9
9
9
9
9
9
9
9
9
9
9
9
9
9
9
9
9
9
9
9
9
9
9
9
9
9
9
9
9
9
9
9
9
9
9
9
9
9
9
9
9
POINT_DATA 861
SCALARS Disp float 2
LOOKUP_TABLE default
0.0 0.0
0.0045524513178509625 -0.14770368282441904
0.00560774591293943 -0.28793850842307855
0.006334944653792861 -0.42743359472508324
0.0072147109390040985 -0.56663105237706
0.00846753147125969 -0.7052794085490797
0.010446220566449466 -0.8430605137385292
0.013525837613494044 -0.9795984099156363
0.01813091877990472 -1.11442947213745
0.02471605114805805 -1.2469586304826568
0.03374886729231497 -1.3763889820073347
0.045725558175883044 -1.5016644141210997
0.061188426421354296 -1.6214575167496288
0.08071847568571258 -1.7342124512339923
0.1049322412202892 -1.8381856544535315
0.13440902234306526 -1.9314774234270258
0.16955781960382452 -2.012068860705707
0.21044946571243542 -2.0778852202061104
0.25666358636476205 -2.1269339431104375
0.30721270788934013 -2.1575318191261297
0.3604730499469976 -2.168525493962666
0.4137333920046531 -2.1575318191260697
0.4642825135292222 -2.126933943110314
0.5104966341815333 -2.077885220205933
0.5513882802901252 -2.012068860705483
0.5865370775508635 -1.9314774234267718
0.6160138586736192 -1.8381856544532522
0.6402276242081749 -1.7342124512336958
0.6597576734725121 -1.6214575167493244
0.6752205417179626 -1.5016644141207969
0.6871972326015121 -1.3763889820070412
0.6962300487457533 -1.2469586304823792
0.7028151811138946 -1.1144294721371928
0.7074202622802961 -0.979598409915403
0.7104998793273342 -0.8430605137383224
0.7124785684225196 -0.7052794085489029
0.7137313889547732 -0.5666310523769142
0.7146111552399839 -0.42743359472497044
0.7153383539808371 -0.2879385084229978
0.7163936485759246 -0.14770368282437246
0.7209460998937725 0.0
0.03685478457350674 -0.0019726387986287197
0.03993938450828558 -0.14785566799356115
0.04051412025632605 -0.2880007001436938
0.04116744960455365 -0.4275140227689065
0.04195241169784322 -0.566738730047031
0.04303645412639392 -0.7054846281076225
0.044756014071461334 -0.8434515679838606
0.04746865328770675 -0.9802727692075246
0.05157249319072761 -1.115494729718573
0.05747939035734095 -1.248522799604365
0.06560364338030386 -1.3785621821561425
0.07637467797392607 -1.5045658593413358
0.09026553197918986 -1.6252199355193673
0.10781002286928171 -1.7389807304030414
0.12957578284269677 -1.844109131506644
0.15610574202896324 -1.9386843493292518
0.18779066095955985 -2.0206281537957853
0.22471623316258452 -2.087766430704817
0.266527613059006 -2.137976733048879
0.31232076102326695 -2.169430769834062
0.36047304994699036 -2.1807662871477147
0.4086253388707113 -2.169430769834001
0.454418486834964 -2.1379767330487534
0.4962298667313721 -2.0877664307046344
0.5331554389343802 -2.020628153795557
0.5648403578649585 -1.938684349328993
0.5913703170512062 -1.84410913150636
0.6131360770246026 -1.7389807304027403
0.6306805679146755 -1.625219935519058
0.6445714219199208 -1.5045658593410285
0.6553424565135262 -1.378562182155845
0.663466709536475 -1.2485227996040846
0.6693736067030772 -1.1154947297183133
0.6734774466060898 -0.9802727692072896
0.6761900858223292 -0.8434515679836524
0.677909645767393 -0.7054846281074453
0.6789936881959421 -0.566738730046885
0.6797786502892312 -0.4275140227687937
0.6804319796374587 -0.288000700143613
0.6810067153854992 -0.1478556679935143
0.6840913153202733 -0.001972638798626423
0.07289055959615151 -0.003515210113760189
0.0751084252044273 -0.14792653835278724
0.07544268599578004 -0.2880384802946118
0.07597725625663979 -0.4275865740509381
0.07667407947268245 -0.566828861172173
0.07760725592165726 -0.705648070672298
0.07906903309884271 -0.8437746759612378
0.0814144706738617 -0.9808478130404149
0.08500872482485042 -1.1164215832706057
0.09022442954638775 -1.2498987865974474
0.09742471675217698 -1.380483764175609
0.10697912407489761 -1.5071355195812646
0.11929420399953553 -1.6285545773223793
0.13484021527624881 -1.7432134599014721
0.15414040907191853 -1.8493778157892324
0.17769518525444447 -1.9451094984242392
0.20588086648027065 -2.02827871947322
0.23881406659900373 -2.096623258813619
0.2762130047062196 -2.1479013278076855
0.31724975155739454 -2.1801286814551175
0.36047304994698337 -2.1917804765614517
0.4036963483365695 -2.1801286814550553
0.4447330951877371 -2.147901327807557
0.4821320332949413 -2.0966232588134335
0.51506523341366 -2.0282787194729877
0.54325091463947 -1.9451094984239758
0.5668056908219791 -1.8493778157889442
0.5861058846176321 -1.7432134599011666
0.6016518958943287 -1.6285545773220658
0.6139669758189503 -1.5071355195809533
0.623521383141656 -1.380483764175308
0.6307216703474327 -1.2498987865971642
0.6359373750689599 -1.116421583270344
0.6395316292199411 -0.9808478130401783
0.6418770667949548 -0.8437746759610286
0.6433388439721373 -0.7056480706721204
0.644272020421111 -0.5668288611720269
0.6449688436371533 -0.42758657405082523
0.645503413898013 -0.2880384802945312
0.6458376746893658 -0.14792653835274008
0.6480555402976372 -0.003515210113755525
0.10849948767821785 -0.004745776188249222
0.11014665321200433 -0.14797414678847542
0.11035172863909545 -0.2880598219092935
0.11077011345108852 -0.427646657448352
0.11137395681805522 -0.5669068551681901
0.11217594485612982 -0.7057756352471926
0.11339335893659871 -0.8440313232469172
0.11537182689121678 -0.9813247503805512
0.11845281943373584 -1.117209078284738
0.12296900175084213 -1.2510847697942045
0.1292360083092102 -1.3821517925797975
0.13756600164995908 -1.5093732425674196
0.1483031395525851 -1.6314622974448059
0.16185252628040095 -1.7469091669922296
0.17867538421513546 -1.853988102986905
0.1992359671523456 -1.9507470978091201
0.22389792821736834 -2.035014046981466
0.2528101200111373 -2.104451200096022
0.2857695029244078 -2.156704429973276
0.3220754290215872 -2.189645633607354
0.3604730499469766 -2.2016136641208806
0.39887067087236333 -2.1896456336072907
0.4351765969695363 -2.1567044299731455
0.4681359798827964 -2.1044512000958338
0.4970481716765526 -2.035014046981231
0.5217101327415613 -1.9507470978088528
0.5422707156787567 -1.853988102986613
0.5590935736134767 -1.7469091669919203
0.5726429603412777 -1.6314622974444888
0.5833800982438897 -1.5093732425671047
0.5917100915846256 -1.3821517925794935
0.5979770981429826 -1.2510847697939187
0.6024932804600799 -1.1172090782844741
0.6055742730025923 -0.9813247503803133
0.6075527409572059 -0.8440313232467072
0.6087701550376724 -0.7057756352470147
0.6095721430757463 -0.566906855168044
0.6101759864427126 -0.42764665744823904
0.6105943712547057 -0.2880598219092129
0.610799446681797 -0.14797414678842802
0.6124466122155795 -0.004745776188242417
0.14386129627533029 -0.005732574895081642
0.1450917113894099 -0.14801428136164743
0.1452255074719698 -0.2880718873526917
0.14554406833385977 -0.4276932539345815
0.1460507352552443 -0.5669741372459939
0.14673316951404922 -0.7058767541952121
0.14773439539929842 -0.8442269606740685
0.14934950836265432 -0.9817051840740968
0.15191824503989818 -1.1178581356819957
0.15573162494659626 -1.2520803818073043
0.16106062825542514 -1.3835662279795775
0.1681645863360427 -1.5112794617304446
0.17732469772757897 -1.6339447514049568
0.18888019869501915 -1.7500697824086229
0.20323261810443277 -1.8579392046850456
0.2207925449626946 -1.9555939884167897
0.24191139876096496 -2.040829061808269
0.2667732550242266 -2.1112433203594247
0.295264666953609 -2.1643839938697838
0.32684558949877723 -2.197995465930711
0.3604730499469699 -2.2102918531170257
0.39410051039516036 -2.1979954659306467
0.4256814329403226 -2.164383993869652
0.4541728448696959 -2.1112433203592333
0.47903470113294655 -2.0408290618080316
0.5001535549312046 -1.955593988416519
0.5177134817894538 -1.8579392046847503
0.5320659011988549 -1.75006978240831
0.5436214021662825 -1.6339447514046364
0.5527815135578068 -1.5112794617301268
0.5598854716384134 -1.3835662279792709
0.5652144749472325 -1.2520803818070165
0.569027854853923 -1.11785813568173
0.5715965915311612 -0.9817051840738578
0.5732117044945134 -0.8442269606738579
0.5742129303797608 -0.7058767541950342
0.5748953646385652 -0.5669741372458477
0.5754020315599495 -0.42769325393446855
0.5757205924218395 -0.2880718873526111
0.5758543885043994 -0.14801428136159983
0.5770848036184758 -0.005732574895072979
0.17905890263805002 -0.006519113519171814
0.17997062099131622 -0.14805167205225486
0.1800619264910521 -0.2880795877723234
0.18029678088070492 -0.4277272779259306
0.18070437982493368 -0.5670306563011142
0.18127334040755208 -0.7059578065955383
0.18208307052703743 -0.8443722148743679
0.18336339718549724 -0.9819920310773124
0.1854191411757125 -1.1183709616648865
0.1885314686112997 -1.2528871555292305
0.19292295339792495 -1.3847281685982757
0.1988026810072618 -1.5128563320329314
0.20639285045323374 -1.6360049633244946
0.21596611816382696 -1.7526985282125218
0.22785496211644898 -1.8612344413532305
0.24242443804795577 -1.9596508471682732
0.25999770337877465 -2.0457200263272446
0.28078053999063557 -2.1169924273240017
0.30476647218809 -2.170935398139074
0.3316017667826383 -2.205183292259824
0.3604730499469632 -2.2178295783399906
0.38934433311128613 -2.2051832922597576
0.4161796277058291 -2.17093539813894
0.44016555990327577 -2.116992427323808
0.4609483965151276 -2.045720026327004
0.4785216618459357 -1.9596508471680003
0.49309113777743196 -1.8612344413529325
0.5049799817300435 -1.752698528212206
0.5145532494406265 -1.6360049633241718
0.5221434188865884 -1.512856332032611
0.5280231464959161 -1.3847281685979669
0.5324146312825333 -1.252887155528941
0.5355269587181141 -1.1183709616646198
0.5375827027083248 -0.9819920310770723
0.5388630293667817 -0.8443722148741569
0.5396727594862658 -0.7059578065953602
0.5402417200688839 -0.5670306563009679
0.5406493190131124 -0.42772727792581766
0.5408841734027652 -0.2880795877722428
0.5409754789025011 -0.1480516720522071
0.5418871972557647 -0.00651911351916162
0.21413723711084331 -0.0071390661681888885
0.21480249604940754 -0.14808750260351095
0.21486476792368342 -0.28808545434224797
0.21502758294051713 -0.4277502202537127
0.21533720598621872 -0.5670755735547024
0.2157926047491124 -0.7060229268967294
0.21642877614047362 -0.8444786739325588
0.21740768250840364 -0.9821969507125975
0.21897580770072925 -1.1187510581265432
0.2213890275834994 -1.2535082860450577
0.22484893224526192 -1.385640771039883
0.22951105579005845 -1.5141073644765122
0.235541951254375 -1.6376477173489552
0.24314908957681863 -1.7548013042465895
0.252597397060466 -1.8638787956530964
0.26418991296900884 -1.962921945121589
0.2782238020328775 -2.0496872995341406
0.2949167991040964 -2.121692074187067
0.3143524756447098 -2.176349550704276
0.3363874181667267 -2.211204862825402
0.3604730499469564 -2.2242314633653733
0.38455868172718444 -2.2112048628253347
0.40659362424919665 -2.17634955070414
0.4260293007898038 -2.1216920741868712
0.44272229786101497 -2.049687299533898
0.4567561869248749 -1.9629219451213136
0.4683487028334092 -1.863878795652796
0.47779701031704824 -1.7548013042462722
0.485404148639484 -1.6376477173486301
0.4914350441037924 -1.5141073644761898
0.49609716764858164 -1.3856407710395724
0.4995570723103378 -1.2535082860447666
0.5019702921931029 -1.1187510581262752
0.503538417385425 -0.9821969507123567
0.504517323753353 -0.8444786739323475
0.5051534951447135 -0.7060229268965514
0.5056088939076068 -0.5670755735545562
0.5059185169533083 -0.42775022025359966
0.5060813319701418 -0.2880854543421674
0.5061436038444177 -0.14808750260346304
0.5068088627829801 -0.007139066168177449
0.24912703904553535 -0.007619045962215173
0.24960130270894615 -0.14812296662991864
0.24963975410451422 -0.2880900691405305
0.24973763785568295 -0.42776352274017476
0.24995194409272398 -0.5671081034615257
0.2502896597880114 -0.7060740289166703
0.2507675187035522 -0.8445542293273464
0.2514737475452311 -0.9823347259242912
0.25259296783165147 -1.1190098938156896
0.25433116719399823 -1.2539493725412811
0.25686698315895784 -1.3863091992943408
0.26032155656683825 -1.5150380850514173
0.2648087959201646 -1.6388798271718596
0.27047249690298225 -1.7563863884168949
0.2775071087409382 -1.8658814687197862
0.2861523204087493 -1.9654143031453275
0.29666428647451126 -2.052734443415987
0.3092611689160577 -2.1253391261222276
0.32410386622953347 -2.180613777529592
0.34125276074521665 -2.216045480358057
0.36047304994694934 -2.229491658104374
0.37969333914868075 -2.216045480357989
0.39684223366436033 -2.1806137775294547
0.41168493097783115 -2.1253391261220305
0.4242818134193713 -2.0527344434157433
0.43479377948512654 -1.9654143031450502
0.4434389911529312 -1.865881468719484
0.45047360299088096 -1.756386388416576
0.45613730397369295 -1.6388798271715328
0.4606245433270134 -1.5150380850510932
0.46407911673488833 -1.3863091992940288
0.4666149326998431 -1.253949372540989
0.4683531320621865 -1.1190098938154207
0.4694723523486045 -0.9823347259240499
0.470178581190282 -0.844554229327135
0.47065644010582236 -0.7060740289164921
0.4709941558011095 -0.5671081034613794
0.4712084620381504 -0.4277635227400617
0.47130634578931907 -0.2880900691404499
0.47134479718488703 -0.14812296662987068
0.4718190608482966 -0.007619045962202752
0.28404553011521777 -0.00798519624574221
0.28438000139051295 -0.14815889783761424
0.28439188592606085 -0.28809283590875856
0.28442958549376396 -0.4277682815381101
0.28455185740704275 -0.5671281398971282
0.28476863288342014 -0.70611009083302
0.28508827657504926 -0.8446070406285736
0.2855530822490537 -0.9824199731026297
0.2862654305969114 -1.1191657055811763
0.28737166558394883 -1.2542242778218144
0.28900932720105793 -1.3867425587578945
0.2912732801117977 -1.5156574443089297
0.2942341347592694 -1.6397112335873196
0.2979805400673989 -1.7574655622867137
0.3026369280011641 -1.8672552628679582
0.30837200840822576 -1.9671397326876154
0.3153892459912665 -2.054870005407177
0.323904310528255 -2.127934284304633
0.33411578994227675 -2.1837138814725
0.34625847975433544 -2.219679813720095
0.3604730499469419 -2.2335932471261857
0.3746876201395477 -2.2196798137200267
0.38683030995160406 -2.183713881472362
0.39704178936562196 -2.127934284304435
0.4055568539026061 -2.054870005406932
0.41257409148564234 -1.9671397326873366
0.41830917189269967 -1.8672552628676549
0.422965559826461 -1.7574655622863933
0.4267119651345869 -1.639711233586992
0.42967281978205496 -1.5156574443086042
0.4319367726927911 -1.3867425587575817
0.43357443430989706 -1.2542242778215216
0.4346806692969326 -1.119165705580907
0.4353930176447889 -0.9824199731023883
0.4358578233187926 -0.8446070406283622
0.4361774670104215 -0.7061100908328419
0.43639424248679864 -0.5671281398969819
0.4365165144000774 -0.427768281537997
0.43655421396778044 -0.2880928359086779
0.4365660985033282 -0.14815889783756633
0.4369005697786227 -0.007985196245729078
0.3189040257551944 -0.008265045835686819
0.31914214097181415 -0.1481963685678325
0.3191263561414719 -0.28809258530325516
0.3191070040304776 -0.4277653439532589
0.3191403547268132 -0.5671359148408649
0.3192352880687245 -0.7061298998953113
0.3193916633730154 -0.8446388262309029
0.31962507240990756 -0.9824681394377752
0.3199749508761458 -1.119243339390427
0.32050814621001833 -1.2543583958263156
0.3212967670902637 -1.3869618069306369
0.3224042140448409 -1.5159830469840927
0.32386319308416545 -1.6401589156798249
0.32571808666439783 -1.7580573918495128
0.3280326688040178 -1.8680203986215598
0.33089871159736145 -1.9681177365258475
0.3344545639364252 -2.056109043858903
0.3388978379346758 -2.1294887087986707
0.34448227304035933 -2.1856426803958517
0.35149852236791806 -2.2220715399664037
0.3604730499469342 -2.2365030877981438
0.36944757752595037 -2.2220715399663353
0.3764638268535079 -2.1856426803957136
0.38204826195918906 -2.129488708798472
0.3864915359574372 -2.0561090438586573
0.39004738829649865 -1.968117736525568
0.3929134310898402 -1.8680203986212556
0.39522801322945866 -1.758057391849192
0.3970829068096899 -1.6401589156794962
0.3985418858490129 -1.5159830469837667
0.3996493328035885 -1.3869618069303236
0.4004379536838327 -1.254358395826022
0.40097114901770453 -1.1192433393901575
0.4013210274839422 -0.9824681394375339
0.40155443652083406 -0.8446388262306915
0.40171081182512497 -0.706129899895133
0.4018057451670361 -0.5671359148407186
0.4018390958633718 -0.4277653439531458
0.4018197437523774 -0.2880925853031745
0.40180395892203513 -0.1481963685677846
0.4020420741386544 -0.008265045835673212
0.35371814906041427 -0.008480453904407345
0.35388841406788374 -0.1482352798780484
0.3538475880300506 -0.2880887715033331
0.35377405545211016 -0.4277552322111887
0.3537215133491919 -0.567131726906099
0.3536953217692218 -0.7061331510150626
0.35368585013750026 -0.8446486248618086
0.35368362664174785 -0.9824841215972181
0.35368343978281547 -1.1192677617081435
0.3536837414093091 -1.2543966316796995
0.3536839079881766 -1.3870193726230406
0.3536843130044093 -1.5160672519251974
0.35368233944412286 -1.6402751644198459
0.35367625977189243 -1.7582113327106705
0.3536661936684827 -1.868224848988439
0.35367140213902953 -1.9683932999598444
0.35376850000149945 -2.05649147950966
0.35414310172629043 -2.1300364130977867
0.35510892456578574 -2.1864327357126023
0.35703553624745943 -2.2231990821455785
0.3604730499469263 -2.2381759662679377
0.3639105636463936 -2.2231990821455097
0.365837175328067 -2.1864327357124638
0.3668029981675615 -2.1300364130975877
0.36717759989235244 -2.056491479509414
0.3672746977548228 -1.9683932999595648
0.36727990622536993 -1.8682248489881348
0.3672698401219608 -1.7582113327103497
0.3672637604497313 -1.6402751644195173
0.3672617868894458 -1.5160672519248715
0.3672621919056791 -1.3870193726227273
0.36726235848454725 -1.254396631679406
0.3672626601110413 -1.1192677617078741
0.3672624732521091 -0.9824841215969764
0.36726024975635674 -0.8446486248615972
0.36725077812463536 -0.7061331510148843
0.3672245865446654 -0.5671317269059527
0.36717204444174717 -0.4277552322110756
0.3670985118638068 -0.2880887715032524
0.36705768582597365 -0.1482352798780005
0.3672279508334429 -0.008480453904393448
0.3884993147267366 -0.00864917573094616
0.3886231630525494 -0.1482731463968323
0.38855949446728805 -0.28808172330871773
0.38843519472223453 -0.4277382465232499
0.3882997583257054 -0.5671160347098351
0.38815460081595493 -0.70611994948915
0.3879802877324572 -0.8446360567330703
0.38774199449832064 -0.9824676493842139
0.3873919024730209 -1.1192434507669955
0.38685932499077785 -1.254358439813531
0.38607167545643567 -1.3869621471990787
0.3849646097423898 -1.5159826786115957
0.3835015826301309 -1.6401573488877923
0.3816343009076774 -1.758053840750221
0.37929965251025966 -1.868017542076167
0.3764450433802659 -1.968134051863864
0.3730765614608213 -2.0561986442636893
0.36932804821830334 -2.12976012244382
0.36551288435839485 -2.1862470856418947
0.36213905852967393 -2.223172292513947
0.3604730499469186 -2.23872707229233
0.358807041364163 -2.2231722925138784
0.355433215535442 -2.186247085641756
0.351618051675535 -2.1297601224436216
0.34786953843302 -2.0561986442634437
0.34450105651357854 -1.9681340518635848
0.34164644738358746 -1.8680175420758633
0.33931179898617236 -1.7580538407499005
0.33744451726372193 -1.6401573488874641
0.33598149015146656 -1.5159826786112702
0.33487442443742355 -1.3869621471987659
0.33408677490308375 -1.2543584398132377
0.3335541974208423 -1.1192434507667266
0.33320410539554346 -0.9824676493839722
0.3329658121614073 -0.8446360567328589
0.33279149907791006 -0.7061199494889717
0.33264634156815975 -0.5671160347096887
0.33251090517163073 -0.4277382465231368
0.33238660542657744 -0.28808172330863696
0.3323229368413161 -0.1482731463967844
0.33244678516712883 -0.008649175730932053
0.4232635888839412 -0.008779390242928089
0.42335118047021525 -0.14830816833454571
0.42326667819256536 -0.2880715900027063
0.4230948535708282 -0.4277147642250423
0.4228797898666299 -0.5670894334170797
0.422618803935249 -0.7060906217025792
0.42228249736330287 -0.8446015472791512
0.4218138138355251 -0.9824190275546834
0.42110126552473653 -1.1191659223360004
0.4199961796008967 -1.2542245614384333
0.4183593605833891 -1.3867429819873023
0.4160952056121986 -1.51565663304371
0.4131311079858402 -1.6397077315595872
0.4093739959278843 -1.7574577579830732
0.4046987979874681 -1.8672489980672138
0.39897063646385583 -1.9671724135110185
0.39211697616167623 -2.055048065714178
0.3842200789279571 -2.128469076426494
0.37560968642197917 -2.1849216939313516
0.36713222518410715 -2.22207955333975
0.36047304994691093 -2.238307970422529
0.3538138747097146 -2.222079553339681
0.3453364134718434 -2.1849216939312135
0.3367260209658685 -2.128469076426296
0.3288291237321544 -2.0550480657139336
0.3219754634299806 -1.9671724135107402
0.31624730190637323 -1.8672489980669107
0.31157210396596174 -1.757457757982754
0.3078149919080114 -1.6397077315592603
0.3048508942816585 -1.5156566330433854
0.302586739310473 -1.38674298198699
0.30094992029296985 -1.2542245614381407
0.29984483436913295 -1.1191659223357315
0.29913228605834613 -0.9824190275544417
0.2986636025305693 -0.8446015472789398
0.29832729595862373 -0.7060906217024009
0.29806631002724315 -0.5670894334169334
0.2978512463230452 -0.4277147642249292
0.2976794217013081 -0.2880715900026256
0.29759491942365834 -0.14830816833449784
0.29768251100993237 -0.008779390242913816
0.458022311264852 -0.008876630380413482
0.4580784525854488 -0.14833876641960222
0.4579740319181813 -0.2880584159656273
0.45775758673058653 -0.42768522864711495
0.45746649953116236 -0.5670524770717977
0.4570936250046699 -0.7060461553035339
0.45660249945852666 -0.8445459804865496
0.45589242028278487 -0.9823333756483383
0.45477406938345105 -1.1190103891226222
0.453037208758206 -1.2539499543618067
0.45050172816025424 -1.3863095693974503
0.4470465004711393 -1.515036858063012
0.44255746016306885 -1.638874912029407
0.4368880956735244 -1.756375284416339
0.42984166962422216 -1.865872067702946
0.4211982716348253 -1.9654588762769647
0.41079539335333143 -2.0529836790869034
0.3986620820113199 -2.126096874998134
0.3852403241674509 -2.18240253769049
0.37170285344703097 -2.2197697345783807
0.36047304994690343 -2.2369284862395418
0.34924324644677623 -2.219769734578312
0.3357057757263581 -2.182402537690353
0.3222840178824935 -2.1260968749979368
0.31015070654048893 -2.0529836790866605
0.29974782825900304 -1.9654588762766885
0.29110443026961325 -1.8658720677026437
0.28405800422031796 -1.756375284416021
0.2783886397307813 -1.6388749120290815
0.27389959942271846 -1.515036858062689
0.2704443717336106 -1.3863095693971395
0.267908891135665 -1.253949954361515
0.2661720305104243 -1.1190103891223535
0.26505367961109344 -0.9823333756480969
0.26434360043535315 -0.8445459804863382
0.26385247488921076 -0.7060461553033557
0.26347960036271867 -0.5670524770716515
0.26318851316329483 -0.4276852286470019
0.2629720679757003 -0.2880584159655466
0.26286764730843293 -0.14833876641955435
0.2629237886290297 -0.00887663038039907
0.4927828664344358 -0.008945838409594028
0.4928109057665322 -0.14836369423413195
0.4926865946621988 -0.2880421030622248
0.4924280319861818 -0.4276500416447116
0.4920642309778147 -0.5670060063537286
0.4915862401845788 -0.7059878422008107
0.4909390607146732 -0.8444676191097783
0.4899586170369845 -0.9821954844799762
0.48839198455468535 -1.1187520048029935
0.4859798203202682 -1.2535090739692218
0.4825195420354434 -1.385640923752685
0.4778565031206624 -1.5141057918303455
0.4718256491333071 -1.6376423230313613
0.46422087756887603 -1.7547892589573946
0.4547748392148945 -1.863868125316871
0.4431816340017662 -1.962971622360851
0.4291807428886417 -2.0499776547576767
0.41276845820145547 -2.122621965317496
0.39452425298262583 -2.178676058335287
0.3760321018585889 -2.2162841652984913
0.36047304994689616 -2.2346321557245874
0.34491399803520406 -2.2162841652984224
0.32642184691117015 -2.1786760583351503
0.3081776416923464 -2.1226219653173
0.2917653570051687 -2.049977654757436
0.27776446589205384 -1.9629716223605767
0.266171260678935 -1.863868125316571
0.2567252223249627 -1.754789258957079
0.24912045076054146 -1.637642323031038
0.24308959677319572 -1.5141057918300243
0.23842655785842382 -1.385640923752376
0.23496627957360694 -1.2535090739689314
0.23255411533919557 -1.1187520048027257
0.23098748285690057 -0.9821954844797351
0.23000703917921425 -0.8444676191095672
0.22935985970930967 -0.7059878422006326
0.22888186891607432 -0.5670060063535823
0.2285180679077076 -0.42765004164459863
0.22825950523169092 -0.28804210306214406
0.22813519412735764 -0.14836369423408408
0.228163233459454 -0.008945838409579519
0.5275505948998399 -0.008991673987789805
0.5275537618745442 -0.14838216583012745
0.5274094858837263 -0.28802245238966007
0.5271108998558953 -0.4276096132420716
0.5266783218703587 -0.5669509322717282
0.5261011223770579 -0.7059170240145708
0.5252842971659278 -0.844358838066959
0.5240037235865698 -0.9819908055035704
0.5219497232919484 -1.1183723726298482
0.5188376598214571 -1.2528879674633888
0.5144452660068893 -1.3847279943537418
0.5085645035762608 -1.5128545175208767
0.5009765100082155 -1.6360002418436657
0.49141492019993904 -1.7526888887934362
0.4795467708239201 -1.8612260699380945
0.4649804970432253 -1.959698619161214
0.4473738674982909 -2.0460195584308605
0.42669355716825635 -2.118037325689182
0.40365998357830724 -2.1737479992295774
0.38029721440559827 -2.2116512678922313
0.360473049946889 -2.231437435413797
0.3406488854881809 -2.211651267892163
0.31728611631547615 -2.173747999229442
0.2942525427255342 -2.118037325688989
0.27357223239550965 -2.046019558430622
0.2559656028505867 -1.959698619160942
0.24139932906990338 -1.861226069937797
0.229531179693896 -1.752688888793123
0.21996958988563148 -1.636000241843345
0.21238159631759781 -1.512854517520558
0.20650083388698012 -1.3847279943534352
0.2021084400724219 -1.2528879674631002
0.19899637660193786 -1.1183723726295818
0.1969423763073219 -0.9819908055033302
0.19566180272796715 -0.844358838066748
0.1948449775168386 -0.7059170240143928
0.19426777802353834 -0.5669509322715821
0.1938352000380021 -0.4276096132419587
0.19353661401017147 -0.2880224523895794
0.19339233801935377 -0.1483821658300796
0.193395504994058 -0.008991673987775234
0.5623293895516687 -0.009018701087857463
0.562311442141801 -0.14839385262429014
0.562147776645916 -0.28799928283910037
0.5618109575461486 -0.4275643123691919
0.5613134672787805 -0.5668883910687504
0.5606356712151561 -0.7058313241237859
0.5596334803255832 -0.8442120096497875
0.5580197174976215 -0.9817044386594093
0.5554515820178544 -1.1178597901413794
0.5516375700419034 -1.2520810358684589
0.5463072669486473 -1.3835656712214557
0.5392026278499138 -1.5112776020525216
0.5300471894469965 -1.633941888663361
0.5185115966207895 -1.7500659320514649
0.5041969450367171 -1.8579376919281156
0.48665652261907455 -1.9556371880368781
0.4654773549032975 -2.0411131531458397
0.4405903683739091 -2.112350716001903
0.41283982276673337 -2.167629579577014
0.384630249797251 -2.2058744698537622
0.36047304994688184 -2.2273296846513784
0.3363158500965145 -2.2058744698536947
0.30810627712703753 -2.167629579576881
0.28035573151987037 -2.1123507160017114
0.2554687449904935 -2.041113153145604
0.23428957727472957 -1.9556371880366092
0.21674915485710072 -1.857937691927821
0.20243450327304197 -1.7500659320511545
0.1908989104468488 -1.6339418886630435
0.18174347204394545 -1.5112776020522056
0.17463883294522456 -1.3835656712211517
0.16930852985197956 -1.2520810358681722
0.16549451787603703 -1.1178597901411143
0.16292638239627655 -0.98170443865917
0.16131261956831905 -0.8442120096495771
0.16031042867874815 -0.705831324123608
0.15963263261512461 -0.5668883910686044
0.15913514234775697 -0.427564312369079
0.1587983232479899 -0.2879992828390197
0.15863465775210497 -0.1483938526242423
0.1586167103422374 -0.009018701087842855
0.5971217713585973 -0.009031523794513475
0.5970875649443004 -0.14839886038547329
0.5969064713649698 -0.2879725669554344
0.5965333631062419 -0.42751445531467364
0.5959730185614404 -0.5668192417878963
0.5951892642193467 -0.7057276523398747
0.5939778098933028 -0.8440161675742821
0.5919999809362123 -0.9813242059613886
0.5889177562893074 -1.1172106310460677
0.584400041447103 -1.2510851199670467
0.5781316039244079 -1.3821508824970636
0.5698018336306889 -1.5093716909070356
0.559072242375731 -1.6314623816509637
0.5455482959179639 -1.746913508327767
0.5287741406682787 -1.8539978801047807
0.5082597626981306 -1.9507906277153892
0.4835766562420421 -2.035276153781076
0.45462001008362185 -2.1055867767359935
0.42225593666151473 -2.1603306792341495
0.389155825001612 -2.198931492447083
0.36047304994687496 -2.222264183239774
0.3317902748921398 -2.198931492447017
0.29869016323224346 -2.1603306792340176
0.26632608981014655 -2.1055867767358043
0.23736944365173965 -2.0352761537808437
0.2126863371956661 -1.9507906277151235
0.19217195922553343 -1.8539978801044896
0.17539780397586394 -1.7469135083274596
0.16187385751811265 -1.63146238165065
0.15114426626317068 -1.509371690906723
0.14281449596946635 -1.3821508824967625
0.13654605844678366 -1.2510851199667627
0.13202834360458932 -1.1172106310458045
0.128946118957692 -0.9813242059611506
0.12696829000060658 -0.8440161675740723
0.12575683567456544 -0.7057276523396969
0.12497308133247284 -0.5668192417877503
0.12441273678767166 -0.4275144553145608
0.12403962852894412 -0.28797256695535367
0.12385853494961363 -0.1483988603854255
0.12382432853531676 -0.009031523794498845
0.6319286394476727 -0.009034851110116905
0.6318848672016406 -0.14839779086719435
0.6316908648475692 -0.28794251331810744
0.6312833139113303 -0.4274604274721998
0.6306597754720488 -0.5667428646093623
0.6297584220618923 -0.7056009610589892
0.6283069648698952 -0.843760015673337
0.6259599507794559 -0.9808468198637607
0.6223622870318417 -1.1164226730346554
0.617144360174859 -1.2498987341696481
0.609942733069658 -1.3804826201306946
0.6003899555293443 -1.5071347809646476
0.5880853874336287 -1.6285585079212532
0.5725676367025622 -1.7432270912482868
0.5533202504360424 -1.849401965843654
0.5298396754358089 -1.9451648287556822
0.501735631626732 -2.02854042166238
0.46892043942853373 -2.0977897215272208
0.43211143515695977 -2.151862599950192
0.394037685945408 -2.1907737100030436
0.3604730499468678 -2.2161582992108415
0.32690841394833 -2.1907737100029783
0.2888346647367855 -2.151862599950063
0.25202566046522346 -2.097789721527035
0.21921046826704044 -2.028540421662152
0.19110642445798048 -1.9451648287554202
0.1676258494577645 -1.8494019658433671
0.14837846319126222 -1.7432270912479835
0.13286071246021386 -1.6285585079209435
0.12055614436451617 -1.5071347809643387
0.11100336682421881 -1.380482620130397
0.10380173971903145 -1.2498987341693668
0.09858381286206012 -1.1164226730343942
0.09498614911445462 -0.9808468198635242
0.09263913502402131 -0.8437600156731282
0.09118767783202766 -0.7056009610588118
0.09028632442187239 -0.5667428646092164
0.08966278598259139 -0.427460427472087
0.08925523504635285 -0.2879425133180267
0.08906123269228165 -0.1483977908671465
0.08901746044624949 -0.009034851110102294
0.6667486013541527 -0.009033483350205469
0.6667051385153729 -0.14839192535626816
0.6665070043853506 -0.2879097786085243
0.6660664869979382 -0.4274022360194109
0.6653745569129662 -0.5666578354481322
0.6643338744252615 -0.70544155975616
0.6626255011569137 -0.8434372705350848
0.6599078119559726 -0.9802705383977947
0.6557988514165081 -1.1154950527134884
0.6498891439028397 -1.2485222820179074
0.6417638228200219 -1.3785609959865976
0.6309960855128756 -1.504566521161102
0.6171184697722606 -1.6252283920108104
0.5996033168209709 -1.7390038019337468
0.5778909723729346 -1.8441493114421477
0.5514607580437807 -1.9387655302524374
0.5199860571031448 -2.020935274566998
0.48351865113962683 -2.089034128842163
0.4426862101167395 -2.1422643942744513
0.3995545848812617 -2.181317222009928
0.3604730499468603 -2.208865444474543
0.321391515012462 -2.181317222009864
0.27825988977699256 -2.1422643942743247
0.23742744875411895 -2.0890341288419805
0.2009600427906182 -2.0209352745667735
0.16948534185000136 -1.9387655302521796
0.14305512752086713 -1.844149311441865
0.12134278307285035 -1.739003801933448
0.10382763012158079 -1.6252283920105055
0.08995001438098588 -1.5045665211607975
0.07918227707385746 -1.3785609959863037
0.07105695599105478 -1.2485222820176294
0.06514724847739889 -1.1154950527132297
0.061038287937944025 -0.9802705383975598
0.058320598737009954 -0.843437270534877
0.05661222546866604 -0.7054415597559832
0.05557154298096306 -0.5666578354479863
0.054879612895991484 -0.4274022360192981
0.05443909550857959 -0.2879097786084437
0.05424096137855744 -0.14839192535622028
0.054197498539777754 -0.00903348335019086
0.7015766293981345 -0.009032138878758629
0.701549201989253 -0.14838374080862013
0.7013626683692968 -0.2878755392463377
0.7008891521548957 -0.4273395032483525
0.7001149040321093 -0.5665596267638108
0.6989113369408724 -0.7052429990327392
0.6969397115234179 -0.8430453174100674
0.693852304964819 -0.9795945061220981
0.6892408209442411 -1.1144287546854716
0.6826522833778901 -1.2469576073055288
0.6736188377685689 -1.3763879852094838
0.6616470050194353 -1.5016670366394564
0.64619961745608 -1.6214710095511582
0.6266997839085819 -1.734244821780192
0.6025411865193804 -1.838243279561099
0.5731916289131019 -1.9315987199854632
0.5383816050115448 -2.0124760275411777
0.49833629460967976 -2.0793828704899777
0.4539517485891125 -2.1317000647449897
0.406694420558888 -2.1704838676076377
0.3604730499468527 -2.2
0.3142516793348207 -2.170483867607575
0.26699435130460547 -2.131700064744866
0.22260980528405425 -2.0793828704897996
0.18256449488220897 -2.012476027540958
0.1477544709806729 -1.9315987199852105
0.11840491337441614 -1.8382432795608212
0.09424631598523657 -1.7342448217798982
0.07474648243776057 -1.6214710095508582
0.05929909487442724 -1.501667036639157
0.047327262125313324 -1.376387985209194
0.03829381651600858 -1.246957607305254
0.03170527894967092 -1.1144287546852156
0.027093794929104065 -0.979594506121865
0.024006388370512673 -0.8430453174098609
0.022034762953062774 -0.705242999032563
0.020831195861827898 -0.5665596267636651
0.020056947739042364 -0.4273395032482397
0.019583431524641603 -0.2878755392462571
0.019396897904685687 -0.14838374080857225
0.019369470495804238 -0.009032138878744022
SCALARS Stress float 6
LOOKUP_TABLE default
-1025.04930798535 -1808.56217481384 -1339.0183630307617 -10.456989387869394 0.0 0.0
1198.9450196588639 693.9990361545887 851.9712940631155 -24.899814810547863 0.0 0.0
522.6950862035675 93.23514080688062 187.16950487743273 -35.679435972620205 0.0 0.0
446.47554394697534 16.296436969746107 139.44094125745522 -3.6281161877880503 0.0 0.0
551.1035256940706 48.20778301752196 195.16710234987573 -0.07728630580342521 0.0 0.0
634.4584965315898 80.24268444437203 278.8945434638652 0.616775565811718 0.0 0.0
730.8855150200864 105.73331164768487 369.55128557158065 0.14272295119191147 0.0 0.0
824.6468403555695 146.95574205132576 459.53734156168196 -0.6203021399108768 0.0 0.0
922.88280401297 199.17696948954296 545.5357799833689 -1.6258688544907751 0.0 0.0
1033.41733609144 267.954934540769 638.9999410826056 -2.7720279619071615 0.0 0.0
1160.605388081087 356.48113537013865 747.8546249002121 -3.9561344810195878 0.0 0.0
1304.0772696688143 464.74871297990904 873.6723718200336 -5.074890999209005 0.0 0.0
1459.9056004861832 586.5693352398486 1012.0046592260453 -5.790131459875733 0.0 0.0
1623.1968806170726 716.9984227381786 1158.2931007323111 -6.396416555278984 0.0 0.0
1786.1443132950099 848.269939288009 1304.7921426995208 -6.854557649172927 0.0 0.0
1940.4218625702945 972.4889055673706 1443.4462104417685 -7.136977999128803 0.0 0.0
2078.475386786134 1083.0681292421482 1567.2681394361389 -7.089031368705556 0.0 0.0
2192.554254736459 1173.3600200014564 1669.1374573150804 -6.532898937585978 0.0 0.0
2278.1215881573376 1239.923157295083 1745.0319229076872 -5.415280022675448 0.0 0.0
2325.626252039875 1274.479380644359 1786.0555665507197 -5.003905833787837 0.0 0.0
2322.0261101539836 1268.0568719548821 1781.3786647203926 3.958966487971338e-11 0.0 0.0
2325.6262520389414 1274.4793806434482 1786.0555665498177 5.003905833729403 0.0 0.0
2278.121588155555 1239.9231572933143 1745.0319229062807 5.415280022649611 0.0 0.0
2192.554254737218 1173.3600200023318 1669.1374573154078 6.532898937556601 0.0 0.0
2078.475386784657 1083.0681292407285 1567.2681394349224 7.089031368726323 0.0 0.0
1940.4218625697042 972.4889055668968 1443.4462104411273 7.136977999143289 0.0 0.0
1786.144313294177 848.2699392872988 1304.7921426987773 6.854557649141263 0.0 0.0
1623.1968806162413 716.9984227374969 1158.2931007315944 6.396416555352955 0.0 0.0
1459.9056004848105 586.5693352386303 1012.0046592249365 5.790131459859403 0.0 0.0
1304.077269668444 464.74871297974835 873.6723718196744 5.074890999230552 0.0 0.0
1160.60538808068 356.4811353699554 747.8546248998362 3.9561344811055346 0.0 0.0
1033.4173360902234 267.9549345397507 638.9999410816915 2.772027961901081 0.0 0.0
922.882804013637 199.1769694904887 545.5357799836181 1.625868854500757 0.0 0.0
824.6468403547732 146.95574205074846 459.53734156104036 0.620302139896797 0.0 0.0
730.8855150202814 105.73331164823156 369.55128557150834 -0.14272295121025103 0.0 0.0
634.4584965304842 80.24268444340152 278.8945434630282 -0.6167755657865577 0.0 0.0
551.1035256939299 48.20778301769501 195.16710234976838 0.07728630583140372 0.0 0.0
446.47554394675706 16.29643696974276 139.44094125739844 3.628116187728067 0.0 0.0
522.6950862031256 93.23514080649548 187.1695048771736 35.67943597251331 0.0 0.0
1198.9450196585287 693.9990361542592 851.9712940626054 24.89981481057449 0.0 0.0
-1025.0493079827254 -1808.5621748112583 -1339.0183630281863 10.456989387156062 0.0 0.0
-1306.3437880123877 -2058.6244326268024 -1567.3071452877475 -9.2110676935641 0.0 0.0
810.867544592769 389.1951724308619 529.8832638179397 -36.97564038545658 0.0 0.0
360.9979648953568 38.00453616629355 118.60850527287162 -28.76539421315898 0.0 0.0
395.5771500841155 1.6580296092510243 119.24865661764241 -16.488108239626314 0.0 0.0
491.5376731840863 20.21653101476622 161.85163416873127 -15.03886336126402 0.0 0.0
577.7497720004461 27.063149457721043 225.7832540080456 -18.549163663368972 0.0 0.0
648.0773233023087 37.34475231432354 299.2968434321416 -20.8266618348121 0.0 0.0
718.0216277196258 52.71688701998676 366.0531228552917 -21.694431942500064 0.0 0.0
783.9808546530664 71.9074542015619 420.5445267765623 -21.917631779035887 0.0 0.0
850.8444006126294 97.18723788424691 471.04694301187584 -22.03043941012079 0.0 0.0
920.5525886558398 128.89091739221453 523.1558336317463 -21.917709354343938 0.0 0.0
992.8254730610753 165.2397902992932 577.8514605308627 -21.641231842487482 0.0 0.0
1065.3435782083302 205.05625675158788 634.0392927610146 -21.0984160489434 0.0 0.0
1135.6368100669395 242.79031139750916 687.9579995276309 -20.48039775548579 0.0 0.0
1197.3405290298672 273.18977764541273 733.8908288731132 -19.904638748775383 0.0 0.0
1245.4546409912623 291.6119226382724 767.0447663759138 -19.173530842984984 0.0 0.0
1276.7136658945087 295.601059713888 784.5953141222403 -17.99883863415409 0.0 0.0
1291.4658516155655 286.57836637190684 787.4543253943834 -16.131602121616375 0.0 0.0
1290.5725355768732 266.6282616331128 777.1673725972203 -13.572935042875677 0.0 0.0
1259.9623605165625 223.0902829203824 740.6895890842455 -11.2721927737708 0.0 0.0
1203.9743939803043 164.4950987801557 684.4351649291876 3.986322383298102e-11 0.0 0.0
1259.9623605156314 223.09028291946345 740.6895890835274 11.272192773728502 0.0 0.0
1290.5725355762547 266.62826163256125 777.1673725967678 13.572935043000797 0.0 0.0
1291.4658516154007 286.57836637178684 787.4543253942369 16.13160212168999 0.0 0.0
1276.713665894266 295.6010597137232 784.5953141220366 17.998838634125505 0.0 0.0
1245.454640991435 291.6119226385614 767.0447663759916 19.173530843026693 0.0 0.0
1197.3405290293263 273.1897776449772 733.8908288727062 19.904638748716657 0.0 0.0
1135.6368100665218 242.79031139724339 687.957999527306 20.480397755496124 0.0 0.0
1065.3435782079007 205.05625675131986 634.039292760688 21.098416048918338 0.0 0.0
992.8254730608444 165.23979029926357 577.851460530727 21.641231842491777 0.0 0.0
920.5525886557634 128.8909173923572 523.1558336316651 21.917709354407364 0.0 0.0
850.8444006118584 97.18723788368813 471.04694301134583 22.03043941011034 0.0 0.0
783.9808546531403 71.90745420187108 420.54452677653876 21.91763177905618 0.0 0.0
718.0216277192021 52.71688701980943 366.0531228549259 21.69443194250578 0.0 0.0
648.0773233024328 37.34475231475735 299.2968434320653 20.82666183473286 0.0 0.0
577.749771999504 27.063149456950395 225.78325400737435 18.549163663336557 0.0 0.0
491.5376731837969 20.216531014797898 161.8516341685935 15.038863361326143 0.0 0.0
395.5771500840104 1.6580296093879805 119.24865661766208 16.488108239593107 0.0 0.0
360.99796489519633 38.004536166052254 118.60850527275589 28.765394213054222 0.0 0.0
810.8675445923021 389.1951724304893 529.8832638173817 36.97564038544864 0.0 0.0
-1306.3437880104846 -2058.624432624788 -1567.3071452857037 9.211067693009827 0.0 0.0
-1069.6586020521734 -1787.7586957502122 -1303.094165904133 -48.372080088462624 0.0 0.0
613.0416458930672 296.5850555783827 389.25531101069 -101.8352505502695 0.0 0.0
258.28656515868767 45.72501891665115 91.2034095581248 -29.7694766469648 0.0 0.0
337.8197241220513 -0.8850939802944621 101.09959430827456 -36.48524044837655 0.0 0.0
445.2463003668558 13.106371653404528 140.08431571813622 -37.11324764201744 0.0 0.0
546.0889020231401 23.45365741914567 199.78560798295615 -36.72854776280057 0.0 0.0
619.8026764546914 35.36575553309814 274.95263049821995 -39.44766531206509 0.0 0.0
691.866972432021 46.840499284911616 343.64692447095626 -40.967269898525956 0.0 0.0
756.7924114081089 63.764328565870755 399.79613994279407 -41.61446241405927 0.0 0.0
820.8233009057423 85.48474526553346 448.7614338092079 -41.90749332904595 0.0 0.0
886.5948174561581 113.38556344526067 497.6776402799063 -41.690540270834745 0.0 0.0
954.4162280520695 146.68857100079393 548.866665336407 -40.86657135069907 0.0 0.0
1023.6884985127822 182.20176381650526 601.3869249180586 -39.780527128218665 0.0 0.0
1089.4254111562902 216.83022365242283 651.5310624601238 -38.5868623193105 0.0 0.0
1147.9704323418864 244.45308196359053 694.5040214145125 -37.42491823166196 0.0 0.0
1194.0171057723528 261.13881423301143 725.7587605433481 -36.00213504943651 0.0 0.0
1225.4756812953924 265.4897725710301 743.6024222812329 -33.80099791212923 0.0 0.0
1241.0696988854706 257.26995195491975 747.323262364552 -30.514867772365704 0.0 0.0
1236.3980086216814 233.36098135151929 733.3017980282912 -26.17335301039168 0.0 0.0
1216.8621393761987 200.85583657772787 707.6508662931135 -20.75530259441328 0.0 0.0
1146.011227044165 127.6556164106438 637.0137106149967 -4.814548759668469e-11 0.0 0.0
1216.8621393760702 200.85583657764712 707.6508662931126 20.75530259440302 0.0 0.0
1236.3980086215722 233.36098135144817 733.3017980282483 26.173353010459028 0.0 0.0
1241.0696988844165 257.26995195393545 747.323262363838 30.51486777243437 0.0 0.0
1225.475681294939 265.4897725706394 743.6024222809058 33.80099791215674 0.0 0.0
1194.0171057730354 261.1388142338113 725.7587605438224 36.00213504948681 0.0 0.0
1147.9704323411506 244.45308196298046 694.5040214139627 37.42491823167751 0.0 0.0
1089.4254111563139 216.83022365260945 651.5310624600944 38.58686231941238 0.0 0.0
1023.6884985127931 182.2017638166666 601.3869249180215 39.780527128173844 0.0 0.0
954.4162280518603 146.68857100079308 548.8666653362932 40.866571350729956 0.0 0.0
886.5948174558531 113.38556344517741 497.67764027965313 41.69054027093944 0.0 0.0
820.8233009053354 85.48474526536609 448.7614338089148 41.90749332913336 0.0 0.0
756.792411407607 63.764328565583405 399.7961399424034 41.61446241403539 0.0 0.0
691.8669724318273 46.84049928497845 343.6469244707179 40.96726989844884 0.0 0.0
619.802676454433 35.365755533119085 274.9526304978968 39.447665311919266 0.0 0.0
546.0889020225719 23.45365741881477 199.78560798252536 36.728547762694376 0.0 0.0
445.24630036641463 13.106371653234802 140.08431571794515 37.11324764203201 0.0 0.0
337.81972412203817 -0.885093980080609 101.09959430833537 36.48524044831606 0.0 0.0
258.2865651586069 45.72501891649615 91.20340955805408 29.769476646865712 0.0 0.0
613.0416458925293 296.58505557810577 389.2553110101694 101.83525055016214 0.0 0.0
-1069.6586020503712 -1787.7586957483177 -1303.0941659021557 48.37208008815859 0.0 0.0
-862.8722319913185 -1549.9985047460705 -1071.584299333153 -62.19844257640504 0.0 0.0
459.64709475855494 202.5893341469282 276.05664949251445 -143.4494596901078 0.0 0.0
190.54504695343405 44.95111014505639 70.64884712954714 -52.0408418382264 0.0 0.0
282.4662773993385 3.8339892168633956 85.89263612500194 -55.74532658122296 0.0 0.0
391.0459636196838 5.727913276146966 118.68056670296217 -60.76620595049042 0.0 0.0
499.7712389525545 18.906040543403616 171.74023730801417 -56.907583742538854 0.0 0.0
590.3351819933828 30.550387801010018 245.82892005855473 -59.57034214057455 0.0 0.0
660.5732817986773 41.25079278832183 316.9111519187948 -60.59596672210181 0.0 0.0
725.5785806993113 55.67782441427511 375.5968536776809 -61.158872111720974 0.0 0.0
787.1489796700525 74.23273726627426 424.1233055928258 -61.31721934522163 0.0 0.0
848.7205643840297 98.21003175638593 470.0348308861699 -60.73241122842893 0.0 0.0
912.554263364122 127.11449650829758 517.4328942861672 -59.44541560348807 0.0 0.0
977.3261346012742 159.82711948204314 566.4894334991676 -57.75010124831502 0.0 0.0
1039.5077411300217 189.75977379775972 612.5791312884691 -56.165777532059664 0.0 0.0
1094.3489944509865 214.53403316764832 652.2952778138042 -54.5198686924288 0.0 0.0
1139.2511178998486 230.81859336002648 682.7953087595384 -52.43488689159372 0.0 0.0
1171.2928108835958 235.55428782586657 701.1426004125118 -49.43204537440059 0.0 0.0
1187.1834754868203 227.33755603499745 705.0592958635096 -45.110778361194996 0.0 0.0
1185.115625123657 205.6100194085183 693.4273317528205 -39.013306550497866 0.0 0.0
1171.396053394945 178.22696730009315 673.1326794267228 -29.545541136880935 0.0 0.0
1070.4799086589237 74.91171611256703 573.1931430288136 1.1146639167236572e-11 0.0 0.0
1171.3960533948882 178.2269673000703 673.1326794267093 29.54554113699661 0.0 0.0
1185.1156251228467 205.6100194077137 693.4273317522715 39.01330655048775 0.0 0.0
1187.1834754870438 227.33755603533052 705.0592958636627 45.11077836128772 0.0 0.0
1171.2928108820959 235.55428782441265 701.1426004114613 49.43204537442217 0.0 0.0
1139.251117900233 230.81859336051872 682.7953087598049 52.43488689163185 0.0 0.0
1094.3489944507344 214.53403316753548 652.2952778135448 54.51986869245516 0.0 0.0
1039.507741130449 189.75977379833768 612.5791312887521 56.165777532135664 0.0 0.0
977.3261346012134 159.82711948214984 566.4894334991072 57.75010124829102 0.0 0.0
912.5542633639876 127.11449650838085 517.4328942860562 59.445415603542116 0.0 0.0
848.7205643839039 98.21003175647856 470.03483088604617 60.732411228502315 0.0 0.0
787.1489796695475 74.23273726596148 424.123305592436 61.31721934517229 0.0 0.0
725.5785806990666 55.677824414268585 375.59685367744964 61.1588721116532 0.0 0.0
660.5732817984879 41.25079278841616 316.9111519185496 60.59596672209421 0.0 0.0
590.3351819928504 30.55038780072414 245.8289200580831 59.57034214048084 0.0 0.0
499.7712389522315 18.906040543448366 171.7402373078128 56.9075837424798 0.0 0.0
391.04596361930874 5.727913276090033 118.68056670285308 60.766205950408036 0.0 0.0
282.4662773993131 3.8339892169853873 85.89263612502845 55.74532658110166 0.0 0.0
190.54504695339398 44.95111014500855 70.64884712952075 52.04084183809927 0.0 0.0
459.64709475803255 202.58933414661678 276.0566494920356 143.4494596899425 0.0 0.0
-862.8722319897191 -1549.9985047443247 -1071.5842993313606 62.19844257620506 0.0 0.0
-684.6140607191012 -1341.794665939946 -868.9157080479305 -63.18994847261197 0.0 0.0
347.2628564662381 121.64453928372981 189.91144270113816 -172.37688589028224 0.0 0.0
140.83212763414275 38.635897524653885 53.840407547638975 -80.59434279879244 0.0 0.0
231.2061166957365 10.498048876527815 72.51200502787117 -76.49621412010282 0.0 0.0
329.56119144787283 4.2177633176679095 99.90645054294079 -83.15608150570958 0.0 0.0
447.56143642121657 7.477361175607619 141.82042157197637 -83.2382219405643 0.0 0.0
547.8373888177497 23.996107984127196 211.14921495026994 -79.89375751125078 0.0 0.0
623.4405760486742 37.2137546339642 286.04995278964424 -80.38479083923943 0.0 0.0
689.1644393735877 48.006927857828046 346.9430473603398 -80.57661900568768 0.0 0.0
748.725219900975 63.27497516633162 396.0249770721161 -80.23261865741145 0.0 0.0
806.8957085689063 83.0317291251311 439.73338451423416 -79.13241479204245 0.0 0.0
866.2436453279382 107.62351727269115 483.4525937155416 -77.28378086628312 0.0 0.0
926.8277914977305 135.4805466185537 528.2846870218029 -75.19682315924183 0.0 0.0
984.6514904580561 163.17236880535697 571.223325539 -73.15352886143927 0.0 0.0
1036.6181248628804 184.78163710456204 607.9707395157736 -71.11745299990523 0.0 0.0
1079.6699278464275 198.77594216987276 636.4186424341906 -68.57856054914578 0.0 0.0
1112.4313456164969 204.77448858548445 655.7895898095143 -64.9404874572295 0.0 0.0
1131.2054830203251 199.10333239628406 662.4157350361078 -59.8402000945259 0.0 0.0
1133.0641340577884 180.45324767342683 654.2712503669331 -51.99402674391497 0.0 0.0
1121.654802155675 153.91025799287158 635.527679528293 -38.68998165369018 0.0 0.0
982.9716094427769 12.690814110081163 498.8775889109088 1.7005064023578598e-11 0.0 0.0
1121.6548021560604 153.91025799333698 635.5276795285719 38.68998165381727 0.0 0.0
1133.0641340573713 180.45324767308222 654.2712503666063 51.99402674406316 0.0 0.0
1131.205483020907 199.10333239692844 662.4157350365285 59.84020009464913 0.0 0.0
1112.4313456159866 204.77448858509638 655.7895898090978 64.94048745729498 0.0 0.0
1079.6699278456474 198.775942169136 636.4186424336406 68.5785605491263 0.0 0.0
1036.6181248624519 184.78163710426458 607.9707395153912 71.11745299992533 0.0 0.0
984.6514904585457 163.1723688060127 571.2233255392757 73.1535288614965 0.0 0.0
926.8277914976516 135.48054661867423 528.2846870217409 75.19682315935223 0.0 0.0
866.2436453278876 107.62351727284442 483.4525937154634 77.28378086633606 0.0 0.0
806.8957085686209 83.03172912503031 439.7333845139839 79.13241479203187 0.0 0.0
748.7252199004661 63.27497516601379 396.02497707172984 80.23261865731459 0.0 0.0
689.1644393731692 48.006927857624746 346.9430473599897 80.57661900563947 0.0 0.0
623.440576048272 37.213754633904784 286.0499527892729 80.38479083928942 0.0 0.0
547.837388816984 23.9961079835561 211.14921494967552 79.89375751115064 0.0 0.0
447.56143642090296 7.4773611758059335 141.82042157187539 83.23822194055055 0.0 0.0
329.5611914475202 4.217763317438492 99.90645054277084 83.1560815056976 0.0 0.0
231.2061166956221 10.498048876382919 72.51200502779291 76.49621411992513 0.0 0.0
140.83212763415548 38.635897524644456 53.84040754763996 80.59434279869008 0.0 0.0
347.2628564657415 121.64453928340554 189.91144270071976 172.37688589007715 0.0 0.0
-684.6140607177431 -1341.7946659383767 -868.9157080463557 63.18994847251699 0.0 0.0
-528.8665784009344 -1157.096852320074 -690.6168104643707 -63.874723191601795 0.0 0.0
258.92333238301285 59.71519730741543 125.1982737771472 -187.40833417673792 0.0 0.0
101.9382380310362 28.779036566817897 39.21518237935623 -107.5542371943532 0.0 0.0
183.34519341002215 15.976016635548094 59.79632580254032 -97.7895235788827 0.0 0.0
270.3574886858164 4.11603282505472 82.2854109976999 -104.43767531200017 0.0 0.0
378.54112365094653 2.6137764567586927 115.09503491356523 -107.4943509156612 0.0 0.0
486.02113472147875 17.391681846901363 173.58952342182297 -102.33488198211553 0.0 0.0
579.5711517367118 29.087088333710348 246.96931910024844 -101.70955772804768 0.0 0.0
643.9410213354216 41.520627835275604 312.27688058607146 -99.37767042935236 0.0 0.0
704.6952052289055 52.38578048172167 363.0410587888113 -98.75672649091864 0.0 0.0
759.6463158797834 67.9387195269311 405.5650613057008 -96.90555897425214 0.0 0.0
814.6992144368589 88.11048028245658 446.1190996797298 -94.41894142106567 0.0 0.0
870.6615238768961 111.89889987396135 487.17293910615444 -91.86595735816483 0.0 0.0
924.3422649008121 134.78072658422886 525.8922031072483 -89.57294389544136 0.0 0.0
973.1227312201945 154.26671301939678 560.0830632136428 -87.27869537961172 0.0 0.0
1014.4684010930064 167.4763657008186 587.3767601617318 -84.24380669898397 0.0 0.0
1047.6955618917125 172.6762708383772 606.5975667661133 -80.23354079599228 0.0 0.0
1070.5775808243466 170.86692881885313 617.1514270731565 -74.61485422874811 0.0 0.0
1078.0475453076028 157.0802091840674 614.246904278537 -65.35447970021922 0.0 0.0
1067.9125270391046 129.52646598223865 595.6798695459888 -48.74205443638861 0.0 0.0
883.2243519016745 -57.74790680717955 414.60188943967495 6.507683281142818e-11 0.0 0.0
1067.9125270408904 129.52646598412124 595.6798695472781 48.74205443656024 0.0 0.0
1078.0475453085467 157.08020918510914 614.2469042791535 65.35447970038513 0.0 0.0
1070.5775808246437 170.86692881929218 617.1514270733575 74.61485422892642 0.0 0.0
1047.6955618915347 172.6762708382497 606.5975667659538 80.23354079607714 0.0 0.0
1014.4684010922879 167.47636570017892 587.3767601612504 84.24380669892466 0.0 0.0
973.1227312199883 154.26671301940374 560.0830632134373 87.27869537976686 0.0 0.0
924.3422649004078 134.7807265838981 525.8922031069085 89.57294389549486 0.0 0.0
870.6615238768635 111.89889987416828 487.1729391060957 91.86595735824926 0.0 0.0
814.6992144366785 88.11048028245659 446.11909967959707 94.4189414210984 0.0 0.0
759.6463158795426 67.93871952686547 405.565061305458 96.90555897421953 0.0 0.0
704.6952052284583 52.38578048145439 363.04105878846195 98.75672649083353 0.0 0.0
643.9410213353369 41.520627835485854 312.276880585902 99.37767042933102 0.0 0.0
579.5711517362873 29.087088333620322 246.96931909986324 101.70955772803302 0.0 0.0
486.0211347208038 17.391681846477862 173.58952342135098 102.33488198207606 0.0 0.0
378.5411236505599 2.6137764567887602 115.09503491345151 107.4943509156252 0.0 0.0
270.35748868546835 4.116032824681282 82.28541099748476 104.43767531187918 0.0 0.0
183.34519340986887 15.976016635422317 59.796325802456685 97.78952357868886 0.0 0.0
101.93823803105154 28.77903656679545 39.21518237935408 107.55423719423818 0.0 0.0
258.92333238261165 59.715197307190145 125.19827377683333 187.40833417653093 0.0 0.0
-528.8665783998881 -1157.096852318768 -690.6168104630648 63.874723191559646 0.0 0.0
-396.2946747065901 -986.7289649839181 -535.2337947125934 -65.65488636899404 0.0 0.0
189.72441699033604 10.182303786024713 76.56359308929872 -195.42391544868644 0.0 0.0
69.70345285010862 18.35492132358796 26.41751225210897 -129.9429996493461 0.0 0.0
138.08310898152857 19.349009075307123 47.2296354170507 -117.9510877444562 0.0 0.0
212.74230485395645 6.112219088227968 65.66620540108208 -123.26697887171096 0.0 0.0
303.3402090056256 -1.4596513024585374 89.79498587661341 -131.37526517471912 0.0 0.0
414.32824518346 5.997395997842919 134.06182592962006 -129.48783433862687 0.0 0.0
511.49378722037505 22.704661974322033 200.95915851823966 -122.45170260825434 0.0 0.0
592.9003486661416 30.51891295575593 267.59103330488773 -120.97049747158728 0.0 0.0
650.5952035880001 42.15331582702304 322.4117907917177 -116.45207295601466 0.0 0.0
705.3307272571916 52.903074088022024 365.4570875911739 -114.01591781918842 0.0 0.0
756.5026569532182 68.42558289259165 403.82609463433687 -110.93529722341019 0.0 0.0
807.6748188486645 87.62326929161067 441.3134101731837 -107.91280658236849 0.0 0.0
856.7853225571641 106.78151271578592 476.4362826017678 -105.31396400018299 0.0 0.0
901.9935734969727 123.31742095534953 507.635209277144 -102.83538988842596 0.0 0.0
941.4619393458029 133.7070777822361 532.6941479928205 -99.84722923426915 0.0 0.0
974.6305635481227 140.74246491444705 552.8880841116991 -95.13497521839834 0.0 0.0
1002.8892536403634 142.8116214495409 567.9731367409304 -89.1946496831477 0.0 0.0
1017.6996804254857 134.2020309470937 571.2867264772343 -79.37236588662896 0.0 0.0
1009.7780789659164 106.30801297045329 553.8026013847266 -60.31118955328188 0.0 0.0
769.0866307111658 -136.5586758113658 319.3123594268762 1.5905676775673783e-10 0.0 0.0
1009.778078966667 106.30801297125558 553.8026013852622 60.31118955349983 0.0 0.0
1017.6996804258807 134.2020309476186 571.2867264775961 79.3723658868737 0.0 0.0
1002.8892536402657 142.81162144951503 567.9731367408153 89.19464968337003 0.0 0.0
974.6305635465915 140.74246491292092 552.888084110585 95.13497521831778 0.0 0.0
941.4619393458378 133.70707778242587 532.694147992907 99.84722923435265 0.0 0.0
901.9935734972835 123.3174209558028 507.6352092773115 102.83538988855736 0.0 0.0
856.7853225563096 106.78151271499337 476.4362826011965 105.31396400011312 0.0 0.0
807.6748188484065 87.6232692914834 441.31341017293914 107.91280658236553 0.0 0.0
756.5026569532098 68.42558289277892 403.826094634333 110.93529722338685 0.0 0.0
705.3307272570877 52.90307408807922 365.457087591006 114.0159178191779 0.0 0.0
650.595203587644 42.15331582683931 322.41179079140346 116.45207295586037 0.0 0.0
592.9003486661618 30.51891295618323 267.5910333048151 120.97049747165855 0.0 0.0
511.4937872200035 22.704661974348696 200.95915851794402 122.45170260827003 0.0 0.0
414.32824518287146 5.9973959974885895 134.06182592925416 129.48783433854237 0.0 0.0
303.34020900521193 -1.4596513025718543 89.79498587646975 131.37526517459233 0.0 0.0
212.74230485385084 6.112219088308638 65.6662054010741 123.26697887153252 0.0 0.0
138.0831089815318 19.34900907549005 47.22963541710655 117.95108774429136 0.0 0.0
69.7034528500495 18.354921323578225 26.417512252088308 129.942999649215 0.0 0.0
189.72441698998475 10.182303785877679 76.56359308906876 195.42391544848113 0.0 0.0
-396.2946747056954 -986.7289649827405 -535.2337947114934 65.65488636900173 0.0 0.0
-279.41337224528644 -842.1748867884949 -400.90735558597703 -78.06817524637762 0.0 0.0
129.83536536026807 -26.656993688176115 38.7804549313794 -194.3546272128961 0.0 0.0
41.62356206295614 9.726842367195449 15.405146003886983 -147.31807917446983 0.0 0.0
94.64179000806925 20.71569991897293 34.60804171034867 -135.5730269573761 0.0 0.0
155.4876618506007 8.826024791776614 49.28416499824062 -139.6671520329579 0.0 0.0
225.31141278964515 -0.6029355689218907 67.1158138205792 -149.78287124242541 0.0 0.0
323.3004738292115 -1.338638628574233 97.17627302509807 -155.94547981508728 0.0 0.0
424.7167301264292 10.354094729303858 148.27890512558503 -146.49032146705707 0.0 0.0
515.0101284168792 22.437168703055235 211.82134677627528 -140.10404439059508 0.0 0.0
585.1378662938391 27.922323478116304 268.21994790266 -136.19811003550763 0.0 0.0
638.5310923414473 36.983155346491884 314.00981530882694 -130.41239180960008 0.0 0.0
687.1515902237621 48.798482974523736 352.4833215116235 -126.54361904827537 0.0 0.0
734.4454955413488 63.32342432878373 387.77819430934755 -123.15437854576186 0.0 0.0
778.4377976747114 77.97767160291822 419.3849433961986 -120.29912309954676 0.0 0.0
819.99330786684 91.05181913674849 447.6765269472966 -117.8332393548355 0.0 0.0
856.8129947367183 100.58508191452667 471.3690917652877 -114.8296958645867 0.0 0.0
889.8029725793762 105.69783495565727 490.7648269418671 -110.0870830662734 0.0 0.0
922.3378685851491 111.9353588550295 509.93882553461026 -103.4831603860316 0.0 0.0
947.5752048639691 113.07284364647407 523.2699241548219 -93.67149227635987 0.0 0.0
945.7889941261752 87.32936703739281 510.2442254895034 -74.1283774913165 0.0 0.0
634.7767283097869 -224.0575758846146 210.1829477089936 1.1528200616339745e-10 0.0 0.0
945.7889941258376 87.32936703714947 510.2442254892974 74.12837749156046 0.0 0.0
947.5752048640992 113.07284364678733 523.2699241549639 93.6714922767064 0.0 0.0
922.3378685842091 111.93535885406163 509.9388255339677 103.4831603861169 0.0 0.0
889.8029725785154 105.69783495491347 490.76482694117993 110.08708306631374 0.0 0.0
856.8129947366573 100.58508191463055 471.36909176525603 114.82969586468873 0.0 0.0
819.9933078662959 91.05181913626825 447.67652694690423 117.83323935483986 0.0 0.0
778.4377976746716 77.97767160309836 419.3849433961591 120.29912309964867 0.0 0.0
734.4454955405786 63.32342432804744 387.7781943087769 123.15437854571336 0.0 0.0
687.1515902239978 48.798482975073135 352.48332151178136 126.54361904840292 0.0 0.0
638.5310923410389 36.98315534615841 314.0098153084268 130.41239180950785 0.0 0.0
585.13786629365 27.922323478111803 268.219947902447 136.19811003535364 0.0 0.0
515.010128416703 22.437168703327643 211.82134677612666 140.1040443906812 0.0 0.0
424.7167301260233 10.354094729347882 148.2789051253575 146.49032146709564 0.0 0.0
323.30047382855054 -1.3386386290364327 97.17627302474568 155.94547981498252 0.0 0.0
225.31141278933487 -0.6029355690087672 67.11581382047322 149.7828712421605 0.0 0.0
155.4876618505652 8.826024791950442 49.28416499828076 139.66715203280452 0.0 0.0
94.6417900080557 20.71569991909682 34.608041710381556 135.57302695719994 0.0 0.0
41.62356206294859 9.726842367322273 15.40514600392273 147.31807917424615 0.0 0.0
129.83536535994534 -26.65699368832804 38.78045493119114 194.35462721271082 0.0 0.0
-279.4133722445413 -842.1748867874429 -400.90735558509914 78.06817524640554 0.0 0.0
-197.3609133959735 -700.5924134645425 -298.95726269959493 -88.75065776676114 0.0 0.0
78.1146014567019 -55.48586866128762 10.33880419673136 -187.20846678437468 0.0 0.0
15.23588284622177 3.7627005759790326 5.7010742980826405 -159.93956128971305 0.0 0.0
52.786108351145906 20.621208845385674 22.021825706657967 -149.8047646682082 0.0 0.0
98.07027713718566 11.453523443586189 32.85236960620702 -152.7576280763888 0.0 0.0
148.54915943399996 1.948547643632573 45.086826324017935 -163.66316059951848 0.0 0.0
217.41719557874313 -2.5334629996525484 63.90486205099661 -177.41699420255378 0.0 0.0
311.4938989689485 -3.7239910383686876 94.41757202299947 -178.23547370554553 0.0 0.0
405.9383592440077 5.484623726614419 141.57766449452689 -163.73063110440603 0.0 0.0
485.1827418158618 13.347493959487355 193.8469292296216 -153.4383592713406 0.0 0.0
545.7085088070585 20.074961548184483 241.2065188104403 -145.2824574004519 0.0 0.0
595.4526531411732 27.250102208707354 280.3971368438283 -140.63933721053832 0.0 0.0
640.0433227480196 38.301135850741666 315.9717437384323 -137.02071439649674 0.0 0.0
679.6355420440482 48.60190635809607 345.9997462377252 -134.1750748350808 0.0 0.0
716.7304314332562 58.27285179248609 372.3396753573395 -131.91989068909265 0.0 0.0
751.0422844602924 65.66978177238911 394.9032262817065 -129.34389680627646 0.0 0.0
784.1946774004031 71.43956926159689 415.55347106602517 -124.89988726140865 0.0 0.0
817.4107486204962 77.29504717210519 435.42748248210756 -117.6508013141232 0.0 0.0
854.1477374971502 86.55521632556598 458.3956468270377 -107.82579449258193 0.0 0.0
871.2238433373175 74.64625884817572 462.26837986326353 -91.27225379083625 0.0 0.0
472.02432583194775 -317.35178819104226 84.96596869290066 1.446309738639684e-11 0.0 0.0
871.2238433369446 74.64625884794498 462.26837986311284 91.27225379111556 0.0 0.0
854.1477374971244 86.55521632566976 458.3956468270648 107.82579449290729 0.0 0.0
817.4107486195688 77.29504717119465 435.4274824814751 117.6508013142101 0.0 0.0
784.1946774002658 71.43956926165556 415.5534710659195 124.89988726165126 0.0 0.0
751.0422844598218 65.66978177200919 394.90322628139893 129.3438968063642 0.0 0.0
716.7304314330709 58.272851792400296 372.3396753572015 131.91989068908126 0.0 0.0
679.6355420438439 48.601906358039685 345.99974623755185 134.1750748351729 0.0 0.0
640.0433227478848 38.301135850791496 315.9717437382905 137.02071439652323 0.0 0.0
595.4526531410687 27.250102208858273 280.39713684372555 140.63933721064922 0.0 0.0
545.7085088068108 20.0749615480242 241.2065188101947 145.28245740036542 0.0 0.0
485.1827418160704 13.347493960223476 193.8469292297248 153.43835927134123 0.0 0.0
405.9383592438437 5.484623726934921 141.57766449447163 163.73063110451608 0.0 0.0
311.493898968404 -3.7239910386720196 94.41757202271133 178.2354737054871 0.0 0.0
217.41719557817464 -2.533463000056972 63.90486205072744 177.41699420234414 0.0 0.0
148.54915943381707 1.9485476436754472 45.086826323987545 163.66316059921536 0.0 0.0
98.07027713714527 11.453523443647137 32.85236960621067 152.75762807622309 0.0 0.0
52.786108351152585 20.621208845468438 22.02182570668479 149.80476466803879 0.0 0.0
15.23588284619618 3.762700575986953 5.701074298077042 159.9395612894425 0.0 0.0
78.11460145644375 -55.48586866134619 10.338804196610162 187.20846678413346 0.0 0.0
-197.36091339543086 -700.5924134636596 -298.9572626989764 88.75065776681478 0.0 0.0
-136.11672905581577 -582.2478262900383 -222.1355705423595 -105.23781460104261 0.0 0.0
32.649430433700815 -73.36380592269444 -11.28423417302523 -174.2001726986417 0.0 0.0
-9.48009732934824 0.40325004501699757 -2.722727487360504 -167.90857135728677 0.0 0.0
12.237995979804486 19.58672007304274 9.547717088667888 -160.14562435430867 0.0 0.0
41.096180489945496 13.67911102972594 16.43470995743357 -162.09827075376242 0.0 0.0
71.49523817204081 5.0299217410593515 22.89228885689403 -173.77308975862277 0.0 0.0
107.74679385157505 -0.21743631236249072 32.12527261302553 -188.7019287668669 0.0 0.0
159.21214569487574 -2.1856812182149024 47.15698850934285 -194.96696034912915 0.0 0.0
234.10741378886303 -6.293281344192873 68.9666752065929 -191.87912510897908 0.0 0.0
314.25020688276027 -13.870138704681914 94.87042093242371 -180.3646382609183 0.0 0.0
387.293667591512 -17.852723576350712 123.5667898833824 -169.820603178877 0.0 0.0
438.9394921042818 -13.227052695561554 153.78476611001128 -158.0256552778918 0.0 0.0
479.86381156076635 -2.367674645946291 183.84716899213507 -151.64656233240618 0.0 0.0
516.4749343477779 11.98068456305921 213.04064610577234 -147.85531371143958 0.0 0.0
550.4563270184988 22.52502282520214 240.9439320562519 -146.45948065517265 0.0 0.0
582.4138436556144 30.222930734733815 267.1295027923068 -147.1847264698623 0.0 0.0
616.2213502063263 35.942063428319756 293.60529098015996 -145.21903468764717 0.0 0.0
652.9654339890644 39.70733488489198 319.3234382000081 -137.6390092594998 0.0 0.0
692.6444360270366 42.14375369038186 343.5039808021267 -125.35535135020713 0.0 0.0
750.7727347290681 60.753013689738495 384.5387544824098 -113.36792814991135 0.0 0.0
248.13002031910642 -416.3352621837655 -70.43313874404997 -2.064837190118851e-11 0.0 0.0
750.7727347290354 60.753013690015024 384.53875448247965 113.36792815010813 0.0 0.0
692.6444360272346 42.14375369075638 343.5039808022085 125.35535135052743 0.0 0.0
652.9654339888599 39.70733488477151 319.32343819990245 137.639009259695 0.0 0.0
616.2213502060496 35.942063428156416 293.6052909799007 145.21903468777245 0.0 0.0
582.4138436550464 30.222930734132824 267.12950279193024 147.1847264698185 0.0 0.0
550.4563270184499 22.525022825097196 240.94393205625812 146.45948065521242 0.0 0.0
516.4749343472694 11.980684562567514 213.0406461054501 147.85531371138825 0.0 0.0
479.8638115609019 -2.367674645708753 183.84716899221786 151.64656233253578 0.0 0.0
438.9394921042235 -13.227052695416583 153.7847661099585 158.0256552779326 0.0 0.0
387.293667591243 -17.8527235765945 123.56678988317758 169.82060317882272 0.0 0.0
314.25020688308655 -13.870138703515673 94.87042093285154 180.3646382609458 0.0 0.0
234.10741378851296 -6.293281344363747 68.96667520642181 191.8791251089799 0.0 0.0
159.21214569457692 -2.185681218249656 47.156988509243774 194.96696034906225 0.0 0.0
107.74679385136363 -0.21743631264892538 32.125272612877225 188.70192876671058 0.0 0.0
71.4952381721337 5.029921741339989 22.89228885700537 173.77308975844596 0.0 0.0
41.09618049005628 13.679111030005556 16.434709957551185 162.09827075359817 0.0 0.0
12.237995979829629 19.58672007310409 9.547717088693746 160.1456243541047 0.0 0.0
-9.480097329344956 0.4032500451043992 -2.7227274873335654 167.90857135713668 0.0 0.0
32.64943043355574 -73.3638059226806 -11.28423417307588 174.20017269842907 0.0 0.0
-136.11672905554272 -582.2478262893119 -222.13557054198657 105.23781460105062 0.0 0.0
-107.75493817329183 -466.8195875592256 -172.91895307892037 -107.94638780634199 0.0 0.0
-0.6361560863761433 -84.83900621691842 -25.57005417348953 -162.00304790793032 0.0 0.0
-32.221147509351596 -1.8730721039487708 -10.224928901565555 -171.92458402642245 0.0 0.0
-26.799379229181056 18.296436563985417 -2.5501578490177277 -166.38423649482746 0.0 0.0
-15.033949745916132 15.411984634114605 0.11374088104616131 -167.37022611566383 0.0 0.0
-6.264457291401499 8.253441803348538 0.5975235835423724 -177.78944758540888 0.0 0.0
-2.3015391010394826 2.007876400626669 -0.09204738902815013 -193.2216043061253 0.0 0.0
-0.47011769753813937 0.25304798332615075 -0.06426806000745611 -199.67031948181938 0.0 0.0
-0.020396375768317654 -0.13839280956807887 -0.047922509718285156 -196.41627569571375 0.0 0.0
0.10932704515306568 0.023295996013018794 0.050037270524153854 -184.6958507729956 0.0 0.0
0.27182968564410004 -0.5387261771276552 -0.22652767558080456 -179.1995940428048 0.0 0.0
-0.58811110401588 0.47770300649920117 0.05099930579602585 -176.56298537948155 0.0 0.0
-2.1403027463673965 1.1425781861350188 -0.11856568152421687 -175.07095073852827 0.0 0.0
-2.023799635072308 0.7213385415814102 0.08909954823138833 -171.15225858994617 0.0 0.0
1.3943004093303983 1.8511489165357133 0.8598936162844453 -164.21965042799752 0.0 0.0
14.594781289638433 5.648489573799935 2.9098422313010985 -157.05031483578196 0.0 0.0
48.96419756782052 13.729340437236317 8.1176920673052 -151.1832042034451 0.0 0.0
130.67722799958239 14.86777737377058 13.686234431646454 -145.09914230581495 0.0 0.0
310.6021654255908 -47.43456827658012 33.59086347355946 -140.6539283742691 0.0 0.0
469.11145812049455 -26.08094710308969 157.66648333734213 -157.07201629165473 0.0 0.0
-294.8635728692366 -594.0849321537302 -374.12060610829076 2.5565327632648405e-11 0.0 0.0
469.1114581213186 -26.080947102027793 157.66648333788112 157.07201629172107 0.0 0.0
310.6021654262349 -47.43456827559875 33.5908634741393 140.65392837485132 0.0 0.0
130.67722799956087 14.867777373506797 13.686234431627298 145.09914230632916 0.0 0.0
48.96419756783335 13.729340437198147 8.11769206725404 151.18320420364324 0.0 0.0
14.59478128956296 5.648489573585827 2.909842231190467 157.05031483573782 0.0 0.0
1.3943004091084106 1.8511489159423107 0.8598936160224184 164.21965042799926 0.0 0.0
-2.0237996349496967 0.7213385411705211 0.0890995481372272 171.15225859004244 0.0 0.0
-2.1403027460419253 1.1425781857540507 -0.11856568154732372 175.0709507386523 0.0 0.0
-0.5881111035000046 0.4777030067605246 0.050999306034526626 176.56298537943883 0.0 0.0
0.2718296856351543 -0.5387261779051276 -0.22652767582329503 179.19959404272052 0.0 0.0
0.10932704567137463 0.02329599656514425 0.05003727084482712 184.69585077289958 0.0 0.0
-0.020396375873680483 -0.1383928102253944 -0.04792250994240277 196.41627569571398 0.0 0.0
-0.4701176974398713 0.2530479833674415 -0.0642680599638723 199.67031948178595 0.0 0.0
-2.301539100988615 2.0078764005799887 -0.09204738902699194 193.2216043058528 0.0 0.0
-6.264457291256976 8.253441803427496 0.5975235836094206 177.78944758515098 0.0 0.0
-15.033949745778166 15.411984634283442 0.11374088113804137 167.37022611549884 0.0 0.0
-26.799379229154916 18.29643656394067 -2.5501578490236034 166.38423649463004 0.0 0.0
-32.22114750926396 -1.8730721037807538 -10.224928901489069 171.92458402630473 0.0 0.0
-0.636156086466392 -84.83900621694718 -25.570054173523218 162.00304790776758 0.0 0.0
-107.75493817320033 -466.81958755856635 -172.91895307871476 107.94638780629673 0.0 0.0
-89.09229730937304 -366.7069272528409 -136.7312144736511 -102.52859074013361 0.0 0.0
-21.79987786792489 -89.43716029269288 -33.371765238000066 -152.06844930633764 0.0 0.0
-53.34377992415567 -3.9834954125804014 -17.19917954306597 -171.9771289887186 0.0 0.0
-64.0722578346377 17.020694405737796 -14.113559694218553 -168.40600576797576 0.0 0.0
-70.06589556721214 16.495390390562452 -16.06696369970907 -168.2480140026783 0.0 0.0
-83.01094633671931 11.19213273986871 -21.52702597533489 -175.96816942670438 0.0 0.0
-112.4252179228418 4.432116014135362 -32.191889969002006 -190.54480625695584 0.0 0.0
-160.2249129036971 2.573967205699629 -47.354735112556426 -195.18908052929825 0.0 0.0
-234.01735134853067 5.992626563328301 -69.0452870712057 -191.85758652109303 0.0 0.0
-314.0160920447018 13.846693614476118 -94.79688377035454 -180.3140838882313 0.0 0.0
-388.41891749912327 18.429826464564016 -123.23134986211225 -170.04272646224743 0.0 0.0
-438.78483570529556 13.066769511769131 -154.04274652880085 -157.89102681745848 0.0 0.0
-480.604718926888 2.3000441240683287 -184.55619624519582 -151.06991362273152 0.0 0.0
-517.6238221606056 -10.958141699755785 -213.6875420657712 -147.25328197611216 0.0 0.0
-548.4174617207909 -17.67594478619982 -237.56524506215501 -146.24300183085143 0.0 0.0
-569.0496853119955 -17.536579346269775 -250.62951917511492 -148.76357434323907 0.0 0.0
-577.250426550851 -12.13535024829173 -250.20171072223246 -154.4716594239495 0.0 0.0
-574.115891582745 -2.7763199164010928 -232.0642992856024 -165.57166491537467 0.0 0.0
-559.4841080856481 34.51219303759926 -190.54218721917925 -173.95219587633716 0.0 0.0
-335.15155254633817 62.58824685899535 -78.51118691423842 -118.16020153157045 0.0 0.0
-811.5321944320239 -805.6800230104994 -795.3088974803566 -1.3203305115894182e-10 0.0 0.0
-335.1515525461268 62.58824685962566 -78.51118691392944 118.16020153213253 0.0 0.0
-559.4841080852076 34.512193037994244 -190.54218721890885 173.95219587654591 0.0 0.0
-574.1158915823881 -2.7763199162040735 -232.06429928533356 165.57166491547127 0.0 0.0
-577.2504265511113 -12.135350248630552 -250.20171072236172 154.47165942401222 0.0 0.0
-569.0496853118981 -17.536579346266954 -250.6295191750255 148.7635743432062 0.0 0.0
-548.4174617206145 -17.675944786269728 -237.5652450620082 146.243001830867 0.0 0.0
-517.6238221608039 -10.958141700214636 -213.68754206589688 147.25328197622912 0.0 0.0
-480.6047189267972 2.3000441238380276 -184.55619624515097 151.06991362287016 0.0 0.0
-438.7848357047746 13.066769512081095 -154.04274652840175 157.8910268174663 0.0 0.0
-388.4189174987905 18.429826464167643 -123.23134986203138 170.04272646223987 0.0 0.0
-314.0160920441127 13.846693614319912 -94.79688377019804 180.31408388822746 0.0 0.0
-234.01735134797104 5.99262656314907 -69.04528707108369 191.85758652106375 0.0 0.0
-160.22491290334864 2.5739672057370653 -47.354735112435726 195.18908052930163 0.0 0.0
-112.42521792254846 4.432116014320901 -32.191889968860075 190.5448062567411 0.0 0.0
-83.01094633650231 11.192132739975285 -21.52702597523974 175.96816942647797 0.0 0.0
-70.06589556720863 16.4953903904091 -16.06696369975409 168.24801400244695 0.0 0.0
-64.07225783456119 17.020694405724356 -14.113559694199067 168.40600576780287 0.0 0.0
-53.343779924059014 -3.9834954125077227 -17.19917954301543 171.97712898854624 0.0 0.0
-21.799877867954148 -89.43716029273999 -33.37176523802336 152.0684493061658 0.0 0.0
-89.092297309211 -366.7069272523528 -136.7312144734609 102.52859074005642 0.0 0.0
-72.26796085442672 -280.9221474731198 -105.95703249826394 -92.84327218975386 0.0 0.0
-36.817534762534194 -87.88936204124684 -37.41234223095484 -141.44255612718723 0.0 0.0
-72.81741165720791 -5.59536421071521 -23.523178522969538 -168.1290191305888 0.0 0.0
-99.60142418136667 15.557357583379723 -25.216446774369874 -166.14303799904775 0.0 0.0
-123.53257125305817 16.891732202623707 -31.996088092978574 -164.34650080462148 0.0 0.0
-159.56096503519194 14.0979866000113 -43.35937210395536 -171.20585556071393 0.0 0.0
-219.98500824863342 5.974795874500008 -63.91798365167609 -176.83287197916843 0.0 0.0
-311.71025719471896 3.7335109460631033 -94.60881316615526 -178.38843696708167 0.0 0.0
-405.950690309424 -5.761191014010841 -141.65540438633823 -163.73705487155752 0.0 0.0
-485.1748843172628 -13.457521114209332 -193.84455359941268 -153.3710819260291 0.0 0.0
-545.5828369912177 -19.964422843445217 -241.11697903072798 -145.2047389907606 0.0 0.0
-595.5014267705988 -27.158465820773365 -280.4466094178725 -140.4989392167322 0.0 0.0
-640.4479303155697 -38.0233643655646 -316.19261205180743 -136.38075595896146 0.0 0.0
-680.1169084657647 -47.703405736493714 -345.98260007484214 -133.1385729611136 0.0 0.0
-714.4167695144131 -54.44138685858502 -369.5555755916648 -131.342064821137 0.0 0.0
-738.412650715787 -54.14651272589958 -383.1405104296434 -131.85500583922732 0.0 0.0
-749.3739812709968 -46.76974811012093 -385.5417885914998 -135.96713145764082 0.0 0.0
-745.7448361367425 -35.130386962330306 -378.0622499954303 -144.05239292055802 0.0 0.0
-714.2105356490091 -5.17480642747708 -349.1533693180794 -153.68497934733065 0.0 0.0
-668.4020917510027 27.21750362541918 -312.81836987533694 -156.57786333863336 0.0 0.0
-1513.4555048072998 -1071.093255855086 -1242.9551538631797 4.6217252247515717e-11 0.0 0.0
-668.4020917510511 27.217503625083225 -312.8183698754787 156.57786333895407 0.0 0.0
-714.2105356493312 -5.174806428058815 -349.15336931831877 153.68497934780612 0.0 0.0
-745.7448361358075 -35.130386961427995 -378.0622499948394 144.05239292064675 0.0 0.0
-749.3739812703869 -46.769748109594346 -385.5417885910767 135.9671314577185 0.0 0.0
-738.4126507162964 -54.14651272654212 -383.1405104299797 131.85500583931167 0.0 0.0
-714.4167695136739 -54.44138685794651 -369.5555755911315 131.342064821064 0.0 0.0
-680.1169084658345 -47.70340573679876 -345.9826000748524 133.13857296117808 0.0 0.0
-640.447930315252 -38.02336436555885 -316.1926120515966 136.38075595904616 0.0 0.0
-595.5014267701462 -27.15846582051296 -280.4466094174863 140.49893921673356 0.0 0.0
-545.5828369907564 -19.964422843262543 -241.11697903038538 145.20473899069668 0.0 0.0
-485.1748843170726 -13.457521114560894 -193.8445535992436 153.3710819260453 0.0 0.0
-405.9506903084128 -5.761191013226844 -141.65540438567297 163.73705487154615 0.0 0.0
-311.71025719400694 3.7335109464142855 -94.60881316579949 178.38843696711035 0.0 0.0
-219.98500824810378 5.974795874668784 -63.91798365147696 176.83287197897428 0.0 0.0
-159.56096503493296 14.097986600048017 -43.35937210386737 171.20585556054135 0.0 0.0
-123.5325712529561 16.891732202381128 -31.99608809302098 164.34650080445348 0.0 0.0
-99.60142418119523 15.55735758341755 -25.216446774311574 166.1430379988102 0.0 0.0
-72.81741165716168 -5.595364210731111 -23.523178522959924 168.12901913046662 0.0 0.0
-36.817534762464156 -87.88936204120489 -37.41234223092091 141.44255612706021 0.0 0.0
-72.26796085422183 -280.9221474727201 -105.95703249808258 92.84327218967645 0.0 0.0
-58.240361136343545 -207.87022803198326 -79.83317675049803 -81.45787273062341 0.0 0.0
-48.28213190649723 -81.70970803795359 -38.99750069041079 -129.12423235260212 0.0 0.0
-90.9675436963761 -6.588311818899581 -29.26795256967815 -160.25604315621416 0.0 0.0
-133.48546941730265 13.942331252435231 -35.85815289511258 -159.79109119616513 0.0 0.0
-175.62012076109136 16.78601948921874 -47.57431904828016 -156.56008175570793 0.0 0.0
-231.62569314321752 13.863427159261228 -65.28902499202123 -155.94727047747722 0.0 0.0
-325.0700378486672 5.685312508942173 -96.54780240577247 -159.230961663547 0.0 0.0
-424.9932543522913 -10.497994662274476 -148.41986113961008 -146.99962478175033 0.0 0.0
-515.0797528672056 -22.729605435744105 -211.90401204182285 -140.06864889567728 0.0 0.0
-585.1945465955217 -28.022729345571005 -268.2773155280941 -136.15095733329397 0.0 0.0
-638.3445530538786 -36.819139361556566 -313.8834004580406 -130.3490621219542 0.0 0.0
-687.0716628464129 -48.60981079659784 -352.3829911866703 -126.37043929859355 0.0 0.0
-734.6143582195649 -63.06623033589597 -387.8010893890424 -122.47538375745349 0.0 0.0
-779.0089370291861 -77.56439170825577 -419.54819384462843 -118.97258895743654 0.0 0.0
-818.9416132241242 -88.80269430041058 -446.2138408056608 -116.80141945543993 0.0 0.0
-847.5168564277337 -91.8104228414527 -462.617514618614 -117.24221411096181 0.0 0.0
-860.6002453396385 -83.27334682760734 -465.21753127234877 -121.73320139592647 0.0 0.0
-848.8741810398802 -57.93671881000044 -447.32956882902795 -129.33030483726574 0.0 0.0
-810.6883358293906 -15.936325723036035 -408.80420096562784 -136.54485464172782 0.0 0.0
-720.8723893114576 61.303698974743696 -331.50759435780606 -142.0463074962833 0.0 0.0
-1949.450023805276 -1308.5695768348576 -1589.6980296659533 1.2575895880218013e-10 0.0 0.0
-720.8723893114677 61.30369897467603 -331.5075943578897 142.04630749644184 0.0 0.0
-810.6883358298317 -15.936325723779774 -408.8042009659316 136.5448546420189 0.0 0.0
-848.8741810391972 -57.93671880939535 -447.32956882856377 129.3303048374433 0.0 0.0
-860.600245338676 -83.27334682664934 -465.21753127168415 121.73320139594898 0.0 0.0
-847.516856428163 -91.81042284205901 -462.61751461890117 117.24221411099064 0.0 0.0
-818.9416132238605 -88.8026943002755 -446.21384080545477 116.80141945550035 0.0 0.0
-779.0089370291626 -77.5643917084573 -419.5481938445982 118.97258895754341 0.0 0.0
-734.6143582191482 -63.06623033563712 -387.80108938877186 122.4753837574979 0.0 0.0
-687.0716628459086 -48.60981079630799 -352.3829911863055 126.37043929857201 0.0 0.0
-638.3445530534664 -36.81913936139451 -313.88340045774146 130.34906212192595 0.0 0.0
-585.1945465949714 -28.022729345307056 -268.27731552764584 136.15095733325322 0.0 0.0
-515.0797528663928 -22.72960543522954 -211.9040120412129 140.06864889565864 0.0 0.0
-424.99325435163246 -10.49799466197457 -148.41986113917864 146.99962478177596 0.0 0.0
-325.07003784845006 5.685312508449095 -96.5478024058202 159.23096166351033 0.0 0.0
-231.6256931427701 13.86342715927405 -65.2890249919123 155.94727047723492 0.0 0.0
-175.62012076083835 16.786019489239173 -47.57431904820453 156.56008175550255 0.0 0.0
-133.48546941719664 13.942331252324113 -35.85815289511349 159.79109119597067 0.0 0.0
-90.96754369630202 -6.588311818987995 -29.267952569682038 160.25604315613094 0.0 0.0
-48.28213190639731 -81.70970803782552 -38.997500690342434 129.12423235252314 0.0 0.0
-58.24036113623601 -207.87022803170095 -79.83317675038109 81.45787273056773 0.0 0.0
-47.49868457528391 -146.77812567108157 -58.28304307390964 -69.47856818494465 0.0 0.0
-57.43727557506711 -72.30763516427847 -38.923473221803675 -114.9064900239195 0.0 0.0
-108.1014449433297 -6.811341045485469 -34.47438681210285 -148.50841659292828 0.0 0.0
-165.79403494145254 12.000860163353167 -46.14561535345163 -149.05948327462121 0.0 0.0
-224.96616022394727 15.486489691493736 -62.778205295753025 -143.63661303596086 0.0 0.0
-307.70534723562366 14.395723841464019 -87.09356866180363 -140.81851715646013 0.0 0.0
-411.4955464249057 -4.286328426455846 -133.62654341815127 -129.9272113065887 0.0 0.0
-511.48967519844825 -23.014320504277002 -200.99324237006851 -122.75255014078078 0.0 0.0
-593.0913869278322 -30.85106257212851 -267.7642665128009 -120.90715826530996 0.0 0.0
-650.6335049880972 -42.201947907603596 -322.4738755858306 -116.4146125903423 0.0 0.0
-705.1523090793639 -52.68345757751758 -365.2998738258676 -113.98376577851063 0.0 0.0
-756.2217179988215 -68.0726251150027 -403.53736538317025 -110.764314960587 0.0 0.0
-807.4430037255232 -87.14678191331336 -441.00071987356483 -107.26174084978744 0.0 0.0
-857.3407863890159 -106.71145735013971 -476.7148980119795 -103.92867227445312 0.0 0.0
-902.9410775833614 -123.37993296560393 -508.21180676642496 -101.56202563580126 0.0 0.0
-937.3146343790904 -129.59751418472456 -528.7552659672715 -101.79630806089314 0.0 0.0
-949.073142976883 -119.09489765052528 -529.7651944599392 -105.4039857251143 0.0 0.0
-928.7243910944317 -81.33371751102152 -501.3748102746206 -111.9958278013191 0.0 0.0
-869.1047834901832 -14.818243580130314 -439.95353493968 -118.57452633067115 0.0 0.0
-749.248200293489 94.00709168498204 -330.5940733483935 -124.41211616063042 0.0 0.0
-2288.8491561839237 -1546.529755170808 -1885.8089138990993 1.2144596439611632e-10 0.0 0.0
-749.2482002934419 94.00709168489658 -330.5940733483227 124.4121161609193 0.0 0.0
-869.1047834891799 -14.818243579250392 -439.95353493897835 118.57452633086712 0.0 0.0
-928.7243910951443 -81.33371751185243 -501.3748102751111 111.99582780154589 0.0 0.0
-949.0731429766938 -119.09489765041104 -529.7651944598075 105.40398572512142 0.0 0.0
-937.3146343783777 -129.5975141840944 -528.7552659667299 101.79630806086453 0.0 0.0
-902.9410775833251 -123.37993296570009 -508.2118067663273 101.56202563582637 0.0 0.0
-857.3407863886533 -106.71145734998977 -476.714898011716 103.92867227449439 0.0 0.0
-807.4430037258488 -87.1467819138836 -441.00071987379204 107.26174084992738 0.0 0.0
-756.2217179984864 -68.07262511484481 -403.5373653829195 110.76431496056101 0.0 0.0
-705.1523090790522 -52.68345757739841 -365.29987382565724 113.98376577841022 0.0 0.0
-650.6335049876861 -42.20194790742903 -322.4738755855043 116.41461259027187 0.0 0.0
-593.0913869274651 -30.851062572144244 -267.7642665124322 120.90715826532019 0.0 0.0
-511.4896751977704 -23.01432050394147 -200.99324236954402 122.75255014075458 0.0 0.0
-411.4955464245208 -4.2863284266324 -133.62654341797133 129.92721130659862 0.0 0.0
-307.7053472350507 14.395723841512632 -87.09356866164026 140.81851715636142 0.0 0.0
-224.96616022366786 15.486489691537912 -62.77820529565821 143.63661303579835 0.0 0.0
-165.79403494129764 12.000860163293105 -46.145615353423594 149.05948327447135 0.0 0.0
-108.1014449432109 -6.811341045499849 -34.47438681207127 148.50841659280266 0.0 0.0
-57.43727557504888 -72.30763516428594 -38.923473221800435 114.9064900238274 0.0 0.0
-47.498684575230726 -146.7781256708923 -58.28304307383691 69.47856818489188 0.0 0.0
-39.90454294728949 -97.17082418997735 -41.122610141180054 -57.20107843685778 0.0 0.0
-64.88768243725147 -60.95009484472855 -37.75133318459401 -98.90700969186587 0.0 0.0
-124.33503845690089 -6.2325842161683855 -39.17058117159898 -132.95195255131736 0.0 0.0
-196.60212391135644 9.94523887040313 -55.99743451452089 -134.30169100923234 0.0 0.0
-271.89429080067225 12.63131933700486 -77.80974036437804 -125.98407523616716 0.0 0.0
-377.5886821568783 8.997820953850955 -111.37938650447038 -117.9627371559113 0.0 0.0
-484.3499358831271 -15.012916248992921 -172.48774194628362 -104.35105554891754 0.0 0.0
-579.7800176422023 -29.59085942605887 -247.12324275144468 -101.79392894191044 0.0 0.0
-644.105090675816 -41.72259385299134 -312.42551463125307 -99.31466228635966 0.0 0.0
-704.7157414845198 -52.39123199800618 -363.0835777716434 -98.74144505477176 0.0 0.0
-759.463821966175 -67.72432646940072 -405.4031767392196 -96.87359752880124 0.0 0.0
-814.2366834276613 -87.59957097693534 -445.6618002066606 -94.24506529914623 0.0 0.0
-869.9225948756091 -111.06058394030806 -486.4205113842681 -91.28325127544029 0.0 0.0
-924.5533939167822 -134.73558818954058 -525.9807432543892 -88.36055220017045 0.0 0.0
-976.0175908286201 -156.6866473701172 -562.7267628597767 -86.06355280229167 0.0 0.0
-1015.472824577738 -168.15185748113754 -588.3540865265691 -85.40132557434703 0.0 0.0
-1027.116691888481 -153.64336369123748 -587.3233366836816 -87.95351196871826 0.0 0.0
-994.515358919446 -102.39435848277483 -546.1444436051993 -93.4402680107417 0.0 0.0
-910.6099125349313 -10.938060206033612 -459.9693582393333 -99.77316050445495 0.0 0.0
-766.1528114629832 122.94369230453096 -324.385788655493 -108.49000014058647 0.0 0.0
-2587.824745744372 -1779.216800344127 -2156.9863442744263 3.915445745406032e-11 0.0 0.0
-766.1528114630673 122.9436923043242 -324.3857886555719 108.49000014078935 0.0 0.0
-910.6099125343367 -10.938060205497479 -459.9693582388468 99.77316050459493 0.0 0.0
-994.5153589196909 -102.3943584831654 -546.1444436053159 93.4402680108575 0.0 0.0
-1027.116691888221 -153.6433636910729 -587.3233366835153 87.95351196882427 0.0 0.0
-1015.4728245771448 -168.15185748063192 -588.3540865260851 85.40132557434703 0.0 0.0
-976.0175908277272 -156.6866473692877 -562.7267628591152 86.06355280220443 0.0 0.0
-924.5533939161056 -134.73558818899662 -525.9807432538962 88.36055220016583 0.0 0.0
-869.9225948755995 -111.06058394048317 -486.42051138426655 91.2832512754456 0.0 0.0
-814.2366834273354 -87.59957097681749 -445.6618002064161 94.24506529913918 0.0 0.0
-759.4638219660156 -67.72432646948317 -405.40317673911903 96.87359752877441 0.0 0.0
-704.7157414843509 -52.3912319980979 -363.0835777714607 98.74144505472101 0.0 0.0
-644.1050906752307 -41.72259385266498 -312.42551463073255 99.31466228631271 0.0 0.0
-579.7800176416991 -29.590859425910953 -247.12324275098098 101.79392894186904 0.0 0.0
-484.3499358823541 -15.012916248543085 -172.48774194574986 104.35105554893016 0.0 0.0
-377.5886821563729 8.99782095387163 -111.37938650429125 117.96273715586318 0.0 0.0
-271.89429080039446 12.631319336813048 -77.80974036436687 125.98407523605799 0.0 0.0
-196.60212391113618 9.945238870414705 -55.99743451445234 134.30169100912494 0.0 0.0
-124.3350384566647 -6.232584216002316 -39.17058117147816 132.95195255123573 0.0 0.0
-64.8876824371642 -60.95009484475531 -37.751333184575834 98.90700969171077 0.0 0.0
-39.90454294715918 -97.17082418980773 -41.122610141090064 57.20107843687413 0.0 0.0
-35.07026052071932 -58.821108051369286 -28.167410571626576 -44.76896517652715 0.0 0.0
-70.7512021354835 -48.66760898755434 -35.82564333691134 -81.28552617488698 0.0 0.0
-139.6522576373769 -5.031809069119023 -43.40522001194876 -113.70363653148021 0.0 0.0
-225.8521488943244 7.7432066054632775 -65.43959367577068 -115.29164934144845 0.0 0.0
-321.9085934821338 9.641863792599214 -93.0610176006438 -105.99153302861899 0.0 0.0
-433.30402110482663 -4.303584402465363 -138.9550535007601 -88.58625941811837 0.0 0.0
-546.3788409255847 -22.083570948918446 -209.83242989273145 -81.39942732818224 0.0 0.0
-623.5578117810804 -37.50625373563602 -286.1235213591131 -80.27745304855874 0.0 0.0
-689.3084581820817 -48.110407184345505 -347.06933500639803 -80.52227893314422 0.0 0.0
-748.746389886615 -63.27110436396541 -396.0606831484538 -80.24038208114214 0.0 0.0
-806.6989616383382 -82.80738757715015 -439.5528790821872 -79.10095506343785 0.0 0.0
-865.6340978305622 -106.98757508269776 -482.86023101534875 -77.10161584982077 0.0 0.0
-925.6949160318176 -134.35812778935662 -527.1909926268199 -74.70923720866402 0.0 0.0
-984.2610048951658 -162.83312968086935 -570.8574576755411 -72.28230056453143 0.0 0.0
-1039.8527903644367 -187.95888153432094 -611.1349958895664 -70.20961397137582 0.0 0.0
-1084.8061979173076 -203.5273990672467 -641.4316218396159 -68.86896465303131 0.0 0.0
-1098.8743800397312 -191.22251163878994 -642.7378870882332 -69.502653486873 0.0 0.0
-1055.302930776629 -127.06317900181133 -589.7190926021019 -73.76553656763889 0.0 0.0
-945.9631667050305 -8.669030432050434 -477.1419247055591 -81.34206518630448 0.0 0.0
-772.176188543717 153.7647453610954 -311.3829563550717 -94.59822487946694 0.0 0.0
-2857.071463040057 -1999.9484290100534 -2406.3494858517897 6.248868089642201e-11 0.0 0.0
-772.1761885441132 153.76474536063745 -311.38295635545023 94.59822487963285 0.0 0.0
-945.9631667037795 -8.66903043090305 -477.14192470461205 81.34206518641908 0.0 0.0
-1055.3029307758422 -127.063179001086 -589.7190926014987 73.76553656778107 0.0 0.0
-1098.8743800401858 -191.22251163934374 -642.7378870885435 69.50265348699797 0.0 0.0
-1084.8061979170009 -203.52739906703428 -641.4316218393878 68.8689646530109 0.0 0.0
-1039.8527903638094 -187.95888153378235 -611.1349958890743 70.20961397132413 0.0 0.0
-984.2610048946165 -162.83312968046047 -570.8574576751353 72.28230056451805 0.0 0.0
-925.6949160313652 -134.35812778905876 -527.1909926265486 74.70923720862936 0.0 0.0
-865.6340978302032 -106.98757508251643 -482.86023101509966 77.1016158497855 0.0 0.0
-806.6989616379396 -82.80738757699902 -439.5528790819152 79.10095506343366 0.0 0.0
-748.7463898865992 -63.271104364241225 -396.0606831483871 80.24038208116353 0.0 0.0
-689.3084581812998 -48.11040718379334 -347.06933500576855 80.52227893311067 0.0 0.0
-623.557811780611 -37.5062537354635 -286.12352135865126 80.27745304847711 0.0 0.0
-546.3788409248085 -22.083570948438368 -209.83242989212388 81.39942732811981 0.0 0.0
-433.3040211041893 -4.30358440221012 -138.95505350042905 88.58625941807794 0.0 0.0
-321.90859348182767 9.641863792363171 -93.06101760063706 105.991533028612 0.0 0.0
-225.8521488941976 7.7432066053486714 -65.43959367576764 115.29164934132015 0.0 0.0
-139.65225763728563 -5.031809069033181 -43.405220011895636 113.70363653144959 0.0 0.0
-70.75120213549485 -48.66760898760647 -35.82564333693039 81.28552617470834 0.0 0.0
-35.07026052065033 -58.82110805127785 -28.167410571578447 44.76896517647915 0.0 0.0
-32.340868618760126 -31.60764947335479 -19.184555427634475 -32.468615183036576 0.0 0.0
-74.72879183865783 -36.35436452890723 -33.32494691026952 -62.244511688728366 0.0 0.0
-153.75858723528867 -3.512448383266853 -47.181310685566665 -90.69635794104435 0.0 0.0
-254.21471174614067 5.216897450999415 -74.69794543046258 -92.0494192399821 0.0 0.0
-370.5319551514775 3.821906637362894 -109.53560732506816 -80.64190223360819 0.0 0.0
-491.55533909841193 -12.617918496451077 -166.92449799924321 -63.96505317317285 0.0 0.0
-588.708770357993 -29.756833804636518 -244.85150667065201 -60.16520452135623 0.0 0.0
-660.526631401796 -41.139474287597665 -316.8204076864512 -60.43150339196314 0.0 0.0
-725.7179806613765 -55.74052304366526 -375.71091017884004 -61.12038983020988 0.0 0.0
-787.1856471211779 -74.23896974599883 -424.166364167397 -61.34057873593962 0.0 0.0
-848.484140290782 -97.9545582808556 -469.81345978444403 -60.69866977626793 0.0 0.0
-911.858639481704 -126.42253945417859 -516.7670693022576 -59.26429276649752 0.0 0.0
-976.0582281098164 -158.65223786689 -565.298749206437 -57.38026050147623 0.0 0.0
-1038.5091112677314 -188.9933066419983 -611.709141302797 -55.66340585704358 0.0 0.0
-1095.837423078316 -216.28080414699642 -653.8998240164387 -54.0265859214716 0.0 0.0
-1144.177586744943 -235.6545957480523 -687.6973809142236 -52.20000721435577 0.0 0.0
-1166.4113916210601 -230.21053171647898 -696.3947520804727 -50.86698996256463 0.0 0.0
-1120.471150025243 -162.1666630027715 -640.3257380952467 -53.28452424695101 0.0 0.0
-983.5103074858953 -14.788849548550715 -499.36745216820884 -62.79006030024136 0.0 0.0
-765.92883300125 192.0076704668478 -288.48340732033614 -81.53240751192939 0.0 0.0
-3096.647962330955 -2198.949880781762 -2629.407373963208 3.6351366361486726e-11 0.0 0.0
-765.9288330015183 192.00767046647573 -288.48340732046876 81.5324075121857 0.0 0.0
-983.5103074842982 -14.788849546962723 -499.3674521669857 62.790060300255945 0.0 0.0
-1120.4711500254537 -162.16666300303322 -640.3257380954337 53.284524246976424 0.0 0.0
-1166.4113916217739 -230.21053171731427 -696.3947520809521 50.86698996259567 0.0 0.0
-1144.1775867447068 -235.65459574792698 -687.6973809140189 52.20000721442942 0.0 0.0
-1095.837423078465 -216.2808041472895 -653.899824016456 54.02658592152334 0.0 0.0
-1038.5091112673304 -188.99330664172626 -611.7091413024725 55.66340585703389 0.0 0.0
-976.0582281096748 -158.65223786691647 -565.2987492063619 57.38026050144801 0.0 0.0
-911.8586394810218 -126.42253945366801 -516.7670693017692 59.264292766424916 0.0 0.0
-848.4841402904038 -97.95455828069423 -469.81345978418875 60.698669776238994 0.0 0.0
-787.1856471211427 -74.23896974621535 -424.16636416734343 61.34057873584615 0.0 0.0
-725.7179806605051 -55.74052304302696 -375.71091017819754 61.12038983016316 0.0 0.0
-660.5266314012213 -41.139474287280585 -316.8204076859479 60.43150339190021 0.0 0.0
-588.7087703574164 -29.75683380439261 -244.85150667014835 60.16520452133421 0.0 0.0
-491.5553390978168 -12.61791849622325 -166.92449799886478 63.965053173161316 0.0 0.0
-370.53195515099094 3.821906637393113 -109.53560732492285 80.64190223350633 0.0 0.0
-254.21471174598503 5.216897450924872 -74.6979454304376 92.0494192398316 0.0 0.0
-153.75858723516762 -3.5124483833229827 -47.18131068554717 90.69635794101882 0.0 0.0
-74.7287918385244 -36.354364528773004 -33.32494691018921 62.2445116886683 0.0 0.0
-32.34086861871772 -31.60764947334793 -19.184555427619685 32.46861518297071 0.0 0.0
-30.5926015746894 -15.264472863859456 -13.757122331564652 -21.01533960898733 0.0 0.0
-76.01931972421815 -24.95879723886524 -30.29343508892501 -42.0546080481221 0.0 0.0
-166.22177256010883 -2.2397191080240275 -50.538447500439844 -63.510050334849225 0.0 0.0
-282.27215013257035 2.3589729853977364 -83.9694443961911 -64.22079255993536 0.0 0.0
-414.62108865812036 -6.358826803257105 -128.56164102739194 -51.81088247154429 0.0 0.0
-538.8259670350707 -20.698130734848746 -195.7510692889342 -40.80383788074968 0.0 0.0
-618.3317471076514 -34.476230493370366 -273.9939759287049 -39.59247699592408 0.0 0.0
-691.619525166992 -46.320136009424054 -343.3150786219186 -40.827807720873814 0.0 0.0
-756.977549138713 -63.866491094879926 -399.9542561912783 -41.59383299991259 0.0 0.0
-820.8554446238863 -85.4798665316082 -448.79104236055167 -41.932371490031 0.0 0.0
-886.3010689141701 -113.08490095801612 -497.4006574097722 -41.65767732500503 0.0 0.0
-953.7032396030202 -146.01627371353408 -548.1971443674796 -40.71293321125768 0.0 0.0
-1022.505400046912 -181.1641710186804 -600.3055952893486 -39.54042458951213 0.0 0.0
-1087.9844069171806 -215.68853434602386 -650.2716971775671 -38.37328411540511 0.0 0.0
-1146.624130097715 -243.52200433482054 -693.4080007063247 -37.26969454946164 0.0 0.0
-1192.7186651663426 -260.2162678635359 -724.7081654096721 -35.680481812976055 0.0 0.0
-1221.2424675484383 -261.4408252472465 -739.6411765569164 -33.21554423967819 0.0 0.0
-1202.8766016995119 -220.0947493285314 -710.5317080025563 -32.66225496516466 0.0 0.0
-1043.028691145987 -47.344875917395285 -545.634960646175 -42.310897950539214 0.0 0.0
-739.2344660342985 247.72865458093077 -246.80885196791965 -68.02783604496898 0.0 0.0
-3291.5225183980656 -2357.798400874562 -2809.627165820894 -1.2114753644709708e-12 0.0 0.0
-739.2344660341876 247.72865458098966 -246.80885196778553 68.02783604507245 0.0 0.0
-1043.0286911457702 -47.34487591723126 -545.6349606460001 42.31089795058904 0.0 0.0
-1202.8766016993554 -220.09474932844103 -710.5317080024284 32.6622549652293 0.0 0.0
-1221.2424675476686 -261.4408252465601 -739.6411765563723 33.21554423966756 0.0 0.0
-1192.718665165764 -260.2162678630613 -724.7081654091751 35.680481813019476 0.0 0.0
-1146.6241300972572 -243.522004334528 -693.4080007059648 37.26969454958281 0.0 0.0
-1087.9844069170574 -215.68853434605438 -650.2716971773885 38.37328411549225 0.0 0.0
-1022.5054000469678 -181.16417101891486 -600.3055952894022 39.54042458946249 0.0 0.0
-953.7032396025145 -146.01627371322652 -548.1971443671274 40.71293321127674 0.0 0.0
-886.3010689139146 -113.08490095798665 -497.4006574096004 41.65767732500122 0.0 0.0
-820.8554446236327 -85.47986653160638 -448.79104236032265 41.93237149000301 0.0 0.0
-756.9775491382138 -63.86649109461104 -399.9542561908779 41.593832999890914 0.0 0.0
-691.6195251664658 -46.32013600916465 -343.3150786214566 40.82780772076991 0.0 0.0
-618.3317471074186 -34.476230493525975 -273.9939759283971 39.59247699594927 0.0 0.0
-538.8259670349911 -20.698130735192986 -195.75106928880066 40.8038378806982 0.0 0.0
-414.6210886574674 -6.358826802889528 -128.56164102707652 51.810882471458456 0.0 0.0
-282.27215013231125 2.3589729854230432 -83.96944439610773 64.22079255980519 0.0 0.0
-166.2217725600464 -2.239719108230892 -50.53844750048317 63.510050334774185 0.0 0.0
-76.01931972406146 -24.95879723860657 -30.2934350888004 42.05460804809417 0.0 0.0
-30.592601574736406 -15.264472863928566 -13.757122331599493 21.01533960898029 0.0 0.0
-27.689084933540695 -8.886276665709243 -10.97260847977498 -12.011943295972744 0.0 0.0
-73.2008691694618 -15.932176265814004 -26.739913630582734 -21.053471910471238 0.0 0.0
-176.29191157720274 -1.9557953245348174 -53.47431207052127 -31.066978483867405 0.0 0.0
-311.42990020613104 -0.4784519415794577 -93.56075847435194 -31.25454057817464 0.0 0.0
-462.18258265608654 -13.861033273526319 -148.74462811424627 -23.142317244686453 0.0 0.0
-572.3166834174608 -27.584442860643197 -223.35365562981912 -19.99744368002064 0.0 0.0
-646.0819710216056 -35.621124713138165 -297.8402893967191 -20.923065175095864 0.0 0.0
-717.7274902974995 -52.32691832893033 -365.8173249705756 -21.633108594627767 0.0 0.0
-784.210940610852 -71.96958002309992 -420.6911396146078 -21.908312295421037 0.0 0.0
-850.8600290096557 -97.16149797999432 -471.0541855163009 -22.043471742857285 0.0 0.0
-920.2020467747434 -128.54675986620126 -522.82538405976 -21.893629113838006 0.0 0.0
-992.1382661695457 -164.626609566455 -577.2199661366124 -21.54794378853987 0.0 0.0
-1064.344101848394 -204.2328266561625 -633.1575786979008 -20.98631388678487 0.0 0.0
-1133.84515619953 -241.2987574792366 -686.3682906624372 -20.43646784885874 0.0 0.0
-1193.0656244176741 -269.3796676817452 -729.9382372587136 -19.899081359974215 0.0 0.0
-1235.413200840789 -282.34794672232636 -757.5389705073111 -18.920811768322185 0.0 0.0
-1257.91685195963 -278.2196242004195 -766.6950359302475 -16.94607541447757 0.0 0.0
-1266.6327757856598 -264.3522449715645 -764.2917526383535 -14.492592881533 0.0 0.0
-1199.2897062051045 -181.53942484944193 -690.3742674176403 -19.079017306938315 0.0 0.0
-726.7626331072206 288.2222191767226 -220.078703730622 -48.27502678040045 0.0 0.0
-3306.937132122441 -2337.970121635562 -2811.263387136961 6.0893512454640586e-12 0.0 0.0
-726.762633106891 288.22221917703246 -220.07870373033603 48.27502678037439 0.0 0.0
-1199.2897062046936 -181.53942484909197 -690.3742674173667 19.07901730701722 0.0 0.0
-1266.632775785113 -264.35224497107754 -764.2917526379598 14.492592881596746 0.0 0.0
-1257.916851958858 -278.2196241997208 -766.695035929707 16.946075414499425 0.0 0.0
-1235.4132008404574 -282.34794672209784 -757.5389705069962 18.920811768323084 0.0 0.0
-1193.0656244164213 -269.37966768062194 -729.9382372578207 19.89908136003549 0.0 0.0
-1133.845156199333 -241.29875747919155 -686.3682906622026 20.43646784891733 0.0 0.0
-1064.3441018481908 -204.23282665614693 -633.1575786977444 20.986313886768237 0.0 0.0
-992.1382661693993 -164.62660956652604 -577.2199661365353 21.54794378862203 0.0 0.0
-920.2020467744165 -128.54675986608808 -522.8253840595273 21.89362911378777 0.0 0.0
-850.8600290089533 -97.16149797954856 -471.054185515757 22.043471742849245 0.0 0.0
-784.2109406106823 -71.96958002318257 -420.69113961443014 21.908312295395262 0.0 0.0
-717.727490296741 -52.32691832844385 -365.81732496999695 21.633108594620012 0.0 0.0
-646.0819710213343 -35.621124713177 -297.84028939637653 20.923065175032896 0.0 0.0
-572.3166834172887 -27.584442860875026 -223.35365562960286 19.99744368002136 0.0 0.0
-462.18258265574605 -13.86103327361312 -148.74462811411556 23.142317244670775 0.0 0.0
-311.42990020574257 -0.47845194138919056 -93.5607584741977 31.254540578134712 0.0 0.0
-176.29191157708587 -1.9557953247138695 -53.47431207053991 31.06697848380982 0.0 0.0
-73.20086916930691 -15.9321762656718 -26.739913630493614 21.053471910484355 0.0 0.0
-27.689084933481176 -8.886276665706882 -10.972608479756417 12.01194329600477 0.0 0.0
-16.90944276997722 -4.292021743524481 -6.360439354050507 -7.59418344883392 0.0 0.0
-62.56240664952439 -8.824443183783917 -21.41605494999249 -8.739670820926047 0.0 0.0
-182.62519942411907 -3.016597145202198 -55.692538970796384 -10.62024693858514 0.0 0.0
-347.95425183538543 -10.75427391921832 -107.48032969578877 -9.906578866564749 0.0 0.0
-521.31600486658 -42.49193078243024 -181.2831515079514 -3.230445877391986 0.0 0.0
-639.2404976100431 -76.54677737509691 -275.9044258436569 -0.21265739858521115 0.0 0.0
-729.3290064422906 -104.3181736456034 -368.48217985852085 0.1678887966055882 0.0 0.0
-824.9523426193045 -146.93917902811563 -459.7537118557846 -0.5972419513958762 0.0 0.0
-923.2516342428418 -199.4245372113883 -545.8471802926131 -1.6295354041750532 0.0 0.0
-1033.4310531612373 -267.9256121184772 -639.0092576229896 -2.783675233111783 0.0 0.0
-1160.0250784493217 -355.9161076943982 -747.3039023216884 -3.951887262901174 0.0 0.0
-1303.0553246108996 -463.8191239444571 -872.7156385224026 -5.0389665076388095 0.0 0.0
-1458.6781751980257 -585.5237350014061 -1010.8989858222136 -5.768309647609113 0.0 0.0
-1620.737226223508 -714.8226343956323 -1156.058707043263 -6.461162904810321 0.0 0.0
-1776.9056854220553 -839.5199461155084 -1296.0118353957796 -6.98056396336337 0.0 0.0
-1909.5285247905417 -942.6240029065017 -1413.5345798269122 -7.107401617020216 0.0 0.0
-1996.8739369866153 -1003.7466705199162 -1487.7282030304195 -6.4850816919348695 0.0 0.0
-2015.5600583734606 -1000.8748881785252 -1495.9335565426613 -4.515314503987181 0.0 0.0
-2004.347180618936 -973.7022177693352 -1476.474236047785 -6.257748383608382 0.0 0.0
-1941.4267242760075 -907.5388536782733 -1408.4490620075267 -35.87580901979249 0.0 0.0
-4991.209187515158 -3994.023716799931 -4464.257988012267 8.770939530222677e-11 0.0 0.0
-1941.4267242752803 -907.538853677563 -1408.4490620068905 35.875809019838044 0.0 0.0
-2004.3471806179139 -973.7022177683568 -1476.4742360468967 6.2577483836274155 0.0 0.0
-2015.5600583726568 -1000.8748881777825 -1495.9335565421347 4.515314503959367 0.0 0.0
-1996.8739369860386 -1003.7466705194315 -1487.7282030299004 6.485081691991056 0.0 0.0
-1909.5285247905717 -942.624002906659 -1413.5345798267292 7.1074016170835534 0.0 0.0
-1776.9056854203727 -839.5199461139379 -1296.011835394438 6.980563963369839 0.0 0.0
-1620.7372262228932 -714.8226343951776 -1156.0587070426197 6.461162904825805 0.0 0.0
-1458.6781751971434 -585.5237350007051 -1010.898985821445 5.7683096476107245 0.0 0.0
-1303.055324610245 -463.81912394401115 -872.7156385218677 5.038966507691413 0.0 0.0
-1160.0250784487394 -355.91610769405287 -747.3039023211638 3.9518872629128694 0.0 0.0
-1033.4310531598235 -267.9256121172804 -639.0092576219319 2.783675233123546 0.0 0.0
-923.2516342422389 -199.4245372110609 -545.8471802921289 1.6295354040747014 0.0 0.0
-824.9523426180324 -146.93917902707446 -459.75371185484653 0.5972419515331104 0.0 0.0
-729.329006441903 -104.31817364552603 -368.4821798580879 -0.16788879668948908 0.0 0.0
-639.2404976094342 -76.54677737475727 -275.904425843117 0.2126573986823317 0.0 0.0
-521.3160048663499 -42.49193078272123 -181.2831515078489 3.230445877391194 0.0 0.0
-347.9542518349049 -10.754273918827177 -107.4803296955247 9.906578866695476 0.0 0.0
-182.62519942399393 -3.016597145297929 -55.692538970787545 10.62024693864279 0.0 0.0
-62.56240664946856 -8.824443183778955 -21.41605494997426 8.739670821011293 0.0 0.0
-16.909442770010475 -4.292021743544597 -6.360439354066522 7.594183448887447 0.0 0.0
SCALARS Strain float 6
LOOKUP_TABLE default
0.011381128294627414 -0.019726387986287307 0.0 -0.0007113613259803313 0.0 0.0
0.007009682391174293 -0.0015198516914211508 0.0 -0.006053803624502077 0.0 0.0
0.0022281166699273745 -0.0006219172061516129 0.0 -0.0005986464419639875 0.0 0.0
0.0020087062825808353 -0.0008042804382324812 0.0 -4.063043486891931e-05 0.0 0.0
0.0026657335218335373 -0.0010767766997106006 0.0 6.974030839552736e-05 0.0 0.0
0.004039387034306713 -0.0020521955854270572 0.0 0.0001523998495057688 0.0 0.0
0.006322882677792945 -0.003910542453314238 0.0 0.0001991833419229614 0.0 0.0
0.009605872766819066 -0.006743592918881918 0.0 0.00021695874347598366 0.0 0.0
0.013987766918205018 -0.010652575811233255 0.0 0.00021546839945331091 0.0 0.0
0.019522435640512828 -0.01564169121708321 0.0 0.00018400475547273134 0.0 0.0
0.026261883784781254 -0.021732001488078356 0.0 0.00016553133183518125 0.0 0.0
0.034299448911299164 -0.029014452202361644 0.0 0.00015552955256289524 0.0 0.0
0.04374114688728696 -0.03762418769738277 0.0 8.60091872398591e-05 0.0 0.0
0.05467976849866871 -0.04768279169049361 0.0 5.299705812880856e-06 0.0 0.0
0.06711318332169097 -0.05923477053112583 0.0 -0.00014579901721657165 0.0 0.0
0.08078197297941919 -0.0720692590222603 0.0 -0.0003868109562399811 0.0 0.0
0.0950505542117126 -0.08559293090078383 0.0 -0.0006813324165021034 0.0 0.0
0.10888220845117191 -0.09881210498706577 0.0 -0.0009136785044215898 0.0 0.0
0.12095405272113094 -0.11042789938441086 0.0 -0.0009179817075844262 0.0 0.0
0.12976182947779463 -0.11898950707932479 0.0 -0.0009089072260184431 0.0 0.0
0.1331508551441414 -0.12240793185048288 0.0 2.7608124120170885e-15 0.0 0.0
0.12976182947778067 -0.11898950707931613 0.0 0.0009089072260220869 0.0 0.0
0.12095405272110038 -0.11042789938439013 0.0 0.0009179817075894237 0.0 0.0
0.10888220845112886 -0.09881210498701884 0.0 0.0009136785044248806 0.0 0.0
0.0950505542116626 -0.08559293090074205 0.0 0.0006813324165022292 0.0 0.0
0.0807819729793674 -0.07206925902221197 0.0 0.0003868109562382722 0.0 0.0
0.06711318332163921 -0.05923477053107869 0.0 0.00014579901721555608 0.0 0.0
0.054679768498616235 -0.04768279169044558 0.0 -5.29970581236933e-06 0.0 0.0
0.043741146887234836 -0.03762418769733807 0.0 -8.600918724130358e-05 0.0 0.0
0.03429944891125018 -0.029014452202314446 0.0 -0.00015552955256433864 0.0 0.0
0.026261883784738392 -0.021732001488037438 0.0 -0.00016553133183480877 0.0 0.0
0.019522435640478057 -0.015641691217054752 0.0 -0.00018400475547363003 0.0 0.0
0.013987766918178542 -0.01065257581120304 0.0 -0.0002154683994535447 0.0 0.0
0.009605872766799504 -0.006743592918866373 0.0 -0.00021695874347617473 0.0 0.0
0.006322882677779271 -0.003910542453299222 0.0 -0.00019918334192318185 0.0 0.0
0.004039387034298714 -0.0020521955854248867 0.0 -0.00015239984950475105 0.0 0.0
0.0026657335218304933 -0.0010767766997077056 0.0 -6.97403083947871e-05 0.0 0.0
0.0020087062825800586 -0.0008042804382322607 0.0 4.0630434868180076e-05 0.0 0.0
0.0022281166699259385 -0.0006219172061523483 0.0 0.0005986464419618302 0.0 0.0
0.007009682391169267 -0.00151985169141847 0.0 0.006053803624493714 0.0 0.0
0.011381128294619831 -0.019726387986264193 0.0 0.000711361325940886 0.0 0.0
0.0077114998369471124 -0.01757605056880099 0.0 -0.00025477500657346166 0.0 0.0
0.0045741696035241424 -0.0011142776418409995 0.0 -0.004755207248449612 0.0 0.0
0.0015350813703350935 -0.000499859357666049 0.0 -0.0003982430549786033 0.0 0.0
0.0017978643018964663 -0.0007648966292744478 0.0 -0.0002109793649369296 0.0 0.0
0.0023362556523003294 -0.0009890439755651612 0.0 -0.00016641400500321272 0.0 0.0
0.00350450296702263 -0.0018433106160902065 0.0 -0.0001924251690489857 0.0 0.0
0.005540248951641031 -0.0035708111135434794 0.0 -0.00037111371291136065 0.0 0.0
0.008520598899082861 -0.006247015623893053 0.0 -0.000610786866552341 0.0 0.0
0.012513421337042753 -0.009960555665780368 0.0 -0.000923507771321995 0.0 0.0
0.01753893773697031 -0.014700780573952799 0.0 -0.0012924235553131666 0.0 0.0
0.023619109520731395 -0.02047391084137181 0.0 -0.0016745773719036264 0.0 0.0
0.030827360748607497 -0.027355527300825015 0.0 -0.0020543622089583364 0.0 0.0
0.03929418111919456 -0.035485302863752684 0.0 -0.0024897009362261275 0.0 0.0
0.04913781357938369 -0.045005043337399506 0.0 -0.0030027970314150227 0.0 0.0
0.060369648949602034 -0.055960806678505254 0.0 -0.0035886843996168665 0.0 0.0
0.0727685976460789 -0.068160374986068 0.0 -0.004217963304530702 0.0 0.0
0.08576311391702646 -0.08104929383756512 0.0 -0.004737367337225622 0.0 0.0
0.09842119012430764 -0.09369019303754396 0.0 -0.004862719633525423 0.0 0.0
0.10950565982585304 -0.10483692348623855 0.0 -0.004333332204268496 0.0 0.0
0.11743179610998063 -0.11298431164493819 0.0 -0.003301724283272945 0.0 0.0
0.12038072230930563 -0.11627491299392637 0.0 5.1790169375287576e-15 0.0 0.0
0.11743179610996701 -0.11298431164492975 0.0 0.0033017242832837222 0.0 0.0
0.10950565982582605 -0.10483692348621482 0.0 0.004333332204283592 0.0 0.0
0.09842119012427038 -0.09369019303750753 0.0 0.0048627196335352535 0.0 0.0
0.08576311391698309 -0.08104929383752306 0.0 0.0047373673372260415 0.0 0.0
0.07276859764603258 -0.06816037498602046 0.0 0.004217963304528522 0.0 0.0
0.06036964894955513 -0.055960806678461164 0.0 0.00358868439961489 0.0 0.0
0.04913781357933659 -0.045005043337354424 0.0 0.003002797031414259 0.0 0.0
0.03929418111914759 -0.035485302863707775 0.0 0.002489700936222883 0.0 0.0
0.030827360748563223 -0.027355527300781512 0.0 0.0020543622089547395 0.0 0.0
0.02361910952069291 -0.02047391084133337 0.0 0.0016745773719006438 0.0 0.0
0.017538937736938872 -0.014700780573925078 0.0 0.001292423555309878 0.0 0.0
0.012513421337018393 -0.009960555665755294 0.0 0.0009235077713199343 0.0 0.0
0.008520598899064997 -0.00624701562387712 0.0 0.0006107868665506644 0.0 0.0
0.005540248951629188 -0.0035708111135306763 0.0 0.0003711137129091883 0.0 0.0
0.0035045029670162536 -0.0018433106160885946 0.0 0.00019242516904871497 0.0 0.0
0.0023362556522978743 -0.000989043975563497 0.0 0.00016641400500427806 0.0 0.0
0.001797864301895925 -0.000764896629273804 0.0 0.0002109793649364943 0.0 0.0
0.0015350813703350324 -0.0004998593576670235 0.0 0.0003982430549770729 0.0 0.0
0.0045741696035184335 -0.0011142776418380847 0.0 0.004755207248439584 0.0 0.0
0.007711499836935684 -0.01757605056877765 0.0 0.00025477500654446815 0.0 0.0
0.005544664020689458 -0.013865686948102494 0.0 -0.0028048050740120843 0.0 0.0
0.003190157999535641 -0.0005923939745713616 0.0 -0.004617744207470879 0.0 0.0
0.001086038815265606 -0.00029560882799867857 0.0 -0.00038700270884155864 0.0 0.0
0.001539241846128034 -0.0006631733972279712 0.0 -0.0004746568642771241 0.0 0.0
0.0020374995812718626 -0.0008406256057950693 0.0 -0.00046914517564006176 0.0 0.0
0.0029936920327003273 -0.0014550356978498432 0.0 -0.00048481483765144416 0.0 0.0
0.004759018440255564 -0.002898776315283547 0.0 -0.0008129536344590989 0.0 0.0
0.007424614657509635 -0.005259905865133855 0.0 -0.0012927661191597572 0.0 0.0
0.011012448590657547 -0.00857174283082399 0.0 -0.0019120857312495895 0.0 0.0
0.015519989909158219 -0.012809850949197255 0.0 -0.002629669163748078 0.0 0.0
0.020943368160637316 -0.017948052118274656 0.0 -0.003384091585239785 0.0 0.0
0.02733685905919815 -0.0240369161304196 0.0 -0.004131898053297691 0.0 0.0
0.034826364001689 -0.031211809627194338 0.0 -0.004909387533283511 0.0 0.0
0.043557756340478794 -0.03964218294594111 0.0 -0.005816531027970274 0.0 0.0
0.053568712472744626 -0.049394857401304657 0.0 -0.006872041291265554 0.0 0.0
0.0646755717604401 -0.06031374239934262 0.0 -0.007975003988072242 0.0 0.0
0.07639860168069892 -0.07192946592840359 0.0 -0.008855864197681964 0.0 0.0
0.08791517278243614 -0.08342384695602625 0.0 -0.009058826175317872 0.0 0.0
0.09804460619798847 -0.09363848462198544 0.0 -0.008172328974864116 0.0 0.0
0.10532505655095482 -0.10107431886646066 0.0 -0.006075595950607206 0.0 0.0
0.10805824597396878 -0.10423688486582912 0.0 7.895160220039443e-15 0.0 0.0
0.10532505655094208 -0.10107431886644844 0.0 0.006075595950628609 0.0 0.0
0.0980446061979648 -0.09363848462196228 0.0 0.008172328974888555 0.0 0.0
0.08791517278240349 -0.08342384695599904 0.0 0.009058826175333299 0.0 0.0
0.07639860168066077 -0.07192946592836783 0.0 0.008855864197684232 0.0 0.0
0.06467557176039887 -0.06031374239929753 0.0 0.007975003988069175 0.0 0.0
0.053568712472702715 -0.04939485740126652 0.0 0.006872041291264116 0.0 0.0
0.04355775634043715 -0.03964218294589913 0.0 0.005816531027969491 0.0 0.0
0.034826364001647854 -0.031211809627152892 0.0 0.004909387533277701 0.0 0.0
0.027336859059159307 -0.024036916130381412 0.0 0.0041318980532919 0.0 0.0
0.020943368160603094 -0.017948052118241707 0.0 0.0033840915852345315 0.0 0.0
0.015519989909129929 -0.01280985094917069 0.0 0.0026296691637434947 0.0 0.0
0.01101244859063556 -0.00857174283080437 0.0 0.0019120857312453225 0.0 0.0
0.007424614657493632 -0.005259905865118583 0.0 0.0012927661191552537 0.0 0.0
0.004759018440245138 -0.00289877631527424 0.0 0.0008129536344552272 0.0 0.0
0.0029936920326952333 -0.001455035697847409 0.0 0.0004848148376498393 0.0 0.0
0.0020374995812701222 -0.0008406256057949328 0.0 0.0004691451756404792 0.0 0.0
0.0015392418461275639 -0.000663173397226978 0.0 0.0004746568642763245 0.0 0.0
0.0010860388152655416 -0.00029560882799922717 0.0 0.0003870027088402708 0.0 0.0
0.003190157999530079 -0.0005923939745684678 0.0 0.004617744207458723 0.0 0.0
0.005544664020678357 -0.013865686948080042 0.0 0.002804805073993308 0.0 0.0
0.004117913834466174 -0.011086823906607262 0.0 -0.0032172431046716818 0.0 0.0
0.0023153012010970085 -0.00043871504430101273 0.0 -0.00422612622639235 0.0 0.0
0.0007793252988552648 -0.00016703529039918975 0.0 -0.0006765309438969431 0.0 0.0
0.0012777852236997265 -0.0005333994182173188 0.0 -0.0007247311875207264 0.0 0.0
0.0017572892563016288 -0.0007263803691040428 0.0 -0.0007779433357415053 0.0 0.0
0.002524252648179367 -0.0011434176145714214 0.0 -0.0007760171364490025 0.0 0.0
0.00399485254385869 -0.0022614235641527933 0.0 -0.0011095824144197583 0.0 0.0
0.0063243256214214096 -0.004286855168409822 0.0 -0.0017970053533126595 0.0 0.0
0.009496468574531697 -0.007182762056949161 0.0 -0.0026524231918280475 0.0 0.0
0.013478986094342959 -0.010907976049284649 0.0 -0.0036424158677823186 0.0 0.0
0.018246249873896205 -0.015412319019843024 0.0 -0.0046810334502780295 0.0 0.0
0.023833914054218638 -0.02071971074590145 0.0 -0.00571081977553453 0.0 0.0
0.030358155788052364 -0.026950870412887393 0.0 -0.006767436890795575 0.0 0.0
0.03796530582818798 -0.034281612535755464 0.0 -0.007957339833772259 0.0 0.0
0.046729301089930904 -0.04280694447906602 0.0 -0.00933636835854217 0.0 0.0
0.05652818000279114 -0.05242244996275232 0.0 -0.010795631451950621 0.0 0.0
0.0669676910734895 -0.06275171167524554 0.0 -0.011977466455155437 0.0 0.0
0.07733946838379928 -0.07310030772902863 0.0 -0.01231703661364763 0.0 0.0
0.08658163626306242 -0.08241333031049232 0.0 -0.011234730652219001 0.0 0.0
0.09337943377821116 -0.08933392237796776 0.0 -0.0081573529775923 0.0 0.0
0.09599405231347029 -0.09255688277786969 0.0 1.2033776752851111e-14 0.0 0.0
0.09337943377819952 -0.08933392237795618 0.0 0.00815735297762333 0.0 0.0
0.08658163626304131 -0.08241333031047561 0.0 0.011234730652247858 0.0 0.0
0.07733946838377029 -0.07310030772899818 0.0 0.012317036613666042 0.0 0.0
0.06696769107345607 -0.06275171167522016 0.0 0.011977466455159489 0.0 0.0
0.056528180002755224 -0.05242244996271409 0.0 0.010795631451945958 0.0 0.0
0.046729301089894155 -0.042806944479030544 0.0 0.00933636835853876 0.0 0.0
0.03796530582815117 -0.03428161253571608 0.0 0.007957339833769514 0.0 0.0
0.03035815578801629 -0.026950870412851356 0.0 0.0067674368907888 0.0 0.0
0.023833914054184793 -0.020719710745867943 0.0 0.005710819775526889 0.0 0.0
0.01824624987386603 -0.01541231901981317 0.0 0.004681033450270311 0.0 0.0
0.01347898609431778 -0.010907976049261879 0.0 0.003642415867773554 0.0 0.0
0.00949646857451211 -0.007182762056930541 0.0 0.002652423191821394 0.0 0.0
0.006324325621407584 -0.004286855168396675 0.0 0.001797005353308245 0.0 0.0
0.003994852543850147 -0.00226142356414683 0.0 0.0011095824144163704 0.0 0.0
0.0025242526481755504 -0.0011434176145685643 0.0 0.0007760171364478231 0.0 0.0
0.0017572892563004908 -0.0007263803691039874 0.0 0.0007779433357407988 0.0 0.0
0.0012777852236993186 -0.0005333994182166647 0.0 0.0007247311875191053 0.0 0.0
0.000779325298855176 -0.00016703529039932934 0.0 0.0006765309438952907 0.0 0.0
0.0023153012010921677 -0.0004387150442987993 0.0 0.0042261262263808795 0.0 0.0
0.004117913834456472 -0.011086823906587277 0.0 0.003217243104658302 0.0 0.0
0.00307603778519902 -0.008866686654612977 0.0 -0.0029071913672537 0.0 0.0
0.0017052639957993534 -0.0003876263188971402 0.0 -0.003804301675453034 0.0 0.0
0.0005654461805622744 -9.882931514940309e-05 0.0 -0.001047726456384302 0.0 0.0
0.0010315347290931116 -0.0004031023878928405 0.0 -0.000994475218545674 0.0 0.0
0.0014863764752368377 -0.0006190056646198747 0.0 -0.0010772602913956973 0.0 0.0
0.0021045751800676713 -0.0009108567417300691 0.0 -0.0010790515279818294 0.0 0.0
0.003270423560756413 -0.0017044581372521184 0.0 -0.0013369793964124383 0.0 0.0
0.005229812050749715 -0.003336403483805147 0.0 -0.0020811172885064873 0.0 0.0
0.007977645729927407 -0.005809416900743895 0.0 -0.0031373884566256414 0.0 0.0
0.011427979019408707 -0.00901192867512986 0.0 -0.004322781069689505 0.0 0.0
0.015541201736808025 -0.012881880092391483 0.0 -0.005564124460351714 0.0 0.0
0.02033008684019225 -0.0174154473275599 0.0 -0.006789757495210373 0.0 0.0
0.02589451544872058 -0.022713329398444376 0.0 -0.008039346344479639 0.0 0.0
0.032384900471067256 -0.02894680610146242 0.0 -0.009425107182981436 0.0 0.0
0.03989043283459435 -0.03623169183162792 0.0 -0.011007368003641452 0.0 0.0
0.04834847582066525 -0.04451874679576426 0.0 -0.012669966925978687 0.0 0.0
0.05747588757691498 -0.053529896728891954 0.0 -0.014062789121262036 0.0 0.0
0.06669158524080493 -0.0627061361398995 0.0 -0.014591565179401765 0.0 0.0
0.07509041809318825 -0.07115484082899197 0.0 -0.013455335645697444 0.0 0.0
0.08151047874170128 -0.0776882932623475 0.0 -0.009753135253796811 0.0 0.0
0.08406865112047904 -0.08107957109555153 0.0 1.35230368569772e-14 0.0 0.0
0.08151047874169089 -0.07768829326233484 0.0 0.009753135253831351 0.0 0.0
0.07509041809316937 -0.07115484082897526 0.0 0.013455335645731214 0.0 0.0
0.0666915852407799 -0.06270613613987118 0.0 0.014591565179422263 0.0 0.0
0.05747588757688596 -0.05352989672886561 0.0 0.014062789121267474 0.0 0.0
0.04834847582063412 -0.04451874679573724 0.0 0.012669966925973507 0.0 0.0
0.039890432834562804 -0.0362316918315986 0.0 0.01100736800363671 0.0 0.0
0.03238490047103581 -0.02894680610142812 0.0 0.00942510718297698 0.0 0.0
0.025894515448689825 -0.02271332939841368 0.0 0.00803934634447436 0.0 0.0
0.020330086840163603 -0.017415447327531215 0.0 0.006789757495200869 0.0 0.0
0.015541201736782154 -0.012881880092366887 0.0 0.005564124460340221 0.0 0.0
0.011427979019386985 -0.009011928675110564 0.0 0.004322781069679014 0.0 0.0
0.007977645729910698 -0.00580941690072913 0.0 0.0031373884566182064 0.0 0.0
0.005229812050737862 -0.003336403483794963 0.0 0.002081117288502316 0.0 0.0
0.0032704235607495316 -0.0017044581372491006 0.0 0.0013369793964092618 0.0 0.0
0.002104575180064687 -0.0009108567417275182 0.0 0.0010790515279812773 0.0 0.0
0.00148637647523579 -0.0006190056646203312 0.0 0.0010772602913956852 0.0 0.0
0.0010315347290928635 -0.0004031023878932676 0.0 0.0009944752185433495 0.0 0.0
0.0005654461805623508 -9.882931514947085e-05 0.0 0.001047726456382971 0.0 0.0
0.0017052639957953696 -0.00038762631889563485 0.0 0.0038043016754428704 0.0 0.0
0.0030760377851909828 -0.00886668665459594 0.0 0.0029071913672448447 0.0 0.0
0.0022792958831654602 -0.007032456365536219 0.0 -0.0024516921551426597 0.0 0.0
0.001253779816252595 -0.0003661062093174444 0.0 -0.0033966695164514634 0.0 0.0
0.0004076998617359199 -6.783494778149913e-05 0.0 -0.0013982050835265915 0.0 0.0
0.0008030666673519911 -0.00028483159565576986 0.0 -0.0012712626277018673 0.0 0.0
0.0012206994085589165 -0.0005071815435417744 0.0 -0.001355807182137755 0.0 0.0
0.001723363377629627 -0.0007308635075870861 0.0 -0.0013797720412514487 0.0 0.0
0.0026125709724314316 -0.0012585662924510252 0.0 -0.0015708768963415796 0.0 0.0
0.004170088310843861 -0.0024588331925025192 0.0 -0.002207562759401707 0.0 0.0
0.00646008928225307 -0.004464612222739528 0.0 -0.003331092260742586 0.0 0.0
0.009379765277765538 -0.007139521188766661 0.0 -0.004659495482221285 0.0 0.0
0.012839015494952626 -0.010372715301527799 0.0 -0.006019950680442366 0.0 0.0
0.01683737131913603 -0.014139513730337935 0.0 -0.007363646137694704 0.0 0.0
0.02145429644570644 -0.01851482971999243 0.0 -0.008716477590507914 0.0 0.0
0.026827639579019034 -0.023657609189834464 0.0 -0.010192393126922876 0.0 0.0
0.033072899855161035 -0.029697954840254587 0.0 -0.011866503914523473 0.0 0.0
0.040178426577907086 -0.03663978352399596 0.0 -0.013620141185946223 0.0 0.0
0.04794512742834967 -0.04429118862935726 0.0 -0.015114958835097479 0.0 0.0
0.055960961011644175 -0.05224376913821146 0.0 -0.015801494365438255 0.0 0.0
0.06352653349000348 -0.05982778417246301 0.0 -0.01479953771427379 0.0 0.0
0.0696332221985916 -0.06604698447345692 0.0 -0.010908581911398268 0.0 0.0
0.07217820791080988 -0.06969805124174155 0.0 1.5097732092295146e-14 0.0 0.0
0.06963322219858235 -0.06604698447343785 0.0 0.010908581911432898 0.0 0.0
0.06352653348998714 -0.05982778417244153 0.0 0.01479953771430715 0.0 0.0
0.055960961011623137 -0.052243769138188526 0.0 0.015801494365460005 0.0 0.0
0.047945127428324845 -0.04429118862933335 0.0 0.015114958835101559 0.0 0.0
0.04017842657788038 -0.036639783523972964 0.0 0.013620141185939995 0.0 0.0
0.033072899855134716 -0.029697954840229072 0.0 0.011866503914520184 0.0 0.0
0.026827639578993243 -0.02365760918981082 0.0 0.010192393126918308 0.0 0.0
0.02145429644568121 -0.01851482971996694 0.0 0.008716477590502252 0.0 0.0
0.01683737131911198 -0.01413951373031451 0.0 0.00736364613768486 0.0 0.0
0.012839015494931038 -0.010372715301507305 0.0 0.006019950680429458 0.0 0.0
0.009379765277747427 -0.0071395211887506724 0.0 0.004659495482209875 0.0 0.0
0.006460089282239385 -0.004464612222725939 0.0 0.0033310922607346924 0.0 0.0
0.00417008831083468 -0.0024588331924951376 0.0 0.002207562759397133 0.0 0.0
0.0026125709724264074 -0.001258566292449142 0.0 0.0015708768963395648 0.0 0.0
0.0017233633776277265 -0.0007308635075861258 0.0 0.0013797720412512106 0.0 0.0
0.001220699408558082 -0.0005071815435428129 0.0 0.0013558071821361897 0.0 0.0
0.0008030666673515404 -0.00028483159565604465 0.0 0.0012712626276993497 0.0 0.0
0.00040769986173603336 -6.783494778163119e-05 0.0 0.0013982050835250964 0.0 0.0
0.0012537798162494675 -0.0003661062093161963 0.0 0.0033966695164428773 0.0 0.0
0.0022792958831588947 -0.00703245636552234 0.0 0.0024516921551366562 0.0 0.0
0.0016631473464105758 -0.005499662215216781 0.0 -0.002030409050878681 0.0 0.0
0.0009094135160501499 -0.0003564728883188306 0.0 -0.00302957662942428 0.0 0.0
0.00028135861388699777 -5.240684103538661e-05 0.0 -0.0016892589954414993 0.0 0.0
0.0005905475781691062 -0.0001812240712213333 0.0 -0.0015333641406779302 0.0 0.0
0.0009562772607440695 -0.0003872358020575363 0.0 -0.0016030619648195377 0.0 0.0
0.001364462692818636 -0.000581111605659075 0.0 -0.0016722785700239824 0.0 0.0
0.002018847199114042 -0.0009100722648921961 0.0 -0.0017952888872614426 0.0 0.0
0.0031837894503195384 -0.0017134742348936644 0.0 -0.002288728443811083 0.0 0.0
0.00497668134386974 -0.003194660754016169 0.0 -0.0032700358858808076 0.0 0.0
0.007341405680665871 -0.0053110850602523935 0.0 -0.004613648228182226 0.0 0.0
0.010152535258198798 -0.00790515348032602 0.0 -0.0060286992341536064 0.0 0.0
0.013366273761391278 -0.010908765092430984 0.0 -0.0074143050884584085 0.0 0.0
0.017047542233450234 -0.014374319236823318 0.0 -0.008787697377942792 0.0 0.0
0.021319307257613832 -0.01843930102186439 0.0 -0.010256954184400376 0.0 0.0
0.026301029240237812 -0.02323513683277888 0.0 -0.011890067971303155 0.0 0.0
0.03203300621551439 -0.02881727988527267 0.0 -0.013621218047337505 0.0 0.0
0.03840860766885936 -0.03507208544371082 0.0 -0.015129745853164213 0.0 0.0
0.04516084201479028 -0.041733493991128585 0.0 -0.0159246693355582 0.0 0.0
0.05183827382828784 -0.0483918969525882 0.0 -0.015204015590701276 0.0 0.0
0.057650717877808344 -0.054310940491166144 0.0 -0.011597421013479806 0.0 0.0
0.06021407945057225 -0.05831039882191891 0.0 1.5735242969716623e-14 0.0 0.0
0.057650717877800184 -0.054310940491153765 0.0 0.011597421013514256 0.0 0.0
0.05183827382827412 -0.048391896952571935 0.0 0.015204015590735021 0.0 0.0
0.045160842014772835 -0.04173349399111163 0.0 0.015924669335579723 0.0 0.0
0.0384086076688389 -0.035072085443698685 0.0 0.015129745853166034 0.0 0.0
0.03203300621549292 -0.02881727988525056 0.0 0.013621218047331685 0.0 0.0
0.02630102924021668 -0.02323513683275586 0.0 0.011890067971297838 0.0 0.0
0.021319307257593473 -0.018439301021848473 0.0 0.010256954184394864 0.0 0.0
0.01704754223343024 -0.014374319236804572 0.0 0.008787697377935248 0.0 0.0
0.01336627376137208 -0.010908765092411439 0.0 0.007414305088447686 0.0 0.0
0.0101525352581817 -0.007905153480309358 0.0 0.0060286992341408475 0.0 0.0
0.007341405680651492 -0.00531108506023972 0.0 0.004613648228170001 0.0 0.0
0.004976681343859001 -0.003194660754004679 0.0 0.0032700358858743475 0.0 0.0
0.003183789450312576 -0.0017134742348879834 0.0 0.002288728443807422 0.0 0.0
0.0020188471991105655 -0.0009100722648913366 0.0 0.0017952888872591203 0.0 0.0
0.0013644626928172702 -0.0005811116056590506 0.0 0.0016722785700227299 0.0 0.0
0.0009562772607434255 -0.00038723580205695816 0.0 0.0016030619648172218 0.0 0.0
0.0005905475781687642 -0.00018122407122050737 0.0 0.0015333641406757872 0.0 0.0
0.00028135861388674775 -5.240684103531558e-05 0.0 0.0016892589954397952 0.0 0.0
0.0009094135160477126 -0.0003564728883178502 0.0 0.0030295766294174777 0.0 0.0
0.0016631473464058597 -0.005499662215205718 0.0 0.0020304090508747132 0.0 0.0
0.0011856591585270076 -0.0042306503877665245 0.0 -0.0017183366473864608 0.0 0.0
0.0006408938237235787 -0.0003569761705166361 0.0 -0.0027012522673668087 0.0 0.0
0.00017041893342101142 -3.690783255293427e-05 0.0 -0.0019151051259332637 0.0 0.0
0.00039023748526222654 -9.030642198744474e-05 0.0 -0.0017625301350095604 0.0 0.0
0.0006900274154105351 -0.00026283171212929926 0.0 -0.0018148756164993902 0.0 0.0
0.0010194682635352263 -0.00043581968145262094 0.0 -0.0019275166607369445 0.0 0.0
0.0014801096965246661 -0.0006418334800731956 0.0 -0.002028369086647619 0.0 0.0
0.0022818114101241255 -0.0011151119501614886 0.0 -0.002342581907178563 0.0 0.0
0.00357177456095886 -0.0020732372731664395 0.0 -0.003070193790326395 0.0 0.0
0.005342519159132944 -0.0035799588837837123 0.0 -0.004210941846066674 0.0 0.0
0.007487986716050114 -0.0055089385900565745 0.0 -0.00555891585869026 0.0 0.0
0.009927265951508533 -0.007750399162088721 0.0 -0.006902163238201968 0.0 0.0
0.01268867542018004 -0.010317581191821072 0.0 -0.008224461682374822 0.0 0.0
0.01587289102596706 -0.013321290200619394 0.0 -0.009594799482006982 0.0 0.0
0.019599779382208863 -0.016882336074307093 0.0 -0.01108723870705047 0.0 0.0
0.023946472166966354 -0.021088937830133273 0.0 -0.01265574117416671 0.0 0.0
0.02888606063413547 -0.025913529365181664 0.0 -0.014078808929180167 0.0 0.0
0.03429947469377772 -0.03121105058782813 0.0 -0.01491161052121279 0.0 0.0
0.03998948978644862 -0.03682165384111812 0.0 -0.014566371306951379 0.0 0.0
0.0454614796467699 -0.042374754473463776 0.0 -0.011742042780433249 0.0 0.0
0.04805072300433016 -0.04680891880406182 0.0 1.2921955172551236e-14 0.0 0.0
0.045461479646763635 -0.04237475447345903 0.0 0.011742042780465426 0.0 0.0
0.03998948978643802 -0.036821653841106326 0.0 0.014566371306985064 0.0 0.0
0.03429947469376377 -0.03121105058781934 0.0 0.014911610521229909 0.0 0.0
0.028886060634119283 -0.02591352936517006 0.0 0.014078808929181345 0.0 0.0
0.02394647216694982 -0.021088937830116745 0.0 0.012655741174160916 0.0 0.0
0.019599779382192945 -0.016882336074294017 0.0 0.01108723870704453 0.0 0.0
0.015872891025952192 -0.013321290200604333 0.0 0.009594799482003322 0.0 0.0
0.012688675420165552 -0.010317581191810745 0.0 0.008224461682368357 0.0 0.0
0.009927265951494185 -0.007750399162072473 0.0 0.00690216323819309 0.0 0.0
0.00748798671603706 -0.005508938590045809 0.0 0.005558915858677803 0.0 0.0
0.00534251915912266 -0.0035799588837742424 0.0 0.0042109418460558705 0.0 0.0
0.003571774560951809 -0.002073237273159494 0.0 0.003070193790322392 0.0 0.0
0.0022818114101194344 -0.0011151119501579764 0.0 0.002342581907176011 0.0 0.0
0.001480109696522269 -0.0006418334800737494 0.0 0.0020283690866458467 0.0 0.0
0.0010194682635342863 -0.0004358196814526874 0.0 0.0019275166607343108 0.0 0.0
0.0006900274154099957 -0.00026283171212840284 0.0 0.0018148756164973238 0.0 0.0
0.0003902374852619198 -9.030642198685172e-05 0.0 0.0017625301350072515 0.0 0.0
0.00017041893342073186 -3.690783255234459e-05 0.0 0.0019151051259304174 0.0 0.0
0.0006408938237219605 -0.0003569761705163436 0.0 0.0027012522673622212 0.0 0.0
0.0011856591585239946 -0.004230650387758161 0.0 0.0017183366473837365 0.0 0.0
0.0008361781882379282 -0.00322999936735815 0.0 -0.0015493204313848825 0.0 0.0
0.0004329447635537778 -0.00036700968956948643 0.0 -0.0024303582644304733 0.0 0.0
6.198012906369327e-05 -1.2580813623126381e-05 0.0 -0.00207871944083176 0.0 0.0
0.00019996435122733366 -9.106065420954534e-06 0.0 -0.001947299111488544 0.0 0.0
0.0004238092370701806 -0.0001390568966962228 0.0 -0.00198520844819168 0.0 0.0
0.0006705239600081571 -0.00027935489320485583 0.0 -0.0021204845107414393 0.0 0.0
0.000980561707041929 -0.00042298451778175427 0.0 -0.0022666294896960715 0.0 0.0
0.001471442527327639 -0.00066706756742048 0.0 -0.002441706867371377 0.0 0.0
0.002273229168618996 -0.0011672278736886978 0.0 -0.002845465676509214 0.0 0.0
0.0034298707551831545 -0.0020451164251732135 0.0 -0.0035861713907978103 0.0 0.0
0.004877018159811053 -0.0032630381814796857 0.0 -0.004642538452364574 0.0 0.0
0.00653100944776436 -0.004724809663376941 0.0 -0.005797556146768249 0.0 0.0
0.0083840749445015 -0.0063954425398271035 0.0 -0.006988161652226177 0.0 0.0
0.01050349155236839 -0.008355017163088646 0.0 -0.00820208779372048 0.0 0.0
0.012989335426033649 -0.01069464950886749 0.0 -0.00946491268572938 0.0 0.0
0.01594039748762808 -0.013517166902599307 0.0 -0.010786472230963228 0.0 0.0
0.019415377650036546 -0.016873002214580487 0.0 -0.012041802211701692 0.0 0.0
0.02340817993876278 -0.020747913382213386 0.0 -0.012871499988562865 0.0 0.0
0.027942711532600504 -0.02514451433130096 0.0 -0.012789877715199252 0.0 0.0
0.03294657500583154 -0.030130298041734005 0.0 -0.011120398953599845 0.0 0.0
0.035536425481515505 -0.035057148468847936 0.0 9.84975989659631e-15 0.0 0.0
0.03294657500582769 -0.030130298041731694 0.0 0.0111203989536274 0.0 0.0
0.02794271153259273 -0.025144514331292982 0.0 0.01278987771522759 0.0 0.0
0.023408179938752556 -0.020747913382208057 0.0 0.012871499988576684 0.0 0.0
0.019415377650025496 -0.016873002214569825 0.0 0.012041802211702252 0.0 0.0
0.015940397487616942 -0.013517166902590467 0.0 0.010786472230957703 0.0 0.0
0.012989335426023322 -0.010694649508857972 0.0 0.00946491268572408 0.0 0.0
0.010503491552359055 -0.008355017163080188 0.0 0.008202087793717786 0.0 0.0
0.008384074944492418 -0.006395442539818484 0.0 0.006988161652221448 0.0 0.0
0.006531009447755233 -0.004724809663367927 0.0 0.005797556146761219 0.0 0.0
0.004877018159802631 -0.0032630381814725716 0.0 0.004642538452354101 0.0 0.0
0.003429870755176859 -0.002045116425164821 0.0 0.003586171390791251 0.0 0.0
0.0022732291686147466 -0.0011672278736842461 0.0 0.0028454656765068025 0.0 0.0
0.0014714425273249147 -0.0006670675674200279 0.0 0.002441706867368773 0.0 0.0
0.0009805617070406541 -0.0004229845177829636 0.0 0.0022666294896946373 0.0 0.0
0.0006705239600074924 -0.00027935489320453214 0.0 0.00212048451073904 0.0 0.0
0.00042380923706982014 -0.0001390568966958139 0.0 0.0019852084481892475 0.0 0.0
0.00019996435122719995 -9.106065420588269e-06 0.0 0.0019472991114863657 0.0 0.0
6.198012906356347e-05 -1.2580813623043101e-05 0.0 0.0020787194408283735 0.0 0.0
0.00043294476355286546 -0.0003670096895694499 0.0 0.0024303582644271565 0.0 0.0
0.0008361781882362139 -0.0032299993673523477 0.0 0.001549320431383234 0.0 0.0
0.000595288041549299 -0.0024762882933257267 0.0 -0.0014652121043814653 0.0 0.0
0.00027791298284682157 -0.00038191020217085943 0.0 -0.0022423609476065567 0.0 0.0
-4.3921176670700166e-05 2.0322027127316655e-05 0.0 -0.002182708711834107 0.0 0.0
1.74982316765692e-05 6.524663460646104e-05 0.0 -0.0020818121302811333 0.0 0.0
0.00016035504780855992 -1.793504485434986e-05 0.0 -0.002107415216819538 0.0 0.0
0.00031413580775275184 -0.00011530091021276342 0.0 -0.002245194808539101 0.0 0.0
0.00048723042647885013 -0.00020792116617437387 0.0 -0.0024349316158245797 0.0 0.0
0.000729109378913054 -0.0003207424729410465 0.0 -0.0026029194859343045 0.0 0.0
0.0011038422501384842 -0.0005102806348359579 0.0 -0.002772774556155221 0.0 0.0
0.0016522702676474042 -0.0008617692894264003 0.0 -0.0030877052984609734 0.0 0.0
0.0023700847935281704 -0.0013840693257310827 0.0 -0.003657910011627893 0.0 0.0
0.0032080324923771607 -0.0020490380813396963 0.0 -0.004441221473426713 0.0 0.0
0.004142340774446194 -0.002819654162632282 0.0 -0.005351907657507547 0.0 0.0
0.005211844649815474 -0.0037288521197822583 0.0 -0.006348255154701071 0.0 0.0
0.0064757811662045995 -0.0048479306024046915 0.0 -0.0074291025088256985 0.0 0.0
0.00802736891550926 -0.006267836361143947 0.0 -0.008613837892660311 0.0 0.0
0.009998907921643018 -0.008107370512413408 0.0 -0.009817445289864099 0.0 0.0
0.012534636379917774 -0.010510643965769841 0.0 -0.010723089681008794 0.0 0.0
0.015750855541552897 -0.013594271200513819 0.0 -0.01076286584212135 0.0 0.0
0.01998847113321868 -0.017596342127416235 0.0 -0.00969022678724559 0.0 0.0
0.02243631894754048 -0.02291359570875791 0.0 6.833509452741637e-15 0.0 0.0
0.019988471133217153 -0.017596342127414094 0.0 0.00969022678726721 0.0 0.0
0.015750855541548398 -0.013594271200508002 0.0 0.010762865842143629 0.0 0.0
0.012534636379911632 -0.01051064396576457 0.0 0.010723089681017513 0.0 0.0
0.009998907921636938 -0.008107370512408724 0.0 0.009817445289861587 0.0 0.0
0.008027368915503841 -0.006267836361141619 0.0 0.008613837892654649 0.0 0.0
0.00647578116620007 -0.00484793060240046 0.0 0.007429102508821152 0.0 0.0
0.005211844649812019 -0.0037288521197814473 0.0 0.006348255154698412 0.0 0.0
0.004142340774442782 -0.00281965416262796 0.0 0.005351907657503415 0.0 0.0
0.003208032492373331 -0.0020490380813358 0.0 0.004441221473420783 0.0 0.0
0.002370084793524792 -0.0013840693257291387 0.0 0.003657910011620735 0.0 0.0
0.0016522702676449892 -0.0008617692894201446 0.0 0.0030877052984580925 0.0 0.0
0.0011038422501367811 -0.0005102806348356386 0.0 0.002772774556152987 0.0 0.0
0.0007291093789118149 -0.00032074247294067274 0.0 0.0026029194859331865 0.0 0.0
0.0004872304264784894 -0.00020792116617530563 0.0 0.002434931615822822 0.0 0.0
0.0003141358077526098 -0.00011530091021165173 0.0 0.0022451948085367855 0.0 0.0
0.0001603550478085252 -1.7935044853299125e-05 0.0 0.002107415216817536 0.0 0.0
1.749823167655971e-05 6.524663460669524e-05 0.0 0.002081812130278578 0.0 0.0
-4.392117667085485e-05 2.0322027127706595e-05 0.0 0.0021827087118322253 0.0 0.0
0.000277912982846328 -0.00038191020217072955 0.0 0.002242360947604148 0.0 0.0
0.0005952880415482139 -0.0024762882933218964 0.0 0.0014652121043804874 0.0 0.0
0.0004256625186738586 -0.0019206494762967347 0.0 -0.0014106200763915207 0.0 0.0
0.0001617987120455397 -0.0003838891449991078 0.0 -0.0021052865949810666 0.0 0.0
-0.00014294826971696006 5.430997268722819e-05 0.0 -0.002234248787344567 0.0 0.0
-0.00015759335107340175 0.00013548715004497503 0.0 -0.0021627407946724917 0.0 0.0
-9.841710361049001e-05 9.940065514897925e-05 0.0 -0.00217538051038123 0.0 0.0
-4.45790146145798e-05 4.975203080555862e-05 0.0 -0.0022995587084848773 0.0 0.0
-1.4618909342456479e-05 1.384748916357453e-05 0.0 -0.002495591430485342 0.0 0.0
-3.0129433559855493e-06 2.450267807546642e-06 0.0 -0.002689310615853274 0.0 0.0
1.4345945155934663e-07 -5.568828416686593e-07 0.0 -0.0028058796187263894 0.0 0.0
5.852567013820429e-07 -2.1993607800159667e-07 0.0 -0.0029336197398236587 0.0 0.0
7.144938752081656e-07 -1.701342209336866e-06 0.0 -0.0032137334760127608 0.0 0.0
-1.9606800671555995e-06 1.841862483714505e-06 0.0 -0.0037677612582618413 0.0 0.0
-1.0066540646025543e-05 7.833960162512626e-06 0.0 -0.004488153252014144 0.0 0.0
-2.018221955028235e-05 1.775549645976324e-05 0.0 -0.0053560344943438445 0.0 0.0
-6.07204107864925e-06 1.428272696295073e-05 0.0 -0.006392540530258647 0.0 0.0
0.00012788291627100694 -8.157669008152809e-05 0.0 -0.007601629237004124 0.0 0.0
0.0005896244840761639 -0.00044800202393143894 0.0 -0.00894390380044709 0.0 0.0
0.0016755307053579092 -0.0013570682257479118 0.0 -0.010275518835540481 0.0 0.0
0.003615543151461277 -0.0030220262302161354 0.0 -0.011300279719562073 0.0 0.0
0.006705156726425761 -0.005503762737716266 0.0 -0.011476357385390254 0.0 0.0
0.008593784248667836 -0.011119922470930348 0.0 7.741203511546502e-15 0.0 0.0
0.006705156726425842 -0.005503762737711499 0.0 0.011476357385405502 0.0 0.0
0.003615543151459828 -0.003022026230210274 0.0 0.0113002797195738 0.0 0.0
0.0016755307053568811 -0.0013570682257474907 0.0 0.010275518835542665 0.0 0.0
0.0005896244840766754 -0.00044800202393210464 0.0 0.008943903800443064 0.0 0.0
0.0001278829162719028 -8.157669008322335e-05 0.0 0.007601629236998204 0.0 0.0
-6.072041077523197e-06 1.4282726959668958e-05 0.0 0.006392540530254792 0.0 0.0
-2.0182219548360548e-05 1.7755496457076778e-05 0.0 0.005356034494340772 0.0 0.0
-1.0066540643859686e-05 7.83396016018937e-06 0.0 0.004488153252008108 0.0 0.0
-1.960680065330345e-06 1.8418624839204763e-06 0.0 0.003767761258255832 0.0 0.0
7.144938767899623e-07 -1.701342212976614e-06 0.0 0.003213733476007401 0.0 0.0
5.852567027528539e-07 -2.199360765902026e-07 0.0 0.0029336197398214608 0.0 0.0
1.4345945237500548e-07 -5.568828444579998e-07 0.0 0.002805879618725186 0.0 0.0
-3.0129433556301208e-06 2.4502678075575585e-06 0.0 0.0026893106158516573 0.0 0.0
-1.461890934213151e-05 1.3847489163260307e-05 0.0 0.0024955914304818413 0.0 0.0
-4.4579014614115204e-05 4.975203080567505e-05 0.0 0.0022995587084824825 0.0 0.0
-9.841710361018822e-05 9.940065514947486e-05 0.0 0.0021753805103790036 0.0 0.0
-0.0001575933510732049 0.00013548715004472922 0.0 0.0021627407946700375 0.0 0.0
-0.0001429482697168881 5.430997268782059e-05 0.0 0.0022342487873431047 0.0 0.0
0.00016179871204515106 -0.00038388914499902467 0.0 0.002105286594978919 0.0 0.0
0.000425662518673229 -0.0019206494762941922 0.0 0.0014106200763913583 0.0 0.0
0.0003096208145319578 -0.0014946816926036883 0.0 -0.0013327275470808393 0.0 0.0
7.522467568925459e-05 -0.00036444228248649023 0.0 -0.001976852460557243 0.0 0.0
-0.00023496041289355565 8.590750313395152e-05 0.0 -0.0022359243454483906 0.0 0.0
-0.0003246701769782368 0.00020233993073199983 0.0 -0.0021888986578066398 0.0 0.0
-0.00035074238284954213 0.00021146744509682454 0.0 -0.0021857461201855157 0.0 0.0
-0.0003993382415602806 0.00021264656241590962 0.0 -0.0022826166989079774 0.0 0.0
-0.0005157578970427921 0.00023538791328737497 0.0 -0.0024513887398165822 0.0 0.0
-0.0007354815742953266 0.0003254702126742193 0.0 -0.002608306573520264 0.0 0.0
-0.001103336884428545 0.000509196860715728 0.0 -0.0027743593270411456 0.0 0.0
-0.0016502837707315881 0.0008603512063304277 0.0 -0.0030861795821658993 0.0 0.0
-0.0023683940604850807 0.0013819531786917376 0.0 -0.0036530355215182615 0.0 0.0
-0.0032126160328809833 0.0020530944074363265 0.0 -0.004439539071945335 0.0 0.0
-0.004162886043390435 0.0028371643012944023 0.0 -0.0053451099646950025 0.0 0.0
-0.005252412649838985 0.003767873637986722 0.0 -0.006336560705509393 0.0 0.0
-0.006486571909264386 0.004879254606126092 0.0 -0.0074372422971265145 0.0 0.0
-0.007778863811797994 0.00610443224413123 0.0 -0.008730206110271147 0.0 0.0
-0.00889624395245322 0.00721706897741047 0.0 -0.010290207424061266 0.0 0.0
-0.009454596378033042 0.007836683356463536 0.0 -0.01217566571442359 0.0 0.0
-0.008986237110786789 0.007555208906252338 0.0 -0.014261403306691619 0.0 0.0
-0.006299793014345318 0.005597644029142158 0.0 -0.015116538629805033 0.0 0.0
-0.004165021456888561 -0.0006600207729571992 0.0 9.354062663335938e-15 0.0 0.0
-0.0062997930143457274 0.005597644029144865 0.0 0.015116538629821315 0.0 0.0
-0.008986237110785044 0.007555208906252808 0.0 0.014261403306702957 0.0 0.0
-0.009454596378027556 0.0078366833564597 0.0 0.012175665714426024 0.0 0.0
-0.008896243952445648 0.007217068977401443 0.0 0.010290207424055401 0.0 0.0
-0.007778863811790649 0.006104432244124262 0.0 0.008730206110264236 0.0 0.0
-0.006486571909257668 0.0048792546061198865 0.0 0.007437242297121432 0.0 0.0
-0.0052524126498319015 0.0037678736379780694 0.0 0.006336560705504483 0.0 0.0
-0.004162886043382287 0.0028371643012860643 0.0 0.005345109964688549 0.0 0.0
-0.003212616032873 0.002053094407430808 0.0 0.0044395390719369 0.0 0.0
-0.0023683940604785226 0.0013819531786852135 0.0 0.003653035521510364 0.0 0.0
-0.001650283770726586 0.0008603512063266041 0.0 0.0030861795821619507 0.0 0.0
-0.0011033368844253705 0.0005091968607135592 0.0 0.0027743593270398463 0.0 0.0
-0.0007354815742937994 0.0003254702126737047 0.0 0.0026083065735194636 0.0 0.0
-0.0005157578970418536 0.00023538791328767822 0.0 0.00245138873981394 0.0 0.0
-0.0003993382415595596 0.000212646562416026 0.0 0.0022826166989054508 0.0 0.0
-0.000350742382849229 0.00021146744509612176 0.0 0.0021857461201825615 0.0 0.0
-0.00032467017697784963 0.0002023399307317778 0.0 0.0021888986578043187 0.0 0.0
-0.00023496041289326286 8.590750313409849e-05 0.0 0.0022359243454462283 0.0 0.0
7.522467568920791e-05 -0.000364442282486643 0.0 0.0019768524605550623 0.0 0.0
0.00030962081453179627 -0.001494681692601846 0.0 0.0013327275470799277 0.0 0.0
0.00021897896568494189 -0.001137273247336563 0.0 -0.0012069625384668002 0.0 0.0
3.861635780111289e-06 -0.00032810011384958303 0.0 -0.0018388020352257581 0.0 0.0
-0.000320408624233812 0.00011653671545202657 0.0 -0.0021855576086541287 0.0 0.0
-0.00048361040741935985 0.0002650893806746463 0.0 -0.0021603442262070377 0.0 0.0
-0.0005950620444740109 0.0003177881901871848 0.0 -0.0021361158196364434 0.0 0.0
-0.0007466156291587368 0.00036897092808046457 0.0 -0.0021950213840142402 0.0 0.0
-0.0010062376246548735 0.0004503812326032545 0.0 -0.0022994486847829473 0.0 0.0
-0.0014765397982079462 0.0006713686793783235 0.0 -0.00245333989874051 0.0 0.0
-0.002272042793285488 0.001165308221865941 0.0 -0.0028460828025368367 0.0 0.0
-0.003427381176684308 0.002042427258622537 0.0 -0.003581905726986575 0.0 0.0
-0.004876217485872564 0.0032628890081417804 0.0 -0.004639825987503419 0.0 0.0
-0.0065353157469360094 0.004729102742917525 0.0 -0.0057964833216083275 0.0 0.0
-0.008401512105392866 0.006412184291926975 0.0 -0.006972018509514333 0.0 0.0
-0.010540387497965166 0.00839278166941097 0.0 -0.008157609305298462 0.0 0.0
-0.013004199330035647 0.010727371866106316 0.0 -0.009433233840119093 0.0 0.0
-0.01572727728223984 0.013375877934497184 0.0 -0.010982693285908729 0.0 0.0
-0.018438196919873362 0.016074825883928112 0.0 -0.013026669181793373 0.0 0.0
-0.020634112174621348 0.018316237228432352 0.0 -0.015671866306383144 0.0 0.0
-0.02135981717981248 0.019222739757023356 0.0 -0.018375897096288767 0.0 0.0
-0.018920795593835398 0.017012789677833543 0.0 -0.018913871027185954 0.0 0.0
-0.016647938092990755 0.008992930263939616 0.0 1.0408340855860843e-14 0.0 0.0
-0.018920795593834385 0.017012789677831493 0.0 0.01891387102721036 0.0 0.0
-0.02135981717980767 0.019222739757016244 0.0 0.01837589709631215 0.0 0.0
-0.02063411217461126 0.018316237228427113 0.0 0.01567186630639217 0.0 0.0
-0.01843819691985981 0.016074825883917704 0.0 0.0130266691817905 0.0 0.0
-0.015727277282226452 0.01337587793448081 0.0 0.010982693285901452 0.0 0.0
-0.01300419933002362 0.01072737186609811 0.0 0.009433233840111353 0.0 0.0
-0.010540387497952275 0.008392781669397298 0.0 0.008157609305291417 0.0 0.0
-0.008401512105379044 0.0064121842919142285 0.0 0.006972018509507835 0.0 0.0
-0.006535315746923099 0.004729102742906806 0.0 0.005796483321597665 0.0 0.0
-0.004876217485860791 0.0032628890081319805 0.0 0.004639825987491476 0.0 0.0
-0.0034273811766749995 0.0020424272586132457 0.0 0.003581905726979211 0.0 0.0
-0.0022720427932796847 0.001165308221865059 0.0 0.0028460828025338265 0.0 0.0
-0.0014765397982045587 0.0006713686793777738 0.0 0.002453339898738922 0.0 0.0
-0.0010062376246530134 0.00045038123260318945 0.0 0.0022994486847809563 0.0 0.0
-0.0007466156291576568 0.00036897092808015183 0.0 0.002195021384012286 0.0 0.0
-0.0005950620444730879 0.0003177881901858957 0.0 0.002136115819634353 0.0 0.0
-0.00048361040741876245 0.000265089380674584 0.0 0.0021603442262047795 0.0 0.0
-0.0003204086242335466 0.00011653671545184108 0.0 0.00218555760865244 0.0 0.0
3.8616357803499764e-06 -0.0003281001138495299 0.0 0.0018388020352240607 0.0 0.0
0.00021897896568509484 -0.0011372732473351442 0.0 0.0012069625384657939 0.0 0.0
0.0001403533014920041 -0.0008322408333296539 0.0 -0.0010589523454981042 0.0 0.0
-6.034918333840608e-05 -0.00027762949793131705 0.0 -0.0016786054999319059 0.0 0.0
-0.0004010823185778958 0.00014743470240798808 0.0 -0.0020834954362232766 0.0 0.0
-0.0006344154837736907 0.0003236129016537305 0.0 -0.002076684305945008 0.0 0.0
-0.0008299521573958257 0.00041713531675552004 0.0 -0.002028952764599853 0.0 0.0
-0.00108000009079458 0.0005138975088426247 0.0 -0.0020296980217901764 0.0 0.0
-0.0015015059023561937 0.0006696408468651985 0.0 -0.0020762086741538707 0.0 0.0
-0.002285537593844536 0.0011177153735361836 0.0 -0.00235649478779335 0.0 0.0
-0.0035690144057236237 0.0020695876650340755 0.0 -0.0030671282420908466 0.0 0.0
-0.005340426528996005 0.0035774373460576298 0.0 -0.004205771746677744 0.0 0.0
-0.007488385358833392 0.0055102911730864415 0.0 -0.005557722366234981 0.0 0.0
-0.009930334996481747 0.007754206066822384 0.0 -0.006900190747625999 0.0 0.0
-0.012698005997018627 0.01032704264112962 0.0 -0.008200327204324353 0.0 0.0
-0.015894738173558423 0.013342495128394282 0.0 -0.009512036386964942 0.0 0.0
-0.019612280048373863 0.016904363751713482 0.0 -0.010974283688650372 0.0 0.0
-0.023807845338613312 0.021003955750837716 0.0 -0.012834526540395184 0.0 0.0
-0.02817023702938165 0.025352054782502454 0.0 -0.015478664766633347 0.0 0.0
-0.031943836482350586 0.029235555544992763 0.0 -0.019031676886991308 0.0 0.0
-0.033699035705361126 0.03122817798032502 0.0 -0.022518241672075032 0.0 0.0
-0.030959092775684427 0.028976940206295376 0.0 -0.023658052313906826 0.0 0.0
-0.02807450875031845 0.018379073489706264 0.0 1.244143676970566e-14 0.0 0.0
-0.030959092775681603 0.028976940206292226 0.0 0.023658052313933035 0.0 0.0
-0.03369903570535348 0.03122817798031436 0.0 0.02251824167210257 0.0 0.0
-0.03194383648233657 0.029235555544982243 0.0 0.01903167688700479 0.0 0.0
-0.028170237029363145 0.025352054782489135 0.0 0.015478664766632119 0.0 0.0
-0.023807845338594653 0.021003955750816403 0.0 0.012834526540387154 0.0 0.0
-0.01961228004835638 0.016904363751697196 0.0 0.01097428368864293 0.0 0.0
-0.015894738173539952 0.013342495128375514 0.0 0.009512036386958286 0.0 0.0
-0.012698005996999426 0.010327042641112307 0.0 0.008200327204315632 0.0 0.0
-0.009930334996463525 0.007754206066806478 0.0 0.006900190747613522 0.0 0.0
-0.00748838535881694 0.005510291173071735 0.0 0.005557722366222064 0.0 0.0
-0.00534042652898284 0.00357743734604699 0.0 0.00420577174666762 0.0 0.0
-0.0035690144057144105 0.002069587665028739 0.0 0.0030671282420851207 0.0 0.0
-0.002285537593838978 0.0011177153735334058 0.0 0.002356494787790577 0.0 0.0
-0.0015015059023534517 0.0006696408468618094 0.0 0.0020762086741521026 0.0 0.0
-0.0010800000907931913 0.0005138975088423744 0.0 0.0020296980217886455 0.0 0.0
-0.0008299521573948906 0.00041713531675528304 0.0 0.002028952764597809 0.0 0.0
-0.0006344154837729701 0.000323612901652998 0.0 0.0020766843059424464 0.0 0.0
-0.00040108231857737773 0.00014743470240743357 0.0 0.0020834954362221334 0.0 0.0
-6.034918333820161e-05 -0.00027762949793092896 0.0 0.001678605499930885 0.0 0.0
0.00014035330149194278 -0.0008322408333285791 0.0 0.0010589523454973802 0.0 0.0
7.009833024106723e-05 -0.0005752180368816176 0.0 -0.0009032213864042806 0.0 0.0
-0.00012033971529621236 -0.0002169970526260862 0.0 -0.001493784370310954 0.0 0.0
-0.00047859222543796486 0.0001798178798361287 0.0 -0.0019306644354992243 0.0 0.0
-0.0007779546054800363 0.00037807702521693406 0.0 -0.0019383134878352389 0.0 0.0
-0.0010522397520037548 0.0005077240003473414 0.0 -0.001863138999142434 0.0 0.0
-0.0014064628289269252 0.0006456564448149985 0.0 -0.0017895290831210914 0.0 0.0
-0.002034528934492828 0.0009357120979538022 0.0 -0.0018505643119502094 0.0 0.0
-0.003183845199984813 0.0017128507238392235 0.0 -0.0022989655975940325 0.0 0.0
-0.004973495895895389 0.0031900824638698643 0.0 -0.0032637173190696793 0.0 0.0
-0.007340553149052392 0.00530993449208933 0.0 -0.004608893370858526 0.0 0.0
-0.010154146499507162 0.007907875218541657 0.0 -0.006028208093228697 0.0 0.0
-0.01336736612767031 0.010911702710676317 0.0 -0.007411733572736926 0.0 0.0
-0.017044531939732935 0.014373350928708131 0.0 -0.008759084683077885 0.0 0.0
-0.021313512398015776 0.018431978114513494 0.0 -0.010148130224813767 0.0 0.0
-0.026299054458887403 0.023229988824256607 0.0 -0.011702448255831038 0.0 0.0
-0.03199262040781608 0.028801285578753902 0.0 -0.013725784759006095 0.0 0.0
-0.038016469750388464 0.0348206032802137 0.0 -0.0166705579710078 0.0 0.0
-0.0433206123825199 0.04029774654475978 0.0 -0.020715628687331084 0.0 0.0
-0.04592044542858323 0.043272692304563196 0.0 -0.02497945292196196 0.0 0.0
-0.042564003794662124 0.040592333430748306 0.0 -0.026973316943788368 0.0 0.0
-0.038897629779231106 0.027455254128723433 0.0 1.3840491253080955e-14 0.0 0.0
-0.04256400379465749 0.04059233343074377 0.0 0.02697331694381947 0.0 0.0
-0.045920445428572036 0.04327269230455721 0.0 0.024979452921993155 0.0 0.0
-0.043320612382501865 0.0402977465447376 0.0 0.020715628687346607 0.0 0.0
-0.03801646975036576 0.03482060328019195 0.0 0.01667055797100722 0.0 0.0
-0.03199262040779216 0.02880128557873375 0.0 0.013725784758999177 0.0 0.0
-0.026299054458863925 0.023229988824233234 0.0 0.011702448255822015 0.0 0.0
-0.021313512397991907 0.018431978114491168 0.0 0.010148130224806274 0.0 0.0
-0.01704453193970874 0.014373350928681673 0.0 0.008759084683069017 0.0 0.0
-0.013367366127647053 0.010911702710654558 0.0 0.007411733572724049 0.0 0.0
-0.010154146499485978 0.007907875218521761 0.0 0.006028208093213506 0.0 0.0
-0.007340553149035308 0.0053099344920740695 0.0 0.004608893370846419 0.0 0.0
-0.004973495895882945 0.0031900824638588622 0.0 0.003263717319062193 0.0 0.0
-0.0031838451999766128 0.0017128507238341002 0.0 0.002298965597589494 0.0 0.0
-0.0020345289344886135 0.000935712097950364 0.0 0.0018505643119486642 0.0 0.0
-0.001406462828924913 0.0006456564448145559 0.0 0.001789529083120659 0.0 0.0
-0.0010522397520026053 0.0005077240003470286 0.0 0.001863138999140367 0.0 0.0
-0.0007779546054792271 0.0003780770252163708 0.0 0.0019383134878333697 0.0 0.0
-0.00047859222543739023 0.00017981787983582608 0.0 0.0019306644354975659 0.0 0.0
-0.00012033971529611486 -0.0002169970526261558 0.0 0.001493784370309756 0.0 0.0
7.00983302409401e-05 -0.0005752180368808601 0.0 0.0009032213864035947 0.0 0.0
7.917436760288618e-06 -0.0003643133913171825 0.0 -0.0007436140196791511 0.0 0.0
-0.00017638627014227362 -0.0001507919507908745 0.0 -0.0012857911259942561 0.0 0.0
-0.0005535775233111521 0.00021410111562181536 0.0 -0.0017283993463437903 0.0 0.0
-0.0009139550167095796 0.00042864637759863116 0.0 -0.0017459720527512135 0.0 0.0
-0.001262221848546953 0.0005880764248908623 0.0 -0.0016380819607951602 0.0 0.0
-0.0017425308805386597 0.0007825903851236645 0.0 -0.001512727091151134 0.0 0.0
-0.002621748488110168 0.001278047299953361 0.0 -0.0016201288066982013 0.0 0.0
-0.004168217342474284 0.002455229102834871 0.0 -0.002211415900426797 0.0 0.0
-0.006457579706390733 0.004461073308070612 0.0 -0.0033234651339277654 0.0 0.0
-0.009380571606323893 0.007140190503815558 0.0 -0.004655778546691199 0.0 0.0
-0.012841445306495525 0.010376262656145926 0.0 -0.00601956300584076 0.0 0.0
-0.01683594499834232 0.014140948889119802 0.0 -0.0073596857161478055 0.0 0.0
-0.021436979220402184 0.018502171840001802 0.0 -0.008685262522252735 0.0 0.0
-0.026787173980369235 0.02361663452964782 0.0 -0.010078689858469055 0.0 0.0
-0.03304302894589215 0.029652166943775086 0.0 -0.011651633850609789 0.0 0.0
-0.04021612915703646 0.03667217161986559 0.0 -0.013617417529415275 0.0 0.0
-0.04785867484371105 0.04432250805918428 0.0 -0.016440323086680475 0.0 0.0
-0.054642354899979526 0.05135624657796463 0.0 -0.02055100013612767 0.0 0.0
-0.057995428453322645 0.05523239379136208 0.0 -0.02543957883327393 0.0 0.0
-0.05398366703927291 0.05204847722364501 0.0 -0.02912105553696471 0.0 0.0
-0.04956041114677186 0.036512355366046 0.0 1.299047674985232e-14 0.0 0.0
-0.05398366703926599 0.052048477223637334 0.0 0.029121055536995878 0.0 0.0
-0.05799542845330834 0.055232393791351 0.0 0.02543957883330356 0.0 0.0
-0.05464235489995811 0.05135624657794176 0.0 0.020551000136144533 0.0 0.0
-0.04785867484368434 0.04432250805915864 0.0 0.0164403230866832 0.0 0.0
-0.04021612915700791 0.03667217161984023 0.0 0.01361741752941039 0.0 0.0
-0.033043028945863376 0.029652166943751113 0.0 0.011651633850602099 0.0 0.0
-0.026787173980339907 0.023616634529621924 0.0 0.010078689858461486 0.0 0.0
-0.02143697922037277 0.01850217183997207 0.0 0.008685262522243064 0.0 0.0
-0.01683594499831422 0.014140948889093063 0.0 0.007359685716135976 0.0 0.0
-0.01284144530646993 0.010376262656120693 0.0 0.00601956300582636 0.0 0.0
-0.009380571606302828 0.007140190503795017 0.0 0.004655778546679073 0.0 0.0
-0.006457579706374986 0.004461073308057725 0.0 0.003323465133919508 0.0 0.0
-0.00416821734246335 0.0024552291028261653 0.0 0.002211415900421078 0.0 0.0
-0.002621748488104135 0.0012780472999508411 0.0 0.0016201288066965082 0.0 0.0
-0.0017425308805360396 0.0007825903851224541 0.0 0.0015127270911504513 0.0 0.0
-0.001262221848545635 0.0005880764248897385 0.0 0.001638081960794161 0.0 0.0
-0.0009139550167086184 0.00042864637759827044 0.0 0.0017459720527498689 0.0 0.0
-0.0005535775233103982 0.00021410111562210788 0.0 0.001728399346342719 0.0 0.0
-0.00017638627014182428 -0.0001507919507911665 0.0 0.0012857911259922402 0.0 0.0
7.917436760550797e-06 -0.00036431339131666484 0.0 0.0007436140196793637 0.0 0.0
-4.486852466910283e-05 -0.0001992490336183276 0.0 -0.000581996547294853 0.0 0.0
-0.00022701613219071895 -8.347277672917954e-05 0.0 -0.001056711840273531 0.0 0.0
-0.0006256057445652829 0.0002494271711283933 0.0 -0.0014781472749092425 0.0 0.0
-0.001042886708919196 0.00047578963698993216 0.0 -0.0014990690353305885 0.0 0.0
-0.0014691079137405286 0.000658452419160172 0.0 -0.0013602812378343595 0.0 0.0
-0.002099983691496559 0.0009468583734804543 0.0 -0.0012138140148521645 0.0 0.0
-0.003269942146918358 0.001713352463383889 0.0 -0.001373829532654133 0.0 0.0
-0.0052273728846610485 0.003332997710909389 0.0 -0.002078438866278036 0.0 0.0
-0.007977684319647517 0.005808707918901869 0.0 -0.003130581524517696 0.0 0.0
-0.011430393836508925 0.00901423748171085 0.0 -0.004320443221866301 0.0 0.0
-0.015543677739987122 0.012885559283391766 0.0 -0.005564018142486001 0.0 0.0
-0.02032509687706351 0.017414133069206295 0.0 -0.0067836215302412425 0.0 0.0
-0.025863789036405255 0.022689300963509268 0.0 -0.008006750661101833 0.0 0.0
-0.03231280551284926 0.028876902328346117 0.0 -0.009327875490819527 0.0 0.0
-0.03981884250214379 0.03614094916656716 0.0 -0.010827220759974514 0.0 0.0
-0.048399487666774495 0.0445399572291261 0.0 -0.012572998247629745 0.0 0.0
-0.05758269280645678 0.053717023248923246 0.0 -0.01487796623752504 0.0 0.0
-0.06579691517070509 0.06225274476594404 0.0 -0.018513268462140887 0.0 0.0
-0.06995014822082257 0.06708659997713727 0.0 -0.023924926898786936 0.0 0.0
-0.06545846602481449 0.06359887722573908 0.0 -0.03033207836288676 0.0 0.0
-0.06039299962592069 0.045866260870116866 0.0 1.3557731326496736e-14 0.0 0.0
-0.06545846602480535 0.06359887722572748 0.0 0.030332078362916688 0.0 0.0
-0.06995014822080522 0.06708659997712652 0.0 0.02392492689881644 0.0 0.0
-0.06579691517068004 0.062252744765923185 0.0 0.018513268462159012 0.0 0.0
-0.05758269280642597 0.05371702324888986 0.0 0.014877966237528586 0.0 0.0
-0.048399487666740994 0.04453995722909407 0.0 0.012572998247626121 0.0 0.0
-0.039818842502109465 0.036140949166536145 0.0 0.010827220759968574 0.0 0.0
-0.03231280551281493 0.02887690232831447 0.0 0.009327875490812342 0.0 0.0
-0.025863789036370745 0.022689300963476815 0.0 0.008006750661092778 0.0 0.0
-0.0203250968770304 0.017414133069174758 0.0 0.00678362153023007 0.0 0.0
-0.015543677739957424 0.012885559283363707 0.0 0.005564018142473632 0.0 0.0
-0.01143039383648439 0.00901423748168593 0.0 0.004320443221855822 0.0 0.0
-0.007977684319628755 0.005808707918887028 0.0 0.003130581524510557 0.0 0.0
-0.005227372884647511 0.003332997710898061 0.0 0.002078438866271632 0.0 0.0
-0.0032699421469105277 0.0017133524633797842 0.0 0.0013738295326510943 0.0 0.0
-0.00209998369149304 0.000946858373479382 0.0 0.0012138140148513674 0.0 0.0
-0.0014691079137389561 0.0006584524191587531 0.0 0.0013602812378345243 0.0 0.0
-0.001042886708918408 0.0004757896369891745 0.0 0.0014990690353289377 0.0 0.0
-0.0006256057445650348 0.00024942717112860595 0.0 0.0014781472749088448 0.0 0.0
-0.00022701613219066897 -8.34727767293945e-05 0.0 0.0010567118402712082 0.0 0.0
-4.4868524668967274e-05 -0.000199249033618046 0.0 0.000581996547294229 0.0 0.0
-8.551603574231677e-05 -8.075011129718207e-05 0.0 -0.00042209199737947565 0.0 0.0
-0.0002691249920345241 -1.9691214521145156e-05 0.0 -0.0008091786519534687 0.0 0.0
-0.0006927522975731934 0.00028384760496494874 0.0 -0.0011790526532335767 0.0 0.0
-0.0011668160044117784 0.0005194244849605705 0.0 -0.0011965617146699763 0.0 0.0
-0.001680123608619084 0.0007276322969407185 0.0 -0.0010349553151601887 0.0 0.0
-0.002494010835172016 0.0011518153239838032 0.0 -0.0008824029993017104 0.0 0.0
-0.003986604103918048 0.002259969882251482 0.0 -0.0011282693053322 0.0 0.0
-0.006325067004994288 0.004288093978242598 0.0 -0.0017919129305607026 0.0 0.0
-0.009499924361386617 0.007185585533618848 0.0 -0.0026476174371371634 0.0 0.0
-0.013482690456124331 0.010911508494055186 0.0 -0.003641363648967785 0.0 0.0
-0.01824775977051749 0.015415255453805315 0.0 -0.004680883069933006 0.0 0.0
-0.023824201935845907 0.02071410543936963 0.0 -0.0057027355452227224 0.0 0.0
-0.030316922140906283 0.026916903710539973 0.0 -0.006736281842753936 0.0 0.0
-0.03787262713431556 0.03419420401589051 0.0 -0.007889172658408234 0.0 0.0
-0.0466106665247917 0.04267863042230814 0.0 -0.009229872237902618 0.0 0.0
-0.05649685553279561 0.05236179640598124 0.0 -0.010682078011698086 0.0 0.0
-0.06704969076813569 0.0628636574172996 0.0 -0.01220380265858334 0.0 0.0
-0.0766508994756592 0.0728049723734127 0.0 -0.014667801543218973 0.0 0.0
-0.08183023135251238 0.07883489813410713 0.0 -0.020322832687729307 0.0 0.0
-0.0772286083932999 0.07550379925359049 0.0 -0.030379699266245355 0.0 0.0
-0.07170693763684043 0.05585692720268856 0.0 1.2429293705373823e-14 0.0 0.0
-0.07722860839328938 0.07550379925357838 0.0 0.030379699266273284 0.0 0.0
-0.08183023135249158 0.07883489813409511 0.0 0.020322832687755 0.0 0.0
-0.07665089947562981 0.07280497237338197 0.0 0.014667801543232776 0.0 0.0
-0.06704969076810062 0.0628636574172605 0.0 0.012203802658585752 0.0 0.0
-0.05649685553275782 0.052361796405944495 0.0 0.010682078011697637 0.0 0.0
-0.04661066652475263 0.04267863042226819 0.0 0.009229872237898763 0.0 0.0
-0.03787262713427597 0.034194204015852915 0.0 0.00788917265840161 0.0 0.0
-0.03031692214086662 0.026916903710500716 0.0 0.006736281842746491 0.0 0.0
-0.023824201935807882 0.020714105439334954 0.0 0.005702735545213406 0.0 0.0
-0.018247759770483808 0.015415255453773216 0.0 0.004680883069922055 0.0 0.0
-0.013482690456096293 0.010911508494026893 0.0 0.003641363648956979 0.0 0.0
-0.009499924361364575 0.007185585533601109 0.0 0.0026476174371307436 0.0 0.0
-0.006325067004978432 0.004288093978229532 0.0 0.0017919129305552766 0.0 0.0
-0.003986604103908211 0.002259969882244297 0.0 0.001128269305329409 0.0 0.0
-0.0024940108351671772 0.0011518153239813676 0.0 0.0008824029993009788 0.0 0.0
-0.0016801236086172219 0.0007276322969401799 0.0 0.001034955315159361 0.0 0.0
-0.0011668160044108994 0.0005194244849599036 0.0 0.0011965617146679557 0.0 0.0
-0.0006927522975725331 0.0002838476049644572 0.0 0.0011790526532332447 0.0 0.0
-0.0002691249920341786 -1.9691214520794654e-05 0.0 0.0008091786519526877 0.0 0.0
-8.551603574213717e-05 -8.075011129723353e-05 0.0 0.0004220919973786191 0.0 0.0
-0.00010943061508031084 -9.797778459916211e-06 0.0 -0.0002731994149168352 0.0 0.0
-0.00029721825012940544 3.467514602538851e-05 0.0 -0.0005467099046255874 0.0 0.0
-0.0007519416128878484 0.0003139417345507028 0.0 -0.00082563065435304 0.0 0.0
-0.0012888617194004965 0.0005610964763137688 0.0 -0.00083481965558769 0.0 0.0
-0.0019061148117975892 0.0008070316988200504 0.0 -0.0006679752258581962 0.0 0.0
-0.0029410132526919283 0.0014304629185742206 0.0 -0.0005483878003950858 0.0 0.0
-0.004748089103045496 0.002894485195986043 0.0 -0.0008188671879100597 0.0 0.0
-0.007430847297566894 0.0052683378179702285 0.0 -0.001289166602847056 0.0 0.0
-0.011019488255746184 0.008577891662896431 0.0 -0.0019094172463559396 0.0 0.0
-0.015524442452729752 0.012814189745697658 0.0 -0.0026294215913660597 0.0 0.0
-0.020943005806893233 0.017949432552329298 0.0 -0.0033839640156789618 0.0 0.0
-0.027321682045036468 0.024025848729668415 0.0 -0.004123600327264796 0.0 0.0
-0.034777898533477604 0.031169948200767718 0.0 -0.004884250871902571 0.0 0.0
-0.04345642124698293 0.03954853197010135 0.0 -0.005779217887966384 0.0 0.0
-0.053409951583441535 0.04924284331316388 0.0 -0.006838013360965187 0.0 0.0
-0.06448077351163793 0.060125487314758794 0.0 -0.007918093045156886 0.0 0.0
-0.07614904500909388 0.07170439607038881 0.0 -0.008734111658908845 0.0 0.0
-0.08703024558721524 0.08276323946915404 0.0 -0.009659517579740274 0.0 0.0
-0.09360344185390711 0.09033142479848799 0.0 -0.014078618318654987 0.0 0.0
-0.08954798151261509 0.08807135218577235 0.0 -0.02837582467756343 0.0 0.0
-0.08391158999634771 0.06699369382616058 0.0 8.049116928532385e-15 0.0 0.0
-0.08954798151260275 0.0880713521857608 0.0 0.028375824677584566 0.0 0.0
-0.09360344185388311 0.09033142479846518 0.0 0.014078618318675028 0.0 0.0
-0.08703024558718137 0.0827632394691209 0.0 0.009659517579751711 0.0 0.0
-0.07614904500905377 0.07170439607035253 0.0 0.008734111658911477 0.0 0.0
-0.06448077351159497 0.060125487314719034 0.0 0.007918093045157407 0.0 0.0
-0.05340995158339782 0.049242843313122335 0.0 0.0068380133609642554 0.0 0.0
-0.04345642124693834 0.03954853197005734 0.0 0.005779217887962499 0.0 0.0
-0.03477789853343261 0.031169948200722025 0.0 0.0048842508718971635 0.0 0.0
-0.027321682044993863 0.02402584872962808 0.0 0.004123600327259791 0.0 0.0
-0.020943005806855937 0.017949432552292945 0.0 0.0033839640156708654 0.0 0.0
-0.015524442452698343 0.012814189745667217 0.0 0.0026294215913588875 0.0 0.0
-0.011019488255721032 0.00857789166287363 0.0 0.0019094172463510316 0.0 0.0
-0.007430847297548488 0.005268337817954313 0.0 0.0012891666028419391 0.0 0.0
-0.004748089103033681 0.002894485195974996 0.0 0.0008188671879081975 0.0 0.0
-0.002941013252686168 0.0014304629185681976 0.0 0.0005483878003936612 0.0 0.0
-0.0019061148117953419 0.0008070316988204745 0.0 0.0006679752258573478 0.0 0.0
-0.0012888617193993993 0.000561096476313408 0.0 0.0008348196555860094 0.0 0.0
-0.000751941612887161 0.0003139417345496399 0.0 0.0008256306543520641 0.0 0.0
-0.0002972182501291969 3.467514602625994e-05 0.0 0.0005467099046252242 0.0 0.0
-0.00010943061508038996 -9.797778460138991e-06 0.0 0.00027319941491674377 0.0 0.0
-0.00010865709694947716 1.3561156791427307e-05 0.0 -0.00015615526284764567 0.0 0.0
-0.0003019962110027139 7.025029287099675e-05 0.0 -0.000273695134836126 0.0 0.0
-0.0007983143967934298 0.00033487035884891193 0.0 -0.0004038707202902763 0.0 0.0
-0.0014155593404803998 0.0006046211192362743 0.0 -0.00040587983168273076 0.0 0.0
-0.0021657657158457183 0.0009161892277579991 0.0 -0.00027351187063345454 0.0 0.0
-0.0034363196950655366 0.0017898101312496888 0.0 -0.0002097194637893675 0.0 0.0
-0.005532578086611125 0.003573491316348199 0.0 -0.0003724900344299131 0.0 0.0
-0.008533312175506989 0.006261568708312972 0.0 -0.0006104567961888312 0.0 0.0
-0.012523335066416112 0.009969591745918997 0.0 -0.000922009963143118 0.0 0.0
-0.01754378574560775 0.01470563432059584 0.0 -0.0012928130762307397 0.0 0.0
-0.023616322987455148 0.02047317460605375 0.0 -0.0016747754344377701 0.0 0.0
-0.0308066913097017 0.027338721625956464 0.0 -0.002048997579809851 0.0 0.0
-0.0392409608648808 0.03543749185047587 0.0 -0.0024754508535492063 0.0 0.0
-0.04903437174915743 0.04491134734047502 0.0 -0.0029904132590729926 0.0 0.0
-0.06017819847148785 0.0557934314127716 0.0 -0.0035974799816725304 0.0 0.0
-0.0723811440872372 0.0678305438510964 0.0 -0.004222686519597106 0.0 0.0
-0.08492763363019228 0.08032197060601165 0.0 -0.004605881313092743 0.0 0.0
-0.09662480873300665 0.09203425518621552 0.0 -0.004582123728585824 0.0 0.0
-0.10495508282295633 0.10081267602601184 0.0 -0.006152299298941383 0.0 0.0
-0.10276645021234912 0.1014492119770269 0.0 -0.01996763968271444 0.0 0.0
-0.09770383733599974 0.08079149605420972 0.0 3.7947076036992655e-15 0.0 0.0
-0.10276645021233455 0.10144921197701409 0.0 0.01996763968272525 0.0 0.0
-0.10495508282292883 0.10081267602598634 0.0 0.006152299298953984 0.0 0.0
-0.09662480873296804 0.09203425518617972 0.0 0.00458212372859299 0.0 0.0
-0.084927633630147 0.08032197060597049 0.0 0.004605881313093713 0.0 0.0
-0.07238114408718886 0.06783054385104972 0.0 0.004222686519597084 0.0 0.0
-0.06017819847143872 0.055793431412728994 0.0 0.0035974799816719345 0.0 0.0
-0.04903437174910798 0.044911347340426434 0.0 0.00299041325907164 0.0 0.0
-0.039240960864830636 0.035437491850426474 0.0 0.002475450853546666 0.0 0.0
-0.030806691309654192 0.027338721625909265 0.0 0.002048997579807711 0.0 0.0
-0.023616322987413917 0.020473174606013844 0.0 0.0016747754344325592 0.0 0.0
-0.017543785745573207 0.014705634320564681 0.0 0.0012928130762273114 0.0 0.0
-0.012523335066388436 0.009969591745891841 0.0 0.0009220099631401858 0.0 0.0
-0.008533312175486146 0.006261568708295782 0.0 0.0006104567961868412 0.0 0.0
-0.005532578086597491 0.0035734913163357135 0.0 0.0003724900344279123 0.0 0.0
-0.003436319695058626 0.001789810131243092 0.0 0.00020971946378917897 0.0 0.0
-0.0021657657158432 0.00091618922775625 0.0 0.0002735118706336027 0.0 0.0
-0.0014155593404793529 0.0006046211192366936 0.0 0.0004058798316822293 0.0 0.0
-0.0007983143967925485 0.00033487035884786925 0.0 0.0004038707202895276 0.0 0.0
-0.00030199621100228657 7.025029287134183e-05 0.0 0.0002736951348362966 0.0 0.0
-0.00010865709694921093 1.3561156791321945e-05 0.0 0.00015615526284806197 0.0 0.0
-6.856852220352361e-05 1.3444714468419183e-05 0.0 -9.872438483484095e-05 0.0 0.0
-0.00026745128604695737 8.184547648035573e-05 0.0 -0.00011361572067203855 0.0 0.0
-0.0008250622929465976 0.0003423936218663622 0.0 -0.00013806321020160686 0.0 0.0
-0.0015597054214843242 0.0006273277105835392 0.0 -0.00012845782726560273 0.0 0.0
-0.002472269017529068 0.000982086843215145 0.0 2.4101460948969212e-05 0.0 0.0
-0.003968990635864129 0.001985607234206534 0.0 0.00016751184829021494 0.0 0.0
-0.006323789970066667 0.003919531250173839 0.0 0.0002027198033446873 0.0 0.0
-0.009623613223971029 0.006760322756964612 0.0 0.000215633494209824 0.0 0.0
-0.01400002698366116 0.010662980280167472 0.0 0.00021581879804308062 0.0 0.0
-0.01952747896959013 0.01564674712378471 0.0 0.0001823565954902314 0.0 0.0
-0.02625659794806829 0.021730107771137465 0.0 0.00016336281806157617 0.0 0.0
-0.03427402539061103 0.02899484521645551 0.0 0.00015541463850553272 0.0 0.0
-0.04368402638856673 0.037573824596523406 0.0 8.924541227599281e-05 0.0 0.0
-0.054573038670874666 0.04758980153554984 0.0 -6.66636315854903e-07 0.0 0.0
-0.06688519374435005 0.05906031881048333 0.0 -0.0001902312921296485 0.0 0.0
-0.0801994768847944 0.07166810266974642 0.0 -0.000482226281884191 0.0 0.0
-0.09356916787927749 0.08459247025820348 0.0 -0.0007747090466422527 0.0 0.0
-0.10553732052804032 0.09651258352185088 0.0 -0.0008536118042353075 0.0 0.0
-0.11455234256348974 0.10564329529461772 0.0 -0.0012208616733448896 0.0 0.0
-0.11684837330282491 0.1083335440229013 0.0 -0.013976562292500076 0.0 0.0
-0.11555342653008428 0.08865444474542951 0.0 2.546574062733953e-15 0.0 0.0
-0.1168483733028089 0.10833354402288933 0.0 0.013976562292504663 0.0 0.0
-0.11455234256345802 0.10564329529459181 0.0 0.0012208616733480893 0.0 0.0
-0.10553732052799561 0.09651258352181055 0.0 0.000853611804236985 0.0 0.0
-0.09356916787922666 0.08459247025815564 0.0 0.0007747090466433404 0.0 0.0
-0.08019947688474105 0.07166810266969313 0.0 0.0004822262818855224 0.0 0.0
-0.06688519374429534 0.05906031881043784 0.0 0.00019023129212886528 0.0 0.0
-0.0545730386708195 0.04758980153549812 0.0 6.66636315337088e-07 0.0 0.0
-0.04368402638851171 0.03757382459647312 0.0 -8.92454122762721e-05 0.0 0.0
-0.03427402539055909 0.028994845216406842 0.0 -0.00015541463850682682 0.0 0.0
-0.026256597948023375 0.02173010777109546 0.0 -0.0001633628180632645 0.0 0.0
-0.019527478969552974 0.015646747123754905 0.0 -0.00018235659549063104 0.0 0.0
-0.014000026983630624 0.01066298028013977 0.0 -0.00021581879804503652 0.0 0.0
-0.00962361322394779 0.006760322756947884 0.0 -0.0002156334942078281 0.0 0.0
-0.006323789970051616 0.003919531250160584 0.0 -0.00020271980334567142 0.0 0.0
-0.003968990635855976 0.001985607234201359 0.0 -0.0001675118482883796 0.0 0.0
-0.0024722690175255093 0.0009820868432116707 0.0 -2.4101460948537212e-05 0.0 0.0
-0.0015597054214828696 0.0006273277105843559 0.0 0.00012845782726732737 0.0 0.0
-0.0008250622929458414 0.0003423936218656825 0.0 0.00013806321020235624 0.0 0.0
-0.00026745128604671305 8.184547648026947e-05 0.0 0.00011361572067314683 0.0 0.0
-6.856852220363572e-05 1.3444714468392525e-05 0.0 9.872438483553682e-05 0.0 0.0
SCALARS Statev float 8
LOOKUP_TABLE default
0.0 0.014858682062226757 0.011785004027787264 -0.014229678618742279 0.0024446745909550245 -0.0005754204639380289 0.0 0.0
0.0 0.004646219484548407 0.003333912788206527 -0.001913472401611125 -0.0014204403865953987 -0.005730106031964956 0.0 0.0
0.0 -3.7812943977514906e-06 3.524820743600675e-05 -2.3296023564515257e-05 -1.1952183871491678e-05 -0.00013481377431992473 0.0 0.0
0.0 9.298665208477627e-05 9.934630186759965e-06 -6.887895274566051e-06 -3.0467349121939943e-06 6.535075572325324e-06 0.0 0.0
0.0 0.000575474802498257 0.0002752782214142806 -0.00019840967273229086 -7.686854868199007e-05 7.074503037097196e-05 0.0 0.0
0.0 0.001355540964382596 0.001405800393511119 -0.0010833794476557356 -0.0003224209458553835 0.0001443817671502165 0.0 0.0
0.0 0.003650377748329928 0.003381381998521411 -0.002788553810665163 -0.0005928281878562461 0.00019732794355746655 0.0 0.0
0.0 0.006986500236602279 0.006392378190460733 -0.00555209535626267 -0.0008402828341980669 0.00022502267129482503 0.0 0.0
0.0 0.011611573737341434 0.010490422022349535 -0.00944583278268646 -0.0010445892396630748 0.00023660469456169105 0.0 0.0
0.0 0.017608007621337202 0.015715781273490693 -0.014472839974025984 -0.0012429412994647143 0.00022004111897752464 0.0 0.0
0.0 0.025015454602568078 0.022115360484781334 -0.0206517171454571 -0.0014636433393242225 0.0002169610800884356 0.0 0.0
0.0 0.0336120576153794 0.029786694190155 -0.028071571305027927 -0.0017151228851270829 0.00022150313555261228 0.0 0.0
0.0 0.0438836248652155 0.038839479876554894 -0.03684916898401367 -0.0019903108925411806 0.00016128089621824445 0.0 0.0
0.0 0.05588689669464819 0.04937672138078908 -0.04709554883216043 -0.0022811725486286804 8.845312103150735e-05 0.0 0.0
0.0 0.0696422855109042 0.06141205487819723 -0.05883971554357412 -0.002572339334623079 -5.6689767777324965e-05 0.0 0.0
0.0 0.08491495045807625 0.07470376634058143 -0.07185590144057906 -0.0028478649000023464 -0.000294030242251305 0.0 0.0
0.0 0.10095533305151047 0.08863368168079934 -0.08553965625766116 -0.003094025423138274 -0.000589175008708933 0.0 0.0
0.0 0.11657570938121486 0.10218318339346441 -0.09888636751899578 -0.003296815874468531 -0.000828750818232973 0.0 0.0
0.0 0.1302550297892492 0.11404087740064839 -0.11059278490428871 -0.0034480924963598055 -0.000847583067289645 0.0 0.0
0.0 0.14006787918661723 0.12272450063838793 -0.11919438125466074 -0.0035301193837272466 -0.0008438564501792043 0.0 0.0
0.0 0.1439188248566385 0.12611487789838438 -0.12259310904794576 -0.0035217688504386637 2.2429974544380116e-15 0.0 0.0
0.0 0.14006787918660446 0.12272450063837582 -0.11919438125465023 -0.003530119383725506 0.0008438564501836044 0.0 0.0
0.0 0.13025502978921935 0.11404087740062202 -0.11059278490426394 -0.0034480924963581007 0.0008475830672949785 0.0 0.0
0.0 0.11657570938116325 0.10218318339341936 -0.0988863675189516 -0.003296815874467714 0.0008287508182366465 0.0 0.0
0.0 0.10095533305145717 0.08863368168075278 -0.08553965625761632 -0.0030940254231365365 0.0005891750087087884 0.0 0.0
0.0 0.08491495045801908 0.07470376634053094 -0.07185590144053018 -0.0028478649000007344 0.00029403024224941045 0.0 0.0
0.0 0.06964228551084742 0.061412054878147444 -0.05883971554352577 -0.002572339334621674 5.6689767776719763e-05 0.0 0.0
0.0 0.05588689669459057 0.04937672138073866 -0.04709554883211131 -0.002281172548627366 -8.845312103195752e-05 0.0 0.0
0.0 0.043883624865159954 0.038839479876506135 -0.03684916898396659 -0.0019903108925395222 -0.000161280896219476 0.0 0.0
0.0 0.033612057615324695 0.0297866941901071 -0.028071571304981006 -0.0017151228851260848 -0.00022150313555433583 0.0 0.0
0.0 0.025015454602520547 0.022115360484739666 -0.02065171714541643 -0.0014636433393232279 -0.00021696108008918073 0.0 0.0
0.0 0.017608007621301176 0.015715781273459104 -0.014472839973995635 -0.001242941299463497 -0.00022004111897834397 0.0 0.0
0.0 0.011611573737310015 0.01049042202232152 -0.009445832782659603 -0.0010445892396619024 -0.0002366046945620546 0.0 0.0
0.0 0.006986500236583433 0.006392378190443319 -0.005552095356246397 -0.0008402828341969191 -0.00022502267129483324 0.0 0.0
0.0 0.0036503777483155525 0.0033813819985074726 -0.0027885538106526956 -0.0005928281878547722 -0.00019732794355744853 0.0 0.0
0.0 0.0013555409643780058 0.0014058003935059375 -0.0010833794476516256 -0.0003224209458543122 -0.00014438176714952575 0.0 0.0
0.0 0.0005754748024947442 0.00027527822141203915 -0.0001984096727306335 -7.686854868140501e-05 -7.074503037059532e-05 0.0 0.0
0.0 9.29866520841509e-05 9.93463018698407e-06 -6.887895274741355e-06 -3.0467349122422086e-06 -6.535075572284819e-06 0.0 0.0
0.0 -3.7812943981778675e-06 3.5248207435814184e-05 -2.3296023564376963e-05 -1.1952183871436735e-05 0.00013481377431915714 0.0 0.0
0.0 0.004646219484539695 0.0033339127882019166 -0.0019134724016080652 -0.0014204403865938446 0.005730106031956245 0.0 0.0
0.0 0.014858682062207874 0.011785004027774295 -0.014229678618724267 0.0024446745909499556 0.0005754204639078569 0.0 0.0
0.0 0.011937680107812479 0.008804321410137223 -0.011593404805617182 0.002789083395479954 -0.0001350311265571275 0.0 0.0
0.0 0.002661732601556932 0.0018984495349335 -0.0010491272913792469 -0.0008493222435542523 -0.004274523923438677 0.0 0.0
0.0 -2.330002038947117e-05 -3.498889198294324e-05 2.9527666754825875e-05 5.461225228117404e-06 -2.4292930207536497e-05 0.0 0.0
0.0 9.682337220271108e-06 1.3385808162281425e-06 -9.480672680660331e-07 -3.905135481621507e-07 3.3660421782125e-06 0.0 0.0
0.0 0.000253189293745146 0.00015166953415514384 -0.00011004266960976613 -4.162686454537766e-05 2.9091218693219505e-05 0.0 0.0
0.0 0.001216680898296368 0.0009950237122190496 -0.000773326824366074 -0.00022169688785297738 4.871395857481104e-05 0.0 0.0
0.0 0.0030245734313804574 0.0028048247287491847 -0.0023364736250134216 -0.0004683511037357595 -0.00010036710905880343 0.0 0.0
0.0 0.0061188247354572655 0.005558645775297649 -0.004884487933130613 -0.00067415784216704 -0.0003287592512998401 0.0 0.0
0.0 0.01042916977860105 0.009332195035244606 -0.008513304864643736 -0.0008188901706008694 -0.0006385785581945286 0.0 0.0
0.0 0.015941732003143406 0.014137067005251346 -0.013203879747937275 -0.0009331872573140642 -0.0010060278429815956 0.0 0.0
0.0 0.022706572360267387 0.01999441670398813 -0.018952802794901497 -0.00104161390908665 -0.0013896471502971546 0.0 0.0
0.0 0.030907903644141373 0.026977870259547353 -0.025825710851933577 -0.0011521594076137607 -0.0017730261950059992 0.0 0.0
0.0 0.040117715914561404 0.03522610655242183 -0.03396150984105659 -0.0012645967113651961 -0.0022154215275898633 0.0 0.0
0.0 0.051212975059974145 0.044855751995436684 -0.0434836026799952 -0.0013721493154414818 -0.002736551860593707 0.0 0.0
0.0 0.0639261690073263 0.055893567214230486 -0.05442990852987785 -0.0014636586843526454 -0.0033299240958827876 0.0 0.0
0.0 0.07804996221503865 0.06812930947464385 -0.0665996854882086 -0.0015296239864352665 -0.0039687074035718965 0.0 0.0
0.0 0.09296258609588762 0.08099984014830813 -0.0794353356661094 -0.0015645044821986061 -0.004503382434981619 0.0 0.0
0.0 0.10758325482840445 0.09357490990387922 -0.09200470460388857 -0.0015702052999907107 -0.004653008805944413 0.0 0.0
0.0 0.12042595836906735 0.10461849059931416 -0.10306845493214298 -0.0015500356671711221 -0.004156884048711111 0.0 0.0
0.0 0.12973902009133353 0.11257765411540471 -0.11109878513513888 -0.0014788689802658103 -0.0031551857772139247 0.0 0.0
0.0 0.13352916254825029 0.11563424573496811 -0.11426477414946287 -0.0013694715855052469 4.660334618211692e-15 0.0 0.0
0.0 0.12973902009132124 0.11257765411539332 -0.11109878513512836 -0.0014788689802649952 0.003155185777225252 0.0 0.0
0.0 0.12042595836903831 0.10461849059928877 -0.10306845493211811 -0.001550035667170616 0.004156884048724583 0.0 0.0
0.0 0.107583254828362 0.09357490990384242 -0.09200470460385203 -0.0015702052999904043 0.004653008805953285 0.0 0.0
0.0 0.09296258609583803 0.08099984014826542 -0.07943533566606721 -0.0015645044821981993 0.00450338243498241 0.0 0.0
0.0 0.07804996221498496 0.06812930947459721 -0.06659968548816214 -0.0015296239864349625 0.003968707403569175 0.0 0.0
0.0 0.06392616900727412 0.05589356721418502 -0.05442990852983299 -0.001463658684352075 0.003329924095881572 0.0 0.0
0.0 0.05121297505992139 0.04485575199539081 -0.0434836026799499 -0.0013721493154408822 0.002736551860592811 0.0 0.0
0.0 0.04011771591450868 0.0352261065523761 -0.033961509841011504 -0.0012645967113646087 0.002215421527586946 0.0 0.0
0.0 0.03090790364409171 0.026977870259503985 -0.025825710851890473 -0.0011521594076134736 0.0017730261950023457 0.0 0.0
0.0 0.022706572360223658 0.019994416703950135 -0.018952802794864013 -0.001041613909086146 0.0013896471502933476 0.0 0.0
0.0 0.015941732003110633 0.014137067005222137 -0.01320387974790871 -0.0009331872573134097 0.0010060278429784438 0.0 0.0
0.0 0.010429169778574202 0.009332195035220306 -0.00851330486462013 -0.0008188901706001768 0.0006385785581922037 0.0 0.0
0.0 0.006118824735439346 0.00555864577528109 -0.004884487933114976 -0.0006741578421661121 0.00032875925129808925 0.0 0.0
0.0 0.003024573431367912 0.0028048247287372594 -0.002336473625002716 -0.000468351103734542 0.00010036710905766128 0.0 0.0
0.0 0.0012166808982918423 0.0009950237122152187 -0.0007733268243630289 -0.0002216968878521899 -4.871395857466044e-05 0.0 0.0
0.0 0.00025318929374298856 0.00015166953415397656 -0.0001100426696089014 -4.162686454507553e-05 -2.909121869296185e-05 0.0 0.0
0.0 9.682337219795494e-06 1.3385808164483333e-06 -9.48067268235306e-07 -3.905135482128664e-07 -3.3660421782159675e-06 0.0 0.0
0.0 -2.3300020389389762e-05 -3.498889198273697e-05 2.9527666754643596e-05 5.4612252280932405e-06 2.4292930207368015e-05 0.0 0.0
0.0 0.002661732601548459 0.0018984495349287282 -0.0010491272913760057 -0.0008493222435527216 0.0042745239234287516 0.0 0.0
0.0 0.011937680107793025 0.008804321410122374 -0.011593404805597994 0.0027890833954756097 0.0001350311265353405 0.0 0.0
0.0 0.008677331687807488 0.006256677738468809 -0.008486022621285895 0.002229344882817086 -0.0021759680328620693 0.0 0.0
0.0 0.0018447739771739616 0.0011537103199539141 -0.00057187381710764 -0.0005818365028462751 -0.0032938859503173767 0.0 0.0
0.0 1.2634912319597936e-08 -1.3678156687548327e-09 1.0394932843731892e-09 3.2832238438154863e-10 4.875689838480855e-10 0.0 0.0
0.0 2.468665553628116e-06 4.6497600974776174e-07 -3.689496810102515e-07 -9.60263287376362e-08 -3.4873844822911523e-07 0.0 0.0
0.0 7.361890641753605e-05 4.10541104948943e-05 -2.816153993460399e-05 -1.2892570560290572e-05 1.3327043706164941e-05 0.0 0.0
0.0 0.0008125150329781249 0.0005981064206877801 -0.00045349221993642693 -0.0001446142007513525 -7.343716735036785e-06 0.0 0.0
0.0 0.0022280106123350085 0.002125482637029084 -0.0017334721325196706 -0.0003920105045094155 -0.00030013398540225275 0.0 0.0
0.0 0.005001933608292889 0.0045510109309833315 -0.003940837516203948 -0.0006101734147793822 -0.0007601916104789197 0.0 0.0
0.0 0.008822183017530412 0.007923827236379997 -0.007155681646626989 -0.0007681455897530011 -0.0013710977198668189 0.0 0.0
0.0 0.013800621803321074 0.012217242673241617 -0.011332897573452499 -0.0008843450997891262 -0.00208487175047048 0.0 0.0
0.0 0.01984928026641863 0.017426988878944272 -0.01643857124889686 -0.0009884176300474033 -0.0028421145617189346 0.0 0.0
0.0 0.026915070562652292 0.023608110773443602 -0.022515434645340858 -0.0010926761281027388 -0.003600632625738604 0.0 0.0
0.0 0.03549109125326434 0.03088330454222693 -0.029685205311130593 -0.0011980992310963617 -0.004392240680616668 0.0 0.0
0.0 0.04505999435945554 0.03941317121386618 -0.0381148993537786 -0.00129827186008755 -0.00531490181781924 0.0 0.0
0.0 0.05640674823970679 0.04923729596610235 -0.04785341113048801 -0.001383884835614347 -0.0063855173542539485 0.0 0.0
0.0 0.0690546731862203 0.06018583259374288 -0.058739772671034134 -0.001446059922708695 -0.007506976232429564 0.0 0.0
0.0 0.0824738037873045 0.07178486156650037 -0.0703032976358938 -0.0014815639306065304 -0.008416451224824283 0.0 0.0
0.0 0.09570662768455497 0.083216714109488 -0.08172760727392582 -0.0014891068355621744 -0.008662132894277114 0.0 0.0
0.0 0.10742522987310574 0.09331261032394979 -0.0918507398187681 -0.0014618705051816562 -0.007832075385729024 0.0 0.0
0.0 0.11592501165367047 0.10060350590838008 -0.09919182854084535 -0.0014116773675346766 -0.005805777016879837 0.0 0.0
0.0 0.11949729593300429 0.10347519382928641 -0.1022006255413936 -0.0012745682878927697 8.523563799212042e-15 0.0 0.0
0.0 0.1159250116536572 0.10060350590836786 -0.09919182854083289 -0.0014116773675349867 0.005805777016901372 0.0 0.0
0.0 0.10742522987307904 0.09331261032392649 -0.09185073981874482 -0.0014618705051817114 0.00783207538575259 0.0 0.0
0.0 0.09570662768452083 0.08321671410945808 -0.08172760727389633 -0.0014891068355616624 0.00866213289429165 0.0 0.0
0.0 0.08247380378726152 0.07178486156646341 -0.07030329763585724 -0.001481563930606163 0.008416451224826193 0.0 0.0
0.0 0.06905467318617088 0.060185832593700146 -0.058739772670991286 -0.0014460599227088438 0.007506976232425843 0.0 0.0
0.0 0.05640674823966091 0.04923729596606237 -0.04785341113044877 -0.0013838848356136193 0.006385517354252308 0.0 0.0
0.0 0.045059994359407794 0.03941317121382464 -0.03811489935373756 -0.0012982718600870879 0.00531490181781713 0.0 0.0
0.0 0.03549109125321707 0.03088330454218592 -0.029685205311089997 -0.0011980992310959184 0.004392240680611441 0.0 0.0
0.0 0.026915070562608348 0.023608110773405636 -0.022515434645303152 -0.0010926761281024868 0.0036006326257324106 0.0 0.0
0.0 0.0198492802663812 0.017426988878911073 -0.016438571248864334 -0.00098841763004672 0.002842114561712318 0.0 0.0
0.0 0.013800621803290981 0.012217242673214668 -0.011332897573426147 -0.0008843450997885214 0.002084871750464761 0.0 0.0
0.0 0.008822183017507626 0.007923827236359504 -0.0071556816466072735 -0.0007681455897522309 0.0013710977198628624 0.0 0.0
0.0 0.005001933608275881 0.004551010930968039 -0.003940837516189657 -0.0006101734147783814 0.0007601916104754188 0.0 0.0
0.0 0.0022280106123250916 0.0021254826370194968 -0.0017334721325113398 -0.00039201050450815605 0.0003001339854002765 0.0 0.0
0.0 0.0008125150329738351 0.0005981064206843844 -0.000453492219933837 -0.00014461420075054688 7.343716734812506e-06 0.0 0.0
0.0 7.361890641661809e-05 4.105411049481882e-05 -2.816153993456732e-05 -1.2892570560251492e-05 -1.3327043705936981e-05 0.0 0.0
0.0 2.4686655533297144e-06 4.6497600975542866e-07 -3.6894968101479405e-07 -9.60263287406125e-08 3.487384482156974e-07 0.0 0.0
0.0 1.2634912310065045e-08 -1.367815667713223e-09 1.0394932835817643e-09 3.283223841315191e-10 -4.875689834762404e-10 0.0 0.0
0.0 0.0018447739771672112 0.0011537103199498455 -0.0005718738171049489 -0.000581836502844895 0.0032938859503066145 0.0 0.0
0.0 0.008677331687788071 0.006256677738454503 -0.008486022621267245 0.002229344882812746 0.0021759680328472465 0.0 0.0
0.0 0.006427206278420897 0.004499900788303931 -0.0062385161798636166 0.0017386153915596827 -0.002408663351178416 0.0 0.0
0.0 0.0012545867829457135 0.0007350347027633988 -0.00034810609865904994 -0.00038692860410434823 -0.002361283250420948 0.0 0.0
0.0 0.0 0.0 0.0 0.0 0.0 0.0 0.0
0.0 -2.807592313079299e-07 4.377471583213813e-08 -3.099401512513849e-08 -1.2780700707003225e-08 -4.194196482781829e-08 0.0 0.0
0.0 1.1942995116278535e-05 -1.1327841828126739e-05 9.569859999191402e-06 1.757981828935582e-06 1.2017341614870723e-05 0.0 0.0
0.0 0.0003929256513034832 0.0003113658701937208 -0.0002306806028975863 -8.068526729613376e-05 -3.621854779599742e-05 0.0 0.0
0.0 0.001702198415388724 0.0014577455956811226 -0.0011599293500799373 -0.00029781624560118436 -0.00033516796659228943 0.0 0.0
0.0 0.003918175127513593 0.0035587021294886966 -0.003026882481775223 -0.0005318196477134756 -0.001009257785925336 0.0 0.0
0.0 0.007286592039621789 0.006515487688173074 -0.005809388027455051 -0.000706099660718025 -0.0018573578543756744 0.0 0.0
0.0 0.011667882991814824 0.010290775260281347 -0.0094622313077217 -0.0008285439525596388 -0.002845292016294438 0.0 0.0
0.0 0.016925866737814283 0.01485501434593989 -0.013925236085719652 -0.0009297782602202263 -0.0038915121043084527 0.0 0.0
0.0 0.02322711315096348 0.02023796382358973 -0.019210302491967507 -0.0010276613316222067 -0.004938029372689184 0.0 0.0
0.0 0.030402652520541924 0.026560999944517806 -0.02543428265814695 -0.0011267172863708634 -0.006016685574567478 0.0 0.0
0.0 0.03920632456802325 0.033971275480167214 -0.032752281096116526 -0.0012189943840506723 -0.007227184725855484 0.0 0.0
0.0 0.049034375746428445 0.042557800084148154 -0.04125964823650709 -0.0012981518476410689 -0.008627610065540595 0.0 0.0
0.0 0.060007022933819675 0.05220234526647124 -0.050843473289563366 -0.0013588719769078799 -0.0101139779223599 0.0 0.0
0.0 0.07202042859647238 0.0625162723514291 -0.06112082999743072 -0.001395442353998365 -0.011334849865288231 0.0 0.0
0.0 0.08393053588597245 0.07280214628421294 -0.07139863135217814 -0.0014035149320348215 -0.011730596494952094 0.0 0.0
0.0 0.09456259815608223 0.08200461416418617 -0.0806235659722202 -0.0013810481919658388 -0.010727557667062527 0.0 0.0
0.0 0.10238798836182675 0.08879949298132671 -0.08745826411523573 -0.0013412288660910577 -0.0077732609428128475 0.0 0.0
0.0 0.10591754631494425 0.09161381005888777 -0.09046593178090094 -0.0011478782779868317 1.1891095746952018e-14 0.0 0.0
0.0 0.10238798836181477 0.08879949298131526 -0.08745826411522413 -0.0013412288660911093 0.007773260942842371 0.0 0.0
0.0 0.09456259815606118 0.08200461416416704 -0.0806235659722015 -0.0013810481919655168 0.010727557667091521 0.0 0.0
0.0 0.08393053588593904 0.07280214628418358 -0.07139863135214877 -0.001403514932034753 0.0117305964949693 0.0 0.0
0.0 0.07202042859643813 0.06251627235139941 -0.06112082999740187 -0.0013954423539975444 0.011334849865292002 0.0 0.0
0.0 0.0600070229337771 0.05220234526643454 -0.05084347328952664 -0.001358871976907896 0.010113977922354741 0.0 0.0
0.0 0.04903437574638715 0.0425578000841121 -0.04125964823647181 -0.0012981518476403197 0.008627610065536842 0.0 0.0
0.0 0.03920632456797992 0.033971275480129556 -0.032752281096078965 -0.0012189943840505819 0.0072271847258517504 0.0 0.0
0.0 0.030402652520500385 0.026560999944482105 -0.02543428265811162 -0.0011267172863704915 0.0060166855745610185 0.0 0.0
0.0 0.02322711315092578 0.02023796382355651 -0.019210302491934783 -0.0010276613316217286 0.004938029372680841 0.0 0.0
0.0 0.016925866737780612 0.014855014345910297 -0.013925236085690636 -0.0009297782602196576 0.0038915121042997812 0.0 0.0
0.0 0.011667882991787948 0.010290775260257635 -0.009462231307698712 -0.0008285439525589162 0.0028452920162863153 0.0 0.0
0.0 0.007286592039600637 0.006515487688154356 -0.005809388027437109 -0.000706099660717246 0.001857357854369903 0.0 0.0
0.0 0.003918175127499806 0.003558702129475593 -0.003026882481763199 -0.0005318196477123922 0.00100925778592102 0.0 0.0
0.0 0.0017021984153801858 0.0014577455956741043 -0.0011599293500740514 -0.0002978162456000536 0.0003351679665901194 0.0 0.0
0.0 0.00039292565129989105 0.0003113658701912847 -0.00023068060289573963 -8.068526729554483e-05 3.62185477955857e-05 0.0 0.0
0.0 1.1942995115904975e-05 -1.132784182763786e-05 9.569859998805118e-06 1.7579818288327108e-06 -1.201734161450604e-05 0.0 0.0
0.0 -2.807592312263606e-07 4.3774715773840445e-08 -3.099401507937478e-08 -1.2780700694453173e-08 4.194196478361053e-08 0.0 0.0
0.0 0.0 0.0 0.0 0.0 0.0 0.0 0.0
0.0 0.0012545867829397424 0.0007350347027599833 -0.00034810609865678103 -0.0003869286041032043 0.0023612832504116264 0.0 0.0
0.0 0.006427206278404989 0.004499900788291541 -0.006238516179847273 0.0017386153915557377 0.0024086633511676368 0.0 0.0
0.0 0.004559389752881592 0.003183042527812712 -0.004488007978063793 0.0013049654502510822 -0.002085722037109744 0.0 0.0
0.0 0.0010019609995440847 0.0004362836864454648 -0.00019008756656472544 -0.0002461961198807389 -0.0015634021588793639 0.0 0.0
0.0 0.0 0.0 0.0 0.0 0.0 0.0 0.0
0.0 -2.1175026786527247e-07 1.9226471027512064e-08 -1.544969006812908e-08 -3.77678095938152e-09 -2.443498433731356e-08 0.0 0.0
0.0 -1.263871454547275e-05 -5.243161211613215e-06 4.106981778006074e-06 1.1361794336071412e-06 3.7687681785274506e-06 0.0 0.0
0.0 0.00016190560782151713 9.071467208296373e-05 -6.41707606183179e-05 -2.6543911464645695e-05 3.0453572455067962e-06 0.0 0.0
0.0 0.0011830577465828664 0.0008839546010692602 -0.0006859587715207251 -0.0001979958295485347 -0.00029836054876617796 0.0 0.0
0.0 0.0028940354199091813 0.002597504731641755 -0.00215823646371749 -0.0004392682679242632 -0.0010361150075963751 0.0 0.0
0.0 0.005784136368188903 0.0051242484958867185 -0.004495290309932142 -0.0006289581859545751 -0.0020898924095517006 0.0 0.0
0.0 0.009537533915960688 0.008373302848261504 -0.007611178255501884 -0.0007621245927596206 -0.003279757027143156 0.0 0.0
0.0 0.014104018386679393 0.012290870864422545 -0.011427095098392431 -0.0008637757660301153 -0.004535403068055161 0.0 0.0
0.0 0.019482408136861133 0.016885482780034912 -0.015929020555358137 -0.0009564622246767641 -0.00578506834394869 0.0 0.0
0.0 0.025835660924919235 0.022256024341692455 -0.021208063413757843 -0.001047960927934589 -0.0070617876434094975 0.0 0.0
0.0 0.032952896696614324 0.028563236560293512 -0.02742885572149362 -0.0011343808387998808 -0.008474111307782722 0.0 0.0
0.0 0.04157702892012005 0.035896470775210444 -0.03468871672058274 -0.0012077540546277048 -0.010082841114642683 0.0 0.0
0.0 0.051312481286241475 0.04420291805833922 -0.042938493651192705 -0.0012644244071465028 -0.011778445638839794 0.0 0.0
0.0 0.06159551706496981 0.053204576966424985 -0.051901437768680364 -0.0013031391977445998 -0.013218562784318048 0.0 0.0
0.0 0.07213096354152704 0.062327836426851906 -0.061011220974796304 -0.0013166154520556266 -0.01381364257817293 0.0 0.0
0.0 0.0817524392893674 0.07067718416995984 -0.06937610399072205 -0.0013010801792378431 -0.01277941329802655 0.0 0.0
0.0 0.08909672686427922 0.07708636163720464 -0.07582207082978591 -0.0012642908074186456 -0.009250165492298833 0.0 0.0
0.0 0.09269570915285237 0.07992114567779667 -0.07892025136857139 -0.0010008943092252572 1.330316065639714e-14 0.0 0.0
0.0 0.08909672686426806 0.07708636163719346 -0.07582207082977459 -0.001264290807418765 0.00925016549233173 0.0 0.0
0.0 0.08175243928934847 0.07067718416994206 -0.06937610399070471 -0.00130108017923735 0.01277941329805839 0.0 0.0
0.0 0.07213096354149715 0.06232783642682555 -0.06101122097476969 -0.0013166154520558905 0.013813642578191822 0.0 0.0
0.0 0.06159551706493803 0.05320457696639732 -0.05190143776865347 -0.0013031391977438639 0.01321856278432264 0.0 0.0
0.0 0.05131248128620791 0.04420291805831004 -0.04293849365116399 -0.0012644244071460281 0.011778445638834867 0.0 0.0
0.0 0.04157702892008527 0.03589647077518003 -0.03468871672055314 -0.0012077540546268823 0.010082841114637682 0.0 0.0
0.0 0.03295289669657694 0.02856323656026101 -0.02742885572146146 -0.0011343808387995406 0.008474111307777523 0.0 0.0
0.0 0.02583566092488465 0.022256024341662194 -0.021208063413727964 -0.0010479609279342164 0.007061787643402778 0.0 0.0
0.0 0.01948240813682879 0.016885482780006626 -0.015929020555330416 -0.0009564622246762196 0.005785068343938499 0.0 0.0
0.0 0.014104018386650513 0.012290870864397571 -0.011427095098368131 -0.0008637757660294425 0.004535403068043807 0.0 0.0
0.0 0.009537533915937466 0.00837330284824127 -0.007611178255482337 -0.000762124592758929 0.003279757027133924 0.0 0.0
0.0 0.00578413636817153 0.005124248495871274 -0.0044952903099175125 -0.0006289581859537577 0.0020898924095448935 0.0 0.0
0.0 0.002894035419897589 0.0025975047316312686 -0.00215823646370817 -0.0004392682679230993 0.001036115007591554 0.0 0.0
0.0 0.0011830577465764464 0.0008839546010644599 -0.0006859587715168924 -0.00019799582954756786 0.0002983605487643031 0.0 0.0
0.0 0.00016190560781910842 9.07146720816947e-05 -6.417076061738053e-05 -2.6543911464313834e-05 -3.0453572458796856e-06 0.0 0.0
0.0 -1.263871454604767e-05 -5.243161211496734e-06 4.106981777912917e-06 1.136179433583751e-06 -3.7687681783838743e-06 0.0 0.0
0.0 -2.117502677458955e-07 1.9226471016883667e-08 -1.5449690059872236e-08 -3.776780957015529e-09 2.4434984322558555e-08 0.0 0.0
0.0 0.0 0.0 0.0 0.0 0.0 0.0 0.0
0.0 0.0010019609995384061 0.0004362836864428502 -0.00019008756656297066 -0.0002461961198798785 0.0015634021588718677 0.0 0.0
0.0 0.00455938975286864 0.0031830425278026003 -0.004488007978050204 0.0013049654502475985 0.0020857220371021234 0.0 0.0
0.0 0.003212397140271062 0.002152058280993465 -0.0030761971872338054 0.0009241389062403416 -0.0016213207536518357 0.0 0.0
0.0 0.0005231380202245366 0.000236533360964375 -8.849978661428186e-05 -0.00014803357435009374 -0.0009603611721538705 0.0 0.0
0.0 0.0 0.0 0.0 0.0 0.0 0.0 0.0
0.0 9.284367499638105e-09 -7.860409871244372e-10 5.99985333389106e-10 1.8605565373520125e-10 1.1788236078775784e-09 0.0 0.0
0.0 -2.500278301810262e-06 -1.4858691360335343e-06 1.2026418582264093e-06 2.832272778071389e-07 1.8825969182467445e-06 0.0 0.0
0.0 6.951352526904982e-06 7.220976430379935e-06 -3.478152024111696e-06 -3.742824406268369e-06 1.7654520652146793e-05 0.0 0.0
0.0 0.0005369869636097603 0.000468937106727124 -0.00035610871447057943 -0.00011282839225654464 -0.0002405234305740775 0.0 0.0
0.0 0.0022097237171879646 0.0016863171633112392 -0.00136445792791563 -0.00032185923539560906 -0.0008853385089370868 0.0 0.0
0.0 0.004205021602603918 0.003771080438207982 -0.0032378885090336663 -0.0005331919291743109 -0.0020391825451610054 0.0 0.0
0.0 0.00748719237555243 0.006479429510526811 -0.005799845695148694 -0.0006795838153781166 -0.0033756580378393425 0.0 0.0
0.0 0.011303507728181604 0.009751039586802658 -0.008964591833384225 -0.0007864477534184326 -0.0047601784137770884 0.0 0.0
0.0 0.015766092198980206 0.013565219616895018 -0.012688838660575337 -0.0008763809563196762 -0.006136199899220852 0.0 0.0
0.0 0.0209621527966884 0.017999596584792135 -0.017037572524887655 -0.0009620240599044861 -0.007522220144851769 0.0 0.0
0.0 0.027131203698673424 0.02319693764905219 -0.022156161120743516 -0.0010407765283086802 -0.009027944856282138 0.0 0.0
0.0 0.034188007171924994 0.029278810863409627 -0.028169479713700808 -0.0011093311497088283 -0.01073188087458852 0.0 0.0
0.0 0.04217038569273731 0.036238364261235896 -0.03507439761061794 -0.001163966650617921 -0.012524971698859433 0.0 0.0
0.0 0.05134465306408072 0.04387556037529784 -0.04267313029056242 -0.0012024300847354326 -0.014071922804749577 0.0 0.0
0.0 0.06041101511045375 0.051790100641360456 -0.05056651027045947 -0.0012235903709009828 -0.01483150126046453 0.0 0.0
0.0 0.06884429133934852 0.05929328643365936 -0.058074743544004145 -0.001218542889655181 -0.01394992947817094 0.0 0.0
0.0 0.07583991951453306 0.06538146906668843 -0.06419922820849046 -0.0011822408581979302 -0.010274935203725221 0.0 0.0
0.0 0.07961563880341066 0.06829736712525027 -0.06746257234569362 -0.0008347947795566329 1.425075335514947e-14 0.0 0.0
0.0 0.07583991951451935 0.065381469066675 -0.06419922820847619 -0.0011822408581988733 0.010274935203757614 0.0 0.0
0.0 0.06884429133932893 0.059293286433640784 -0.058074743543985514 -0.0012185428896552832 0.01394992947820214 0.0 0.0
0.0 0.06041101511042987 0.0517901006413389 -0.05056651027043799 -0.001223590370900883 0.01483150126048396 0.0 0.0
0.0 0.05134465306405228 0.04387556037527348 -0.04267313029053837 -0.0012024300847350928 0.014071922804752553 0.0 0.0
0.0 0.04217038569270871 0.0362383642612111 -0.03507439761059355 -0.0011639666506175516 0.012524971698853974 0.0 0.0
0.0 0.034188007171895816 0.029278810863384044 -0.028169479713675952 -0.0011093311497080986 0.010731880874583214 0.0 0.0
0.0 0.027131203698645374 0.023196937649027406 -0.022156161120719338 -0.0010407765283080835 0.009027944856276874 0.0 0.0
0.0 0.020962152796659625 0.017999596584767286 -0.017037572524863345 -0.0009620240599039308 0.007522220144845012 0.0 0.0
0.0 0.01576609219895299 0.013565219616871668 -0.01268883866055238 -0.000876380956319283 0.006136199899210578 0.0 0.0
0.0 0.011303507728156874 0.009751039586781814 -0.008964591833364132 -0.0007864477534176781 0.004760178413764603 0.0 0.0
0.0 0.007487192375533167 0.006479429510510011 -0.005799845695132564 -0.0006795838153774411 0.0033756580378290386 0.0 0.0
0.0 0.004205021602589433 0.003771080438194785 -0.0032378885090215107 -0.0005331919291732764 0.002039182545153389 0.0 0.0
0.0 0.002209723717178046 0.0016863171633034687 -0.0013644579279090132 -0.00032185923539445466 0.0008853385089327045 0.0 0.0
0.0 0.0005369869636056392 0.0004689371067241313 -0.00035610871446829946 -0.00011282839225583212 0.00024052343057257586 0.0 0.0
0.0 6.9513525260681734e-06 7.2209764302871935e-06 -3.4781520240525423e-06 -3.7428244062346385e-06 -1.7654520651917983e-05 0.0 0.0
0.0 -2.500278302225041e-06 -1.4858691360108068e-06 1.2026418582102308e-06 2.8322727780056186e-07 -1.882596918239847e-06 0.0 0.0
0.0 9.284367478450311e-09 -7.860409853173938e-10 5.99985332009828e-10 1.8605565330757216e-10 -1.1788236051675036e-09 0.0 0.0
0.0 0.0 0.0 0.0 0.0 0.0 0.0 0.0
0.0 0.0005231380202199743 0.00023653336096244419 -8.849978661297953e-05 -0.000148033574349464 0.0009603611721479754 0.0 0.0
0.0 0.003212397140260967 0.0021520582809855873 -0.00307619718722293 0.0009241389062373396 0.0016213207536463813 0.0 0.0
0.0 0.001994412110128658 0.0013616765803987597 -0.0019633100944259655 0.000601633514027205 -0.0011768955280817585 0.0 0.0
0.0 0.00027283556218995645 9.091027641145467e-05 -7.952392129502075e-06 -8.295788428195246e-05 -0.0004890657285913559 0.0 0.0
0.0 0.0 0.0 0.0 0.0 0.0 0.0 0.0
0.0 0.0 0.0 0.0 0.0 0.0 0.0 0.0
0.0 -2.2877971737607827e-06 2.3337320825235057e-07 -1.8413211611844935e-07 -4.924109213389108e-08 -5.912394872956443e-07 0.0 0.0
0.0 -2.384163688004256e-05 -1.9735350348259247e-05 1.5889443176575973e-05 3.845907171683351e-06 3.5599877247366006e-05 0.0 0.0
0.0 0.00022411741626692923 0.00015729480608793668 -0.00011747413821179072 -3.982066787614608e-05 -0.00011194704085929307 0.0 0.0
0.0 0.0011390187499151837 0.0009618162449565049 -0.0007583181261573525 -0.00020349811879915282 -0.000696856309903776 0.0 0.0
0.0 0.003233152384016661 0.002459344519929999 -0.0020565182458384054 -0.0004028262740915928 -0.0016974194187501738 0.0 0.0
0.0 0.005358751932271606 0.004635277322653981 -0.004062341147817931 -0.0005729361748360533 -0.003099771279754036 0.0 0.0
0.0 0.008574053597074529 0.007253421864431635 -0.006563487128493583 -0.0006899347359380496 -0.004546492302504157 0.0 0.0
0.0 0.012167059538231835 0.010292137992915581 -0.00951039987951261 -0.0007817381134029692 -0.005972146224554075 0.0 0.0
0.0 0.016294965421662932 0.013802573158404101 -0.012938953239748599 -0.0008636199186555059 -0.007384830892372001 0.0 0.0
0.0 0.021136999372473805 0.01791020733780434 -0.01697337617770493 -0.0009368311600994148 -0.008887872652397993 0.0 0.0
0.0 0.026776564463229367 0.02273749031810169 -0.021737280763394446 -0.0010002095547072373 -0.010553207902753615 0.0 0.0
0.0 0.03359082495817799 0.028325298357447962 -0.027274581143175915 -0.0010507172142720442 -0.012323204067292008 0.0 0.0
0.0 0.04054798847293903 0.03457590067465797 -0.03348451979679333 -0.0010913808778646409 -0.013892991175325036 0.0 0.0
0.0 0.04845206203063687 0.04121257288387418 -0.04009125851280435 -0.0011213143710697964 -0.014765138889677282 0.0 0.0
0.0 0.056171739988947776 0.04780800856229689 -0.04667942749696959 -0.0011285810653273022 -0.014172174834175095 0.0 0.0
0.0 0.062674948887536 0.05359199340451154 -0.05249710953549246 -0.0010948838690190783 -0.010813375549287144 0.0 0.0
0.0 0.06675934876495457 0.05664277682243969 -0.055995006957655025 -0.0006477698647846808 1.3667018905483275e-14 0.0 0.0
0.0 0.06267494888752699 0.05359199340450164 -0.052497109535482145 -0.0010948838690194264 0.010813375549318759 0.0 0.0
0.0 0.05617173998893329 0.04780800856228254 -0.04667942749695482 -0.001128581065327733 0.014172174834205655 0.0 0.0
0.0 0.04845206203061849 0.041212572883857004 -0.04009125851278758 -0.0011213143710694074 0.014765138889695915 0.0 0.0
0.0 0.04054798847291963 0.03457590067464121 -0.03348451979677752 -0.001091380877863657 0.013892991175327898 0.0 0.0
0.0 0.03359082495815296 0.028325298357426733 -0.02727458114315458 -0.0010507172142721409 0.012323204067285102 0.0 0.0
0.0 0.026776564463204484 0.02273749031807993 -0.021737280763372984 -0.0010002095547069283 0.010553207902746593 0.0 0.0
0.0 0.021136999372453197 0.01791020733778621 -0.016973376177687183 -0.0009368311600990288 0.008887872652393393 0.0 0.0
0.0 0.016294965421640294 0.013802573158384842 -0.012938953239729972 -0.0008636199186548609 0.007384830892364494 0.0 0.0
0.0 0.012167059538209195 0.010292137992896697 -0.009510399879494019 -0.0007817381134026822 0.0059721462245436565 0.0 0.0
0.0 0.00857405359705432 0.0072534218644148924 -0.006563487128477612 -0.0006899347359372793 0.004546492302491535 0.0 0.0
0.0 0.005358751932255795 0.004635277322640635 -0.004062341147805344 -0.0005729361748352923 0.003099771279743816 0.0 0.0
0.0 0.0032331523840031027 0.0024593445199196894 -0.002056518245829131 -0.0004028262740905579 0.0016974194187427867 0.0 0.0
0.0 0.0011390187499082099 0.0009618162449509978 -0.0007583181261528059 -0.00020349811879819186 0.0006968563098999111 0.0 0.0
0.0 0.00022411741626393152 0.00015729480608632151 -0.00011747413821059104 -3.9820667875730525e-05 0.00011194704085806933 0.0 0.0
0.0 -2.384163688064017e-05 -1.9735350347942084e-05 1.5889443176330855e-05 3.845907171611138e-06 -3.559987724697084e-05 0.0 0.0
0.0 -2.2877971734886416e-06 2.3337320824525857e-07 -1.8413211611395123e-07 -4.9241092131304215e-08 5.912394872990117e-07 0.0 0.0
0.0 0.0 0.0 0.0 0.0 0.0 0.0 0.0
0.0 0.0 0.0 0.0 0.0 0.0 0.0 0.0
0.0 0.00027283556218661196 9.091027641020841e-05 -7.952392128658348e-06 -8.295788428155011e-05 0.000489065728587224 0.0 0.0
0.0 0.0019944121101211645 0.001361676580392986 -0.0019633100944177985 0.0006016335140248133 0.0011768955280776915 0.0 0.0
0.0 0.001501287292812048 0.0007181026561917325 -0.0010402570455709456 0.00032215438937921307 -0.000703450369183552 0.0 0.0
0.0 1.3641412749330049e-05 9.902188787043177e-06 2.9232528361715803e-05 -3.9134717148758985e-05 -0.00017464211359915835 0.0 0.0
0.0 1.501239477888374e-07 -8.943371455963241e-10 1.017711353153143e-09 -1.233742075570957e-10 2.99033348444305e-08 0.0 0.0
0.0 -4.0385216131657434e-07 1.4147665862676704e-08 -1.0174004682524616e-08 -3.973661180153169e-09 -8.078456367062322e-08 0.0 0.0
0.0 4.81455603867371e-07 -2.45609157442412e-07 1.9590418507965166e-07 4.970497236277018e-08 7.973599290616975e-07 0.0 0.0
0.0 -1.2089870167429195e-05 -7.31948303551367e-06 5.835836307324977e-06 1.4836467281886632e-06 1.966066541458694e-05 0.0 0.0
0.0 2.2040927233123225e-05 7.36377897339417e-06 -4.425166648859912e-06 -2.9386123245343867e-06 -1.0778490514843161e-06 0.0 0.0
0.0 0.00048807368532918885 0.0003961772592743121 -0.00030738897092998644 -8.878828834432569e-05 -0.000438207728106821 0.0 0.0
0.0 0.0017000364658299248 0.0013481116920934595 -0.0010951759038919846 -0.00025293578820147515 -0.0012488412132486597 0.0 0.0
0.0 0.003798407635278409 0.0028610432347349135 -0.002439533779879545 -0.0004215094548553671 -0.002440366415605076 0.0 0.0
0.0 0.005933964887051275 0.004821820710325851 -0.0042650430053136216 -0.0005567777050122253 -0.003863554765165459 0.0 0.0
0.0 0.008596969568695958 0.007093430707118943 -0.006434939209358261 -0.0006584914977606895 -0.005257096190574386 0.0 0.0
0.0 0.011735460945881099 0.009693100370430497 -0.008950862778688947 -0.0007422375917415394 -0.0066234547612799176 0.0 0.0
0.0 0.015340839256176034 0.012726745960092175 -0.011914444447027623 -0.0008123015130645482 -0.008030910881712873 0.0 0.0
0.0 0.019685975536955627 0.016307905362000736 -0.015436090417769631 -0.0008718149442311007 -0.009555406595437608 0.0 0.0
0.0 0.0246492935578579 0.020520338453802484 -0.019599590109952898 -0.0009207483438495704 -0.01116295512792708 0.0 0.0
0.0 0.030514446185538863 0.025331739764084878 -0.024371166840678082 -0.0009605729234067857 -0.012647676849318614 0.0 0.0
0.0 0.036630276196539704 0.03062059662743643 -0.029622312340923645 -0.000998284286512784 -0.013566329436194376 0.0 0.0
0.0 0.04287667198813071 0.03620612791383073 -0.0351807503658223 -0.0010253775480084445 -0.013348641907358707 0.0 0.0
0.0 0.049144273282355766 0.041628895064929373 -0.04062735147922723 -0.0010015435857021653 -0.010778373873046138 0.0 0.0
0.0 0.05370819700470907 0.0448560274205178 -0.04442119141061058 -0.0004348360099072101 1.1426189855390234e-14 0.0 0.0
0.0 0.04914427328235313 0.041628895064924114 -0.040627351479222085 -0.0010015435857020061 0.010778373873075137 0.0 0.0
0.0 0.04287667198812127 0.03620612791382015 -0.03518075036581167 -0.0010253775480084896 0.013348641907387881 0.0 0.0
0.0 0.03663027619652744 0.030620596627424772 -0.02962231234091238 -0.0009982842865124324 0.013566329436210387 0.0 0.0
0.0 0.030514446185522667 0.025331739764070844 -0.024371166840665082 -0.0009605729234057581 0.012647676849319268 0.0 0.0
0.0 0.02464929355783841 0.020520338453786358 -0.019599590109937025 -0.0009207483438493484 0.011162955127919963 0.0 0.0
0.0 0.019685975536938884 0.01630790536198623 -0.01543609041775556 -0.0008718149442306748 0.00955540659543161 0.0 0.0
0.0 0.015340839256159129 0.01272674596007772 -0.011914444447013579 -0.0008123015130641399 0.00803091088170789 0.0 0.0
0.0 0.011735460945866078 0.009693100370417896 -0.008950862778676948 -0.0007422375917409454 0.006623454761274082 0.0 0.0
0.0 0.008596969568678453 0.007093430707104475 -0.006434939209344171 -0.0006584914977603003 0.0052570961905638505 0.0 0.0
0.0 0.005933964887036159 0.0048218207103137446 -0.004265043005302404 -0.0005567777050113383 0.0038635547651542004 0.0 0.0
0.0 0.0037984076352659303 0.002861043234725249 -0.0024395337798706566 -0.0004215094548545925 0.0024403664155962733 0.0 0.0
0.0 0.0017000364658220366 0.0013481116920874764 -0.0010951759038868882 -0.00025293578820058757 0.0012488412132435353 0.0 0.0
0.0 0.0004880736853250241 0.000396177259271375 -0.0003073889709276444 -8.878828834373084e-05 0.00043820772810376774 0.0 0.0
0.0 2.2040927232296836e-05 7.363778973080488e-06 -4.425166648623197e-06 -2.9386123244573253e-06 1.0778490510742308e-06 0.0 0.0
0.0 -1.2089870168305435e-05 -7.319483035191236e-06 5.8358363070684265e-06 1.4836467281228549e-06 -1.9660665413775826e-05 0.0 0.0
0.0 4.814556036421013e-07 -2.4560915748356243e-07 1.9590418511385392e-07 4.9704972369698076e-08 -7.973599291350195e-07 0.0 0.0
0.0 -4.0385216122886154e-07 1.4147665859095061e-08 -1.0174004680004456e-08 -3.973661179089202e-09 8.078456365178302e-08 0.0 0.0
0.0 1.5012394747879627e-07 -8.94337143643398e-10 1.0177113510135556e-09 -1.2337420737023362e-10 -2.990333478189685e-08 0.0 0.0
0.0 1.364141274770163e-05 9.902188786528305e-06 2.9232528362001382e-05 -3.913471714852981e-05 0.000174642113596981 0.0 0.0
0.0 0.0015012872928051421 0.000718102656187888 -0.001040257045565408 0.00032215438937752014 0.000703450369180465 0.0 0.0
0.0 0.0006077395020338178 0.0003236582409715897 -0.00047151456417879003 0.00014785632320720108 -0.0003955618804169874 0.0 0.0
0.0 -4.457134827515191e-05 -2.5348840426566097e-05 4.309976221710141e-05 -1.7750921790535372e-05 3.3518037663973602e-06 0.0 0.0
0.0 2.2756234019458266e-06 -3.622856323065417e-09 1.1119213435067454e-08 -7.496357112000574e-09 4.94855934509731e-07 0.0 0.0
0.0 7.864306231303351e-07 -1.6387003304045022e-09 -2.085611771306629e-10 1.847261507534281e-09 1.628291981626507e-07 0.0 0.0
0.0 -3.749551023328291e-08 -8.330904105784332e-08 5.945620093520197e-08 2.3852840122640346e-08 6.407168013755276e-07 0.0 0.0
0.0 -1.3956755117345817e-05 -1.668776210367277e-06 1.35634721400814e-06 3.124289963591409e-07 7.136577052300908e-06 0.0 0.0
0.0 -5.848075642312026e-06 -1.4467172274770782e-05 1.1665883661117953e-05 2.8012886136527908e-06 3.979143493712751e-05 0.0 0.0
0.0 0.000160282073818777 5.001340395984249e-05 -3.958040574071467e-05 -1.0432998219127699e-05 -0.00012464570919928531 0.0 0.0
0.0 0.0007009179945129746 0.0004641308047306695 -0.00037337695671396806 -9.075384801670149e-05 -0.0007169674721519353 0.0 0.0
0.0 0.0018875818635429218 0.0013147486808875093 -0.0010933093884024254 -0.00022143929248508452 -0.0015914727202703824 0.0 0.0
0.0 0.0033126898591089703 0.002540397836313696 -0.002183040447794359 -0.00035735738851933686 -0.002753866506158698 0.0 0.0
0.0 0.005192465136907275 0.004015217040637297 -0.0035472854894429764 -0.0004679315511943208 -0.00396924476303125 0.0 0.0
0.0 0.007300611279436491 0.005715267650145161 -0.0051529256193511355 -0.0005623420307940204 -0.005206892365071718 0.0 0.0
0.0 0.009731299844935789 0.007697216321041885 -0.007059573762456465 -0.0006376425585854101 -0.00645781182086443 0.0 0.0
0.0 0.012654876755413283 0.010051602059592107 -0.009352408607644027 -0.0006991934519480843 -0.007749954106771174 0.0 0.0
0.0 0.01617493015892489 0.012876045577407756 -0.012126597545348252 -0.0007494480320595105 -0.009105001572481635 0.0 0.0
0.0 0.0202858423369323 0.016224893823525967 -0.015430577838188828 -0.0007943159853371259 -0.010418103677303378 0.0 0.0
0.0 0.024767730328254436 0.02009020999014162 -0.01925513127142001 -0.0008350787187216361 -0.011342039571479261 0.0 0.0
0.0 0.029830276360403685 0.02448939913984366 -0.023608475336442506 -0.000880923803401114 -0.011388142386795681 0.0 0.0
0.0 0.03565499061502982 0.02939582774721211 -0.028503291001174002 -0.0008925367460380787 -0.00993385965431897 0.0 0.0
0.0 0.040545046344762185 0.03282772512310856 -0.03263490408610544 -0.00019282103700314472 9.663277122928804e-15 0.0 0.0
0.0 0.03565499061503068 0.02939582774720957 -0.02850329100117133 -0.0008925367460382305 0.009933859654342899 0.0 0.0
0.0 0.029830276360397735 0.024489399139836214 -0.02360847533643504 -0.0008809238034011332 0.011388142386819795 0.0 0.0
0.0 0.024767730328245904 0.020090209990133712 -0.01925513127141247 -0.0008350787187212315 0.011342039571491953 0.0 0.0
0.0 0.020285842336918977 0.016224893823515534 -0.01543057783817882 -0.0007943159853367152 0.010418103677300785 0.0 0.0
0.0 0.016174930158912554 0.012876045577397948 -0.012126597545338682 -0.0007494480320592489 0.009105001572474968 0.0 0.0
0.0 0.012654876755401638 0.01005160205958237 -0.009352408607634567 -0.000699193451947801 0.007749954106766025 0.0 0.0
0.0 0.009731299844925378 0.007697216321033224 -0.007059573762448292 -0.0006376425585849337 0.0064578118208605375 0.0 0.0
0.0 0.007300611279426335 0.0057152676501366195 -0.005152925619343179 -0.0005623420307934384 0.005206892365066646 0.0 0.0
0.0 0.005192465136895552 0.004015217040628764 -0.003547285489435027 -0.00046793155119373723 0.003969244763022781 0.0 0.0
0.0 0.0033126898590987836 0.0025403978363059054 -0.002183040447787184 -0.00035735738851872125 0.0027538665061493514 0.0 0.0
0.0 0.001887581863534355 0.0013147486808814293 -0.0010933093883972464 -0.00022143929248418312 0.0015914727202638143 0.0 0.0
0.0 0.0007009179945082997 0.00046413080472763847 -0.0003733769567114478 -9.075384801619031e-05 0.0007169674721480937 0.0 0.0
0.0 0.00016028207381676177 5.001340395895407e-05 -3.9580405739995086e-05 -1.043299821895888e-05 0.00012464570919744128 0.0 0.0
0.0 -5.848075643188535e-06 -1.4467172274213633e-05 1.1665883660674436e-05 2.801288613539254e-06 -3.979143493583671e-05 0.0 0.0
0.0 -1.395675511696974e-05 -1.6687762100985499e-06 1.3563472137974789e-06 3.1242899630103674e-07 -7.136577050758872e-06 0.0 0.0
0.0 -3.7495510978343836e-08 -8.330904111951468e-08 5.945620098428117e-08 2.385284013524509e-08 -6.407168016530597e-07 0.0 0.0
0.0 7.864306230353753e-07 -1.6387003332195712e-09 -2.0856117435996048e-10 1.847261507578611e-09 -1.6282919813890725e-07 0.0 0.0
0.0 2.2756234013447927e-06 -3.6228563214464765e-09 1.1119213431972399e-08 -7.496357110524799e-09 -4.948559343785076e-07 0.0 0.0
0.0 -4.457134827570975e-05 -2.5348840426457433e-05 4.309976221686198e-05 -1.775092179040453e-05 -3.3518037665775263e-06 0.0 0.0
0.0 0.0006077395020292946 0.0003236582409694145 -0.0004715145641756614 0.00014785632320624663 0.0003955618804146422 0.0 0.0
0.0 0.00019459291527135737 6.929659157978095e-05 -0.0001024276112727972 3.313101969301638e-05 -9.712051456791121e-05 0.0 0.0
0.0 -2.6958324043221548e-05 -1.2306229465262003e-05 1.6956621833626205e-05 -4.6503923683642e-06 2.2241297475785015e-05 0.0 0.0
0.0 5.096525743868014e-07 9.381252579871773e-11 1.5396771685514519e-09 -1.6334896943491657e-09 1.0271581062143611e-07 0.0 0.0
0.0 4.096640072979324e-07 9.90752011270457e-09 -8.396156044114786e-09 -1.5113640685919163e-09 8.098632487915903e-08 0.0 0.0
0.0 2.201810009710922e-07 4.4876839571657246e-08 -3.4264331910975734e-08 -1.0612507660673156e-08 -1.3769702062681877e-07 0.0 0.0
0.0 -5.2952299135543374e-06 -1.457067210522197e-06 1.1307716253420704e-06 3.262955851801012e-07 1.3855358322994701e-05 0.0 0.0
0.0 3.306745921464155e-08 -3.641788328030619e-06 2.974115084339453e-06 6.676732436911869e-07 1.8193458144689978e-05 0.0 0.0
0.0 6.1285604980265e-05 5.056113753671745e-07 -2.603655436441205e-07 -2.4524583172307806e-07 -6.834900139562506e-05 0.0 0.0
0.0 0.00018417123811979313 2.7315271987768996e-05 -2.4203094621809647e-05 -3.112177365959294e-06 -0.0002783459297384937 0.0 0.0
0.0 0.0005348283168772835 0.00020251965657521568 -0.0001787376541802148 -2.3782002395001173e-05 -0.0007429650010690361 0.0 0.0
0.0 0.0012958459745547569 0.0005921875550311578 -0.0005285150216369876 -6.367253339417008e-05 -0.0014502421703024904 0.0 0.0
0.0 0.002107734112593354 0.0012241716019774254 -0.001093816430540449 -0.00013035517143697626 -0.0023868879548141217 0.0 0.0
0.0 0.003242970743627149 0.002015240958161646 -0.0018122493185731988 -0.00020299163958844543 -0.0033805023471862664 0.0 0.0
0.0 0.00461920277200235 0.002967001974079831 -0.002694482171917229 -0.000272519802162606 -0.004426136076452358 0.0 0.0
0.0 0.006222892702132477 0.0041187029634342865 -0.0037734553279185753 -0.0003452476355157081 -0.00552512926030845 0.0 0.0
0.0 0.008193788517657232 0.005561328347521747 -0.005144635995145735 -0.00041669235237601186 -0.0067004364485521006 0.0 0.0
0.0 0.010698786685841495 0.0074121222022241065 -0.006922340867775279 -0.0004897813344488312 -0.007929597838924681 0.0 0.0
0.0 0.013859623915682802 0.009808355369599805 -0.009250747331910692 -0.0005576080376891063 -0.008933782560635298 0.0 0.0
0.0 0.017512929663608102 0.012866104963156476 -0.012250767343721984 -0.0006153376194345066 -0.009133246274568659 0.0 0.0
0.0 0.02196359351905982 0.01690254511183156 -0.016197139962047708 -0.0007054051497838391 -0.008216443721296743 0.0 0.0
0.0 0.028111337872193172 0.020465516244553224 -0.020565374075476497 9.98578309232612e-05 7.098922144566089e-15 0.0 0.0
0.0 0.021963593519063372 0.016902545111830716 -0.016197139962046896 -0.000705405149783822 0.0082164437213158 0.0 0.0
0.0 0.01751292966360463 0.012866104963151674 -0.012250767343717616 -0.0006153376194340564 0.009133246274586771 0.0 0.0
0.0 0.013859623915675683 0.009808355369594344 -0.009250747331905285 -0.0005576080376890654 0.008933782560641479 0.0 0.0
0.0 0.010698786685832549 0.007412122202218775 -0.006922340867770579 -0.0004897813344481942 0.007929597838920544 0.0 0.0
0.0 0.00819378851765127 0.005561328347517703 -0.005144635995141819 -0.00041669235237588257 0.0067004364485470065 0.0 0.0
0.0 0.00622289270212638 0.004118702963429853 -0.003773455327913883 -0.0003452476355159702 0.00552512926030339 0.0 0.0
0.0 0.004619202771998593 0.002967001974077698 -0.002694482171915204 -0.0002725198021624949 0.004426136076450365 0.0 0.0
0.0 0.003242970743620955 0.0020152409581580357 -0.0018122493185697365 -0.00020299163958829953 0.003380502347180449 0.0 0.0
0.0 0.0021077341125873483 0.001224171601974026 -0.0010938164305374439 -0.00013035517143658194 0.002386887954807659 0.0 0.0
0.0 0.0012958459745493524 0.0005921875550284515 -0.0005285150216345354 -6.36725333939153e-05 0.0014502421702960394 0.0 0.0
0.0 0.0005348283168734677 0.0002025196565735604 -0.00017873765417865918 -2.378200239490132e-05 0.0007429650010657962 0.0 0.0
0.0 0.00018417123811836369 2.7315271987303274e-05 -2.4203094621417796e-05 -3.1121773658853523e-06 0.00027834592973624756 0.0 0.0
0.0 6.128560497959293e-05 5.056113754213635e-07 -2.6036554369344483e-07 -2.452458317279745e-07 6.834900139537708e-05 0.0 0.0
0.0 3.306745872731422e-08 -3.6417883279861485e-06 2.974115084300247e-06 6.676732436859163e-07 -1.8193458144415658e-05 0.0 0.0
0.0 -5.29522991408328e-06 -1.4570672105404945e-06 1.1307716253568627e-06 3.262955851836331e-07 -1.3855358323011222e-05 0.0 0.0
0.0 2.2018100058761829e-07 4.487683957894048e-08 -3.4264331915736615e-08 -1.0612507663207042e-08 1.376970207592605e-07 0.0 0.0
0.0 4.096640068308793e-07 9.90752010832275e-09 -8.39615604017302e-09 -1.5113640681489081e-09 -8.098632478345155e-08 0.0 0.0
0.0 5.096525740515149e-07 9.381252618957887e-11 1.539677166806176e-09 -1.6334896929998106e-09 -1.0271581055161462e-07 0.0 0.0
0.0 -2.6958324043509384e-05 -1.2306229465085437e-05 1.695662183339334e-05 -4.650392368307891e-06 -2.2241297475429986e-05 0.0 0.0
0.0 0.0001945929152690038 6.929659157898024e-05 -0.00010242761127163155 3.313101969265121e-05 9.712051456682936e-05 0.0 0.0
0.0 6.2702650675856855e-06 4.8293985830990185e-06 -7.562375378924909e-06 2.7329767958258416e-06 -7.317034909074813e-06 0.0 0.0
0.0 -1.9351488832028605e-06 -6.340981081914847e-07 9.96570695685675e-07 -3.624725874941752e-07 7.530278220279816e-07 0.0 0.0
0.0 3.5637643855583632e-06 1.0466321526454694e-08 6.2185905963190185e-09 -1.668491212277834e-08 7.708049989247887e-07 0.0 0.0
0.0 1.2405663355666563e-06 2.296314495505155e-08 -1.9338392250235115e-08 -3.624752704813151e-09 2.542797602654144e-07 0.0 0.0
0.0 -1.7633447249503519e-07 4.123339183181255e-08 -3.958131889871448e-08 -1.6520729330982274e-09 4.3242912239979506e-07 0.0 0.0
0.0 -5.278169222769715e-06 1.9719922764079042e-08 -1.5578772972781265e-08 -4.141149791294727e-09 1.1704110125439209e-05 0.0 0.0
0.0 4.568474590647385e-06 -2.3747031986124686e-07 2.1772742533972163e-07 1.9742894521515598e-08 1.6289425494286766e-05 0.0 0.0
0.0 5.313716913944938e-05 -3.791849833168252e-07 3.8344925459752383e-07 -4.264271280693078e-09 -9.359646258962197e-05 0.0 0.0
0.0 0.00019612578025651541 -3.403164852869259e-08 3.260287794187269e-08 1.4287705868535174e-09 -0.00025246803468211183 0.0 0.0
0.0 0.00031458445199641547 1.4862137542233603e-07 -9.736958455073971e-08 -5.125179087161626e-08 -0.0005325736797747151 0.0 0.0
0.0 0.0005931818957609092 -1.792535332075175e-06 1.0602416913964472e-06 7.32293640678694e-07 -0.0008841387534562977 0.0 0.0
0.0 0.0007676740673127543 1.7729289213665745e-06 -1.3523202461112964e-06 -4.206086752551916e-07 -0.001472442448328581 0.0 0.0
0.0 0.001095875278039397 2.1709918427274436e-06 -1.2672334099997698e-06 -9.037584327273621e-07 -0.002212230892413277 0.0 0.0
0.0 0.001513958997447389 -8.847564240201198e-06 1.1246753621594512e-05 -2.3991893813933343e-06 -0.0031310551326745434 0.0 0.0
0.0 0.0022207494742867637 -8.976979326071359e-06 8.40827341869432e-06 5.687059073769979e-07 -0.004257685074694679 0.0 0.0
0.0 0.003091396989332213 6.77465075304661e-05 -8.356220266911873e-05 1.5815695138652258e-05 -0.005559975144138959 0.0 0.0
0.0 0.004187575196261033 0.00037757404499387287 -0.0004310258916649316 5.345184667105934e-05 -0.006978522145802303 0.0 0.0
0.0 0.005500862113587435 0.0010649755830681234 -0.0012148619189699225 0.00014988633590179722 -0.008389229985564888 0.0 0.0
0.0 0.007522306134452387 0.0020417667671287915 -0.0022685638454845083 0.00022679707835571836 -0.009471778650696571 0.0 0.0
0.0 0.011063885662313366 0.004556977740174668 -0.0044331910900140626 -0.0001237866501606036 -0.009434421173598741 0.0 0.0
0.0 0.01919411377182193 0.00861579380562099 -0.009152974078627987 0.0005371802730070035 7.409003965896943e-15 0.0 0.0
0.0 0.011063885662316253 0.004556977740173029 -0.004433191090012562 -0.000123786650160469 0.009434421173613127 0.0 0.0
0.0 0.007522306134448219 0.0020417667671264626 -0.0022685638454817197 0.0002267970783552575 0.009471778650700731 0.0 0.0
0.0 0.005500862113581308 0.0010649755830667777 -0.0012148619189682425 0.000149886335901465 0.008389229985560388 0.0 0.0
0.0 0.004187575196253688 0.00037757404499418664 -0.0004310258916654641 5.345184667127713e-05 0.006978522145795703 0.0 0.0
0.0 0.0030913969893290264 6.774650753125258e-05 -8.356220267002236e-05 1.5815695138770666e-05 0.005559975144133613 0.0 0.0
0.0 0.002220749474283722 -8.97697932511802e-06 8.408273417653594e-06 5.687059074639781e-07 0.004257685074690801 0.0 0.0
0.0 0.001513958997445409 -8.847564239650315e-06 1.1246753621005438e-05 -2.3991893813549197e-06 0.003131055132670221 0.0 0.0
0.0 0.0010958752780345468 2.1709918426601553e-06 -1.2672334099648991e-06 -9.037584326952155e-07 0.0022122308924056276 0.0 0.0
0.0 0.0007676740673104145 1.7729289213621767e-06 -1.352320246080356e-06 -4.206086752818071e-07 0.0014724424483231271 0.0 0.0
0.0 0.0005931818957582544 -1.7925353319783914e-06 1.0602416912668672e-06 7.322936407115106e-07 0.0008841387534520347 0.0 0.0
0.0 0.000314584451996242 1.486213755110284e-07 -9.73695846415867e-08 -5.125179086940443e-08 0.000532573679773767 0.0 0.0
0.0 0.00019612578025560382 -3.4031648508271904e-08 3.260287794482933e-08 1.4287705634290237e-09 0.00025246803468090436 0.0 0.0
0.0 5.313716913839403e-05 -3.791849833253953e-07 3.8344925461469536e-07 -4.264271289283769e-09 9.359646258843905e-05 0.0 0.0
0.0 4.568474590048607e-06 -2.3747031985897576e-07 2.1772742533695564e-07 1.9742894522028873e-08 -1.6289425494246417e-05 0.0 0.0
0.0 -5.278169222869017e-06 1.9719922725047407e-08 -1.5578772933731504e-08 -4.1411497913221676e-09 -1.1704110124479785e-05 0.0 0.0
0.0 -1.7633447308450632e-07 4.123339183480833e-08 -3.958131890251477e-08 -1.6520729322902934e-09 -4.324291224818552e-07 0.0 0.0
0.0 1.2405663350389034e-06 2.2963144945294832e-08 -1.9338392241929008e-08 -3.624752703366745e-09 -2.542797601527055e-07 0.0 0.0
0.0 3.5637643852961112e-06 1.0466321526893375e-08 6.218590594824565e-09 -1.6684912121708747e-08 -7.708049988575556e-07 0.0 0.0
0.0 -1.9351488832086025e-06 -6.340981082226083e-07 9.965706957267875e-07 -3.624725875041949e-07 -7.530278220595342e-07 0.0 0.0
0.0 6.27026506657566e-06 4.8293985833089e-06 -7.562375379232754e-06 2.732976795923959e-06 7.317034909500827e-06 0.0 0.0
0.0 1.2392568618169737e-06 -7.491151091484791e-08 1.1767598598030642e-07 -4.2764475065472074e-08 1.441325408975938e-07 0.0 0.0
0.0 1.0193361657633564e-07 1.0676732839692013e-08 -1.3945681913414806e-08 3.26894907372364e-09 3.7380425146472035e-08 0.0 0.0
0.0 -9.357685161701171e-07 -1.552570624685003e-08 1.0540996021090543e-08 4.984710225759459e-09 -2.2166859504863437e-07 0.0 0.0
0.0 1.4503376273127586e-06 5.1814262230530056e-08 -4.2267589973478545e-08 -9.546672257053104e-09 3.7941717704457545e-07 0.0 0.0
0.0 -1.9463283330951456e-06 2.2973502279873387e-07 -2.0879575636953292e-07 -2.0939266429198717e-08 1.4780618493027068e-06 0.0 0.0
0.0 -6.31893115864751e-06 2.1415027011677767e-07 -1.2105975151528847e-07 -9.309051860145706e-08 4.96950363917907e-06 0.0 0.0
0.0 1.564549093572993e-05 4.728531639117178e-06 -3.6983286210676006e-06 -1.0302030180496351e-06 2.5693741523843786e-05 0.0 0.0
0.0 6.729979544997295e-05 -1.52816163712682e-06 1.230904621340827e-06 2.972570157860088e-07 -7.084852663938547e-05 0.0 0.0
0.0 0.00018469313405530146 -2.7829118447707176e-05 2.463977026948196e-05 3.1893481782250136e-06 -0.0002802107022669356 0.0 0.0
0.0 0.0005327196944614992 -0.0002016285957418965 0.00017789827453546243 2.373032120643432e-05 -0.0007420964916188927 0.0 0.0
0.0 0.001297078196222853 -0.0005835017580857868 0.0005223286453270637 6.117311275872273e-05 -0.0014424800775090446 0.0 0.0
0.0 0.0021220049788535254 -0.001230155819880052 0.0010985191865263363 0.00013163663335371488 -0.0023869557233183766 0.0 0.0
0.0 0.0032660474950489213 -0.0020332466769376854 0.0018279227079159336 0.00020532396902174955 -0.003381201087599492 0.0 0.0
0.0 0.0046604747980417294 -0.0030012620646842477 0.002725697300145935 0.0002755647645383139 -0.004422268039819935 0.0 0.0
0.0 0.006220088441130863 -0.004127346385432963 0.0037886602698826736 0.00033868611555028943 -0.0055360832733254445 0.0 0.0
0.0 0.007943568428215177 -0.005335864533020091 0.004962596334131913 0.0003732681988881764 -0.006796279643809038 0.0 0.0
0.0 0.00958624193122463 -0.006403497411154747 0.006036567522742303 0.0003669298884124484 -0.008282075851549922 0.0 0.0
0.0 0.010971975307406817 -0.006936277848922321 0.006641294669743019 0.0002949831791792931 -0.010023234070523718 0.0 0.0
0.0 0.011193162259552891 -0.006422861561630918 0.006257608498107102 0.00016525306352382376 -0.012000024760299238 0.0 0.0
0.0 0.00938332705905913 -0.004647919661696493 0.004664208685656316 -1.628902395982293e-05 -0.013580456009894612 0.0 0.0
0.0 0.018244996488887583 -0.0025088438654647252 0.0009581177042267265 0.0015507261612379983 1.1071438904552977e-14 0.0 0.0
0.0 0.009383327059063746 -0.004647919661696548 0.004664208685656653 -1.6289023960104143e-05 0.013580456009903595 0.0 0.0
0.0 0.011193162259553205 -0.006422861561630379 0.00625760849810666 0.00016525306352372442 0.012000024760307855 0.0 0.0
0.0 0.010971975307400537 -0.006936277848917923 0.006641294669739139 0.00029498317917877996 0.010023234070524896 0.0 0.0
0.0 0.009586241931213432 -0.0064034974111465805 0.006036567522734386 0.00036692988841219624 0.008282075851543242 0.0 0.0
0.0 0.00794356842820594 -0.005335864533013096 0.004962596334125213 0.00037326819888788045 0.006796279643802555 0.0 0.0
0.0 0.006220088441124085 -0.004127346385427013 0.003788660269877301 0.0003386861155497149 0.00553608327332016 0.0 0.0
0.0 0.004660474798032319 -0.003001262064677048 0.002725697300139092 0.00027556476453795677 0.004422268039813507 0.0 0.0
0.0 0.003266047495038624 -0.0020332466769302678 0.0018279227079089516 0.00020532396902131608 0.0033812010875912367 0.0 0.0
0.0 0.002122004978843726 -0.0012301558198736075 0.0010985191865206382 0.0001316366333529683 0.0023869557233098374 0.0 0.0
0.0 0.0012970781962144801 -0.0005835017580813657 0.0005223286453231428 6.117311275822258e-05 0.0014424800775012464 0.0 0.0
0.0 0.0005327196944563475 -0.0002016285957398393 0.0001778982745335385 2.3730321206300857e-05 0.0007420964916149938 0.0 0.0
0.0 0.0001846931340541354 -2.7829118447417138e-05 2.4639770269231735e-05 3.1893481781854504e-06 0.00028021070226601723 0.0 0.0
0.0 6.729979544878168e-05 -1.5281616371042339e-06 1.2309046213428612e-06 2.972570157613506e-07 7.084852663854225e-05 0.0 0.0
0.0 1.5645490934687268e-05 4.728531639079985e-06 -3.6983286210390327e-06 -1.030203018040938e-06 -2.5693741523695135e-05 0.0 0.0
0.0 -6.318931158904722e-06 2.141502700552335e-07 -1.210597514634416e-07 -9.309051859178314e-08 -4.9695036387626146e-06 0.0 0.0
0.0 -1.946328333645052e-06 2.297350227966865e-07 -2.0879575636782027e-07 -2.09392664288704e-08 -1.4780618492487857e-06 0.0 0.0
0.0 1.4503376266297112e-06 5.181426224421648e-08 -4.2267589984342967e-08 -9.546672259873183e-09 -3.7941717711869946e-07 0.0 0.0
0.0 -9.357685162933286e-07 -1.552570625252529e-08 1.0540996025462052e-08 4.984710227060261e-09 2.2166859512691223e-07 0.0 0.0
0.0 1.0193361634669551e-07 1.0676732833700947e-08 -1.3945681909328034e-08 3.2689490756309226e-09 -3.7380425093418424e-08 0.0 0.0
0.0 1.2392568610875138e-06 -7.491151086901853e-08 1.1767598590977797e-07 -4.276447504077999e-08 -1.441325408055337e-07 0.0 0.0
0.0 0.0 0.0 0.0 0.0 0.0 0.0 0.0
0.0 -2.421719605901748e-07 -3.2468155202972983e-09 1.8808664176063756e-09 1.3659491026902043e-09 -4.880557232414907e-08 0.0 0.0
0.0 2.3774445909571058e-07 6.199517005463737e-10 2.651235336423845e-09 -3.2711870369688663e-09 1.196400435253721e-07 0.0 0.0
0.0 -7.580961738157012e-07 -9.19202990117162e-08 7.578632414275818e-08 1.6133974868949166e-08 -4.847322194169952e-07 0.0 0.0
0.0 7.161130549342369e-06 -5.57220442523186e-08 3.654015501116132e-08 1.9181889241203657e-08 3.8869082363591236e-07 0.0 0.0
0.0 2.792627379948327e-06 7.297117761306864e-06 -5.899510628312738e-06 -1.3976071329941037e-06 3.065473827504167e-05 0.0 0.0
0.0 -7.220112389190414e-06 6.7726349225293605e-06 -5.3472346197097125e-06 -1.42540030281957e-06 -6.213490537578406e-07 0.0 0.0
0.0 0.00017157540631026414 -5.4301465564489495e-05 4.3222519106696716e-05 1.1078946457792657e-05 -0.00013429021816844852 0.0 0.0
0.0 0.000699773724989045 -0.00046341423483889095 0.0003727050348923522 9.070919994653885e-05 -0.0007175010892065888 0.0 0.0
0.0 0.0018831951461698783 -0.0013124598671684267 0.0010911857073185706 0.00022127415984985553 -0.0015880816619481975 0.0 0.0
0.0 0.0033111641839628702 -0.0025399254037277346 0.002182661398326088 0.00035726400540164553 -0.00275216438062353 0.0 0.0
0.0 0.005197557967679753 -0.004019216225940987 0.0035509730177386836 0.00046824320820230416 -0.003969997111790807 0.0 0.0
0.0 0.007317715346750424 -0.005730596418441074 0.005167340300203732 0.0005632561182373359 -0.005199068682047834 0.0 0.0
0.0 0.009762811997304966 -0.007730331964353347 0.007092149435282526 0.0006381825290708233 -0.006426807856803983 0.0 0.0
0.0 0.012660752359535496 -0.010068110926138957 0.009373620282740127 0.0006944906433988276 -0.007725786997444312 0.0 0.0
0.0 0.015960840215255977 -0.012691144563394225 0.011964280756408537 0.0007268638069856878 -0.009268578209998777 0.0 0.0
0.0 0.019336807368767545 -0.015339794318570805 0.01460630096968497 0.000733493348885823 -0.011259096472844041 0.0 0.0
0.0 0.02208199652675817 -0.017525176949374274 0.016806178534045747 0.0007189984153285422 -0.013799185198415892 0.0 0.0
0.0 0.023659158336795175 -0.018320256765185772 0.017653567931710107 0.0006666888334756678 -0.016377992364773466 0.0 0.0
0.0 0.021901806032714206 -0.016007186434455256 0.015404871467266941 0.0006023149671883099 -0.016878358803783716 0.0 0.0
0.0 0.022622957288516682 -0.012551733183531645 0.010213780555209332 0.0023379526283223216 9.802055001006948e-15 0.0 0.0
0.0 0.021901806032718924 -0.016007186434454722 0.015404871467266275 0.0006023149671884422 0.016878358803803957 0.0 0.0
0.0 0.023659158336792354 -0.018320256765180582 0.017653567931705055 0.0006666888334755092 0.01637799236479067 0.0 0.0
0.0 0.022081996526749952 -0.01752517694936662 0.016806178534038284 0.0007189984153283441 0.013799185198423762 0.0 0.0
0.0 0.019336807368752908 -0.015339794318558886 0.014606300969673473 0.0007334933488854124 0.011259096472840159 0.0 0.0
0.0 0.0159608402152382 -0.012691144563379745 0.011964280756394106 0.0007268638069856404 0.0092685782099904 0.0 0.0
0.0 0.012660752359523185 -0.010068110926128866 0.009373620282730633 0.0006944906433982268 0.00772578699743752 0.0 0.0
0.0 0.009762811997290285 -0.00773033196434058 0.007092149435270261 0.0006381825290703128 0.0064268078567961 0.0 0.0
0.0 0.007317715346735086 -0.005730596418428518 0.005167340300191749 0.0005632561182367673 0.005199068682040234 0.0 0.0
0.0 0.005197557967664641 -0.004019216225929365 0.0035509730177279214 0.0004682432082014426 0.003969997111780128 0.0 0.0
0.0 0.0033111641839496334 -0.0025399254037174785 0.0021826613983165805 0.00035726400540089863 0.0027521643806124197 0.0 0.0
0.0 0.0018831951461588657 -0.0013124598671603446 0.0010911857073115764 0.0002212741598487684 0.0015880816619406222 0.0 0.0
0.0 0.0006997737249847551 -0.0004634142348359699 0.0003727050348900646 9.070919994590532e-05 0.0007175010892037266 0.0 0.0
0.0 0.0001715754063082114 -5.4301465563601235e-05 4.32225191059927e-05 1.107894645760844e-05 0.00013429021816648695 0.0 0.0
0.0 -7.220112390222112e-06 6.772634922293256e-06 -5.347234619525606e-06 -1.425400302767651e-06 6.213490542904592e-07 0.0 0.0
0.0 2.792627378511924e-06 7.297117761279077e-06 -5.899510628288686e-06 -1.3976071329904951e-06 -3.065473827475135e-05 0.0 0.0
0.0 7.161130548897794e-06 -5.572204426692781e-08 3.654015502445138e-08 1.9181889242474315e-08 -3.886908235420689e-07 0.0 0.0
0.0 -7.580961739478494e-07 -9.192029912747713e-08 7.578632423606943e-08 1.6133974891419173e-08 4.847322202463882e-07 0.0 0.0
0.0 2.377444585340444e-07 6.199517254142225e-10 2.651235314160949e-09 -3.271187039574974e-09 -1.1964004362734847e-07 0.0 0.0
0.0 -2.421719603617441e-07 -3.246815517878595e-09 1.8808664168966315e-09 1.3659491009815945e-09 4.8805572277769595e-08 0.0 0.0
0.0 0.0 0.0 0.0 0.0 0.0 0.0 0.0
0.0 0.0 0.0 0.0 0.0 0.0 0.0 0.0
0.0 4.708975586266584e-08 6.631015335524161e-10 -4.066369113317879e-10 -2.56464622220512e-10 9.52065192162231e-09 0.0 0.0
0.0 -8.431200303313022e-07 -2.8996678881907022e-08 2.3017103404619397e-08 5.97957547729079e-09 -1.6687519249258124e-07 0.0 0.0
0.0 1.7200554206036991e-06 1.3813084880660882e-07 -1.1418807706841977e-07 -2.3942771738195323e-08 5.998796051379875e-07 0.0 0.0
0.0 7.397785610982768e-07 1.9659970710390617e-06 -1.586440404630953e-06 -3.795566664081423e-07 6.328298224350403e-06 0.0 0.0
0.0 -1.4993350639731704e-05 9.899781723678464e-07 -7.917041565395064e-07 -1.98274015828288e-07 -2.3835055829729836e-06 0.0 0.0
0.0 7.32369500680747e-05 -1.244944795810334e-05 8.787523938828178e-06 3.661924019274971e-06 -6.206172527759221e-06 0.0 0.0
0.0 0.0005008470101271947 -0.0003989481057859063 0.00031008567360970457 8.886243217620177e-05 -0.000445499665630596 0.0 0.0
0.0 0.0016966679271422497 -0.0013455660676039442 0.0010927600448492533 0.00025280602275468974 -0.0012462358064470416 0.0 0.0
0.0 0.0037954112030515815 -0.0028589038633288926 0.00243734319960006 0.0004215606637288319 -0.002435809301344921 0.0 0.0
0.0 0.005930116095612662 -0.004822716403293395 0.0042660449396263464 0.0005566714636670502 -0.0038631845586495762 0.0 0.0
0.0 0.008601268637454168 -0.007096465885224583 0.006438073139755747 0.0006583927454688354 -0.005257375036744282 0.0 0.0
0.0 0.011743626955681829 -0.009701235185508212 0.008958750621396188 0.0007424845641120205 -0.006608147215477456 0.0 0.0
0.0 0.015352459385011612 -0.012745362366741822 0.01193248139062484 0.0008128809761169797 -0.00796539273051827 0.0 0.0
0.0 0.019675846727543717 -0.01632009678491235 0.015450644042170853 0.0008694527427415019 -0.009455865235729652 0.0 0.0
0.0 0.02449897875301974 -0.020401902962664746 0.01949780630847546 0.0009040966541892903 -0.01131037775695268 0.0 0.0
0.0 0.029875122163229382 -0.024689972119833394 0.023779694851722512 0.000910277268110875 -0.013896133148486305 0.0 0.0
0.0 0.034569025208906104 -0.028457365008609726 0.027580933514239403 0.0008764314943703188 -0.01735038292410685 0.0 0.0
0.0 0.0371897891600384 -0.030282704816247175 0.029478620803747684 0.0008040840124994993 -0.02074315856173257 0.0 0.0
0.0 0.03477295992034808 -0.02776003667220173 0.027091851735917757 0.0006681849362839595 -0.021811450316455146 0.0 0.0
0.0 0.032064158272867155 -0.022674660041043286 0.019613199293673705 0.0030614607473695684 1.080645989359752e-14 0.0 0.0
0.0 0.03477295992035027 -0.027760036672199083 0.02709185173591482 0.0006681849362842611 0.02181145031647929 0.0 0.0
0.0 0.03718978916003306 -0.03028270481623889 0.029478620803739617 0.000804084012499241 0.020743158561756313 0.0 0.0
0.0 0.0345690252088934 -0.028457365008597513 0.027580933514227586 0.0008764314943699306 0.01735038292411803 0.0 0.0
0.0 0.02987512216321042 -0.024689972119817268 0.02377969485170684 0.0009102772681104329 0.013896133148484783 0.0 0.0
0.0 0.024498978752996725 -0.020401902962645286 0.0194978063084561 0.0009040966541891731 0.011310377756944275 0.0 0.0
0.0 0.01967584672752362 -0.016320096784895672 0.0154506440421546 0.0008694527427410705 0.009455865235721428 0.0 0.0
0.0 0.015352459384990405 -0.01274536236672372 0.01193248139060716 0.0008128809761165618 0.00796539273051022 0.0 0.0
0.0 0.01174362695566021 -0.009701235185490296 0.008958750621378613 0.0007424845641116808 0.00660814721546816 0.0 0.0
0.0 0.008601268637433403 -0.007096465885207898 0.006438073139739696 0.0006583927454682031 0.005257375036732087 0.0 0.0
0.0 0.005930116095593827 -0.004822716403278313 0.004266044939611897 0.0005566714636664159 0.0038631845586370255 0.0 0.0
0.0 0.0037954112030370597 -0.002858903863317411 0.0024373431995895994 0.0004215606637278118 0.002435809301335329 0.0 0.0
0.0 0.0016966679271331218 -0.0013455660675971103 0.0010927600448434778 0.0002528060227536311 0.0012462358064415577 0.0 0.0
0.0 0.0005008470101225988 -0.00039894810578254526 0.0003100856736070622 8.886243217548296e-05 0.00044549966562748935 0.0 0.0
0.0 7.323695006584532e-05 -1.2449447957257865e-05 8.787523938158518e-06 3.6619240190995184e-06 6.206172526469203e-06 0.0 0.0
0.0 -1.4993350639769355e-05 9.8997817170194e-07 -7.917041560194619e-07 -1.9827401568245875e-07 2.383505584591717e-06 0.0 0.0
0.0 7.397785602274765e-07 1.965997070853217e-06 -1.5864404044771218e-06 -3.795566663760911e-07 -6.328298223724088e-06 0.0 0.0
0.0 1.7200554199823338e-06 1.381308488291183e-07 -1.1418807708776106e-07 -2.3942771741364797e-08 -5.998796051718388e-07 0.0 0.0
0.0 -8.431200300362501e-07 -2.8996678872773777e-08 2.301710339753103e-08 5.979575475243381e-09 1.6687519243153147e-07 0.0 0.0
0.0 4.708975583477513e-08 6.631015331494612e-10 -4.066369110840808e-10 -2.5646462206536185e-10 -9.520651915847124e-09 0.0 0.0
0.0 0.0 0.0 0.0 0.0 0.0 0.0 0.0
0.0 0.0 0.0 0.0 0.0 0.0 0.0 0.0
0.0 0.0 0.0 0.0 0.0 0.0 0.0 0.0
0.0 -2.95889627028445e-07 -1.3592507698731995e-08 1.083743040721265e-08 2.7550772915178707e-09 -5.501979115714737e-08 0.0 0.0
0.0 -2.344763537617607e-06 -2.0156355792126053e-07 1.6324895781209772e-07 3.8314600109164866e-08 -5.402052651627511e-07 0.0 0.0
0.0 7.219070388293754e-06 1.6534757095928574e-06 -1.3249963896777335e-06 -3.28479319915119e-07 4.136970325057235e-06 0.0 0.0
0.0 7.741088016227974e-06 2.3017140020683917e-05 -1.8520548238462724e-05 -4.4965917822212665e-06 4.1111639912890844e-05 0.0 0.0
0.0 0.0002422270913104831 -0.0001839205101352103 0.0001394606053214961 4.445990481371434e-05 -0.00016151056496455644 0.0 0.0
0.0 0.0011471273612771026 -0.0009624081683040889 0.0007591979500078332 0.0002032102182962546 -0.000703182445763882 0.0 0.0
0.0 0.003228283282451478 -0.0024559619548836214 0.0020530542965695574 0.0004029076583140631 -0.00169192426162065 0.0 0.0
0.0 0.005356021749727894 -0.004634399359352054 0.0040612831607664554 0.0005731161985856018 -0.0030955034071840767 0.0 0.0
0.0 0.008577026903142007 -0.00725535995121542 0.006565614232071396 0.0006897457191440165 -0.0045464191381080574 0.0 0.0
0.0 0.012169340490560517 -0.010293672523423458 0.00951242721117834 0.0007812453122451151 -0.005971797478249299 0.0 0.0
0.0 0.016290976448183433 -0.013799538173785634 0.012936419252876068 0.0008631189209095694 -0.007364682052030647 0.0 0.0
0.0 0.02111854386896836 -0.017901947999113873 0.0169644518746627 0.0009374961244511648 -0.008797057485245877 0.0 0.0
0.0 0.026741768687729286 -0.022731736680568635 0.021730159162559944 0.0010015775180086766 -0.010382141922565622 0.0 0.0
0.0 0.033525167687964416 -0.028293576406148616 0.027250168299157978 0.0010434081069906358 -0.01240243275421449 0.0 0.0
0.0 0.04024881454447077 -0.03424439417366974 0.03319782026231109 0.0010465739113585835 -0.015300306156581312 0.0 0.0
0.0 0.04694575993724446 -0.03955105321872621 0.03855926633026131 0.0009917868884649242 -0.01925968292591394 0.0 0.0
0.0 0.05078349388725324 -0.042257079178912034 0.04138319604481906 0.0008738831340929301 -0.023437984079663233 0.0 0.0
0.0 0.04772982392766747 -0.039172643265689804 0.03850253456186058 0.0006701087038292071 -0.025355959433700163 0.0 0.0
0.0 0.042308746134326024 -0.03260189200191636 0.02892591579945295 0.0036759762024633994 1.2261025528204073e-14 0.0 0.0
0.0 0.047729823927667864 -0.03917264326568543 0.03850253456185664 0.0006701087038287954 0.025355959433727517 0.0 0.0
0.0 0.05078349388724782 -0.04225707917890347 0.04138319604481123 0.0008738831340922471 0.023437984079691884 0.0 0.0
0.0 0.04694575993722289 -0.03955105321870658 0.03855926633024148 0.00099178688846506 0.019259682925926513 0.0 0.0
0.0 0.04024881454444522 -0.03424439417364762 0.033197820262289235 0.0010465739113583806 0.015300306156580644 0.0 0.0
0.0 0.03352516768793887 -0.028293576406126508 0.027250168299136554 0.0010434081069899423 0.012402432754207935 0.0 0.0
0.0 0.02674176868770222 -0.022731736680545345 0.02173015916253725 0.0010015775180080982 0.010382141922556272 0.0 0.0
0.0 0.02111854386894223 -0.017901947999091207 0.016964451874640563 0.0009374961244506164 0.008797057485237847 0.0 0.0
0.0 0.01629097644815419 -0.013799538173760997 0.012936419252851628 0.0008631189209093615 0.007364682052019959 0.0 0.0
0.0 0.012169340490534376 -0.010293672523401265 0.00951242721115667 0.0007812453122446007 0.005971797478236756 0.0 0.0
0.0 0.00857702690311809 -0.007255359951195303 0.006565614232051688 0.0006897457191436101 0.004546419138094174 0.0 0.0
0.0 0.00535602174970947 -0.004634399359336279 0.004061283160751429 0.0005731161985848487 0.0030955034071728856 0.0 0.0
0.0 0.003228283282436986 -0.0024559619548724836 0.0020530542965597376 0.0004029076583127472 0.0016919242616130307 0.0 0.0
0.0 0.0011471273612691248 -0.0009624081682979883 0.0007591979500028358 0.0002032102182951524 0.0007031824457596847 0.0 0.0
0.0 0.0002422270913066759 -0.0001839205101329153 0.0001394606053197881 4.445990481312709e-05 0.00016151056496288162 0.0 0.0
0.0 7.741088015842972e-06 2.3017140020149595e-05 -1.852054823804386e-05 -4.496591782105785e-06 -4.1111639912039434e-05 0.0 0.0
0.0 7.21907038691375e-06 1.653475709553859e-06 -1.3249963896499904e-06 -3.284793199038455e-07 -4.136970325011743e-06 0.0 0.0
0.0 -2.3447635378189286e-06 -2.0156355793463376e-07 1.6324895782348354e-07 3.8314600111153885e-08 5.402052652415325e-07 0.0 0.0
0.0 -2.9588962689353585e-07 -1.3592507692400482e-08 1.0837430402124616e-08 2.755077290274585e-09 5.50197911312241e-08 0.0 0.0
0.0 0.0 0.0 0.0 0.0 0.0 0.0 0.0
0.0 0.0 0.0 0.0 0.0 0.0 0.0 0.0
0.0 0.0 0.0 0.0 0.0 0.0 0.0 0.0
0.0 0.0 0.0 0.0 0.0 0.0 0.0 0.0
0.0 -1.336041538324973e-07 -7.0791082984345225e-09 5.607259907490537e-09 1.4718483909442396e-09 -2.3963176664436898e-08 0.0 0.0
0.0 -1.555711219258034e-07 -2.2690618974109305e-08 2.0845607799569463e-08 1.8450111745549255e-09 -5.006963119288666e-08 0.0 0.0
0.0 -8.778382034940332e-06 -5.180260846518538e-07 3.6378145826274495e-07 1.5424462638910267e-07 -2.889827249873644e-07 0.0 0.0
0.0 6.985080137037231e-05 -8.159818080197356e-06 4.149177362386724e-06 4.010640717810863e-06 2.0788491875713325e-05 0.0 0.0
0.0 0.0005757216572281183 -0.00048124979598744707 0.00036785536445420916 0.00011339443153323806 -0.00026356508456227336 0.0 0.0
0.0 0.0022122646728633876 -0.0016843884075295277 0.0013628285093746956 0.0003215598981548321 -0.0008880948241819614 0.0 0.0
0.0 0.004201850319328484 -0.00376827641573802 0.0032348903693749653 0.0005333860463630552 -0.00203237452420509 0.0 0.0
0.0 0.007486934857381573 -0.006480205113555767 0.005800447684921344 0.0006797574286344283 -0.0033721397609791657 0.0 0.0
0.0 0.011306525996578361 -0.009753817451477579 0.00896758379043484 0.0007862336610427346 -0.004760206237966342 0.0 0.0
0.0 0.015765786122329366 -0.013564653637979401 0.012689099018552997 0.0008755546194264083 -0.006134499867258904 0.0 0.0
0.0 0.020943520750960006 -0.017983587889011006 0.017022960100313525 0.0009606277886974645 -0.007498580255672012 0.0 0.0
0.0 0.027076575836829774 -0.02315548150795122 0.02211451126483877 0.001040970243112463 -0.008930002679866834 0.0 0.0
0.0 0.03412063191456954 -0.02924206110709389 0.02812748365009308 0.0011145774570007786 -0.010532807664179997 0.0 0.0
0.0 0.04217852355332401 -0.03627352395015934 0.03510719054061483 0.0011663334095445323 -0.012507200296948764 0.0 0.0
0.0 0.05133747323099737 -0.04383454143483103 0.04266906483478223 0.0011654766000488313 -0.015296927431087137 0.0 0.0
0.0 0.05940357583314292 -0.05064258630851425 0.04955722866659154 0.001085357641922666 -0.019336276651988036 0.0 0.0
0.0 0.06376346623297595 -0.05414874001831603 0.05323121518623084 0.0009175248320852192 -0.024142527746716012 0.0 0.0
0.0 0.060349046575223594 -0.05045506612648444 0.04979795086194465 0.0006571152645397865 -0.02771068553513708 0.0 0.0
0.0 0.05340362492782405 -0.042525592134977835 0.038291222732738446 0.004234369402239385 1.247960068617715e-14 0.0 0.0
0.0 0.060349046575220326 -0.05045506612647752 0.04979795086193776 0.0006571152645397449 0.027710685535165636 0.0 0.0
0.0 0.06376346623296489 -0.054148740018303165 0.053231215186218726 0.0009175248320844829 0.024142527746743823 0.0 0.0
0.0 0.05940357583311921 -0.050642586308492374 0.04955722866657007 0.001085357641922295 0.019336276652003385 0.0 0.0
0.0 0.05133747323096747 -0.04383454143480512 0.0426690648347564 0.001165476600048635 0.015296927431088476 0.0 0.0
0.0 0.04217852355329296 -0.036273523950132266 0.03510719054058854 0.00116633340954376 0.012507200296943875 0.0 0.0
0.0 0.034120631914538894 -0.029242061107067348 0.028127483650067297 0.0011145774570000546 0.010532807664173442 0.0 0.0
0.0 0.02707657583679856 -0.023155481507923723 0.022114511264811895 0.0010409702431118284 0.008930002679859328 0.0 0.0
0.0 0.020943520750926273 -0.0179835878889819 0.017022960100284687 0.0009606277886972091 0.007498580255662272 0.0 0.0
0.0 0.015765786122297797 -0.013564653637952395 0.012689099018526526 0.0008755546194258514 0.006134499867247166 0.0 0.0
0.0 0.011306525996549077 -0.009753817451452755 0.008967583790410405 0.0007862336610423476 0.004760206237952292 0.0 0.0
0.0 0.007486934857357739 -0.006480205113535415 0.0058004476849017874 0.000679757428633631 0.003372139760967699 0.0 0.0
0.0 0.004201850319313562 -0.0037682764157239263 0.0032348903693621045 0.0005333860463618192 0.0020323745241974424 0.0 0.0
0.0 0.0022122646728514506 -0.0016843884075201916 0.0013628285093667007 0.0003215598981534902 0.0008880948241767805 0.0 0.0
0.0 0.0005757216572232668 -0.0004812497959838045 0.00036785536445140107 0.00011339443153240384 0.00026356508456041596 0.0 0.0
0.0 6.985080136861372e-05 -8.15981807980417e-06 4.149177362099734e-06 4.010640717704238e-06 -2.0788491875770246e-05 0.0 0.0
0.0 -8.778382035479838e-06 -5.18026084993833e-07 3.637814585314008e-07 1.542446264624007e-07 2.8898272540731974e-07 0.0 0.0
0.0 -1.5557112224163688e-07 -2.2690618993482742e-08 2.084560781404829e-08 1.8450111794521656e-09 5.006963124489742e-08 0.0 0.0
0.0 -1.3360415377959937e-07 -7.079108295548217e-09 5.6072599052097004e-09 1.4718483903391005e-09 2.396317665472527e-08 0.0 0.0
0.0 0.0 0.0 0.0 0.0 0.0 0.0 0.0
0.0 0.0 0.0 0.0 0.0 0.0 0.0 0.0
0.0 0.0 0.0 0.0 0.0 0.0 0.0 0.0
0.0 0.0 0.0 0.0 0.0 0.0 0.0 0.0
0.0 0.0 0.0 0.0 0.0 0.0 0.0 0.0
0.0 -1.5597343346196452e-06 -1.7054505303515245e-07 1.35990107473325e-07 3.455494556180437e-08 -2.775938917587548e-07 0.0 0.0
0.0 -2.555629143471934e-07 1.530632295807365e-05 -1.2211316426990615e-05 -3.095006531082984e-06 1.760869153768725e-05 0.0 0.0
0.0 0.0001437358904719833 -0.0001483515428272639 0.00010998768358440116 3.836385924286242e-05 -6.219264241662585e-05 0.0 0.0
0.0 0.0012127658450525399 -0.0008859219435529099 0.0006894534119010076 0.00019646853165190272 -0.00031563697738776355 0.0 0.0
0.0 0.0028921458553947473 -0.0025950284883977694 0.0021560069798772777 0.00043902150852049134 -0.001034831976646772 0.0 0.0
0.0 0.005783886827633864 -0.005123911642023225 0.004494693265040877 0.0006292183769823498 -0.0020837918983868217 0.0 0.0
0.0 0.009539824850005124 -0.008375659568344476 0.007613382393978075 0.0007622771743663986 -0.003277318254811453 0.0 0.0
0.0 0.014107366284745657 -0.012293723331784436 0.011430218460196729 0.0008635048715877032 -0.0045357057266613085 0.0 0.0
0.0 0.01947844676449152 -0.016881698097057772 0.01592632945135091 0.0009553686457068535 -0.005781300524193572 0.0 0.0
0.0 0.025802868740368794 -0.02222763813687043 0.02118176273946809 0.0010458753974023386 -0.0070355305773892015 0.0 0.0
0.0 0.03286679877886056 -0.028492036369408055 0.02735839028289441 0.001133646086513653 -0.008388205583480617 0.0 0.0
0.0 0.04147151117125737 -0.03581821936645744 0.034604261894857775 0.0012139574715996954 -0.009914495778346627 0.0 0.0
0.0 0.0513280790125172 -0.04424289520854826 0.04296823749482695 0.0012746577137212488 -0.011677701707140336 0.0 0.0
0.0 0.06174793328661097 -0.05333926150434866 0.05206071740642523 0.0012785440979233838 -0.013974431742195694 0.0 0.0
0.0 0.07146247054265355 -0.061595573924227806 0.06042052762588498 0.0011750462983428495 -0.017554316486761576 0.0 0.0
0.0 0.07694123722477318 -0.06594904882000382 0.06499528749218161 0.0009537613278221739 -0.022867480051364977 0.0 0.0
0.0 0.07299820878452055 -0.061834012398586866 0.061204714781585436 0.000629297617001427 -0.029102301439453696 0.0 0.0
0.0 0.06461200100622004 -0.05271708918301317 0.04797087159182939 0.004746217591183783 1.2755421718857463e-14 0.0 0.0
0.0 0.07299820878451288 -0.06183401239857699 0.06120471478157496 0.000629297617002038 0.029102301439481452 0.0 0.0
0.0 0.07694123722476018 -0.06594904881998959 0.06499528749216843 0.000953761327821037 0.022867480051392997 0.0 0.0
0.0 0.07146247054262805 -0.0615955739242047 0.0604205276258626 0.0011750462983421005 0.017554316486777858 0.0 0.0
0.0 0.06174793328657441 -0.053339261504316865 0.05206071740639349 0.0012785440979234245 0.013974431742197611 0.0 0.0
0.0 0.05132807901247973 -0.04424289520851561 0.042968237494794656 0.0012746577137208864 0.01167770170713698 0.0 0.0
0.0 0.04147151117121976 -0.03581821936642471 0.03460426189482573 0.001213957471598985 0.00991449577834136 0.0 0.0
0.0 0.03286679877882276 -0.02849203636937524 0.027358390282862154 0.0011336460865130605 0.008388205583473602 0.0 0.0
0.0 0.025802868740330914 -0.022227638136837327 0.021181762739435242 0.0010458753974021075 0.007035530577380593 0.0 0.0
0.0 0.019478446764454645 -0.016881698097025808 0.015926329451319388 0.0009553686457064191 0.005781300524182857 0.0 0.0
0.0 0.014107366284712987 -0.012293723331756096 0.01143021846016892 0.000863504871587169 0.004535705726648994 0.0 0.0
0.0 0.009539824849977572 -0.008375659568320336 0.007613382393954658 0.0007622771743656749 0.0032773182548006957 0.0 0.0
0.0 0.005783886827615641 -0.0051239116420065955 0.004494693265025392 0.0006292183769812033 0.0020837918983801183 0.0 0.0
0.0 0.002892145855381103 -0.0025950284883856285 0.0021560069798664846 0.00043902150851914465 0.0010348319766414296 0.0 0.0
0.0 0.001212765845045012 -0.0008859219435473276 0.0006894534118965773 0.00019646853165074908 0.00031563697738553687 0.0 0.0
0.0 0.00014373589046963968 -0.00014835154282605197 0.00010998768358350529 3.836385924254619e-05 6.219264241635417e-05 0.0 0.0
0.0 -2.5556291524654035e-07 1.5306322957771337e-05 -1.2211316426759861e-05 -3.0950065310113457e-06 -1.7608691537431307e-05 0.0 0.0
0.0 -1.559734334538141e-06 -1.7054505304830767e-07 1.359901074833967e-07 3.455494556491199e-08 2.7759389177575234e-07 0.0 0.0
0.0 0.0 0.0 0.0 0.0 0.0 0.0 0.0
0.0 0.0 0.0 0.0 0.0 0.0 0.0 0.0
0.0 0.0 0.0 0.0 0.0 0.0 0.0 0.0
0.0 0.0 0.0 0.0 0.0 0.0 0.0 0.0
0.0 0.0 0.0 0.0 0.0 0.0 0.0 0.0
0.0 0.0 0.0 0.0 0.0 0.0 0.0 0.0
0.0 -8.180183749284747e-07 3.5982349730685666e-08 -2.898805933162743e-08 -6.994290399049819e-09 8.073544979084804e-08 0.0 0.0
0.0 1.1840788055289819e-05 1.3965616106745316e-05 -1.1578579960914264e-05 -2.38703614583084e-06 1.3389413876718179e-05 0.0 0.0
0.0 0.0004082978676505811 -0.00030554776442349757 0.00022718516081957578 7.83626036039218e-05 -5.085730805046345e-05 0.0 0.0
0.0 0.0017045327666520913 -0.001454972762841015 0.0011584136357316976 0.0002965591271093162 -0.00034612164655456863 0.0 0.0
0.0 0.0039207080674551545 -0.0035593736709463816 0.003027770791048216 0.0005316028798981656 -0.0010063033864651822 0.0 0.0
0.0 0.007290300939081361 -0.006518511607913491 0.00581214481257685 0.0007063667953366383 -0.001853052369344435 0.0 0.0
0.0 0.011672062505064211 -0.010294370221388533 0.009465675325852317 0.0008286948955362196 -0.002843936125400571 0.0 0.0
0.0 0.01692848473141714 -0.014856991096161525 0.013927581845096751 0.0009294092510647641 -0.003891800362841522 0.0 0.0
0.0 0.023218026281390126 -0.020229693151572043 0.01920327957346458 0.0010264135781074637 -0.004932299739258253 0.0 0.0
0.0 0.030358283086494454 -0.026522557480967192 0.025398129433900036 0.0011244280470671263 -0.005990338456234746 0.0 0.0
0.0 0.039100881184730506 -0.033881135249894084 0.03266384317024471 0.0012172920796493904 -0.007165548382266666 0.0 0.0
0.0 0.048889405026110985 -0.042436750351645264 0.041135428572400996 0.0013013217792442254 -0.008527526620923489 0.0 0.0
0.0 0.059944765592829734 -0.05216099556406431 0.05079225693323274 0.0013687386308316243 -0.01000347791791146 0.0 0.0
0.0 0.07209955237025509 -0.0626075417357258 0.061220500860329694 0.0013870408753960568 -0.011542531789069999 0.0 0.0
0.0 0.08333610353326429 -0.07225228232718 0.07097461035624582 0.001277671970934212 -0.013975102728008608 0.0 0.0
0.0 0.08995168969136744 -0.07768391426765804 0.07668452574236873 0.000999388525289375 -0.019506561903826165 0.0 0.0
0.0 0.0861166507041038 -0.07354367783357386 0.07296214254077388 0.0005815352928000771 -0.029319777968590283 0.0 0.0
0.0 0.0769507148396047 -0.0634662337073031 0.05826259360215612 0.0052036401051469665 1.1955714196432154e-14 0.0 0.0
0.0 0.08611665070409426 -0.07354367783356279 0.07296214254076301 0.00058153529279978 0.029319777968614874 0.0 0.0
0.0 0.08995168969135028 -0.07768391426764105 0.076684525742353 0.000999388525288037 0.01950656190385167 0.0 0.0
0.0 0.08333610353323001 -0.07225228232715025 0.0709746103562158 0.001277671970934438 0.013975102728022085 0.0 0.0
0.0 0.07209955237021275 -0.06260754173568914 0.06122050086029297 0.0013870408753961288 0.011542531789072009 0.0 0.0
0.0 0.05994476559278707 -0.0521609955640272 0.050792256933196056 0.0013687386308311447 0.010003477917910052 0.0 0.0
0.0 0.04888940502606557 -0.042436750351605934 0.04113542857236224 0.0013013217792436473 0.00852752662091896 0.0 0.0
0.0 0.039100881184686354 -0.033881135249855615 0.03266384317020683 0.0012172920796487785 0.007165548382260169 0.0 0.0
0.0 0.030358283086449243 -0.026522557480928154 0.025398129433861244 0.0011244280470669233 0.005990338456227667 0.0 0.0
0.0 0.023218026281349217 -0.020229693151535923 0.01920327957342911 0.0010264135781068119 0.004932299739249883 0.0 0.0
0.0 0.016928484731380068 -0.01485699109612911 0.0139275818450648 0.0009294092510642976 0.003891800362830948 0.0 0.0
0.0 0.011672062505032558 -0.01029437022136092 0.009465675325825235 0.0008286948955356806 0.002843936125390979 0.0 0.0
0.0 0.0072903009390596985 -0.006518511607893885 0.00581214481255819 0.0007063667953356899 0.0018530523693386226 0.0 0.0
0.0 0.0039207080674399895 -0.003559373670932168 0.0030277707910351817 0.0005316028798969868 0.001006303386460574 0.0 0.0
0.0 0.0017045327666425235 -0.001454972762832941 0.0011584136357249129 0.0002965591271080286 0.0003461216465520639 0.0 0.0
0.0 0.0004082978676464578 -0.0003055477644207256 0.0002271851608174617 7.836260360326406e-05 5.085730804988168e-05 0.0 0.0
0.0 1.184078805478e-05 1.3965616106438793e-05 -1.1578579960656417e-05 -2.3870361457825237e-06 -1.3389413876221574e-05 0.0 0.0
0.0 -8.180183755270002e-07 3.598234975719705e-08 -2.898805935479743e-08 -6.994290402394176e-09 -8.073544985495954e-08 0.0 0.0
0.0 0.0 0.0 0.0 0.0 0.0 0.0 0.0
0.0 0.0 0.0 0.0 0.0 0.0 0.0 0.0
0.0 0.0 0.0 0.0 0.0 0.0 0.0 0.0
0.0 0.0 0.0 0.0 0.0 0.0 0.0 0.0
0.0 0.0 0.0 0.0 0.0 0.0 0.0 0.0
0.0 0.0 0.0 0.0 0.0 0.0 0.0 0.0
0.0 7.057468504689983e-07 8.332414616530687e-08 -6.078040636205438e-08 -2.2543739803267386e-08 5.064769146995253e-08 0.0 0.0
0.0 3.506840811581884e-05 -3.539007025296112e-05 2.405173830806756e-05 1.1338331944893602e-05 5.566246271879538e-06 0.0 0.0
0.0 0.0007779145613736366 -0.0005715572175522486 0.0004320880177624563 0.00013946919978979184 -1.7937907945339912e-05 0.0 0.0
0.0 0.0022212755381432756 -0.0021191356771403528 0.0017283777638983598 0.0003907579132419921 -0.0003041649869630467 0.0 0.0
0.0 0.005018191056860117 -0.0045572024936789465 0.003947536592333982 0.0006096659013449685 -0.0007584051024756966 0.0 0.0
0.0 0.00882877263504957 -0.007930331630981856 0.007161826410375844 0.0007685052206060023 -0.0013686974173570759 0.0 0.0
0.0 0.013806134334755029 -0.012221571592948559 0.01133711934787904 0.0008844522450695164 -0.002084300761995657 0.0 0.0
0.0 0.019850151886401213 -0.017427228799874066 0.016439304467633465 0.0009879243322405825 -0.0028424142104538953 0.0 0.0
0.0 0.02689990434720303 -0.023594485974142893 0.022503079522280332 0.0010914064518625672 -0.0035943321955184456 0.0 0.0
0.0 0.03543868548672439 -0.030837576182705086 0.029641552562856728 0.0011960236198483543 -0.0043702253522389135 0.0 0.0
0.0 0.04494784376548188 -0.039315439559682405 0.03801959048568934 0.0012958490739930304 -0.005280365194466117 0.0 0.0
0.0 0.05623007423218259 -0.04908222594051468 0.04770040513863193 0.0013818208018828199 -0.006353507331822188 0.0 0.0
0.0 0.06883512477860153 -0.05999456683571601 0.05855042840821244 0.0014441384275035436 -0.007454246781588192 0.0 0.0
0.0 0.08218056567917176 -0.07154445567405796 0.070070274730467 0.0014741809435910552 -0.008302309583793027 0.0 0.0
0.0 0.09472914656278006 -0.08241180226471431 0.08099360075124361 0.0014182015134707178 -0.009234908265193135 0.0 0.0
0.0 0.102873658582437 -0.08927776815302253 0.08818515370038672 0.0010926144526358017 -0.013528576645297979 0.0 0.0
0.0 0.09987264780470967 -0.08585042947852409 0.08535364393586437 0.0004967855426595468 -0.02749146280897883 0.0 0.0
0.0 0.09048247794479834 -0.07520511575440054 0.06963096130420494 0.005574154450195533 8.072535695458072e-15 0.0 0.0
0.0 0.09987264780469798 -0.085850429478512 0.0853536439358529 0.0004967855426591313 0.027491462808998626 0.0 0.0
0.0 0.10287365858241106 -0.08927776815299912 0.0881851537003637 0.0010926144526354994 0.01352857664531737 0.0 0.0
0.0 0.09472914656274152 -0.08241180226468087 0.0809936007512104 0.0014182015134704476 0.009234908265203727 0.0 0.0
0.0 0.08218056567912795 -0.07154445567401982 0.0700702747304293 0.0014741809435905185 0.008302309583795797 0.0 0.0
0.0 0.068835124778554 -0.059994566835674494 0.058550428408171935 0.0014441384275026383 0.00745424678158815 0.0 0.0
0.0 0.05623007423213376 -0.04908222594047227 0.047700405138590134 0.0013818208018821468 0.006353507331819679 0.0 0.0
0.0 0.04494784376543105 -0.03931543955963821 0.03801959048564594 0.001295849073992275 0.0052803651944610995 0.0 0.0
0.0 0.03543868548667284 -0.03083757618266026 0.029641552562812052 0.0011960236198481889 0.004370225352234151 0.0 0.0
0.0 0.02689990434715556 -0.023594485974101822 0.02250307952223975 0.0010914064518620257 0.003594332195513193 0.0 0.0
0.0 0.01985015188636028 -0.01742722879983774 0.016439304467597605 0.0009879243322401506 0.0028424142104458506 0.0 0.0
0.0 0.013806134334720986 -0.01222157159291807 0.011337119347849312 0.0008844522450687537 0.002084300761988848 0.0 0.0
0.0 0.00882877263502351 -0.007930331630958196 0.007161826410353049 0.0007685052206051529 0.0013686974173524498 0.0 0.0
0.0 0.0050181910568419235 -0.004557202493662091 0.003947536592318255 0.000609665901343837 0.0007584051024719304 0.0 0.0
0.0 0.0022212755381318164 -0.0021191356771294717 0.001728377763888902 0.0003907579132405686 0.0003041649869608569 0.0 0.0
0.0 0.0007779145613674575 -0.0005715572175472028 0.00043208801775847504 0.000139469199788727 1.7937907944584616e-05 0.0 0.0
0.0 3.506840811476641e-05 -3.5390070252953864e-05 2.4051738308106364e-05 1.1338331944847373e-05 -5.566246271612038e-06 0.0 0.0
0.0 7.057468501500707e-07 8.332414612900931e-08 -6.078040633557378e-08 -2.2543739793456353e-08 -5.064769145797312e-08 0.0 0.0
0.0 0.0 0.0 0.0 0.0 0.0 0.0 0.0
0.0 0.0 0.0 0.0 0.0 0.0 0.0 0.0
0.0 0.0 0.0 0.0 0.0 0.0 0.0 0.0
0.0 0.0 0.0 0.0 0.0 0.0 0.0 0.0
0.0 0.0 0.0 0.0 0.0 0.0 0.0 0.0
0.0 0.0 0.0 0.0 0.0 0.0 0.0 0.0
0.0 -1.2799936292946954e-06 5.313449263587193e-07 -4.726090765527823e-07 -5.8735849805936085e-08 4.29195833539508e-07 0.0 0.0
0.0 0.00017166120690212383 -9.876129464694395e-05 6.910357797013161e-05 2.9657716676812247e-05 2.7338253547469405e-05 0.0 0.0
0.0 0.0011182938164546576 -0.000951143425713925 0.0007342268369819847 0.00021691658873193982 5.024730405090075e-05 0.0 0.0
0.0 0.0030140276055313827 -0.0028023603526678826 0.002335713549286403 0.00046664680338148 -0.00010049018715366695 0.0 0.0
0.0 0.006122187275287933 -0.00557189108896875 0.004897886077055511 0.0006740050119132339 -0.00032922638445867037 0.0 0.0
0.0 0.010445701209027066 -0.009341271442818417 0.008522086525696308 0.0008191849171221111 -0.0006372019033026445 0.0 0.0
0.0 0.015947958145106713 -0.01414180912580391 0.013208570488706871 0.0009332386370970293 -0.001006247943573595 0.0 0.0
0.0 0.02270493234276021 -0.019992370969470378 0.018951367259133003 0.001041003710337384 -0.0013901582559578767 0.0 0.0
0.0 0.030886602041330674 -0.026958769842408574 0.02580781732532951 0.001150952517079062 -0.0017688743105588331 0.0 0.0
0.0 0.04005956186600127 -0.03517532596366992 0.033912403462937245 0.0012629225007326694 -0.002202628773021003 0.0 0.0
0.0 0.05110030116363805 -0.04475664654037231 0.043387520957578245 0.001369125582794036 -0.002724739177037828 0.0 0.0
0.0 0.06372277260848586 -0.055711847206810175 0.054255823958665725 0.0014560232481444393 -0.0033387919239928655 0.0 0.0
0.0 0.07763906834973688 -0.0677639084588777 0.06625285532768586 0.001511053131191883 -0.0039767159666089175 0.0 0.0
0.0 0.09204274644080203 -0.08020542136059011 0.07867615089517892 0.0015292704654111641 -0.004385582332704531 0.0 0.0
0.0 0.10550624260151799 -0.09183461085049323 0.09030962961843735 0.001524981232055931 -0.004393720021125897 0.0 0.0
0.0 0.11526031358470383 -0.1002665048303314 0.09888587718982493 0.0013806276405063822 -0.005904272073951184 0.0 0.0
0.0 0.1145335571075273 -0.09903042177364386 0.0985878388758865 0.00044258289775736396 -0.019340064334569234 0.0 0.0
0.0 0.10626266268078312 -0.08889300193854631 0.08330404588349843 0.005588956055047802 3.72184921770824e-15 0.0 0.0
0.0 0.11453355710751267 -0.09903042177363003 0.0985878388758731 0.0004425828977568921 0.019340064334580385 0.0 0.0
0.0 0.11526031358467369 -0.10026650483030505 0.09888587718979872 0.0013806276405061548 0.00590427207396276 0.0 0.0
0.0 0.10550624260147494 -0.09183461085045604 0.09030962961840051 0.0015249812320555151 0.004393720021132232 0.0 0.0
0.0 0.09204274644075237 -0.08020542136054688 0.07867615089513623 0.0015292704654106684 0.004385582332705221 0.0 0.0
0.0 0.0776390683496823 -0.06776390845883022 0.06625285532763904 0.0015110531311911478 0.003976715966608885 0.0 0.0
0.0 0.06372277260843325 -0.05571184720676428 0.05425582395862075 0.0014560232481435384 0.0033387919239914726 0.0 0.0
0.0 0.051100301163581816 -0.044756646540323394 0.04338752095753008 0.001369125582793227 0.0027247391770357145 0.0 0.0
0.0 0.04005956186594445 -0.03517532596362052 0.03391240346288831 0.0012629225007322142 0.002202628773018679 0.0 0.0
0.0 0.030886602041277 -0.026958769842361792 0.025807817325283002 0.0011509525170787884 0.001768874310555624 0.0 0.0
0.0 0.022704932342714045 -0.019992370969430254 0.018951367259093375 0.0010410037103368796 0.001390158255953318 0.0 0.0
0.0 0.0159479581450703 -0.014141809125771392 0.013208570488675356 0.000933238637096032 0.0010062479435702712 0.0 0.0
0.0 0.01044570120899728 -0.009341271442791448 0.008522086525670085 0.0008191849171213534 0.0006372019033000474 0.0 0.0
0.0 0.0061221872752678305 -0.005571891088950102 0.004897886077037894 0.0006740050119122075 0.00032922638445678104 0.0 0.0
0.0 0.0030140276055180912 -0.0028023603526551484 0.002335713549275032 0.00046664680338011637 0.00010049018715248459 0.0 0.0
0.0 0.0011182938164476712 -0.0009511434257078995 0.0007342268369771301 0.00021691658873076918 -5.024730405109874e-05 0.0 0.0
0.0 0.00017166120690016067 -9.876129464606254e-05 6.910357796952346e-05 2.965771667653917e-05 -2.7338253547117365e-05 0.0 0.0
0.0 -1.2799936294083835e-06 5.313449259800079e-07 -4.726090762708064e-07 -5.8735849709143017e-08 -4.2919583352191944e-07 0.0 0.0
0.0 0.0 0.0 0.0 0.0 0.0 0.0 0.0
0.0 0.0 0.0 0.0 0.0 0.0 0.0 0.0
0.0 0.0 0.0 0.0 0.0 0.0 0.0 0.0
0.0 0.0 0.0 0.0 0.0 0.0 0.0 0.0
0.0 0.0 0.0 0.0 0.0 0.0 0.0 0.0
0.0 0.0 0.0 0.0 0.0 0.0 0.0 0.0
0.0 -1.2056368301021707e-06 2.713932270092529e-06 -2.0527921171304983e-06 -6.611401529619051e-07 3.276979997389425e-07 0.0 0.0
0.0 0.00035714307754241637 -0.0002013516166317405 0.00014064776256549915 6.070385406624179e-05 6.609725735506501e-05 0.0 0.0
0.0 0.001518270022751032 -0.0013014649526420434 0.0009956237359014684 0.00030584121674057433 0.00017027639447182263 0.0 0.0
0.0 0.0036366288500474346 -0.003386345468111402 0.002794405338950638 0.0005919401291607636 0.00020053724898881457 0.0 0.0
0.0 0.007011548128857443 -0.0064088908472003546 0.005567959570392556 0.000840931276807793 0.0002233976395779704 0.0 0.0
0.0 0.011625942798889389 -0.010501676388702953 0.009456454744421233 0.001045221644281721 0.00023700275829735627 0.0 0.0
0.0 0.017614575884101646 -0.015720726008396146 0.01447771471820076 0.0012430112901953769 0.00021854437352068464 0.0 0.0
0.0 0.025011681725173596 -0.02211130257084581 0.020648694838452945 0.0014626077323928622 0.00021473735247929098 0.0 0.0
0.0 0.033586204021681894 -0.02976355091125683 0.028050284391477845 0.0017132665197789783 0.0002209212031048383 0.0 0.0
0.0 0.04382201712122548 -0.03878526959381204 0.03679707753000007 0.001988192063811921 0.00016423343769491087 0.0 0.0
0.0 0.055772808825982956 -0.04927567455191546 0.046998720807627854 0.0022769537442876068 8.332848144667997e-05 0.0 0.0
0.0 0.06941002722004977 -0.06120396298950671 0.05864854225983412 0.0025554207296725534 -9.948396060592384e-05 0.0 0.0
0.0 0.08434129092188228 -0.0741860721349418 0.07139662802735273 0.002789444107588997 -0.00038983006086292654 0.0 0.0
0.0 0.0995011428283791 -0.08732201050466992 0.0843843004007775 0.0029377101038923006 -0.0006904029846471005 0.0 0.0
0.0 0.11325973772990272 -0.0992047329032548 0.0962497175403693 0.002955015362885329 -0.0007949127156834743 0.0 0.0
0.0 0.12356707483783438 -0.10820587134112075 0.10529057425846432 0.0029152970826565178 -0.0011395109443579805 0.0 0.0
0.0 0.12583667003225127 -0.11061522155497358 0.10784642461186737 0.0027687969431062116 -0.013510176775242775 0.0 0.0
0.0 0.1216838629334542 -0.1032848031497268 0.09444136256613803 0.008843440583588704 1.4085954624931674e-15 0.0 0.0
0.0 0.12583667003223523 -0.11061522155495918 0.10784642461185391 0.0027687969431051886 0.013510176775246763 0.0 0.0
0.0 0.12356707483780094 -0.10820587134109133 0.10529057425843638 0.0029152970826550792 0.001139510944360933 0.0 0.0
0.0 0.11325973772985368 -0.09920473290321219 0.09624971754032728 0.0029550153628850146 0.0007949127156855144 0.0 0.0
0.0 0.09950114282832256 -0.08732201050462046 0.08438430040072889 0.0029377101038912975 0.000690402984647457 0.0 0.0
0.0 0.08434129092182108 -0.07418607213488829 0.07139662802730048 0.002789444107587801 0.0003898300608634348 0.0 0.0
0.0 0.06941002721999234 -0.061203962989456046 0.05864854225978531 0.002555420729670723 9.948396060505734e-05 0.0 0.0
0.0 0.05577280882592167 -0.04927567455186173 0.04699872080757574 0.002276953744285992 -8.332848144739814e-05 0.0 0.0
0.0 0.04382201712116531 -0.03878526959375921 0.036797077529948756 0.001988192063810453 -0.00016423343769521054 0.0 0.0
0.0 0.03358620402162441 -0.02976355091120669 0.02805028439142873 0.0017132665197779548 -0.00022092120310681588 0.0 0.0
0.0 0.025011681725124375 -0.022111302570802502 0.02064869483841087 0.001462607732391632 -0.00021473735248113196 0.0 0.0
0.0 0.017614575884063427 -0.015720726008362676 0.01447771471816868 0.001243011290194003 -0.00021854437352123758 0.0 0.0
0.0 0.011625942798857062 -0.010501676388674212 0.009456454744393524 0.0010452216442806942 -0.00023700275829800755 0.0 0.0
0.0 0.007011548128835964 -0.006408890847180511 0.005567959570373939 0.0008409312768065729 -0.00022339763957775888 0.0 0.0
0.0 0.0036366288500329505 -0.0033863454680975215 0.002794405338938227 0.0005919401291592961 -0.00020053724898870794 0.0 0.0
0.0 0.0015182700227444987 -0.0013014649526356162 0.000995623735896319 0.0003058412167392979 -0.00017027639447125007 0.0 0.0
0.0 0.00035714307753922735 -0.00020135161662961554 0.0001406477625639787 6.070385406563813e-05 -6.609725735462268e-05 0.0 0.0
0.0 -1.2056368303529636e-06 2.713932270126983e-06 -2.0527921171525775e-06 -6.611401529744196e-07 -3.276979997138176e-07 0.0 0.0
0.0 0.0 0.0 0.0 0.0 0.0 0.0 0.0
0.0 0.0 0.0 0.0 0.0 0.0 0.0 0.0
0.0 0.0 0.0 0.0 0.0 0.0 0.0 0.0
SCALARS Wm float 4
LOOKUP_TABLE default
10.356675399307278 1.9288946937394797 4.084466322551156 4.343314383016628
4.715184320927255 2.3416391947658752 1.0302943452289088 1.3432507809324723
0.5331970021353124 0.5316197722712037 -0.003986960208912799 0.005564190073021409
0.44799975325888214 0.4429569757746535 0.0014953525767496827 0.0035474249074787375
0.7925655840677036 0.6604132982582736 0.04652396540549712 0.08562832040393246
1.5456747830665531 0.8812472953630502 0.22119255620093428 0.44323493150256865
3.0002379880525236 1.1984871419675471 0.716480104360833 1.0852707417241456
5.266571432184143 1.558281358510545 1.6163352249955913 2.091954848678001
8.51280852271737 1.9823975818580788 3.0502279341981593 3.4801830066611315
12.894362335982816 2.5045483459584887 5.128698234004482 5.261115756019854
18.556557470261023 3.1680479760131894 7.943488513922741 7.4450209803250935
25.574251215253454 4.005388153354358 11.506115045263744 10.062748016635373
34.23577449593739 5.019982637031005 16.060845463963638 13.154946394942742
44.700122458140555 6.214818585995806 21.724171421861612 16.761132450283142
56.987151619374465 7.505992051993635 28.601822250130695 20.879337317250137
70.8076679606273 8.731394466082392 36.651804430296494 25.42446906424842
85.37681400634557 9.677312425406992 45.48889007933562 30.210611501602937
99.47253195456538 10.159067740062616 54.44028256081068 34.873181653692065
111.657906899958 10.169133335868898 62.53024845200894 38.958525112080125
120.15923799966751 9.724222315860167 68.46820087858154 41.96681480522586
123.03471502660773 9.008025801224353 70.83086630994937 43.195822915434015
120.15923799964972 9.724222315853758 68.46820087857373 41.96681480522228
111.65790689991671 10.16913333585441 62.530248451990985 38.958525112071285
99.47253195452984 10.159067740072928 54.44028256078053 34.8731816536764
85.37681400629029 9.677312425397524 45.48889007930562 30.210611501587078
70.80766796057432 8.731394466077612 36.65180443026564 25.424469064231122
56.98715161932355 7.505992051988976 28.60182225010155 20.879337317233016
44.70012245809026 6.214818585990765 21.72417142183361 16.761132450265862
34.235774495886176 5.019982637021945 16.060845463938215 13.15494639492605
25.574251215210694 4.005388153351505 11.506115045240293 10.062748016618901
18.556557470225933 3.1680479760113345 7.943488513903815 7.445020980310765
12.894362335952994 2.504548345952505 5.128698233991392 5.2611157560091115
8.512808522697945 1.982397581858503 3.0502279341878444 3.4801830066516013
5.266571432170097 1.558281358507804 1.6163352249901428 2.0919548486721498
3.0002379880441925 1.1984871419673668 0.7164801043572662 1.08527074171956
1.5456747830616386 0.8812472953607267 0.22119255620021963 0.44323493150069215
0.7925655840659228 0.6604132982575863 0.04652396540510195 0.08562832040323423
0.44799975325851493 0.44295697577420456 0.0014953525767667495 0.0035474249075436465
0.5331970021345602 0.5316197722704709 -0.003986960208900857 0.005564190072990205
4.715184320922891 2.3416391947664916 1.0302943452265805 1.3432507809298189
10.356675399283155 1.9288946937275993 4.084466322544568 4.343314383010993
12.060215976666138 5.428592565196565 3.1108729266161257 3.5207504848534508
1.7165885358025497 0.38309188437719277 0.5333481247190455 0.8001485267063109
0.23124281546980907 0.2488517354837989 -0.004400737378678277 -0.013208182635311622
0.35768930472362553 0.35734747785206006 -3.435109826181063e-05 0.0003761779698272917
0.6093758955469434 0.5435331861993957 0.018630968688547484 0.04721174065900056
1.2461100433797485 0.7699234686630497 0.16333501929398356 0.3128515554227149
2.468691775875577 0.9998646232457005 0.5653378595025595 0.9034892931273166
4.4637667308910345 1.2680608022921278 1.3667611802560988 1.828944748342808
7.334179145490621 1.5537538587572257 2.664079662741466 3.116345623991931
11.165117406069047 1.870146935395132 4.5281650385467085 4.766805432127209
16.061494993249916 2.2321508978262665 7.045193618186772 6.7841504772368735
22.193623636832527 2.660217274985992 10.344162390925446 9.189243970921085
29.560297022315712 3.167357378285163 14.3599848926047 12.032954751425843
38.57831430215213 3.7431475217753247 19.47962306338829 15.355543716988503
49.216461469390566 4.350031995127914 25.69364614222648 19.172783332036175
61.2679861189384 4.890974018761083 32.96992188946498 23.40709021071232
74.12265857879109 5.239753152923252 41.0326831262453 27.850222299622526
86.75477824540789 5.302926982722343 49.25103565508169 32.20081560760382
97.77772767633269 5.046851139175114 56.698619410763925 36.03225712639367
105.54820602802391 4.5210450588784825 62.226122685252975 38.801038283892375
108.40074137592279 3.974287901699313 64.50441941693407 39.922034057289466
105.54820602801048 4.521045058876119 62.22612268524566 38.801038283888694
97.77772767630995 5.046851139178227 56.69861941074683 36.032257126384906
86.75477824536311 5.302926982714576 49.25103565505732 32.2008156075912
74.12265857874978 5.239753152924174 41.03268312621803 27.85022229960755
61.267986118894996 4.890974018762108 32.96992188943656 23.407090210696314
49.2164614693451 4.350031995124373 25.6936461422002 19.172783332020515
38.578314302109185 3.7431475217733188 19.479623063363174 15.355543716972688
29.560297022274487 3.1673573782833797 14.359984892581103 12.032954751409992
22.19362363679456 2.6602172749839115 10.344162390904577 9.189243970906073
16.061494993218574 2.232150897825072 7.045193618169793 6.784150477223708
11.165117406044347 1.870146935392132 4.528165038535015 4.766805432117195
7.3341791454722705 1.5537538587558593 2.6640796627328207 3.1163456239835883
4.463766730878988 1.2680608022906896 1.3667611802510857 1.8289447483372137
2.46869177586809 0.9998646232450741 0.5653378594996614 0.9034892931233541
1.2461100433760814 0.7699234686613428 0.16333501929320068 0.3128515554215376
0.6093758955455774 0.5435331861985917 0.01863096868834627 0.047211740658639464
0.3576893047234126 0.3573474778517697 -3.43510982501537e-05 0.00037617796989317614
0.2312428154698517 0.24885173548372186 -0.0044007373786409 -0.013208182635229165
1.7165885357974828 0.3830918843767406 0.5333481247169032 0.8001485267038393
12.060215976643189 5.4285925651859195 3.1108729266096997 3.5207504848475644
8.920106258668227 4.248489782726651 2.0915059988064093 2.580110477135164
1.0361158616695814 0.13620187816790463 0.3462149308294116 0.5536990526722658
0.14556658078675427 0.14556701724441262 -1.80369121587346e-08 -4.1842074621861334e-07
0.27044160865118716 0.27022985681825096 6.202296002607328e-05 0.00014972887291016322
0.4729002075332451 0.4574339318658205 0.0031407376445882155 0.01232553802283627
0.971438678594188 0.6915314389405236 0.0929792941582492 0.18692794549541553
1.9888833318614965 0.9150720793162013 0.3916787295370612 0.6821325230082338
3.7301729324610005 1.1748376334478752 1.0602180291988703 1.4951172698142534
6.2499492200250515 1.4421148027109365 2.161219388741096 2.6466150285730174
9.631409923515262 1.727613032235349 3.77918690296204 4.12460998831787
13.91953416797461 2.0467750783503003 5.950637966008187 5.9221211236161215
19.18872649712618 2.4162154493794192 8.715900187865842 8.05661085988092
25.72407712088727 2.8592805186216728 12.299053012568358 10.565743589697236
33.48577929329646 3.370493532581321 16.60047170708217 13.51481405363296
42.79827953801383 3.9093221679691634 21.97609036965001 16.912867000394648
53.40863009322906 4.408304358471839 28.29301794715209 20.707307787605117
64.8148619154295 4.766713721744835 35.30944231700531 24.738705876679383
76.10612154149072 4.8786933202165566 42.532876499996725 28.694551721277453
86.00206537299098 4.6731101997489555 49.14702042687403 32.181934746367986
93.02421243109791 4.261762366322336 54.06654252359105 34.695907541184525
95.54356530740685 3.626843675811387 56.15245462222745 35.76426700936803
93.02421243109075 4.261762366326997 54.06654252358335 34.69590754118037
86.00206537296766 4.673110199748943 49.14702042685872 32.18193474636001
76.10612154146088 4.878693320215948 42.53287649997787 28.694551721267068
64.81486191538694 4.7667137217383155 35.30944231698223 24.738705876666405
53.408630093190645 4.4083043584735435 28.293017947126792 20.70730778759028
42.79827953797319 3.909322167964627 21.976090369627673 16.91286700038088
33.48577929326069 3.3704935325819183 16.60047170706016 13.514814053618615
25.724077120851796 2.8592805186209946 12.299053012547816 10.565743589682986
19.188726497093974 2.416215449378207 8.715900187848057 8.056610859867718
13.919534167946834 2.0467750783481575 5.95063796599406 5.922121123604615
9.631409923494015 1.7276130322337493 3.7791869029516802 4.124609988308584
6.249949220009247 1.442114802709179 2.161219388734092 2.646615028565975
3.7301729324503 1.1748376334468467 1.0602180291943806 1.4951172698090738
1.9888833318549972 0.9150720793150248 0.39167872953499355 0.6821325230049782
0.9714386785912998 0.6915314389393247 0.0929792941576237 0.18692794549435177
0.47290020753240963 0.45743393186503295 0.0031407376445620767 0.012325538022814279
0.27044160865097566 0.2702298568180394 6.202296002522626e-05 0.00014972887291095962
0.14556658078669926 0.14556701724435728 -1.8036912141597065e-08 -4.184207459031903e-07
1.0361158616657309 0.13620187816785034 0.34621493082775406 0.5536990526701259
8.920106258647131 4.248489782717479 2.0915059988004425 2.580110477129212
6.647898601469261 3.296918789388787 1.4356847931520451 1.9152950189284303
0.6736817619379435 0.07714955678071785 0.21328947229171172 0.383242732865514
0.10289184559759795 0.10289184559759795 0.0 0.0
0.20416897809919077 0.2041510504293752 3.584973305497644e-06 1.4342696510099924e-05
0.36995035131108717 0.37561904265107104 -0.0015823366778447254 -0.004086354662139083
0.7284552669304706 0.5925612040628604 0.03861929145283755 0.09727477141477253
1.5647410977001337 0.8383145201197013 0.25784275259971706 0.4685838249807151
3.025031254663337 1.0755908772477236 0.7788062648409613 1.1706341125746516
5.207737702119018 1.3262420623053786 1.6982333549336932 2.1832622848799463
8.133628324709232 1.5843381906705893 3.061635462978804 3.487654671059838
11.809019741415584 1.8620464523968232 4.878304310737137 5.068668978281622
16.357478197362052 2.183559489360429 7.240924156352339 6.93299455164928
21.83695637344559 2.5625595101446113 10.153162720688458 9.121234142612519
28.618457891881512 3.0040850258663117 13.930935588506308 11.683437277508899
36.58204432706073 3.485040871287499 18.434841535002565 14.662161920770659
45.706125724511836 3.946083315234073 23.745866556007915 18.014175853269847
55.71980434456658 4.309266904558823 29.816100085691872 21.594437354315886
65.72813277715537 4.4705758447991455 36.09287803321996 25.16467889913626
74.5919622530798 4.350513043345191 41.88268537417602 28.35876383555858
80.98557191198952 4.020592754296397 46.25347955033686 30.71149960735627
83.28554518488146 3.262814828360385 48.26990424933414 31.75282610718692
80.98557191197582 4.0205927542929585 46.25347955033011 30.71149960735276
74.59196225305816 4.350513043341604 41.88268537416433 28.358763835552242
65.72813277713293 4.470575844804647 36.09287803320194 25.164678899126333
55.71980434453168 4.30926690455198 29.816100085674147 21.594437354305562
45.706125724475015 3.9460833152311148 23.745866555986836 18.01417585325709
36.5820443270281 3.4850408712866807 18.43484153498315 14.66216192075827
28.618457891850063 3.0040850258672336 13.93093558848702 11.683437277495807
21.836956373415564 2.5625595101443683 10.153162720671148 9.121234142600052
16.357478197334324 2.183559489359058 7.2409241563375515 6.932994551637713
11.809019741392326 1.8620464523960958 4.878304310724958 5.068668978271271
8.133628324689912 1.5843381906683356 3.061635462969946 3.4876546710516294
5.207737702104982 1.3262420623039728 1.6982333549275324 2.183262284873478
3.025031254654483 1.07559087724675 0.7788062648375902 1.1706341125701427
1.5647410976947413 0.838314520118237 0.25784275259807043 0.4685838249784336
0.7284552669282813 0.5925612040618559 0.03861929145242264 0.09727477141400304
0.3699503513105771 0.3756190426503601 -0.001582336677810049 -0.00408635466197291
0.20416897809896423 0.20415105042917006 3.584973303647687e-06 1.4342696490499612e-05
0.10289184559750084 0.10289184559750084 0.0 0.0
0.6736817619348159 0.07714955678071996 0.21328947229035997 0.3832427328637358
6.647898601452143 3.296918789381441 1.4356847931474732 1.9152950189232292
4.874334211930516 2.5362146782011865 0.945526011673995 1.3925935220553334
0.494150988957767 0.10679686803320185 0.14473782018483744 0.242616300739728
0.09346182665597591 0.09346182665597591 0.0 0.0
0.16186211009602047 0.16185468127750222 4.1024249203392503e-07 7.018576026238409e-06
0.2927342445927281 0.2951208748223105 -0.0005497229338597999 -0.0018369072957225819
0.5445489084022896 0.5104730630183182 0.007502350128013882 0.0265734952559573
1.1805977056167603 0.7404701423325015 0.15473685306496532 0.28539071021929385
2.359679204407381 0.9714657414131271 0.5289047281961058 0.8593087347981486
4.200587974917921 1.2040936990837368 1.2679347344291758 1.728559541405007
6.674185262017836 1.4373761671696559 2.378346608037289 2.858462486810892
9.786281799755091 1.6814546947212146 3.8813249049841376 4.223502200049739
13.588649461990572 1.9552116722860198 5.811330649239046 5.822107140465509
18.229836270732072 2.2793202913234025 8.262845939331427 7.687670040077245
23.756653308867698 2.6567107930916314 11.22148137498822 9.878461140787842
30.49621064299533 3.070612157403825 14.99870855796636 12.426889927625147
38.315915149103084 3.4948334707338877 19.50227176108557 15.318809917283627
46.84042399931907 3.8647574600962593 24.518459254982293 18.457207284240525
55.57395449085496 4.081179009664919 29.869752009635697 21.62302347155435
63.4882915035402 4.0542855591309594 34.92644717129234 24.50755877311691
69.38947475605335 3.793274144700718 38.88748201132596 26.708718600026643
71.54456655191056 2.8968842841165348 40.85945308288209 27.788229184911973
69.38947475605242 3.7932741447092315 38.887482011319904 26.708718600023293
63.4882915035271 4.054285559133585 34.92644717128224 24.507558773111278
55.57395449083106 4.081179009665507 29.869752009620186 21.62302347154537
46.84042399929801 3.8647574601005497 24.51845925496648 18.457207284230993
38.3159151490707 3.494833470727578 19.50227176106957 15.318809917273551
30.49621064296349 3.0706121573981475 14.99870855795066 12.42688992761469
23.75665330884116 2.656710793092281 11.221481374972281 9.878461140776587
18.229836270706414 2.279320291322296 8.262845939317478 7.687670040066637
13.588649461967908 1.95521167228542 5.81133064922691 5.822107140455581
9.786281799734752 1.681454694719732 3.881324904974149 4.223502200040873
6.6741852620016235 1.437376167167722 2.37834660803006 2.8584624868038424
4.200587974905841 1.204093699081819 1.267934734424455 1.7285595413995667
2.359679204399694 0.9714657414116606 0.5289047281934491 0.8593087347945837
1.180597705612504 0.740470142330873 0.15473685306391452 0.285390710217717
0.5445489084008194 0.5104730630174307 0.007502350127834147 0.02657349525555441
0.29273424459234765 0.2951208748218762 -0.0005497229338485905 -0.001836907295679861
0.16186211009573026 0.1618546812772162 4.1024249179030226e-07 7.018576022264267e-06
0.09346182665588663 0.09346182665588663 0.0 0.0
0.49415098895520204 0.10679686803311374 0.14473782018374978 0.24261630073833906
4.8743342119171285 2.5362146781955115 0.9455260116705474 1.3925935220510706
3.503066284627872 1.9386952858966855 0.6011421004085157 0.9632288983226724
0.3501257277315593 0.1430170254177127 0.06482682020044657 0.1422818821133998
0.10463597275992341 0.10463597275992341 0.0 0.0
0.1404773218531507 0.14047764131583101 -1.2239768657509634e-08 -3.072229116306911e-07
0.2393863638914175 0.24006430834413106 -0.00010024150813181957 -0.0005777029445816961
0.40898049438921347 0.411148471863946 -0.0024931369170263307 0.0003251594422938027
0.8338751324972163 0.6197922648677495 0.06008912926809785 0.15399373836136887
1.7794630397203914 0.8636422540673676 0.3501862917923858 0.5656344938606384
3.218670579945796 1.0705786096080931 0.8624415629894477 1.2856504073482555
5.276731399373932 1.2865791213097872 1.7511547443414819 2.2389975337226624
7.828363902810036 1.4994903568183613 2.940630119082566 3.3882434269091055
10.918039096977713 1.7322266300881273 4.460732974759462 4.725079492130126
14.646023637921067 2.003690700522486 6.368504714656671 6.273828222741906
19.19599529733008 2.319992350040747 8.787156447113672 8.088846500175652
24.628485696697656 2.6813688472481494 11.733035829953291 10.214081019496223
30.97852246522146 3.0553558181721043 15.27699070086081 12.64617594618854
38.23789853899637 3.416033070601298 19.514296052682504 15.30756941571256
45.684222280620084 3.697606978808705 23.91953311521291 18.067082186598466
52.61795812171418 3.7730128458338243 28.182505793242477 20.662439482637872
58.118394582826376 3.5808618616241 31.802486507309677 22.735046213892602
60.19612889782976 2.535942310601038 33.79424566955308 23.865940917675626
58.118394582822575 3.5808618616316745 31.80248650730247 22.73504621388842
52.61795812170482 3.773012845840412 28.182505793232444 20.662439482631992
45.684222280602825 3.6976069788104176 23.91953311520104 18.067082186591342
38.237898538971045 3.4160330705979827 19.514296052668982 15.307569415704094
30.978522465199692 3.0553558181719005 15.276990700847852 12.646175946179953
24.62848569667758 2.681368847249383 11.73303582994074 10.214081019487455
19.19599529730567 2.319992350036365 8.787156447102225 8.088846500167083
14.646023637901159 2.0036907005222364 6.36850471464572 6.2738282227332025
10.918039096958605 1.7322266300869937 4.4607329747497975 4.725079492121815
7.82836390279411 1.499490356818024 2.9406301190745108 3.3882434269015764
5.276731399360444 1.2865791213079263 1.75115474433584 2.2389975337166765
3.218670579936811 1.0705786096074712 0.8624415629857171 1.2856504073436221
1.7794630397145013 0.8636422540661418 0.3501862917903794 0.5656344938579794
0.8338751324943733 0.6197922648664587 0.06008912926754562 0.15399373836036917
0.4089804943883622 0.41114847186311176 -0.002493136917034525 0.0003251594422850243
0.23938636389100137 0.24006430834370807 -0.00010024150813063886 -0.0005777029445760637
0.14047732185281053 0.14047764131549012 -1.2239768622387086e-08 -3.0722291093115194e-07
0.10463597275975528 0.10463597275975528 0.0 0.0
0.3501257277294704 0.14301702541747546 0.0648268201996822 0.14228188211231302
3.5030662846180705 1.9386952858926787 0.601142100406064 0.9632288983193279
2.4222996662413783 1.459332199843077 0.33963873976642267 0.6233287266318784
0.26963636337880786 0.1831156440725544 0.02333427890509037 0.06318644040116309
0.12524963376492665 0.12524963376492665 0.0 0.0
0.1354504041629978 0.1354504041629978 0.0 0.0
0.2034807136282778 0.20334976816826617 1.2620275891018079e-05 0.000118325184120536
0.31806484091172077 0.32983044879907136 -0.0029484803661171473 -0.008817127521233316
0.5847518393223604 0.5173969515833737 0.0142817904273108 0.05307309731167561
1.208016240102985 0.7164464926529606 0.1584675637592435 0.3331021836907811
2.3765703692786433 0.9421852687110194 0.5753352129228302 0.8590498876447938
3.9158903870924253 1.1235307244643573 1.1616558740798582 1.6307037885482096
5.954614441343706 1.3138003604495359 2.075103024841298 2.565711056052871
8.375395326770159 1.5111310244903537 3.2217611545438887 3.6425031477359147
11.260511650881526 1.735536499837472 4.6447164001287975 4.880258750915255
14.754235305468756 1.9968378979249488 6.432038309050657 6.325359098493152
18.974942791218453 2.2974414995658936 8.65142250130754 8.026078790345016
24.087386039667074 2.633928525765279 11.461483054555 9.99197445934679
29.706280345120312 2.972865755811615 14.544148160887202 12.1892664284215
35.94640219391319 3.2939627790731483 18.160224508398645 14.492214906441403
42.094976608497234 3.4877484955606217 21.83566141077639 16.77156670216021
47.18044919392842 3.3869010474940615 25.047887315182862 18.74566083125151
49.26105848968122 2.1890609433243244 27.10633529154707 19.96566225480983
47.180449193917816 3.386901047490679 25.0478873151783 18.74566083124883
42.09497660848129 3.487748495556121 21.83566141076929 16.77156670215587
35.94640219389673 3.2939627790708688 18.16022450838998 14.49221490643588
29.706280345099977 2.9728657558057834 14.544148160878468 12.189266428415724
24.087386039646983 2.6339285257634537 11.461483054544248 9.991974459339279
18.9749427911997 2.2974414995648345 8.65142250129743 8.02607879033743
14.754235305453381 1.9968378979237154 6.432038309042795 6.325359098486872
11.26051165086449 1.735536499835398 4.644716400120685 4.88025875090841
8.375395326755768 1.5111310244903253 3.2217611545363667 3.642503147729077
5.9546144413299675 1.313800360448177 2.0751030248351494 2.565711056046641
3.915890387082408 1.123530724463433 1.1616558740755663 1.6307037885434095
2.376570369270898 0.9421852687100678 0.575335212919737 0.8590498876410934
1.208016240098907 0.7164464926520336 0.1584675637580094 0.3331021836888643
0.584751839320373 0.5173969515822319 0.0142817904270296 0.05307309731111153
0.31806484091117326 0.3298304487983576 -0.0029484803660688916 -0.008817127521115364
0.20348071362786435 0.2033497681678532 1.2620275890649095e-05 0.00011832518412049775
0.13545040416271037 0.13545040416271037 0.0 0.0
0.1252496337647081 0.1252496337647081 0.0 0.0
0.2696363633773452 0.18311564407227393 0.023334278904634662 0.06318644040043647
2.422299666234089 1.45933219983994 0.3396387397648042 0.6233287266293455
1.6607598025571897 1.1289891253493651 0.19323458961599935 0.3385360875918254
0.20755789877426353 0.19728084511032934 -0.004242068399658731 0.014519122063592958
0.14787256832197054 0.14787775376782344 -2.1719582759986377e-07 -4.968250025342334e-06
0.14157488956001207 0.14156020190030505 1.0481594009914824e-06 1.3639500306005479e-05
0.1820302820535966 0.18220673344043972 -1.8507034314667035e-05 -0.00015794435252846565
0.2605790050294988 0.2659691567178624 -0.0012551656754949546 -0.004134986012868659
0.40823983854189755 0.40960743348153406 -0.0034577570609693573 0.002090162121332933
0.7765239757163493 0.5746260923043168 0.05208359443992358 0.14981428897210905
1.5233460957536549 0.766169718384686 0.26261227039273205 0.49456410697623643
2.7164164304237737 0.9562806367888389 0.7160459612416668 1.0440898323932675
4.172015969855274 1.115562014966794 1.299256551285248 1.7571974036032316
5.946109523609786 1.2813395859955836 2.0852106796172927 2.5795592579969076
8.055063551465123 1.466579123788115 3.0770172031077276 3.511467224569279
10.576689044180103 1.6764187434897244 4.3057911433027805 4.594479157387601
13.675244598327284 1.9257676720826147 5.877620149229854 5.87185677701482
17.37725977038206 2.212987021472743 7.790868702665483 7.373404046243837
21.770826095874444 2.5275474390030976 10.16920264816304 9.074076008708307
26.579342129726413 2.867909767235159 12.775877210647975 10.935555151843271
31.61997704497612 3.1672088209913705 15.58797691285644 12.86479131112831
36.39670695019014 3.2009105428532076 18.484580887415913 14.711215519921018
38.57971809909233 1.859290844246174 20.664440732444113 16.055986522402037
36.39670695018824 3.2009105428532956 18.484580887414637 14.711215519920309
31.61997704497248 3.1672088209949454 15.587976912852092 12.864791311125458
26.579342129713307 2.8679097672311458 12.775877210642587 10.935555151839587
21.77082609586461 2.527547439004935 10.169202648156277 9.074076008703402
17.37725977036707 2.21298702147127 7.790868702657775 7.373404046238024
13.675244598312599 1.9257676720792891 5.877620149223553 5.871856777009759
10.576689044169141 1.6764187434897866 4.305791143296834 4.594479157382516
8.055063551453493 1.4665791237859989 3.0770172031027685 3.511467224564726
5.9461095235989 1.281339585995503 2.0852106796119205 2.579559257991476
4.172015969845503 1.1155620149658376 1.2992565512810819 1.7571974035985813
2.71641643041611 0.9562806367877751 0.7160459612386294 1.0440898323897063
1.5233460957492861 0.7661697183840492 0.26261227039119217 0.4945641069740448
0.7765239757137956 0.5746260923034517 0.05208359443934715 0.1498142889709964
0.4082398385407158 0.4096074334805019 -0.0034577570609911545 0.002090162121204983
0.26057900502886344 0.2659691567170329 -0.0012551656754704928 -0.004134986012698991
0.182030282053201 0.18220673344006239 -1.8507034315050222e-05 -0.00015794435254635886
0.14157488955966838 0.14156020189996482 1.0481594006314481e-06 1.3639500302894402e-05
0.1478725683215471 0.1478777537673892 -2.171958270000216e-07 -4.968250015090288e-06
0.20755789877346473 0.19728084511002802 -0.004242068399807467 0.014519122063244069
1.6607598025519137 1.1289891253469793 0.19323458961481987 0.3385360875901147
1.068252222426824 0.8398528389736669 0.06787803585265954 0.16052134760049752
0.17941286368420103 0.19715558823550497 -0.007097163218702711 -0.010645561332601222
0.16805920457002663 0.16814527362662826 -7.296353753386552e-06 -7.877270284823133e-05
0.1541741696771528 0.15420247143233043 -1.911838206656354e-06 -2.6389916971011686e-05
0.17327108181235534 0.1734011086957767 -1.6725344930041113e-05 -0.00011330153849127961
0.22335757453100524 0.22526575580831087 -0.0005280947091163372 -0.001380086568189355
0.3068090913904154 0.31891308493142895 -0.003919549106750881 -0.008184444434262788
0.48172174215850233 0.44779841020764266 0.00582821481055472 0.0280951171403047
0.8671158506488249 0.5850191525641748 0.08077134734317931 0.2013253507414711
1.5611610091176742 0.739198783830493 0.29466278750826846 0.5272994377789131
2.5012636946050453 0.8793260280423969 0.628081455021256 0.9938562115413933
3.6724785227153998 1.0218512408794815 1.1018319267561136 1.5487953550798044
5.050881525581363 1.172644744930681 1.6955858023177912 2.182650978332891
6.68740546716096 1.3378296117897746 2.4337953433269073 2.9157805120442797
8.696519513477657 1.5350350453730368 3.380291573487013 3.7811928946176065
11.179901502413232 1.7746138122438515 4.591448132806024 4.813839557363357
14.186363884543074 2.0643863661488924 6.092513157448437 6.0294643609457435
17.62726284213067 2.3770829755479292 7.8424968274639895 7.4076830391187585
21.59059602022273 2.7515446097468415 9.898983171623915 8.940068238851971
25.987986662622227 3.0099562032607627 12.354678923160556 10.623351536200907
28.307636903980637 1.57542410267961 14.538009310030212 12.194203491270809
25.987986662620518 3.0099562032585023 12.35467892316089 10.623351536201135
21.590596020213273 2.75154460974172 9.898983171621383 8.940068238850172
17.62726284212421 2.377082975547335 7.842496827460615 7.407683039116256
14.186363884530692 2.0643863661456097 6.0925131574433635 6.029464360941722
11.179901502402174 1.7746138122408972 4.591448132801607 4.813839557359668
8.696519513471443 1.5350350453741555 3.3802915734831456 3.781192894614141
6.687405467152616 1.3378296117878143 2.433795343323622 2.915780512041181
5.050881525575953 1.1726447449315383 1.6955858023147874 2.18265097832963
3.672478522707857 1.0218512408784781 1.101831926752978 1.5487953550764009
2.501263694598449 0.8793260280415395 0.6280814550187395 0.9938562115381698
1.561161009113961 0.7391987838307879 0.29466278750658426 0.527299437776589
0.8671158506463709 0.5850191525636609 0.08077134734247662 0.20132535074023328
0.48172174215699615 0.4477984102067551 0.005828214810378041 0.028095117139863145
0.3068090913898535 0.3189130849305216 -0.003919549106685997 -0.008184444433982134
0.2233575745305679 0.22526575580755356 -0.0005280947090748202 -0.001380086567910862
0.17327108181195053 0.17340110869543318 -1.672534493902349e-05 -0.00011330153854357477
0.15417416967682368 0.15420247143199728 -1.91183820609508e-06 -2.638991696751545e-05
0.1680592045694901 0.16814527362606885 -7.2963537516321735e-06 -7.877270282710897e-05
0.17941286368373172 0.1971555882349918 -0.007097163218691923 -0.010645561332568146
1.0682522224235138 0.8398528389720069 0.0678780358520559 0.16052134759945105
0.6923882233157842 0.6438254318368627 0.012481921840632421 0.03608086963828912
0.16916683166354707 0.17803963400775435 -0.002120874219171157 -0.006751928125036097
0.18330656966274234 0.1833239636984079 -9.224449329999089e-07 -1.6471590732581265e-05
0.16947874811217972 0.16949283156331266 -6.269657850398564e-07 -1.3456485347957748e-05
0.17488476358944965 0.17485539915817883 5.623032493063872e-06 2.3741398777704443e-05
0.20419428937648088 0.2072628768648953 -0.0006301057488577004 -0.0024384817395566526
0.2539680983705631 0.2590039915793865 -0.001759459352930788 -0.0032764338558927187
0.32335569793529906 0.3097953627910464 0.0022564920195509265 0.011303843124701745
0.44254239260541595 0.3810115891985707 0.014270125400407828 0.04726067800643731
0.6839880834972144 0.47303020357970815 0.060984945052445214 0.14997293486506114
1.1162382040313472 0.5907764262622074 0.18697071907571397 0.33849105869342555
1.6642630679573758 0.6826328999108486 0.35892557622717525 0.6227045918193521
2.3600208942446215 0.7780841403910973 0.6160787457010102 0.9658580081525148
3.2188701443497867 0.8910470203956604 0.9560907895684928 1.3717323343856356
4.274163446043705 1.0296451589528086 1.391067464964563 1.8534508221263322
5.624987856162504 1.2122305399592521 1.964213815542731 2.4485435006605196
7.390962058852811 1.4589879128323167 2.7384023293789173 3.193571816641576
9.650447234403055 1.7600138637668763 3.7824347503642484 4.107998620271934
12.320853495562043 2.0693193450423317 5.062282107826839 5.189252042692874
15.908591197870917 2.6196484318680056 6.734670570961131 6.554272195041781
18.969493938825064 1.3826344752339192 9.185330871456166 8.401528592134975
15.908591197876701 2.61964843187138 6.734670570962493 6.554272195042823
12.320853495565746 2.0693193450482754 5.062282107825611 5.189252042691859
9.650447234399394 1.760013863767805 3.782434750361791 4.107998620269802
7.390962058847499 1.4589879128324628 2.738402329376043 3.1935718166389915
5.6249878561581 1.2122305399584945 1.9642138155409388 2.4485435006586673
4.274163446037616 1.0296451589504023 1.391067464962813 1.8534508221244006
3.2188701443469725 0.8910470203947551 0.9560907895675524 1.3717323343846632
2.360020894240176 0.7780841403901195 0.6160787456994419 0.9658580081506141
1.664263067954398 0.682632899910927 0.358925576225892 0.6227045918175791
1.1162382040281698 0.590776426261624 0.18697071907466545 0.3384910586918804
0.6839880834955376 0.47303020357932163 0.06098494505198868 0.14997293486422736
0.44254239260435463 0.381011589198112 0.014270125400223307 0.047260678006019394
0.3233556979349421 0.3097953627907436 0.00225649201953292 0.011303843124665718
0.25396809837014905 0.25900399157891685 -0.0017594593529218607 -0.0032764338558459874
0.20419428937605907 0.2072628768644752 -0.0006301057488538234 -0.002438481739562322
0.17488476358912924 0.1748553991578342 5.623032495269824e-06 2.3741398799793287e-05
0.16947874811177063 0.169492831562887 -6.269657839693201e-07 -1.3456485332418166e-05
0.18330656966244335 0.18332396369809686 -9.224449321673981e-07 -1.6471590721401528e-05
0.16916683166325086 0.17803963400732428 -0.0021208742191342533 -0.006751928124939167
0.6923882233138992 0.643825431835574 0.012481921840447547 0.036080869637877745
0.4535920706287336 0.45079455614819924 0.00020431709401768128 0.002593197386516563
0.1654788321136135 0.1658121472821262 -2.3716214296500963e-05 -0.0003095989542161724
0.19312855310688093 0.19326253388800205 -1.105474144848618e-05 -0.00012292603967267707
0.18463478052787557 0.1846793853991346 -3.0090264717618683e-06 -4.159584478721377e-05
0.18409743681920762 0.1841872019552733 -1.2592627687283361e-05 -7.717250837841974e-05
0.20259934862959023 0.20518453435483924 -0.0005609033922674486 -0.0020242823329816337
0.2378463105872345 0.24202953212150424 -0.001430975585823691 -0.002752245948446044
0.2785490855851669 0.2589475006879668 0.003387800162014048 0.016213784735186046
0.31402570382875666 0.25272968486719144 0.017417578103679044 0.04387844085788623
0.3512898235772363 0.22115875000802082 0.03803659418386646 0.09209447938534912
0.4323788016005419 0.20269656567420624 0.08078625858205891 0.14889597734427681
0.5616307506517897 0.20503656678129523 0.1270517078508535 0.22954247601964056
0.7609118723880894 0.2351408018326876 0.19994756056368995 0.32582350999171217
1.0278614302237368 0.28230847555350536 0.2972574705125583 0.448295484157673
1.401069856187493 0.2893648566766127 0.45296270451525855 0.6587422949956209
1.882640409315941 0.29691296917255566 0.6592422167229336 0.926485223420452
2.5191955794741645 0.32036131410768337 0.9485133372379997 1.2503209281284815
3.3530067048624357 0.3709897032558216 1.3377261575858896 1.6442908440207238
4.696733547184951 0.5509599605458226 1.9196705681734656 2.2261030184656634
7.5797655437661025 1.4347195694520918 2.8569638741799146 3.2880821001340967
12.516927048978827 1.2363132989658165 5.564687703538195 5.715926046474815
7.579765543770074 1.4347195694542778 2.8569638741809453 3.288082100134856
4.6967335471807745 0.5509599605436325 1.9196705681724602 2.2261030184646824
3.3530067048570387 0.37098970325354763 1.337726157584261 1.644290844019231
2.519195579469173 0.32036131410650204 0.948513337236232 1.2503209281264374
1.8826404093141236 0.29691296917273735 0.6592422167220733 0.9264852234193125
1.4010698561866612 0.2893648566770698 0.45296270451461496 0.6587422949949767
1.027861430222958 0.282308475553721 0.2972574705120982 0.4482954841571397
0.7609118723862134 0.2351408018328187 0.1999475605627934 0.3258235099906009
0.5616307506500696 0.20503656678085802 0.12705170785035622 0.2295424760188558
0.4323788015990452 0.20269656567384411 0.08078625858156638 0.1488959773436343
0.3512898235770213 0.22115875000804724 0.03803659418379178 0.09209447938518249
0.31402570382842443 0.2527296848671791 0.017417578103570124 0.0438784408576751
0.27854908558466074 0.2589475006877642 0.003387800161917728 0.01621378473497885
0.2378463105865543 0.24202953212081976 -0.001430975585823776 -0.002752245948441645
0.2025993486291674 0.20518453435421835 -0.0005609033922335853 -0.002024282332817391
0.18409743681884239 0.18418720195492763 -1.2592627691572604e-05 -7.717250839371691e-05
0.18463478052744595 0.1846793853986851 -3.009026470089872e-06 -4.1595844769073125e-05
0.1931285531066212 0.19326253388773057 -1.105474144691902e-05 -0.00012292603966245578
0.165478832113352 0.16581214728187627 -2.3716214296693412e-05 -0.00030959895422771313
0.453592070627745 0.45079455614709374 0.0002043170940179822 0.002593197386633144
0.3025710261382837 0.3026144548466788 -2.4699665670363174e-06 -4.095874182818501e-05
0.1571695613998539 0.15717362889300246 -3.861226354782416e-07 -3.6813705130687944e-06
0.1969866051154562 0.19694727149043909 3.467063885220479e-06 3.5866561131931534e-05
0.19755706975825735 0.197626130306142 -5.7296108924358114e-06 -6.333093699225156e-05
0.19861603073588993 0.1989342077014666 -4.5719050578729106e-05 -0.0002724579149979188
0.2176329204403814 0.2189372280375909 -0.00043675829878527715 -0.0008675492984242005
0.26097226245754124 0.26733128886275725 -0.0018088674923522393 -0.004550158912863718
0.3256007383821083 0.31112325479491143 0.0026511616640701612 0.011826321923126604
0.44282103644623716 0.3807091912755204 0.014477461795580921 0.04763438337513571
0.6829208246837151 0.47248138693990965 0.06076775885721405 0.1496716788865915
1.1152089889796544 0.5937607938552286 0.18573942385001296 0.3357087712744128
1.6691778272641484 0.6831671021066706 0.36202393935966853 0.6239867857978092
2.372498593906312 0.7803700423968825 0.6204729823485152 0.9716555691609137
3.2419208552331757 0.8949778736176955 0.9654951471927098 1.3814478344227703
4.268140584161122 1.0244830869701933 1.3913185953396612 1.8523389018512675
5.431332346686268 1.1684434581317364 1.8934595207926437 2.369429367761888
6.589798243118876 1.3181732484811217 2.4044014229921773 2.867223571645578
7.554980436057991 1.466577695412948 2.862098671458834 3.2263040691862104
7.897129059699189 1.5512722959937923 3.027863391796294 3.3179933719091044
6.323506777852903 0.80748780877955 2.6944956740028445 2.8215232950705103
12.665913261573916 2.228584876775388 5.039003191774139 5.3983251930243945
6.323506777852353 0.8074878087758813 2.6944956740045507 2.8215232950719153
7.897129059698639 1.551272295993169 3.027863391796287 3.317993371909186
7.554980436055545 1.4665776954145875 2.8620986714566863 3.2263040691842715
6.58979824311092 1.3181732484802757 2.404401422988538 2.8672235716421084
5.431332346680197 1.168443458131238 1.8934595207898883 2.369429367759068
4.2681405841564715 1.024483086969898 1.3913185953376412 1.852338901848934
3.2419208552271512 0.894977873616921 0.965495147190228 1.3814478344200032
2.3724985938995244 0.7803700423958541 0.6204729823459383 0.9716555691577329
1.6691778272583302 0.6831671021056637 0.362023939357636 0.6239867857950298
1.1152089889754677 0.5937607938546282 0.18573942384854553 0.33570877127229415
0.6829208246808911 0.4724813869386386 0.060767758856663544 0.14967167888558863
0.4428210364453698 0.38070919127490144 0.014477461795516344 0.04763438337495196
0.32560073838163656 0.311123254794651 0.0026511616640001357 0.011826321922985326
0.26097226245692673 0.2673312888621147 -0.0018088674923484763 -0.004550158912839521
0.2176329204398697 0.21893722803699633 -0.00043675829877483477 -0.0008675492983518155
0.19861603073535178 0.198934207700919 -4.571905057719324e-05 -0.00027245791499000063
0.19755706975784626 0.19762613030574783 -5.729610894248229e-06 -6.333093700733826e-05
0.19698660511506355 0.19694727149003188 3.467063885980052e-06 3.586656114570863e-05
0.1571695613995916 0.1571736288927323 -3.861226352988379e-07 -3.681370505393053e-06
0.3025710261376199 0.30261445484598826 -2.4699665649585164e-06 -4.095874180351584e-05
0.19523034686766444 0.19523034686766444 0.0 0.0
0.14341829563066089 0.14340978817952676 4.6505239045753023e-07 8.042398743661904e-06
0.19405486844069547 0.19407638830437196 -1.094625148760554e-06 -2.0425238527793364e-05
0.20701469313564794 0.2069197317621522 1.1415282417089873e-05 8.354609107870834e-05
0.21667420317706904 0.21669450064470783 1.2531355508909597e-05 -3.282882314771819e-05
0.24891700314887455 0.2560370437418486 -0.0013990638840838635 -0.0057209767088902425
0.3177972935776089 0.32109060924587435 -0.002288629064350705 -0.001004686603914676
0.48572391590240216 0.44852235667584806 0.00692577439190589 0.030275784834648378
0.8666737833206123 0.5847764720150949 0.08068216633525294 0.20121514497026477
1.559158054105457 0.7389860802494737 0.29381833943754077 0.5263536344184424
2.500541887619221 0.8791844586780309 0.6277446026826701 0.9936128262585188
3.675747289002854 1.0222817528652566 1.1031605879106228 1.5503049482269744
5.061915324427723 1.173891410906712 1.7004883319606177 2.1875355815603927
6.707252741663707 1.3391691329165254 2.443530304134342 2.924553304612837
8.689959074598919 1.526625108913987 3.382118033993583 3.7812159316913485
10.991358975296299 1.727553718092332 4.516170788783221 4.747634468420747
13.426898000808777 1.9340415573840017 5.7431351405806925 5.749721302844079
15.61000077852948 2.154991826706481 6.817069869605914 6.637939082217089
16.774145429442253 2.2234180854144254 7.447768969861113 7.102958374166714
15.509584232418506 2.219630064553993 6.820548408277723 6.469405759586784
18.70610223541629 4.927664278538813 6.981632168774709 6.79680578810276
15.50958423242039 2.2196300645525766 6.820548408279654 6.469405759588161
16.774145429435933 2.2234180854100876 7.447768969859959 7.102958374165885
15.610000778521783 2.154991826704425 6.817069869602694 6.637939082214661
13.426898000800898 1.9340415573859682 5.743135140575224 5.7497213028397045
10.99135897528263 1.7275537180903453 4.51617078877688 4.747634468415402
8.689959074590197 1.5266251089131146 3.3821180339894537 3.7812159316876297
6.707252741655326 1.3391691329173587 2.4435303041296836 2.9245533046082848
5.06191532441877 1.1738914109068588 1.700488331956144 2.187535581555768
3.6757472889930414 1.0222817528639534 1.1031605879065898 1.5503049482224984
2.5005418876105754 0.879184458676672 0.627744602679445 0.9936128262544581
1.5591580540996255 0.738986080248827 0.29381833943535435 0.5263536344154441
0.866673783317594 0.5847764720137674 0.08068216633464413 0.20121514496918186
0.48572391590081243 0.44852235667491286 0.00692577439170753 0.030275784834192018
0.31779729357679204 0.3210906092449227 -0.0022886290643270297 -0.001004686603803752
0.2489170031483573 0.2560370437412657 -0.0013990638840604786 -0.0057209767088478225
0.21667420317658476 0.21669450064420798 1.253135550971293e-05 -3.2828823132896985e-05
0.20701469313520146 0.2069197317615449 1.141528243107855e-05 8.354609122554265e-05
0.19405486844039901 0.1940763883040979 -1.0946251512881546e-06 -2.0425238547568724e-05
0.14341829563043662 0.1434097881793106 4.6505239000204435e-07 8.042398736028437e-06
0.19523034686721014 0.19523034686721014 0.0 0.0
0.1201849590445258 0.1201849590445258 0.0 0.0
0.12449283991051951 0.12449450083198832 -9.533615641300818e-08 -1.565585312364224e-06
0.18462138152524293 0.18459092031044239 2.1056555596612594e-06 2.83555592408956e-05
0.21249112195813602 0.21261143377985006 -1.1551342381038328e-05 -0.00010876047933301403
0.2378309334877804 0.23933203695435876 -0.0002507508810066707 -0.0012503525855716408
0.29089205248028716 0.29154502475427907 -0.000742876948911422 8.990467491966459e-05
0.4252564678410817 0.4227589442957128 -0.0015658503081958626 0.0040633738535647695
0.7809068492674671 0.5758482151137456 0.053649607788825895 0.1514090263648957
1.5216628349527699 0.7660926370849781 0.26192112717551264 0.49364907069227904
2.714848090332917 0.9563772555752843 0.7155485400120748 1.042922294745559
4.1713100337288544 1.1152818533350937 1.2978623350817209 1.7581658453120417
5.94857160966808 1.2813241321637825 2.0865012728711387 2.5807462046331593
8.060689583273875 1.4670029217892462 3.0797641401943077 3.5139225212903207
10.584714837013248 1.6768962023436635 4.309963495974561 4.597855138695023
13.659836140961062 1.9176409214901133 5.873813296487545 5.8683819229834
17.229161529896274 2.1707617027574426 7.7312368170251276 7.327163010113698
21.20803763633858 2.42300741126259 9.903784974947623 8.88124525012837
24.79771982490054 2.5869605522498453 11.889895571367289 10.320863701283406
26.755645756871537 2.57006568710221 13.059966875693929 11.125613194075404
24.770280257926103 2.282084049451098 12.065171196483348 10.423025011991658
27.8323010784694 7.41518313473793 10.830378044773433 9.586739898958045
24.77028025792925 2.2820840494525783 12.06517119648434 10.423025011992337
26.755645756872962 2.570065687107557 13.05996687569158 11.12561319407382
24.797719824887942 2.586960552246565 11.889895571361787 10.320863701279592
21.208037636319936 2.4230074112575006 9.903784974939708 8.881245250122726
17.22916152988303 2.170761702760259 7.731236817016017 7.327163010106759
13.659836140943439 1.9176409214860688 5.873813296479993 5.86838192297738
10.58471483699868 1.6768962023429252 4.309963495967083 4.597855138688669
8.060689583257927 1.467002921786932 3.07976414018717 3.513922521283824
5.948571609653787 1.281324132162012 2.0865012728648265 2.5807462046269496
4.171310033717051 1.1152818533341142 1.297862335076521 1.7581658453064153
2.7148480903239696 0.9563772555740133 0.7155485400085538 1.0429222947414019
1.521662834946679 0.7660926370831329 0.26192112717373306 0.4936490706898134
0.7809068492644495 0.5758482151126015 0.05364960778818148 0.1514090263636663
0.4252564678397079 0.42275894429481586 -0.0015658503083137696 0.004063373853205675
0.290892052479726 0.2915450247533193 -0.0007428769488605817 8.990467526731345e-05
0.23783093348729925 0.23933203695374108 -0.0002507508809905511 -0.0012503525854513104
0.21249112195759712 0.21261143377932307 -1.1551342383031383e-05 -0.00010876047934289129
0.1846213815250342 0.18459092031024477 2.1056555587426653e-06 2.835555923076314e-05
0.12449283991034973 0.12449450083181748 -9.533615634106578e-08 -1.565585311427026e-06
0.12018495904426287 0.12018495904426287 0.0 0.0
0.07017113088183534 0.07017113088183534 0.0 0.0
0.10255239309407624 0.10255239309407624 0.0 0.0
0.1697843274722827 0.1697738866468337 6.169848764971448e-07 9.823840572470336e-06
0.21438594072315292 0.21427008320159127 1.3753232957254278e-05 0.00010210428860435318
0.2608334895476922 0.26187893455580014 -0.00017299448826874956 -0.0008724505198391114
0.34948507534385365 0.36286586634742957 -0.003303825593977467 -0.010076965409598461
0.5985309402767173 0.5145873334567588 0.018767300379315403 0.0651763064406431
1.2104720163802503 0.7169217773133291 0.1596036326200414 0.33394660644688046
2.3743027676301627 0.9424343269055004 0.5741802039503224 0.8576882367743401
3.914848709327976 1.123749381643345 1.1608821620871153 1.6302171655975144
5.955803450668616 1.3135283580362374 2.0760730604385884 2.566202032193788
8.376117694405494 1.5104008518831884 3.2225395632313507 3.6431772792909554
11.256387707605619 1.7340305414086192 4.643369454835174 4.878987711361831
14.740115243083688 1.9953513224997173 6.425128451212122 6.319635469371849
18.94753312028092 2.2945739780345784 8.637393141330215 8.015566000916134
24.025319143928176 2.6190269169811375 11.433468810538756 9.972823416408279
29.393388150837733 2.8843715019451412 14.409480022130566 12.099536626762024
34.46326013600557 2.9633516274376355 17.45839870646929 14.04150980209863
37.149866976622796 2.7368474324777763 19.264131061901743 15.148888482243272
34.48806341804355 2.35172893721008 17.8671166604297 14.269217820403776
37.81939753727622 9.801120259555944 15.332473947560953 12.685803330159315
34.48806341804214 2.351728937208356 17.867116660429932 14.269217820403856
37.14986697661854 2.736847432477765 19.26413106189913 15.148888482241652
34.46326013598486 2.9633516274334513 17.458398706459167 14.04150980209224
29.393388150817984 2.88437150194456 14.409480022119121 12.099536626754299
24.025319143907993 2.619026916979568 11.433468810527819 9.972823416400605
18.947533120262992 2.2945739780358863 8.637393141319231 8.015566000907867
14.740115243066617 1.9953513225004984 6.425128451202149 6.319635469363975
11.256387707585969 1.7340305414082193 4.643369454824721 4.878987711353028
8.37611769438724 1.5104008518816783 3.222539563222641 3.643177279282921
5.955803450652579 1.313528358034889 2.0760730604313036 2.5662020321863843
3.914848709315348 1.1237493816414088 1.1608821620820875 1.6302171655918511
2.3743027676217103 0.9424343269042555 0.5741802039470382 0.8576882367704167
1.2104720163752114 0.7169217773118258 0.1596036326186389 0.33394660644474755
0.5985309402747465 0.5145873334559589 0.018767300378928233 0.06517630643985936
0.3494850753431144 0.36286586634639884 -0.003303825593906908 -0.01007696540937745
0.26083348954709756 0.2618789345551964 -0.00017299448826880223 -0.0008724505198301064
0.21438594072273487 0.21427008320115842 1.3753232958221495e-05 0.00010210428861816879
0.16978432747197525 0.16977388664653126 6.169848761276928e-07 9.823840567913113e-06
0.10255239309393056 0.10255239309393056 0.0 0.0
0.07017113088169173 0.07017113088169173 0.0 0.0
0.03857890490420882 0.03857890490420882 0.0 0.0
0.08014920619010667 0.08014920619010667 0.0 0.0
0.15129482003721784 0.15129010635208928 2.7264122338958563e-07 4.441043905202767e-06
0.21382308104329936 0.21381219585555142 2.7243248821822685e-06 8.160862865767281e-06
0.28548400451609796 0.285430455239938 -4.5075390399031324e-05 9.862466655899825e-05
0.4353948320583886 0.43640208762312327 -0.001511211299385936 0.0005039557346511719
0.8460222860737154 0.6218891463380981 0.06444413522112263 0.15968900451449466
1.7797398251969496 0.864138400740452 0.35020915364810606 0.5653922708083919
3.2171391590563068 1.0711013119760253 0.8616302169716504 1.2844076301086316
5.276938468701153 1.2867838250213994 1.7510949595270215 2.239059684152731
7.829977321936264 1.4991616088296729 2.941625702941594 3.389190010164998
10.916225927723382 1.7305679145658928 4.460651601584072 4.725006411573418
14.628644142759573 1.9989983372923141 6.361475203064568 6.2681706024026935
19.152082160495027 2.314625712714265 8.76510545871644 8.072350989064326
24.586897682200448 2.6884957634683557 11.704372106567096 10.194029812164988
31.004886006304282 3.075306354112505 15.280480961656528 12.649098690535249
38.170267230698094 3.353797343007014 19.510382738680995 15.306087149010068
44.48650235814166 3.3026675277785387 23.420061324781162 17.763773505581955
47.57486902385671 2.815823207764655 25.612885240353037 19.146160575739028
44.45239963670541 2.4559133888319717 23.937126054401162 18.059360193472276
48.710804952036256 12.269815126268423 20.50705561530207 15.933934210465761
44.45239963670274 2.4559133888319042 23.93712605439953 18.059360193471306
47.574869023840094 2.8158232077569547 25.612885240347474 19.146160575735657
44.48650235813277 3.3026675277884903 23.420061324769463 17.763773505574832
38.17026723067467 3.353797343006668 19.510382738666756 15.306087149001241
31.00488600627707 3.0753063541087404 15.280480961642436 12.6490986905259
24.586897682175707 2.6884957634660376 11.70437210655391 10.194029812155751
19.152082160469874 2.3146257127113583 8.765105458703696 8.07235098905482
14.628644142736475 1.9989983372923361 6.361475203051717 6.268170602392415
10.916225927701397 1.730567914564699 4.460651601572875 4.725006411563825
7.829977321916972 1.4991616088288746 2.9416257029320327 3.389190010156061
5.276938468685955 1.28678382502036 1.7510949595200578 2.239059684145538
3.2171391590459404 1.071101311974417 0.8616302169677887 1.2844076301037346
1.7797398251897603 0.8641384007388987 0.3502091536456597 0.5653922708052016
0.8460222860703588 0.6218891463366365 0.06444413522044704 0.15968900451327556
0.43539483205724183 0.4364020876221396 -0.0015112112994324165 0.000503955734534608
0.28548400451557565 0.2854304552392735 -4.507539038484698e-05 9.862466668695972e-05
0.213823081042906 0.21381219585514719 2.7243248828526515e-06 8.160862875989513e-06
0.15129482003697303 0.15129010635184637 2.726412232514537e-07 4.441043903424872e-06
0.08014920618989904 0.08014920618989904 0.0 0.0
0.038578904904171034 0.038578904904171034 0.0 0.0
0.019915171225674825 0.019915171225674825 0.0 0.0
0.05943105879247754 0.05943105879247754 0.0 0.0
0.1314094969435974 0.1314094969435974 0.0 0.0
0.21241661792058014 0.21234263178559054 7.099750366711263e-06 6.688638462290088e-05
0.3180565016823998 0.3252297834519295 -0.0014617395767648846 -0.005711542192764717
0.553853226842169 0.4942663630124331 0.012036155897798108 0.047550707931937525
1.1862488528418866 0.7415684478635451 0.1574459919603282 0.28723441301801333
2.3592362748547577 0.9720813870135111 0.5282742280894853 0.8588806597517616
4.20061303110804 1.204609254699632 1.2679234973403057 1.7280802790681034
6.6757444827940935 1.4375701596930348 2.3790633302776825 2.859110992823378
9.787961561176703 1.6809598230917613 3.8824886941699313 4.224513043915012
13.58323708618957 1.9524702685313329 5.809867865699979 5.820898951958254
18.198754167921233 2.2712472650962825 8.249728079097796 7.677778823727152
23.684175471984254 2.6466676171561203 11.184923019286396 9.85258483554174
30.429107832526796 3.0824127724602786 14.95129661211278 12.395398447953749
38.380342642024175 3.5457009395269434 19.510183310543756 15.324458391953476
46.934177501986305 3.836155723103124 24.594222948895766 18.50379882998741
54.56086278716717 3.616986800259676 29.52186926209779 21.422006724809705
58.3122170015794 2.872388948185135 32.37652997522939 23.063298078164888
54.797673005347164 2.558525569649159 30.348096820770472 21.891050614927526
60.23676386248333 14.811604643930071 26.038080417348667 19.387078801204588
54.79767300533859 2.558525569646879 30.348096820766486 21.891050614925213
58.31221700157295 2.8723889481894567 32.3765299752225 23.063298078160972
54.56086278714101 3.6169868002543306 29.521869262084586 21.422006724802106
46.93417750195406 3.8361557231001946 24.594222948877487 18.50379882997637
38.38034264199496 3.545700939526834 19.5101833105259 15.324458391942219
30.429107832494452 3.082412772456237 14.951296612095785 12.395398447942423
23.6841754719558 2.64666761715513 11.184923019270304 9.852584835530369
18.19875416789261 2.271247265094485 8.249728079082532 7.677778823715596
13.583237086162653 1.9524702685295128 5.809867865686154 5.820898951946985
9.787961561153752 1.6809598230900997 3.882488694158646 4.224513043905006
6.675744482775721 1.4375701596917303 2.379063330269059 2.859110992814931
4.20061303109534 1.204609254697683 1.2679234973353488 1.7280802790623095
2.3592362748459763 0.9720813870120053 0.5282742280862983 0.8588806597476734
1.1862488528371313 0.7415684478618358 0.15744599195910022 0.2872344130161944
0.5538532268404377 0.49426636301129234 0.012036155897595312 0.04755070793155024
0.31805650168186855 0.32522978345126424 -0.001461739576732518 -0.005711542192663177
0.21241661792019087 0.21234263178519527 7.099750367148321e-06 6.688638462842543e-05
0.1314094969435042 0.1314094969435042 0.0 0.0
0.05943105879228081 0.05943105879228081 0.0 0.0
0.01991517122563706 0.01991517122563706 0.0 0.0
0.009785758671469311 0.009785758671469311 0.0 0.0
0.041988844062311716 0.041988844062311716 0.0 0.0
0.1124472668526058 0.1124472668526058 0.0 0.0
0.2130949433314819 0.2131178543650215 -3.849795779514807e-06 -1.9061237760171153e-05
0.36419351214246565 0.3709653121232346 -0.0018165670013649098 -0.004955232979403878
0.7243378940094543 0.589422653873022 0.038806977678412805 0.09610826245801951
1.5639945634655215 0.8375433455034833 0.2578690558534096 0.46858216210862924
3.0265010972781834 1.0760408791791292 0.7795140146729528 1.1709462034261005
5.2100768367539025 1.3266716870893687 1.699276730274287 2.184128419390248
8.136266498933844 1.584483382181471 3.062987578139869 3.4887955386125
11.809852729470355 1.8612005390191153 4.879244970793074 5.069407219658165
16.34726319015831 2.179656844341233 7.237376648866539 6.930229696950537
21.794878292578534 2.5523198403674794 10.134658375342259 9.107900076868805
28.52631510546916 2.990356149545856 13.884094250040008 11.65186470588331
36.47492113267546 3.48910637559528 18.366923606347925 14.618891150732246
45.70730511720516 3.9961168990017937 23.715640688425115 17.995547529778253
55.787288808834504 4.310779660062144 29.858008802104898 21.61850034666745
64.72604601341523 3.9686822290869497 35.77181400731113 24.985549777017162
69.25706617284919 2.943190450914841 39.33531029431509 26.978565427619284
65.7228393304811 2.6168459356040583 37.288481031787775 25.81751236308928
72.83487122768435 17.376094958120994 32.39307784919723 23.06569842036612
65.72283933047515 2.616845935606031 37.28848103178262 25.81751236308651
69.25706617282192 2.9431904509021156 39.33531029430567 26.978565427614154
64.72604601338578 3.9686822290861725 35.77181400729267 24.98554977700693
55.787288808805286 4.310779660067591 29.85800880208297 21.618500346654745
45.70730511717109 3.9961168990015694 23.71564068840402 17.995547529765496
36.47492113263995 3.4891063755947602 18.366923606326562 14.618891150718621
28.526315105433323 2.990356149542985 13.884094250020325 11.651864705870011
21.794878292545118 2.5523198403665233 10.134658375323406 9.107900076855195
16.347263190127524 2.1796568443390965 7.237376648850484 6.930229696937944
11.809852729443005 1.8612005390165058 4.8792449707796735 5.069407219646828
8.136266498913232 1.5844833821808832 3.0629875781294627 3.488795538602885
5.210076836738348 1.326671687086879 1.6992767302679375 2.1841284193835304
3.0265010972677375 1.0760408791772984 0.7795140146693306 1.170946203421108
1.563994563459369 0.8375433455018292 0.25786905585154396 0.46858216210599646
0.7243378940068427 0.5894226538717742 0.03880697767792997 0.09610826245713874
0.3641935121416781 0.37096531212229755 -0.0018165670013416619 -0.004955232979277803
0.2130949433310586 0.2131178543646153 -3.849795782958305e-06 -1.9061237773725408e-05
0.11244726685247036 0.11244726685247036 0.0 0.0
0.041988844062198265 0.041988844062198265 0.0 0.0
0.009785758671428786 0.009785758671428786 0.0 0.0
0.004777436903533975 0.004777436903533975 0.0 0.0
0.02870980434887249 0.02870980434887249 0.0 0.0
0.09691954729697339 0.09691954729697339 0.0 0.0
0.2200922340216426 0.22011974920724656 -2.1316268488690114e-06 -2.538355875508836e-05
0.4311245623613464 0.41888329547880176 0.001826925858889323 0.01041434102365533
0.9500438579650764 0.6831418979395925 0.08820267434044565 0.178699285685038
1.9857326261091988 0.914539829717789 0.38982131455023583 0.6813714818411738
3.73648796797795 1.1749844190450376 1.064449714343857 1.4970538345890567
6.254465195391824 1.4423953667803908 2.1633240197835986 2.6487458088278317
9.634740421984855 1.7276565866850455 3.7810237857232485 4.126060049576564
13.918566842441418 2.0453515488637946 5.950936201844021 5.9222790917336
19.173020626685457 2.4112747511698087 8.709743782420608 8.052002093095041
25.674759524986406 2.8485129005831067 12.276282435717617 10.549964188685676
33.385088088303036 3.355096015642858 16.548835758508005 13.481156314152171
42.64663864422036 3.8965161341557466 21.890233341716005 16.859889168348616
53.22498679867776 4.402197198755199 28.18137627100414 20.64141332891841
64.53083573793919 4.72673043983988 35.15710170986403 24.64700358823529
74.8365881094289 4.4452438508313525 41.981660967593825 28.409683291003738
80.43636248920437 3.0721094994943687 46.552757951659274 30.811495038050737
77.34327488976754 2.5556334964556466 44.88176880583264 29.905872587479237
86.5941710173885 19.816193486444465 39.643582222522745 27.134395308421283
77.34327488975318 2.555633496451324 44.881768805826106 29.90587258747576
80.43636248918081 3.072109499493446 46.55275795164452 30.81149503804288
74.83658810940024 4.4452438508355465 41.98166096757247 28.409683290992202
64.53083573790312 4.726730439840333 35.15710170984055 24.647003588222255
53.224986798638554 4.402197198754596 28.181376270979825 20.641413328904132
42.64663864418152 3.8965161341552856 21.890233341692223 16.859889168334004
33.3850880882631 3.3550960156415996 16.54883575848461 13.481156314136905
25.67475952494845 2.848512900583064 12.276282435695235 10.549964188670145
19.173020626648874 2.4112747511666983 8.709743782401388 8.052002093080795
13.918566842411334 2.0453515488618206 5.950936201828552 5.922279091720962
9.634740421961453 1.727656586683874 3.781023785711519 4.1260600495660595
6.254465195373179 1.4423953667778857 2.1633240197755974 2.6487458088196973
3.736487967965378 1.1749844190430443 1.0644497143390064 1.4970538345833282
1.9857326261020487 0.9145398297167247 0.38982131454792746 0.681371481837396
0.9500438579617068 0.6831418979387532 0.08820267433952472 0.17869928568342858
0.4311245623602928 0.41888329547775305 0.0018269258588817035 0.010414341023658073
0.22009223402121403 0.22011974920680652 -2.1316268480825383e-06 -2.538355874447839e-05
0.0969195472968012 0.0969195472968012 0.0 0.0
0.028709804348809 0.028709804348809 0.0 0.0
0.0047774369035334125 0.0047774369035334125 0.0 0.0
0.0022674778744358874 0.0022674778744358874 0.0 0.0
0.01957830937037161 0.01957830937037161 0.0 0.0
0.08813212189473504 0.08813212189473504 0.0 0.0
0.24015169400840072 0.2403801520951508 -4.490791366981866e-05 -0.0001835501730802756
0.5370040945047526 0.4952297418076175 0.011481923250608672 0.03029242944652647
1.210883537111728 0.7606043756240167 0.15143683103671096 0.2988423304510004
2.4649490038623196 0.9986866676913003 0.5632451587237373 0.9030171774472824
4.469146178309123 1.2674268523085033 1.3680786608228024 1.8336406651778188
7.3423530708313205 1.5540328312939413 2.668865714599977 3.1194545249374053
11.168737991280361 1.8699952305976746 4.530314437924142 4.768428322758543
16.05804856568856 2.2300021096228306 7.044514184563832 6.783532271501894
22.172399900926965 2.6544653931405504 10.335178055501805 9.182756452284613
29.506677978758926 3.157235942714256 14.333943100424728 12.015498935619954
38.474958029710244 3.727171121305708 19.426053016137843 15.321733892266696
49.019339577940286 4.316091543305443 25.59181750161386 19.111430533020982
60.833919126751525 4.7960911785658595 32.75332778899723 23.28450015918844
73.11362573168866 5.008430572743139 40.524489505429244 27.5807056535163
84.52016040063306 4.8666241401794474 48.06729636663219 31.586239893821357
91.79266535350398 3.633113751597363 53.67100368402282 34.488547917883736
89.707333870001 2.220689284757124 53.250728862702516 34.23591572254138
101.47906658723399 21.157542973279817 48.50332507949818 31.818198534455966
89.70733386998607 2.2206892847551476 53.25072886269396 34.23591572253694
91.7926653534789 3.63311375159895 53.67100368400531 34.48854791787465
84.52016040059294 4.866624140176719 48.06729636660767 31.586239893808557
73.11362573164007 5.008430572736941 40.524489505401895 27.580705653501223
60.833919126701986 4.796091178561473 32.753327788968406 23.284500159172133
49.0193395778911 4.316091543298484 25.591817501587407 19.1114305330052
38.47495802966503 3.7271711213040906 19.426053016111087 15.321733892249839
29.506677978716393 3.1572359427142347 14.333943100399267 12.01549893560289
22.172399900886738 2.6544653931391373 10.335178055479249 9.182756452268357
16.05804856565504 2.2300021096210925 7.044514184545911 6.783532271488038
11.168737991254044 1.8699952305954766 4.530314437911146 4.768428322747419
7.34235307081125 1.5540328312927214 2.668865714590381 3.119454524928146
4.469146178294978 1.2674268523062913 1.3680786608171904 1.8336406651714976
2.4649490038537665 0.9986866676900561 0.5632451587206669 0.9030171774430438
1.210883537107752 0.7606043756231291 0.15143683103550626 0.2988423304491169
0.5370040945034401 0.49522974180671453 0.011481923250466623 0.030292429446259095
0.24015169400804956 0.24038015209467198 -4.490791365908214e-05 -0.00018355017296335386
0.08813212189451929 0.08813212189451929 0.0 0.0
0.019578309370326574 0.019578309370326574 0.0 0.0
0.002267477874433662 0.002267477874433662 0.0 0.0
0.0006180095681535686 0.0006180095681535686 0.0 0.0
0.014025812002931626 0.014025812002931626 0.0 0.0
0.090744872051319 0.090744872051319 0.0 0.0
0.28532347842515837 0.28640299900548816 -0.0002192314719127694 -0.0008602891084169375
0.6936815100964315 0.6021136283201849 0.029450016787926407 0.06211786498831999
1.5344732502290672 0.9025860218973443 0.2235270653590936 0.40836016297262956
2.9976130594589763 1.196526461612416 0.7135712097667812 1.0875153880797797
5.279621533176954 1.5588050828372622 1.623173647987944 2.0976428023517473
8.52163675312976 1.9827870703013795 3.0548353914960322 3.484014291332354
12.897654254618939 2.503828549836209 5.131006641002497 5.2628190637802295
18.549480864599392 3.163815580669585 7.94191734518675 7.443747938743055
25.546278917180118 3.996309573557887 11.495006731019311 10.054962612602921
34.17613397018958 5.007063115556815 16.03261308949598 13.136457765136786
44.5827095103363 6.1871035529079785 21.668712001550478 16.726893955877852
56.68987554626335 7.396790391828943 28.48164298446155 20.81144216997283
69.95367443360583 8.355901061674313 36.34244313698344 25.25533023494806
83.15843235599536 8.70726097680679 44.67183261146773 29.779338767720834
94.64698231305985 8.248252270165715 52.512786180810814 33.885943862083394
103.01257200975977 7.500660458943292 58.546024906245975 36.965886644570496
99.83457845857872 2.228610604646175 59.88523716216269 37.720730691769816
145.93537822675057 52.211335306173595 57.41590664174719 36.3081362788298
99.83457845855989 2.2286106046416085 59.885237162153174 37.720730691765084
103.01257200972591 7.500660458939091 58.54602490622624 36.965886644560534
94.64698231301179 8.248252270161126 52.51278618078237 33.88594386206833
83.15843235594363 8.707260976803651 44.671832611435946 29.779338767704033
69.9536744335553 8.355901061675135 36.342443136950486 25.255330234929634
56.68987554620533 7.396790391817761 28.48164298443205 20.81144216995552
44.58270951028605 6.187103552905976 21.668712001520635 16.72689395585946
34.17613397013952 5.007063115552392 16.03261308946844 13.136457765118678
25.546278917134018 3.9963095735536585 11.49500673099469 10.054962612585667
18.549480864562074 3.1638155806666783 7.94191734516716 7.443747938728238
12.897654254588156 2.503828549830711 5.131006640988602 5.262819063768841
8.521636753106996 1.9827870702990613 3.0548353914853914 3.484014291322546
5.279621533159768 1.558805082832993 1.6231736479817074 2.097642802345066
2.997613059449284 1.196526461610833 0.7135712097632525 1.0875153880751998
1.5344732502241285 0.9025860218956875 0.2235270653579352 0.4083601629705062
0.6936815100945553 0.6021136283193071 0.029450016787584795 0.06211786498766313
0.28532347842462236 0.28640299900495614 -0.0002192314719057693 -0.000860289108428002
0.0907448720511745 0.0907448720511745 0.0 0.0
0.01402581200291335 0.01402581200291335 0.0 0.0
0.0006180095681620852 0.0006180095681620852 0.0 0.0
CELL_DATA 800
SCALARS Stress float 6
LOOKUP_TABLE default
150.00849854505424 -505.03011520396126 -183.38126987452097 -106.30642468836513 0.0 0.0
394.5839937227051 -29.252173253473494 117.99491959315819 59.69317241827332 0.0 0.0
383.05156204252137 6.545999945401817 116.68308259147223 -5.128978576781673 0.0 0.0
444.3693252347371 -7.401479430943978 133.22310627355512 -13.094337259495672 0.0 0.0
516.6937044510784 -12.468669186326213 174.07124395496058 -11.096670937274135 0.0 0.0
585.1552368498028 -4.38645471038453 239.95235833573042 -9.467114586704724 0.0 0.0
651.1560559372251 3.8118097683946495 301.6584558015553 -9.468735289472662 0.0 0.0
717.013318726587 20.161865057926626 356.8583020813506 -10.391409548856352 0.0 0.0
783.6777224498381 42.80042941518572 407.47355028503966 -11.561406531487405 0.0 0.0
851.54240132727 70.69102667969943 457.5116252154327 -12.431118163345108 0.0 0.0
920.1829705493794 102.16925039929345 508.36277968521824 -12.838402165212148 0.0 0.0
989.095422139447 136.80646020916163 560.5145494242238 -12.781119134105673 0.0 0.0
1058.4374908868167 172.93761784287375 613.467640832682 -12.57846441258798 0.0 0.0
1128.8417593269419 211.09381902120816 667.8773087421108 -12.338066316780518 0.0 0.0
1201.0403774004137 252.43326798965495 724.7316594149364 -12.007083811363643 0.0 0.0
1274.5577093268298 297.0899964672726 783.877433042135 -11.4205981168279 0.0 0.0
1347.0984593671378 343.83788784316374 843.5661256000221 -10.37025036225665 0.0 0.0
1415.0191082553663 390.19869313979274 900.7189487034517 -8.78417923455141 0.0 0.0
1474.3092724220448 433.3668813519812 951.8906608162537 -7.262914057485084 0.0 0.0
1536.8523659912366 487.1403488088377 1009.5419161106679 -8.605827920311606 0.0 0.0
1536.8523659912141 487.1403488088307 1009.5419161105864 8.605827920317775 0.0 0.0
1474.3092724208186 433.36688135078055 951.8906608152497 7.262914057499964 0.0 0.0
1415.0191082549773 390.1986931394674 900.7189487030429 8.7841792345395 0.0 0.0
1347.0984593670821 343.8378878431877 843.5661255998614 10.370250362330339 0.0 0.0
1274.5577093262036 297.08999646673544 783.8774330416325 11.420598116760395 0.0 0.0
1201.0403774000333 252.43326798939066 724.7316594146043 12.007083811383641 0.0 0.0
1128.8417593264044 211.0938190207966 667.8773087416929 12.338066316773011 0.0 0.0
1058.4374908860054 172.93761784221928 613.4676408320589 12.578464412644166 0.0 0.0
989.0954221390883 136.80646020898644 560.5145494239384 12.781119134058823 0.0 0.0
920.182970549311 102.16925039943533 508.3627796851735 12.838402165262544 0.0 0.0
851.5424013266351 70.69102667928006 457.51162521498713 12.431118163360424 0.0 0.0
783.677722449753 42.80042941533972 407.473550284911 11.561406531486025 0.0 0.0
717.0133187267511 20.161865058336403 356.8583020813921 10.391409548883718 0.0 0.0
651.1560559372069 3.8118097686575396 301.65845580144355 9.468735289466483 0.0 0.0
585.1552368495313 -4.386454710400184 239.95235833545533 9.467114586734803 0.0 0.0
516.6937044505692 -12.468669186623 174.0712439546134 11.096670937301477 0.0 0.0
444.36932523462326 -7.40147943074299 133.22310627357632 13.09433725941544 0.0 0.0
383.05156204246344 6.545999945440617 116.6830825914696 5.128978576751052 0.0 0.0
394.5839937226243 -29.25217325345814 117.99491959310143 -59.693172418252196 0.0 0.0
150.0084985456302 -505.0301152034252 -183.38126987398422 106.30642468792931 0.0 0.0
54.23710305681453 -534.6483190553743 -239.1520054861815 -148.18989977018532 0.0 0.0
243.22931028954469 -15.155032012348192 68.42228348315894 12.83188946399552 0.0 0.0
336.1227278203666 22.807397896317433 107.67854758867729 -10.377858345182414 0.0 0.0
404.2792782246007 -4.852574556470989 119.98309673066633 -32.638572125004 0.0 0.0
486.6319312851853 -13.802462835025235 153.9981054598998 -31.700251237816076 0.0 0.0
560.0489905334164 -5.909520166873483 217.8198759097712 -28.14142875803123 0.0 0.0
630.396512468375 2.0346821847542067 283.48727421807405 -28.476123849017746 0.0 0.0
697.2604526284388 17.46214761660969 341.84272120329354 -29.88931305571027 0.0 0.0
762.8135850656431 38.573335328932956 393.1378969117459 -31.63718494005092 0.0 0.0
828.1086667624822 64.14631857546856 441.66012626018323 -32.75089142105803 0.0 0.0
893.0768478862591 92.63070081314177 489.5880005267662 -32.876739229189546 0.0 0.0
957.7102120974037 122.73689778484017 537.5064889536852 -32.273237663839886 0.0 0.0
1022.1796129901298 154.86299667564623 586.092990980423 -31.396458829867203 0.0 0.0
1087.741553550407 188.8865053177608 636.0585942616078 -30.520981138389857 0.0 0.0
1154.8294889376148 225.51442347515388 688.0322491425004 -29.522601493333326 0.0 0.0
1222.8961702232898 265.0317151208868 741.9102813649622 -27.98707377724929 0.0 0.0
1290.1997724011578 306.62915265950676 796.4193104454321 -25.558143576653464 0.0 0.0
1354.257111593163 348.99882308090383 849.6356485779103 -22.276090326825642 0.0 0.0
1415.5772480385408 394.1410066873299 902.7000552661657 -18.873140243819027 0.0 0.0
1459.286604867086 428.6112651423669 941.5916138308103 -14.51234274605804 0.0 0.0
1459.286604866571 428.61126514186 941.5916138305099 14.512342746006937 0.0 0.0
1415.5772480381368 394.14100668695255 902.7000552659224 18.87314024385706 0.0 0.0
1354.2571115920507 348.9988230798475 849.6356485770931 22.276090326951433 0.0 0.0
1290.1997724003554 306.6291526587794 796.4193104447461 25.558143576698427 0.0 0.0
1222.8961702233817 265.0317151210726 741.9102813649693 27.987073777258594 0.0 0.0
1154.8294889375036 225.51442347516019 688.032249142408 29.52260149335038 0.0 0.0
1087.7415535501964 188.88650531767826 636.0585942614309 30.520981138363137 0.0 0.0
1022.1796129898729 154.86299667554755 586.0929909801695 31.396458829888047 0.0 0.0
957.710212097184 122.73689778480272 537.5064889534967 32.2732376638612 0.0 0.0
893.0768478858635 92.63070081296296 489.5880005264513 32.876739229280645 0.0 0.0
828.1086667620242 64.14631857523054 441.6601262598432 32.75089142107915 0.0 0.0
762.8135850651583 38.57333532867308 393.1378969114202 31.637184940055754 0.0 0.0
697.260452628 17.462147616401865 341.8427212029347 29.88931305565519 0.0 0.0
630.3965124680583 2.03468218470654 283.4872742177618 28.476123848963816 0.0 0.0
560.0489905329555 -5.909520167088676 217.81987590939397 28.14142875797974 0.0 0.0
486.6319312846605 -13.80246283534212 153.99810545958456 31.700251237816595 0.0 0.0
404.27927822439386 -4.852574556436283 119.98309673062138 32.63857212497245 0.0 0.0
336.1227278203279 22.80739789631447 107.67854758866517 10.377858345197147 0.0 0.0
243.2293102896548 -15.155032012075306 68.42228348327383 -12.831889464123627 0.0 0.0
54.23710305712254 -534.6483190550291 -239.15200548582408 148.18989976995567 0.0 0.0
9.341836933250988 -535.8987625601718 -253.2348860272384 -162.08147116079488 0.0 0.0
141.72850599368618 -15.028497837722172 38.0100024467892 -39.28215952625064 0.0 0.0
273.73006561644155 27.834849994245985 90.46947468320626 -31.474033108478917 0.0 0.0
357.95539343722436 1.807640469252701 107.96009689690983 -51.06872670527107 0.0 0.0
446.6892287829277 -11.69537817207061 135.58752651585684 -54.341088602864076 0.0 0.0
532.148645978755 -10.150280419266341 191.96651903946838 -49.19947034340852 0.0 0.0
605.2527363193599 1.2115830742377405 262.0150720899353 -47.78167465375735 0.0 0.0
673.0246119373694 14.743819324117453 323.1798665098537 -49.3688463671351 0.0 0.0
738.1686905791552 34.411290894797 376.15389045518975 -51.34761175495498 0.0 0.0
801.0187925144949 57.463899068883514 423.54690865076583 -52.452158602281656 0.0 0.0
862.3444328233362 82.50280566197087 468.5247003242522 -52.244203332975076 0.0 0.0
922.4529534416755 108.963134666262 512.6122824781181 -51.07210045449394 0.0 0.0
982.6228516528062 136.54039779208512 556.8924704250808 -49.70477992982829 0.0 0.0
1043.2604998321306 166.31865383026351 602.3424567646186 -48.27170662535535 0.0 0.0
1105.00948013781 198.1081362413144 649.2653770721265 -46.64851103393057 0.0 0.0
1167.5536666826456 232.20487837813874 697.7006539022073 -44.31078130872941 0.0 0.0
1229.6910797498015 268.5112574470846 746.9956314947268 -40.810054264965004 0.0 0.0
1291.061115016505 307.9171173422212 797.3637854615442 -36.16124280685879 0.0 0.0
1347.0353884528956 347.14844369118697 844.8509660085545 -29.923889663056773 0.0 0.0
1385.0855313087245 374.98563830308774 877.6541230856396 -19.85944561960113 0.0 0.0
1385.0855313085417 374.9856383029109 877.6541230855288 19.859445619586282 0.0 0.0
1347.0353884531442 347.14844369148307 844.8509660087561 29.923889663187712 0.0 0.0
1291.061115015898 307.91711734166114 797.3637854611148 36.16124280686907 0.0 0.0
1229.6910797486687 268.5112574460293 746.9956314939307 40.8100542650574 0.0 0.0
1167.553666682183 232.20487837775207 697.7006539018333 44.31078130868563 0.0 0.0
1105.0094801377675 198.1081362413894 649.2653770720602 46.64851103396083 0.0 0.0
1043.2604998322058 166.3186538304938 602.3424567646402 48.27170662548165 0.0 0.0
982.6228516529425 136.5403977923933 556.8924704251449 49.70477992984971 0.0 0.0
922.4529534412862 108.9631346660333 512.6122824777993 51.07210045444607 0.0 0.0
862.3444328229572 82.502805661813 468.5247003239779 52.244203333081686 0.0 0.0
801.0187925142941 57.46389906891763 423.5469086505823 52.452158602358466 0.0 0.0
738.1686905788322 34.41129089472103 376.1538904549326 51.347611754971695 0.0 0.0
673.0246119372121 14.743819324209468 323.1798665096626 49.36884636705486 0.0 0.0
605.2527363190372 1.2115830741788045 262.015072089607 47.78167465367097 0.0 0.0
532.1486459784711 -10.150280419256976 191.9665190392052 49.1994703433072 0.0 0.0
446.68922878272014 -11.695378171976186 135.58752651578087 54.34108860279814 0.0 0.0
357.9553934370458 1.807640469335241 107.96009689689306 51.068726705174235 0.0 0.0
273.730065616496 27.834849994415713 90.46947468327349 31.474033108325195 0.0 0.0
141.72850599382284 -15.028497837389109 38.010002446930116 39.28215952609905 0.0 0.0
9.341836933450793 -535.8987625598677 -253.2348860269193 162.0814711606197 0.0 0.0
-6.734733106842796 -519.22160624052 -242.8889557474362 -164.6465322501081 0.0 0.0
83.92790234208239 -21.393554567841065 18.760304332272398 -83.45510295601915 0.0 0.0
214.16714238696932 27.322259234328456 72.44682048638933 -59.35262099671102 0.0 0.0
308.0576674589783 6.850474812380389 94.46437786478876 -70.99019303026091 0.0 0.0
397.2028612380573 -8.496213527426503 118.05472328072265 -78.2056924905667 0.0 0.0
491.5736017642031 -11.934042003180629 165.11948088576025 -72.46831338968384 0.0 0.0
572.6846265834793 -1.3653195372944094 234.4909649454458 -68.0460592737757 0.0 0.0
644.0270036782648 12.668469821343447 300.65756184374266 -69.02902509632997 0.0 0.0
708.7526742306264 30.08205568486024 355.468134068534 -70.68746447932813 0.0 0.0
769.4644379742913 50.510339413116824 402.41285741113325 -71.55652453546368 0.0 0.0
827.3914663677833 72.22317281871227 444.9685921538616 -70.94351864298318 0.0 0.0
883.6199079856937 94.86414514750206 485.61394777798955 -69.28786061441271 0.0 0.0
938.9396226166521 118.34113078125047 525.6006147763494 -67.43251924959822 0.0 0.0
995.0469443737243 143.58460876577797 566.6240006176984 -65.59838118854694 0.0 0.0
1051.6024265571168 170.27452013597068 608.4609109512674 -63.449491451810374 0.0 0.0
1108.1485077997477 198.90378151325328 651.1934140640259 -60.419932343693525 0.0 0.0
1165.4019199978018 230.05350618103296 695.4868839513487 -56.16053814097545 0.0 0.0
1222.2475464332865 264.2690328937388 741.0197975543533 -50.19670608516883 0.0 0.0
1273.9956408604048 298.08210911145153 783.7121018338527 -40.98349973617932 0.0 0.0
1309.9223599665359 322.1286594876129 813.5715402795977 -25.554993705025414 0.0 0.0
1309.9223599665067 322.1286594875977 813.5715402795508 25.55499370507252 0.0 0.0
1273.9956408594778 298.0821091105721 783.7121018331644 40.98349973632341 0.0 0.0
1222.2475464330569 264.2690328935545 741.019797554135 50.19670608520772 0.0 0.0
1165.4019199972986 230.0535061806189 695.4868839509771 56.16053814107176 0.0 0.0
1108.1485077983666 198.90378151194625 651.1934140629851 60.419932343699216 0.0 0.0
1051.60242655721 170.27452013616232 608.4609109512436 63.4494914517621 0.0 0.0
995.046944374169 143.5846087663768 566.624000617983 65.59838118861627 0.0 0.0
938.9396226168617 118.34113078161934 525.6006147764881 67.43251924963113 0.0 0.0
883.6199079856389 94.86414514763698 485.61394777787876 69.28786061444241 0.0 0.0
827.3914663678223 72.22317281897881 444.96859215381284 70.94351864305295 0.0 0.0
769.4644379738014 50.51033941280683 402.4128574107754 71.5565245353535 0.0 0.0
708.7526742302229 30.082055684642285 355.4681340681904 70.68746447921795 0.0 0.0
644.0270036781297 12.668469821483242 300.6575618435664 69.0290250963422 0.0 0.0
572.684626583099 -1.3653195373404472 234.49096494511946 68.0460592738374 0.0 0.0
491.5736017635271 -11.934042003589191 165.11948088532165 72.46831338963554 0.0 0.0
397.20286123775145 -8.496213527361817 118.05472328064822 78.20569249049716 0.0 0.0
308.0576674588969 6.8504748125461985 94.4643778648154 70.990193030156 0.0 0.0
214.1671423869453 27.322259234293764 72.4468204863717 59.352620996570096 0.0 0.0
83.92790234219848 -21.39355456764491 18.760304332366072 83.45510295581632 0.0 0.0
-6.734733106712866 -519.2216062402389 -242.88895574714383 164.64653224998705 0.0 0.0
-9.203657052242647 -492.1708516284442 -219.61536097215813 -162.98953879199385 0.0 0.0
49.74123813463918 -28.23299710620886 6.452472308529098 -117.71223338061029 0.0 0.0
162.173741780299 23.652031113775074 55.74773186822221 -87.74331459491972 0.0 0.0
255.450157516756 9.979709854529144 79.62868246372443 -92.19617880241674 0.0 0.0
340.7658798784262 -3.899053659544387 101.3263110543074 -100.75000680634996 0.0 0.0
439.5907791028233 -12.086170304385256 138.57639259660522 -98.4720253279194 0.0 0.0
532.126095269721 -4.899720597449644 202.1703801753435 -90.85824924760978 0.0 0.0
608.5576696046473 10.195715229564595 272.3645670616383 -88.81688787225836 0.0 0.0
673.6616587240969 25.810654253193885 330.09551390831587 -89.77747033249585 0.0 0.0
732.7303541660407 43.32161534363857 377.4672385884937 -90.131028250011 0.0 0.0
787.7145409499111 61.71959960642283 418.3421127027821 -89.03667502552473 0.0 0.0
839.9141063825163 80.54892817557273 455.75693382252416 -86.89290809875013 0.0 0.0
891.049973088448 100.03515565361553 492.0009864363509 -84.69893722870749 0.0 0.0
941.8169867496761 120.75920225456272 528.2572320576239 -82.45030432475738 0.0 0.0
993.0941416245856 142.48764375860412 565.056409052181 -79.88547615251485 0.0 0.0
1044.7970432432408 165.56801488890352 602.6512214012246 -76.42216950910424 0.0 0.0
1096.0278701748641 190.73933816772302 640.9871297281982 -71.52842906979339 0.0 0.0
1147.4984106057466 218.78277975370494 680.7808042445273 -64.43165475747149 0.0 0.0
1195.7495192608148 247.24318987762572 719.066507175931 -52.51967119222873 0.0 0.0
1231.5957549102504 268.67540081100753 747.5647219074908 -32.055177613566656 0.0 0.0
1231.5957549108805 268.67540081166555 747.564721907912 32.05517761364221 0.0 0.0
1195.749519261621 247.24318987851606 719.0665071764645 52.51967119243987 0.0 0.0
1147.4984106059146 218.7827797539778 680.7808042446628 64.43165475765926 0.0 0.0
1096.0278701752031 190.7393381681664 640.9871297284052 71.52842906991502 0.0 0.0
1044.7970432428208 165.56801488860773 602.6512214009083 76.42216950918626 0.0 0.0
993.0941416230753 142.48764375713975 565.0564090510481 79.88547615244093 0.0 0.0
941.816986749517 120.75920225458657 528.2572320573894 82.45030432491401 0.0 0.0
891.0499730886077 100.03515565394851 492.0009864363824 84.69893722877842 0.0 0.0
839.9141063824783 80.54892817578148 455.7569338224698 86.89290809891 0.0 0.0
787.7145409495773 61.719599606329 418.3421127025069 89.03667502561765 0.0 0.0
732.73035416516 43.321615342898106 377.4672385878463 90.13102824988178 0.0 0.0
673.6616587235383 25.810654252829124 330.0955139078958 89.77747033243213 0.0 0.0
608.5576696041064 10.195715229237798 272.3645670611739 88.81688787217618 0.0 0.0
532.1260952692016 -4.899720597632502 202.17038017494275 90.8582492476404 0.0 0.0
439.5907791025122 -12.086170304312544 138.57639259644455 98.47202532784425 0.0 0.0
340.76587987817175 -3.8990536595527026 101.32631105423009 100.75000680631436 0.0 0.0
255.45015751647023 9.97970985421394 79.62868246354476 92.19617880231483 0.0 0.0
162.17374178023283 23.65203111364911 55.747731868164564 87.74331459475533 0.0 0.0
49.7412381347785 -28.232997105947852 6.452472308649195 117.71223338043522 0.0 0.0
-9.203657052224784 -492.17085162822303 -219.6153609719118 162.98953879188514 0.0 0.0
-5.65010599166628 -458.28512309442857 -189.91196420272973 -159.90855252760625 0.0 0.0
27.628661726655736 -33.980157260743916 -1.9054486602264538 -142.98091306876998 0.0 0.0
117.21053235222165 18.574955945860218 40.73564648942455 -113.25789377864207 0.0 0.0
202.223026589854 12.096042856885123 64.29572083402174 -112.90565305620815 0.0 0.0
281.4012599018063 -0.4975013321118562 84.22694542743511 -121.882549757699 0.0 0.0
371.957465624972 -9.981036439493456 112.7636166386379 -124.58260218335317 0.0 0.0
473.96007885959125 -6.841828855143735 166.45565779910504 -116.93490503965535 0.0 0.0
561.0417138953326 5.957821117151507 235.37846172064243 -110.40233162045479 0.0 0.0
631.1099550203616 21.20825487981085 298.08142036341616 -108.90243120640264 0.0 0.0
689.4892552400166 36.05854201934426 347.2382143964427 -108.24874736134112 0.0 0.0
741.5956247695501 50.83970314627208 387.1344304468087 -106.54968996855493 0.0 0.0
790.3542290961329 66.08028811564226 422.26488161514953 -103.99420038654348 0.0 0.0
837.1255045259315 81.75522322841834 455.04789657275387 -101.41186303339664 0.0 0.0
883.0835835177064 97.87842280425937 486.93180651195274 -98.95066826913867 0.0 0.0
929.1846833486379 114.62391573843931 518.8056679894169 -96.12507600826945 0.0 0.0
974.9881291620742 132.58865285530553 550.9668141328473 -92.16590153110613 0.0 0.0
1020.6289413250569 151.17395966887196 583.29297602761 -86.86496477131672 0.0 0.0
1065.9634881792172 171.7130855328158 616.3303169117439 -79.00200938463401 0.0 0.0
1110.4595953519033 194.3068139365389 649.8239616130801 -64.90562585412998 0.0 0.0
1147.832030966613 213.615976709125 677.9848552673316 -39.844655790399514 0.0 0.0
1147.8320309674905 213.61597671005848 677.9848552679736 39.844655790602516 0.0 0.0
1110.4595953533344 194.3068139380879 649.8239616140554 64.90562585436271 0.0 0.0
1065.9634881802324 171.71308553398046 616.3303169123965 79.0020093848955 0.0 0.0
1020.6289413250078 151.17395966895089 583.2929760275279 86.8649647714482 0.0 0.0
974.988129161169 132.58865285445134 550.9668141322178 92.16590153107725 0.0 0.0
929.1846833491446 114.62391573911799 518.8056679897229 96.12507600841693 0.0 0.0
883.0835835172232 97.8784228039345 486.93180651163584 98.95066826923511 0.0 0.0
837.1255045254447 81.75522322800003 455.0478965723396 101.41186303330421 0.0 0.0
790.35422909594 66.08028811563963 422.2648816149957 103.994200386552 0.0 0.0
741.5956247694216 50.83970314632205 387.13443044667446 106.54968996853592 0.0 0.0
689.4892552398801 36.05854201939184 347.23821439627056 108.24874736125861 0.0 0.0
631.1099550201777 21.20825487988556 298.0814203631988 108.90243120638976 0.0 0.0
561.0417138953819 5.957821117599153 235.37846172058224 110.40233162049014 0.0 0.0
473.9600788591331 -6.841828855189636 166.45565779880445 116.93490503970173 0.0 0.0
371.9574656244463 -9.98103643969748 112.76361663840316 124.58260218330025 0.0 0.0
281.4012599013661 -0.4975013326559088 84.22694542714265 121.88254975754622 0.0 0.0
202.22302658972 12.096042856864305 64.2957208339753 112.90565305602453 0.0 0.0
117.21053235214745 18.57495594577962 40.73564648937812 113.25789377847126 0.0 0.0
27.62866172672326 -33.98015726061128 -1.9054486601664058 142.98091306856503 0.0 0.0
-5.6501059916188865 -458.2851230941314 -189.911964202465 159.9085525275248 0.0 0.0
-0.0006844306139868195 -418.8777738402784 -157.5294665796796 -156.37172236828934 0.0 0.0
10.774855414659234 -39.424869317030726 -8.595004170711446 -160.5656622953012 0.0 0.0
77.39826726354023 13.481362074892512 27.263888801529824 -134.42837760792412 0.0 0.0
149.88058941211546 13.869270972744449 49.124958115457964 -131.80403227464055 0.0 0.0
218.6316247327626 1.8382984938310198 66.14679622620568 -140.91987874880184 0.0 0.0
297.3812318630447 -6.2735840017755855 88.51775713172285 -148.45901211538632 0.0 0.0
397.7661705699836 -7.101571489719696 129.21839072246803 -145.0117647242443 0.0 0.0
495.3830863280365 2.0221087969832237 190.6584769910399 -135.22424140612756 0.0 0.0
574.468380517108 15.25018198065748 255.11300227612548 -129.15635142240913 0.0 0.0
636.4310586045109 28.540670295918023 308.5667860979789 -126.22944848232092 0.0 0.0
686.5599141571939 39.635044741450784 348.8685631169534 -123.59605478652422 0.0 0.0
732.318869851809 51.48063514427146 382.9587615070958 -120.6153262334048 0.0 0.0
775.0032263057631 63.25717432935938 413.029182129858 -117.72214291987041 0.0 0.0
816.0494859422055 75.25875076813288 441.1232468043099 -115.04685168832049 0.0 0.0
856.2820548407915 86.86160154323353 467.858352766285 -112.13647109324535 0.0 0.0
897.442662258444 99.67396658424937 495.2880632154645 -107.94604843821793 0.0 0.0
937.0191158052114 112.07066192446288 521.5953752312535 -102.02338970222284 0.0 0.0
974.9465903740492 124.0656528116317 546.7745144297332 -93.7871777158717 0.0 0.0
1015.1251835552027 138.55164785051068 574.1104222316014 -78.55680385311213 0.0 0.0
1055.7324233123911 155.69494529590906 602.7425659794769 -49.65902075096603 0.0 0.0
1055.7324233123404 155.69494529593283 602.742565979484 49.65902075123469 0.0 0.0
1015.1251835542149 138.55164784957967 574.1104222310147 78.55680385330581 0.0 0.0
974.9465903735404 124.06565281125714 546.7745144293995 93.78717771614689 0.0 0.0
937.01911580411 112.07066192342168 521.5953752304467 102.02338970224326 0.0 0.0
897.442662257122 99.67396658296389 495.28806321446984 107.94604843818931 0.0 0.0
856.2820548404719 86.8616015430207 467.8583527660559 112.13647109328699 0.0 0.0
816.0494859422763 75.25875076833645 441.1232468043601 115.04685168833618 0.0 0.0
775.0032263053014 63.257174328985 413.0291821295309 117.72214291982743 0.0 0.0
732.318869851588 51.4806351441714 382.95876150688906 120.61532623337067 0.0 0.0
686.5599141569733 39.635044741479604 348.8685631167691 123.59605478657744 0.0 0.0
636.4310586042287 28.540670295718485 308.5667860976552 126.22944848209292 0.0 0.0
574.4683805167119 15.250181980501743 255.11300227579582 129.15635142238756 0.0 0.0
495.3830863277958 2.0221087971837903 190.65847699085137 135.22424140621018 0.0 0.0
397.7661705694379 -7.101571489826064 129.21839072219018 145.0117647242234 0.0 0.0
297.3812318628123 -6.273584001737071 88.51775713165298 148.4590121151385 0.0 0.0
218.6316247326946 1.8382984942200835 66.14679622630787 140.91987874861752 0.0 0.0
149.88058941220515 13.869270973124493 49.124958115598886 131.8040322745082 0.0 0.0
77.39826726351461 13.481362075003531 27.26388880155544 134.42837760772554 0.0 0.0
10.774855414711544 -39.4248693168375 -8.595004170637788 160.56566229517736 0.0 0.0
-0.0006844305286790586 -418.87777383990476 -157.529466579403 156.37172236819296 0.0 0.0
3.3287794385567153 -375.54100836241787 -127.5321624415545 -152.8991771628673 0.0 0.0
-5.385669710866389 -44.83356994764014 -15.065743203311946 -170.9364140942157 0.0 0.0
41.28732875685176 9.424716540431016 15.21361358918483 -151.2097490851042 0.0 0.0
98.9711469504606 15.163404486551073 34.23870866835635 -147.80135224590924 0.0 0.0
154.26177731155872 4.443720460173078 47.6056046381064 -156.99345650463317 0.0 0.0
215.1443770063898 -3.061111309731526 64.17281984227425 -167.87749953578844 0.0 0.0
298.9312485041867 -4.605352774813252 92.42447765802893 -171.76533392087563 0.0 0.0
402.6525457927924 -0.3156175139290083 139.74610858099064 -163.84302562856925 0.0 0.0
493.9396605299572 8.616892864930595 198.42229991991053 -152.81190938563574 0.0 0.0
563.3906337476071 19.952367567924174 254.41862726002716 -145.0501455739553 0.0 0.0
616.4253959546808 28.019380311765758 297.83737020619424 -140.79274374141016 0.0 0.0
659.5262418761647 36.364274284111445 332.2540519078453 -136.90820566918734 0.0 0.0
698.599292861365 44.82571717170093 361.4407086113707 -133.66068912035766 0.0 0.0
734.972660537011 52.65564822392227 386.82650358839703 -130.8485399066591 0.0 0.0
770.0872989779255 59.7208754646546 409.81514620354955 -128.02449375220343 0.0 0.0
805.062224247253 66.53586445744337 431.67535810162343 -123.78795218394512 0.0 0.0
840.7706572654872 73.7566711469812 453.6390991837642 -117.28395839568107 0.0 0.0
871.8328631090208 77.40150975636794 471.4707685367782 -108.4765492482673 0.0 0.0
903.0875880805295 79.63167294670235 488.4276814461634 -93.39202271270942 0.0 0.0
947.4051099052325 92.77982936175707 516.7962225715987 -62.49281365356733 0.0 0.0
947.4051099048045 92.77982936136573 516.7962225713225 62.49281365376939 0.0 0.0
903.0875880806412 79.63167294698766 488.427681446268 93.39202271307914 0.0 0.0
871.8328631089659 77.40150975653074 471.4707685367624 108.47654924853842 0.0 0.0
840.7706572649298 73.75667114645032 453.63909918333445 117.28395839572698 0.0 0.0
805.0622242472245 66.53586445762079 431.67535810157585 123.7879521841172 0.0 0.0
770.0872989775795 59.72087546454415 409.8151462032889 128.02449375235938 0.0 0.0
734.9726605365981 52.655648223595875 386.82650358807825 130.84853990670717 0.0 0.0
698.5992928614115 44.825717172033976 361.4407086114089 133.66068912053234 0.0 0.0
659.526241875662 36.364274283710714 332.25405190743777 136.90820566918282 0.0 0.0
616.4253959546899 28.019380312059468 297.83737020613495 140.792743741445 0.0 0.0
563.3906337471695 19.9523675675712 254.41862725962443 145.05014557378502 0.0 0.0
493.9396605296578 8.616892864932318 198.4222999196673 152.81190938566766 0.0 0.0
402.65254579246135 -0.3156175137925956 139.74610858082448 163.8430256285813 0.0 0.0
298.93124850369395 -4.605352774897904 92.42447765782927 171.7653339207724 0.0 0.0
215.1443770060217 -3.061111310131995 64.17281984204365 167.87749953559552 0.0 0.0
154.26177731127808 4.443720459927376 47.605604637952695 156.9934565044337 0.0 0.0
98.97114695042339 15.163404486550286 34.23870866834577 147.80135224569824 0.0 0.0
41.28732875679358 9.424716540430481 15.213613589167215 151.20974908482026 0.0 0.0
-5.385669710889222 -44.833569947606534 -15.065743203308845 170.93641409402017 0.0 0.0
3.3287794385603604 -375.5410083620897 -127.53216244136756 152.8991771627637 0.0 0.0
-1.328298515234902 -329.25068311291614 -104.85526133215194 -147.09273773031566 0.0 0.0
-22.785105438777755 -50.66815327124449 -22.03473732348861 -177.30980325032417 0.0 0.0
8.014115132164855 6.938140384274363 4.485380813074786 -163.53679669859667 0.0 0.0
49.584856183125545 15.931949600367918 19.653928011547606 -160.28812029301943 0.0 0.0
88.9748407881001 7.834874603520004 29.048280968783814 -168.75098303386125 0.0 0.0
129.58353629128726 -0.12391688788468547 39.06559149532217 -182.71311488035968 0.0 0.0
182.96643806452485 -2.242402753684906 55.780315312896846 -192.08140839014737 0.0 0.0
263.77813348376003 0.6584871609390719 84.95477717461054 -191.45806073010982 0.0 0.0
363.4323490595973 4.423779576963197 127.40828755191413 -181.87573590278652 0.0 0.0
447.3342101597484 9.939020846053328 175.7378867319509 -168.13569885400662 0.0 0.0
508.19656703363137 16.46438143857777 220.33684758706846 -159.13264284300516 0.0 0.0
552.7782991886957 20.685617194587216 255.72021869344775 -153.79038099525263 0.0 0.0
590.0283239538949 25.965081705221927 286.03926130636876 -149.71099019145072 0.0 0.0
622.6256987246285 30.325931450152694 311.49137468962 -146.49193224982173 0.0 0.0
652.2929940120924 32.941603738973406 332.618422917934 -143.58551159335673 0.0 0.0
681.1107037876276 33.82412477015586 350.64064786266965 -139.70657426863747 0.0 0.0
712.5807289663753 34.51592733520761 368.20756381468954 -133.07483956338487 0.0 0.0
744.7868465344226 34.38220964538591 385.2189751617501 -122.88435527174 0.0 0.0
764.5860282256789 19.482551954018376 388.95545792876453 -108.5229745739739 0.0 0.0
808.6932169317106 19.91613719614986 410.6594574700858 -79.75058139565547 0.0 0.0
808.6932169312173 19.91613719564512 410.6594574697532 79.75058139578759 0.0 0.0
764.5860282250122 19.482551953492134 388.95545792837964 108.52297457430788 0.0 0.0
744.7868465338564 34.38220964490972 385.218975161367 122.88435527195836 0.0 0.0
712.5807289654118 34.51592733431144 368.2075638140259 133.07483956351928 0.0 0.0
681.1107037871593 33.824124769791325 350.6406478623676 139.70657426866393 0.0 0.0
652.2929940119625 32.94160373885346 332.61842291782193 143.58551159331824 0.0 0.0
622.6256987246703 30.32593145032847 311.49137468964676 146.49193224985126 0.0 0.0
590.0283239538248 25.96508170519394 286.0392613062526 149.71099019147633 0.0 0.0
552.7782991887711 20.685617195005264 255.7202186934758 153.79038099538752 0.0 0.0
508.1965670332929 16.464381438411976 220.33684758678856 159.13264284296525 0.0 0.0
447.3342101599374 9.93902084665697 175.73788673203248 168.13569885399727 0.0 0.0
363.4323490598119 4.42377957801569 127.4082875522152 181.87573590297413 0.0 0.0
263.77813348325526 0.658487160730644 84.95477717436617 191.45806073009382 0.0 0.0
182.96643806406058 -2.2424027541287987 55.78031531261848 192.0814083900679 0.0 0.0
129.58353629128837 -0.12391688773650333 39.06559149536721 182.71311488018398 0.0 0.0
88.9748407881258 7.834874603859906 29.048280968897004 168.75098303366929 0.0 0.0
49.58485618321744 15.931949600542593 19.653928011627983 160.28812029284478 0.0 0.0
8.0141151321104 6.93814038427535 4.485380813058865 163.53679669838021 0.0 0.0
-22.78510543880259 -50.66815327127263 -22.034737323505023 177.30980325014608 0.0 0.0
-1.3282985152560656 -329.2506831125845 -104.85526133201391 147.0927377301269 0.0 0.0
-10.509165983483836 -281.6812467301057 -88.37039457172045 -137.82447898134484 0.0 0.0
-39.30039805746402 -55.41369162287104 -28.411478664045124 -180.7767483779868 0.0 0.0
-23.22665106094335 5.350321654233369 -5.362746197106173 -171.75202887939315 0.0 0.0
1.79063126511128 16.48228618249092 5.481645528411655 -168.69190044175915 0.0 0.0
23.677605191189468 11.174328131896333 10.453705426490686 -176.11797421740806 0.0 0.0
41.643574870428424 3.8277536038070625 13.719090239141591 -190.39359714030928 0.0 0.0
61.119595989077254 0.07380005910717813 18.845591293021904 -203.36224823687763 0.0 0.0
89.27241827240786 0.10352732818949217 28.17011606740973 -209.72695742452765 0.0 0.0
131.36765975034595 2.201724206466391 43.22078852117396 -204.395581907173 0.0 0.0
186.20926582956469 4.082065367183258 63.19696627957644 -194.05467410225694 0.0 0.0
244.57837569151351 6.302402386982706 87.10011990569933 -181.21860368668996 0.0 0.0
291.75204278103973 6.92813695566047 110.81404184744993 -172.7149856893215 0.0 0.0
334.10044502474284 9.656170369699701 136.2780741597877 -167.33645866882588 0.0 0.0
374.1973358039011 8.94129213246623 161.20582460300878 -163.13207351144428 0.0 0.0
404.9326422698849 7.08910141744127 182.47579405417008 -158.74323620399556 0.0 0.0
434.96524465659746 1.769527003926541 201.3613924140528 -154.86716123827077 0.0 0.0
471.0182018384902 -5.408013102204748 220.2122634813893 -149.05339796484984 0.0 0.0
517.048107891132 -11.12649180571833 243.5905599847379 -139.03796901664253 0.0 0.0
560.0546598169452 -26.64844981652189 261.8881809564691 -121.34607676125839 0.0 0.0
584.1858302129208 -77.75711062720282 250.0454570458518 -99.73733783331063 0.0 0.0
584.1858302135046 -77.75711062656123 250.04545704624246 99.73733783348464 0.0 0.0
560.0546598178075 -26.648449815409066 261.8881809570543 121.3460767616643 0.0 0.0
517.0481078912597 -11.126491805309627 243.59055998490106 139.0379690169823 0.0 0.0
471.01820183887 -5.408013101608631 220.21226348167585 149.05339796500593 0.0 0.0
434.96524465633485 1.7695270036495998 201.36139241386397 154.86716123827995 0.0 0.0
404.9326422693492 7.089101416807949 182.47579405379162 158.74323620402717 0.0 0.0
374.19733580342796 8.941292131650727 161.20582460260434 163.13207351146158 0.0 0.0
334.1004450248137 9.656170369767054 136.2780741598019 167.3364586689678 0.0 0.0
291.7520427810097 6.928136955533979 110.81404184735653 172.71498568927456 0.0 0.0
244.57837569155166 6.302402387147797 87.10011990572512 181.21860368664306 0.0 0.0
186.2092658294481 4.082065367044514 63.1969662794918 194.05467410215638 0.0 0.0
131.3676597502355 2.2017242062920275 43.22078852107708 204.39558190717554 0.0 0.0
89.27241827229604 0.10352732810834908 28.170116067345962 209.72695742446717 0.0 0.0
61.11959598916975 0.07380005944856194 18.845591293150054 203.3622482367272 0.0 0.0
41.643574870476066 3.827753603775888 13.719090239145942 190.39359714007176 0.0 0.0
23.677605191247892 11.174328132019236 10.453705426545284 176.11797421718518 0.0 0.0
1.7906312651944019 16.482286182562557 5.481645528458124 168.6919004415927 0.0 0.0
-23.22665106088173 5.350321654417359 -5.362746197032597 171.75202887922583 0.0 0.0
-39.30039805739098 -55.413691622692475 -28.41147866397061 180.77674837793083 0.0 0.0
-10.509165983549245 -281.6812467297949 -88.3703945716483 137.82447898120367 0.0 0.0
-20.188508737193853 -235.70413533097525 -76.75738593716618 -126.47364253907274 0.0 0.0
-52.947307549298166 -56.55821920773579 -32.849423098220285 -180.3626046413526 0.0 0.0
-52.71537646276758 3.8222816172191827 -14.667400640059693 -176.0543804330758 0.0 0.0
-44.41328635671213 16.880648447989817 -8.259213738898456 -172.7858474540148 0.0 0.0
-41.00804880633965 14.190082640654824 -8.04090946879548 -178.43283642520592 0.0 0.0
-46.64691873576433 7.905755720579063 -11.700147369794621 -191.34794868202042 0.0 0.0
-62.27799922046492 2.871122115412172 -18.315224719081968 -203.4743707288437 0.0 0.0
-89.25319696126931 0.32315135913091275 -28.03637166222657 -209.83157616468793 0.0 0.0
-131.0944348374446 -2.1932895652702022 -43.12766714934597 -204.40144007740497 0.0 0.0
-186.0883109865053 -4.318348427606438 -63.2269624314317 -194.0082409860838 0.0 0.0
-244.85885914229536 -5.635596208376825 -86.67163687393051 -181.21012047022367 0.0 0.0
-292.71889215597406 -6.068748339418349 -110.86566570691001 -172.41321884978726 0.0 0.0
-337.1199834301365 -8.378494343015483 -137.0836626470047 -166.85820774561492 0.0 0.0
-379.4740508649799 -10.068049834540872 -163.9072805145645 -162.73045485987618 0.0 0.0
-409.7579606840127 -16.23152453974707 -188.49840629963307 -159.83318599288572 0.0 0.0
-428.2575024668725 -26.362883447828963 -209.78629481674696 -159.746330878058 0.0 0.0
-424.6424328174044 -38.944479115232895 -222.29303680329247 -161.5637862156447 0.0 0.0
-371.02422394024444 -40.9645084106094 -213.99759372164291 -163.32998793788454 0.0 0.0
-197.34696681610586 -35.36717022202234 -140.6954490201339 -164.7517624506571 0.0 0.0
25.72765428883254 -168.33655774207426 -60.991380504571765 -129.2230591516352 0.0 0.0
25.727654289310436 -168.33655774123022 -60.991380504208024 129.2230591520117 0.0 0.0
-197.34696681583986 -35.367170221329815 -140.6954490198363 164.75176245107116 0.0 0.0
-371.0242239403275 -40.96450841074051 -213.99759372164382 163.3299879381301 0.0 0.0
-424.6424328176869 -38.944479115858144 -222.29303680349548 161.563786215783 0.0 0.0
-428.2575024666829 -26.362883447697925 -209.78629481659684 159.74633087799901 0.0 0.0
-409.75796068396824 -16.23152453993896 -188.49840629960383 159.83318599290442 0.0 0.0
-379.47405086464425 -10.068049834650083 -163.9072805144094 162.730454859983 0.0 0.0
-337.11998342965194 -8.378494343052644 -137.0836626467652 166.8582077456784 0.0 0.0
-292.7188921554001 -6.068748339439509 -110.865665706637 172.41321884978274 0.0 0.0
-244.85885914181583 -5.635596208601701 -86.67163687377575 181.21012047021014 0.0 0.0
-186.0883109860326 -4.318348427941498 -63.22696243136803 194.00824098602044 0.0 0.0
-131.09443483715384 -2.193289565690792 -43.12766714936879 204.40144007741344 0.0 0.0
-89.2531969612138 0.3231513586498247 -28.036371662349175 209.83157616471243 0.0 0.0
-62.27799922035733 2.871122115448877 -18.31522471903199 203.47437072867035 0.0 0.0
-46.64691873562064 7.905755720546499 -11.70014736976004 191.347948681813 0.0 0.0
-41.00804880622144 14.190082640723634 -8.040909468739644 178.43283642497013 0.0 0.0
-44.41328635668659 16.880648447937798 -8.259213738906663 172.78584745379334 0.0 0.0
-52.71537646266376 3.8222816172491 -14.667400640019954 176.05438043286114 0.0 0.0
-52.9473075493059 -56.558219207732364 -32.84942309822293 180.36260464119263 0.0 0.0
-20.188508737170803 -235.70413533072346 -76.75738593708707 126.47364253893473 0.0 0.0
-24.17105825656533 -191.937541115823 -64.83257981171649 -113.80600557902277 0.0 0.0
-64.22451686542985 -54.87450104994103 -35.729350659184576 -176.081456087938 0.0 0.0
-80.26522234866222 2.5429582592838402 -23.31645460737421 -176.19276193263195 0.0 0.0
-89.0870248862402 16.887549057163866 -21.654109718275215 -172.54472835481158 0.0 0.0
-104.32618000216544 16.63174724137159 -26.322519630970312 -175.4776179267373 0.0 0.0
-133.6535982837953 11.203880559516724 -37.09446570323517 -185.0334075506827 0.0 0.0
-183.90649675966915 5.102208916645347 -55.227979729234235 -193.00359159963133 0.0 0.0
-263.6644832146064 -0.28782400993393864 -84.82225151651609 -191.6448182591705 0.0 0.0
-363.18094558073585 -4.505861681835189 -127.33580630719793 -181.88774910072414 0.0 0.0
-447.1613223676362 -9.895830768419465 -175.6267245850015 -168.083312866278 0.0 0.0
-507.9054712335694 -16.020764002556852 -220.0597438818849 -158.99088114339935 0.0 0.0
-552.6577787017575 -19.78183028131219 -255.35611242530683 -153.38851765451528 0.0 0.0
-590.4229667955472 -24.795410391288208 -285.7774971859893 -148.80990764866957 0.0 0.0
-625.1738212120347 -31.32072171442735 -313.09247796618104 -145.66661577858028 0.0 0.0
-658.6034814657053 -40.97539749943155 -339.1968750412526 -144.80463343736332 0.0 0.0
-689.534229326289 -54.44914773630724 -364.31325555971296 -146.92382161907761 0.0 0.0
-715.0095056007017 -71.55889742426558 -387.7517275298918 -153.0085107445138 0.0 0.0
-729.5829292295793 -89.24129252840902 -406.05418724838927 -162.86913427698624 0.0 0.0
-766.136870619122 -144.17122841088127 -451.4191057404446 -172.29437481141414 0.0 0.0
-742.1001630734288 -210.85919878523936 -470.67791561521267 -183.45198405818655 0.0 0.0
-742.1001630734983 -210.8591987854286 -470.6779156153234 183.4519840584956 0.0 0.0
-766.1368706187869 -144.17122841072802 -451.41910574027474 172.2943748117438 0.0 0.0
-729.582929228982 -89.24129252790044 -406.0541872480077 162.8691342771639 0.0 0.0
-715.0095056001526 -71.5588974237807 -387.75172752951653 153.00851074458976 0.0 0.0
-689.534229326391 -54.44914773655216 -364.3132555597624 146.9238216191128 0.0 0.0
-658.6034814653422 -40.975397499094626 -339.19687504097453 144.80463343728198 0.0 0.0
-625.1738212123182 -31.32072171493237 -313.0924779663492 145.66661577863385 0.0 0.0
-590.4229667959064 -24.79541039205234 -285.77749718624636 148.80990764884146 0.0 0.0
-552.6577787016058 -19.78183028161967 -255.356112425227 153.3885176546157 0.0 0.0
-507.9054712330026 -16.02076400217614 -220.05974388143096 158.99088114325681 0.0 0.0
-447.16132236721097 -9.895830768499824 -175.62672458469407 168.08331286627248 0.0 0.0
-363.1809455801894 -4.505861681988197 -127.33580630698069 181.88774910081537 0.0 0.0
-263.66448321388714 -0.28782400958661203 -84.82225151616711 191.64481825920996 0.0 0.0
-183.90649675919843 5.102208917009735 -55.22797972897294 193.00359159947254 0.0 0.0
-133.6535982834243 11.2038805597752 -37.09446570304588 185.03340755045747 0.0 0.0
-104.32618000200324 16.631747241376885 -26.3225196309227 175.47761792646688 0.0 0.0
-89.08702488611593 16.88754905710408 -21.654109718256443 172.5447283546369 0.0 0.0
-80.26522234854617 2.5429582593085436 -23.31645460733457 176.1927619324578 0.0 0.0
-64.22451686538449 -54.87450104996456 -35.729350659178664 176.08145608777312 0.0 0.0
-24.171058256483466 -191.937541115632 -64.83257981163462 113.80600557888185 0.0 0.0
-25.381169346510156 -151.35920723851476 -53.022112975507454 -100.66693713736909 0.0 0.0
-73.63293405838458 -50.70348392054852 -37.30054253807974 -167.75237512290823 0.0 0.0
-106.04002875542012 1.5034568653682192 -31.35802142639711 -172.11779322798296 0.0 0.0
-132.0263494126083 16.545366085749365 -34.63352341385271 -167.81479084989786 0.0 0.0
-166.05142210529596 17.954616673962914 -44.509119921244675 -167.65657211648244 0.0 0.0
-218.00105090746658 13.11090523811779 -62.171949019115004 -171.76566219660575 0.0 0.0
-299.1715266603848 7.300455457719061 -91.80887113059903 -172.87935815770538 0.0 0.0
-402.28173754261917 0.5166143505156278 -139.5840838262399 -164.16057451779437 0.0 0.0
-493.8329007316875 -8.6716769113598 -198.36129052281268 -152.7694963241381 0.0 0.0
-563.3319812676045 -19.926479585688057 -254.37963261164552 -144.9950380226001 0.0 0.0
-616.2592120011107 -27.718778332222705 -297.6672459827776 -140.67115842369705 0.0 0.0
-659.2769392349668 -35.60917616264607 -331.8388164255046 -136.48038098186916 0.0 0.0
-698.6233744999288 -43.75090093996258 -360.9408244621461 -132.5904675826996 0.0 0.0
-736.6555149019666 -53.10643383029859 -387.74321733564665 -129.5387349613859 0.0 0.0
-775.296839256898 -65.70532318776941 -415.0535373827679 -128.6093479218339 0.0 0.0
-813.8127570521693 -82.89976839881683 -443.8144360249404 -131.05050518267413 0.0 0.0
-849.967767471112 -104.18934961826523 -473.2531036559479 -137.7569546138542 0.0 0.0
-891.227414078127 -138.6942511067819 -511.7781304139919 -145.71991266945503 0.0 0.0
-936.1168447465225 -190.24037636088056 -560.5377472469904 -153.50592227265776 0.0 0.0
-1004.4852800476182 -304.41258366233694 -648.4564862262198 -164.44142493935533 0.0 0.0
-1004.4852800477815 -304.4125836627449 -648.4564862264835 164.44142493964972 0.0 0.0
-936.1168447471998 -190.24037636181882 -560.5377472475095 153.50592227303224 0.0 0.0
-891.2274140781717 -138.6942511071783 -511.77813041405307 145.71991266978478 0.0 0.0
-849.9677674702169 -104.18934961745843 -473.2531036553222 137.75695461393548 0.0 0.0
-813.8127570517051 -82.89976839838609 -443.8144360245875 131.0505051826495 0.0 0.0
-775.2968392566654 -65.70532318769199 -415.0535373826196 128.60934792186328 0.0 0.0
-736.6555149016185 -53.10643383005756 -387.74321733536704 129.53873496140025 0.0 0.0
-698.6233744989536 -43.75090093913456 -360.9408244614708 132.59046758272706 0.0 0.0
-659.2769392341929 -35.60917616205922 -331.8388164249357 136.48038098187035 0.0 0.0
-616.2592120008155 -27.7187783322196 -297.66724598251284 140.67115842372203 0.0 0.0
-563.3319812672302 -19.926479585698537 -254.37963261135098 144.99503802261603 0.0 0.0
-493.83290073086505 -8.671676910842013 -198.3612905222452 152.76949632414232 0.0 0.0
-402.28173754168216 0.5166143510734296 -139.5840838256738 164.16057451782814 0.0 0.0
-299.1715266597952 7.300455457855813 -91.80887113035398 172.87935815763797 0.0 0.0
-218.0010509071614 13.110905237987495 -62.171949019067846 171.7656621964628 0.0 0.0
-166.05142210509277 17.95461667391193 -44.509119921202554 167.65657211635468 0.0 0.0
-132.02634941243144 16.545366085685348 -34.63352341381986 167.8147908497043 0.0 0.0
-106.04002875536551 1.5034568653142508 -31.358021426397734 172.11779322777238 0.0 0.0
-73.63293405829604 -50.70348392053546 -37.30054253804949 167.7523751228174 0.0 0.0
-25.381169346406676 -151.35920723829463 -53.02211297541038 100.66693713730717 0.0 0.0
-25.979113253400993 -114.57988777923187 -42.16770030978985 -87.3036981785749 0.0 0.0
-81.94717955447273 -44.58715511367808 -37.960300400445234 -155.57641093404447 0.0 0.0
-130.15835477494178 0.8253223326710346 -38.7971178002445 -163.74953700889915 0.0 0.0
-173.30811601465393 15.486779035836987 -47.33949170949133 -158.73818796719806 0.0 0.0
-225.43425030669675 17.95418520590608 -62.351207748658794 -154.59530693951518 0.0 0.0
-297.72100399584684 14.616011356321396 -86.64944365441977 -153.0635744489719 0.0 0.0
-396.9429915471741 9.415357947870133 -128.41778696050895 -146.54958896045866 0.0 0.0
-495.0703541865922 -1.8958430041769958 -190.45969635278055 -135.39728604189315 0.0 0.0
-574.4986946203841 -15.348305083555822 -255.1317570512149 -129.07008935858434 0.0 0.0
-636.4150095387743 -28.54266917046494 -308.576529651392 -126.1835998201018 0.0 0.0
-686.4553150066114 -39.4292280441529 -348.75239080403804 -123.50242929777556 0.0 0.0
-732.1502904487879 -50.97669601056461 -382.66887140116853 -120.2048317433607 0.0 0.0
-774.8974252867694 -62.365459980420695 -412.5360059918862 -116.58370335628575 0.0 0.0
-816.7131036194055 -74.94125775983032 -441.21627812455927 -113.4290948953919 0.0 0.0
-859.1496632338772 -90.03340401672986 -470.7031788563074 -112.24129355355268 0.0 0.0
-904.0896553016133 -111.0539452715308 -504.01665771291266 -114.56507201397922 0.0 0.0
-953.1087951180969 -141.57696676466566 -543.9767317039732 -120.44449148971943 0.0 0.0
-1008.2046893746017 -185.60330319836163 -593.9463320100165 -127.40276927391241 0.0 0.0
-1074.3163755160087 -253.20700684044635 -660.8686826969746 -132.70765499742723 0.0 0.0
-1156.8781243502608 -371.7890966181498 -759.6179243096568 -142.17713989278184 0.0 0.0
-1156.8781243501476 -371.78909661822365 -759.6179243096562 142.17713989303942 0.0 0.0
-1074.3163755158366 -253.207006840329 -660.8686826969015 132.70765499753688 0.0 0.0
-1008.2046893741981 -185.60330319811527 -593.9463320098057 127.40276927416463 0.0 0.0
-953.1087951178588 -141.57696676455652 -543.9767317037781 120.44449148982122 0.0 0.0
-904.0896553010018 -111.05394527097238 -504.016657712437 114.5650720139171 0.0 0.0
-859.1496632341386 -90.03340401711363 -470.70317885644266 112.24129355360455 0.0 0.0
-816.7131036199722 -74.94125776062211 -441.2162781249199 113.42909489551796 0.0 0.0
-774.8974252867179 -62.36545998065909 -412.53600599189986 116.58370335645651 0.0 0.0
-732.1502904483783 -50.97669601032342 -382.6688714008822 120.20483174331645 0.0 0.0
-686.455315006284 -39.42922804400653 -348.75239080376974 123.50242929767745 0.0 0.0
-636.4150095378473 -28.542669169713776 -308.57652965071156 126.1835998199866 0.0 0.0
-574.4986946198987 -15.348305083343394 -255.13175705078444 129.0700893585232 0.0 0.0
-495.0703541860565 -1.8958430040745637 -190.45969635237114 135.39728604192612 0.0 0.0
-396.94299154694005 9.415357947462837 -128.4177869604363 146.54958896043377 0.0 0.0
-297.72100399555626 14.616011356048265 -86.64944365440259 153.06357444884534 0.0 0.0
-225.43425030635368 17.954185206009186 -62.351207748529035 154.59530693933291 0.0 0.0
-173.3081160144245 15.48677903590145 -47.33949170940704 158.73818796702312 0.0 0.0
-130.158354774836 0.8253223325417767 -38.7971178002523 163.7495370087405 0.0 0.0
-81.94717955437211 -44.58715511365325 -37.960300400407604 155.57641093394415 0.0 0.0
-25.97911325337137 -114.57988777910937 -42.16770030974421 87.30369817849589 0.0 0.0
-26.598170321710256 -82.06644023816565 -32.59938316796277 -73.65474742411612 0.0 0.0
-89.70965130907696 -37.15130488059107 -38.0582868569004 -139.97173744873822 0.0 0.0
-152.84585061312515 0.5216320368215328 -45.69603331687643 -151.1686750067915 0.0 0.0
-212.99856283777746 13.766086538159136 -59.74818328945142 -145.24656774207875 0.0 0.0
-282.3830526033606 17.194721000457506 -79.57492688210587 -137.62928029310086 0.0 0.0
-371.10825685532893 16.255926167135065 -111.15252231138584 -129.75732514878854 0.0 0.0
-472.5710103644519 8.602507027299836 -165.51723425451522 -118.06639435327125 0.0 0.0
-560.9260710421304 -5.942580882215125 -235.24895977342084 -110.3992015087079 0.0 0.0
-631.245777610178 -21.35522557763288 -298.1946149342609 -108.80000826431235 0.0 0.0
-689.5099445383009 -36.05580508433638 -347.26455055751626 -108.22753801054613 0.0 0.0
-741.5602720703478 -50.7263746600329 -387.07992312087003 -106.46518916245199 0.0 0.0
-790.3494747635573 -65.86665332406008 -422.17485112637445 -103.61498822883897 0.0 0.0
-836.9967193883588 -81.15750366178052 -454.6932557576938 -100.34202633742971 0.0 0.0
-882.527686790997 -96.71121123387769 -486.0645763888683 -97.3254722493606 0.0 0.0
-928.9956055348962 -114.45840178649193 -518.5739177839257 -95.83179858796136 0.0 0.0
-979.9996104029293 -140.0149828363758 -556.9370019140385 -97.26031952281375 0.0 0.0
-1040.4261864894631 -178.9817364481657 -606.6240750003249 -102.17750732721186 0.0 0.0
-1110.8173619558374 -235.71818769089094 -670.329370781734 -108.0897203260613 0.0 0.0
-1190.7243440021466 -315.8258871642534 -750.3836743758793 -112.9414221210483 0.0 0.0
-1270.0758552330378 -429.4304937449764 -845.9595898973527 -125.56181857596619 0.0 0.0
-1270.0758552328853 -429.4304937449499 -845.9595898972261 125.56181857622576 0.0 0.0
-1190.724344001651 -315.8258871639133 -750.3836743754746 112.94142212130251 0.0 0.0
-1110.8173619560869 -235.71818769127066 -670.329370781822 108.08972032625242 0.0 0.0
-1040.4261864901453 -178.9817364490214 -606.6240750007523 102.17750732738989 0.0 0.0
-979.9996104023267 -140.01498283587296 -556.9370019135433 97.26031952283066 0.0 0.0
-928.9956055341916 -114.45840178588304 -518.5739177833727 95.83179858794693 0.0 0.0
-882.5276867902983 -96.71121123325682 -486.0645763883638 97.32547224928388 0.0 0.0
-836.9967193876889 -81.15750366128836 -454.6932557571874 100.34202633750208 0.0 0.0
-790.3494747638052 -65.86665332457471 -422.17485112648876 103.61498822892193 0.0 0.0
-741.5602720702719 -50.72637466018634 -387.0799231207935 106.46518916240782 0.0 0.0
-689.5099445380317 -36.05580508429798 -347.2645505572976 108.2275380104644 0.0 0.0
-631.24577760992 -21.35522557766218 -298.19461493401747 108.80000826429537 0.0 0.0
-560.9260710416979 -5.942580882157699 -235.2489597730439 110.3992015087259 0.0 0.0
-472.5710103637989 8.602507027530322 -165.51723425407678 118.06639435330018 0.0 0.0
-371.1082568546497 16.25592616741475 -111.15252231107482 129.7573251487525 0.0 0.0
-282.3830526030539 17.194721000311134 -79.57492688206501 137.62928029302134 0.0 0.0
-212.9985628375458 13.766086538212036 -59.7481832893682 145.24656774193448 0.0 0.0
-152.84585061293413 0.5216320368151548 -45.69603331682163 151.1686750066102 0.0 0.0
-89.70965130898433 -37.15130488060629 -38.05828685687718 139.97173744864216 0.0 0.0
-26.598170321664153 -82.06644023810435 -32.59938316793054 73.65474742405632 0.0 0.0
-27.30912388982461 -54.24665115095291 -24.46673251223325 -59.59074061812491 0.0 0.0
-97.00948702675913 -28.957080817003046 -37.789970353128645 -121.33006313049297 0.0 0.0
-174.33609672666762 0.5267535341065432 -52.142802957768325 -134.4996704549389 0.0 0.0
-250.8272387816197 11.059577377094945 -71.91980701725369 -127.40370154706773 0.0 0.0
-334.6354637400325 16.797886495903096 -95.93191142742644 -116.82976776167966 0.0 0.0
-435.2358205960679 16.393155055982525 -136.72162750828636 -103.71574101630189 0.0 0.0
-530.8976738935869 6.183293415920044 -201.25772076561572 -91.58647719128551 0.0 0.0
-608.699361646813 -10.3411526470234 -272.4210131235337 -88.60932164580313 0.0 0.0
-673.8182170918053 -25.952043268649987 -330.24168516879257 -89.70578858333924 0.0 0.0
-732.7507582327133 -43.31370754710695 -377.48428356994793 -90.1248667039506 0.0 0.0
-787.7452602841213 -61.68736444236212 -418.3468295213444 -88.94858642829941 0.0 0.0
-840.0510312496201 -80.5787480729845 -455.84358087967746 -86.55031923005808 0.0 0.0
-890.9208966717385 -99.73888382968761 -491.8045603612311 -83.83424412028333 0.0 0.0
-940.265559215324 -119.00248285754788 -526.6456781090756 -81.10996210578381 0.0 0.0
-990.3162477522147 -139.60557372050022 -562.2404667013502 -79.21679806471133 0.0 0.0
-1047.3054862882664 -168.86771329303465 -605.3590649718145 -79.46719872268577 0.0 0.0
-1117.229590638629 -216.05278731643634 -663.740728435065 -82.89429828268754 0.0 0.0
-1201.4660491450945 -285.4915981235497 -740.5435013288302 -88.42412509435628 0.0 0.0
-1290.5073619277373 -374.4980784225007 -829.6641709392366 -95.1572665376743 0.0 0.0
-1368.172450996684 -485.2527932800705 -923.5554466781716 -112.85456623304117 0.0 0.0
-1368.1724509966948 -485.25279328015245 -923.5554466783126 112.85456623318841 0.0 0.0
-1290.5073619277498 -374.49807842258235 -829.664170939325 95.15726653781549 0.0 0.0
-1201.466049144808 -285.4915981233761 -740.5435013285946 88.42412509453587 0.0 0.0
-1117.2295906373756 -216.0527873152487 -663.7407284340755 82.89429828273413 0.0 0.0
-1047.305486288003 -168.86771329285094 -605.3590649715915 79.46719872265083 0.0 0.0
-990.3162477515772 -139.6055737199565 -562.2404667008948 79.21679806468057 0.0 0.0
-940.2655592146699 -119.00248285698214 -526.6456781085844 81.10996210572034 0.0 0.0
-890.9208966710931 -99.73888382918638 -491.8045603607948 83.83424412025624 0.0 0.0
-840.0510312489995 -80.57874807252531 -455.8435808792434 86.55031923002679 0.0 0.0
-787.7452602836875 -61.6873644421449 -418.3468295210109 88.94858642828972 0.0 0.0
-732.750758232341 -43.31370754700613 -377.4842835696446 90.12486670395292 0.0 0.0
-673.8182170913175 -25.952043268418485 -330.24168516837096 89.70578858331632 0.0 0.0
-608.6993616461805 -10.341152646659726 -272.4210131229886 88.60932164573413 0.0 0.0
-530.8976738930704 6.183293416071068 -201.25772076518362 91.58647719126766 0.0 0.0
-435.23582059566195 16.393155055935267 -136.72162750807934 103.715741016252 0.0 0.0
-334.6354637396339 16.797886495783946 -95.93191142735547 116.8297677615823 0.0 0.0
-250.8272387813977 11.059577377034653 -71.91980701720718 127.40370154702009 0.0 0.0
-174.33609672650644 0.5267535341268261 -52.142802957713876 134.4996704548663 0.0 0.0
-97.00948702662568 -28.957080816848254 -37.78997035304218 121.33006313037981 0.0 0.0
-27.309123889773367 -54.24665115090808 -24.46673251220443 59.59074061802883 0.0 0.0
-27.83857611643992 -31.524739037994983 -17.808994546330467 -45.0451624692944 0.0 0.0
-103.50077195747225 -20.50239404458244 -37.2009498006164 -99.98718255373717 0.0 0.0
-194.74116592571158 0.6855862343220602 -58.21667390741685 -113.70353584063173 0.0 0.0
-287.34978980502547 7.633068691896984 -83.91419806179185 -105.8752391201905 0.0 0.0
-385.74708807577287 16.69528124615918 -112.36453483059869 -92.88882595648121 0.0 0.0
-487.55790067201497 15.516241700588317 -162.70195224775298 -76.87542801749576 0.0 0.0
-572.2634239782083 1.7763662574719774 -234.07087412211405 -68.07288676875739 0.0 0.0
-644.2887734927955 -12.851722836130925 -300.85509951041274 -68.78210440846144 0.0 0.0
-708.8815724511215 -30.17486156072814 -355.5853355257846 -70.64888057918895 0.0 0.0
-769.4996642276702 -50.514899279912946 -402.43675695127035 -71.55835092568636 0.0 0.0
-827.4722638948523 -72.25963549841588 -445.0242961941685 -70.84546708032666 0.0 0.0
-883.7977963161507 -95.0209162534924 -485.77942889418875 -68.99277196136315 0.0 0.0
-938.7371127197821 -118.19901406276321 -525.449085463521 -66.84088778284821 0.0 0.0
-993.1894463744688 -141.8466079611494 -564.8793491806928 -64.70913185196265 0.0 0.0
-1047.5882707641981 -166.24213218683133 -604.4894773584751 -62.604703487563754 0.0 0.0
-1107.145645121701 -197.83548606292044 -650.0410105984331 -61.266168799902005 0.0 0.0
-1184.4258783803202 -250.6855252383806 -714.8124495770514 -62.945820013219496 0.0 0.0
-1280.6804715939493 -330.95757784599516 -802.8998219266633 -68.70347888537451 0.0 0.0
-1380.5679056043973 -430.53752434940003 -902.7530895528441 -78.80490564306908 0.0 0.0
-1461.0657957556652 -543.2690085298427 -999.4524656977128 -102.1987767163717 0.0 0.0
-1461.0657957558765 -543.2690085301228 -999.452465697886 102.19877671653423 0.0 0.0
-1380.5679056035347 -430.5375243486034 -902.753089552215 78.80490564316743 0.0 0.0
-1280.6804715925857 -330.9575778446843 -802.8998219255906 68.70347888546894 0.0 0.0
-1184.4258783804023 -250.68552523855658 -714.8124495770217 62.94582001331498 0.0 0.0
-1107.1456451221409 -197.83548606350078 -650.0410105986625 61.26616880002793 0.0 0.0
-1047.5882707638873 -166.2421321866348 -604.489477358213 62.60470348756553 0.0 0.0
-993.1894463741614 -141.84660796097324 -564.8793491804465 64.70913185194894 0.0 0.0
-938.7371127191769 -118.19901406229403 -525.4490854630549 66.84088778279659 0.0 0.0
-883.7977963156142 -95.02091625312413 -485.77942889380813 68.99277196128847 0.0 0.0
-827.472263894267 -72.25963549798828 -445.02429619375124 70.84546708017452 0.0 0.0
-769.4996642274504 -50.514899279934156 -402.43675695109545 71.55835092564058 0.0 0.0
-708.8815724510944 -30.174861561007447 -355.58533552571015 70.64888057925677 0.0 0.0
-644.2887734921192 -12.851722835715506 -300.85509950986653 68.78210440840314 0.0 0.0
-572.2634239773568 1.7763662580686006 -234.07087412144875 68.0728867686819 0.0 0.0
-487.55790067128373 15.51624170102144 -162.70195224727615 76.87542801746714 0.0 0.0
-385.74708807530885 16.695281246082 -112.36453483047544 92.88882595645524 0.0 0.0
-287.3497898048381 7.633068691695024 -83.914198061805 105.87523912012611 0.0 0.0
-194.74116592555708 0.6855862343516752 -58.216673907361624 113.70353584050149 0.0 0.0
-103.50077195741488 -20.502394044594453 -37.20094980060279 99.98718255359412 0.0 0.0
-27.83857611641063 -31.5247390380156 -17.808994546327867 45.04516246919832 0.0 0.0
-27.545393759506382 -14.286264715064075 -12.549497542371135 -30.153361766788176 0.0 0.0
-108.278541660742 -12.203819386551281 -36.14470831418798 -76.11981356880264 0.0 0.0
-214.21329842105223 0.5915312269989457 -64.08653015821598 -88.69474640196401 0.0 0.0
-323.238102380891 4.831626767676566 -95.50783691916176 -80.83162625711697 0.0 0.0
-433.0457361467745 16.850318234209485 -129.32577869522754 -66.31586273430321 0.0 0.0
-529.2089727552893 11.873378527524665 -189.87614997146454 -51.80263638836375 0.0 0.0
-605.5240367101061 -1.4499341215296226 -262.20793744210886 -47.510364532759674 0.0 0.0
-673.2889706172429 -14.87710027584481 -323.4039030808583 -49.159935516554434 0.0 0.0
-738.2515029022003 -34.444525362879844 -376.22051169990596 -51.33197221655951 0.0 0.0
-801.0809781007731 -57.49614131722113 -423.59286359749154 -52.45510358881954 0.0 0.0
-862.4512954331126 -82.59278773300625 -468.6175412121761 -52.145635855336444 0.0 0.0
-922.548129715182 -109.10932895065953 -512.7329552585944 -50.84469229506982 0.0 0.0
-982.2828608587597 -136.38584695662638 -556.6650122280478 -49.366330094026566 0.0 0.0
-1041.667594524849 -165.02651542973098 -600.9409861562083 -47.81730730560105 0.0 0.0
-1101.6155446444145 -194.92382843362589 -646.02318132615 -45.93673188318885 0.0 0.0
-1164.492931615645 -229.0710151894261 -694.5772729153949 -43.47617543919574 0.0 0.0
-1239.6107092430886 -279.0133113814701 -756.806633590784 -42.754033800147184 0.0 0.0
-1346.6591704936902 -368.85003410207173 -854.8281221302907 -48.37880888450984 0.0 0.0
-1463.6263526173477 -484.24336329452456 -971.1390087561656 -62.69441301144151 0.0 0.0
-1557.1922644937113 -608.0407919333842 -1080.2326694407418 -92.35258800309481 0.0 0.0
-1557.1922644934923 -608.0407919332091 -1080.232669440525 92.35258800323231 0.0 0.0
-1463.6263526167422 -484.24336329398454 -971.1390087556002 62.69441301155954 0.0 0.0
-1346.6591704938894 -368.8500341023424 -854.8281221304201 48.378808884606926 0.0 0.0
-1239.6107092433872 -279.0133113818415 -756.8066335909886 42.75403380011716 0.0 0.0
-1164.4929316156008 -229.07101518947943 -694.5772729153193 43.476175439248756 0.0 0.0
-1101.6155446443029 -194.92382843364567 -646.0231813259712 45.93673188324865 0.0 0.0
-1041.667594524782 -165.0265154298338 -600.94098615611 47.81730730573227 0.0 0.0
-982.2828608587862 -136.38584695683008 -556.6650122280289 49.366330094066925 0.0 0.0
-922.5481297144853 -109.10932895015418 -512.7329552580611 50.84469229509817 0.0 0.0
-862.4512954324026 -82.59278773249952 -468.6175412116736 52.145635855310886 0.0 0.0
-801.0809781006792 -57.49614131736148 -423.5928635974139 52.455103588758796 0.0 0.0
-738.2515029012727 -34.444525362171305 -376.22051169928807 51.33197221650819 0.0 0.0
-673.2889706165818 -14.87710027542704 -323.40390308035427 49.15993551647452 0.0 0.0
-605.5240367098323 -1.449934121591852 -262.2079374417982 47.51036453273315 0.0 0.0
-529.2089727550433 11.873378527354399 -189.8761499712363 51.802636388402576 0.0 0.0
-433.0457361463081 16.85031823429452 -129.32577869502273 66.31586273422556 0.0 0.0
-323.2381023805794 4.831626767820032 -95.50783691902883 80.83162625695134 0.0 0.0
-214.21329842087368 0.5915312269778696 -64.08653015816874 88.69474640189355 0.0 0.0
-108.27854166062085 -12.203819386517655 -36.144708314141546 76.1198135687706 0.0 0.0
-27.545393759439996 -14.286264714964327 -12.549497542321294 30.153361766811663 0.0 0.0
-25.1849203669191 -2.844888028004471 -8.40894251847707 -15.42777714337264 0.0 0.0
-109.69965108388068 -4.596311443287689 -34.2887887581505 -49.70502856875238 0.0 0.0
-232.950207552616 0.08305651264722869 -69.86014531199064 -58.95394879060638 0.0 0.0
-360.2164813739371 3.1725580564089455 -107.07236929329676 -52.563328852441444 0.0 0.0
-473.3152573509374 17.52758425690508 -146.90860292076184 -39.44521431029037 0.0 0.0
-558.8605013980028 5.970523172973397 -216.63795678698824 -29.04029269370196 0.0 0.0
-631.1013642958071 -2.62676457249772 -284.14491769834706 -28.20130245155274 0.0 0.0
-697.3785951185649 -17.520165503454848 -341.9869509692587 -29.757551774046107 0.0 0.0
-762.8643051387518 -38.56062494440549 -393.1653693043503 -31.628746631127047 0.0 0.0
-828.2017728845549 -64.21404485202854 -441.7360601807411 -32.74995530686242 0.0 0.0
-893.1757631280842 -92.74540879079458 -489.6907386369662 -32.79990603514522 0.0 0.0
-957.6479310950226 -122.77801420685796 -537.499667432927 -32.13185594262119 0.0 0.0
-1021.6976128137926 -154.61237497974867 -585.741751221982 -31.247159338519833 0.0 0.0
-1086.6531409806514 -188.15052920677795 -635.1687362952648 -30.34062314815646 0.0 0.0
-1153.268446382939 -224.38750335210156 -686.7051192556719 -29.054081621815104 0.0 0.0
-1221.223547164269 -263.882462400619 -740.4954624387785 -26.62285405125768 0.0 0.0
-1291.8784045797388 -309.41966970603244 -798.4763256875706 -23.676487385830264 0.0 0.0
-1381.9107678913956 -380.8839908511842 -878.6126482993693 -26.651819386459074 0.0 0.0
-1542.6774753939267 -537.0629848424512 -1036.8843970165449 -44.596462190873474 0.0 0.0
-1666.9413524649353 -688.1226965257586 -1175.4359605625486 -82.26648616954222 0.0 0.0
-1666.9413524651195 -688.1226965259467 -1175.4359605627164 82.26648616951901 0.0 0.0
-1542.6774753939278 -537.0629848424895 -1036.8843970165253 44.59646219092451 0.0 0.0
-1381.9107678905839 -380.8839908504349 -878.6126482986963 26.65181938658796 0.0 0.0
-1291.8784045781686 -309.41966970452944 -798.4763256862889 23.676487385829503 0.0 0.0
-1221.223547162973 -263.88246239940673 -740.4954624377685 26.622854051239166 0.0 0.0
-1153.2684463815147 -224.38750335077467 -686.7051192546114 29.05408162181235 0.0 0.0
-1086.6531409799543 -188.1505292062322 -635.1687362947118 30.340623148270495 0.0 0.0
-1021.6976128138895 -154.61237498001876 -585.741751221992 31.24715933848939 0.0 0.0
-957.6479310948685 -122.77801420690125 -537.4996674328066 32.13185594263095 0.0 0.0
-893.1757631277742 -92.74540879070393 -489.6907386367109 32.799906035127755 0.0 0.0
-828.2017728843447 -64.21404485204971 -441.73606018050765 32.749955306805454 0.0 0.0
-762.8643051385832 -38.56062494451227 -393.1653693041726 31.62874663119498 0.0 0.0
-697.3785951183108 -17.52016550346553 -341.9869509689959 29.75755177392453 0.0 0.0
-631.101364295602 -2.6267645726109805 -284.14491769807233 28.201302451496836 0.0 0.0
-558.8605013978149 5.97052317279957 -216.63795678675277 29.04029269368955 0.0 0.0
-473.315257350866 17.527584256540408 -146.90860292075374 39.445214310299995 0.0 0.0
-360.21648137367663 3.172558056403795 -107.07236929322508 52.5633288523197 0.0 0.0
-232.95020755241313 0.08305651258778113 -69.86014531194759 58.95394879044839 0.0 0.0
-109.69965108375449 -4.596311443282418 -34.28878875811107 49.70502856863495 0.0 0.0
-25.184920366875666 -2.8448880279378166 -8.408942518444045 15.42777714336837 0.0 0.0
-18.359783869708302 2.6029707534894 -4.727043934865669 -2.0844100457649244 0.0 0.0
-104.98016018428274 1.628183915196427 -31.005592880725892 -20.263640256481445 0.0 0.0
-251.6620006612485 -1.2923593547851802 -75.8863080048101 -23.375466277472455 0.0 0.0
-399.72064051026416 4.500862663273265 -118.78796355236457 -21.360239366330344 0.0 0.0
-508.8318845522381 15.252415035977872 -167.15299796690007 -13.658439584918424 0.0 0.0
-585.9224082759292 2.624399910257033 -240.4165491655879 -9.290756840067168 0.0 0.0
-651.7103437306696 -4.262798871269979 -302.2482053257551 -9.394258348414315 0.0 0.0
-717.224204426665 -20.193959321674328 -357.03392699541473 -10.331326800738918 0.0 0.0
-783.7182740714047 -42.768201594360605 -407.48484835834887 -11.548309555656338 0.0 0.0
-851.6433328407488 -70.77400498243308 -457.59812103299134 -12.42680858178225 0.0 0.0
-920.2543075168786 -102.28409566785024 -508.4546350918383 -12.806837313128275 0.0 0.0
-988.8740831113242 -136.71905296567158 -560.3664756598871 -12.736163135567484 0.0 0.0
-1057.8574339583315 -172.58998317707025 -613.0126115891462 -12.543221837838248 0.0 0.0
-1128.3316412857969 -210.9312366903763 -667.5456837886395 -12.249654676734174 0.0 0.0
-1201.4252036093453 -253.42050999674106 -725.4063759814956 -11.631677206624524 0.0 0.0
-1276.3651918118344 -300.16430908571004 -786.2802934857532 -10.284613470730356 0.0 0.0
-1349.0164380865097 -348.43709798962425 -846.730747274255 -7.616591446952214 0.0 0.0
-1417.579492633848 -398.35480535338553 -905.7129000551543 -5.836330160874785 0.0 0.0
-1514.6877257494077 -486.64392213996183 -997.5543137944369 -19.81157221622466 0.0 0.0
-1861.4143820657166 -851.5375883958723 -1354.3668039787647 -66.34732094451955 0.0 0.0
-1861.4143820654156 -851.5375883956096 -1354.3668039785837 66.34732094460298 0.0 0.0
-1514.6877257488873 -486.6439221394721 -997.5543137939981 19.81157221623075 0.0 0.0
-1417.5794926328906 -398.3548053524849 -905.7129000544415 5.836330160931313 0.0 0.0
-1349.0164380862393 -348.4370979894323 -846.7307472740708 7.616591446976333 0.0 0.0
-1276.3651918116755 -300.16430908565246 -786.2802934856279 10.284613470747136 0.0 0.0
-1201.4252036089788 -253.4205099964952 -725.4063759811783 11.63167720666424 0.0 0.0
-1128.331641285512 -210.9312366902344 -667.5456837883818 12.249654676769193 0.0 0.0
-1057.8574339577676 -172.5899831766736 -613.0126115886678 12.543221837870691 0.0 0.0
-988.8740831106586 -136.7190529652053 -560.3664756593707 12.736163135626214 0.0 0.0
-920.2543075166085 -102.28409566780664 -508.45463509160123 12.806837313160914 0.0 0.0
-851.6433328400378 -70.7740049819476 -457.598121032506 12.426808581761566 0.0 0.0
-783.7182740706214 -42.76820159382504 -407.4848483578107 11.54830955563897 0.0 0.0
-717.2242044258172 -20.193959321068043 -357.03392699483487 10.331326800741799 0.0 0.0
-651.7103437300758 -4.262798870975232 -302.24820532528986 9.39425834840771 0.0 0.0
-585.92240827553 2.624399910384575 -240.416549165221 9.290756840077627 0.0 0.0
-508.8318845519855 15.252415035876746 -167.15299796672696 13.658439584965066 0.0 0.0
-399.7206405099795 4.500862663099423 -118.78796355234039 21.360239366350484 0.0 0.0
-251.6620006609951 -1.2923593547253631 -75.88630800471613 23.37546627751515 0.0 0.0
-104.98016018418483 1.628183915146888 -31.00559288071138 20.263640256554037 0.0 0.0
-18.359783869689387 2.6029707535055127 -4.7270439348551605 2.0844100458332453 0.0 0.0
SCALARS Strain float 6
LOOKUP_TABLE default
0.009546314065787258 -0.010623119838854111 0.0 -0.005774801204482566 0.0 0.0
0.002037537928911171 -0.001070884448786391 0.0 0.000991715483115968 0.0 0.0
0.001725660111351295 -0.0007130988221925039 0.0 -6.611468828454647e-05 0.0 0.0
0.002080910473126007 -0.0009405285689713105 0.0 -0.0001766776146272242 0.0 0.0
0.0029210787010078582 -0.001564486142568433 0.0 -0.0002097007208971824 0.0 0.0
0.0046228113003214805 -0.002981369019371183 0.0 -0.0002914755313788431 0.0 0.0
0.007240320329112492 -0.005327067686098141 0.0 -0.00043582585484111536 0.0 0.0
0.010886151336789432 -0.008698084365057701 0.0 -0.0006443279908998345 0.0 0.0
0.015615036918458326 -0.013147133514158194 0.0 -0.0009219671882194358 0.0 0.0
0.021446336459024804 -0.01868684635258 0.0 -0.0012465911092106319 0.0 0.0
0.028434656846487816 -0.02537322684522003 0.0 -0.0015794071935380793 0.0 0.0
0.036692152813418824 -0.03331931994987314 0.0 -0.001927846728808108 0.0 0.0
0.04634317519306267 -0.042653489693937896 0.0 -0.002301398003023536 0.0 0.0
0.057474406884989684 -0.05345878111080915 0.0 -0.0027015613740443145 0.0 0.0
0.07000842538630328 -0.06565201477669325 0.0 -0.003132426953600387 0.0 0.0
0.08354214523919476 -0.0788310949615223 0.0 -0.003521246973351627 0.0 0.0
0.09727152288954427 -0.09220251794392365 0.0 -0.0036952514823714033 0.0 0.0
0.11003187568593523 -0.10462000218573797 0.0 -0.0034198108385209425 0.0 0.0
0.12042783686104869 -0.1147087032318681 0.0 -0.002704491860240854 0.0 0.0
0.12676578872672645 -0.12069871946490496 0.0 -0.0023712245181383707 0.0 0.0
0.12676578872672045 -0.12069871946489918 0.0 0.002371224518141868 0.0 0.0
0.12042783686102713 -0.11470870323185345 0.0 0.002704491860254732 0.0 0.0
0.11003187568589921 -0.10462000218570422 0.0 0.003419810838527826 0.0 0.0
0.09727152288949997 -0.09220251794387968 0.0 0.003695251482377593 0.0 0.0
0.08354214523914569 -0.07883109496147656 0.0 0.0035212469733444385 0.0 0.0
0.07000842538625424 -0.06565201477664617 0.0 0.0031324269536005533 0.0 0.0
0.0574744068849401 -0.0534587811107623 0.0 0.002701561374044037 0.0 0.0
0.04634317519301273 -0.042653489693892155 0.0 0.0023013980030242576 0.0 0.0
0.036692152813369655 -0.03331931994982562 0.0 0.0019278467288035839 0.0 0.0
0.028434656846443696 -0.025373226845175845 0.0 0.0015794071935368303 0.0 0.0
0.021446336458987608 -0.018686846352545805 0.0 0.0012465911092066628 0.0 0.0
0.015615036918429331 -0.013147133514129328 0.0 0.0009219671882182423 0.0 0.0
0.010886151336767569 -0.008698084365034608 0.0 0.0006443279908982524 0.0 0.0
0.007240320329096883 -0.005327067686082265 0.0 0.0004358258548401994 0.0 0.0
0.004622811300311586 -0.002981369019362412 0.0 0.0002914755313782602 0.0 0.0
0.0029210787010034434 -0.0015644861425663237 0.0 0.00020970072089734892 0.0 0.0
0.0020809104731249473 -0.0009405285689700338 0.0 0.00017667761462608622 0.0 0.0
0.0017256601113510295 -0.0007130988221922818 0.0 6.61146882841579e-05 0.0 0.0
0.002037537928909927 -0.001070884448785392 0.0 -0.0009917154831144137 0.0 0.0
0.009546314065777772 -0.010623119838841334 0.0 0.0057748012044537 0.0 0.0
0.006628081928818277 -0.00806720837178776 0.0 -0.006843868198516817 0.0 0.0
0.0011362456742415074 -0.0005432525507207964 0.0 0.00016681456303194175 0.0 0.0
0.0014848745113591987 -0.0005516571647484758 0.0 -0.00013490851922293157 0.0 0.0
0.0018522316366653031 -0.000813412035867711 0.0 -0.00042637086457250617 0.0 0.0
0.002521523596906893 -0.001267868449086773 0.0 -0.0004940366003826635 0.0 0.0
0.00397667140281607 -0.0024327527102634416 0.0 -0.0006978273432485249 0.0 0.0
0.006322595989080519 -0.004490759051338111 0.0 -0.0010737408108696944 0.0 0.0
0.009622617567511968 -0.007509486924615283 0.0 -0.001584418325160375 0.0 0.0
0.013903252360188328 -0.011514202725575684 0.0 -0.0022252373999436525 0.0 0.0
0.019155675285940196 -0.016487845062743922 0.0 -0.002949887357824227 0.0 0.0
0.025406802395428515 -0.02245621129697617 0.0 -0.0036916933743378344 0.0 0.0
0.032757417412377136 -0.029521510214705282 0.0 -0.004425826792346849 0.0 0.0
0.04136312770850643 -0.03783685650721402 0.0 -0.005230274691894854 0.0 0.0
0.05133244221135606 -0.04750706890509648 0.0 -0.006141853058259539 0.0 0.0
0.0626059192109906 -0.058469166887880064 0.0 -0.007113278298503389 0.0 0.0
0.0748382501955284 -0.0703785738621101 0.0 -0.00799303816343222 0.0 0.0
0.087323465402197 -0.08253696893118478 0.0 -0.008413325526137772 0.0 0.0
0.09901289750454677 -0.09390711433804277 0.0 -0.007944338754496294 0.0 0.0
0.10853736851929473 -0.10311253189931069 0.0 -0.0065298271340631375 0.0 0.0
0.11421948414164071 -0.10856050517396021 0.0 -0.0040891878543810045 0.0 0.0
0.11421948414163366 -0.10856050517395577 0.0 0.004089187854392828 0.0 0.0
0.10853736851927538 -0.10311253189929337 0.0 0.006529827134089339 0.0 0.0
0.09901289750451547 -0.09390711433801746 0.0 0.007944338754515279 0.0 0.0
0.0873234654021584 -0.08253696893115059 0.0 0.008413325526148152 0.0 0.0
0.07483825019548546 -0.07037857386206658 0.0 0.007993038163427002 0.0 0.0
0.06260591921094602 -0.05846916688783588 0.0 0.007113278298501946 0.0 0.0
0.051332442211311835 -0.047507068905053185 0.0 0.0061418530582579844 0.0 0.0
0.0413631277084619 -0.037836856507170724 0.0 0.005230274691893577 0.0 0.0
0.03275741741233362 -0.02952151021466265 0.0 0.004425826792341159 0.0 0.0
0.025406802395388978 -0.022456211296938422 0.0 0.003691693374333893 0.0 0.0
0.01915567528590703 -0.016487845062712836 0.0 0.0029498873578169826 0.0 0.0
0.013903252360161766 -0.011514202725551259 0.0 0.002225237399940405 0.0 0.0
0.009622617567492192 -0.007509486924597519 0.0 0.0015844183251559896 0.0 0.0
0.0063225959890663985 -0.004490759051325344 0.0 0.0010737408108666968 0.0 0.0
0.003976671402807858 -0.0024327527102573354 0.0 0.0006978273432461102 0.0 0.0
0.00252152359690358 -0.001267868449085774 0.0 0.0004940366003822472 0.0 0.0
0.0018522316366644254 -0.000813412035867267 0.0 0.00042637086457214535 0.0 0.0
0.0014848745113590356 -0.0005516571647484203 0.0 0.00013490851922312586 0.0 0.0
0.0011362456742414762 -0.0005432525507197694 0.0 -0.0001668145630336071 0.0 0.0
0.006628081928807011 -0.008067208371774473 0.0 0.0068438681984939465 0.0 0.0
0.004831288927577816 -0.006390872550886134 0.0 -0.00631384310084987 0.0 0.0
0.0006741702730548305 -0.00034475025184932395 0.0 -0.0005106680738412583 0.0 0.0
0.0011911938410660294 -0.0004071250604782417 0.0 -0.00040916243041022593 0.0 0.0
0.0016258332287617284 -0.0006903869671549545 0.0 -0.0006644333522340395 0.0 0.0
0.0021689556088117685 -0.0010277928545583404 0.0 -0.0007671555746830427 0.0 0.0
0.0033489890720679247 -0.0019210593028700096 0.0 -0.0010127927496876021 0.0 0.0
0.005404881912046331 -0.0036679231290792647 0.0 -0.0015497949904584585 0.0 0.0
0.008344058366884722 -0.006322161771342039 0.0 -0.002315368536769613 0.0 0.0
0.012164858798304513 -0.009867391054446228 0.0 -0.003247784478686483 0.0 0.0
0.016834117205196647 -0.014270058004728359 0.0 -0.004285681647255485 0.0 0.0
0.022355500829336857 -0.01952875695171774 0.0 -0.00535066108112342 0.0 0.0
0.028815272284079915 -0.0257272155429078 0.0 -0.006406075132571076 0.0 0.0
0.036369247505661444 -0.03301713606592149 0.0 -0.007525957372137376 0.0 0.0
0.04515381466300536 -0.041529971442151314 0.0 -0.008817684116199487 0.0 0.0
0.05514419889967019 -0.05123943291276767 0.0 -0.010234561615937249 0.0 0.0
0.06605955286356108 -0.06186463446563506 0.0 -0.011505994601663988 0.0 0.0
0.07730673989062736 -0.0728163439532441 0.0 -0.012161539822537315 0.0 0.0
0.08794790127560802 -0.08315521723996744 0.0 -0.011651365437542027 0.0 0.0
0.09667834118544286 -0.09160027158913753 0.0 -0.00954981818998396 0.0 0.0
0.10202614914372314 -0.09675069855832819 0.0 -0.005396394703896412 0.0 0.0
0.10202614914371595 -0.09675069855832197 0.0 0.005396394703917895 0.0 0.0
0.09667834118542566 -0.09160027158911888 0.0 0.009549818190019266 0.0 0.0
0.08794790127558044 -0.08315521723994301 0.0 0.01165136543756573 0.0 0.0
0.07730673989059336 -0.07281634395321612 0.0 0.012161539822549416 0.0 0.0
0.06605955286352352 -0.06186463446559998 0.0 0.011505994601658243 0.0 0.0
0.05514419889963057 -0.051239432912728144 0.0 0.010234561615934779 0.0 0.0
0.04515381466296625 -0.04152997144211157 0.0 0.008817684116199043 0.0 0.0
0.03636924750562204 -0.03301713606588108 0.0 0.007525957372133907 0.0 0.0
0.02881527228404207 -0.02572721554287183 0.0 0.006406075132561917 0.0 0.0
0.022355500829301933 -0.019528756951684434 0.0 0.005350661081117258 0.0 0.0
0.016834117205167087 -0.014270058004699493 0.0 0.00428568164724652 0.0 0.0
0.012164858798280553 -0.00986739105442358 0.0 0.003247784478680682 0.0 0.0
0.008344058366867108 -0.006322161771324941 0.0 0.002315368536763285 0.0 0.0
0.005404881912034143 -0.0036679231290684955 0.0 0.001549794990453962 0.0 0.0
0.003348989072061187 -0.0019210593028643475 0.0 0.001012792749683994 0.0 0.0
0.002168955608809614 -0.001027792854556564 0.0 0.0007671555746815717 0.0 0.0
0.0016258332287610033 -0.0006903869671544549 0.0 0.0006644333522329571 0.0 0.0
0.0011911938410659462 -0.0004071250604775756 0.0 0.00040916243040822753 0.0 0.0
0.0006741702730548027 -0.00034475025184807495 0.0 0.0005106680738392877 0.0 0.0
0.004831288927567429 -0.0063908725508741 0.0 0.006313843100830913 0.0 0.0
0.003596975809832592 -0.005134666400022192 0.0 -0.005353262460899871 0.0 0.0
0.000423589387063765 -0.0002610000828507375 0.0 -0.001084916338428249 0.0 0.0
0.00092118209235377 -0.00029330964813839566 0.0 -0.0007715840729572432 0.0 0.0
0.0013881378604390648 -0.0005693928201667697 0.0 -0.0009226846892611829 0.0 0.0
0.0018555278710994036 -0.0008420051291166963 0.0 -0.0010442308097333985 0.0 0.0
0.002773299957147639 -0.0014837818758540733 0.0 -0.0012660624951305044 0.0 0.0
0.0044919761474674705 -0.002880355603484208 0.0 -0.0018709734963916758 0.0 0.0
0.00706216152470366 -0.005147455454016958 0.0 -0.0028310640021074474 0.0 0.0
0.010411952779755443 -0.0082233470517874 0.0 -0.003982178033886702 0.0 0.0
0.014495012333996207 -0.012050237064399116 0.0 -0.005254870487487712 0.0 0.0
0.019292439276708012 -0.016603272814027292 0.0 -0.006552331511618437 0.0 0.0
0.024871561617702882 -0.021943365615880506 0.0 -0.007842216384485595 0.0 0.0
0.03138110961907004 -0.028215346882721537 0.0 -0.009218722740802043 0.0 0.0
0.03896909668018518 -0.035558585572670776 0.0 -0.01076091631929535 0.0 0.0
0.04765063724434004 -0.043989961529051325 0.0 -0.012448164694217778 0.0 0.0
0.05722601857911632 -0.05330952717236226 0.0 -0.014027286435053354 0.0 0.0
0.06721756007128811 -0.06303567545102773 0.0 -0.014931236798709557 0.0 0.0
0.0768134935533161 -0.07235842079955335 0.0 -0.014450884023063937 0.0 0.0
0.08485856080293458 -0.08014698109932317 0.0 -0.01186422208680099 0.0 0.0
0.09003135171697789 -0.08514010659751037 0.0 -0.006479719738884726 0.0 0.0
0.09003135171697145 -0.08514010659750415 0.0 0.006479719738912815 0.0 0.0
0.08485856080291895 -0.08014698109931251 0.0 0.011864222086841847 0.0 0.0
0.07681349355329177 -0.07235842079953025 0.0 0.014450884023091415 0.0 0.0
0.06721756007125843 -0.06303567545100064 0.0 0.014931236798722991 0.0 0.0
0.05722601857908355 -0.053309527172336946 0.0 0.014027286435049802 0.0 0.0
0.04765063724430571 -0.043989961529016464 0.0 0.012448164694211838 0.0 0.0
0.038969096680151194 -0.03555858557263414 0.0 0.010760916319291991 0.0 0.0
0.03138110961903573 -0.028215346882685788 0.0 0.009218722740797658 0.0 0.0
0.0248715616176704 -0.021943365615848087 0.0 0.007842216384476186 0.0 0.0
0.01929243927667809 -0.016603272813996872 0.0 0.006552331511609666 0.0 0.0
0.014495012333970131 -0.012050237064375358 0.0 0.005254870487474195 0.0 0.0
0.01041195277973464 -0.008223347051768526 0.0 0.003982178033878292 0.0 0.0
0.007062161524688221 -0.005147455454001859 0.0 0.002831064002101036 0.0 0.0
0.004491976147457305 -0.0028803556034755484 0.0 0.0018709734963885116 0.0 0.0
0.002773299957142372 -0.0014837818758518528 0.0 0.0012660624951279786 0.0 0.0
0.001855527871097773 -0.0008420051291156971 0.0 0.0010442308097323438 0.0 0.0
0.0013881378604383987 -0.0005693928201658816 0.0 0.0009226846892598506 0.0 0.0
0.0009211820923537284 -0.0002933096481385067 0.0 0.0007715840729554113 0.0 0.0
0.0004235893870639107 -0.00026100008285007137 0.0 0.0010849163384256122 0.0 0.0
0.0035969758098237103 -0.005134666400011903 0.0 0.005353262460885244 0.0 0.0
0.0026776668341822393 -0.004119646573487928 0.0 -0.004385251426430814 0.0 0.0
0.0002813769778697156 -0.00022545555119579674 0.0 -0.0015302590339479338 0.0 0.0
0.0006917690644284991 -0.0002086220549039064 0.0 -0.0011406630897339565 0.0 0.0
0.0011428323320165981 -0.00045271523234657884 0.0 -0.001198541525572222 0.0 0.0
0.0015642435517791292 -0.0006878572772327507 0.0 -0.001318131738591799 0.0 0.0
0.002263695005918158 -0.0011315330031280713 0.0 -0.0015115383408979555 0.0 0.0
0.0036192995272696787 -0.0021605060175744484 0.0 -0.002059729750806316 0.0 0.0
0.005780600834323885 -0.003998364930532183 0.0 -0.003090927951054978 0.0 0.0
0.008657134177856594 -0.00659799852408538 0.0 -0.004419350984476794 0.0 0.0
0.01215061011931768 -0.009843571703121334 0.0 -0.00584773001563213 0.0 0.0
0.016229607112443 -0.013694054605924766 0.0 -0.007299647413308491 0.0 0.0
0.020937851046885288 -0.01818541111012406 0.0 -0.008736164223224624 0.0 0.0
0.026410960847541735 -0.02344478861718491 0.0 -0.010252883892303999 0.0 0.0
0.032801579202544555 -0.02961991236042083 0.0 -0.0119653518672945 0.0 0.0
0.04016175348721084 -0.03676047709834007 0.0 -0.013817801447096822 0.0 0.0
0.048365148911361525 -0.04473911635229477 0.0 -0.015539327172709061 0.0 0.0
0.057055866093903104 -0.053200357417761523 0.0 -0.01664037651379735 0.0 0.0
0.06559668015854604 -0.061502556169338085 0.0 -0.016309104402339514 0.0 0.0
0.07302027142464568 -0.06869615299201692 0.0 -0.013534295135385788 0.0 0.0
0.07812342951564719 -0.07362775776038966 0.0 -0.007397455163829947 0.0 0.0
0.07812342951564175 -0.07362775776038077 0.0 0.007397455163860367 0.0 0.0
0.0730202714246315 -0.06869615299199827 0.0 0.013534295135427088 0.0 0.0
0.065596680158525 -0.06150255616931588 0.0 0.016309104402370322 0.0 0.0
0.05705586609387797 -0.053200357417734434 0.0 0.01664037651381145 0.0 0.0
0.0483651489113328 -0.04473911635226813 0.0 0.015539327172705786 0.0 0.0
0.040161753487181734 -0.0367604770983192 0.0 0.01381780144709166 0.0 0.0
0.032801579202515835 -0.029619912360392853 0.0 0.011965351867292584 0.0 0.0
0.026410960847513265 -0.023444788617155377 0.0 0.010252883892299669 0.0 0.0
0.020937851046857775 -0.018185411110096306 0.0 0.008736164223216714 0.0 0.0
0.016229607112417832 -0.013694054605901007 0.0 0.007299647413298249 0.0 0.0
0.012150610119295385 -0.00984357170310357 0.0 0.005847730015617003 0.0 0.0
0.008657134177839032 -0.006597998524070503 0.0 0.00441935098446794 0.0 0.0
0.005780600834311006 -0.003998364930521969 0.0 0.00309092795104704 0.0 0.0
0.003619299527261477 -0.002160506017568453 0.0 0.0020597297508026247 0.0 0.0
0.0022636950059144734 -0.0011315330031251847 0.0 0.0015115383408950134 0.0 0.0
0.0015642435517780051 -0.0006878572772323066 0.0 0.001318131738591355 0.0 0.0
0.001142832332015925 -0.000452715232347467 0.0 0.0011985415255709175 0.0 0.0
0.0006917690644284435 -0.00020862205490435048 0.0 0.0011406630897318193 0.0 0.0
0.0002813769778698405 -0.0002254555511948808 0.0 0.0015302590339456579 0.0 0.0
0.002677666834174891 -0.004119646573479611 0.0 0.004385251426419462 0.0 0.0
0.001971221614788028 -0.003278916001365678 0.0 -0.003550196056083532 0.0 0.0
0.00019197171751473424 -0.0002084856059033635 0.0 -0.0018587518698940098 0.0 0.0
0.0004970867581081811 -0.0001440444885331682 0.0 -0.0014723526191223468 0.0 0.0
0.0008965274874129098 -0.00033929790685138794 0.0 -0.001467773489730706 0.0 0.0
0.0012804491818900754 -0.0005501877738958161 0.0 -0.0015826770313376037 0.0 0.0
0.0018073768885581848 -0.0008578967969099516 0.0 -0.0017628443683411765 0.0 0.0
0.0028240412829872996 -0.0015568934673801937 0.0 -0.002222661547016086 0.0 0.0
0.004529836478176105 -0.002925080484709852 0.0 -0.003161538262284408 0.0 0.0
0.0069069341479467 -0.005006134887419522 0.0 -0.004520649742491084 0.0 0.0
0.009814236810484704 -0.007668664787173096 0.0 -0.006049183482155496 0.0 0.0
0.013177313942666725 -0.010818174425941463 0.0 -0.007571677938437854 0.0 0.0
0.01702633113786059 -0.014468932340206742 0.0 -0.009073852285318679 0.0 0.0
0.021475507541296096 -0.018727650292641895 0.0 -0.010648578661412778 0.0 0.0
0.026671439295336802 -0.023735651669668956 0.0 -0.012389723898976523 0.0 0.0
0.03270248980006207 -0.029577261265909094 0.0 -0.014284894779069024 0.0 0.0
0.03950894299335943 -0.03619185580105899 0.0 -0.016085299088623772 0.0 0.0
0.04684479210384962 -0.04333460034980652 0.0 -0.017284680724285795 0.0 0.0
0.0542770109225848 -0.050568997141337224 0.0 -0.017139246314949008 0.0 0.0
0.06108779639570644 -0.057178615653903364 0.0 -0.014520733598803681 0.0 0.0
0.06619614368069351 -0.06211727795480737 0.0 -0.008162851354764356 0.0 0.0
0.06619614368068862 -0.0621172779547976 0.0 0.008162851354796719 0.0 0.0
0.06108779639569388 -0.057178615653882936 0.0 0.01452073359884376 0.0 0.0
0.05427701092256733 -0.05056899714131413 0.0 0.017139246314979262 0.0 0.0
0.04684479210382865 -0.043334600349785646 0.0 0.017284680724298562 0.0 0.0
0.039508942993335155 -0.03619185580103945 0.0 0.01608529908861861 0.0 0.0
0.032702489800038204 -0.029577261265882226 0.0 0.014284894779064139 0.0 0.0
0.026671439295313223 -0.02373565166964764 0.0 0.012389723898972582 0.0 0.0
0.021475507541273475 -0.01872765029262191 0.0 0.01064857866140656 0.0 0.0
0.017026331137837913 -0.01446893234018476 0.0 0.009073852285308714 0.0 0.0
0.013177313942646096 -0.010818174425921256 0.0 0.0075716779384260025 0.0 0.0
0.009814236810466642 -0.007668664787155555 0.0 0.006049183482140064 0.0 0.0
0.006906934147932281 -0.005006134887405755 0.0 0.004520649742482119 0.0 0.0
0.004529836478166099 -0.002925080484698972 0.0 0.0031615382622773858 0.0 0.0
0.002824041282981138 -0.0015568934673756418 0.0 0.0022226615470128386 0.0 0.0
0.0018073768885558117 -0.0008578967969095075 0.0 0.001762844368339872 0.0 0.0
0.0012804491818891872 -0.0005501877738974814 0.0 0.0015826770313357164 0.0 0.0
0.0008965274874123408 -0.0003392979068512214 0.0 0.001467773489728319 0.0 0.0
0.0004970867581080007 -0.00014404448853339025 0.0 0.0014723526191201264 0.0 0.0
0.00019197171751478281 -0.00020848560590289167 0.0 0.0018587518698913452 0.0 0.0
0.0019712216147824146 -0.003278916001358845 0.0 0.0035501960560749 0.0 0.0
0.0014244032524687866 -0.002577219102169931 0.0 -0.0028724034076285654 0.0 0.0
0.00012590408730490943 -0.00020039412345107532 0.0 -0.0020873536098389156 0.0 0.0
0.0003258734600030677 -8.958642372314252e-05 0.0 -0.0017475689089030133 0.0 0.0
0.0006549116034282737 -0.00022916196642763786 0.0 -0.0017134524195703271 0.0 0.0
0.000991393072726346 -0.00041815963382074717 0.0 -0.0018326327694431765 0.0 0.0
0.0013925378836275037 -0.0006332870736415197 0.0 -0.0019909462982440063 0.0 0.0
0.002106419012011182 -0.0010666530324057177 0.0 -0.002349428721699215 0.0 0.0
0.003359181848432452 -0.0019830545042003322 0.0 -0.003120468292931722 0.0 0.0
0.005189274056396145 -0.003499610926848362 0.0 -0.004324384598026865 0.0 0.0
0.0074946507834026815 -0.0055475737534058656 0.0 -0.005814437063882905 0.0 0.0
0.010145871190846228 -0.007995744146815031 0.0 -0.0073515905397533166 0.0 0.0
0.013147668522053582 -0.010814151989047227 0.0 -0.008840891528259565 0.0 0.0
0.016588549131576688 -0.014085969966046719 0.0 -0.010373925218570834 0.0 0.0
0.020603649152004216 -0.01793878618497491 0.0 -0.012050119603568887 0.0 0.0
0.025297159470442476 -0.02247515545214185 0.0 -0.013859384266479036 0.0 0.0
0.030682318912038264 -0.027697509527921937 0.0 -0.015592408947142367 0.0 0.0
0.036612349390956575 -0.03347097908503471 0.0 -0.01683755043098306 0.0 0.0
0.04284796731761145 -0.03955639380238063 0.0 -0.016936357921791212 0.0 0.0
0.048979796297125025 -0.04552422178985038 0.0 -0.014775102870420775 0.0 0.0
0.05413240122745323 -0.050504061358277674 0.0 -0.00876425996544522 0.0 0.0
0.05413240122744921 -0.05050406135827368 0.0 0.008764259965476084 0.0 0.0
0.04897979629711467 -0.045524221789845054 0.0 0.014775102870461021 0.0 0.0
0.04284796731759749 -0.03955639380236908 0.0 0.01693635792182202 0.0 0.0
0.03661234939093912 -0.03347097908502317 0.0 0.016837550430993387 0.0 0.0
0.03068231891201907 -0.027697509527909947 0.0 0.01559240894713737 0.0 0.0
0.02529715947042363 -0.02247515545212453 0.0 0.013859384266472041 0.0 0.0
0.02060364915198598 -0.017938786184956035 0.0 0.012050119603563059 0.0 0.0
0.0165885491315597 -0.014085969966032064 0.0 0.01037392521856545 0.0 0.0
0.013147668522036096 -0.010814151989030796 0.0 0.008840891528249073 0.0 0.0
0.010145871190830158 -0.00799574414679971 0.0 0.007351590539742159 0.0 0.0
0.007494650783388637 -0.005547573753393431 0.0 0.005814437063866418 0.0 0.0
0.005189274056385501 -0.0034996109268394804 0.0 0.0043243845980187046 0.0 0.0
0.0033591818484253327 -0.001983054504193671 0.0 0.003120468292926948 0.0 0.0
0.002106419012006769 -0.0010666530324031642 0.0 0.002349428721695912 0.0 0.0
0.0013925378836260882 -0.0006332870736406315 0.0 0.0019909462982401205 0.0 0.0
0.000991393072725416 -0.0004181596338189708 0.0 0.001832632769441206 0.0 0.0
0.0006549116034279406 -0.00022916196642608355 0.0 0.0017134524195686063 0.0 0.0
0.00032587346000273465 -8.95864237225874e-05 0.0 0.001747568908900432 0.0 0.0
0.00012590408730477065 -0.00020039412345029817 0.0 0.0020873536098373058 0.0 0.0
0.0014244032524649564 -0.0025772191021646296 0.0 0.0028724034076222926 0.0 0.0
0.0010109186733824743 -0.0020104074561133056 0.0 -0.0023610790682231653 0.0 0.0
6.291991389489882e-05 -0.0001934898796185358 0.0 -0.0022221482116280833 0.0 0.0
0.00016947914858983504 -3.76278308168998e-05 0.0 -0.001965726738106355 0.0 0.0
0.00042072268789973555 -0.00012397616768899944 0.0 -0.0019212440884626147 0.0 0.0
0.0006931139645809797 -0.00028049175976130325 0.0 -0.002040413440157929 0.0 0.0
0.0009968782589624275 -0.00044436608788456233 0.0 -0.0022227829232576712 0.0 0.0
0.0014637931446041669 -0.0006902923978293618 0.0 -0.0024913234621528058 0.0 0.0
0.0022894607928476 -0.0012052947191278918 0.0 -0.003017138117019036 0.0 0.0
0.0035555429367302716 -0.002153585230100674 0.0 -0.003932757931733921 0.0 0.0
0.005216846977585815 -0.003541323720434697 0.0 -0.005183422451171482 0.0 0.0
0.007148157898275304 -0.005263593605330019 0.0 -0.006584376199841646 0.0 0.0
0.00931011750099757 -0.0072538283648613255 0.0 -0.007984102328219111 0.0 0.0
0.011762632863683967 -0.009552901426395088 0.0 -0.009409202412929585 0.0 0.0
0.01461374971465143 -0.012264840089952767 0.0 -0.010916663981957453 0.0 0.0
0.017975365093591072 -0.015496118452298813 0.0 -0.012524094007986708 0.0 0.0
0.021911504561003353 -0.01930495766739071 0.0 -0.01408977865661809 0.0 0.0
0.026389933723168654 -0.023653600867976188 0.0 -0.015245696359857508 0.0 0.0
0.03131772090937188 -0.028476310626567525 0.0 -0.015542484094336118 0.0 0.0
0.03661448040967728 -0.033672186524730474 0.0 -0.014158830235764863 0.0 0.0
0.04179357424292414 -0.03867961191924696 0.0 -0.00917091889495214 0.0 0.0
0.041793574242921516 -0.038679611919246515 0.0 0.009170918894977287 0.0 0.0
0.03661448040966983 -0.033672186524722036 0.0 0.014158830235802 0.0 0.0
0.03131772090936094 -0.028476310626556423 0.0 0.015542484094361486 0.0 0.0
0.0263899337231554 -0.023653600867965974 0.0 0.015245696359865335 0.0 0.0
0.02191150456098935 -0.0193049576673765 0.0 0.01408977865661376 0.0 0.0
0.01797536509357743 -0.0154961184522866 0.0 0.012524094007981379 0.0 0.0
0.014613749714638871 -0.01226484008994233 0.0 0.010916663981954233 0.0 0.0
0.011762632863672365 -0.009552901426382654 0.0 0.009409202412927253 0.0 0.0
0.00931011750098562 -0.007253828364852 0.0 0.007984102328211451 0.0 0.0
0.007148157898263799 -0.005263593605318029 0.0 0.00658437619983121 0.0 0.0
0.0052168469775758786 -0.0035413237204271475 0.0 0.0051834224511583815 0.0 0.0
0.003555542936723638 -0.002153585230095123 0.0 0.003932757931728259 0.0 0.0
0.0022894607928428817 -0.001205294719123895 0.0 0.003017138117014595 0.0 0.0
0.0014637931446013913 -0.0006902923978281406 0.0 0.002491323462149586 0.0 0.0
0.0009968782589615394 -0.00044436608788567256 0.0 0.0022227829232551732 0.0 0.0
0.0006931139645802858 -0.0002804917597619694 0.0 0.002040413440155847 0.0 0.0
0.0004207226878995829 -0.00012397616768894393 0.0 0.001921244088459978 0.0 0.0
0.00016947914858957136 -3.7627830816788777e-05 0.0 0.0019657267381026633 0.0 0.0
6.291991389473228e-05 -0.00019348987961834152 0.0 0.002222148211625641 0.0 0.0
0.0010109186733800873 -0.0020104074561098813 0.0 0.0023610790682192795 0.0 0.0
0.0007157331148936186 -0.0015866016008142247 0.0 -0.0020281042986332876 0.0 0.0
-4.875368492973653e-06 -0.0001861006235740481 0.0 -0.0023046445246479585 0.0 0.0
2.293432088598668e-05 1.5940951773041334e-05 0.0 -0.0021258115885706697 0.0 0.0
0.00019452826201792062 -2.4186794427838443e-05 0.0 -0.0020834572758598457 0.0 0.0
0.0003896360228608231 -0.0001379200301400152 0.0 -0.0021941574625490567 0.0 0.0
0.0005950237449000723 -0.00025797332310262266 0.0 -0.0024071352475788232 0.0 0.0
0.0008727683886207427 -0.00039975968737326895 0.0 -0.0026759223070607074 0.0 0.0
0.0013277835176199737 -0.0006290007219813543 0.0 -0.002993613338556911 0.0 0.0
0.002049287901137467 -0.0010587590687605175 0.0 -0.0034870313191390223 0.0 0.0
0.0030328531216930465 -0.0017668308862175408 0.0 -0.004282512474125755 0.0 0.0
0.004214249831646158 -0.0027242542395276015 0.0 -0.005328287894368677 0.0 0.0
0.005524792108495366 -0.0038664238383419036 0.0 -0.00648711117795675 0.0 0.0
0.007001623610452326 -0.005197558276521352 0.0 -0.00773298147687751 0.0 0.0
0.008713712591731551 -0.006784826582002745 0.0 -0.009024447192351626 0.0 0.0
0.010751404000506712 -0.008715697959168711 0.0 -0.01036503969498459 0.0 0.0
0.013216362402630591 -0.01108521144978969 0.0 -0.01169186939429967 0.0 0.0
0.016197923169048944 -0.013967314728816405 0.0 -0.012760703038631804 0.0 0.0
0.01974489314963157 -0.017416117086948457 0.0 -0.013116908433793761 0.0 0.0
0.023948673924521782 -0.021602625848304857 0.0 -0.012460861214357855 0.0 0.0
0.028986372214528433 -0.026507834591332546 0.0 -0.009231013479414019 0.0 0.0
0.028986372214527545 -0.026507834591334323 0.0 0.009231013479433559 0.0 0.0
0.0239486739245173 -0.021602625848303525 0.0 0.012460861214390273 0.0 0.0
0.01974489314962384 -0.017416117086943572 0.0 0.013116908433815355 0.0 0.0
0.016197923169040354 -0.013967314728812852 0.0 0.012760703038637855 0.0 0.0
0.013216362402622112 -0.011085211449783472 0.0 0.01169186939429312 0.0 0.0
0.010751404000498663 -0.008715697959161384 0.0 0.01036503969497743 0.0 0.0
0.00871371259172471 -0.006784826581995418 0.0 0.009024447192347684 0.0 0.0
0.007001623610446345 -0.005197558276515801 0.0 0.007732981476875456 0.0 0.0
0.005524792108488857 -0.003866423838334354 0.0 0.006487111177951033 0.0 0.0
0.004214249831639705 -0.0027242542395227165 0.0 0.00532828789436024 0.0 0.0
0.0030328531216876897 -0.0017668308862104354 0.0 0.0042825124741167064 0.0 0.0
0.002049287901134164 -0.0010587590687540782 0.0 0.0034870313191367464 0.0 0.0
0.0013277835176173924 -0.0006290007219806881 0.0 0.0029936133385543573 0.0 0.0
0.0008727683886193688 -0.00039975968737426815 0.0 0.0026759223070590143 0.0 0.0
0.0005950237448997947 -0.00025797332310195653 0.0 0.002407135247576603 0.0 0.0
0.0003896360228603374 -0.0001379200301385719 0.0 0.0021941574625470306 0.0 0.0
0.00019452826201800388 -2.418679442722782e-05 0.0 0.002083457275857681 0.0 0.0
2.293432088573688e-05 1.5940951773152356e-05 0.0 0.0021258115885679496 0.0 0.0
-4.875368493029164e-06 -0.00018610062357413137 0.0 0.002304644524645766 0.0 0.0
0.0007157331148922169 -0.0015866016008119262 0.0 0.0020281042986299846 0.0 0.0
0.000510475280111583 -0.0012715968946822032 0.0 -0.0018057038757857968 0.0 0.0
-7.076358521924953e-05 -0.0001754875514695109 0.0 -0.0023496105276422097 0.0 0.0
-0.00011610586116840571 6.962770996077339e-05 0.0 -0.0022326076462671207 0.0 0.0
-2.3989258228385157e-05 7.149838418041288e-05 0.0 -0.002192781758088902 0.0 0.0
8.592720242645013e-05 4.6840750727028535e-06 0.0 -0.0022882998398820464 0.0 0.0
0.00018362959071170637 -6.524875328495217e-05 0.0 -0.002509397903010774 0.0 0.0
0.0002889819264246668 -0.0001289039517422541 0.0 -0.0028173074462262415 0.0 0.0
0.0004371145091323775 -0.00020202238579636322 0.0 -0.0031133343869219066 0.0 0.0
0.0006668712004576638 -0.0003132908555016911 0.0 -0.0033844874795028734 0.0 0.0
0.0009859843238911453 -0.0004790077289384964 0.0 -0.003719009573559473 0.0 0.0
0.001384814963512268 -0.000708853167543877 0.0 -0.004250199907108898 0.0 0.0
0.0018212568487977476 -0.0010022684056294473 0.0 -0.004983499890346632 0.0 0.0
0.0023110173850024313 -0.0013509480058939705 0.0 -0.005906708238380021 0.0 0.0
0.002880645045262767 -0.0017919561401840145 0.0 -0.007012163952472672 0.0 0.0
0.0035890640798631607 -0.0024000690043801676 0.0 -0.00830115906395179 0.0 0.0
0.004566187751917111 -0.003289995423767955 0.0 -0.009678725569876756 0.0 0.0
0.006022344653802067 -0.004650699749366716 0.0 -0.010859748876423547 0.0 0.0
0.008187822431473618 -0.0066887980793333135 0.0 -0.011328291179790784 0.0 0.0
0.011178576261540535 -0.009587987479626747 0.0 -0.010675680479571403 0.0 0.0
0.015515051598103888 -0.014002103244840747 0.0 -0.009075470544956832 0.0 0.0
0.015515051598104457 -0.014002103244838082 0.0 0.009075470544972208 0.0 0.0
0.01117857626153855 -0.009587987479619642 0.0 0.010675680479596383 0.0 0.0
0.00818782243146969 -0.006688798079327984 0.0 0.011328291179805217 0.0 0.0
0.0060223446537988196 -0.0046506997493609425 0.0 0.010859748876424213 0.0 0.0
0.004566187751914766 -0.003289995423767067 0.0 0.009678725569870095 0.0 0.0
0.003589064079860954 -0.0024000690043810557 0.0 0.008301159063946906 0.0 0.0
0.002880645045261601 -0.001791956140186235 0.0 0.007012163952469119 0.0 0.0
0.0023110173850020704 -0.0013509480058933043 0.0 0.005906708238378633 0.0 0.0
0.001821256848796804 -0.0010022684056290032 0.0 0.004983499890340026 0.0 0.0
0.0013848149635111717 -0.0007088531675423226 0.0 0.004250199907102181 0.0 0.0
0.0009859843238904653 -0.0004790077289384964 0.0 0.0037190095735537 0.0 0.0
0.0006668712004573446 -0.0003132908555021352 0.0 0.0033844874795010416 0.0 0.0
0.000437114509131864 -0.00020202238579636322 0.0 0.003113334386919242 0.0 0.0
0.0002889819264243476 -0.00012890395174081082 0.0 0.002817307446223105 0.0 0.0
0.00018362959071197005 -6.524875328517421e-05 0.0 0.002509397903007332 0.0 0.0
8.592720242647789e-05 4.684075073146943e-06 0.0 0.002288299839879271 0.0 0.0
-2.3989258228149235e-05 7.149838418057941e-05 0.0 0.002192781758086848 0.0 0.0
-0.00011610586116848898 6.962770996149503e-05 0.0 0.002232607646265039 0.0 0.0
-7.07635852192634e-05 -0.00017548755146884476 0.0 0.002349610527641627 0.0 0.0
0.0005104752801106949 -0.00127159689468068 0.0 0.0018057038757840205 0.0 0.0
0.00036764166660285813 -0.0010329417266135288 0.0 -0.0016439225444696004 0.0 0.0
-0.00013061827886810817 -0.00015409162084240036 0.0 -0.0023443085619477555 0.0 0.0
-0.0002472904037424256 0.0001201694127712094 0.0 -0.0022885013661757547 0.0 0.0
-0.00023497312430925676 0.0001633894210140152 0.0 -0.00224593236868037 0.0 0.0
-0.00021418636215075892 0.0001444686108817983 0.0 -0.002319053494115403 0.0 0.0
-0.00022973089402406055 0.00012884827325410075 0.0 -0.002520893154882492 0.0 0.0
-0.0003006459123611749 0.00014520170871290539 0.0 -0.0028198344755430427 0.0 0.0
-0.00043784860529012815 0.0002039157707613981 0.0 -0.003115149133242623 0.0 0.0
-0.0006653448196868444 0.0003125140365827228 0.0 -0.003384592414243548 0.0 0.0
-0.00098435369434334 0.0004770864506522532 0.0 -0.0037163051624725663 0.0 0.0
-0.0013833258722664998 0.0007089936878172942 0.0 -0.004245192362144101 0.0 0.0
-0.0018312508406816003 0.0010119442282769953 0.0 -0.0049805288436138295 0.0 0.0
-0.0023417017433548515 0.0013765374625145377 0.0 -0.005904403582602191 0.0 0.0
-0.002930893126034423 0.0018239943636062517 0.0 -0.007014022116833829 0.0 0.0
-0.0035617508243086238 0.0023327750412618364 0.0 -0.008320700533811287 0.0 0.0
-0.004089230071218364 0.0027604167097554644 0.0 -0.009794951434259569 0.0 0.0
-0.004217389397158669 0.002845629499686808 0.0 -0.011417974953648435 0.0 0.0
-0.0035616762755164566 0.002309703623371462 0.0 -0.013159575843002813 0.0 0.0
-0.001809017683809061 0.0010621985116925359 0.0 -0.01457703125716786 0.0 0.0
0.002214381395889503 -0.0026215819638051308 0.0 -0.012646968464892827 0.0 0.0
0.002214381395889767 -0.002621581963802022 0.0 0.012646968464906871 0.0 0.0
-0.0018090176838096578 0.0010621985116956445 0.0 0.014577031257181738 0.0 0.0
-0.0035616762755155545 0.0023097036233701296 0.0 0.013159575843007087 0.0 0.0
-0.004217389397155116 0.002845629499681035 0.0 0.011417974953644994 0.0 0.0
-0.004089230071213867 0.0027604167097519117 0.0 0.009794951434251353 0.0 0.0
-0.003561750824304863 0.0023327750412578396 0.0 0.008320700533805347 0.0 0.0
-0.002930893126030329 0.001823994363602921 0.0 0.007014022116830665 0.0 0.0
-0.002341701743349925 0.001376537462510985 0.0 0.005904403582598194 0.0 0.0
-0.001831250840676174 0.0010119442282732205 0.0 0.00498052884360628 0.0 0.0
-0.0013833258722621283 0.0007089936878137415 0.0 0.004245192362137662 0.0 0.0
-0.000984353694339607 0.0004770864506489225 0.0 0.0037163051624664045 0.0 0.0
-0.0006653448196842632 0.00031251403657983623 0.0 0.0033845924142412165 0.0 0.0
-0.000437848605288782 0.00020391577075895562 0.0 0.0031151491332418457 0.0 0.0
-0.0003006459123606753 0.00014520170871279436 0.0 0.0028198344755395455 0.0 0.0
-0.00022973089402332503 0.00012884827325365666 0.0 0.002520893154879522 0.0 0.0
-0.00021418636215038422 0.00014446861088190932 0.0 0.0023190534941128493 0.0 0.0
-0.0002349731243090486 0.00016338942101373766 0.0 0.0022459323686775945 0.0 0.0
-0.00024729040374202316 0.0001201694127711539 0.0 0.00228850136617309 0.0 0.0
-0.0001306182788681498 -0.0001540916208423726 0.0 0.0023443085619458404 0.0 0.0
0.0003676416666025112 -0.001032941726612474 0.0 0.0016439225444678796 0.0 0.0
0.00026429989010848254 -0.0008261822484766923 0.0 -0.001479478072527296 0.0 0.0
-0.00018521357863909849 -0.00012444315851001253 0.0 -0.0022889925103418696 0.0 0.0
-0.00037015545848831377 0.00016807802109480852 0.0 -0.002290408926729992 0.0 0.0
-0.0004381251259093222 0.00025041795481461904 0.0 -0.0022421197756876676 0.0 0.0
-0.0005076793014142517 0.0002796453966307233 0.0 -0.002285205529925227 0.0 0.0
-0.0006382745693047781 0.0003191862024497505 0.0 -0.002451727274916188 0.0 0.0
-0.0008837209523929052 0.000415656417248389 0.0 -0.0026911963180939746 0.0 0.0
-0.0013283004201103538 0.0006307513026282408 0.0 -0.0029974582605230005 0.0 0.0
-0.002047079257603626 0.001057034030464088 0.0 -0.0034859468770381263 0.0 0.0
-0.0030305856898122374 0.0017652179343701224 0.0 -0.004279961232659557 0.0 0.0
-0.0042140258565454 0.0027260538983093774 0.0 -0.005326323102344599 0.0 0.0
-0.00553390592327159 0.0038783144804548364 0.0 -0.006481604862501489 0.0 0.0
-0.007030492225511692 0.00522850047676604 0.0 -0.007712045977812609 0.0 0.0
-0.008762307922292434 0.006823133880507148 0.0 -0.00899947427553155 0.0 0.0
-0.01072846331700758 0.008650911808994799 0.0 -0.010426213735385548 0.0 0.0
-0.012777677777030233 0.010561084511785612 0.0 -0.012095266831506524 0.0 0.0
-0.014556763095296313 0.012208122834186597 0.0 -0.014065884063014011 0.0 0.0
-0.015531945457358046 0.013082188639345294 0.0 -0.016230312012474324 0.0 0.0
-0.014814108833241177 0.012090654423700276 0.0 -0.017153989260475344 0.0 0.0
-0.010406479774939525 0.00755920521999176 0.0 -0.014763162804323882 0.0 0.0
-0.010406479774939817 0.007559205219991316 0.0 0.014763162804343588 0.0 0.0
-0.014814108833240303 0.01209065442370072 0.0 0.01715398926050188 0.0 0.0
-0.015531945457352411 0.013082188639342629 0.0 0.016230312012490145 0.0 0.0
-0.01455676309528639 0.012208122834179491 0.0 0.014065884063015066 0.0 0.0
-0.012777677777019034 0.010561084511773622 0.0 0.012095266831497975 0.0 0.0
-0.010728463316998074 0.00865091180898725 0.0 0.01042621373537772 0.0 0.0
-0.008762307922283247 0.006823133880496046 0.0 0.008999474275524777 0.0 0.0
-0.007030492225500909 0.005228500476752496 0.0 0.007712045977807669 0.0 0.0
-0.005533905923260418 0.003878314480443512 0.0 0.006481604862492829 0.0 0.0
-0.004214025856535714 0.002726053898302494 0.0 0.005326323102332442 0.0 0.0
-0.0030305856898036054 0.001765217934362795 0.0 0.004279961232649454 0.0 0.0
-0.002047079257597964 0.001057034030459647 0.0 0.0034859468770339075 0.0 0.0
-0.0013283004201070786 0.0006307513026277967 0.0 0.002997458260521668 0.0 0.0
-0.0008837209523912676 0.0004156564172489441 0.0 0.0026911963180909493 0.0 0.0
-0.0006382745693035846 0.0003191862024501946 0.0 0.00245172727491319 0.0 0.0
-0.0005076793014135994 0.00027964539663050125 0.0 0.002285205529922202 0.0 0.0
-0.00043812512590865604 0.00025041795481411944 0.0 0.0022421197756855027 0.0 0.0
-0.00037015545848789744 0.000168078021094753 0.0 0.0022904089267282157 0.0 0.0
-0.00018521357863884869 -0.00012444315851020682 0.0 0.0022889925103398157 0.0 0.0
0.00026429989010848254 -0.0008261822484759828 0.0 0.0014794780725254641 0.0 0.0
0.0001796661335884825 -0.0006391911127095473 0.0 -0.0013086701827857983 0.0 0.0
-0.00023615368114675295 -8.71202398872728e-05 0.0 -0.0021807098134844216 0.0 0.0
-0.00048533726166488655 0.00021354807503198847 0.0 -0.00223704920290807 0.0 0.0
-0.0006326886295280887 0.0003324596160466653 0.0 -0.0021801828994466588 0.0 0.0
-0.0007923255723417538 0.0004071137216365983 0.0 -0.002185929476777815 0.0 0.0
-0.0010342901476115829 0.0005001659582346552 0.0 -0.002289322626261109 0.0 0.0
-0.0014734533793994697 0.00070609349473294 0.0 -0.0025130515842333168 0.0 0.0
-0.0022886240126530066 0.0012059255986163198 0.0 -0.003022833789629753 0.0 0.0
-0.003552433186356105 0.0021507014500243837 0.0 -0.003928590346902294 0.0 0.0
-0.0052153745193242035 0.003540098332394326 0.0 -0.005180560809768531 0.0 0.0
-0.007149228325381757 0.005265937852749536 0.0 -0.006582862473432205 0.0 0.0
-0.009316422418036027 0.0072629725543897905 0.0 -0.007973205421993257 0.0 0.0
-0.011783095684375439 0.009576465484571361 0.0 -0.009360738898679055 0.0 0.0
-0.01465202998714811 0.012297019655012287 0.0 -0.010825172301463681 0.0 0.0
-0.017964449391261378 0.015452337991606502 0.0 -0.012535245983662402 0.0 0.0
-0.02157067322959176 0.018889619306639904 0.0 -0.014720306953249107 0.0 0.0
-0.025037760719663238 0.02218294027817258 0.0 -0.017565656904342475 0.0 0.0
-0.02754018793730867 0.02445678834611087 0.0 -0.020584646102344617 0.0 0.0
-0.027518664947864924 0.02414487501115614 0.0 -0.022149990328383218 0.0 0.0
-0.02236122342165485 0.018446514721782492 0.0 -0.01888081961534377 0.0 0.0
-0.022361223421654294 0.01844651472178027 0.0 0.018880819615368083 0.0 0.0
-0.027518664947861662 0.024144875011148592 0.0 0.022149990328414693 0.0 0.0
-0.027540187937299468 0.024456788346100655 0.0 0.020584646102365767 0.0 0.0
-0.02503776071964836 0.022182940278162366 0.0 0.017565656904346028 0.0 0.0
-0.021570673229574608 0.01888961930662525 0.0 0.014720306953242224 0.0 0.0
-0.017964449391246473 0.015452337991592513 0.0 0.012535245983654797 0.0 0.0
-0.014652029987133497 0.012297019654999408 0.0 0.010825172301455688 0.0 0.0
-0.011783095684358716 0.009576465484559593 0.0 0.009360738898673171 0.0 0.0
-0.009316422418019735 0.007262972554377356 0.0 0.007973205421983376 0.0 0.0
-0.007149228325366866 0.005265937852735769 0.0 0.0065828624734197705 0.0 0.0
-0.005215374519310895 0.0035400983323823354 0.0 0.005180560809756318 0.0 0.0
-0.0035524331863469594 0.0021507014500190547 0.0 0.003928590346895522 0.0 0.0
-0.0022886240126471086 0.0012059255986145434 0.0 0.003022833789626478 0.0 0.0
-0.0014734533793964166 0.0007060934947318298 0.0 0.0025130515842308465 0.0 0.0
-0.0010342901476100286 0.0005001659582335449 0.0 0.0022893226262593325 0.0 0.0
-0.0007923255723408101 0.0004071137216360432 0.0 0.0021859294767764548 0.0 0.0
-0.0006326886295271866 0.0003324596160460547 0.0 0.002180182899444272 0.0 0.0
-0.0004853372616645535 0.0002135480750316554 0.0 0.002237049202905461 0.0 0.0
-0.00023615368114637825 -8.712023988738382e-05 0.0 0.0021807098134832836 0.0 0.0
0.00017966613358852412 -0.0006391911127087476 0.0 0.0013086701827849934 0.0 0.0
0.00010522581586652757 -0.00047067921855137307 0.0 -0.0011349480763214737 0.0 0.0
-0.00028591471450117867 -4.307455563601348e-05 0.0 -0.0020224933421425784 0.0 0.0
-0.0005937598295147339 0.0002574995290297033 0.0 -0.002128399081903709 0.0 0.0
-0.0008186102597390332 0.0004082886023624166 0.0 -0.0020631329058862224 0.0 0.0
-0.0010635816496605555 0.0005239191039616564 0.0 -0.0020176594657163593 0.0 0.0
-0.0014228812700609605 0.0006833723974730699 0.0 -0.002078620434701056 0.0 0.0
-0.0021131535667880674 0.0010812627256684415 0.0 -0.0023802856132522088 0.0 0.0
-0.003356229227041291 0.0019813774399541906 0.0 -0.0031213576194563664 0.0 0.0
-0.005186281074577748 0.003496323561067438 0.0 -0.004318159340283234 0.0 0.0
-0.007494698603470684 0.005547630186749419 0.0 -0.005812203837626595 0.0 0.0
-0.010147833254869926 0.00799855938716032 0.0 -0.007351113305465673 0.0 0.0
-0.01314986786928217 0.010818276153561124 0.0 -0.008827273360456467 0.0 0.0
-0.016592670067469423 0.014093072284951269 0.0 -0.010304281063256926 0.0 0.0
-0.02061558050410478 0.017949839225097186 0.0 -0.011889804627484235 0.0 0.0
-0.02529575400315648 0.022455981510942635 0.0 -0.013780222234432538 0.0 0.0
-0.03050471174327292 0.027466391226700804 0.0 -0.016319984497198847 0.0 0.0
-0.03568199503649716 0.03240467004932368 0.0 -0.019738254461582394 0.0 0.0
-0.039582453828373304 0.03600694517920733 0.0 -0.023498169611131492 0.0 0.0
-0.04003702730557107 0.03606024317546419 0.0 -0.025653243680203996 0.0 0.0
-0.033486069264775487 0.02890949897421935 0.0 -0.022737185551318317 0.0 0.0
-0.033486069264774085 0.028909498974218018 0.0 0.022737185551346628 0.0 0.0
-0.04003702730556499 0.03606024317545886 0.0 0.025653243680237303 0.0 0.0
-0.03958245382836048 0.036006945179196226 0.0 0.023498169611158082 0.0 0.0
-0.03568199503647787 0.03240467004930547 0.0 0.019738254461588278 0.0 0.0
-0.03050471174325098 0.027466391226682152 0.0 0.016319984497191742 0.0 0.0
-0.02529575400313583 0.02245598151092043 0.0 0.013780222234425543 0.0 0.0
-0.020615580504084463 0.017949839225073427 0.0 0.01188980462747552 0.0 0.0
-0.0165926700674474 0.014093072284928843 0.0 0.010304281063250764 0.0 0.0
-0.013149867869260756 0.010818276153541584 0.0 0.008827273360444088 0.0 0.0
-0.010147833254849789 0.007998559387141668 0.0 0.007351113305450074 0.0 0.0
-0.007494698603453087 0.005547630186736541 0.0 0.005812203837611468 0.0 0.0
-0.0051862810745650564 0.003496323561057002 0.0 0.004318159340273631 0.0 0.0
-0.003356229227032312 0.001981377439947307 0.0 0.003121357619450177 0.0 0.0
-0.0021131535667832727 0.0010812627256634455 0.0 0.0023802856132479067 0.0 0.0
-0.0014228812700587817 0.0006833723974709605 0.0 0.0020786204346986414 0.0 0.0
-0.0010635816496592926 0.0005239191039615454 0.0 0.00201765946571425 0.0 0.0
-0.0008186102597382214 0.0004082886023623611 0.0 0.002063132905884335 0.0 0.0
-0.0005937598295140192 0.00025749952902892614 0.0 0.0021283990819017384 0.0 0.0
-0.0002859147145007693 -4.3074555636096745e-05 0.0 0.002022493342141274 0.0 0.0
0.00010522581586642349 -0.00047067921855087347 0.0 0.0011349480763204467 0.0 0.0
3.900788350064133e-05 -0.00032153587095631875 0.0 -0.0009575117165135094 0.0 0.0
-0.0003357338689391476 5.895382846010655e-06 0.0 -0.0018196325868335972 0.0 0.0
-0.0006964358798099701 0.00030039537602361 0.0 -0.001965078837417422 0.0 0.0
-0.0009954737423796267 0.0004775124232014871 0.0 -0.0018868108620540558 0.0 0.0
-0.001318987858171028 0.0006294613412010097 0.0 -0.0017900440622900526 0.0 0.0
-0.0018300058512945583 0.0008979961452953988 0.0 -0.0018513954830249868 0.0 0.0
-0.002826271571308492 0.001567300096125157 0.0 -0.0022480760043113446 0.0 0.0
-0.004525790971150634 0.0029215557477551 0.0 -0.0031583828773771305 0.0 0.0
-0.0069052846311355165 0.005003693394891373 0.0 -0.004512938807450406 0.0 0.0
-0.009815840124240804 0.007670179523880494 0.0 -0.0060470284790959394 0.0 0.0
-0.013179751681761914 0.010821018542059413 0.0 -0.007570616920771822 0.0 0.0
-0.017023559444250685 0.014466777485822702 0.0 -0.009058512752221248 0.0 0.0
-0.021457951715884382 0.01871225675826871 0.0 -0.01056996106489727 0.0 0.0
-0.02664273466250064 0.023712127713673148 0.0 -0.012190188179725281 0.0 0.0
-0.03269934874227891 0.029575292892068283 0.0 -0.014116084581450694 0.0 0.0
-0.03950940082257358 0.036155497632266886 0.0 -0.01669877632754785 0.0 0.0
-0.0463657437715259 0.04271367977564999 0.0 -0.020236479390425055 0.0 0.0
-0.05159722351097351 0.047563493670116586 0.0 -0.02440181038532163 0.0 0.0
-0.05231865037093235 0.04780478255984777 0.0 -0.027385003818868547 0.0 0.0
-0.04422902046300266 0.03913808858525192 0.0 -0.026342134699566533 0.0 0.0
-0.04422902046300027 0.03913808858525014 0.0 0.026342134699596842 0.0 0.0
-0.05231865037092319 0.04780478255984111 0.0 0.027385003818904796 0.0 0.0
-0.05159722351095719 0.04756349367009882 0.0 0.024401810385348444 0.0 0.0
-0.046365743771502765 0.042713679775622904 0.0 0.02023647939043227 0.0 0.0
-0.039509400822547294 0.036155497632243794 0.0 0.016698776327543186 0.0 0.0
-0.03269934874225275 0.029575292892045857 0.0 0.014116084581444255 0.0 0.0
-0.026642734662474563 0.02371212771365072 0.0 0.01219018817971479 0.0 0.0
-0.02145795171585728 0.01871225675824495 0.0 0.010569961064890832 0.0 0.0
-0.01702355944422424 0.014466777485794502 0.0 0.009058512752210368 0.0 0.0
-0.013179751681737052 0.010821018542034544 0.0 0.007570616920756418 0.0 0.0
-0.009815840124218878 0.0076701795238596215 0.0 0.0060470284790798134 0.0 0.0
-0.006905284631119252 0.005003693394876052 0.0 0.004512938807440525 0.0 0.0
-0.004525790971138685 0.002921555747744886 0.0 0.003158382877370164 0.0 0.0
-0.002826271571301296 0.0015673000961206052 0.0 0.0022480760043072368 0.0 0.0
-0.0018300058512914635 0.0008979961452948437 0.0 0.0018513954830237656 0.0 0.0
-0.0013189878581695152 0.0006294613411998995 0.0 0.0017900440622893588 0.0 0.0
-0.0009954737423787247 0.0004775124232013206 0.0 0.0018868108620523072 0.0 0.0
-0.0006964358798091028 0.0003003953760232214 0.0 0.0019650788374151185 0.0 0.0
-0.00033573386893869656 5.895382845760855e-06 0.0 0.0018196325868323482 0.0 0.0
3.900788350073153e-05 -0.00032153587095612966 0.0 0.0009575117165127323 0.0 0.0
-1.847554395434381e-05 -0.00019356947115167777 0.0 -0.0007746796280356238 0.0 0.0
-0.0003849268583785981 5.741378198481639e-05 0.0 -0.0015772908206964087 0.0 0.0
-0.0007942564094978455 0.0003423521171971866 0.0 -0.0017484957159142056 0.0 0.0
-0.0011625853161309485 0.0005392103792873915 0.0 -0.0016557316681440337 0.0 0.0
-0.0015687444461565114 0.0007412054688133995 0.0 -0.0015378097647473221 0.0 0.0
-0.0022737701258787046 0.0011626415397819612 0.0 -0.0016094644842184758 0.0 0.0
-0.00361792050914983 0.0021659763066632642 0.0 -0.0020796102042560938 0.0 0.0
-0.005777669717985434 0.0039947466631506945 0.0 -0.003081885075521651 0.0 0.0
-0.008657594308052768 0.0065975704169942695 0.0 -0.0044122059690139825 0.0 0.0
-0.012153371134780017 0.009846273636080483 0.0 -0.005846271993167174 0.0 0.0
-0.016231751911702563 0.013696193003206902 0.0 -0.007297441420696382 0.0 0.0
-0.020929289963703218 0.018176343243298643 0.0 -0.008718495104866386 0.0 0.0
-0.02637147829310421 0.02340654961137889 0.0 -0.010179083624186736 0.0 0.0
-0.03272850120011425 0.02955667375975035 0.0 -0.01177692310839995 0.0 0.0
-0.040133370247921685 0.036749045671573555 0.0 -0.013584057721622078 0.0 0.0
-0.04848224657588929 0.044839182046783055 0.0 -0.015848565568980844 0.0 0.0
-0.05695912107427853 0.05296507486149826 0.0 -0.019067669589684144 0.0 0.0
-0.06348014899640606 0.059025146699211106 0.0 -0.023353669423988643 0.0 0.0
-0.06446542767773913 0.05947608845516017 0.0 -0.027620825773858382 0.0 0.0
-0.054976705386348246 0.04942274400443836 0.0 -0.029886550940749712 0.0 0.0
-0.05497670538634428 0.049422744004433916 0.0 0.029886550940779244 0.0 0.0
-0.06446542767772706 0.059476088455147735 0.0 0.02762082577389352 0.0 0.0
-0.06348014899638649 0.0590251466991929 0.0 0.023353669424016454 0.0 0.0
-0.056959121074251676 0.05296507486147828 0.0 0.01906766958969308 0.0 0.0
-0.04848224657585865 0.044839182046753745 0.0 0.015848565568977485 0.0 0.0
-0.04013337024789023 0.036749045671545355 0.0 0.013584057721617943 0.0 0.0
-0.03272850120008262 0.029556673759722152 0.0 0.011776923108392262 0.0 0.0
-0.02637147829307219 0.023406549611350025 0.0 0.01017908362417877 0.0 0.0
-0.02092928996367132 0.018176343243269777 0.0 0.008718495104856006 0.0 0.0
-0.01623175191167328 0.013696193003179591 0.0 0.007297441420682643 0.0 0.0
-0.012153371134754044 0.009846273636056058 0.0 0.005846271993153351 0.0 0.0
-0.008657594308033166 0.00659757041697695 0.0 0.004412205969004629 0.0 0.0
-0.005777669717970585 0.003994746663138926 0.0 0.003081885075513907 0.0 0.0
-0.003617920509140303 0.0021659763066559368 0.0 0.002079610204250737 0.0 0.0
-0.002273770125874354 0.0011626415397787415 0.0 0.0016094644842155614 0.0 0.0
-0.0015687444461547004 0.0007412054688122893 0.0 0.0015378097647462952 0.0 0.0
-0.001162585316129866 0.0005392103792867253 0.0 0.0016557316681435064 0.0 0.0
-0.0007942564094971516 0.00034235211719696457 0.0 0.001748495715913262 0.0 0.0
-0.00038492685837829277 5.741378198526048e-05 0.0 0.0015772908206949376 0.0 0.0
-1.8475543954198093e-05 -0.0001935694711515737 0.0 0.0007746796280343748 0.0 0.0
-6.519228020571144e-05 -8.915233919581933e-05 0.0 -0.0005855871121008271 0.0 0.0
-0.000430948844019563 0.00010854061241422075 0.0 -0.0012998333731985834 0.0 0.0
-0.0008874091981189158 0.00038286469092130293 0.0 -0.0014781459659282126 0.0 0.0
-0.0013222935152120974 0.0005950316768622566 0.0 -0.0013762972522107786 0.0 0.0
-0.001826938007147616 0.0008641053238271912 0.0 -0.0012484580745153462 0.0 0.0
-0.0027670565195209162 0.0014975692970825571 0.0 -0.0013468880909604797 0.0 0.0
-0.004489489731315438 0.0028803738676297375 0.0 -0.001877619214358972 0.0 0.0
-0.0070629501583399645 0.005146958966661286 0.0 -0.0028200321580939547 0.0 0.0
-0.010414658522694242 0.008225374983618972 0.0 -0.00397643992681046 0.0 0.0
-0.01449842576993901 0.012053523129021304 0.0 -0.0052539554489667295 0.0 0.0
-0.019293011740565524 0.01660349934939065 0.0 -0.006548210268619292 0.0 0.0
-0.024856287072343913 0.021927090789416237 0.0 -0.007822428145911275 0.0 0.0
-0.03132442410496772 0.02815965368047557 0.0 -0.009160201451589356 0.0 0.0
-0.03886100854219718 0.03546117773516455 0.0 -0.010625689923401738 0.0 0.0
-0.04756850048473826 0.043931860724119254 0.0 -0.012213126096127014 0.0 0.0
-0.05732784271483174 0.053417798431265595 0.0 -0.013939156879308023 0.0 0.0
-0.0673045408597607 0.0630046931533692 0.0 -0.016290517021439244 0.0 0.0
-0.0751432737866036 0.0703141980438704 0.0 -0.020299679569113716 0.0 0.0
-0.07663710578673137 0.0712093887477181 0.0 -0.026348683866390443 0.0 0.0
-0.06604996863138302 0.06004239409141654 0.0 -0.03335700596611407 0.0 0.0
-0.06604996863137809 0.06004239409141032 0.0 0.03335700596614283 0.0 0.0
-0.07663710578671658 0.07120938874770788 0.0 0.026348683866422473 0.0 0.0
-0.0751432737865802 0.07031419804385441 0.0 0.02029967956913964 0.0 0.0
-0.06730454085972964 0.06300469315333768 0.0 0.016290517021447237 0.0 0.0
-0.05732784271479694 0.05341779843122829 0.0 0.013939156879308079 0.0 0.0
-0.047568500484701876 0.04393186072408439 0.0 0.012213126096124183 0.0 0.0
-0.038861008542160215 0.035461177735129024 0.0 0.010625689923394355 0.0 0.0
-0.03132442410493065 0.0281596536804416 0.0 0.009160201451581279 0.0 0.0
-0.02485628707230668 0.021927090789381598 0.0 0.0078224281459017 0.0 0.0
-0.019293011740531586 0.016603499349359563 0.0 0.006548210268604637 0.0 0.0
-0.014498425769909624 0.01205352312899266 0.0 0.00525395544895399 0.0 0.0
-0.01041465852267106 0.008225374983595435 0.0 0.003976439926802772 0.0 0.0
-0.0070629501583222565 0.005146958966646853 0.0 0.0028200321580869603 0.0 0.0
-0.004489489731303663 0.002880373867622188 0.0 0.001877619214353643 0.0 0.0
-0.0027670565195150806 0.0014975692970800036 0.0 0.0013468880909579817 0.0 0.0
-0.0018269380071451527 0.0008641053238257479 0.0 0.0012484580745148466 0.0 0.0
-0.0013222935152110427 0.0005950316768611463 0.0 0.0013762972522102235 0.0 0.0
-0.0008874091981182705 0.0003828646909211364 0.0 0.0014781459659265195 0.0 0.0
-0.0004309488440192785 0.00010854061241405422 0.0 0.0012998333731967238 0.0 0.0
-6.519228020553797e-05 -8.915233919597025e-05 0.0 0.0005855871120995781 0.0 0.0
-9.74733254113791e-05 -1.1288986622504105e-05 0.0 -0.0003919937029682463 0.0 0.0
-0.00046886991675260115 0.00015561577802963855 0.0 -0.0009895575763944342 0.0 0.0
-0.0009758239937084356 0.000420407399003897 0.0 -0.0011530317032255322 0.0 0.0
-0.0014798537301037862 0.0006520251050390335 0.0 -0.0010504909344983826 0.0 0.0
-0.002106384690312796 0.0010153422970972104 0.0 -0.0009285599862368099 0.0 0.0
-0.0033286393975510975 0.001914215909152639 0.0 -0.0010678982152541594 0.0 0.0
-0.00540605380941242 0.003667689992864931 0.0 -0.0015479291227327996 0.0 0.0
-0.008349860493148786 0.006326720545200892 0.0 -0.0023053448905779317 0.0 0.0
-0.012169552123984018 0.00987171904405404 0.0 -0.003243940218513486 0.0 0.0
-0.01683758078487005 0.014273240818839072 0.0 -0.004284821248799475 0.0 0.0
-0.022353184792540698 0.019525861543784107 0.0 -0.005344956335378792 0.0 0.0
-0.02879269918834168 0.025703918360492795 0.0 -0.006386687342902764 0.0 0.0
-0.036302121486042116 0.03295145404595523 0.0 -0.007487208292316472 0.0 0.0
-0.04502692689525628 0.041411656703034705 0.0 -0.008746805203667052 0.0 0.0
-0.05499369121297695 0.051108566104168585 0.0 -0.0100644006260861 0.0 0.0
-0.06598393783145665 0.061807655392015715 0.0 -0.011131958103639872 0.0 0.0
-0.07721479794577298 0.07266393663734227 0.0 -0.01215287987668856 0.0 0.0
-0.08646634711710142 0.0813256724636493 0.0 -0.015241336949624318 0.0 0.0
-0.08896732608931805 0.08312930863998202 0.0 -0.023203106886025726 0.0 0.0
-0.07780926381659689 0.07131833236486118 0.0 -0.03648729528166711 0.0 0.0
-0.07780926381659117 0.07131833236485674 0.0 0.036487295281691035 0.0 0.0
-0.08896732608930093 0.08312930863996826 0.0 0.02320310688605426 0.0 0.0
-0.08646634711707378 0.08132567246362044 0.0 0.015241336949646744 0.0 0.0
-0.0772147979457374 0.07266393663730497 0.0 0.01215287987669339 0.0 0.0
-0.06598393783141697 0.06180765539197619 0.0 0.011131958103640871 0.0 0.0
-0.05499369121293578 0.05110856610412795 0.0 0.01006440062608574 0.0 0.0
-0.04502692689521465 0.04141165670299318 0.0 0.008746805203663777 0.0 0.0
-0.036302121485999664 0.032951454045912376 0.0 0.007487208292310588 0.0 0.0
-0.02879269918829956 0.02570391836045416 0.0 0.006386687342897768 0.0 0.0
-0.022353184792502184 0.019525861543749023 0.0 0.0053449563353683005 0.0 0.0
-0.016837580784837564 0.014273240818806654 0.0 0.0042848212487883175 0.0 0.0
-0.012169552123957077 0.009871719044031613 0.0 0.0032439402185062693 0.0 0.0
-0.008349860493128521 0.006326720545183795 0.0 0.0023053448905716034 0.0 0.0
-0.005406053809398386 0.0036676899928519413 0.0 0.0015479291227283032 0.0 0.0
-0.003328639397543496 0.0019142159091456445 0.0 0.00106789821525205 0.0 0.0
-0.00210638469030984 0.001015342297095767 0.0 0.0009285599862351446 0.0 0.0
-0.001479853730102721 0.0006520251050391446 0.0 0.001050490934496301 0.0 0.0
-0.0009758239937075822 0.0004204073990034529 0.0 0.0011530317032246162 0.0 0.0
-0.0004688699167521154 0.00015561577802955529 0.0 0.0009895575763940179 0.0 0.0
-9.747332541127154e-05 -1.1288986622179711e-05 0.0 0.00039199370296855163 0.0 0.0
-0.00010904385601487321 3.61663541880719e-05 0.0 -0.00020056110286384432 0.0 0.0
-0.0004901706051172461 0.0001930011025466083 0.0 -0.0006461653713937809 0.0 0.0
-0.001060085404564065 0.0004546308118601461 0.0 -0.000766401334277883 0.0 0.0
-0.0016443356553168254 0.0007161030700951754 0.0 -0.0006827730697289425 0.0 0.0
-0.0024275448723264648 0.0012221523202968765 0.0 -0.0006011069256356971 0.0 0.0
-0.003949788075431032 0.0024107322054069957 0.0 -0.0007235134896529383 0.0 0.0
-0.006330879114225585 0.004495133021092279 0.0 -0.001068102748741917 0.0 0.0
-0.009633280358848223 0.007519508935665664 0.0 -0.0015783315523211217 0.0 0.0
-0.013909542963314037 0.011520362364539016 0.0 -0.0022223724860294114 0.0 0.0
-0.019158685235023454 0.016490381479188798 0.0 -0.0029488825204477265 0.0 0.0
-0.02540064355932492 0.02244941973821324 0.0 -0.003686008841095101 0.0 0.0
-0.032727729795413246 0.02949187856994362 0.0 -0.004410935647077008 0.0 0.0
-0.041291129602945176 0.037767026124914116 0.0 -0.0052111792772600585 0.0 0.0
-0.05119966339319523 0.047379718580229824 0.0 -0.006118469853205855 0.0 0.0
-0.062388486661734216 0.05825976452375281 0.0 -0.0070148294285772295 0.0 0.0
-0.07447343093714084 0.07002222799313351 0.0 -0.007574131104650217 0.0 0.0
-0.08660324770214525 0.08180369890219863 0.0 -0.007442006737476969 0.0 0.0
-0.09705180661807666 0.09176899180399278 0.0 -0.008263996464710044 0.0 0.0
-0.10150671805878676 0.09527346834428085 0.0 -0.016996552757242822 0.0 0.0
-0.09080771366617739 0.08374671364707087 0.0 -0.038581519911285056 0.0 0.0
-0.09080771366617003 0.08374671364706243 0.0 0.03858151991129938 0.0 0.0
-0.10150671805876726 0.09527346834426131 0.0 0.016996552757263916 0.0 0.0
-0.09705180661804468 0.09176899180396525 0.0 0.00826399646472814 0.0 0.0
-0.08660324770210467 0.08180369890216665 0.0 0.007442006737479467 0.0 0.0
-0.07447343093709607 0.07002222799309576 0.0 0.007574131104650383 0.0 0.0
-0.06238848666168774 0.05825976452371395 0.0 0.007014829428576619 0.0 0.0
-0.051199663393148784 0.04737971858018697 0.0 0.006118469853204966 0.0 0.0
-0.04129112960289752 0.03776702612486571 0.0 0.00521117927725484 0.0 0.0
-0.032727729795365715 0.029491878569896546 0.0 0.004410935647074066 0.0 0.0
-0.02540064355928233 0.02244941973817194 0.0 0.00368600884108769 0.0 0.0
-0.019158685234987514 0.016490381479153715 0.0 0.0029488825204401214 0.0 0.0
-0.013909542963284019 0.011520362364509484 0.0 0.0022223724860260252 0.0 0.0
-0.00963328035882545 0.007519508935643904 0.0 0.0015783315523154873 0.0 0.0
-0.006330879114209197 0.004495133021076625 0.0 0.0010681027487380035 0.0 0.0
-0.003949788075421984 0.002410732205398447 0.0 0.0007235134896509121 0.0 0.0
-0.0024275448723228166 0.0012221523202926576 0.0 0.0006011069256348367 0.0 0.0
-0.0016443356553157273 0.0007161030700947313 0.0 0.0006827730697274159 0.0 0.0
-0.001060085404563026 0.00045463081185947996 0.0 0.0007664013342758291 0.0 0.0
-0.0004901706051166823 0.00019300110254638625 0.0 0.0006461653713922544 0.0 0.0
-0.00010904385601480555 3.616635418829048e-05 0.0 0.0002005611028637888 0.0 0.0
-8.86128095764771e-05 4.764509547430795e-05 0.0 -2.7097330594944014e-05 0.0 0.0
-0.0004808346874731195 0.00021211954917349507 0.0 -0.0002634273233342588 0.0 0.0
-0.0011425420022668498 0.000484860666225162 0.0 -0.0003038810616071419 0.0 0.0
-0.0018327227596978968 0.0008047072768991859 0.0 -0.0002795922997203548 0.0 0.0
-0.0028053119736769494 0.0014838470387106284 0.0 -0.0002448225474237786 0.0 0.0
-0.004599998357252749 0.0029525692421902283 0.0 -0.0002891720347389659 0.0 0.0
-0.007256369699425058 0.005339927003569667 0.0 -0.00043455384167126465 0.0 0.0
-0.010900555700052966 0.008711651518565455 0.0 -0.0006411409159360892 0.0 0.0
-0.015622806350024276 0.01315486370197605 0.0 -0.0009195573916767619 0.0 0.0
-0.02144845836517359 0.018688427447461242 0.0 -0.0012455927228182673 0.0 0.0
-0.02842446257034989 0.02536247649379675 0.0 -0.0015760484800610985 0.0 0.0
-0.036656254129962845 0.03328433490648908 0.0 -0.0019219687498661098 0.0 0.0
-0.0462687331234847 0.04258181306603559 0.0 -0.0022984538328096327 0.0 0.0
-0.0573386772965474 0.053325060173017746 0.0 -0.002696552941349628 0.0 0.0
-0.0697247149192905 0.06536421074011534 0.0 -0.0030591489644812286 0.0 0.0
-0.08285590605274118 0.07813028646397457 0.0 -0.003176720949237155 0.0 0.0
-0.09564089545672863 0.0905525268900278 0.0 -0.0026911646376905907 0.0 0.0
-0.10652123380431831 0.10107793940823351 0.0 -0.0015184148969948907 0.0 0.0
-0.11298619158212773 0.10698841965876005 0.0 -0.005268917497659453 0.0 0.0
-0.10662863193304632 0.09849399438416562 0.0 -0.035631265183127925 0.0 0.0
-0.10662863193303779 0.09849399438415851 0.0 0.03563126518313464 0.0 0.0
-0.1129861915821057 0.10698841965874095 0.0 0.005268917497668335 0.0 0.0
-0.10652123380428122 0.10107793940820153 0.0 0.0015184148970035505 0.0 0.0
-0.09564089545668247 0.09055252688998294 0.0 0.002691164637690757 0.0 0.0
-0.08285590605269122 0.07813028646392528 0.0 0.0031767209492375714 0.0 0.0
-0.0697247149192387 0.06536421074006538 0.0 0.0030591489644812564 0.0 0.0
-0.05733867729649538 0.05332506017296712 0.0 0.0026965529413499056 0.0 0.0
-0.046268733123432104 0.04258181306598585 0.0 0.0022984538328084114 0.0 0.0
-0.03665625412991026 0.03328433490643978 0.0 0.0019219687498659987 0.0 0.0
-0.02842446257030304 0.025362476493751007 0.0 0.0015760484800571295 0.0 0.0
-0.021448458365134253 0.01868842744742527 0.0 0.00124559272281477 0.0 0.0
-0.015622806349991924 0.013154863701947406 0.0 0.0009195573916751798 0.0 0.0
-0.010900555700027134 0.008711651518543695 0.0 0.0006411409159344794 0.0 0.0
-0.0072563696994068045 0.0053399270035541235 0.0 0.0004345538416701822 0.0 0.0
-0.004599998357242302 0.0029525692421815686 0.0 0.000289172034738272 0.0 0.0
-0.002805311973672303 0.0014838470387066316 0.0 0.0002448225474240562 0.0 0.0
-0.0018327227596964058 0.0008047072768979646 0.0 0.0002795922997206046 0.0 0.0
-0.0011425420022658133 0.00048486066622493995 0.0 0.000303881061607697 0.0 0.0
-0.0004808346874725774 0.00021211954917307874 0.0 0.00026342732333520247 0.0 0.0
-8.861280957642246e-05 4.764509547434438e-05 0.0 2.7097330595832192e-05 0.0 0.0
SCALARS Statev float 8
LOOKUP_TABLE default
0.0 0.010169931034178552 0.007763654495444264 -0.008148028419828505 0.0003843739243842442 -0.00439281768353382 0.0 0.0
0.0 0.00033230806649326176 0.00019773207980717237 -0.00015575521254522883 -4.1976867261943574e-05 0.00021570424167841474 0.0 0.0
0.0 3.342380937738801e-05 -4.754075056001044e-06 3.773145031477424e-06 9.809300245235895e-07 5.62033213615258e-07 0.0 0.0
0.0 0.00011946994059087635 4.779628721623838e-05 -3.713252455415247e-05 -1.0663762662086004e-05 -6.4512302537804414e-06 0.0 0.0
0.0 0.000812612094774446 0.0005800140409054183 -0.00046599537402774386 -0.00011401866687767487 -6.544399871261862e-05 0.0 0.0
0.0 0.002227277785725536 0.002050383971510485 -0.0017217753530409604 -0.00032860861846952476 -0.00016840304175168167 0.0 0.0
0.0 0.004901983689209616 0.004442745447781291 -0.003916904967331944 -0.0005258404804493473 -0.00031273229607797076 0.0 0.0
0.0 0.008795195034727312 0.007866614993865413 -0.007188086259135428 -0.0006785287347299827 -0.0005092396667647019 0.0 0.0
0.0 0.013973411298225082 0.012372059275759472 -0.011574408752131806 -0.0007976505236276624 -0.0007716689033100996 0.0 0.0
0.0 0.02045831188987116 0.017980928430231153 -0.017076720446164442 -0.0009042079840667091 -0.0010849865730871455 0.0 0.0
0.0 0.028333384935308088 0.024749540038867687 -0.0237412544718646 -0.0010082855670030825 -0.0014125079653903214 0.0 0.0
0.0 0.03744347195974959 0.032792657217171665 -0.03167893729357344 -0.0011137199235982057 -0.0017616921800647344 0.0 0.0
0.0 0.04823556508236043 0.04223059562664192 -0.04101032008557301 -0.0012202755410688744 -0.002137877965659892 0.0 0.0
0.0 0.06080592113640065 0.05314865477999995 -0.05181917160381161 -0.0013294831761883296 -0.0025411665119261673 0.0 0.0
0.0 0.07500112873230237 0.0654689708904081 -0.0640255230614185 -0.0014434478289895797 -0.0029763348640526595 0.0 0.0
0.0 0.09039410001739223 0.07879080783682472 -0.07722889223030521 -0.0015619156065195222 -0.003372779197832864 0.0 0.0
0.0 0.10603196421916415 0.09231713661287336 -0.09063571050568872 -0.0016814261071846585 -0.003560438227662067 0.0 0.0
0.0 0.12056287355902555 0.10489315660742325 -0.1030973885659987 -0.0017957680414245206 -0.003305616508471774 0.0 0.0
0.0 0.13238851824230838 0.1151341768121908 -0.11323623773877056 -0.0018979390734202308 -0.002610073977493548 0.0 0.0
0.0 0.13937768155902502 0.12132655029414954 -0.1193148297857963 -0.002011720508353229 -0.0022593487551743198 0.0 0.0
0.0 0.13937768155901833 0.12132655029414352 -0.11931482978579064 -0.002011720508352865 0.0022593487551777367 0.0 0.0
0.0 0.1323885182422876 0.11513417681217208 -0.11323623773875326 -0.0018979390734188504 0.0026100739775072324 0.0 0.0
0.0 0.12056287355898533 0.1048931566073881 -0.10309738856596452 -0.0017957680414235476 0.0033056165084788124 0.0 0.0
0.0 0.10603196421911346 0.09231713661282914 -0.0906357105056452 -0.0016814261071839028 0.003560438227667298 0.0 0.0
0.0 0.09039410001733775 0.07879080783677722 -0.07722889223025847 -0.001561915606518754 0.003372779197826553 0.0 0.0
0.0 0.07500112873224726 0.06546897089036006 -0.06402552306137116 -0.001443447828988886 0.0029763348640525662 0.0 0.0
0.0 0.06080592113634532 0.053148654779951815 -0.05181917160376413 -0.0013294831761876634 0.002541166511925988 0.0 0.0
0.0 0.048235565082305656 0.04223059562659412 -0.04101032008552615 -0.001220275541067958 0.0021378779656598835 0.0 0.0
0.0 0.037443471959694385 0.0327926572171236 -0.03167893729352601 -0.0011137199235975804 0.0017616921800608192 0.0 0.0
0.0 0.028333384935258145 0.024749540038824056 -0.023741254471821294 -0.0010082855670027482 0.0014125079653884173 0.0 0.0
0.0 0.02045831188983063 0.017980928430195834 -0.017076720446129776 -0.000904207984066063 0.0010849865730829774 0.0 0.0
0.0 0.013973411298193078 0.012372059275730941 -0.01157440875210403 -0.0007976505236269161 0.000771668903308924 0.0 0.0
0.0 0.008795195034703055 0.007866614993843406 -0.007188086259114076 -0.0006785287347293295 0.0005092396667627641 0.0 0.0
0.0 0.004901983689193186 0.004442745447766 -0.003916904967317577 -0.0005258404804484211 0.0003127322960771351 0.0 0.0
0.0 0.0022272777857163003 0.0020503839715015114 -0.0017217753530329313 -0.00032860861846857993 0.00016840304175070778 0.0 0.0
0.0 0.0008126120947707362 0.0005800140409025831 -0.0004659953740254349 -0.00011401866687714805 6.544399871242971e-05 0.0 0.0
0.0 0.00011946994058965578 4.779628721608063e-05 -3.713252455401952e-05 -1.0663762662061115e-05 6.451230253685509e-06 0.0 0.0
0.0 3.342380937687491e-05 -4.754075055922566e-06 3.7731450314146314e-06 9.80930024507978e-07 -5.620332136057866e-07 0.0 0.0
0.0 0.00033230806649143564 0.0001977320798062704 -0.00015575521254451266 -4.197686726175795e-05 -0.00021570424167713495 0.0 0.0
0.0 0.010169931034162676 0.007763654495433507 -0.008148028419816739 0.00038437392438322863 0.004392817683510619 0.0 0.0
0.0 0.007261628312822101 0.005196195926721871 -0.00567133913015494 0.00047514320343306816 -0.0049173995015044086 0.0 0.0
0.0 0.0 0.0 0.0 0.0 0.0 0.0 0.0
0.0 9.430826945183483e-08 -1.020951514236367e-08 7.758883502814768e-09 2.450631639548195e-09 3.6392644398315674e-09 0.0 0.0
0.0 3.6179211509143635e-05 3.5310288035924404e-06 -2.755600652455552e-06 -7.754281511371261e-07 -2.0694269474541296e-06 0.0 0.0
0.0 0.0004902855702882583 0.0002986574044182782 -0.00023791107979401929 -6.074632462425893e-05 -8.19333342910545e-05 0.0 0.0
0.0 0.0016208156782630094 0.0014942919837633345 -0.0012364018097642932 -0.00025789017399904183 -0.0003319887693941189 0.0 0.0
0.0 0.003971230217400825 0.003598896361342886 -0.003130106782232209 -0.0004687895791106767 -0.0007035512008324638 0.0 0.0
0.0 0.007465930918171569 0.006675272607599629 -0.006038142901950733 -0.0006371297056488952 -0.0011958572554361415 0.0 0.0
0.0 0.012122587305244816 0.01073675128322113 -0.009973142179254265 -0.0007636091039668652 -0.0018139539957229905 0.0 0.0
0.0 0.01793069969144032 0.015773841619381262 -0.014903923466087267 -0.00086991815329399 -0.002524125769350473 0.0 0.0
0.0 0.024919863016471023 0.02181474620800708 -0.02084536752842234 -0.0009693786795847298 -0.0032642957643583704 0.0 0.0
0.0 0.03324747137992555 0.028959231431997905 -0.02789236965205285 -0.0010668617799450605 -0.00400627470271693 0.0 0.0
0.0 0.04279825343429543 0.03736366362503988 -0.036198762584636425 -0.0011649010404034513 -0.004822120727106581 0.0 0.0
0.0 0.05398999270974522 0.04713115209297307 -0.045865801209967264 -0.0012653508830057884 -0.005745080303460472 0.0 0.0
0.0 0.06675241500449568 0.058202091775228997 -0.056832446398135665 -0.0013696453770933492 -0.006729484479090056 0.0 0.0
0.0 0.08061711863528756 0.07023418233914071 -0.06875652276033217 -0.0014776595788085457 -0.00762920620432798 0.0 0.0
0.0 0.09478725102876848 0.08252703923484862 -0.08094018607021243 -0.0015868531646361637 -0.008081069659641277 0.0 0.0
0.0 0.1080679792968299 0.09403956365406918 -0.09234626931319068 -0.001693294340878452 -0.0076547495802475616 0.0 0.0
0.0 0.11885522391641404 0.10340474387203227 -0.10160582097779028 -0.0017989228942420226 -0.006284476310893489 0.0 0.0
0.0 0.12525357841768364 0.10897835543576503 -0.1071022441716252 -0.0018761112641398727 -0.00390052739868225 0.0 0.0
0.0 0.1252535784176772 0.10897835543575936 -0.10710224417161945 -0.001876111264139903 0.0039005273986947382 0.0 0.0
0.0 0.11885522391639335 0.10340474387201401 -0.10160582097777204 -0.0017989228942419792 0.006284476310919197 0.0 0.0
0.0 0.10806797929679775 0.09403956365404062 -0.09234626931316298 -0.001693294340877618 0.00765474958026491 0.0 0.0
0.0 0.09478725102872698 0.08252703923481192 -0.08094018607017683 -0.0015868531646350287 0.008081069659651073 0.0 0.0
0.0 0.08061711863523774 0.07023418233909762 -0.06875652276028942 -0.0014776595788081642 0.00762920620432264 0.0 0.0
0.0 0.06675241500444479 0.05820209177518486 -0.05683244639809182 -0.0013696453770930448 0.006729484479088391 0.0 0.0
0.0 0.05398999270969506 0.047131152092929514 -0.04586580120992414 -0.0012653508830053428 0.005745080303459264 0.0 0.0
0.0 0.04279825343424527 0.03736366362499611 -0.0361987625845934 -0.001164901040402717 0.004822120727105033 0.0 0.0
0.0 0.033247471379876534 0.02895923143195515 -0.02789236965201064 -0.0010668617799445034 0.004006274702710963 0.0 0.0
0.0 0.02491986301642722 0.021814746207968784 -0.020845367528384763 -0.000969378679584017 0.0032642957643532447 0.0 0.0
0.0 0.017930699691404265 0.01577384161934952 -0.014903923466056186 -0.0008699181532933341 0.0025241257693429534 0.0 0.0
0.0 0.01212258730521696 0.010736751283196115 -0.009973142179229757 -0.0007636091039663538 0.0018139539957196804 0.0 0.0
0.0 0.00746593091815121 0.006675272607581197 -0.006038142901933127 -0.0006371297056480705 0.001195857255432472 0.0 0.0
0.0 0.003971230217386882 0.003598896361329809 -0.0031301067822201464 -0.00046878957910966186 0.0007035512008301672 0.0 0.0
0.0 0.0016208156782555132 0.0014942919837565378 -0.001236401809758368 -0.0002578901739981698 0.00033198876939237356 0.0 0.0
0.0 0.000490285570285492 0.00029865740441664126 -0.00023791107979269588 -6.074632462394547e-05 8.193333429063149e-05 0.0 0.0
0.0 3.617921150859261e-05 3.5310288037334654e-06 -2.7556006525627244e-06 -7.754281511705994e-07 2.069426947503536e-06 0.0 0.0
0.0 9.430826938068039e-08 -1.0209515134588993e-08 7.758883496907494e-09 2.4506316376819497e-09 -3.6392644370560787e-09 0.0 0.0
0.0 0.0 0.0 0.0 0.0 0.0 0.0 0.0
0.0 0.007261628312804398 0.005196195926710119 -0.0056713391301423804 0.0004751432034322607 0.0049173995014845226 0.0 0.0
0.0 0.005338406764544211 0.0036008792700304463 -0.004077218311726256 0.00047633904169581086 -0.004206783975759536 0.0 0.0
0.0 0.0 0.0 0.0 0.0 0.0 0.0 0.0
0.0 0.0 0.0 0.0 0.0 0.0 0.0 0.0
0.0 3.9240301006212525e-06 7.078676248504259e-07 -5.519340000168101e-07 -1.559336248336367e-07 -5.399050655156756e-07 0.0 0.0
0.0 0.00021396647083421572 0.00012134768741280916 -9.590083074981056e-05 -2.5446856662998504e-05 -6.0721422845809674e-05 0.0 0.0
0.0 0.0012248260512448441 0.0009609702001044532 -0.0007841351532463431 -0.00017683504685810916 -0.00037319963522329134 0.0 0.0
0.0 0.003077085439268208 0.002773458213195791 -0.0023730793318365107 -0.00040037888135928005 -0.0009286332199596129 0.0 0.0
0.0 0.006155850313773244 0.005485820835948832 -0.004901574150291792 -0.0005842466856570384 -0.0016735735339968567 0.0 0.0
0.0 0.010303396123061907 0.009089863117433717 -0.008367963637368695 -0.0007218994800650205 -0.002580265525872068 0.0 0.0
0.0 0.01545486567899142 0.013550539454203647 -0.012720528948324886 -0.0008300105058787617 -0.0036038035854258233 0.0 0.0
0.0 0.021637224304973973 0.01887031992419951 -0.01794496728030621 -0.0009253526438933008 -0.004671486437794744 0.0 0.0
0.0 0.02885809638203866 0.025135370642588105 -0.024119433362359416 -0.0010159372802286844 -0.0057421378266626555 0.0 0.0
0.0 0.037460024554250834 0.03249628254972316 -0.03139056507176509 -0.0011057174779580674 -0.0068797952330496084 0.0 0.0
0.0 0.04726638671734585 0.04109050382973703 -0.039893160276407505 -0.0011973435533295022 -0.008190151930069866 0.0 0.0
0.0 0.058523984468175694 0.050890211768951296 -0.04959856130815934 -0.0012916504607919455 -0.009628130972496152 0.0 0.0
0.0 0.0709003812933911 0.06161664282856836 -0.06022777737664847 -0.0013888654519198605 -0.010929954444650506 0.0 0.0
0.0 0.08363419140612728 0.07268154482529109 -0.07119387017361274 -0.0014876746516783057 -0.01163100911709277 0.0 0.0
0.0 0.09563231789547431 0.08315051705473114 -0.08156216547596147 -0.001588351578769632 -0.011181269281052864 0.0 0.0
0.0 0.10542980270584315 0.09173116335772799 -0.09004818427590129 -0.0016829790818266481 -0.009160807624364223 0.0 0.0
0.0 0.11137737766138357 0.09697968112926261 -0.09523151726825207 -0.00174816386101048 -0.005138221910841597 0.0 0.0
0.0 0.1113773776613762 0.0969796811292559 -0.09523151726824541 -0.0017481638610104661 0.005138221910863274 0.0 0.0
0.0 0.10542980270582358 0.0917311633577103 -0.09004818427588344 -0.0016829790818268403 0.009160807624397825 0.0 0.0
0.0 0.0956323178954454 0.08315051705470512 -0.0815621654759358 -0.0015883515787692357 0.011181269281076434 0.0 0.0
0.0 0.08363419140609227 0.07268154482525996 -0.07119387017358238 -0.001487674651677607 0.011631009117103672 0.0 0.0
0.0 0.07090038129334919 0.06161664282853199 -0.06022777737661271 -0.0013888654519192644 0.01092995444464533 0.0 0.0
0.0 0.05852398446813037 0.050890211768911904 -0.04959856130812035 -0.0012916504607915658 0.009628130972493288 0.0 0.0
0.0 0.04726638671730091 0.04109050382969792 -0.03989316027636877 -0.001197343553329152 0.008190151930067781 0.0 0.0
0.0 0.03746002455420548 0.03249628254968363 -0.03139056507172591 -0.0011057174779577211 0.0068797952330458614 0.0 0.0
0.0 0.028858096381996334 0.025135370642551388 -0.02411943336232337 -0.0010159372802280178 0.005742137826654118 0.0 0.0
0.0 0.02163722430493574 0.01887031992416583 -0.017944967280273096 -0.0009253526438927348 0.004671486437787196 0.0 0.0
0.0 0.015454865678958806 0.013550539454174866 -0.012720528948296766 -0.0008300105058780935 0.00360380358541586 0.0 0.0
0.0 0.010303396123036193 0.009089863117410873 -0.008367963637346537 -0.0007218994800643334 0.0025802655258660503 0.0 0.0
0.0 0.006155850313754447 0.005485820835931855 -0.004901574150275676 -0.0005842466856561804 0.0016735735339915717 0.0 0.0
0.0 0.003077085439256147 0.002773458213184635 -0.0023730793318264233 -0.000400378881358211 0.0009286332199562395 0.0 0.0
0.0 0.001224826051237856 0.0009609702000987538 -0.0007841351532415481 -0.00017683504685720496 0.0003731996352210004 0.0 0.0
0.0 0.0002139664708322132 0.00012134768741172016 -9.590083074893161e-05 -2.5446856662788443e-05 6.0721422845195805e-05 0.0 0.0
0.0 3.924030100328622e-06 7.078676251166583e-07 -5.519340002228387e-07 -1.5593362489383918e-07 5.399050656920339e-07 0.0 0.0
0.0 0.0 0.0 0.0 0.0 0.0 0.0 0.0
0.0 0.0 0.0 0.0 0.0 0.0 0.0 0.0
0.0 0.005338406764528995 0.0036008792700199946 -0.004077218311714965 0.00047633904169497136 0.004206783975742857 0.0 0.0
0.0 0.0038682799301339678 0.002487483632384872 -0.0029129939021010102 0.0004255102697161368 -0.003212857541648466 0.0 0.0
0.0 0.0 0.0 0.0 0.0 0.0 0.0 0.0
0.0 0.0 0.0 0.0 0.0 0.0 0.0 0.0
0.0 1.7764958665315978e-06 -1.7819784007305854e-07 1.3787375697884427e-07 4.03240830942293e-08 1.8782013220909485e-07 0.0 0.0
0.0 7.472438473840945e-05 3.385132953906115e-05 -2.6637684701393937e-05 -7.213644837667103e-06 -2.7556807356031227e-05 0.0 0.0
0.0 0.0007536092186951513 0.0005452101066504929 -0.0004390720418632253 -0.00010613806478726769 -0.0003239744210646143 0.0 0.0
0.0 0.00227867794654023 0.001978241482662301 -0.0016627656185043487 -0.00031547586415795186 -0.0009863747258325917 0.0 0.0
0.0 0.004884656855949021 0.004312015553809965 -0.0037937709548406646 -0.0005182445989693011 -0.0019336866758551574 0.0 0.0
0.0 0.008506416340790251 0.0074465146932324025 -0.00677742611776296 -0.0006690885754694403 -0.003063240995655436 0.0 0.0
0.0 0.012998051421256608 0.011327074939361127 -0.010544972818386563 -0.0007821021209745544 -0.004324635668526684 0.0 0.0
0.0 0.018358308767352532 0.015931269592327955 -0.015055848590338386 -0.0008754210019895649 -0.005630065769259654 0.0 0.0
0.0 0.02464168874331461 0.02132417921716265 -0.02036383555797249 -0.0009603436591901543 -0.0069414741964982304 0.0 0.0
0.0 0.03199281318437863 0.027652324124323183 -0.026610242180538285 -0.0010420819437848934 -0.008342099990557267 0.0 0.0
0.0 0.04061995933021621 0.035059174872391775 -0.03393400219901253 -0.0011251726733792387 -0.00990813736384424 0.0 0.0
0.0 0.050502172632714795 0.04356072825818531 -0.0423512391234686 -0.0012094891347167055 -0.011623321305344244 0.0 0.0
0.0 0.061185769954242214 0.052960421833483505 -0.051665033197132865 -0.0012953886363506278 -0.013241827314585338 0.0 0.0
0.0 0.07248792449898299 0.06277886105649767 -0.06139460977600917 -0.0013842512804884918 -0.014201149802876876 0.0 0.0
0.0 0.08326554391167632 0.0722101890668218 -0.07073486494804057 -0.0014753241187812284 -0.013798326843956743 0.0 0.0
0.0 0.0922004546745522 0.08011127391505052 -0.07855083003083904 -0.0015604438842114793 -0.01133143659023066 0.0 0.0
0.0 0.09784855856394889 0.08518529021679602 -0.08356550904457924 -0.0016197811722167656 -0.006147504820719396 0.0 0.0
0.0 0.09784855856394213 0.08518529021678964 -0.08356550904457305 -0.0016197811722165976 0.006147504820746872 0.0 0.0
0.0 0.09220045467453879 0.08011127391503717 -0.0785508300308264 -0.0015604438842107475 0.011331436590269642 0.0 0.0
0.0 0.08326554391165061 0.07221018906679802 -0.07073486494801723 -0.0014753241187807583 0.013798326843983716 0.0 0.0
0.0 0.07248792449895142 0.06277886105646932 -0.06139460977598132 -0.001384251280488009 0.014201149802889057 0.0 0.0
0.0 0.061185769954208796 0.052960421833454105 -0.05166503319710465 -0.0012953886363494564 0.013241827314581713 0.0 0.0
0.0 0.05050217263267495 0.04356072825815077 -0.042351239123434595 -0.0012094891347161595 0.011623321305338932 0.0 0.0
0.0 0.04061995933017602 0.03505917487235689 -0.03393400219897779 -0.0011251726733790973 0.00990813736383998 0.0 0.0
0.0 0.03199281318433894 0.027652324124288585 -0.02661024218050386 -0.0010420819437847197 0.008342099990552453 0.0 0.0
0.0 0.02464168874327787 0.021324179217130482 -0.020363835557940996 -0.00096034365918948 0.0069414741964884345 0.0 0.0
0.0 0.01835830876731874 0.015931269592298167 -0.015055848590309315 -0.0008754210019888628 0.005630065769249978 0.0 0.0
0.0 0.012998051421228174 0.011327074939336497 -0.010544972818362527 -0.0007821021209739647 0.004324635668514599 0.0 0.0
0.0 0.008506416340768139 0.007446514693212774 -0.006777426117744118 -0.0006690885754686545 0.0030632409956484587 0.0 0.0
0.0 0.004884656855932382 0.004312015553795146 -0.0037937709548267313 -0.0005182445989684127 0.0019336866758485874 0.0 0.0
0.0 0.0022786779465301297 0.0019782414826534788 -0.0016627656184965188 -0.0003154758641569597 0.0009863747258286254 0.0 0.0
0.0 0.000753609218690345 0.0005452101066473355 -0.0004390720418606339 -0.0001061380647867015 0.0003239744210627167 0.0 0.0
0.0 7.472438473723404e-05 3.385132953894531e-05 -2.663768470128867e-05 -7.213644837656724e-06 2.755680735588072e-05 0.0 0.0
0.0 1.7764958662467406e-06 -1.7819784004332652e-07 1.3787375695581053e-07 4.032408308752122e-08 -1.8782013217738892e-07 0.0 0.0
0.0 0.0 0.0 0.0 0.0 0.0 0.0 0.0
0.0 0.0 0.0 0.0 0.0 0.0 0.0 0.0
0.0 0.003868279930120694 0.002487483632376201 -0.002912993902091494 0.0004255102697152917 0.0032128575416354123 0.0 0.0
0.0 0.0026909619897392922 0.0016560058005425492 -0.0020020208423823086 0.0003460150418397604 -0.002266387422134894 0.0 0.0
0.0 0.0 0.0 0.0 0.0 0.0 0.0 0.0
0.0 0.0 0.0 0.0 0.0 0.0 0.0 0.0
0.0 6.929946244958124e-08 -5.867089801559984e-09 4.478351496008589e-09 1.388738305550426e-09 8.798859195521545e-09 0.0 0.0
0.0 2.4273473381603017e-05 6.555038479142968e-06 -5.223722535928538e-06 -1.331315943214455e-06 -8.381650109249482e-06 0.0 0.0
0.0 0.00038568266057202106 0.00025547644384237125 -0.0002038513940570023 -5.162504978536911e-05 -0.0002314020116350033 0.0 0.0
0.0 0.0016360164143623549 0.001254575040287914 -0.0010345627014196035 -0.00022001233886831043 -0.000878572510587389 0.0 0.0
0.0 0.003708982726942428 0.003161652909737452 -0.002727960151680578 -0.00043369275805687385 -0.0019363084087156196 0.0 0.0
0.0 0.0067452181586733165 0.005822685136478374 -0.00522141603640273 -0.0006012691000756432 -0.003252243870154348 0.0 0.0
0.0 0.010584397086496014 0.009118141629385675 -0.008394883390707725 -0.0007232582386779498 -0.004676026648381987 0.0 0.0
0.0 0.015143072053819795 0.01301112697615725 -0.012193567623477841 -0.0008175593526794096 -0.0061421706379766695 0.0 0.0
0.0 0.02043693785823884 0.017542739307969853 -0.016644649190694364 -0.0008980901172754878 -0.007606556417940872 0.0 0.0
0.0 0.02668699463528404 0.022843765195234445 -0.02187038795616579 -0.0009733772390686593 -0.0091517977083308 0.0 0.0
0.0 0.033870087719017165 0.029066018920264454 -0.028018597043482696 -0.0010474218767817613 -0.010893497911072653 0.0 0.0
0.0 0.04226581996708914 0.03625759885830409 -0.03513568949111794 -0.0011219093671861208 -0.012779290257114129 0.0 0.0
0.0 0.051698444232802857 0.04429349254958051 -0.04309578402977259 -0.0011977085198079068 -0.014545838969090705 0.0 0.0
0.0 0.061378574397279576 0.05282331644487266 -0.05154853160874554 -0.0012747848361271109 -0.015710506935890035 0.0 0.0
0.0 0.07086608284509 0.06120853348151465 -0.0598540512458312 -0.0013544822356834595 -0.015471492890492383 0.0 0.0
0.0 0.07902395074091466 0.06849098837392194 -0.06706014490174994 -0.001430843472171994 -0.012851539409886816 0.0 0.0
0.0 0.08449433560743295 0.07348981092517368 -0.07200239404921807 -0.0014874168759555673 -0.00698073785485358 0.0 0.0
0.0 0.08449433560742559 0.07348981092516671 -0.07200239404921091 -0.0014874168759557414 0.006980737854883018 0.0 0.0
0.0 0.07902395074089816 0.06849098837390587 -0.06706014490173373 -0.0014308434721721167 0.01285153940992537 0.0 0.0
0.0 0.07086608284506755 0.061208533481493396 -0.059854051245809906 -0.001354482235683476 0.015471492890520753 0.0 0.0
0.0 0.061378574397251 0.052823316444846814 -0.051548531608719854 -0.0012747848361269716 0.015710506935902556 0.0 0.0
0.0 0.05169844423277129 0.04429349254955297 -0.04309578402974557 -0.0011977085198073994 0.014545838969086365 0.0 0.0
0.0 0.042265819967060414 0.036257598858278645 -0.03513568949109372 -0.0011219093671849185 0.012779290257109928 0.0 0.0
0.0 0.03387008771898518 0.029066018920236213 -0.028018597043455426 -0.0010474218767807914 0.010893497911068702 0.0 0.0
0.0 0.026686994635251513 0.022843765195205725 -0.021870387956137636 -0.000973377239068078 0.00915179770832555 0.0 0.0
0.0 0.020436937858207768 0.01754273930794276 -0.01664464919066779 -0.0008980901172749598 0.007606556417930883 0.0 0.0
0.0 0.0151430720537921 0.013011126976133198 -0.012193567623454526 -0.0008175593526786749 0.0061421706379652195 0.0 0.0
0.0 0.010584397086472325 0.009118141629365702 -0.008394883390688552 -0.0007232582386771446 0.00467602664836854 0.0 0.0
0.0 0.006745218158655057 0.005822685136462428 -0.0052214160363874985 -0.0006012691000749278 0.0032522438701463223 0.0 0.0
0.0 0.003708982726929067 0.0031616529097260914 -0.0027279601516702378 -0.00043369275805585334 0.0019363084087087499 0.0 0.0
0.0 0.0016360164143541611 0.0012545750402814344 -0.0010345627014140743 -0.0002200123388673601 0.0008785725105832994 0.0 0.0
0.0 0.0003856826605683697 0.0002554764438401104 -0.00020385139405518698 -5.162504978492346e-05 0.00023140201163303808 0.0 0.0
0.0 2.4273473380803638e-05 6.555038479162428e-06 -5.223722535940385e-06 -1.3313159432219715e-06 8.381650109268248e-06 0.0 0.0
0.0 6.92994622914334e-08 -5.86708978807203e-09 4.478351485713519e-09 1.3887383023585593e-09 -8.798859175293273e-09 0.0 0.0
0.0 0.0 0.0 0.0 0.0 0.0 0.0 0.0
0.0 0.0 0.0 0.0 0.0 0.0 0.0 0.0
0.0 0.0026909619897285564 0.0016560058005358127 -0.002002020842374701 0.00034601504183888747 0.002266387422124955 0.0 0.0
0.0 0.0017283334362406173 0.0010271765138006221 -0.0012808334911851291 0.00025365697738450644 -0.0014713848732246509 0.0 0.0
0.0 0.0 0.0 0.0 0.0 0.0 0.0 0.0
0.0 0.0 0.0 0.0 0.0 0.0 0.0 0.0
0.0 0.0 0.0 0.0 0.0 0.0 0.0 0.0
0.0 1.0357222223247195e-05 -9.629514759713054e-07 7.42040758605245e-07 2.2091071736606066e-07 1.7961155124832236e-06 0.0 0.0
0.0 0.0001554925547415843 0.00010176343073204117 -8.090999131706943e-05 -2.085343941497166e-05 -0.0001432705399575852 0.0 0.0
0.0 0.0009478900043718715 0.0006936616321052851 -0.0005620607181164305 -0.00013160091398885406 -0.0007025077815005665 0.0 0.0
0.0 0.0026164754313644924 0.002086632332956133 -0.0017602393268716472 -0.000326393006084486 -0.0017263079512184957 0.0 0.0
0.0 0.005078920777026217 0.004230318885709732 -0.00371838909874291 -0.0005119297869668225 -0.0031049181368078497 0.0 0.0
0.0 0.008226260509106078 0.006941735668908301 -0.0062938662928151284 -0.0006478693760931721 -0.004641949766458061 0.0 0.0
0.0 0.011965879043427214 0.010126297019208596 -0.009379277858848286 -0.0007470191603603102 -0.00618653196884664 0.0 0.0
0.0 0.016310809965304793 0.013807077746976112 -0.012980405114718029 -0.0008266726322580851 -0.007721927680293613 0.0 0.0
0.0 0.021367625396702686 0.018095084698368194 -0.01719816630713596 -0.0008969183912322449 -0.009330224441978622 0.0 0.0
0.0 0.027308209492450632 0.023133236721722586 -0.022170020698645765 -0.0009632160230768153 -0.011103365211477721 0.0 0.0
0.0 0.03425881223882334 0.02900671075891067 -0.027978395317594208 -0.0010283154413164685 -0.013035268790961521 0.0 0.0
0.0 0.041874311560457525 0.03565933554803129 -0.034565866650393136 -0.0010934688976381671 -0.014887142368719393 0.0 0.0
0.0 0.050264494903375076 0.04284334780076905 -0.041684587272121876 -0.001158760528647157 -0.01615543618225868 0.0 0.0
0.0 0.05857670261441882 0.05012925858535556 -0.04890412186136486 -0.0012251367239906703 -0.016112220192948768 0.0 0.0
0.0 0.06580806108404776 0.05680169458227135 -0.05550972438813858 -0.0012919701941327376 -0.013676960462699991 0.0 0.0
0.0 0.07117610470113173 0.06179438477382513 -0.060446632509002084 -0.0013477522648230513 -0.007644870829489162 0.0 0.0
0.0 0.07117610470112452 0.06179438477381822 -0.0604466325089947 -0.0013477522648235448 0.007644870829518886 0.0 0.0
0.0 0.06580806108403185 0.056801694582255424 -0.05550972438812229 -0.0012919701941331433 0.013676960462737045 0.0 0.0
0.0 0.058576702614398554 0.050129258585335734 -0.048904121861345094 -0.001225136723990664 0.01611222019297562 0.0 0.0
0.0 0.050264494903352726 0.04284334780074833 -0.0416845872721016 -0.001158760528646702 0.016155436182269736 0.0 0.0
0.0 0.04187431156043212 0.03565933554800932 -0.03456586665037163 -0.0010934688976376584 0.014887142368714605 0.0 0.0
0.0 0.03425881223879447 0.02900671075888574 -0.027978395317569515 -0.0010283154413162207 0.013035268790954718 0.0 0.0
0.0 0.027308209492425434 0.02313323672170046 -0.022170020698624022 -0.0009632160230764425 0.011103365211472526 0.0 0.0
0.0 0.021367625396678372 0.01809508469834676 -0.017198166307115237 -0.0008969183912315316 0.009330224441973605 0.0 0.0
0.0 0.016310809965279068 0.013807077746954166 -0.012980405114696553 -0.0008266726322576092 0.007721927680283539 0.0 0.0
0.0 0.01196587904340347 0.010126297019188484 -0.009379277858828722 -0.0007470191603597566 0.006186531968835035 0.0 0.0
0.0 0.008226260509084937 0.006941735668890735 -0.006293866292798288 -0.0006478693760924451 0.004641949766443702 0.0 0.0
0.0 0.00507892077701028 0.0042303188856960185 -0.0037183890987301186 -0.0005119297869658994 0.003104918136799052 0.0 0.0
0.0 0.002616475431352612 0.002086632332946462 -0.0017602393268630217 -0.00032639300608343965 0.0017263079512110139 0.0 0.0
0.0 0.0009478900043658625 0.0006936616321008946 -0.0005620607181127874 -0.00013160091398810715 0.0007025077814967159 0.0 0.0
0.0 0.0001554925547400804 0.00010176343073163861 -8.090999131674594e-05 -2.0853439414892715e-05 0.00014327053995696887 0.0 0.0
0.0 1.035722222266242e-05 -9.62951475913127e-07 7.420407585612027e-07 2.2091071735193387e-07 -1.7961155123846205e-06 0.0 0.0
0.0 0.0 0.0 0.0 0.0 0.0 0.0 0.0
0.0 0.0 0.0 0.0 0.0 0.0 0.0 0.0
0.0 0.0 0.0 0.0 0.0 0.0 0.0 0.0
0.0 0.0017283334362321891 0.0010271765137956146 -0.001280833491179314 0.00025365697738369963 0.001471384873217078 0.0 0.0
0.0 0.0010047321093387377 0.0005597958139919196 -0.0007191254594839792 0.00015932964549205948 -0.0008395710168408038 0.0 0.0
0.0 0.0 0.0 0.0 0.0 0.0 0.0 0.0
0.0 0.0 0.0 0.0 0.0 0.0 0.0 0.0
0.0 0.0 0.0 0.0 0.0 0.0 0.0 0.0
0.0 4.026692366486663e-06 2.1259114258794895e-07 -1.834948514499102e-07 -2.9096291138042913e-08 -6.74345708752535e-07 0.0 0.0
0.0 8.113229735639818e-05 2.8997984007201015e-05 -2.3070670140490457e-05 -5.927313866710599e-06 -6.097914074398405e-05 0.0 0.0
0.0 0.0004673816891159283 0.00030076338801038614 -0.0002406683330184418 -6.009505499194428e-05 -0.00046427578028403904 0.0 0.0
0.0 0.0015994949011039002 0.0011712872954743043 -0.0009641027032066341 -0.00020718459226767003 -0.0013625531546520634 0.0 0.0
0.0 0.003486079721735537 0.0027224769301957795 -0.0023314897625617993 -0.00039098716763397916 -0.002645352029535546 0.0 0.0
0.0 0.0059402352504201615 0.004818156674970972 -0.004272780337831721 -0.0005453763371392514 -0.0041734542336127325 0.0 0.0
0.0 0.008867267754722342 0.007295827031847864 -0.006640776654611065 -0.0006550503772368002 -0.005744841827528501 0.0 0.0
0.0 0.012251000460411329 0.010137733267771589 -0.009398638717730227 -0.0007390945500413583 -0.007272892287225302 0.0 0.0
0.0 0.016193353482937607 0.013427962534736698 -0.012620207225040082 -0.0008077553096966064 -0.008843537360612521 0.0 0.0
0.0 0.020775845773126692 0.017297974718651854 -0.0164293208396958 -0.0008686538789560421 -0.010554510531620723 0.0 0.0
0.0 0.02618651173920616 0.0218478291277028 -0.020923252848447402 -0.0009245762792553876 -0.012401610142266846 0.0 0.0
0.0 0.03236049465790906 0.027087548645445617 -0.02610678327263232 -0.0009807653728132824 -0.014189110317445533 0.0 0.0
0.0 0.039024121628640544 0.03287775286766409 -0.03184341065810233 -0.0010343422095617557 -0.015511246364854164 0.0 0.0
0.0 0.04594221242665039 0.03897949461660325 -0.03789414040923311 -0.0010853542073701455 -0.01571712461148488 0.0 0.0
0.0 0.05262572391445362 0.044973163484472174 -0.043833126620422734 -0.0011400368640494378 -0.013753864420330317 0.0 0.0
0.0 0.05799858958429318 0.04999139537780436 -0.04879482360081942 -0.0011965717769849339 -0.008118692695682663 0.0 0.0
0.0 0.057998589584289995 0.04999139537780063 -0.04879482360081561 -0.001196571776985011 0.008118692695710033 0.0 0.0
0.0 0.052625723914448086 0.04497316348446449 -0.043833126620415115 -0.0011400368640493823 0.013753864420368045 0.0 0.0
0.0 0.04594221242663944 0.03897949461659077 -0.037894140409220956 -0.0010853542073698016 0.01571712461151211 0.0 0.0
0.0 0.03902412162862571 0.03287775286764937 -0.03184341065808844 -0.001034342209560936 0.015511246364864225 0.0 0.0
0.0 0.032360494657890954 0.027087548645429612 -0.026106783272617378 -0.0009807653728122205 0.01418911031744091 0.0 0.0
0.0 0.02618651173918515 0.021847829127684883 -0.02092325284842984 -0.0009245762792550406 0.01240161014225931 0.0 0.0
0.0 0.020775845773105577 0.017297974718633646 -0.016429320839677762 -0.0008686538789558819 0.01055451053161469 0.0 0.0
0.0 0.016193353482919608 0.013427962534720967 -0.01262020722502474 -0.0008077553096962252 0.008843537360607692 0.0 0.0
0.0 0.012251000460391397 0.010137733267754747 -0.009398638717713938 -0.0007390945500408067 0.007272892287215255 0.0 0.0
0.0 0.0088672677547038 0.0072958270318326645 -0.006640776654596494 -0.0006550503772361664 0.005744841827516653 0.0 0.0
0.0 0.005940235250403204 0.004818156674957555 -0.004272780337819198 -0.0005453763371383556 0.0041734542335992095 0.0 0.0
0.0 0.0034860797217235585 0.0027224769301863873 -0.0023314897625532276 -0.00039098716763315863 0.002645352029527666 0.0 0.0
0.0 0.0015994949010959402 0.0011712872954684063 -0.0009641027032016192 -0.00020718459226678747 0.0013625531546462154 0.0 0.0
0.0 0.0004673816891122346 0.0003007633880081254 -0.00024066833301659182 -6.009505499153328e-05 0.0004642757802810078 0.0 0.0
0.0 8.11322973549497e-05 2.8997984006900532e-05 -2.3070670140248287e-05 -5.927313866652169e-06 6.097914074331998e-05 0.0 0.0
0.0 4.026692366191424e-06 2.125911427348674e-07 -1.8349485156753005e-07 -2.9096291167343516e-08 6.743457091782616e-07 0.0 0.0
0.0 0.0 0.0 0.0 0.0 0.0 0.0 0.0
0.0 0.0 0.0 0.0 0.0 0.0 0.0 0.0
0.0 0.0 0.0 0.0 0.0 0.0 0.0 0.0
0.0 0.0010047321093326015 0.0005597958139886382 -0.0007191254594800032 0.00015932964549136494 0.000839571016835784 0.0 0.0
0.0 0.0004864183834395376 0.0002396650199837322 -0.0003190074888057128 7.93424688219809e-05 -0.00037338976510589033 0.0 0.0
0.0 1.266647607192392e-07 -7.072771973675951e-10 8.507483974345466e-10 -1.4347120006705642e-10 2.5171596720899338e-08 0.0 0.0
0.0 0.0 0.0 0.0 0.0 0.0 0.0 0.0
0.0 8.694762653476193e-07 -2.987712020632065e-08 2.159330647060148e-08 8.283813735721381e-09 1.7349073420562356e-07 0.0 0.0
0.0 2.9954629230438816e-06 -1.2093432939471883e-07 9.071086232904545e-08 3.0223467065659835e-08 5.014944023023176e-07 0.0 0.0
0.0 4.6921971366581646e-05 1.2823936729292496e-05 -1.0084736062908644e-05 -2.739200666383851e-06 -4.037542929242154e-05 0.0 0.0
0.0 0.00021609616062201958 0.00010086558940805659 -8.02320447119721e-05 -2.06335446960845e-05 -0.0002583741211814222 0.0 0.0
0.0 0.0007912972238643063 0.0004853438004842305 -0.00039011864999757227 -9.522515048665819e-05 -0.0008871787838476357 0.0 0.0
0.0 0.002037867962990141 0.0013964034232577473 -0.0011581267537505257 -0.0002382766695072211 -0.0019462031097206563 0.0 0.0
0.0 0.0037089245994470442 0.002811450301089706 -0.0024143716667628665 -0.00039707863432683903 -0.0032977705587100632 0.0 0.0
0.0 0.005909880211455118 0.00455481604427884 -0.004032296357647535 -0.0005225196866313014 -0.004754070531203314 0.0 0.0
0.0 0.008308493853348451 0.006565413780904681 -0.005947979295605869 -0.0006174344852988126 -0.006204295654519676 0.0 0.0
0.0 0.011102238475564925 0.008879036038051749 -0.00818697001004449 -0.000692066028007255 -0.007671613454364935 0.0 0.0
0.0 0.014405701417856968 0.011598109639684854 -0.010845419584884266 -0.0007526900548005854 -0.009215632963170883 0.0 0.0
0.0 0.018361882173234933 0.014829232631203752 -0.014024869161849873 -0.0008043634693538779 -0.010859775589208063 0.0 0.0
0.0 0.02290056789306557 0.01863351027360569 -0.01778253061615461 -0.0008509796574510729 -0.012480535278226804 0.0 0.0
0.0 0.028031451778366093 0.022977174092337335 -0.02208076958903722 -0.0008964045033001187 -0.013721004900713653 0.0 0.0
0.0 0.03342104239188666 0.02778186501126649 -0.026848362727880666 -0.0009335022833858088 -0.014132288954108643 0.0 0.0
0.0 0.03902331956939155 0.032951131500863935 -0.031983071985173944 -0.0009680595156899689 -0.01294473394049964 0.0 0.0
0.0 0.04427307991978888 0.03797091277129801 -0.036947209067340496 -0.0010237037039575098 -0.008358512317455765 0.0 0.0
0.0 0.044273079919788655 0.03797091277129652 -0.03694720906733915 -0.0010237037039573572 0.008358512317478285 0.0 0.0
0.0 0.03902331956938665 0.032951131500856504 -0.03198307198516661 -0.0009680595156898971 0.012944733940531972 0.0 0.0
0.0 0.03342104239187796 0.02778186501125605 -0.026848362727870483 -0.0009335022833855669 0.014132288954130486 0.0 0.0
0.0 0.028031451778353977 0.022977174092325428 -0.022080769589025828 -0.0008964045032996024 0.013721004900720885 0.0 0.0
0.0 0.022900567893049256 0.018633510273592023 -0.0177825306161414 -0.0008509796574506115 0.012480535278220236 0.0 0.0
0.0 0.018361882173219907 0.014829232631191283 -0.01402486916183802 -0.0008043634693532592 0.010859775589200708 0.0 0.0
0.0 0.01440570141784368 0.011598109639673391 -0.010845419584873294 -0.0007526900548001005 0.00921563296316704 0.0 0.0
0.0 0.011102238475551819 0.008879036038040472 -0.008186970010033594 -0.0006920660280068764 0.007671613454360333 0.0 0.0
0.0 0.008308493853335562 0.006565413780894033 -0.005947979295595904 -0.0006174344852981298 0.006204295654512073 0.0 0.0
0.0 0.005909880211440842 0.004554816044267641 -0.004032296357637089 -0.000522519686630551 0.004754070531192425 0.0 0.0
0.0 0.0037089245994348483 0.0028114503010808244 -0.0024143716667548126 -0.00039707863432601097 0.0032977705586991765 0.0 0.0
0.0 0.002037867962982604 0.0013964034232522486 -0.001158126753745797 -0.00023827666950645144 0.0019462031097145795 0.0 0.0
0.0 0.0007912972238595512 0.00048534380048112264 -0.0003901186499950033 -9.522515048611933e-05 0.0008871787838430384 0.0 0.0
0.0 0.000216096160619872 0.00010086558940731862 -8.023204471136627e-05 -2.0633544695952422e-05 0.0002583741211795446 0.0 0.0
0.0 4.692197136582055e-05 1.2823936729298398e-05 -1.008473606291462e-05 -2.739200666383759e-06 4.037542929243143e-05 0.0 0.0
0.0 2.9954629227888764e-06 -1.2093432928456174e-07 9.071086223989985e-08 3.022346704466884e-08 -5.014944017911747e-07 0.0 0.0
0.0 8.694762648168817e-07 -2.987712019000699e-08 2.1593306458356525e-08 8.283813731647456e-09 -1.7349073409897767e-07 0.0 0.0
0.0 0.0 0.0 0.0 0.0 0.0 0.0 0.0
0.0 1.2666476022059354e-07 -7.072771946710994e-10 8.50748394078545e-10 -1.4347119940746084e-10 -2.5171596621278046e-08 0.0 0.0
0.0 0.0004864183834356904 0.0002396650199820997 -0.00031900748880364345 7.934246882154383e-05 0.0003733897651033513 0.0 0.0
0.0 0.00014900615060289976 7.121569080219095e-05 -9.962352502072407e-05 2.8407834218533134e-05 -0.00011589870813918369 0.0 0.0
0.0 1.8030073051673429e-06 -4.177191184509683e-09 1.0378638774830307e-08 -6.201447590320216e-09 3.8291760625588695e-07 0.0 0.0
0.0 8.129603515550081e-07 -9.729788138728575e-10 -5.062304710215263e-10 1.479209284894036e-09 1.6676851108718092e-07 0.0 0.0
0.0 1.3942118126280809e-06 -1.7202479833820512e-08 1.1633862331670308e-08 5.568617502153395e-09 2.882879494068393e-07 0.0 0.0
0.0 3.69159842660257e-06 8.655227877823116e-08 -5.972052228933128e-08 -2.683175648890407e-08 -3.946831088606308e-07 0.0 0.0
0.0 3.8501621724994055e-05 5.518575354792016e-06 -4.3800469832850734e-06 -1.1385283715069474e-06 -3.1864754134147394e-05 0.0 0.0
0.0 0.0001421644041624056 3.824306713693635e-05 -3.042754353871192e-05 -7.815523598224391e-06 -0.00017886399798879138 0.0 0.0
0.0 0.0003437180416585913 0.00013731274670449796 -0.00010919379179849383 -2.8118954906004066e-05 -0.0005046585490654834 0.0 0.0
0.0 0.0008738001045506713 0.00042987425653279654 -0.0003446170117280664 -8.525724480473009e-05 -0.0011226467524027973 0.0 0.0
0.0 0.001795275655545298 0.0010746974322613104 -0.0008819178451102585 -0.00019277958715105192 -0.002096748389023669 0.0 0.0
0.0 0.0030332041097535767 0.0020284688400164703 -0.0017137760247894407 -0.0003146928152270288 -0.00325956353740961 0.0 0.0
0.0 0.004578381571812701 0.0031755093663839397 -0.0027571041474916246 -0.0004184052188923146 -0.004487836225018467 0.0 0.0
0.0 0.006324167446409562 0.004519488505200238 -0.004013282307157067 -0.0005062061980431689 -0.00578673860438865 0.0 0.0
0.0 0.008380885376949945 0.006113310057318067 -0.005535280629132136 -0.0005780294281859283 -0.007120052073103943 0.0 0.0
0.0 0.010830985775300728 0.00803827907043161 -0.007403038852468539 -0.0006352402179630717 -0.008498428044270954 0.0 0.0
0.0 0.013754340497899292 0.01038750604264169 -0.009706705046165023 -0.0006808009964766732 -0.009875683928807381 0.0 0.0
0.0 0.017227860875523082 0.013239104760941912 -0.012518711926320846 -0.0007203928346210731 -0.011030730124307801 0.0 0.0
0.0 0.021158298573609548 0.016650360694170162 -0.01589301940263113 -0.000757341291539038 -0.011519411815261142 0.0 0.0
0.0 0.025670807124547876 0.02073840079821756 -0.019969726378843283 -0.0007686744193742772 -0.011050062544896195 0.0 0.0
0.0 0.030644804575424713 0.025588769521869233 -0.024778386265710602 -0.0008103832561586388 -0.008194255921270497 0.0 0.0
0.0 0.030644804575426773 0.025588769521869555 -0.02477838626571109 -0.0008103832561584726 0.008194255921288321 0.0 0.0
0.0 0.02567080712454888 0.020738400798215047 -0.0199697263788409 -0.0007686744193741418 0.011050062544924272 0.0 0.0
0.0 0.02115829857360598 0.016650360694163972 -0.015893019402625285 -0.0007573412915386857 0.011519411815279896 0.0 0.0
0.0 0.01722786087551724 0.013239104760935802 -0.012518711926315252 -0.0007203928346205447 0.011030730124312105 0.0 0.0
0.0 0.01375434049788953 0.010387506042634553 -0.009706705046158138 -0.0006808009964764118 0.009875683928800488 0.0 0.0
0.0 0.010830985775290469 0.008038279070423864 -0.007403038852460974 -0.000635240217962886 0.008498428044264292 0.0 0.0
0.0 0.00838088537694153 0.00611331005731132 -0.005535280629125585 -0.0005780294281857355 0.007120052073099618 0.0 0.0
0.0 0.00632416744640286 0.00451948850519439 -0.004013282307151655 -0.0005062061980427354 0.005786738604386263 0.0 0.0
0.0 0.004578381571803935 0.003175509366377724 -0.00275710414748601 -0.0004184052188917146 0.004487836225010995 0.0 0.0
0.0 0.0030332041097454673 0.002028468840011041 -0.0017137760247846543 -0.0003146928152263856 0.003259563537401691 0.0 0.0
0.0 0.0017952756555367558 0.0010746974322560368 -0.0008819178451057656 -0.00019277958715027102 0.002096748389014742 0.0 0.0
0.0 0.0008738001045466076 0.00042987425653045097 -0.0003446170117261161 -8.525724480433472e-05 0.0011226467523980828 0.0 0.0
0.0 0.0003437180416565111 0.0001373127467037615 -0.00010919379179790933 -2.811895490585208e-05 0.0005046585490631376 0.0 0.0
0.0 0.00014216440416128524 3.824306713680032e-05 -3.042754353860561e-05 -7.815523598194698e-06 0.0001788639979881313 0.0 0.0
0.0 3.850162172446992e-05 5.518575354799001e-06 -4.380046983290697e-06 -1.1385283715082927e-06 3.186475413421088e-05 0.0 0.0
0.0 3.6915984263014255e-06 8.65522788436874e-08 -5.972052233722761e-08 -2.6831756506461593e-08 3.9468310932979803e-07 0.0 0.0
0.0 1.3942118121365584e-06 -1.7202479827439693e-08 1.1633862327329383e-08 5.568617500112952e-09 -2.8828794930130727e-07 0.0 0.0
0.0 8.12960351106587e-07 -9.729788137991681e-10 -5.062304704954294e-10 1.479209284295063e-09 -1.667685109932312e-07 0.0 0.0
0.0 1.8030073045943297e-06 -4.1771911826671024e-09 1.0378638770354691e-08 -6.201447587687759e-09 -3.8291760613307903e-07 0.0 0.0
0.0 0.00014900615060082806 7.121569080159959e-05 -9.96235250199084e-05 2.8407834218308738e-05 0.00011589870813833475 0.0 0.0
0.0 2.3067974838723085e-05 7.94364807626307e-06 -1.1510001864481104e-05 3.5663537882180423e-06 -1.398564902831385e-05 0.0 0.0
0.0 2.3409661729961703e-06 6.496376963596438e-10 1.3091562580591183e-08 -1.3741200276949575e-08 4.872012716183131e-07 0.0 0.0
0.0 8.28283976103979e-07 8.757322001854407e-09 -7.994197467743662e-09 -7.631245341108108e-10 1.6872916499049268e-07 0.0 0.0
0.0 1.0341171999299922e-06 3.4830124123105497e-09 -4.631541757330647e-09 1.1485293450206947e-09 2.129476539670559e-07 0.0 0.0
0.0 5.455561020512527e-06 -1.877319191668789e-08 9.400339741409076e-09 9.372852175272426e-09 1.2338249442580408e-06 0.0 0.0
0.0 3.435703748245381e-05 1.7319821239872217e-06 -1.3435236396324653e-06 -3.88458484354746e-07 -3.428114018675308e-05 0.0 0.0
0.0 0.00011738013864555693 1.1763033507474187e-05 -9.325171114641277e-06 -2.437862392832916e-06 -0.0001735982191468322 0.0 0.0
0.0 0.0002786372416689713 3.316288286373695e-05 -2.6376220927584298e-05 -6.786661936152625e-06 -0.000386883940403047 0.0 0.0
0.0 0.0004654628649903176 7.816667079739456e-05 -6.241680412674321e-05 -1.5749866670651367e-05 -0.0007273449147096243 0.0 0.0
0.0 0.0008016877683322406 0.00015585654221346142 -0.00012530870761070107 -3.0547834602760374e-05 -0.0011962988102301327 0.0 0.0
0.0 0.0011605569651292804 0.00030202686849372344 -0.00024284743608297122 -5.9179432410752316e-05 -0.0018943580591819283 0.0 0.0
0.0 0.0017504076710348057 0.0005391099030972147 -0.0004330599634650153 -0.00010604993963219936 -0.0027382050763854527 0.0 0.0
0.0 0.0024888067469481094 0.0008594165266729479 -0.000693661078965673 -0.00016575544770727475 -0.0037313342756852847 0.0 0.0
0.0 0.003405387986378861 0.0012648790413464733 -0.001033557860235981 -0.0002313211811104927 -0.004891446996823896 0.0 0.0
0.0 0.004557674131756826 0.0018487482117211526 -0.0015544018569812914 -0.0002943463547398612 -0.006237496993299848 0.0 0.0
0.0 0.006031474688885892 0.0026960579077610924 -0.002344353103181613 -0.0003517048045794782 -0.007665452473779236 0.0 0.0
0.0 0.007860302500450165 0.003989460020178393 -0.0035868139858758726 -0.00040264603430251856 -0.008922054702880499 0.0 0.0
0.0 0.010139022037247857 0.005951277994286489 -0.005492207618490917 -0.0004590703757955692 -0.00952079758257443 0.0 0.0
0.0 0.013047795064481305 0.00873116255916573 -0.008221830969384017 -0.0005093315897817108 -0.009098181481675044 0.0 0.0
0.0 0.017201450128598444 0.012852554966667257 -0.012361970760816573 -0.0004905842058506822 -0.007778885153123793 0.0 0.0
0.0 0.017201450128598923 0.012852554966666456 -0.012361970760815655 -0.0004905842058507972 0.007778885153136909 0.0 0.0
0.0 0.013047795064480335 0.008731162559161981 -0.008221830969380303 -0.0005093315897816739 0.009098181481694747 0.0 0.0
0.0 0.0101390220372457 0.005951277994282779 -0.005492207618487195 -0.0004590703757955804 0.009520797582584447 0.0 0.0
0.0 0.00786030250044481 0.003989460020174571 -0.0035868139858720813 -0.00040264603430248717 0.008922054702879136 0.0 0.0
0.0 0.006031474688881285 0.0026960579077593616 -0.002344353103180017 -0.0003517048045793429 0.007665452473772456 0.0 0.0
0.0 0.0045576741317535216 0.0018487482117201075 -0.0015544018569803844 -0.0002943463547397224 0.006237496993294553 0.0 0.0
0.0 0.0034053879863763766 0.0012648790413458443 -0.0010335578602354402 -0.00023132118111040387 0.0048914469968201185 0.0 0.0
0.0 0.0024888067469460047 0.0008594165266723551 -0.0006936610789652162 -0.0001657554477071384 0.0037313342756820516 0.0 0.0
0.0 0.0017504076710308254 0.000539109903096091 -0.00043305996346412376 -0.00010604993963196714 0.002738205076379457 0.0 0.0
0.0 0.0011605569651256399 0.0003020268684927229 -0.00024284743608214652 -5.917943241057649e-05 0.0018943580591758212 0.0 0.0
0.0 0.0008016877683290419 0.00015585654221302928 -0.00012530870761030921 -3.0547834602720055e-05 0.0011962988102256669 0.0 0.0
0.0 0.0004654628649891387 7.816667079722068e-05 -6.241680412662649e-05 -1.5749866670594128e-05 0.0007273449147077596 0.0 0.0
0.0 0.00027863724166777453 3.316288286356528e-05 -2.6376220927441996e-05 -6.7866619361232625e-06 0.000386883940401169 0.0 0.0
0.0 0.00011738013864452326 1.1763033507396733e-05 -9.32517111457392e-06 -2.4378623928228065e-06 0.00017359821914565167 0.0 0.0
0.0 3.435703748172385e-05 1.7319821239724253e-06 -1.3435236396206437e-06 -3.88458484351786e-07 3.4281140186399164e-05 0.0 0.0
0.0 5.4555610200182124e-06 -1.87731919147807e-08 9.400339740515117e-09 9.372852174262189e-09 -1.2338249441362645e-06 0.0 0.0
0.0 1.0341171994111593e-06 3.4830124097744975e-09 -4.63154175459075e-09 1.1485293448161685e-09 -2.1294765385734702e-07 0.0 0.0
0.0 8.282839756553083e-07 8.757321996808003e-09 -7.99419746324245e-09 -7.631245335657651e-10 -1.687291648967851e-07 0.0 0.0
0.0 2.340966172321822e-06 6.496376968874008e-10 1.3091562575233056e-08 -1.3741200272117913e-08 -4.87201271473837e-07 0.0 0.0
0.0 2.3067974838072855e-05 7.943648076276256e-06 -1.1510001864501637e-05 3.566353788225331e-06 1.3985649028372596e-05 0.0 0.0
0.0 1.746363269014452e-06 -1.080716133846742e-07 1.601080298073669e-07 -5.203641642269867e-08 2.3480853834527648e-07 0.0 0.0
0.0 1.9028631458580495e-06 6.795419448546787e-09 4.3792250009357676e-09 -1.1174644449477697e-08 4.0529838982822875e-07 0.0 0.0
0.0 1.006612653282911e-06 1.8800037151531995e-08 -1.6160969127413305e-08 -2.6390680241173787e-09 2.0557945423080885e-07 0.0 0.0
0.0 1.3830639415008088e-06 2.5459537940910303e-08 -2.257136934973081e-08 -2.8881685911793595e-09 2.8364822182210734e-07 0.0 0.0
0.0 6.838676618418433e-06 7.764163872838649e-08 -5.523973417852686e-08 -2.2401904549850214e-08 5.7337941227424e-07 0.0 0.0
0.0 3.8494382178204286e-05 -2.187887819062233e-06 1.7988954928670166e-06 3.889923261952107e-07 -3.336982201622657e-05 0.0 0.0
0.0 0.00011946295493132094 -1.242207016435492e-05 9.95626222652419e-06 2.4658079378307132e-06 -0.00017466765606807445 0.0 0.0
0.0 0.000279404983474536 -3.315245093842508e-05 2.6365661030499736e-05 6.786789907925283e-06 -0.0003873386431016798 0.0 0.0
0.0 0.0004651023001641233 -7.78540805715457e-05 6.214733142888802e-05 1.5706749142657642e-05 -0.0007273736932372831 0.0 0.0
0.0 0.000799936990087158 -0.00015523010569937093 0.00012470528266338 3.052482303599099e-05 -0.001194198029653477 0.0 0.0
0.0 0.0011643024022656122 -0.00029749242617848395 0.00023987592483483956 5.761650134364433e-05 -0.0018894607960311934 0.0 0.0
0.0 0.0017534054785246626 -0.0005430580009712226 0.00043691113317976095 0.0001061468677914616 -0.0027391569985665953 0.0 0.0
0.0 0.0024977782728591263 -0.0008742950616891995 0.0007071244651139035 0.00016717059657529563 -0.003735246881909197 0.0 0.0
0.0 0.0034287077480223494 -0.0012944858672331813 0.0010592626157096396 0.00023522325152354137 -0.004898526203655439 0.0 0.0
0.0 0.004536411230918258 -0.0018200559171476305 0.0015165481134851032 0.0003035078036625258 -0.0062428691159037725 0.0 0.0
0.0 0.0057563956902884975 -0.002302166326280865 0.0019351654310691803 0.0003670008952116826 -0.007718249132844815 0.0 0.0
0.0 0.0068371255846552265 -0.002486033506949435 0.0020699486908319275 0.00041608481611750647 -0.009317645732845055 0.0 0.0
0.0 0.007611757432710245 -0.0020889983090136123 0.0016369934389316777 0.0004520048700819339 -0.011036285999810314 0.0 0.0
0.0 0.007946445521453556 -0.0010863767785917657 0.0007319707390482878 0.00035440603954347714 -0.012435258345309319 0.0 0.0
0.0 0.007486829417608249 0.0017417512170753715 -0.0018327947644183682 9.104354734299625e-05 -0.01096706869592157 0.0 0.0
0.0 0.0074868294176117026 0.0017417512170750573 -0.0018327947644182173 9.10435473431604e-05 0.01096706869593072 0.0 0.0
0.0 0.007946445521456813 -0.0010863767785922076 0.0007319707390487796 0.0003544060395434271 0.012435258345317814 0.0 0.0
0.0 0.007611757432708142 -0.0020889983090124934 0.0016369934389308754 0.0004520048700816173 0.011036285999811397 0.0 0.0
0.0 0.006837125584648378 -0.002486033506945712 0.002069948690828552 0.0004160848161171599 0.009317645732839816 0.0 0.0
0.0 0.005756395690281513 -0.002302166326276895 0.001935165431065482 0.0003670008952114131 0.007718249132837366 0.0 0.0
0.0 0.004536411230912054 -0.001820055917144336 0.0015165481134821765 0.00030350780366215853 0.00624286911589759 0.0 0.0
0.0 0.003428707748017538 -0.0012944858672306967 0.0010592626157075909 0.00023522325152310547 0.004898526203650885 0.0 0.0
0.0 0.002497778272853784 -0.0008742950616863916 0.0007071244651116226 0.0001671705965747691 0.0037352468819043753 0.0 0.0
0.0 0.0017534054785186787 -0.0005430580009682882 0.00043691113317736237 0.00010614686779092565 0.0027391569985591047 0.0 0.0
0.0 0.0011643024022610841 -0.00029749242617661527 0.00023987592483336274 5.761650134325252e-05 0.0018894607960249301 0.0 0.0
0.0 0.000799936990082866 -0.00015523010569840824 0.00012470528266252915 3.052482303587904e-05 0.0011941980296481388 0.0 0.0
0.0 0.00046510230016234204 -7.785408057108331e-05 6.214733142850628e-05 1.5706749142577018e-05 0.0007273736932348417 0.0 0.0
0.0 0.00027940498347344577 -3.315245093826201e-05 2.6365661030362056e-05 6.786789907899938e-06 0.00038733864310058384 0.0 0.0
0.0 0.00011946295493024739 -1.2422070164263277e-05 9.956262226466e-06 2.4658079377972707e-06 0.000174667656066831 0.0 0.0
0.0 3.849438217740131e-05 -2.1878878190421626e-06 1.7988954928531625e-06 3.8899232618901086e-07 3.336982201595304e-05 0.0 0.0
0.0 6.8386766180100364e-06 7.764163869894516e-08 -5.52397341504747e-08 -2.240190454847432e-08 -5.733794117624595e-07 0.0 0.0
0.0 1.38306394101384e-06 2.5459537931086613e-08 -2.257136934122153e-08 -2.8881685898646692e-09 -2.8364822171881803e-07 0.0 0.0
0.0 1.0066126526757192e-06 1.8800037139368483e-08 -1.616096911716342e-08 -2.639068022204588e-09 -2.0557945410441137e-07 0.0 0.0
0.0 1.9028631450714174e-06 6.795419446720134e-09 4.37922499599115e-09 -1.1174644442706392e-08 -4.052983896639658e-07 0.0 0.0
0.0 1.7463632684856744e-06 -1.0807161335057875e-07 1.601080297566021e-07 -5.2036416406020456e-08 -2.3480853827189452e-07 0.0 0.0
0.0 0.0 0.0 0.0 0.0 0.0 0.0 0.0
0.0 3.3206270015814023e-07 3.228124362425176e-09 -1.4545472289870203e-09 -1.773577133437446e-09 6.641880132428198e-08 0.0 0.0
0.0 1.2158136542373107e-06 1.0408732861820733e-08 -9.285635665324151e-09 -1.1230971964975985e-09 9.697839422319397e-08 0.0 0.0
0.0 4.433390297608247e-06 1.6015753021184142e-07 -1.3149237797340506e-07 -2.8665152238422848e-08 9.6169292488308e-07 0.0 0.0
0.0 8.747874848871084e-06 -5.845599878225748e-07 5.136109741617659e-07 7.094901366081645e-08 -3.996496877641989e-06 0.0 0.0
0.0 4.676863563434542e-05 -8.842455601379189e-06 7.044703671621154e-06 1.7977519297579987e-06 -4.6292976757312866e-05 0.0 0.0
0.0 0.0001500601118277164 -3.9377124813442634e-05 3.144365793180719e-05 7.93346688163545e-06 -0.0001821496272987675 0.0 0.0
0.0 0.00034540173044907656 -0.0001376431173269968 0.00010946032058122674 2.8182796745770036e-05 -0.0005060756231537838 0.0 0.0
0.0 0.0008711842770151739 -0.0004289370316834966 0.00034378821104136335 8.51488206421332e-05 -0.001121406138728713 0.0 0.0
0.0 0.0017922214511267394 -0.0010730629110041877 0.0008805150177832633 0.00019254789322092417 -0.0020948781653979433 0.0 0.0
0.0 0.0030329671202486055 -0.0020286192622042155 0.0017142098956489803 0.00031440936655523525 -0.003259441647480407 0.0 0.0
0.0 0.0045855155787486775 -0.0031833239438227305 0.002765202795170801 0.00041812114865192977 -0.00448755413299279 0.0 0.0
0.0 0.0063463906302362785 -0.004544236752899873 0.004038176832750177 0.0005060599201496939 -0.005777517178379906 0.0 0.0
0.0 0.008418551689329664 -0.006153058615753172 0.005572338040311962 0.0005807205754412123 -0.007105808270410005 0.0 0.0
0.0 0.01081382207180919 -0.00800570431849008 0.00735908826173152 0.0006466160567585581 -0.008543753500699825 0.0 0.0
0.0 0.013396247113660274 -0.009958150235342817 0.009252559023138145 0.0007055912122046705 -0.010185257150458515 0.0 0.0
0.0 0.015856119250752657 -0.01167068150472404 0.010911775471612034 0.0007589060331120081 -0.012076773423335333 0.0 0.0
0.0 0.017599690152290744 -0.012626974030875347 0.011824939427270385 0.0008020346036049638 -0.014113013266873503 0.0 0.0
0.0 0.0172338805393152 -0.011876809981372555 0.010985176601215332 0.0008916333801572182 -0.01491416238792696 0.0 0.0
0.0 0.012920839390685297 -0.00771828463117306 0.006794334095884995 0.000923950535288061 -0.012378287011567457 0.0 0.0
0.0 0.012920839390690147 -0.007718284631173453 0.006794334095885227 0.0009239505352882267 0.012378287011583146 0.0 0.0
0.0 0.017233880539321043 -0.011876809981372872 0.010985176601215767 0.0008916333801571013 0.014914162387949209 0.0 0.0
0.0 0.017599690152289377 -0.012626974030871364 0.011824939427266647 0.0008020346036047151 0.014113013266887013 0.0 0.0
0.0 0.01585611925074337 -0.011670681504715574 0.01091177547160389 0.000758906033111683 0.012076773423335399 0.0 0.0
0.0 0.013396247113646039 -0.009958150235331552 0.009252559023127153 0.0007055912122043974 0.010185257150449508 0.0 0.0
0.0 0.010813822071798342 -0.008005704318481466 0.007359088261723248 0.0006466160567582172 0.008543753500693054 0.0 0.0
0.0 0.008418551689317436 -0.006153058615743578 0.005572338040302707 0.0005807205754408703 0.007105808270402537 0.0 0.0
0.0 0.0063463906302229384 -0.004544236752888824 0.0040381768327395285 0.0005060599201492937 0.00577751717837273 0.0 0.0
0.0 0.004585515578735116 -0.003183323943812659 0.0027652027951613613 0.0004181211486512969 0.004487554132982826 0.0 0.0
0.0 0.003032967120236844 -0.002028619262196111 0.0017142098956417244 0.00031440936655438676 0.0032594416474701036 0.0 0.0
0.0 0.0017922214511163358 -0.0010730629109973412 0.0008805150177774365 0.00019254789321990434 0.0020948781653879122 0.0 0.0
0.0 0.0008711842770102558 -0.00042893703168047 0.0003437882110388329 8.514882064163697e-05 0.0011214061387233077 0.0 0.0
0.0 0.0003454017304473715 -0.00013764311732627338 0.0001094603205806484 2.8182796745624977e-05 0.0005060756231519384 0.0 0.0
0.0 0.00015006011182615541 -3.937712481322004e-05 3.144365793163832e-05 7.93346688158166e-06 0.00018214962729780614 0.0 0.0
0.0 4.676863563334697e-05 -8.842455601369117e-06 7.044703671613332e-06 1.7977519297557753e-06 4.6292976757243104e-05 0.0 0.0
0.0 8.747874848557256e-06 -5.845599879019624e-07 5.136109742279518e-07 7.094901367399395e-08 3.996496878132208e-06 0.0 0.0
0.0 4.433390297146278e-06 1.6015753019507324e-07 -1.3149237795953612e-07 -2.8665152235533242e-08 -9.61692924777465e-07 0.0 0.0
0.0 1.2158136539749082e-06 1.0408732794402444e-08 -9.285635610815584e-09 -1.1230971835869647e-09 -9.697839373622363e-08 0.0 0.0
0.0 3.3206269971330245e-07 3.2281243589135146e-09 -1.4545472286881782e-09 -1.7735771302251563e-09 -6.64188012348373e-08 0.0 0.0
0.0 0.0 0.0 0.0 0.0 0.0 0.0 0.0
0.0 0.0 0.0 0.0 0.0 0.0 0.0 0.0
0.0 3.514827227909665e-07 4.949457227588909e-09 -3.035179226646225e-09 -1.914278000941817e-09 7.106311338534543e-08 0.0 0.0
0.0 2.3595770756542535e-06 8.103527067074457e-08 -6.628456757845172e-08 -1.4750703092293867e-08 4.821090557083344e-07 0.0 0.0
0.0 6.5906872819304125e-06 3.108815427979235e-07 -2.5702362177301864e-07 -5.385792102489637e-08 1.4093816020137892e-06 0.0 0.0
0.0 1.3895698621956487e-05 -1.9002166861966525e-06 1.4998252269728204e-06 4.0039145922384603e-07 -6.394039263543453e-06 0.0 0.0
0.0 6.178830404439171e-05 -1.7876458745745773e-05 1.4351932154193866e-05 3.52452659155189e-06 -5.636901770523384e-05 0.0 0.0
0.0 0.0002282404004931272 -0.00010435836960686557 8.3120620757869e-05 2.123774884899658e-05 -0.0002656199281831465 0.0 0.0
0.0 0.0007931932513029853 -0.00048581652915349736 0.00039054379481045316 9.527273434304425e-05 -0.0008887463208984259 0.0 0.0
0.0 0.002032888863890133 -0.0013938181338489257 0.0011557685476994326 0.00023804958614949255 -0.0019425868946884991 0.0 0.0
0.0 0.0037061148822351434 -0.0028101737812821813 0.002413163309503891 0.0003970104717782889 -0.003295625315474729 0.0 0.0
0.0 0.005910903886044913 -0.004556011301848704 0.004033642057434817 0.0005223692444138882 -0.0047541374139241435 0.0 0.0
0.0 0.008313654776151506 -0.006571209710743419 0.005954344801712314 0.0006168649090311038 -0.006198960469228958 0.0 0.0
0.0 0.011112921353911804 -0.008897016399978957 0.008205873690828062 0.0006911427091508937 -0.00763706282010396 0.0 0.0
0.0 0.01442214035330202 -0.011630026889387196 0.01087595372580736 0.0007540731635798357 -0.009141168746965665 0.0 0.0
0.0 0.01834004020535216 -0.014809103485832692 0.01399533904258585 0.0008137644432468387 -0.010863324460678562 0.0 0.0
0.0 0.022640564016568786 -0.01829168075096655 0.017417677359018325 0.0008740033919482227 -0.013016650385874344 0.0 0.0
0.0 0.026992682251035016 -0.021654085562218997 0.020719055719573318 0.0009350298426456737 -0.01577481649436237 0.0 0.0
0.0 0.030151126649450646 -0.024059759439199198 0.0230457512849066 0.0010140081542925965 -0.018690287237641698 0.0 0.0
0.0 0.03049860435362409 -0.023964247909544118 0.022851095004970273 0.0011131529045738475 -0.02015441333883867 0.0 0.0
0.0 0.024234179219849387 -0.018768100626249593 0.01748916499068342 0.0012789356355661667 -0.01674308109113215 0.0 0.0
0.0 0.02423417921985331 -0.01876810062624923 0.0174891649906826 0.0012789356355666281 0.016743081091152637 0.0 0.0
0.0 0.03049860435362465 -0.023964247909539656 0.022851095004965623 0.0011131529045740195 0.020154413338865272 0.0 0.0
0.0 0.030151126649444443 -0.024059759439190455 0.02304575128489821 0.0010140081542922407 0.018690287237658566 0.0 0.0
0.0 0.02699268225102176 -0.021654085562206448 0.02071905571956135 0.0009350298426450979 0.015774816494364866 0.0 0.0
0.0 0.022640564016550006 -0.018291680750950542 0.01741767735900274 0.000874003391947801 0.01301665038586778 0.0 0.0
0.0 0.0183400402053352 -0.014809103485818613 0.013995339042572046 0.0008137644432465619 0.010863324460670575 0.0 0.0
0.0 0.01442214035328565 -0.011630026889373542 0.010875953725794217 0.0007540731635793212 0.009141168746957485 0.0 0.0
0.0 0.011112921353895565 -0.008897016399964855 0.00820587369081463 0.0006911427091502219 0.007637062820097719 0.0 0.0
0.0 0.008313654776134348 -0.0065712097107292625 0.005954344801698959 0.0006168649090303004 0.006198960469219061 0.0 0.0
0.0 0.005910903886027477 -0.004556011301834887 0.004033642057421875 0.0005223692444130116 0.004754137413911385 0.0 0.0
0.0 0.0037061148822194346 -0.002810173781270318 0.0024131633094929563 0.000397010471777362 0.00329562531546231 0.0 0.0
0.0 0.0020328888638813827 -0.001393818133842265 0.0011557685476935994 0.00023804958614866557 0.0019425868946816717 0.0 0.0
0.0 0.0007931932512985904 -0.00048581652915059847 0.0003905437948081425 9.527273434245598e-05 0.000888746320894712 0.0 0.0
0.0 0.0002282404004908297 -0.00010435836960618803 8.312062075732708e-05 2.1237748848860905e-05 0.000265619928181553 0.0 0.0
0.0 6.178830404326071e-05 -1.787645874584202e-05 1.4351932154263595e-05 3.5245265915783815e-06 5.636901770531576e-05 0.0 0.0
0.0 1.3895698621393837e-05 -1.9002166862821676e-06 1.4998252270405891e-06 4.0039145924153605e-07 6.394039263844124e-06 0.0 0.0
0.0 6.590687281374371e-06 3.1088154276881837e-07 -2.570236217490074e-07 -5.385792101982278e-08 -1.4093816018841068e-06 0.0 0.0
0.0 2.3595770750547986e-06 8.103527064889636e-08 -6.628456756069521e-08 -1.4750703088195763e-08 -4.821090555798598e-07 0.0 0.0
0.0 3.5148272258278746e-07 4.949457224581214e-09 -3.0351792247973143e-09 -1.914277999783761e-09 -7.106311334223886e-08 0.0 0.0
0.0 0.0 0.0 0.0 0.0 0.0 0.0 0.0
0.0 0.0 0.0 0.0 0.0 0.0 0.0 0.0
0.0 0.0 0.0 0.0 0.0 0.0 0.0 0.0
0.0 1.762862297087584e-06 7.425115861487428e-08 -6.029149643128876e-08 -1.3959662183589334e-08 3.448992119798501e-07 0.0 0.0
0.0 4.864242004593518e-06 1.5125132375490587e-07 -1.1670440298618205e-07 -3.45469207687279e-08 4.635376873522103e-07 0.0 0.0
0.0 1.9734919803205252e-05 -3.0059319412006698e-06 2.469990849092707e-06 5.359410921079946e-07 -7.920475502662024e-06 0.0 0.0
0.0 9.595663742972217e-05 -4.2326398528873694e-05 3.373666921606301e-05 8.589729312810678e-06 -8.879396686442159e-05 0.0 0.0
0.0 0.0004892135364393298 -0.00030694225257115533 0.00024614476816756646 6.079748440358907e-05 -0.00047514095676624623 0.0 0.0
0.0 0.0015985701957245343 -0.0011694107651437657 0.0009625615791660165 0.000206849185977749 -0.0013611929009117554 0.0 0.0
0.0 0.0034808130224004987 -0.0027195076946779835 0.002328619408977819 0.0003908882857001648 -0.002640248178621638 0.0 0.0
0.0 0.00593702592560347 -0.0048183023540095985 0.004272856223816495 0.0005454461301931015 -0.004171817039965272 0.0 0.0
0.0 0.008869665561207746 -0.007297829108109155 0.00664289396866511 0.0006549351394440439 -0.0057455817245945905 0.0 0.0
0.0 0.012251547666999242 -0.01013958476815583 0.009400930890839012 0.0007386538773168142 -0.007264610547792778 0.0 0.0
0.0 0.016185709440425487 -0.013430535139994036 0.012623749437935388 0.0008067857020586462 -0.008788692919625212 0.0 0.0
0.0 0.020758998360327012 -0.01730625128983434 0.016437651441280392 0.0008685998485539429 -0.01041522639384414 0.0 0.0
0.0 0.026163938863676336 -0.02184111056129665 0.020911369267891007 0.0009297412934056265 -0.012321085418236353 0.0 0.0
0.0 0.03226552169562266 -0.026906869371241517 0.02590950148353667 0.0009973678877048474 -0.014830638561017118 0.0 0.0
0.0 0.03839267034280752 -0.03194478160860963 0.0308669265929139 0.0010778550156957222 -0.018172476072216042 0.0 0.0
0.0 0.04317273254427253 -0.03571075483431286 0.034531735163122204 0.0011790196711906377 -0.02184193361057063 0.0 0.0
0.0 0.04388536067774976 -0.03603655896229716 0.03472350062234695 0.0013130583399501908 -0.02392804416523744 0.0 0.0
0.0 0.03603465360546561 -0.029398789174415893 0.027893700384320222 0.0015050887900956685 -0.020888882732712156 0.0 0.0
0.0 0.03603465360546952 -0.029398789174415168 0.02789370038431943 0.001505088790095725 0.020888882732737115 0.0 0.0
0.0 0.04388536067774904 -0.03603655896229165 0.034723500622341405 0.00131305833995026 0.023928044165269325 0.0 0.0
0.0 0.04317273254426347 -0.035710754834301375 0.0345317351631108 0.0011790196711905592 0.021841933610593944 0.0 0.0
0.0 0.038392670342787594 -0.03194478160859108 0.0308669265928958 0.0010778550156952675 0.0181724760722206 0.0 0.0
0.0 0.03226552169559912 -0.02690686937122108 0.025909501483516856 0.0009973678877042236 0.014830638561010818 0.0 0.0
0.0 0.026163938863651592 -0.021841110561275467 0.020911369267870128 0.000929741293405335 0.012321085418228683 0.0 0.0
0.0 0.02075899836030156 -0.017306251289812915 0.0164376514412592 0.0008685998485537083 0.010415226393833786 0.0 0.0
0.0 0.016185709440400407 -0.013430535139972648 0.012623749437914212 0.0008067857020584341 0.008788692919616828 0.0 0.0
0.0 0.012251547666975364 -0.010139584768135673 0.00940093089081931 0.0007386538773163586 0.0072646105477809746 0.0 0.0
0.0 0.008869665561184455 -0.007297829108090033 0.00664289396864662 0.0006549351394434132 0.005745581724580268 0.0 0.0
0.0 0.005937025925584674 -0.004818302353994489 0.004272856223802272 0.0005454461301922165 0.004171817039951642 0.0 0.0
0.0 0.003480813022386382 -0.002719507694666754 0.002328619408967694 0.000390888285699059 0.002640248178612829 0.0 0.0
0.0 0.0015985701957153529 -0.001169410765136698 0.0009625615791600386 0.00020684918597665925 0.0013611929009051367 0.0 0.0
0.0 0.0004892135364343467 -0.00030694225256803245 0.00024614476816506683 6.0797484402965745e-05 0.0004751409567622675 0.0 0.0
0.0 9.595663742790599e-05 -4.23263985285319e-05 3.373666921578091e-05 8.589729312751032e-06 8.879396686365195e-05 0.0 0.0
0.0 1.9734919802358686e-05 -3.0059319413039942e-06 2.469990849175453e-06 5.359410921284979e-07 7.920475502921687e-06 0.0 0.0
0.0 4.864242004309961e-06 1.5125132364275768e-07 -1.167044028934505e-07 -3.454692074931702e-08 -4.6353768696553244e-07 0.0 0.0
0.0 1.7628622966370727e-06 7.425115859493936e-08 -6.029149641515662e-08 -1.3959662179784548e-08 -3.4489921188806817e-07 0.0 0.0
0.0 0.0 0.0 0.0 0.0 0.0 0.0 0.0
0.0 0.0 0.0 0.0 0.0 0.0 0.0 0.0
0.0 0.0 0.0 0.0 0.0 0.0 0.0 0.0
0.0 0.0 0.0 0.0 0.0 0.0 0.0 0.0
0.0 6.301117771691601e-07 3.177133557320747e-08 -2.5610055499987776e-08 -6.161280073216576e-09 1.139376708674144e-07 0.0 0.0
0.0 7.479034888138472e-06 5.4592668232219e-07 -4.381286801518101e-07 -1.0779800217037303e-07 1.3945185929680183e-06 0.0 0.0
0.0 2.9923858210334983e-05 -6.429039766971317e-07 5.507669705224668e-07 9.21370061746676e-08 -8.634184797410068e-07 0.0 0.0
0.0 0.00019452024610530665 -0.00011680946123428999 9.332534570965153e-05 2.3484115524638488e-05 -0.00016455025609073576 0.0 0.0
0.0 0.0009655945186254102 -0.0006987886103270554 0.0005671551940602072 0.00013163341626684812 -0.0007132128777188184 0.0 0.0
0.0 0.002613274368570436 -0.002082947926923436 0.0017570061059428493 0.0003259418209805861 -0.0017231932577639276 0.0 0.0
0.0 0.005075083446363933 -0.004228380503852466 0.003716308933962879 0.0005120715698895882 -0.0030985387000143456 0.0 0.0
0.0 0.008227464641731496 -0.006943270935012079 0.00629529680665845 0.0006479741283536256 -0.004640070484958839 0.0 0.0
0.0 0.011968434149166573 -0.010128659768081529 0.00938169012257275 0.0007469696455087796 -0.006186569461659947 0.0 0.0
0.0 0.01630553561418497 -0.013803874327108551 0.012977324263608106 0.0008265500635004468 -0.007711517905246342 0.0 0.0
0.0 0.021337185924389965 -0.0180767442580718 0.017180509313858533 0.0008962349442132604 -0.009265514722510684 0.0 0.0
0.0 0.027250222506132803 -0.023104259909979774 0.022142795375072737 0.0009614645349070296 -0.010924957040483593 0.0 0.0
0.0 0.03423351824313893 -0.029003919193960052 0.027976230616022512 0.001027688577937547 -0.012870271199807196 0.0 0.0
0.0 0.04193891257644204 -0.03565483074768455 0.03455016762797332 0.0011046631197112356 -0.01543439217375127 0.0 0.0
0.0 0.05003096335268217 -0.042342021556251316 0.041138013065656134 0.001204008490595182 -0.0189081717951713 0.0 0.0
0.0 0.056278204851742064 -0.047402208038903264 0.04607036450946468 0.0013318435294385777 -0.022996644021082834 0.0 0.0
0.0 0.057228776978686634 -0.047964342993231816 0.046472249968101995 0.0014920930251297968 -0.025916765331294916 0.0 0.0
0.0 0.04787232952381154 -0.03979172631230096 0.03811118788628122 0.0016805384260197426 -0.024709831058078974 0.0 0.0
0.0 0.04787232952381426 -0.03979172631229911 0.03811118788627972 0.0016805384260193774 0.024709831058105907 0.0 0.0
0.0 0.05722877697868309 -0.04796434299322402 0.046472249968094986 0.0014920930251290268 0.025916765331327862 0.0 0.0
0.0 0.056278204851726424 -0.047402208038886395 0.04607036450944831 0.001331843529438074 0.02299664402110716 0.0 0.0
0.0 0.05003096335265498 -0.0423420215562267 0.04113801306563167 0.001204008490595012 0.018908171795176204 0.0 0.0
0.0 0.041938912576413835 -0.03565483074765978 0.03455016762794935 0.0011046631197104177 0.015434392173746387 0.0 0.0
0.0 0.0342335182431111 -0.029003919193935676 0.027976230615998923 0.0010276885779367524 0.012870271199800946 0.0 0.0
0.0 0.027250222506104663 -0.023104259909955502 0.022142795375049013 0.0009614645349064865 0.010924957040474099 0.0 0.0
0.0 0.02133718592436118 -0.018076744258046548 0.017180509313834077 0.0008962349442124711 0.009265514722503304 0.0 0.0
0.0 0.01630553561415389 -0.01380387432708181 0.012977324263581934 0.0008265500634998739 0.007711517905234383 0.0 0.0
0.0 0.011968434149137626 -0.010128659768057161 0.009381690122548877 0.0007469696455082804 0.006186569461645116 0.0 0.0
0.0 0.008227464641706674 -0.006943270934991112 0.006295296806638117 0.0006479741283529937 0.004640070484943776 0.0 0.0
0.0 0.005075083446345816 -0.004228380503837171 0.003716308933948457 0.0005120715698887144 0.0030985387000046854 0.0 0.0
0.0 0.0026132743685577694 -0.0020829479269129977 0.0017570061059335618 0.00032594182097943635 0.0017231932577567275 0.0 0.0
0.0 0.0009655945186185324 -0.0006987886103221215 0.0005671551940561403 0.0001316334162659812 0.0007132128777143343 0.0 0.0
0.0 0.00019452024610337227 -0.00011680946123370479 9.332534570918318e-05 2.348411552452163e-05 0.00016455025608998295 0.0 0.0
0.0 2.9923858209472496e-05 -6.42903976876831e-07 5.507669706656113e-07 9.213700621111835e-08 8.634184800813694e-07 0.0 0.0
0.0 7.479034887487536e-06 5.459266822702636e-07 -4.3812868011058e-07 -1.0779800215968128e-07 -1.3945185928411796e-06 0.0 0.0
0.0 6.301117768796378e-07 3.177133555832444e-08 -2.5610055487985994e-08 -6.161280070339225e-09 -1.1393767081387647e-07 0.0 0.0
0.0 0.0 0.0 0.0 0.0 0.0 0.0 0.0
0.0 0.0 0.0 0.0 0.0 0.0 0.0 0.0
0.0 0.0 0.0 0.0 0.0 0.0 0.0 0.0
0.0 0.0 0.0 0.0 0.0 0.0 0.0 0.0
0.0 0.0 0.0 0.0 0.0 0.0 0.0 0.0
0.0 3.241628952765024e-06 2.6053331691204254e-07 -2.0807629639336721e-07 -5.2457020518637325e-08 5.164519678466237e-07 0.0 0.0
0.0 4.4640072283948954e-05 -1.4268164853634009e-05 1.136497358269578e-05 2.90319127093824e-06 -1.9022783845486343e-05 0.0 0.0
0.0 0.0004146598213424517 -0.00027808373157682076 0.0002227395923455172 5.534413923130377e-05 -0.0002611598510065511 0.0 0.0
0.0 0.0016455821468772617 -0.0012560437807064393 0.0010368267475948602 0.0002192170331115785 -0.0008889860007693822 0.0 0.0
0.0 0.003705158069126325 -0.003158316158407205 0.002724771864230292 0.00043354429417691407 -0.0019299638941262102 0.0 0.0
0.0 0.006744290420762094 -0.0058227938152499055 0.005221240779946622 0.0006015530353032804 -0.0032460307174305724 0.0 0.0
0.0 0.010587163924085739 -0.009120814330292033 0.008397489611112025 0.0007233247191800094 -0.004674648726015816 0.0 0.0
0.0 0.015145029279651506 -0.013013076901227518 0.012195491690710516 0.0008175852105169972 -0.00614110979712849 0.0 0.0
0.0 0.02042473885146972 -0.01753366830088411 0.01663539506546962 0.0008982732354144805 -0.0075933409548756305 0.0 0.0
0.0 0.026634509041907235 -0.022804188976031897 0.021831155844977877 0.0009730331310540162 -0.009089238450623052 0.0 0.0
0.0 0.033771760114814954 -0.028995645645487567 0.02795131931805149 0.0010443263274360708 -0.01072249360102476 0.0 0.0
0.0 0.04221777561899402 -0.03623455806979338 0.03511823846849571 0.001116319601297679 -0.012554239346780832 0.0 0.0
0.0 0.05185014677302838 -0.04440705931184523 0.04320452378635811 0.0012025355254871213 -0.014815491985585929 0.0 0.0
0.0 0.06143400173201893 -0.05269266339471264 0.051373883319469904 0.0013187800752427273 -0.017990043712009206 0.0 0.0
0.0 0.06894232331736688 -0.05901187139985915 0.05753959036411796 0.0014722810357411854 -0.022204155797762012 0.0 0.0
0.0 0.07029460290056472 -0.05981913424214305 0.05816832154797221 0.001650812694170826 -0.026383781308868617 0.0 0.0
0.0 0.05997483136688607 -0.050249055491302194 0.04841141612432642 0.0018376393669757272 -0.028419441579720175 0.0 0.0
0.0 0.05997483136688582 -0.0502490554912985 0.04841141612432217 0.001837639366976292 0.028419441579747795 0.0 0.0
0.0 0.07029460290055514 -0.05981913424213117 0.05816832154796004 0.0016508126941711272 0.02638378130890192 0.0 0.0
0.0 0.06894232331734837 -0.059011871399840404 0.057539590364099676 0.001472281035740697 0.02220415579778749 0.0 0.0
0.0 0.06143400173199316 -0.05269266339468878 0.051373883319447346 0.0013187800752414416 0.01799004371201754 0.0 0.0
0.0 0.0518501467729941 -0.044407059311815295 0.04320452378632861 0.001202535525486677 0.014815491985583025 0.0 0.0
0.0 0.04221777561896003 -0.036234558069763625 0.03511823846846643 0.0011163196012971737 0.012554239346777095 0.0 0.0
0.0 0.03377176011478068 -0.02899564564545762 0.02795131931802218 0.0010443263274354446 0.010722493601017898 0.0 0.0
0.0 0.026634509041872832 -0.022804188976001692 0.021831155844948127 0.0009730331310535549 0.009089238450615439 0.0 0.0
0.0 0.0204247388514352 -0.017533668300853976 0.01663539506544004 0.0008982732354139301 0.007593340954865657 0.0 0.0
0.0 0.015145029279619054 -0.013013076901199579 0.012195491690683267 0.0008175852105163062 0.006141109797114876 0.0 0.0
0.0 0.010587163924056932 -0.009120814330267315 0.00839748961108811 0.0007233247191792025 0.004674648726001963 0.0 0.0
0.0 0.006744290420741459 -0.005822793815231763 0.00522124077992951 0.000601553035302251 0.0032460307174215167 0.0 0.0
0.0 0.0037051580691114354 -0.003158316158394154 0.002724771864218471 0.0004335442941756825 0.0019299638941193634 0.0 0.0
0.0 0.001645582146867474 -0.0012560437806986193 0.0010368267475882004 0.00021921703311041901 0.0008889860007642574 0.0 0.0
0.0 0.00041465982133833014 -0.0002780837315742602 0.00022273959234345335 5.534413923080667e-05 0.0002611598510042855 0.0 0.0
0.0 4.4640072283120806e-05 -1.4268164853888142e-05 1.1364973582885612e-05 2.903191271002549e-06 1.9022783845725095e-05 0.0 0.0
0.0 3.2416289522024286e-06 2.6053331686397295e-07 -2.080762963552667e-07 -5.245702050872393e-08 -5.164519677547741e-07 0.0 0.0
0.0 0.0 0.0 0.0 0.0 0.0 0.0 0.0
0.0 0.0 0.0 0.0 0.0 0.0 0.0 0.0
0.0 0.0 0.0 0.0 0.0 0.0 0.0 0.0
0.0 0.0 0.0 0.0 0.0 0.0 0.0 0.0
0.0 0.0 0.0 0.0 0.0 0.0 0.0 0.0
0.0 0.0 0.0 0.0 0.0 0.0 0.0 0.0
0.0 2.958464319037319e-06 3.373975818772843e-08 -2.9648397454283972e-08 -4.091360733426249e-09 8.085635169794628e-08 0.0 0.0
0.0 8.880350611558863e-05 -4.170644714541088e-05 3.3461483236838034e-05 8.244963908572986e-06 -4.090333708109021e-05 0.0 0.0
0.0 0.0007735440668415448 -0.000550045581981588 0.0004445983091999635 0.00010544727278162503 -0.0003475075267330346 0.0 0.0
0.0 0.0022795748650310684 -0.0019766143732213603 0.0016619905891918942 0.0003146237840294661 -0.0009926716863651259 0.0 0.0
0.0 0.004885057176226719 -0.004312066524395803 0.003793501771337128 0.0005185647530586742 -0.0019258648007839559 0.0 0.0
0.0 0.008508969537883326 -0.007448890956068403 0.006779548929457253 0.0006693420266111487 -0.003058004479281004 0.0 0.0
0.0 0.013001797326432397 -0.011330354933147435 0.010548192993652459 0.0007821619394949771 -0.004323696886932807 0.0 0.0
0.0 0.018358291331618343 -0.01593157631863014 0.015056052686749198 0.0008755236318809408 -0.0056272191965750454 0.0 0.0
0.0 0.024621923470679874 -0.02130849860848468 0.020347829532868192 0.0009606690756164792 -0.006925522110413554 0.0 0.0
0.0 0.03192401385621028 -0.027596210690658235 0.026554369453514432 0.0010418412371437876 -0.00829126991041233 0.0 0.0
0.0 0.04049171121415723 -0.0349551502460376 0.03383330758163756 0.0011218426644000368 -0.009784471209326222 0.0 0.0
0.0 0.050401084401126575 -0.04348665654523524 0.0422849547628694 0.0012017017823658317 -0.011399264950788685 0.0 0.0
0.0 0.061294431280975115 -0.05306392923421526 0.05177119587799999 0.0012927333562152339 -0.013142696684909297 0.0 0.0
0.0 0.07261671419277943 -0.06283065843008226 0.06140926328762505 0.0014213951424572064 -0.01547222136126739 0.0 0.0
0.0 0.08157159688740598 -0.07044065752829284 0.06884361549281946 0.0015970420354734006 -0.019406534343603846 0.0 0.0
0.0 0.08352927314456214 -0.07173420217956275 0.06993709487672924 0.0017971073028335246 -0.025324220093030543 0.0 0.0
0.0 0.07237229460554057 -0.06105872186394602 0.05906796174188569 0.0019907601220603027 -0.03202842186880124 0.0 0.0
0.0 0.07237229460553848 -0.06105872186394072 0.059067961741880295 0.0019907601220604323 0.032028421868827886 0.0 0.0
0.0 0.08352927314455118 -0.07173420217955014 0.06993709487671727 0.0017971073028328686 0.025324220093061296 0.0 0.0
0.0 0.0815715968873854 -0.07044065752827268 0.06884361549280058 0.0015970420354720477 0.019406534343628545 0.0 0.0
0.0 0.07261671419274424 -0.062830658430051 0.06140926328759433 0.00142139514245667 0.015472221361274142 0.0 0.0
0.0 0.06129443128093412 -0.05306392923417948 0.05177119587796459 0.0012927333562148503 0.013142696684907716 0.0 0.0
0.0 0.05040108440108589 -0.04348665654519971 0.04228495476283442 0.0012017017823652818 0.011399264950785831 0.0 0.0
0.0 0.04049171121411557 -0.03495515024600154 0.03383330758160198 0.001121842664399531 0.009784471209319018 0.0 0.0
0.0 0.031924013856169636 -0.027596210690622788 0.02655436945347972 0.0010418412371430682 0.008291269910404924 0.0 0.0
0.0 0.024621923470639195 -0.02130849860844901 0.020347829532833085 0.0009606690756159336 0.006925522110404951 0.0 0.0
0.0 0.018358291331581355 -0.01593157631859786 0.015056052686717477 0.0008755236318803735 0.005627219196562368 0.0 0.0
0.0 0.01300179732639975 -0.011330354933118916 0.010548192993624512 0.0007821619394944009 0.004323696886920662 0.0 0.0
0.0 0.0085089695378577 -0.007448890956045664 0.0067795489294352656 0.0006693420266103984 0.003058004479272434 0.0 0.0
0.0 0.004885057176209288 -0.004312066524380033 0.003793501771322452 0.0005185647530575807 0.001925864800777719 0.0 0.0
0.0 0.002279574865020348 -0.001976614373211949 0.001661990589183637 0.0003146237840283115 0.0009926716863607782 0.0 0.0
0.0 0.0007735440668362277 -0.0005500455819780442 0.0004445983091970567 0.00010544727278098768 0.00034750752673090883 0.0 0.0
0.0 8.880350611413354e-05 -4.170644714519863e-05 3.346148323666155e-05 8.24496390853697e-06 4.09033370809286e-05 0.0 0.0
0.0 2.958464318665281e-06 3.3739757982979805e-08 -2.964839729337546e-08 -4.091360689591753e-09 -8.085635141619231e-08 0.0 0.0
0.0 0.0 0.0 0.0 0.0 0.0 0.0 0.0
0.0 0.0 0.0 0.0 0.0 0.0 0.0 0.0
0.0 0.0 0.0 0.0 0.0 0.0 0.0 0.0
0.0 0.0 0.0 0.0 0.0 0.0 0.0 0.0
0.0 0.0 0.0 0.0 0.0 0.0 0.0 0.0
0.0 0.0 0.0 0.0 0.0 0.0 0.0 0.0
0.0 3.1544660817836454e-06 3.224665734412443e-07 -2.5193774942845495e-07 -7.052882401279964e-08 3.202068441379336e-07 0.0 0.0
0.0 0.00019710963305965035 -0.00010986920027045018 8.753343366315988e-05 2.233576660729021e-05 -6.645377069086817e-05 0.0 0.0
0.0 0.0012149724697991997 -0.0009495986909405603 0.0007762213324248848 0.00017337735851567586 -0.00039446394220543055 0.0 0.0
0.0 0.003077365167636665 -0.0027739204332073468 0.002373341702244257 0.0004005787309630909 -0.000930294383806924 0.0 0.0
0.0 0.006162575819847808 -0.005490837145097627 0.004906066736032964 0.0005847704090646602 -0.001666265728862724 0.0 0.0
0.0 0.010308724139476717 -0.009094292165067193 0.00837223364896528 0.0007220585161019095 -0.0025766245796982118 0.0 0.0
0.0 0.015458859937640877 -0.013553809401738252 0.012723710762877783 0.0008300986388604665 -0.0036029049021448207 0.0 0.0
0.0 0.021633921773749634 -0.018867743808792907 0.017942222227481205 0.0009255215813117026 -0.0046670630692594185 0.0 0.0
0.0 0.028830724959151354 -0.02511272196607965 0.024096543377785426 0.0010161785882942102 -0.005725706343066857 0.0 0.0
0.0 0.03738228705902238 -0.03243028347052533 0.03132496147110815 0.0011053219994171602 -0.0068454460010941255 0.0 0.0
0.0 0.047122835590816536 -0.04096754017501095 0.03977287640916177 0.0011946637658491722 -0.008125180208694238 0.0 0.0
0.0 0.05835173233309265 -0.050747034004394544 0.04946172715738087 0.0012853068470136896 -0.009467223111604648 0.0 0.0
0.0 0.07079447699623898 -0.06154694560553565 0.060164405161166286 0.0013825404443693688 -0.010566767822930328 0.0 0.0
0.0 0.08347698923753598 -0.07257047431701591 0.0710643771799988 0.0015060971370170822 -0.011597077437286647 0.0 0.0
0.0 0.09391147769958672 -0.08156856849898152 0.07986769169522369 0.001700876803757811 -0.01461241243412569 0.0 0.0
0.0 0.0969779119613621 -0.08383226788430735 0.08189837741439437 0.0019338904699130201 -0.022388079516876987 0.0 0.0
0.0 0.08566715409799809 -0.07255571268618953 0.07040239892362643 0.0021533137625630657 -0.03528671163762688 0.0 0.0
0.0 0.08566715409799548 -0.07255571268618431 0.07040239892362177 0.0021533137625625726 0.035286711637649015 0.0 0.0
0.0 0.0969779119613466 -0.08383226788429159 0.08189837741437968 0.0019338904699119116 0.022388079516903983 0.0 0.0
0.0 0.09391147769955549 -0.08156856849895347 0.07986769169519568 0.0017008768037577535 0.014612412434146854 0.0 0.0
0.0 0.0834769892374944 -0.0725704743169797 0.07106437717996261 0.0015060971370171004 0.011597077437291867 0.0 0.0
0.0 0.07079447699619365 -0.061546945605496166 0.06016440516112721 0.0013825404443689778 0.010566767822930638 0.0 0.0
0.0 0.058351732333045914 -0.05074703400435369 0.04946172715734076 0.0012853068470129337 0.009467223111603508 0.0 0.0
0.0 0.04712283559076906 -0.040967540174969654 0.039772876409121014 0.001194663765848626 0.008125180208689256 0.0 0.0
0.0 0.037382287058973764 -0.03243028347048302 0.0313249614710663 0.0011053219994167206 0.006845446001087717 0.0 0.0
0.0 0.02883072495910538 -0.02511272196603946 0.024096543377746114 0.001016178588293347 0.005725706343061491 0.0 0.0
0.0 0.021633921773708265 -0.01886774380875643 0.017942222227445407 0.0009255215813110148 0.004667063069249259 0.0 0.0
0.0 0.015458859937604586 -0.013553809401706331 0.012723710762846323 0.0008300986388600084 0.003602904902134453 0.0 0.0
0.0 0.010308724139449476 -0.009094292165042903 0.008372233648941628 0.0007220585161012745 0.002576624579691663 0.0 0.0
0.0 0.006162575819827628 -0.005490837145079284 0.004906066736015526 0.0005847704090637584 0.0016662657288574348 0.0 0.0
0.0 0.0030773651676224796 -0.002773920433194309 0.0023733417022324546 0.0004005787309618549 0.0009302943838027722 0.0 0.0
0.0 0.001214972469791325 -0.0009495986909341027 0.0007762213324194534 0.0001733773585146484 0.0003944639422028164 0.0 0.0
0.0 0.00019710963305734087 -0.00010986920026939161 8.753343366229825e-05 2.2335766607093454e-05 6.645377069021238e-05 0.0 0.0
0.0 3.1544660810424034e-06 3.224665733627379e-07 -2.519377493679251e-07 -7.05288239948042e-08 -3.2020684406640237e-07 0.0 0.0
0.0 0.0 0.0 0.0 0.0 0.0 0.0 0.0
0.0 0.0 0.0 0.0 0.0 0.0 0.0 0.0
0.0 0.0 0.0 0.0 0.0 0.0 0.0 0.0
0.0 0.0 0.0 0.0 0.0 0.0 0.0 0.0
0.0 0.0 0.0 0.0 0.0 0.0 0.0 0.0
0.0 0.0 0.0 0.0 0.0 0.0 0.0 0.0
0.0 7.480929744594875e-06 8.970346975284954e-07 -6.929961877200582e-07 -2.0403850980840786e-07 5.50205352796341e-07 0.0 0.0
0.0 0.000411988216795482 -0.0002550401135675629 0.00020417860860480236 5.086150496276076e-05 -8.831913960192226e-05 0.0 0.0
0.0 0.001599098685113244 -0.0014714867188620397 0.0012176319022646422 0.00025385481659739704 -0.0003459896846348128 0.0 0.0
0.0 0.0039772972966522924 -0.0036055298161528164 0.003135397420963537 0.00047013239518927817 -0.0007014858168717315 0.0 0.0
0.0 0.007470088858001237 -0.006685648057964468 0.0060480614440512025 0.000637586613913264 -0.0011914833792585223 0.0 0.0
0.0 0.012130425485370088 -0.010742810428993412 0.009979120977596392 0.0007636894513970154 -0.0018111987798247596 0.0 0.0
0.0 0.01793424475188326 -0.015776601528149834 0.014906544953850999 0.0008700565742988307 -0.002523133101458515 0.0 0.0
0.0 0.02491238094309592 -0.02180841896482614 0.020838847029519637 0.000969571935306513 -0.003259610062638213 0.0 0.0
0.0 0.03321310386754304 -0.02892990666239781 0.027863047243185984 0.0010668594192118149 -0.003993221519822932 0.0 0.0
0.0 0.04271680037921764 -0.03729317272817881 0.0361289289537592 0.001164243774419598 -0.0048049662058593 0.0 0.0
0.0 0.05384103055757822 -0.04700137658654504 0.04573773841034984 0.0012636381761951803 -0.005724041752279821 0.0 0.0
0.0 0.06650294891730911 -0.05798878336373118 0.0566217416920554 0.0013670416716757994 -0.006637126367493634 0.0 0.0
0.0 0.08017847625953094 -0.06987388008857859 0.06839906179073203 0.0014748182978465611 -0.007228034001983867 0.0 0.0
0.0 0.0938847572119372 -0.08180569967233697 0.08021526515532783 0.0015904345170091963 -0.007134212401461177 0.0 0.0
0.0 0.10565932950571616 -0.09203149773734552 0.09028262663396255 0.0017488711033829766 -0.007917522812686076 0.0 0.0
0.0 0.1107647450537566 -0.09615425175460562 0.09408944045987741 0.0020648112947281587 -0.016416798748761466 0.0 0.0
0.0 0.1002856600588857 -0.08526834488948518 0.08292376116015844 0.0023445837293267022 -0.037512055591081006 0.0 0.0
0.0 0.10028566005887851 -0.08526834488947743 0.0829237611601504 0.002344583729326984 0.03751205559109563 0.0 0.0
0.0 0.11076474505373515 -0.09615425175458615 0.09408944045985809 0.0020648112947280004 0.016416798748781897 0.0 0.0
0.0 0.10565932950568238 -0.09203149773731545 0.09028262663393351 0.0017488711033819533 0.007917522812702497 0.0 0.0
0.0 0.0938847572118956 -0.08180569967230006 0.08021526515529262 0.0015904345170073978 0.0071342124014636835 0.0 0.0
0.0 0.08017847625948352 -0.06987388008853697 0.06839906179069169 0.0014748182978452735 0.007228034001984274 0.0 0.0
0.0 0.06650294891726014 -0.05798878336368825 0.05662174169201364 0.001367041671674624 0.006637126367493059 0.0 0.0
0.0 0.053841030557527085 -0.04700137658650043 0.04573773841030613 0.0012636381761942806 0.0057240417522774496 0.0 0.0
0.0 0.04271680037916273 -0.03729317272813109 0.03612892895371198 0.0011642437744190976 0.004804966205854478 0.0 0.0
0.0 0.03321310386748944 -0.028929906662350933 0.02786304724313954 0.0010668594192113788 0.003993221519819863 0.0 0.0
0.0 0.024912380943048366 -0.02180841896478458 0.020838847029478733 0.0009695719353058376 0.0032596100626310293 0.0 0.0
0.0 0.01793424475184337 -0.015776601528114626 0.014906544953816684 0.0008700565742979466 0.0025231331014516504 0.0 0.0
0.0 0.012130425485337543 -0.01074281042896413 0.009979120977567913 0.0007636894513962198 0.0018111987798204903 0.0 0.0
0.0 0.007470088857977107 -0.006685648057942588 0.006048061444030272 0.0006375866139123156 0.0011914833792544685 0.0 0.0
0.0 0.003977297296635549 -0.003605529816137212 0.0031353974209491686 0.0004701323951880425 0.0007014858168685446 0.0 0.0
0.0 0.0015990986851044885 -0.0014714867188538386 0.0012176319022575977 0.0002538548165962408 0.000345989684632948 0.0 0.0
0.0 0.0004119882167913444 -0.00025504011356480686 0.0002041786086025261 5.086150496228057e-05 8.831913960093672e-05 0.0 0.0
0.0 7.48092974373735e-06 8.970346974239649e-07 -6.929961876401887e-07 -2.040385097838224e-07 -5.502053527401145e-07 0.0 0.0
0.0 0.0 0.0 0.0 0.0 0.0 0.0 0.0
0.0 0.0 0.0 0.0 0.0 0.0 0.0 0.0
0.0 0.0 0.0 0.0 0.0 0.0 0.0 0.0
0.0 0.0 0.0 0.0 0.0 0.0 0.0 0.0
0.0 0.0 0.0 0.0 0.0 0.0 0.0 0.0
0.0 0.0 0.0 0.0 0.0 0.0 0.0 0.0
0.0 2.1095379896502325e-05 -5.550208480213088e-06 4.440057488876586e-06 1.1101509913366496e-06 -1.9091879580603833e-06 0.0 0.0
0.0 0.0007506971159437264 -0.0004890034253121422 0.000393607639752032 9.539578556011017e-05 -6.726283281983909e-05 0.0 0.0
0.0 0.0022018048495230235 -0.0020270745397560994 0.0016999388064766676 0.0003271357332794313 -0.00016839219581809273 0.0 0.0
0.0 0.00490976351172996 -0.004457584487067247 0.0039303031743413794 0.0005272813127258666 -0.00031242848314187857 0.0 0.0
0.0 0.008812662421152279 -0.007880276507395275 0.007201234118040707 0.0006790423893545649 -0.0005068336675264834 0.0 0.0
0.0 0.013983311645473253 -0.012379594554596317 0.011581900026303223 0.0007976945282930965 -0.0007694293674532295 0.0 0.0
0.0 0.020460960626574404 -0.01798279988999298 0.017078435291562798 0.000904364598430184 -0.001084044211255098 0.0 0.0
0.0 0.028321569435184196 -0.024739299128905032 0.023730833558222923 0.0010084655706820986 -0.001409559594990431 0.0 0.0
0.0 0.03740280272628166 -0.03275751200734456 0.031644069333160614 0.0011134426741839418 -0.0017563986291037328 0.0 0.0
0.0 0.04815206865717971 -0.042157849845842366 0.04093845791359972 0.0012193919322426284 -0.0021353919489177356 0.0 0.0
0.0 0.06065185592940197 -0.05301473447083695 0.05168590036885797 0.0013288341019789384 -0.002537307430552084 0.0 0.0
0.0 0.07466866742275216 -0.06518582923021113 0.06374106592071278 0.0014447633094983483 -0.0029079371607951096 0.0 0.0
0.0 0.08957150241246309 -0.0781037469975392 0.07653713978145675 0.0015666072160824501 -0.0030430209741176602 0.0 0.0
0.0 0.10408295942077102 -0.0906885650341919 0.08900109160193477 0.0016874734322570753 -0.002592148948880212 0.0 0.0
0.0 0.11637872591169897 -0.10138943789926189 0.09958477484596694 0.0018046630532949214 -0.0014425426049035186 0.0 0.0
0.0 0.1236749230526913 -0.1076390503072823 0.10565327621014409 0.0019857740971381305 -0.005011367058848533 0.0 0.0
0.0 0.11745738351817368 -0.10063041661127971 0.09792801054707825 0.0027024060642014416 -0.03476875001084917 0.0 0.0
0.0 0.11745738351816543 -0.100630416611272 0.09792801054707057 0.0027024060642013804 0.034768750010854804 0.0 0.0
0.0 0.12367492305266775 -0.10763905030726148 0.10565327621012398 0.0019857740971374526 0.005011367058857335 0.0 0.0
0.0 0.11637872591165921 -0.10138943789922715 0.09958477484593295 0.001804663053294145 0.0014425426049114434 0.0 0.0
0.0 0.10408295942071871 -0.09068856503414655 0.08900109160188964 0.0016874734322568472 0.0025921489488800646 0.0 0.0
0.0 0.08957150241240615 -0.07810374699748976 0.0765371397814076 0.0015666072160821476 0.003043020974117859 0.0 0.0
0.0 0.07466866742269379 -0.06518582923016031 0.06374106592066262 0.0014447633094976805 0.0029079371607946213 0.0 0.0
0.0 0.06065185592934312 -0.05301473447078575 0.05168590036880745 0.0013288341019782896 0.002537307430551906 0.0 0.0
0.0 0.04815206865712115 -0.04215784984579128 0.04093845791354957 0.0012193919322416777 0.0021353919489160923 0.0 0.0
0.0 0.037402802726223566 -0.032757512007293835 0.031644069333110765 0.001113442674183058 0.001756398629102858 0.0 0.0
0.0 0.028321569435131706 -0.024739299128859107 0.023730833558177726 0.0010084655706813837 0.0014095595949860376 0.0 0.0
0.0 0.02046096062653162 -0.017982799889955742 0.017078435291526195 0.000904364598429552 0.0010840442112518697 0.0 0.0
0.0 0.013983311645439504 -0.012379594554566269 0.011581900026273883 0.0007976945282923835 0.0007694293674518733 0.0 0.0
0.0 0.008812662421126596 -0.007880276507371903 0.007201234118018058 0.0006790423893538469 0.000506833667524836 0.0 0.0
0.0 0.004909763511712213 -0.004457584487050823 0.003930303174325952 0.0005272813127248728 0.0003124284831408819 0.0 0.0
0.0 0.0022018048495136117 -0.0020270745397469067 0.0016999388064685194 0.00032713573327838706 0.00016839219581726286 0.0 0.0
0.0 0.000750697115938802 -0.0004890034253086505 0.0003936076397491792 9.539578555947176e-05 6.726283281951033e-05 0.0 0.0
0.0 2.1095379895901684e-05 -5.5502084803696495e-06 4.440057488987761e-06 1.1101509913818778e-06 1.909187958048337e-06 0.0 0.0
0.0 0.0 0.0 0.0 0.0 0.0 0.0 0.0
0.0 0.0 0.0 0.0 0.0 0.0 0.0 0.0
0.0 0.0 0.0 0.0 0.0 0.0 0.0 0.0