# vtk DataFile Version 3.0
Some data
ASCII
DATASET UNSTRUCTURED_GRID
POINTS 861 float
0.0 0.0 0.0
0.4 0.0 0.0
0.8 0.0 0.0
1.2000000000000002 0.0 0.0
1.6 0.0 0.0
2.0 0.0 0.0
2.4000000000000004 0.0 0.0
2.8000000000000003 0.0 0.0
3.2 0.0 0.0
3.6 0.0 0.0
4.0 0.0 0.0
4.4 0.0 0.0
4.800000000000001 0.0 0.0
5.2 0.0 0.0
5.6000000000000005 0.0 0.0
6.0 0.0 0.0
6.4 0.0 0.0
6.800000000000001 0.0 0.0
7.2 0.0 0.0
7.6000000000000005 0.0 0.0
8.0 0.0 0.0
8.4 0.0 0.0
8.8 0.0 0.0
9.200000000000001 0.0 0.0
9.600000000000001 0.0 0.0
10.0 0.0 0.0
10.4 0.0 0.0
10.8 0.0 0.0
11.200000000000001 0.0 0.0
11.600000000000001 0.0 0.0
12.0 0.0 0.0
12.4 0.0 0.0
12.8 0.0 0.0
13.200000000000001 0.0 0.0
13.600000000000001 0.0 0.0
14.0 0.0 0.0
14.4 0.0 0.0
14.8 0.0 0.0
15.200000000000001 0.0 0.0
15.600000000000001 0.0 0.0
16.0 0.0 0.0
0.0 0.1 0.0
0.4 0.1 0.0
0.8 0.1 0.0
1.2000000000000002 0.1 0.0
1.6 0.1 0.0
2.0 0.1 0.0
2.4000000000000004 0.1 0.0
2.8000000000000003 0.1 0.0
3.2 0.1 0.0
3.6 0.1 0.0
4.0 0.1 0.0
4.4 0.1 0.0
4.800000000000001 0.1 0.0
5.2 0.1 0.0
5.6000000000000005 0.1 0.0
6.0 0.1 0.0
6.4 0.1 0.0
6.800000000000001 0.1 0.0
7.2 0.1 0.0
7.6000000000000005 0.1 0.0
8.0 0.1 0.0
8.4 0.1 0.0
8.8 0.1 0.0
9.200000000000001 0.1 0.0
9.600000000000001 0.1 0.0
10.0 0.1 0.0
10.4 0.1 0.0
10.8 0.1 0.0
11.200000000000001 0.1 0.0
11.600000000000001 0.1 0.0
12.0 0.1 0.0
12.4 0.1 0.0
12.8 0.1 0.0
13.200000000000001 0.1 0.0
13.600000000000001 0.1 0.0
14.0 0.1 0.0
14.4 0.1 0.0
14.8 0.1 0.0
15.200000000000001 0.1 0.0
15.600000000000001 0.1 0.0
16.0 0.1 0.0
0.0 0.2 0.0
0.4 0.2 0.0
0.8 0.2 0.0
1.2000000000000002 0.2 0.0
1.6 0.2 0.0
2.0 0.2 0.0
2.4000000000000004 0.2 0.0
2.8000000000000003 0.2 0.0
3.2 0.2 0.0
3.6 0.2 0.0
4.0 0.2 0.0
4.4 0.2 0.0
4.800000000000001 0.2 0.0
5.2 0.2 0.0
5.6000000000000005 0.2 0.0
6.0 0.2 0.0
6.4 0.2 0.0
6.800000000000001 0.2 0.0
7.2 0.2 0.0
7.6000000000000005 0.2 0.0
8.0 0.2 0.0
8.4 0.2 0.0
8.8 0.2 0.0
9.200000000000001 0.2 0.0
9.600000000000001 0.2 0.0
10.0 0.2 0.0
10.4 0.2 0.0
10.8 0.2 0.0
11.200000000000001 0.2 0.0
11.600000000000001 0.2 0.0
12.0 0.2 0.0
12.4 0.2 0.0
12.8 0.2 0.0
13.200000000000001 0.2 0.0
13.600000000000001 0.2 0.0
14.0 0.2 0.0
14.4 0.2 0.0
14.8 0.2 0.0
15.200000000000001 0.2 0.0
15.600000000000001 0.2 0.0
16.0 0.2 0.0
0.0 0.30000000000000004 0.0
0.4 0.30000000000000004 0.0
0.8 0.30000000000000004 0.0
1.2000000000000002 0.30000000000000004 0.0
1.6 0.30000000000000004 0.0
2.0 0.30000000000000004 0.0
2.4000000000000004 0.30000000000000004 0.0
2.8000000000000003 0.30000000000000004 0.0
3.2 0.30000000000000004 0.0
3.6 0.30000000000000004 0.0
4.0 0.30000000000000004 0.0
4.4 0.30000000000000004 0.0
4.800000000000001 0.30000000000000004 0.0
5.2 0.30000000000000004 0.0
5.6000000000000005 0.30000000000000004 0.0
6.0 0.30000000000000004 0.0
6.4 0.30000000000000004 0.0
6.800000000000001 0.30000000000000004 0.0
7.2 0.30000000000000004 0.0
7.6000000000000005 0.30000000000000004 0.0
8.0 0.30000000000000004 0.0
8.4 0.30000000000000004 0.0
8.8 0.30000000000000004 0.0
9.200000000000001 0.30000000000000004 0.0
9.600000000000001 0.30000000000000004 0.0
10.0 0.30000000000000004 0.0
10.4 0.30000000000000004 0.0
10.8 0.30000000000000004 0.0
11.200000000000001 0.30000000000000004 0.0
11.600000000000001 0.30000000000000004 0.0
12.0 0.30000000000000004 0.0
12.4 0.30000000000000004 0.0
12.8 0.30000000000000004 0.0
13.200000000000001 0.30000000000000004 0.0
13.600000000000001 0.30000000000000004 0.0
14.0 0.30000000000000004 0.0
14.4 0.30000000000000004 0.0
14.8 0.30000000000000004 0.0
15.200000000000001 0.30000000000000004 0.0
15.600000000000001 0.30000000000000004 0.0
16.0 0.30000000000000004 0.0
0.0 0.4 0.0
0.4 0.4 0.0
0.8 0.4 0.0
1.2000000000000002 0.4 0.0
1.6 0.4 0.0
2.0 0.4 0.0
2.4000000000000004 0.4 0.0
2.8000000000000003 0.4 0.0
3.2 0.4 0.0
3.6 0.4 0.0
4.0 0.4 0.0
4.4 0.4 0.0
4.800000000000001 0.4 0.0
5.2 0.4 0.0
5.6000000000000005 0.4 0.0
6.0 0.4 0.0
6.4 0.4 0.0
6.800000000000001 0.4 0.0
7.2 0.4 0.0
7.6000000000000005 0.4 0.0
8.0 0.4 0.0
8.4 0.4 0.0
8.8 0.4 0.0
9.200000000000001 0.4 0.0
9.600000000000001 0.4 0.0
10.0 0.4 0.0
10.4 0.4 0.0
10.8 0.4 0.0
11.200000000000001 0.4 0.0
11.600000000000001 0.4 0.0
12.0 0.4 0.0
12.4 0.4 0.0
12.8 0.4 0.0
13.200000000000001 0.4 0.0
13.600000000000001 0.4 0.0
14.0 0.4 0.0
14.4 0.4 0.0
14.8 0.4 0.0
15.200000000000001 0.4 0.0
15.600000000000001 0.4 0.0
16.0 0.4 0.0
0.0 0.5 0.0
0.4 0.5 0.0
0.8 0.5 0.0
1.2000000000000002 0.5 0.0
1.6 0.5 0.0
2.0 0.5 0.0
2.4000000000000004 0.5 0.0
2.8000000000000003 0.5 0.0
3.2 0.5 0.0
3.6 0.5 0.0
4.0 0.5 0.0
4.4 0.5 0.0
4.800000000000001 0.5 0.0
5.2 0.5 0.0
5.6000000000000005 0.5 0.0
6.0 0.5 0.0
6.4 0.5 0.0
6.800000000000001 0.5 0.0
7.2 0.5 0.0
7.6000000000000005 0.5 0.0
8.0 0.5 0.0
8.4 0.5 0.0
8.8 0.5 0.0
9.200000000000001 0.5 0.0
9.600000000000001 0.5 0.0
10.0 0.5 0.0
10.4 0.5 0.0
10.8 0.5 0.0
11.200000000000001 0.5 0.0
11.600000000000001 0.5 0.0
12.0 0.5 0.0
12.4 0.5 0.0
12.8 0.5 0.0
13.200000000000001 0.5 0.0
13.600000000000001 0.5 0.0
14.0 0.5 0.0
14.4 0.5 0.0
14.8 0.5 0.0
15.200000000000001 0.5 0.0
15.600000000000001 0.5 0.0
16.0 0.5 0.0
0.0 0.6000000000000001 0.0
0.4 0.6000000000000001 0.0
0.8 0.6000000000000001 0.0
1.2000000000000002 0.6000000000000001 0.0
1.6 0.6000000000000001 0.0
2.0 0.6000000000000001 0.0
2.4000000000000004 0.6000000000000001 0.0
2.8000000000000003 0.6000000000000001 0.0
3.2 0.6000000000000001 0.0
3.6 0.6000000000000001 0.0
4.0 0.6000000000000001 0.0
4.4 0.6000000000000001 0.0
4.800000000000001 0.6000000000000001 0.0
5.2 0.6000000000000001 0.0
5.6000000000000005 0.6000000000000001 0.0
6.0 0.6000000000000001 0.0
6.4 0.6000000000000001 0.0
6.800000000000001 0.6000000000000001 0.0
7.2 0.6000000000000001 0.0
7.6000000000000005 0.6000000000000001 0.0
8.0 0.6000000000000001 0.0
8.4 0.6000000000000001 0.0
8.8 0.6000000000000001 0.0
9.200000000000001 0.6000000000000001 0.0
9.600000000000001 0.6000000000000001 0.0
10.0 0.6000000000000001 0.0
10.4 0.6000000000000001 0.0
10.8 0.6000000000000001 0.0
11.200000000000001 0.6000000000000001 0.0
11.600000000000001 0.6000000000000001 0.0
12.0 0.6000000000000001 0.0
12.4 0.6000000000000001 0.0
12.8 0.6000000000000001 0.0
13.200000000000001 0.6000000000000001 0.0
13.600000000000001 0.6000000000000001 0.0
14.0 0.6000000000000001 0.0
14.4 0.6000000000000001 0.0
14.8 0.6000000000000001 0.0
15.200000000000001 0.6000000000000001 0.0
15.600000000000001 0.6000000000000001 0.0
16.0 0.6000000000000001 0.0
0.0 0.7000000000000001 0.0
0.4 0.7000000000000001 0.0
0.8 0.7000000000000001 0.0
1.2000000000000002 0.7000000000000001 0.0
1.6 0.7000000000000001 0.0
2.0 0.7000000000000001 0.0
2.4000000000000004 0.7000000000000001 0.0
2.8000000000000003 0.7000000000000001 0.0
3.2 0.7000000000000001 0.0
3.6 0.7000000000000001 0.0
4.0 0.7000000000000001 0.0
4.4 0.7000000000000001 0.0
4.800000000000001 0.7000000000000001 0.0
5.2 0.7000000000000001 0.0
5.6000000000000005 0.7000000000000001 0.0
6.0 0.7000000000000001 0.0
6.4 0.7000000000000001 0.0
6.800000000000001 0.7000000000000001 0.0
7.2 0.7000000000000001 0.0
7.6000000000000005 0.7000000000000001 0.0
8.0 0.7000000000000001 0.0
8.4 0.7000000000000001 0.0
8.8 0.7000000000000001 0.0
9.200000000000001 0.7000000000000001 0.0
9.600000000000001 0.7000000000000001 0.0
10.0 0.7000000000000001 0.0
10.4 0.7000000000000001 0.0
10.8 0.7000000000000001 0.0
11.200000000000001 0.7000000000000001 0.0
11.600000000000001 0.7000000000000001 0.0
12.0 0.7000000000000001 0.0
12.4 0.7000000000000001 0.0
12.8 0.7000000000000001 0.0
13.200000000000001 0.7000000000000001 0.0
13.600000000000001 0.7000000000000001 0.0
14.0 0.7000000000000001 0.0
14.4 0.7000000000000001 0.0
14.8 0.7000000000000001 0.0
15.200000000000001 0.7000000000000001 0.0
15.600000000000001 0.7000000000000001 0.0
16.0 0.7000000000000001 0.0
0.0 0.8 0.0
0.4 0.8 0.0
0.8 0.8 0.0
1.2000000000000002 0.8 0.0
1.6 0.8 0.0
2.0 0.8 0.0
2.4000000000000004 0.8 0.0
2.8000000000000003 0.8 0.0
3.2 0.8 0.0
3.6 0.8 0.0
4.0 0.8 0.0
4.4 0.8 0.0
4.800000000000001 0.8 0.0
5.2 0.8 0.0
5.6000000000000005 0.8 0.0
6.0 0.8 0.0
6.4 0.8 0.0
6.800000000000001 0.8 0.0
7.2 0.8 0.0
7.6000000000000005 0.8 0.0
8.0 0.8 0.0
8.4 0.8 0.0
8.8 0.8 0.0
9.200000000000001 0.8 0.0
9.600000000000001 0.8 0.0
10.0 0.8 0.0
10.4 0.8 0.0
10.8 0.8 0.0
11.200000000000001 0.8 0.0
11.600000000000001 0.8 0.0
12.0 0.8 0.0
12.4 0.8 0.0
12.8 0.8 0.0
13.200000000000001 0.8 0.0
13.600000000000001 0.8 0.0
14.0 0.8 0.0
14.4 0.8 0.0
14.8 0.8 0.0
15.200000000000001 0.8 0.0
15.600000000000001 0.8 0.0
16.0 0.8 0.0
0.0 0.9 0.0
0.4 0.9 0.0
0.8 0.9 0.0
1.2000000000000002 0.9 0.0
1.6 0.9 0.0
2.0 0.9 0.0
2.4000000000000004 0.9 0.0
2.8000000000000003 0.9 0.0
3.2 0.9 0.0
3.6 0.9 0.0
4.0 0.9 0.0
4.4 0.9 0.0
4.800000000000001 0.9 0.0
5.2 0.9 0.0
5.6000000000000005 0.9 0.0
6.0 0.9 0.0
6.4 0.9 0.0
6.800000000000001 0.9 0.0
7.2 0.9 0.0
7.6000000000000005 0.9 0.0
8.0 0.9 0.0
8.4 0.9 0.0
8.8 0.9 0.0
9.200000000000001 0.9 0.0
9.600000000000001 0.9 0.0
10.0 0.9 0.0
10.4 0.9 0.0
10.8 0.9 0.0
11.200000000000001 0.9 0.0
11.600000000000001 0.9 0.0
12.0 0.9 0.0
12.4 0.9 0.0
12.8 0.9 0.0
13.200000000000001 0.9 0.0
13.600000000000001 0.9 0.0
14.0 0.9 0.0
14.4 0.9 0.0
14.8 0.9 0.0
15.200000000000001 0.9 0.0
15.600000000000001 0.9 0.0
16.0 0.9 0.0
0.0 1.0 0.0
0.4 1.0 0.0
0.8 1.0 0.0
1.2000000000000002 1.0 0.0
1.6 1.0 0.0
2.0 1.0 0.0
2.4000000000000004 1.0 0.0
2.8000000000000003 1.0 0.0
3.2 1.0 0.0
3.6 1.0 0.0
4.0 1.0 0.0
4.4 1.0 0.0
4.800000000000001 1.0 0.0
5.2 1.0 0.0
5.6000000000000005 1.0 0.0
6.0 1.0 0.0
6.4 1.0 0.0
6.800000000000001 1.0 0.0
7.2 1.0 0.0
7.6000000000000005 1.0 0.0
8.0 1.0 0.0
8.4 1.0 0.0
8.8 1.0 0.0
9.200000000000001 1.0 0.0
9.600000000000001 1.0 0.0
10.0 1.0 0.0
10.4 1.0 0.0
10.8 1.0 0.0
11.200000000000001 1.0 0.0
11.600000000000001 1.0 0.0
12.0 1.0 0.0
12.4 1.0 0.0
12.8 1.0 0.0
13.200000000000001 1.0 0.0
13.600000000000001 1.0 0.0
14.0 1.0 0.0
14.4 1.0 0.0
14.8 1.0 0.0
15.200000000000001 1.0 0.0
15.600000000000001 1.0 0.0
16.0 1.0 0.0
0.0 1.1 0.0
0.4 1.1 0.0
0.8 1.1 0.0
1.2000000000000002 1.1 0.0
1.6 1.1 0.0
2.0 1.1 0.0
2.4000000000000004 1.1 0.0
2.8000000000000003 1.1 0.0
3.2 1.1 0.0
3.6 1.1 0.0
4.0 1.1 0.0
4.4 1.1 0.0
4.800000000000001 1.1 0.0
5.2 1.1 0.0
5.6000000000000005 1.1 0.0
6.0 1.1 0.0
6.4 1.1 0.0
6.800000000000001 1.1 0.0
7.2 1.1 0.0
7.6000000000000005 1.1 0.0
8.0 1.1 0.0
8.4 1.1 0.0
8.8 1.1 0.0
9.200000000000001 1.1 0.0
9.600000000000001 1.1 0.0
10.0 1.1 0.0
10.4 1.1 0.0
10.8 1.1 0.0
11.200000000000001 1.1 0.0
11.600000000000001 1.1 0.0
12.0 1.1 0.0
12.4 1.1 0.0
12.8 1.1 0.0
13.200000000000001 1.1 0.0
13.600000000000001 1.1 0.0
14.0 1.1 0.0
14.4 1.1 0.0
14.8 1.1 0.0
15.200000000000001 1.1 0.0
15.600000000000001 1.1 0.0
16.0 1.1 0.0
0.0 1.2000000000000002 0.0
0.4 1.2000000000000002 0.0
0.8 1.2000000000000002 0.0
1.2000000000000002 1.2000000000000002 0.0
1.6 1.2000000000000002 0.0
2.0 1.2000000000000002 0.0
2.4000000000000004 1.2000000000000002 0.0
2.8000000000000003 1.2000000000000002 0.0
3.2 1.2000000000000002 0.0
3.6 1.2000000000000002 0.0
4.0 1.2000000000000002 0.0
4.4 1.2000000000000002 0.0
4.800000000000001 1.2000000000000002 0.0
5.2 1.2000000000000002 0.0
5.6000000000000005 1.2000000000000002 0.0
6.0 1.2000000000000002 0.0
6.4 1.2000000000000002 0.0
6.800000000000001 1.2000000000000002 0.0
7.2 1.2000000000000002 0.0
7.6000000000000005 1.2000000000000002 0.0
8.0 1.2000000000000002 0.0
8.4 1.2000000000000002 0.0
8.8 1.2000000000000002 0.0
9.200000000000001 1.2000000000000002 0.0
9.600000000000001 1.2000000000000002 0.0
10.0 1.2000000000000002 0.0
10.4 1.2000000000000002 0.0
10.8 1.2000000000000002 0.0
11.200000000000001 1.2000000000000002 0.0
11.600000000000001 1.2000000000000002 0.0
12.0 1.2000000000000002 0.0
12.4 1.2000000000000002 0.0
12.8 1.2000000000000002 0.0
13.200000000000001 1.2000000000000002 0.0
13.600000000000001 1.2000000000000002 0.0
14.0 1.2000000000000002 0.0
14.4 1.2000000000000002 0.0
14.8 1.2000000000000002 0.0
15.200000000000001 1.2000000000000002 0.0
15.600000000000001 1.2000000000000002 0.0
16.0 1.2000000000000002 0.0
0.0 1.3 0.0
0.4 1.3 0.0
0.8 1.3 0.0
1.2000000000000002 1.3 0.0
1.6 1.3 0.0
2.0 1.3 0.0
2.4000000000000004 1.3 0.0
2.8000000000000003 1.3 0.0
3.2 1.3 0.0
3.6 1.3 0.0
4.0 1.3 0.0
4.4 1.3 0.0
4.800000000000001 1.3 0.0
5.2 1.3 0.0
5.6000000000000005 1.3 0.0
6.0 1.3 0.0
6.4 1.3 0.0
6.800000000000001 1.3 0.0
7.2 1.3 0.0
7.6000000000000005 1.3 0.0
8.0 1.3 0.0
8.4 1.3 0.0
8.8 1.3 0.0
9.200000000000001 1.3 0.0
9.600000000000001 1.3 0.0
10.0 1.3 0.0
10.4 1.3 0.0
10.8 1.3 0.0
11.200000000000001 1.3 0.0
11.600000000000001 1.3 0.0
12.0 1.3 0.0
12.4 1.3 0.0
12.8 1.3 0.0
13.200000000000001 1.3 0.0
13.600000000000001 1.3 0.0
14.0 1.3 0.0
14.4 1.3 0.0
14.8 1.3 0.0
15.200000000000001 1.3 0.0
15.600000000000001 1.3 0.0
16.0 1.3 0.0
0.0 1.4000000000000001 0.0
0.4 1.4000000000000001 0.0
0.8 1.4000000000000001 0.0
1.2000000000000002 1.4000000000000001 0.0
1.6 1.4000000000000001 0.0
2.0 1.4000000000000001 0.0
2.4000000000000004 1.4000000000000001 0.0
2.8000000000000003 1.4000000000000001 0.0
3.2 1.4000000000000001 0.0
3.6 1.4000000000000001 0.0
4.0 1.4000000000000001 0.0
4.4 1.4000000000000001 0.0
4.800000000000001 1.4000000000000001 0.0
5.2 1.4000000000000001 0.0
5.6000000000000005 1.4000000000000001 0.0
6.0 1.4000000000000001 0.0
6.4 1.4000000000000001 0.0
6.800000000000001 1.4000000000000001 0.0
7.2 1.4000000000000001 0.0
7.6000000000000005 1.4000000000000001 0.0
8.0 1.4000000000000001 0.0
8.4 1.4000000000000001 0.0
8.8 1.4000000000000001 0.0
9.200000000000001 1.4000000000000001 0.0
9.600000000000001 1.4000000000000001 0.0
10.0 1.4000000000000001 0.0
10.4 1.4000000000000001 0.0
10.8 1.4000000000000001 0.0
11.200000000000001 1.4000000000000001 0.0
11.600000000000001 1.4000000000000001 0.0
12.0 1.4000000000000001 0.0
12.4 1.4000000000000001 0.0
12.8 1.4000000000000001 0.0
13.200000000000001 1.4000000000000001 0.0
13.600000000000001 1.4000000000000001 0.0
14.0 1.4000000000000001 0.0
14.4 1.4000000000000001 0.0
14.8 1.4000000000000001 0.0
15.200000000000001 1.4000000000000001 0.0
15.600000000000001 1.4000000000000001 0.0
16.0 1.4000000000000001 0.0
0.0 1.5 0.0
0.4 1.5 0.0
0.8 1.5 0.0
1.2000000000000002 1.5 0.0
1.6 1.5 0.0
2.0 1.5 0.0
2.4000000000000004 1.5 0.0
2.8000000000000003 1.5 0.0
3.2 1.5 0.0
3.6 1.5 0.0
4.0 1.5 0.0
4.4 1.5 0.0
4.800000000000001 1.5 0.0
5.2 1.5 0.0
5.6000000000000005 1.5 0.0
6.0 1.5 0.0
6.4 1.5 0.0
6.800000000000001 1.5 0.0
7.2 1.5 0.0
7.6000000000000005 1.5 0.0
8.0 1.5 0.0
8.4 1.5 0.0
8.8 1.5 0.0
9.200000000000001 1.5 0.0
9.600000000000001 1.5 0.0
10.0 1.5 0.0
10.4 1.5 0.0
10.8 1.5 0.0
11.200000000000001 1.5 0.0
11.600000000000001 1.5 0.0
12.0 1.5 0.0
12.4 1.5 0.0
12.8 1.5 0.0
13.200000000000001 1.5 0.0
13.600000000000001 1.5 0.0
14.0 1.5 0.0
14.4 1.5 0.0
14.8 1.5 0.0
15.200000000000001 1.5 0.0
15.600000000000001 1.5 0.0
16.0 1.5 0.0
0.0 1.6 0.0
0.4 1.6 0.0
0.8 1.6 0.0
1.2000000000000002 1.6 0.0
1.6 1.6 0.0
2.0 1.6 0.0
2.4000000000000004 1.6 0.0
2.8000000000000003 1.6 0.0
3.2 1.6 0.0
3.6 1.6 0.0
4.0 1.6 0.0
4.4 1.6 0.0
4.800000000000001 1.6 0.0
5.2 1.6 0.0
5.6000000000000005 1.6 0.0
6.0 1.6 0.0
6.4 1.6 0.0
6.800000000000001 1.6 0.0
7.2 1.6 0.0
7.6000000000000005 1.6 0.0
8.0 1.6 0.0
8.4 1.6 0.0
8.8 1.6 0.0
9.200000000000001 1.6 0.0
9.600000000000001 1.6 0.0
10.0 1.6 0.0
10.4 1.6 0.0
10.8 1.6 0.0
11.200000000000001 1.6 0.0
11.600000000000001 1.6 0.0
12.0 1.6 0.0
12.4 1.6 0.0
12.8 1.6 0.0
13.200000000000001 1.6 0.0
13.600000000000001 1.6 0.0
14.0 1.6 0.0
14.4 1.6 0.0
14.8 1.6 0.0
15.200000000000001 1.6 0.0
15.600000000000001 1.6 0.0
16.0 1.6 0.0
0.0 1.7000000000000002 0.0
0.4 1.7000000000000002 0.0
0.8 1.7000000000000002 0.0
1.2000000000000002 1.7000000000000002 0.0
1.6 1.7000000000000002 0.0
2.0 1.7000000000000002 0.0
2.4000000000000004 1.7000000000000002 0.0
2.8000000000000003 1.7000000000000002 0.0
3.2 1.7000000000000002 0.0
3.6 1.7000000000000002 0.0
4.0 1.7000000000000002 0.0
4.4 1.7000000000000002 0.0
4.800000000000001 1.7000000000000002 0.0
5.2 1.7000000000000002 0.0
5.6000000000000005 1.7000000000000002 0.0
6.0 1.7000000000000002 0.0
6.4 1.7000000000000002 0.0
6.800000000000001 1.7000000000000002 0.0
7.2 1.7000000000000002 0.0
7.6000000000000005 1.7000000000000002 0.0
8.0 1.7000000000000002 0.0
8.4 1.7000000000000002 0.0
8.8 1.7000000000000002 0.0
9.200000000000001 1.7000000000000002 0.0
9.600000000000001 1.7000000000000002 0.0
10.0 1.7000000000000002 0.0
10.4 1.7000000000000002 0.0
10.8 1.7000000000000002 0.0
11.200000000000001 1.7000000000000002 0.0
11.600000000000001 1.7000000000000002 0.0
12.0 1.7000000000000002 0.0
12.4 1.7000000000000002 0.0
12.8 1.7000000000000002 0.0
13.200000000000001 1.7000000000000002 0.0
13.600000000000001 1.7000000000000002 0.0
14.0 1.7000000000000002 0.0
14.4 1.7000000000000002 0.0
14.8 1.7000000000000002 0.0
15.200000000000001 1.7000000000000002 0.0
15.600000000000001 1.7000000000000002 0.0
16.0 1.7000000000000002 0.0
0.0 1.8 0.0
0.4 1.8 0.0
0.8 1.8 0.0
1.2000000000000002 1.8 0.0
1.6 1.8 0.0
2.0 1.8 0.0
2.4000000000000004 1.8 0.0
2.8000000000000003 1.8 0.0
3.2 1.8 0.0
3.6 1.8 0.0
4.0 1.8 0.0
4.4 1.8 0.0
4.800000000000001 1.8 0.0
5.2 1.8 0.0
5.6000000000000005 1.8 0.0
6.0 1.8 0.0
6.4 1.8 0.0
6.800000000000001 1.8 0.0
7.2 1.8 0.0
7.6000000000000005 1.8 0.0
8.0 1.8 0.0
8.4 1.8 0.0
8.8 1.8 0.0
9.200000000000001 1.8 0.0
9.600000000000001 1.8 0.0
10.0 1.8 0.0
10.4 1.8 0.0
10.8 1.8 0.0
11.200000000000001 1.8 0.0
11.600000000000001 1.8 0.0
12.0 1.8 0.0
12.4 1.8 0.0
12.8 1.8 0.0
13.200000000000001 1.8 0.0
13.600000000000001 1.8 0.0
14.0 1.8 0.0
14.4 1.8 0.0
14.8 1.8 0.0
15.200000000000001 1.8 0.0
15.600000000000001 1.8 0.0
16.0 1.8 0.0
0.0 1.9000000000000001 0.0
0.4 1.9000000000000001 0.0
0.8 1.9000000000000001 0.0
1.2000000000000002 1.9000000000000001 0.0
1.6 1.9000000000000001 0.0
2.0 1.9000000000000001 0.0
2.4000000000000004 1.9000000000000001 0.0
2.8000000000000003 1.9000000000000001 0.0
3.2 1.9000000000000001 0.0
3.6 1.9000000000000001 0.0
4.0 1.9000000000000001 0.0
4.4 1.9000000000000001 0.0
4.800000000000001 1.9000000000000001 0.0
5.2 1.9000000000000001 0.0
5.6000000000000005 1.9000000000000001 0.0
6.0 1.9000000000000001 0.0
6.4 1.9000000000000001 0.0
6.800000000000001 1.9000000000000001 0.0
7.2 1.9000000000000001 0.0
7.6000000000000005 1.9000000000000001 0.0
8.0 1.9000000000000001 0.0
8.4 1.9000000000000001 0.0
8.8 1.9000000000000001 0.0
9.200000000000001 1.9000000000000001 0.0
9.600000000000001 1.9000000000000001 0.0
10.0 1.9000000000000001 0.0
10.4 1.9000000000000001 0.0
10.8 1.9000000000000001 0.0
11.200000000000001 1.9000000000000001 0.0
11.600000000000001 1.9000000000000001 0.0
12.0 1.9000000000000001 0.0
12.4 1.9000000000000001 0.0
12.8 1.9000000000000001 0.0
13.200000000000001 1.9000000000000001 0.0
13.600000000000001 1.9000000000000001 0.0
14.0 1.9000000000000001 0.0
14.4 1.9000000000000001 0.0
14.8 1.9000000000000001 0.0
15.200000000000001 1.9000000000000001 0.0
15.600000000000001 1.9000000000000001 0.0
16.0 1.9000000000000001 0.0
0.0 2.0 0.0
0.4 2.0 0.0
0.8 2.0 0.0
1.2000000000000002 2.0 0.0
1.6 2.0 0.0
2.0 2.0 0.0
2.4000000000000004 2.0 0.0
2.8000000000000003 2.0 0.0
3.2 2.0 0.0
3.6 2.0 0.0
4.0 2.0 0.0
4.4 2.0 0.0
4.800000000000001 2.0 0.0
5.2 2.0 0.0
5.6000000000000005 2.0 0.0
6.0 2.0 0.0
6.4 2.0 0.0
6.800000000000001 2.0 0.0
7.2 2.0 0.0
7.6000000000000005 2.0 0.0
8.0 2.0 0.0
8.4 2.0 0.0
8.8 2.0 0.0
9.200000000000001 2.0 0.0
9.600000000000001 2.0 0.0
10.0 2.0 0.0
10.4 2.0 0.0
10.8 2.0 0.0
11.200000000000001 2.0 0.0
11.600000000000001 2.0 0.0
12.0 2.0 0.0
12.4 2.0 0.0
12.8 2.0 0.0
13.200000000000001 2.0 0.0
13.600000000000001 2.0 0.0
14.0 2.0 0.0
14.4 2.0 0.0
14.8 2.0 0.0
15.200000000000001 2.0 0.0
15.600000000000001 2.0 0.0
16.0 2.0 0.0
CELLS 800 4000
4 0 1 42 41
4 1 2 43 42
4 2 3 44 43
4 3 4 45 44
4 4 5 46 45
4 5 6 47 46
4 6 7 48 47
4 7 8 49 48
4 8 9 50 49
4 9 10 51 50
4 10 11 52 51
4 11 12 53 52
4 12 13 54 53
4 13 14 55 54
4 14 15 56 55
4 15 16 57 56
4 16 17 58 57
4 17 18 59 58
4 18 19 60 59
4 19 20 61 60
4 20 21 62 61
4 21 22 63 62
4 22 23 64 63
4 23 24 65 64
4 24 25 66 65
4 25 26 67 66
4 26 27 68 67
4 27 28 69 68
4 28 29 70 69
4 29 30 71 70
4 30 31 72 71
4 31 32 73 72
4 32 33 74 73
4 33 34 75 74
4 34 35 76 75
4 35 36 77 76
4 36 37 78 77
4 37 38 79 78
4 38 39 80 79
4 39 40 81 80
4 41 42 83 82
4 42 43 84 83
4 43 44 85 84
4 44 45 86 85
4 45 46 87 86
4 46 47 88 87
4 47 48 89 88
4 48 49 90 89
4 49 50 91 90
4 50 51 92 91
4 51 52 93 92
4 52 53 94 93
4 53 54 95 94
4 54 55 96 95
4 55 56 97 96
4 56 57 98 97
4 57 58 99 98
4 58 59 100 99
4 59 60 101 100
4 60 61 102 101
4 61 62 103 102
4 62 63 104 103
4 63 64 105 104
4 64 65 106 105
4 65 66 107 106
4 66 67 108 107
4 67 68 109 108
4 68 69 110 109
4 69 70 111 110
4 70 71 112 111
4 71 72 113 112
4 72 73 114 113
4 73 74 115 114
4 74 75 116 115
4 75 76 117 116
4 76 77 118 117
4 77 78 119 118
4 78 79 120 119
4 79 80 121 120
4 80 81 122 121
4 82 83 124 123
4 83 84 125 124
4 84 85 126 125
4 85 86 127 126
4 86 87 128 127
4 87 88 129 128
4 88 89 130 129
4 89 90 131 130
4 90 91 132 131
4 91 92 133 132
4 92 93 134 133
4 93 94 135 134
4 94 95 136 135
4 95 96 137 136
4 96 97 138 137
4 97 98 139 138
4 98 99 140 139
4 99 100 141 140
4 100 101 142 141
4 101 102 143 142
4 102 103 144 143
4 103 104 145 144
4 104 105 146 145
4 105 106 147 146
4 106 107 148 147
4 107 108 149 148
4 108 109 150 149
4 109 110 151 150
4 110 111 152 151
4 111 112 153 152
4 112 113 154 153
4 113 114 155 154
4 114 115 156 155
4 115 116 157 156
4 116 117 158 157
4 117 118 159 158
4 118 119 160 159
4 119 120 161 160
4 120 121 162 161
4 121 122 163 162
4 123 124 165 164
4 124 125 166 165
4 125 126 167 166
4 126 127 168 167
4 127 128 169 168
4 128 129 170 169
4 129 130 171 170
4 130 131 172 171
4 131 132 173 172
4 132 133 174 173
4 133 134 175 174
4 134 135 176 175
4 135 136 177 176
4 136 137 178 177
4 137 138 179 178
4 138 139 180 179
4 139 140 181 180
4 140 141 182 181
4 141 142 183 182
4 142 143 184 183
4 143 144 185 184
4 144 145 186 185
4 145 146 187 186
4 146 147 188 187
4 147 148 189 188
4 148 149 190 189
4 149 150 191 190
4 150 151 192 191
4 151 152 193 192
4 152 153 194 193
4 153 154 195 194
4 154 155 196 195
4 155 156 197 196
4 156 157 198 197
4 157 158 199 198
4 158 159 200 199
4 159 160 201 200
4 160 161 202 201
4 161 162 203 202
4 162 163 204 203
4 164 165 206 205
4 165 166 207 206
4 166 167 208 207
4 167 168 209 208
4 168 169 210 209
4 169 170 211 210
4 170 171 212 211
4 171 172 213 212
4 172 173 214 213
4 173 174 215 214
4 174 175 216 215
4 175 176 217 216
4 176 177 218 217
4 177 178 219 218
4 178 179 220 219
4 179 180 221 220
4 180 181 222 221
4 181 182 223 222
4 182 183 224 223
4 183 184 225 224
4 184 185 226 225
4 185 186 227 226
4 186 187 228 227
4 187 188 229 228
4 188 189 230 229
4 189 190 231 230
4 190 191 232 231
4 191 192 233 232
4 192 193 234 233
4 193 194 235 234
4 194 195 236 235
4 195 196 237 236
4 196 197 238 237
4 197 198 239 238
4 198 199 240 239
4 199 200 241 240
4 200 201 242 241
4 201 202 243 242
4 202 203 244 243
4 203 204 245 244
4 205 206 247 246
4 206 207 248 247
4 207 208 249 248
4 208 209 250 249
4 209 210 251 250
4 210 211 252 251
4 211 212 253 252
4 212 213 254 253
4 213 214 255 254
4 214 215 256 255
4 215 216 257 256
4 216 217 258 257
4 217 218 259 258
4 218 219 260 259
4 219 220 261 260
4 220 221 262 261
4 221 222 263 262
4 222 223 264 263
4 223 224 265 264
4 224 225 266 265
4 225 226 267 266
4 226 227 268 267
4 227 228 269 268
4 228 229 270 269
4 229 230 271 270
4 230 231 272 271
4 231 232 273 272
4 232 233 274 273
4 233 234 275 274
4 234 235 276 275
4 235 236 277 276
4 236 237 278 277
4 237 238 279 278
4 238 239 280 279
4 239 240 281 280
4 240 241 282 281
4 241 242 283 282
4 242 243 284 283
4 243 244 285 284
4 244 245 286 285
4 246 247 288 287
4 247 248 289 288
4 248 249 290 289
4 249 250 291 290
4 250 251 292 291
4 251 252 293 292
4 252 253 294 293
4 253 254 295 294
4 254 255 296 295
4 255 256 297 296
4 256 257 298 297
4 257 258 299 298
4 258 259 300 299
4 259 260 301 300
4 260 261 302 301
4 261 262 303 302
4 262 263 304 303
4 263 264 305 304
4 264 265 306 305
4 265 266 307 306
4 266 267 308 307
4 267 268 309 308
4 268 269 310 309
4 269 270 311 310
4 270 271 312 311
4 271 272 313 312
4 272 273 314 313
4 273 274 315 314
4 274 275 316 315
4 275 276 317 316
4 276 277 318 317
4 277 278 319 318
4 278 279 320 319
4 279 280 321 320
4 280 281 322 321
4 281 282 323 322
4 282 283 324 323
4 283 284 325 324
4 284 285 326 325
4 285 286 327 326
4 287 288 329 328
4 288 289 330 329
4 289 290 331 330
4 290 291 332 331
4 291 292 333 332
4 292 293 334 333
4 293 294 335 334
4 294 295 336 335
4 295 296 337 336
4 296 297 338 337
4 297 298 339 338
4 298 299 340 339
4 299 300 341 340
4 300 301 342 341
4 301 302 343 342
4 302 303 344 343
4 303 304 345 344
4 304 305 346 345
4 305 306 347 346
4 306 307 348 347
4 307 308 349 348
4 308 309 350 349
4 309 310 351 350
4 310 311 352 351
4 311 312 353 352
4 312 313 354 353
4 313 314 355 354
4 314 315 356 355
4 315 316 357 356
4 316 317 358 357
4 317 318 359 358
4 318 319 360 359
4 319 320 361 360
4 320 321 362 361
4 321 322 363 362
4 322 323 364 363
4 323 324 365 364
4 324 325 366 365
4 325 326 367 366
4 326 327 368 367
4 328 329 370 369
4 329 330 371 370
4 330 331 372 371
4 331 332 373 372
4 332 333 374 373
4 333 334 375 374
4 334 335 376 375
4 335 336 377 376
4 336 337 378 377
4 337 338 379 378
4 338 339 380 379
4 339 340 381 380
4 340 341 382 381
4 341 342 383 382
4 342 343 384 383
4 343 344 385 384
4 344 345 386 385
4 345 346 387 386
4 346 347 388 387
4 347 348 389 388
4 348 349 390 389
4 349 350 391 390
4 350 351 392 391
4 351 352 393 392
4 352 353 394 393
4 353 354 395 394
4 354 355 396 395
4 355 356 397 396
4 356 357 398 397
4 357 358 399 398
4 358 359 400 399
4 359 360 401 400
4 360 361 402 401
4 361 362 403 402
4 362 363 404 403
4 363 364 405 404
4 364 365 406 405
4 365 366 407 406
4 366 367 408 407
4 367 368 409 408
4 369 370 411 410
4 370 371 412 411
4 371 372 413 412
4 372 373 414 413
4 373 374 415 414
4 374 375 416 415
4 375 376 417 416
4 376 377 418 417
4 377 378 419 418
4 378 379 420 419
4 379 380 421 420
4 380 381 422 421
4 381 382 423 422
4 382 383 424 423
4 383 384 425 424
4 384 385 426 425
4 385 386 427 426
4 386 387 428 427
4 387 388 429 428
4 388 389 430 429
4 389 390 431 430
4 390 391 432 431
4 391 392 433 432
4 392 393 434 433
4 393 394 435 434
4 394 395 436 435
4 395 396 437 436
4 396 397 438 437
4 397 398 439 438
4 398 399 440 439
4 399 400 441 440
4 400 401 442 441
4 401 402 443 442
4 402 403 444 443
4 403 404 445 444
4 404 405 446 445
4 405 406 447 446
4 406 407 448 447
4 407 408 449 448
4 408 409 450 449
4 410 411 452 451
4 411 412 453 452
4 412 413 454 453
4 413 414 455 454
4 414 415 456 455
4 415 416 457 456
4 416 417 458 457
4 417 418 459 458
4 418 419 460 459
4 419 420 461 460
4 420 421 462 461
4 421 422 463 462
4 422 423 464 463
4 423 424 465 464
4 424 425 466 465
4 425 426 467 466
4 426 427 468 467
4 427 428 469 468
4 428 429 470 469
4 429 430 471 470
4 430 431 472 471
4 431 432 473 472
4 432 433 474 473
4 433 434 475 474
4 434 435 476 475
4 435 436 477 476
4 436 437 478 477
4 437 438 479 478
4 438 439 480 479
4 439 440 481 480
4 440 441 482 481
4 441 442 483 482
4 442 443 484 483
4 443 444 485 484
4 444 445 486 485
4 445 446 487 486
4 446 447 488 487
4 447 448 489 488
4 448 449 490 489
4 449 450 491 490
4 451 452 493 492
4 452 453 494 493
4 453 454 495 494
4 454 455 496 495
4 455 456 497 496
4 456 457 498 497
4 457 458 499 498
4 458 459 500 499
4 459 460 501 500
4 460 461 502 501
4 461 462 503 502
4 462 463 504 503
4 463 464 505 504
4 464 465 506 505
4 465 466 507 506
4 466 467 508 507
4 467 468 509 508
4 468 469 510 509
4 469 470 511 510
4 470 471 512 511
4 471 472 513 512
4 472 473 514 513
4 473 474 515 514
4 474 475 516 515
4 475 476 517 516
4 476 477 518 517
4 477 478 519 518
4 478 479 520 519
4 479 480 521 520
4 480 481 522 521
4 481 482 523 522
4 482 483 524 523
4 483 484 525 524
4 484 485 526 525
4 485 486 527 526
4 486 487 528 527
4 487 488 529 528
4 488 489 530 529
4 489 490 531 530
4 490 491 532 531
4 492 493 534 533
4 493 494 535 534
4 494 495 536 535
4 495 496 537 536
4 496 497 538 537
4 497 498 539 538
4 498 499 540 539
4 499 500 541 540
4 500 501 542 541
4 501 502 543 542
4 502 503 544 543
4 503 504 545 544
4 504 505 546 545
4 505 506 547 546
4 506 507 548 547
4 507 508 549 548
4 508 509 550 549
4 509 510 551 550
4 510 511 552 551
4 511 512 553 552
4 512 513 554 553
4 513 514 555 554
4 514 515 556 555
4 515 516 557 556
4 516 517 558 557
4 517 518 559 558
4 518 519 560 559
4 519 520 561 560
4 520 521 562 561
4 521 522 563 562
4 522 523 564 563
4 523 524 565 564
4 524 525 566 565
4 525 526 567 566
4 526 527 568 567
4 527 528 569 568
4 528 529 570 569
4 529 530 571 570
4 530 531 572 571
4 531 532 573 572
4 533 534 575 574
4 534 535 576 575
4 535 536 577 576
4 536 537 578 577
4 537 538 579 578
4 538 539 580 579
4 539 540 581 580
4 540 541 582 581
4 541 542 583 582
4 542 543 584 583
4 543 544 585 584
4 544 545 586 585
4 545 546 587 586
4 546 547 588 587
4 547 548 589 588
4 548 549 590 589
4 549 550 591 590
4 550 551 592 591
4 551 552 593 592
4 552 553 594 593
4 553 554 595 594
4 554 555 596 595
4 555 556 597 596
4 556 557 598 597
4 557 558 599 598
4 558 559 600 599
4 559 560 601 600
4 560 561 602 601
4 561 562 603 602
4 562 563 604 603
4 563 564 605 604
4 564 565 606 605
4 565 566 607 606
4 566 567 608 607
4 567 568 609 608
4 568 569 610 609
4 569 570 611 610
4 570 571 612 611
4 571 572 613 612
4 572 573 614 613
4 574 575 616 615
4 575 576 617 616
4 576 577 618 617
4 577 578 619 618
4 578 579 620 619
4 579 580 621 620
4 580 581 622 621
4 581 582 623 622
4 582 583 624 623
4 583 584 625 624
4 584 585 626 625
4 585 586 627 626
4 586 587 628 627
4 587 588 629 628
4 588 589 630 629
4 589 590 631 630
4 590 591 632 631
4 591 592 633 632
4 592 593 634 633
4 593 594 635 634
4 594 595 636 635
4 595 596 637 636
4 596 597 638 637
4 597 598 639 638
4 598 599 640 639
4 599 600 641 640
4 600 601 642 641
4 601 602 643 642
4 602 603 644 643
4 603 604 645 644
4 604 605 646 645
4 605 606 647 646
4 606 607 648 647
4 607 608 649 648
4 608 609 650 649
4 609 610 651 650
4 610 611 652 651
4 611 612 653 652
4 612 613 654 653
4 613 614 655 654
4 615 616 657 656
4 616 617 658 657
4 617 618 659 658
4 618 619 660 659
4 619 620 661 660
4 620 621 662 661
4 621 622 663 662
4 622 623 664 663
4 623 624 665 664
4 624 625 666 665
4 625 626 667 666
4 626 627 668 667
4 627 628 669 668
4 628 629 670 669
4 629 630 671 670
4 630 631 672 671
4 631 632 673 672
4 632 633 674 673
4 633 634 675 674
4 634 635 676 675
4 635 636 677 676
4 636 637 678 677
4 637 638 679 678
4 638 639 680 679
4 639 640 681 680
4 640 641 682 681
4 641 642 683 682
4 642 643 684 683
4 643 644 685 684
4 644 645 686 685
4 645 646 687 686
4 646 647 688 687
4 647 648 689 688
4 648 649 690 689
4 649 650 691 690
4 650 651 692 691
4 651 652 693 692
4 652 653 694 693
4 653 654 695 694
4 654 655 696 695
4 656 657 698 697
4 657 658 699 698
4 658 659 700 699
4 659 660 701 700
4 660 661 702 701
4 661 662 703 702
4 662 663 704 703
4 663 664 705 704
4 664 665 706 705
4 665 666 707 706
4 666 667 708 707
4 667 668 709 708
4 668 669 710 709
4 669 670 711 710
4 670 671 712 711
4 671 672 713 712
4 672 673 714 713
4 673 674 715 714
4 674 675 716 715
4 675 676 717 716
4 676 677 718 717
4 677 678 719 718
4 678 679 720 719
4 679 680 721 720
4 680 681 722 721
4 681 682 723 722
4 682 683 724 723
4 683 684 725 724
4 684 685 726 725
4 685 686 727 726
4 686 687 728 727
4 687 688 729 728
4 688 689 730 729
4 689 690 731 730
4 690 691 732 731
4 691 692 733 732
4 692 693 734 733
4 693 694 735 734
4 694 695 736 735
4 695 696 737 736
4 697 698 739 738
4 698 699 740 739
4 699 700 741 740
4 700 701 742 741
4 701 702 743 742
4 702 703 744 743
4 703 704 745 744
4 704 705 746 745
4 705 706 747 746
4 706 707 748 747
4 707 708 749 748
4 708 709 750 749
4 709 710 751 750
4 710 711 752 751
4 711 712 753 752
4 712 713 754 753
4 713 714 755 754
4 714 715 756 755
4 715 716 757 756
4 716 717 758 757
4 717 718 759 758
4 718 719 760 759
4 719 720 761 760
4 720 721 762 761
4 721 722 763 762
4 722 723 764 763
4 723 724 765 764
4 724 725 766 765
4 725 726 767 766
4 726 727 768 767
4 727 728 769 768
4 728 729 770 769
4 729 730 771 770
4 730 731 772 771
4 731 732 773 772
4 732 733 774 773
4 733 734 775 774
4 734 735 776 775
4 735 736 777 776
4 736 737 778 777
4 738 739 780 779
4 739 740 781 780
4 740 741 782 781
4 741 742 783 782
4 742 743 784 783
4 743 744 785 784
4 744 745 786 785
4 745 746 787 786
4 746 747 788 787
4 747 748 789 788
4 748 749 790 789
4 749 750 791 790
4 750 751 792 791
4 751 752 793 792
4 752 753 794 793
4 753 754 795 794
4 754 755 796 795
4 755 756 797 796
4 756 757 798 797
4 757 758 799 798
4 758 759 800 799
4 759 760 801 800
4 760 761 802 801
4 761 762 803 802
4 762 763 804 803
4 763 764 805 804
4 764 765 806 805
4 765 766 807 806
4 766 767 808 807
4 767 768 809 808
4 768 769 810 809
4 769 770 811 810
4 770 771 812 811
4 771 772 813 812
4 772 773 814 813
4 773 774 815 814
4 774 775 816 815
4 775 776 817 816
4 776 777 818 817
4 777 778 819 818
4 779 780 821 820
4 780 781 822 821
4 781 782 823 822
4 782 783 824 823
4 783 784 825 824
4 784 785 826 825
4 785 786 827 826
4 786 787 828 827
4 787 788 829 828
4 788 789 830 829
4 789 790 831 830
4 790 791 832 831
4 791 792 833 832
4 792 793 834 833
4 793 794 835 834
4 794 795 836 835
4 795 796 837 836
4 796 797 838 837
4 797 798 839 838
4 798 799 840 839
4 799 800 841 840
4 800 801 842 841
4 801 802 843 842
4 802 803 844 843
4 803 804 845 844
4 804 805 846 845
4 805 806 847 846
4 806 807 848 847
4 807 808 849 848
4 808 809 850 849
4 809 810 851 850
4 810 811 852 851
4 811 812 853 852
4 812 813 854 853
4 813 814 855 854
4 814 815 856 855
4 815 816 857 856
4 816 817 858 857
4 817 818 859 858
4 818 819 860 859
CELL_TYPES 800
9
9
9
9
9
9
9
9
9
9
9
9
9
9
9
9
9
9
9
9
9
9
9
9
9
9
9
9
9
9
9
9
9
9
9
9
9
9
9
9
9
9
9
9
9
9
9
9
9
9
9
9
9
9
9
9
9
9
9
9
9
9
9
9
9
9
9
9
9
9
9
9
9
9
9
9
9
9
9
9
9
9
9
9
9
9
9
9
9
9
9
9
9
9
9
9
9
9
9
9
9
9
9
9
9
9
9
9
9
9
9
9
9
9
9
9
9
9
9
9
9
9
9
9
9
9
9
9
9
9
9
9
9
9
9
9
9
9
9
9
9
9
9
9
9
9
9
9
9
9
9
9
9
9
9
9
9
9
9
9
9
9
9
9
9
9
9
9
9
9
9
9
9
9
9
9
9
9
9
9
9
9
9
9
9
9
9
9
9
9
9
9
9
9
9
9
9
9
9
9
9
9
9
9
9
9
9
9
9
9
9
9
9
9
9
9
9
9
9
9
9
9
9
9
9
9
9
9
9
9
9
9
9
9
9
9
9
9
9
9
9
9
9
9
9
9
9
9
9
9
9
9
9
9
9
9
9
9
9
9
9
9
9
9
9
9
9
9
9
9
9
9
9
9
9
9
9
9
9
9
9
9
9
9
9
9
9
9
9
9
9
9
9
9
9
9
9
9
9
9
9
9
9
9
9
9
9
9
9
9
9
9
9
9
9
9
9
9
9
9
9
9
9
9
9
9
9
9
9
9
9
9
9
9
9
9
9
9
9
9
9
9
9
9
9
9
9
9
9
9
9
9
9
9
9
9
9
9
9
9
9
9
9
9
9
9
9
9
9
9
9
9
9
9
9
9
9
9
9
9
9
9
9
9
9
9
9
9
9
9
9
9
9
9
9
9
9
9
9
9
9
9
9
9
9
9
9
9
9
9
9
9
9
9
9
9
9
9
9
9
9
9
9
9
9
9
9
9
9
9
9
9
9
9
9
9
9
9
9
9
9
9
9
9
9
9
9
9
9
9
9
9
9
9
9
9
9
9
9
9
9
9
9
9
9
9
9
9
9
9
9
9
9
9
9
9
9
9
9
9
9
9
9
9
9
9
9
9
9
9
9
9
9
9
9
9
9
9
9
9
9
9
9
9
9
9
9
9
9
9
9
9
9
9
9
9
9
9
9
9
9
9
9
9
9
9
9
9
9
9
9
9
9
9
9
9
9
9
9
9
9
9
9
9
9
9
9
9
9
9
9
9
9
9
9
9
9
9
9
9
9
9
9
9
9
9
9
9
9
9
9
9
9
9
9
9
9
9
9
9
9
9
9
9
9
9
9
9
9
9
9
9
9
9
9
9
9
9
9
9
9
9
9
9
9
9
9
9
9
9
9
9
9
9
9
9
9
9
9
9
9
9
9
9
9
9
9
9
9
9
9
9
9
9
9
9
9
9
9
9
9
9
9
9
9
9
9
9
9
9
9
9
9
9
9
9
9
9
9
9
9
9
9
9
9
9
9
9
9
9
9
9
9
9
9
9
9
9
9
9
9
9
9
9
9
9
9
9
9
9
9
9
9
9
9
9
9
9
9
9
9
9
9
9
9
9
9
9
9
9
9
9
9
9
9
9
9
9
9
9
9
9
9
9
9
9
9
9
9
9
9
9
9
9
9
9
9
9
9
9
9
9
9
9
9
9
9
9
9
9
9
9
9
9
9
9
9
9
9
9
9
9
9
9
9
9
9
9
9
9
9
9
9
9
9
9
9
9
9
9
9
9
9
9
9
9
9
9
9
9
9
9
9
9
9
9
9
9
9
9
POINT_DATA 861
SCALARS Disp float 2
LOOKUP_TABLE default
0.0 0.0
0.006169872940407022 -0.2883563915322399
0.007592551608963096 -0.5669896089183272
0.008397915681314372 -0.8444728718896406
0.009466455761079823 -1.1215575191207963
0.011268343887794931 -1.3977736786171655
0.014524742423741164 -1.672490009197096
0.02013049754571724 -1.9449091894550656
0.029142451861943346 -2.2140292538662374
0.042711333141810984 -2.478533940511533
0.061977868545855686 -2.7366406304010065
0.08800050760576436 -2.986021780052505
0.12172225016905336 -3.2238512540024207
0.16396029531713954 -3.446937665149313
0.21539804431773887 -3.6518166263762644
0.27651451097582785 -3.8348291507464163
0.34746236480066434 -3.9922263703704313
0.4279268052382402 -4.120334654479251
0.517010382331324 -4.215809513134141
0.6131925909036948 -4.2758884742607846
0.7140713866012648 -4.298720638834817
0.8149501822988299 -4.275888474260648
0.91113239087118 -4.215809513133864
1.0002159679642275 -4.120334654478851
1.0806804084017587 -3.9922263703699317
1.151628262226546 -3.834829150745845
1.2127447288845852 -3.6518166263756395
1.2641824778851352 -3.446937665148651
1.3064205230331722 -3.2238512540017417
1.3401422655964146 -2.9860217800518325
1.3661649046562816 -2.736640630400357
1.385431440060292 -2.4785339405109235
1.399000321340133 -2.214029253865674
1.4080122756563396 -1.9449091894545578
1.4136180307783015 -1.6724900091966481
1.4168744293142397 -1.3977736786167871
1.418676317440951 -1.121557519120487
1.4197448575207152 -0.8444728718894038
1.4205502215930663 -0.5669896089181622
1.421972900261621 -0.2883563915321493
1.4281427732020249 0.0
0.07192436287637093 -0.0025436217651711446
0.07627675211992198 -0.2886573161489581
0.07701092902236878 -0.5670532092387532
0.07772159869451202 -0.8445657885360094
0.07865267563328704 -1.1217190194422515
0.08017668137573045 -1.3981451433593544
0.08297154672788684 -1.6732725825647603
0.08788188173172172 -1.9463438968940707
0.095899040401947 -2.216385628353027
0.10807251897436797 -2.4820863720903374
0.1254198092942216 -2.741648418857268
0.1488705882335344 -2.992719452700991
0.17925898313524025 -3.2324470277490596
0.21732690450062908 -3.4576120197361035
0.2636973858017867 -3.6647137509828878
0.31881735960313584 -3.8500337982910717
0.38285047172154496 -4.009731228832963
0.4555517423232627 -4.140008121700791
0.5361510345879793 -4.237369724244525
0.6231869785495697 -4.298874305270233
0.7140713866012481 -4.322298864742091
0.8049557946529214 -4.298874305270093
0.8919917386144928 -4.2373697242442425
0.9725910308791776 -4.140008121700382
1.0452923014808564 -4.009731228832452
1.1093254135992217 -3.8500337982904895
1.164445387400526 -3.6647137509822514
1.2108158687016388 -3.45761201973543
1.2488837900669838 -3.23244702774837
1.2792721849686477 -2.992719452700308
1.3027229639079227 -2.74164841885661
1.3200702542277454 -2.4820863720897206
1.3322437328001422 -2.216385628352459
1.3402608914703493 -1.946343896893559
1.3451712264741718 -1.6732725825643102
1.3479660918263212 -1.3981451433589747
1.3494900975687616 -1.1217190194419417
1.350421174507536 -0.8445657885357727
1.3511318441796791 -0.5670532092385882
1.3518660210821256 -0.28865731614886725
1.356218410325671 -0.0025436217651686383
0.14282048001204742 -0.004572902454661274
0.14603101317167042 -0.28880823274960926
0.14644893869175427 -0.5670845591183701
0.14702740140802112 -0.8446472102272283
0.1478321068845961 -1.1218462773657705
0.14910626175660566 -1.3984390765300663
0.1514518567520719 -1.6739221835314493
0.15566979588135715 -1.9475774501834344
0.1626741217713231 -2.218452831824383
0.17341614499543112 -2.485234403351
0.18879627305041644 -2.7461058165106222
0.2096258163811568 -2.9986912030714032
0.23663185631817638 -3.240117637453584
0.2704697631453418 -3.467145167323276
0.3117067838603876 -3.6762418096761746
0.36076077044600546 -3.863638918098715
0.41781850170251716 -4.025417628726028
0.4827204556493244 -4.157670068976526
0.5548066579478786 -4.256754870239391
0.632678060440158 -4.319509644663594
0.7140713866012318 -4.343463690708698
0.7954647127623008 -4.319509644663451
0.8733361152545631 -4.256754870239102
0.9454223175530894 -4.157670068976109
1.0103242714998624 -4.025417628725507
1.0673820027563354 -3.8636389180981228
1.1164359893419136 -3.676241809675527
1.1576730100569188 -3.4671451673225917
1.1915109168840456 -3.240117637452884
1.2185169568210283 -2.998691203070711
1.239346500151735 -2.7461058165099566
1.2547266282066927 -2.4852344033503764
1.2654686514307787 -2.2184528318238095
1.2724729773207284 -1.9475774501829195
1.2766909164500029 -1.6739221835309974
1.2790365114454632 -1.3984390765296855
1.2803106663174704 -1.1218462773654605
1.2811153717940449 -0.8446472102269916
1.281693834510312 -0.5670845591182051
1.2821117600303957 -0.288808232749518
1.285322293190013 -0.004572902454655968
0.21317157322471084 -0.006208347796738683
0.21561049351413691 -0.2889112171045358
0.21586439425356235 -0.5671015417740878
0.2163162975195392 -0.8447122314947332
0.2170000754519592 -1.1219481816706476
0.2180539903031655 -1.3986643330434014
0.219976403166099 -1.6744433496061386
0.223510723014214 -1.9486107005864106
0.22949599429006765 -2.220226725931689
0.23878580708545807 -2.4879705451444045
0.25216863599792744 -2.7500035745253917
0.2703418326000707 -3.003927851910746
0.2939296032684295 -3.246853381214851
0.3234997743749071 -3.4755248919754624
0.3595539342725038 -3.68638690064168
0.4024879976958245 -3.8756305752346027
0.45251608629784185 -4.039273703540032
0.5095617836153287 -4.173311594140889
0.5730857378675288 -4.273955799203163
0.6418924019074528 -4.337848877537993
0.7140713866012162 -4.362337555020057
0.7862503712949748 -4.337848877537849
0.8550570353348833 -4.273955799202869
0.918580989587059 -4.173311594140465
0.9756266869045158 -4.039273703539503
1.0256547755064997 -3.8756305752340015
1.0685888389297853 -3.6863869006410233
1.1046429988273465 -3.4755248919747683
1.1342131699337903 -3.2468533812141427
1.1578009406021168 -3.003927851910045
1.175974137204231 -2.7500035745247193
1.189356966116676 -2.487970545143775
1.1986467789120472 -2.220226725931111
1.204632050187886 -1.9486107005858926
1.208166370035992 -1.6744433496056852
1.2100887828989206 -1.39866433304302
1.2111426977501254 -1.1219481816703372
1.211826475682545 -0.8447122314944965
1.2122783789485219 -0.5671015417739229
1.2125322796879474 -0.2889112171044442
1.214971199977368 -0.006208347796730808
0.28321281132943127 -0.00753324764206435
0.2850719019912221 -0.2889907601333325
0.2852371459798824 -0.5671112359558408
0.28558306326813354 -0.844762403676473
0.28615260907284096 -1.122029766585941
0.2870123747738149 -1.398833615574979
0.2885526437139818 -1.674844804151382
0.2914199812339131 -1.9494467390312014
0.2963932265056404 -2.2217071460581046
0.3042249486103794 -2.4902914760142423
0.31559641027953506 -2.7533369634421963
0.3310953841420019 -3.0084236903455905
0.3512427056406076 -3.2526481568695833
0.376520480044706 -3.4827444913530994
0.40736855125496874 -3.6951402909924114
0.44414783604715796 -3.885998044844693
0.48709455430843657 -4.0512865646893
0.5362182599767794 -4.186917997453104
0.5911431405383414 -4.288974728605016
0.6509421481138349 -4.353933159611651
0.7140713866012006 -4.378986574072034
0.777200625088562 -4.353933159611503
0.8369996326640418 -4.288974728604718
0.8919245132255823 -4.186917997452673
0.9410482188938994 -4.0512865646887635
0.9839949371551491 -3.885998044844084
1.020774221947308 -3.6951402909917466
1.0516222931575405 -3.4827444913523977
1.0769000675616096 -3.2526481568688674
1.0970473890601877 -3.0084236903448835
1.11254636292263 -2.7533369634415172
1.1239178245917647 -2.4902914760136077
1.1317495466964869 -2.221707146057523
1.1367227919682017 -1.9494467390306804
1.1395901294881257 -1.674844804150927
1.1411303984282888 -1.398833615574597
1.1419901641292616 -1.1220297665856305
1.1425597099339686 -0.8447624036762365
1.14290562722222 -0.567111235955676
1.1430708712108801 -0.2889907601332406
1.1449299618726667 -0.007533247642054153
0.35304992970230104 -0.008600324599675335
0.3544512504847547 -0.28905517114265267
0.3545652585250642 -0.5671183395972123
0.3548242977517338 -0.8447996306408408
0.3552844721896642 -1.1220950602786877
0.355975318464474 -1.3989587813835151
0.3571739786900012 -1.6751407221825996
0.3594192588716228 -1.9500922241214214
0.3633943927198126 -2.2228972817910253
0.36977685960163037 -2.49219818866778
0.37913875888122883 -2.7561053121613424
0.39196096392340707 -3.0121774222822357
0.40866396847643904 -3.2574999824352244
0.42964299307329906 -3.488801401895643
0.45527318515156334 -3.702499108625093
0.4858851287541842 -3.8947352211877586
0.5217170013482855 -4.061443764947947
0.5628558915412409 -4.198474859390172
0.6091257063922233 -4.301809301747202
0.6599171115173414 -4.367783675648577
0.714071386601185 -4.393450027170869
0.7682256616850249 -4.367783675648426
0.8190170668101311 -4.301809301746899
0.8652868816610948 -4.198474859389736
0.9064257718540291 -4.0614437649474056
0.9422576444481054 -3.8947352211871427
0.9728695880507007 -3.702499108624421
0.99849978012894 -3.4888014018949347
1.019478804725776 -3.257499982434502
1.0361818092787847 -3.0121774222815225
1.049004014320943 -2.7561053121606585
1.0583659136005237 -2.4921981886671416
1.0647483804823272 -2.2228972817904404
1.0687235143305074 -1.9500922241208984
1.070968794512123 -1.6751407221821435
1.0721674547376474 -1.398958781383133
1.0728583010124564 -1.1220950602783768
1.0733184754503864 -0.8447996306406043
1.073577514677056 -0.5671183395970475
1.0736915227173656 -0.2890551711425604
1.0750928434998157 -0.0086003245996632
0.42273784994792335 -0.009449858094134726
0.42377303397360155 -0.28910778340839877
0.4238542368188847 -0.5671252084151397
0.42403978067367437 -0.8448254489210208
0.4243933620144218 -1.1221465686566259
0.42493453934593567 -1.3990502698405893
0.42583169773700996 -1.6753483576025912
0.42750820423326696 -1.9505624745452717
0.4305313719109226 -2.223804391266643
0.4354855164462178 -2.493695697873576
0.44285548073052927 -2.7583124846798923
0.4530150491662684 -3.015192149411332
0.4662858661449427 -3.26141166107753
0.48297743028072915 -3.493698030000951
0.5034001211020933 -3.7084646012845544
0.5278447895703816 -3.901841185245126
0.5565473118893416 -4.069737866120944
0.589656083006257 -4.207967538668477
0.6271916221552947 -4.3124470115986835
0.6689059601581854 -4.379401758292878
0.7140713866011692 -4.40574522529719
0.7592368130441498 -4.379401758292725
0.8009511510470309 -4.312447011598377
0.8384866901960529 -4.207967538668036
0.8715954613129505 -4.069737866120397
0.9002979836318906 -3.901841185244504
0.924742652100158 -3.708464601283877
0.9451653429215023 -3.493698030000237
0.9618569070572698 -3.2614116610768025
0.9751277240359256 -3.015192149410614
0.9852872924716489 -2.758312484679204
0.9926572567559464 -2.493695697872934
0.9976114012912305 -2.2238043912660554
1.0006345689688785 -1.950562474544747
1.002311075465131 -1.6753483576021344
1.0032082338562034 -1.3990502698402068
1.0037494111877168 -1.122146568656315
1.004102992528464 -0.8448254489207844
1.0042885363832537 -0.5671252084149748
1.0043697392285367 -0.28910778340830645
1.0054049232542122 -0.009449858094121005
0.49231292028691004 -0.010114381250616597
0.4930554839152569 -0.2891511032044296
0.4931120228746627 -0.567132333961339
0.4932315694677859 -0.8448411140566571
0.4934800615647662 -1.122184849197178
0.4938811052605791 -1.399116408457673
0.49451998778335093 -1.675485057710515
0.4956839368986412 -1.9508784943798916
0.4978204524253306 -2.2244447444058153
0.5013979524433397 -2.4947941094828407
0.5068084965521563 -2.7599668324229496
0.514334115644913 -3.0174757784777224
0.524203366460911 -3.264391255886224
0.5366379666095121 -3.4974420487171787
0.5518782132316787 -3.7130434765967104
0.5701762543838313 -3.907320333861227
0.591759140466579 -4.076167699948263
0.616808214254218 -4.215383328090143
0.6455135971417535 -4.320864442744248
0.6780084337375655 -4.388767051597593
0.714071386601153 -4.415867388432852
0.7501343394647382 -4.388767051597439
0.7826291760605425 -4.3208644427439395
0.8113345589480662 -4.215383328089698
0.8363836327356906 -4.076167699947711
0.8579665188184233 -3.9073203338605995
0.8762645599705601 -3.7130434765960283
0.8915048065927116 -3.4974420487164615
0.9039394067412992 -3.2643912558854926
0.9138086575572837 -3.017475778477001
0.9213342766500284 -2.759966832422258
0.9267448207588348 -2.4947941094821955
0.9303223207768357 -2.2244447444052255
0.9324588363035199 -1.9508784943793658
0.933622785418807 -1.675485057710058
0.9342616679415778 -1.3991164084572905
0.9346627116373903 -1.1221848491968673
0.9349112037343705 -0.8448411140564205
0.9350307503274936 -0.5671323339611741
0.9350872892868993 -0.2891511032043372
0.9358298529152441 -0.010114381250601576
0.5617977385548414 -0.010624246432919461
0.5623153370351451 -0.2891874097743512
0.5623459525577631 -0.5671388790190232
0.5624030780141274 -0.8448476150091044
0.5625486466476889 -1.1222093178928396
0.5628095620521258 -1.3991620918356389
0.5632228965241372 -1.6755692360412455
0.5639416636291769 -1.9510661385034045
0.5652691573666814 -2.224843866816837
0.567547992781195 -2.4955131374509496
0.5710605641005913 -2.7610831102961955
0.5760013692128527 -3.019042110786406
0.5825143541649306 -3.266452869628076
0.5907401223347243 -3.5000476366762827
0.6008444748671552 -3.7162482310308547
0.613029348589603 -3.911183053432464
0.6275180482417712 -4.080741103127668
0.6445213307685438 -4.220715758865706
0.664303390149339 -4.327028990236975
0.6873505669106281 -4.395834357023717
0.7140713866011362 -4.423786813428491
0.7407922062916431 -4.395834357023562
0.763839383052927 -4.3270289902366645
0.7836214424337137 -4.220715758865258
0.8006247249604758 -4.080741103127114
0.8151134246126335 -3.911183053431834
0.8272982983350713 -3.716248231030169
0.8374026508674923 -3.500047636675563
0.8456284190372778 -3.266452869627342
0.8521414039893469 -3.0190421107856817
0.8570822091016006 -2.761083110295502
0.8605947804209902 -2.495513137450303
0.862873615835499 -2.224843866816246
0.8642011095730002 -1.9510661385028782
0.864919876678038 -1.6755692360407881
0.8653332111500489 -1.3991620918352563
0.8655941265544856 -1.1222093178925288
0.865739695188047 -0.844847615008868
0.8657968206444113 -0.5671388790188584
0.8658274361670292 -0.2891874097742587
0.8663450346473315 -0.010624246432903404
0.6312087913335613 -0.011009575205303575
0.6315631971241945 -0.28921952818517915
0.6315629119245155 -0.567142996961915
0.6315584218829903 -0.8448456949282135
0.631603859060843 -1.1222195978363199
0.6317207988729946 -1.3991881213303505
0.6319235859883283 -1.6756156025548443
0.6322642451008903 -1.9511571861775507
0.6328769391511755 -2.2250391848876108
0.633958239764323 -2.495886321124129
0.6356628533263372 -2.7616889732058145
0.6380943959345455 -3.019915181284715
0.6413145977798089 -3.2676194564767034
0.6453925225536369 -3.5015383046603734
0.6504226153496852 -3.718101177350112
0.6565437350487758 -3.9134472921841357
0.6639614736770663 -4.083473810797059
0.6729439746834917 -4.223976634314728
0.6838023740051705 -4.3309129757988245
0.6971252418746299 -4.4005286491770566
0.714071386601119 -4.4294384772922415
0.7310175313276074 -4.4005286491769
0.7443403991970642 -4.330912975798512
0.755198798518738 -4.223976634314278
0.7641812995251572 -4.0834738107965025
0.7715990381534428 -3.9134472921835037
0.7777201578525289 -3.718101177349425
0.7827502506485732 -3.5015383046596518
0.7868281754223981 -3.2676194564759684
0.7900483772676574 -3.0199151812839893
0.7924799198758623 -2.76168897320512
0.7941845334378739 -2.495886321123481
0.7952658340510192 -2.2250391848870197
0.7958785281013032 -1.951157186177024
0.7962191872138644 -1.675615602554387
0.7964219743291979 -1.3991881213299682
0.7965389141413495 -1.122219597836009
0.7965843513192022 -0.844845694927977
0.7965798612776769 -0.5671429969617501
0.7965795760779978 -0.2892195281850867
0.7969339818686302 -0.011009575205286778
0.700563960231393 -0.011296653489152104
0.7008029587829847 -0.28925070781737344
0.700768024949889 -0.567142647393535
0.7007022623306899 -0.8448358047243573
0.7006500603849062 -1.1222157434902733
0.7006231164418463 -1.3991936895899661
0.7006125119728454 -1.6756301025072224
0.700608515459577 -1.9511837339032159
0.7006068720504821 -2.225089365583534
0.7006066795441137 -2.4959800501763394
0.7006067544998642 -2.7618449859104786
0.7006047994835832 -3.020149268011201
0.7005943580610741 -3.2679428909175705
0.7005736478493595 -3.5019640849475713
0.7005629987636026 -3.7186500955510144
0.7006406062497987 -3.914155208617904
0.7009890315031265 -4.084400546999872
0.7019429184833679 -4.225206598322085
0.7039580066925213 -4.332545885036914
0.7075435706265459 -4.402775087335926
0.7140713866011011 -4.432710468827125
0.7205992025756564 -4.402775087335771
0.7241847665096802 -4.332545885036601
0.7261998547188326 -4.225206598321635
0.7271537416990731 -4.084400546999315
0.7275021669524023 -3.9141552086172715
0.7275797744385993 -3.718650095550326
0.7275691253528437 -3.501964084946849
0.7275484151411312 -3.267942890916835
0.7275379737186235 -3.020149268010475
0.727536018702344 -2.7618449859097836
0.7275360936580956 -2.4959800501756915
0.7275359011517277 -2.225089365582943
0.727534257742633 -1.9511837339026892
0.7275302612293648 -1.6756301025067653
0.7275196567603641 -1.3991936895895833
0.7274927128173043 -1.1222157434899627
0.7274405108715207 -0.8448358047241206
0.7273747482523215 -0.56714264739337
0.7273398144192258 -0.28925070781728107
0.727578812970817 -0.011296653489134783
0.7698746142865076 -0.01151143907430504
0.7700334650146707 -0.2892820895725888
0.7699658540422685 -0.5671369170197196
0.7698398587467987 -0.8448181134406672
0.7696926708600977 -1.1221981255662357
0.769524064390781 -1.3991785178184417
0.7693005302982177 -1.6756130666200157
0.7689515341784698 -1.951156333035692
0.768336190677397 -2.225038937069406
0.7672550297838131 -2.495886318275458
0.765550742699862 -2.761688735910114
0.7631136872407285 -3.0199123227611024
0.7598719149156471 -3.2676118229279245
0.7557542091085824 -3.5015287285332986
0.7507081294945114 -3.718109811941094
0.7447490994552516 -3.9135308225333287
0.7380202526790021 -4.083747374734829
0.7308539633120461 -4.224624786974051
0.7237558948556876 -4.332139228439336
0.7174550549412408 -4.402688759558059
0.7140713866010828 -4.43369217715972
0.7106877182609238 -4.402688759557902
0.7043868783464774 -4.332139228439022
0.6972888098901233 -4.2246247869736
0.6901225205231736 -4.083747374734273
0.6833936737469315 -3.9135308225326972
0.6774346437076784 -3.718109811940407
0.6723885640936135 -3.501528728532578
0.6682708582865559 -3.26761182292719
0.6650290859614818 -3.0199123227603777
0.6625920305023546 -2.76168873590942
0.6608877434184086 -2.4958863182748106
0.6598065825248279 -2.2250389370688155
0.659191239023757 -1.9511563330351653
0.6588422429040102 -1.6756130666195583
0.6586187088114472 -1.399178517818059
0.6584501023421309 -1.122198125565925
0.6583029144554299 -0.8448181134404305
0.6581769191599602 -0.5671369170195545
0.658109308187558 -0.28928208957249646
0.6582681589157208 -0.011511439074287476
0.8391516657629711 -0.011674636860874629
0.8392568962224355 -0.2893121649072899
0.8391602079388021 -0.5671261269918083
0.8389767140851546 -0.8447927541698335
0.838737924015762 -1.1221673494176467
0.8384313603224631 -1.3991430506568192
0.8379974565581906 -1.6755638879394228
0.8372712419049317 -1.9510642096869484
0.8359429255372507 -2.224843487091818
0.8336654043230851 -2.495513277657877
0.8301524070547008 -2.7610822041899943
0.8252053004487349 -3.019036010875023
0.8186735146861941 -3.266437601208399
0.8104157334722832 -3.5000293642923372
0.8003058309947311 -3.7162679528100866
0.788287165431096 -3.9113543218528504
0.7744577880938821 -4.081287589139499
0.7591330962095685 -4.2219862833675865
0.7429127025338141 -4.329485652858576
0.7270393546585894 -4.400388481365379
0.7140713866010651 -4.432561633239886
0.7011034185435409 -4.400388481365223
0.6852300706683186 -4.3294856528582635
0.6690096769925714 -4.221986283367139
0.6536849851082697 -4.081287589138945
0.6398556077710688 -3.911354321852221
0.6278369422074459 -3.716267952809401
0.6177270397299054 -3.500029364291619
0.6094692585160066 -3.2664376012076666
0.6029374727534779 -3.0190360108743
0.5979903661475232 -2.761082204189303
0.5944773688791478 -2.4955132776572304
0.5921998476649887 -2.224843487091228
0.5908715312973113 -1.951064209686422
0.5901453166440546 -1.6755638879389656
0.589711412879783 -1.3991430506564368
0.5894048491864845 -1.1221673494173363
0.5891660591170921 -0.8447927541695968
0.5889825652634448 -0.5671261269916432
0.5888858769798114 -0.2893121649071976
0.5889911074392756 -0.011674636860856867
0.9084127940673488 -0.011796389064727407
0.9084780161197706 -0.28933926620152034
0.9083558057449295 -0.5671108450449296
0.9081183153403484 -0.8447600799085038
0.9077918057839002 -1.1221242424668056
0.9073524271259513 -1.3990881194581917
0.9066945847297221 -1.6754762729676935
0.9055260427047112 -1.9508758701931148
0.9033917114081524 -2.224444727215878
0.8998155621025401 -2.4947943089323608
0.8944033121332955 -2.7599649654081495
0.8868718910372524 -3.017466898104779
0.8769916565510727 -3.2643705727990038
0.864543302392687 -3.497418763272363
0.8493163785207944 -3.7130764381736694
0.831169607016287 -3.9075721616638472
0.8101316697855947 -4.076956361762061
0.7865244460716811 -4.217221534456247
0.7611817540220289 -4.324539302945562
0.7358294580879278 -4.395764680733473
0.7140713866010479 -4.42938602483029
0.6923133151141689 -4.3957646807333175
0.6669610191800727 -4.324539302945251
0.6416183271304309 -4.217221534455802
0.6180111034165335 -4.076956361761511
0.5969731661858593 -3.907572161663221
0.578826394681369 -3.7130764381729877
0.5635994708094941 -3.497418763271648
0.5511511166511255 -3.264370572798275
0.5412708821649626 -3.0174668981040593
0.5337394610689352 -2.7599649654074607
0.5283272110997036 -2.494794308931717
0.5247510617941006 -2.2244447272152894
0.5226167304975475 -1.950875870192589
0.5214481884725404 -1.6754762729672366
0.5207903460763126 -1.3990881194578093
0.5203509674183643 -1.122124242466495
0.5200244578619164 -0.8447600799082672
0.5197869674573357 -0.5671108450447644
0.5196647570824945 -0.289339266201428
0.5197299791349163 -0.011796389064709444
0.9776713404874908 -0.011883277637342956
0.9777030298185693 -0.2893619039872424
0.9775572490903159 -0.5670914582258326
0.9772693838485182 -0.8447206466123656
0.9768594869441726 -1.122069847792556
0.9762894058448426 -1.3990128439550924
0.9753769334706455 -1.67533626829236
0.9737012605312502 -1.9505602694142536
0.9706815464977588 -2.2238049735936376
0.9657277991965657 -2.4936956503869334
0.9583548213631515 -2.7583094694908024
0.9481914418064625 -3.0151816524417048
0.9349220187812844 -3.261389745365349
0.918244853059823 -3.493676437732499
0.8978629956339402 -3.70851292060035
0.8735384522454808 -3.902155328569282
0.8452224099841871 -4.070717011674544
0.8132855737607019 -4.210307319911599
0.7788418239310149 -4.317298452997127
0.7442757689127044 -4.388905578021357
0.714071386601031 -4.42426757367707
0.6838670042893601 -4.388905578021203
0.6493009492710571 -4.317298452996818
0.6148571994413837 -4.2103073199111565
0.5829203632179185 -4.070717011674
0.5546043209566475 -3.9021553285686617
0.53027977756821 -3.7085129205996736
0.50989792014235 -3.4936764377317884
0.49322075442091073 -3.261389745364625
0.47995133139575447 -3.0151816524409893
0.4697879518390853 -2.758309469490117
0.462414974005688 -2.493695650386293
0.45746122670450723 -2.2238049735930505
0.45444151267102406 -1.9505602694137292
0.4527658397316341 -1.6753362682919037
0.45185336735743914 -1.3990128439547103
0.45128328625811004 -1.1220698477922453
0.4508733893537648 -0.844720646612129
0.4505855241119671 -0.5670914582256673
0.45043974338371395 -0.28936190398715
0.4504714327147923 -0.011883277637324845
1.0469355799072761 -0.011941242084049675
1.046938323463761 -0.2893788412907988
1.0467697991154872 -0.5670681519462178
1.046434991760606 -0.8446751163879187
1.0459468940020837 -1.1220053587061094
1.0452393340098947 -1.3989133422863225
1.0440332453597923 -1.675126745971717
1.0417912490610055 -1.950091218322246
1.0378193988096083 -2.2228983162509963
1.0314358960489831 -2.4921975396771328
1.0220703153358206 -2.756101180828988
1.0092477912346693 -3.0121670399913154
0.9925612499161248 -3.257482361532698
0.9716295680845607 -3.4887904278273982
0.9460740093672005 -3.702565630582672
0.9155579546141308 -3.8950902516254016
0.8799671537804454 -4.062558159313585
0.8397316166826617 -4.201241369773756
0.7962906143843892 -4.307792315642234
0.7526670219039786 -4.379863723512074
0.7140713866010143 -4.417225367393094
0.6754757512980535 -4.37986372351192
0.6318521588176536 -4.307792315641929
0.5884111565193978 -4.201241369773318
0.5481756194216377 -4.062558159313046
0.5125848185879792 -3.895090251624787
0.4820687638349367 -3.7025656305820016
0.45651320511760446 -3.488790427826694
0.4355815232860674 -3.257482361531981
0.41889498196754993 -3.012167039990605
0.4060724578664223 -2.7561011808283076
0.3967068771532802 -2.492197539676497
0.3903233743926703 -2.2228983162504123
0.3863515241412838 -1.9500912183217234
0.38410952784250424 -1.675126745971261
0.3829034391924048 -1.3989133422859403
0.3821958792002168 -1.122005358705799
0.3817077814416952 -0.8446751163876821
0.3813729740868141 -0.5670681519460526
0.38120444973854023 -0.28937884129070646
0.38120719329502517 -0.011941242084031455
1.1162111462186823 -0.011975957346689057
1.116189458386028 -0.2893893237787286
1.1159990038760843 -0.5670409358365606
1.1156200304514112 -0.8446242635748941
1.1150562710110201 -1.1219307877762217
1.1141957007653749 -1.3987824332144911
1.1126561544010787 -1.674830555911421
1.1097928917368174 -1.949446924256955
1.1048210993668237 -2.22170828177461
1.0969869396765746 -2.4902899469964335
1.0856120958471396 -2.7533320614467915
1.0701179887689978 -3.0084155657568017
1.0500023709874704 -3.252640568352666
1.024802026077839 -3.4827535162983865
0.9940672742211705 -3.695230843187009
0.9573950229996447 -3.8863804737496315
0.9146070068355547 -4.052490320989677
0.8661836685076097 -4.190043027658324
0.8138582688453758 -4.29604568485391
0.7611977527777415 -4.3686429246817315
0.714071386600998 -4.408226045880756
0.6669450204242586 -4.3686429246815806
0.6142845043566375 -4.296045684853609
0.561959104694424 -4.190043027657892
0.5135357663665064 -4.052490320989145
0.47074775020244763 -3.886380473749024
0.4340754989809542 -3.6952308431863456
0.40334074712431806 -3.4827535162976893
0.3781404022147191 -3.2526405683519557
0.3580247844332229 -3.008415565756098
0.3425306773551096 -2.7533320614461174
0.33115583352569816 -2.490289946995802
0.3233216738354673 -2.221708281774029
0.31834988146548665 -1.9494469242564345
0.3154866188012342 -1.6748305559109664
0.3139470724369423 -1.3987824332141094
0.3130865021912986 -1.1219307877759115
0.31252274275090797 -0.8446242635746571
0.3121437693262349 -0.5670409358363954
0.3119533148162917 -0.28938932377863635
0.31193162698363713 -0.011975957346670767
1.1855016784860344 -0.011993040782990827
1.1854610344397976 -0.2893931273725445
1.185250523544707 -0.5670098187198281
1.184829612613277 -0.8445687568159241
1.1841893802109298 -1.1218451639306615
1.1831529253577775 -1.3986110897524138
1.1812370512702433 -1.6744298850700814
1.1777048857732915 -1.9486114847509963
1.1717184822308118 -2.220227493086296
1.16242503576416 -2.487968019239353
1.1490403870778638 -2.7499986257310503
1.1308785620040511 -3.003924342537419
1.1073357879640031 -3.2468606610194506
1.0778651839063784 -3.475561968207845
1.0419636485139883 -3.6865118545907443
0.9991976964104226 -3.876044439798872
0.9493676740647087 -4.040547117133395
0.8929535015274543 -4.176747191563491
0.8318513067206942 -4.282067679371318
0.7700460005195667 -4.3552043803332605
0.7140713866009819 -4.397193657344948
0.6580967726824016 -4.355204380333112
0.5962914664812894 -4.28206767937102
0.5351892716745538 -4.176747191563066
0.4787750991373308 -4.04054711713287
0.4289450767916526 -3.876044439798273
0.386179124688124 -3.6865118545900897
0.35027758929577096 -3.4755619682071566
0.32080698523818385 -3.246860661018749
0.2972642111981716 -3.0039243425367235
0.2791023861243912 -2.749998625730383
0.26571773743812227 -2.487968019238728
0.2564242909714911 -2.2202274930857198
0.2504378874290274 -1.9486114847504785
0.24690572193208596 -1.674429885069628
0.24498984784455713 -1.3986110897520327
0.24395339299140686 -1.1218451639303515
0.24331316058906013 -0.8445687568156873
0.24289224965763037 -0.5670098187196629
0.24268173876254012 -0.2893931273724522
0.2426410947163035 -0.011993040782972532
1.2548087725941262 -0.011998164839389336
1.2547566019786438 -0.2893906370434629
1.2545304511574762 -0.5669749581045093
1.2540691912112154 -0.8445091530477035
1.2533456258757165 -1.1217453627962184
1.2521042899792123 -1.3983877023312767
1.2497675757861268 -1.6739094376011363
1.2455485321139483 -1.9475779751363331
1.2385400609300845 -2.218452724133178
1.2277937611904033 -2.4852309734115385
1.212414477249546 -2.7461018753412154
1.1916033316597132 -2.9986946226966924
1.1646527974158503 -3.2401432827955867
1.1309287870957705 -3.4672161385510796
1.0898792055760524 -3.676414698242097
1.0410943052991597 -3.8641103384790805
0.9844292031605708 -4.026786510152699
0.9203321416338822 -4.161407208301471
0.8505931466039696 -4.265855676962139
0.7794390504646778 -4.3394675398342635
0.7140713866009656 -4.384000444137185
0.648703722737258 -4.339467539834118
0.577549626597984 -4.265855676961847
0.5078106315680999 -4.1614072083010525
0.44371357004144724 -4.026786510152183
0.38704846790289876 -3.864110338478491
0.33826356762604803 -3.676414698241452
0.2972139861063714 -3.467216138550401
0.2634899757863344 -3.2401432827948944
0.2365394415425118 -2.998694622696006
0.21572829595271514 -2.7461018753405555
0.2003490120118886 -2.485230973410919
0.18960271227223055 -2.218452724132607
0.18259424108838485 -1.9475779751358189
0.17837519741621854 -1.6739094376006847
0.1760384832231395 -1.3983877023308966
0.1747971473266381 -1.1217453627959086
0.17407358199113993 -0.8445091530474667
0.17361232204487942 -0.566974958104344
0.17338617122371217 -0.2893906370433706
0.1733340006082299 -0.011998164839371063
1.3241313586470351 -0.011997072506943445
1.3240785768482726 -0.2893830463912482
1.3238459127764983 -0.5669369597491853
1.323344308232025 -0.8444450817630073
1.3225217775337403 -1.1216264315076203
1.3210407895492202 -1.3980981352739645
1.3182544337828157 -1.6732599001451114
1.313338512937064 -1.9463431607521025
1.3053146339256323 -2.2163842251147323
1.2931368716154916 -2.48208232252404
1.27579362763057 -2.741646704744048
1.252367941535277 -2.9927318740500364
1.2220432300729371 -3.2324934476960303
1.184099468089622 -3.45772104198483
1.1379484729505789 -3.664949004079484
1.0832144499028336 -3.8506054037364557
1.01988089854272 -4.011275351713711
0.9484915428116504 -4.144119949698714
0.8705569449212938 -4.247423384068703
0.789742454960749 -4.321294010978615
0.7140713866009487 -4.368438217015674
0.6384003182411543 -4.321294010978472
0.5575858282806295 -4.247423384068417
0.4796512303903053 -4.144119949698304
0.4082618746592769 -4.011275351713206
0.3449283232992084 -3.850605403735877
0.2901943002515101 -3.6649490040788506
0.24404330511251376 -3.4577210419841617
0.20609954312924578 -3.2324934476953495
0.17577483166695063 -2.9927318740493596
0.15234914557169776 -2.741646704743397
0.1350059015868096 -2.482082322523427
0.12282813927669547 -2.2163842251141666
0.11480426026528315 -1.9463431607515917
0.10988833941954564 -1.6732599001446622
0.10710198365314877 -1.398098135273585
0.10562099566863208 -1.1216264315073106
0.10479846497034838 -0.8444450817627704
0.10429686042587565 -0.5669369597490203
0.10406419635410175 -0.2893830463911558
0.10401141455533927 -0.011997072506925178
1.393464368375739 -0.01199539181756318
1.3934280995979218 -0.28937291435759865
1.393206409724843 -0.5668971285511999
1.3926596809268077 -0.8443741925716804
1.391711795966635 -1.1214795148638457
1.3899592837458903 -1.397732280095059
1.3867066892860507 -1.6724760970635075
1.3810912047043993 -1.9449063848848076
1.3720708659320338 -2.2140262936167288
1.358498121668601 -2.478529655216508
1.339238745017355 -2.7366423233276675
1.3132469097887376 -2.986044964150888
1.279595969509616 -3.223920385460985
1.2374932393410614 -3.447088690339254
1.1863113644507532 -3.6521294266822304
1.1257039720979634 -3.8355496880409103
1.0557895681651175 -3.9940607025623027
0.9773573039507023 -4.125003811774867
0.8920021579934747 -4.226935847977123
0.8022761078320928 -4.300514028688259
0.7140713866009315 -4.3499999999999925
0.6258666653697763 -4.300514028688118
0.5361406152084167 -4.2269358479768435
0.45078546925122676 -4.125003811774468
0.37235320503685815 -3.994060702561809
0.30243880110406285 -3.8355496880403437
0.2418314087513243 -3.652129426681609
0.19064953386106814 -3.447088690338598
0.14854680369256532 -3.2239203854603162
0.11489586341349303 -2.986044964150223
0.08890402818491958 -2.736642323327026
0.06964465153371 -2.478529655215903
0.05607190727030635 -2.2140262936161688
0.04705156849796227 -1.944906384884301
0.04143608391632652 -1.672476097063061
0.03818348945649585 -1.3977322800946808
0.03643097723575523 -1.1214795148635364
0.035483092275583834 -0.8443741925714437
0.034936363477549186 -0.5668971285510348
0.03471467360447082 -0.28937291435750634
0.034678404826653735 -0.01199539181754491
SCALARS Stress float 6
LOOKUP_TABLE default
-1291.377144736749 -2096.337470644833 -1618.05303496539 -29.375156593927034 0.0 0.0
1383.7830044170353 815.8216679074653 1041.1169996863161 -19.84185232396179 0.0 0.0
633.7914369765551 175.892662480957 264.84101147903266 -42.28573720382601 0.0 0.0
503.8924719462051 34.140565152951424 168.57382612978665 -0.7367439696580678 0.0 0.0
633.2053460013774 87.30592151283665 266.00475425987884 3.192823161936126 0.0 0.0
760.7959697771482 143.23385558903047 400.0756278532672 1.7541449232265718 0.0 0.0
896.3076431344513 203.22195765702224 526.4495970878376 0.34736755387826257 0.0 0.0
1036.5101373957139 280.9220041895188 645.0990622650261 -1.154067473025426 0.0 0.0
1187.1768269705292 374.6177061587988 769.3552804799663 -2.925586056230348 0.0 0.0
1356.1488297380845 491.3609752588845 912.467728428324 -4.859396039495568 0.0 0.0
1549.085868735021 636.4842320341611 1081.2216578940447 -6.668833299511621 0.0 0.0
1765.815098004358 810.088034996793 1275.9721390647733 -8.032010707195166 0.0 0.0
2000.5304332508438 1005.0825306510586 1490.3856225129682 -8.862877028632663 0.0 0.0
2245.460542441075 1213.497984500385 1716.6398820352556 -9.491687786575518 0.0 0.0
2490.727110017827 1425.275592451629 1944.7590510940513 -9.883133960708658 0.0 0.0
2724.7956358372917 1628.914268517252 2163.252674194177 -9.937884269703579 0.0 0.0
2935.5362493237167 1812.6448333545068 2360.210518673326 -9.488930982117626 0.0 0.0
3111.081088039974 1965.0772361663435 2524.0165247548666 -8.512377454574416 0.0 0.0
3250.464504356189 2085.7651581026485 2653.8308265288415 -7.469259879242404 0.0 0.0
3338.5926806157718 2160.4252163086303 2734.954724547487 -10.041916665784427 0.0 0.0
3330.037752924914 2151.1307603293435 2726.1965723355243 -1.1176837233506376e-11 0.0 0.0
3338.5926806148705 2160.4252163077563 2734.9547245468634 10.041916665771488 0.0 0.0
3250.4645043546843 2085.765158101198 2653.830826527795 7.469259879194885 0.0 0.0
3111.081088036962 1965.077236163393 2524.016524752607 8.512377454654661 0.0 0.0
2935.536249323347 1812.6448333542746 2360.210518672654 9.488930982186778 0.0 0.0
2724.7956358347856 1628.9142685148483 2163.25267419224 9.937884269474242 0.0 0.0
2490.727110016903 1425.2755924509038 1944.7590510930386 9.883133960792904 0.0 0.0
2245.4605424387923 1213.4979844982636 1716.6398820334452 9.491687786570633 0.0 0.0
2000.5304332488781 1005.0825306492885 1490.3856225113486 8.862877028713363 0.0 0.0
1765.8150980043551 810.088034997065 1275.9721390645427 8.032010707208833 0.0 0.0
1549.0858687335347 636.484232032896 1081.2216578927816 6.66883329944776 0.0 0.0
1356.1488297366338 491.3609752577129 912.4677284271628 4.8593960393290505 0.0 0.0
1187.1768269696604 374.6177061581917 769.355280479155 2.9255860563430165 0.0 0.0
1036.5101373951065 280.9220041892115 645.0990622645335 1.15406747274149 0.0 0.0
896.3076431338217 203.22195765666947 526.4495970872263 -0.3473675540540775 0.0 0.0
760.7959697768794 143.23385558911463 400.0756278528819 -1.7541449234681359 0.0 0.0
633.2053460012933 87.30592151316964 266.00475425968057 -3.192823161807393 0.0 0.0
503.89247194561204 34.140565152419555 168.57382612943675 0.7367439699820597 0.0 0.0
633.7914369761619 175.89266248081339 264.8410114788242 42.28573720388965 0.0 0.0
1383.7830044166988 815.8216679069643 1041.1169996858198 19.84185232389487 0.0 0.0
-1291.3771447338054 -2096.3374706419318 -1618.0530349625499 29.375156593268596 0.0 0.0
-1644.3909975361769 -2420.983485634662 -1926.3950990435596 -31.877035249794595 0.0 0.0
944.5828631424916 449.9757347346933 654.942199948038 -27.571508037028643 0.0 0.0
443.673217164832 68.99214510611507 152.9882467404885 -37.00385609380848 0.0 0.0
443.5153338481233 8.171208496610985 138.55924550980856 -15.567638339354975 0.0 0.0
560.1814820850662 39.41960093148628 212.92998030929868 -16.97885775751224 0.0 0.0
665.0430426121032 56.992332934435865 313.76427632656356 -22.929906040963132 0.0 0.0
755.4312629725976 77.52864913173958 402.3544745067985 -24.330260330905233 0.0 0.0
841.7918697238665 99.7480052361793 467.4918504057315 -24.648454100972753 0.0 0.0
920.2705674990036 120.68702655389865 519.2457872378043 -25.364584392128997 0.0 0.0
992.455302331731 140.9466043286203 565.9215523451971 -26.2612704318902 0.0 0.0
1061.4787769666318 162.84775367979182 611.5014822944283 -26.771527206713294 0.0 0.0
1129.7562472683649 187.95038435720983 658.2194717647088 -26.79439372767468 0.0 0.0
1196.8754727168584 216.3605609926132 706.0030053175747 -26.407162577062625 0.0 0.0
1260.23153461764 243.66800403070664 751.3466930355831 -25.82009118704726 0.0 0.0
1314.5113238139168 264.93249065742344 789.1323748205978 -25.03555827978645 0.0 0.0
1355.4089616059473 275.8134183798418 815.0379391147279 -23.8138994885297 0.0 0.0
1380.32400147991 273.9460860488045 826.5732235591709 -21.91534468863336 0.0 0.0
1389.691164302388 260.22644815481857 824.3979358760199 -19.434417162566557 0.0 0.0
1377.0794408176741 228.97314075602588 802.5772967424443 -17.234674440738818 0.0 0.0
1296.1945817702663 135.15703449100863 715.9423850080265 -18.246032017824458 0.0 0.0
1162.6265160931607 1.7168968898845662 583.5369669094573 -4.1875836132021504e-11 0.0 0.0
1296.1945817711216 135.15703449193276 715.9423850085398 18.246032017778724 0.0 0.0
1377.0794408183676 228.97314075680939 802.577296743076 17.23467444092813 0.0 0.0
1389.6911643014714 260.22644815398735 824.3979358754567 19.434417162676628 0.0 0.0
1380.3240014808646 273.94608604988196 826.5732235598862 21.9153446885743 0.0 0.0
1355.4089616050337 275.813418379053 815.0379391141904 23.813899488422265 0.0 0.0
1314.5113238137983 264.9324906574758 789.1323748204355 25.035558279910447 0.0 0.0
1260.231534617614 243.66800403088342 751.346693035577 25.8200911870008 0.0 0.0
1196.8754727163318 216.36056099228972 706.0030053172394 26.40716257720434 0.0 0.0
1129.756247268677 187.95038435776695 658.2194717649892 26.794393727661813 0.0 0.0
1061.4787769648585 162.84775367821902 611.5014822932909 26.77152720658202 0.0 0.0
992.4553023317219 140.94660432889586 565.921552345153 26.261270431865583 0.0 0.0
920.2705674987202 120.68702655389626 519.2457872375817 25.364584392100888 0.0 0.0
841.7918697231408 99.7480052357262 467.491850405254 24.64845410086624 0.0 0.0
755.4312629717689 77.52864913114297 402.35447450617437 24.33026033089765 0.0 0.0
665.0430426121335 56.992332934819565 313.7642763263964 22.92990604074778 0.0 0.0
560.1814820846885 39.41960093143621 212.9299803089935 16.978857757576097 0.0 0.0
443.51533384771926 8.171208496383445 138.5592455096294 15.567638339479391 0.0 0.0
443.6732171646121 68.9921451060127 152.98824674040247 37.003856093767254 0.0 0.0
944.5828631418528 449.97573473406044 654.9421999473271 27.571508036925668 0.0 0.0
-1644.3909975341996 -2420.9834856325488 -1926.3950990414685 31.87703524940165 0.0 0.0
-1384.087882412908 -2125.686830641376 -1638.873916335872 -70.27133822782312 0.0 0.0
763.4051886981563 357.90465575566316 511.7244414187315 -95.64936794676488 0.0 0.0
307.1913075297548 78.8544610009361 115.86554085205137 -40.936564522137914 0.0 0.0
380.77812606652424 2.4116427026069998 115.18295494738227 -37.389861823670536 0.0 0.0
514.9644697354283 29.383694048225273 182.03398309138728 -39.480529588205044 0.0 0.0
631.2015716538483 51.13273225364935 282.03515314642533 -43.10800382070037 0.0 0.0
725.099055383569 71.91399640681898 378.2781727336292 -44.993018283963536 0.0 0.0
811.0115190002127 90.2296591208144 445.6652280619296 -45.85832910247457 0.0 0.0
886.2222736454271 107.3696820244667 495.1322939728597 -47.322957610932946 0.0 0.0
954.3928045682239 123.60134233406245 537.9177673628852 -48.59440259531953 0.0 0.0
1020.0783589103047 142.66725169318192 580.4098351670049 -48.93436513385347 0.0 0.0
1085.4355498568636 166.01145802541066 624.7945100820214 -48.43582234134541 0.0 0.0
1149.974491259226 191.67248583371537 669.9360860453214 -47.526743952448044 0.0 0.0
1210.105207254032 216.90034884648023 712.6435593831968 -46.320454986626345 0.0 0.0
1262.806675390238 237.09869170761345 749.1000488373066 -44.77380270621784 0.0 0.0
1303.9200987660383 248.56771451337397 775.3934792245195 -42.58507560552007 0.0 0.0
1330.813669049327 248.81883316759163 788.9839821813891 -39.43264218771967 0.0 0.0
1339.1153818429157 233.99241250679407 785.8087587581615 -35.59818544724049 0.0 0.0
1314.7884397776668 191.06398714916767 752.4631707499682 -32.16836972406656 0.0 0.0
1269.553309523244 133.1998840977944 701.2715453222443 -30.259625647860286 0.0 0.0
1115.6702046271394 -19.81328013285514 549.0750819313477 1.3022294353959296e-10 0.0 0.0
1269.5533095230448 133.19988409758145 701.2715453221026 30.259625647924885 0.0 0.0
1314.7884397777614 191.06398714933746 752.4631707500445 32.16836972419978 0.0 0.0
1339.1153818420535 233.9924125060168 785.8087587576347 35.598185447403566 0.0 0.0
1330.8136690508281 248.8188331692039 788.9839821824578 39.43264218763612 0.0 0.0
1303.9200987652148 248.56771451268293 775.3934792239137 42.58507560554105 0.0 0.0
1262.8066753895705 237.09869170713523 749.1000488367581 44.77380270631743 0.0 0.0
1210.1052072553043 216.9003488479666 712.643559384063 46.320454986710516 0.0 0.0
1149.9744912582557 191.67248583292698 669.9360860446606 47.52674395252278 0.0 0.0
1085.4355498566422 166.0114580254156 624.7945100819057 48.43582234125612 0.0 0.0
1020.0783589085531 142.66725169165923 580.4098351658743 48.934365133785775 0.0 0.0
954.3928045690129 123.60134233521444 537.9177673634 48.59440259561841 0.0 0.0
886.2222736450025 107.36968202432419 495.1322939725668 47.32295761101396 0.0 0.0
811.0115189996552 90.22965912056216 445.6652280615418 45.85832910254273 0.0 0.0
725.0990553823672 71.91399640590643 378.27817273278475 44.99301828403988 0.0 0.0
631.2015716540443 51.132732254217 282.0351531463394 43.108003820600466 0.0 0.0
514.9644697351047 29.383694048272037 182.03398309118973 39.48052958819474 0.0 0.0
380.7781260664099 2.4116427025965406 115.18295494735685 37.38986182358424 0.0 0.0
307.19130752974246 78.85446100067179 115.86554085196431 40.93656452192782 0.0 0.0
763.405188697455 357.9046557552733 511.7244414180526 95.64936794666036 0.0 0.0
-1384.087882410864 -2125.686830639354 -1638.8739163337307 70.27133822747149 0.0 0.0
-1135.8424020092273 -1846.7266098555533 -1369.6435948603955 -84.03307055423622 0.0 0.0
584.7787066048401 262.48120944168153 379.43476767759057 -145.812173151389 0.0 0.0
222.1397109696051 65.88752726092854 86.40817146916008 -62.325503623546844 0.0 0.0
316.5668329130633 8.07979722878449 97.17049574413639 -60.324000038753674 0.0 0.0
459.2009863998169 17.387979896867385 150.74597304381848 -64.53841395110436 0.0 0.0
585.1621965027748 43.76949202270149 244.92552052960917 -64.5159786158404 0.0 0.0
691.162787535591 64.42005547547281 348.3235515621808 -66.96589871296668 0.0 0.0
775.3603026751625 80.89026165344818 420.271768735353 -67.25251622811035 0.0 0.0
848.0542964343986 94.31946792362109 468.76819586473823 -68.87797579450576 0.0 0.0
912.5890061999917 106.88597731263508 508.24442579401244 -70.1359948352587 0.0 0.0
974.5655859128613 122.77029595388656 547.3127358305425 -70.1470110224679 0.0 0.0
1037.0455314658582 143.42397508634969 588.9168520449731 -69.24284699908219 0.0 0.0
1098.4952489760494 167.27597454548805 631.6438457517194 -67.81324175951791 0.0 0.0
1155.907460132422 189.49198632051193 671.4973565347295 -66.08698399276095 0.0 0.0
1206.6627703734544 208.43126181786968 706.3422527911075 -63.84588878772369 0.0 0.0
1248.58637706446 221.2360390644619 733.7057347623531 -60.82715166454453 0.0 0.0
1277.0297400284257 222.92943131034303 748.8171201697309 -56.857638641670626 0.0 0.0
1284.4495563905293 207.026218146983 744.7352650723732 -52.1484804256153 0.0 0.0
1267.3970945386118 171.10370019869438 718.4897237792857 -46.97193758369218 0.0 0.0
1240.7262638934164 131.14454764839996 685.372276866932 -40.642921035515414 0.0 0.0
1025.8180572535507 -82.38171811516175 473.08611972532134 3.044675622732029e-11 0.0 0.0
1240.7262638941618 131.14454764927157 685.3722768676391 40.64292103573547 0.0 0.0
1267.3970945363274 171.10370019640945 718.4897237774525 46.97193758371085 0.0 0.0
1284.4495563909686 207.0262181475765 744.7352650727801 52.14848042578074 0.0 0.0
1277.0297400288846 222.92943131088512 748.8171201700598 56.85763864168632 0.0 0.0
1248.5863770640688 221.23603906422915 733.7057347620336 60.8271516646204 0.0 0.0
1206.6627703725821 208.4312618171715 706.3422527905194 63.845888787743505 0.0 0.0
1155.9074601326608 189.49198632096926 671.4973565348417 66.08698399298545 0.0 0.0
1098.4952489754533 167.27597454510567 631.6438457512833 67.81324175955727 0.0 0.0
1037.0455314646592 143.42397508528478 588.9168520442088 69.24284699891555 0.0 0.0
974.5655859129957 122.77029595429806 547.3127358306069 70.14701102244399 0.0 0.0
912.5890062001225 106.88597731301086 508.2444257940967 70.13599483531462 0.0 0.0
848.0542964346346 94.31946792422328 468.7681958648898 68.8779757945181 0.0 0.0
775.3603026744981 80.89026165306308 420.27176873487844 67.25251622814862 0.0 0.0
691.1627875351379 64.42005547537043 348.32355156171434 66.9658987129636 0.0 0.0
585.1621965025652 43.76949202283593 244.92552052934732 64.51597861577923 0.0 0.0
459.2009863994203 17.387979896871713 150.7459730436439 64.53841395095617 0.0 0.0
316.5668329128154 8.079797228550822 97.17049574399365 60.324000038591194 0.0 0.0
222.13971096945687 65.88752726059863 86.40817146901662 62.325503623366785 0.0 0.0
584.778706604082 262.48120944119563 379.43476767691124 145.81217315126534 0.0 0.0
-1135.8424020073612 -1846.7266098536447 -1369.6435948584024 84.0330705538831 0.0 0.0
-919.1651881445482 -1604.2800961691537 -1132.6333957893808 -82.50778816252233 0.0 0.0
452.81151265061425 177.2360316655373 275.2765169238094 -178.73063724131342 0.0 0.0
162.33437792732093 51.11272996411567 64.03413236743097 -93.09485164743201 0.0 0.0
257.72102781354266 14.340704226164046 81.60483578987082 -85.28862621667236 0.0 0.0
393.4905663271228 9.924104541258481 122.7085000823712 -90.97646094029052 0.0 0.0
529.6622861459239 30.996965009965006 203.24154927306236 -89.73306927074464 0.0 0.0
645.9331387635057 55.61514250401434 309.77431514162794 -89.19211972545627 0.0 0.0
733.8968929562026 72.14388287432155 390.51463142939076 -89.05232253841857 0.0 0.0
805.1411677271985 81.87896859605894 439.6948256266698 -89.95622797329398 0.0 0.0
866.1295327482766 90.53994964715251 476.21156784978456 -90.84888313990889 0.0 0.0
924.7216897059116 102.99812867992394 511.9582990009675 -90.43637150811155 0.0 0.0
983.7998398977688 120.77038381963733 550.4384482286715 -89.11689062019236 0.0 0.0
1042.2616298257326 141.6889151561265 590.2313432734525 -87.3372327576077 0.0 0.0
1096.8566336808053 162.5103432485655 628.0117315947354 -85.07121321017357 0.0 0.0
1145.8254035460095 179.66969634888454 661.0824431054286 -82.18447745408699 0.0 0.0
1187.329981617949 191.88239547978105 687.9246484287777 -78.58357106665659 0.0 0.0
1217.758283248437 195.89943960109713 705.2037133759951 -74.15604578535108 0.0 0.0
1230.611962264226 185.1598079928833 706.4315002254715 -68.77846376550845 0.0 0.0
1222.5370444480145 157.40008492301178 688.7365961925451 -61.614981173934815 0.0 0.0
1204.7181508007982 124.78015852499544 663.6602034971305 -51.26748647943718 0.0 0.0
915.1345586178443 -162.74521092425323 377.9783844821186 7.547740210611664e-11 0.0 0.0
1204.718150805081 124.78015852936673 663.6602035001879 51.26748647965967 0.0 0.0
1222.5370444470836 157.40008492225562 688.7365961917985 61.61498117421156 0.0 0.0
1230.6119622642866 185.15980799296773 706.4315002256424 68.77846376566669 0.0 0.0
1217.758283247406 195.8994396001824 705.2037133752114 74.15604578537106 0.0 0.0
1187.3299816182468 191.88239548019635 687.924648429128 78.58357106670199 0.0 0.0
1145.8254035462967 179.66969634936802 661.0824431056296 82.18447745406012 0.0 0.0
1096.8566336797544 162.5103432477013 628.011731593976 85.07121321028102 0.0 0.0
1042.261629826383 141.68891515692243 590.23134327391 87.33723275757356 0.0 0.0
983.7998398966909 120.7703838187258 550.4384482279461 89.11689061997838 0.0 0.0
924.7216897064075 102.99812868066992 511.95829900122294 90.4363715081827 0.0 0.0
866.1295327477247 90.5399496468267 476.211567849457 90.84888313981833 0.0 0.0
805.1411677274826 81.87896859660451 439.69482562686676 89.95622797319513 0.0 0.0
733.896892955783 72.14388287424407 390.5146314290343 89.05232253847853 0.0 0.0
645.933138763288 55.61514250420636 309.7743151413256 89.19211972555799 0.0 0.0
529.6622861453179 30.996965009560803 203.2415492725764 89.73306927063888 0.0 0.0
393.49056632703093 9.924104541717945 122.7085000824635 90.97646094011586 0.0 0.0
257.72102781348406 14.340704225921938 81.60483578977666 85.28862621644285 0.0 0.0
162.33437792725982 51.1127299639109 64.03413236735123 93.09485164722543 0.0 0.0
452.81151264995805 177.23603166519433 275.2765169232596 178.7306372411497 0.0 0.0
-919.1651881429013 -1604.2800961673486 -1132.6333957875813 82.50778816241514 0.0 0.0
-728.2696315429079 -1390.1256206180003 -921.4798999479451 -77.87084219335955 0.0 0.0
349.0768343952756 110.75647178651938 194.68902037956428 -198.27894893671441 0.0 0.0
117.48371909948888 34.99581445065533 45.74386006504326 -122.70155213266348 0.0 0.0
205.65220667098149 18.87837832991961 67.36484400455817 -110.5474720731467 0.0 0.0
322.7730208629621 6.416909428159149 98.19283845918183 -117.44201409912081 0.0 0.0
459.30844137443705 18.597450620453632 161.40000669012272 -116.33620252012597 0.0 0.0
584.7385239799238 46.020155470708936 262.8204469955856 -112.6480857973868 0.0 0.0
684.9255868290278 61.0647699389165 352.4296266874984 -111.81475267166229 0.0 0.0
754.6680498441095 69.79469205898874 405.9246930063975 -110.55662606511595 0.0 0.0
814.2007265845674 74.37358211707888 441.0998938483163 -110.72711191742228 0.0 0.0
869.3274508406137 83.3150173318534 473.6196386973469 -109.77040557612578 0.0 0.0
925.007238733882 98.14019207521844 508.960901843732 -108.00433887745066 0.0 0.0
980.1450418220156 116.51393093660012 545.8487260572833 -105.87230021854901 0.0 0.0
1031.805205049232 134.38857710340244 580.7200201715613 -103.28631317913339 0.0 0.0
1078.562474905236 150.03769950123532 611.9588957890657 -99.86807447927495 0.0 0.0
1119.2558738675104 161.99760091118534 638.280647088493 -95.66222377894229 0.0 0.0
1152.4269548141956 168.11023915058826 657.9359688354075 -91.05076940266312 0.0 0.0
1173.6732951291078 165.508787154198 667.4055317480035 -85.3407540267312 0.0 0.0
1175.9100452528985 147.08342575332935 659.5615298893681 -76.64178011553072 0.0 0.0
1163.4436670380853 117.44703763067167 638.6627228638006 -62.91249581706713 0.0 0.0
785.9726853855096 -256.7621991499577 267.00530567541983 2.0262014288618957e-10 0.0 0.0
1163.443667040222 117.44703763285902 638.6627228653638 62.91249581733746 0.0 0.0
1175.910045252184 147.0834257527896 659.5615298888915 76.64178011591649 0.0 0.0
1173.673295127808 165.50878715291964 667.4055317470849 85.34075402678064 0.0 0.0
1152.4269548130076 168.1102391494861 657.9359688345415 91.05076940259042 0.0 0.0
1119.2558738685232 161.99760091245886 638.2806470893036 95.66222377916293 0.0 0.0
1078.5624749057251 150.03769950189786 611.9588957893296 99.86807447934946 0.0 0.0
1031.8052050483705 134.3885771026986 580.720020170951 103.28631317912081 0.0 0.0
980.1450418217914 116.51393093652476 545.848726057084 105.87230021855937 0.0 0.0
925.0072387340714 98.14019207556743 508.9609018438326 108.00433887732987 0.0 0.0
869.3274508408967 83.31501733236416 473.6196386975106 109.77040557612152 0.0 0.0
814.2007265844462 74.3735821172663 441.0998938482072 110.72711191741243 0.0 0.0
754.6680498436431 69.7946920588176 405.9246930060811 110.55662606514261 0.0 0.0
684.9255868294738 61.06476993983087 352.42962668770815 111.81475267179334 0.0 0.0
584.7385239791216 46.02015547019266 262.8204469949233 112.64808579733456 0.0 0.0
459.3084413739468 18.597450620229374 161.40000668975807 116.3362025199985 0.0 0.0
322.77302086299306 6.416909429074245 98.19283845947388 117.44201409895079 0.0 0.0
205.6522066705999 18.878378329385058 67.3648440042832 110.54747207289671 0.0 0.0
117.48371909948344 34.99581445072115 45.74386006506137 122.70155213233801 0.0 0.0
349.0768343946563 110.75647178614979 194.6890203790725 198.27894893660812 0.0 0.0
-728.269631541622 -1390.1256206165983 -921.4798999464448 77.87084219317032 0.0 0.0
-562.7027198701171 -1195.22082464971 -733.2380507356412 -73.4155096375648 0.0 0.0
266.8639543693545 58.42484586329988 132.62283967575286 -210.66863383323752 0.0 0.0
81.69674247643235 19.63452592726012 30.399508825441814 -147.17635742405685 0.0 0.0
157.5026540467777 21.91628447779269 53.82576914540615 -133.8753684173693 0.0 0.0
251.24544213120453 6.638201496195747 76.86823030978594 -140.69327131366742 0.0 0.0
377.6762934236775 6.059365011753073 121.15648278809095 -145.9531774726105 0.0 0.0
508.5350234980144 31.37549470749947 207.79121658891358 -139.20454658334785 0.0 0.0
618.0876230280659 50.76321379900805 302.7698756924717 -134.38934496386955 0.0 0.0
697.3090702372335 55.212801489833225 364.6417243920167 -132.28833167738333 0.0 0.0
753.6420285974639 58.32905013245714 400.79489587263333 -129.6507727609765 0.0 0.0
806.9901941675575 63.8150337498567 431.3520680960908 -128.04392256893033 0.0 0.0
859.1725583223462 75.4516321813083 463.47620478850854 -125.83985064029618 0.0 0.0
910.5132290406257 90.78894141494379 497.00239858280656 -123.38505250801904 0.0 0.0
959.0499914809061 106.48622788015834 529.2560750183314 -120.5654998715504 0.0 0.0
1003.0824013289377 119.97945498564168 558.1177706760898 -116.86282295384648 0.0 0.0
1042.056481902442 129.68607178657481 582.4700046692499 -112.2809595222628 0.0 0.0
1077.7317292585535 139.38038290734534 605.1087844683512 -107.16233040506904 0.0 0.0
1109.8508714386714 146.7424691290608 624.9288257281173 -101.59622498457706 0.0 0.0
1124.981190981113 139.28658212641656 629.052954233374 -92.4862761593178 0.0 0.0
1117.6384555409693 111.85271824839683 611.9217323399915 -76.41883699757885 0.0 0.0
636.7327075213021 -363.32627171094055 139.97346296132827 2.298605750183924e-10 0.0 0.0
1117.6384555420861 111.85271824956249 611.9217323407406 76.41883699781448 0.0 0.0
1124.9811909792202 139.28658212455815 629.0529542321723 92.48627615932324 0.0 0.0
1109.8508714388106 146.74246912937295 624.9288257282154 101.59622498490002 0.0 0.0
1077.7317292585533 139.38038290740107 605.1087844682922 107.16233040493859 0.0 0.0
1042.0564819042174 129.68607178860347 582.4700046705024 112.28095952243737 0.0 0.0
1003.082401328274 119.97945498515173 558.1177706755848 116.86282295392115 0.0 0.0
959.0499914804935 106.48622787979502 529.2560750180146 120.56549987145102 0.0 0.0
910.5132290400626 90.78894141457822 497.00239858234715 123.38505250800168 0.0 0.0
859.1725583222841 75.45163218142821 463.476204788497 125.83985064034141 0.0 0.0
806.9901941676836 63.81503375012343 431.3520680961587 128.04392256880402 0.0 0.0
753.6420285974492 58.32905013274288 400.79489587264646 129.6507727609617 0.0 0.0
697.3090702376572 55.212801490757826 364.64172439224876 132.2883316775438 0.0 0.0
618.0876230280962 50.76321379948382 302.7698756924151 134.3893449639644 0.0 0.0
508.53502349720327 31.375494706925863 207.79121658826477 139.20454658325292 0.0 0.0
377.67629342297727 6.059365011156304 121.15648278765443 145.9531774725008 0.0 0.0
251.24544213111778 6.6382014965882465 76.86823030989224 140.6932713133377 0.0 0.0
157.5026540467779 21.9162844778452 53.82576914542224 133.87536841727064 0.0 0.0
81.69674247638756 19.634525927147223 30.399508825394484 147.17635742386747 0.0 0.0
266.8639543687885 58.42484586292271 132.62283967533568 210.6686338331084 0.0 0.0
-562.702719868901 -1195.2208246483162 -733.2380507342726 73.41550963742658 0.0 0.0
-416.6670660176063 -1024.873961708782 -566.2252838018279 -76.56780823876385 0.0 0.0
197.32688835410616 18.826970941749273 84.21934316846801 -215.1091088046672 0.0 0.0
51.36141819329962 7.005674000797273 17.509868428177107 -165.57534448743968 0.0 0.0
111.06745890551139 23.246410245420392 40.29509195473089 -153.76334770753687 0.0 0.0
183.3216878256264 8.471962334997281 57.29312980084292 -160.58435493654713 0.0 0.0
284.85815527365605 -0.47767825330268576 86.01842197159988 -173.25976358629225 0.0 0.0
410.8652893102825 14.751480323535231 148.9569075189542 -168.1551106500072 0.0 0.0
530.567926108208 35.29167975303876 237.77090004360448 -158.3565437292523 0.0 0.0
620.5069979403513 42.17720147784396 309.886640533604 -152.75491163472205 0.0 0.0
682.5738496326001 40.02734902057589 351.32743717844335 -148.85989930918203 0.0 0.0
733.3164562654417 43.60334316928839 381.61816079193795 -145.10932147665716 0.0 0.0
782.5130533057712 52.82487006710461 411.5523319134157 -142.3535655147808 0.0 0.0
830.0869617159432 65.03160603841381 441.7669087558226 -139.59068176745606 0.0 0.0
874.5012367328633 77.7484498035945 470.512856862733 -136.6732826064265 0.0 0.0
915.935157617957 89.28086071786902 497.13947486511324 -133.0758364310967 0.0 0.0
952.8567905602406 97.97924394533516 520.0730189629992 -128.2713789684055 0.0 0.0
988.4676425732612 106.36788365221096 542.0468759567253 -122.61771847118833 0.0 0.0
1030.6802328143935 123.6371043274844 571.6675917702738 -117.07347840740267 0.0 0.0
1065.3802774470923 134.86370352634265 594.9466003875528 -109.08389533748137 0.0 0.0
1067.964040778723 113.19665457237913 585.9608896746485 -92.83863489196207 0.0 0.0
461.8382086078126 -481.71067981249337 -5.406777561772131 2.1719515075346862e-10 0.0 0.0
1067.964040779348 113.1966545729839 585.9608896750327 92.83863489228386 0.0 0.0
1065.380277446372 134.86370352582566 594.9466003871605 109.0838953375559 0.0 0.0
1030.6802328151246 123.63710432857967 571.6675917709027 117.07347840800331 0.0 0.0
988.4676425734713 106.36788365253028 542.0468759566678 122.61771847135732 0.0 0.0
952.8567905600057 97.97924394523335 520.0730189628856 128.27137896839284 0.0 0.0
915.9351576171399 89.28086071723064 497.1394748646203 133.0758364312508 0.0 0.0
874.5012367323267 77.74844980318528 470.5128568624184 136.67328260640204 0.0 0.0
830.0869617152852 65.03160603776801 441.76690875539737 139.59068176742528 0.0 0.0
782.5130533061049 52.82487006766478 411.55233191359366 142.35356551477565 0.0 0.0
733.3164562653031 43.60334316921016 381.6181607917242 145.10932147650902 0.0 0.0
682.5738496317642 40.027349019930114 351.32743717798496 148.8598993090343 0.0 0.0
620.5069979403933 42.17720147823161 309.88664053359486 152.75491163481524 0.0 0.0
530.5679261078693 35.291679753094634 237.7709000432859 158.35654372925976 0.0 0.0
410.8652893099613 14.751480323579937 148.95690751868622 168.15511064991477 0.0 0.0
284.8581552729148 -0.4776782539300566 86.01842197119403 173.25976358609554 0.0 0.0
183.32168782551003 8.471962335082598 57.29312980084378 160.58435493630964 0.0 0.0
111.06745890552014 23.246410245557083 40.29509195477959 153.7633477072311 0.0 0.0
51.36141819314323 7.005674000535404 17.50986842804999 165.57534448734626 0.0 0.0
197.32688835370746 18.82697094155798 84.21934316819501 215.10910880453594 0.0 0.0
-416.66706601668415 -1024.8739617075687 -566.2252838007028 76.56780823876429 0.0 0.0
-301.6567658295709 -861.9427223355264 -427.3872981726049 -81.12725495767853 0.0 0.0
137.7685669041589 -13.26937089144636 47.07210393960242 -213.23981914606517 0.0 0.0
23.374157930650682 -1.6972902742975464 6.503742767896745 -178.5316984882479 0.0 0.0
65.59646563714925 23.049439400001226 26.58572227548954 -169.61501052193577 0.0 0.0
117.19936085668061 11.492008150729925 38.489556887965556 -176.02253305989362 0.0 0.0
186.88015890816925 -0.47195232355594463 55.71578450173739 -193.61200637123613 0.0 0.0
289.2604375480225 -0.07437370686729983 92.01531099261611 -199.9396785256427 0.0 0.0
411.51844600754964 13.252235142962768 157.41285129075837 -186.92596250475015 0.0 0.0
514.6580686093147 22.905690377166245 230.29075653721742 -173.00040912865614 0.0 0.0
585.8419401400744 21.7106407985177 281.54752453430376 -165.66628509957144 0.0 0.0
638.7080311721733 23.006841906565008 316.2934395458938 -160.32582602924796 0.0 0.0
685.5900695329203 29.203422921827364 345.3182802755681 -157.0303756866823 0.0 0.0
729.1897244758501 38.963116094118504 373.0663844010697 -154.02352800677343 0.0 0.0
768.8963898872884 48.624282330173074 398.1649086859693 -151.1465033738407 0.0 0.0
806.4995007789437 58.05924127358303 421.9557837432023 -148.0149745115793 0.0 0.0
842.5256215015323 66.544727544105 444.51720281977765 -143.76883032596362 0.0 0.0
877.3343765694485 73.90806128562802 465.96930199191485 -137.77844551607558 0.0 0.0
920.7522576543779 90.78485826828404 496.03601484190386 -131.26046859992303 0.0 0.0
980.18282707171 124.26816998025275 542.488955306732 -125.67438453778897 0.0 0.0
1012.3785697474677 127.29851208816048 561.3267518811742 -113.96862080032766 0.0 0.0
251.886216630334 -607.3796538843828 -171.20409808667594 1.10659925667278e-10 0.0 0.0
1012.3785697474692 127.2985120880559 561.3267518813501 113.96862080034644 0.0 0.0
980.1828270726061 124.26816998140718 542.48895530732 125.67438453795978 0.0 0.0
920.752257655791 90.78485826998065 496.03601484295484 131.2604686002514 0.0 0.0
877.3343765687847 73.908061285113 465.96930199134874 137.77844551612336 0.0 0.0
842.5256214999263 66.5447275422606 444.5172028187058 143.76883032577345 0.0 0.0
806.4995007788176 58.0592412735968 421.95578374316614 148.0149745116314 0.0 0.0
768.8963898869646 48.62428233011927 398.1649086857689 151.14650337383185 0.0 0.0
729.1897244749184 38.963116093247265 373.0663844004781 154.02352800681757 0.0 0.0
685.5900695330679 29.203422922167032 345.31828027571163 157.03037568672843 0.0 0.0
638.708031171906 23.00684190627299 316.2934395456672 160.32582602913075 0.0 0.0
585.8419401395112 21.710640798115456 281.5475245338636 165.6662850993494 0.0 0.0
514.6580686077886 22.905690375473526 230.29075653613552 173.00040912856156 0.0 0.0
411.51844600763286 13.25223514376787 157.4128512908596 186.92596250488384 0.0 0.0
289.2604375476148 -0.07437370696686596 92.01531099241649 199.93967852554167 0.0 0.0
186.8801589077925 -0.47195232389973674 55.71578450153591 193.61200637087637 0.0 0.0
117.19936085628616 11.492008150106107 38.489556887666176 176.02253305961682 0.0 0.0
65.59646563694328 23.04943939960644 26.585722275308193 169.61501052163385 0.0 0.0
23.374157930627664 -1.6972902742091263 6.503742767915504 178.53169848811032 0.0 0.0
137.768566903706 -13.269370891754402 47.07210393931478 213.23981914584434 0.0 0.0
-301.65676582890484 -861.9427223344579 -427.3872981717356 81.1272549577605 0.0 0.0
-208.19266516787226 -716.748679610325 -313.06905751188975 -93.80740994675406 0.0 0.0
84.2869596446977 -38.93838122891469 17.73168337501234 -205.3366282932249 0.0 0.0
-3.79077285004203 -5.740234706404142 -2.874454475762546 -186.01730480608407 0.0 0.0
20.617416086609982 21.78303693056158 12.717219055402385 -180.5379625809013 0.0 0.0
51.13234920485172 14.606784374313271 19.68249158991846 -186.9478025029029 0.0 0.0
90.00424082121938 3.024591754726842 27.80611128388074 -206.5539323343878 0.0 0.0
146.50921247383155 -2.635160399456334 43.61367541883182 -222.1121379102003 0.0 0.0
236.23236308705384 -6.67724226055392 72.30210642410205 -220.71116771570104 0.0 0.0
345.68739558996003 -13.22831112456115 112.54066343765403 -201.2213030367611 0.0 0.0
431.0734914462405 -13.139980990396822 155.98103554538162 -178.5559961966407 0.0 0.0
488.99404714508216 -4.071431918378856 195.485955454419 -169.73186930353586 0.0 0.0
532.8419756839626 4.175271472317682 227.42997427547326 -167.44063272445112 0.0 0.0
569.9071425270255 12.065771840473296 254.30299882826424 -166.56744097739127 0.0 0.0
603.5373699811505 19.919529244130146 277.9334037254326 -165.7236131127946 0.0 0.0
636.0499435606343 28.006942967296396 300.7896225342882 -164.4620788138059 0.0 0.0
670.1766294930374 36.41803202022358 324.8038295016849 -162.1110154764842 0.0 0.0
707.1057978953887 44.148482697791124 350.2858105947133 -157.04311139927472 0.0 0.0
746.5379822687344 50.61043893607838 376.31564291243734 -149.21508070882052 0.0 0.0
813.2294500876646 82.1760103661791 425.64953415801665 -143.0760431170468 0.0 0.0
913.5588494812339 143.48138912985922 509.266853336169 -142.4527842106845 0.0 0.0
-26.43935292563441 -732.1773123020489 -367.84092324944805 9.545431112201186e-11 0.0 0.0
913.5588494796239 143.4813891277276 509.2668533352064 142.45278421051978 0.0 0.0
813.2294500878677 82.1760103667695 425.6495341584005 143.07604311732842 0.0 0.0
746.5379822684945 50.61043893564428 376.31564291234884 149.21508070914447 0.0 0.0
707.1057978957151 44.14848269822259 350.28581059481024 157.04311139931895 0.0 0.0
670.1766294922107 36.41803201931263 324.8038295011784 162.1110154763141 0.0 0.0
636.0499435612338 28.006942968306134 300.7896225347572 164.46207881383674 0.0 0.0
603.5373699821596 19.919529245600152 277.93340372606536 165.7236131129808 0.0 0.0
569.9071425260216 12.065771839436863 254.3029988276262 166.5674409774126 0.0 0.0
532.8419756840457 4.175271472545116 227.42997427546388 167.44063272439203 0.0 0.0
488.9940471450419 -4.071431918328994 195.48595545434955 169.73186930347669 0.0 0.0
431.07349144621827 -13.139980990214626 155.98103554538358 178.55599619660433 0.0 0.0
345.68739558878974 -13.228311126005565 112.54066343683252 201.22130303663846 0.0 0.0
236.23236308683258 -6.677242260371662 72.30210642407036 220.7111677157276 0.0 0.0
146.50921247320437 -2.6351604002671665 43.61367541839831 222.11213791002515 0.0 0.0
90.00424082144704 3.024591755535748 27.806111284203965 206.5539323340556 0.0 0.0
51.13234920435384 14.6067843731398 19.682491589418944 186.94780250265222 0.0 0.0
20.617416086682272 21.783036930785443 12.717219055491361 180.53796258067823 0.0 0.0
-3.7907728499566566 -5.740234706022488 -2.874454475624663 186.0173048058934 0.0 0.0
84.28695964437131 -38.938381229164946 17.731683374813876 205.33662829301923 0.0 0.0
-208.19266516729652 -716.7486796093564 -313.0690575112188 93.80740994681594 0.0 0.0
-144.72546604040846 -582.7361295792133 -228.44988739437528 -107.06354086209157 0.0 0.0
34.832749618128744 -58.042811688780276 -5.652957393295981 -190.77951885483245 0.0 0.0
-30.406905222401896 -6.314256339370244 -11.014265634159011 -189.92574033963857 0.0 0.0
-23.73159021360311 20.06865585085004 -1.1111998857682148 -186.87250460497864 0.0 0.0
-14.167549353144775 17.410860250212554 0.9711837860974559 -192.63880109112878 0.0 0.0
-6.874525092419072 7.283577575631262 0.13196975004468658 -211.4143330816216 0.0 0.0
-3.1272918248089177 0.9852801588684952 -0.6437651806199955 -228.77887539128832 0.0 0.0
-1.1720318854937233 0.10439216817044183 -0.32445711327251203 -231.56919922138556 0.0 0.0
-0.40301687755519566 0.003032114957488119 -0.12791688965822345 -224.6246848863429 0.0 0.0
-0.03009610881804292 -0.023111041045847713 -0.01314031020145734 -220.78985841734146 0.0 0.0
-0.47247775969538 0.010929229934838247 -0.12025005080882067 -212.91824346218877 0.0 0.0
-1.0383754712398598 0.18003218489917572 0.2568780737507268 -199.75337580013075 0.0 0.0
-1.8659972519032522 0.9665452018264347 0.5135526085903734 -190.72417860844843 0.0 0.0
0.3098852248259618 2.9240716207171715 1.1067999215205333 -183.8877692947019 0.0 0.0
10.356103011062459 7.300817456855754 2.605602351203814 -178.99705906084012 0.0 0.0
35.39254899393467 15.268109284072139 6.783930941384639 -174.74321080832357 0.0 0.0
85.15611330287156 28.74575679032769 16.13343146370302 -169.27631455951231 0.0 0.0
173.80719287875684 39.112539328427786 22.30811285965379 -160.06511207710852 0.0 0.0
396.2314887786905 -1.5399552306295021 40.08445465778581 -155.45048872645376 0.0 0.0
629.8193513713813 36.46001264149089 254.30712634763256 -203.29672731249798 0.0 0.0
-717.7150253423318 -984.4144287368572 -772.3502464253031 4.179412371740909e-11 0.0 0.0
629.8193513694125 36.46001263879782 254.30712634609745 203.29672731221928 0.0 0.0
396.23148877903316 -1.5399552288860718 40.08445465849033 155.4504887271807 0.0 0.0
173.80719287779056 39.11253932710082 22.30811285888538 160.06511207773525 0.0 0.0
85.156113303095 28.745756790728052 16.13343146387834 169.27631455978755 0.0 0.0
35.392548993852955 15.268109284023012 6.783930941234445 174.74321080820494 0.0 0.0
10.35610301130123 7.300817456792103 2.6056023512876436 178.99705906107124 0.0 0.0
0.30988522572910426 2.924071621860712 1.1067999222109535 183.887769294623 0.0 0.0
-1.8659972521996195 0.9665452013550535 0.5135526082049466 190.72417860855722 0.0 0.0
-1.0383754710971829 0.18003218441127444 0.25687807362536574 199.75337580018277 0.0 0.0
-0.4724777592335272 0.010929229991585743 -0.12025005068103667 212.9182434622781 0.0 0.0
-0.03009610806295626 -0.023111040946000472 -0.013140309952156315 220.78985841691147 0.0 0.0
-0.4030168779039869 0.0030321135503266206 -0.1279168901988843 224.62468488639408 0.0 0.0
-1.1720318854456622 0.10439216822082331 -0.32445711323090975 231.56919922138593 0.0 0.0
-3.1272918246854466 0.9852801590085324 -0.6437651805393694 228.7788753910175 0.0 0.0
-6.874525091695498 7.283577577009235 0.13196975067480787 211.41433308139537 0.0 0.0
-14.167549353097458 17.410860250027596 0.9711837860558381 192.6388010908573 0.0 0.0
-23.731590213347634 20.068655851295077 -1.1111998855594507 186.8725046047728 0.0 0.0
-30.406905222256828 -6.314256339132529 -11.014265634045557 189.92574033949603 0.0 0.0
34.83274961781599 -58.042811688972726 -5.652957393467975 190.77951885459083 0.0 0.0
-144.72546604027772 -582.7361295785668 -228.44988739406304 107.0635408621613 0.0 0.0
-111.51744165864889 -462.3582754520208 -172.51930199179878 -114.21055958860086 0.0 0.0
-4.669665424814172 -69.69552872238754 -22.252683293232536 -174.2354266334708 0.0 0.0
-55.65046611049439 -5.648964376279585 -18.403482616293743 -189.00108207468568 0.0 0.0
-67.03190575777992 18.49802199403186 -14.579218783806143 -188.3385349901644 0.0 0.0
-78.24365156198142 19.491519920709212 -17.63415930322066 -192.66223534272223 0.0 0.0
-102.4777796384119 11.323626862364284 -27.336365532511003 -208.0741908111228 0.0 0.0
-152.13100276472744 4.640191429335268 -44.804151859073606 -223.17388533572526 0.0 0.0
-237.70611157285703 6.712123349438387 -72.90773412072065 -221.1121948524282 0.0 0.0
-345.94206508706526 13.066723823588019 -112.74367610516819 -201.26231687300964 0.0 0.0
-431.0892800868802 13.109964749553178 -155.9943744668687 -178.5211969483479 0.0 0.0
-489.51126450743396 3.933395392258639 -195.80691910276602 -169.74766473301378 0.0 0.0
-533.6727531848285 -4.081665136754992 -228.37010636739342 -167.2620702579349 0.0 0.0
-570.9254929371843 -10.554648299213483 -254.96941842722975 -165.87863829480457 0.0 0.0
-601.4000957697331 -14.477012377074402 -274.68714197724137 -164.9539500686353 0.0 0.0
-622.4219934307714 -14.62990851505738 -285.7847790685244 -165.1276759910063 0.0 0.0
-631.9404894631144 -9.73271889972365 -286.0328886975108 -167.10765053770422 0.0 0.0
-628.5617300362737 0.017990714793882034 -273.52169924788956 -171.5899220037024 0.0 0.0
-620.8199273782218 7.449285972515355 -251.06561192202338 -180.91949026852302 0.0 0.0
-597.0429333873273 60.109600400482364 -186.80395292190363 -194.70277429210228 0.0 0.0
-321.3543258415826 184.45439026151018 50.59720282099755 -163.42785148499703 0.0 0.0
-1291.348177223269 -1257.8426535624587 -1308.3056263133337 -1.424851348019729e-10 0.0 0.0
-321.3543258421132 184.45439026073635 50.597202820571965 163.42785148555146 0.0 0.0
-597.0429333859186 60.10960040186522 -186.8039529211557 194.70277429256407 0.0 0.0
-620.8199273772169 7.449285973628534 -251.06561192132168 180.91949026849935 0.0 0.0
-628.561730036266 0.017990714557086562 -273.52169924801336 171.58992200390915 0.0 0.0
-631.9404894629747 -9.732718899951095 -286.03288869742596 167.10765053771917 0.0 0.0
-622.4219934296424 -14.62990851387822 -285.7847790675527 165.12767599089577 0.0 0.0
-601.4000957702472 -14.477012377823414 -274.68714197756333 164.95395006860758 0.0 0.0
-570.9254929369075 -10.554648298866837 -254.96941842694207 165.8786382947525 0.0 0.0
-533.6727531848655 -4.081665137349557 -228.3701063673467 167.26207025774414 0.0 0.0
-489.5112645073424 3.933395391828501 -195.8069191026942 169.74766473312764 0.0 0.0
-431.08928008589305 13.10996475060311 -155.99437446612532 178.52119694822704 0.0 0.0
-345.9420650872152 13.066723822231392 -112.7436761054837 201.26231687329545 0.0 0.0
-237.70611157222137 6.712123349584958 -72.90773412045912 221.11219485252695 0.0 0.0
-152.13100276433082 4.640191429398975 -44.80415185893871 223.1738853356106 0.0 0.0
-102.47777963817899 11.323626862328554 -27.336365532460373 208.07419081082156 0.0 0.0
-78.24365156200096 19.491519920502128 -17.634159303291334 192.66223534242158 0.0 0.0
-67.03190575760233 18.498021994379812 -14.579218783651807 188.33853498991033 0.0 0.0
-55.65046611047459 -5.648964376339384 -18.40348261630826 189.00108207462756 0.0 0.0
-4.669665424999949 -69.6955287226452 -22.252683293363237 174.23542663333376 0.0 0.0
-111.51744165868978 -462.3582754514308 -172.51930199166807 114.21055958851056 0.0 0.0
-93.54788649125626 -353.26003956070275 -134.02897567344766 -107.9380701372651 0.0 0.0
-30.11871700922903 -75.73291099542932 -31.751084429802802 -160.9373447193842 0.0 0.0
-79.33079776681345 -5.245182859795396 -25.357918199082356 -184.9258050255769 0.0 0.0
-108.52682182197877 17.13281963597418 -27.449619305850106 -184.79672874603145 0.0 0.0
-141.15156927639129 20.99266687545538 -35.979450705852635 -188.09572054628092 0.0 0.0
-196.38063097790968 14.351115052221854 -54.76674443125131 -198.22515408728364 0.0 0.0
-291.18622517258336 1.1179213304634352 -93.02157630924766 -199.6995066718866 0.0 0.0
-411.7151291219424 -13.462089844115791 -157.7475626775658 -187.55962207579546 0.0 0.0
-514.638366767685 -23.101787035157088 -230.38370102937432 -173.12697640188745 0.0 0.0
-585.7667462805621 -21.73718095681847 -281.5467666138136 -165.66846230465853 0.0 0.0
-638.7810956031977 -22.990015500073014 -316.3675554548194 -160.23817684167048 0.0 0.0
-686.0874590497085 -29.05899336761064 -345.5996370916148 -156.48647036165593 0.0 0.0
-729.5876961471253 -37.85233493902018 -372.91400689596924 -152.82049216437812 0.0 0.0
-766.0614278501146 -44.046748795530775 -394.78097817911413 -150.00159571250612 0.0 0.0
-792.9319329933479 -45.00292413995575 -408.98575004875477 -149.05701369906836 0.0 0.0
-807.1072758248898 -38.436724995958315 -412.8306385058393 -150.3966463132325 0.0 0.0
-809.5366312838631 -26.527590547952258 -407.69660970310053 -154.25159666679843 0.0 0.0
-800.6837804437635 -11.626092400325149 -395.2373076923521 -160.49533697375958 0.0 0.0
-749.9307955675736 36.67679074897103 -345.520730106917 -167.71456510268044 0.0 0.0
-626.3722216029128 143.23734377876525 -232.4905186812853 -175.454242581848 0.0 0.0
-2093.0842012892954 -1557.539386729064 -1793.9556603099181 -3.9193537304527126e-11 0.0 0.0
-626.3722216019912 143.23734377955773 -232.49051868056557 175.4542425818498 0.0 0.0
-749.9307955680887 36.676790748342086 -345.52073010733545 167.71456510305796 0.0 0.0
-800.6837804426291 -11.626092399012109 -395.2373076915677 160.49533697353849 0.0 0.0
-809.5366312839801 -26.527590548237555 -407.6966097032415 154.2515966669135 0.0 0.0
-807.1072758239757 -38.436724995194695 -412.8306385052665 150.39664631316026 0.0 0.0
-792.9319329921357 -45.002924138436136 -408.98575004785715 149.05701369880364 0.0 0.0
-766.0614278500753 -44.04674879578314 -394.78097817903677 150.00159571243543 0.0 0.0
-729.5876961465818 -37.852334938637604 -372.9140068956444 152.82049216446381 0.0 0.0
-686.0874590489955 -29.058993367156177 -345.599637091155 156.4864703615603 0.0 0.0
-638.7810956025265 -22.990015499801984 -316.36755545448034 160.23817684171533 0.0 0.0
-585.7667462799888 -21.737180956536022 -281.5467666134771 165.66846230474823 0.0 0.0
-514.6383667672316 -23.10178703513933 -230.38370102897912 173.12697640189288 0.0 0.0
-411.71512912176604 -13.462089844543456 -157.7475626774203 187.55962207589945 0.0 0.0
-291.18622517219313 1.1179213302719506 -93.02157630910506 199.6995066717859 0.0 0.0
-196.38063097777476 14.351115051688883 -54.7667444313697 198.2251540870344 0.0 0.0
-141.15156927626134 20.992666875154068 -35.979450705917344 188.09572054596316 0.0 0.0
-108.52682182172883 17.132819636171853 -27.44961930572088 184.7967287458997 0.0 0.0
-79.33079776668805 -5.245182859654734 -25.357918199008235 184.92580502551886 0.0 0.0
-30.118717009285827 -75.73291099544275 -31.75108442982213 160.9373447193187 0.0 0.0
-93.54788649113654 -353.26003956023345 -134.02897567327 107.93807013721518 0.0 0.0
-76.47022037080855 -262.0485301240874 -101.55562514846876 -96.8322476448576 0.0 0.0
-47.874162287048385 -75.17670031707291 -36.914538789218675 -147.10820267593402 0.0 0.0
-101.13801837948787 -5.1416879258612 -31.861365894386115 -176.450815552118 0.0 0.0
-148.3851986622673 15.87280676598397 -39.71869007749972 -177.3133462802926 0.0 0.0
-201.60727998479166 20.867427764584615 -54.18621905023364 -176.7142822522706 0.0 0.0
-286.7373848590648 11.40183795440061 -84.91085763925432 -176.86070312614083 0.0 0.0
-410.8794082759537 -12.800969720076981 -148.7607676234651 -170.85212301699497 0.0 0.0
-530.6705520944412 -35.80276797137321 -237.97182417867276 -158.99715570137917 0.0 0.0
-620.437414629226 -42.36946940980923 -309.9597468673849 -152.83192754738377 0.0 0.0
-682.4505809151862 -39.95714801875387 -351.273640493962 -148.89602677168455 0.0 0.0
-733.1418661039102 -43.36772532848309 -381.4480763920272 -145.0086082652023 0.0 0.0
-782.5549955608512 -52.41446547665012 -411.4191945562128 -141.72809226259236 0.0 0.0
-830.2063517802926 -64.07762817536948 -441.44431527423876 -138.12026748643981 0.0 0.0
-872.4113890092962 -74.35352607624097 -467.96745424328884 -135.07632355114887 0.0 0.0
-905.239355245071 -78.86065922679603 -486.87907143649073 -133.93443363400417 0.0 0.0
-924.1740461463555 -74.4939497941943 -494.29175463814204 -135.69357336595368 0.0 0.0
-927.852432260481 -59.99591779904108 -488.9335779334332 -140.29692791517508 0.0 0.0
-906.7281582710277 -27.4722504197357 -462.0883035726024 -145.912485463475 0.0 0.0
-848.1048338221608 34.18995114864937 -402.4529535481013 -150.10432052010862 0.0 0.0
-681.8948331026832 189.63237949206876 -244.45882444826333 -150.64437213727626 0.0 0.0
-2535.3119640777945 -1788.4476732951605 -2138.6808141886654 -3.0876634582455154e-11 0.0 0.0
-681.8948331024078 189.63237949219692 -244.45882444797468 150.644372137462 0.0 0.0
-848.1048338225104 34.18995114821959 -402.4529535483697 150.10432052031922 0.0 0.0
-906.7281582680469 -27.47225041666853 -462.0883035704221 145.91248546327887 0.0 0.0
-927.8524322604054 -59.995917799252666 -488.9335779334593 140.2969279153552 0.0 0.0
-924.1740461464431 -74.49394979447533 -494.2917546382608 135.69357336617253 0.0 0.0
-905.2393552453511 -78.86065922717214 -486.8790714365548 133.93443363394994 0.0 0.0
-872.4113890078557 -74.3535260748921 -467.96745424234575 135.0763235510165 0.0 0.0
-830.2063517798058 -64.07762817497044 -441.4443152739737 138.12026748638542 0.0 0.0
-782.5549955606685 -52.414465476669754 -411.41919455609974 141.72809226254205 0.0 0.0
-733.1418661027401 -43.367725327303944 -381.44807639133535 145.00860826485768 0.0 0.0
-682.4505809155684 -39.9571480195342 -351.2736404942133 148.89602677175296 0.0 0.0
-620.4374146279804 -42.36946940869823 -309.95974686644513 152.83192754720258 0.0 0.0
-530.6705520939017 -35.802767971188516 -237.9718241781837 158.9971557013321 0.0 0.0
-410.87940827535704 -12.800969719914796 -148.76076762304746 170.85212301694924 0.0 0.0
-286.7373848586385 11.401837954316328 -84.91085763912746 176.8607031260363 0.0 0.0
-201.60727998444906 20.867427764705596 -54.18621905011178 176.71428225210113 0.0 0.0
-148.38519866213542 15.872806765915497 -39.71869007748577 177.31334628016683 0.0 0.0
-101.13801837930254 -5.141687925653859 -31.861365894266473 176.45081555205098 0.0 0.0
-47.87416228697085 -75.176700316847 -36.91453878912876 147.10820267581863 0.0 0.0
-76.47022037073896 -262.04853012372365 -101.55562514833878 96.83224764474315 0.0 0.0
-62.23969215241996 -185.85329589199117 -74.42789641332332 -83.27974423929942 0.0 0.0
-61.227493066032096 -69.72994560566477 -39.28740775886439 -131.43577972474836 0.0 0.0
-121.36764677280861 -5.025917620229743 -37.90242010954813 -163.85144042068637 0.0 0.0
-185.93565426168686 13.844348998238663 -51.60123461351152 -164.65023871907894 0.0 0.0
-261.5127389850362 18.999681688469906 -72.7637932599145 -160.95077064978864 0.0 0.0
-374.4429604904633 3.7312707953286015 -118.94130158661712 -152.33745786966583 0.0 0.0
-506.3503920403065 -30.411622539811738 -207.01131647370164 -140.23458355858523 0.0 0.0
-618.3368812045436 -51.561871058489395 -303.08842861926667 -134.72388708747815 0.0 0.0
-697.2841789242115 -55.35041451938446 -364.7513285313232 -132.35567056503717 0.0 0.0
-753.457264921148 -58.160833946091984 -400.66197219283 -129.6890944514741 0.0 0.0
-806.5537608875862 -63.29556001200331 -430.9126000101541 -127.93922477732583 0.0 0.0
-858.5584644630133 -74.54463394960298 -462.75323159463784 -125.20545020298658 0.0 0.0
-910.1014744017259 -89.69850661068753 -496.28981987309874 -121.87152666714624 0.0 0.0
-958.2109489312193 -104.77082944548471 -528.069076301932 -118.76696971738245 0.0 0.0
-997.3877989243078 -114.40972962327484 -552.6840029231203 -117.36826379479976 0.0 0.0
-1020.6747520924253 -111.73762802463497 -563.1785548646949 -119.11172619172837 0.0 0.0
-1019.4696153471768 -90.79953899718703 -552.2737774513184 -123.35011727525186 0.0 0.0
-984.9783626064686 -41.769670709971734 -510.7065436927338 -128.16994081817916 0.0 0.0
-896.5523862920717 52.83412228572189 -419.94150767334725 -130.10933183518873 0.0 0.0
-713.6995568591334 227.4202517517906 -242.85097263300645 -127.92074103306375 0.0 0.0
-2885.8589218015713 -2028.5044629835256 -2439.4709118171777 -1.858424525380542e-11 0.0 0.0
-713.6995568588012 227.4202517517275 -242.85097263273138 127.92074103350276 0.0 0.0
-896.552386292414 52.83412228515758 -419.94150767352164 130.1093318357029 0.0 0.0
-984.9783626030813 -41.76967070649384 -510.70654369044195 128.16994081810822 0.0 0.0
-1019.4696153476175 -90.79953899769882 -552.2737774517196 123.35011727523502 0.0 0.0
-1020.6747520925629 -111.7376280249858 -563.178554864835 119.11172619169687 0.0 0.0
-997.3877989242211 -114.40972962342738 -552.6840029229551 117.36826379492778 0.0 0.0
-958.2109489311448 -104.77082944563861 -528.0690763019704 118.76696971751237 0.0 0.0
-910.1014744016886 -89.69850661078766 -496.28981987308924 121.87152666709711 0.0 0.0
-858.5584644623395 -74.54463394920346 -462.75323159419105 125.2054502029751 0.0 0.0
-806.5537608868268 -63.29556001139922 -430.9126000096697 127.93922477719411 0.0 0.0
-753.4572649219377 -58.16083394732223 -400.66197219339114 129.68909445159233 0.0 0.0
-697.284178923416 -55.3504145187949 -364.7513285307471 132.3556705649214 0.0 0.0
-618.3368812042188 -51.56187105851149 -303.08842861890645 134.7238870873993 0.0 0.0
-506.3503920394374 -30.411622539314916 -207.01131647302347 140.23458355854072 0.0 0.0
-374.44296048960877 3.7312707960394222 -118.94130158607997 152.33745786954265 0.0 0.0
-261.5127389848097 18.999681687991178 -72.76379326000004 160.9507706496061 0.0 0.0
-185.9356542613977 13.844348998348039 -51.601234613408316 164.65023871894917 0.0 0.0
-121.36764677274698 -5.02591762016393 -37.9024201095086 163.85144042056052 0.0 0.0
-61.2274930659324 -69.7299456054743 -39.28740775877734 131.4357797246033 0.0 0.0
-62.239692152261725 -185.8532958916662 -74.42789641317839 83.27974423913203 0.0 0.0
-51.62243852705087 -123.96973667215089 -52.67765255976052 -68.8437969934256 0.0 0.0
-71.61072309404047 -60.82194889328204 -39.729801596196744 -113.57649926278883 0.0 0.0
-140.25861447562326 -4.572714411780527 -43.44501240438115 -147.06939502560223 0.0 0.0
-221.81426231727986 11.447141639054209 -62.99098151994733 -148.04057428674176 0.0 0.0
-319.82247725075206 13.161515681071304 -92.97509178920552 -138.40700523980672 0.0 0.0
-453.1489386023032 -9.364335545186542 -157.4902757818582 -123.910208042073 0.0 0.0
-583.6434750643396 -45.30774507098701 -261.82092057117916 -113.77594232136715 0.0 0.0
-685.4258116081968 -61.8989942912649 -352.9663947178325 -111.9686287404336 0.0 0.0
-754.6059746476436 -69.80071713217878 -405.9593931653044 -110.62082707022918 0.0 0.0
-813.940934710886 -74.1018702084887 -440.8758899479732 -110.75986725729533 0.0 0.0
-868.6105836362233 -82.5265195792991 -472.90829570342896 -109.63608990194332 0.0 0.0
-923.6867385705361 -96.66538411047449 -507.5970523700471 -107.39883596651731 0.0 0.0
-978.9306002193284 -115.01819725419594 -544.4981396365375 -104.54241867090929 0.0 0.0
-1032.0842450195746 -134.31018327533693 -580.8273295004296 -101.65581633416957 0.0 0.0
-1078.146691149314 -149.7014308185592 -611.7167636985924 -99.92427785601664 0.0 0.0
-1104.8962846614274 -149.5074939847324 -625.243913950053 -100.82254058815087 0.0 0.0
-1097.934486396157 -119.69369737312616 -607.1063112297977 -104.49564870126163 0.0 0.0
-1043.2318918834235 -49.09422241788886 -544.7803750480559 -108.46002744740075 0.0 0.0
-928.5515309432376 72.38747508789763 -427.2873227778516 -109.81183747205075 0.0 0.0
-739.9162995113774 253.01058074794426 -243.47829678202385 -109.57298811125395 0.0 0.0
-3183.096527901115 -2253.3908933879147 -2704.2372166313667 1.332693955191644e-10 0.0 0.0
-739.9162995107658 253.01058074852733 -243.47829678154386 109.57298811139802 0.0 0.0
-928.5515309448854 72.38747508595725 -427.2873227790368 109.81183747241616 0.0 0.0
-1043.2318918835495 -49.09422241799855 -544.7803750481978 108.46002744747409 0.0 0.0
-1097.9344863967997 -119.69369737391052 -607.1063112303613 104.49564870122367 0.0 0.0
-1104.8962846603974 -149.50749398372915 -625.2439139493982 100.82254058797315 0.0 0.0
-1078.1466911488046 -149.70143081823647 -611.7167636982006 99.9242778560465 0.0 0.0
-1032.0842450206085 -134.31018327653612 -580.8273295010176 101.65581633413862 0.0 0.0
-978.9306002191134 -115.01819725428449 -544.4981396364836 104.54241867096205 0.0 0.0
-923.686738570062 -96.66538411017801 -507.59705236974787 107.39883596650503 0.0 0.0
-868.6105836362988 -82.52651957967082 -472.90829570348245 109.63608990195657 0.0 0.0
-813.9409347111625 -74.1018702091203 -440.8758899482129 110.75986725730925 0.0 0.0
-754.6059746474407 -69.8007171323341 -405.95939316512363 110.62082707030243 0.0 0.0
-685.4258116078832 -61.89899429138032 -352.9663947175361 111.96862874045831 0.0 0.0
-583.6434750637234 -45.30774507074327 -261.82092057059094 113.77594232130558 0.0 0.0
-453.1489386015452 -9.364335544660221 -157.49027578132618 123.91020804196584 0.0 0.0
-319.822477250768 13.161515680214011 -92.97509178944615 138.40700523962738 0.0 0.0
-221.81426231680518 11.447141639778987 -62.99098151959261 148.0405742866007 0.0 0.0
-140.25861447563605 -4.572714411778362 -43.44501240438287 147.06939502545342 0.0 0.0
-71.6107230941721 -60.82194889347898 -39.72980159629532 113.57649926277834 0.0 0.0
-51.622438527028834 -123.96973667194742 -52.67765255969288 68.84379699338206 0.0 0.0
-44.48144444487363 -75.98512337872309 -36.13997034707901 -54.07101433139095 0.0 0.0
-79.636027842944 -49.82871714779104 -38.8394234972205 -93.66678708906126 0.0 0.0
-157.97870304736435 -3.605055154495903 -48.475634959031595 -126.15542423910429 0.0 0.0
-256.3744213238379 7.589900042293138 -74.52458939750649 -126.4961404510333 0.0 0.0
-379.9279776223476 5.428296147538515 -115.21943367805125 -112.83950487837134 0.0 0.0
-518.5784384969013 -26.539026382629128 -199.32408156215735 -93.72876687553303 0.0 0.0
-645.3671549939561 -55.26747313593926 -308.9687606288229 -89.79109940778461 0.0 0.0
-734.1774960813977 -72.55877969829785 -390.8391925051244 -89.07932625607268 0.0 0.0
-805.1030982804217 -81.84901092162889 -439.7100166985734 -90.00890888286511 0.0 0.0
-865.7792771708321 -90.16003437875256 -475.8867938041081 -90.87144911199299 0.0 0.0
-923.7443727436994 -101.9677023874426 -510.9944972601972 -90.2697361184217 0.0 0.0
-981.913670178239 -118.85393913686946 -548.5667932357296 -88.57513955257707 0.0 0.0
-1040.2509297496915 -139.73393936567098 -588.2405297416217 -86.34996465280318 0.0 0.0
-1097.1011623714971 -162.88920247991382 -628.2960652017522 -83.8938488457841 0.0 0.0
-1148.4888596488863 -182.52853164153586 -663.9195527622222 -81.83164213001795 0.0 0.0
-1180.47024653893 -185.84724657628013 -681.8200565722832 -81.52487390451653 0.0 0.0
-1169.3945228443026 -150.92216660938655 -659.1744175911037 -83.88374002666768 0.0 0.0
-1095.6443005471085 -59.783667104980935 -577.0877505466524 -87.55676781089271 0.0 0.0
-956.6155266410333 86.71712815684577 -434.7082553917302 -90.57912231803802 0.0 0.0
-756.8094301278031 277.91877989583463 -239.55280547241358 -94.23086019604173 0.0 0.0
-3438.227577711372 -2455.1030532956 -2935.3519695554432 1.9347012880643888e-10 0.0 0.0
-756.8094301287185 277.9187798949296 -239.5528054730018 94.23086019607052 0.0 0.0
-956.615526641322 86.71712815641932 -434.70825539201473 90.5791223180845 0.0 0.0
-1095.6443005480387 -59.78366710608742 -577.0877505472666 87.55676781119307 0.0 0.0
-1169.3945228437294 -150.92216660895912 -659.1744175907797 83.88374002676152 0.0 0.0
-1180.4702465391522 -185.84724657660087 -681.8200565723088 81.52487390448303 0.0 0.0
-1148.4888596486667 -182.52853164150574 -663.9195527620185 81.83164213003083 0.0 0.0
-1097.1011623715358 -162.88920248014227 -628.2960652016941 83.89384884578266 0.0 0.0
-1040.2509297490678 -139.73393936530334 -588.2405297412658 86.34996465289474 0.0 0.0
-981.9136701788749 -118.85393913778773 -548.5667932361654 88.57513955267534 0.0 0.0
-923.7443727431967 -101.96770238719317 -510.9944972598992 90.26973611840982 0.0 0.0
-865.7792771709085 -90.16003437912873 -475.88679380418336 90.8714491119405 0.0 0.0
-805.1030982808966 -81.84901092243508 -439.71001669887005 90.00890888293551 0.0 0.0
-734.1774960805542 -72.55877969784788 -390.83919250453914 89.07932625615442 0.0 0.0
-645.3671549933921 -55.267473135742684 -308.96876062824265 89.79109940765585 0.0 0.0
-518.5784384961385 -26.539026382272702 -199.3240815616117 93.7287668755918 0.0 0.0
-379.92797762219203 5.428296146900002 -115.2194336781463 112.83950487834275 0.0 0.0
-256.37442132330466 7.58990004309641 -74.52458939711673 126.49614045075333 0.0 0.0
-157.97870304730077 -3.6050551545314233 -48.475634959023125 126.15542423895481 0.0 0.0
-79.63602784292026 -49.82871714778286 -38.83942349721094 93.6667870889884 0.0 0.0
-44.48144444503003 -75.98512337875036 -36.1399703471341 54.071014331506035 0.0 0.0
-40.16858460188477 -41.61894581868854 -24.536259126171984 -39.391122820394415 0.0 0.0
-85.28095029341362 -37.99212675690236 -36.98192311509478 -71.9426506129345 0.0 0.0
-174.43283509326417 -2.2549271907484854 -53.00654916290806 -100.94536248719234 0.0 0.0
-291.41010782536614 2.490633072687377 -86.51879088198321 -100.33446179775278 0.0 0.0
-437.1239715029672 -6.42560728451245 -140.81750589177773 -82.77428186277011 0.0 0.0
-578.5054814676466 -39.345709894915345 -240.52718853121618 -68.27839062566417 0.0 0.0
-690.4132030819396 -64.129291052253 -347.68647045759013 -67.10559158298976 0.0 0.0
-775.4427167919978 -80.94857689857365 -420.3415544004883 -67.21482869802216 0.0 0.0
-848.014473219949 -94.24494554058708 -468.752733366066 -68.91848416784433 0.0 0.0
-912.1464658558889 -106.40813181059201 -507.8209106879473 -70.14391862153497 0.0 0.0
-973.3734714665648 -121.56120047971407 -546.1461641806037 -69.96338119277726 0.0 0.0
-1034.874060732878 -141.3336908069816 -586.8090443498643 -68.80536229302669 0.0 0.0
-1095.9324211192632 -164.9955377655375 -629.2194594627841 -67.2019007712828 0.0 0.0
-1154.7577777320514 -188.8156382031853 -670.5693720564743 -65.43541027639914 0.0 0.0
-1208.2027829174042 -210.4503437573261 -708.1641960175124 -63.36606536561647 0.0 0.0
-1246.1240626664785 -219.28074660286268 -731.7410451542441 -61.64381301246649 0.0 0.0
-1240.724240574591 -188.39201793660692 -713.97845089889 -62.116322587748066 0.0 0.0
-1154.9528004060423 -83.95356557421502 -619.2748318933822 -65.84290385521732 0.0 0.0
-986.9154826324775 92.20231399286801 -447.45523186326216 -71.79432077966685 0.0 0.0
-760.0264057096763 310.81010238960846 -224.77165283174045 -80.40896104281262 0.0 0.0
-3651.421275418014 -2624.23519336258 -3128.6065705162514 1.2231637924742245e-10 0.0 0.0
-760.0264057103531 310.8101023888555 -224.7716528322187 80.40896104284836 0.0 0.0
-986.9154826315512 92.20231399377543 -447.4552318627809 71.7943207796688 0.0 0.0
-1154.9528004061094 -83.95356557446496 -619.274831893482 65.84290385548607 0.0 0.0
-1240.724240574152 -188.3920179361777 -713.9784508985914 62.116322587668364 0.0 0.0
-1246.1240626664655 -219.2807466030112 -731.7410451541765 61.64381301231964 0.0 0.0
-1208.2027829174635 -210.4503437575674 -708.1641960174984 63.366065365665754 0.0 0.0
-1154.7577777320494 -188.81563820339284 -670.5693720564236 65.43541027638109 0.0 0.0
-1095.932421118754 -164.995537765219 -629.2194594625656 67.20190077121622 0.0 0.0
-1034.8740607330947 -141.33369080749557 -586.8090443500132 68.80536229316351 0.0 0.0
-973.373471465508 -121.56120047879529 -546.146164179929 69.96338119252123 0.0 0.0
-912.1464658559936 -106.40813181102985 -507.82091068801805 70.14391862149579 0.0 0.0
-848.014473221177 -94.24494554220365 -468.75273336683875 68.91848416797018 0.0 0.0
-775.4427167910889 -80.94857689799244 -420.34155439984266 67.21482869801778 0.0 0.0
-690.4132030809795 -64.12929105158409 -347.6864704568084 67.10559158293952 0.0 0.0
-578.5054814668486 -39.34570989444172 -240.52718853055526 68.27839062561047 0.0 0.0
-437.123971502407 -6.425607284304187 -140.8175058914747 82.77428186269918 0.0 0.0
-291.4101078249311 2.4906330729007866 -86.51879088181366 100.33446179755643 0.0 0.0
-174.4328350930984 -2.254927190697893 -53.00654916284286 100.94536248710132 0.0 0.0
-85.28095029325297 -37.99212675675061 -36.98192311500109 71.94265061283383 0.0 0.0
-40.168584601772196 -41.618945818694094 -24.53625912613989 39.39112282050848 0.0 0.0
-37.44083193180796 -20.47653670991201 -17.37521059251599 -25.59843885996722 0.0 0.0
-87.84991735542384 -26.571963156360773 -34.32656415353538 -48.71381069427544 0.0 0.0
-189.3061405905259 -1.0664002058721906 -57.11176223891941 -70.86144971889445 0.0 0.0
-328.520700498478 -3.4361598880778113 -99.37130842104357 -68.98604644495855 0.0 0.0
-489.8187200597541 -21.300576152218802 -170.1129161870673 -51.875711496970375 0.0 0.0
-626.0970724757611 -48.98730508327898 -278.81073231196564 -45.105517481837296 0.0 0.0
-724.0189041700288 -71.03134997633322 -377.3360992192771 -44.94036798001554 0.0 0.0
-810.9165674772563 -89.98607790107404 -445.4841424136756 -45.797559096819235 0.0 0.0
-886.1843513513497 -107.27379248559177 -495.10375446861667 -47.35712640555022 0.0 0.0
-953.84328310961 -123.02103805465202 -537.3836908886277 -48.58635884423674 0.0 0.0
-1018.7410551621094 -141.36134459462656 -579.1135894189681 -48.76720802383641 0.0 0.0
-1083.2229591793623 -163.9704306145722 -622.6852878087757 -48.13460275207335 0.0 0.0
-1147.0977076376744 -189.19185856068523 -667.2674777142098 -47.22200070437801 0.0 0.0
-1206.956501199511 -214.38984902078485 -709.8329921158172 -46.06894442064005 0.0 0.0
-1259.1981261853236 -234.27917089903224 -745.9475476450291 -44.41713186881663 0.0 0.0
-1297.0242085181635 -242.5458660400776 -769.091279078692 -42.099136030890506 0.0 0.0
-1306.038293939489 -225.55994023704932 -765.3405074115235 -40.4304303004553 0.0 0.0
-1243.4086390079217 -142.88253910397873 -693.1395078212315 -42.87587746509531 0.0 0.0
-1037.515247364599 72.80713019121168 -482.7356070408217 -52.006689189646195 0.0 0.0
-734.9886597813863 368.4004902693115 -183.58844575359285 -66.93666422194507 0.0 0.0
-3809.0381670917504 -2743.2802765207844 -3268.6605628382094 -4.155076283041126e-11 0.0 0.0
-734.9886597810839 368.40049026952624 -183.5884457532821 66.93666422203107 0.0 0.0
-1037.5152473647122 72.80713019107819 -482.73560704114686 52.0066891896587 0.0 0.0
-1243.4086390072223 -142.88253910336294 -693.1395078207513 42.875877465068115 0.0 0.0
-1306.0382939410172 -225.5599402387062 -765.3405074126313 40.430430300462156 0.0 0.0
-1297.024208516563 -242.54586603863012 -769.0912790776647 42.09913603088663 0.0 0.0
-1259.1981261862288 -234.27917090010388 -745.9475476456354 44.41713186889298 0.0 0.0
-1206.9565011990294 -214.38984902054864 -709.8329921153849 46.0689444207452 0.0 0.0
-1147.0977076376803 -189.19185856088419 -667.2674777143319 47.22200070438682 0.0 0.0
-1083.2229591791734 -163.9704306146454 -622.685287808667 48.13460275209822 0.0 0.0
-1018.7410551610199 -141.36134459373184 -579.1135894182679 48.76720802361187 0.0 0.0
-953.8432831091694 -123.02103805449568 -537.3836908883691 48.58635884416058 0.0 0.0
-886.1843513520253 -107.27379248666817 -495.10375446900747 47.357126405812245 0.0 0.0
-810.9165674764404 -89.98607790052469 -445.48414241308643 45.79755909663688 0.0 0.0
-724.0189041691347 -71.03134997577449 -377.33609921855316 44.94036798012179 0.0 0.0
-626.0970724751905 -48.98730508302963 -278.81073231139453 45.105517481672315 0.0 0.0
-489.81872005878245 -21.300576151479508 -170.1129161864602 51.875711496860944 0.0 0.0
-328.5207004981304 -3.4361598880220505 -99.37130842093846 68.98604644500853 0.0 0.0
-189.30614059042506 -1.0664002060021693 -57.111762238928165 70.86144971881585 0.0 0.0
-87.84991735532962 -26.571963156341887 -34.32656415350145 48.71381069427465 0.0 0.0
-37.440831931879195 -20.4765367099778 -17.3752105925571 25.598438860022117 0.0 0.0
-33.92639042131805 -11.492604877066377 -13.625698589515327 -14.381215591865434 0.0 0.0
-85.83888766286988 -17.312615741013282 -30.945451021164942 -24.4131504931974 0.0 0.0
-202.2079650970056 -1.1335748114376458 -61.00246197253295 -34.44241368185552 0.0 0.0
-367.3086246287238 -9.339789184197347 -113.53492285277315 -32.15233715728578 0.0 0.0
-540.1158738973099 -33.8011940895856 -201.16227783418495 -23.566543781616133 0.0 0.0
-660.8949403132353 -55.976834658043316 -311.66247881168226 -23.60470858493511 0.0 0.0
-753.7881504064062 -75.96490331230046 -400.81848480719583 -24.250341617005958 0.0 0.0
-841.6157241619726 -99.50162827651765 -467.2819294863454 -24.62467603105152 0.0 0.0
-920.2348926302618 -120.53533477927112 -519.1793074512935 -25.386697313798713 0.0 0.0
-991.7926012458499 -140.26558894425352 -565.2752566465883 -26.242665308992827 0.0 0.0
-1060.0580177456884 -161.5058528810493 -610.1373956386103 -26.660895127691045 0.0 0.0
-1127.6108928708736 -186.0364659059114 -656.2047502323228 -26.637311228214532 0.0 0.0
-1193.751287609682 -213.67705158989793 -703.1242278312793 -26.299223071080352 0.0 0.0
-1254.9861349125179 -239.11584985153115 -746.5006871469618 -25.755636375546207 0.0 0.0
-1304.4281467191959 -255.86837707224146 -779.6609432846078 -24.789291256278656 0.0 0.0
-1336.0405170286895 -257.97386183538646 -796.5935306240872 -22.962925793852428 0.0 0.0
-1347.8314858499127 -243.95607189658494 -795.5103982495887 -20.455816482725034 0.0 0.0
-1335.4303405009025 -210.7210957567581 -772.8282606263601 -20.0098392864333 0.0 0.0
-1208.093022405382 -70.72716265789111 -639.7872592118204 -28.375890223387298 0.0 0.0
-706.7717896580615 427.41950404946465 -140.34379959565686 -50.77869412586534 0.0 0.0
-3748.888317153263 -2646.757682414417 -3192.0791071987337 -8.08544342589812e-11 0.0 0.0
-706.7717896556242 427.4195040518241 -140.34379959362133 50.7786941258768 0.0 0.0
-1208.0930224041565 -70.72716265672102 -639.7872592111195 28.375890223398986 0.0 0.0
-1335.430340500563 -210.72109575648273 -772.8282606261462 20.009839286388573 0.0 0.0
-1347.83148585142 -243.9560718982604 -795.5103982507496 20.45581648268466 0.0 0.0
-1336.0405170268941 -257.97386183370895 -796.5935306229385 22.962925793919332 0.0 0.0
-1304.4281467199187 -255.86837707315468 -779.6609432850428 24.78929125617005 0.0 0.0
-1254.9861349115608 -239.1158498507824 -746.5006871463765 25.755636375771893 0.0 0.0
-1193.7512876095268 -213.67705158998677 -703.1242278311919 26.299223071128917 0.0 0.0
-1127.610892871452 -186.03646590675515 -656.2047502327473 26.63731122828923 0.0 0.0
-1060.058017745032 -161.50585288061933 -610.1373956381731 26.660895127560714 0.0 0.0
-991.7926012458701 -140.26558894456718 -565.2752566466022 26.242665308882113 0.0 0.0
-920.2348926301457 -120.53533477949878 -519.1793074512088 25.38669731396528 0.0 0.0
-841.6157241611545 -99.50162827597563 -467.2819294858013 24.624676030980314 0.0 0.0
-753.7881504058516 -75.9649033120605 -400.8184848067163 24.25034161709665 0.0 0.0
-660.894940312725 -55.97683465787725 -311.6624788111752 23.604708584871062 0.0 0.0
-540.1158738967035 -33.80119408936277 -201.16227783374728 23.566543781504198 0.0 0.0
-367.30862462832374 -9.33978918430474 -113.53492285268523 32.15233715719594 0.0 0.0
-202.2079650968917 -1.133574811576299 -61.00246197254036 34.44241368184896 0.0 0.0
-85.83888766267302 -17.31261574086613 -30.945451021061732 24.4131504932451 0.0 0.0
-33.926390421200246 -11.492604877056262 -13.625698589476954 14.38121559208042 0.0 0.0
-22.47242039973603 -5.937214500349259 -8.522890470025583 -8.746851003354564 0.0 0.0
-75.12219945596574 -9.927022515246707 -25.514766591363728 -10.149493888484868 0.0 0.0
-212.64336279561633 -3.591775296093271 -64.87054142751289 -11.279098781018742 0.0 0.0
-414.1985998101449 -29.280674435162343 -136.20836799993046 -7.106750917850597 0.0 0.0
-614.1156569879988 -84.33717877016139 -254.7121834414758 0.7437391172625283 0.0 0.0
-762.0278498710489 -139.16324063614468 -397.7246903298033 1.4485772606735239 0.0 0.0
-895.4452144850644 -202.45690898292366 -525.6318694441766 0.40304644455987315 0.0 0.0
-1036.9481761956613 -281.1486427865683 -645.4134408031837 -1.1652849624407615 0.0 0.0
-1187.167010208487 -374.5141582482657 -769.3382389016012 -2.9524730801475414 0.0 0.0
-1355.0578929042013 -490.2629850234423 -911.4181560853987 -4.866929618572382 0.0 0.0
-1546.7929409842754 -634.2974410960637 -1079.0099609329939 -6.63302918910013 0.0 0.0
-1762.4496544613814 -806.9807150640241 -1272.754827070173 -7.990125240805444 0.0 0.0
-1995.201200012261 -1000.202218550477 -1485.3294360094137 -8.88942988983159 0.0 0.0
-2233.560323119412 -1202.31029388356 -1705.2493169085292 -9.577904343117924 0.0 0.0
-2459.9089774025983 -1395.618059162798 -1914.8780041036657 -9.841359199835132 0.0 0.0
-2650.4376961033104 -1556.560272836004 -2090.546231858031 -9.376432268544075 0.0 0.0
-2778.477329766359 -1659.118434054836 -2205.8260711735124 -7.873135984955443 0.0 0.0
-2836.603839702503 -1696.6298115177265 -2253.208086822696 -6.698764740101598 0.0 0.0
-2911.467447785568 -1757.1522526999358 -2319.4474157511822 -14.054175181046018 0.0 0.0
-3019.143550386857 -1863.4935002991385 -2424.1836178722833 -40.758217244168335 0.0 0.0
-6594.534038193219 -5464.443676345177 -6005.838746001958 4.3584691411524545e-11 0.0 0.0
-3019.1435503821585 -1863.493500294467 -2424.1836178685135 40.758217244172286 0.0 0.0
-2911.467447781766 -1757.1522526961235 -2319.4474157484447 14.05417518100315 0.0 0.0
-2836.6038397022094 -1696.6298115175837 -2253.208086822314 6.698764740186405 0.0 0.0
-2778.4773297659444 -1659.118434054553 -2205.826071173042 7.873135985036253 0.0 0.0
-2650.437696100612 -1556.5602728334352 -2090.5462318558925 9.37643226871937 0.0 0.0
-2459.908977401587 -1395.6180591619518 -1914.8780041026262 9.841359199645943 0.0 0.0
-2233.5603231178475 -1202.3102938821849 -1705.2493169073266 9.577904343228575 0.0 0.0
-1995.201200010451 -1000.2022185488811 -1485.3294360078935 8.889429889685111 0.0 0.0
-1762.4496544614817 -806.9807150644117 -1272.754827070007 7.990125240818731 0.0 0.0
-1546.7929409833187 -634.2974410953473 -1079.0099609320807 6.633029189006567 0.0 0.0
-1355.0578929040003 -490.26298502356457 -911.4181560850326 4.866929618489198 0.0 0.0
-1187.1670102075461 -374.5141582476527 -769.3382389008111 2.9524730801876267 0.0 0.0
-1036.948176194563 -281.1486427857467 -645.4134408023568 1.1652849625070942 0.0 0.0
-895.4452144844659 -202.45690898268225 -525.6318694435683 -0.403046444627126 0.0 0.0
-762.0278498701815 -139.16324063559455 -397.7246903290154 -1.448577260613817 0.0 0.0
-614.1156569878592 -84.33717877049462 -254.71218344123184 -0.7437391172847327 0.0 0.0
-414.1985998097655 -29.280674435352978 -136.20836799983903 7.106750917677417 0.0 0.0
-212.64336279523002 -3.5917752959139655 -64.87054142734318 11.279098780957822 0.0 0.0
-75.12219945577169 -9.927022515097313 -25.514766591260702 10.149493888596732 0.0 0.0
-22.472420399667627 -5.9372145003869266 -8.522890470016366 8.74685100370287 0.0 0.0
SCALARS Strain float 6
LOOKUP_TABLE default
0.015424682351017566 -0.02543621765171153 0.0 -0.001647350066890812 0.0 0.0
0.009490689511203873 -0.003009246167182237 0.0 -0.0076682193527595425 0.0 0.0
0.002785053426134183 -0.0006360032042610937 0.0 -0.0009618263126940259 0.0 0.0
0.0023423801901459097 -0.0009291664636880237 0.0 2.6942378890101077e-05 0.0 0.0
0.0035880352581007073 -0.0016150032145525214 0.0 0.00023619031266588385 0.0 0.0
0.006322858328326686 -0.003714647421887796 0.0 0.00041776228398076123 0.0 0.0
0.011077692072402896 -0.00782573367664427 0.0 0.0005486544940822128 0.0 0.0
0.018272136797752747 -0.014347074390052228 0.0 0.0005897860236182041 0.0 0.0
0.02822604449511719 -0.023563744867898598 0.0 0.0005349465794516892 0.0 0.0
0.04104427085489046 -0.03552431578803991 0.0 0.0003476376571077948 0.0 0.0
0.05661146807994173 -0.050077884562615235 0.0 5.960805744522756e-05 0.0 0.0
0.07468047702899712 -0.06697672648486519 0.0 -0.0003124732240670572 0.0 0.0
0.09494973463921905 -0.0859577374663893 0.0 -0.0007775267091418487 0.0 0.0
0.11709474268585707 -0.10674354586790341 0.0 -0.0012906236324100834 0.0 0.0
0.1406927695733607 -0.1289712460662335 0.0 -0.0018709421559012377 0.0 0.0
0.16508040060365697 -0.15204647544655936 0.0 -0.0024836937196300473 0.0 0.0
0.18926536782801534 -0.1750485846253124 0.0 -0.0030008104572362684 0.0 0.0
0.21193502191332453 -0.1967346722154022 0.0 -0.0032295576044107746 0.0 0.0
0.23158223208181822 -0.21560211110384236 0.0 -0.003035752160365583 0.0 0.0
0.24632625533742636 -0.22985831009448293 0.0 -0.0036950306670987037 0.0 0.0
0.25219698924391915 -0.2357822590727392 0.0 3.2317898357447916e-15 0.0 0.0
0.24632625533739394 -0.22985831009445512 0.0 0.0036950306671071718 0.0 0.0
0.23158223208174722 -0.21560211110377947 0.0 0.003035752160372258 0.0 0.0
0.21193502191322366 -0.1967346722153176 0.0 0.0032295576044170226 0.0 0.0
0.18926536782789824 -0.17504858462519787 0.0 0.0030008104572367047 0.0 0.0
0.16508040060353313 -0.15204647544644925 0.0 0.002483693719620716 0.0 0.0
0.14069276957323645 -0.12897124606611457 0.0 0.001870942155902145 0.0 0.0
0.11709474268573414 -0.1067435458677933 0.0 0.0012906236324099901 0.0 0.0
0.0949497346390997 -0.08595773746628053 0.0 0.0007775267091397258 0.0 0.0
0.07468047702888697 -0.06697672648475489 0.0 0.0003124732240626831 0.0 0.0
0.056611468079847044 -0.05007788456252857 0.0 -5.960805745204361e-05 0.0 0.0
0.041044270854814206 -0.035524315787971286 0.0 -0.0003476376571128091 0.0 0.0
0.02822604449505947 -0.02356374486784542 0.0 -0.0005349465794498691 0.0 0.0
0.018272136797710847 -0.01434707439001312 0.0 -0.0005897860236231893 0.0 0.0
0.011077692072375349 -0.007825733676619909 0.0 -0.0005486544940838042 0.0 0.0
0.006322858328312099 -0.0037146474218743555 0.0 -0.00041776228398311113 0.0 0.0
0.003588035258094581 -0.0016150032145462925 0.0 -0.00023619031266313207 0.0 0.0
0.0023423801901442404 -0.0009291664636893017 0.0 -2.6942378885633988e-05 0.0 0.0
0.002785053426132196 -0.0006360032042605954 0.0 0.0009618263126934051 0.0 0.0
0.009490689511198271 -0.0030092461671792983 0.0 0.007668219352749282 0.0 0.0
0.015424682351009838 -0.02543621765168643 0.0 0.0016473500668385253 0.0 0.0
0.01088097310887764 -0.022864512273306443 0.0 -0.0011818358992303228 0.0 0.0
0.0063582076824973376 -0.0022592060868468844 0.0 -0.006331283185660569 0.0 0.0
0.0018060582182375892 -0.0004747510002147174 0.0 -0.0006036550698582004 0.0 0.0
0.0020521832636478292 -0.0008716916879387437 0.0 -0.0001848341208389363 0.0 0.0
0.003068853351523013 -0.0014437912248713091 0.0 -0.00014593791159968025 0.0 0.0
0.005398588868249732 -0.0033269895645035297 0.0 -0.0002523645590821752 0.0 0.0
0.009631500444989085 -0.007160871671766813 0.0 -0.0006128702767414267 0.0 0.0
0.0161593670925752 -0.01334130364184364 0.0 -0.0011948155571342711 0.0 0.0
0.025238296553307806 -0.022117889790726385 0.0 -0.0020197444484347307 0.0 0.0
0.03690096111534327 -0.03350231419733218 0.0 -0.003054428862200661 0.0 0.0
0.050997586573958024 -0.047325930548076385 0.0 -0.004199328240513859 0.0 0.0
0.06729896730127323 -0.0633471150944926 0.0 -0.005371717237777421 0.0 0.0
0.08557039533386834 -0.08133191725581425 0.0 -0.006567678048275126 0.0 0.0
0.10554800333318318 -0.10103751086981527 0.0 -0.00778606490127417 0.0 0.0
0.12686306887813364 -0.12212591649954957 0.0 -0.008983525480467061 0.0 0.0
0.1489413573996979 -0.14404883676149705 0.0 -0.010040549961706823 0.0 0.0
0.17091797840015827 -0.1659562917779824 0.0 -0.010687219752884359 0.0 0.0
0.19162570358304273 -0.1866770724863763 0.0 -0.010579867209030617 0.0 0.0
0.20954404528288376 -0.20472678552625134 0.0 -0.009601351379028176 0.0 0.0
0.22240044001658646 -0.2181058520140479 0.0 -0.008734077939641701 0.0 0.0
0.22721102012919003 -0.22371525936940517 0.0 8.636320825150534e-15 0.0 0.0
0.22240044001655557 -0.21810585201401222 0.0 0.00873407793966536 0.0 0.0
0.20954404528282025 -0.20472678552618354 0.0 0.009601351379055163 0.0 0.0
0.19162570358295453 -0.18667707248629273 0.0 0.010579867209046967 0.0 0.0
0.1709179784000551 -0.165956291777874 0.0 0.010687219752884936 0.0 0.0
0.148941357399587 -0.14404883676139 0.0 0.01004054996169755 0.0 0.0
0.12686306887802118 -0.1221259164994378 0.0 0.008983525480467151 0.0 0.0
0.10554800333307245 -0.10103751086970418 0.0 0.007786064901269779 0.0 0.0
0.08557039533376132 -0.08133191725570961 0.0 0.006567678048269524 0.0 0.0
0.06729896730117368 -0.06334711509439081 0.0 0.005371717237769212 0.0 0.0
0.050997586573871885 -0.04732593054799916 0.0 0.004199328240501385 0.0 0.0
0.03690096111527413 -0.033502314197262524 0.0 0.0030544288621925575 0.0 0.0
0.02523829655325502 -0.022117889790674635 0.0 0.0020197444484300947 0.0 0.0
0.016159367092536858 -0.01334130364180864 0.0 0.0011948155571285279 0.0 0.0
0.009631500444964795 -0.007160871671746609 0.0 0.0006128702767391277 0.0 0.0
0.005398588868237108 -0.003326989564490407 0.0 0.0002523645590783957 0.0 0.0
0.0030688533515180823 -0.0014437912248678462 0.0 0.00014593791160104626 0.0 0.0
0.002052183263646772 -0.000871691687939307 0.0 0.00018483412084072386 0.0 0.0
0.0018060582182371668 -0.0004747510002151117 0.0 0.0006036550698573813 0.0 0.0
0.00635820768248998 -0.002259206086843498 0.0 0.006331283185647647 0.0 0.0
0.010880973108863486 -0.022864512273279926 0.0 0.0011818358991922341 0.0 0.0
0.008026332899057492 -0.018323630157837806 0.0 -0.004352273995670621 0.0 0.0
0.004535573349633547 -0.0012695047778884482 0.0 -0.0064708638585612875 0.0 0.0
0.0012454852954383367 -0.00024166267667285178 0.0 -0.0005313956910562028 0.0 0.0
0.0017289602410523002 -0.0007322147936192734 0.0 -0.00047865368411455244 0.0 0.0
0.002598575435730688 -0.0011458111419806061 0.0 -0.0005028337851867715 0.0 0.0
0.004524687334344752 -0.0025959484202369033 0.0 -0.0007083380699229865 0.0 0.0
0.008204417655939423 -0.005853835206891385 0.0 -0.0013986848756490638 0.0 0.0
0.014027831274063988 -0.011334018461698068 0.0 -0.0025191039537057086 0.0 0.0
0.022182936392592424 -0.01920548789330689 0.0 -0.004086422018853831 0.0 0.0
0.032652689098866705 -0.02942086527033637 0.0 -0.005999790302348528 0.0 0.0
0.04526208923215711 -0.04177577834061609 0.0 -0.008076866131974825 0.0 0.0
0.059794479084699925 -0.056041996048771345 0.0 -0.010158554346020511 0.0 0.0
0.07605493345523132 -0.07203176732895473 0.0 -0.012214354648894988 0.0 0.0
0.09384365942776411 -0.08956436119679675 0.0 -0.01429086590684832 0.0 0.0
0.11286375912582967 -0.10836574829395951 0.0 -0.016334446115714055 0.0 0.0
0.13263964730266198 -0.12798388471765398 0.0 -0.01811658334887366 0.0 0.0
0.15244960650414854 -0.147712373535352 0.0 -0.019210865715779443 0.0 0.0
0.1712351953067017 -0.16651736220048619 0.0 -0.019121345431374198 0.0 0.0
0.18744700598854197 -0.18293037479318805 0.0 -0.017625953211086905 0.0 0.0
0.19908091081669185 -0.19487286133880471 0.0 -0.014858908797219047 0.0 0.0
0.20348331540267878 -0.2001934513898276 0.0 1.9448852250913973e-14 0.0 0.0
0.19908091081666401 -0.19487286133877832 0.0 0.014858908797262224 0.0 0.0
0.18744700598848588 -0.18293037479313176 0.0 0.017625953211131258 0.0 0.0
0.17123519530662418 -0.1665173622004127 0.0 0.01912134543140171 0.0 0.0
0.15244960650405767 -0.14771237353525282 0.0 0.019210865715780488 0.0 0.0
0.13263964730256428 -0.12798388471756064 0.0 0.018116583348865296 0.0 0.0
0.11286375912572905 -0.10836574829386214 0.0 0.01633444611571047 0.0 0.0
0.09384365942766504 -0.08956436119669041 0.0 0.014290865906842056 0.0 0.0
0.0760549334551373 -0.07203176732886563 0.0 0.012214354648884897 0.0 0.0
0.059794479084611996 -0.056041996048683984 0.0 0.01015855434600503 0.0 0.0
0.04526208923208061 -0.04177577834054845 0.0 0.00807686613195846 0.0 0.0
0.03265268909880447 -0.029420865270269193 0.0 0.005999790302339207 0.0 0.0
0.022182936392544535 -0.019205487893260754 0.0 0.004086422018846146 0.0 0.0
0.014027831274030523 -0.011334018461666984 0.0 0.0025191039536994106 0.0 0.0
0.008204417655918358 -0.005853835206876243 0.0 0.0013986848756461353 0.0 0.0
0.004524687334334301 -0.002595948420225099 0.0 0.0007083380699196033 0.0 0.0
0.002598575435727444 -0.0011458111419783105 0.0 0.0005028337851868452 0.0 0.0
0.001728960241052042 -0.0007322147936193156 0.0 0.00047865368411354186 0.0 0.0
0.001245485295438706 -0.00024166267667394872 0.0 0.0005313956910534488 0.0 0.0
0.004535573349626393 -0.0012695047778848259 0.0 0.006470863858545937 0.0 0.0
0.008026332899042928 -0.018323630157810848 0.0 0.0043522739956438 0.0 0.0
0.006097300723565122 -0.014801725937015502 0.0 -0.0047955166825738105 0.0 0.0
0.003366026286064357 -0.0009126369186161247 0.0 -0.005912048373927724 0.0 0.0
0.0008822550067528927 -0.00013338418735350503 0.0 -0.0008102315471061093 0.0 0.0
0.0014196014979961046 -0.0005759672462241362 0.0 -0.0007799905701374702 0.0 0.0
0.002172115979532882 -0.000917446100851876 0.0 -0.0008376159946115358 0.0 0.0
0.0037204096426747928 -0.0019726952245646195 0.0 -0.0010883948333175937 0.0 0.0
0.006820915888810653 -0.004613103099664163 0.0 -0.0019290246192120255 0.0 0.0
0.01189948890496078 -0.009346444238832848 0.0 -0.0034782936441581673 0.0 0.0
0.019093855089055083 -0.016271571168609562 0.0 -0.005604282025906373 0.0 0.0
0.028340802134824733 -0.025285363316211448 0.0 -0.008177042667388026 0.0 0.0
0.03944503189326576 -0.03615573465787112 0.0 -0.010945947312333839 0.0 0.0
0.05220120908812756 -0.048662436370933204 0.0 -0.01371441955759797 0.0 0.0
0.06644742721854559 -0.06265259707999905 0.0 -0.016442053468739552 0.0 0.0
0.08203041375509298 -0.07799662014911761 0.0 -0.01916331478671555 0.0 0.0
0.0987352791511469 -0.09449240658118198 0.0 -0.021823267101019787 0.0 0.0
0.11620269003167258 -0.11179563372989004 0.0 -0.024173175617177876 0.0 0.0
0.13384223239937992 -0.1293446798163629 0.0 -0.025721010603260402 0.0 0.0
0.15071206446210858 -0.1462396423828887 0.0 -0.025863597941637565 0.0 0.0
0.16541327286515517 -0.16109929182812208 0.0 -0.023989191294065865 0.0 0.0
0.17623206091710952 -0.17211757474029252 0.0 -0.019156756402731834 0.0 0.0
0.18044746173440265 -0.177614416816675 0.0 2.434077245316857e-14 0.0 0.0
0.1762320609170838 -0.17211757474026185 0.0 0.01915675640279086 0.0 0.0
0.1654132728651054 -0.16109929182808488 0.0 0.023989191294124003 0.0 0.0
0.15071206446204058 -0.14623964238281784 0.0 0.025863597941672166 0.0 0.0
0.1338422323993009 -0.1293446798162812 0.0 0.025721010603264413 0.0 0.0
0.11620269003158676 -0.11179563372980603 0.0 0.024173175617168967 0.0 0.0
0.09873527915105848 -0.09449240658109795 0.0 0.021823267101012275 0.0 0.0
0.08203041375500644 -0.07799662014902956 0.0 0.019163314786709077 0.0 0.0
0.066447427218463 -0.06265259707991921 0.0 0.01644205346872532 0.0 0.0
0.05220120908805109 -0.0486624363708629 0.0 0.013714419557575706 0.0 0.0
0.039445031893199325 -0.036155734657803466 0.0 0.01094594731231258 0.0 0.0
0.028340802134770315 -0.02528536331615585 0.0 0.008177042667370423 0.0 0.0
0.01909385508901229 -0.01627157116856479 0.0 0.00560428202589312 0.0 0.0
0.011899488904930521 -0.009346444238805636 0.0 0.0034782936441490253 0.0 0.0
0.006820915888793211 -0.0046131030996487635 0.0 0.001929024619206994 0.0 0.0
0.0037204096426670013 -0.0019726952245575032 0.0 0.0010883948333146299 0.0 0.0
0.002172115979530227 -0.0009174461008503545 0.0 0.0008376159946096823 0.0 0.0
0.001419601497995483 -0.0005759672462247631 0.0 0.000779990570135398 0.0 0.0
0.0008822550067528614 -0.00013338418735471706 0.0 0.0008102315471037683 0.0 0.0
0.003366026286057677 -0.0009126369186133017 0.0 0.005912048373913993 0.0 0.0
0.006097300723551936 -0.014801725936990761 0.0 0.004795516682553175 0.0 0.0
0.004647726654477187 -0.011959884014683345 0.0 -0.004251998840219383 0.0 0.0
0.0025304183130639393 -0.0007197701905840168 0.0 -0.0052687005391313085 0.0 0.0
0.000638951596139285 -8.39891156215495e-05 0.0 -0.0012102330714166166 0.0 0.0
0.0011443288661981273 -0.0004369957305389718 0.0 -0.0011081621266518036 0.0 0.0
0.0017866393821015843 -0.0007343930402000794 0.0 -0.0011670311846079886 0.0 0.0
0.003000043301426017 -0.001472241700568115 0.0 -0.001412156150258447 0.0 0.0
0.005509508075122698 -0.0034868628823043956 0.0 -0.0022785267007661503 0.0 0.0
0.009800728489573167 -0.007407617675053343 0.0 -0.0040352480963597925 0.0 0.0
0.016006209220582875 -0.013352779296683027 0.0 -0.0065639290800763314 0.0 0.0
0.024003979717368343 -0.021138217616877914 0.0 -0.009582009149253796 0.0 0.0
0.03358804441452811 -0.030508688179754495 0.0 -0.012814653497678238 0.0 0.0
0.044557869201340666 -0.041247851857448496 0.0 -0.01604333516755177 0.0 0.0
0.0567813698783801 -0.05323300610186946 0.0 -0.01922917521933913 0.0 0.0
0.07015730701795145 -0.06638254960090327 0.0 -0.02239907416157592 0.0 0.0
0.08453419500306503 -0.08056103991706433 0.0 -0.025470687469195848 0.0 0.0
0.09965750381683476 -0.09552322976578176 0.0 -0.02819718682931238 0.0 0.0
0.11508802991202666 -0.11085030703957559 0.0 -0.03014536550829499 0.0 0.0
0.130060732787381 -0.12581632624641576 0.0 -0.03063966526508371 0.0 0.0
0.14340486017131937 -0.13926751272019203 0.0 -0.028569110074710802 0.0 0.0
0.1536603075785743 -0.14967399055292838 0.0 -0.022391258784329224 0.0 0.0
0.15782309621840926 -0.15556236075405785 0.0 2.897508621924061e-14 0.0 0.0
0.15366030757855126 -0.14967399055288194 0.0 0.022391258784394984 0.0 0.0
0.14340486017127535 -0.1392675127201529 0.0 0.02856911007477818 0.0 0.0
0.13006073278732222 -0.12581632624635655 0.0 0.03063966526512371 0.0 0.0
0.1150880299119584 -0.11085030703951274 0.0 0.030145365508302262 0.0 0.0
0.09965750381676039 -0.09552322976570522 0.0 0.02819718682930055 0.0 0.0
0.08453419500298898 -0.08056103991698647 0.0 0.025470687469182587 0.0 0.0
0.07015730701787706 -0.0663825496008341 0.0 0.022399074161566567 0.0 0.0
0.05678136987830909 -0.0532330061017946 0.0 0.01922917521932094 0.0 0.0
0.044557869201275496 -0.04124785185738875 0.0 0.01604333516752657 0.0 0.0
0.033588044414471344 -0.03050868817969475 0.0 0.01281465349765316 0.0 0.0
0.024003979717321357 -0.021138217616833332 0.0 0.009582009149231543 0.0 0.0
0.016006209220546356 -0.013352779296644444 0.0 0.006563929080058592 0.0 0.0
0.009800728489548553 -0.007407617675030431 0.0 0.0040352480963496105 0.0 0.0
0.005509508075109178 -0.0034868628822915387 0.0 0.0022785267007621236 0.0 0.0
0.003000043301420245 -0.001472241700565334 0.0 0.0014121561502554298 0.0 0.0
0.001786639382100094 -0.000734393040197669 0.0 0.0011670311846059818 0.0 0.0
0.0011443288661982522 -0.0004369957305398872 0.0 0.0011081621266487173 0.0 0.0
0.0006389515961394064 -8.398911562236205e-05 0.0 0.0012102330714139308 0.0 0.0
0.0025304183130582516 -0.0007197701905814263 0.0 0.005268700539119085 0.0 0.0
0.0046477266544662455 -0.01195988401466192 0.0 0.00425199884020692 0.0 0.0
0.0035033019561341193 -0.00958305226035183 0.0 -0.0035119232649833756 0.0 0.0
0.0018941610284539342 -0.0005851163753312148 0.0 -0.004641858835023811 0.0 0.0
0.00046630908372389656 -6.98622964935215e-05 0.0 -0.0015951201777246254 0.0 0.0
0.0008990170807500494 -0.00031522622273913095 0.0 -0.0014373138241403195 0.0 0.0
0.0014387758909253263 -0.00058401035342472 0.0 -0.0014951737204393304 0.0 0.0
0.0023618831254213395 -0.0010832713280513125 0.0 -0.0016962545192860388 0.0 0.0
0.0043049255089359865 -0.002517767256043551 0.0 -0.0025215333072419748 0.0 0.0
0.007775517537264246 -0.005578677570353352 0.0 -0.004254584513763801 0.0 0.0
0.012947000912509476 -0.010486226042690488 0.0 -0.006941728656537698 0.0 0.0
0.019680457701770293 -0.017021109296670365 0.0 -0.010207198783705143 0.0 0.0
0.027730130402220905 -0.024877606188481283 0.0 -0.01367868976309913 0.0 0.0
0.0369065119940128 -0.033842295328707084 0.0 -0.017145012721020238 0.0 0.0
0.04710253643736503 -0.043817521039733236 0.0 -0.020564171995083157 0.0 0.0
0.0582615208439054 -0.054767693239257016 0.0 -0.023964156557220593 0.0 0.0
0.0703026696011066 -0.06662155146071558 0.0 -0.027259424879523025 0.0 0.0
0.08305477024590278 -0.07921570200216838 0.0 -0.030196052787449794 0.0 0.0
0.09621345348382086 -0.09225650715822041 0.0 -0.03241075984849214 0.0 0.0
0.10926088130492223 -0.10524770607685967 0.0 -0.03326780585167944 0.0 0.0
0.12132652497012547 -0.11736141496833427 0.0 -0.031393612238238666 0.0 0.0
0.13118210026120225 -0.12734299340613708 0.0 -0.024731846557831227 0.0 0.0
0.1353856877096047 -0.13379325612578266 0.0 3.230922474006803e-14 0.0 0.0
0.1311821002611825 -0.12734299340610555 0.0 0.024731846557901886 0.0 0.0
0.12132652497008717 -0.11736141496829952 0.0 0.0313936122383089 0.0 0.0
0.10926088130487237 -0.10524770607681663 0.0 0.03326780585172017 0.0 0.0
0.0962134534837634 -0.09225650715816923 0.0 0.032410759848497964 0.0 0.0
0.08305477024583978 -0.0792157020020993 0.0 0.030196052787439837 0.0 0.0
0.07030266960104334 -0.0666215514606494 0.0 0.027259424879509234 0.0 0.0
0.05826152084384406 -0.05476769323920003 0.0 0.023964156557208655 0.0 0.0
0.047102536437305796 -0.043817521039675025 0.0 0.02056417199506586 0.0 0.0
0.036906511993959015 -0.03384229532865205 0.0 0.01714501272099503 0.0 0.0
0.027730130402174025 -0.024877606188432485 0.0 0.013678689763071322 0.0 0.0
0.019680457701730367 -0.017021109296630515 0.0 0.010207198783681176 0.0 0.0
0.01294700091247979 -0.010486226042662717 0.0 0.006941728656522159 0.0 0.0
0.007775517537244996 -0.005578677570330969 0.0 0.0042545845137536955 0.0 0.0
0.00430492550892503 -0.0025177672560365554 0.0 0.0025215333072359835 0.0 0.0
0.0023618831254168336 -0.0010832713280489652 0.0 0.0016962545192825635 0.0 0.0
0.00143877589092387 -0.0005840103534207878 0.0 0.0014951737204374456 0.0 0.0
0.0008990170807493533 -0.000315226222740817 0.0 0.0014373138241370604 0.0 0.0
0.00046630908372374347 -6.986229649321148e-05 0.0 0.0015951201777203944 0.0 0.0
0.0018941610284492574 -0.0005851163753294989 0.0 0.004641858835014174 0.0 0.0
0.003503301956124855 -0.00958305226033419 0.0 0.003511923264972978 0.0 0.0
0.0025879600641953997 -0.007570283254706342 0.0 -0.0028298603626160123 0.0 0.0
0.0013954835887016392 -0.0004796603088848242 0.0 -0.004073020748744746 0.0 0.0
0.0003334333750910255 -6.997182063275692e-05 0.0 -0.001913260142785745 0.0 0.0
0.0006739064944213412 -0.00020741707908138805 0.0 -0.0017403417215970593 0.0 0.0
0.0011184483403265495 -0.0004489445924521767 0.0 -0.0018030792739511274 0.0 0.0
0.001797919653235133 -0.0007881353707880901 0.0 -0.0019733022019302964 0.0 0.0
0.003217081109164063 -0.0017216776395752068 0.0 -0.002660210414104082 0.0 0.0
0.005874592717390756 -0.003931351292351662 0.0 -0.0042466519449731125 0.0 0.0
0.009971640266188584 -0.007737313073950416 0.0 -0.006786230632790949 0.0 0.0
0.015405136024508395 -0.012979604075303292 0.0 -0.01002965255801572 0.0 0.0
0.021911915900063236 -0.019307601308036233 0.0 -0.013521876067558131 0.0 0.0
0.02928798176801682 -0.026491780977432516 0.0 -0.01700821188951618 0.0 0.0
0.03745297639307595 -0.034456367254999155 0.0 -0.02043536081466338 0.0 0.0
0.04639281869643826 -0.04320323410767951 0.0 -0.023841307577715912 0.0 0.0
0.05608419911206569 -0.05272183985808428 0.0 -0.027153803654642476 0.0 0.0
0.06643398848406043 -0.06292556336734395 0.0 -0.030135952897251038 0.0 0.0
0.07726411679484424 -0.07361967500157579 0.0 -0.03244724618772154 0.0 0.0
0.08830538783244138 -0.08454234349984958 0.0 -0.03362481828228901 0.0 0.0
0.09906234643991049 -0.09527570498522882 0.0 -0.03235332078285085 0.0 0.0
0.10859970555734341 -0.10491687974508472 0.0 -0.02616615602201347 0.0 0.0
0.11291356610745573 -0.11208680630991245 0.0 3.281576399505326e-14 0.0 0.0
0.10859970555732698 -0.10491687974506225 0.0 0.026166156022083387 0.0 0.0
0.09906234643987895 -0.0952757049852071 0.0 0.03235332078291709 0.0 0.0
0.08830538783239972 -0.08454234349980697 0.0 0.033624818282332415 0.0 0.0
0.07726411679479717 -0.07361967500152866 0.0 0.03244724618772362 0.0 0.0
0.06643398848400943 -0.06292556336728285 0.0 0.030135952897238624 0.0 0.0
0.05608419911201461 -0.052721839858036565 0.0 0.027153803654629466 0.0 0.0
0.046392818696389726 -0.04320323410763309 0.0 0.02384130757770139 0.0 0.0
0.03745297639302926 -0.0344563672549553 0.0 0.020435360814646482 0.0 0.0
0.02928798176797396 -0.02649178097738956 0.0 0.0170082118894946 0.0 0.0
0.021911915900025895 -0.019307601307997954 0.0 0.01352187606752868 0.0 0.0
0.015405136024476875 -0.012979604075271198 0.0 0.01002965255799135 0.0 0.0
0.009971640266165115 -0.007737313073923786 0.0 0.006786230632776689 0.0 0.0
0.005874592717375556 -0.003931351292335562 0.0 0.004246651944963555 0.0 0.0
0.003217081109156063 -0.001721677639571275 0.0 0.0026602104140981777 0.0 0.0
0.001797919653232257 -0.0007881353707886807 0.0 0.0019733022019280642 0.0 0.0
0.0011184483403257105 -0.0004489445924505137 0.0 0.0018030792739473982 0.0 0.0
0.000673906494421242 -0.00020741707908115116 0.0 0.0017403417215958216 0.0 0.0
0.0003334333750910435 -6.99718206331849e-05 0.0 0.0019132601427833363 0.0 0.0
0.0013954835886981693 -0.00047966030888407465 0.0 0.004073020748737148 0.0 0.0
0.0025879600641887813 -0.007570283254691766 0.0 0.002829860362608486 0.0 0.0
0.0018564090708672485 -0.005871941693923681 0.0 -0.002292361849942257 0.0 0.0
0.000998878234690869 -0.00039813182976222207 0.0 -0.0035609255806854315 0.0 0.0
0.0002201069406612848 -6.835301941673675e-05 0.0 -0.0021539348708913913 0.0 0.0
0.0004600483626293554 -0.00011083044041803 0.0 -0.001999157342533608 0.0 0.0
0.0008119197409913642 -0.000313746181068431 0.0 -0.0020676948349342317 0.0 0.0
0.0012999077732308122 -0.0005591099752469057 0.0 -0.0022501471107192507 0.0 0.0
0.002253539547577616 -0.0011043921932720714 0.0 -0.002746613467136833 0.0 0.0
0.004125580802474515 -0.0025183197906648107 0.0 -0.00403231138957649 0.0 0.0
0.007142519430873106 -0.005197377750969509 0.0 -0.006205591599892563 0.0 0.0
0.011235055158532157 -0.009087197886868908 0.0 -0.009090228346531472 0.0 0.0
0.016170204001966598 -0.013853128081513255 0.0 -0.012326669393292378 0.0 0.0
0.021743587385943335 -0.01924980687537076 0.0 -0.015598929096170572 0.0 0.0
0.027879813705748883 -0.025206042752728527 0.0 -0.01881539769938113 0.0 0.0
0.03459355846345978 -0.031748033376661336 0.0 -0.022001815618132373 0.0 0.0
0.041922859717899094 -0.03891814873149722 0.0 -0.025126087604750758 0.0 0.0
0.04985115904362536 -0.046709340936688167 0.0 -0.027982484093333468 0.0 0.0
0.058289949837983204 -0.05501618503361882 0.0 -0.03022506102399533 0.0 0.0
0.06719307084396804 -0.06374110098614365 0.0 -0.03154468968354608 0.0 0.0
0.07650027435418431 -0.07290989319146228 0.0 -0.03117081441409185 0.0 0.0
0.0856972368242495 -0.08216299365419795 0.0 -0.026530648348540246 0.0 0.0
0.09015738215896604 -0.09020794065649905 0.0 2.911473145905674e-14 0.0 0.0
0.08569723682423673 -0.08216299365418196 0.0 0.02653064834860603 0.0 0.0
0.07650027435415988 -0.07290989319144116 0.0 0.031170814414157262 0.0 0.0
0.06719307084393515 -0.06374110098610589 0.0 0.031544689683589464 0.0 0.0
0.058289949837946595 -0.05501618503358122 0.0 0.030225061023999113 0.0 0.0
0.04985115904358691 -0.04670934093665072 0.0 0.027982484093317855 0.0 0.0
0.041922859717860195 -0.03891814873146218 0.0 0.025126087604738494 0.0 0.0
0.034593558463423935 -0.03174803337662809 0.0 0.022001815618121423 0.0 0.0
0.027879813705715198 -0.025206042752698273 0.0 0.018815397699365823 0.0 0.0
0.021743587385911544 -0.019249806875336815 0.0 0.015598929096149801 0.0 0.0
0.01617020400193904 -0.013853128081486542 0.0 0.01232666939326611 0.0 0.0
0.011235055158509158 -0.009087197886849795 0.0 0.009090228346509256 0.0 0.0
0.007142519430856218 -0.005197377750951784 0.0 0.006205591599879527 0.0 0.0
0.004125580802463936 -0.0025183197906554376 0.0 0.00403231138956777 0.0 0.0
0.0022535395475722165 -0.0011043921932677608 0.0 0.002746613467130425 0.0 0.0
0.0012999077732288946 -0.0005591099752485361 0.0 0.002250147110717404 0.0 0.0
0.0008119197409908433 -0.0003137461810679706 0.0 0.002067694834931862 0.0 0.0
0.0004600483626291925 -0.00011083044041747885 0.0 0.001999157342530698 0.0 0.0
0.00022010694066108908 -6.835301941763182e-05 0.0 0.0021539348708904805 0.0 0.0
0.0009988782346882696 -0.00039813182976134874 0.0 0.003560925580678915 0.0 0.0
0.0018564090708621309 -0.005871941693912041 0.0 0.0022923618499381534 0.0 0.0
0.0012939962007593657 -0.004475969773434771 0.0 -0.001928553120322312 0.0 0.0
0.0006852675036523199 -0.0003421249037476897 0.0 -0.0031047246879429987 0.0 0.0
0.00010967622372781663 -5.3315002879316875e-05 0.0 -0.0023208112941767146 0.0 0.0
0.0002533676124072029 -2.2904357781922808e-05 0.0 -0.002203786516248737 0.0 0.0
0.0005081050474982009 -0.00017374319570744872 0.0 -0.0022741085527836825 0.0 0.0
0.0008428123455603022 -0.00035856436338760063 0.0 -0.002501429623429871 0.0 0.0
0.001415126971313686 -0.0006527242216461434 0.0 -0.002862067309819872 0.0 0.0
0.002557826053180248 -0.0013934589882977065 0.0 -0.003691747458244297 0.0 0.0
0.0045079114400228305 -0.002972202408975431 0.0 -0.0052763150552060135 0.0 0.0
0.007239258417387437 -0.005461058206441648 0.0 -0.007497617744281804 0.0 0.0
0.010566720539572172 -0.008610703914322908 0.0 -0.010139432798416441 0.0 0.0
0.014317237580424112 -0.012197014034963474 0.0 -0.012910797716688025 0.0 0.0
0.01842344140233936 -0.016141002952397277 0.0 -0.015700750767857312 0.0 0.0
0.022912650877780626 -0.02048127971597378 0.0 -0.018471422032850945 0.0 0.0
0.027861532818598364 -0.025288503767006906 0.0 -0.021197260355195743 0.0 0.0
0.033341966718270034 -0.030634791614539192 0.0 -0.023778686796293937 0.0 0.0
0.039364977723675885 -0.0365305542439819 0.0 -0.025904215739114507 0.0 0.0
0.045981677384459727 -0.042966531122930626 0.0 -0.027181056740267006 0.0 0.0
0.05353654517760531 -0.05024266527288788 0.0 -0.02745436338042894 0.0 0.0
0.062209995564746545 -0.05880798789731295 0.0 -0.02536323830407283 0.0 0.0
0.06680204922626888 -0.06785544429695045 0.0 2.4017246524898894e-14 0.0 0.0
0.062209995564738385 -0.05880798789730461 0.0 0.025363238304127345 0.0 0.0
0.053536545177588275 -0.05024266527286559 0.0 0.027454363380488282 0.0 0.0
0.045981677384436065 -0.042966531122898596 0.0 0.027181056740298082 0.0 0.0
0.03936497772364965 -0.036530554243959165 0.0 0.02590421573911398 0.0 0.0
0.033341966718244256 -0.03063479161452244 0.0 0.023778686796277683 0.0 0.0
0.027861532818573443 -0.025288503766982284 0.0 0.02119726035518247 0.0 0.0
0.022912650877758213 -0.02048127971595252 0.0 0.018471422032843448 0.0 0.0
0.018423441402318334 -0.016141002952381033 0.0 0.015700750767846997 0.0 0.0
0.014317237580403508 -0.0121970140349416 0.0 0.01291079771666978 0.0 0.0
0.010566720539554018 -0.008610703914306312 0.0 0.01013943279839409 0.0 0.0
0.007239258417373057 -0.00546105820643008 0.0 0.007497617744264419 0.0 0.0
0.004507911440012625 -0.0029722024089738276 0.0 0.005276315055197803 0.0 0.0
0.0025578260531738486 -0.0013934589882893275 0.0 0.003691747458237857 0.0 0.0
0.0014151269713108918 -0.0006527242216447628 0.0 0.0028620673098158325 0.0 0.0
0.0008428123455595493 -0.000358564363388692 0.0 0.002501429623426223 0.0 0.0
0.0005081050474977376 -0.00017374319570962062 0.0 0.0022741085527811793 0.0 0.0
0.00025336761240700206 -2.2904357783286294e-05 0.0 0.0022037865162448113 0.0 0.0
0.00010967622372757188 -5.3315002878903794e-05 0.0 0.0023208112941759756 0.0 0.0
0.0006852675036502102 -0.00034212490374767703 0.0 0.003104724687937197 0.0 0.0
0.0012939962007558303 -0.004475969773426029 0.0 0.0019285531203205564 0.0 0.0
0.0008860144765830288 -0.0033620352811632023 0.0 -0.0016937740669303565 0.0 0.0
0.0004426507386927125 -0.0003164902151111218 0.0 -0.002728668456567334 0.0 0.0
-5.969051505344196e-06 -1.884187255907324e-05 0.0 -0.002422346468163344 0.0 0.0
5.118392040941375e-05 5.905142373573414e-05 0.0 -0.002349829510192904 0.0 0.0
0.00020297123750533366 -3.2127987167166674e-05 0.0 -0.00242096431658488 0.0 0.0
0.00039965865935652777 -0.00015798877163687375 0.0 -0.0026772339495530306 0.0 0.0
0.0006793077848696401 -0.0003043323298832259 0.0 -0.003013253815458608 0.0 0.0
0.001191691453558945 -0.0005879769990577409 0.0 -0.0034452187639581696 0.0 0.0
0.0021174933292908223 -0.0012274938334847162 0.0 -0.004222845264218776 0.0 0.0
0.003482392718952206 -0.0023345636269497543 0.0 -0.0055188015831615835 0.0 0.0
0.005170195212778173 -0.0038093780714159257 0.0 -0.007305123204368622 0.0 0.0
0.00706468056683953 -0.005535786123976029 0.0 -0.00939595273495883 0.0 0.0
0.009122658273864109 -0.0074501064474725796 0.0 -0.011628884738855073 0.0 0.0
0.011385021962345426 -0.009582241356443994 0.0 -0.013934523518583562 0.0 0.0
0.013939015618923857 -0.012009322600799422 0.0 -0.016293614922466733 0.0 0.0
0.01692357290922642 -0.014860775927196535 0.0 -0.018659503507707006 0.0 0.0
0.020500299543394655 -0.018297219361018878 0.0 -0.02080676135646317 0.0 0.0
0.02480112541013013 -0.02245419728189564 0.0 -0.02219101767808417 0.0 0.0
0.030226583988922674 -0.02758447399969896 0.0 -0.022416935861996785 0.0 0.0
0.037836265744935565 -0.03470365156104099 0.0 -0.022191858287182446 0.0 0.0
0.0423653618162219 -0.04461827699317613 0.0 1.9247624327700663e-14 0.0 0.0
0.03783626574493143 -0.03470365156104638 0.0 0.022191858287226376 0.0 0.0
0.030226583988913057 -0.027584473999686963 0.0 0.022416935862043103 0.0 0.0
0.024801125410116226 -0.022454197281883248 0.0 0.022191017678105465 0.0 0.0
0.020500299543381152 -0.01829721936100369 0.0 0.020806761356453797 0.0 0.0
0.016923572909214715 -0.014860775927189297 0.0 0.01865950350769176 0.0 0.0
0.013939015618913107 -0.01200932260078452 0.0 0.01629361492245545 0.0 0.0
0.011385021962336614 -0.009582241356428966 0.0 0.01393452351857704 0.0 0.0
0.009122658273855326 -0.007450106447469164 0.0 0.011628884738846136 0.0 0.0
0.0070646805668302445 -0.005535786123966134 0.0 0.009395952734943955 0.0 0.0
0.005170195212770502 -0.003809378071408377 0.0 0.0073051232043534284 0.0 0.0
0.0034823927189461643 -0.002334563626943391 0.0 0.005518801583151343 0.0 0.0
0.002117493329286746 -0.0012274938334875117 0.0 0.004222845264213462 0.0 0.0
0.0011916914535564744 -0.0005879769990554116 0.0 0.0034452187639537717 0.0 0.0
0.000679307784868386 -0.0003043323298857149 0.0 0.003013253815455639 0.0 0.0
0.00039965865935624094 -0.00015798877163386742 0.0 0.002677233949550538 0.0 0.0
0.00020297123750537662 -3.212798717155138e-05 0.0 0.0024209643165822095 0.0 0.0
5.11839204092875e-05 5.905142373663068e-05 0.0 0.0023498295101908565 0.0 0.0
-5.969051505692874e-06 -1.8841872557514758e-05 0.0 0.0024223464681614915 0.0 0.0
0.0004426507386916078 -0.00031649021511156723 0.0 0.0027286684565633445 0.0 0.0
0.0008860144765811851 -0.0033620352811569295 0.0 0.0016937740669288885 0.0 0.0
0.000597496378979379 -0.002509319345007374 0.0 -0.0015560210558216228 0.0 0.0
0.00025508089812000873 -0.00031280693704790357 0.0 -0.002456152928097901 0.0 0.0
-0.00012587056536864867 3.0399710976786347e-05 0.0 -0.0024666605449651744 0.0 0.0
-0.0001474557062286377 0.00013790743773159513 0.0 -0.002434185801880445 0.0 0.0
-9.893236105463853e-05 0.00010736135042096903 0.0 -0.002503297085738102 0.0 0.0
-4.693551507616413e-05 4.801755954267792e-05 0.0 -0.002751621182255044 0.0 0.0
-1.8251227836618724e-05 1.2679674143497873e-05 0.0 -0.003102833842115501 0.0 0.0
-7.0499029540416625e-06 4.265709292850129e-06 0.0 -0.0033876334574929577 0.0 0.0
-2.2948943291160417e-06 1.239091024604093e-06 0.0 -0.0036991377102965402 0.0 0.0
-1.469382724350295e-07 1.4243352303887824e-08 0.0 -0.004460575311230573 0.0 0.0
-2.3500756631345335e-06 1.1864785019956748e-06 0.0 -0.005772075425954068 0.0 0.0
-1.5495548487671324e-05 1.4292618062491599e-05 0.0 -0.007525924727951056 0.0 0.0
-3.893954277967102e-05 3.816774389669975e-05 0.0 -0.009481935491271467 0.0 0.0
-3.919912183932028e-05 4.788063537344682e-05 0.0 -0.011575573017077767 0.0 0.0
8.369800054895053e-05 -4.317295491070667e-05 0.0 -0.013811333863785684 0.0 0.0
0.0005325409244048228 -0.00041765174596604263 0.0 -0.01616124227869192 0.0 0.0
0.001627890291961471 -0.0013678196888476633 0.0 -0.018520342120547956 0.0 0.0
0.003711218986743576 -0.0032407632966098988 0.0 -0.020631729403529628 0.0 0.0
0.0070008151789727234 -0.006131263202561028 0.0 -0.022193007014714897 0.0 0.0
0.012641724885724947 -0.010800551905003944 0.0 -0.02355666440470913 0.0 0.0
0.016319539936388176 -0.021268499337397165 0.0 1.5097298411426152e-14 0.0 0.0
0.012641724885723982 -0.01080055190501535 0.0 0.02355666440473718 0.0 0.0
0.007000815178970481 -0.006131263202553217 0.0 0.022193007014735408 0.0 0.0
0.003711218986741183 -0.003240763296613625 0.0 0.020631729403534645 0.0 0.0
0.0016278902919620493 -0.0013678196888466435 0.0 0.01852034212053502 0.0 0.0
0.0005325409244077401 -0.00041765174596952075 0.0 0.01616124227867923 0.0 0.0
8.36980005516528e-05 -4.317295491288928e-05 0.0 0.013811333863774092 0.0 0.0
-3.9199121835131355e-05 4.788063537473203e-05 0.0 0.011575573017065795 0.0 0.0
-3.8939542775185895e-05 3.8167743889907656e-05 0.0 0.009481935491257502 0.0 0.0
-1.5495548484026128e-05 1.4292618057904123e-05 0.0 0.007525924727936633 0.0 0.0
-2.350075659723796e-06 1.1864784998781195e-06 0.0 0.005772075425942348 0.0 0.0
-1.469382701945257e-07 1.4243352272256225e-08 0.0 0.004460575311223982 0.0 0.0
-2.294894328330944e-06 1.2390910192256304e-06 0.0 0.0036991377102948836 0.0 0.0
-7.049902953935058e-06 4.265709293023547e-06 0.0 0.0033876334574899115 0.0 0.0
-1.8251227836312058e-05 1.2679674143879556e-05 0.0 0.003102833842111949 0.0 0.0
-4.6935515075542985e-05 4.801755954752008e-05 0.0 0.002751621182251712 0.0 0.0
-9.893236105410302e-05 0.00010736135042007497 0.0 0.0025032970857355816 0.0 0.0
-0.0001474557062283913 0.00013790743773316722 0.0 0.002434185801878455 0.0 0.0
-0.00012587056536845912 3.039971097758928e-05 0.0 0.0024666605449639206 0.0 0.0
0.00025508089811932504 -0.00031280693704857453 0.0 0.0024561529280961135 0.0 0.0
0.0005974963789776803 -0.0025093193450034953 0.0 0.0015560210558211677 0.0 0.0
0.00039712682040777116 -0.0018899168586127084 0.0 -0.0014880985878197223 0.0 0.0
0.00011404969470105988 -0.00030728544958192835 0.0 -0.002262160234514315 0.0 0.0
-0.0002420078348400238 8.26020086338883e-05 0.0 -0.002459114890532815 0.0 0.0
-0.0003414789777134117 0.0002152527726183033 0.0 -0.0024542519108215572 0.0 0.0
-0.00039474294502212155 0.00024197036313313575 0.0 -0.0025111873179398028 0.0 0.0
-0.0004901757023502096 0.00025319466573309245 0.0 -0.0027274569141411634 0.0 0.0
-0.0007156627653889368 0.00033107283900000523 0.0 -0.0030475460948363297 0.0 0.0
-0.0012054245260256654 0.0005976210813373868 0.0 -0.0034687058349649165 0.0 0.0
-0.002120630493321024 0.0012293924585837332 0.0 -0.004232214115864725 0.0 0.0
-0.003481809971918796 0.0023338625923104046 0.0 -0.00551862465602814 0.0 0.0
-0.005176678178855707 0.0038139086024198245 0.0 -0.007304242832873113 0.0 0.0
-0.0070985347302687015 0.005566285680890747 0.0 -0.009401353946506251 0.0 0.0
-0.009199347665182609 0.007526448545855349 0.0 -0.011624724089645207 0.0 0.0
-0.011454731776419572 0.00967360327617148 0.0 -0.01391205815184451 0.0 0.0
-0.013756387066663451 0.011910713704634741 0.0 -0.016288456344396643 0.0 0.0
-0.015859846019386697 0.014004433825265984 0.0 -0.018814157585681147 0.0 0.0
-0.017368920179006986 0.015564789301868245 0.0 -0.02152367259712462 0.0 0.0
-0.01783044727914315 0.016101574772487692 0.0 -0.024538928499629884 0.0 0.0
-0.016748635463506578 0.015301160891689088 0.0 -0.027806486523545608 0.0 0.0
-0.012105635318255918 0.011933029852737762 0.0 -0.02946226574026412 0.0 0.0
-0.008459170850396349 0.0007441779361982153 0.0 1.494637746901617e-14 0.0 0.0
-0.012105635318256858 0.011933029852735248 0.0 0.02946226574029532 0.0 0.0
-0.016748635463500663 0.015301160891690223 0.0 0.027806486523570532 0.0 0.0
-0.017830447279129837 0.01610157477248002 0.0 0.024538928499632302 0.0 0.0
-0.017368920178989947 0.015564789301850523 0.0 0.021523672597113495 0.0 0.0
-0.015859846019369156 0.01400443382524846 0.0 0.018814157585665445 0.0 0.0
-0.013756387066647509 0.011910713704625353 0.0 0.016288456344381103 0.0 0.0
-0.011454731776403203 0.009673603276151932 0.0 0.013912058151830692 0.0 0.0
-0.009199347665164654 0.007526448545839221 0.0 0.011624724089627638 0.0 0.0
-0.007098534730251623 0.005566285680872488 0.0 0.009401353946484708 0.0 0.0
-0.005176678178841598 0.0038139086024051843 0.0 0.007304242832856071 0.0 0.0
-0.0034818099719084034 0.0023338625923055743 0.0 0.005518624656015796 0.0 0.0
-0.0021206304933144636 0.001229392458573529 0.0 0.004232214115861009 0.0 0.0
-0.0012054245260220565 0.0005976210813358652 0.0 0.0034687058349623344 0.0 0.0
-0.0007156627653871724 0.0003310728389994313 0.0 0.0030475460948341006 0.0 0.0
-0.000490175702349251 0.0002531946657326295 0.0 0.0027274569141383562 0.0 0.0
-0.0003947429450218711 0.00024197036313229072 0.0 0.0025111873179364196 0.0 0.0
-0.000341478977713387 0.00021525277261963844 0.0 0.0024542519108191937 0.0 0.0
-0.0002420078348398295 8.260200863358494e-05 0.0 0.002459114890532654 0.0 0.0
0.00011404969470064355 -0.0003072854495826603 0.0 0.0022621602345123904 0.0 0.0
0.00039712682040683755 -0.001889916858610415 0.0 0.0014880985878193218 0.0 0.0
0.0002630761486610055 -0.0014247499521118192 0.0 -0.0014029212118324623 0.0 0.0
1.0677719788744927e-05 -0.00028588314465766737 0.0 -0.0020916071381673514 0.0 0.0
-0.00035022767160113977 0.00013035987394975724 0.0 -0.0024009780648745543 0.0 0.0
-0.0005278549038001811 0.0002901676608164715 0.0 -0.002409245064549409 0.0 0.0
-0.00068169220336439 0.00036941549715081287 0.0 -0.0024421959897197904 0.0 0.0
-0.0009255843219643119 0.0004519918012504333 0.0 -0.0026038594763677174 0.0 0.0
-0.0014501480219142968 0.0006839682616115615 0.0 -0.0029311766301393064 0.0 0.0
-0.0025681637761749633 0.0014023142128877142 0.0 -0.0037269563092866866 0.0 0.0
-0.004507296977308358 0.0029710492676439247 0.0 -0.0052837313098829655 0.0 0.0
-0.007238148103187332 0.00546004671548494 0.0 -0.007495734779085028 0.0 0.0
-0.01057512984293786 0.008618852509821681 0.0 -0.010140569354264531 0.0 0.0
-0.014348615460633443 0.012227123281615581 0.0 -0.012903227290385328 0.0 0.0
-0.018486958720564488 0.016206250644600257 0.0 -0.015642983594513753 0.0 0.0
-0.022959604614328652 0.020549826304679112 0.0 -0.018342473081587568 0.0 0.0
-0.02766071005148401 0.025166868837119882 0.0 -0.021114951819227266 0.0 0.0
-0.032310053626061326 0.029793304347407942 0.0 -0.024172007606588934 0.0 0.0
-0.03644258652690951 0.03395506486383967 0.0 -0.02773286636045767 0.0 0.0
-0.03943135695008509 0.03701626258901225 0.0 -0.0318951658506723 0.0 0.0
-0.040117176938724027 0.03799962746887295 0.0 -0.035873451665534156 0.0 0.0
-0.03605164491593645 0.03462039412292555 0.0 -0.036972959743203276 0.0 0.0
-0.03241992014381074 0.021530761647154163 0.0 2.0414225865295066e-14 0.0 0.0
-0.03605164491593301 0.03462039412292702 0.0 0.036972959743252314 0.0 0.0
-0.04011717693871188 0.03799962746885772 0.0 0.03587345166558174 0.0 0.0
-0.039431356950061315 0.037016262588994896 0.0 0.031895165850685754 0.0 0.0
-0.036442586526878235 0.03395506486380732 0.0 0.027732866360448395 0.0 0.0
-0.03231005362602961 0.029793304347380714 0.0 0.02417200760657017 0.0 0.0
-0.02766071005145436 0.02516686883709749 0.0 0.021114951819204933 0.0 0.0
-0.022959604614299405 0.020549826304649577 0.0 0.018342473081571716 0.0 0.0
-0.018486958720534397 0.016206250644572675 0.0 0.015642983594497666 0.0 0.0
-0.014348615460604053 0.012227123281589442 0.0 0.012903227290359882 0.0 0.0
-0.010575129842912489 0.008618852509798871 0.0 0.010140569354242533 0.0 0.0
-0.00723814810316817 0.005460046715468169 0.0 0.0074957347790681 0.0 0.0
-0.004507296977295624 0.0029710492676329257 0.0 0.005283731309873234 0.0 0.0
-0.002568163776167582 0.0014023142128801209 0.0 0.003726956309278966 0.0 0.0
-0.0014501480219103458 0.0006839682616082934 0.0 0.0029311766301335436 0.0 0.0
-0.0009255843219626099 0.0004519918012476985 0.0 0.002603859476364243 0.0 0.0
-0.0006816922033635951 0.0003694154971495456 0.0 0.0024421959897171046 0.0 0.0
-0.0005278549037995636 0.0002901676608170078 0.0 0.0024092450645486177 0.0 0.0
-0.00035022767160089127 0.00013035987395018913 0.0 0.00240097806487478 0.0 0.0
1.0677719788533125e-05 -0.0002858831446576345 0.0 0.0020916071381661743 0.0 0.0
0.00026307614866062233 -0.0014247499521099025 0.0 0.0014029212118317823 0.0 0.0
0.00016305513105479148 -0.0010432038823415212 0.0 -0.0012588192193831488 0.0 0.0
-7.123540302409964e-05 -0.0002486953997625803 0.0 -0.0019124019945830975 0.0 0.0
-0.00044962597427784833 0.00017334382987837791 0.0 -0.00229081137615946 0.0 0.0
-0.000704999951286503 0.000360537787338937 0.0 -0.002303397960526217 0.0 0.0
-0.000957360267996191 0.00048750812545530933 0.0 -0.0023022347950561474 0.0 0.0
-0.0013715263177225268 0.0006510335086346898 0.0 -0.0023998105142105245 0.0 0.0
-0.0022829805265501546 0.001138098235311162 0.0 -0.002837303856379358 0.0 0.0
-0.004128591651962087 0.002519701363473112 0.0 -0.0040604746786383405 0.0 0.0
-0.007138100752713927 0.0051925674909010806 0.0 -0.006204943621515488 0.0 0.0
-0.011235499093571232 0.009088136354715434 0.0 -0.009088323372936928 0.0 0.0
-0.016179588831609516 0.013863673495960668 0.0 -0.012328664923269847 0.0 0.0
-0.021764569477778373 0.01927179216659093 0.0 -0.015576302449928504 0.0 0.0
-0.02791073580570682 0.025239279215247032 0.0 -0.018697310984026556 0.0 0.0
-0.03459409753784795 0.03176463279919026 0.0 -0.021736733780632914 0.0 0.0
-0.04171711922050014 0.03877516104868346 0.0 -0.024905924793310153 0.0 0.0
-0.04898088591899975 0.04599496641784231 0.0 -0.02859347041356479 0.0 0.0
-0.05580645118075726 0.05285288732477131 0.0 -0.03323860653897363 0.0 0.0
-0.061187394704457124 0.058394817279930386 0.0 -0.03871628872370925 0.0 0.0
-0.06336873497969153 0.060935999307248245 0.0 -0.04353332586052838 0.0 0.0
-0.058887959276226295 0.05741451672010853 0.0 -0.04487633108533557 0.0 0.0
-0.05439517871719847 0.041470297814075234 0.0 2.4549806632023774e-14 0.0 0.0
-0.058887959276218815 0.05741451672010249 0.0 0.04487633108539405 0.0 0.0
-0.06336873497967262 0.06093599930722718 0.0 0.04353332586058648 0.0 0.0
-0.06118739470442383 0.05839481727991355 0.0 0.03871628872373529 0.0 0.0
-0.055806451180714464 0.05285288732472829 0.0 0.03323860653897017 0.0 0.0
-0.04898088591895581 0.045994966417797434 0.0 0.028593470413548358 0.0 0.0
-0.04171711922045634 0.03877516104863817 0.0 0.024905924793286616 0.0 0.0
-0.03459409753780437 0.031764632799154174 0.0 0.021736733780614435 0.0 0.0
-0.02791073580566473 0.025239279215207217 0.0 0.018697310984005726 0.0 0.0
-0.02176456947773815 0.019271792166551262 0.0 0.01557630244990076 0.0 0.0
-0.01617958883157385 0.013863673495931081 0.0 0.012328664923238414 0.0 0.0
-0.011235499093543374 0.009088136354684737 0.0 0.009088323372913855 0.0 0.0
-0.00713810075269513 0.00519256749088888 0.0 0.006204943621501337 0.0 0.0
-0.004128591651950159 0.0025197013634636117 0.0 0.004060474678627667 0.0 0.0
-0.0022829805265436043 0.0011380982353069642 0.0 0.0028373038563731683 0.0 0.0
-0.0013715263177200565 0.000651033508633157 0.0 0.002399810514208612 0.0 0.0
-0.0009573602679952638 0.00048750812545555306 0.0 0.002302234795055114 0.0 0.0
-0.0007049999512859082 0.00036053778733849683 0.0 0.002303397960525422 0.0 0.0
-0.00044962597427736673 0.00017334382987892088 0.0 0.00229081137615826 0.0 0.0
-7.123540302419173e-05 -0.0002486953997617016 0.0 0.001912401994581698 0.0 0.0
0.00016305513105439878 -0.0010432038823400018 0.0 0.0012588192193816606 0.0 0.0
7.922332769587185e-05 -0.000724265096611341 0.0 -0.0010826366751108922 0.0 0.0
-0.00014261424646858746 -0.00019787544639253516 0.0 -0.0017086890156585413 0.0 0.0
-0.0005420574625637519 0.00021346549355857875 0.0 -0.0021284614286147824 0.0 0.0
-0.0008722026826793298 0.0004248176029254102 0.0 -0.0021396048571151543 0.0 0.0
-0.0012249725045945887 0.0005944188034816269 0.0 -0.0020898055874902567 0.0 0.0
-0.001853191841908811 0.0008738858593453067 0.0 -0.002148491205037634 0.0 0.0
-0.0032351816419904813 0.0017476349798828403 0.0 -0.002740978673599861 0.0 0.0
-0.0058692337161082376 0.003923259354343635 0.0 -0.0042598498451256045 0.0 0.0
-0.009966826668355482 0.007732054824405641 0.0 -0.006780789208569246 0.0 0.0
-0.015408406418259104 0.012983846276138968 0.0 -0.010028950139240121 0.0 0.0
-0.0219204467376289 0.019318922895809408 0.0 -0.013522486555838134 0.0 0.0
-0.02929100322733385 0.026499290567319304 0.0 -0.016970843856097435 0.0 0.0
-0.03743323593329953 0.034441056331528525 0.0 -0.020270514788231137 0.0 0.0
-0.046323778934180465 0.043141677224823205 0.0 -0.023472640584381792 0.0 0.0
-0.055883001017927925 0.05255403795498651 0.0 -0.026810459313948654 0.0 0.0
-0.06580073206219147 0.062409550192227964 0.0 -0.03081337585352284 0.0 0.0
-0.07531609810597345 0.07199101224238198 0.0 -0.03601256920364167 0.0 0.0
-0.08297573256646518 0.07990082341244675 0.0 -0.0421909485983233 0.0 0.0
-0.08626225605999677 0.08373493651663734 0.0 -0.0477035208253967 0.0 0.0
-0.08096304666247998 0.07950478610699935 0.0 -0.0495235817696737 0.0 0.0
-0.07551095577918052 0.060803287185975816 0.0 2.59913618405605e-14 0.0 0.0
-0.08096304666246723 0.07950478610698762 0.0 0.0495235817697374 0.0 0.0
-0.08626225605997054 0.08373493651660893 0.0 0.04770352082546269 0.0 0.0
-0.08297573256642325 0.07990082341242309 0.0 0.0421909485983564 0.0 0.0
-0.07531609810592038 0.07199101224232633 0.0 0.036012569203637074 0.0 0.0
-0.06580073206213578 0.062409550192170954 0.0 0.03081337585350511 0.0 0.0
-0.05588300101787168 0.052554037954930494 0.0 0.026810459313928593 0.0 0.0
-0.0463237789341239 0.043141677224766396 0.0 0.023472640584363134 0.0 0.0
-0.0374332359332444 0.03444105633147328 0.0 0.020270514788207947 0.0 0.0
-0.029291003227281828 0.026499290567270368 0.0 0.016970843856071352 0.0 0.0
-0.021920446737583123 0.019318922895767324 0.0 0.013522486555805856 0.0 0.0
-0.015408406418222543 0.012983846276097248 0.0 0.01002895013921482 0.0 0.0
-0.009966826668329869 0.00773205482438395 0.0 0.006780789208551895 0.0 0.0
-0.005869233716091417 0.003923259354328141 0.0 0.0042598498451125975 0.0 0.0
-0.00323518164198123 0.0017476349798776773 0.0 0.0027409786735939534 0.0 0.0
-0.0018531918419050662 0.0008738858593457675 0.0 0.002148491205034766 0.0 0.0
-0.0012249725045928373 0.0005944188034792005 0.0 0.0020898055874883307 0.0 0.0
-0.0008722026826785905 0.00042481760292567447 0.0 0.0021396048571147314 0.0 0.0
-0.0005420574625635613 0.00021346549355872224 0.0 0.0021284614286129814 0.0 0.0
-0.0001426142464685051 -0.00019787544639186298 0.0 0.0017086890156566548 0.0 0.0
7.922332769595817e-05 -0.0007242650966101708 0.0 0.001082636675108716 0.0 0.0
6.8588912126127305e-06 -0.00046339854673053743 0.0 -0.0008949693609145331 0.0 0.0
-0.0002072259897359841 -0.00013709895743105446 0.0 -0.0014764944904162548 0.0 0.0
-0.0006291646289437822 0.00025261194636021233 0.0 -0.0019115699425582122 0.0 0.0
-0.0010286313917540748 0.0004819151873577288 0.0 -0.0019182754353991483 0.0 0.0
-0.001494572188388931 0.0006953000816711579 0.0 -0.0018138620387680208 0.0 0.0
-0.0023920608028644304 0.001152053703005734 0.0 -0.0018702594793478826 0.0 0.0
-0.004310106186111611 0.002528561904698599 0.0 -0.0025762403927383254 0.0 0.0
-0.0077673081877301965 0.005566725786495609 0.0 -0.004256306821262651 0.0 0.0
-0.012944191265028158 0.010483459095137902 0.0 -0.006935137348282341 0.0 0.0
-0.019686354342234483 0.0170285169524998 0.0 -0.01020787832244472 0.0 0.0
-0.02773513101789212 0.024887040220054196 0.0 -0.013675502972787855 0.0 0.0
-0.03688633177461993 0.03383043342451785 0.0 -0.017093741066960808 0.0 0.0
-0.047022778937635894 0.04374588506341564 0.0 -0.020377473764173207 0.0 0.0
-0.058109050686155364 0.05461460717056478 0.0 -0.023568221222389166 0.0 0.0
-0.07008951683803749 0.06641038706670452 0.0 -0.026853386811354095 0.0 0.0
-0.08263356948344382 0.07887427409825137 0.0 -0.03070780714282134 0.0 0.0
-0.09478292241433621 0.09113345342433807 0.0 -0.03576591342860522 0.0 0.0
-0.10459567424507031 0.10132146126637136 0.0 -0.042052221676272 0.0 0.0
-0.10883074347335385 0.10626384071608747 0.0 -0.04819571760109197 0.0 0.0
-0.10277403472921867 0.10131326669812782 0.0 -0.05218139536338792 0.0 0.0
-0.09648908825740656 0.08020763898156578 0.0 2.8206603719382883e-14 0.0 0.0
-0.10277403472920091 0.10131326669811344 0.0 0.05218139536344856 0.0 0.0
-0.10883074347331968 0.10626384071604376 0.0 0.0481957176011549 0.0 0.0
-0.1045956742450199 0.10132146126632037 0.0 0.04205222167630459 0.0 0.0
-0.09478292241427318 0.09113345342427091 0.0 0.0357659134286035 0.0 0.0
-0.08263356948337636 0.07887427409818928 0.0 0.03070780714280573 0.0 0.0
-0.07008951683796852 0.06641038706663802 0.0 0.02685338681133624 0.0 0.0
-0.05810905068608674 0.054614607170490416 0.0 0.023568221222366677 0.0 0.0
-0.04702277893756831 0.04374588506334849 0.0 0.02037747376415349 0.0 0.0
-0.03688633177455642 0.03383043342445641 0.0 0.01709374106693446 0.0 0.0
-0.027735131017837176 0.024887040219998255 0.0 0.013675502972757703 0.0 0.0
-0.01968635434218996 0.017028516952452957 0.0 0.01020787832241919 0.0 0.0
-0.01294419126499546 0.010483459095105665 0.0 0.006935137348266037 0.0 0.0
-0.0077673081877075775 0.005566725786473978 0.0 0.004256306821250391 0.0 0.0
-0.004310106186098686 0.0025285619046885683 0.0 0.0025762403927306774 0.0 0.0
-0.00239206080285917 0.001152053703004107 0.0 0.0018702594793443689 0.0 0.0
-0.0014945721883869582 0.0006953000816669576 0.0 0.001813862038765296 0.0 0.0
-0.0010286313917534553 0.0004819151873602177 0.0 0.0019182754353977592 0.0 0.0
-0.000629164628943811 0.00025261194636021635 0.0 0.0019115699425561617 0.0 0.0
-0.00020722598973619904 -0.00013709895743169376 0.0 0.001476494490416118 0.0 0.0
6.858891212316206e-06 -0.00046339854672965456 0.0 0.0008949693609139667 0.0 0.0
-5.4219581635665016e-05 -0.0002589934947056866 0.0 -0.0007029231863080823 0.0 0.0
-0.00026517792824720275 -7.143040872870842e-05 0.0 -0.0012176682321577966 0.0 0.0
-0.0007117849182706503 0.0002916661319488663 0.0 -0.0016400525991081953 0.0 0.0
-0.0011784160813302095 0.000531797859972107 0.0 -0.0016392106612234819 0.0 0.0
-0.0017804121075456997 0.000800973877239979 0.0 -0.001485281005267545 0.0 0.0
-0.003000145762426927 0.0015112626695435514 0.0 -0.0015567534295842147 0.0 0.0
-0.005503511285696777 0.0034843045081793386 0.0 -0.0023115842508263876 0.0 0.0
-0.009793818792818586 0.00739866785624895 0.0 -0.004028973767556605 0.0 0.0
-0.016007440075303497 0.01335411582350224 0.0 -0.006558361318329602 0.0 0.0
-0.024011254399605306 0.02114760218889794 0.0 -0.009584026014345427 0.0 0.0
-0.033586188634471055 0.030512775489688372 0.0 -0.01280666474024439 0.0 0.0
-0.04451215607458643 0.041213487269484726 0.0 -0.015981779785433022 0.0 0.0
-0.05664495336394863 0.05310850256623462 0.0 -0.019049747937590865 0.0 0.0
-0.0699188709578752 0.06614229809776888 0.0 -0.022059764433840997 0.0 0.0
-0.08425875384774292 0.08026887995963777 0.0 -0.025085501080118748 0.0 0.0
-0.09932533423201968 0.0952290591326446 0.0 -0.02837563827187733 0.0 0.0
-0.11401419311504357 0.11005521090095396 0.0 -0.03257559096454936 0.0 0.0
-0.1259359224877234 0.12247089105132589 0.0 -0.03833478060632774 0.0 0.0
-0.1312323946623351 0.12862318135458314 0.0 -0.045446409597735 0.0 0.0
-0.12473360280547252 0.12329671589406366 0.0 -0.05333055820561755 0.0 0.0
-0.11781591544185394 0.10015855024072917 0.0 2.7190055762460474e-14 0.0 0.0
-0.1247336028054506 0.12329671589403693 0.0 0.053330558205674394 0.0 0.0
-0.13123239466229325 0.12862318135453932 0.0 0.04544640959779049 0.0 0.0
-0.1259359224876639 0.12247089105126116 0.0 0.03833478060636084 0.0 0.0
-0.11401419311497052 0.11005521090088351 0.0 0.0325755909645515 0.0 0.0
-0.09932533423194033 0.09522905913256412 0.0 0.028375638271866038 0.0 0.0
-0.08425875384766185 0.08026887995955748 0.0 0.0250855010801051 0.0 0.0
-0.06991887095779392 0.06614229809768708 0.0 0.022059764433821658 0.0 0.0
-0.05664495336386906 0.053108502566157796 0.0 0.01904974793757295 0.0 0.0
-0.044512156074511894 0.04121348726940623 0.0 0.015981779785408146 0.0 0.0
-0.033586188634405933 0.030512775489625374 0.0 0.01280666474021649 0.0 0.0
-0.024011254399552873 0.0211476021888444 0.0 0.009584026014321399 0.0 0.0
-0.016007440075264348 0.013354115823459942 0.0 0.006558361318314015 0.0 0.0
-0.009793818792791304 0.007398667856225418 0.0 0.004028973767546082 0.0 0.0
-0.0055035112856804584 0.0034843045081657045 0.0 0.002311584250818075 0.0 0.0
-0.0030001457624196184 0.001511262669539571 0.0 0.0015567534295827111 0.0 0.0
-0.0017804121075429393 0.0008009738772360629 0.0 0.0014852810052667495 0.0 0.0
-0.0011784160813295755 0.000531797859974925 0.0 0.0016392106612201716 0.0 0.0
-0.00071178491827029 0.0002916661319485793 0.0 0.0016400525991062485 0.0 0.0
-0.00026517792824711065 -7.143040872871756e-05 0.0 0.0012176682321568496 0.0 0.0
-5.421958163632344e-05 -0.0002589934947055057 0.0 0.0007029231863095785 0.0 0.0
-0.00010161011559213309 -0.00011103746350135754 0.0 -0.0005120845966651275 0.0 0.0
-0.00031394367665907243 -6.566323671749144e-06 0.0 -0.0009352544579681486 0.0 0.0
-0.0007892772831506859 0.00032988866025684423 0.0 -0.0013123003972662728 0.0 0.0
-0.0013264291672217146 0.0005755526359523907 0.0 -0.0012983777145225456 0.0 0.0
-0.0020958590693744552 0.0009271249000159403 0.0 -0.0011061418471307067 0.0 0.0
-0.003690411175858434 0.001973654416070877 0.0 -0.001187955355086653 0.0 0.0
-0.0068100494806076755 0.0046055915514241095 0.0 -0.001943386822988019 0.0 0.0
-0.0118982112992895 0.009344745603107378 0.0 -0.0034688081346153955 0.0 0.0
-0.01909981251141444 0.016277788207161234 0.0 -0.00560086029414212 0.0 0.0
-0.028347618941184996 0.025294867924476116 0.0 -0.008179808236801455 0.0 0.0
-0.03943309220013613 0.03615093052788234 0.0 -0.010933497110550172 0.0 0.0
-0.05213074889232577 0.04860471530054636 0.0 -0.013650829656923814 0.0 0.0
-0.066266722622091 0.062486427785395884 0.0 -0.01629489994613587 0.0 0.0
-0.0817151743125188 0.07768688873653527 0.0 -0.01893018687445906 0.0 0.0
-0.09833435936994525 0.09408072472456074 0.0 -0.02154343271437437 0.0 0.0
-0.11574496806159956 0.11135067635275245 0.0 -0.0240476666807399 0.0 0.0
-0.13280524360370985 0.12851905418488968 0.0 -0.0267674580806939 0.0 0.0
-0.14689545918001806 0.1431790967842708 0.0 -0.03115833716604207 0.0 0.0
-0.1536343762598596 0.1509500394588538 0.0 -0.03939709716924394 0.0 0.0
-0.14722490014964046 0.14587692423733706 0.0 -0.05270098403235621 0.0 0.0
-0.13993653479645649 0.12112800871786267 0.0 2.3933979798052007e-14 0.0 0.0
-0.14722490014961567 0.14587692423730825 0.0 0.052700984032405994 0.0 0.0
-0.15363437625980983 0.15095003945880867 0.0 0.039397097169290234 0.0 0.0
-0.14689545917994823 0.14317909678420004 0.0 0.031158337166068084 0.0 0.0
-0.1328052436036264 0.12851905418480844 0.0 0.026767458080693973 0.0 0.0
-0.11574496806150843 0.11135067635266119 0.0 0.02404766668073031 0.0 0.0
-0.09833435936985198 0.09408072472446685 0.0 0.021543432714364142 0.0 0.0
-0.08171517431242535 0.07768688873644164 0.0 0.018930186874443092 0.0 0.0
-0.06626672262199938 0.062486427785306414 0.0 0.016294899946119237 0.0 0.0
-0.0521307488922409 0.04860471530045968 0.0 0.013650829656903927 0.0 0.0
-0.039433092200061706 0.036150930527813256 0.0 0.010933497110523495 0.0 0.0
-0.02834761894112505 0.02529486792441497 0.0 0.00817980823678101 0.0 0.0
-0.019099812511368552 0.016277788207108106 0.0 0.005600860294128387 0.0 0.0
-0.011898211299256466 0.00934474560307862 0.0 0.003468808134605238 0.0 0.0
-0.006810049480587853 0.004605591551409106 0.0 0.0019433868229815267 0.0 0.0
-0.0036904111758488687 0.0019736544160651776 0.0 0.0011879553550838628 0.0 0.0
-0.002095859069371265 0.0009271249000148923 0.0 0.0011061418471296808 0.0 0.0
-0.0013264291672206207 0.0005755526359529324 0.0 0.0012983777145204496 0.0 0.0
-0.0007892772831500237 0.00032988866025674535 0.0 0.0013123003972650754 0.0 0.0
-0.0003139436766586374 -6.566323671371946e-06 0.0 0.0009352544579668395 0.0 0.0
-0.00010161011559160998 -0.00011103746350160239 0.0 0.0005120845966666102 0.0 0.0
-0.00013042653870539784 -2.0158619763074146e-05 0.0 -0.00033277970517957387 0.0 0.0
-0.00034790179581227503 5.040490648163498e-05 0.0 -0.0006332795390255806 0.0 0.0
-0.000859263459285442 0.00036429485321480705 0.0 -0.0009211988463456277 0.0 0.0
-0.001481031602199511 0.0006183752645843125 0.0 -0.000889527770895762 0.0 0.0
-0.0024561265400037816 0.0010936621152057013 0.0 -0.0006861999904148387 0.0 0.0
-0.004472562611987161 0.002564772392245149 0.0 -0.0007657725489335915 0.0 0.0
-0.008194697331580354 0.0058499246248490695 0.0 -0.0014009284434567941 0.0 0.0
-0.014034393570053014 0.011341619994469025 0.0 -0.0025109723461902633 0.0 0.0
-0.022193463654431277 0.019216339857820147 0.0 -0.004085489369904246 0.0 0.0
-0.032656979600673215 0.029428483576567445 0.0 -0.006002259753388638 0.0 0.0
-0.04523803691336262 0.04175960493501116 0.0 -0.008063358842912675 0.0 0.0
-0.05970209979211971 0.05596234243691421 0.0 -0.010104861661834559 0.0 0.0
-0.0758431807049283 0.07183606661710323 0.0 -0.012114684273314719 0.0 0.0
-0.09346698979974699 0.08920463111507472 0.0 -0.014167848391920127 0.0 0.0
-0.11229310224576347 0.10781425255630465 0.0 -0.016193627727048698 0.0 0.0
-0.13181250301935232 0.1271951803120784 0.0 -0.01788099742619782 0.0 0.0
-0.15095270458159685 0.1463588270984209 0.0 -0.01905496488792996 0.0 0.0
-0.1672950706957515 0.16313620932388526 0.0 -0.02114625209082002 0.0 0.0
-0.17611636396150546 0.17322147651307687 0.0 -0.02904722341299258 0.0 0.0
-0.17065220000375506 0.1695518467732236 0.0 -0.04919868676289561 0.0 0.0
-0.16341915965927498 0.1437772016463733 0.0 1.5432100042289676e-14 0.0 0.0
-0.17065220000372688 0.16955184677319718 0.0 0.04919868676293555 0.0 0.0
-0.1761163639614476 0.17322147651301825 0.0 0.029047223413032036 0.0 0.0
-0.16729507069567098 0.16313620932380823 0.0 0.021146252090836842 0.0 0.0
-0.15095270458150145 0.14635882709831713 0.0 0.019054964887930945 0.0 0.0
-0.13181250301924904 0.1271951803119833 0.0 0.017880997426193517 0.0 0.0
-0.1122931022456591 0.10781425255619524 0.0 0.01619362772704312 0.0 0.0
-0.09346698979964217 0.08920463111497223 0.0 0.014167848391912093 0.0 0.0
-0.07584318070482454 0.07183606661699866 0.0 0.01211468427330422 0.0 0.0
-0.059702099792024135 0.05596234243681909 0.0 0.01010486166181973 0.0 0.0
-0.045238036913279135 0.04175960493493305 0.0 0.00806335884289225 0.0 0.0
-0.03265697960060576 0.029428483576501657 0.0 0.006002259753372426 0.0 0.0
-0.02219346365437965 0.019216339857764265 0.0 0.0040854893698968366 0.0 0.0
-0.014034393570014934 0.011341619994434825 0.0 0.0025109723461800917 0.0 0.0
-0.00819469733155669 0.005849924624829774 0.0 0.0014009284434533978 0.0 0.0
-0.004472562611975581 0.002564772392236348 0.0 0.0007657725489298893 0.0 0.0
-0.0024561265399994496 0.001093662115206005 0.0 0.0006861999904136577 0.0 0.0
-0.0014810316021983479 0.0006183752645841663 0.0 0.000889527770896553 0.0 0.0
-0.0008592634592847298 0.00036429485321401895 0.0 0.0009211988463446062 0.0 0.0
-0.000347901795811883 5.040490648153712e-05 0.0 0.0006332795390255706 0.0 0.0
-0.00013042653870559367 -2.015861976323456e-05 0.0 0.0003327797051802875 0.0 0.0
-0.00013195449690671772 1.3865109130918178e-05 0.0 -0.00018695580269425063 0.0 0.0
-0.00035680733817108207 8.861342932098581e-05 0.0 -0.00031737095641156624 0.0 0.0
-0.0009178357703090723 0.00038914776654711957 0.0 -0.00044775137786412175 0.0 0.0
-0.0016551690534474552 0.0006748023801160665 0.0 -0.0004093911200817786 0.0 0.0
-0.0028793983535063987 0.0013292396618642369 0.0 -0.00023546643410421285 0.0 0.0
-0.0053341796886557 0.003277111181089775 0.0 -0.00026686696347316365 0.0 0.0
-0.009627845765194707 0.007166702688142906 0.0 -0.0006107143480507755 0.0 0.0
-0.01617474982147909 0.013357951257629395 0.0 -0.0011920432597703604 0.0 0.0
-0.025252051651965535 0.022132152582243894 0.0 -0.0020199272051750817 0.0 0.0
-0.03690125786882796 0.03350659097515454 0.0 -0.0030562971456530013 0.0 0.0
-0.05096116260026812 0.04729776006773745 0.0 -0.004190600568449521 0.0 0.0
-0.06718799694704118 0.06324829272902299 0.0 -0.005340538044854578 0.0 0.0
-0.08533559180706911 0.08111448667300727 0.0 -0.006520599449663358 0.0 0.0
-0.10511844640294778 0.10063724105912568 0.0 -0.007747184252860588 0.0 0.0
-0.12610627273348593 0.12142635779933389 0.0 -0.008944657816028918 0.0 0.0
-0.147584468009824 0.14280325219084744 0.0 -0.009859600548764938 0.0 0.0
-0.1684036338639786 0.1636290379519866 0.0 -0.010091357430087973 0.0 0.0
-0.18665494202678237 0.1820169826330143 0.0 -0.010059228859640291 0.0 0.0
-0.19843635981362653 0.19459914492507607 0.0 -0.014422519652350361 0.0 0.0
-0.1956069479004314 0.19476755573002272 0.0 -0.037083254346638936 0.0 0.0
-0.18917767089949367 0.17000222068596083 0.0 7.50267903359969e-15 0.0 0.0
-0.19560694790039884 0.1947675557300039 0.0 0.03708325434666303 0.0 0.0
-0.19843635981356125 0.1945991449250173 0.0 0.014422519652373726 0.0 0.0
-0.18665494202669095 0.1820169826329245 0.0 0.010059228859647388 0.0 0.0
-0.16840363386387125 0.1636290379518703 0.0 0.01009135743008676 0.0 0.0
-0.1475844680097086 0.14280325219074136 0.0 0.009859600548763824 0.0 0.0
-0.12610627273336825 0.12142635779921201 0.0 0.008944657816023906 0.0 0.0
-0.10511844640283054 0.10063724105901303 0.0 0.007747184252860757 0.0 0.0
-0.0853355918069541 0.08111448667289271 0.0 0.006520599449657459 0.0 0.0
-0.0671879969469351 0.06324829272891322 0.0 0.005340538044847018 0.0 0.0
-0.050961162600176343 0.04729776006764873 0.0 0.004190600568437416 0.0 0.0
-0.03690125786875282 0.033506590975078784 0.0 0.0030562971456427578 0.0 0.0
-0.02525205165190806 0.022132152582186346 0.0 0.0020199272051718105 0.0 0.0
-0.016174749821437264 0.013357951257591396 0.0 0.0011920432597653514 0.0 0.0
-0.009627845765167961 0.007166702688118696 0.0 0.0006107143480492715 0.0 0.0
-0.0053341796886419695 0.003277111181078413 0.0 0.00026686696347178655 0.0 0.0
-0.0028793983535005023 0.001329239661860874 0.0 0.0002354664341030026 0.0 0.0
-0.0016551690534455496 0.0006748023801149222 0.0 0.00040939112008076467 0.0 0.0
-0.0009178357703082834 0.00038914776654626646 0.0 0.00044775137786403653 0.0 0.0
-0.00035680733817047323 8.861342932127142e-05 0.0 0.0003173709564121862 0.0 0.0
-0.00013195449690620142 1.3865109130734489e-05 0.0 0.00018695580269704546 0.0 0.0
-9.067194454311789e-05 1.6806893802896118e-05 0.0 -0.00011370906304360932 0.0 0.0
-0.00032244831361991316 0.00010132033649476068 0.0 -0.00013194342055030333 0.0 0.0
-0.0009605233388926724 0.0003983119798542275 0.0 -0.00014662828415324363 0.0 0.0
-0.0018682671977600567 0.000708891913269581 0.0 -7.42559429805357e-05 0.0 0.0
-0.00337549647614679 0.0014691664377475175 0.0 0.00020257492472530248 0.0 0.0
-0.006256383350730825 0.003658551789056828 0.0 0.00043921421712647614 0.0 0.0
-0.01108509880186414 0.007838030816039827 0.0 0.0005549240451665491 0.0 0.0
-0.018294779192521222 0.014367758672950391 0.0 0.000589171981828805 0.0 0.0
-0.02824135379474808 0.023579314980031338 0.0 0.0005332321493901632 0.0 0.0
-0.041040151143348545 0.0355266730753224 0.0 0.0003424633924239118 0.0 0.0
-0.05656401484982914 0.050043814163802464 0.0 5.703769987927196e-05 0.0 0.0
-0.07455346938467369 0.06686909899148251 0.0 -0.0003078951320388285 0.0 0.0
-0.09469208805959523 0.0857306223504509 0.0 -0.0007772633686695682 0.0 0.0
-0.11660575632357853 0.10632351645575559 0.0 -0.0013235890121599536 0.0 0.0
-0.13973658405387257 0.12819577397253437 0.0 -0.0019473321253268353 0.0 0.0
-0.1631522453570445 0.15055715695544997 0.0 -0.0025188728987918883 0.0 0.0
-0.18543333518407573 0.17214649151408606 0.0 -0.002730958443467312 0.0 0.0
-0.20473426271455314 0.1911613792384669 0.0 -0.002436320378004779 0.0 0.0
-0.2188514951482619 0.20487536091578865 0.0 -0.004935640419927919 0.0 0.0
-0.22241346424067931 0.2077998229035628 0.0 -0.028493661315147363 0.0 0.0
-0.22051180307789583 0.18438217015681457 0.0 3.191891195797325e-15 0.0 0.0
-0.22241346424064326 0.20779982290355292 0.0 0.028493661315155783 0.0 0.0
-0.21885149514818694 0.2048753609157339 0.0 0.004935640419934332 0.0 0.0
-0.20473426271444817 0.19116137923836418 0.0 0.0024363203780072215 0.0 0.0
-0.18543333518395483 0.1721464915139674 0.0 0.002730958443466186 0.0 0.0
-0.16315224535691725 0.15055715695533695 0.0 0.0025188728987933957 0.0 0.0
-0.13973658405374317 0.12819577397241078 0.0 0.0019473321253209233 0.0 0.0
-0.11660575632344884 0.10632351645563404 0.0 0.001323589012159003 0.0 0.0
-0.09469208805946895 0.08573062235033446 0.0 0.0007772633686636485 0.0 0.0
-0.07455346938455717 0.0668690989913652 0.0 0.0003078951320353643 0.0 0.0
-0.05656401484972885 0.05004381416370735 0.0 -5.703769988352897e-05 0.0 0.0
-0.041040151143266465 0.03552667307524121 0.0 -0.0003424633924274398 0.0 0.0
-0.028241353794684617 0.0235793149799726 0.0 -0.0005332321493909374 0.0 0.0
-0.01829477919247476 0.014367758672909417 0.0 -0.0005891719818278056 0.0 0.0
-0.011085098801833037 0.007838030816011605 0.0 -0.0005549240451667792 0.0 0.0
-0.006256383350714146 0.0036585517890445627 0.0 -0.00043921421712439274 0.0 0.0
-0.0033754964761400267 0.0014691664377408562 0.0 -0.00020257492472448943 0.0 0.0
-0.0018682671977575606 0.000708891913267645 0.0 7.425594297852655e-05 0.0 0.0
-0.0009605233388912642 0.00039831197985428987 0.0 0.00014662828415245167 0.0 0.0
-0.0003224483136193214 0.00010132033649506202 0.0 0.00013194342055175746 0.0 0.0
-9.067194454273318e-05 1.6806893802591362e-05 0.0 0.00011370906304813733 0.0 0.0
SCALARS Statev float 8
LOOKUP_TABLE default
0.0 0.02027175692526243 0.016309982316285977 -0.01931867556804057 0.0030086932517545788 -0.001265473031169759 0.0 0.0
0.0 0.007204804586530656 0.005357182490509367 -0.003451004500564536 -0.0019061779899448292 -0.007410275272548041 0.0 0.0
0.0 0.00022093586513451612 0.00027719675219139284 -0.00016751784398249747 -0.00010967890820889527 -0.00041211172904428783 0.0 0.0
0.0 0.00021323114384257192 0.00012698941733899153 -9.116984233879338e-05 -3.5819575000198595e-05 3.652005049565597e-05 0.0 0.0
0.0 0.0012811415264020309 0.0009519745417528942 -0.0007027176717248206 -0.0002492568700280735 0.0001946836115607143 0.0 0.0
0.0 0.0034299493701233684 0.0033338427046043914 -0.0026895093033873258 -0.0006443334012170679 0.0003949583999788155 0.0 0.0
0.0 0.008432312663818487 0.007690661188847932 -0.0067077076045959465 -0.0009829535842519783 0.0005441387158817955 0.0 0.0
0.0 0.016117842530375317 0.014478617710455995 -0.013229270611508706 -0.0012493470989472823 0.0006047889007675351 0.0 0.0
0.0 0.026987565536724753 0.024006119840222703 -0.022502035237516847 -0.0015040846027058407 0.0005729791981826836 0.0 0.0
0.0 0.04118406728192182 0.03636926976173085 -0.03457819582708471 -0.001791073934646167 0.000410809805621237 0.0 0.0
0.0 0.05855457861765919 0.051442597571158946 -0.04931484443284245 -0.0021277531383164495 0.00014630289033887983 0.0 0.0
0.0 0.07848408548049254 0.06898049180006768 -0.06646448580424547 -0.0025160059958221387 -0.0002080570848735201 0.0 0.0
0.0 0.10099414101528142 0.08869028470271086 -0.08574677603599887 -0.0029435086667119904 -0.0006623093077696234 0.0 0.0
0.0 0.125669381751114 0.11026264677345515 -0.10686788515369086 -0.0033947616197640856 -0.0011672316911846019 0.0 0.0
0.0 0.15205157832787786 0.13329418598859008 -0.12944439478682387 -0.0038497912017660682 -0.001742461414412028 0.0 0.0
0.0 0.17944912580493266 0.15714467283853764 -0.15285897432409845 -0.004285698514439072 -0.002354501224123901 0.0 0.0
0.0 0.20671282835102134 0.1808469696094385 -0.17616818864008937 -0.0046787809693492974 -0.0028774543544687363 0.0 0.0
0.0 0.23234447175361722 0.20311325711450645 -0.19810741197704165 -0.005005845137464859 -0.0031188966975013058 0.0 0.0
0.0 0.2545890096332874 0.22243930353698455 -0.21717449389802812 -0.005264809638955955 -0.00293865178193543 0.0 0.0
0.0 0.2710799088290372 0.23697636184563162 -0.2315501150682811 -0.00542624677735083 -0.0035644857504435095 0.0 0.0
0.0 0.2782252446230107 0.24286279147829193 -0.2374535613864953 -0.005409230091796242 3.389649672058681e-15 0.0 0.0
0.0 0.2710799088290021 0.2369763618456015 -0.23155011506825124 -0.005426246777350378 0.0035644857504521475 0.0 0.0
0.0 0.25458900963321096 0.2224393035369172 -0.21717449389796184 -0.005264809638955155 0.002938651781942723 0.0 0.0
0.0 0.23234447175351033 0.20311325711441286 -0.19810741197695025 -0.005005845137462503 0.0031188966975065156 0.0 0.0
0.0 0.20671282835088722 0.18084696960932187 -0.1761681886399753 -0.0046787809693468385 0.0028774543544682783 0.0 0.0
0.0 0.1794491258047986 0.1571446728384198 -0.152858974323983 -0.00428569851443675 0.0023545012241175476 0.0 0.0
0.0 0.15205157832773786 0.13329418598846787 -0.12944439478670416 -0.003849791201763484 0.001742461414411838 0.0 0.0
0.0 0.1256693817509797 0.11026264677333775 -0.10686788515357627 -0.0033947616197616427 0.0011672316911845735 0.0 0.0
0.0 0.10099414101515007 0.08869028470259627 -0.08574677603588664 -0.0029435086667094932 0.0006623093077664528 0.0 0.0
0.0 0.0784840854803662 0.06898049179995759 -0.06646448580413689 -0.0025160059958205835 0.00020805708486896796 0.0 0.0
0.0 0.058554578617554996 0.051442597571067894 -0.04931484443275358 -0.0021277531383142624 -0.00014630289034486474 0.0 0.0
0.0 0.04118406728183907 0.03636926976165835 -0.03457819582701415 -0.0017910739346442951 -0.0004108098056240866 0.0 0.0
0.0 0.02698756553666188 0.024006119840167192 -0.02250203523746316 -0.0015040846027039973 -0.0005729791981823288 0.0 0.0
0.0 0.01611784253033031 0.01447861771041593 -0.01322927061146972 -0.0012493470989461905 -0.0006047889007688284 0.0 0.0
0.0 0.00843231266379041 0.007690661188822083 -0.006707707604571685 -0.0009829535842503941 -0.0005441387158811011 0.0 0.0
0.0 0.0034299493701093003 0.0033338427045906975 -0.0026895093033752855 -0.0006443334012154185 -0.0003949583999780253 0.0 0.0
0.0 0.0012811415263950874 0.0009519745417473908 -0.0007027176717206802 -0.00024925687002670845 -0.00019468361155963607 0.0 0.0
0.0 0.00021323114384170594 0.00012698941733896372 -9.11698423388267e-05 -3.5819575000136294e-05 -3.6520050495400744e-05 0.0 0.0
0.0 0.0002209358651337799 0.00027719675219084255 -0.0001675178439821836 -0.00010967890820865809 0.00041211172904283966 0.0 0.0
0.0 0.007204804586519878 0.005357182490503957 -0.0034510045005603437 -0.0019061779899436047 0.007410275272538646 0.0 0.0
0.0 0.02027175692524133 0.016309982316272145 -0.019318675568021308 0.003008693251749144 0.0012654730311260334 0.0 0.0
0.0 0.01666783015687092 0.012581860219541191 -0.01611577399000274 0.003533913770461541 -0.0007674344409829922 0.0 0.0
0.0 0.00457414693799429 0.0032926702688089765 -0.0021097971658845566 -0.0011828731029244123 -0.005972853581179199 0.0 0.0
0.0 -9.508167110188879e-05 -7.933727981666611e-05 7.528047011268786e-05 4.056809703978216e-06 -0.00012260494063869043 0.0 0.0
0.0 6.35065960391454e-05 5.470227541684215e-05 -3.9435861384900777e-05 -1.52664140319413e-05 1.754517757267843e-05 0.0 0.0
0.0 0.0007659843436921192 0.0006464703129588587 -0.00048122203593719355 -0.00016524827702166467 7.478723924797893e-05 0.0 0.0
0.0 0.0029756189857480715 0.0026295085690807144 -0.002143740250767708 -0.0004857683183130092 4.5724219450345514e-05 0.0 0.0
0.0 0.007233548805345123 0.0065741688155839025 -0.005811836311206415 -0.0007623325043774868 -0.0002965768924396587 0.0 0.0
0.0 0.014370801893811293 0.012801267527418728 -0.01187611808783014 -0.0009251494395885892 -0.0008743856538216261 0.0 0.0
0.0 0.02451470854951901 0.021596842936500344 -0.020562050391390665 -0.001034792545109668 -0.0016900048513370537 0.0 0.0
0.0 0.03767830343316653 0.03299898683869534 -0.03186948193695988 -0.0011295049017354581 -0.0027130323465860873 0.0 0.0
0.0 0.05371384120060275 0.04685171654308619 -0.04563069892758375 -0.0012210176155025064 -0.0038512983868265885 0.0 0.0
0.0 0.07244687300041085 0.06291944084911429 -0.06160490343772905 -0.001314537411385183 -0.005023390119317652 0.0 0.0
0.0 0.09301632228172174 0.08096956331974935 -0.07955940234372566 -0.0014101609760236668 -0.006224384934773311 0.0 0.0
0.0 0.11586136415452142 0.10073936770569442 -0.09923848354848898 -0.0015008841572053953 -0.007450403715842555 0.0 0.0
0.0 0.14027083762155595 0.12187160955728109 -0.12029511340488493 -0.0015764961523959788 -0.008658063222829838 0.0 0.0
0.0 0.16562480633007604 0.14380058962791004 -0.14217223350231528 -0.0016283561255949549 -0.009730969268355935 0.0 0.0
0.0 0.19095485214788976 0.1656671373571707 -0.16401567637066783 -0.001651460986502785 -0.010402320271932122 0.0 0.0
0.0 0.21490095119074915 0.18630418433757703 -0.18465707107688278 -0.0016471132606942925 -0.010327219785917255 0.0 0.0
0.0 0.2356715564372112 0.20420597373504307 -0.2026021661236913 -0.0016038076113516725 -0.009377300611298576 0.0 0.0
0.0 0.250839819046857 0.2171961162369837 -0.21576343173633547 -0.0014326845006482189 -0.008496879523409988 0.0 0.0
0.0 0.2575065410133414 0.22227576834442317 -0.2211045986293507 -0.0011711697150727175 9.18709552877317e-15 0.0 0.0
0.0 0.2508398190468195 0.21719611623695065 -0.21576343173630244 -0.0014326845006481159 0.008496879523434236 0.0 0.0
0.0 0.23567155643713583 0.20420597373497823 -0.2026021661236254 -0.0016038076113526136 0.009377300611323098 0.0 0.0
0.0 0.21490095119064975 0.18630418433749132 -0.18465707107679727 -0.001647113260694094 0.010327219785932169 0.0 0.0
0.0 0.1909548521477673 0.16566713735706545 -0.1640156763705623 -0.0016514609865033113 0.010402320271933472 0.0 0.0
0.0 0.16562480632995016 0.14380058962780168 -0.14217223350220642 -0.001628356125594821 0.009730969268348065 0.0 0.0
0.0 0.1402708376214273 0.12187160955716898 -0.12029511340477379 -0.001576496152395268 0.008658063222828319 0.0 0.0
0.0 0.11586136415439388 0.10073936770558407 -0.09923848354837879 -0.0015008841572051398 0.007450403715838768 0.0 0.0
0.0 0.09301632228159973 0.08096956331964396 -0.07955940234362072 -0.0014101609760232652 0.006224384934765867 0.0 0.0
0.0 0.07244687300029566 0.06291944084901444 -0.06160490343762916 -0.001314537411385282 0.005023390119309608 0.0 0.0
0.0 0.05371384120050868 0.046851716543004865 -0.04563069892750304 -0.001221017615501838 0.0038512983868158185 0.0 0.0
0.0 0.03767830343308794 0.0329989868386266 -0.031869481936891694 -0.0011295049017348393 0.0027130323465783058 0.0 0.0
0.0 0.024514708549460487 0.021596842936448635 -0.020562050391339654 -0.0010347925451089843 0.0016900048513327835 0.0 0.0
0.0 0.01437080189377055 0.012801267527382625 -0.011876118087794678 -0.0009251494395879702 0.0008743856538172667 0.0 0.0
0.0 0.007233548805320794 0.006574168815561925 -0.0058118363111854116 -0.0007623325043765047 0.0002965768924374584 0.0 0.0
0.0 0.002975618985733899 0.002629508569068264 -0.0021437402507567095 -0.0004857683183115523 -4.572421945132532e-05 0.0 0.0
0.0 0.0007659843436874747 0.0006464703129552843 -0.00048122203593450424 -0.00016524827702078028 -7.478723924744297e-05 0.0 0.0
0.0 6.350659603889876e-05 5.4702275417194455e-05 -3.943586138520147e-05 -1.526641403199289e-05 -1.754517757250837e-05 0.0 0.0
0.0 -9.50816711021814e-05 -7.933727981627166e-05 7.52804701123468e-05 4.056809703924681e-06 0.00012260494063840704 0.0 0.0
0.0 0.004574146937982966 0.0032926702688027953 -0.0021097971658800303 -0.0011828731029227657 0.0059728535811676125 0.0 0.0
0.0 0.01666783015684764 0.012581860219523459 -0.016115773989980688 0.0035339137704572215 0.0007674344409500123 0.0 0.0
0.0 0.012584288613081399 0.009299931190656162 -0.012229638702754096 0.0029297075120979354 -0.003438746598708918 0.0 0.0
0.0 0.0031576518378809474 0.002022991051904357 -0.001146333611491432 -0.0008766574404129284 -0.005227422075253343 0.0 0.0
0.0 7.016550261816902e-07 1.6087605690435919e-06 -1.349709104823008e-06 -2.590514642205788e-07 7.796477315903153e-07 0.0 0.0
0.0 3.0134661552393336e-06 1.4615071946632924e-06 -3.3138561144879196e-07 -1.1301215832146204e-06 7.4145195931645405e-06 0.0 0.0
0.0 0.000380652087986085 0.0003408796027629656 -0.00024723193298150926 -9.364766978145612e-05 1.041309945989426e-05 0.0 0.0
0.0 0.0021675297173037707 0.0018684313041756216 -0.0014817569943047395 -0.0003866743098708804 -0.00014793402025388173 0.0 0.0
0.0 0.005706077254479774 0.005254210632732246 -0.004558339346749683 -0.000695871285982564 -0.0008137756379575378 0.0 0.0
0.0 0.01209878597642332 0.010776616009837044 -0.009900151636708928 -0.0008764643731281079 -0.0019229456753735393 0.0 0.0
0.0 0.021186304945984103 0.018655577988361274 -0.017670304452001795 -0.0009852735363594586 -0.0034712235699117014 0.0 0.0
0.0 0.03307113163112061 0.028873003740570998 -0.02780040612411002 -0.001072597616460998 -0.005368063068609373 0.0 0.0
0.0 0.047459509283103586 0.041246313067895876 -0.040088382307966054 -0.0011579307599297952 -0.007440719385234731 0.0 0.0
0.0 0.06397473866370926 0.055553510287576754 -0.05430670824899008 -0.0012468020385866968 -0.009528888655583023 0.0 0.0
0.0 0.08273749815435325 0.07159747385675376 -0.07026026389216648 -0.0013372099645871957 -0.011596506977513164 0.0 0.0
0.0 0.10282478537312774 0.08918744925383848 -0.08776473979107331 -0.0014227094627652158 -0.013688699992022177 0.0 0.0
0.0 0.1246345479972635 0.10802902385969586 -0.10653338166615624 -0.001495642193539759 -0.01575238668053323 0.0 0.0
0.0 0.14734332296604377 0.12765598859943866 -0.126107752923235 -0.0015482356762034797 -0.017562977366001903 0.0 0.0
0.0 0.17013481012654752 0.14735224238192543 -0.1457767712243439 -0.0015754711575815673 -0.01869824136733908 0.0 0.0
0.0 0.19178300805434725 0.16606932015438453 -0.16449993805211857 -0.0015693821022662445 -0.018658569020560078 0.0 0.0
0.0 0.21057790871642162 0.1822883545265023 -0.18078481731314253 -0.0015035372133595892 -0.017207764404674038 0.0 0.0
0.0 0.22418803578503887 0.1939848514132057 -0.19258262347702546 -0.0014022279361796644 -0.014465533663796864 0.0 0.0
0.0 0.2304653968251923 0.19869885708224078 -0.1975972670593256 -0.0011015900229153126 1.7754027414884632e-14 0.0 0.0
0.0 0.2241880357850092 0.1939848514131783 -0.19258262347699848 -0.0014022279361795746 0.014465533663839202 0.0 0.0
0.0 0.21057790871635737 0.18228835452644618 -0.1807848173130867 -0.0015035372133595734 0.017207764404716663 0.0 0.0
0.0 0.19178300805426055 0.1660693201543094 -0.16449993805204333 -0.0015693821022660685 0.018658569020585464 0.0 0.0
0.0 0.1701348101264373 0.1473522423818311 -0.14577677122424892 -0.0015754711575822443 0.01869824136734121 0.0 0.0
0.0 0.14734332296593378 0.12765598859934307 -0.12610775292314036 -0.001548235676202722 0.017562977365993264 0.0 0.0
0.0 0.12463454799714978 0.10802902385959706 -0.1065333816660583 -0.0014956421935387314 0.015752386680528346 0.0 0.0
0.0 0.10282478537300956 0.08918744925373653 -0.0877647397909712 -0.0014227094627654088 0.01368869999201482 0.0 0.0
0.0 0.0827374981542476 0.07159747385666242 -0.0702602638920759 -0.0013372099645865285 0.0115965069775021 0.0 0.0
0.0 0.0639747386636082 0.05555351028748977 -0.054306708248903254 -0.0012468020385864424 0.0095288886555687 0.0 0.0
0.0 0.047459509283021166 0.041246313067824156 -0.040088382307895104 -0.0011579307599290534 0.007440719385219244 0.0 0.0
0.0 0.03307113163104784 0.02887300374050733 -0.027800406124046655 -0.0010725976164606586 0.005368063068596166 0.0 0.0
0.0 0.021186304945931073 0.018655577988314864 -0.017670304451956016 -0.000985273536358843 0.003471223569902964 0.0 0.0
0.0 0.012098785976387126 0.010776616009805404 -0.009900151636677998 -0.0008764643731273836 0.0019229456753663554 0.0 0.0
0.0 0.005706077254460321 0.005254210632714558 -0.004558339346733047 -0.0006958712859815131 0.0008137756379536168 0.0 0.0
0.0 0.0021675297172913444 0.0018684313041649131 -0.0014817569942956084 -0.000386674309869305 0.000147934020251797 0.0 0.0
0.0 0.000380652087983367 0.00034087960276111255 -0.00024723193298022914 -9.364766978088346e-05 -1.0413099459686513e-05 0.0 0.0
0.0 3.013466155326466e-06 1.4615071949225906e-06 -3.3138561164803465e-07 -1.1301215832745355e-06 -7.414519593053155e-06 0.0 0.0
0.0 7.016550262539091e-07 1.6087605689479627e-06 -1.3497091047477871e-06 -2.5905146420017686e-07 -7.79647731613036e-07 0.0 0.0
0.0 0.003157651837871856 0.0020229910518991074 -0.001146333611487931 -0.0008766574404111712 0.005227422075239352 0.0 0.0
0.0 0.012584288613056353 0.009299931190637623 -0.012229638702730966 0.002929707512093326 0.0034387465986866718 0.0 0.0
0.0 0.009645756943744192 0.006951957426537337 -0.009326321883042173 0.002374364456504806 -0.003703086765368738 0.0 0.0
0.0 0.0023317271695622527 0.001405006718719065 -0.0007787227544008864 -0.0006262839643181704 -0.004016490122959668 0.0 0.0
0.0 0.0 0.0 0.0 0.0 0.0 0.0 0.0
0.0 -5.656104078845539e-06 -5.357227109830674e-06 4.239760617740909e-06 1.1174664920897638e-06 4.2214303663277875e-06 0.0 0.0
0.0 0.0001517760467736649 0.0001283119769448269 -8.946556117076002e-05 -3.8846415774066286e-05 1.383386752820811e-06 0.0 0.0
0.0 0.0013666672480904924 0.0012276411789893845 -0.0009464111091295516 -0.00028123006985983167 -0.00024968711131166855 0.0 0.0
0.0 0.004505261053434874 0.003984217361689178 -0.0033759738683948686 -0.0006082434932943085 -0.0010584679359434582 0.0 0.0
0.0 0.009881658741412249 0.00877443043716817 -0.007957447439984316 -0.0008169829971838491 -0.0026040109331927318 0.0 0.0
0.0 0.01793082757785169 0.015698215102565628 -0.014767934769778966 -0.0009302803327866624 -0.004708868340577799 0.0 0.0
0.0 0.028456380143809402 0.024700552708484754 -0.02368854305478361 -0.0010120096537011211 -0.007265274734529662 0.0 0.0
0.0 0.04110988840673303 0.0355773285113781 -0.034486768655025445 -0.0010905598563525918 -0.010034036169041752 0.0 0.0
0.0 0.05577015620898816 0.048114492671495264 -0.046940612671098704 -0.001173880000396554 -0.0128142625466099 0.0 0.0
0.0 0.07194335435620708 0.06215333070411116 -0.06089376831063482 -0.0012595623934762907 -0.015560481325865816 0.0 0.0
0.0 0.09003847137027873 0.07754236046871374 -0.07620297285571948 -0.0013393876129942466 -0.018304183994809656 0.0 0.0
0.0 0.10910512191813902 0.0940741255711931 -0.09266505535552445 -0.0014090702156685526 -0.02099327054677938 0.0 0.0
0.0 0.12898169989139455 0.1113921708070905 -0.10992837575747211 -0.001463795049618382 -0.023382422645538796 0.0 0.0
0.0 0.14933512764200763 0.12891470352645795 -0.1274205566826174 -0.0014941468438405014 -0.02498186130091869 0.0 0.0
0.0 0.16876282316810948 0.14571745890498494 -0.14423099624142924 -0.0014864626635555966 -0.02518566769610456 0.0 0.0
0.0 0.1857196559335015 0.16041067752842908 -0.15897598010163874 -0.00143469742679047 -0.02337855610547786 0.0 0.0
0.0 0.19819022748735052 0.17125320483441542 -0.16988414966739399 -0.001369055167021935 -0.018628398429270134 0.0 0.0
0.0 0.20448262704225895 0.17590442805055012 -0.17495415196063088 -0.0009502760899190247 2.3944388138907868e-14 0.0 0.0
0.0 0.1981902274873213 0.17125320483438836 -0.16988414966736554 -0.0013690551670230459 0.0186283984293263 0.0 0.0
0.0 0.18571965593345316 0.1604106775283846 -0.1589759801015963 -0.0014346974267881556 0.023378556105535762 0.0 0.0
0.0 0.1687628231680309 0.1457174589049163 -0.1442309962413601 -0.0014864626635560816 0.025185667696137008 0.0 0.0
0.0 0.1493351276419142 0.12891470352637788 -0.1274205566825372 -0.0014941468438406432 0.02498186130092249 0.0 0.0
0.0 0.12898169989129682 0.1113921708070058 -0.10992837575738804 -0.0014637950496177207 0.023382422645528898 0.0 0.0
0.0 0.1091051219180402 0.09407412557110711 -0.09266505535543916 -0.0014090702156679684 0.02099327054677161 0.0 0.0
0.0 0.09003847137017869 0.07754236046862688 -0.07620297285563316 -0.0013393876129937636 0.01830418399480027 0.0 0.0
0.0 0.07194335435611304 0.06215333070403035 -0.06089376831055464 -0.0012595623934755793 0.015560481325851073 0.0 0.0
0.0 0.05577015620890351 0.04811449267142205 -0.04694061267102602 -0.0011738800003961284 0.012814262546589805 0.0 0.0
0.0 0.041109888406656005 0.03557732851131169 -0.03448676865495955 -0.0010905598563520943 0.010034036169020806 0.0 0.0
0.0 0.02845638014374637 0.024700552708430364 -0.023688543054729574 -0.0010120096537007822 0.007265274734511332 0.0 0.0
0.0 0.017930827577802084 0.015698215102522787 -0.014767934769736618 -0.0009302803327861626 0.004708868340564385 0.0 0.0
0.0 0.009881658741380533 0.008774430437139949 -0.007957447439956886 -0.0008169829971830511 0.002604010933183092 0.0 0.0
0.0 0.004505261053415964 0.003984217361673148 -0.003375973868380337 -0.0006082434932928093 0.001058467935938467 0.0 0.0
0.0 0.0013666672480818836 0.0012276411789824498 -0.0009464111091238143 -0.00028123006985863503 0.0002496871113095 0.0 0.0
0.0 0.0001517760467719764 0.00012831197694389895 -8.946556117011691e-05 -3.884641577378176e-05 -1.3833867527473825e-06 0.0 0.0
0.0 -5.656104079152434e-06 -5.357227109777356e-06 4.239760617696346e-06 1.1174664920810326e-06 -4.221430366287884e-06 0.0 0.0
0.0 0.0 0.0 0.0 0.0 0.0 0.0 0.0
0.0 0.002331727169554261 0.001405006718714427 -0.00077872275439779 -0.0006262839643166402 0.004016490122947543 0.0 0.0
0.0 0.009645756943722661 0.006951957426520671 -0.00932632188302118 0.0023743644565005044 0.003703086765352694 0.0 0.0
0.0 0.007171663624010824 0.005138182357262125 -0.007016181409738467 0.0018779990524763516 -0.003179397594106592 0.0 0.0
0.0 0.0018674774282833404 0.000945129572694888 -0.0005138183045500681 -0.0004313112681448199 -0.0029452022549942333 0.0 0.0
0.0 0.0 0.0 0.0 0.0 0.0 0.0 0.0
0.0 -9.37998503558367e-07 -3.5796284553418456e-07 2.8954373532824674e-07 6.841911020593874e-08 5.900141649368568e-07 0.0 0.0
0.0 5.5582678249691115e-06 1.8135457401415092e-05 -9.714963292130957e-06 -8.420494109284057e-06 1.566280761578836e-05 0.0 0.0
0.0 0.0008188564129540021 0.0007030896421209383 -0.0005278707724894606 -0.00017521886963147833 -0.00024562624973876703 0.0 0.0
0.0 0.0033468244574341756 0.0028279265677736334 -0.002331377413966767 -0.0004965491538068605 -0.0011190291443352184 0.0 0.0
0.0 0.007758730915989809 0.00682523179624772 -0.006081719802846561 -0.000743511993401168 -0.002877567903360351 0.0 0.0
0.0 0.014721375190189675 0.012762864073280977 -0.01189492014963252 -0.0008679439236484628 -0.005394498116423509 0.0 0.0
0.0 0.02383953024495675 0.020523459329872363 -0.019577405714216588 -0.0009460536156557786 -0.008400973668434978 0.0 0.0
0.0 0.03484345564465105 0.029886870607519888 -0.02886865884009379 -0.0010182117674260845 -0.011638980668072788 0.0 0.0
0.0 0.047473906933635325 0.04064568324992429 -0.03955034634435702 -0.001095336905567249 -0.014884815589489266 0.0 0.0
0.0 0.06162719232650369 0.0526679421168958 -0.05149271121800132 -0.0011752308988944727 -0.018093791193490232 0.0 0.0
0.0 0.07679800079773387 0.06585880696181239 -0.06460779876923278 -0.001251008192579621 -0.021293148389843666 0.0 0.0
0.0 0.09344167762206416 0.08006619619451645 -0.0787490266288316 -0.0013171695656848032 -0.02440228926229272 0.0 0.0
0.0 0.11092651323688803 0.09504056447460783 -0.09366975979811058 -0.0013708046764972937 -0.027175600405445845 0.0 0.0
0.0 0.12851021765291365 0.1103508932252501 -0.10894536124264442 -0.001405531982605674 -0.02918133691308543 0.0 0.0
0.0 0.14569393608784975 0.12524505993838742 -0.12383656009264563 -0.0014084998457416938 -0.029745545236132095 0.0 0.0
0.0 0.16100667713414288 0.13856137997075263 -0.1371876026838463 -0.001373777286906186 -0.027768115319449633 0.0 0.0
0.0 0.1727047740726605 0.14881937736760353 -0.14749532381410646 -0.0013240535534969622 -0.021724781460096536 0.0 0.0
0.0 0.1792494804974616 0.15357027318565686 -0.15280896528478663 -0.0007613079008702063 2.7989763284885782e-14 0.0 0.0
0.0 0.17270477407262425 0.14881937736757023 -0.14749532381407088 -0.001324053553499267 0.02172478146015941 0.0 0.0
0.0 0.16100667713409922 0.13856137997071105 -0.1371876026838059 -0.0013737772869049844 0.027768115319513422 0.0 0.0
0.0 0.14569393608778325 0.12524505993832868 -0.1238365600925865 -0.0014084998457423296 0.029745545236170047 0.0 0.0
0.0 0.12851021765283765 0.11035089322518447 -0.10894536124257971 -0.001405531982604674 0.02918133691309243 0.0 0.0
0.0 0.11092651323680124 0.09504056447453313 -0.09366975979803516 -0.0013708046764979768 0.02717560040543342 0.0 0.0
0.0 0.09344167762197571 0.08006619619444003 -0.07874902662875544 -0.0013171695656846514 0.024402289262279803 0.0 0.0
0.0 0.0767980007976514 0.06585880696174082 -0.064607798769162 -0.0012510081925786963 0.021293148389832907 0.0 0.0
0.0 0.06162719232641924 0.052667942116823414 -0.05149271121792877 -0.001175230898894593 0.01809379119347249 0.0 0.0
0.0 0.047473906933562925 0.04064568324986206 -0.03955034634429543 -0.0010953369055666062 0.014884815589466853 0.0 0.0
0.0 0.03484345564458307 0.02988687060746214 -0.02886865884003666 -0.001018211767425498 0.011638980668046781 0.0 0.0
0.0 0.023839530244903682 0.020523459329827163 -0.019577405714171683 -0.0009460536156554586 0.008400973668413905 0.0 0.0
0.0 0.014721375190146544 0.012762864073244147 -0.011894920149595943 -0.0008679439236482029 0.005394498116407055 0.0 0.0
0.0 0.007758730915963088 0.006825231796224556 -0.006081719802824424 -0.000743511993400132 0.0028775679033493902 0.0 0.0
0.0 0.0033468244574187383 0.0028279265677610375 -0.00233137741395565 -0.0004965491538053868 0.0011190291443298696 0.0 0.0
0.0 0.0008188564129485141 0.0007030896421168607 -0.0005278707724862966 -0.00017521886963056422 0.00024562624973712403 0.0 0.0
0.0 5.558267824178749e-06 1.8135457401211262e-05 -9.714963292017387e-06 -8.420494109194018e-06 -1.566280761552427e-05 0.0 0.0
0.0 -9.379985034162849e-07 -3.579628456194598e-07 2.895437353939756e-07 6.841911022547747e-08 -5.900141650397071e-07 0.0 0.0
0.0 0.0 0.0 0.0 0.0 0.0 0.0 0.0
0.0 0.0018674774282758243 0.000945129572691142 -0.0005138183045475714 -0.0004313112681435694 0.002945202254984138 0.0 0.0
0.0 0.00717166362399329 0.0051381823572483575 -0.0070161814097209 0.001877999052472533 0.0031793975940955237 0.0 0.0
0.0 0.005291924931951709 0.0036772418329997407 -0.005107048454498107 0.0014298066214983637 -0.0024996023164697016 0.0 0.0
0.0 0.0011896635087318942 0.0006069450947266813 -0.00032324995210155185 -0.00028369514262512876 -0.0020642324988465214 0.0 0.0
0.0 0.0 0.0 0.0 0.0 0.0 0.0 0.0
0.0 -3.090466327284098e-07 1.208808968586069e-07 -9.253837541944275e-08 -2.8342521439164065e-08 -1.9668718941285417e-07 0.0 0.0
0.0 -2.5602230168154636e-05 -1.817459155847255e-05 1.5353888417699816e-05 2.8207031407727112e-06 3.157246284923985e-05 0.0 0.0
0.0 0.00036704137346833777 0.0003353371045150186 -0.00024519590905674077 -9.014119545827802e-05 -0.00018388388652440039 0.0 0.0
0.0 0.002091810680333627 0.0018444937927358095 -0.0014765295769338322 -0.00036796421580197886 -0.0010571081918759457 0.0 0.0
0.0 0.0060327820562616746 0.004971131198058729 -0.004327968599773147 -0.0006431625982855755 -0.0028009927290321905 0.0 0.0
0.0 0.01145783268823405 0.009887239740887005 -0.009094310388709673 -0.0007929293521773406 -0.005504492517691191 0.0 0.0
0.0 0.019310164235291208 0.016382664282795542 -0.01551002627660643 -0.000872638006189112 -0.008767746328778652 0.0 0.0
0.0 0.02858939004369631 0.024218895132061633 -0.023279760640833605 -0.0009391344912280334 -0.012251674490609495 0.0 0.0
0.0 0.039180344750443685 0.03319212744122181 -0.03218204407821675 -0.001010083363005009 -0.015740956315613376 0.0 0.0
0.0 0.05095943359023823 0.04319535521374577 -0.0421111000425973 -0.001084255171148493 -0.01918783209224202 0.0 0.0
0.0 0.06394066694893258 0.054175157714571695 -0.053020848286942854 -0.0011543094276288543 -0.022621434485891864 0.0 0.0
0.0 0.07779524163110905 0.06605285211951585 -0.06483595790218033 -0.001216894217335622 -0.025961139911292452 0.0 0.0
0.0 0.0923601459147396 0.07865890824856478 -0.07738938522529032 -0.0012695230232744217 -0.02895244387832354 0.0 0.0
0.0 0.10778381386802247 0.09169038802172888 -0.09038151396849893 -0.001308874053229864 -0.031227099846257527 0.0 0.0
0.0 0.12264960681901098 0.10464188630762997 -0.10331363177231498 -0.001328254535315058 -0.03215837604933193 0.0 0.0
0.0 0.13622795879942334 0.11665694217732503 -0.11534362473438749 -0.0013133174429374977 -0.030397269096736765 0.0 0.0
0.0 0.14740968469688026 0.12649904656675354 -0.12522706900943764 -0.0012719775573158678 -0.023913984112209356 0.0 0.0
0.0 0.15443102262666786 0.13147118894246534 -0.13092997814344148 -0.0005412107990237719 2.9672445056583285e-14 0.0 0.0
0.0 0.14740968469685606 0.12649904656672872 -0.12522706900941144 -0.0012719775573171973 0.023913984112276496 0.0 0.0
0.0 0.13622795879938626 0.11665694217728875 -0.11534362473435184 -0.0013133174429369977 0.030397269096801988 0.0 0.0
0.0 0.12264960681895995 0.10464188630758335 -0.10331363177226889 -0.001328254535314333 0.032158376049372016 0.0 0.0
0.0 0.10778381386795936 0.0916903880216744 -0.09038151396844536 -0.001308874053228969 0.03122709984626427 0.0 0.0
0.0 0.09236014591466384 0.07865890824849983 -0.07738938522522486 -0.0012695230232750443 0.02895244387831071 0.0 0.0
0.0 0.07779524163103439 0.06605285211945154 -0.0648359579021163 -0.0012168942173352137 0.025961139911277686 0.0 0.0
0.0 0.06394066694886497 0.05417515771451269 -0.05302084828688453 -0.0011543094276281517 0.02262143448588008 0.0 0.0
0.0 0.05095943359016955 0.04319535521368727 -0.04211110004253932 -0.0010842551711479455 0.019187832092224587 0.0 0.0
0.0 0.03918034475037982 0.03319212744116776 -0.03218204407816304 -0.0010100833630047037 0.01574095631558974 0.0 0.0
0.0 0.028589390043639272 0.02421889513201436 -0.0232797606407867 -0.0009391344912276617 0.012251674490581742 0.0 0.0
0.0 0.019310164235244866 0.016382664282756348 -0.015510026276567866 -0.000872638006188467 0.008767746328754811 0.0 0.0
0.0 0.011457832688201405 0.009887239740858922 -0.009094310388682218 -0.0007929293521767145 0.005504492517675307 0.0 0.0
0.0 0.006032782056237108 0.004971131198038936 -0.004327968599754351 -0.000643162598284584 0.002800992729020382 0.0 0.0
0.0 0.002091810680322736 0.0018444937927270962 -0.0014765295769264507 -0.00036796421580064534 0.0010571081918706341 0.0 0.0
0.0 0.0003670413734642607 0.0003353371045120816 -0.00024519590905455486 -9.014119545752635e-05 0.0001838838865225826 0.0 0.0
0.0 -2.5602230168891128e-05 -1.8174591558272618e-05 1.535388841754118e-05 2.820703140731416e-06 -3.157246284891504e-05 0.0 0.0
0.0 -3.0904663256946204e-07 1.208808968564598e-07 -9.253837541771364e-08 -2.8342521438742967e-08 1.9668718940347588e-07 0.0 0.0
0.0 0.0 0.0 0.0 0.0 0.0 0.0 0.0
0.0 0.0011896635087257684 0.0006069450947238089 -0.0003232499520996546 -0.0002836951426241534 0.0020642324988382676 0.0 0.0
0.0 0.005291924931937278 0.0036772418329884004 -0.0051070484544833 0.0014298066214948949 0.002499602316461765 0.0 0.0
0.0 0.0035982464684304665 0.002508785350467958 -0.003538090287366428 0.0010293049368984657 -0.001875458737327669 0.0 0.0
0.0 0.0007664083059841811 0.0003477353451634462 -0.00017255434713366285 -0.00017518099802978296 -0.0013343285089126584 0.0 0.0
0.0 1.5734592941222573e-07 7.148379167026532e-10 -7.331624633568543e-11 -6.415216703671971e-10 3.250372699491736e-08 0.0 0.0
0.0 1.5712585741700463e-07 6.304622250958064e-09 -5.866682075806125e-09 -4.379401751547683e-10 3.806782874179354e-08 0.0 0.0
0.0 -1.919350741533591e-05 -1.2519222620501062e-05 1.0034908728330404e-05 2.4843138921707158e-06 2.593325312654967e-05 0.0 0.0
0.0 0.00011526684764593974 0.00010036195781651185 -7.018303152920281e-05 -3.0178926287309166e-05 -7.591089478636024e-05 0.0 0.0
0.0 0.0012544958957564317 0.0010331560586186099 -0.000804065752982312 -0.0002290903056362973 -0.00085055130852056 0.0 0.0
0.0 0.00394270651362349 0.003314454236487646 -0.002803881113265896 -0.0005105731232217479 -0.0024995904604428075 0.0 0.0
0.0 0.00886458432774275 0.007114876703825191 -0.006420450889455707 -0.0006944258143694833 -0.005066482320984963 0.0 0.0
0.0 0.014719568036647084 0.012325611800528711 -0.01153959393926043 -0.0007860178612682853 -0.008344192512123025 0.0 0.0
0.0 0.022407692957117437 0.018619715581994368 -0.01776916308339004 -0.0008505524986043334 -0.011857305074162038 0.0 0.0
0.0 0.030990755193771143 0.025800510731859815 -0.02488506599367278 -0.0009154447381870606 -0.015372293831192327 0.0 0.0
0.0 0.04046790050317928 0.03378209725786946 -0.03279903852063873 -0.0009830587372306793 -0.018831355132059132 0.0 0.0
0.0 0.05085965436855427 0.04255118219338146 -0.041503206147331446 -0.0010479760460500598 -0.02227395607938576 0.0 0.0
0.0 0.06207177161960646 0.05208593294391358 -0.05097993687500493 -0.0011059960689085806 -0.02563458695624247 0.0 0.0
0.0 0.0743035407713914 0.06229194018923194 -0.061137203996419275 -0.0011547361928127256 -0.028676300423461625 0.0 0.0
0.0 0.08642784543768896 0.07299219189961502 -0.07179231614552213 -0.001199875754092909 -0.031054135892455637 0.0 0.0
0.0 0.09926800155909232 0.0839136404175338 -0.08267388629974468 -0.0012397541177889895 -0.032304067357489516 0.0 0.0
0.0 0.11163656366340399 0.0945899497895446 -0.09334108667803916 -0.0012488631115055745 -0.03115099919277972 0.0 0.0
0.0 0.12225571027638199 0.10409717495552115 -0.10288180305450527 -0.0012153719010159103 -0.025172711141044954 0.0 0.0
0.0 0.13002537866313907 0.10939487335672482 -0.1091051156956338 -0.0002897576610910984 2.9831172254635163e-14 0.0 0.0
0.0 0.12225571027636589 0.10409717495550203 -0.10288180305448584 -0.0012153719010162302 0.02517271114111179 0.0 0.0
0.0 0.11163656366337892 0.09458994978951794 -0.09334108667801277 -0.001248863111505194 0.03115099919284589 0.0 0.0
0.0 0.09926800155904736 0.08391364041749205 -0.08267388629970329 -0.001239754117788804 0.032304067357528714 0.0 0.0
0.0 0.08642784543763388 0.07299219189956797 -0.0717923161454754 -0.0011998757540925295 0.031054135892459422 0.0 0.0
0.0 0.07430354077132666 0.062291940189177 -0.061137203996363784 -0.00115473619281328 0.028676300423446946 0.0 0.0
0.0 0.062071771619550034 0.05208593294386435 -0.05097993687495655 -0.0011059960689077854 0.025634586956228486 0.0 0.0
0.0 0.05085965436849919 0.042551182193333974 -0.0415032061472843 -0.0010479760460496413 0.022273956079372527 0.0 0.0
0.0 0.040467900503126014 0.03378209725782433 -0.032799038520594584 -0.0009830587372297753 0.018831355132042454 0.0 0.0
0.0 0.03099075519372002 0.02580051073181742 -0.02488506599363053 -0.0009154447381869168 0.015372293831170164 0.0 0.0
0.0 0.02240769295707098 0.018619715581956898 -0.017769163083352815 -0.0008505524986040833 0.011857305074134222 0.0 0.0
0.0 0.014719568036609195 0.012325611800497713 -0.01153959393922977 -0.0007860178612679445 0.008344192512098848 0.0 0.0
0.0 0.008864584327712519 0.007114876703801337 -0.006420450889432715 -0.0006944258143686214 0.00506648232096862 0.0 0.0
0.0 0.003942706513605116 0.0033144542364729225 -0.002803881113252213 -0.000510573123220705 0.0024995904604320184 0.0 0.0
0.0 0.0012544958957484541 0.0010331560586128328 -0.0008040657529777024 -0.00022909030563513029 0.0008505513085158897 0.0 0.0
0.0 0.00011526684764397156 0.00010036195781558667 -7.01830315285149e-05 -3.0178926287071966e-05 7.591089478555412e-05 0.0 0.0
0.0 -1.9193507415522923e-05 -1.2519222620157748e-05 1.0034908728059975e-05 2.4843138920977816e-06 -2.5933253125991813e-05 0.0 0.0
0.0 1.5712585721141057e-07 6.304622253475461e-09 -5.866682076920911e-09 -4.379401765531699e-10 -3.806782869747957e-08 0.0 0.0
0.0 1.5734592914948445e-07 7.148379181953433e-10 -7.331624793983198e-11 -6.415216702555217e-10 -3.250372694055046e-08 0.0 0.0
0.0 0.0007664083059796716 0.00034773534516161376 -0.00017255434713250173 -0.00017518099802911168 0.0013343285089067376 0.0 0.0
0.0 0.0035982464684194615 0.0025087853504594036 -0.0035380902873549435 0.001029304936895538 0.0018754587373219398 0.0 0.0
0.0 0.0027136650671845328 0.0015530955326893653 -0.0022219104101089226 0.0006688148774195576 -0.0012969803428383268 0.0 0.0
0.0 0.0003441740117963513 0.00016681326408566434 -6.99473371871075e-05 -9.686592689855696e-05 -0.0007645071662247577 0.0 0.0
0.0 1.0499038605120076e-06 7.316333824825621e-08 -7.445948850804128e-08 1.2961502597854592e-09 -1.4553925546755668e-06 0.0 0.0
0.0 -7.359385110415822e-07 2.3321402025331883e-08 -1.866535476850698e-08 -4.6560472568250315e-09 -2.3382233562853123e-07 0.0 0.0
0.0 -9.688074467145064e-06 -6.041059933007401e-06 4.816233696286497e-06 1.224826236720902e-06 1.9901779240880665e-05 0.0 0.0
0.0 2.4703961201334572e-06 3.928112439977774e-06 -4.067181125083988e-07 -3.5213943274694275e-06 2.2298159025491964e-06 0.0 0.0
0.0 0.0005915081471654472 0.000444775682789938 -0.00033841629964589286 -0.0001063593831440445 -0.0005605970286867386 0.0 0.0
0.0 0.002351384867705967 0.0018823350416284385 -0.0015422699502022866 -0.0003400650914261522 -0.0019736763210962092 0.0 0.0
0.0 0.00573025480943098 0.004568080204188522 -0.004012673300647795 -0.0005554069035407276 -0.004219777748641176 0.0 0.0
0.0 0.01074864857642192 0.008409218089667688 -0.007736482701755219 -0.0006727353879124531 -0.0071550496555121065 0.0 0.0
0.0 0.01633116321878877 0.013141453976581228 -0.01239874287177363 -0.0007427111048075951 -0.010440248214095832 0.0 0.0
0.0 0.022829337244449396 0.01852758792238526 -0.017722833147877502 -0.0008047547745077648 -0.013748332744478425 0.0 0.0
0.0 0.03006994800877385 0.024489576669360524 -0.023623419977212942 -0.0008661566921475777 -0.017000718836404197 0.0 0.0
0.0 0.03794280545532207 0.031043444239794955 -0.03011925448528592 -0.0009241897545089786 -0.020225062944248823 0.0 0.0
0.0 0.04661808367894348 0.03822281443318379 -0.037244941086361956 -0.0009778733468218273 -0.0233961017311465 0.0 0.0
0.0 0.055839308220742526 0.04601395348518665 -0.04498984244212998 -0.0010241110430566326 -0.026314956166744192 0.0 0.0
0.0 0.06579002237697502 0.054320233764530296 -0.053252252674084885 -0.0010679810904454187 -0.028631030683869883 0.0 0.0
0.0 0.07590731682439335 0.06308262672404269 -0.06195576477090406 -0.0011268619531385527 -0.030022734464249846 0.0 0.0
0.0 0.08627415762650009 0.0722680884228197 -0.07109372139234202 -0.001174367030477612 -0.029752723774704583 0.0 0.0
0.0 0.09666516360313235 0.08140615293672644 -0.08024808953137978 -0.0011580634053465903 -0.025323746094944737 0.0 0.0
0.0 0.10556054494441741 0.0871175149298656 -0.08711474011086753 -2.774818998160588e-06 2.6298407895808396e-14 0.0 0.0
0.0 0.0966651636031232 0.08140615293671202 -0.08024808953136531 -0.0011580634053466655 0.025323746095006334 0.0 0.0
0.0 0.0862741576264816 0.07226808842279747 -0.07109372139231998 -0.0011743670304775065 0.029752723774769042 0.0 0.0
0.0 0.07590731682435686 0.06308262672400877 -0.06195576477086973 -0.0011268619531389582 0.030022734464285418 0.0 0.0
0.0 0.06579002237693102 0.05432023376449303 -0.05325225267404867 -0.0010679810904443367 0.02863103068387147 0.0 0.0
0.0 0.05583930822069735 0.04601395348514907 -0.04498984244209256 -0.0010241110430565699 0.026314956166728735 0.0 0.0
0.0 0.04661808367890054 0.03822281443314727 -0.0372449410863257 -0.0009778733468215467 0.02339610173113223 0.0 0.0
0.0 0.037942805455282 0.031043444239760708 -0.0301192544852519 -0.000924189754508825 0.0202250629442382 0.0 0.0
0.0 0.03006994800873486 0.024489576669328515 -0.023623419977181086 -0.0008661566921474075 0.017000718836389293 0.0 0.0
0.0 0.022829337244410032 0.018527587922352907 -0.017722833147845594 -0.000804754774507314 0.013748332744457716 0.0 0.0
0.0 0.016331163218753865 0.013141453976553924 -0.012398742871747054 -0.000742711104806851 0.01044024821407149 0.0 0.0
0.0 0.010748648576395037 0.008409218089647208 -0.007736482701734823 -0.0006727353879123836 0.007155049655491809 0.0 0.0
0.0 0.005730254809409574 0.004568080204171993 -0.004012673300631959 -0.0005554069035400371 0.0042197777486269305 0.0 0.0
0.0 0.0023513848676938853 0.0018823350416191605 -0.0015422699501941772 -0.00034006509142498376 0.001973676321087394 0.0 0.0
0.0 0.0005915081471595919 0.00044477568278580924 -0.00033841629964268905 -0.00010635938314311961 0.0005605970286815332 0.0 0.0
0.0 2.470396119619763e-06 3.928112440215387e-06 -4.0671811272252706e-07 -3.5213943274927997e-06 -2.229815901837542e-06 0.0 0.0
0.0 -9.68807446845468e-06 -6.041059932817122e-06 4.816233696147079e-06 1.2248262366700225e-06 -1.9901779240163262e-05 0.0 0.0
0.0 -7.35938511094707e-07 2.332140209686157e-08 -1.8665354814700206e-08 -4.656047282161853e-09 2.338223366939314e-07 0.0 0.0
0.0 1.0499038602797188e-06 7.316333825104936e-08 -7.445948851900908e-08 1.296150267960165e-09 1.4553925549784344e-06 0.0 0.0
0.0 0.0003441740117930447 0.00016681326408436167 -6.994733718628494e-05 -9.686592689807698e-05 0.0007645071662199482 0.0 0.0
0.0 0.002713665067174591 0.0015530955326831443 -0.0022219104101002768 0.0006688148774171342 0.0012969803428342177 0.0 0.0
0.0 0.0014348905401955943 0.0008682849991450234 -0.0012598222577604027 0.00039153725861537924 -0.0008738988058724914 0.0 0.0
0.0 0.00013094144631292223 4.712876870375949e-05 1.482956975184125e-06 -4.8611725678943354e-05 -0.00033260703904415204 0.0 0.0
0.0 2.2236628258428233e-06 1.5112814962032365e-08 -1.170046000799604e-08 -3.412354954035434e-09 1.0078617050941336e-07 0.0 0.0
0.0 1.2441054381535596e-06 -1.619732653072712e-07 1.2172708702924168e-07 4.0246178278029386e-08 1.2086205364282358e-06 0.0 0.0
0.0 -7.443215251030776e-06 -2.9194092271588484e-06 2.3301401558708655e-06 5.892690712879864e-07 1.4184376994933777e-05 0.0 0.0
0.0 -1.9246988523875717e-05 -8.722700713271892e-06 7.689313345038986e-06 1.03338736823295e-06 1.5526459396199037e-05 0.0 0.0
0.0 0.00021357468548377666 0.00010673618950219648 -8.043873030084914e-05 -2.6297459201347705e-05 -0.0002628514889865163 0.0 0.0
0.0 0.0011851664962040447 0.0007562314527930824 -0.0006063232180650584 -0.00014990823472802356 -0.0012617099456825442 0.0 0.0
0.0 0.003198794742382356 0.0023144157673478313 -0.0019693076231414633 -0.00034510814420636566 -0.003027309736533484 0.0 0.0
0.0 0.006448271846901543 0.004764935964686297 -0.0042685272134226696 -0.0004964087512636306 -0.005343956037987374 0.0 0.0
0.0 0.010302465822145687 0.007882130805889995 -0.007293235917778633 -0.0005888948881113619 -0.008055197060036217 0.0 0.0
0.0 0.014862042159553106 0.011451069787555605 -0.01079666862485988 -0.0006544011626957195 -0.010869402832761155 0.0 0.0
0.0 0.019820402199461056 0.01539553703070289 -0.014682434369552494 -0.0007131026611503958 -0.013698444903769256 0.0 0.0
0.0 0.025225479801416824 0.019738352714868394 -0.018973809179764756 -0.0007645435351036554 -0.01650651748899101 0.0 0.0
0.0 0.031214383557955305 0.024549057852228825 -0.023736117046591596 -0.0008129408056372215 -0.019273065686545205 0.0 0.0
0.0 0.037835735911572375 0.0298959315063082 -0.02903695101577775 -0.0008589804905304321 -0.021909692002056412 0.0 0.0
0.0 0.04499223219256432 0.03578812188574495 -0.03488513903256799 -0.0009029828531769603 -0.02411309594740552 0.0 0.0
0.0 0.05247937831711791 0.042258147405853125 -0.04129527300552762 -0.0009628744003255271 -0.025474670648468017 0.0 0.0
0.0 0.06095327310623297 0.04963576673017722 -0.04857999844922147 -0.0010557682809557156 -0.025820596381437685 0.0 0.0
0.0 0.07090351369855447 0.05818104061196321 -0.05708392247531079 -0.0010971181366524285 -0.023881646233668563 0.0 0.0
0.0 0.0811350622241489 0.06437474251516064 -0.06469752284971304 0.0003227803345523055 2.2583497572004063e-14 0.0 0.0
0.0 0.07090351369855376 0.05818104061195515 -0.05708392247530165 -0.001097118136653463 0.023881646233722846 0.0 0.0
0.0 0.06095327310621834 0.04963576673015832 -0.04857999844920273 -0.0010557682809555805 0.025820596381494806 0.0 0.0
0.0 0.05247937831708792 0.04225814740582652 -0.04129527300550039 -0.0009628744003261175 0.025474670648494815 0.0 0.0
0.0 0.04499223219253391 0.03578812188572042 -0.034885139032544525 -0.0009029828531758976 0.02411309594740437 0.0 0.0
0.0 0.037835735911544814 0.02989593150628607 -0.029036951015755798 -0.0008589804905302495 0.02190969200204263 0.0 0.0
0.0 0.031214383557925256 0.0245490578522045 -0.023736117046567293 -0.0008129408056372096 0.01927306568653127 0.0 0.0
0.0 0.02522547980139181 0.019738352714847224 -0.018973809179744016 -0.0007645435351032183 0.016506517488983633 0.0 0.0
0.0 0.019820402199437544 0.015395537030684331 -0.014682434369534177 -0.0007131026611501424 0.013698444903758369 0.0 0.0
0.0 0.01486204215952532 0.011451069787534986 -0.010796668624839271 -0.0006544011626957061 0.010869402832742308 0.0 0.0
0.0 0.010302465822121664 0.007882130805872398 -0.0072932359177613195 -0.0005888948881110675 0.008055197060015392 0.0 0.0
0.0 0.006448271846883881 0.004764935964673469 -0.004268527213410597 -0.0004964087512628787 0.005343956037972878 0.0 0.0
0.0 0.0031987947423729696 0.0023144157673410967 -0.0019693076231353107 -0.00034510814420578447 0.0030273097365265023 0.0 0.0
0.0 0.0011851664961956662 0.0007562314527876253 -0.0006063232180604284 -0.00014990823472719702 0.0012617099456743671 0.0 0.0
0.0 0.00021357468548004925 0.00010673618950099223 -8.043873029988132e-05 -2.629745920111069e-05 0.00026285148898379105 0.0 0.0
0.0 -1.9246988524411414e-05 -8.722700712958808e-06 7.689313344799234e-06 1.0333873681595239e-06 -1.552645939517144e-05 0.0 0.0
0.0 -7.443215251163988e-06 -2.919409227034883e-06 2.3301401557773742e-06 5.89269071257515e-07 -1.4184376993839109e-05 0.0 0.0
0.0 1.2441054377196233e-06 -1.6197326534229472e-07 1.2172708705869037e-07 4.024617828360527e-08 -1.2086205364288309e-06 0.0 0.0
0.0 2.2236628260294276e-06 1.5112814993128195e-08 -1.1700460043417688e-08 -3.4123549497101105e-09 -1.007861694589329e-07 0.0 0.0
0.0 0.00013094144631001787 4.7128768703020955e-05 1.4829569756260085e-06 -4.861172567864659e-05 0.0003326070390412211 0.0 0.0
0.0 0.0014348905401887567 0.0008682849991410645 -0.0012598222577547002 0.0003915372586136347 0.0008738988058696701 0.0 0.0
0.0 0.000704998438254934 0.0003822511967390684 -0.0005601844671312207 0.00017793327039215297 -0.0004742777376225528 0.0 0.0
0.0 -2.713211503191959e-06 -1.0594106311629558e-05 3.122965556301662e-05 -2.063554925138716e-05 -5.9292288755410845e-05 0.0 0.0
0.0 3.5608379887591317e-06 6.27789716159366e-08 -1.3854001575941601e-07 7.576104414347985e-08 -4.1215056842513224e-06 0.0 0.0
0.0 1.8903666871581496e-06 -1.5277604469021858e-07 1.3819179594480336e-07 1.4584248745413218e-08 -2.835996641187516e-06 0.0 0.0
0.0 -4.308647845759304e-06 -1.2565945725774098e-06 1.0603521534222273e-06 1.9624241915518957e-07 9.35711595285762e-06 0.0 0.0
0.0 -2.8287453235902213e-06 -4.116490191657874e-06 3.60379774714223e-06 5.126924445156102e-07 7.967170794011827e-06 0.0 0.0
0.0 8.578539483877578e-05 8.229495029545611e-06 -5.972196046949222e-06 -2.2572989825963297e-06 -0.00012579602262600468 0.0 0.0
0.0 0.00037980901191817965 0.00010896693436899793 -9.178908348823756e-05 -1.7177850880760437e-05 -0.0005759735836540554 0.0 0.0
0.0 0.0011751060596909397 0.0005380248798106623 -0.0004740101893204897 -6.401469049017201e-05 -0.00160696832474088 0.0 0.0
0.0 0.002716400272609454 0.0015412868435534795 -0.0013882819315103366 -0.00015300491204314239 -0.0031975736326052546 0.0 0.0
0.0 0.004984545312526517 0.003012346762356824 -0.0027623009079247793 -0.00025004585443204054 -0.005098608903422655 0.0 0.0
0.0 0.007364832185187968 0.004747878557041403 -0.004416254556398463 -0.0003316240006429462 -0.007219224509540963 0.0 0.0
0.0 0.010150956574738034 0.006672675717232089 -0.006274120094642012 -0.0003985556225900733 -0.009463508006148988 0.0 0.0
0.0 0.013255157716767168 0.008814114511894016 -0.00835963284210477 -0.000454481669789242 -0.01178011654811723 0.0 0.0
0.0 0.016698643568605422 0.011251960749373064 -0.010744097966493522 -0.0005078627828795455 -0.014155607897887256 0.0 0.0
0.0 0.02062796056942745 0.014114522554044096 -0.013550395398805566 -0.0005641271552385323 -0.01655206030651272 0.0 0.0
0.0 0.02520339380988159 0.01755642199385647 -0.01693187436177268 -0.0006245476320837966 -0.018765200908272592 0.0 0.0
0.0 0.03044960454813608 0.021708824621559233 -0.02102296903880427 -0.0006858555827549669 -0.0202512216288695 0.0 0.0
0.0 0.03648823190444718 0.02692217505527065 -0.02613703557516133 -0.000785139480109319 -0.020556947301475177 0.0 0.0
0.0 0.04467602503024915 0.034247593861228436 -0.03328681995246419 -0.000960773908764206 -0.020339972092443547 0.0 0.0
0.0 0.0578741538968611 0.04084753122752282 -0.0415488108459285 0.0007012796184057157 1.800469495716328e-14 0.0 0.0
0.0 0.044676025030258644 0.034247593861227714 -0.03328681995246277 -0.0009607739087650044 0.020339972092489618 0.0 0.0
0.0 0.03648823190444155 0.026922175055261472 -0.02613703557515141 -0.0007851394801100481 0.020556947301517827 0.0 0.0
0.0 0.030449604548118507 0.02170882462154574 -0.0210229690387902 -0.0006858555827555359 0.02025122162888659 0.0 0.0
0.0 0.02520339380985788 0.01755642199384213 -0.016931874361759015 -0.0006245476320831445 0.01876520090826265 0.0 0.0
0.0 0.02062796056941269 0.014114522554034394 -0.01355039539879578 -0.000564127155238607 0.016552060306499673 0.0 0.0
0.0 0.0166986435685894 0.011251960749361531 -0.010744097966482064 -0.0005078627828794766 0.014155607897875575 0.0 0.0
0.0 0.013255157716751332 0.008814114511883315 -0.008359632842094629 -0.00045448166978868704 0.01178011654810829 0.0 0.0
0.0 0.01015095657472677 0.006672675717225812 -0.0062741200946358775 -0.00039855562258994264 0.00946350800613977 0.0 0.0
0.0 0.007364832185172591 0.004747878557032029 -0.0044162545563895955 -0.00033162400064243303 0.007219224509526858 0.0 0.0
0.0 0.004984545312513221 0.003012346762349324 -0.0027623009079176444 -0.00025004585443167874 0.005098608903408231 0.0 0.0
0.0 0.002716400272599599 0.0015412868435478269 -0.0013882819315049148 -0.0001530049120429124 0.003197573632595486 0.0 0.0
0.0 0.0011751060596878577 0.0005380248798090376 -0.00047401018931905037 -6.401469048998644e-05 0.001606968324737161 0.0 0.0
0.0 0.0003798090119146659 0.0001089669343678594 -9.178908348719887e-05 -1.7177850880660474e-05 0.0005759735836493118 0.0 0.0
0.0 8.578539483741053e-05 8.22949502956085e-06 -5.972196046975126e-06 -2.257298982585745e-06 0.00012579602262531174 0.0 0.0
0.0 -2.8287453236494345e-06 -4.116490191384704e-06 3.603797746930375e-06 5.12692444454332e-07 -7.967170792185492e-06 0.0 0.0
0.0 -4.308647846456731e-06 -1.2565945725545683e-06 1.060352153408825e-06 1.9624241914574012e-07 -9.357115952268898e-06 0.0 0.0
0.0 1.8903666871900813e-06 -1.5277604470870738e-07 1.3819179596394977e-07 1.4584248744758187e-08 2.8359966420392726e-06 0.0 0.0
0.0 3.560837988585483e-06 6.277897161970321e-08 -1.3854001577432144e-07 7.576104415461471e-08 4.1215056848773094e-06 0.0 0.0
0.0 -2.7132115045845492e-06 -1.0594106311775232e-05 3.122965556303527e-05 -2.0635549251259967e-05 5.929228875409402e-05 0.0 0.0
0.0 0.000704998438250344 0.0003822511967368055 -0.0005601844671279208 0.0001779332703911149 0.000474277737620282 0.0 0.0
0.0 0.00018177899776444155 0.00010434468372103831 -0.00015540172726348216 5.1057043542443694e-05 -0.0001641950246144327 0.0 0.0
0.0 -2.524173615748422e-05 -1.4626503593749489e-05 2.117680973324688e-05 -6.5503061394973635e-06 2.3980817014920403e-05 0.0 0.0
0.0 3.751365266626845e-06 1.7117778306689938e-07 -1.6076361120376263e-07 -1.0414171863140703e-08 2.374079450126362e-06 0.0 0.0
0.0 3.8024892803607785e-06 -3.6157121299940076e-07 2.9997332828793785e-07 6.159788471146577e-08 -4.8432420157228004e-06 0.0 0.0
0.0 -4.899441737228866e-08 -5.215482344496691e-07 5.125008193352845e-07 9.04741511438208e-09 1.0073284465721857e-06 0.0 0.0
0.0 6.384767404492799e-06 -1.4395686255548324e-06 1.485838650959971e-06 -4.627002540513997e-08 -3.2348521939634668e-06 0.0 0.0
0.0 8.788261349352453e-05 -2.102496245201396e-06 2.0966878410120474e-06 5.808404189345326e-09 -0.00012870846202875334 0.0 0.0
0.0 0.0002180806636221476 -1.5198409442262185e-06 1.499014953848605e-06 2.0825990377658025e-08 -0.0003772338676149457 0.0 0.0
0.0 0.00048110614296921776 -4.671371033911274e-07 4.275297989966245e-07 3.9607304394474926e-08 -0.0007790168067740828 0.0 0.0
0.0 0.0008095213892189924 -5.0834755215838794e-08 6.494392900407043e-08 -1.4109173788475577e-08 -0.001590307151805133 0.0 0.0
0.0 0.001589455593293357 -1.5166809596859547e-07 2.4274063656562895e-07 -9.10725405968302e-08 -0.0030041382609456127 0.0 0.0
0.0 0.002644402799924971 -9.648305743497807e-06 1.2220211041761935e-05 -2.5719052982646837e-06 -0.004929130842549357 0.0 0.0
0.0 0.004024719221566851 -2.7389409804529454e-05 3.130635092259804e-05 -3.916941118067125e-06 -0.007002521169361636 0.0 0.0
0.0 0.0055889067759126694 -3.47022406500928e-05 3.5385304989381055e-05 -6.830643392877157e-07 -0.009185032016246644 0.0 0.0
0.0 0.007310870464001185 4.677711520572735e-05 -6.0234484151585515e-05 1.3457368945858053e-05 -0.011484372095994762 0.0 0.0
0.0 0.009146326094614693 0.00038865623977333316 -0.00043072757248342546 4.207133271008688e-05 -0.01388958053818371 0.0 0.0
0.0 0.011132942408508137 0.0012694285078281601 -0.0013596141556494398 9.018564782128273e-05 -0.016319750031274286 0.0 0.0
0.0 0.013194816051335788 0.002934314000631915 -0.003142153034644421 0.00020783903401250752 -0.01855088294652722 0.0 0.0
0.0 0.016002990215090475 0.005077474484220007 -0.005469089511253165 0.0003916150270331614 -0.02017215066127101 0.0 0.0
0.0 0.023048374208554833 0.009928778837351727 -0.009656662251632878 -0.0002721165857188549 -0.020913806949646657 0.0 0.0
0.0 0.041187503908128004 0.0172729680503566 -0.018581525101364335 0.0013085570510077337 1.4558666772135354e-14 0.0 0.0
0.0 0.023048374208568197 0.009928778837354262 -0.009656662251636076 -0.000272116585718172 0.02091380694967833 0.0 0.0
0.0 0.016002990215086717 0.005077474484219721 -0.005469089511252502 0.0003916150270327691 0.020172150661282057 0.0 0.0
0.0 0.013194816051324998 0.0029343140006312116 -0.003142153034644116 0.00020783903401291035 0.018550882946524086 0.0 0.0
0.0 0.01113294240849319 0.0012694285078284824 -0.0013596141556498252 9.01856478213429e-05 0.01631975003125778 0.0 0.0
0.0 0.00914632609460742 0.00038865623977636285 -0.000430727572487006 4.2071332710641695e-05 0.013889580538172568 0.0 0.0
0.0 0.00731087046398784 4.677711520726703e-05 -6.023448415296722e-05 1.3457368945702118e-05 0.011484372095980161 0.0 0.0
0.0 0.005588906775902151 -3.4702240647668955e-05 3.538530498733874e-05 -6.83064339670168e-07 0.009185032016235696 0.0 0.0
0.0 0.004024719221556001 -2.7389409799848195e-05 3.130635091714066e-05 -3.91694111729169e-06 0.007002521169346258 0.0 0.0
0.0 0.0026444027999120573 -9.648305741485636e-06 1.2220211039640097e-05 -2.5719052981556265e-06 0.004929130842534258 0.0 0.0
0.0 0.0015894555932843037 -1.516680945906016e-07 2.4274063504839643e-07 -9.107254045763219e-08 0.003004138260932732 0.0 0.0
0.0 0.0008095213892177365 -5.083475622676245e-08 6.494392997960844e-08 -1.4109173752720623e-08 0.0015903071518041324 0.0 0.0
0.0 0.00048110614296791845 -4.6713710378375764e-07 4.2752979931960324e-07 3.960730446396805e-08 0.0007790168067717608 0.0 0.0
0.0 0.00021808066362040266 -1.5198409442219494e-06 1.4990149539046226e-06 2.0825990317295492e-08 0.0003772338676118934 0.0 0.0
0.0 8.788261349253014e-05 -2.1024962451811266e-06 2.096687840999673e-06 5.8084041814924836e-09 0.00012870846202872087 0.0 0.0
0.0 6.384767403188654e-06 -1.439568625539438e-06 1.485838650942857e-06 -4.627002540342971e-08 3.2348521935737274e-06 0.0 0.0
0.0 -4.8994418117252815e-08 -5.215482344905715e-07 5.125008193745579e-07 9.047415116017969e-09 -1.007328445563594e-06 0.0 0.0
0.0 3.8024892803212517e-06 -3.6157121304964395e-07 2.9997332833121244e-07 6.159788471843132e-08 4.843242016408964e-06 0.0 0.0
0.0 3.7513652658055977e-06 1.7117778305789352e-07 -1.6076361120165214e-07 -1.0414171856232664e-08 -2.3740794495270334e-06 0.0 0.0
0.0 -2.5241736157347078e-05 -1.462650359341607e-05 2.1176809732811244e-05 -6.550306139395207e-06 -2.3980817013567102e-05 0.0 0.0
0.0 0.0001817789977618988 0.00010434468372012472 -0.00015540172726217347 5.1057043542049004e-05 0.00016419502461307106 0.0 0.0
0.0 7.1154441821152855e-06 2.3976625352861727e-06 -4.180596828275474e-06 1.782934292989272e-06 -3.3613131679115742e-06 0.0 0.0
0.0 -1.6362578110783324e-06 -5.242961982994635e-07 8.086709529393605e-07 -2.843747546398979e-07 2.900311720805356e-06 0.0 0.0
0.0 1.152080322882748e-06 1.6582522358823869e-07 -2.3409257489598374e-07 6.826735130774495e-08 -2.1008235619013795e-06 0.0 0.0
0.0 5.982908031878966e-06 -4.4124410917351764e-07 3.4597583576488855e-07 9.52682734086298e-08 -5.8509559494197766e-06 0.0 0.0
0.0 3.886296073087752e-06 -7.386462859816323e-07 6.960472317866375e-07 4.2599054194991683e-08 -6.578258484414255e-06 0.0 0.0
0.0 1.0202397873391431e-05 -1.8059121633702228e-06 1.8553136648866346e-06 -4.940150151636833e-08 -2.2492433596566384e-05 0.0 0.0
0.0 0.00011853096038633437 -1.5253692209907367e-05 1.246914991762745e-05 2.7845422922798646e-06 -0.00014628558547190177 0.0 0.0
0.0 0.00039756463305496526 -0.00011618738431830417 9.813969604982859e-05 1.8047688268475374e-05 -0.0005942473018833501 0.0 0.0
0.0 0.0011803870259007195 -0.0005404355963080675 0.0004760302276774426 6.440536863062494e-05 -0.0016158039965155997 0.0 0.0
0.0 0.0027150390377090787 -0.0015406901860603678 0.0013876872867320152 0.00015300289932835285 -0.0031978490956996184 0.0 0.0
0.0 0.005001059521140957 -0.0030169321418842985 0.0027662643500432297 0.0002506677918410669 -0.005097523191343932 0.0 0.0
0.0 0.007410514728316709 -0.004778848621600783 0.004443629717246188 0.00033521890435459216 -0.007226947033153097 0.0 0.0
0.0 0.01022739490283573 -0.0067430063005863485 0.006340379420304794 0.00040262688028155154 -0.00946830179181275 0.0 0.0
0.0 0.013315286140462006 -0.00888147752910238 0.008431857481436392 0.0004496200476659953 -0.011767656800952256 0.0 0.0
0.0 0.016480236500794075 -0.011094899130884966 0.010621553088461085 0.0004733460424238794 -0.014141796556513559 0.0 0.0
0.0 0.019536408245450894 -0.01314379198346697 0.012676137352523664 0.0004676546309432969 -0.016641758128690988 0.0 0.0
0.0 0.022053657695016098 -0.014636367091625259 0.014211574204368032 0.00042479288725722847 -0.019293003611076495 0.0 0.0
0.0 0.02380651371810833 -0.0150917721311763 0.014756500033674746 0.0003352720975015561 -0.022186975126139086 0.0 0.0
0.0 0.023852551120633513 -0.013953462325352071 0.01382484256022283 0.00012861976512925098 -0.025275350457748275 0.0 0.0
0.0 0.01944888802270333 -0.010146286299424243 0.010604622216899333 -0.0004583359174750964 -0.027337703670959154 0.0 0.0
0.0 0.03983148904916811 -0.005851652384093693 0.003133910498705606 0.002717741885388077 1.679299060919348e-14 0.0 0.0
0.0 0.01944888802271179 -0.010146286299424328 0.010604622216899251 -0.00045833591747492474 0.027337703670983152 0.0 0.0
0.0 0.02385255112063325 -0.01395346232535 0.01382484256022029 0.00012861976512969876 0.025275350457767198 0.0 0.0
0.0 0.023806513718093027 -0.01509177213116529 0.014756500033664076 0.00033527209750122504 0.022186975126141817 0.0 0.0
0.0 0.022053657694992408 -0.0146363670916088 0.014211574204351313 0.0004247928872575031 0.019293003611062683 0.0 0.0
0.0 0.0195364082454285 -0.013143791983450347 0.01267613735250761 0.00046765463094274116 0.01664175812867509 0.0 0.0
0.0 0.016480236500776905 -0.011094899130871444 0.010621553088448952 0.00047334604242248266 0.014141796556499454 0.0 0.0
0.0 0.013315286140439865 -0.008881477529085045 0.008431857481419332 0.00044962004766571065 0.011767656800938787 0.0 0.0
0.0 0.010227394902811503 -0.0067430063005688295 0.006340379420287779 0.0004026268802810492 0.009468301791795853 0.0 0.0
0.0 0.007410514728293459 -0.0047788486215843366 0.0044436297172309154 0.0003352189043534101 0.007226947033134035 0.0 0.0
0.0 0.005001059521120356 -0.0030169321418711866 0.0027662643500309878 0.0002506677918402005 0.005097523191325413 0.0 0.0
0.0 0.002715039037696497 -0.0015406901860522217 0.0013876872867245316 0.00015300289932769178 0.003197849095688844 0.0 0.0
0.0 0.0011803870258932558 -0.0005404355963032664 0.00047603022767332356 6.440536862994263e-05 0.0016158039965081695 0.0 0.0
0.0 0.00039756463305172334 -0.00011618738431726051 9.813969604891961e-05 1.8047688268341004e-05 0.0005942473018794847 0.0 0.0
0.0 0.0001185309603846037 -1.525369220982789e-05 1.2469149917532097e-05 2.7845422922957876e-06 0.00014628558547116283 0.0 0.0
0.0 1.0202397872751979e-05 -1.8059121635539114e-06 1.8553136650276871e-06 -4.9401501473766224e-08 2.2492433597675997e-05 0.0 0.0
0.0 3.886296072418904e-06 -7.386462860501513e-07 6.960472318417153e-07 4.259905420842382e-08 6.5782584849395424e-06 0.0 0.0
0.0 5.982908031381012e-06 -4.412441092835214e-07 3.4597583585818626e-07 9.526827342533374e-08 5.8509559503598595e-06 0.0 0.0
0.0 1.1520803224647076e-06 1.6582522357199437e-07 -2.3409257489237004e-07 6.826735132037135e-08 2.100823562494946e-06 0.0 0.0
0.0 -1.6362578112237368e-06 -5.242961983693449e-07 8.086709530208832e-07 -2.843747546515421e-07 -2.9003117209490354e-06 0.0 0.0
0.0 7.1154441806081115e-06 2.397662535638051e-06 -4.180596828797576e-06 1.7829342931595525e-06 3.3613131686843004e-06 0.0 0.0
0.0 2.034611343575935e-06 -1.1794173393863115e-07 1.8495244463876623e-07 -6.701071070005743e-08 2.736999519842078e-07 0.0 0.0
0.0 5.685657589116327e-07 4.5311697041950136e-08 -2.3291839068403406e-08 -2.2019857973561732e-08 5.783431846436046e-07 0.0 0.0
0.0 -1.1523093334141399e-06 5.216656446109959e-07 -4.4728570010950256e-07 -7.437994450150281e-08 3.0574004579447704e-06 0.0 0.0
0.0 3.39228897209989e-06 -6.959941951009585e-07 5.389009448572635e-07 1.5709325024368457e-07 -6.88759085099994e-06 0.0 0.0
0.0 6.963234833657217e-06 1.5854672719707293e-06 -1.24436719982996e-06 -3.4110007214070456e-07 3.0483773818620876e-06 0.0 0.0
0.0 3.738104967927728e-05 -4.304611143307666e-06 3.5151628755827095e-06 7.894482677249241e-07 -2.6932473233029456e-05 0.0 0.0
0.0 0.00023892383342452654 -0.00013207237851955598 0.00010206695273649768 3.0005425783058474e-05 -0.0003350830434047799 0.0 0.0
0.0 0.0012079753426819002 -0.0007664026093477732 0.0006154306244090305 0.00015097198493874194 -0.0012886812223013454 0.0 0.0
0.0 0.0032000432602985484 -0.0023143333755667296 0.001969025101124121 0.0003453082744426084 -0.0030330806166584275 0.0 0.0
0.0 0.006446278556045069 -0.004764240293140469 0.004267762350927469 0.0004964779422129972 -0.005342044769124464 0.0 0.0
0.0 0.01031180638243452 -0.007890260721354209 0.007301079610735019 0.0005891811106191908 -0.008057473055322815 0.0 0.0
0.0 0.014895484052893771 -0.011480166111073739 0.010824887604241648 0.0006552785068320952 -0.010868903175683804 0.0 0.0
0.0 0.019878854347696113 -0.015455169752581346 0.014741759764730718 0.0007134099878506283 -0.013656317196376838 0.0 0.0
0.0 0.02525030379781278 -0.019787539065540045 0.019028796439612923 0.0007587426259271031 -0.016392452337324982 0.0 0.0
0.0 0.030976529724256706 -0.024377033397800337 0.023589006933256513 0.0007880264645438182 -0.019177210641139374 0.0 0.0
0.0 0.03677260258931598 -0.028951418292189564 0.02815558110089164 0.0007958371912979238 -0.022216851204516906 0.0 0.0
0.0 0.04209309841386116 -0.03304623967086676 0.03226185295509899 0.0007843867157677805 -0.025727595603789295 0.0 0.0
0.0 0.046102618145401474 -0.03603823314800529 0.03528051141880969 0.0007577217291956284 -0.029808726470013428 0.0 0.0
0.0 0.04804575395605541 -0.03683078886992307 0.03617306622661635 0.0006577226433066819 -0.033693162319199305 0.0 0.0
0.0 0.044854751695670686 -0.03305366357027568 0.032615913293605435 0.00043775027667020523 -0.03469205458963925 0.0 0.0
0.0 0.0488628978033837 -0.026981741707922734 0.023487898788400664 0.003493842919522054 2.0931173461136154e-14 0.0 0.0
0.0 0.04485475169568294 -0.033053663570274575 0.0326159132936054 0.0004377502766691776 0.03469205458968826 0.0 0.0
0.0 0.04804575395604809 -0.03683078886990994 0.036173066226602865 0.0006577226433070575 0.033693162319241986 0.0 0.0
0.0 0.0461026181453784 -0.036038233147984045 0.035280511418788664 0.0007577217291953767 0.02980872647002975 0.0 0.0
0.0 0.042093098413822236 -0.03304623967083555 0.03226185295506767 0.0007843867157678814 0.025727595603778523 0.0 0.0
0.0 0.03677260258928023 -0.028951418292160427 0.028155581100862824 0.0007958371912975761 0.022216851204499084 0.0 0.0
0.0 0.030976529724222657 -0.024377033397773105 0.02358900693322968 0.0007880264645434281 0.019177210641120483 0.0 0.0
0.0 0.025250303797779317 -0.019787539065511256 0.019028796439584824 0.0007587426259263965 0.016392452337310053 0.0 0.0
0.0 0.019878854347660752 -0.015455169752552915 0.014741759764702525 0.0007134099878503922 0.01365631719635963 0.0 0.0
0.0 0.01489548405285821 -0.011480166111046542 0.010824887604214996 0.0006552785068315476 0.010868903175659597 0.0 0.0
0.0 0.0103118063824046 -0.007890260721331277 0.007301079610712367 0.0005891811106189088 0.008057473055300236 0.0 0.0
0.0 0.006446278556021652 -0.004764240293123247 0.004267762350910648 0.0004964779422125986 0.005342044769106373 0.0 0.0
0.0 0.0032000432602841177 -0.0023143333755556435 0.0019690251011143063 0.00034530827444133913 0.003033080616648625 0.0 0.0
0.0 0.0012079753426726648 -0.0007664026093416976 0.000615430624404059 0.00015097198493763768 0.001288681222292273 0.0 0.0
0.0 0.0002389238334197187 -0.00013207237851762982 0.0001020669527349863 3.0005425782643574e-05 0.0003350830434003273 0.0 0.0
0.0 3.7381049677925836e-05 -4.304611143257147e-06 3.5151628755374178e-06 7.894482677196319e-07 2.6932473232795746e-05 0.0 0.0
0.0 6.963234833215792e-06 1.5854672715671344e-06 -1.2443671994928597e-06 -3.411000720742716e-07 -3.0483773804157238e-06 0.0 0.0
0.0 3.3922889718853523e-06 -6.959941952427281e-07 5.389009449738294e-07 1.5709325026890334e-07 6.887590851921726e-06 0.0 0.0
0.0 -1.152309333731119e-06 5.216656445546159e-07 -4.472857000815793e-07 -7.437994447303175e-08 -3.0574004569641434e-06 0.0 0.0
0.0 5.685657584844327e-07 4.5311697064936585e-08 -2.3291839082760214e-08 -2.2019857982173684e-08 -5.783431849690933e-07 0.0 0.0
0.0 2.034611343773175e-06 -1.1794173394994551e-07 1.849524446547311e-07 -6.701071070482646e-08 -2.7369995201493404e-07 0.0 0.0
0.0 0.0 0.0 0.0 0.0 0.0 0.0 0.0
0.0 1.3966405848170538e-07 -1.4502482950358256e-09 5.050208383621678e-09 -3.5999600885900705e-09 4.6402040455033835e-09 0.0 0.0
0.0 -3.6410447112675954e-07 5.59536889220135e-07 -4.468069031270818e-07 -1.1272998609304602e-07 3.049226018074735e-06 0.0 0.0
0.0 1.669057923090135e-06 1.1572170575598029e-06 -9.820796006334286e-07 -1.7513745692637505e-07 1.675541117587172e-06 0.0 0.0
0.0 6.501591467598539e-06 6.979449992942587e-07 -5.19261920151852e-07 -1.7868307914244996e-07 -4.949125776629262e-06 0.0 0.0
0.0 6.278914467206396e-05 -4.8102922954483275e-05 3.6551955115207996e-05 1.1550967839275435e-05 -0.00010062137357069314 0.0 0.0
0.0 0.0006796974313565288 -0.0004709260911856983 0.0003626428200624184 0.00010828327112327943 -0.0006162262571584229 0.0 0.0
0.0 0.002368793922100078 -0.0018859007797149504 0.0015457516389203066 0.0003401491407946428 -0.0019935116545204117 0.0 0.0
0.0 0.005726346855480261 -0.004564407503983588 0.00400881909570521 0.0005555884082783714 -0.0042181285633995 0.0 0.0
0.0 0.010749678860104403 -0.008410092371764374 0.00773733576269548 0.0006727566090688999 -0.00715267502490503 0.0 0.0
0.0 0.016338448605871143 -0.013151103203670729 0.012408627208859177 0.0007424759948115464 -0.010443553015822218 0.0 0.0
0.0 0.022851551955474114 -0.018547544990023403 0.017742903208798583 0.0008046417812248118 -0.013733837250514804 0.0 0.0
0.0 0.030087524848047272 -0.02451798696197977 0.023652191355542074 0.0008657956064377006 -0.016901747506702845 0.0 0.0
0.0 0.03790079083285677 -0.03104552206328077 0.030125832164692577 0.0009196898985881386 -0.019980741574467973 0.0 0.0
0.0 0.046346915485234834 -0.03803953204026972 0.0370812867047951 0.0009582453354746527 -0.023164777156068104 0.0 0.0
0.0 0.05494068368906306 -0.04521319424491647 0.04423973746563653 0.0009734567792798855 -0.026829453959807383 0.0 0.0
0.0 0.06344954311085349 -0.05199058326305356 0.05102768789847564 0.0009628953645778838 -0.031414746476076345 0.0 0.0
0.0 0.07033804020752635 -0.05738809474409049 0.0564789538392636 0.000909140904826867 -0.03681942641268407 0.0 0.0
0.0 0.07379588859403827 -0.05968060531417991 0.05888921287044961 0.0007913924437302395 -0.04158196969376698 0.0 0.0
0.0 0.06973820806291152 -0.055560724778147164 0.05507682433632177 0.0004839004418253952 -0.04291795424755097 0.0 0.0
0.0 0.06760108254949074 -0.04760931162803523 0.043401547013151354 0.0042077646148838965 2.4950527754974416e-14 0.0 0.0
0.0 0.06973820806291657 -0.05556072477814045 0.05507682433631593 0.00048390044182455676 0.04291795424760706 0.0 0.0
0.0 0.07379588859402514 -0.059680605314160265 0.05888921287042977 0.0007913924437304121 0.041581969693822315 0.0 0.0
0.0 0.07033804020750045 -0.05738809474406424 0.05647895383923916 0.0009091409048250375 0.03681942641271266 0.0 0.0
0.0 0.06344954311080377 -0.05199058326301151 0.05102768789843376 0.0009628953645778107 0.03141474647607056 0.0 0.0
0.0 0.05494068368901072 -0.045213194244872704 0.04423973746559276 0.0009734567792799261 0.026829453959788113 0.0 0.0
0.0 0.04634691548518124 -0.038039532040225164 0.03708128670475117 0.0009582453354739897 0.02316477715604526 0.0 0.0
0.0 0.03790079083281001 -0.03104552206324094 0.03012583216465333 0.0009196898985876067 0.019980741574451212 0.0 0.0
0.0 0.03008752484799803 -0.024517986961939117 0.023652191355501395 0.0008657956064377049 0.016901747506682715 0.0 0.0
0.0 0.022851551955424924 -0.018547544989983955 0.017742903208759465 0.0008046417812244915 0.013733837250487711 0.0 0.0
0.0 0.016338448605829826 -0.013151103203638105 0.012408627208826491 0.0007424759948116113 0.010443553015795264 0.0 0.0
0.0 0.010749678860068576 -0.008410092371736153 0.007737335762667735 0.0006727566090684132 0.007152675024881065 0.0 0.0
0.0 0.005726346855460335 -0.004564407503967942 0.0040088190956907325 0.0005555884082772081 0.004218128563387703 0.0 0.0
0.0 0.00236879392208661 -0.0018859007797047088 0.001545751638911427 0.00034014914079328365 0.0019935116545103486 0.0 0.0
0.0 0.0006796974313496738 -0.00047092609118126174 0.0003626428200589317 0.00010828327112232956 0.0006162262571528291 0.0 0.0
0.0 6.27891446702793e-05 -4.810292295408072e-05 3.65519551149266e-05 1.1550967839154107e-05 0.00010062137357013995 0.0 0.0
0.0 6.501591467515442e-06 6.979449988721069e-07 -5.19261919815996e-07 -1.7868307905610302e-07 4.9491257777997045e-06 0.0 0.0
0.0 1.6690579224238503e-06 1.1572170574134805e-06 -9.82079600512414e-07 -1.7513745690106378e-07 -1.67554111674676e-06 0.0 0.0
0.0 -3.6410447172476867e-07 5.595368892655909e-07 -4.468069031633524e-07 -1.1272998610224545e-07 -3.04922601840234e-06 0.0 0.0
0.0 1.39664058228942e-07 -1.4502483010699373e-09 5.050208383987613e-09 -3.599960082914786e-09 -4.640203943966386e-09 0.0 0.0
0.0 0.0 0.0 0.0 0.0 0.0 0.0 0.0
0.0 0.0 0.0 0.0 0.0 0.0 0.0 0.0
0.0 -1.2025212151614905e-07 -2.8111852206668733e-09 1.9303984439410896e-09 8.807867767261456e-10 -2.3879236813071873e-08 0.0 0.0
0.0 -3.997361991093972e-07 3.882647056244493e-07 -3.100186638076338e-07 -7.824604181681777e-08 1.6072968541405347e-06 0.0 0.0
0.0 -2.745059825019999e-06 8.402602061954172e-07 -7.094753785807005e-07 -1.3078482761470668e-07 8.48246232872346e-07 0.0 0.0
0.0 7.585555189481792e-06 1.945022973425565e-06 -1.9944033281486286e-06 4.938035472306925e-08 2.5544309569951465e-06 0.0 0.0
0.0 0.00023090822957523127 -0.00015379208564342717 0.00011515311225304334 3.8638973390383763e-05 -0.000168104252731978 0.0 0.0
0.0 0.001278542110275066 -0.0010595640903092187 0.0008296505298108875 0.00022991356049833133 -0.0009179290873382529 0.0 0.0
0.0 0.003946112290830882 -0.0033095247596021515 0.002798930744900367 0.0005105940147017839 -0.002508439312988389 0.0 0.0
0.0 0.008858794100179522 -0.007110558388310483 0.0064157536358192616 0.0006948047524912217 -0.005060165491223765 0.0 0.0
0.0 0.014722777559376583 -0.012329354302861743 0.011543471590198463 0.0007858827126632903 -0.008342991911370954 0.0 0.0
0.0 0.022420152018311396 -0.018628990173224204 0.017779201154522816 0.0008497890187013865 -0.011859276633732896 0.0 0.0
0.0 0.030993255809509467 -0.025804157703335134 0.024890046192980846 0.0009141115103542651 -0.015343173003458607 0.0 0.0
0.0 0.04042833566292902 -0.03376171105101658 0.032779961923169725 0.0009817491278468736 -0.01868618494155824 0.0 0.0
0.0 0.05073257631864192 -0.04248198404814551 0.041436111334200894 0.0010458727139446044 -0.021928669978055825 0.0 0.0
0.0 0.061785070279890664 -0.051896702622125986 0.05080097890033174 0.0010957237217942277 -0.025284671884616264 0.0 0.0
0.0 0.07364256562277953 -0.061709732576063325 0.06059245837191546 0.001117274204147884 -0.029264923413030365 0.0 0.0
0.0 0.08466501297521212 -0.07118336000391032 0.0700873948481702 0.0010959651557400471 -0.0344090176790634 0.0 0.0
0.0 0.0944011149737284 -0.07887955507503687 0.07786614440654781 0.0010134106684890087 -0.04052473936768697 0.0 0.0
0.0 0.09934413157268063 -0.08233015520661785 0.0814960250642606 0.0008341301423572116 -0.04601209951153924 0.0 0.0
0.0 0.09427410255868854 -0.07741769495950614 0.07693285905400217 0.0004848359055040183 -0.04786061213624386 0.0 0.0
0.0 0.0882215494073272 -0.06778362423237373 0.06295781475046532 0.004825809481908247 2.6234223127197254e-14 0.0 0.0
0.0 0.09427410255868679 -0.07741769495949472 0.07693285905399166 0.0004848359055030459 0.04786061213630186 0.0 0.0
0.0 0.09934413157265869 -0.08233015520659102 0.08149602506423424 0.0008341301423567242 0.04601209951159856 0.0 0.0
0.0 0.09440111497369369 -0.07887955507500324 0.07786614440651524 0.0010134106684878464 0.04052473936772098 0.0 0.0
0.0 0.08466501297514911 -0.0711833600038564 0.07008739484811581 0.0010959651557406235 0.03440901767905902 0.0 0.0
0.0 0.0736425656227141 -0.06170973257600767 0.060592458371859774 0.0011172742041478522 0.029264923413013035 0.0 0.0
0.0 0.06178507027982533 -0.05189670262207014 0.050800978900276864 0.0010957237217933018 0.025284671884594528 0.0 0.0
0.0 0.050732576318576326 -0.04248198404808959 0.04143611133414492 0.0010458727139446775 0.02192866997803547 0.0 0.0
0.0 0.04042833566286392 -0.03376171105096178 0.03277996192311504 0.0009817491278467322 0.018686184941535688 0.0 0.0
0.0 0.030993255809450004 -0.025804157703285226 0.0248900461929316 0.0009141115103536405 0.01534317300343268 0.0 0.0
0.0 0.022420152018258404 -0.01862899017318059 0.017779201154479573 0.00084978901870101 0.011859276633702332 0.0 0.0
0.0 0.014722777559330815 -0.012329354302823923 0.011543471590160868 0.0007858827126630659 0.008342991911344117 0.0 0.0
0.0 0.008858794100149777 -0.007110558388287099 0.006415753635796681 0.0006948047524904193 0.005060165491207918 0.0 0.0
0.0 0.00394611229081095 -0.003309524759586449 0.0027989307448860108 0.0005105940147004373 0.0025084393129764064 0.0 0.0
0.0 0.0012785421102660182 -0.00105956409030255 0.0008296505298055602 0.00022991356049698917 0.0009179290873329245 0.0 0.0
0.0 0.00023090822957251908 -0.00015379208564208322 0.00011515311225203724 3.863897339004614e-05 0.00016810425273071207 0.0 0.0
0.0 7.585555188543192e-06 1.945022973197939e-06 -1.9944033279702125e-06 4.938035477228017e-08 -2.55443095654917e-06 0.0 0.0
0.0 -2.7450598248510743e-06 8.402602058076842e-07 -7.094753782748561e-07 -1.3078482753281072e-07 -8.482462316071781e-07 0.0 0.0
0.0 -3.9973619935379177e-07 3.882647056647221e-07 -3.100186638414182e-07 -7.82460418233039e-08 -1.6072968543050785e-06 0.0 0.0
0.0 -1.2025212151506954e-07 -2.8111852205958148e-09 1.930398443898689e-09 8.807867766964716e-10 2.387923681280424e-08 0.0 0.0
0.0 0.0 0.0 0.0 0.0 0.0 0.0 0.0
0.0 0.0 0.0 0.0 0.0 0.0 0.0 0.0
0.0 0.0 0.0 0.0 0.0 0.0 0.0 0.0
0.0 -4.1045511311281006e-07 1.0185321009140567e-07 -7.992190089158517e-08 -2.1931309199821844e-08 3.3219277461616413e-07 0.0 0.0
0.0 -3.986809127647378e-06 3.1241600109846966e-06 -2.5283865933829425e-06 -5.957734176017299e-07 6.252030328494767e-06 0.0 0.0
0.0 8.44901265362592e-06 -1.518016629737151e-05 1.029614970586505e-05 4.884016591506412e-06 -1.457097065053276e-05 0.0 0.0
0.0 0.0004910389580995704 -0.00037659802684348074 0.0002829165591554244 9.368146768805622e-05 -0.000259426774800934 0.0 0.0
0.0 0.002131788274479415 -0.0018525818092531615 0.0014869040366002559 0.0003656777726529058 -0.0010971531425605528 0.0 0.0
0.0 0.006027726821959864 -0.004962477213202857 0.004318632448462888 0.0006438447647399702 -0.002800714647637015 0.0 0.0
0.0 0.011455048556918111 -0.00988480155723617 0.009091614629079375 0.000793186928156789 -0.005497066596369362 0.0 0.0
0.0 0.01931719010165511 -0.01638911630891475 0.015516801066553954 0.0008723152423608038 -0.008768000048099876 0.0 0.0
0.0 0.02859737493979219 -0.024225230322635093 0.023287394498941218 0.0009378358236938604 -0.012250233804062592 0.0 0.0
0.0 0.03915762683491907 -0.033174291736488025 0.03216683465865935 0.0010074570778287198 -0.015697556199396084 0.0 0.0
0.0 0.05085535383285083 -0.043117400441875356 0.042035832939902824 0.0010815675019724017 -0.019018422321451393 0.0 0.0
0.0 0.06372292745241459 -0.054021335730221144 0.052866790725161455 0.0011545450050597812 -0.02224669561004496 0.0 0.0
0.0 0.07748798991421486 -0.06584091067406665 0.06462409903852548 0.0012168116355411526 -0.02555437119922588 0.0 0.0
0.0 0.09190307650695487 -0.07827121517203887 0.07702660127025782 0.0012446139017810263 -0.029397114115175385 0.0 0.0
0.0 0.1065019677608681 -0.09038344999525982 0.0891743607147648 0.0012090892804950642 -0.03440746999548882 0.0 0.0
0.0 0.11836054645821423 -0.1002703266818521 0.09918491397806357 0.0010854127037883126 -0.040642241319455784 0.0 0.0
0.0 0.12400912529365836 -0.10472033559017258 0.10386814506006632 0.0008521905301062489 -0.04676816371395529 0.0 0.0
0.0 0.11842230881966184 -0.0990601548057129 0.09857312189994796 0.00048703290576496963 -0.05075694651794163 0.0 0.0
0.0 0.11032992647680828 -0.0880100477829299 0.08264359283170666 0.00536645495122329 2.6477084413834007e-14 0.0 0.0
0.0 0.11842230881965288 -0.09906015480569663 0.09857312189993235 0.00048703290576436193 0.050756946518000376 0.0 0.0
0.0 0.12400912529362154 -0.10472033559013488 0.10386814506002809 0.0008521905301067923 0.04676816371401349 0.0 0.0
0.0 0.11836054645815855 -0.10027032668180143 0.09918491397801274 0.0010854127037886684 0.04064224131948741 0.0 0.0
0.0 0.10650196776079354 -0.09038344999519556 0.08917436071469975 0.0012090892804957397 0.0344074699954876 0.0 0.0
0.0 0.09190307650687946 -0.07827121517197405 0.07702660127019323 0.001244613901780802 0.029397114115162076 0.0 0.0
0.0 0.0774879899141363 -0.06584091067399918 0.06462409903845868 0.0012168116355404414 0.025554371199207636 0.0 0.0
0.0 0.06372292745233199 -0.05402133573015003 0.05286679072509066 0.0011545450050593716 0.022246695610022876 0.0 0.0
0.0 0.050855353832773224 -0.04311740044180889 0.04203583293983652 0.0010815675019723214 0.019018422321430986 0.0 0.0
0.0 0.039157626834845694 -0.033174291736426 0.03216683465859758 0.00100745707782838 0.0156975561993699 0.0 0.0
0.0 0.028597374939726868 -0.024225230322580414 0.02328739449888694 0.0009378358236934578 0.012250233804032269 0.0 0.0
0.0 0.019317190101601777 -0.016389116308870147 0.015516801066509498 0.0008723152423606406 0.008768000048074171 0.0 0.0
0.0 0.011455048556881786 -0.009884801557204448 0.00909161462904849 0.0007931869281559559 0.005497066596352103 0.0 0.0
0.0 0.006027726821933291 -0.004962477213181534 0.004318632448442751 0.0006438447647387851 0.0028007146476244325 0.0 0.0
0.0 0.002131788274465772 -0.0018525818092420697 0.0014869040365908133 0.000365677772651255 0.0010971531425537048 0.0 0.0
0.0 0.000491038958094743 -0.00037659802684042416 0.00028291655915310145 9.36814676873228e-05 0.0002594267747988129 0.0 0.0
0.0 8.44901265214228e-06 -1.518016629696656e-05 1.0296149705566524e-05 4.884016591400012e-06 1.4570970650139976e-05 0.0 0.0
0.0 -3.986809128130576e-06 3.1241600108501675e-06 -2.528386593273889e-06 -5.957734175762738e-07 -6.252030328049834e-06 0.0 0.0
0.0 -4.1045511295022066e-07 1.0185321012752235e-07 -7.99219009202903e-08 -2.193130920723066e-08 -3.3219277473211674e-07 0.0 0.0
0.0 0.0 0.0 0.0 0.0 0.0 0.0 0.0
0.0 0.0 0.0 0.0 0.0 0.0 0.0 0.0
0.0 0.0 0.0 0.0 0.0 0.0 0.0 0.0
0.0 0.0 0.0 0.0 0.0 0.0 0.0 0.0
0.0 -1.9259891853480113e-07 -1.2438204119640457e-08 9.900711751953166e-09 2.537492367688598e-09 -3.208399983975565e-08 0.0 0.0
0.0 -5.4897970903353045e-06 3.0539912561597084e-06 -2.500156321375186e-06 -5.538349347845507e-07 5.239164639951131e-06 0.0 0.0
0.0 6.544302858024146e-05 -4.5458925729730656e-05 3.1111279551688026e-05 1.4347646178042702e-05 -1.8367441848717437e-05 0.0 0.0
0.0 0.0007932284244370465 -0.0007460482318596001 0.0005671040213681087 0.00017894421049149094 -0.00033827946020228555 0.0 0.0
0.0 0.003372416830417172 -0.00282302986137414 0.002329138000424867 0.0004938918609492719 -0.0011442999585251873 0.0 0.0
0.0 0.00775089433309824 -0.006818028270716732 0.006073936721860654 0.0007440915488560792 -0.0028709425262276596 0.0 0.0
0.0 0.014723038277057496 -0.012764263125331694 0.011896141205641891 0.0008681219196897904 -0.005388245502852355 0.0 0.0
0.0 0.02384914997910662 -0.02053142825602544 0.019585903254329295 0.0009455250016961636 -0.008402697175889515 0.0 0.0
0.0 0.03484422949971492 -0.029886910070224017 0.02887050569661975 0.0010164043736042734 -0.011633158170704906 0.0 0.0
0.0 0.04742357121136219 -0.04060371882225413 0.039512036270048116 0.0010916825522059863 -0.01483030297124952 0.0 0.0
0.0 0.06146443211107197 -0.05253566041886112 0.051364435073826 0.001171225345035065 -0.017927198397104424 0.0 0.0
0.0 0.07649647221185225 -0.06562014304754021 0.06436864826880859 0.0012514947787316457 -0.020969144398845802 0.0 0.0
0.0 0.09307398274431355 -0.07978598167610414 0.07846290999922878 0.0013230716768754783 -0.024021689732428513 0.0 0.0
0.0 0.1105296511292338 -0.09472448395404788 0.09336485991085919 0.0013596240431886005 -0.02731581491111862 0.0 0.0
0.0 0.12749644651384257 -0.10938236537712284 0.10806696832334778 0.0013153970537749858 -0.03148510234420269 0.0 0.0
0.0 0.1417550165833137 -0.1214130081114653 0.12026071131021017 0.001152296801255128 -0.03719654262478611 0.0 0.0
0.0 0.14881261215791663 -0.12697130371998228 0.1261026100407498 0.0008686936792323704 -0.0442688810076005 0.0 0.0
0.0 0.14276065170210242 -0.12089200669319836 0.1204125786411841 0.00047942805201411465 -0.05210555702306901 0.0 0.0
0.0 0.13307542134400432 -0.10871046008757367 0.10287369618630696 0.005836763901266757 2.4669502551866174e-14 0.0 0.0
0.0 0.14276065170208221 -0.1208920066931741 0.12041257864115967 0.0004794280520143266 0.05210555702312547 0.0 0.0
0.0 0.14881261215787317 -0.12697130371994003 0.12610261004070722 0.0008686936792327187 0.04426888100765539 0.0 0.0
0.0 0.1417550165832444 -0.12141300811140376 0.12026071131014866 0.0011522968012551444 0.037196542624815324 0.0 0.0
0.0 0.1274964465137605 -0.10938236537705148 0.10806696832327654 0.0013153970537748672 0.031485102344203604 0.0 0.0
0.0 0.11052965112914169 -0.09472448395396794 0.09336485991077995 0.0013596240431879138 0.027315814911107746 0.0 0.0
0.0 0.09307398274422035 -0.07978598167602381 0.07846290999914901 0.0013230716768748354 0.024021689732414687 0.0 0.0
0.0 0.07649647221175798 -0.06562014304745899 0.06436864826872794 0.0012514947787309527 0.020969144398826477 0.0 0.0
0.0 0.06146443211098242 -0.052535660418783575 0.051364435073748806 0.001171225345034773 0.01792719839708531 0.0 0.0
0.0 0.0474235712112734 -0.04060371882217845 0.03951203626997261 0.0010916825522058334 0.014830302971223362 0.0 0.0
0.0 0.03484422949964057 -0.029886910070160574 0.028870505696556702 0.001016404373603911 0.011633158170677164 0.0 0.0
0.0 0.023849149979045702 -0.0205314282559733 0.019585903254277406 0.0009455250016958606 0.008402697175866173 0.0 0.0
0.0 0.014723038277011302 -0.012764263125291817 0.01189614120560247 0.0008681219196893531 0.005388245502835853 0.0 0.0
0.0 0.007750894333069558 -0.006818028270692113 0.006073936721837017 0.0007440915488550927 0.0028709425262160746 0.0 0.0
0.0 0.003372416830399096 -0.002823029861359477 0.0023291380004119666 0.0004938918609475111 0.0011442999585185498 0.0 0.0
0.0 0.0007932284244306361 -0.0007460482318547527 0.0005671040213643091 0.00017894421049044216 0.0003382794602000178 0.0 0.0
0.0 6.544302857813104e-05 -4.545892572884868e-05 3.11112795510554e-05 1.4347646177793292e-05 1.8367441848293768e-05 0.0 0.0
0.0 -5.489797090295323e-06 3.0539912559176675e-06 -2.500156321189103e-06 -5.538349347285648e-07 -5.2391646396216924e-06 0.0 0.0
0.0 -1.9259891850927365e-07 -1.243820411784055e-08 9.900711750511593e-09 2.5374923673294314e-09 3.208399983580417e-08 0.0 0.0
0.0 0.0 0.0 0.0 0.0 0.0 0.0 0.0
0.0 0.0 0.0 0.0 0.0 0.0 0.0 0.0
0.0 0.0 0.0 0.0 0.0 0.0 0.0 0.0
0.0 0.0 0.0 0.0 0.0 0.0 0.0 0.0
0.0 -7.18462332870173e-08 -5.322214849680892e-09 4.219826328331633e-09 1.102388521349622e-09 -1.0684932772376604e-08 0.0 0.0
0.0 -6.4835436026209855e-06 4.579135191172067e-06 -3.793877472070075e-06 -7.852577191019869e-07 5.970288848240466e-06 0.0 0.0
0.0 0.000162188477958231 -0.0001311038816240542 9.234072034638538e-05 3.8763161277669044e-05 -3.007618291469498e-05 0.0 0.0
0.0 0.0013845249696660855 -0.0012176931161593976 0.0009418339605471598 0.00027585915561223815 -0.00030033627695301906 0.0 0.0
0.0 0.004503296153106545 -0.003975707107462742 0.00336908849637608 0.0006066186110866613 -0.001071014132409152 0.0 0.0
0.0 0.00988106495374326 -0.008772932912278103 0.007955812080811515 0.000817120831466584 -0.002595015361541107 0.0 0.0
0.0 0.017937970347363337 -0.01570423666367467 0.014773862124985146 0.0009303745386895258 -0.004704919999960145 0.0 0.0
0.0 0.028466158911653418 -0.024708230175653358 0.023696957518713323 0.0010112726569400144 -0.0072679372947215 0.0 0.0
0.0 0.04109979886639751 -0.03556778588979378 0.034479457076810154 0.0010883288129836005 -0.010023973155044068 0.0 0.0
0.0 0.05569298231940317 -0.04804859269139665 0.04687885909695715 0.001169733594439532 -0.012756359947114472 0.0 0.0
0.0 0.07173603017428606 -0.061978383012337185 0.060723677653350495 0.0012547053589867195 -0.015421275236109196 0.0 0.0
0.0 0.0896668948838454 -0.07723046293924801 0.0758929762028684 0.001337486736379516 -0.018079526540865868 0.0 0.0
0.0 0.10861887147828321 -0.09367126726502048 0.09225842597494499 0.001412841290075467 -0.020719673864621358 0.0 0.0
0.0 0.12843057607372843 -0.11094088043590283 0.1094802824240357 0.00146059801186721 -0.02324629711157784 0.0 0.0
0.0 0.14823044264888624 -0.1279551781040901 0.12652896023736251 0.0014262178667276528 -0.02595994588705317 0.0 0.0
0.0 0.16487884896743013 -0.14217553777418918 0.14093752316369268 0.0012380146104965257 -0.030302379415924237 0.0 0.0
0.0 0.17355866098721862 -0.1492326782235028 0.1483374718171458 0.0008952064063568969 -0.03846377099910826 0.0 0.0
0.0 0.16787734057493336 -0.1432957104467553 0.14284567663757686 0.00045003380917860115 -0.051655667538799625 0.0 0.0
0.0 0.1574997883286017 -0.13030869106518467 0.12407914291577413 0.006229548149410369 2.23415036471053e-14 0.0 0.0
0.0 0.16787734057490863 -0.14329571044672887 0.1428456766375501 0.00045003380917884705 0.05165566753884896 0.0 0.0
0.0 0.17355866098716694 -0.14923267822345565 0.1483374718170983 0.0008952064063572403 0.03846377099915454 0.0 0.0
0.0 0.1648788489673504 -0.14217553777411962 0.14093752316362293 0.001238014610496549 0.030302379415946767 0.0 0.0
0.0 0.14823044264879096 -0.12795517810400786 0.12652896023728022 0.0014262178667274613 0.02595994588705429 0.0 0.0
0.0 0.12843057607362365 -0.11094088043581189 0.10948028242394528 0.0014605980118666691 0.023246297111570155 0.0 0.0
0.0 0.10861887147817517 -0.09367126726492726 0.09225842597485226 0.0014128412900749438 0.02071967386461048 0.0 0.0
0.0 0.08966689488373787 -0.07723046293915484 0.07589297620277588 0.0013374867363789543 0.018079526540850134 0.0 0.0
0.0 0.07173603017418147 -0.061978383012247285 0.06072367765326053 0.0012547053589868694 0.015421275236093428 0.0 0.0
0.0 0.05569298231930486 -0.04804859269131169 0.04687885909687251 0.001169733594439181 0.0127563599470928 0.0 0.0
0.0 0.0410997988663145 -0.03556778588972226 0.03447945707673907 0.00108832881298319 0.010023973155020717 0.0 0.0
0.0 0.02846615891158418 -0.024708230175593652 0.023696957518654103 0.0010112726569395554 0.007267937294701561 0.0 0.0
0.0 0.01793797034730751 -0.015704236663626234 0.014773862124937103 0.0009303745386891233 0.004704919999944774 0.0 0.0
0.0 0.00988106495370907 -0.008772932912247774 0.007955812080782184 0.0008171208314655923 0.002595015361531007 0.0 0.0
0.0 0.004503296153086353 -0.003975707107445542 0.003369088496360344 0.0006066186110851961 0.0010710141324033124 0.0 0.0
0.0 0.0013845249696570192 -0.0012176931161521202 0.0009418339605412801 0.00027585915561084126 0.00030033627695092634 0.0 0.0
0.0 0.00016218847795614915 -0.00013110388162289728 9.234072034559089e-05 3.876316127730637e-05 3.0076182914591183e-05 0.0 0.0
0.0 -6.483543602901694e-06 4.579135190665802e-06 -3.793877471688622e-06 -7.852577189771674e-07 -5.970288847783684e-06 0.0 0.0
0.0 -7.184623319621463e-08 -5.322214842869262e-09 4.219826322927047e-09 1.1023885199412321e-09 1.0684932758656047e-08 0.0 0.0
0.0 0.0 0.0 0.0 0.0 0.0 0.0 0.0
0.0 0.0 0.0 0.0 0.0 0.0 0.0 0.0
0.0 0.0 0.0 0.0 0.0 0.0 0.0 0.0
0.0 0.0 0.0 0.0 0.0 0.0 0.0 0.0
0.0 0.0 0.0 0.0 0.0 0.0 0.0 0.0
0.0 -8.135422710868149e-06 7.360697829196518e-06 -6.281949354580712e-06 -1.0787484746158292e-06 7.290832888699107e-06 0.0 0.0
0.0 0.0002995001966843151 -0.00029415317821394015 0.00021026754159656288 8.38856366173772e-05 -1.1815740954223936e-05 0.0 0.0
0.0 0.0021271170126670527 -0.0018337743057012222 0.0014523472104799534 0.0003814270952212679 -0.00017940082166970647 0.0 0.0
0.0 0.005699831878636367 -0.0052471539845236215 0.004553048869646775 0.0006941051148768425 -0.0008167036597165919 0.0 0.0
0.0 0.012114893910427743 -0.010783016063138858 0.009906949319137996 0.0008760667440008826 -0.0019156040779316136 0.0 0.0
0.0 0.02119763446470372 -0.018666108218105847 0.01768077666151816 0.0009853315565876719 -0.003469846726632093 0.0 0.0
0.0 0.033078660569492616 -0.02887837027854007 0.02780674830584335 0.0010716219726967457 -0.0053706370884135605 0.0 0.0
0.0 0.047436249595119356 -0.04122504403857245 0.04006962969111267 0.0011554143474597368 -0.0074293851386028 0.0 0.0
0.0 0.06387385624650063 -0.05546596857385792 0.05422333221950487 0.0012426363543529767 -0.009479111826057606 0.0 0.0
0.0 0.0824997687345349 -0.07139238117115228 0.07006047813187882 0.0013319030392735108 -0.011500798264157808 0.0 0.0
0.0 0.10239798573294284 -0.08881854155545434 0.08740139612020567 0.0014171454352486428 -0.013568952114451804 0.0 0.0
0.0 0.12398526953731995 -0.10746745169265294 0.10597792990005427 0.0014895217925986128 -0.01561620501275408 0.0 0.0
0.0 0.14639658715509085 -0.12684483769443966 0.12530873641088353 0.001536101283556098 -0.017333708657796244 0.0 0.0
0.0 0.16843682410580796 -0.14590886378337228 0.1443795585975796 0.001529305185792811 -0.018529369294024038 0.0 0.0
0.0 0.1874581506288691 -0.1623320605710997 0.16094579979916146 0.001386260771938306 -0.02058886568377378 0.0 0.0
0.0 0.19846494681909443 -0.1715436804399569 0.17057706458051264 0.0009666158594440291 -0.02837113645352719 0.0 0.0
0.0 0.19410945816417607 -0.1667000386380745 0.16633197866357458 0.0003680599744998524 -0.048328510128010344 0.0 0.0
0.0 0.18377331451874415 -0.15339188008285468 0.1468770549340823 0.006514825148772246 1.59837421076503e-14 0.0 0.0
0.0 0.19410945816414843 -0.1667000386380471 0.16633197866354799 0.0003680599744990742 0.04832851012804916 0.0 0.0
0.0 0.19846494681902943 -0.17154368043989915 0.17057706458045407 0.0009666158594452829 0.028371136453566467 0.0 0.0
0.0 0.18745815062877796 -0.16233206057102106 0.1609457997990831 0.0013862607719378783 0.020588865683790956 0.0 0.0
0.0 0.1684368241056933 -0.14590886378327336 0.14437955859748014 0.0015293051857935716 0.018529369294024937 0.0 0.0
0.0 0.1463965871549765 -0.12684483769434066 0.1253087364107851 0.0015361012835555332 0.017333708657791987 0.0 0.0
0.0 0.12398526953719687 -0.1074674516925466 0.10597792989994798 0.0014895217925986796 0.01561620501274751 0.0 0.0
0.0 0.10239798573282369 -0.08881854155535092 0.08740139612010339 0.0014171454352475577 0.013568952114442407 0.0 0.0
0.0 0.08249976873441517 -0.07139238117104899 0.07006047813177507 0.0013319030392738125 0.011500798264147192 0.0 0.0
0.0 0.0638738562463908 -0.055465968573763236 0.05422333221941056 0.0012426363543526077 0.009479111826042453 0.0 0.0
0.0 0.04743624959502705 -0.04122504403849204 0.04006962969103278 0.0011554143474592133 0.007429385138585297 0.0 0.0
0.0 0.03307866056941722 -0.028878370278474192 0.02780674830577783 0.0010716219726963478 0.005370637088398338 0.0 0.0
0.0 0.021197634464643626 -0.018666108218053035 0.01768077666146606 0.000985331556586997 0.003469846726621277 0.0 0.0
0.0 0.012114893910387465 -0.010783016063103145 0.009906949319103155 0.0008760667439999849 0.0019156040779238122 0.0 0.0
0.0 0.005699831878613008 -0.005247153984502506 0.004553048869627116 0.0006941051148754021 0.0008167036597118143 0.0 0.0
0.0 0.002127117012655463 -0.0018337743056912642 0.001452347210471619 0.00038142709521964266 0.00017940082166814934 0.0 0.0
0.0 0.0002995001966817633 -0.0002941531782124464 0.0002102675415955382 8.388563661690814e-05 1.181574095446559e-05 0.0 0.0
0.0 -8.135422710867305e-06 7.360697828862953e-06 -6.281949354326707e-06 -1.0787484745362915e-06 -7.290832888557825e-06 0.0 0.0
0.0 0.0 0.0 0.0 0.0 0.0 0.0 0.0
0.0 0.0 0.0 0.0 0.0 0.0 0.0 0.0
0.0 0.0 0.0 0.0 0.0 0.0 0.0 0.0
0.0 0.0 0.0 0.0 0.0 0.0 0.0 0.0
0.0 0.0 0.0 0.0 0.0 0.0 0.0 0.0
0.0 0.0 0.0 0.0 0.0 0.0 0.0 0.0
0.0 8.018982009700434e-07 -2.9379983592917513e-06 2.3600481480772282e-07 2.7019935444840438e-06 8.58926296293649e-06 0.0 0.0
0.0 0.0006164782610247863 -0.0005312641919055041 0.0003863284047149226 0.0001449357871905817 7.089863505679685e-05 0.0 0.0
0.0 0.0028728263815363878 -0.0025811639572941125 0.0020981592256926157 0.00048300473160149335 3.999424813099273e-05 0.0 0.0
0.0 0.007226743223895267 -0.00657408009534192 0.005814617251884005 0.0007594628434579194 -0.0002954599070296982 0.0 0.0
0.0 0.014376988460449158 -0.012816846537313518 0.011892112918539505 0.0009247336187739914 -0.0008719224713666907 0.0 0.0
0.0 0.02453659829491222 -0.021610449152160083 0.020575707956017916 0.001034741196142169 -0.0016899001400956983 0.0 0.0
0.0 0.03768164632133387 -0.03300060613098497 0.031872317133037155 0.0011282889979477866 -0.0027151424966360953 0.0 0.0
0.0 0.05367693339174748 -0.04681833738431917 0.04559999621206625 0.0012183411722529447 -0.0038440089317895395 0.0 0.0
0.0 0.07232583751828803 -0.06281330430689416 0.06150275159389776 0.0013105527129964373 -0.004994252998887789 0.0 0.0
0.0 0.092755474263897 -0.08074203728815245 0.07933755865779532 0.0014044786303570264 -0.006178709549739313 0.0 0.0
0.0 0.1153843321796222 -0.10032194053388292 0.09883059007529413 0.0014913504585887375 -0.007412360979978486 0.0 0.0
0.0 0.13943421315818455 -0.12113742598042526 0.1195795660496894 0.0015578599307358833 -0.008622397029697297 0.0 0.0
0.0 0.16411983887982795 -0.14248611651336973 0.14089417042854524 0.001591946084824322 -0.009561082513444855 0.0 0.0
0.0 0.18811798787490314 -0.16322367613994834 0.16163380548532028 0.0015898706546281984 -0.009825431815812549 0.0 0.0
0.0 0.2092015027538288 -0.18145311435885253 0.1799082002101072 0.0015449141487453104 -0.009799100948916655 0.0 0.0
0.0 0.22313562288804265 -0.19346166633440415 0.19218096031593973 0.0012807060184641915 -0.01405363307944633 0.0 0.0
0.0 0.2219678710100281 -0.1916424753954604 0.19135978482589486 0.00028269056956538964 -0.03642313132300268 0.0 0.0
0.0 0.213225912775216 -0.1791914844981471 0.17282455796150495 0.006366926536642149 8.56259507742152e-15 0.0 0.0
0.0 0.22196787101000082 -0.19164247539543341 0.19135978482587088 0.00028269056956240553 0.03642313132302663 0.0 0.0
0.0 0.22313562288797156 -0.19346166633434225 0.19218096031587795 0.0012807060184642815 0.014053633079469535 0.0 0.0
0.0 0.20920150275372407 -0.1814531143587621 0.17990820021001697 0.0015449141487451628 0.009799100948924335 0.0 0.0
0.0 0.18811798787477432 -0.16322367613983765 0.16163380548520834 0.0015898706546292277 0.009825431815811862 0.0 0.0
0.0 0.16411983887970075 -0.1424861165132591 0.14089417042843513 0.0015919460848237872 0.00956108251344287 0.0 0.0
0.0 0.1394342131580466 -0.12113742598030593 0.11957956604957036 0.0015578599307356038 0.008622397029693696 0.0 0.0
0.0 0.11538433217949001 -0.10032194053376846 0.09883059007518004 0.0014913504585883687 0.007412360979975721 0.0 0.0
0.0 0.09275547426376508 -0.08074203728803823 0.07933755865768156 0.0014044786303566885 0.006178709549732782 0.0 0.0
0.0 0.0723258375181641 -0.06281330430678708 0.06150275159379069 0.0013105527129964262 0.004994252998879258 0.0 0.0
0.0 0.05367693339164381 -0.04681833738422938 0.04559999621197702 0.001218341172252389 0.003844008931779126 0.0 0.0
0.0 0.03768164632124833 -0.03300060613091023 0.03187231713296291 0.001128288997947356 0.0027151424966272903 0.0 0.0
0.0 0.02453659829484792 -0.021610449152103393 0.0205757079559618 0.0010347411961415779 0.0016899001400902615 0.0 0.0
0.0 0.01437698846040486 -0.012816846537274156 0.011892112918500841 0.0009247336187733109 0.0008719224713626076 0.0 0.0
0.0 0.007226743223867623 -0.0065740800953168685 0.005814617251860147 0.0007594628434567127 0.00029545990702701516 0.0 0.0
0.0 0.002872826381522484 -0.002581163957281922 0.002098159225681949 0.0004830047315999734 -3.9994248131537293e-05 0.0 0.0
0.0 0.0006164782610196932 -0.0005312641919016489 0.0003863284047120113 0.00014493578718963727 -7.089863505655194e-05 0.0 0.0
0.0 8.01898200617444e-07 -2.9379983594159298e-06 2.3600481493262122e-07 2.701993544483408e-06 -8.589262962782554e-06 0.0 0.0
0.0 0.0 0.0 0.0 0.0 0.0 0.0 0.0
0.0 0.0 0.0 0.0 0.0 0.0 0.0 0.0
0.0 0.0 0.0 0.0 0.0 0.0 0.0 0.0
0.0 0.0 0.0 0.0 0.0 0.0 0.0 0.0
0.0 0.0 0.0 0.0 0.0 0.0 0.0 0.0
0.0 0.0 0.0 0.0 0.0 0.0 0.0 0.0
0.0 4.6823311372496806e-05 -4.550776236197114e-05 2.9684833730279648e-05 1.5822928631691514e-05 1.8131818951522055e-05 0.0 0.0
0.0 0.0009924523973752414 -0.0008134922345242517 0.0005876105709541127 0.0002258816635701387 0.00019290631620088957 0.0 0.0
0.0 0.0036145581514612168 -0.0032515759978245023 0.002614739181936274 0.000636836815888226 0.0004203827127377204 0.0 0.0
0.0 0.008424051192388189 -0.007700005897079466 0.0067186997350605826 0.0009813061620189002 0.0005496844413872704 0.0 0.0
0.0 0.016148457312475384 -0.01449988143692754 0.013249959461384964 0.0012499219755425744 0.000604320686340535 0.0 0.0
0.0 0.027006665652800795 -0.024021297339430446 0.02251712789760753 0.0015041694418228787 0.0005716142994320809 0.0 0.0
0.0 0.04118374885991826 -0.036367383390490796 0.034578273926955214 0.0017891094635355282 0.000405733477465353 0.0 0.0
0.0 0.0585079934879294 -0.05140001124795135 0.04927659701640688 0.002123414231544462 0.0001432670793375737 0.0 0.0
0.0 0.07834900895943972 -0.06886082442556808 0.0663511958445053 0.002509628581062757 -0.00020402350390835884 0.0 0.0
0.0 0.1007152792329091 -0.08844437954137374 0.08551083748917077 0.002933542052202962 -0.0006617007801017587 0.0 0.0
0.0 0.1251468208093289 -0.10979929412416958 0.10642685346513148 0.0033724406590381895 -0.0011990762556994203 0.0 0.0
0.0 0.1510526089734604 -0.13240278326175928 0.12861168379608898 0.0037910994656702355 -0.0018193944557289825 0.0 0.0
0.0 0.17746814122736648 -0.15537071663356905 0.151228482427688 0.0041422342058811895 -0.0023969792793008156 0.0 0.0
0.0 0.20279255101999064 -0.1773383652930865 0.1729656285829504 0.0043727367101357726 -0.0026286076756628935 0.0 0.0
0.0 0.22486691009192672 -0.19647600036355128 0.19200981040626774 0.004466189957283137 -0.0023492364363834617 0.0 0.0
0.0 0.24067600685120638 -0.21040905741201074 0.2058147498839832 0.004594307528027657 -0.004752936142574316 0.0 0.0
0.0 0.24391578636682268 -0.21374926216600218 0.2089522996526698 0.004796962513332422 -0.027963804490973177 0.0 0.0
0.0 0.23995769766171432 -0.20474455652045043 0.1928038293622477 0.011940727158202196 2.6229018956769323e-15 0.0 0.0
0.0 0.24391578636679648 -0.21374926216597698 0.20895229965264925 0.004796962513327629 0.027963804490981542 0.0 0.0
0.0 0.24067600685113133 -0.210409057411945 0.20581474988391918 0.004594307528025393 0.004752936142581293 0.0 0.0
0.0 0.2248669100918065 -0.19647600036344692 0.19200981040616533 0.004466189957281879 0.002349236436384794 0.0 0.0
0.0 0.20279255101985294 -0.1773383652929665 0.1729656285828317 0.004372736710134465 0.002628607675660713 0.0 0.0
0.0 0.17746814122722795 -0.15537071663344817 0.15122848242756937 0.004142234205878394 0.0023969792793000454 0.0 0.0
0.0 0.15105260897331496 -0.13240278326163213 0.12861168379596422 0.0037910994656678264 0.0018193944557255252 0.0 0.0
0.0 0.1251468208091845 -0.1097992941240439 0.1064268534650072 0.003372440659036584 0.0011990762556970316 0.0 0.0
0.0 0.10071527923276949 -0.08844437954125187 0.08551083748905136 0.0029335420522004717 0.000661700780097741 0.0 0.0
0.0 0.07834900895930536 -0.06886082442545138 0.06635119584439005 0.0025096285810611942 0.00020402350390472113 0.0 0.0
0.0 0.058507993487817433 -0.051400011247853386 0.049276597016310986 0.002123414231542405 -0.0001432670793406138 0.0 0.0
0.0 0.041183748859824836 -0.03636738339040936 0.034578273926875486 0.0017891094635338162 -0.00040573347746779894 0.0 0.0
0.0 0.027006665652731708 -0.02402129733936958 0.022517127897548332 0.0015041694418212578 -0.0005716142994333763 0.0 0.0
0.0 0.01614845731242664 -0.014499881436884098 0.013249959461342772 0.00124992197554132 -0.0006043206863403979 0.0 0.0
0.0 0.008424051192355952 -0.007700005897050084 0.006718699735032966 0.0009813061620171204 -0.0005496844413866266 0.0 0.0
0.0 0.003614558151445859 -0.0032515759978101536 0.0026147391819237404 0.0006368368158864129 -0.00042038271273641304 0.0 0.0
0.0 0.0009924523973680417 -0.0008134922345183196 0.0005876105709496931 0.0002258816635686286 -0.00019290631619978802 0.0 0.0
0.0 4.682331137183615e-05 -4.55077623615209e-05 2.9684833730003244e-05 1.5822928631517622e-05 -1.8131818951279905e-05 0.0 0.0
0.0 0.0 0.0 0.0 0.0 0.0 0.0 0.0
0.0 0.0 0.0 0.0 0.0 0.0 0.0 0.0
0.0 0.0 0.0 0.0 0.0 0.0 0.0 0.0
SCALARS Wm float 4
LOOKUP_TABLE default
14.09280802500186 2.077068941177043 6.0485023201998604 5.967236763624948
7.345086324996848 3.4695637290523553 1.7646976742429605 2.1108249217015342
0.8451834383839094 0.7527143630770539 0.01948955847056652 0.07297951683628912
0.6065496615011212 0.5514866006674662 0.015442284401442047 0.03962077643221311
1.3373878560535317 0.8681634849275977 0.17189605659666685 0.29732831452926617
3.060344957057196 1.3138993348006518 0.6808886192890595 1.0655570029674841
6.509985332994113 1.9435813912980557 2.0465537028114094 2.5198502388846453
12.208403546219412 2.77775790891793 4.5992887288479904 4.831356908453489
20.731402220951928 3.881745905110273 8.756675969915957 8.092980345925682
32.456464928620456 5.277326153982129 14.845205195864498 12.333933578773847
47.497787690006334 6.958161563941607 23.032868036449038 17.506758089615694
65.65311437817863 8.899390049083749 33.2293680739024 23.52435625519249
86.88939794666756 11.058634514095385 45.542662328423134 30.28810110414903
110.92734576552385 13.38543657084626 59.84603137515701 37.69587781952066
137.23691205025582 15.694842154600892 75.93994488897377 45.6021250066811
164.89403154848767 17.693415153328218 93.4158948706741 53.78472152448535
192.46574958867745 19.060969884453627 111.4669197285894 61.93785997563451
218.18637516207136 19.591344423196716 128.99122049185772 69.60381024701672
240.27126848775578 19.41479936178472 144.59775030541488 76.25871882055648
255.7740397451156 18.111454908806472 156.39216251630603 81.27042232000292
260.6278477151175 15.577506697947236 161.56259584146687 83.4877451757034
255.77403974507598 18.11145490880181 156.39216251628082 81.27042231999336
240.27126848767506 19.414799361781995 144.59775030536014 76.25871882053279
218.1863751619277 19.59134442315944 128.9912204917835 69.60381024698465
192.46574958855595 19.060969884462498 111.46691972849915 61.93785997559432
164.8940315483422 17.69341515331049 93.4158948705867 53.78472152444505
137.23691205011104 15.694842154585672 75.93994488888653 45.602125006638886
110.92734576538359 13.38543657082638 59.84603137507711 37.69587781948015
86.88939794654156 11.058634514082977 45.542662328349074 30.288101104109536
65.65311437806865 8.899390049078551 33.2293680738355 23.52435625515464
47.49778768991035 6.958161563928088 23.03286803639776 17.506758089584494
32.45646492854769 5.277326153971396 14.845205195827237 12.333933578749052
20.731402220900673 3.881745905103527 8.756675969890432 8.092980345906719
12.208403546183932 2.7777579089121667 4.5992887288319775 4.831356908439788
6.509985332973171 1.943581391294369 2.046553702802855 2.519850238875947
3.060344957047418 1.3138993347988295 0.6808886192858291 1.0655570029627577
1.337387856049884 0.8681634849268456 0.17189605659549712 0.29732831452754116
0.6065496615001795 0.5514866006665573 0.015442284401416597 0.039620776432205386
0.845183438382755 0.7527143630760873 0.01948955847050301 0.07297951683616401
7.345086324991472 3.4695637290534553 1.7646976742397475 2.1108249216982644
14.0928080249715 2.077068941161025 6.048502320191882 5.967236763618608
17.001097417448666 7.321240911639915 4.740061821035592 4.939794684773164
3.087831928567656 0.6796351881462193 1.0341247469475292 1.3740719934739059
0.2976007223730912 0.35211160238591926 -0.019524929637084965 -0.03498595037574303
0.464270151636613 0.44322461335595814 0.004452408319563103 0.01659312996109159
1.0003594098775952 0.7032606906856416 0.09604840609550186 0.2010503130964518
2.436140277857866 1.0573115579930346 0.5382961834647298 0.840532536400102
5.340574512883504 1.4871997507589818 1.6871939239341665 2.166180838190356
10.325070770924812 2.0403007103288227 3.980232936044513 4.304537124551478
17.816514520511223 2.714209091601509 7.760298439388343 7.342006989521377
28.059662727889304 3.4931559459529087 13.278730006626745 11.287776775309649
41.121777829557494 4.35283083936295 20.68261594116993 16.0863310490246
56.99367974796768 5.295763663333333 30.046981414890066 21.650934669744302
75.3151394702449 6.3200721685338594 41.09253078699438 27.90253651471665
96.1955115063268 7.3782370324496345 54.06721421755517 34.750060256322
119.1228902935687 8.392703881910496 68.6540027028963 42.076183708761945
143.38860393716152 9.214819290108313 84.49424138299936 49.67954326405378
167.87437248918283 9.67449382263885 100.95197668045768 57.24790198608619
191.07014906018924 9.65907725717469 117.01494742011319 64.39612438290132
210.96447421328958 9.048596858657206 131.30994115398278 70.6059362006495
225.03046172301606 7.94732030812546 141.95186535403076 75.13127606085992
230.48628371363347 6.689679834954768 146.68136029415422 77.11524358452462
225.03046172300395 7.947320308150783 141.95186535400435 75.13127606084875
210.96447421324007 9.048596858683108 131.3099411539303 70.60593620062681
191.0701490600922 9.659077257175088 117.01494742004543 64.39612438287175
167.87437248907506 9.674493822648774 100.95197668037672 57.247901986049484
143.38860393704525 9.214819290109624 84.4942413829191 49.67954326401652
119.1228902934419 8.392703881901268 68.65400270281748 42.07618370872321
96.19551150621483 7.378237032450353 54.067214217480725 34.750060256283746
75.31513947014132 6.320072168534305 41.09253078692698 27.90253651468001
56.99367974786687 5.295763663327122 30.04698141483025 21.65093466970949
41.12177782946991 4.352830839348937 20.68261594112465 16.086331048996332
28.05966272782824 3.493155945950158 13.278730006592072 11.287776775286005
17.816514520467525 2.714209091598893 7.760298439365117 7.342006989503496
10.325070770893735 2.040300710324291 3.980232936030409 4.304537124539032
5.340574512864826 1.487199750754845 1.6871939239271123 2.166180838182867
2.4361402778494377 1.0573115579919141 0.5382961834614916 0.8405325363960332
1.0003594098747022 0.703260690684548 0.09604840609481136 0.201050313095343
0.4642701516361484 0.4432246133553699 0.0044524083195729555 0.016593129961205627
0.29760072237304513 0.35211160238562844 -0.0195249296370085 -0.03498595037557453
3.087831928559451 0.6796351881445188 1.0341247469443342 1.3740719934705998
17.00109741742173 7.321240911628353 4.740061821027236 4.939794684766127
12.966466441307777 5.873216942132937 3.3410527927879023 3.752196706386933
1.9410735478757672 0.30144229299853276 0.6928998550168436 0.946731399860393
0.18349346712624737 0.18281725113757114 0.0001443379287748867 0.0005318780599013791
0.3402642009862363 0.34071012710080983 -0.0005461196359800581 0.00010019352140657774
0.7495834121423818 0.6047251506904024 0.04042281895780335 0.10443544249417601
1.8964487391782106 0.945185285745223 0.3578313830441493 0.5934320703888384
4.338976938047943 1.3535721719658833 1.2598533427353824 1.7255514233466764
8.68756878052301 1.8569831024704118 3.20641374752436 3.624171930528239
15.269687033455323 2.449449034935617 6.464386823378248 6.355851175141458
24.29896953323464 3.1166098967903295 11.27659683253615 9.905762803908159
35.7657118637493 3.850579749212895 17.709942363760778 14.205189750775654
49.564579789717946 4.658198461301748 25.731870126137373 19.17451120227881
65.76326475621485 5.551694314835556 35.47190490620938 24.739665535169923
83.92135371835624 6.506870275476832 46.57023225586931 30.84425118701007
104.05300851971343 7.447330567527062 59.224471203995265 37.38120674819109
125.46548562645447 8.270521367078278 73.001061677007 44.19390258236916
147.22462217548798 8.824219901026716 87.3633945918138 51.03700768264743
167.9180243370113 8.92321642930075 101.47734222476168 57.51746568294887
185.62144415623348 8.429336528611003 114.06436974696759 63.12773788065488
198.13692040887562 7.5972010823661 123.36490710367912 67.17481222283037
202.73238420931938 5.9841547515622775 127.69353651925071 69.0546929385064
198.13692040881762 7.597201082338032 123.36490710365855 67.17481222282096
185.6214441561543 8.429336528594854 114.0643697469241 63.1277378806353
167.91802433691453 8.923216429287152 101.4773422247044 57.51746568292295
147.22462217540067 8.824219901043529 87.36339459174292 51.037007682614146
125.46548562633794 8.270521367063035 73.00106167693889 44.19390258233604
104.05300851960817 7.447330567523275 59.224471203927685 37.38120674815722
83.92135371824821 6.506870275471151 46.57023225580242 30.844251186974574
65.76326475611887 5.551694314828046 35.47190490615272 24.739665535138126
49.564579789632134 4.65819846129696 25.731870126086665 19.17451120224854
35.76571186367632 3.8505797492034426 17.709942363722245 14.205189750750638
24.29896953318098 3.1166098967898948 11.276596832505035 9.905762803886045
15.269687033414872 2.4494490349315488 6.464386823357998 6.355851175125327
8.68756878049779 1.8569831024680752 3.2064137475124093 3.6241719305173072
4.338976938032961 1.3535721719622904 1.259853342730112 1.7255514233405571
1.8964487391709373 0.9451852857440359 0.35783138304156836 0.5934320703853324
0.7495834121407375 0.6047251506896155 0.04042281895750775 0.10443544249361421
0.34026420098604615 0.3407101271005157 -0.0005461196359595087 0.00010019352149003978
0.1834934671262411 0.18281725113760167 0.00014433792877021137 0.0005318780598692876
1.941073547869316 0.30144229299740866 0.692899855014307 0.9467313998575984
12.966466441280762 5.873216942121984 3.341052792779471 3.7521967063793085
9.861895733762545 4.585584191191671 2.3954521229859282 2.8808594195849495
1.3173732967575318 0.13641631087413694 0.4745720821665588 0.7063849037168343
0.1278430303804374 0.1278430303804374 0.0 0.0
0.2517396749182635 0.2539925587042801 -0.000395015711697125 -0.0018578680743195743
0.556291730522905 0.5071093241558025 0.011249245878051435 0.03793316048905118
1.4126478951573267 0.8189034737147239 0.20434728705204952 0.3893971343905529
3.443327544370293 1.2202009367551743 0.9136250451347421 1.309501562480375
7.116448347369036 1.6712575171709365 2.4855129863910213 2.9596778438070803
12.806528442483565 2.18820826359651 5.241787937000073 5.376532241886979
20.620160473146793 2.755783187900756 9.340173696328938 8.524203588917091
30.49656228681746 3.374405438447128 14.798281458445086 12.323875389925252
42.42507903138612 4.066476159387231 21.6626954769111 16.695907395087797
56.221261468698586 4.839369596122305 29.798447284229344 21.58344458834693
72.04082114313871 5.683081465711324 39.424658503737135 26.933081173690272
89.37955556172827 6.5628943496147425 50.13327558116477 32.68338563094877
107.912357135748 7.388373818947911 61.817404476944894 38.70657883985517
127.037785029165 8.018958667540502 74.22997937807904 44.788846983545525
145.35314169420104 8.255642282866953 86.4831345014314 50.614364909902626
161.1367075765582 7.964979114966795 97.46584790019836 55.705880561392924
172.4556455387609 7.294020610900953 105.70945633035679 59.45216859750316
176.6294858274833 5.370494074478944 109.9366460783336 61.322345674670714
172.4556455387818 7.294020610949546 105.70945633033739 59.45216859749481
161.13670757650743 7.964979114962279 97.46584790016652 55.70588056137863
145.35314169414474 8.255642282884649 86.48313450138095 50.614364909879164
127.03778502906965 8.018958667531361 74.22997937802101 44.78884698351728
107.91235713566559 7.388373818953144 61.81740447688637 38.706578839826065
89.37955556163641 6.562894349609614 50.13327558110798 32.68338563091877
72.04082114304019 5.6830814656978665 39.424658503682224 26.93308117366012
56.221261468625265 4.839369596125728 29.79844728418073 21.58344458831877
42.425079031307774 4.066476159375812 21.66269547686988 16.695907395062097
30.496562286757865 3.3744054384456064 14.798281458410372 12.323875389901906
20.62016047309836 2.7557831878973014 9.340173696303033 8.524203588898018
12.806528442450363 2.1882082635964153 5.241787936981975 5.376532241871975
7.116448347345599 1.6712575171672963 2.4855129863811016 2.9596778437971967
3.4433275443588327 1.2202009367539342 0.9136250451299146 1.3095015624749842
1.4126478951520722 0.8189034737133202 0.20434728705047492 0.38939713438827767
0.5562917305214841 0.507109324154794 0.011249245877907463 0.03793316048878183
0.25173967491788474 0.25399255870387616 -0.00039501571168929747 -0.0018578680743020202
0.12784303038029263 0.12784303038029263 0.0 0.0
1.3173732967523342 0.1364163108734202 0.47457208216446345 0.7063849037144508
9.861895733739896 4.58558419118273 2.395452122979126 2.8808594195780453
7.396051804211018 3.5547667159280123 1.6650100193621538 2.1762750689208548
0.9654330644541725 0.12026086004768882 0.3429009584109147 0.5022712459955683
0.1162595966693322 0.1162595966693322 0.0 0.0
0.20105829093920355 0.20122410978764302 -1.3678932770077371e-05 -0.00015213991566937987
0.41223581320504354 0.41059731502685315 -0.0020053850128134137 0.0036438831910039823
1.027903937792325 0.702174412939612 0.1020707646760306 0.22365876017668174
2.6232139883965515 1.0669942688009129 0.6216997891507655 0.9345199304448741
5.635664828764842 1.4860877509430361 1.8308613276254104 2.318715750196397
10.43075298109887 1.931494141028378 4.08952876808402 4.409730071986472
17.040703927784623 2.4099656961867253 7.481677269971138 7.149060961626764
25.40294278794555 2.9292102283461112 12.028399321410822 10.445333238188603
35.43940486792435 3.5123834111222316 17.70746475091097 14.21955670589115
47.13777359996774 4.181107620179631 24.53153660733175 18.42512937245633
60.28428623185129 4.929687594019983 32.32260638138396 23.031992256447303
75.01415546299951 5.7281378625724315 41.29973316405441 27.986284436372664
90.91552614926775 6.542733449662508 51.16977326971771 33.20301942988752
107.30365394728135 7.254387177884709 61.51764939225961 38.531617377137
123.32377331988413 7.662378284252394 71.96947998989494 43.691915045736806
137.41159279890968 7.584196949860102 81.54356634948653 48.28382949956308
147.86085917635216 7.056403624481797 89.0133256267854 51.79112992508487
151.8059569953007 4.802472269631008 93.24912911255738 53.75435561311232
147.86085917633196 7.056403624495863 89.01332562676222 51.791129925073804
137.41159279888183 7.58419694987359 81.54356634945863 48.28382949954966
123.32377331980005 7.662378284229845 71.96947998985381 43.69191504571642
107.30365394721025 7.254387177881664 61.51764939221409 38.531617377114536
90.91552614918314 6.542733449654247 51.1697732696675 33.20301942986136
75.0141554629287 5.728137862577154 41.2997331640055 27.986284436346082
60.28428623177615 4.929687594012887 32.32260638134058 23.03199225642267
47.13777359990026 4.181107620179792 24.531536607289596 18.42512937243086
35.43940486786651 3.512383411120161 17.707464750877143 14.219556705869195
25.402942787893075 2.9292102283436705 12.028399321381421 10.445333238167983
17.040703927744286 2.4099656961832103 7.48167726995032 7.149060961610756
10.430752981067087 1.931494141024683 4.089528768069082 4.4097300719733195
5.635664828746445 1.4860877509406252 1.830861327617526 2.3187157501882947
2.6232139883877195 1.066994268799959 0.6216997891471691 0.9345199304405917
1.0279039377887582 0.7021744129382121 0.10207076467518954 0.22365876017535619
0.41223581320430397 0.4105973150261834 -0.0020053850128482925 0.003643883190969095
0.20105829093891484 0.20122410978738847 -1.3678932772354082e-05 -0.00015213991570129688
0.11625959666909778 0.11625959666909778 0.0 0.0
0.9654330644502297 0.12026086004742992 0.34290095840917445 0.5022712459936264
7.3960518041925365 3.554766715920337 1.66501001935697 2.1762750689152255
5.447975780661494 2.731358555204471 1.129530390476681 1.5870868349803424
0.6862353089049236 0.14520518063300636 0.19879061069021814 0.34223951758169885
0.13164740713010753 0.13164740713010753 0.0 0.0
0.17882971785958016 0.17877418127995223 5.4011995358502175e-06 5.013538009204519e-05
0.32051290064135257 0.33168031524899605 -0.0031969642288489316 -0.007970450378794465
0.7250440145934338 0.5809245823527467 0.03578946679800116 0.10832996544268592
1.8708516068112935 0.9008898795109095 0.3495212887149506 0.6204404385854326
4.311466673833207 1.2910431815760959 1.3078732317352657 1.7125502605218468
8.139980711040415 1.6797978709453782 2.998690748283776 3.4614920918112615
13.605742637335743 2.0804858124205037 5.739368555660671 5.785888269254565
20.471537621025487 2.510857858443694 9.386671928927479 8.574007833654315
28.67495632488485 3.0003152117753373 13.925285966523536 11.749355146585987
38.19000392543168 3.571845079354495 19.345146467354553 15.273012378722644
49.05076438198926 4.230368090274941 25.68871090821118 19.13168538350316
61.09042417462409 4.964955537638356 32.82921735288649 23.296251284099228
74.15084149927934 5.7360402005976585 40.71169734529231 27.70310395338942
88.09953942768817 6.501196837099349 49.359025023148355 32.239317567440466
101.8623625854107 7.104900136222584 58.01880295394033 36.738659495247795
114.3219566796084 7.267231402438225 66.17718620368775 40.87753907348237
124.12380690567885 6.883900254496423 73.03393380489736 44.20597284628502
128.00487238038102 4.284834280238504 77.40948735549743 46.31055074464515
124.12380690565331 6.883900254493462 73.03393380488224 44.20597284627758
114.32195667956283 7.2672314024263995 66.17718620366522 40.877539073471276
101.86236258536943 7.104900136226655 58.01880295390999 36.73865949523271
88.09953942762463 6.501196837090734 49.35902502311215 32.23931756742172
74.15084149922232 5.73604020060537 40.71169734525064 27.703103953366362
61.090424174554286 4.9649555376302805 32.82921735284704 23.296251284076977
49.05076438193048 4.230368090270633 25.688710908177146 19.131685383482694
38.190003925373624 3.571845079349756 19.345146467321907 15.273012378701956
28.67495632483312 3.0003152117713565 13.92528596649511 11.749355146566653
20.471537620985863 2.5108578584447336 9.386671928904052 8.574007833637076
13.605742637303404 2.080485812419489 5.739368555643444 5.785888269240472
8.13998071101734 1.679797870943127 2.998690748273035 3.46149209180118
4.311466673819409 1.291043181576049 1.3078732317285724 1.7125502605147866
1.8708516068040923 0.9008898795089765 0.3495212887127122 0.6204404385824032
0.7250440145907721 0.5809245823515743 0.035789466797483474 0.10832996544171465
0.3205129006405899 0.33168031524812347 -0.0031969642288221284 -0.00797045037871156
0.17882971785901444 0.17877418127938807 5.401199535509287e-06 5.013538009085904e-05
0.13164740712962825 0.13164740712962825 0.0 0.0
0.6862353089017604 0.14520518063268523 0.19879061068893328 0.3422395175801421
5.447975780647724 2.731358555199271 1.1295303904727543 1.5870868349756995
3.8782084057148767 2.067456282233412 0.7062733120364296 1.1044788114450348
0.5102738649016886 0.18855924493440313 0.11048478503548226 0.21122983493180347
0.15857297932443756 0.15857847749164045 -2.8514702602354354e-07 -5.213020176798422e-06
0.17555560691768593 0.17556093344356688 -1.9737344837264589e-07 -5.12915243257676e-06
0.2674686485123495 0.27517701938733036 -0.0016885425173494618 -0.006019828357631415
0.5139422449221165 0.4765441171381014 0.004330329086816601 0.03306779869719876
1.2829175215777884 0.7439675223612207 0.1767634866141946 0.3621865126023732
3.0242977065872334 1.0747789491793935 0.7753115410311139 1.1742072163767263
6.106654182194221 1.4315416704290869 2.126635341154655 2.5484771706104796
10.295878524043633 1.7635602157603998 4.09337119393488 4.43894711434835
15.74638211900382 2.1191422631505916 6.911437672878831 6.715802182974401
22.193958455106696 2.5260530580068417 10.37829381547618 9.289611581623669
29.63688751021832 3.0107386670945044 14.494009687424898 12.132139155698926
38.12369734970615 3.588113082299999 19.293428759204193 15.24215550820196
47.6245011690906 4.2501299409536895 24.759730360180164 18.614640867956744
58.166240079083344 4.979555858862819 30.98089509142177 22.205789128798717
69.18143959159828 5.760309584626017 37.46790660300934 25.95322340396295
80.80925668162308 6.529149813206938 44.54311033700827 29.736996531407858
91.96818796306636 6.979750474844099 51.577424397466544 33.4110130907557
101.1988162002903 6.787517240369956 57.791412807145 36.61988615277534
105.19887183661541 3.8323285758944032 62.421077722923506 38.945465537797446
101.19881620028536 6.787517240379372 57.791412807135416 36.61988615277054
91.96818796303717 6.9797504748368615 51.57742439745205 33.411013090748305
80.80925668158316 6.529149813205841 44.543110336982956 29.736996531394325
69.18143959156224 5.760309584636525 37.46790660297946 25.953223403946264
58.166240079029905 4.979555858862482 30.980895091387932 22.205789128779468
47.62450116904124 4.250129940949634 24.759730360151952 18.614640867939652
38.12369734966076 3.588113082297314 19.293428759178035 15.242155508185402
29.63688751017586 3.010738667092011 14.494009687400997 12.132139155682868
22.193958455066486 2.5260530580034786 10.378293815454722 9.289611581608277
15.746382118969157 2.1191422631479737 6.911437672860876 6.715802182960303
10.295878524017128 1.763560215758536 4.093371193921661 4.4389471143369255
6.106654182177189 1.4315416704298758 2.126635341145537 2.5484771706017764
3.0242977065761916 1.0747789491782516 0.7753115410265471 1.1742072163713926
1.2829175215726065 0.7439675223594943 0.1767634866128005 0.3621865126003116
0.5139422449204221 0.4765441171368584 0.004330329086686447 0.0330677986968778
0.2674686485116256 0.2751770193864263 -0.0016885425173152231 -0.006019828357485553
0.17555560691754107 0.17556093344341464 -1.9737344783652903e-07 -5.129152425718009e-06
0.15857297932411876 0.15857847749131218 -2.851470254176852e-07 -5.213020168041371e-06
0.5102738648997132 0.1885592449342799 0.11048478503467632 0.2112298349307567
3.8782084057041444 2.0674562822289846 0.7062733120337114 1.1044788114414505
2.7278188016704394 1.5737284957072473 0.45184102954464933 0.702249276418544
0.37232656144127263 0.21803925899606205 0.04088596723544279 0.11340133520976774
0.18653673798253026 0.18625289570920855 3.0198622940856594e-05 0.00025364365038082316
0.18380160197397846 0.1837603794748376 2.017186633149033e-06 3.9205312507783196e-05
0.24034997764064328 0.2452574239768637 -0.0009692248798196939 -0.003938221456400676
0.3845451552075943 0.3888772893425614 -0.004862269575350224 0.0005301354403830857
0.826860719303458 0.5906237709615147 0.06335471357411031 0.17288223476783257
1.968947761721885 0.8591333763953604 0.4010074684579842 0.7088069168685414
4.100983365353162 1.1596117802925658 1.237744211193145 1.703627373867452
7.301383632155808 1.4533925928618228 2.718831531870456 3.1291595074235303
11.260705522386807 1.7450229888229685 4.639327197444489 4.876355336119352
16.008534958071664 2.0824509411753303 7.076815207522811 6.849268809373527
21.492291957846085 2.48955625059967 9.990922691334763 9.011813015911654
27.732199203929742 2.9864826138185707 13.370647733786704 11.375068856324457
34.834640755101034 3.586891868124642 17.29625977873616 13.951489108240233
42.6796065418172 4.266809799774824 21.682388426386904 16.730408315655474
51.28460253382097 5.013595239613143 26.61425862145911 19.656748672748705
60.431811829478036 5.890125046934743 31.823019744330793 22.718667038212516
69.93260519716804 6.668829447871958 37.37973963761554 25.884036111680544
78.83160156814108 6.774237144224274 43.08988526802713 28.96747915588965
83.18641196461957 3.4625431119092887 48.1121839921633 31.61168486054701
78.83160156812698 6.774237144217963 43.089885268022016 28.96747915588702
69.93260519716243 6.668829447882119 37.37973963760541 25.8840361116749
60.43181182944971 5.890125046936711 31.823019744311583 22.718667038201446
51.28460253377224 5.013595239600012 26.614258621436765 19.656748672735457
42.679606541766965 4.2668097997601 21.682388426364888 16.730408315641938
34.83464075506568 3.5868918681221653 17.296259778716202 13.951489108227333
27.732199203893874 2.9864826138124783 13.370647733769008 11.375068856312387
21.492291957813368 2.489556250594955 9.990922691318476 9.011813015899913
16.00853495804644 2.082450941177382 7.0768152075075 6.849268809361554
11.260705522362722 1.7450229888219089 4.639327197432048 4.876355336108766
7.301383632135184 1.4533925928576745 2.718831531861869 3.1291595074156424
4.100983365338902 1.1596117802904033 1.2377442111872916 1.7036273738612056
1.968947761715148 0.859133376394714 0.4010074684553801 0.7088069168650537
0.8268607193000893 0.5906237709606351 0.0633547135732498 0.1728822347662047
0.38454515520671484 0.38887728934152 -0.004862269575330884 0.0005301354405256465
0.24034997764012572 0.24525742397618105 -0.0009692248797891552 -0.003938221456266093
0.18380160197350112 0.18376037947416346 2.0171866451193864e-06 3.92053126925214e-05
0.1865367379824117 0.1862528957090339 3.019862294535019e-05 0.00025364365043243985
0.37232656143977383 0.2180392589959007 0.040885967234934754 0.11340133520893822
2.72781880166241 1.5737284957039273 0.4518410295425615 0.7022492764159207
1.7884350840377308 1.1653730253523975 0.2143955443480163 0.4086665143373165
0.286244213102186 0.23501174837845765 0.009214264069823465 0.042018200653904964
0.20969301510361255 0.20970288366610737 9.429108373325692e-07 -1.081147333208506e-05
0.19840391996728254 0.19864054476793633 -2.5805472119133418e-05 -0.0002108193285345607
0.22893141010630652 0.23228784421838794 -0.0007463394949166436 -0.002610094617164766
0.31763812939839864 0.32525222772189916 -0.0039945365736784 -0.0036195617498221335
0.532415066371676 0.4635451193565377 0.01103300616683841 0.05783694084830008
1.1424171405928085 0.6500190781291324 0.15683792442690275 0.3355601380367737
2.4153345312011294 0.8776823662613272 0.5869655213407372 0.9506866435990644
4.44178603307012 1.1165218851124634 1.4297606725846521 1.8955034753730051
7.05728271245058 1.3601936402343264 2.606302924713058 3.0907861475031972
10.217906172593885 1.6416207770377442 4.126618928250088 4.449666467306049
13.84884698091688 1.9827789520978802 5.927480919399918 5.938587109419079
17.988319273818178 2.4020325921850114 8.022252761392021 7.564033920241144
22.751266167216247 2.928341800063902 10.473879769777653 9.34904459737469
28.20229533867935 3.569006598436187 13.321207750754246 11.312080989488928
34.26167037650719 4.278984702872078 16.541304742053608 13.441380931581515
40.882533137387625 5.0882972906726245 20.07305892981876 15.721176916896239
48.65513792096842 6.172571812396601 24.205600072239598 18.276966036332237
57.2800715158987 6.858737546989932 29.22342987035973 21.197904098549007
62.22344525205305 3.237205390965111 34.615037833545884 24.371202027542065
57.28007151590107 6.858737546992927 29.22342987035933 21.197904098548847
48.65513792096188 6.17257181240183 24.205600072232272 18.276966036327764
40.88253313736769 5.088297290675984 20.07305892980435 15.72117691688732
34.26167037648672 4.278984702874752 16.54130474203961 13.44138093157236
28.20229533865237 3.569006598429616 13.321207750742062 11.312080989480707
22.751266167194068 2.9283418000632815 10.473879769765048 9.349044597365726
17.988319273800457 2.4020325921847125 8.022252761382076 7.564033920233667
13.848846980897857 1.9827789520950272 5.9274809193910105 5.938587109411821
10.21790617257229 1.6416207770341007 4.126618928240374 4.449666467297817
7.057282712433502 1.3601936402323358 2.6063029247053406 3.0907861474958236
4.441786033059537 1.1165218851117962 1.4297606725797878 1.8955034753679543
2.415334531193234 0.877682366258264 0.5869655213385567 0.9506866435964139
1.1424171405886558 0.650019078128835 0.15683792442539685 0.3355601380344238
0.5324150663696247 0.46354511935546416 0.011033006166492873 0.05783694084766774
0.3176381293974898 0.32525222772075735 -0.003994536573645869 -0.0036195617496216194
0.22893141010572854 0.23228784421759274 -0.0007463394948918432 -0.0026100946169723993
0.19840391996661927 0.19864054476727022 -2.580547211348151e-05 -0.00021081932853747994
0.20969301510348462 0.20970288366577905 9.429108566131454e-07 -1.0811473151032177e-05
0.2862442131010194 0.23501174837806552 0.0092142640695305 0.042018200653423106
1.7884350840324081 1.1653730253500585 0.2143955443467748 0.40866651433557505
1.142851643598001 0.8693518545100163 0.08436253262995319 0.18913725645803187
0.2290533089655156 0.23269987241989326 -0.004122699028122113 0.00047613557374444646
0.22589096587936222 0.22506364032263915 0.00011038496889633838 0.0007169405878267192
0.21542605812386606 0.21487269766027867 6.186181073287262e-05 0.0004914986528544499
0.23005247775160248 0.2323246562807287 -0.0006244166980667857 -0.001647761831059456
0.28967549762942074 0.29337354932165893 -0.0021078983734102888 -0.0015901533188278946
0.3920903363748465 0.3679582345432152 0.0024333120216977755 0.0216987898099334
0.5923723068071005 0.4508074278394555 0.03428501465427509 0.10727986431336985
1.0808276157237895 0.5745071414027855 0.1616599100214821 0.34466056429952185
2.007764216463905 0.7241507074823277 0.4789390202683431 0.8046744887132349
3.378784065012228 0.9001950341556769 1.0332531694747642 1.4453358613817857
5.020472337153116 1.1066824440664444 1.7134723972393955 2.2003174958472766
6.975370226528973 1.3664425713985535 2.570827862245705 3.038099792884715
9.25679497009816 1.6998566388160528 3.594421506405169 3.9625168248769387
11.931275520820115 2.132381890121052 4.802719029723348 4.99617460097571
15.133801514685777 2.6987588838725385 6.256248866385947 6.178793764427291
18.96506073762121 3.3896884274737396 8.030419791873607 7.544952518273863
23.334615715280044 4.086280434653555 10.163344106632584 9.084991173993902
28.627272550290968 5.022769099357225 12.722662558447173 10.881840892486563
36.44082100585429 6.681673745239256 16.391151772127532 13.367995488487518
43.3365283246492 3.351232283383463 22.654928196292992 17.330367844972745
36.44082100583331 6.681673745211265 16.391151772131753 13.367995488490278
28.627272550276047 5.022769099346502 12.722662558444597 10.881840892484943
23.334615715245587 4.086280434631881 10.163344106625065 9.084991173988639
18.965060737603512 3.3896884274725334 8.030419791864112 7.544952518266862
15.133801514676204 2.6987588838730874 6.25624886638034 6.178793764422776
11.931275520810091 2.1323818901217555 4.802719029717546 4.996174600970797
9.256794970091661 1.6998566388194185 3.5944215063998977 3.962516824872344
6.975370226518282 1.366442571394947 2.5708278622420258 3.0380997928813063
5.020472337145278 1.106682444067747 1.713472397234864 2.2003174958426683
3.3787840650047696 0.9001950341557723 1.033253169471188 1.4453358613778118
2.007764216458597 0.7241507074818021 0.47893902026623403 0.8046744887105614
1.080827615721697 0.5745071414021306 0.16165991002094027 0.34466056429862596
0.5923723068049815 0.45080742783875466 0.03428501465378157 0.10727986431244589
0.3920903363740007 0.36795823454254933 0.0024333120216364227 0.021698789809814684
0.2896754976290669 0.29337354932093546 -0.002107898373367352 -0.0015901533185011074
0.2300524777509999 0.23232465628001467 -0.0006244166980543791 -0.0016477618309604781
0.21542605812355503 0.214872697659806 6.186181074795919e-05 0.0004914986530010621
0.2258909658789858 0.22506364032214538 0.00011038496890659328 0.0007169405879337916
0.22905330896492787 0.2326998724195519 -0.004122699028180611 0.000476135573556709
1.1428516435945038 0.8693518545082254 0.08436253262930894 0.18913725645696836
0.7072788123195651 0.6358404418395559 0.01591290913773179 0.055525461342277524
0.1998300066475958 0.2102151650263365 -0.0025615083270468216 -0.007823650051693843
0.23522605130360652 0.23567868067803888 -5.06847719077793e-05 -0.00040194460252460275
0.23199140742974977 0.231019224183738 0.00012374941246330292 0.0008484338335485687
0.241676064787814 0.2422140161345945 -0.00037657135582146953 -0.00016137999095910578
0.28639837627993914 0.2871459208221992 -0.0013283754192406929 0.0005808308769805746
0.35973642194838207 0.3325723212535322 0.004871853196877275 0.022292247497972748
0.4163775685340271 0.32933608700913175 0.022286098812087804 0.06475538271280748
0.47666952463155865 0.2845653255553612 0.0632034309904598 0.1289007680857379
0.648475803268761 0.2761876747258221 0.1335580382515626 0.23873009029137704
1.0469754397442448 0.30752307173992144 0.2935551378565655 0.4458972301477572
1.6395467238950143 0.3101194983392771 0.5384461576412931 0.7909810679144436
2.4212080396949722 0.3258907918239609 0.8902478356485627 1.2050694122224488
3.375850057184323 0.3804731304975551 1.324597519981144 1.6707794067056256
4.52521813615176 0.4971699745127073 1.8422710751921634 2.1857770864468877
5.868932265492207 0.698173577723382 2.4277962399924986 2.742962447776328
7.4545036594354235 1.0083847836873352 3.1121896432496117 3.3339292324984795
9.242176911050285 1.3948594349233079 3.894842221047719 3.9524752550792575
11.688556969383157 1.9771350736248374 4.941116410305843 4.770305485452479
18.244659161661954 4.220986988526077 7.140047382189596 6.883624790946281
30.50933072199121 3.7068193073842854 14.488680516596212 12.313830898010721
18.244659161683032 4.220986988538155 7.140047382194828 6.88362479095005
11.688556969392504 1.9771350736362185 4.941116410304662 4.770305485451629
9.242176911051544 1.3948594349312375 3.89484222104394 3.9524752550763704
7.454503659421835 1.0083847836832907 3.1121896432443803 3.3339292324941554
5.868932265485539 0.6981735777214906 2.4277962399900983 2.7429624477739516
4.52521813613793 0.49716997450654177 1.8422710751882363 2.1857770864431507
3.375850057174148 0.3804731304932352 1.324597519978379 1.6707794067025339
2.421208039690314 0.32589079182551933 0.8902478356454827 1.2050694122193135
1.6395467238857169 0.310119498335927 0.5384461576386356 0.7909810679111553
1.0469754397393567 0.30752307173886795 0.2935551378548767 0.44589723014561145
0.6484758032678675 0.2761876747247728 0.13355803825148546 0.23873009029160952
0.47666952463072704 0.2845653255551019 0.06320343099019898 0.12890076808542608
0.41637756853362545 0.329336087009526 0.022286098811820886 0.06475538271227871
0.35973642194768674 0.3325723212529077 0.004871853196815046 0.022292247497963963
0.2863983762791379 0.28714592082149987 -0.001328375419269083 0.0005808308769071004
0.24167606478740272 0.2422140161339862 -0.00037657135579716633 -0.00016137999078639738
0.23199140742936775 0.2310192241832243 0.00012374941247601746 0.0008484338336672881
0.23522605130333757 0.23567868067765008 -5.0684771888146165e-05 -0.00040194460242441265
0.19983000664737854 0.2102151650257781 -0.0025615083269915234 -0.007823650051408044
0.7072788123177877 0.6358404418385113 0.015912909137478445 0.05552546134179796
0.44848271618035584 0.4471019720781578 1.3245299453409377e-05 0.0013674988027448482
0.18525724346451417 0.18595335467903 -6.431039521572313e-05 -0.0006318008193001416
0.2380268561186703 0.23766620203815766 8.251371163120683e-06 0.0003524027093496161
0.24589782004331068 0.24472752232580444 0.00014369508262646649 0.0010266026348798758
0.25971466940164856 0.25869625232535126 -0.00014595135935488606 0.0011643684356521743
0.3086035162051297 0.3056089520749119 -0.0009124385430557039 0.003907002673273596
0.4062539455634701 0.3753773243977051 0.005106201212963275 0.025770419952801837
0.6010234640554214 0.4531106259122226 0.036794684683679094 0.11111815345951952
1.0836339490582185 0.5744693870120268 0.16281631995709778 0.34634824208909354
2.007218943856862 0.7238374111375407 0.47875787834850475 0.8046236543708158
3.38537287164354 0.9023974955905807 1.0358096508034844 1.4471657252494752
5.048039790657285 1.1111929070387043 1.726373068655388 2.210473814963195
7.026877270544146 1.3726096397543983 2.5942172555869654 3.0600503752027843
9.288262228561138 1.6957234535758166 3.6146494021426605 3.977889372842657
11.742673672300871 2.0811843560784866 4.731107289207833 4.930382027014546
14.241085624261896 2.528376759749304 5.865428230462216 5.847280634050382
16.471071840040548 3.0149614762364463 6.848662579519895 6.607447784284207
18.244797124590157 3.5923273131221527 7.575804918740541 7.076664892727468
18.853718291939497 3.995884939386466 7.742023422005971 7.115809930547057
15.432402837478856 2.9513202234039086 6.640655199487748 5.840427414587192
30.908271656342702 5.579399606978805 13.454198506015072 11.874673543348814
15.43240283748993 2.951320223407604 6.640655199492061 5.840427414590264
18.853718291921577 3.995884939369242 7.742023422005385 7.115809930546957
18.24479712457804 3.5923273131209443 7.575804918734247 7.076664892722835
16.471071840016645 3.0149614762291805 6.848662579510472 6.607447784277001
14.241085624244942 2.5283767597474553 5.86542823045386 5.847280634043622
11.742673672296862 2.0811843560861827 4.731107289201589 4.930382027009095
9.288262228543218 1.6957234535720636 3.614649402135079 3.9778893728360805
7.026877270527299 1.37260963975269 2.594217255579141 3.060050375195467
5.048039790644997 1.111192907040253 1.7263730686485161 2.210473814956229
3.3853728716310405 0.9023974955893485 1.0358096507980568 1.4471657252436345
2.0072189438495043 0.7238374111362023 0.47875787834588285 0.8046236543674193
1.083633949055103 0.5744693870122515 0.16281631995585125 0.34634824208699994
0.6010234640533958 0.4531106259114159 0.03679468468323812 0.11111815345874165
0.40625394556253014 0.37537732439697574 0.005106201212885976 0.025770419952668086
0.30860351620435245 0.30560895207394395 -0.0009124385430628371 0.003907002673471446
0.2597146694008722 0.2586962523244807 -0.0001459513593514948 0.0011643684357429906
0.24589782004289362 0.24472752232520562 0.00014369508264391114 0.0010266026350442149
0.23802685611861454 0.23766620203799524 8.251371167996975e-06 0.00035240270945112505
0.18525724346432007 0.18595335467887847 -6.431039522137245e-05 -0.0006318008193369199
0.44848271617952734 0.44710197207710684 1.3245299471608877e-05 0.0013674988029487999
0.2888374995028156 0.28891111602996405 -5.074825948644306e-06 -6.854170119983136e-05
0.17103364027438236 0.17113785917522092 -8.366844359126165e-06 -9.585205647945558e-05
0.23445539185159636 0.2351191015994271 -0.00011113368821836375 -0.0005525760596124037
0.2555895359471438 0.25427735165249093 0.00011118026326895886 0.0012010040313839984
0.28228030343079735 0.28341747601831935 -0.0004911662032438049 -0.0006460063842781819
0.35578083176561515 0.3514632983829024 -0.0006064086287199395 0.004923942011432321
0.5544150828148329 0.46522110382231213 0.016384165114943613 0.0728098138775771
1.1530828797122201 0.6508514987756024 0.1610357520948134 0.34119562884180415
2.4159536382296554 0.8772921881538254 0.5873671676547668 0.9512942824210633
4.441102357912353 1.1165853330304132 1.4292413301449256 1.8952756947370133
7.064703062609335 1.3616368770955054 2.6092635574500136 3.0938026280638122
10.242969956582034 1.6450785165220974 4.138210689870689 4.459680750189242
13.890176204352395 1.984934241050045 5.9493658723565215 5.955876090945832
17.990464820647723 2.387094630317864 8.03256997136792 7.570800218961923
22.507954936517237 2.8558938763469843 10.376112234345477 9.275948825824777
27.231965970014567 3.3800435736826246 12.860759410398225 10.991162985933704
31.780835240114403 3.9678351725675705 15.236391666659845 12.57660840088699
35.60224029521887 4.637732162447458 17.120382767065248 13.844125365706137
37.45822535645129 4.975325622828132 18.063962955792867 14.418936777830305
34.912374985921154 4.86929121015887 16.687793591954623 13.35529018380766
43.10124059655732 10.135752085296165 18.296708762010333 14.668779749250808
34.91237498593496 4.869291210163163 16.68779359196051 13.355290183811292
37.45822535644035 4.9753256228228615 18.063962955789354 14.41893677782814
35.60224029519497 4.637732162441321 17.12038276705441 13.844125365699242
31.780835240084638 3.9678351725671157 15.23639166664215 12.576608400875353
27.23196596998715 3.3800435736816006 12.860759410382574 10.991162985922974
22.507954936473656 2.855893876328049 10.376112234331064 9.275948825814545
17.990464820629626 2.3870946303233262 8.03256997135458 7.570800218951728
13.89017620432649 1.9849342410480915 5.949365872343209 5.955876090935191
10.242969956555669 1.6450785165187647 4.138210689858278 4.459680750178629
7.06470306258924 1.361636877094006 2.6092635574404777 3.0938026280547573
4.441102357895781 1.1165853330271445 1.42924133013835 1.8952756947302893
2.415953638221457 0.8772921881531003 0.5873671676514183 0.9512942824169389
1.1530828797073767 0.6508514987750462 0.161035752093138 0.3411956288391923
0.554415082812373 0.46522110382137283 0.01638416511443405 0.07280981387656647
0.3557808317645199 0.35146329838186835 -0.0006064086287329582 0.0049239420113843385
0.2822803034302135 0.28341747601741324 -0.0004911662032001131 -0.0006460063839996966
0.2555895359469067 0.25427735165207305 0.00011118026328550268 0.0012010040315482084
0.2344553918516077 0.23511910159925273 -0.00011113368820113532 -0.0005525760594438509
0.17103364027424942 0.1711378591751502 -8.366844364042907e-06 -9.585205653673645e-05
0.2888374995022031 0.28891111602935876 -5.074825949206164e-06 -6.854170120644613e-05
0.1794871416392055 0.1794871416392055 0.0 0.0
0.15205802947833147 0.15205839870072813 2.725307322189087e-07 -6.41753128860575e-07
0.2241681651006921 0.2248165025015009 -9.298266253694834e-05 -0.0005553547382719405
0.26149862355255715 0.2620675603048706 -0.00016116798025552192 -0.000407768772058156
0.3086995674731092 0.3085060580142693 -0.0004712009058737097 0.0006647103647137172
0.4309080681887585 0.406227561905519 0.001278594860410289 0.02340191142282965
0.857913406030397 0.5973506493667454 0.07456116503529009 0.18600159162836108
1.9754911385675034 0.8592792696992907 0.4044195087155844 0.7117923601526295
4.098837017549389 1.1596587728122343 1.2366277367818816 1.7025505079552703
7.302539134013537 1.4539436231103808 2.719395532368278 3.129199978534878
11.268308962840596 1.7460315589518864 4.641613368477862 4.880664035410846
16.02509948597036 2.083746366958236 7.085522681426346 6.855830437585788
21.50266604361088 2.487042662069796 9.998531837095133 9.017091544445936
27.677965794392346 2.9629867294453676 13.352624666701715 11.362354398245277
34.54613872084467 3.505213402079704 17.171222915691907 13.869702403073045
41.80567722302821 4.097486361675629 21.24851662726594 16.459674234086645
49.12544454841643 4.730759327741496 25.441114022287877 18.953571198387067
55.23834736410268 5.236948960805728 28.94983038047234 21.051568022824636
58.284823397173625 5.3907634966143005 30.786617064943826 22.1074428356155
54.507804287570664 4.820066881363564 28.775138472863873 20.91259893334323
60.98488210816695 13.196430054713897 27.54064441572446 20.24780763772859
54.50780428755936 4.820066881348088 28.77513847286649 20.91259893334476
58.28482339716888 5.39076349662041 30.78661706493697 22.10744283561153
55.238347364091275 5.236948960815432 28.949830380458977 21.051568022816873
49.125444548371384 4.730759327736378 25.441114022262866 18.953571198372128
41.80567722297217 4.0974863616607715 21.248516627240498 16.459674234070896
34.54613872080432 3.505213402080328 17.17122291566706 13.869702403056932
27.677965794353685 2.9629867294413104 13.352624666681102 11.362354398231272
21.502666043570102 2.487042662064356 9.998531837074593 9.017091544431167
16.02509948593441 2.0837463669561096 7.085522681407237 6.85583043757105
11.268308962809844 1.7460315589482467 4.6416133684631244 4.880664035398474
7.302539133990421 1.4539436231092462 2.7193955323568364 3.1291999785243374
4.09883701753574 1.1596587728096461 1.2366277367765324 1.702550507949561
1.975491138559375 0.8592792696979681 0.4044195087126696 0.7117923601487379
0.8579134060262129 0.5973506493652964 0.07456116503430225 0.1860015916266139
0.43090806818765004 0.4062275619046698 0.0012785948603107281 0.023401911422669435
0.30869956747267535 0.3085060580135576 -0.00047120090583721564 0.0006647103649550432
0.26149862355233383 0.2620675603044758 -0.0001611679802329536 -0.00040776877190902024
0.22416816510041498 0.2248165025012914 -9.298266254481855e-05 -0.0005553547383316034
0.1520580294780671 0.15205839870044519 2.7253073379390077e-07 -6.417531118256934e-07
0.17948714163870674 0.17948714163870674 0.0 0.0
0.10536349848664622 0.10536349848664622 0.0 0.0
0.12833385162716074 0.12832962555343333 2.3276924337965782e-07 3.99330448403657e-06
0.2080284056849551 0.2083776653040002 -4.5367531094444045e-05 -0.0003038920879506922
0.26386854567328555 0.2643342945562235 -0.00019747660828088948 -0.0002682722746570591
0.3396889970875411 0.3416899627755862 -0.0013149965285133903 -0.0006859691595315397
0.5649544873071367 0.4919301799356873 0.0161511116230127 0.05687319574843675
1.3007728311182416 0.7406157270399872 0.18408643549726644 0.37607066858098787
3.0247619708572264 1.0753915590984315 0.7757296089466947 1.1736408028120995
6.103965499493011 1.4322915695276244 2.1248347625477093 2.5468391674176756
10.29902748388085 1.7643408515393082 4.094444229681695 4.440242402659849
15.754437193902314 2.1189416528787484 6.916356653039083 6.719138887984481
22.19232723228243 2.522461574482052 10.379514049109227 9.29035160869116
29.596036495128363 2.9991896461158496 14.476651488083565 12.120195360928966
37.996681017664116 3.559239272745815 19.233596624403816 15.203845120514458
47.335286228588544 4.189649281987885 24.617080613746875 18.52855633285379
57.50329614009096 4.858357627447509 30.63689610175482 22.008042410888624
67.37993757431765 5.439145296961202 36.51639670365454 25.424395573701933
75.84685043946831 5.730854744892047 41.83787970588307 28.278115988693195
79.75226618656686 5.425525096269429 44.609661515485335 29.71707957481213
74.97085595896134 4.894021695776866 41.84433529053226 28.23249897265224
81.15384842164296 16.25023313270271 38.44398381364037 26.45963147529985
74.97085595897066 4.894021695787758 41.84433529053136 28.232498972651584
79.75226618654074 5.425525096262316 44.60966151547291 29.71707957480551
75.84685043941218 5.730854744865575 41.837879705863735 28.27811598868284
67.37993757426099 5.439145296957472 36.516396703620494 25.424395573683025
57.503296140045634 4.858357627455917 30.636896101720744 22.008042410868974
47.33528622853535 4.189649281987062 24.617080613714265 18.52855633283403
37.99668101760277 3.5592392727353825 19.233596624372638 15.203845120494726
29.596036495076593 2.99918964611285 14.476651488054339 12.120195360909396
22.1923272322388 2.5224615744814196 10.379514049084282 9.290351608673113
15.75443719385947 2.1189416528725267 6.916356653018582 6.719138887968362
10.299027483849493 1.7643408515377852 4.094444229665731 4.440242402645976
6.103965499471229 1.4322915695232896 2.1248347625387622 2.5468391674091797
3.0247619708448026 1.0753915590966454 0.775729608941779 1.173640802806379
1.3007728311124278 0.7406157270381274 0.18408643549566817 0.3760706685786316
0.5649544873052328 0.4919301799344916 0.01615111162278178 0.05687319574795945
0.33968899708666267 0.3416899627745907 -0.0013149965284983396 -0.000685969159429806
0.2638685456730869 0.2643342945557476 -0.00019747660825502345 -0.00026827227440580565
0.20802840568462208 0.20837766530370253 -4.5367531098371385e-05 -0.0003038920879820167
0.1283338516268625 0.12832962555313512 2.3276924336996675e-07 3.9933044839934034e-06
0.10536349848623962 0.10536349848623962 0.0 0.0
0.05814272821755692 0.05814272821755692 0.0 0.0
0.10228809987742199 0.10228809987742199 0.0 0.0
0.18727935755079564 0.18735497802128032 -9.262914008686903e-06 -6.635755647597095e-05
0.26384270641455143 0.2656600604148629 -0.0003492594285303384 -0.001468094571781186
0.38122264640229375 0.3772041484244175 -0.0012832654300272536 0.005301763407903452
0.7661449734407296 0.5901572574430378 0.04912730776330354 0.12686040823438813
1.8831472439806984 0.9003497952221982 0.3562888397513919 0.6265086090071086
4.308474983459553 1.2925462476518506 1.3058995609951238 1.7100291748125798
8.139156318517967 1.6810307458583837 2.997760124782026 3.4603654478775567
13.611267631614108 2.0811250543214372 5.742007140467965 5.7881354368246996
20.475005535724478 2.508545216656265 9.390015912974427 8.576444406093792
28.64704433346224 2.989126379198737 13.915359436552826 11.742558517710686
38.085024218701804 3.547244117844074 19.29605963556023 15.24172046529749
48.84698400070403 4.201005299507749 25.579722303646108 19.066256397550177
60.8153900498866 4.943657068693317 32.667495924807106 23.2042370563862
73.68756815614742 5.661449730062181 40.45965429537222 27.566464130713044
86.63018439416865 6.148912719643328 48.6258370045027 31.85543467002263
97.03288741472447 6.087311870250992 55.49471141543944 35.45086412903405
101.45462204473351 5.375761280983678 58.859002725127695 37.21985803862213
96.2182800513699 5.130117776922341 55.606827393573425 35.481334880874094
103.16739900788589 19.315670033458154 50.83992141808813 33.01180755633962
96.21828005134905 5.130117776909571 55.60682739356813 35.48133488087133
101.4546220446959 5.375761280978867 58.85900272510582 37.219858038611235
97.03288741465953 6.087311870235616 55.494711415406655 35.45086412901725
86.6301843941055 6.148912719645271 48.625837004460024 31.85543467000023
73.68756815607478 5.661449730053551 40.45965429533073 27.5664641306905
60.815390049818326 4.943657068690189 32.66749592476562 23.2042370563625
48.84698400063841 4.2010052995085845 25.57972230360457 19.066256397525258
38.08502421864429 3.5472441178468657 19.296059635523385 15.241720465274058
28.647044333400448 2.989126379191765 13.915359436520099 11.742558517688568
20.475005535675507 2.5085452166538764 9.39001591294757 8.576444406074062
13.611267631577999 2.0811250543212045 5.742007140448152 5.788135436808644
8.139156318493372 1.6810307458570557 2.997760124770086 3.4603654478662333
4.308474983443212 1.2925462476503298 1.3058995609878834 1.7100291748049985
1.8831472439715329 0.9003497952197445 0.3562888397485367 0.6265086090032529
0.7661449734376583 0.5901572574415962 0.04912730776271123 0.12686040823335057
0.38122264640111453 0.3772041484234522 -0.001283265430094674 0.005301763407757055
0.2638427064142753 0.2656600604144843 -0.0003492594285138001 -0.0014680945716951967
0.1872793575504766 0.18735497802098622 -9.26291401101877e-06 -6.635755649855248e-05
0.10228809987745344 0.10228809987745344 0.0 0.0
0.05814272821743303 0.05814272821743303 0.0 0.0
0.03006578851861235 0.03006578851861235 0.0 0.0
0.07701711162789171 0.07701711162789171 0.0 0.0
0.16437310496949914 0.1643662882058312 3.960330448053176e-07 6.420730623111643e-06
0.26405169392429384 0.26573947999908154 -0.0003494263905947756 -0.0013383596841928798
0.448466960081033 0.43240520861195353 0.002067396924731983 0.013994354544347576
1.036091014775747 0.6890655823347905 0.10462697631122742 0.2423984561297288
2.6273312448207187 1.067341024029277 0.6248612727123511 0.9351289480790891
5.6326742810378265 1.4878470030079294 1.8283237254747955 2.316503552555101
10.43287018916724 1.9328850508591033 4.090160544275422 4.409824594032718
17.047402325288836 2.4100250388188784 7.4854691781111296 7.151908108358831
25.39804802631768 2.923683720986971 12.028792434672596 10.4455718706581
35.3811474816327 3.492601991194822 17.68410926921386 14.204436221223997
46.97048860879094 4.143528112894482 24.4507127255815 18.376247770314954
60.00301272534175 4.897162307595703 32.16436365106521 22.94148676668089
74.70709518669887 5.733957181516818 41.09699823810105 27.876139767080982
90.53943148926946 6.513205896737262 50.941295946245674 33.08492964628653
105.99621830511902 6.856751038595562 60.91111540728107 38.22835185924236
118.44109256037538 6.387052883256462 69.54427007362116 42.50976960349778
123.88767262406603 5.3583425574425325 73.9046198442793 44.62471022234422
118.46415649569506 5.4323001884706565 70.21207800134341 42.819778305880995
126.56602327987595 22.359395473821724 64.2805444537665 39.92608335228773
118.46415649566445 5.4323001884581785 70.21207800133105 42.81977830587515
123.88767262404636 5.358342557463093 73.90461984425232 44.624710222331004
118.44109256032678 6.387052883271338 69.54427007357855 42.509769603476855
105.99621830505117 6.856751038601379 60.91111540723198 38.22835185921781
90.53943148917831 6.513205896727039 50.941295946192426 33.08492964625885
74.7070951866118 5.733957181509164 41.0969982380496 27.87613976705303
60.00301272526339 4.897162307595077 32.164363651015634 22.941486766652666
46.97048860871694 4.143528112892269 24.450712725536793 18.37624777028787
35.38114748156285 3.492601991193304 17.684109269172403 14.20443622119713
25.398048026260415 2.9236837209844344 12.028792434640419 10.44557187063555
17.047402325242885 2.4100250388153146 7.485469178087164 7.151908108340414
10.432870189134988 1.9328850508570639 4.0901605442594 4.409824594018521
5.632674281017996 1.4878470030051862 1.8283237254663076 2.3165035525465028
2.6273312448094672 1.0673410240271743 0.6248612727081856 0.9351289480741044
1.0360910147714895 0.689065582333148 0.10462697631021946 0.24239845612812194
0.44846696007979037 0.43240520861111287 0.002067396924610156 0.01399435454406724
0.2640516939236736 0.26573947999835534 -0.0003494263905838881 -0.0013383596840977653
0.16437310496921356 0.16436628820554652 3.960330447626668e-07 6.4207306222634735e-06
0.07701711162776645 0.07701711162776645 0.0 0.0
0.03006578851870147 0.03006578851870147 0.0 0.0
0.014722443450728451 0.014722443450728451 0.0 0.0
0.05507864311056402 0.05507864311056402 0.0 0.0
0.14226560578235992 0.1422631034576882 1.22441077168008e-07 2.379883594554421e-06
0.26885969650648794 0.27113909379471046 -0.0004830356738050924 -0.001796361614417622
0.5494044915898647 0.49726382614072284 0.01199471384734115 0.040145951601800844
1.4089859662683326 0.8144658759346655 0.2055438074989529 0.3889762828347141
3.441452883654092 1.2206197622192232 0.9126229842114233 1.3082101372234463
7.117130653413414 1.6726816946638443 2.4853970505709233 2.9590519081786475
12.812259100146457 2.1894635622928766 5.2443670018900095 5.378428535963574
20.625707869629082 2.7545021823378053 9.34418145444233 8.527024232848946
30.4794554217536 3.364883875923725 14.79377017088543 12.32080137494446
42.33741276659617 4.03942740691093 21.625268914329986 16.672716445355256
56.00503964728109 4.7925556305328065 29.69125990341329 21.52122411333499
71.68100823462964 5.637836519482894 39.22150303463351 26.821668680513216
88.94690728527667 6.554627387701428 49.85454896067394 32.53773093690129
107.38945193527388 7.360110591231859 61.488050905840645 38.541290438201386
125.58175255938565 7.579384295575953 73.54460157092436 44.457766692885315
140.18524736363304 6.736965391360611 83.99990999498446 49.44837197728799
146.99936901401497 5.391825819964173 89.54688701355607 52.06065618049474
142.02779311402753 5.735491332709382 85.94658829860785 50.34571348271032
151.9200797440888 25.340229521814653 79.34945524264924 47.23039497962487
142.02779311400968 5.73549133271464 85.94658829859199 50.345713482703054
146.99936901395222 5.391825819950363 89.54688701352272 52.06065618047905
140.18524736355343 6.736965391355647 83.99990999493345 49.448371977264365
125.5817525592864 7.579384295564282 73.54460157086537 44.45776669285672
107.38945193518629 7.3601105912382705 61.488050905777996 38.541290438169966
88.94690728517882 6.554627387697933 49.85454896061194 32.537730936868954
71.6810082345356 5.637836519480136 39.22150303457463 26.821668680480826
56.00503964719113 4.792555630528442 29.691259903359168 21.521224113303496
42.33741276651891 4.0394274069112885 21.62526891428214 16.672716445325477
30.479455421684868 3.36488387591757 14.793770170848042 12.320801374919272
20.625707869577198 2.7545021823352904 9.344181454413851 8.527024232828044
12.812259100110932 2.1894635622947622 5.244367001869578 5.378428535946593
7.117130653387909 1.672681694659618 2.485397050560344 2.9590519081679463
3.4414528836401144 1.2206197622162116 0.9126229842062776 1.3082101372176242
1.408985966262098 0.814465875932435 0.20554380749731274 0.3889762828323498
0.5494044915883011 0.4972638261396777 0.011994713847164072 0.040145951601459284
0.26885969650589625 0.2711390937939291 -0.00048303567379189775 -0.0017963616142408646
0.1422656057821309 0.14226310345746238 1.2244107697319608e-07 2.3798835915387224e-06
0.05507864311040223 0.05507864311040223 0.0 0.0
0.014722443450790244 0.014722443450790244 0.0 0.0
0.0071017045274635125 0.0071017045274635125 0.0 0.0
0.038107893546116205 0.038107893546116205 0.0 0.0
0.12424560190370625 0.12424560190370625 0.0 0.0
0.2856484021536343 0.289195988241936 -0.0008698508050119546 -0.0026777352832895356
0.6948482224927146 0.5734142696817925 0.03169012234738881 0.08974383046353357
1.874432904702378 0.9408982034810304 0.3500749549999667 0.5834597462213812
4.336616330779277 1.353971605782636 1.2577074323096034 1.7249372926870346
8.695904071597306 1.8581512067476884 3.2116892215493724 3.6260636433002493
15.278156272003205 2.449940141917743 6.468812206391631 6.359403923693831
24.300880398295412 3.113302235045613 11.279760375887461 9.907817787362342
35.73408486801412 3.836907660354007 17.699068875471514 14.198108332188577
49.45168411336434 4.626344456129561 25.68115207314792 19.144187584086872
65.51237611793813 5.499618150683188 35.34446892510572 24.66828904214918
83.48663114413101 6.441626571087815 46.328805836440054 30.71619873660315
103.39674610571801 7.370910943179373 58.83938755857392 37.18644760396469
124.45249364288887 8.126486009102406 72.41615572878665 43.90985190499975
145.12352365130184 8.320654220376433 86.27898863548648 50.52388079543897
162.12524279347028 7.282185076831264 98.6146746209407 56.22838309569833
170.8446678123326 5.437911266801001 105.91787673068532 59.48887981484636
167.2115261111946 5.986158043394058 103.04845794110659 58.17691012669384
179.48021642233363 28.15221026542784 96.20638809266401 55.12161806424179
167.2115261111592 5.986158043384801 103.04845794108844 58.17691012668597
170.84466781226845 5.4379112668007785 105.91787673064144 59.48887981482633
162.12524279338896 7.282185076836882 98.61467462088105 56.22838309567105
145.12352365119682 8.320654220379355 86.2789886354129 50.523880795404594
124.45249364277818 8.126486009096757 72.41615572871602 43.909851904965386
103.39674610559905 7.370910943170557 58.839387558500775 37.186447603927746
83.48663114403543 6.4416265710955365 46.32880583637265 30.716198736567282
65.5123761178334 5.4996181506784945 35.344468925041554 24.668289042113354
49.45168411327141 4.626344456124979 25.681152073092658 19.144187584053785
35.73408486793649 3.836907660347541 17.699068875428352 14.19810833216059
24.30088039823423 3.1133022350395905 11.279760375855204 9.907817787339429
15.278156271962128 2.4499401419179465 6.468812206368695 6.359403923675493
8.695904071568027 1.8581512067440997 3.211689221536023 3.6260636432879005
4.3366163307622765 1.3539716057792284 1.257707432303371 1.724937292679678
1.874432904694861 0.9408982034791307 0.35007495499758 0.5834597462181507
0.6948482224903304 0.5734142696801343 0.031690122347110834 0.08974383046308573
0.28564840215323617 0.28919598824141146 -0.0008698508049927438 -0.0026777352831827313
0.12424560190349472 0.12424560190349472 0.0 0.0
0.03810789354608042 0.03810789354608042 0.0 0.0
0.007101704527486391 0.007101704527486391 0.0 0.0
0.0033722276858489226 0.0033722276858489226 0.0 0.0
0.026491801384166833 0.026491801384166833 0.0 0.0
0.11487035543775694 0.11487035543775694 0.0 0.0
0.3263849895069691 0.3267368653321104 -0.0007929164898325344 0.0004410406646910446
0.9107607780647564 0.6719095311177891 0.07511377648260821 0.16373747046435924
2.399764557767079 1.0537023103448337 0.520860614606471 0.825201632815774
5.339724613754186 1.4873626015457937 1.685531200517692 2.1668308116907005
10.33316082801985 2.040392155329 3.982688417945055 4.3100802547457935
17.828813764923726 2.7136564315729 7.768433951048843 7.346723382301985
28.05616473831919 3.487497714729966 13.280132333583301 11.288534690005926
41.07524578174287 4.335323089280893 20.664790181433037 16.075132511028908
56.859701870383354 5.261048572875776 29.9841263050235 21.614526992484056
75.03685910036897 6.264094665181668 40.948491928586584 27.824272506600735
95.68316864248852 7.287160995645015 53.789064634665905 34.6069430121776
118.18192172231171 8.214221849651528 68.14283734237881 41.82486253028142
141.5914837944751 8.82692571532783 83.53582687681984 49.22873120232731
164.3667778154812 8.884127445311051 99.07937236067195 56.40327800949823
183.90663407594496 8.062082126032596 113.14973446271783 62.69481748719453
195.14013828824864 5.656420578155435 122.63257944248751 66.85113826760573
194.28317260008276 5.9782381287059305 121.83872841393534 66.46620605744144
209.77639638348285 29.982800022964696 115.88645076250813 63.90714559801005
194.28317260006173 5.978238128712291 121.83872841391661 66.46620605743286
195.14013828818932 5.656420578166605 122.63257944243871 66.85113826758405
183.90663407583165 8.06208212602197 113.14973446264685 62.69481748716287
164.36677781537344 8.884127445326504 99.0793723605871 56.40327800945979
141.591483794345 8.826925715317381 83.53582687673875 49.22873120228893
118.18192172218706 8.21422184965255 68.14283734229456 41.824862530239976
95.68316864236832 7.2871609956414 53.78906463458882 34.606943012138075
75.03685910025527 6.264094665180533 40.9484919285137 27.824272506561016
56.859701870277604 5.261048572871523 29.98412630495926 21.614526992446823
41.07524578165473 4.33532308927386 20.66479018138314 16.075132510997733
28.056164738251123 3.4874977147255612 13.28013233354554 11.288534689980029
17.828813764876244 2.713656431570544 7.7684339510233285 7.346723382282365
10.33316082798648 2.0403921553245374 3.982688417929735 4.3100802547322115
5.339724613733988 1.487362601542149 1.6855312005096754 2.1668308116821633
2.3997645577582767 1.053702310343144 0.5208606146033171 0.8252016328118167
0.9107607780611456 0.6719095311160974 0.07511377648189616 0.16373747046315204
0.32638498950615547 0.3267368653312511 -0.0007929164898313585 0.00044104066473593185
0.11487035543761076 0.11487035543761076 0.0 0.0
0.02649180138413933 0.02649180138413933 0.0 0.0
0.003372227685863151 0.003372227685863151 0.0 0.0
0.0010900724579469838 0.0010900724579469838 0.0 0.0
0.019560688123427424 0.019560688123427424 0.0 0.0
0.1216407947721199 0.1216407947721199 0.0 0.0
0.41189333202239997 0.395334312839824 0.0030107456629745732 0.013548273519601545
1.2178158042910787 0.8314980365908109 0.13360707819586454 0.25271068950440356
3.0631496349282976 1.330628077569498 0.6952754812204891 1.0372460761383093
6.512145440288285 1.9439206381515173 2.044483671527368 2.5237411306093964
12.226324092992826 2.77784876668429 4.609760391983913 4.838714934324628
20.74168610777115 3.879157150485364 8.764298013248828 8.098230944036967
32.44366797923895 5.2651490694575465 14.844948029009577 12.333570880771813
47.4305909252223 6.928113859972696 23.0098356896479 17.492641375601742
65.48728854496377 8.845692383339344 33.15779218772464 23.483803973899764
86.55170807539358 10.96189258963469 45.38537922929369 30.204436256465204
110.23579376485456 13.161799512735112 59.53489684923382 37.539097402885666
135.74379520182993 15.124045075188219 75.31553355631118 45.30421657033044
161.68542358867617 16.363747438721504 92.12829090555705 53.19338524439768
186.01967115052958 16.421683331683177 108.83122664261603 60.76676117623038
206.5426884827497 15.350243005342815 123.82434969227445 67.36809578513247
220.6199026257002 13.731587848020112 134.78975084243476 72.0985639352454
216.34094312450245 6.143933383466493 137.0525455728822 73.1444641681538
295.7509106133565 89.69268628305839 134.26796475445363 71.79025957584446
216.34094312440644 6.1439333833962255 137.05254557286383 73.14446416814631
220.61990262559164 13.731587847985786 134.78975084238215 72.0985639352237
206.5426884826339 15.350243005346641 123.82434969219196 67.36809578509542
186.01967115040804 16.421683331695775 108.83122664252359 60.76676117618872
161.68542358852056 16.363747438696365 92.12829090546717 53.19338524435698
135.74379520168566 15.124045075178609 75.31553355622034 45.30421657028677
110.23579376471568 13.161799512725452 59.53489684914791 37.53909740284236
86.5517080752557 10.961892589617117 45.385379229215104 30.204436256423527
65.48728854485017 8.845692383337072 33.15779218765361 23.483803973859462
47.43059092512373 6.928113859962856 23.009835689592787 17.492641375568088
32.44366797916432 5.26514906945289 14.84494802896754 12.333570880743896
20.74168610771614 3.8791571504792692 8.764298013220776 8.09823094401611
12.226324092954187 2.7778487666778693 4.609760391966538 4.838714934309779
6.512145440264595 1.9439206381474445 2.044483671517641 2.5237411305995097
3.063149634916609 1.3306280775662183 0.6952754812168556 1.0372460761335356
1.2178158042868588 0.8314980365896305 0.13360707819468545 0.2527106895025429
0.4118933320213449 0.3953343128389437 0.0030107456629322226 0.013548273519468506
0.12164079477176035 0.12164079477176035 0.0 0.0
0.019560688123389777 0.019560688123389777 0.0 0.0
0.0010900724579695322 0.0010900724579695322 0.0 0.0
CELL_DATA 800
SCALARS Stress float 6
LOOKUP_TABLE default
170.86061507933908 -523.8907468182507 -181.9219580106237 -110.67944625857218 0.0 0.0
404.1650084443485 -83.1230497385792 115.68043031024325 54.540676854897825 0.0 0.0
419.8563541995235 7.976599654449495 128.39571946761527 -2.6615865278427178 0.0 0.0
478.86607290877987 -16.480398760096165 151.33254287904617 -15.67145657927784 0.0 0.0
557.0701449876101 -23.181929991290403 212.38279411753354 -11.685629249384021 0.0 0.0
632.5776824878568 -19.608831300629262 283.97580424392294 -10.43224870926792 0.0 0.0
705.59385429034 -14.003962075297139 337.7644197424528 -11.360150718724453 0.0 0.0
779.7861389492268 -0.0835465462659215 385.78820964197115 -13.325211842409407 0.0 0.0
857.2815923589427 22.67973307229535 436.99841826439086 -15.198978504645012 0.0 0.0
937.4142359190419 52.943839248326924 492.73291460516253 -16.38788372496099 0.0 0.0
1018.1030723730177 88.0923390216656 551.0380762485505 -16.855269133918274 0.0 0.0
1097.916181743585 126.7457551624135 610.557990902585 -16.829049411656204 0.0 0.0
1177.0242284642547 167.9622826390916 670.9217262451731 -16.645515219807383 0.0 0.0
1256.271359722826 212.3136840666965 732.860911273557 -16.317574079973365 0.0 0.0
1336.146531402114 260.3029738796837 796.8954036701766 -15.696955671766588 0.0 0.0
1415.8190165153967 311.23865609498796 862.281023949921 -14.58570225830271 0.0 0.0
1492.8351066719854 363.1203231123231 926.7997595940083 -12.881555325627339 0.0 0.0
1564.8959098152393 414.2584179452559 988.443191055077 -10.956895416604311 0.0 0.0
1632.3827262230443 465.89500849396063 1047.962299427887 -10.661624123583628 0.0 0.0
1735.4360810926996 560.253038434925 1146.1709319465579 -17.672888757144893 0.0 0.0
1735.4360810926494 560.2530384348825 1146.1709319464842 17.672888757070968 0.0 0.0
1632.3827262221605 465.8950084931219 1047.9622994273532 10.661624123656555 0.0 0.0
1564.8959098129892 414.25841794307337 988.4431910535255 10.956895416686244 0.0 0.0
1492.8351066718737 363.1203231123182 926.7997595938996 12.881555325614197 0.0 0.0
1415.819016514771 311.23865609449916 862.281023949467 14.585702258332166 0.0 0.0
1336.14653140043 260.3029738781264 796.8954036689368 15.696955671608729 0.0 0.0
1256.2713597223724 212.31368406641934 732.8609112732445 16.317574080052708 0.0 0.0
1177.024228463659 167.96228263869415 670.9217262447651 16.64551521994167 0.0 0.0
1097.916181742838 126.7457551618935 610.5579909020449 16.829049411569926 0.0 0.0
1018.103072372776 88.09233902167534 551.0380762483371 16.855269133956355 0.0 0.0
937.4142359184386 52.94383924796742 492.73291460474434 16.38788372471761 0.0 0.0
857.281592358403 22.67973307201575 436.9984182640072 15.198978504619003 0.0 0.0
779.7861389484815 -0.08354654673087225 385.7882096414752 13.32521184224744 0.0 0.0
705.5938542902583 -14.003962075080409 337.7644197423997 11.3601507185701 0.0 0.0
632.5776824877975 -19.608831300395295 283.9758042438176 10.43224870904616 0.0 0.0
557.0701449877168 -23.181929990856588 212.3827941175082 11.685629249381607 0.0 0.0
478.866072908626 -16.48039875998142 151.33254287898637 15.671456579448446 0.0 0.0
419.8563541994287 7.976599654532145 128.39571946762382 2.6615865280541646 0.0 0.0
404.16500844426923 -83.12304973857944 115.68043031018601 -54.54067685480111 0.0 0.0
170.86061507986958 -523.8907468178423 -181.92195801013634 110.67944625810678 0.0 0.0
70.07935534839646 -550.3039326950116 -243.4421460227631 -161.07173087915174 0.0 0.0
279.8624878872604 -76.74417299302546 61.27949851736658 8.421488500965994 0.0 0.0
368.7407452126213 34.1559781055603 120.88209234845577 -9.606290743273217 0.0 0.0
443.96459080015285 -14.958858769079088 134.15924071784724 -36.1296371249436 0.0 0.0
529.6240634848639 -23.214909730661702 189.46349470155576 -33.628792900280445 0.0 0.0
609.3790447945033 -20.233858213711706 264.80718718124143 -30.880673024553975 0.0 0.0
686.0083209645825 -13.985096667813579 325.2624687725196 -32.2253588276874 0.0 0.0
761.1473083307146 -0.15585785605917124 375.5444978470793 -35.19857464648383 0.0 0.0
837.1466887491475 21.17622111281554 425.7788829242819 -37.978120127212726 0.0 0.0
913.9001571997833 48.59186478494637 478.5721772492154 -39.35971776575579 0.0 0.0
989.8791398671171 79.81765268049068 532.6345668205367 -39.42538494796535 0.0 0.0
1064.6414388498156 113.70604559354936 587.2741024201548 -38.828241895957134 0.0 0.0
1138.4566397264116 150.49294531652092 642.7998060616201 -37.9838274420156 0.0 0.0
1212.1183519319159 190.00214349332018 699.5525635541874 -36.92569925145079 0.0 0.0
1285.8088330852183 232.29867953770062 757.6714769072603 -35.38872459467099 0.0 0.0
1359.0504197714013 277.1265027076016 816.8009350751975 -32.98588175566759 0.0 0.0
1430.9386351326693 323.97841974342236 876.2303659509596 -29.681297231104473 0.0 0.0
1501.2395396682268 373.38246349083175 936.0789223815041 -26.477353798376207 0.0 0.0
1577.4465248342874 434.0560367704337 1004.3755014957887 -25.17052346759093 0.0 0.0
1634.3173730463777 482.1196369370821 1056.7334730668151 -25.86713937549368 0.0 0.0
1634.317373047512 482.1196369382433 1056.7334730675482 25.867139375512465 0.0 0.0
1577.4465248361216 434.05603677232136 1004.3755014970135 25.170523467724067 0.0 0.0
1501.2395396689103 373.382463491633 936.0789223819327 26.477353798663707 0.0 0.0
1430.9386351333167 323.97841974419157 876.2303659512846 29.681297231088895 0.0 0.0
1359.0504197709158 277.1265027072274 816.8009350748422 32.98588175558618 0.0 0.0
1285.8088330850028 232.2986795376351 757.6714769071144 35.38872459473103 0.0 0.0
1212.11835193187 190.00214349347402 699.5525635541029 36.92569925149808 0.0 0.0
1138.4566397273102 150.49294531762934 642.7998060621635 37.98382744214375 0.0 0.0
1064.6414388490455 113.70604559298482 587.2741024195891 38.82824189588546 0.0 0.0
989.8791398655409 79.81765267914705 532.6345668195253 39.42538494798967 0.0 0.0
913.9001571994123 48.59186478484813 478.5721772489617 39.359717765823355 0.0 0.0
837.1466887491616 21.176221113131675 425.7788829243247 37.978120127258954 0.0 0.0
761.1473083303206 -0.15585785617716397 375.54449784685687 35.19857464652101 0.0 0.0
686.0083209632411 -13.985096668887607 325.26246877165187 32.22535882783267 0.0 0.0
609.3790447941035 -20.23385821377873 264.8071871809108 30.88067302453654 0.0 0.0
529.6240634848538 -23.214909730371673 189.4634947014876 33.62879290023314 0.0 0.0
443.96459079988824 -14.958858769172709 134.1592407177266 36.12963712484497 0.0 0.0
368.7407452125907 34.15597810548873 120.88209234842957 9.606290743186602 0.0 0.0
279.8624878873299 -76.74417299270779 61.27949851749281 -8.421488501115896 0.0 0.0
70.0793553486291 -550.3039326947161 -243.44214602247825 161.0717308790064 0.0 0.0
15.109564032758101 -560.2540327786023 -270.02136810837544 -176.69517981785611 0.0 0.0
156.88363888622146 -64.59603459194372 27.68628128828332 -46.8180212706602 0.0 0.0
299.4478267804832 38.220581562336584 101.30052250284594 -34.22443617297104 0.0 0.0
399.14195062386796 -5.724152673516706 119.57040171629184 -56.66692816937115 0.0 0.0
493.52660958688864 -21.98202331218511 165.59694520385594 -57.64698759328403 0.0 0.0
582.5286142410588 -22.016243340412146 240.93607053767636 -52.92435185062729 0.0 0.0
662.3769330189456 -13.118605551516879 309.86233924403587 -53.45897098050556 0.0 0.0
738.0656158235446 -0.13824871122402982 362.7095858192068 -56.91302093236759 0.0 0.0
812.7846079191877 19.676665463837764 412.3464870264555 -60.17786988343774 0.0 0.0
886.0857958694393 43.94408028713673 462.0687080674004 -61.5089465715798 0.0 0.0
957.5792846331167 71.15325655551439 511.9627815838934 -61.16717950212443 0.0 0.0
1027.2940404914782 100.83832814240515 562.0177582042047 -60.02743224180199 0.0 0.0
1096.0229906029747 132.758033703681 612.596650585481 -58.64778794237923 0.0 0.0
1163.8965235835544 167.1320219872513 663.9202931025445 -56.898000085872766 0.0 0.0
1231.2154542468772 203.5182230602942 715.9273247956926 -54.5058407311527 0.0 0.0
1298.2097524526882 242.21911471326166 768.8786696853306 -51.10805438580405 0.0 0.0
1365.4113475662966 284.30792512435147 823.5628215754659 -46.77493784822291 0.0 0.0
1434.9128630709306 332.78512331235146 882.5145375036964 -42.42336790673639 0.0 0.0
1500.602215755362 382.5839743185476 940.2007971240331 -38.124797539486416 0.0 0.0
1547.6779100380252 419.9324363238031 982.3409735154885 -32.73744183980082 0.0 0.0
1547.6779100369358 419.9324363227446 982.3409735146876 32.737441840020594 0.0 0.0
1500.602215753489 382.58397431671625 940.2007971226882 38.12479753954978 0.0 0.0
1434.912863068032 332.78512330949263 882.514537501603 42.42336790668316 0.0 0.0
1365.4113475665456 284.3079251247208 823.562821575639 46.77493784830087 0.0 0.0
1298.209752451711 242.21911471241225 768.878669684513 51.10805438587022 0.0 0.0
1231.2154542463763 203.51822305994006 715.9273247951772 54.50584073111058 0.0 0.0
1163.8965235824173 167.13202198629807 663.9202931016978 56.89800008597217 0.0 0.0
1096.022990603185 132.75803370412018 612.5966505855622 58.647787942546124 0.0 0.0
1027.2940404903566 100.83832814149486 562.0177582033734 60.02743224175481 0.0 0.0
957.5792846325587 71.15325655516594 511.9627815834441 61.16717950203235 0.0 0.0
886.085795869529 43.94408028750729 462.0687080674419 61.50894657167865 0.0 0.0
812.78460791917 19.676665464160436 412.34648702644216 60.17786988369376 0.0 0.0
738.0656158230468 -0.13824871136323225 362.7095858188957 56.913020932568706 0.0 0.0
662.3769330186201 -13.118605551554694 309.8623392437938 53.458970980416375 0.0 0.0
582.5286142404865 -22.016243340673626 240.936070537223 52.92435185059604 0.0 0.0
493.5266095871309 -21.98202331152511 165.59694520398432 57.6469875932403 0.0 0.0
399.14195062386955 -5.724152673027275 119.57040171643233 56.666928169342356 0.0 0.0
299.4478267805305 38.22058156230803 101.30052250285152 34.22443617277034 0.0 0.0
156.88363888638906 -64.59603459156689 27.686281288446636 46.81802127036983 0.0 0.0
15.109564032873209 -560.2540327785435 -270.0213681081956 176.69517981753353 0.0 0.0
-6.088045630226162 -550.0393314994672 -268.72296366567275 -178.70624452849273 0.0 0.0
89.57531586554778 -59.67344765072092 8.970560464448056 -93.66919984990294 0.0 0.0
233.9590152731966 34.48093677334817 80.53198561396343 -67.67187900189256 0.0 0.0
345.072082792867 3.9536860241931393 104.90882430484156 -79.07197578189975 0.0 0.0
447.722722418387 -20.061070537500445 141.22007605481133 -84.21123477089648 0.0 0.0
546.2623900715979 -22.006771883860452 213.07781669829893 -76.74625738065089 0.0 0.0
632.1405282276439 -13.402215417164257 288.5650671331721 -75.35775296881128 0.0 0.0
710.3530745496416 0.4528163077895968 347.1205233639284 -78.54684022224306 0.0 0.0
783.460994572545 17.99051241885209 396.130314955829 -81.76805606335121 0.0 0.0
853.5394995911217 39.08294003188911 443.0097072874589 -82.84837294949307 0.0 0.0
920.7361827927616 62.37957660857437 488.92240185708323 -82.08834336166467 0.0 0.0
985.6993146503457 87.71623602066005 534.4818297387267 -80.49352521444996 0.0 0.0
1049.027801877201 114.9478117878876 580.052749520919 -78.56159670436276 0.0 0.0
1111.3838720585984 144.02811405301497 626.0081353797216 -76.20295919915681 0.0 0.0
1172.4536732208014 174.34820636548076 671.8908530536926 -73.10439607933084 0.0 0.0
1232.9663230674767 206.9145545486031 718.5465135485427 -69.00655300524669 0.0 0.0
1295.371775666852 244.01456821082692 768.3293685583201 -64.00964009636844 0.0 0.0
1359.3298304987688 286.387053384788 821.4730895471017 -58.249534968528174 0.0 0.0
1418.934985743844 329.02436693691993 872.5567181759659 -50.714210789455045 0.0 0.0
1462.6104581059194 361.30389955781027 910.4723164535233 -39.96528842180071 0.0 0.0
1462.6104581083737 361.30389956029546 910.4723164553789 39.965288421858524 0.0 0.0
1418.9349857449356 329.02436693812047 872.5567181767113 50.714210789729904 0.0 0.0
1359.3298304987227 286.3870533848538 821.4730895468355 58.24953496878027 0.0 0.0
1295.3717756672486 244.01456821135702 768.3293685585941 64.00964009648202 0.0 0.0
1232.9663230671817 206.9145545484218 718.5465135483237 69.00655300525773 0.0 0.0
1172.4536732202375 174.34820636505071 671.8908530532742 73.10439607931022 0.0 0.0
1111.3838720577137 144.02811405233598 626.0081353790852 76.20295919934216 0.0 0.0
1049.0278018772813 114.9478117882004 580.0527495208937 78.56159670447457 0.0 0.0
985.6993146495212 87.71623601998684 534.4818297381951 80.49352521430401 0.0 0.0
920.7361827921575 62.37957660815465 488.92240185664116 82.0883433615546 0.0 0.0
853.5394995913082 39.08294003231717 443.0097072875471 82.84837294944909 0.0 0.0
783.4609945726098 17.990512419115902 396.130314955815 81.76805606310143 0.0 0.0
710.3530745499672 0.4528163084285808 347.1205233641333 78.54684022223107 0.0 0.0
632.1405282278513 -13.402215416586884 288.565067133199 75.3577529688538 0.0 0.0
546.2623900710626 -22.006771884048973 213.07781669789867 76.74625738065407 0.0 0.0
447.72272241797214 -20.061070537721022 141.2200760545656 84.21123477072251 0.0 0.0
345.07208279247004 3.9536860238147007 104.90882430461784 79.07197578174011 0.0 0.0
233.9590152730685 34.48093677287846 80.53198561378409 67.67187900172175 0.0 0.0
89.57531586556647 -59.67344765054211 8.970560464507304 93.66919984977055 0.0 0.0
-6.088045630185761 -550.0393314992778 -268.72296366547414 178.70624452839724 0.0 0.0
-11.275837736967006 -527.7896803723602 -251.89724656558613 -175.90023804026583 0.0 0.0
52.72059588898581 -55.99298713709632 -0.9817173744331491 -130.1730886740921 0.0 0.0
178.0157853641336 27.577528079932648 61.67799403321986 -101.44910087812342 0.0 0.0
287.2964980271173 10.583334096973562 89.39367673807715 -102.8516662103299 0.0 0.0
390.72784986765697 -15.697180739211442 117.95306252918013 -111.65993442037893 0.0 0.0
499.1947590371334 -21.558595649519678 181.48496578724308 -103.65664069648594 0.0 0.0
594.699377632586 -13.940950254013309 261.11983249761397 -98.69253018399364 0.0 0.0
676.3177786072913 0.5722717798699364 326.79484170860076 -100.15474398560485 0.0 0.0
748.6052576877951 16.377502956762356 376.76438980708963 -102.76932298865135 0.0 0.0
815.6147061919852 34.05011221756853 421.03234285149136 -103.43201310695292 0.0 0.0
878.8089713151435 53.510907103773015 463.2152975053666 -102.19871272768572 0.0 0.0
938.8702103000903 74.46896891885196 504.2208473388355 -100.16541747843594 0.0 0.0
996.9544521395419 96.88590803723656 544.8187449596325 -97.8203639768231 0.0 0.0
1053.5087869479748 120.77502348033865 585.3103068375071 -94.84257139720265 0.0 0.0
1108.649315907935 145.44395834046077 625.439533138235 -91.12029600087374 0.0 0.0
1163.1098731103054 171.64653600540254 665.9213712135529 -86.63330183552809 0.0 0.0
1218.5289524277252 201.71990326889528 708.7180683268809 -81.15511129770698 0.0 0.0
1276.1180598863434 236.89384102520958 755.0850337963127 -74.14314747846473 0.0 0.0
1331.5773466282574 273.58569768224214 801.1219457919204 -63.71380265845073 0.0 0.0
1375.5584249749895 303.6496518409415 838.0650657855068 -48.1734613270355 0.0 0.0
1375.5584249765193 303.6496518425369 838.0650657864219 48.17346132731444 0.0 0.0
1331.5773466292133 273.58569768330386 801.12194579244 63.713802658741386 0.0 0.0
1276.118059885179 236.89384102424134 755.0850337956308 74.14314747883844 0.0 0.0
1218.528952426107 201.71990326728434 708.7180683257524 81.15511129757135 0.0 0.0
1163.109873108855 171.64653600408764 665.9213712125309 86.63330183558926 0.0 0.0
1108.6493159086745 145.44395834135884 625.4395331388004 91.12029600085772 0.0 0.0
1053.508786948469 120.77502348102621 585.310306837789 94.84257139726617 0.0 0.0
996.9544521396024 96.88590803750051 544.8187449597069 97.8203639768906 0.0 0.0
938.8702102998736 74.46896891877171 504.22084733863545 100.16541747826385 0.0 0.0
878.8089713152494 53.51090710412126 463.21529750534995 102.19871272775754 0.0 0.0
815.6147061911388 34.050112216916176 421.03234285085784 103.43201310685183 0.0 0.0
748.6052576870936 16.37750295626796 376.7643898066474 102.76932298853137 0.0 0.0
676.317778606984 0.5722717799151837 326.7948417083914 100.15474398571808 0.0 0.0
594.6993776326362 -13.94095025351502 261.11983249760044 98.6925301841228 0.0 0.0
499.1947590365825 -21.558595649738624 181.4849657868398 103.65664069643881 0.0 0.0
390.7278498675577 -15.697180738761578 117.95306252924577 111.65993442034741 0.0 0.0
287.2964980270962 10.583334097396918 89.39367673820229 102.85166621007963 0.0 0.0
178.01578536427292 27.577528080065548 61.67799403330153 101.44910087777326 0.0 0.0
52.72059588904719 -55.99298713678942 -0.9817173743226624 130.1730886737932 0.0 0.0
-11.275837736903839 -527.7896803720998 -251.8972465653533 175.90023804016778 0.0 0.0
-9.227274041153905 -497.4230472790062 -225.89857411121403 -171.87643330527115 0.0 0.0
31.379961301299964 -51.91527336918212 -6.160593620364645 -157.456377945359 0.0 0.0
130.7613650445491 20.1206969890093 45.26461861006752 -131.12371985249607 0.0 0.0
229.26198610308066 13.264700694531212 72.7540295807 -126.84825420959618 0.0 0.0
324.5905259316722 -8.767121717648719 96.69926220770523 -137.23470236510323 0.0 0.0
435.88216337082065 -20.612998503838604 146.80777784498338 -133.83827186628713 0.0 0.0
543.8898538027045 -13.49487006877408 226.0070803361346 -124.38993984046743 0.0 0.0
632.4674871523733 -0.5021691011518534 298.573386932607 -122.40737089123002 0.0 0.0
706.6370523185082 14.435776041785267 352.76260380132715 -123.44346953246784 0.0 0.0
771.2038269925347 29.00661385229035 395.49997573373963 -123.26474029820709 0.0 0.0
830.3408703409937 44.49219242221466 434.0262418193758 -121.51678564076853 0.0 0.0
885.7224261333376 61.18719061719051 470.71441206098467 -119.06210882244565 0.0 0.0
938.3034014086493 78.80258208977287 506.24510537317815 -116.31629414537606 0.0 0.0
989.1752515951747 97.32325382691506 541.2513949235571 -112.95797825845224 0.0 0.0
1038.917217176046 116.73760103382445 576.0859340354186 -108.69259937504958 0.0 0.0
1086.7455577154255 136.83006472274158 610.2581223154729 -103.69987921958963 0.0 0.0
1134.3413558585776 158.5002480813386 644.9955864768386 -98.03039898957793 0.0 0.0
1184.3652819277124 184.8384324695093 683.1697111503981 -90.34763593405077 0.0 0.0
1236.3186951257971 215.75207535276007 724.537445071677 -77.71733516538816 0.0 0.0
1283.453344184643 245.3717203071517 762.7864632201322 -58.04526648221059 0.0 0.0
1283.453344185203 245.3717203078312 762.7864632205883 58.04526648263092 0.0 0.0
1236.3186951251748 215.7520753521913 724.5374450713592 77.71733516551504 0.0 0.0
1184.365281926497 184.83843246845345 683.1697111494774 90.34763593436246 0.0 0.0
1134.3413558581244 158.5002480810083 644.9955864763571 98.03039898960103 0.0 0.0
1086.7455577156084 136.83006472297518 610.2581223155344 103.69987921951446 0.0 0.0
1038.9172171763153 116.73760103433608 576.0859340354936 108.69259937523428 0.0 0.0
989.1752515946544 97.32325382661742 541.2513949231526 112.95797825858162 0.0 0.0
938.3034014079876 78.80258208924718 506.2451053726077 116.31629414533629 0.0 0.0
885.7224261325347 61.18719061652561 470.7144120603693 119.06210882235945 0.0 0.0
830.3408703418407 44.49219242326021 434.0262418198932 121.51678564071167 0.0 0.0
771.2038269932495 29.006613853267112 395.4999757341829 123.26474029818357 0.0 0.0
706.6370523185559 14.435776042307666 352.76260380135136 123.44346953273 0.0 0.0
632.4674871523705 -0.5021691007351023 298.57338693255537 122.40737089131447 0.0 0.0
543.8898538023905 -13.494870068735189 226.00708033586125 124.38993984044268 0.0 0.0
435.8821633703512 -20.612998503937625 146.80777784468458 133.8382718662043 0.0 0.0
324.59052593159794 -8.767121717192241 96.6992622078157 137.2347023649193 0.0 0.0
229.26198610277643 13.264700694284628 72.75402958053617 126.84825420934709 0.0 0.0
130.76136504451443 20.120696988921235 45.264618610030695 131.12371985227404 0.0 0.0
31.37996130131011 -51.915273369080175 -6.160593620331021 157.4563779451797 0.0 0.0
-9.227274041219644 -497.42304727894145 -225.89857411105874 171.87643330511418 0.0 0.0
-3.7804664387340807 -460.576222266068 -194.15840881127457 -168.1742378574373 0.0 0.0
17.25392855778611 -48.04233612709146 -9.236320075249981 -176.71343616566224 0.0 0.0
89.52786937676113 13.322471641719474 30.854484338370042 -154.88274355667707 0.0 0.0
171.50874058901013 14.210360708090956 55.712606811443145 -149.1444273142028 0.0 0.0
253.47074573409586 -1.9774395315416646 76.34694178708433 -159.31777134429393 0.0 0.0
357.2890888121084 -16.80890848586737 112.44857830908538 -165.01540111969405 0.0 0.0
474.6396585394446 -13.510173809378166 182.35541612759965 -153.99716861600143 0.0 0.0
574.9333227923014 -1.3442197593275989 260.2804652015546 -146.21632429923164 0.0 0.0
653.3396021219054 11.550446395243446 320.4759262052643 -144.21852041907215 0.0 0.0
717.6214457894166 23.788051338165804 364.50986777356366 -142.55796211276854 0.0 0.0
772.9770805851649 35.32243132343088 400.00066978221366 -140.06319319930967 0.0 0.0
823.802202197257 47.97568181781675 432.70479994321437 -137.1684213051255 0.0 0.0
870.8474171118082 60.75921833273604 463.21222999155543 -134.0935725175026 0.0 0.0
915.5875199845663 73.94059193525842 492.57271932779474 -130.5012504625205 0.0 0.0
959.4624333735757 87.90369227608724 521.7675664848819 -125.88663173342354 0.0 0.0
1002.3395963841153 102.7028573370894 550.8816887952605 -120.32689032223372 0.0 0.0
1041.4502181428668 115.88783159324015 577.2568931497632 -114.31613717291268 0.0 0.0
1081.4530749290682 131.15606718004244 604.9157126740702 -106.76447758731129 0.0 0.0
1129.2566163816919 154.37118124347668 640.2952008632685 -93.32390476994966 0.0 0.0
1182.417882746005 184.8148256320668 681.8632572866613 -70.59268955052349 0.0 0.0
1182.417882745915 184.81482563209897 681.8632572864865 70.5926895509266 0.0 0.0
1129.2566163811746 154.3711812430227 640.295200862793 93.3239047699791 0.0 0.0
1081.4530749280632 131.15606717911862 604.9157126735086 106.7644775875244 0.0 0.0
1041.450218143888 115.88783159446353 577.2568931505234 114.31613717308815 0.0 0.0
1002.3395963855367 102.70285733871839 550.8816887962138 120.32689032237897 0.0 0.0
959.4624333738993 87.90369227667577 521.7675664851313 125.8866317336217 0.0 0.0
915.5875199837028 73.94059193449425 492.5727193271879 130.50125046243767 0.0 0.0
870.8474171116802 60.75921833273972 463.21222999146386 134.0935725175146 0.0 0.0
823.8022021972447 47.97568181805096 432.7047999431921 137.16842130522966 0.0 0.0
772.9770805844649 35.322431322869335 400.0006697817058 140.06319319921965 0.0 0.0
717.6214457889673 23.78805133776848 364.5098677732155 142.55796211251985 0.0 0.0
653.3396021222225 11.550446395934046 320.47592620548124 144.21852041912305 0.0 0.0
574.9333227926104 -1.3442197585246234 260.2804652017197 146.21632429935005 0.0 0.0
474.63965853888436 -13.510173809550185 182.355416127207 153.99716861599418 0.0 0.0
357.28908881123647 -16.808908486728914 112.44857830851501 165.01540111952286 0.0 0.0
253.47074573376375 -1.9774395317676419 76.34694178692081 159.31777134402336 0.0 0.0
171.5087405890891 14.210360708470294 55.71260681158162 149.14442731400462 0.0 0.0
89.52786937685113 13.32247164190655 30.854484338453805 154.88274355655523 0.0 0.0
17.25392855767767 -48.04233612719639 -9.236320075314154 176.71343616552275 0.0 0.0
-3.7804664387165303 -460.5762222658043 -194.1584088110405 168.17423785736483 0.0 0.0
1.6664745432094534 -418.63427241490024 -160.86026478284572 -165.68722417451386 0.0 0.0
4.5999129673237835 -45.10579513087423 -12.151635585901582 -188.12554228767314 0.0 0.0
51.93078569181193 7.919292927985858 17.9549269812082 -172.67516667859903 0.0 0.0
114.71758468568696 15.17080992463395 38.97544170643623 -167.6851729146293 0.0 0.0
180.3771316149987 2.5630738030559255 55.40404817002789 -178.43296299339045 0.0 0.0
262.38329570830297 -9.480819897400051 80.07887418722079 -191.18587066183366 0.0 0.0
377.23000353079715 -11.996922075760658 131.908420641709 -187.73356157575205 0.0 0.0
493.4870601009155 -2.563214576805648 207.16560826117603 -174.0062011640176 0.0 0.0
582.1566156466054 8.239737487516152 274.4373443659294 -166.073705419967 0.0 0.0
648.0139784785005 17.945755230165037 322.72280553866614 -161.619381990346 0.0 0.0
701.3396819826752 25.93525262300496 357.7147387076214 -158.08969526221674 0.0 0.0
747.3844218689898 34.673858694111146 386.9739481463672 -154.56265217960436 0.0 0.0
788.8113363396665 43.03640801479552 412.87820225404096 -151.0790642292366 0.0 0.0
827.1241884951249 50.84434298504337 436.5499570236376 -147.419459330665 0.0 0.0
864.5439620441434 58.926267092154305 459.6665540358926 -142.86085199540597 0.0 0.0
902.3995996246163 68.42089219223824 483.6137159017486 -136.733701551182 0.0 0.0
936.9408972786995 76.09417481127272 505.102736995806 -129.856275183989 0.0 0.0
964.3649358677326 77.89968370325067 519.9411274093662 -122.8236770918972 0.0 0.0
1002.4150787692224 87.96813325665511 543.7428390343712 -110.77692739167098 0.0 0.0
1063.909948550136 119.4000147288246 589.7218286250086 -87.31433017235298 0.0 0.0
1063.909948549983 119.40001472880357 589.7218286250221 87.31433017276527 0.0 0.0
1002.4150787693379 87.96813325680898 543.7428390344808 110.77692739176355 0.0 0.0
964.364935867673 77.89968370348998 519.9411274093518 122.8236770923808 0.0 0.0
936.9408972789099 76.09417481181998 505.10273699590607 129.8562751843097 0.0 0.0
902.3995996227405 68.42089219043442 483.61371590028756 136.7337015510873 0.0 0.0
864.5439620435639 58.92626709163329 459.6665540354183 142.8608519954165 0.0 0.0
827.124188494333 50.84434298441988 436.549957023188 147.4194593307286 0.0 0.0
788.8113363391163 43.03640801438786 412.8782022537515 151.07906422926828 0.0 0.0
747.3844218687324 34.673858693830226 386.9739481461236 154.5626521794359 0.0 0.0
701.3396819828338 25.935252623361833 357.714738707629 158.0896952621824 0.0 0.0
648.0139784774404 17.945755229012136 322.7228055378796 161.61938199002321 0.0 0.0
582.156615645859 8.239737487059756 274.43734436542695 166.07370542001965 0.0 0.0
493.4870601004843 -2.5632145769271304 207.16560826081295 174.00620116400125 0.0 0.0
377.2300035304731 -11.996922075648211 131.90842064150422 187.7335615756683 0.0 0.0
262.38329570831866 -9.480819896794335 80.07887418737654 191.18587066167498 0.0 0.0
180.3771316147455 2.5630738027966498 55.40404816987419 178.43296299322475 0.0 0.0
114.71758468556186 15.17080992453019 38.97544170637365 167.68517291424268 0.0 0.0
51.930785691662635 7.919292927662636 17.954926981070084 172.67516667831978 0.0 0.0
4.599912967198739 -45.10579513092961 -12.151635585957083 188.1255422875975 0.0 0.0
1.666474543252228 -418.6342724145486 -160.8602647826012 165.68722417445545 0.0 0.0
3.771132408482451 -372.33984504038983 -130.04657606254378 -162.94600112623462 0.0 0.0
-10.702656457496209 -44.399048283862086 -16.532727720930872 -193.70662589347015 0.0 0.0
16.442514838088456 4.634402539246772 6.325561895074006 -184.70845357033704 0.0 0.0
59.400402088005016 16.335733228320247 22.742840344767366 -181.64465796108217 0.0 0.0
105.0505102602757 6.529140495988956 33.80626413212048 -193.18799437167485 0.0 0.0
158.5871041493955 -2.9618011548392094 48.46066832061748 -210.09130937408045 0.0 0.0
244.76739014939267 -5.751320297817179 79.58984678684187 -218.25124498756333 0.0 0.0
363.89838101764684 -2.667294140601884 135.47191819162373 -208.24862481917822 0.0 0.0
471.45516955065654 4.976443828451075 202.39904402611091 -192.1781195988171 0.0 0.0
545.3816228316331 11.142074289795278 256.600396763678 -181.69906170572273 0.0 0.0
598.1984425063116 16.80065479187696 295.38470817512336 -175.77631369704426 0.0 0.0
639.6671322825276 21.15039372658751 323.2808549864794 -171.41950567899445 0.0 0.0
675.2502257960034 25.451884765486824 345.9688974053047 -167.38441126796096 0.0 0.0
706.7914667408552 28.45649289201178 364.7446122970556 -163.5402711475187 0.0 0.0
736.5579151004026 30.353029651107562 381.37226638981485 -159.22454260391652 0.0 0.0
767.7093919389779 32.871367660010776 398.57711303018385 -153.41999502063882 0.0 0.0
801.8719272655293 37.19079660481043 418.0941883425294 -145.21304606585986 0.0 0.0
826.3686240864788 32.903112389367436 428.8624253902001 -137.0661989218852 0.0 0.0
841.6896224754837 15.959970268755455 427.93401350108195 -129.07323867553922 0.0 0.0
909.96263631776 42.80108560321449 474.1989959745675 -110.88364077780548 0.0 0.0
909.9626363183356 42.80108560394018 474.19899597503104 110.88364077800324 0.0 0.0
841.6896224765082 15.959970269714745 427.9340135018081 129.07323867547825 0.0 0.0
826.3686240873521 32.903112390466845 428.8624253908316 137.066198922154 0.0 0.0
801.8719272663692 37.19079660585703 418.0941883432116 145.2130460659733 0.0 0.0
767.7093919387889 32.871367659933355 398.57711303019414 153.41999502070217 0.0 0.0
736.5579150992604 30.353029649659362 381.3722663890149 159.2245426036738 0.0 0.0
706.7914667408731 28.456492892142307 364.74461229710727 163.54027114751375 0.0 0.0
675.250225795818 25.451884765636947 345.9688974052306 167.38441126819697 0.0 0.0
639.6671322818389 21.150393726148295 323.28085498606987 171.41950567905445 0.0 0.0
598.1984425057631 16.800654791376815 295.38470817477264 175.7763136969341 0.0 0.0
545.3816228318378 11.142074290129258 256.6003967637209 181.6990617055896 0.0 0.0
471.45516954961596 4.976443827432085 202.39904402539472 192.17811959872614 0.0 0.0
363.898381016628 -2.6672941417129294 135.47191819086711 208.2486248190686 0.0 0.0
244.76739014895975 -5.751320297813086 79.58984678667402 218.25124498752524 0.0 0.0
158.58710414886622 -2.96180115565536 48.46066832021432 210.09130937379652 0.0 0.0
105.0505102599313 6.529140495255057 33.80626413179711 193.18799437145097 0.0 0.0
59.400402087670216 16.335733227671046 22.74284034447461 181.6446579607293 0.0 0.0
16.442514838024064 4.634402539171406 6.325561895033354 184.7084535701792 0.0 0.0
-10.702656457562975 -44.39904828376106 -16.53272772092349 193.70662589318138 0.0 0.0
3.7711324084130062 -372.33984504021294 -130.04657606242284 162.9460011261234 0.0 0.0
1.196452356225027 -322.4364239991585 -103.52710457357823 -157.69557143919295 0.0 0.0
-29.638118585652947 -46.57861235772707 -22.870324076980936 -195.55508579509998 0.0 0.0
-17.70129091961703 3.619333055246229 -4.226524498065516 -191.81046387700732 0.0 0.0
5.6761189847682205 17.493565880037494 6.9637099354578345 -190.59009741339096 0.0 0.0
29.025860577268798 10.8598170319423 12.076956650450189 -201.90031337150154 0.0 0.0
51.045835379648445 2.333996244999857 16.5637923489773 -220.87113633430147 0.0 0.0
82.37783583365345 -0.8376452471697435 26.254738864165997 -235.93550262050886 0.0 0.0
141.47363467662214 1.0464857176732654 47.565476378536616 -238.079657516702 0.0 0.0
228.29958669954817 5.033029928486528 82.58557977457986 -224.2705964815085 0.0 0.0
310.5384012060421 7.061679394392023 123.47585081632785 -207.6122764441438 0.0 0.0
372.4454471210273 8.475602971875333 162.32261698590466 -195.25940308678608 0.0 0.0
412.0125876047085 8.74852424728222 191.53623398605907 -187.67826301931538 0.0 0.0
440.1062197198673 8.893293253797339 213.72276818582344 -182.30338251696577 0.0 0.0
463.2790787931217 6.820722535164236 230.30629735372096 -177.85086791113997 0.0 0.0
486.15172186838004 2.588439563587343 243.3777426940037 -173.63773474689344 0.0 0.0
514.0680457149563 -2.9424682806395026 256.0952571263376 -168.92453465877776 0.0 0.0
551.6518902439011 -6.31634834784154 273.1564243484023 -161.72537404684687 0.0 0.0
598.2058445725683 -5.910188472186945 296.4509370537067 -150.55034537308077 0.0 0.0
616.1597192392699 -37.44227497745618 290.68394051975804 -141.70944730155927 0.0 0.0
653.5554519788062 -68.74133804282332 290.33708983400845 -141.45261491198528 0.0 0.0
653.555451976591 -68.74133804507278 290.3370898326295 141.4526149121364 0.0 0.0
616.1597192368274 -37.442274980616105 290.6839405179834 141.70944730159067 0.0 0.0
598.2058445718892 -5.910188472738582 296.4509370533135 150.55034537358492 0.0 0.0
551.6518902428166 -6.31634834925822 273.1564243475308 161.72537404678542 0.0 0.0
514.0680457151113 -2.9424682803194457 256.09525712637674 168.92453465877608 0.0 0.0
486.151721869458 2.588439565112054 243.37774269473346 173.63773474700918 0.0 0.0
463.2790787939203 6.820722536268164 230.30629735426137 177.85086791122234 0.0 0.0
440.1062197202624 8.893293254569627 213.7227681861556 182.30338251712888 0.0 0.0
412.0125876051045 8.7485242477332 191.53623398623907 187.67826301928145 0.0 0.0
372.4454471214062 8.475602972524904 162.32261698611163 195.25940308681535 0.0 0.0
310.53840120592247 7.061679394304747 123.47585081618806 207.61227644402007 0.0 0.0
228.29958669922792 5.033029928289164 82.58557977438976 224.2705964815845 0.0 0.0
141.47363467622606 1.0464857172176405 47.565476378264215 238.07965751665063 0.0 0.0
82.37783583303113 -0.8376452482097818 26.254738863663412 235.93550262024493 0.0 0.0
51.04583538000204 2.333996245777593 16.563792349317026 220.87113633407088 0.0 0.0
29.02586057754083 10.85981703244919 12.076956650684354 201.90031337127803 0.0 0.0
5.676118984730143 17.493565879872722 6.963709935397005 190.5900974131395 0.0 0.0
-17.70129091941887 3.6193330557638546 -4.2265244978514875 191.8104638768194 0.0 0.0
-29.638118585471943 -46.578612357318846 -22.87032407680688 195.5550857950127 0.0 0.0
1.1964523561452616 -322.4364239988326 -103.52710457345401 157.6955714390789 0.0 0.0
-9.958657196332503 -271.3706898694798 -85.43320400796412 -148.1392663564399 0.0 0.0
-49.29405933704681 -49.32686882301699 -29.598028775896594 -195.29630590397443 0.0 0.0
-50.88416699548367 3.7544623807084476 -14.164848289381174 -194.5980445208746 0.0 0.0
-46.43773498302613 18.51385468707105 -8.421745687886181 -194.2773407590311 0.0 0.0
-46.06665267774339 15.222804616837458 -9.400920769879608 -204.05934617077367 0.0 0.0
-57.54124117931414 7.381839976241157 -15.658052947167977 -221.83647392079055 0.0 0.0
-85.42771131462352 2.6192373003995533 -26.72003479421345 -236.09334602573082 0.0 0.0
-142.5777965098819 -0.6292785672134116 -47.83628964932226 -238.26873342823026 0.0 0.0
-228.19626973233 -4.768051615946494 -82.48051609820862 -224.3952801597125 0.0 0.0
-310.2703318358886 -6.661093648736852 -123.24640152643134 -207.5812638588149 0.0 0.0
-372.6886605944329 -6.94105153511758 -161.76370884689874 -195.07970690339326 0.0 0.0
-413.8749382570552 -7.109020573605278 -191.61653405224453 -187.1939984039765 0.0 0.0
-444.7442974891805 -9.699251777353297 -216.00545267345817 -181.9457968625623 0.0 0.0
-468.9956884166086 -15.369647235655947 -236.99004125820113 -178.68812109635175 0.0 0.0
-484.99906926402383 -24.35716232533457 -254.85862783647673 -177.26119732489613 0.0 0.0
-489.4959134065559 -35.67772533225815 -268.69393904210665 -177.15635489237926 0.0 0.0
-473.6114887230539 -46.623816072668404 -275.0571542078934 -177.16287628646586 0.0 0.0
-408.13026269867515 -39.80022598651709 -257.7623017877086 -176.87449665686776 0.0 0.0
-226.30614355667075 -39.81584949560866 -198.464556097642 -179.9080544215252 0.0 0.0
-25.95508555680823 -175.76000046757292 -71.64402929610776 -173.8883119634117 0.0 0.0
-25.95508555706624 -175.76000046750465 -71.6440292961567 173.8883119637971 0.0 0.0
-226.30614355579365 -39.81584949389253 -198.46455609697358 179.90805442210555 0.0 0.0
-408.13026269761855 -39.800225984935025 -257.7623017868784 176.87449665720533 0.0 0.0
-473.611488722784 -46.62381607248258 -275.0571542076404 177.16287628667155 0.0 0.0
-489.4959134065588 -35.67772533253381 -268.6939390421327 177.15635489228012 0.0 0.0
-484.9990692641825 -24.35716232586887 -254.85862783661352 177.2611973250456 0.0 0.0
-468.99568841717957 -15.369647236754332 -236.9900412586289 178.68812109631438 0.0 0.0
-444.7442974892414 -9.699251777745673 -216.005452673518 181.9457968625702 0.0 0.0
-413.87493825689853 -7.1090205735315095 -191.61653405205914 187.19399840381425 0.0 0.0
-372.6886605941668 -6.941051535890878 -161.7637088468911 195.07970690349748 0.0 0.0
-310.27033183523537 -6.661093649238062 -123.24640152623604 207.58126385869105 0.0 0.0
-228.1962697322072 -4.7680516170023495 -82.4805160983997 224.39528015987315 0.0 0.0
-142.57779650937124 -0.6292785670778294 -47.83628964910805 238.26873342829685 0.0 0.0
-85.42771131397953 2.619237301377896 -26.72003479371251 236.09334602554662 0.0 0.0
-57.54124117889478 7.3818399767604825 -15.65805294688544 221.83647392062193 0.0 0.0
-46.06665267733362 15.222804617452528 -9.400920769572169 204.05934617058483 0.0 0.0
-46.43773498275442 18.513854687568784 -8.421745687656436 194.27734075882518 0.0 0.0
-50.88416699551287 3.7544623805364887 -14.164848289443704 194.59804452065632 0.0 0.0
-49.294059337021544 -49.326868823090614 -29.598028775917612 195.29630590379313 0.0 0.0
-9.958657196614459 -271.37068986939164 -85.43320400803144 148.13926635628133 0.0 0.0
-22.61897697961594 -222.10383509878835 -73.40924883120505 -135.2298961941405 0.0 0.0
-66.39451006282147 -49.67129618450474 -34.8344957494163 -191.84661048359877 0.0 0.0
-83.05416136827978 3.8205334117916534 -23.82384337955509 -193.54582631531747 0.0 0.0
-96.91074989939345 19.386444733370226 -23.373368835889174 -192.82930358991683 0.0 0.0
-119.4074942537031 18.7332574541211 -30.698839306807116 -199.45991529276262 0.0 0.0
-163.89060920217972 12.181780838592122 -47.57522661981311 -212.39677994239855 0.0 0.0
-246.28898505376964 7.401542353094198 -79.86421708598633 -219.2084470446395 0.0 0.0
-363.4849518387781 3.02227629093597 -135.39142659205532 -208.80053126156412 0.0 0.0
-471.0195192627029 -4.760449713102375 -202.16986044312796 -192.37121481571617 0.0 0.0
-544.9785296225648 -10.657206521961626 -256.2361398142837 -181.6602478712732 0.0 0.0
-597.72027951728 -15.614816515095697 -294.6571791582679 -175.45084092173875 0.0 0.0
-639.8126693686113 -19.68887021815587 -322.638251165133 -170.57731724469167 0.0 0.0
-677.4956449929289 -26.042332061246128 -347.1765098394951 -166.43044893563268 0.0 0.0
-712.7946885601216 -35.65629421738058 -370.97939456552035 -164.1134738242381 0.0 0.0
-745.993289599942 -48.984003768566566 -395.1829297276478 -164.06935153504799 0.0 0.0
-774.9415969055494 -64.78156003886096 -418.45122444843525 -166.21561315694788 0.0 0.0
-794.6134362428772 -79.73481519674152 -436.79202612026137 -171.01748054882836 0.0 0.0
-802.8341129583025 -92.72890574006152 -448.27784581240047 -178.5550205740909 0.0 0.0
-835.4254284190484 -146.1760599519451 -492.6314465765386 -187.96090583934756 0.0 0.0
-853.1054937981063 -239.65901267247963 -549.9529607944089 -206.91835141394486 0.0 0.0
-853.1054937984604 -239.6590126728409 -549.9529607946731 206.91835141409922 0.0 0.0
-835.4254284185599 -146.17605995173795 -492.63144657629033 187.9609058398167 0.0 0.0
-802.8341129581627 -92.72890574015742 -448.277845812385 178.55502057420003 0.0 0.0
-794.613436241882 -79.73481519549057 -436.7920261196242 171.0174805486854 0.0 0.0
-774.9415969053482 -64.7815600387888 -418.4512244483384 166.2156131569 0.0 0.0
-745.9932895984668 -48.98400376732732 -395.1829297267465 164.06935153507544 0.0 0.0
-712.7946885601687 -35.65629421716031 -370.9793945653722 164.11347382398324 0.0 0.0
-677.4956449926019 -26.042332061263394 -347.17650983927274 166.43044893582655 0.0 0.0
-639.8126693677873 -19.68887021739883 -322.6382511645216 170.57731724446518 0.0 0.0
-597.7202795166193 -15.614816514721333 -294.6571791578035 175.45084092175773 0.0 0.0
-544.978529622019 -10.65720652189546 -256.23613981393913 181.66024787131278 0.0 0.0
-471.0195192623697 -4.760449713188535 -202.16986044286233 192.3712148157555 0.0 0.0
-363.48495183842397 3.0222762904529823 -135.39142659194056 208.80053126174107 0.0 0.0
-246.28898505353655 7.401542352543164 -79.86421708600146 219.2084470445758 0.0 0.0
-163.89060920224208 12.18178083771443 -47.57522662008043 212.39677994216595 0.0 0.0
-119.40749425384269 18.73325745339349 -30.698839307064016 199.45991529249773 0.0 0.0
-96.91074989943769 19.386444733179747 -23.37336883595973 192.82930358973323 0.0 0.0
-83.05416136806987 3.8205334120329537 -23.82384337942345 193.54582631522777 0.0 0.0
-66.39451006283493 -49.67129618455054 -34.83449574944029 191.84661048351134 0.0 0.0
-22.618976979668794 -222.10383509858502 -73.40924883116215 135.22989619402077 0.0 0.0
-28.513192009335 -175.7952120514746 -61.29252121824287 -120.32811311123692 0.0 0.0
-80.48813206956048 -47.48266226444591 -38.389235592115 -184.5000882715628 0.0 0.0
-113.7839245818149 3.651359732035963 -33.092076022060084 -188.48714251328326 0.0 0.0
-145.64244920250343 19.746322031519675 -37.96310855279236 -186.21985924716054 0.0 0.0
-190.39416120012916 21.037216313960574 -51.76165097129821 -188.68068854907233 0.0 0.0
-264.38338569005725 17.507899034095196 -79.10043776552774 -194.52976839633956 0.0 0.0
-376.21982308299994 13.458128937083163 -131.57506586582903 -189.22317090439495 0.0 0.0
-492.6078962742754 2.940703685105518 -206.73917312682596 -174.6303562250321 0.0 0.0
-581.868463263522 -8.101225737375046 -274.252882219546 -166.1560222139342 0.0 0.0
-647.7194313229727 -17.59364934359229 -322.4476744491435 -161.59769169891808 0.0 0.0
-700.9722921550765 -25.078611545791404 -357.1500298328232 -157.75200186374946 0.0 0.0
-747.3522758812285 -33.46207795439781 -386.3453525179883 -153.51927368487011 0.0 0.0
-790.3882135212904 -43.242032698288426 -413.63078804300176 -149.58049154400683 0.0 0.0
-832.2532923931453 -56.361339177174045 -441.6126958536551 -147.20886235970647 0.0 0.0
-873.7888178701347 -73.88289190030923 -471.53939426718273 -147.36752189491816 0.0 0.0
-912.6142280009178 -94.35169412820537 -501.6367667106741 -150.43200301351453 0.0 0.0
-946.6647271310994 -115.96721964497266 -529.8745801754799 -155.9672460006596 0.0 0.0
-984.6100063640524 -148.89202350428025 -565.6794876263564 -162.05628835475136 0.0 0.0
-1028.8126509872618 -198.89170314326378 -612.9466643974854 -167.26580441848137 0.0 0.0
-1133.4214735787912 -337.67906954355976 -734.1515683767225 -172.00227200352006 0.0 0.0
-1133.4214735776854 -337.6790695423399 -734.1515683760113 172.00227200343681 0.0 0.0
-1028.812650987334 -198.8917031433843 -612.9466643975393 167.26580441867355 0.0 0.0
-984.6100063639847 -148.8920235042338 -565.6794876262602 162.05628835471708 0.0 0.0
-946.6647271300282 -115.96721964394709 -529.8745801746393 155.96724600065426 0.0 0.0
-912.6142279999681 -94.3516941273451 -501.6367667100365 150.43200301345075 0.0 0.0
-873.788817869726 -73.88289189992454 -471.53939426688373 147.367521894783 0.0 0.0
-832.2532923931014 -56.36133917715755 -441.6126958535913 147.20886235953776 0.0 0.0
-790.3882135199025 -43.2420326970547 -413.63078804213217 149.5804915440482 0.0 0.0
-747.3522758807828 -33.462077954069855 -386.34535251770774 153.5192736847573 0.0 0.0
-700.9722921542959 -25.078611545253004 -357.1500298323892 157.75200186369318 0.0 0.0
-647.7194313223979 -17.59364934329107 -322.44767444881484 161.59769169893096 0.0 0.0
-581.8684632632364 -8.101225737372026 -274.2528822193201 166.15602221387056 0.0 0.0
-492.607896273873 2.9407036851102006 -206.73917312648376 174.63035622505438 0.0 0.0
-376.21982308219555 13.458128937550121 -131.57506586528234 189.22317090427447 0.0 0.0
-264.3833856898036 17.507899033771928 -79.10043776549973 194.52976839616898 0.0 0.0
-190.39416119991142 21.037216313851612 -51.76165097126821 188.68068854887753 0.0 0.0
-145.6424492022607 19.7463220317496 -37.96310855265435 186.21985924699646 0.0 0.0
-113.78392458167279 3.6513597319725544 -33.09207602204164 188.48714251320848 0.0 0.0
-80.4881320694231 -47.48266226419682 -38.38923559200184 184.50008827147735 0.0 0.0
-28.513192009332663 -175.7952120512414 -61.29252121817221 120.32811311115154 0.0 0.0
-30.57387574757869 -133.4617251419628 -49.21068026686244 -104.54452028160114 0.0 0.0
-92.06618265122685 -43.02795813950604 -40.52771520594419 -172.6313377976625 0.0 0.0
-142.70195860267035 3.273307420365989 -41.86833971658379 -179.28434159306565 0.0 0.0
-192.4448522433436 19.063177174972715 -52.3024369578267 -174.73800652332918 0.0 0.0
-257.6874949271004 23.071867198981813 -72.12127719846137 -172.57199353511066 0.0 0.0
-354.94476688043625 22.930480919657754 -111.23199947440511 -169.06839712854605 0.0 0.0
-472.5848610258726 15.165311255704886 -181.20116749855515 -155.70908550797958 0.0 0.0
-574.4429960623355 1.5040388186800442 -259.953371284939 -146.50747067919514 0.0 0.0
-653.2266042988144 -11.513301458005898 -320.4150543288172 -144.25143823355216 0.0 0.0
-717.4586799892785 -23.577048179001224 -364.34549155783435 -142.5459382749542 0.0 0.0
-772.8496610203102 -34.83756556990829 -399.7092303131824 -139.7244325884823 0.0 0.0
-823.8585021489604 -47.16832203916641 -432.3263785869291 -136.03874641113364 0.0 0.0
-871.6647834474037 -60.4854384256127 -463.4172692374859 -132.2593576603953 0.0 0.0
-918.5119585759305 -76.97166860902001 -495.39690096629545 -129.73650533658727 0.0 0.0
-965.767749819666 -98.09944340950693 -529.8279451645552 -129.93703966875378 0.0 0.0
-1013.7433815445237 -124.68101962283353 -567.3548261176694 -133.23492353344187 0.0 0.0
-1063.4489690360233 -158.38261540578236 -609.2942960229343 -138.41212009326222 0.0 0.0
-1117.509477930003 -202.72393571504023 -658.6315282359658 -142.83227811418277 0.0 0.0
-1191.073525647313 -276.07969656594577 -731.9344716676812 -143.05967898772374 0.0 0.0
-1289.7717948702768 -399.7403118317193 -843.1368540555626 -141.97105965882457 0.0 0.0
-1289.7717948703396 -399.7403118318582 -843.1368540555493 141.97105965904933 0.0 0.0
-1191.073525647104 -276.07969656613847 -731.93447166761 143.0596789883039 0.0 0.0
-1117.509477928023 -202.72393571318946 -658.6315282345637 142.8322781143167 0.0 0.0
-1063.4489690334267 -158.38261540318425 -609.2942960210572 138.4121200932548 0.0 0.0
-1013.7433815449734 -124.68101962353239 -567.3548261178888 133.23492353366768 0.0 0.0
-965.76774982076 -98.09944341096426 -529.8279451652488 129.9370396690338 0.0 0.0
-918.5119585753587 -76.97166860861337 -495.3969009659779 129.73650533658247 0.0 0.0
-871.6647834460158 -60.48543842428819 -463.4172692365239 132.25935766023292 0.0 0.0
-823.8585021488162 -47.16832203915041 -432.32637858677174 136.03874641100248 0.0 0.0
-772.8496610193542 -34.83756556910875 -399.70923031255285 139.72443258830262 0.0 0.0
-717.458679988582 -23.57704817844947 -364.34549155731185 142.54593827478448 0.0 0.0
-653.2266042981546 -11.513301457547534 -320.41505432836357 144.25143823340156 0.0 0.0
-574.4429960614699 1.5040388193827798 -259.95337128425155 146.5074706790389 0.0 0.0
-472.58486102517065 15.165311255999772 -181.2011674980393 155.70908550794556 0.0 0.0
-354.94476688011855 22.930480919481713 -111.23199947428317 169.0683971284821 0.0 0.0
-257.68749492665336 23.071867199017774 -72.12127719831979 172.57199353502338 0.0 0.0
-192.4448522431413 19.0631771749212 -52.30243695779015 174.73800652319093 0.0 0.0
-142.70195860248725 3.2733074204121135 -41.86833971652157 179.2843415929857 0.0 0.0
-92.06618265109351 -43.02795813921758 -40.52771520581781 172.63133779742128 0.0 0.0
-30.573875747451588 -133.4617251416022 -49.210680266716125 104.54452028141326 0.0 0.0
-31.6245572218385 -95.86299734031286 -38.2462663686454 -88.27820160952115 0.0 0.0
-102.10133764377592 -36.75884134370408 -41.658053696244 -156.48944351508686 0.0 0.0
-169.76099603588474 2.791668904666163 -50.10978563902785 -165.58498118615648 0.0 0.0
-237.5977620056371 17.656961768347532 -66.25758682172156 -158.94900015801136 0.0 0.0
-321.7952550102185 25.465024578121287 -92.21856372654672 -151.78380655190935 0.0 0.0
-432.04070755364694 25.464819315229487 -144.96477841569236 -138.49196105988068 0.0 0.0
-542.2317387762916 14.839670093337354 -224.7176735532907 -125.27948149939766 0.0 0.0
-632.372514231519 0.4238343708070431 -298.50791157243435 -122.47255324477294 0.0 0.0
-706.6262761561035 -14.454438933854448 -352.78044244120395 -123.47545268932807 0.0 0.0
-771.2028665188916 -28.932077554680205 -395.4657184981378 -123.2439931483299 0.0 0.0
-830.4929596541406 -44.395426443561746 -434.04861954315476 -121.17717698247804 0.0 0.0
-885.9426599900552 -60.8736633942884 -470.6706838410671 -117.98170780328437 0.0 0.0
-938.2001888242892 -78.03740538745717 -505.80778204856585 -114.48480743987955 0.0 0.0
-989.1212794854612 -97.34782018656352 -541.1661829084497 -111.90437103158284 0.0 0.0
-1042.0140369686412 -122.24565078965094 -580.1967468011453 -111.77525986962206 0.0 0.0
-1099.4800475263592 -156.36187296957638 -626.111751766928 -114.61921485733974 0.0 0.0
-1163.3881208294304 -201.55823695650307 -680.7807210028514 -119.16396131403872 0.0 0.0
-1236.8048646383031 -262.81167567149254 -748.1348078270053 -122.01915824047553 0.0 0.0
-1320.9258211966103 -345.8998802083457 -831.7243248535693 -121.1181249727214 0.0 0.0
-1406.513957337546 -454.43405403612593 -928.911014626728 -121.00129420510385 0.0 0.0
-1406.5139573363497 -454.4340540349558 -928.9110146259646 121.00129420520025 0.0 0.0
-1320.925821196684 -345.8998802086128 -831.7243248535369 121.11812497309202 0.0 0.0
-1236.8048646383977 -262.8116756718728 -748.1348078270512 122.0191582408687 0.0 0.0
-1163.3881208285416 -201.55823695562074 -680.7807210022722 119.16396131385616 0.0 0.0
-1099.4800475255727 -156.36187296882972 -626.1117517664359 114.61921485715693 0.0 0.0
-1042.0140369679073 -122.2456507889848 -580.1967468006974 111.775259869532 0.0 0.0
-989.1212794854262 -97.3478201867593 -541.1661829084248 111.90437103168118 0.0 0.0
-938.2001888256316 -78.03740538912734 -505.8077820494682 114.48480744005742 0.0 0.0
-885.942659989459 -60.87366339398065 -470.6706838406668 117.98170780340271 0.0 0.0
-830.4929596531374 -44.395426442808805 -434.0486195424462 121.1771769824717 0.0 0.0
-771.202866519214 -28.93207755532605 -395.4657184983422 123.24399314835722 0.0 0.0
-706.6262761568414 -14.454438935064758 -352.78044244170906 123.47545268948463 0.0 0.0
-632.3725142317554 0.4238343701365075 -298.50791157253536 122.47255324483075 0.0 0.0
-542.2317387754968 14.839670093735872 -224.71767355269432 125.2794814993877 0.0 0.0
-432.0407075527141 25.464819315923492 -144.96477841507783 138.49196105976495 0.0 0.0
-321.7952550098004 25.465024578156537 -92.21856372638248 151.78380655168294 0.0 0.0
-237.59776200544422 17.65696176819634 -66.2575868217078 158.94900015778492 0.0 0.0
-169.7609960358059 2.7916689046981156 -50.10978563899988 165.58498118615762 0.0 0.0
-102.10133764375136 -36.758841343717954 -41.65805369624079 156.4894435149545 0.0 0.0
-31.624557221787924 -95.86299734013794 -38.24626636857775 88.27820160941866 0.0 0.0
-32.45110288530455 -63.57547329055579 -28.8079728527581 -71.55391385539932 0.0 0.0
-111.1561801341694 -29.249767609681353 -42.12178432315522 -136.49653671108035 0.0 0.0
-195.18358426997344 2.1506091758949744 -57.90770542240304 -147.44652173710125 0.0 0.0
-280.04411534152223 15.850545985155875 -79.6578226834292 -138.8469915593796 0.0 0.0
-381.01403802755397 27.55917451342538 -112.92653083466281 -126.37772860527471 0.0 0.0
-494.5920720433545 25.31589963038452 -178.99788126687267 -107.55748302407497 0.0 0.0
-593.8913023572081 14.603624015841952 -260.28885959478276 -98.89608776621918 0.0 0.0
-676.3761469155015 -0.7083291123902313 -326.8708081475684 -100.12728674027511 0.0 0.0
-748.6816592956275 -16.446549596418166 -376.8429301898889 -102.80153661578471 0.0 0.0
-815.753467229274 -34.109542103212306 -421.1221725519986 -103.38473480905408 0.0 0.0
-879.1806365379896 -53.732586079893565 -463.4972226641794 -101.86266413401114 0.0 0.0
-939.1791870866131 -74.56881632139391 -504.4328977723622 -99.26556541580548 0.0 0.0
-996.0657418069148 -95.81496804221581 -543.8742307874243 -96.3244773743392 0.0 0.0
-1050.967929364355 -118.39569618991428 -582.8331715255691 -93.67876258098954 0.0 0.0
-1108.6365094057294 -146.73690661105044 -625.9046395229941 -92.81696610127224 0.0 0.0
-1175.2285940494016 -187.75883978090798 -679.732690585126 -94.75396851496939 0.0 0.0
-1253.1562814234076 -245.56193084338938 -747.6278304638355 -98.3957522366164 0.0 0.0
-1341.324569913556 -320.8530553853846 -829.3913406248656 -101.16146462770475 0.0 0.0
-1430.8143391401134 -409.6079999933558 -918.5714567290177 -102.08964436298689 0.0 0.0
-1508.818144497824 -509.46624270370404 -1007.6656809170502 -105.47913107098098 0.0 0.0
-1508.818144498416 -509.46624270440844 -1007.6656809174883 105.47913107119396 0.0 0.0
-1430.8143391409826 -409.6079999942382 -918.5714567296837 102.08964436294046 0.0 0.0
-1341.3245699159506 -320.8530553879956 -829.3913406265735 101.16146462802968 0.0 0.0
-1253.1562814236 -245.5619308436992 -747.6278304638918 98.39575223665267 0.0 0.0
-1175.2285940489476 -187.75883978062103 -679.7326905847506 94.75396851501131 0.0 0.0
-1108.6365094052494 -146.73690661066973 -625.9046395225218 92.81696610116795 0.0 0.0
-1050.9679293642782 -118.39569619001954 -582.8331715254582 93.67876258100401 0.0 0.0
-996.0657418072303 -95.81496804270066 -543.8742307875698 96.32447737430944 0.0 0.0
-939.1791870859442 -74.56881632097549 -504.4328977719277 99.2655654158093 0.0 0.0
-879.1806365381883 -53.73258608031621 -463.4972226642868 101.86266413395023 0.0 0.0
-815.7534672287711 -34.109542102998155 -421.122172551672 103.38473480902266 0.0 0.0
-748.6816592951217 -16.446549596238505 -376.8429301895525 102.80153661586581 0.0 0.0
-676.3761469149765 -0.7083291121691033 -326.8708081472091 100.1272867402485 0.0 0.0
-593.8913023569069 14.603624015739946 -260.28885959448303 98.8960877661568 0.0 0.0
-494.5920720434722 25.315899629737633 -178.99788126689168 107.55748302410598 0.0 0.0
-381.0140380274489 27.559174512853957 -112.92653083473762 126.3777286052603 0.0 0.0
-280.04411534118674 15.85054598526132 -79.65782268330118 138.84699155922374 0.0 0.0
-195.18358426974368 2.150609176477206 -57.90770542216029 147.4465217368701 0.0 0.0
-111.1561801341678 -29.24976760982707 -42.121784323198455 136.4965367109693 0.0 0.0
-32.45110288547588 -63.57547329072071 -28.80797285285898 71.55391385545909 0.0 0.0
-33.02728431011775 -37.10733076775496 -21.04038452336181 -54.32882087570594 0.0 0.0
-119.18247885773309 -21.06334487704423 -42.07374712043319 -113.06928034113474 0.0 0.0
-219.2194661429927 1.2434709177953671 -65.39203808347007 -124.7971334699943 0.0 0.0
-321.62510845922026 14.614208116763391 -92.65749004400811 -115.10881138460597 0.0 0.0
-435.8117003180099 28.00687304132456 -135.41759037809626 -97.37505626544367 0.0 0.0
-543.3341453896805 24.493145997094082 -210.7610244595801 -79.0182488765583 0.0 0.0
-632.0034659359644 13.480607257266684 -288.3438738331103 -75.16911085815093 0.0 0.0
-710.4780554656496 -0.5777798748505347 -347.24612427500983 -78.49832523587968 0.0 0.0
-783.608443321226 -18.099168717369622 -396.2551225388547 -81.78811193217746 0.0 0.0
-853.7930070507108 -39.26737852158453 -443.21375470516693 -82.77363294283413 0.0 0.0
-921.1906231485825 -62.78290132950664 -489.33673268280234 -81.77663082577371 0.0 0.0
-985.9261441605693 -87.99698993023028 -534.7453728992525 -79.84779647391983 0.0 0.0
-1047.8029574888774 -113.93068347060549 -578.9709041841862 -77.56905356037296 0.0 0.0
-1107.847930189534 -140.83389061952656 -622.6559928373069 -75.15211257453612 0.0 0.0
-1169.6856028062894 -172.28434253475984 -669.3507652817843 -73.3680091874254 0.0 0.0
-1241.9290429767354 -217.99211538693407 -728.2583926582744 -73.70192180899726 0.0 0.0
-1331.9379875940301 -286.4455763128449 -807.4608490537927 -76.65230296870212 0.0 0.0
-1432.5909430480428 -373.6202348357398 -901.4314216756511 -80.63910489550108 0.0 0.0
-1530.220213783095 -470.678127040986 -998.865999494386 -84.98713593144983 0.0 0.0
-1606.6028974532167 -568.1900829587482 -1085.9873684705 -93.05008034883278 0.0 0.0
-1606.6028974539017 -568.190082959528 -1085.9873684710608 93.05008034900428 0.0 0.0
-1530.2202137829372 -470.67812704091466 -998.865999494246 84.98713593157447 0.0 0.0
-1432.5909430465417 -373.6202348343053 -901.4314216744517 80.63910489561243 0.0 0.0
-1331.9379875927323 -286.44557631171267 -807.4608490529051 76.6523029688994 0.0 0.0
-1241.9290429764724 -217.9921153867446 -728.2583926579568 73.70192180881745 0.0 0.0
-1169.6856028065781 -172.2843425352092 -669.3507652818091 73.36800918741699 0.0 0.0
-1107.8479301896327 -140.8338906198205 -622.6559928372909 75.15211257456869 0.0 0.0
-1047.8029574886366 -113.93068347059588 -578.9709041839902 77.56905356044865 0.0 0.0
-985.9261441603977 -87.99698993035385 -534.7453728990682 79.84779647411827 0.0 0.0
-921.1906231482519 -62.78290132945321 -489.33673268257996 81.77663082579005 0.0 0.0
-853.7930070508793 -39.267378521948466 -443.21375470517836 82.77363294257952 0.0 0.0
-783.608443322125 -18.09916871862599 -396.25512253946016 81.78811193224324 0.0 0.0
-710.4780554654332 -0.5777798749362404 -347.2461242748832 78.4983252358576 0.0 0.0
-632.0034659350993 13.480607257728131 -288.34387383252056 75.1691108582591 0.0 0.0
-543.3341453886062 24.49314599786719 -210.76102445883149 79.0182488765618 0.0 0.0
-435.8117003175612 28.00687304134213 -135.4175903778616 97.37505626538153 0.0 0.0
-321.62510845889267 14.614208116721738 -92.65749004393315 115.10881138444304 0.0 0.0
-219.21946614293375 1.243470917694422 -65.39203808348357 124.79713346977724 0.0 0.0
-119.1824788574689 -21.06334487674799 -42.07374712026506 113.06928034096822 0.0 0.0
-33.02728431007732 -37.10733076763927 -21.040384523314973 54.32882087573583 0.0 0.0
-32.755161530540775 -16.932132212957946 -14.906188123049613 -36.72232748800438 0.0 0.0
-125.40484043265073 -12.69993776722347 -41.43143345996225 -86.44536556428307 0.0 0.0
-242.3857471808459 -0.07259105604650351 -72.7375014710677 -97.60655735191469 0.0 0.0
-363.184675064065 14.819312570547753 -105.49596700121957 -87.54773630319089 0.0 0.0
-483.10390208016884 26.90432242677789 -159.44824993217264 -67.08325289872559 0.0 0.0
-581.2557617227529 22.65903200668346 -239.68372046677808 -53.80470805348337 0.0 0.0
-662.5505320875967 12.958308573168068 -310.0207981716107 -53.197429493754996 0.0 0.0
-738.2514069874967 0.014316577368077787 -362.8631941011399 -56.85213755973338 0.0 0.0
-812.9811771137317 -19.817898398556252 -412.50535111277486 -60.183752334691086 0.0 0.0
-886.4004851259579 -44.21800213830289 -462.34886058189875 -61.421040565137204 0.0 0.0
-957.9724498583342 -71.58993995187467 -512.3686985643092 -60.91505902414493 0.0 0.0
-1027.3201216382574 -101.08864639443743 -562.1637479353249 -59.634291187807925 0.0 0.0
-1094.876453847874 -132.04749128188297 -611.6903393617604 -58.11972574125825 0.0 0.0
-1160.9572944845352 -164.75245320315395 -661.2733088465268 -56.15795750967225 0.0 0.0
-1227.74378477041 -200.6851550123464 -712.7096269071401 -53.791150529123186 0.0 0.0
-1302.1037877031029 -247.40388335443834 -773.174380414803 -52.30447477881145 0.0 0.0
-1395.189903598528 -317.9739543459658 -854.8818252276831 -54.089676424166136 0.0 0.0
-1511.5979323563884 -420.0303919902813 -964.1511455758612 -59.78621649878374 0.0 0.0
-1622.7617611945175 -529.9421944242754 -1074.8152367027044 -68.59510161830734 0.0 0.0
-1708.2404050292535 -635.1920108216025 -1170.3569311844883 -82.29111439637988 0.0 0.0
-1708.2404050296886 -635.1920108220663 -1170.356931184762 82.29111439637748 0.0 0.0
-1622.7617611940245 -529.9421944238666 -1074.815236702515 68.59510161848885 0.0 0.0
-1511.5979323560086 -420.03039198995924 -964.1511455757732 59.78621649875463 0.0 0.0
-1395.1899035995923 -317.97395434716475 -854.8818252283855 54.08967642424623 0.0 0.0
-1302.1037877024637 -247.40388335389912 -773.1743804142791 52.30447477865935 0.0 0.0
-1227.7437847694894 -200.68515501158123 -712.7096269064608 53.79115052916649 0.0 0.0
-1160.9572944849233 -164.75245320373506 -661.2733088466944 56.15795750965078 0.0 0.0
-1094.8764538474145 -132.04749128164283 -611.6903393615559 58.119725741280945 0.0 0.0
-1027.320121637612 -101.08864639398362 -562.1637479349374 59.634291187678 0.0 0.0
-957.9724498574882 -71.58993995129556 -512.3686985637867 60.91505902415468 0.0 0.0
-886.400485124993 -44.21800213754794 -462.3488605812753 61.42104056493997 0.0 0.0
-812.9811771140234 -19.817898399197404 -412.5053511128694 60.183752334826174 0.0 0.0
-738.2514069876 0.014316576892795752 -362.86319410116977 56.8521375598134 0.0 0.0
-662.5505320871625 12.958308573277442 -310.02079817128583 53.197429493719554 0.0 0.0
-581.2557617221777 22.659032006935213 -239.68372046629017 53.80470805338942 0.0 0.0
-483.10390207963985 26.904322427005184 -159.44824993181535 67.08325289860049 0.0 0.0
-363.1846750634811 14.819312570913581 -105.49596700095502 87.54773630313349 0.0 0.0
-242.38574718064973 -0.07259105596242454 -72.73750147098363 97.60655735185065 0.0 0.0
-125.40484043249938 -12.699937767158616 -41.43143345989739 86.44536556424036 0.0 0.0
-32.75516153056292 -16.932132213055887 -14.906188123085641 36.722327487965956 0.0 0.0
-30.31110979744545 -3.4487342421755156 -10.12795321188629 -19.250230598856817 0.0 0.0
-128.1075076984614 -4.805407102937705 -39.87387444041973 -56.58542926735886 0.0 0.0
-265.1546036006847 -1.473247674777796 -79.98835538263874 -65.38484593165545 0.0 0.0
-405.741173392936 16.153766610973165 -119.21618109681256 -56.29898409925187 0.0 0.0
-521.7437667500669 25.355653354176095 -183.81844746872997 -38.57102083641632 0.0 0.0
-609.334843167865 19.78415061901304 -264.6067487895798 -31.069647641953104 0.0 0.0
-686.4289541044526 13.646880722647921 -325.6911496859549 -32.006431150610005 0.0 0.0
-761.3062653095528 0.04531672341323656 -375.6744167826905 -35.13285391590208 0.0 0.0
-837.3685394814531 -21.337940433600153 -425.9575363630476 -37.97487251004237 0.0 0.0
-914.2250732218519 -48.91487096163951 -478.8862977635898 -39.282915657615106 0.0 0.0
-990.1168342452752 -80.17561895998722 -532.9292404393244 -39.263592468196116 0.0 0.0
-1064.467836494762 -113.84312501652843 -587.2582393343804 -38.63892496197869 0.0 0.0
-1137.6194733861207 -150.18212712007056 -642.2269246010882 -37.75429931730029 0.0 0.0
-1210.66322216272 -189.27088116662168 -698.4494862379223 -36.474363132235474 0.0 0.0
-1284.34280641643 -231.77561812968838 -756.636390258319 -34.40739078865211 0.0 0.0
-1360.327489837045 -279.9039849226407 -818.694007896343 -31.76319473524866 0.0 0.0
-1446.638871563307 -343.04238846438676 -893.2869217098761 -31.201642474349132 0.0 0.0
-1559.2833363857076 -439.9231363573348 -997.9103619427724 -37.21756741868595 0.0 0.0
-1717.1699280087155 -594.3998370761467 -1154.242174601773 -51.25065076296556 0.0 0.0
-1822.991739514107 -717.7661593388963 -1269.0597979450104 -72.1878334377114 0.0 0.0
-1822.9917395141113 -717.7661593388646 -1269.0597979448767 72.18783343756955 0.0 0.0
-1717.169928008405 -594.3998370759473 -1154.2421746014513 51.25065076324694 0.0 0.0
-1559.2833363851666 -439.9231363568697 -997.9103619422534 37.21756741872277 0.0 0.0
-1446.6388715624562 -343.0423884636225 -893.2869217091693 31.201642474216385 0.0 0.0
-1360.3274898368109 -279.9039849225486 -818.6940078961634 31.763194735325463 0.0 0.0
-1284.3428064162083 -231.77561812962645 -756.6363902582 34.40739078861809 0.0 0.0
-1210.663222163669 -189.2708811677616 -698.4494862384533 36.47436313237702 0.0 0.0
-1137.619473385224 -150.18212711942394 -642.2269246003757 37.75429931752582 0.0 0.0
-1064.467836494469 -113.84312501649802 -587.2582393341035 38.63892496208527 0.0 0.0
-990.1168342446672 -80.17561895963324 -532.9292404388669 39.263592468147316 0.0 0.0
-914.2250732213329 -48.914870961359554 -478.88629776326667 39.28291565738534 0.0 0.0
-837.3685394812704 -21.337940433722267 -425.9575363629278 37.9748725101796 0.0 0.0
-761.3062653090325 0.045316723597892405 -375.6744167823531 35.132853916007186 0.0 0.0
-686.428954103555 13.646880723265546 -325.6911496853493 32.006431150571245 0.0 0.0
-609.3348431674767 19.78415061905161 -264.6067487892403 31.069647641896033 0.0 0.0
-521.7437667492281 25.355653354772823 -183.81844746815878 38.57102083632096 0.0 0.0
-405.7411733924283 16.153766611056824 -119.21618109663368 56.29898409918917 0.0 0.0
-265.15460360058546 -1.4732476749304482 -79.98835538265476 65.38484593165117 0.0 0.0
-128.10750769836534 -4.8054071031405385 -39.87387444045176 56.58542926741437 0.0 0.0
-30.311109797362512 -3.448734242092316 -10.127953211836449 19.25023059888671 0.0 0.0
-23.153911524159682 3.0579093794656487 -6.02880064340821 -3.208318358120051 0.0 0.0
-124.08263626687862 1.726377462470456 -36.70687764132244 -22.889303803926758 0.0 0.0
-288.9273425870492 -2.155246479709957 -87.32477672002774 -27.087255941501326 0.0 0.0
-445.61184461821637 18.25510384860302 -134.63845801213716 -22.509124528549727 0.0 0.0
-553.7702553141379 23.045363969104393 -208.28318024446355 -13.040977778409578 0.0 0.0
-633.5576477135352 18.28942304628943 -284.9300154610514 -10.41251630566312 0.0 0.0
-706.0659758989191 13.614665564241719 -338.2297095450648 -11.232402302666035 0.0 0.0
-779.9756713550595 0.020435797165703207 -385.9124660698446 -13.277492045425339 0.0 0.0
-857.516877220964 -22.860029991050027 -437.1926874328026 -15.184650444103873 0.0 0.0
-937.7073575775629 -53.27122248457863 -493.0375077618129 -16.349937139446723 0.0 0.0
-1018.18157113437 -88.33965233185756 -551.2013151560005 -16.799237824824537 0.0 0.0
-1097.6233953729939 -126.79627316134076 -610.4323343959163 -16.773899724764508 0.0 0.0
-1176.6274455202201 -168.11401246274895 -670.7814353840515 -16.532067533478116 0.0 0.0
-1256.4584434904368 -213.33231432521973 -733.4304034566117 -15.957596401958071 0.0 0.0
-1337.76282871934 -263.2576631724037 -799.1314014464559 -14.782821634997497 0.0 0.0
-1419.5837717377567 -317.33893712509564 -867.1372318530284 -12.751828632293439 0.0 0.0
-1500.3381851259344 -374.91581979573044 -936.2907728671586 -10.455575177069395 0.0 0.0
-1587.3014811096934 -444.9658255892461 -1014.6375594782974 -12.555934559880303 0.0 0.0
-1714.9308557918512 -565.5881630167705 -1138.5226025576362 -28.562184461624128 0.0 0.0
-2028.059738430411 -890.7283400150377 -1458.082150809178 -60.004827983393106 0.0 0.0
-2028.059738429482 -890.7283400141159 -1458.0821508084136 60.00482798331424 0.0 0.0
-1714.9308557883382 -565.5881630133034 -1138.5226025550094 28.562184461777022 0.0 0.0
-1587.3014811078208 -444.96582558743853 -1014.6375594770085 12.555934559713737 0.0 0.0
-1500.3381851265565 -374.91581979647725 -936.2907728676614 10.455575177081105 0.0 0.0
-1419.5837717366587 -317.3389371241319 -867.1372318522742 12.751828632427546 0.0 0.0
-1337.7628287181974 -263.2576631714266 -799.1314014455859 14.782821634963032 0.0 0.0
-1256.4584434901503 -213.3323143251045 -733.4304034564888 15.957596401987544 0.0 0.0
-1176.6274455193275 -168.11401246207035 -670.7814353834615 16.53206753341615 0.0 0.0
-1097.623395372873 -126.79627316146562 -610.4323343957853 16.77389972471257 0.0 0.0
-1018.1815711345492 -88.33965233231118 -551.2013151560865 16.79923782491134 0.0 0.0
-937.7073575775682 -53.27122248485435 -493.0375077617563 16.349937139229034 0.0 0.0
-857.5168772210179 -22.860029991400864 -437.19268743282623 15.184650444058533 0.0 0.0
-779.9756713544197 0.020435797500667263 -385.9124660694422 13.277492045590169 0.0 0.0
-706.0659758984006 13.614665564423618 -338.2297095447217 11.232402302607031 0.0 0.0
-633.5576477133402 18.28942304616337 -284.93001546086003 10.412516305671055 0.0 0.0
-553.7702553139634 23.04536396889549 -208.28318024426613 13.04097777841346 0.0 0.0
-445.6118446181669 18.25510384810537 -134.6384580122059 22.509124528468053 0.0 0.0
-288.9273425868095 -2.155246479875613 -87.3247767200055 27.08725594135614 0.0 0.0
-124.08263626666846 1.7263774625605244 -36.706877641232374 22.8893038039353 0.0 0.0
-23.153911524049796 3.0579093795032115 -6.028800643363975 3.208318358290855 0.0 0.0
SCALARS Strain float 6
LOOKUP_TABLE default
0.013152827729947601 -0.014222731909446673 0.0 -0.00793139711560431 0.0 0.0
0.0026960694637536108 -0.0018226246857215855 0.0 0.0013398948697501134 0.0 0.0
0.001895042180618152 -0.0007825848339749752 0.0 -3.450070269506167e-05 0.0 0.0
0.0024995212731755735 -0.0012720848391201134 0.0 -0.00024783324472305024 0.0 0.0
0.004157367336448139 -0.0026648253182204318 0.0 -0.0003300674661265157 0.0 0.0
0.0075640798601282755 -0.005770190549265974 0.0 -0.0005290032712639836 0.0 0.0
0.013145112657263702 -0.011086404033348707 0.0 -0.0008721757833491939 0.0 0.0
0.02128639123306422 -0.01895540962897435 0.0 -0.0014123812076197728 0.0 0.0
0.03217794981536075 -0.029544030327969484 0.0 -0.002167916115454749 0.0 0.0
0.045767282154872954 -0.0428011001753279 0.0 -0.0030702879158910346 0.0 0.0
0.06184177249902679 -0.0585273055237403 0.0 -0.00400512248834628 0.0 0.0
0.08013767183124354 -0.07646723197562633 0.0 -0.004912243277696071 0.0 0.0
0.10038245814184381 -0.09635064166714669 0.0 -0.005797543169038355 0.0 0.0
0.12226028787719637 -0.11785739596707012 0.0 -0.006646112254483305 0.0 0.0
0.14529555057429788 -0.1405088607563938 0.0 -0.007404764041141876 0.0 0.0
0.1687262074290569 -0.16354753003593636 0.0 -0.007913534966439484 0.0 0.0
0.19145713879911658 -0.18589162842036 0.0 -0.007916251191293022 0.0 0.0
0.21210358669725055 -0.2061683916596193 0.0 -0.0072176297898901565 0.0 0.0
0.22902269066745135 -0.22273021059916154 0.0 -0.006304228177789084 0.0 0.0
0.23970400468656128 -0.23282028458361292 0.0 -0.007848966828073567 0.0 0.0
0.2397040046865477 -0.2328202845835996 0.0 0.007848966828083115 0.0 0.0
0.22902269066740163 -0.22273021059911624 0.0 0.00630422817781473 0.0 0.0
0.21210358669716572 -0.20616839165954648 0.0 0.007217629789906699 0.0 0.0
0.19145713879901227 -0.18589162842025608 0.0 0.007916251191300905 0.0 0.0
0.16872620742894096 -0.16354753003582356 0.0 0.00791353496642988 0.0 0.0
0.14529555057417914 -0.1405088607562841 0.0 0.007404764041137324 0.0 0.0
0.12226028787707832 -0.11785739596695421 0.0 0.006646112254484859 0.0 0.0
0.10038245814172814 -0.09635064166703389 0.0 0.005797543169039687 0.0 0.0
0.0801376718311329 -0.0764672319755193 0.0 0.004912243277686357 0.0 0.0
0.06184177249892775 -0.05852730552364216 0.0 0.004005122488339841 0.0 0.0
0.045767282154791145 -0.04280110017524885 0.0 0.0030702879158753804 0.0 0.0
0.032177949815297036 -0.0295440303279082 0.0 0.002167916115451529 0.0 0.0
0.021286391233017288 -0.01895540962893083 0.0 0.0014123812076135556 0.0 0.0
0.01314511265723034 -0.011086404033315178 0.0 0.000872175783344864 0.0 0.0
0.0075640798601097625 -0.005770190549247323 0.0 0.0005290032712592652 0.0 0.0
0.004157367336439399 -0.002664825318210662 0.0 0.00033006746612557203 0.0 0.0
0.0024995212731732663 -0.001272084839118004 0.0 0.0002478332447248821 0.0 0.0
0.001895042180617812 -0.0007825848339746422 0.0 3.450070269783723e-05 0.0 0.0
0.002696069463751616 -0.0018226246857198647 0.0 -0.0013398948697467272 0.0 0.0
0.013152827729936645 -0.014222731909432866 0.0 0.007931397115566452 0.0 0.0
0.009453653003967548 -0.010900986450706307 0.0 -0.009684389911293945 0.0 0.0
0.0014401280281633178 -0.0009113324013401147 0.0 0.0001210792824747342 0.0 0.0
0.0016114154855126142 -0.0005638578541793393 0.0 -0.00012497609316974856 0.0 0.0
0.002169728019187536 -0.0010433980736896942 0.0 -0.0005142027318896236 0.0 0.0
0.0034977007680661795 -0.0021059554711546635 0.0 -0.0007285956908266722 0.0 0.0
0.006425575434528305 -0.004717670687004238 0.0 -0.0012137307331841485 0.0 0.0
0.011410342666400189 -0.009415771280261609 0.0 -0.0020671053575168075 0.0 0.0
0.018776855700238987 -0.016503783803595518 0.0 -0.003331413779823822 0.0 0.0
0.028644377245661247 -0.02607617366008874 0.0 -0.005009357127712666 0.0 0.0
0.04090927296854873 -0.03802714457008083 0.0 -0.00694137602190148 0.0 0.0
0.0553504028375664 -0.05214574011883011 0.0 -0.008912065986543705 0.0 0.0
0.07174304354840674 -0.06821180037467967 0.0 -0.010802005135019 0.0 0.0
0.08988228524069292 -0.08601878645848382 0.0 -0.012661993182675635 0.0 0.0
0.10950937752025437 -0.10530603140229555 0.0 -0.014486683483035667 0.0 0.0
0.13021745048370897 -0.12566589250464855 0.0 -0.01613240015605405 0.0 0.0
0.15136355421865094 -0.14645759850354256 0.0 -0.017287972342295344 0.0 0.0
0.17200403068565587 -0.16674173584400176 0.0 -0.017477949862738207 0.0 0.0
0.19085686820408854 -0.18523546635300736 0.0 -0.016436321328442416 0.0 0.0
0.20613418306733713 -0.200102426941136 0.0 -0.014590668059950795 0.0 0.0
0.21534716776594118 -0.20900082679984067 0.0 -0.011767847443344581 0.0 0.0
0.2153471677659276 -0.20900082679982113 0.0 0.011767847443372448 0.0 0.0
0.2061341830672919 -0.20010242694108094 0.0 0.014590668059998091 0.0 0.0
0.19085686820401424 -0.1852354663529292 0.0 0.01643632132847872 0.0 0.0
0.1720040306855645 -0.16674173584390672 0.0 0.01747794986275264 0.0 0.0
0.15136355421854825 -0.1464575985034422 0.0 0.017287972342283187 0.0 0.0
0.13021745048360284 -0.1256658925045433 0.0 0.016132400156048554 0.0 0.0
0.10950937752014744 -0.10530603140218853 0.0 0.014486683483032392 0.0 0.0
0.08988228524059011 -0.0860187864583759 0.0 0.012661993182670361 0.0 0.0
0.07174304354830835 -0.06821180037458507 0.0 0.010802005135004178 0.0 0.0
0.055350402837477275 -0.05214574011874884 0.0 0.008912065986531825 0.0 0.0
0.04090927296847535 -0.038027144570008886 0.0 0.0069413760218851595 0.0 0.0
0.02864437724560337 -0.026076173660030122 0.0 0.005009357127705449 0.0 0.0
0.018776855700196216 -0.016503783803554217 0.0 0.0033314137798161614 0.0 0.0
0.011410342666371198 -0.009415771280239182 0.0 0.0020671053575138654 0.0 0.0
0.006425575434512054 -0.0047176706869895835 0.0 0.0012137307331805958 0.0 0.0
0.0034977007680594974 -0.002105955471147558 0.0 0.0007285956908242297 0.0 0.0
0.0021697280191861346 -0.00104339807368925 0.0 0.0005142027318881803 0.0 0.0
0.0016114154855126905 -0.0005638578541796724 0.0 0.00012497609316863834 0.0 0.0
0.0014401280281631235 -0.0009113324013388935 0.0 -0.00012107928247662159 0.0 0.0
0.009453653003953233 -0.010900986450690368 0.0 0.009684389911264857 0.0 0.0
0.007061816811311315 -0.008692148485019757 0.0 -0.00901988172778212 0.0 0.0
0.0008397828243865979 -0.0005998350532214758 0.0 -0.0006086342765185826 0.0 0.0
0.0012879574778046424 -0.0004100196161133107 0.0 -0.0004449176702486235 0.0 0.0
0.0018606042612437507 -0.0008346278619104641 0.0 -0.0007594482486651954 0.0 0.0
0.0029100871540197956 -0.0016358040910626759 0.0 -0.0010577026016977409 0.0 0.0
0.005335009822999746 -0.0037321129401231 0.0 -0.001716279652215269 0.0 0.0
0.009690323721750313 -0.007772082388327384 0.0 -0.0029509043059020024 0.0 0.0
0.01623699645727445 -0.01403572255141139 0.0 -0.004800260474776774 0.0 0.0
0.025039795024373056 -0.02255017950355409 0.0 -0.007199065380308622 0.0 0.0
0.035953696209318375 -0.03316949904087041 0.0 -0.009920427988072966 0.0 0.0
0.04875342491610449 -0.045672034270559436 0.0 -0.012695184100544099 0.0 0.0
0.063242263256723 -0.0598619630030468 0.0 -0.015371138762021896 0.0 0.0
0.07926009741705392 -0.07557734206726963 0.0 -0.017985009888787595 0.0 0.0
0.09661397576580318 -0.09262407808845641 0.0 -0.020562505565487887 0.0 0.0
0.11498506251117337 -0.11068374050696761 0.0 -0.022929090459653967 0.0 0.0
0.13385727482316118 -0.12923865974945858 0.0 -0.024653239440208252 0.0 0.0
0.15243456408036732 -0.14748799989183503 0.0 -0.025168350757549418 0.0 0.0
0.16951269568844296 -0.164212270640669 0.0 -0.024059218478151068 0.0 0.0
0.18334758316525404 -0.17770080919085807 0.0 -0.020842709014065486 0.0 0.0
0.19196538856854725 -0.18606548592879246 0.0 -0.014481697072564526 0.0 0.0
0.19196538856853415 -0.18606548592878536 0.0 0.01448169707261171 0.0 0.0
0.18334758316521355 -0.17770080919082787 0.0 0.020842709014131766 0.0 0.0
0.16951269568837768 -0.16421227064061927 0.0 0.024059218478196476 0.0 0.0
0.15243456408028705 -0.14748799989175332 0.0 0.0251683507575704 0.0 0.0
0.13385727482307153 -0.1292386597493742 0.0 0.024653239440197705 0.0 0.0
0.11498506251107954 -0.11068374050687657 0.0 0.022929090459646195 0.0 0.0
0.09661397576570796 -0.09262407808836715 0.0 0.02056250556548489 0.0 0.0
0.0792600974169635 -0.0755773420671777 0.0 0.0179850098887806 0.0 0.0
0.06324226325663684 -0.05986196300296642 0.0 0.015371138762003023 0.0 0.0
0.0487534249160263 -0.04567203427048394 0.0 0.012695184100524282 0.0 0.0
0.03595369620925365 -0.033169499040804684 0.0 0.009920427988052039 0.0 0.0
0.025039795024321243 -0.02255017950350169 0.0 0.007199065380298686 0.0 0.0
0.016236996457235697 -0.01403572255137453 0.0 0.00480026047476767 0.0 0.0
0.009690323721725347 -0.007772082388303625 0.0 0.0029509043058933426 0.0 0.0
0.005335009822986292 -0.00373211294011222 0.0 0.0017162796522104395 0.0 0.0
0.002910087154014973 -0.0016358040910557925 0.0 0.0010577026016947433 0.0 0.0
0.001860604261242571 -0.0008346278619080216 0.0 0.0007594482486645848 0.0 0.0
0.001287957477804913 -0.00041001961611353277 0.0 0.0004449176702460145 0.0 0.0
0.0008397828243866257 -0.000599835053220088 0.0 0.0006086342765148078 0.0 0.0
0.007061816811297417 -0.008692148485005154 0.0 0.009019881727754975 0.0 0.0
0.005372513689021169 -0.007022214370611901 0.0 -0.007687244339803168 0.0 0.0
0.0005239309101071482 -0.00044618605274859835 0.0 -0.0012176995980487382 0.0 0.0
0.0009972756927850157 -0.00029933181746399917 0.0 -0.0008797344270246032 0.0 0.0
0.0015666546714092067 -0.0006587854851654029 0.0 -0.0010326445093475911 0.0 0.0
0.00239210069022526 -0.001254337234353864 0.0 -0.00134540999458449 0.0 0.0
0.004328352253875539 -0.002853685384103466 0.0 -0.0020646313312635556 0.0 0.0
0.008002071710057831 -0.006187464950170529 0.0 -0.0035341134872045044 0.0 0.0
0.013698145684476123 -0.011582292856033405 0.0 -0.005813088288868007 0.0 0.0
0.021401918625161803 -0.01900675498126736 0.0 -0.008728317758596449 0.0 0.0
0.03094286322703127 -0.028271598933210296 0.0 -0.01201356697853262 0.0 0.0
0.04209021308076259 -0.03914613675824574 0.0 -0.015357126243240538 0.0 0.0
0.05466886520870563 -0.05145307044788616 0.0 -0.018604225214576275 0.0 0.0
0.06855993188822002 -0.06507187516184798 0.0 -0.02179076634527488 0.0 0.0
0.08362778888482435 -0.07986494864184168 0.0 -0.02489564712059361 0.0 0.0
0.09964168526938753 -0.09560429980410756 0.0 -0.02775450888751463 0.0 0.0
0.11621850857911982 -0.11190165379679051 0.0 -0.029973028377903388 0.0 0.0
0.1327117537322868 -0.12809632230741475 0.0 -0.030911932345598747 0.0 0.0
0.14806104351720276 -0.14312666357034143 0.0 -0.02980677510641505 0.0 0.0
0.16075708951927176 -0.15551605737755825 0.0 -0.02552864229085694 0.0 0.0
0.16913527897641206 -0.16366650562817764 0.0 -0.01667888389622596 0.0 0.0
0.16913527897639988 -0.16366650562815188 0.0 0.016678883896281693 0.0 0.0
0.16075708951923526 -0.15551605737751562 0.0 0.025528642290934767 0.0 0.0
0.1480610435171455 -0.14312666357028458 0.0 0.029806775106472116 0.0 0.0
0.13271175373221725 -0.1280963223073428 0.0 0.03091193234562306 0.0 0.0
0.116218508579042 -0.11190165379671413 0.0 0.029973028377892952 0.0 0.0
0.09964168526930522 -0.09560429980402807 0.0 0.027754508887503304 0.0 0.0
0.08362778888474226 -0.07986494864176397 0.0 0.024895647120586895 0.0 0.0
0.06855993188814125 -0.06507187516176849 0.0 0.021790766345263668 0.0 0.0
0.05466886520863096 -0.05145307044781555 0.0 0.018604225214551406 0.0 0.0
0.042090213080695715 -0.03914613675818179 0.0 0.015357126243215613 0.0 0.0
0.030942863226974926 -0.028271598933152564 0.0 0.012013566978504309 0.0 0.0
0.0214019186251167 -0.01900675498122162 0.0 0.008728317758576076 0.0 0.0
0.013698145684442053 -0.01158229285599699 0.0 0.005813088288852186 0.0 0.0
0.00800207171003725 -0.006187464950148325 0.0 0.0035341134871958446 0.0 0.0
0.004328352253865075 -0.0028536853840952503 0.0 0.0020646313312585596 0.0 0.0
0.0023921006902221653 -0.0012543372343525316 0.0 0.0013454099945809372 0.0 0.0
0.0015666546714083185 -0.0006587854851665131 0.0 0.0010326445093457037 0.0 0.0
0.0009972756927853488 -0.00029933181746588655 0.0 0.0008797344270223828 0.0 0.0
0.0005239309101068845 -0.0004461860527478212 0.0 0.0012176995980470173 0.0 0.0
0.005372513689009095 -0.007022214370598972 0.0 0.007687244339784238 0.0 0.0
0.004075514305305616 -0.005657439834655442 0.0 -0.0063081144607951 0.0 0.0
0.0003490650362122233 -0.0003575732534573106 0.0 -0.0016922501527631972 0.0 0.0
0.0007561956436509393 -0.00022165302869636694 0.0 -0.0013188383114156044 0.0 0.0
0.0012871503032972353 -0.000512603285572899 0.0 -0.0013380026820259405 0.0 0.0
0.0019382649697297083 -0.0009522975064144568 0.0 -0.001610428579920553 0.0 0.0
0.0034236614571176577 -0.002105419198767944 0.0 -0.0023200183859663492 0.0 0.0
0.006390772126941044 -0.004707015607188669 0.0 -0.003838732954656199 0.0 0.0
0.011185473899896381 -0.009178104115704855 0.0 -0.00632961161122475 0.0 0.0
0.017767736233195983 -0.015484241932292697 0.0 -0.009591160013999733 0.0 0.0
0.025916701185942692 -0.023375306863420597 0.0 -0.013219465687172693 0.0 0.0
0.035401473630806354 -0.03261040327895781 0.0 -0.016908904364864308 0.0 0.0
0.04606290756454713 -0.04302778751143155 0.0 -0.020499570260043842 0.0 0.0
0.057820998751198005 -0.05454368054092518 0.0 -0.024028313107795685 0.0 0.0
0.07059782911065887 -0.06707864087612725 0.0 -0.027481148335015304 0.0 0.0
0.08423903549351276 -0.08047996987873951 0.0 -0.03065770000058088 0.0 0.0
0.0984732385692248 -0.09447188300856624 0.0 -0.0331976307716183 0.0 0.0
0.11282824482662265 -0.10857031097857561 0.0 -0.03452776598598517 0.0 0.0
0.1264933692656805 -0.12195717539626472 0.0 -0.03363797979445793 0.0 0.0
0.13823801587576437 -0.1334254458955595 0.0 -0.028878359848070745 0.0 0.0
0.14660439196401223 -0.14156984567880926 0.0 -0.01852489046088901 0.0 0.0
0.14660439196400168 -0.1415698456787906 0.0 0.018524890460953958 0.0 0.0
0.1382380158757321 -0.1334254458955222 0.0 0.028878359848151236 0.0 0.0
0.1264933692656304 -0.12195717539622031 0.0 0.0336379797945201 0.0 0.0
0.11282824482656417 -0.10857031097852587 0.0 0.03452776598601082 0.0 0.0
0.09847323856915763 -0.09447188300850673 0.0 0.03319763077160898 0.0 0.0
0.08423903549344253 -0.0804799698786649 0.0 0.030657700000567334 0.0 0.0
0.07059782911058987 -0.0670786408760553 0.0 0.027481148335003258 0.0 0.0
0.057820998751131336 -0.054543680540857675 0.0 0.024028313107784305 0.0 0.0
0.0460629075644835 -0.04302778751136893 0.0 0.020499570260017586 0.0 0.0
0.03540147363075086 -0.03261040327890141 0.0 0.016908904364839272 0.0 0.0
0.025916701185894453 -0.023375306863376633 0.0 0.013219465687141607 0.0 0.0
0.017767736233157194 -0.01548424193225717 0.0 0.009591160013978861 0.0 0.0
0.011185473899868792 -0.00917810411567821 0.0 0.006329611611210373 0.0 0.0
0.006390772126924571 -0.004707015607171128 0.0 0.003838732954647983 0.0 0.0
0.003423661457109539 -0.0021054191987621707 0.0 0.002320018385960576 0.0 0.0
0.0019382649697274323 -0.0009522975064113481 0.0 0.0016104285799190543 0.0 0.0
0.0012871503032964027 -0.0005126032855710116 0.0 0.001338002682022832 0.0 0.0
0.000756195643651314 -0.00022165302869603387 0.0 0.0013188383114110525 0.0 0.0
0.0003490650362119041 -0.00035757325345603386 0.0 0.0016922501527593115 0.0 0.0
0.004075514305295569 -0.0056574398346442845 0.0 0.006308114460779779 0.0 0.0
0.0030456310101647927 -0.0045107288010275415 0.0 -0.005092446149206231 0.0 0.0
0.00024401360699081998 -0.0002974054183673136 0.0 -0.0020469329132896674 0.0 0.0
0.0005557288518241305 -0.00016343549053687845 0.0 -0.001704608358082449 0.0 0.0
0.0010171947233472561 -0.00038663329059063223 0.0 -0.0016488229833246382 0.0 0.0
0.001540029507904564 -0.0007149841750611063 0.0 -0.0018687243298927125 0.0 0.0
0.002619773270751871 -0.0014956193853279398 0.0 -0.002515336059005391 0.0 0.0
0.00490223334734817 -0.00338942921920804 0.0 -0.003973701558613707 0.0 0.0
0.008747876907306829 -0.006886799497339169 0.0 -0.006429095224949111 0.0 0.0
0.014170764271391217 -0.012023093407067975 0.0 -0.00976208667612316 0.0 0.0
0.02091482945488743 -0.018523408621730297 0.0 -0.013527994405410027 0.0 0.0
0.028727216847396667 -0.0261094982382315 0.0 -0.017335683104607758 0.0 0.0
0.037467276914632905 -0.03463202885700989 0.0 -0.0210476752171585 0.0 0.0
0.047088235915808074 -0.04404153373806485 0.0 -0.02470306110013043 0.0 0.0
0.057566103624535625 -0.05431060382384434 0.0 -0.02827348172651789 0.0 0.0
0.0688207650886366 -0.06535728358414605 0.0 -0.03158288682041077 0.0 0.0
0.0806679936413266 -0.07700032615181929 0.0 -0.0343066740087401 0.0 0.0
0.09280957663733852 -0.08893390225650499 0.0 -0.035923448706836725 0.0 0.0
0.10475669250002512 -0.10065194564892987 0.0 -0.03543685796860685 0.0 0.0
0.1156321789100109 -0.11127896247891034 0.0 -0.03088757872488579 0.0 0.0
0.12414962690853473 -0.11956640385311079 0.0 -0.020068029954113387 0.0 0.0
0.12414962690852563 -0.11956640385309836 0.0 0.020068029954181887 0.0 0.0
0.11563217890998381 -0.11127896247888636 0.0 0.030887578724966724 0.0 0.0
0.10475669249998229 -0.10065194564889346 0.0 0.03543685796866991 0.0 0.0
0.09280957663728984 -0.08893390225645881 0.0 0.035923448706861594 0.0 0.0
0.0806679936412707 -0.07700032615176244 0.0 0.034306674008728666 0.0 0.0
0.0688207650885784 -0.0653572835840861 0.0 0.031582886820398115 0.0 0.0
0.05756610362447945 -0.054310603823790604 0.0 0.02827348172650701 0.0 0.0
0.04708823591575434 -0.04404153373801467 0.0 0.02470306110011733 0.0 0.0
0.037467276914580794 -0.03463202885696193 0.0 0.021047675217134354 0.0 0.0
0.02872721684735219 -0.026109498238182205 0.0 0.01733568310457978 0.0 0.0
0.02091482945484774 -0.018523408621686333 0.0 0.01352799440537733 0.0 0.0
0.014170764271359548 -0.012023093407035113 0.0 0.009762086676105786 0.0 0.0
0.008747876907285346 -0.006886799497316964 0.0 0.006429095224935066 0.0 0.0
0.004902233347335083 -0.0033894292191960496 0.0 0.003973701558603382 0.0 0.0
0.0026197732707459176 -0.001495619385323721 0.0 0.0025153360589993956 0.0 0.0
0.0015400295079031068 -0.0007149841750586639 0.0 0.0018687243298897704 0.0 0.0
0.0010171947233463818 -0.00038663329059118734 0.0 0.001648822983321474 0.0 0.0
0.0005557288518241443 -0.00016343549053721151 0.0 0.0017046083580795623 0.0 0.0
0.00024401360699066732 -0.0002974054183668695 0.0 0.002046932913287336 0.0 0.0
0.0030456310101568684 -0.0045107288010193085 0.0 0.005092446149193741 0.0 0.0
0.0022221845675313157 -0.0035392147625634696 0.0 -0.004080707681886175 0.0 0.0
0.00017217725586121668 -0.00025222671115032735 0.0 -0.002297139717395924 0.0 0.0
0.0003813630598911155 -0.00011395340917741414 0.0 -0.002013401502050871 0.0 0.0
0.000752591797159613 -0.0002697283809425244 0.0 -0.001938626872877769 0.0 0.0
0.001177776284158355 -0.0005220957881790778 0.0 -0.0021277482306335527 0.0 0.0
0.001920051142307616 -0.0010141936250369632 0.0 -0.0026591414636318866 0.0 0.0
0.0035505695144340543 -0.0022635997127187224 0.0 -0.003939328456495028 0.0 0.0
0.006449604005431209 -0.004781864868962149 0.0 -0.006186142535208106 0.0 0.0
0.010664555691630467 -0.008693823742185636 0.0 -0.00929325704729822 0.0 0.0
0.015975635491410067 -0.013763796761607772 0.0 -0.01290962808928764 0.0 0.0
0.02210648441061977 -0.01968988404723815 0.0 -0.016625351981406133 0.0 0.0
0.02892508474334035 -0.026316119375423774 0.0 -0.020235902370308922 0.0 0.0
0.03640770535548449 -0.03361806762461228 0.0 -0.02378126896921262 0.0 0.0
0.04457867180441358 -0.041614470141918325 0.0 -0.027266856662077177 0.0 0.0
0.05342838702555125 -0.05029011964128216 0.0 -0.03051901681618463 0.0 0.0
0.06285676050213457 -0.059544912217101675 0.0 -0.033213591750130944 0.0 0.0
0.07269730613069286 -0.06922811624492109 0.0 -0.0349868267357738 0.0 0.0
0.08280115254571646 -0.07916610283615011 0.0 -0.03508020330829087 0.0 0.0
0.09276146824837822 -0.08891362225140131 0.0 -0.03144945160523083 0.0 0.0
0.10153547413321468 -0.09743728220188519 0.0 -0.021292386902643234 0.0 0.0
0.10153547413320713 -0.09743728220187808 0.0 0.02129238690270907 0.0 0.0
0.09276146824835654 -0.08891362225138266 0.0 0.03144945160530821 0.0 0.0
0.08280115254568227 -0.0791661028361208 0.0 0.035080203308353264 0.0 0.0
0.07269730613065264 -0.0692281162448749 0.0 0.03498682673579878 0.0 0.0
0.0628567605020911 -0.05954491221705016 0.0 0.033213591750120064 0.0 0.0
0.053428387025505175 -0.050290119641233755 0.0 0.030519016816170308 0.0 0.0
0.044578671804369585 -0.0416144701418788 0.0 0.027266856662063743 0.0 0.0
0.0364077053554441 -0.03361806762457231 0.0 0.023781268969200187 0.0 0.0
0.028925084743300328 -0.026316119375383362 0.0 0.02023590237028705 0.0 0.0
0.02210648441058516 -0.019689884047207062 0.0 0.01662535198138082 0.0 0.0
0.015975635491379703 -0.013763796761579794 0.0 0.012909628089254555 0.0 0.0
0.010664555691606264 -0.00869382374215899 0.0 0.009293257047278902 0.0 0.0
0.0064496040054151105 -0.004781864868943497 0.0 0.006186142535194117 0.0 0.0
0.0035505695144244787 -0.002263599712711395 0.0 0.003939328456486313 0.0 0.0
0.0019200511423038968 -0.0010141936250378514 0.0 0.0026591414636266686 0.0 0.0
0.0011777762841573558 -0.0005220957881795218 0.0 0.002127748230630222 0.0 0.0
0.0007525917971592522 -0.00026972838094097007 0.0 0.001938626872875271 0.0 0.0
0.00038136305989117103 -0.00011395340917674801 0.0 0.0020134015020493723 0.0 0.0
0.00017217725586093913 -0.0002522267111506049 0.0 0.0022971397173942587 0.0 0.0
0.0022221845675254037 -0.003539214762556527 0.0 0.00408070768187746 0.0 0.0
0.001575202635813261 -0.0027308587611223345 0.0 -0.003276499679958078 0.0 0.0
0.00010894310252987371 -0.0002142581380287778 0.0 -0.0024469609870332865 0.0 0.0
0.00022084006185918437 -6.523005065717236e-05 0.0 -0.0022447039595392404 0.0 0.0
0.0004925759131773066 -0.00015484824054379231 0.0 -0.002181329383999564 0.0 0.0
0.0008274488753122478 -0.0003507603681360827 0.0 -0.00237020713177033 0.0 0.0
0.0013152712434789104 -0.0006493085434826629 0.0 -0.002812914161394897 0.0 0.0
0.0023533952754123677 -0.0013591122712188763 0.0 -0.0038097465578104672 0.0 0.0
0.004330011580242349 -0.0029338326726717767 0.0 -0.00564781456476271 0.0 0.0
0.007320419290653607 -0.005590751895653501 0.0 -0.008279568242891333 0.0 0.0
0.01115389428526603 -0.009176529206771367 0.0 -0.011417830300242238 0.0 0.0
0.015583030256272778 -0.013413050909646174 0.0 -0.014738327599356005 0.0 0.0
0.020477794710094727 -0.01813973025267579 0.0 -0.018016588952918355 0.0 0.0
0.025825460397993466 -0.023336008504776462 0.0 -0.021241232702793655 0.0 0.0
0.03168074894324685 -0.029051711966239235 0.0 -0.024410440989187765 0.0 0.0
0.03810364359325058 -0.03533737002690618 0.0 -0.027417820376417268 0.0 0.0
0.045089482168644696 -0.042180613753207474 0.0 -0.029946759822979452 0.0 0.0
0.05256544539301436 -0.049529169774842785 0.0 -0.031627733402305735 0.0 0.0
0.060609302835413464 -0.05748489134145274 0.0 -0.03222838492216229 0.0 0.0
0.06942751669637623 -0.0661592645942557 0.0 -0.030225338646867828 0.0 0.0
0.07847971569261986 -0.07493365210881198 0.0 -0.022105325684810717 0.0 0.0
0.07847971569261511 -0.07493365210880754 0.0 0.02210532568486845 0.0 0.0
0.06942751669636008 -0.06615926459423882 0.0 0.030225338646941102 0.0 0.0
0.06060930283538801 -0.05748489134142698 0.0 0.03222838492222224 0.0 0.0
0.05256544539298316 -0.04952916977480992 0.0 0.03162773340232594 0.0 0.0
0.04508948216861311 -0.04218061375318616 0.0 0.029946759822966018 0.0 0.0
0.03810364359321808 -0.03533737002687687 0.0 0.027417820376400948 0.0 0.0
0.03168074894321557 -0.029051711966211702 0.0 0.024410440989176996 0.0 0.0
0.025825460397966543 -0.023336008504752037 0.0 0.021241232702786106 0.0 0.0
0.02047779471006697 -0.01813973025264959 0.0 0.01801658895289726 0.0 0.0
0.015583030256248076 -0.013413050909620416 0.0 0.014738327599332912 0.0 0.0
0.011153894285244936 -0.009176529206756268 0.0 0.011417830300214038 0.0 0.0
0.0073204192906373144 -0.005590751895640622 0.0 0.0082795682428769 0.0 0.0
0.004330011580231635 -0.002933832672662895 0.0 0.0056478145647513855 0.0 0.0
0.002353395275406206 -0.0013591122712135473 0.0 0.0038097465578012524 0.0 0.0
0.001315271243476912 -0.0006493085434791102 0.0 0.002812914161390012 0.0 0.0
0.0008274488753115816 -0.0003507603681367488 0.0 0.0023702071317681095 0.0 0.0
0.0004925759131770568 -0.00015484824054412538 0.0 0.002181329383995345 0.0 0.0
0.00022084006185918437 -6.52300506583936e-05 0.0 0.0022447039595362983 0.0 0.0
0.00010894310252945738 -0.0002142581380288333 0.0 0.002446960987033342 0.0 0.0
0.0015752026358089866 -0.0027308587611167816 0.0 0.0032764996799514723 0.0 0.0
0.001090005338671235 -0.0020872359160601373 0.0 -0.0026718310627883435 0.0 0.0
3.791290367380351e-05 -0.00018118176859838186 0.0 -0.002519575247751704 0.0 0.0
6.579426854869119e-05 -1.098931000387271e-05 0.0 -0.0024027762673979325 0.0 0.0
0.00023875726426797472 -4.1799312945789424e-05 0.0 -0.0023667258297167537 0.0 0.0
0.00047231902073552323 -0.00018154719095875294 0.0 -0.002569375625923298 0.0 0.0
0.0007701519841812055 -0.00036198004155085783 0.0 -0.0029836503623252297 0.0 0.0
0.0013242827720020556 -0.0006870709387252205 0.0 -0.003681752926559534 0.0 0.0
0.0024252347347371306 -0.001431828724599793 0.0 -0.004922842498327862 0.0 0.0
0.004200170034576539 -0.0028425087197661014 0.0 -0.006805364750178455 0.0 0.0
0.006521481101763066 -0.004895232913992853 0.0 -0.009153100114296042 0.0 0.0
0.009215434650587162 -0.0073946670396405345 0.0 -0.011754930974195332 0.0 0.0
0.012166483496676456 -0.010198286734685258 0.0 -0.014427440859217655 0.0 0.0
0.0153796161795271 -0.013286274163593514 0.0 -0.017128799870891775 0.0 0.0
0.018918056660599064 -0.016718071516739208 0.0 -0.019801630298176276 0.0 0.0
0.022882491776923197 -0.020585925354640544 0.0 -0.022388536836029038 0.0 0.0
0.027383047850573272 -0.024984732105314933 0.0 -0.024691650912819108 0.0 0.0
0.03248222941649728 -0.02996791559207157 0.0 -0.026266502318417984 0.0 0.0
0.03830057337809262 -0.03572430505436053 0.0 -0.026953827215310144 0.0 0.0
0.045462555788435416 -0.04289138857594477 0.0 -0.02665800610705016 0.0 0.0
0.05458370552124678 -0.0517297800854557 0.0 -0.022204480830026796 0.0 0.0
0.054583705521244086 -0.051729780085449484 0.0 0.022204480830073203 0.0 0.0
0.04546255578842576 -0.04289138857592967 0.0 0.02665800610711233 0.0 0.0
0.03830057337807563 -0.03572430505433832 0.0 0.02695382721535844 0.0 0.0
0.03248222941647669 -0.029967915592045813 0.0 0.026266502318427087 0.0 0.0
0.02738304785055412 -0.02498473210529628 0.0 0.02469165091280401 0.0 0.0
0.02288249177690488 -0.020585925354628998 0.0 0.02238853683601405 0.0 0.0
0.01891805666058169 -0.016718071516721444 0.0 0.01980163029816584 0.0 0.0
0.015379616179513111 -0.013286274163579748 0.0 0.017128799870889 0.0 0.0
0.012166483496660496 -0.01019828673467238 0.0 0.014427440859203 0.0 0.0
0.009215434650573257 -0.007394667039629432 0.0 0.011754930974175792 0.0 0.0
0.006521481101751353 -0.004895232913979974 0.0 0.009153100114273616 0.0 0.0
0.004200170034567879 -0.002842508719762993 0.0 0.006805364750167242 0.0 0.0
0.0024252347347313574 -0.001431828724599793 0.0 0.004922842498319868 0.0 0.0
0.0013242827719988637 -0.0006870709387232221 0.0 0.003681752926554427 0.0 0.0
0.0007701519841803728 -0.00036198004155352237 0.0 0.0029836503623210664 0.0 0.0
0.00047231902073538445 -0.00018154719096141747 0.0 0.002569375625920356 0.0 0.0
0.00023875726426775268 -4.179931294812089e-05 0.0 0.002366725829712757 0.0 0.0
6.579426854855241e-05 -1.0989310004094754e-05 0.0 0.0024027762673966557 0.0 0.0
3.7912903673331666e-05 -0.00018118176859782675 0.0 0.002519575247748873 0.0 0.0
0.0010900053386684871 -0.0020872359160569332 0.0 0.0026718310627834585 0.0 0.0
0.0007417554277811822 -0.0015912895802142057 0.0 -0.0022303563520114644 0.0 0.0
-4.4023790968433785e-05 -0.00015415031907228816 0.0 -0.0025448870203026996 0.0 0.0
-8.78158259055295e-05 5.119886118065686e-05 0.0 -0.002500051756034738 0.0 0.0
-8.455959913666877e-06 6.872274951419399e-05 0.0 -0.002492093233714354 0.0 0.0
0.00011249483636444069 -8.569567845118087e-06 0.0 -0.0026904925275804126 0.0 0.0
0.00024022830791595173 -0.00010034105996870046 0.0 -0.0031236499103432513 0.0 0.0
0.00042082824911710004 -0.0002052383902158006 0.0 -0.0037030370573558624 0.0 0.0
0.0007638133014878368 -0.00038364210794217257 0.0 -0.004363521698006467 0.0 0.0
0.0013513851334738258 -0.0007195487406685963 0.0 -0.005280412641166854 0.0 0.0
0.0021308606472059677 -0.0012487087843724431 0.0 -0.006622780003192941 0.0 0.0
0.003036984489909189 -0.0019504971557515738 0.0 -0.008391589111705122 0.0 0.0
0.0040122005284427276 -0.0027876058367666268 0.0 -0.010421553471432587 0.0 0.0
0.005071518202641734 -0.0037460736403227557 0.0 -0.012620624882148657 0.0 0.0
0.0062743046378642975 -0.004873492440500282 0.0 -0.014953560568276347 0.0 0.0
0.007748408981608446 -0.0062841731733565 0.0 -0.017377761801440683 0.0 0.0
0.00970770485202277 -0.008173263182901458 0.0 -0.019717676108197746 0.0 0.0
0.012420484983333285 -0.010783501050844357 0.0 -0.021503585420170057 0.0 0.0
0.016091859413540438 -0.014314366227232256 0.0 -0.022071652812518883 0.0 0.0
0.021135539754354976 -0.01939673698479183 0.0 -0.021936287400221022 0.0 0.0
0.029342450876305548 -0.027592148468765565 0.0 -0.0214648682484887 0.0 0.0
0.02934245087630452 -0.027592148468776223 0.0 0.021464868248525226 0.0 0.0
0.02113553975435087 -0.019396736984802487 0.0 0.02193628740027198 0.0 0.0
0.01609185941353275 -0.014314366227227815 0.0 0.022071652812553078 0.0 0.0
0.012420484983324764 -0.010783501050842581 0.0 0.021503585420170723 0.0 0.0
0.009707704852018467 -0.008173263182896129 0.0 0.019717676108179205 0.0 0.0
0.007748408981604005 -0.006284173173345398 0.0 0.017377761801429248 0.0 0.0
0.006274304637860745 -0.0048734924404918445 0.0 0.014953560568266133 0.0 0.0
0.005071518202640735 -0.003746073640318759 0.0 0.012620624882140996 0.0 0.0
0.004012200528439452 -0.0027876058367612977 0.0 0.010421553471418266 0.0 0.0
0.0030369844899067744 -0.0019504971557466888 0.0 0.008391589111692022 0.0 0.0
0.0021308606472039415 -0.0012487087843711109 0.0 0.006622780003179729 0.0 0.0
0.0013513851334719662 -0.0007195487406681522 0.0 0.005280412641161969 0.0 0.0
0.0007638133014864767 -0.00038364210794306075 0.0 0.004363521698001804 0.0 0.0
0.00042082824911610084 -0.00020523839021913126 0.0 0.0037030370573495897 0.0 0.0
0.00024022830791600724 -0.00010034105996581388 0.0 0.0031236499103390325 0.0 0.0
0.00011249483636469049 -8.56956784334173e-06 0.0 0.0026904925275772484 0.0 0.0
-8.4559599135281e-06 6.872274951352786e-05 0.0 0.0024920932337114676 0.0 0.0
-8.781582590566828e-05 5.1198861182655264e-05 0.0 0.0025000517560330726 0.0 0.0
-4.402379096840603e-05 -0.00015415031907078935 0.0 0.002544887020302311 0.0 0.0
0.0007417554277793781 -0.001591289580211661 0.0 0.0022303563520088 0.0 0.0
0.0004973115996936006 -0.0012308367018411537 0.0 -0.0019500795991286846 0.0 0.0
-0.00012818100687256306 -0.00012825690699935777 0.0 -0.0025417821587890854 0.0 0.0
-0.00023969739333618012 0.00011710828752786728 0.0 -0.0025408146472714055 0.0 0.0
-0.00024923729060594146 0.0001765460386382589 0.0 -0.002548904157854248 0.0 0.0
-0.00024443801547088806 0.00016394847780931698 0.0 -0.0027301308192425044 0.0 0.0
-0.0002926732019554734 0.00016103829365499145 0.0 -0.0031438707770027885 0.0 0.0
-0.0004412407912700034 0.00022218377365312847 0.0 -0.0037159370432627292 0.0 0.0
-0.0007712336377097007 0.0003891469082568655 0.0 -0.0043736079135030526 0.0 0.0
-0.0013516917499405146 0.0007208020750475441 0.0 -0.005284237915500145 0.0 0.0
-0.0021302651602507217 0.001249909506228608 0.0 -0.006622499512509372 0.0 0.0
-0.003048763094268103 0.0019659762523152047 0.0 -0.008395456403924473 0.0 0.0
-0.004065267184488269 0.0028400661987224574 0.0 -0.01043418078289926 0.0 0.0
-0.005173020023474029 0.003832122019594042 0.0 -0.012632033975239487 0.0 0.0
-0.006320910874784896 0.00487820012096396 0.0 -0.014955407563391865 0.0 0.0
-0.0073517781913295666 0.005823348472477896 0.0 -0.017389534892097824 0.0 0.0
-0.007975526903652191 0.0063877917480903434 0.0 -0.019878791322692213 0.0 0.0
-0.007765502983393291 0.006174918065386059 0.0 -0.02239299942902573 0.0 0.0
-0.0063537253090063806 0.004942339728060574 0.0 -0.025022495265918376 0.0 0.0
-0.003394094975527534 0.002464921877227688 0.0 -0.02742655438286279 0.0 0.0
0.003930184542996568 -0.004476902773637548 0.0 -0.026616077292692664 0.0 0.0
0.003930184542995208 -0.0044769027736366596 0.0 0.026616077292711315 0.0 0.0
-0.003394094975528117 0.0024649218772347936 0.0 0.02742655438288555 0.0 0.0
-0.006353725309002106 0.004942339728063239 0.0 0.02502249526592437 0.0 0.0
-0.007765502983386546 0.00617491806538073 0.0 0.0223929994290174 0.0 0.0
-0.007975526903641256 0.006387791748078797 0.0 0.019878791322673006 0.0 0.0
-0.00735177819132013 0.005823348472466794 0.0 0.017389534892086056 0.0 0.0
-0.006320910874775765 0.004878200120950638 0.0 0.014955407563376766 0.0 0.0
-0.005173020023462621 0.0038321220195816075 0.0 0.012632033975227053 0.0 0.0
-0.004065267184477223 0.0028400661987122433 0.0 0.010434180782879166 0.0 0.0
-0.0030487630942584443 0.0019659762523045465 0.0 0.008395456403909485 0.0 0.0
-0.0021302651602429223 0.0012499095062215027 0.0 0.006622499512494939 0.0 0.0
-0.0013516917499356573 0.0007208020750404387 0.0 0.005284237915495149 0.0 0.0
-0.0007712336377070916 0.0003891469082559773 0.0 0.004373607913500388 0.0 0.0
-0.0004412407912688654 0.0002221837736562371 0.0 0.003715937043258566 0.0 0.0
-0.00029267320195458524 0.00016103829365654576 0.0 0.003143870777000346 0.0 0.0
-0.0002444380154702219 0.00016394847781131539 0.0 0.002730130819240062 0.0 0.0
-0.0002492372906057194 0.00017654603864003526 0.0 0.0025489041578520832 0.0 0.0
-0.00023969739333604134 0.00011710828752720115 0.0 0.002540814647269296 0.0 0.0
-0.00012818100687231326 -0.00012825690699974635 0.0 0.002541782158787753 0.0 0.0
0.0004973115996922961 -0.0012308367018403713 0.0 0.0019500795991270747 0.0 0.0
0.00033010148453438415 -0.000966365606353603 0.0 -0.0017578097597327202 0.0 0.0
-0.00020537407004456165 -9.642653394892342e-05 0.0 -0.002497061393069433 0.0 0.0
-0.00038686143639654613 0.0001807464937244596 0.0 -0.0025287333242680066 0.0 0.0
-0.0004824724451169271 0.0002806770971131023 0.0 -0.0025327167466268063 0.0 0.0
-0.0005939627032695016 0.0003312165510567233 0.0 -0.002682371427491892 0.0 0.0
-0.0008217973210449814 0.0004232292110781799 0.0 -0.0030481216469464 0.0 0.0
-0.0013440134662583147 0.000706510146684991 0.0 -0.003721315271827841 0.0 0.0
-0.002429574835942361 0.0014378666316625655 0.0 -0.004945138866651266 0.0 0.0
-0.00419835263468693 0.0028424529758490635 0.0 -0.006810917719509146 0.0 0.0
-0.006521605440419215 0.004897861688501592 0.0 -0.00915398573791304 0.0 0.0
-0.009230202581374358 0.007414218030993069 0.0 -0.011755354105794646 0.0 0.0
-0.01221694760952774 0.010252668028023937 0.0 -0.014410298232480967 0.0 0.0
-0.01546935877621941 0.013367929802432066 0.0 -0.017070215190400972 0.0 0.0
-0.018944977614528846 0.0167061168598428 0.0 -0.0197284605873288 0.0 0.0
-0.02247211950361863 0.020091799057426307 0.0 -0.02245538716342743 0.0 0.0
-0.025697780141829413 0.023181431379043715 0.0 -0.025309267406563474 0.0 0.0
-0.028113726564087005 0.025491446008967245 0.0 -0.0283867915221252 0.0 0.0
-0.029148077665141103 0.026460395936119596 0.0 -0.03158756081709968 0.0 0.0
-0.02771773473708941 0.024769268867194327 0.0 -0.033109912554530996 0.0 0.0
-0.020439545497103 0.01715411056257299 0.0 -0.031049213258557806 0.0 0.0
-0.020439545497104056 0.0171541105625721 0.0 0.031049213258596775 0.0 0.0
-0.027717734737085747 0.02476926886719255 0.0 0.03310991255459017 0.0 0.0
-0.02914807766512681 0.026460395936105385 0.0 0.03158756081713043 0.0 0.0
-0.028113726564064356 0.02549144600895037 0.0 0.02838679152212298 0.0 0.0
-0.025697780141803794 0.023181431379018846 0.0 0.025309267406542157 0.0 0.0
-0.022472119503594956 0.020091799057409876 0.0 0.02245538716341111 0.0 0.0
-0.01894497761450689 0.016706116859821485 0.0 0.019728460587309815 0.0 0.0
-0.015469358776195707 0.013367929802409417 0.0 0.017070215190390647 0.0 0.0
-0.01221694760950337 0.010252668028003953 0.0 0.014410298232456986 0.0 0.0
-0.009230202581352265 0.007414218030973974 0.0 0.011755354105770222 0.0 0.0
-0.0065216054404017565 0.004897861688486049 0.0 0.009153985737890835 0.0 0.0
-0.004198352634674801 0.0028424529758379613 0.0 0.006810917719495824 0.0 0.0
-0.002429574835935283 0.00143786663165546 0.0 0.004945138866645271 0.0 0.0
-0.001344013466254318 0.0007065101466803281 0.0 0.0037213152718206244 0.0 0.0
-0.0008217973210431773 0.00042322921107396105 0.0 0.003048121646941404 0.0 0.0
-0.0005939627032686412 0.0003312165510536147 0.0 0.0026823714274879507 0.0 0.0
-0.0004824724451167606 0.00028067709711232514 0.0 0.0025327167466244194 0.0 0.0
-0.00038686143639615755 0.00018074649372523677 0.0 0.002528733324267618 0.0 0.0
-0.00020537407004456165 -9.642653394908995e-05 0.0 0.0024970613930691554 0.0 0.0
0.0003301014845337735 -0.0009663656063526056 0.0 0.0017578097597312214 0.0 0.0
0.00021306563985790117 -0.0007442674904160063 0.0 -0.0015642654704460801 0.0 0.0
-0.00027362332309327497 -5.909673675896787e-05 0.0 -0.002398337642597337 0.0 0.0
-0.0005262303227857312 0.0002397810410420531 0.0 -0.0024588322453927836 0.0 0.0
-0.0007066245323009979 0.0003789060608534456 0.0 -0.0024460321409837116 0.0 0.0
-0.0009324279390596213 0.0004901907473446876 0.0 -0.002549729930065303 0.0 0.0
-0.0013646827006272289 0.000712730851784249 0.0 -0.0029202636150323924 0.0 0.0
-0.002368445847837214 0.001379772327813722 0.0 -0.0038652538596286035 0.0 0.0
-0.004328309580299727 0.0029354968488677358 0.0 -0.005667234681133948 0.0 0.0
-0.007317088149722456 0.0055886430072815685 0.0 -0.00827949710139353 0.0 0.0
-0.01115655904703608 0.00918103753680466 0.0 -0.01141916446963498 0.0 0.0
-0.015598159627511293 0.013431757760443919 0.0 -0.014732195891510647 0.0 0.0
-0.020515025310900548 0.018180705898193317 0.0 -0.017957919017519752 0.0 0.0
-0.02588266921537072 0.02338814714684556 0.0 -0.02107138802020969 0.0 0.0
-0.031671032936805815 0.029010578281957855 0.0 -0.024179747041485955 0.0 0.0
-0.03770679633517826 0.034868374127102975 0.0 -0.027512670109906212 0.0 0.0
-0.04358414320988274 0.04056693783220311 0.0 -0.03136521784655932 0.0 0.0
-0.04866489449778394 0.04547988144388082 0.0 -0.03587867588371607 0.0 0.0
-0.051953857156758154 0.04855549412176874 0.0 -0.04021941572374421 0.0 0.0
-0.051532054761657314 0.047850752724601264 0.0 -0.04236448328062603 0.0 0.0
-0.0434075494305054 0.03899704520750724 0.0 -0.03829260281754865 0.0 0.0
-0.04340754943050376 0.03899704520751168 0.0 0.03829260281759883 0.0 0.0
-0.051532054761648016 0.047850752724591494 0.0 0.042364483280692644 0.0 0.0
-0.05195385715673642 0.04855549412174742 0.0 0.04021941572378529 0.0 0.0
-0.04866489449774872 0.04547988144385151 0.0 0.03587867588372173 0.0 0.0
-0.04358414320984405 0.04056693783216936 0.0 0.03136521784654123 0.0 0.0
-0.0377067963351414 0.034868374127068336 0.0 0.02751267010988534 0.0 0.0
-0.03167103293676915 0.02901057828192144 0.0 0.024179747041460864 0.0 0.0
-0.025882669215334442 0.02338814714681625 0.0 0.021071388020196258 0.0 0.0
-0.020515025310864687 0.018180705898159566 0.0 0.01795791901749466 0.0 0.0
-0.015598159627477598 0.01343175776041372 0.0 0.014732195891481004 0.0 0.0
-0.011156559047008796 0.00918103753677979 0.0 0.011419164469609222 0.0 0.0
-0.007317088149702777 0.005588643007262917 0.0 0.008279497101374989 0.0 0.0
-0.0043283095802880145 0.0029354968488575217 0.0 0.005667234681123068 0.0 0.0
-0.002368445847829803 0.0013797723278099472 0.0 0.003865253859618445 0.0 0.0
-0.0013646827006242035 0.0007127308517811404 0.0 0.0029202636150266192 0.0 0.0
-0.0009324279390584556 0.0004901907473437994 0.0 0.0025497299300627496 0.0 0.0
-0.0007066245323004428 0.0003789060608541117 0.0 0.0024460321409820462 0.0 0.0
-0.0005262303227850929 0.00023978104104160902 0.0 0.002458832245392617 0.0 0.0
-0.00027362332309316395 -5.909673675807969e-05 0.0 0.0023983376425966707 0.0 0.0
0.00021306563985745708 -0.0007442674904149498 0.0 0.0015642654704449699 0.0 0.0
0.00012113922937534438 -0.0005476317916881523 0.0 -0.0013590787636608148 0.0 0.0
-0.0003349888788679589 -1.625483312539533e-05 0.0 -0.002244131131573124 0.0 0.0
-0.000656694557973625 0.0002941005761758486 0.0 -0.0023354697948508307 0.0 0.0
-0.0009205080759922546 0.0004691398519398593 0.0 -0.002297956330903239 0.0 0.0
-0.001261824696598579 0.0006483508867454191 0.0 -0.0023602920465835564 0.0 0.0
-0.0019628934630328 0.0010764008921624324 0.0 -0.0027928350093878174 0.0 0.0
-0.003555268705507819 0.002278027270970373 0.0 -0.003991665096831465 0.0 0.0
-0.006442556662562604 0.004776772005505414 0.0 -0.006191686921956929 0.0 0.0
-0.0106623707585069 0.008692060838335625 0.0 -0.009289962219063308 0.0 0.0
-0.015981534753323368 0.013770772313871138 0.0 -0.01291186285516388 0.0 0.0
-0.0221185008159151 0.01970370790210829 0.0 -0.016612344564083337 0.0 0.0
-0.028937071889197225 0.02633036548364709 0.0 -0.02014014452522539 0.0 0.0
-0.03640689984980913 0.033615764867588105 0.0 -0.023509039063895676 0.0 0.0
-0.044510976622219284 0.04152921556591682 0.0 -0.0268768583100375 0.0 0.0
-0.053089143616208784 0.04990175333942126 0.0 -0.030595352612189042 0.0 0.0
-0.061692474364982375 0.05828091591041229 0.0 -0.03513442686541268 0.0 0.0
-0.06943007492174827 0.06576782316081875 0.0 -0.040560011725983225 0.0 0.0
-0.07473305234917405 0.07077532246541196 0.0 -0.04578013897852018 0.0 0.0
-0.07489793869051434 0.07049976330275243 0.0 -0.04800872484636365 0.0 0.0
-0.06495306724819194 0.05988776932667683 0.0 -0.04399762056686307 0.0 0.0
-0.06495306724818703 0.0598877693266715 0.0 0.04399762056692047 0.0 0.0
-0.07489793869049904 0.07049976330273733 0.0 0.04800872484644203 0.0 0.0
-0.07473305234914401 0.07077532246539242 0.0 0.045780138978574136 0.0 0.0
-0.06943007492170303 0.06576782316078766 0.0 0.040560011725997214 0.0 0.0
-0.061692474364931776 0.058280915910359 0.0 0.035134426865400026 0.0 0.0
-0.05308914361615974 0.04990175333936575 0.0 0.030595352612171833 0.0 0.0
-0.0445109766221683 0.041529215565868416 0.0 0.02687685831001496 0.0 0.0
-0.036406899849760005 0.03361576486754636 0.0 0.023509039063877024 0.0 0.0
-0.02893707188914907 0.02633036548359957 0.0 0.020140144525197856 0.0 0.0
-0.0221185008158708 0.019703707902068768 0.0 0.016612344564049808 0.0 0.0
-0.015981534753286078 0.013770772313837387 0.0 0.012911862855130907 0.0 0.0
-0.01066237075847977 0.008692060838311644 0.0 0.009289962219040493 0.0 0.0
-0.006442556662545215 0.0047767720054925356 0.0 0.006191686921941497 0.0 0.0
-0.003555268705496356 0.0022780272709619354 0.0 0.003991665096820141 0.0 0.0
-0.0019628934630284978 0.0010764008921586576 0.0 0.002792835009382433 0.0 0.0
-0.001261824696596664 0.0006483508867447529 0.0 0.0023602920465825017 0.0 0.0
-0.0009205080759914358 0.0004691398519394152 0.0 0.0022979563309020734 0.0 0.0
-0.0006566945579730421 0.0002941005761758486 0.0 0.002335469794850553 0.0 0.0
-0.0003349888788679173 -1.6254833124340617e-05 0.0 0.002244131131570015 0.0 0.0
0.00012113922937521948 -0.0005476317916867594 0.0 0.0013590787636583723 0.0 0.0
4.3041109454244886e-05 -0.0003745087513158385 0.0 -0.0011476166209237748 0.0 0.0
-0.0003928813456589575 3.184488029150945e-05 0.0 -0.0020343627656961294 0.0 0.0
-0.0007783407458487046 0.0003441825203082116 0.0 -0.0021544013489959157 0.0 0.0
-0.0011224933285847172 0.0005500965544666947 0.0 -0.0020842295229817065 0.0 0.0
-0.0015970513643988604 0.0008199537760815723 0.0 -0.0021270485636207814 0.0 0.0
-0.002648201280374407 0.001545119947066187 0.0 -0.0026398347573318715 0.0 0.0
-0.004897086547727747 0.003392867063255256 0.0 -0.004004089746017403 0.0 0.0
-0.008739455356110759 0.006878542173244462 0.0 -0.006425548427141492 0.0 0.0
-0.014171562577272923 0.012023840262210594 0.0 -0.00975762945295422 0.0 0.0
-0.020923198183220693 0.01853199685807727 0.0 -0.013528871194221415 0.0 0.0
-0.028732379572300293 0.026114505561018575 0.0 -0.017313335637156757 0.0 0.0
-0.03744495542965337 0.03460998141520255 0.0 -0.020926365266046965 0.0 0.0
-0.04701105944128203 0.043966968688761376 0.0 -0.024373717529421857 0.0 0.0
-0.05742177017905381 0.05416649961389286 0.0 -0.0277859632389168 0.0 0.0
-0.06855074767691158 0.0650618348077927 0.0 -0.031556205755024824 0.0 0.0
-0.07988355386872376 0.076119646524198 0.0 -0.036215757667264925 0.0 0.0
-0.09021546665158597 0.08612401249400836 0.0 -0.04188796478044021 0.0 0.0
-0.09735594015994947 0.0928604374636759 0.0 -0.04745343181583739 0.0 0.0
-0.09773705937340105 0.09273995932088397 0.0 -0.05039794889434379 0.0 0.0
-0.08600002201829751 0.08042030396629674 0.0 -0.04894828446462696 0.0 0.0
-0.08600002201828955 0.08042030396629496 0.0 0.04894828446468502 0.0 0.0
-0.0977370593733786 0.09273995932086088 0.0 0.050397948894419176 0.0 0.0
-0.09735594015991156 0.09286043746363681 0.0 0.04745343181589379 0.0 0.0
-0.09021546665153155 0.08612401249395862 0.0 0.041887964780450315 0.0 0.0
-0.07988355386866197 0.07611964652414027 0.0 0.03621575766725027 0.0 0.0
-0.06855074767685013 0.06506183480773498 0.0 0.03155620575500706 0.0 0.0
-0.057421770178990125 0.05416649961382891 0.0 0.027785963238895095 0.0 0.0
-0.04701105944122057 0.0439669686886921 0.0 0.024373717529402594 0.0 0.0
-0.037444955429592156 0.03460998141514393 0.0 0.020926365266022928 0.0 0.0
-0.028732379572246086 0.02611450556096928 0.0 0.017313335637125893 0.0 0.0
-0.020923198183174188 0.01853199685802842 0.0 0.013528871194188608 0.0 0.0
-0.014171562577238297 0.01202384026217107 0.0 0.009757629452933347 0.0 0.0
-0.008739455356087014 0.006878542173218705 0.0 0.006425548427125727 0.0 0.0
-0.004897086547711954 0.0033928670632430435 0.0 0.004004089746005968 0.0 0.0
-0.002648201280367926 0.0015451199470641885 0.0 0.0026398347573260983 0.0 0.0
-0.001597051364396293 0.00081995377608024 0.0 0.002127048563616618 0.0 0.0
-0.001122493328583496 0.0005500965544655845 0.0 0.0020842295229786534 0.0 0.0
-0.0007783407458485381 0.00034418252030832264 0.0 0.0021544013489964153 0.0 0.0
-0.0003928813456588187 3.1844880291398425e-05 0.0 0.0020343627656944085 0.0 0.0
4.3041109454133863e-05 -0.00037450875131514114 0.0 0.0011476166209224425 0.0 0.0
-2.3680345211551934e-05 -0.00022598875284568498 0.0 -0.0009302008801201911 0.0 0.0
-0.00044872357277159214 8.366810863758012e-05 0.0 -0.0017744549772440443 0.0 0.0
-0.0008922259744426619 0.00039034461340969884 0.0 -0.001916647968031704 0.0 0.0
-0.001314821498641483 0.0006271187145618917 0.0 -0.0018238796506914734 0.0 0.0
-0.0019601627972930524 0.0010274000085954693 0.0 -0.0018708174510209674 0.0 0.0
-0.0034320437679982163 0.002135495660638531 0.0 -0.0024305289940722563 0.0 0.0
-0.006381573703810095 0.004702420627937798 0.0 -0.003853292284588139 0.0 0.0
-0.011179553276738585 0.009171642708387662 0.0 -0.006318853142868952 0.0 0.0
-0.017772078063592933 0.015488135785429069 0.0 -0.009587389885915565 0.0 0.0
-0.025925530678246822 0.023383560314477858 0.0 -0.01321807380821538 0.0 0.0
-0.03539578897411638 0.03260296808355223 0.0 -0.01687681411218489 0.0 0.0
-0.0460026988750899 0.04296633707272912 0.0 -0.020368812143188086 0.0 0.0
-0.05766503342649465 0.054393523545221534 0.0 -0.023708372477407758 0.0 0.0
-0.070362888217536 0.06685849462337634 0.0 -0.02698704781863026 0.0 0.0
-0.0839853824682445 0.08022282635716493 0.0 -0.030441148309271582 0.0 0.0
-0.09797352124721906 0.09388808099838819 0.0 -0.03458758645716997 0.0 0.0
-0.11082359428216071 0.10633090219669938 0.0 -0.03983537201073584 0.0 0.0
-0.1197080024506329 0.11472486451878527 0.0 -0.04559347240040701 0.0 0.0
-0.12035513568505601 0.11483714809333101 0.0 -0.050343882948328256 0.0 0.0
-0.10715250184963512 0.10110060171339796 0.0 -0.05352730198132327 0.0 0.0
-0.10715250184962533 0.10110060171338464 0.0 0.053527301981380115 0.0 0.0
-0.1203551356850262 0.11483714809329637 0.0 0.050343882948398755 0.0 0.0
-0.11970800245058683 0.11472486451872577 0.0 0.045593472400460855 0.0 0.0
-0.11082359428209698 0.10633090219663455 0.0 0.03983537201074794 0.0 0.0
-0.09797352124714669 0.09388808099831802 0.0 0.03458758645716187 0.0 0.0
-0.08398538246816992 0.08022282635709299 0.0 0.03044114830925826 0.0 0.0
-0.0703628882174604 0.06685849462330085 0.0 0.026987047818611165 0.0 0.0
-0.05766503342642021 0.05439352354514515 0.0 0.023708372477387663 0.0 0.0
-0.046002698875017095 0.0429663370726594 0.0 0.02036881214316566 0.0 0.0
-0.0353957889740512 0.03260296808348562 0.0 0.01687681411215164 0.0 0.0
-0.025925530678191908 0.02338356031442501 0.0 0.013218073808184183 0.0 0.0
-0.017772078063550925 0.015488135785389101 0.0 0.009587389885896413 0.0 0.0
-0.011179553276708845 0.009171642708360128 0.0 0.006318853142853076 0.0 0.0
-0.00638157370379 0.004702420627918702 0.0 0.003853292284575538 0.0 0.0
-0.0034320437679891264 0.002135495660627873 0.0 0.0024305289940653174 0.0 0.0
-0.001960162797289694 0.0010274000085910284 0.0 0.0018708174510186915 0.0 0.0
-0.001314821498640234 0.0006271187145617807 0.0 0.001823879650689586 0.0 0.0
-0.000892225974442773 0.0003903446134119193 0.0 0.0019166479680287618 0.0 0.0
-0.0004487235727713007 8.366810863691398e-05 0.0 0.001774454977242601 0.0 0.0
-2.36803452120099e-05 -0.00022598875284610132 0.0 0.0009302008801209682 0.0 0.0
-7.791484861391362e-05 -0.00010443515058855546 0.0 -0.0007062746713841772 0.0 0.0
-0.0005012067562924494 0.00013656761458202826 0.0 -0.0014699006444347518 0.0 0.0
-0.0009998554451289832 0.0004331193785116483 0.0 -0.0016223231405964045 0.0 0.0
-0.0015049898034230624 0.0007056530226501323 0.0 -0.0015152073362059149 0.0 0.0
-0.002371281373497236 0.0012848365381876725 0.0 -0.0015702951134666798 0.0 0.0
-0.0043192755647882275 0.0028600715170838953 0.0 -0.0021430402104103408 0.0 0.0
-0.007994285201516182 0.006180551736492568 0.0 -0.0035330055048690134 0.0 0.0
-0.01369774489059189 0.01158114097136087 0.0 -0.005799822813884692 0.0 0.0
-0.02140950769612615 0.01901358222697125 0.0 -0.00872534446073503 0.0 0.0
-0.030949365644664162 0.028276817364109252 0.0 -0.012008964586023518 0.0 0.0
-0.042069915189943075 0.039123294675621256 0.0 -0.015317204066585766 0.0 0.0
-0.05457298977696917 0.051355652762989035 0.0 -0.018481700289440406 0.0 0.0
-0.06833868620907035 0.06485727711878297 0.0 -0.021534944892284025 0.0 0.0
-0.08329535906132352 0.07955268343403077 0.0 -0.024486355982617836 0.0 0.0
-0.09929775415636466 0.09527511273511902 0.0 -0.027357531195461138 0.0 0.0
-0.11577254813725457 0.11139618903521065 0.0 -0.030448952518553396 0.0 0.0
-0.13104688858149885 0.12619519975557747 0.0 -0.034538475128436885 0.0 0.0
-0.14178449308624258 0.1363692078871237 0.0 -0.040339576778452235 0.0 0.0
-0.1430822778359521 0.13708274915531504 0.0 -0.047960997901487556 0.0 0.0
-0.12887622511916083 0.12235466442139575 0.0 -0.05772425905434442 0.0 0.0
-0.1288762251191496 0.12235466442138065 0.0 0.05772425905439915 0.0 0.0
-0.14308227783591654 0.1370827491552804 0.0 0.04796099790155395 0.0 0.0
-0.14178449308618649 0.13636920788707574 0.0 0.040339576778497865 0.0 0.0
-0.13104688858142557 0.12619519975551086 0.0 0.03453847512845021 0.0 0.0
-0.11577254813717135 0.11139618903512893 0.0 0.030448952518543848 0.0 0.0
-0.09929775415627741 0.0952751127350302 0.0 0.027357531195450924 0.0 0.0
-0.0832953590612364 0.07955268343394284 0.0 0.02448635598260035 0.0 0.0
-0.06833868620898283 0.06485727711869638 0.0 0.021534944892267538 0.0 0.0
-0.054572989776885614 0.05135565276290599 0.0 0.018481700289422143 0.0 0.0
-0.04206991518986723 0.03912329467554665 0.0 0.015317204066556345 0.0 0.0
-0.030949365644600435 0.028276817364044415 0.0 0.012008964585992432 0.0 0.0
-0.021409507696077495 0.01901358222691707 0.0 0.008725344460717377 0.0 0.0
-0.013697744890555405 0.0115811409713249 0.0 0.005799822813868871 0.0 0.0
-0.007994285201492368 0.006180551736472584 0.0 0.0035330055048607423 0.0 0.0
-0.004319275564775932 0.00286007151707679 0.0 0.0021430402104052892 0.0 0.0
-0.0023712813734925037 0.0012848365381843418 0.0 0.0015702951134636822 0.0 0.0
-0.0015049898034216747 0.0007056530226494662 0.0 0.0015152073362040275 0.0 0.0
-0.000999855445128539 0.00043311937851109317 0.0 0.001622323140593629 0.0 0.0
-0.0005012067562918249 0.00013656761458286093 0.0 0.0014699006444325868 0.0 0.0
-7.791484861395526e-05 -0.0001044351505881079 0.0 0.0007062746713845658 0.0 0.0
-0.00011601832714869253 -1.3168636584404148e-05 0.0 -0.00047739025734405693 0.0 0.0
-0.000545827145322475 0.00018675472200280208 0.0 -0.00112378975233568 0.0 0.0
-0.0011027135971135582 0.00047232191769763787 0.0 -0.0012688852455748911 0.0 0.0
-0.0017047471723076746 0.0007970245133182008 0.0 -0.0011616497654401425 0.0 0.0
-0.002847238437070576 0.0016159427778994484 0.0 -0.0012222802649056175 0.0 0.0
-0.005315735350774953 0.003719174450409257 0.0 -0.001766217547815807 0.0 0.0
-0.009689011461413044 0.007769785418040964 0.0 -0.0029418172374384155 0.0 0.0
-0.01624359340792947 0.01404139283890693 0.0 -0.0047873214655326235 0.0 0.0
-0.025049682757916303 0.02255907390466616 0.0 -0.007196948661691849 0.0 0.0
-0.03595491578394194 0.033168981088249616 0.0 -0.009912807537090562 0.0 0.0
-0.04871621332955667 0.045632351152807615 0.0 -0.012653781065584568 0.0 0.0
-0.06311663535488882 0.05973549032295278 0.0 -0.015272327688613085 0.0 0.0
-0.07899326797213041 0.07531603940314735 0.0 -0.017814640473662102 0.0 0.0
-0.09618889614013515 0.09221493002706671 0.0 -0.020289756335115205 0.0 0.0
-0.1144385654755734 0.1101562883421936 0.0 -0.0224744520523823 0.0 0.0
-0.13311890560537837 0.12847354150243362 0.0 -0.024182871337180112 0.0 0.0
-0.1506390425799283 0.14550295121358392 0.0 -0.026325119712134692 0.0 0.0
-0.16355148729584118 0.15775992835599606 0.0 -0.031608795637102505 0.0 0.0
-0.1661992529255239 0.15974421454088095 0.0 -0.0427612556506507 0.0 0.0
-0.15167784722787164 0.14465026853380092 0.0 -0.06118747691778781 0.0 0.0
-0.15167784722785982 0.1446502685337867 0.0 0.06118747691782822 0.0 0.0
-0.16619925292548265 0.15974421454084187 0.0 0.042761255650708874 0.0 0.0
-0.1635514872957748 0.15775992835593122 0.0 0.03160879563714014 0.0 0.0
-0.15063904257984445 0.1455029512134942 0.0 0.02632511971214263 0.0 0.0
-0.13311890560528344 0.12847354150234214 0.0 0.024182871337173506 0.0 0.0
-0.11443856547547401 0.110156288342099 0.0 0.022474452052378358 0.0 0.0
-0.09618889614003706 0.09221493002696635 0.0 0.02028975633510166 0.0 0.0
-0.0789932679720304 0.0753160394030492 0.0 0.017814640473649 0.0 0.0
-0.0631166353547935 0.05973549032286041 0.0 0.015272327688595544 0.0 0.0
-0.04871621332947151 0.04563235115272635 0.0 0.012653781065561476 0.0 0.0
-0.03595491578386931 0.03316898108818167 0.0 0.009912807537065138 0.0 0.0
-0.025049682757861493 0.022559073904609317 0.0 0.0071969486616783596 0.0 0.0
-0.016243593407886718 0.014041392838862965 0.0 0.004787321465520411 0.0 0.0
-0.009689011461384657 0.007769785418014319 0.0 0.0029418172374290896 0.0 0.0
-0.005315735350759888 0.0037191744503968227 0.0 0.0017662175478093123 0.0 0.0
-0.002847238437064574 0.0016159427778956736 0.0 0.0012222802649017872 0.0 0.0
-0.0017047471723061342 0.000797024513319089 0.0 0.001161649765439754 0.0 0.0
-0.0011027135971128296 0.00047232191769763787 0.0 0.0012688852455740585 0.0 0.0
-0.000545827145321913 0.00018675472200280208 0.0 0.0011237897523351248 0.0 0.0
-0.00011601832714860233 -1.3168636584806603e-05 0.0 0.00047739025734355733 0.0 0.0
-0.00013119051780613455 4.341492330312002e-05 0.0 -0.00025025299778513865 0.0 0.0
-0.000573518616177271 0.00022794503769363317 0.0 -0.0007356105804756652 0.0 0.0
-0.0012035806134172988 0.0005103482001010962 0.0 -0.0008500029971115208 0.0 0.0
-0.0019326200422296602 0.0009150128664721091 0.0 -0.0007656059722435105 0.0 0.0
-0.0034029048512804194 0.002042491729551177 0.0 -0.0008292979865953121 0.0 0.0
-0.0064038374493624595 0.004695522566685595 0.0 -0.0012375873427740713 0.0 0.0
-0.011418705647412597 0.00942175920127708 0.0 -0.002055553578712066 0.0 0.0
-0.018790437744119426 0.016516567013381778 0.0 -0.003321997606026472 0.0 0.0
-0.02865507756227731 0.02608574952972109 0.0 -0.005007016256403318 0.0 0.0
-0.04090315990722376 0.03801910742332959 0.0 -0.006932801156545487 0.0 0.0
-0.05529603960640689 0.052089596219117684 0.0 -0.008878594543893836 0.0 0.0
-0.07159405713275396 0.06806291873106263 0.0 -0.01073757951785681 0.0 0.0
-0.0895847153792435 0.08572465832902898 0.0 -0.012569994300673848 0.0 0.0
-0.10900072082345141 0.10480395364431683 0.0 -0.014333410390200974 0.0 0.0
-0.12939865415579804 0.12485314452618912 0.0 -0.015742989976443078 0.0 0.0
-0.1499983168733781 0.145080465908066 0.0 -0.016323449634476628 0.0 0.0
-0.1693580215721972 0.16399208520872222 0.0 -0.01627613736763278 0.0 0.0
-0.18459199115033662 0.17859775748096496 0.0 -0.019073881312859364 0.0 0.0
-0.18996073262479535 0.1830291087454219 0.0 -0.033017098160568636 0.0 0.0
-0.1762984152793911 0.16867877988579494 0.0 -0.06307936544470372 0.0 0.0
-0.17629841527937745 0.16867877988578162 0.0 0.06307936544473236 0.0 0.0
-0.18996073262474825 0.1830291087453766 0.0 0.03301709816061782 0.0 0.0
-0.18459199115026062 0.17859775748089213 0.0 0.019073881312888674 0.0 0.0
-0.16935802157210122 0.16399208520863073 0.0 0.016276137367633337 0.0 0.0
-0.14999831687327136 0.1450804659079603 0.0 0.016323449634473852 0.0 0.0
-0.12939865415568616 0.1248531445260781 0.0 0.015742989976440303 0.0 0.0
-0.10900072082334114 0.10480395364420136 0.0 0.014333410390197643 0.0 0.0
-0.08958471537913154 0.08572465832892151 0.0 0.01256999430067024 0.0 0.0
-0.07159405713264709 0.06806291873095693 0.0 0.01073757951784915 0.0 0.0
-0.05529603960631211 0.05208959621902576 0.0 0.008878594543876073 0.0 0.0
-0.04090315990714335 0.03801910742325143 0.0 0.006932801156525836 0.0 0.0
-0.028655077562215206 0.026085749529659363 0.0 0.005007016256395491 0.0 0.0
-0.018790437744072512 0.016516567013336925 0.0 0.003321997606019589 0.0 0.0
-0.011418705647379714 0.009421759201248436 0.0 0.0020555535787051826 0.0 0.0
-0.006403837449344939 0.004695522566669608 0.0 0.0012375873427696304 0.0 0.0
-0.0034029048512726305 0.002042491729547402 0.0 0.000829297986592481 0.0 0.0
-0.0019326200422273426 0.000915012866471332 0.0 0.0007656059722425668 0.0 0.0
-0.0012035806134165494 0.000510348200100208 0.0 0.0008500029971114653 0.0 0.0
-0.0005735186161764383 0.00022794503769252294 0.0 0.0007356105804763868 0.0 0.0
-0.00013119051780591945 4.3414923303336864e-05 0.0 0.00025025299778552723 0.0 0.0
-0.00011131322072488459 5.906361514868008e-05 0.0 -4.170813865556067e-05 0.0 0.0
-0.0005679424310661152 0.00024981615817465386 0.0 -0.00029756094945104783 0.0 0.0
-0.0013104166781356397 0.0005536019465620656 0.0 -0.0003521343272395172 0.0 0.0
-0.0022130195730718505 0.0010890291755083492 0.0 -0.0003313844075853445 0.0 0.0
-0.004041875256581284 0.0025638591134022892 0.0 -0.0003630230991208405 0.0 0.0
-0.007548687782805208 0.005748291302548614 0.0 -0.0005282287999663904 0.0 0.0
-0.013164256784253703 0.011102894744494218 0.0 -0.0008671991825103254 0.0 0.0
-0.021305272229746652 0.018973536826491166 0.0 -0.0014065974995020047 0.0 0.0
-0.03218813321696695 0.029552994027677304 0.0 -0.0021644134638021395 0.0 0.0
-0.0457532757952096 0.04278524361956171 0.0 -0.00306447571448476 0.0 0.0
-0.06177190165488777 0.05845645657764331 0.0 -0.003989334460278715 0.0 0.0
-0.07996956467682714 0.07629986067096661 0.0 -0.004887705244415175 0.0 0.0
-0.1000581151898372 0.09602706940310313 0.0 -0.0057623205182432136 0.0 0.0
-0.12166608753668912 0.11725964521414456 0.0 -0.006552559288969029 0.0 0.0
-0.1441767692506694 0.13937646546399307 0.0 -0.007083757793042267 0.0 0.0
-0.16655994411619923 0.16135182423476735 0.0 -0.006985244035670579 0.0 0.0
-0.18727702493185527 0.1816539353762776 0.0 -0.005862480189710251 0.0 0.0
-0.20411217980948035 0.19801837007712564 0.0 -0.004989467159141059 0.0 0.0
-0.21317567515240815 0.2063375919096755 0.0 -0.014416679808685107 0.0 0.0
-0.20484473698870265 0.19609099653019335 0.0 -0.05811945732935753 0.0 0.0
-0.20484473698868694 0.1960909965301827 0.0 0.05811945732936774 0.0 0.0
-0.21317567515235528 0.20633759190964174 0.0 0.014416679808709199 0.0 0.0
-0.20411217980939303 0.19801837007704837 0.0 0.004989467159153049 0.0 0.0
-0.18727702493174617 0.1816539353761648 0.0 0.005862480189707919 0.0 0.0
-0.16655994411608 0.16135182423465366 0.0 0.0069852440356699685 0.0 0.0
-0.14417676925054596 0.1393764654638754 0.0 0.007083757793041934 0.0 0.0
-0.12166608753656555 0.11725964521402199 0.0 0.0065525592889653095 0.0 0.0
-0.10005811518971387 0.09602706940298411 0.0 0.0057623205182379955 0.0 0.0
-0.07996956467670921 0.07629986067084893 0.0 0.004887705244410845 0.0 0.0
-0.061771901654783086 0.058456456577537175 0.0 0.0039893344602707215 0.0 0.0
-0.04575327579512212 0.04278524361947378 0.0 0.003064475714473658 0.0 0.0
-0.032188133216897195 0.029552994027606694 0.0 0.0021644134637971435 0.0 0.0
-0.021305272229695492 0.01897353682644276 0.0 0.0014065974995004504 0.0 0.0
-0.013164256784216531 0.011102894744459135 0.0 0.0008671991825070502 0.0 0.0
-0.007548687782784483 0.005748291302528408 0.0 0.0005282287999647806 0.0 0.0
-0.004041875256571631 0.0025638591133929634 0.0 0.0003630230991201744 0.0 0.0
-0.0022130195730688876 0.0010890291755043524 0.0 0.0003313844075837902 0.0 0.0
-0.0013104166781342259 0.0005536019465608444 0.0 0.00035213432723762983 0.0 0.0
-0.0005679424310653346 0.00024981615817465386 0.0 0.00029756094945115885 0.0 0.0
-0.00011131322072445785 5.9063615148636714e-05 0.0 4.170813865778111e-05 0.0 0.0
SCALARS Statev float 8
LOOKUP_TABLE default
0.0 0.014471012933847257 0.011239805597307594 -0.011619870189752347 0.0003800645924447516 -0.006492564314242872 0.0 0.0
0.0 0.0009961161217375964 0.0007240804923893647 -0.0006272412788968021 -9.683921349256256e-05 0.0006308660706364417 0.0 0.0
0.0 3.87515288735028e-05 3.1888830363146693e-07 -8.972174651467826e-08 -2.291665571168178e-07 9.992216689366981e-08 0.0 0.0
0.0 0.00039632066656134575 0.00030746912481009894 -0.0002443849216378936 -6.308420317220545e-05 -4.41043091924383e-05 0.0 0.0
0.0 0.0019912504845270382 0.0016558179076994531 -0.0013947362596062646 -0.0002610816480931883 -0.00017815428588452344 0.0 0.0
0.0 0.005331310743273838 0.004797741907103931 -0.004297316162665158 -0.0005004257444387737 -0.0003933840380435007 0.0 0.0
0.0 0.01140369377633577 0.010102784072312736 -0.009451346811923032 -0.0006514372603897 -0.000724493824005776 0.0 0.0
0.0 0.02045855138738183 0.017966017532961644 -0.017206630373356225 -0.0007593871596054146 -0.0012391534536684505 0.0 0.0
0.0 0.032713523362066545 0.02858105908057107 -0.02771600897739596 -0.0008650501031750976 -0.0019703293948943636 0.0 0.0
0.0 0.048114743437947416 0.04189872610605798 -0.040920598645783235 -0.0009781274602747596 -0.0028572454274665418 0.0 0.0
0.0 0.06644487748551131 0.057709952760067025 -0.05661405549591628 -0.0010958972641507277 -0.003786003989605342 0.0 0.0
0.0 0.08711654598057905 0.0757540465416231 -0.07453824949246914 -0.001215797049153928 -0.004693465635344541 0.0 0.0
0.0 0.11012032509720879 0.09575566301284894 -0.094418534148278 -0.0013371288645708463 -0.0055811514711808586 0.0 0.0
0.0 0.13508596570160045 0.11739669297159261 -0.11593526598090903 -0.001461426990683501 -0.006433983791443652 0.0 0.0
0.0 0.16139903049186688 0.1402006154836121 -0.13861081272318376 -0.0015898027604281865 -0.00720070361740891 0.0 0.0
0.0 0.18821564554275982 0.16340739186654726 -0.16168657325571334 -0.0017208186108340286 -0.007723920837081548 0.0 0.0
0.0 0.21424373402851357 0.18592784338981616 -0.18407777773652262 -0.0018500656532935789 -0.007748790972059868 0.0 0.0
0.0 0.2378726885841535 0.20638315956167486 -0.20440967509804012 -0.001973484463634642 -0.007075190149474301 0.0 0.0
0.0 0.25721626157810407 0.2231315629982189 -0.22103916810315494 -0.0020923948950639284 -0.006165627064182498 0.0 0.0
0.0 0.2691420748303208 0.23358646023667 -0.23129913925622866 -0.0022873209804413533 -0.007619219274230683 0.0 0.0
0.0 0.26914207483030556 0.2335864602366565 -0.23129913925621534 -0.002287320980441125 0.007619219274241192 0.0 0.0
0.0 0.2572162615780496 0.22313156299817155 -0.22103916810310756 -0.0020923948950638434 0.006165627064207195 0.0 0.0
0.0 0.23787268858406255 0.20638315956159567 -0.20440967509796207 -0.001973484463633534 0.007075190149489778 0.0 0.0
0.0 0.21424373402839372 0.18592784338971224 -0.184077777736419 -0.0018500656532932109 0.00774879097206792 0.0 0.0
0.0 0.188215645542628 0.16340739186643305 -0.1616865732555997 -0.001720818610833431 0.007723920837071562 0.0 0.0
0.0 0.16139903049173546 0.1402006154834976 -0.1386108127230707 -0.0015898027604268506 0.00720070361740641 0.0 0.0
0.0 0.13508596570146583 0.11739669297147595 -0.11593526598079289 -0.0014614269906830348 0.006433983791444174 0.0 0.0
0.0 0.11012032509707743 0.09575566301273504 -0.09441853414816472 -0.001337128864570295 0.005581151471180446 0.0 0.0
0.0 0.08711654598045401 0.07575404654151462 -0.07453824949236144 -0.0012157970491531278 0.004693465635335948 0.0 0.0
0.0 0.0664448774853985 0.05770995275996889 -0.05661405549581887 -0.0010958972641500085 0.003786003989598408 0.0 0.0
0.0 0.04811474343785504 0.04189872610597802 -0.040920598645703916 -0.0009781274602741132 0.0028572454274540513 0.0 0.0
0.0 0.032713523361995796 0.028581059080509057 -0.02771600897733466 -0.0008650501031744083 0.001970329394891482 0.0 0.0
0.0 0.02045855138733141 0.017966017532916996 -0.017206630373312243 -0.0007593871596047502 0.001239153453664339 0.0 0.0
0.0 0.011403693776298891 0.010102784072280028 -0.00945134681189079 -0.0006514372603892324 0.0007244938240034527 0.0 0.0
0.0 0.005331310743254018 0.004797741907085909 -0.004297316162647924 -0.0005004257444379849 0.0003933840380416651 0.0 0.0
0.0 0.0019912504845167552 0.0016558179076907923 -0.0013947362595985414 -0.00026108164809225074 0.00017815428588361114 0.0 0.0
0.0 0.0003963206665587134 0.00030746912480864356 -0.00024438492163667827 -6.308420317196511e-05 4.410430919205233e-05 0.0 0.0
0.0 3.875152887319183e-05 3.188883039021029e-07 -8.972174672415961e-08 -2.2916655717789877e-07 -9.992216686691799e-08 0.0 0.0
0.0 0.0009961161217346048 0.0007240804923876797 -0.0006272412788952847 -9.683921349239561e-05 -0.0006308660706343127 0.0 0.0
0.0 0.014471012933828568 0.01123980559729533 -0.011619870189739053 0.00038006459244372233 0.006492564314211064 0.0 0.0
0.0 0.010873217677493661 0.007912637109148904 -0.008409510973242799 0.000496873864093893 -0.007590457409864972 0.0 0.0
0.0 2.2422190166242633e-05 1.761857701352763e-05 -1.589855676804705e-05 -1.7200202454805823e-06 1.1599931962176255e-05 0.0 0.0
0.0 8.582061253533215e-07 2.688651305317571e-07 -2.0348836552526194e-07 -6.537676500649748e-08 -9.431350719678449e-08 0.0 0.0
0.0 0.0001709903430007953 0.00012870563810992412 -0.00010141803256729872 -2.728760554262563e-05 -4.451744926535679e-05 0.0 0.0
0.0 0.0013663194969121988 0.0010989533280982011 -0.0009112495852217257 -0.00018770374287647578 -0.00029142138312302635 0.0 0.0
0.0 0.004158741054420277 0.0037455402040070833 -0.003305222047972063 -0.00044031815603501996 -0.0008122819838649469 0.0 0.0
0.0 0.00954505386978654 0.008447217119734335 -0.007828939612316888 -0.0006182775074174446 -0.0016481756927568712 0.0 0.0
0.0 0.017726030386100183 0.015534202118571944 -0.01479796680504853 -0.0007362353135234136 -0.002873832309419532 0.0 0.0
0.0 0.02882162315494776 0.025129076457971154 -0.024287666408142675 -0.000841410049828465 -0.0045156415660589 0.0 0.0
0.0 0.042714480799215186 0.037130518245601055 -0.03618139539233206 -0.0009491228532689825 -0.006429699690946655 0.0 0.0
0.0 0.05915030414247923 0.05131968546748235 -0.05026105782220108 -0.0010586276452812723 -0.008399535982220156 0.0 0.0
0.0 0.0779108317486017 0.06747130657617822 -0.06630245729074245 -0.0011688492854357267 -0.010297237990371556 0.0 0.0
0.0 0.09846408210531096 0.08537994116912807 -0.08409936651638437 -0.001280574652743702 -0.012168203425929431 0.0 0.0
0.0 0.1208061772133758 0.10478311782116606 -0.10338853574653299 -0.0013945820746330828 -0.014006649392766806 0.0 0.0
0.0 0.144461790976717 0.1252733615529503 -0.12376216543734832 -0.0015111961156019243 -0.015672346736323325 0.0 0.0
0.0 0.1686115145133322 0.14620919327646814 -0.14457945398481067 -0.001629739291657483 -0.016859155879471666 0.0 0.0
0.0 0.19217794140498407 0.1666496506885341 -0.16490087444109341 -0.0017487762474406613 -0.01709209299873385 0.0 0.0
0.0 0.2136983722243165 0.1853148625845559 -0.1834464009773869 -0.0018684616071689341 -0.016092115729063525 0.0 0.0
0.0 0.23108013135319766 0.20040459775056504 -0.19839997408549304 -0.0020046236650718627 -0.014263451254872116 0.0 0.0
0.0 0.24150722759999926 0.20948386056571516 -0.20737484871535627 -0.0021090118503588866 -0.011431574631463165 0.0 0.0
0.0 0.2415072275999806 0.20948386056569873 -0.20737484871533973 -0.0021090118503591096 0.011431574631490787 0.0 0.0
0.0 0.23108013135314076 0.20040459775051528 -0.19839997408544283 -0.0020046236650724026 0.014263451254917677 0.0 0.0
0.0 0.21369837222422966 0.18531486258448004 -0.18344640097731113 -0.0018684616071688474 0.016092115729096093 0.0 0.0
0.0 0.1921779414048771 0.16664965068844112 -0.16490087444100077 -0.0017487762474401609 0.017092092998748483 0.0 0.0
0.0 0.16861151451321485 0.14620919327636678 -0.1445794539847097 -0.001629739291656997 0.016859155879460568 0.0 0.0
0.0 0.1444617909765952 0.12527336155284496 -0.12376216543724329 -0.0015111961156016155 0.015672346736317053 0.0 0.0
0.0 0.1208061772132529 0.10478311782105947 -0.10338853574642695 -0.0013945820746324984 0.014006649392762915 0.0 0.0
0.0 0.09846408210518987 0.08537994116902325 -0.08409936651627985 -0.001280574652743408 0.012168203425922492 0.0 0.0
0.0 0.07791083174849078 0.06747130657608198 -0.06630245729064704 -0.0011688492854348997 0.010297237990357668 0.0 0.0
0.0 0.05915030414238149 0.051319685467397576 -0.05026105782211698 -0.001058627645280595 0.00839953598220796 0.0 0.0
0.0 0.0427144807991321 0.037130518245529 -0.03618139539226056 -0.0009491228532684176 0.0064296996909294565 0.0 0.0
0.0 0.028821623154882254 0.025129076457913742 -0.02428766640808555 -0.0008414100498281836 0.0045156415660510835 0.0 0.0
0.0 0.01772603038605295 0.01553420211853063 -0.014797966805007565 -0.0007362353135230693 0.002873832309411388 0.0 0.0
0.0 0.009545053869758319 0.008447217119709138 -0.007828939612292404 -0.000618277507416729 0.0016481756927520406 0.0 0.0
0.0 0.004158741054403431 0.003745540203992234 -0.0033052220479581687 -0.0004403181560340668 0.0008122819838616207 0.0 0.0
0.0 0.0013663194969041757 0.0010989533280919023 -0.0009112495852161876 -0.000187703742875715 0.000291421383121199 0.0 0.0
0.0 0.00017099034299965395 0.00012870563810952416 -0.00010141803256696441 -2.7287605542559636e-05 4.4517449265195705e-05 0.0 0.0
0.0 8.58206125218757e-07 2.688651306144857e-07 -2.0348836558570515e-07 -6.5376765028783e-08 9.43135072124956e-08 0.0 0.0
0.0 2.2422190166002072e-05 1.761857701365128e-05 -1.589855676812041e-05 -1.7200202455308744e-06 -1.1599931962114937e-05 0.0 0.0
0.0 0.010873217677471314 0.007912637109134295 -0.008409510973227563 0.0004968738640932611 0.007590457409837773 0.0 0.0
0.0 0.008321385967015017 0.005740855889817058 -0.006273246027240172 0.0005323901374231112 -0.006722844390149991 0.0 0.0
0.0 0.0 0.0 0.0 0.0 0.0 0.0 0.0
0.0 0.0 0.0 0.0 0.0 0.0 0.0 0.0
0.0 4.3003494705673244e-05 3.566388168857317e-05 -2.793857003264085e-05 -7.725311655932337e-06 -2.2778182463370562e-05 0.0 0.0
0.0 0.0008085876800990272 0.0006578764889228585 -0.0005372086423156336 -0.00012066784660722455 -0.00030829176298504855 0.0 0.0
0.0 0.003247532852522195 0.002750746492590349 -0.002386834696252937 -0.00036391179633741205 -0.0010282630781571142 0.0 0.0
0.0 0.007752112726205101 0.006823554657194363 -0.006248130452175327 -0.0005754242050190365 -0.00225593768315543 0.0 0.0
0.0 0.015018012293317284 0.013090525383818701 -0.012383868505391143 -0.0007066568784275531 -0.004060391202655995 0.0 0.0
0.0 0.024947240928341774 0.021623906713512553 -0.020810866188454815 -0.0008130405250577397 -0.006416753071823931 0.0 0.0
0.0 0.03733904264311844 0.032282286412502983 -0.03136698768640083 -0.0009152987261021381 -0.009120811682642428 0.0 0.0
0.0 0.05195187107363534 0.04484020255014802 -0.04382348745401149 -0.0010167150961365203 -0.01190001076701648 0.0 0.0
0.0 0.06846437387543479 0.05910007718378552 -0.05798218694571531 -0.0011178902380701993 -0.014590782142878471 0.0 0.0
0.0 0.08685875094379432 0.07489801449047279 -0.07367820277400534 -0.0012198117164674222 -0.017222588645536663 0.0 0.0
0.0 0.10657544056428132 0.0920410716205201 -0.09071801297336352 -0.001323058647156514 -0.01982283156437154 0.0 0.0
0.0 0.1275173959736971 0.11020815356172296 -0.10878061745370524 -0.001427536108017706 -0.02222051453014898 0.0 0.0
0.0 0.14906951108558608 0.12888287273749563 -0.12734912268981788 -0.001533750047677728 -0.023988834733192802 0.0 0.0
0.0 0.17022802274451446 0.14726931346258554 -0.14562607826374416 -0.0016432351988413575 -0.02456027656552252 0.0 0.0
0.0 0.18959679947662764 0.16416108086431236 -0.16240005515636885 -0.0017610257079435595 -0.023507714695363495 0.0 0.0
0.0 0.20520746609444826 0.17782874924364112 -0.1759525245431317 -0.0018762247005093013 -0.02034708664605216 0.0 0.0
0.0 0.21481912408179515 0.18633040913311605 -0.18437011978508122 -0.0019602893480347005 -0.014056110328647115 0.0 0.0
0.0 0.21481912408178447 0.1863304091331056 -0.18437011978507165 -0.0019602893480339173 0.014056110328691442 0.0 0.0
0.0 0.20520746609440985 0.1778287492436052 -0.1759525245430972 -0.0018762247005081332 0.020347086646117618 0.0 0.0
0.0 0.18959679947656327 0.16416108086425418 -0.16240005515631228 -0.0017610257079417285 0.023507714695409597 0.0 0.0
0.0 0.1702280227444224 0.14726931346250488 -0.14562607826366364 -0.001643235198841296 0.02456027656554249 0.0 0.0
0.0 0.1490695110854856 0.12888287273740837 -0.12734912268973192 -0.0015337500476763808 0.02398883473318139 0.0 0.0
0.0 0.12751739597359082 0.11020815356163033 -0.10878061745361395 -0.0014275361080164117 0.022220514530141757 0.0 0.0
0.0 0.10657544056417559 0.09204107162042788 -0.09071801297327246 -0.0013230586471554171 0.019822831564367253 0.0 0.0
0.0 0.08685875094368975 0.0748980144903821 -0.07367820277391518 -0.0012198117164668538 0.017222588645527503 0.0 0.0
0.0 0.06846437387533863 0.05910007718370236 -0.0579821869456333 -0.0011178902380690908 0.01459078214286021 0.0 0.0
0.0 0.051951871073547165 0.04484020255007142 -0.04382348745393577 -0.0010167150961356342 0.01190001076699786 0.0 0.0
0.0 0.03733904264304373 0.03228228641243843 -0.031366987686336764 -0.0009152987261016552 0.009120811682620217 0.0 0.0
0.0 0.024947240928282828 0.021623906713461295 -0.02081086618840407 -0.0008130405250572154 0.0064167530718106675 0.0 0.0
0.0 0.01501801229327494 0.013090525383781762 -0.0123838685053548 -0.0007066568784269532 0.004060391202644277 0.0 0.0
0.0 0.007752112726178035 0.006823554657170606 -0.006248130452152231 -0.0005754242050183714 0.0022559376831479297 0.0 0.0
0.0 0.003247532852508226 0.0027507464925786837 -0.002386834696242288 -0.0003639117963363956 0.0010282630781526909 0.0 0.0
0.0 0.0008085876800927662 0.0006578764889180073 -0.0005372086423114942 -0.000120667846606513 0.0003082917629826195 0.0 0.0
0.0 4.300349470479241e-05 3.5663881688330697e-05 -2.79385700324325e-05 -7.725311655898225e-06 2.2778182463134304e-05 0.0 0.0
0.0 0.0 0.0 0.0 0.0 0.0 0.0 0.0
0.0 0.0 0.0 0.0 0.0 0.0 0.0 0.0
0.0 0.008321385966994424 0.005740855889802943 -0.006273246027225421 0.0005323901374224727 0.006722844390127039 0.0 0.0
0.0 0.006299146518413669 0.00417481047442459 -0.0046842342270584135 0.0005094237526338239 -0.005364063160932762 0.0 0.0
0.0 0.0 0.0 0.0 0.0 0.0 0.0 0.0
0.0 0.0 0.0 0.0 0.0 0.0 0.0 0.0
0.0 7.996064008710766e-06 4.588022938423305e-06 -3.582554639805762e-06 -1.0054682986175287e-06 -4.708824182894413e-06 0.0 0.0
0.0 0.00042199198789238013 0.0003352255864092915 -0.00027061768395656425 -6.460790245272706e-05 -0.0002506639425628357 0.0 0.0
0.0 0.0022864500438546857 0.001883646870739207 -0.0016046412145293183 -0.0002790056562098886 -0.001066929985315094 0.0 0.0
0.0 0.006093352087534585 0.005254113346493623 -0.004739395480043484 -0.000514717866450141 -0.0025544626986099576 0.0 0.0
0.0 0.012366803812574647 0.010667740321235492 -0.009998346540701997 -0.0006693937805334953 -0.004791979365978846 0.0 0.0
0.0 0.021093680022115587 0.018105794893361102 -0.01732732057906906 -0.0007784743142920499 -0.007665333029772883 0.0 0.0
0.0 0.03196599751821043 0.027398304700054683 -0.026522189823051868 -0.0008761148770027784 -0.01093653813018921 0.0 0.0
0.0 0.044727529515682624 0.03831348513449727 -0.03734354676431385 -0.0009699383701834126 -0.014289977779538896 0.0 0.0
0.0 0.05915044619871996 0.05067366573409298 -0.04961137991140585 -0.0010622858226871249 -0.01755780938678843 0.0 0.0
0.0 0.07507252005595601 0.06435729372079721 -0.06320299339369023 -0.0011543003271069618 -0.020769465588118166 0.0 0.0
0.0 0.09237451279180495 0.07922592389868045 -0.07797900120094928 -0.001246922697731188 -0.023905008651004575 0.0 0.0
0.0 0.11074201117780574 0.09504877549241228 -0.09370952404652322 -0.0013392514458890402 -0.02680415173848333 0.0 0.0
0.0 0.12949678716728966 0.11144186856592816 -0.1100089573146095 -0.001432911251318594 -0.029075943188835184 0.0 0.0
0.0 0.14825488029267475 0.12775341075910626 -0.12622084343213114 -0.0015325673269750819 -0.030079807024345956 0.0 0.0
0.0 0.16558456992855874 0.14292618457910675 -0.14128739445719657 -0.0016387901219101742 -0.02904953115182419 0.0 0.0
0.0 0.17974768460776414 0.15546478621822185 -0.15372394165636313 -0.0017408445618586836 -0.024869357550594023 0.0 0.0
0.0 0.18889709363575266 0.16372989100989946 -0.16191340096412754 -0.0018164900457720223 -0.016159335146742553 0.0 0.0
0.0 0.18889709363573223 0.16372989100988153 -0.16191340096410772 -0.001816490045773892 0.016159335146797533 0.0 0.0
0.0 0.17974768460772247 0.15546478621818283 -0.15372394165632375 -0.001740844561858972 0.024869357550668277 0.0 0.0
0.0 0.16558456992849663 0.14292618457904943 -0.1412873944571405 -0.0016387901219088133 0.029049531151877972 0.0 0.0
0.0 0.14825488029259531 0.12775341075903593 -0.1262208434320608 -0.0015325673269750615 0.030079807024368792 0.0 0.0
0.0 0.1294967871672007 0.11144186856585121 -0.11000895731453297 -0.0014329112513182132 0.0290759431888246 0.0 0.0
0.0 0.1107420111777124 0.09504877549233152 -0.09370952404644306 -0.0013392514458884393 0.02680415173847227 0.0 0.0
0.0 0.09237451279171346 0.07922592389860082 -0.07797900120087045 -0.0012469226977303515 0.023905008650995443 0.0 0.0
0.0 0.0750725200558654 0.06435729372071847 -0.06320299339361223 -0.001154300327106247 0.0207694655881055 0.0 0.0
0.0 0.05915044619863591 0.05067366573402062 -0.04961137991133391 -0.001062285822686714 0.017557809386765454 0.0 0.0
0.0 0.04472752951560703 0.03831348513443212 -0.03734354676424937 -0.0009699383701827376 0.014289977779515402 0.0 0.0
0.0 0.03196599751814393 0.027398304699998183 -0.026522189822995867 -0.0008761148770022977 0.010936538130161471 0.0 0.0
0.0 0.02109368002206331 0.018105794893316048 -0.01732732057902456 -0.0007784743142914864 0.007665333029755758 0.0 0.0
0.0 0.01236680381253444 0.01066774032120106 -0.009998346540667983 -0.000669393780533073 0.004791979365963182 0.0 0.0
0.0 0.006093352087510379 0.005254113346472912 -0.0047393954800238145 -0.0005147178664490986 0.0025544626986007454 0.0 0.0
0.0 0.0022864500438433914 0.001883646870730537 -0.0016046412145215637 -0.0002790056562089732 0.0010669299853100565 0.0 0.0
0.0 0.00042199198788934566 0.00033522558640757146 -0.00027061768395512 -6.460790245245149e-05 0.00025066394256154453 0.0 0.0
0.0 7.996064008343916e-06 4.588022938616998e-06 -3.5825546399548735e-06 -1.005468298662115e-06 4.708824183082284e-06 0.0 0.0
0.0 0.0 0.0 0.0 0.0 0.0 0.0 0.0
0.0 0.0 0.0 0.0 0.0 0.0 0.0 0.0
0.0 0.006299146518396111 0.004174810474412896 -0.004684234227046073 0.0005094237526331757 0.005364063160915074 0.0 0.0
0.0 0.004629756872828984 0.0029623631035835324 -0.003413251059247471 0.00045088795566394 -0.004021411366271644 0.0 0.0
0.0 0.0 0.0 0.0 0.0 0.0 0.0 0.0
0.0 0.0 0.0 0.0 0.0 0.0 0.0 0.0
0.0 1.2016454180009058e-06 6.33329414224561e-07 -4.846939099751829e-07 -1.4863550424937765e-07 -9.310212916517934e-07 0.0 0.0
0.0 0.0001891298429095772 0.00013800954307637624 -0.0001107902341231439 -2.7219308953232357e-05 -0.0001588494324556271 0.0 0.0
0.0 0.0014677586772336591 0.0011675772171385755 -0.0009766066332837808 -0.00019097058385479486 -0.000972482056912032 0.0 0.0
0.0 0.004637272832966238 0.0037880435621435145 -0.003353582040723303 -0.00043446152142021107 -0.0025557300622642814 0.0 0.0
0.0 0.00984472750756059 0.00829493567709263 -0.007676296544130367 -0.0006186391329622623 -0.005027599939411887 0.0 0.0
0.0 0.017286077031224357 0.014614422783902785 -0.013878074975834181 -0.000736347808068612 -0.008255158815147266 0.0 0.0
0.0 0.026631118863891523 0.022521251337586357 -0.021690586850943223 -0.0008306644866431264 -0.011874849516782304 0.0 0.0
0.0 0.03754652545215471 0.031782518081144344 -0.030864921411245912 -0.0009175966698984589 -0.015580321099404392 0.0 0.0
0.0 0.04981116816452793 0.042236591237433216 -0.04123549576956742 -0.0010010954678657644 -0.019197419832824174 0.0 0.0
0.0 0.06340166276279424 0.0537987834699956 -0.0527154502854626 -0.001083333184532995 -0.022756648376096984 0.0 0.0
0.0 0.07801982539281119 0.06638941317139577 -0.06522428735285071 -0.0011651258185450663 -0.02624819490685167 0.0 0.0
0.0 0.09370082811517652 0.07985211415119113 -0.07860605639687257 -0.0012460577543185814 -0.029473136152569517 0.0 0.0
0.0 0.11009366133403466 0.0939140410645017 -0.09258656882210747 -0.0013274722423942036 -0.032071397847756436 0.0 0.0
0.0 0.1262603064259238 0.1081012570218777 -0.10668803996378817 -0.0014132170580894738 -0.03347274953911498 0.0 0.0
0.0 0.14154690739566442 0.12160074727848107 -0.12009483996086678 -0.0015059073176142352 -0.03267411887723788 0.0 0.0
0.0 0.1544820882982444 0.13319219060783433 -0.13159432544534044 -0.001597865162493853 -0.028050080413510887 0.0 0.0
0.0 0.1634171904779903 0.14143917191557695 -0.13976765870187324 -0.0016715132137036385 -0.01789863546363755 0.0 0.0
0.0 0.1634171904779761 0.14143917191556252 -0.13976765870185887 -0.0016715132137035246 0.017898635463698867 0.0 0.0
0.0 0.15448208829820945 0.13319219060779963 -0.13159432544530622 -0.001597865162493425 0.0280500804135876 0.0 0.0
0.0 0.1415469073956152 0.12160074727843431 -0.1200948399608203 -0.0015059073176140227 0.0326741188772952 0.0 0.0
0.0 0.12626030642586408 0.10810125702182319 -0.1066880399637345 -0.001413217058088675 0.03347274953914239 0.0 0.0
0.0 0.11009366133396185 0.09391404106443828 -0.09258656882204508 -0.001327472242393241 0.03207139784774632 0.0 0.0
0.0 0.09370082811509323 0.0798521141511194 -0.07860605639680049 -0.0012460577543189524 0.029473136152556183 0.0 0.0
0.0 0.07801982539273025 0.06638941317132574 -0.06522428735278105 -0.0011651258185447022 0.026248194906838797 0.0 0.0
0.0 0.06340166276271776 0.05379878346992914 -0.05271545028539621 -0.0010833331845328804 0.022756648376084727 0.0 0.0
0.0 0.04981116816445443 0.04223659123737025 -0.041235495769505026 -0.0010010954678652093 0.019197419832800156 0.0 0.0
0.0 0.03754652545208956 0.03178251808108882 -0.03086492141119112 -0.0009175966698976936 0.015580321099378425 0.0 0.0
0.0 0.026631118863836407 0.02252125133754042 -0.021690586850898218 -0.0008306644866422066 0.011874849516752533 0.0 0.0
0.0 0.017286077031181013 0.014614422783866097 -0.0138780749757979 -0.0007363478080681944 0.008255158815127953 0.0 0.0
0.0 0.009844727507528957 0.008294935677066332 -0.007676296544104722 -0.0006186391329616083 0.005027599939396037 0.0 0.0
0.0 0.004637272832946464 0.003788043562127518 -0.003353582040708198 -0.0004344615214193206 0.0025557300622543865 0.0 0.0
0.0 0.0014677586772251464 0.001167577217132278 -0.000976606633278344 -0.00019097058385393324 0.0009724820569068716 0.0 0.0
0.0 0.0001891298429075055 0.00013800954307536975 -0.00011079023412233509 -2.7219308953034574e-05 0.00015884943245453764 0.0 0.0
0.0 1.20164541779458e-06 6.333294143203787e-07 -4.84693910048571e-07 -1.4863550427180534e-07 9.310212917964175e-07 0.0 0.0
0.0 0.0 0.0 0.0 0.0 0.0 0.0 0.0
0.0 0.0 0.0 0.0 0.0 0.0 0.0 0.0
0.0 0.004629756872814195 0.0029623631035739085 -0.0034132510592371707 0.00045088795566326117 0.004021411366257598 0.0 0.0
0.0 0.003230566836127995 0.0020067849482852318 -0.0023763023368610623 0.00036951738857583 -0.0028580525162377065 0.0 0.0
0.0 0.0 0.0 0.0 0.0 0.0 0.0 0.0
0.0 0.0 0.0 0.0 0.0 0.0 0.0 0.0
0.0 1.2459832782016668e-06 -8.711175530045244e-08 6.722946238267231e-08 1.9882292917777628e-08 2.0432140011233723e-07 0.0 0.0
0.0 8.371916075939769e-05 4.897508898128765e-05 -3.921388426379666e-05 -9.76120471749098e-06 -8.46731991463706e-05 0.0 0.0
0.0 0.0008335957798875604 0.000629654622909485 -0.0005185194809850409 -0.00011113514192444388 -0.0007754385247436581 0.0 0.0
0.0 0.0031715476299465687 0.0025015523937356884 -0.002167109467655911 -0.0003344429260797774 -0.00235663234068763 0.0 0.0
0.0 0.0074478179679492145 0.006032646298292145 -0.0054877273407059396 -0.0005449189575862029 -0.004837799403363121 0.0 0.0
0.0 0.013600778800554846 0.011188376579563345 -0.010506172803097149 -0.0006822037764661961 -0.008157321572201079 0.0 0.0
0.0 0.02135673220861385 0.0176955702043038 -0.01691838598690234 -0.0007771842174014608 -0.011925552781533335 0.0 0.0
0.0 0.030393434252594345 0.025293290147054084 -0.024435408532102017 -0.0008578816149520665 -0.015755964891277764 0.0 0.0
0.0 0.04052437708002131 0.03383651718798348 -0.032903309552804356 -0.0009332076351791314 -0.019499867802466705 0.0 0.0
0.0 0.05167348892711007 0.043274290439959257 -0.04226872388834098 -0.001005566551618258 -0.023190949276240543 0.0 0.0
0.0 0.06380581458462284 0.053578089339685456 -0.05250158012320082 -0.0010765092164846508 -0.02680502800915801 0.0 0.0
0.0 0.07683854543776916 0.06466541430536024 -0.06351846686249797 -0.0011469474428622878 -0.030169883028535127 0.0 0.0
0.0 0.09028158813980969 0.07635489813330679 -0.07513897095538664 -0.0012159271779201143 -0.032958575578885436 0.0 0.0
0.0 0.10418079470155278 0.08834311360988291 -0.08705739808340857 -0.0012857155264743192 -0.03464905351997222 0.0 0.0
0.0 0.11757969828751313 0.10013687830581641 -0.09877483532166026 -0.0013620429841561582 -0.03426233870146419 0.0 0.0
0.0 0.1292302928273013 0.11086101971501858 -0.10941643864537794 -0.001444581069640549 -0.02987725336773574 0.0 0.0
0.0 0.13812128375405835 0.11924459746290245 -0.11772390274353939 -0.0015206947193629695 -0.019313441489844645 0.0 0.0
0.0 0.1381212837540494 0.11924459746289223 -0.11772390274352881 -0.0015206947193633896 0.019313441489907685 0.0 0.0
0.0 0.12923029282727821 0.11086101971499326 -0.10941643864535251 -0.001444581069640747 0.029877253367815028 0.0 0.0
0.0 0.11757969828747407 0.1001368783057767 -0.09877483532162176 -0.001362042984154961 0.0342623387015232 0.0 0.0
0.0 0.10418079470150174 0.08834311360983527 -0.08705739808336213 -0.0012857155264730871 0.03464905351999678 0.0 0.0
0.0 0.0902815881397444 0.07635489813325042 -0.0751389709553306 -0.0012159271779197966 0.03295857557887498 0.0 0.0
0.0 0.07683854543770133 0.06466541430530157 -0.06351846686244006 -0.0011469474428614911 0.03016988302852007 0.0 0.0
0.0 0.06380581458456018 0.05357808933963083 -0.052501580123146985 -0.0010765092164838554 0.02680502800914545 0.0 0.0
0.0 0.05167348892705032 0.04327429043990718 -0.04226872388829002 -0.0010055665516171869 0.02319094927622796 0.0 0.0
0.0 0.04052437707996232 0.033836517187933464 -0.0329033095527552 -0.0009332076351782557 0.019499867802443678 0.0 0.0
0.0 0.03039343425253861 0.02529329014700771 -0.024435408532055905 -0.0008578816149518146 0.01575596489125053 0.0 0.0
0.0 0.021356732208563222 0.017695570204262667 -0.01691838598686152 -0.0007771842174011399 0.011925552781500945 0.0 0.0
0.0 0.013600778800517464 0.011188376579532257 -0.01050617280306679 -0.0006822037764654617 0.008157321572180295 0.0 0.0
0.0 0.00744781796792346 0.006032646298271224 -0.005487727340685901 -0.000544918957585324 0.0048377994033479785 0.0 0.0
0.0 0.0031715476299312728 0.0025015523937238202 -0.0021671094676449965 -0.0003344429260788237 0.002356632340677627 0.0 0.0
0.0 0.0008335957798812138 0.0006296546229052819 -0.0005185194809814792 -0.00011113514192380262 0.0007754385247387395 0.0 0.0
0.0 8.371916075809254e-05 4.8975088981052464e-05 -3.921388426358231e-05 -9.761204717470166e-06 8.46731991458195e-05 0.0 0.0
0.0 1.245983277765114e-06 -8.711175526903953e-08 6.722946235833695e-08 1.9882292910690027e-08 -2.0432140003799813e-07 0.0 0.0
0.0 0.0 0.0 0.0 0.0 0.0 0.0 0.0
0.0 0.0 0.0 0.0 0.0 0.0 0.0 0.0
0.0 0.003230566836116418 0.0020067849482779667 -0.002376302336853019 0.000369517388575052 0.002858052516227257 0.0 0.0
0.0 0.0021192852141210046 0.0012589849531089723 -0.0015332419641081421 0.00027425701099916986 -0.0018944425897394904 0.0 0.0
0.0 6.808126749334917e-07 -1.0371231226033877e-08 1.1382208934150606e-08 -1.010977708115995e-09 1.3495275768488005e-07 0.0 0.0
0.0 3.7869285625906513e-07 -1.0853022555903305e-08 7.76318668522007e-09 3.0898358706842675e-09 7.416418593090768e-08 0.0 0.0
0.0 1.343535810957597e-06 -6.745450613659108e-08 5.1836617700734505e-08 1.5617888435866596e-08 2.5068220686766373e-07 0.0 0.0
0.0 4.4837759011732545e-05 2.1976808871189603e-05 -1.7482059239599205e-05 -4.494749631590412e-06 -5.661720315773128e-05 0.0 0.0
0.0 0.0004549987253949418 0.000277065202981901 -0.00022554258192583574 -5.15226210560654e-05 -0.000513941249075864 0.0 0.0
0.0 0.0019745490211489497 0.0014306390852141635 -0.0012105562316712653 -0.0002200828535428987 -0.0019373652644870095 0.0 0.0
0.0 0.005171813221516575 0.003963341759633042 -0.003522323088174727 -0.0004410186714583125 -0.004285330319318094 0.0 0.0
0.0 0.010027768139389505 0.007895897239921701 -0.0072908526816710985 -0.0006050445582505981 -0.007418416281850282 0.0 0.0
0.0 0.016174618896192216 0.012969975141130578 -0.01225954004795413 -0.000710435093176445 -0.011056374581821649 0.0 0.0
0.0 0.023320927204891366 0.018894583659352412 -0.018107029578304235 -0.000787554081048175 -0.014804530469815107 0.0 0.0
0.0 0.031291742971841126 0.02552709445499561 -0.024671237281302154 -0.0008558571736934612 -0.018452712893342292 0.0 0.0
0.0 0.04006192799932918 0.03283942544241188 -0.03192077424562092 -0.0009186511967909611 -0.022038052526485087 0.0 0.0
0.0 0.04957429317434336 0.040850504171385325 -0.03987193274262608 -0.0009785714287592366 -0.025570340406064408 0.0 0.0
0.0 0.05986198619792399 0.04954558174682483 -0.048507793102874903 -0.0010377886439499155 -0.02888249060365012 0.0 0.0
0.0 0.07072614645674806 0.05882543933941251 -0.05772859457601806 -0.0010968447633944954 -0.031649342175941904 0.0 0.0
0.0 0.08188428122673476 0.06852977212709303 -0.06737949473594834 -0.0011502773911446558 -0.03350071695252593 0.0 0.0
0.0 0.09316633144964646 0.07849799484085229 -0.07729232999064561 -0.0012056648502066854 -0.033692265099655824 0.0 0.0
0.0 0.10396965662465618 0.08830718473962987 -0.08703115043175125 -0.0012760343078785897 -0.03023624084322148 0.0 0.0
0.0 0.11300507264387126 0.09692340184386275 -0.09556493461999653 -0.0013584672238661994 -0.02037468193848643 0.0 0.0
0.0 0.11300507264386678 0.09692340184385542 -0.09556493461998997 -0.0013584672238654114 0.020374681938547023 0.0 0.0
0.0 0.10396965662464064 0.08830718473960938 -0.08703115043173182 -0.0012760343078776696 0.03023624084329848 0.0 0.0
0.0 0.09316633144961764 0.07849799484082089 -0.07729232999061403 -0.0012056648502067697 0.03369226509971544 0.0 0.0
0.0 0.08188428122668975 0.06852977212705068 -0.06737949473590561 -0.0011502773911450897 0.03350071695254864 0.0 0.0
0.0 0.07072614645669334 0.05882543933936581 -0.057728594575971126 -0.001096844763394686 0.031649342175929136 0.0 0.0
0.0 0.05986198619786937 0.04954558174677839 -0.048507793102828586 -0.0010377886439497945 0.028882490603633224 0.0 0.0
0.0 0.04957429317429499 0.040850504171343595 -0.03987193274258494 -0.0009785714287586442 0.025570340406052054 0.0 0.0
0.0 0.04006192799928282 0.032839425442372006 -0.03192077424558129 -0.0009186511967906897 0.022038052526472496 0.0 0.0
0.0 0.031291742971793435 0.02552709445495597 -0.024671237281262963 -0.0008558571736930171 0.018452712893319068 0.0 0.0
0.0 0.023320927204851197 0.0188945836593197 -0.018107029578272156 -0.0007875540810475282 0.014804530469790965 0.0 0.0
0.0 0.016174618896154395 0.012969975141101342 -0.012259540047925363 -0.0007104350931759737 0.011056374581791796 0.0 0.0
0.0 0.01002776813935847 0.007895897239897275 -0.0072908526816471055 -0.0006050445582501714 0.007418416281830303 0.0 0.0
0.0 0.005171813221495366 0.003963341759616851 -0.003522323088159379 -0.00044101867145747 0.004285330319302566 0.0 0.0
0.0 0.00197454902113844 0.001430639085206542 -0.001210556231664507 -0.00022008285354203392 0.0019373652644783883 0.0 0.0
0.0 0.0004549987253916151 0.0002770652029803937 -0.0002255425819245796 -5.1522621055813804e-05 0.0005139412490728716 0.0 0.0
0.0 4.483775901067927e-05 2.197680887126683e-05 -1.7482059239656894e-05 -4.494749631609942e-06 5.661720315791817e-05 0.0 0.0
0.0 1.343535810551308e-06 -6.74545061154224e-08 5.1836617684484416e-08 1.561788843093987e-08 -2.5068220678900275e-07 0.0 0.0
0.0 3.786928558295237e-07 -1.0853022544114866e-08 7.763186676628835e-09 3.0898358674860974e-09 -7.416418584570931e-08 0.0 0.0
0.0 6.808126741997652e-07 -1.0371231215047161e-08 1.1382208922371451e-08 -1.0109777073237724e-09 -1.34952757536912e-07 0.0 0.0
0.0 0.002119285214111958 0.0012589849531037193 -0.001533241964102141 0.00027425701099842133 0.0018944425897317175 0.0 0.0
0.0 0.0012502817666812766 0.0006976284573005948 -0.0008764780844072877 0.0001788496271066926 -0.001122565765689398 0.0 0.0
0.0 1.5995860498868763e-06 5.739161809108208e-08 -5.674630227332409e-08 -6.453158177593158e-10 -1.328937293535666e-06 0.0 0.0
0.0 6.629091846606708e-07 -2.5367360842260934e-09 2.053712428544006e-09 4.83023655682617e-10 7.320728254694944e-08 0.0 0.0
0.0 1.8241967262627742e-06 2.0736719547713498e-07 -1.6275057877731674e-07 -4.461661669981607e-08 -1.4221361093830382e-06 0.0 0.0
0.0 3.580489955279346e-05 1.2513900196880092e-05 -9.903967473822511e-06 -2.609932723057595e-06 -5.057861285625452e-05 0.0 0.0
0.0 0.0002435191573871806 0.00010925184637212679 -8.821118915237707e-05 -2.10406572197497e-05 -0.0003274978427910596 0.0 0.0
0.0 0.0010932823349978343 0.0006471125056073045 -0.000535420024581314 -0.00011169248102599036 -0.001369210257325691 0.0 0.0
0.0 0.003165906600481082 0.002169479870264327 -0.0018700375972446111 -0.0002994422730197155 -0.003385733949630481 0.0 0.0
0.0 0.00664500776689389 0.004833651835200749 -0.00434705964307228 -0.00048659219212846477 -0.006120610072431761 0.0 0.0
0.0 0.011080384190403789 0.008424827234026775 -0.007810152806896442 -0.0006146744271303327 -0.00931677833436774 0.0 0.0
0.0 0.01641211460163546 0.012651806833355343 -0.011954145541725754 -0.0006976612916295869 -0.012683161560947188 0.0 0.0
0.0 0.022187083734587068 0.017373344311010494 -0.016611561991123312 -0.0007617823198871848 -0.016007274474583496 0.0 0.0
0.0 0.028529938788888848 0.022565275631698387 -0.021748656236959877 -0.0008166193947385119 -0.019277204867813577 0.0 0.0
0.0 0.035482466542294304 0.028276219450784245 -0.02741042246288631 -0.0008657969878979357 -0.02249398801788912 0.0 0.0
0.0 0.04310158969592048 0.03455881301472193 -0.0336456855882469 -0.0009131274264750164 -0.02556062930047699 0.0 0.0
0.0 0.051205666154374906 0.04140553608266259 -0.04044369824087912 -0.0009618378417834618 -0.028169221702814086 0.0 0.0
0.0 0.05978710722117995 0.04875253627433148 -0.04774657519748739 -0.0010059610768440724 -0.02993960182491388 0.0 0.0
0.0 0.06873228632696213 0.05668423937274372 -0.055647930665053344 -0.001036308707690356 -0.030631677119967626 0.0 0.0
0.0 0.0781408112002682 0.06536300776096665 -0.06427986838383358 -0.0010831393771330395 -0.028785238590776106 0.0 0.0
0.0 0.08726500455901513 0.07422384871489993 -0.07305020451669339 -0.001173644198206603 -0.020970239392570127 0.0 0.0
0.0 0.08726500455901445 0.07422384871489593 -0.07305020451668905 -0.0011736441982069308 0.0209702393926225 0.0 0.0
0.0 0.07814081120025801 0.06536300776095033 -0.06427986838381713 -0.0010831393771331833 0.028785238590848177 0.0 0.0
0.0 0.06873228632694184 0.05668423937271891 -0.05564793066502889 -0.0010363087076900152 0.03063167712002129 0.0 0.0
0.0 0.05978710722114756 0.04875253627430019 -0.0477465751974568 -0.001005961076843436 0.029939601824929916 0.0 0.0
0.0 0.05120566615434309 0.04140553608263549 -0.04044369824085379 -0.0009618378417816753 0.028169221702801884 0.0 0.0
0.0 0.043101589695882986 0.03455881301469083 -0.03364568558821656 -0.0009131274264742958 0.025560629300460533 0.0 0.0
0.0 0.03548246654225981 0.028276219450755317 -0.02741042246285752 -0.000865796987897811 0.022493988017877525 0.0 0.0
0.0 0.028529938788859427 0.022565275631673168 -0.02174865623693468 -0.0008166193947385016 0.019277204867805618 0.0 0.0
0.0 0.022187083734553376 0.01737334431098324 -0.016611561991096455 -0.0007617823198867741 0.016007274474564594 0.0 0.0
0.0 0.016412114601603613 0.012651806833330392 -0.01195414554170153 -0.0006976612916288514 0.012683161560924541 0.0 0.0
0.0 0.011080384190377768 0.008424827234008071 -0.007810152806878348 -0.0006146744271297193 0.009316778334343736 0.0 0.0
0.0 0.006645007766875042 0.004833651835186749 -0.004347059643058992 -0.0004865921921277568 0.006120610072416644 0.0 0.0
0.0 0.003165906600468419 0.0021694798702550423 -0.0018700375972363135 -0.0002994422730187291 0.0033857339496193685 0.0 0.0
0.0 0.0010932823349900605 0.0006471125056026244 -0.0005354200245773404 -0.00011169248102528376 0.0013692102573175649 0.0 0.0
0.0 0.00024351915738428322 0.00010925184637119206 -8.821118915159571e-05 -2.1040657219596323e-05 0.00032749784278823704 0.0 0.0
0.0 3.580489955195845e-05 1.2513900196860329e-05 -9.903967473802545e-06 -2.6099327230577715e-06 5.0578612856187764e-05 0.0 0.0
0.0 1.8241967261528226e-06 2.0736719560333344e-07 -1.627505788731196e-07 -4.461661673021678e-08 1.4221361101904446e-06 0.0 0.0
0.0 6.629091844000596e-07 -2.5367360297788805e-09 2.0537123922938165e-09 4.830236374860214e-10 -7.320728185907422e-08 0.0 0.0
0.0 1.5995860493742916e-06 5.739161813365824e-08 -5.674630232277872e-08 -6.453158108795525e-10 1.3289372945743498e-06 0.0 0.0
0.0 0.0012502817666742328 0.0006976284572970009 -0.0008764780844030622 0.00017884962710606163 0.0011225657656835511 0.0 0.0
0.0 0.000579715392825184 0.00031757004497442244 -0.00041494985633928015 9.737981136485787e-05 -0.0005535330481472935 0.0 0.0
0.0 3.127572216149885e-06 2.852195409514505e-08 -3.960344671206582e-08 1.1081492616920959e-08 -1.3891111365919872e-06 0.0 0.0
0.0 1.8140528713669156e-06 2.164100973007501e-08 -9.207600362883543e-09 -1.2433409367191804e-08 -1.5663709835511735e-06 0.0 0.0
0.0 4.672989207472911e-06 3.7311418758108284e-07 -2.6311543823211753e-07 -1.099987493489621e-07 -5.34527622268551e-06 0.0 0.0
0.0 3.846346427761931e-05 7.56957637630888e-06 -5.907731850103458e-06 -1.661844526205423e-06 -5.793169909152505e-05 0.0 0.0
0.0 0.00017316136244266718 4.5464764182895305e-05 -3.659937707164233e-05 -8.865387111252986e-06 -0.000252463340462184 0.0 0.0
0.0 0.0005705843129350461 0.00021120361098862924 -0.00017177848183178287 -3.9425129156846205e-05 -0.0008444867417212108 0.0 0.0
0.0 0.0015843014320200187 0.0008049497657254295 -0.0006694368050828778 -0.00013551296064255155 -0.0022156103756785454 0.0 0.0
0.0 0.0035770736823870137 0.0021539574186050995 -0.0018566096185432058 -0.00029734780006189336 -0.004307049195393833 0.0 0.0
0.0 0.006347916286271207 0.00419618669418511 -0.003747970256048863 -0.00044821643813624775 -0.006791012312121647 0.0 0.0
0.0 0.009636189878159552 0.006692720482506105 -0.006138295587577767 -0.0005544248949283343 -0.009469838896133757 0.0 0.0
0.0 0.013365276811519852 0.009484794708333417 -0.008859616722414684 -0.0006251779859187244 -0.012198987285390726 0.0 0.0
0.0 0.017391887789952928 0.012560496223803272 -0.011881704902618986 -0.000678791321184288 -0.014952802524408282 0.0 0.0
0.0 0.02181365181219198 0.01597390098467839 -0.015253049862642401 -0.0007208511220359776 -0.017675606773258534 0.0 0.0
0.0 0.02669786426896202 0.019817290145482568 -0.019060795230660756 -0.0007564949148218093 -0.020318617782178125 0.0 0.0
0.0 0.03208796542295485 0.024191673611913676 -0.023399659186161242 -0.0007920144257524366 -0.022697190977550803 0.0 0.0
0.0 0.03799386065416945 0.029155797257590647 -0.028323920401683536 -0.0008318768559071378 -0.024378732719561806 0.0 0.0
0.0 0.044530859041245395 0.034861378564329575 -0.03400597404209235 -0.0008554045222372315 -0.02517196662932564 0.0 0.0
0.0 0.05236498250121915 0.04191994865171275 -0.0410667529733237 -0.0008531956783890512 -0.02498005400426815 0.0 0.0
0.0 0.061450779136992054 0.05080939246202465 -0.04986754306503328 -0.0009418493969913753 -0.020762993499915325 0.0 0.0
0.0 0.06145077913699236 0.05080939246202086 -0.049867543065029135 -0.0009418493969917421 0.02076299349995916 0.0 0.0
0.0 0.052364982501213866 0.0419199486517005 -0.04106675297331076 -0.000853195678389706 0.024980054004331113 0.0 0.0
0.0 0.04453085904123184 0.03486137856431082 -0.03400597404207338 -0.0008554045222374304 0.025171966629370435 0.0 0.0
0.0 0.037993860654145575 0.029155797257568446 -0.028323920401660728 -0.000831876855907719 0.024378732719569432 0.0 0.0
0.0 0.03208796542293016 0.024191673611895368 -0.023399659186142473 -0.0007920144257528873 0.02269719097753488 0.0 0.0
0.0 0.026697864268941073 0.019817290145466588 -0.019060795230644884 -0.0007564949148216944 0.02031861778216629 0.0 0.0
0.0 0.021813651812170105 0.0159739009846612 -0.015253049862625184 -0.0007208511220360133 0.01767560677324816 0.0 0.0
0.0 0.017391887789937163 0.012560496223790324 -0.011881704902606361 -0.0006787913211839708 0.01495280252440244 0.0 0.0
0.0 0.013365276811500518 0.009484794708319628 -0.008859616722401258 -0.0006251779859183686 0.012198987285375293 0.0 0.0
0.0 0.009636189878140834 0.006692720482493666 -0.006138295587565514 -0.0005544248949281536 0.009469838896115648 0.0 0.0
0.0 0.006347916286251849 0.004196186694172939 -0.0037479702560372827 -0.0004482164381356539 0.006791012312100952 0.0 0.0
0.0 0.003577073682377539 0.0021539574185990397 -0.0018566096185376373 -0.0002973478000614017 0.0043070491953838014 0.0 0.0
0.0 0.0015843014320140773 0.0008049497657219486 -0.0006694368050799857 -0.00013551296064196302 0.002215610375671977 0.0 0.0
0.0 0.0005705843129313212 0.00021120361098735617 -0.00017177848183070604 -3.942512915665009e-05 0.0008444867417165989 0.0 0.0
0.0 0.00017316136244121616 4.546476418288017e-05 -3.6599377071624806e-05 -8.865387111255348e-06 0.00025246334046171164 0.0 0.0
0.0 3.846346427685224e-05 7.569576376306178e-06 -5.907731850100176e-06 -1.6618445262060046e-06 5.793169909149335e-05 0.0 0.0
0.0 4.672989207263608e-06 3.7311418762009824e-07 -2.6311543825890426e-07 -1.0999874936119139e-07 5.345276223276128e-06 0.0 0.0
0.0 1.8140528713118614e-06 2.1641009739225517e-08 -9.207600365660932e-09 -1.2433409373564114e-08 1.5663709843260975e-06 0.0 0.0
0.0 3.127572215894074e-06 2.8521954119722523e-08 -3.960344675112975e-08 1.1081492631406868e-08 1.3891111375150753e-06 0.0 0.0
0.0 0.0005797153928207288 0.0003175700449724684 -0.00041494985633688304 9.737981136441438e-05 0.0005535330481438541 0.0 0.0
0.0 0.000185125722894538 9.682787314095197e-05 -0.00013260343854444302 3.577556540349106e-05 -0.00018031392330195608 0.0 0.0
0.0 4.164882891397827e-06 -6.60269223103731e-09 -1.9921277603633284e-08 2.6523969834671825e-08 -2.6709049663998713e-06 0.0 0.0
0.0 5.5966588232758875e-06 -2.2015847167329113e-07 2.1047277790190437e-07 9.685693771387397e-09 -6.515725633642569e-06 0.0 0.0
0.0 9.490267305275659e-06 -1.5064111426499293e-07 2.1466349434559462e-07 -6.402238008060095e-08 -1.4421967340271927e-05 0.0 0.0
0.0 4.504941218316861e-05 1.7706940016854193e-06 -1.214427163251125e-06 -5.562668384343009e-07 -6.578845375089236e-05 0.0 0.0
0.0 0.00016182991435883764 1.3345813908675213e-05 -1.0596599600761127e-05 -2.7492143079140673e-06 -0.00025232513799733255 0.0 0.0
0.0 0.00039015146352508267 4.706471037432714e-05 -3.810130193322272e-05 -8.96340844110444e-06 -0.0006358755232892474 0.0 0.0
0.0 0.0008017893740693933 0.00012936307124904097 -0.00010531586994780083 -2.4047201301239995e-05 -0.0012684861502893412 0.0 0.0
0.0 0.0014681856371972538 0.00034131511453068444 -0.00027838614059983694 -6.292897393084723e-05 -0.002364894886907243 0.0 0.0
0.0 0.0025869001999817656 0.0007739749364918367 -0.0006329958033108484 -0.0001409791331809882 -0.003923820409419071 0.0 0.0
0.0 0.00395245559495681 0.001430954584240723 -0.0011907230744505526 -0.00024023150979016962 -0.005853216871576903 0.0 0.0
0.0 0.005682462622731918 0.0022525647277691963 -0.0019260252256168865 -0.0003265395021523092 -0.007981736052181488 0.0 0.0
0.0 0.007631825045399627 0.003204911196201829 -0.0028097966247332064 -0.0003951145714686204 -0.010250680909428102 0.0 0.0
0.0 0.009837490834857599 0.004313599773732016 -0.003867217988955839 -0.00044638178477617626 -0.012641499285431528 0.0 0.0
0.0 0.012314792903104062 0.005686599645652932 -0.005202821174330861 -0.0004837784713220677 -0.015120471249731069 0.0 0.0
0.0 0.01519869205826915 0.007517093806716536 -0.0070033058872363205 -0.0005137879194802129 -0.017521657157633635 0.0 0.0
0.0 0.01851833025965536 0.01006248564611462 -0.009514706837216695 -0.000547778808897922 -0.019401155557561046 0.0 0.0
0.0 0.022355867904222875 0.013536641313549876 -0.012942830112431908 -0.0005938112011179618 -0.02011449832266883 0.0 0.0
0.0 0.027610272949042017 0.01843460365647208 -0.017849260120266008 -0.0005853435362060699 -0.02009406458530075 0.0 0.0
0.0 0.03578322781069885 0.026407067244098296 -0.025832602965832223 -0.0005744642782660676 -0.01962598425463289 0.0 0.0
0.0 0.03578322781070906 0.026407067244102904 -0.025832602965837028 -0.0005744642782658696 0.019625984254667453 0.0 0.0
0.0 0.027610272949052328 0.01843460365647278 -0.01784926012026719 -0.0005853435362056001 0.0200940645853513 0.0 0.0
0.0 0.022355867904221907 0.013536641313544167 -0.012942830112426319 -0.0005938112011178423 0.020114498322696475 0.0 0.0
0.0 0.018518330259646845 0.01006248564610809 -0.009514706837210767 -0.0005477788088973164 0.019401155557562513 0.0 0.0
0.0 0.01519869205825633 0.0075170938067119965 -0.0070033058872323 -0.0005137879194796955 0.017521657157615115 0.0 0.0
0.0 0.01231479290309092 0.005686599645646483 -0.005202821174324671 -0.0004837784713218121 0.015120471249718128 0.0 0.0
0.0 0.009837490834846162 0.004313599773726938 -0.0038672179889509134 -0.00044638178477602426 0.012641499285420243 0.0 0.0
0.0 0.00763182504539288 0.0032049111962005107 -0.00280979662473198 -0.0003951145714685303 0.01025068090941832 0.0 0.0
0.0 0.005682462622720388 0.0022525647277648886 -0.0019260252256129485 -0.0003265395021519389 0.007981736052167607 0.0 0.0
0.0 0.003952455594947153 0.001430954584237698 -0.0011907230744480366 -0.00024023150978966159 0.005853216871563422 0.0 0.0
0.0 0.0025869001999737533 0.0007739749364900683 -0.0006329958033094689 -0.00014097913318059945 0.003923820409407468 0.0 0.0
0.0 0.0014681856371936974 0.00034131511452984483 -0.0002783861405991715 -6.292897393067322e-05 0.0023648948869013703 0.0 0.0
0.0 0.0008017893740669647 0.0001293630712485693 -0.00010531586994741362 -2.404720130115557e-05 0.0012684861502853461 0.0 0.0
0.0 0.00039015146352248487 4.7064710374125614e-05 -3.8101301933040534e-05 -8.963408441085063e-06 0.0006358755232864054 0.0 0.0
0.0 0.00016182991435709492 1.3345813908638964e-05 -1.0596599600723271e-05 -2.749214307915693e-06 0.00025232513799611103 0.0 0.0
0.0 4.5049412181835425e-05 1.7706940016866583e-06 -1.2144271632499142e-06 -5.56266838436748e-07 6.578845375063375e-05 0.0 0.0
0.0 9.490267304914493e-06 -1.5064111427423356e-07 2.146634943549607e-07 -6.402238008072715e-08 1.4421967340654383e-05 0.0 0.0
0.0 5.596658822601988e-06 -2.2015847170537216e-07 2.1047277793045534e-07 9.685693774916092e-09 6.515725634420546e-06 0.0 0.0
0.0 4.164882891070846e-06 -6.602692234896946e-09 -1.9921277613334902e-08 2.6523969848234387e-08 2.6709049671458434e-06 0.0 0.0
0.0 0.0001851257228923633 9.682787314022193e-05 -0.0001326034385434611 3.577556540323914e-05 0.00018031392330077433 0.0 0.0
0.0 2.5279718531351032e-05 1.1899044859097242e-05 -1.707104430019948e-05 5.171999441102228e-06 -2.426913649496581e-05 0.0 0.0
0.0 3.831965972778574e-06 -9.805658569937273e-08 3.930494631208141e-08 5.8751639387296216e-08 -2.930182037418184e-06 0.0 0.0
0.0 8.317846877750039e-06 -8.921372217708131e-07 7.624526970277747e-07 1.2968452474303907e-07 -1.1040068500035721e-05 0.0 0.0
0.0 1.5676805681404215e-05 -1.910452192033489e-06 1.6875441965351998e-06 2.2290799549829075e-07 -2.3298727986843956e-05 0.0 0.0
0.0 5.339829205931689e-05 -5.37192631173436e-06 4.633094553695215e-06 7.388317580391541e-07 -7.735931902244697e-05 0.0 0.0
0.0 0.00017148098617976722 -1.7381315515292917e-05 1.4330152584062491e-05 3.051162931230415e-06 -0.0002599966160325112 0.0 0.0
0.0 0.0003966819974293392 -5.025343093760665e-05 4.0865967987875276e-05 9.387462949731349e-06 -0.0006467235449282287 0.0 0.0
0.0 0.0008058581786142819 -0.00013104300748509475 0.00010667217185412635 2.437083563096841e-05 -0.001276114378936059 0.0 0.0
0.0 0.0014681770862022662 -0.00034158325285009726 0.0002786271543814687 6.295609846862842e-05 -0.0023670992734238826 0.0 0.0
0.0 0.002586440213882654 -0.0007737747438340308 0.0006329398744288125 0.00014083486940521853 -0.003923943082344779 0.0 0.0
0.0 0.003970267883728035 -0.001438376931868963 0.0011990029558287952 0.0002393739760401681 -0.005859420214180361 0.0 0.0
0.0 0.005717590307442776 -0.0022939808251417676 0.0019673740931265343 0.0003266067320152319 -0.008000658803647566 0.0 0.0
0.0 0.007697580493018541 -0.003287855592704343 0.002889493653236851 0.00039836193946749015 -0.010266738616026177 0.0 0.0
0.0 0.009858544844594018 -0.0043544719654426385 0.003896069762630026 0.00045840220281260873 -0.012632461989139292 0.0 0.0
0.0 0.01202185065299707 -0.005345606530252164 0.004835347738453818 0.0005102587917983463 -0.015085139326874174 0.0 0.0
0.0 0.0140127953958376 -0.005984604833180958 0.005428895596078641 0.0005557092371023121 -0.017575758709091283 0.0 0.0
0.0 0.015481431276931776 -0.005879966995198864 0.00528503418135298 0.0005949328138458836 -0.020089882037301672 0.0 0.0
0.0 0.01631735373891442 -0.004759417787174343 0.004142502011263585 0.0006169157759107549 -0.022723126809379095 0.0 0.0
0.0 0.016526510732917752 -0.002619984866134056 0.0020268450752242624 0.0005931397909097911 -0.02508774967538296 0.0 0.0
0.0 0.01646890661778437 0.0036888539261350876 -0.003744501443579057 5.564751744396683e-05 -0.024355529237168314 0.0 0.0
0.0 0.016468906617789224 0.003688853926135047 -0.0037445014435789708 5.5647517443927364e-05 0.024355529237181955 0.0 0.0
0.0 0.01652651073292348 -0.0026199848661354478 0.002026845075225106 0.0005931397909103389 0.025087749675398174 0.0 0.0
0.0 0.016317353738908892 -0.004759417787171733 0.0041425020112611675 0.000616915775910562 0.022723126809380705 0.0 0.0
0.0 0.015481431276919084 -0.005879966995192811 0.0052850341813475065 0.0005949328138453026 0.02008988203729067 0.0 0.0
0.0 0.014012795395819448 -0.005984604833170461 0.0054288955960684285 0.0005557092371020246 0.017575758709073366 0.0 0.0
0.0 0.012021850652981399 -0.005345606530242941 0.004835347738444944 0.0005102587917979905 0.015085139326860463 0.0 0.0
0.0 0.00985854484457744 -0.0043544719654329414 0.0038960697626206965 0.00045840220281224384 0.012632461989124679 0.0 0.0
0.0 0.007697580493001677 -0.00328785559269331 0.002889493653226197 0.00039836193946710965 0.01026673861601364 0.0 0.0
0.0 0.0057175903074238735 -0.0022939808251311155 0.0019673740931164642 0.0003266067320146506 0.00800065880362958 0.0 0.0
0.0 0.003970267883713906 -0.0014383769318617834 0.001199002955822414 0.0002393739760393692 0.005859420214164017 0.0 0.0
0.0 0.002586440213871453 -0.0007737747438299567 0.0006329398744254859 0.0001408348694044701 0.0039239430823319555 0.0 0.0
0.0 0.001468177086196959 -0.0003415832528477243 0.0002786271543795401 6.295609846818425e-05 0.0023670992734167984 0.0 0.0
0.0 0.0008058581786118028 -0.00013104300748451427 0.00010667217185364753 2.437083563086672e-05 0.0012761143789325289 0.0 0.0
0.0 0.0003966819974274647 -5.025343093746972e-05 4.086596798780959e-05 9.387462949660127e-06 0.0006467235449264597 0.0 0.0
0.0 0.00017148098617850448 -1.7381315515298758e-05 1.4330152584073027e-05 3.051162931225756e-06 0.000259996616032261 0.0 0.0
0.0 5.339829205797513e-05 -5.371926311733252e-06 4.63309455369404e-06 7.388317580392055e-07 7.735931902245911e-05 0.0 0.0
0.0 1.5676805681084183e-05 -1.9104521920788147e-06 1.6875441965750682e-06 2.229079955037457e-07 2.3298727987356333e-05 0.0 0.0
0.0 8.31784687715089e-06 -8.921372218378119e-07 7.624526970838604e-07 1.296845247539525e-07 1.1040068500763668e-05 0.0 0.0
0.0 3.831965972490017e-06 -9.80565857178223e-08 3.9304946298028036e-08 5.8751639419799186e-08 2.930182038442733e-06 0.0 0.0
0.0 2.5279718530720423e-05 1.1899044859233884e-05 -1.7071044300382054e-05 5.171999441148168e-06 2.4269136495417468e-05 0.0 0.0
0.0 1.2794705618513804e-06 -7.325646252627723e-08 1.1123042410747284e-07 -3.797396158117645e-08 1.788907911065407e-07 0.0 0.0
0.0 2.650526680211071e-06 -1.6020763133580993e-07 8.643825524363806e-08 7.376937609217038e-08 -3.055456782649005e-06 0.0 0.0
0.0 9.634977047172177e-06 -1.5955945067923189e-06 1.3268195437490494e-06 2.68774963043266e-07 -1.2637582168879186e-05 0.0 0.0
0.0 2.104767974498761e-05 -3.899081773738293e-06 3.318695343327228e-06 5.803864304110766e-07 -2.5935799957887538e-05 0.0 0.0
0.0 6.141569848738139e-05 -1.4873604780015076e-05 1.2390763445352489e-05 2.482841334662588e-06 -8.939252868597796e-05 0.0 0.0
0.0 0.00019523448910791042 -5.543444370591422e-05 4.512155315223008e-05 1.0312890553684153e-05 -0.00028696350769521903 0.0 0.0
0.0 0.0005951928712912946 -0.00022126255308880467 0.00018027263170988615 4.098992137891851e-05 -0.0008716054602475272 0.0 0.0
0.0 0.001595855027095065 -0.0008107038022001493 0.0006744406825616355 0.00013626311963851347 -0.0022307319602509327 0.0 0.0
0.0 0.003576558080623354 -0.0021536505036077614 0.001856471154855829 0.000297179348751932 -0.004310091926904835 0.0 0.0
0.0 0.006348556454098904 -0.004197052811810758 0.0037493257169561277 0.0004477270948546289 -0.006792402515586487 0.0 0.0
0.0 0.009651375023163588 -0.006707009177298004 0.006153725925555227 0.0005532832517427765 -0.009474493173812042 0.0 0.0
0.0 0.01340805629803006 -0.009531374944759616 0.0089074359983141 0.0006239389464455144 -0.012192793108299975 0.0 0.0
0.0 0.01745700336966839 -0.012641708814105878 0.011961133230489661 0.000680575583616213 -0.014906619354237748 0.0 0.0
0.0 0.02180510116415578 -0.01599095770490259 0.01525873720624124 0.0007322204986613485 -0.017594985427613705 0.0 0.0
0.0 0.026285112396161228 -0.01940840345586324 0.018624954747277756 0.0007834487085854761 -0.020322485593471808 0.0 0.0
0.0 0.030539896431776573 -0.022547921334032613 0.02171524994720704 0.0008326713868255611 -0.02314846443552315 0.0 0.0
0.0 0.034119993546235065 -0.024915449644848126 0.024043011891406247 0.0008724377534418789 -0.02616356427499043 0.0 0.0
0.0 0.03637166815267729 -0.025945417227678284 0.02504737252666385 0.0008980447010144565 -0.0292663455496365 0.0 0.0
0.0 0.035579906545702866 -0.024498818854786893 0.02350806385446067 0.000990755000326203 -0.030666420778619478 0.0 0.0
0.0 0.02883133910335431 -0.0173584359883128 0.016247817944046613 0.0011106180442661657 -0.02835927469017652 0.0 0.0
0.0 0.028831339103364405 -0.017358435988313024 0.016247817944046603 0.0011106180442664133 0.028359274690213487 0.0 0.0
0.0 0.03557990654571376 -0.02449881885478499 0.023508063854458965 0.0009907550003260051 0.030666420778672557 0.0 0.0
0.0 0.03637166815266929 -0.02594541722766481 0.02504737252665035 0.0008980447010144452 0.029266345549665833 0.0 0.0
0.0 0.034119993546212125 -0.024915449644827618 0.024043011891385562 0.000872437753442062 0.02616356427499007 0.0 0.0
0.0 0.03053989643174468 -0.022547921334007744 0.021715249947182262 0.0008326713868254866 0.023148464435502458 0.0 0.0
0.0 0.02628511239613608 -0.019408403455843732 0.01862495474725869 0.0007834487085850413 0.02032248559345513 0.0 0.0
0.0 0.021805101164127077 -0.015990957704879846 0.015258737206218974 0.0007322204986608678 0.017594985427598034 0.0 0.0
0.0 0.017457003369641462 -0.012641708814083502 0.011961133230467921 0.0006805755836155661 0.014906619354224902 0.0 0.0
0.0 0.01340805629800066 -0.009531374944737315 0.008907435998292485 0.0006239389464448289 0.012192793108278938 0.0 0.0
0.0 0.009651375023135301 -0.006707009177277956 0.006153725925535946 0.0005532832517420067 0.00947449317378737 0.0 0.0
0.0 0.00634855645407598 -0.004197052811795414 0.00374932571694159 0.0004477270948538241 0.006792402515563769 0.0 0.0
0.0 0.00357655808060843 -0.0021536505035970287 0.0018564711548460558 0.00029717934875097434 0.004310091926891002 0.0 0.0
0.0 0.001595855027087608 -0.0008107038021953946 0.0006744406825576485 0.00013626311963774637 0.002230731960242637 0.0 0.0
0.0 0.0005951928712860643 -0.00022126255308682247 0.00018027263170830528 4.098992137851726e-05 0.0008716054602411387 0.0 0.0
0.0 0.00019523448910547004 -5.543444370551583e-05 4.51215531519052e-05 1.031289055361066e-05 0.0002869635076932465 0.0 0.0
0.0 6.141569848609498e-05 -1.487360477993349e-05 1.239076344528718e-05 2.482841334646302e-06 8.93925286854802e-05 0.0 0.0
0.0 2.1047679744031255e-05 -3.899081773742013e-06 3.3186953433302673e-06 5.803864304117475e-07 2.5935799957887192e-05 0.0 0.0
0.0 9.634977046571632e-06 -1.5955945068939313e-06 1.3268195438320369e-06 2.6877496306189317e-07 1.2637582169656705e-05 0.0 0.0
0.0 2.650526679981042e-06 -1.6020763137323457e-07 8.643825524994666e-08 7.37693761232883e-08 3.0554567835082637e-06 0.0 0.0
0.0 1.2794705614589102e-06 -7.325646250320453e-08 1.1123042407310628e-07 -3.797396156990146e-08 -1.7889079104850708e-07 0.0 0.0
0.0 0.0 0.0 0.0 0.0 0.0 0.0 0.0
0.0 1.633884547676156e-06 9.490469686057183e-09 5.230707485074363e-10 -1.001354043456727e-08 1.6350493297920926e-07 0.0 0.0
0.0 8.658271505022287e-06 -1.4717743116928189e-06 1.2102414760608214e-06 2.6153283563199293e-07 -8.499392720101277e-06 0.0 0.0
0.0 2.3911267145684055e-05 -5.7374660703897365e-06 4.766114062903535e-06 9.713520074862117e-07 -2.517397077062437e-05 0.0 0.0
0.0 7.299196077807484e-05 -2.6543785044981868e-05 2.177094751774369e-05 4.772837527238185e-06 -9.68809789273628e-05 0.0 0.0
0.0 0.0002927240885365138 -0.00013515458027409122 0.00010996562143039551 2.5188958843695648e-05 -0.00039137662587997803 0.0 0.0
0.0 0.0011280414173889864 -0.0006645221378153328 0.0005507893497050626 0.00011373278811026999 -0.0014053526378714689 0.0 0.0
0.0 0.0031718947204081326 -0.0021709678030909308 0.0018717727263405563 0.0002991950767503751 -0.0033970400502085305 0.0 0.0
0.0 0.00664102960105043 -0.004831276995340227 0.0043449671177438415 0.0004863098775963843 -0.006119468812612385 0.0 0.0
0.0 0.01108347166222697 -0.00842802387611032 0.007813755124864447 0.0006142687512458703 -0.009318394477549044 0.0 0.0
0.0 0.016426980515699886 -0.012666641128803832 0.011969967335191026 0.000696673793612814 -0.012681419867281902 0.0 0.0
0.0 0.022211973583116235 -0.017407975077202986 0.016647469845366483 0.0007605052318365025 -0.01596216845961644 0.0 0.0
0.0 0.028545750589400745 -0.0226160373788762 0.021798328807990566 0.0008177085708856407 -0.019126841630137604 0.0 0.0
0.0 0.035406312407056564 -0.028256727527386335 0.027381585995473523 0.0008751415319127969 -0.02226603183080977 0.0 0.0
0.0 0.04267610794663566 -0.034155985675078826 0.03321979626839855 0.0009361894066802479 -0.025596892325272277 0.0 0.0
0.0 0.04986502308020559 -0.03991505476113648 0.03891731981077675 0.0009977349503596863 -0.029409601807383636 0.0 0.0
0.0 0.056403125237406995 -0.04490033356185912 0.043844908581145814 0.0010554249807132913 -0.0338511016857075 0.0 0.0
0.0 0.060773164270396945 -0.04810266439163385 0.04697451999830453 0.001128144393329283 -0.03811268397513245 0.0 0.0
0.0 0.060886067938402 -0.04760574905803213 0.04638257226724046 0.0012231767907916388 -0.04019002782318577 0.0 0.0
0.0 0.05126525052707244 -0.039348188019491866 0.03788408099229177 0.001464107027200086 -0.036056573281502885 0.0 0.0
0.0 0.051265250527085 -0.039348188019492865 0.03788408099229284 0.0014641070272000181 0.03605657328155415 0.0 0.0
0.0 0.0608860679384047 -0.04760574905802273 0.0463825722672311 0.0012231767907916187 0.04019002782324989 0.0 0.0
0.0 0.06077316427038154 -0.04810266439161223 0.046974519998283226 0.0011281443933289738 0.03811268397517397 0.0 0.0
0.0 0.05640312523737237 -0.044900333561826454 0.04384490858111425 0.0010554249807122338 0.03385110168571323 0.0 0.0
0.0 0.049865023080162524 -0.039915054761100285 0.03891731981074108 0.0009977349503592129 0.02940960180736637 0.0 0.0
0.0 0.04267610794659246 -0.03415598567504298 0.03321979626836304 0.0009361894066799429 0.02559689232525316 0.0 0.0
0.0 0.03540631240701179 -0.028256727527349763 0.027381585995437187 0.0008751415319125677 0.022266031830786875 0.0 0.0
0.0 0.028545750589362557 -0.022616037378843712 0.021798328807958473 0.0008177085708852253 0.019126841630123632 0.0 0.0
0.0 0.022211973583073724 -0.017407975077168437 0.016647469845332177 0.0007605052318362595 0.015962168459592814 0.0 0.0
0.0 0.016426980515659658 -0.012666641128772582 0.011969967335159957 0.0006966737936126226 0.012681419867252993 0.0 0.0
0.0 0.01108347166219343 -0.008428023876084965 0.007813755124839426 0.0006142687512455411 0.009318394477523119 0.0 0.0
0.0 0.006641029601026412 -0.004831276995321633 0.004344967117725942 0.00048630987759568816 0.0061194688125946715 0.0 0.0
0.0 0.0031718947203944565 -0.0021709678030807098 0.0018717727263314358 0.0002991950767492748 0.0033970400501973606 0.0 0.0
0.0 0.0011280414173805518 -0.0006645221378104237 0.0005507893497009799 0.00011373278810944371 0.0014053526378628764 0.0 0.0
0.0 0.0002927240885327902 -0.00013515458027277705 0.00010996562142932581 2.5188958843451167e-05 0.00039137662587642277 0.0 0.0
0.0 7.299196077692944e-05 -2.6543785045023325e-05 2.17709475177719e-05 4.772837527251391e-06 9.68809789273419e-05 0.0 0.0
0.0 2.391126714493345e-05 -5.737466070496297e-06 4.766114062991172e-06 9.713520075051116e-07 2.5173970771092396e-05 0.0 0.0
0.0 8.658271504591146e-06 -1.471774311832418e-06 1.210241476174604e-06 2.6153283565782013e-07 8.499392720906751e-06 0.0 0.0
0.0 1.633884547314555e-06 9.490469653646208e-09 5.230707669971597e-10 -1.0013540420647082e-08 -1.6350493253465715e-07 0.0 0.0
0.0 0.0 0.0 0.0 0.0 0.0 0.0 0.0
0.0 0.0 0.0 0.0 0.0 0.0 0.0 0.0
0.0 3.8538157917848767e-07 8.524370000021943e-09 -5.889213621647465e-09 -2.6351563783748637e-09 7.625979648851619e-08 0.0 0.0
0.0 5.335731515747705e-06 -1.077313404599931e-06 8.785915951374883e-07 1.987218094624375e-07 -4.773354140977165e-06 0.0 0.0
0.0 2.3249757362029042e-05 -8.142704449817489e-06 6.703032263240296e-06 1.4396721865771848e-06 -2.6362246099959482e-05 0.0 0.0
0.0 9.820546557305744e-05 -4.6961336962296376e-05 3.827839256216737e-05 8.682944400129026e-06 -0.00011685613062711783 0.0 0.0
0.0 0.0005149405083530581 -0.0003206219064627396 0.00026248333803188166 5.8138568430857896e-05 -0.0005949458467167186 0.0 0.0
0.0 0.002006773669014745 -0.0014413981847427315 0.001221521671905207 0.00021987651283752422 -0.0019674469852277304 0.0 0.0
0.0 0.005168206454414272 -0.003958015680950315 0.0035176572603911023 0.000440358420559212 -0.004287089803127393 0.0 0.0
0.0 0.010024223948860654 -0.007894130270693063 0.007289164857684207 0.0006049654130088553 -0.00741469352202713 0.0 0.0
0.0 0.01617897078305912 -0.01297612516298223 0.012265951297445475 0.0007101738655367524 -0.011058765657589476 0.0 0.0
0.0 0.023331440638523007 -0.018906072704638184 0.018119057392957598 0.0007870153116805842 -0.014795926940433066 0.0 0.0
0.0 0.031285249843240825 -0.025537021429391564 0.024681929772739086 0.0008550916566524554 -0.018371640821880652 0.0 0.0
0.0 0.04000653550527529 -0.032834429994066765 0.031915568980688834 0.0009188610133779052 -0.021789667414310536 0.0 0.0
0.0 0.049421699418597406 -0.040776969683702605 0.039793210619648585 0.0009837590640540518 -0.025190283740661866 0.0 0.0
0.0 0.059488855999049566 -0.04920219594997154 0.04814885701399246 0.001053338935979017 -0.02890617109649524 0.0 0.0
0.0 0.06973697487675135 -0.05766181122587051 0.05653267369703317 0.0011291375288373117 -0.03340237285947794 0.0 0.0
0.0 0.0790931686568497 -0.06526434544371124 0.06405062134025923 0.0012137241034519638 -0.03876065416477082 0.0 0.0
0.0 0.08572485104779615 -0.07043753815545054 0.0691247306347382 0.0013128075207122646 -0.043923319363035805 0.0 0.0
0.0 0.08613029188602647 -0.07045459231462821 0.06899564978960968 0.0014589425250185182 -0.04614894901952324 0.0 0.0
0.0 0.07436768399995193 -0.060368524022671476 0.05868710791244667 0.0016814161102248198 -0.04215199679129835 0.0 0.0
0.0 0.07436768399995648 -0.060368524022666445 0.05868710791244196 0.001681416110224451 0.04215199679135283 0.0 0.0
0.0 0.0861302918860229 -0.07045459231461415 0.06899564978959595 0.0014589425250181864 0.04614894901959408 0.0 0.0
0.0 0.08572485104777745 -0.07043753815542553 0.06912473063471448 0.001312807520711 0.04392331936308802 0.0 0.0
0.0 0.07909316865680913 -0.06526434544367227 0.06405062134022185 0.00121372410345037 0.0387606541647849 0.0 0.0
0.0 0.06973697487669168 -0.05766181122581904 0.056532673696982366 0.0011291375288366855 0.03340237285946235 0.0 0.0
0.0 0.05948885599898906 -0.04920219594992026 0.04814885701394156 0.0010533389359786579 0.028906171096474392 0.0 0.0
0.0 0.04942169941853885 -0.040776969683653394 0.03979321061959948 0.0009837590640539321 0.02519028374063939 0.0 0.0
0.0 0.040006535505222124 -0.03283442999402114 0.031915568980643995 0.0009188610133771637 0.021789667414293994 0.0 0.0
0.0 0.03128524984318403 -0.025537021429343873 0.02468192977269194 0.0008550916566519088 0.018371640821854825 0.0 0.0
0.0 0.023331440638471708 -0.018906072704596523 0.01811905739291645 0.0007870153116800701 0.014795926940401872 0.0 0.0
0.0 0.016178970783014654 -0.012976125162946809 0.012265951297410795 0.0007101738655360121 0.011058765657558707 0.0 0.0
0.0 0.010024223948828612 -0.007894130270667862 0.007289164857659604 0.0006049654130082646 0.007414693522006272 0.0 0.0
0.0 0.005168206454394938 -0.003958015680935168 0.0035176572603770394 0.00044035842055812724 0.004287089803113991 0.0 0.0
0.0 0.002006773669001873 -0.001441398184733562 0.0012215216718971219 0.00021987651283644018 0.0019674469852168485 0.0 0.0
0.0 0.0005149405083479243 -0.00032062190646010727 0.0002624833380296466 5.813856843046069e-05 0.0005949458467121658 0.0 0.0
0.0 9.820546557209601e-05 -4.6961336962349936e-05 3.827839256220437e-05 8.682944400145516e-06 0.00011685613062719768 0.0 0.0
0.0 2.324975736143686e-05 -8.142704450032681e-06 6.703032263412043e-06 1.4396721866206332e-06 2.6362246100591267e-05 0.0 0.0
0.0 5.335731515346167e-06 -1.0773134047699978e-06 8.785915952748419e-07 1.987218094951543e-07 4.773354141738966e-06 0.0 0.0
0.0 3.8538157904294466e-07 8.52436999717895e-09 -5.889213619678072e-09 -2.6351563774992616e-09 -7.62597964614563e-08 0.0 0.0
0.0 0.0 0.0 0.0 0.0 0.0 0.0 0.0
0.0 0.0 0.0 0.0 0.0 0.0 0.0 0.0
0.0 0.0 0.0 0.0 0.0 0.0 0.0 0.0
0.0 2.3394153507413325e-06 -5.129407708232766e-07 4.180032725119002e-07 9.493749831137985e-08 -1.7965935758812327e-06 0.0 0.0
0.0 2.201395969150481e-05 -7.405456136592419e-06 6.028722383919016e-06 1.3767337526734157e-06 -1.789252092755881e-05 0.0 0.0
0.0 0.00015850705230282554 -8.820539807040569e-05 7.1607925085818e-05 1.659747298458772e-05 -0.0001538590784459596 0.0 0.0
0.0 0.0009068456539520875 -0.0006672476812568664 0.0005522876215360306 0.00011496005972083564 -0.0008394392635534228 0.0 0.0
0.0 0.003185497748004699 -0.0025007448590362185 0.0021682445942941956 0.00033250026474202225 -0.002375456486525233 0.0 0.0
0.0 0.0074398044178171675 -0.006024718900755605 0.005480102362684497 0.0005446165380711041 -0.004833405234959445 0.0 0.0
0.0 0.013600496996636392 -0.011189283518554992 0.010507002378983906 0.0006822811395710828 -0.008152448567992954 0.0 0.0
0.0 0.021365905288182382 -0.01770378054470546 0.016926654368325127 0.0007771261763803312 -0.011926699283293126 0.0 0.0
0.0 0.030394508232102626 -0.025297580843009662 0.02443967032444044 0.0008579105185692203 -0.015738032336384544 0.0 0.0
0.0 0.04047874211566932 -0.03381255865055613 0.03287942971642731 0.0009331289341288204 -0.019392603064604268 0.0 0.0
0.0 0.05153659120915024 -0.04319582627831462 0.042191143759389385 0.0010046825189252099 -0.022885415032703423 0.0 0.0
0.0 0.06357469006571717 -0.053433934786269024 0.05235780752123481 0.001076127265034212 -0.026331206415506226 0.0 0.0
0.0 0.07652783569963638 -0.06439434108845457 0.06323974688608627 0.0011545942023682885 -0.030103127376719736 0.0 0.0
0.0 0.08962393944811418 -0.07555986406819672 0.07431306819010595 0.0012467958780907375 -0.03472570787411951 0.0 0.0
0.0 0.1019464395323664 -0.08572203448437785 0.08436555041604246 0.001356484068335357 -0.04033883328335771 0.0 0.0
0.0 0.11055160036274589 -0.0926883355620057 0.0911970863333354 0.0014912492286703325 -0.04586718275871121 0.0 0.0
0.0 0.11112104441380721 -0.09289886657501087 0.09124048350285043 0.0016583830721604133 -0.04882341326969841 0.0 0.0
0.0 0.09766349948783351 -0.08104246983460406 0.07918933677853096 0.001853133056073133 -0.047375267639960604 0.0 0.0
0.0 0.09766349948783733 -0.08104246983459917 0.07918933677852627 0.0018531330560728654 0.04737526764001742 0.0 0.0
0.0 0.11112104441379217 -0.0928988665749884 0.0912404835028286 0.00165838307215974 0.04882341326976898 0.0 0.0
0.0 0.11055160036271026 -0.09268833556196795 0.091197086333298 0.001491249228669851 0.0458671827587625 0.0 0.0
0.0 0.10194643953230922 -0.08572203448432567 0.0843655504159905 0.0013564840683351178 0.040338833283370186 0.0 0.0
0.0 0.08962393944804525 -0.075559864068137 0.0743130681900464 0.0012467958780905761 0.03472570787410723 0.0 0.0
0.0 0.0765278356995672 -0.06439434108839512 0.06323974688602699 0.0011545942023681488 0.030103127376703145 0.0 0.0
0.0 0.0635746900656431 -0.05343393478620577 0.05235780752117193 0.001076127265033847 0.02633120641548324 0.0 0.0
0.0 0.05153659120907505 -0.043195826278250304 0.04219114375932509 0.0010046825189252025 0.02288541503268185 0.0 0.0
0.0 0.0404787421155997 -0.03381255865049683 0.03287942971636865 0.0009331289341281746 0.01939260306457869 0.0 0.0
0.0 0.03039450823204124 -0.02529758084295828 0.02443967032438995 0.0008579105185683116 0.015738032336353763 0.0 0.0
0.0 0.021365905288125688 -0.01770378054465862 0.01692665436827872 0.000777126176379901 0.011926699283259963 0.0 0.0
0.0 0.01360049699659312 -0.011189283518519251 0.010507002378948568 0.0006822811395706865 0.008152448567970047 0.0 0.0
0.0 0.00743980441778798 -0.0060247189007318356 0.005480102362661585 0.0005446165380702487 0.004833405234942927 0.0 0.0
0.0 0.0031854977479874704 -0.0025007448590229076 0.0021682445942820777 0.0003325002647408304 0.0023754564865139274 0.0 0.0
0.0 0.0009068456539461311 -0.000667247681253087 0.0005522876215328833 0.00011496005972020333 0.0008394392635491542 0.0 0.0
0.0 0.0001585070523006005 -8.820539806962979e-05 7.160792508518305e-05 1.6597472984446647e-05 0.00015385907844473986 0.0 0.0
0.0 2.201395969055735e-05 -7.405456136542074e-06 6.028722383874806e-06 1.3767337526672764e-06 1.7892520927449584e-05 0.0 0.0
0.0 2.339415350685126e-06 -5.129407709611566e-07 4.1800327262339324e-07 9.493749833776101e-08 1.7965935763665678e-06 0.0 0.0
0.0 0.0 0.0 0.0 0.0 0.0 0.0 0.0
0.0 0.0 0.0 0.0 0.0 0.0 0.0 0.0
0.0 0.0 0.0 0.0 0.0 0.0 0.0 0.0
0.0 0.0 0.0 0.0 0.0 0.0 0.0 0.0
0.0 9.159772724021529e-07 5.630253744311479e-08 -4.536700834069255e-08 -1.0935529102421052e-08 1.5681455061216043e-07 0.0 0.0
0.0 1.9472240540533383e-05 -1.0311836981281635e-05 8.313077598685193e-06 1.9987593825964824e-06 -1.8868760419538355e-05 0.0 0.0
0.0 0.0002617098541429373 -0.00018314364163713847 0.00014869328273501724 3.445035890212123e-05 -0.000227906979152396 0.0 0.0
0.0 0.0015036501209629784 -0.0011896063802361758 0.000998531232521268 0.00019107514771490847 -0.0010322817147592818 0.0 0.0
0.0 0.004637801294265839 -0.003780645045392466 0.003348132264930602 0.0004325127804618648 -0.00256764314362729 0.0 0.0
0.0 0.009837505332932359 -0.008289041248051014 0.0076703139213550086 0.0006187273266960048 -0.005017198415245375 0.0 0.0
0.0 0.0172901499227448 -0.014618603986794257 0.013882081649182886 0.0007365223376113762 -0.008250969909910363 0.0 0.0
0.0 0.026640186739458165 -0.02252961091408327 0.021698794565322012 0.0008308163487612639 -0.011874072255697678 0.0 0.0
0.0 0.037534144358837944 -0.03177573050454254 0.030857614225148444 0.0009181162793940724 -0.015552599478442746 0.0 0.0
0.0 0.049724873708100796 -0.04217530551079747 0.04117376302704763 0.0010015424837498009 -0.019078359792782617 0.0 0.0
0.0 0.0631887806942959 -0.05364423851570454 0.052562688426541104 0.0010815500891634255 -0.022456154271541347 0.0 0.0
0.0 0.07770492980022535 -0.06615989187228745 0.06499977145299102 0.001160120419296442 -0.0257692239050774 0.0 0.0
0.0 0.09339132651892383 -0.07960116224041691 0.07835469916682711 0.001246463073589801 -0.029234527749955042 0.0 0.0
0.0 0.10963495962454373 -0.0933986155725211 0.09204443327034095 0.0013541823021801657 -0.03335578486647537 0.0 0.0
0.0 0.12441251395389036 -0.10604759751700452 0.10455753568308548 0.001490061833918983 -0.03855622723165983 0.0 0.0
0.0 0.13477870204555245 -0.11472674619508048 0.11307305592990456 0.0016536902651759177 -0.04427837336024685 0.0 0.0
0.0 0.1358236625369472 -0.115193333174439 0.11336110939949409 0.0018322237749448852 -0.04901671757160942 0.0 0.0
0.0 0.12147001017702452 -0.10188410901257713 0.09987320718879417 0.002010901823782959 -0.052156073277400516 0.0 0.0
0.0 0.12147001017701947 -0.10188410901256609 0.09987320718878283 0.002010901823783205 0.0521560732774546 0.0 0.0
0.0 0.13582366253691885 -0.11519333317440716 0.11336110939946156 0.0018322237749455884 0.04901671757168053 0.0 0.0
0.0 0.13477870204549844 -0.11472674619502893 0.11307305592985195 0.0016536902651769483 0.04427837336029647 0.0 0.0
0.0 0.12441251395381875 -0.10604759751694037 0.10455753568302181 0.0014900618339185106 0.03855622723167146 0.0 0.0
0.0 0.10963495962446217 -0.09339861557245001 0.09204443327027058 0.0013541823021794002 0.03335578486646672 0.0 0.0
0.0 0.0933913265188395 -0.07960116224034346 0.0783546991667547 0.0012464630735887312 0.029234527749943076 0.0 0.0
0.0 0.07770492980013821 -0.06615989187221222 0.06499977145291634 0.001160120419295845 0.025769223905058113 0.0 0.0
0.0 0.06318878069420912 -0.05364423851562947 0.052562688426466456 0.0010815500891629528 0.02245615427152164 0.0 0.0
0.0 0.049724873708018834 -0.04217530551072673 0.04117376302697747 0.0010015424837492588 0.01907835979276014 0.0 0.0
0.0 0.037534144358760596 -0.03177573050447716 0.030857614225083485 0.000918116279393678 0.015552599478410287 0.0 0.0
0.0 0.02664018673939483 -0.02252961091403006 0.02169879456526934 0.0008308163487607059 0.01187407225566689 0.0 0.0
0.0 0.017290149922697534 -0.014618603986754004 0.013882081649143284 0.0007365223376107222 0.008250969909890158 0.0 0.0
0.0 0.00983750533289916 -0.00828904124802303 0.007670313921327695 0.0006187273266953277 0.005017198415229846 0.0 0.0
0.0 0.004637801294242662 -0.00378064504537358 0.0033481322649129177 0.0004325127804606648 0.0025676431436154994 0.0 0.0
0.0 0.0015036501209514178 -0.0011896063802274961 0.000998531232513639 0.00019107514771385658 0.0010322817147519398 0.0 0.0
0.0 0.00026170985413947307 -0.00018314364163527457 0.0001486932827334788 3.445035890179562e-05 0.0002279069791503074 0.0 0.0
0.0 1.9472240540039092e-05 -1.031183698136022e-05 8.313077598742278e-06 1.9987593826179237e-06 1.8868760419677397e-05 0.0 0.0
0.0 9.159772720464821e-07 5.630253742091469e-08 -4.5367008322703315e-08 -1.0935529098212496e-08 -1.5681455054918204e-07 0.0 0.0
0.0 0.0 0.0 0.0 0.0 0.0 0.0 0.0
0.0 0.0 0.0 0.0 0.0 0.0 0.0 0.0
0.0 0.0 0.0 0.0 0.0 0.0 0.0 0.0
0.0 0.0 0.0 0.0 0.0 0.0 0.0 0.0
0.0 2.633745482838499e-07 1.9034837468267232e-08 -1.5232417022672714e-08 -3.80242044559584e-09 3.959451352121644e-08 0.0 0.0
0.0 2.1412478039538527e-05 -1.3929184017828158e-05 1.1158084311472863e-05 2.7710997063553117e-06 -1.879278820603724e-05 0.0 0.0
0.0 0.0004556039885678435 -0.0003533389479123439 0.0002879582369368905 6.538071097545342e-05 -0.00030441938201591185 0.0 0.0
0.0 0.0023038017744203268 -0.0018820066555335533 0.001606463032324534 0.00027554362320902085 -0.001115802975015083 0.0 0.0
0.0 0.0060870933790358305 -0.005246562771700125 0.0047326276905526226 0.000513935081147505 -0.002555807063713051 0.0 0.0
0.0 0.01236606220831526 -0.010667090469488431 0.009997443601124135 0.0006696468683642992 -0.004779344585818256 0.0 0.0
0.0 0.021101992070485825 -0.018112996916404358 0.017334282721767978 0.0007787141946363802 -0.007662099005616723 0.0 0.0
0.0 0.03197193577957543 -0.027404122309250732 0.026527644114083357 0.000876478195167392 -0.010932907357766674 0.0 0.0
0.0 0.04469839059977694 -0.03829214152521863 0.03732141814852172 0.0009707233766968783 -0.014254107865850707 0.0 0.0
0.0 0.05902808527729807 -0.050577472600410546 0.04951463043705045 0.0010628421633600634 -0.01744367893527945 0.0 0.0
0.0 0.0748003908164227 -0.06413902380310815 0.06298676974362641 0.001152254059481707 -0.020526547195999174 0.0 0.0
0.0 0.09196960226119359 -0.07890135423556109 0.07766109700258814 0.0012402572329729441 -0.023509378519148867 0.0 0.0
0.0 0.11032082256983697 -0.09471177880405802 0.09337797989566071 0.0013337989083973486 -0.02640374707602461 0.0 0.0
0.0 0.1289914600840817 -0.11098227868443872 0.10953086845869281 0.0014514102257458684 -0.029490827535036436 0.0 0.0
0.0 0.1465057166772388 -0.12602805828157865 0.12441832938216996 0.0016097288994086512 -0.03354199518984376 0.0 0.0
0.0 0.1589399967398356 -0.13653411585576944 0.13473627551421688 0.001797840341552582 -0.039291268414810725 0.0 0.0
0.0 0.16084891284827924 -0.1376354929568397 0.13564251047060374 0.001992982486235809 -0.04685616513437871 0.0 0.0
0.0 0.1459164958165589 -0.12332447680903863 0.12115672943730392 0.0021677473717345535 -0.05651460800980959 0.0 0.0
0.0 0.14591649581655117 -0.12332447680902596 0.12115672943729085 0.0021677473717351603 0.05651460800986209 0.0 0.0
0.0 0.16084891284824565 -0.1376354929568046 0.1356425104705692 0.001992982486235452 0.046856165134443475 0.0 0.0
0.0 0.15893999673977965 -0.13653411585571693 0.13473627551416578 0.0017978403415509878 0.039291268414854905 0.0 0.0
0.0 0.14650571667715998 -0.12602805828150884 0.12441832938210096 0.001609728899407859 0.03354199518985451 0.0 0.0
0.0 0.1289914600839867 -0.11098227868435603 0.10953086845861101 0.0014514102257449598 0.02949082753502922 0.0 0.0
0.0 0.11032082256973572 -0.09471177880397005 0.09337797989557367 0.0013337989083963655 0.0264037470760145 0.0 0.0
0.0 0.09196960226109252 -0.07890135423547391 0.07766109700250155 0.001240257232972275 0.023509378519130958 0.0 0.0
0.0 0.0748003908163226 -0.06413902380302153 0.06298676974354042 0.0011522540594811022 0.020526547195981706 0.0 0.0
0.0 0.05902808527720259 -0.05057747260032776 0.04951463043696856 0.001062842163359214 0.017443678935258604 0.0 0.0
0.0 0.044698390599690004 -0.03829214152514403 0.037321418148447666 0.0009707233766963421 0.014254107865821073 0.0 0.0
0.0 0.031971935779500804 -0.027404122309186728 0.02652764411402007 0.0008764781951666503 0.0109329073577389 0.0 0.0
0.0 0.021101992070427435 -0.018112996916354 0.017334282721717824 0.0007787141946361742 0.007662099005598215 0.0 0.0
0.0 0.012366062208274041 -0.010667090469452967 0.009997443601089106 0.0006696468683638617 0.004779344585802722 0.0 0.0
0.0 0.00608709337901116 -0.005246562771679061 0.004732627690532514 0.0005139350811465463 0.002555807063703374 0.0 0.0
0.0 0.0023038017744083693 -0.0018820066555243465 0.0016064630323162972 0.000275543623208049 0.0011158029750099859 0.0 0.0
0.0 0.00045560398856329346 -0.00035333894790947663 0.0002879582369344971 6.538071097497934e-05 0.00030441938201372225 0.0 0.0
0.0 2.1412478039023504e-05 -1.3929184018028044e-05 1.1158084311618704e-05 2.771099706409345e-06 1.8792788206267825e-05 0.0 0.0
0.0 2.633745479801639e-07 1.90348374459991e-08 -1.5232417004860948e-08 -3.802420441135515e-09 -3.959451347502403e-08 0.0 0.0
0.0 0.0 0.0 0.0 0.0 0.0 0.0 0.0
0.0 0.0 0.0 0.0 0.0 0.0 0.0 0.0
0.0 0.0 0.0 0.0 0.0 0.0 0.0 0.0
0.0 0.0 0.0 0.0 0.0 0.0 0.0 0.0
0.0 0.0 0.0 0.0 0.0 0.0 0.0 0.0
0.0 3.317104721791225e-05 -2.483877863335723e-05 1.990698736753522e-05 4.931791265821999e-06 -2.3529193498660926e-05 0.0 0.0
0.0 0.0007807389718631002 -0.0006305348179278238 0.0005175929377470467 0.00011294188018077679 -0.00035019797722218485 0.0 0.0
0.0 0.0032342979401196147 -0.00273499357485133 0.0023744700670915433 0.00036052350775978633 -0.0010667563431205234 0.0 0.0
0.0 0.007749448047040088 -0.006821852535372724 0.006246136879786313 0.0005757156555864108 -0.0022502506540196007 0.0 0.0
0.0 0.015025837387726799 -0.013096609689277642 0.012389649354387133 0.0007069603348905071 -0.00404824367725609 0.0 0.0
0.0 0.02495825586482911 -0.02163326174661464 0.02081993360431918 0.0008133281422954427 -0.006414559881340865 0.0 0.0
0.0 0.03733885265705465 -0.03228276365239246 0.03136694708037935 0.0009158165720131031 -0.009114334009743779 0.0 0.0
0.0 0.05190457638777929 -0.044802289038039275 0.04378478912993303 0.0010174999081062322 -0.011861885298270683 0.0 0.0
0.0 0.0683132603830098 -0.05897491333819217 0.05785670775056459 0.001118205587627582 -0.014497081903171583 0.0 0.0
0.0 0.0865457066855601 -0.0746344924488565 0.07341642666974231 0.0012180657791141666 -0.017059084039025747 0.0 0.0
0.0 0.1060795071815619 -0.091623148310787 0.09030534638808589 0.0013178019227011004 -0.01955970288748947 0.0 0.0
0.0 0.12686714513112257 -0.10966993872460058 0.108249033999739 0.0014209047248615663 -0.021775167095503697 0.0 0.0
0.0 0.14816477471205142 -0.12813925406251672 0.12659764366702894 0.0015416103954877032 -0.02350291316505556 0.0 0.0
0.0 0.16811078927764755 -0.14542237673129615 0.14371771339207445 0.0017046633392216752 -0.02562195391862053 0.0 0.0
0.0 0.18288784291654017 -0.15806976994040844 0.15614645669904909 0.0019233132413593017 -0.030831574822618318 0.0 0.0
0.0 0.18638859618992723 -0.16049258026624177 0.1583475600161565 0.0021450202500853336 -0.0418695193296127 0.0 0.0
0.0 0.17173961857448472 -0.14584496861573448 0.1435083325835883 0.0023366360321461577 -0.060117692430634875 0.0 0.0
0.0 0.17173961857447478 -0.1458449686157216 0.14350833258357537 0.002336636032146179 0.060117692430675315 0.0 0.0
0.0 0.1863885961898855 -0.1604925802662021 0.15834756001611638 0.002145020250085739 0.04186951932966852 0.0 0.0
0.0 0.18288784291646695 -0.15806976994034333 0.15614645669898333 0.001923313241359914 0.030831574822656332 0.0 0.0
0.0 0.1681107892775482 -0.1454223767312098 0.14371771339198808 0.0017046633392217923 0.02562195391862743 0.0 0.0
0.0 0.14816477471194395 -0.1281392540624234 0.12659764366693652 0.001541610395486852 0.023502913165050935 0.0 0.0
0.0 0.1268671451310112 -0.10966993872450363 0.10824903399964297 0.0014209047248606983 0.021775167095499193 0.0 0.0
0.0 0.10607950718144761 -0.0916231483106881 0.0903053463879876 0.0013178019227004845 0.019559702887476202 0.0 0.0
0.0 0.08654570668544632 -0.07463449244875814 0.07341642666964396 0.0012180657791141935 0.017059084039012348 0.0 0.0
0.0 0.0683132603829017 -0.05897491333809882 0.0578567077504715 0.0011182055876272938 0.01449708190315573 0.0 0.0
0.0 0.05190457638768391 -0.04480228903795669 0.04378478912985092 0.001017499908105758 0.011861885298247464 0.0 0.0
0.0 0.03733885265697394 -0.03228276365232258 0.03136694708031001 0.0009158165720125654 0.009114334009720918 0.0 0.0
0.0 0.02495825586476597 -0.021633261746559475 0.020819933604264967 0.0008133281422945161 0.0064145598813256195 0.0 0.0
0.0 0.015025837387678157 -0.013096609689235133 0.012389649354345347 0.0007069603348897883 0.0040482436772428364 0.0 0.0
0.0 0.0077494480470094145 -0.006821852535345858 0.006246136879760259 0.000575715655585602 0.0022502506540107354 0.0 0.0
0.0 0.003234297940103725 -0.0027349935748380324 0.002374470067079445 0.0003605235077585873 0.0010667563431152498 0.0 0.0
0.0 0.0007807389718572165 -0.0006305348179235897 0.000517592937743465 0.00011294188018012493 0.00035019797721998083 0.0 0.0
0.0 3.317104721757818e-05 -2.483877863379094e-05 1.990698736786697e-05 4.931791265923993e-06 2.3529193499018642e-05 0.0 0.0
0.0 0.0 0.0 0.0 0.0 0.0 0.0 0.0
0.0 0.0 0.0 0.0 0.0 0.0 0.0 0.0
0.0 0.0 0.0 0.0 0.0 0.0 0.0 0.0
0.0 0.0 0.0 0.0 0.0 0.0 0.0 0.0
0.0 0.0 0.0 0.0 0.0 0.0 0.0 0.0
0.0 0.0 0.0 0.0 0.0 0.0 0.0 0.0
0.0 7.353751674351984e-05 -5.8507796993739025e-05 4.6808001682620484e-05 1.1699795311118565e-05 -3.371917895323613e-05 0.0 0.0
0.0 0.0012649622160704217 -0.0010318802087019153 0.0008573701414521011 0.00017451006724981372 -0.00032787471572189996 0.0 0.0
0.0 0.004138383251163839 -0.003724397130778985 0.003285689425654363 0.00043870770512462155 -0.000833681923428681 0.0 0.0
0.0 0.009552049152497478 -0.008454627280335294 0.007835344641978229 0.0006192826383570673 -0.001639469973754136 0.0 0.0
0.0 0.017733409795305657 -0.015547350067660577 0.014810869406626348 0.0007364806610342433 -0.0028652705051197447 0.0 0.0
0.0 0.028833940499168993 -0.025139178080065015 0.024297450118122343 0.0008417279619426584 -0.004513342913772768 0.0 0.0
0.0 0.04270613612963112 -0.03712373629420235 0.036174014721659625 0.0009497215725427123 -0.006422123252996491 0.0 0.0
0.0 0.05908529516243917 -0.051265112724279485 0.05020590520189072 0.001059207522388729 -0.008368167841807286 0.0 0.0
0.0 0.07773730561416145 -0.06732336999680652 0.06615454524240155 0.001168824754404967 -0.010235273493351087 0.0 0.0
0.0 0.09812111094757185 -0.08508523158989464 0.08380579936764854 0.0012794322222461543 -0.012079188409548944 0.0 0.0
0.0 0.12021872284544072 -0.10427898526374463 0.10288663898754898 0.0013923462761955992 -0.013859243669481911 0.0 0.0
0.0 0.1435011956603094 -0.12445955813629792 0.12295055382182543 0.0015090043144724184 -0.0152956938961906 0.0 0.0
0.0 0.16697623358471736 -0.14484457641342136 0.14321145358607915 0.0016331228273421864 -0.015910528102918396 0.0 0.0
0.0 0.18898851836148747 -0.16397932117964206 0.16219740846113437 0.0017819127185078405 -0.01587051601546624 0.0 0.0
0.0 0.20631766673993734 -0.17895232471585823 0.17696158261525893 0.0019907421005992986 -0.018590052936416447 0.0 0.0
0.0 0.21276896220042318 -0.18399784600226865 0.1816939897768869 0.0023038562253815736 -0.032350839700650086 0.0 0.0
0.0 0.19956694253046814 -0.1701636955177464 0.16762953337630074 0.0025341621414455466 -0.062140923610013464 0.0 0.0
0.0 0.1995669425304554 -0.1701636955177325 0.16762953337628744 0.0025341621414449204 0.06214092361004396 0.0 0.0
0.0 0.21276896220037267 -0.18399784600222233 0.18169398977684156 0.002303856225380729 0.032350839700695605 0.0 0.0
0.0 0.2063176667398524 -0.17895232471578346 0.17696158261518535 0.0019907421005982123 0.018590052936445278 0.0 0.0
0.0 0.18898851836137964 -0.16397932117954814 0.16219740846104141 0.0017819127185067292 0.015870516015468523 0.0 0.0
0.0 0.1669762335845951 -0.14484457641331538 0.1432114535859736 0.0016331228273417779 0.01591052810291462 0.0 0.0
0.0 0.14350119566018132 -0.12445955813618687 0.1229505538217146 0.0015090043144722481 0.015295693896188267 0.0 0.0
0.0 0.12021872284531092 -0.10427898526363213 0.10288663898743698 0.0013923462761951208 0.013859243669476742 0.0 0.0
0.0 0.09812111094744602 -0.08508523158978512 0.08380579936754023 0.0012794322222449068 0.012079188409542405 0.0 0.0
0.0 0.07773730561403988 -0.06732336999670066 0.06615454524229657 0.0011688247544040674 0.01023527349334204 0.0 0.0
0.0 0.059085295162331984 -0.05126511272418653 0.05020590520179863 0.0010592075223878848 0.008368167841790158 0.0 0.0
0.0 0.04270613612954036 -0.037123736294123626 0.03617401472158133 0.0009497215725422948 0.006422123252979826 0.0 0.0
0.0 0.028833940499099257 -0.02513917808000383 0.02429745011806168 0.0008417279619421503 0.004513342913763156 0.0 0.0
0.0 0.017733409795254368 -0.01554735006761548 0.014810869406581856 0.0007364806610336138 0.0028652705051114957 0.0 0.0
0.0 0.009552049152463448 -0.008454627280305063 0.007835344641948752 0.0006192826383563122 0.0016394699737477564 0.0 0.0
0.0 0.0041383832511457525 -0.003724397130762838 0.0032856894256392743 0.00043870770512356434 0.0008336819234249821 0.0 0.0
0.0 0.0012649622160633626 -0.0010318802086965685 0.0008573701414474577 0.00017451006724911102 0.00032787471572030857 0.0 0.0
0.0 7.35375167423408e-05 -5.8507796993566e-05 4.680800168245485e-05 1.1699795311111118e-05 3.371917895310748e-05 0.0 0.0
0.0 0.0 0.0 0.0 0.0 0.0 0.0 0.0
0.0 0.0 0.0 0.0 0.0 0.0 0.0 0.0
0.0 0.0 0.0 0.0 0.0 0.0 0.0 0.0
0.0 0.0 0.0 0.0 0.0 0.0 0.0 0.0
0.0 0.0 0.0 0.0 0.0 0.0 0.0 0.0
0.0 0.0 0.0 0.0 0.0 0.0 0.0 0.0
0.0 0.00018614610711921158 -0.00015953538122606966 0.0001273782023198039 3.215717890626583e-05 -3.8765788714198064e-05 0.0 0.0
0.0 0.001912691901701223 -0.0015508807044236335 0.0013055521402188651 0.00024532856420476744 -0.00019349038800151605 0.0 0.0
0.0 0.005312276006911644 -0.004780860432859675 0.004279112692555287 0.0005017477403043884 -0.0003928660879927698 0.0 0.0
0.0 0.011415532990200573 -0.010120849470730341 0.009468377888507034 0.0006524715822233081 -0.0007211779525756669 0.0 0.0
0.0 0.02048141988774454 -0.017984231918380375 0.017224602441367982 0.0007596294770123824 -0.0012339901029114755 0.0 0.0
0.0 0.032725464985729466 -0.02859062790699791 0.027725229830651902 0.0008653980763459923 -0.001967013008028789 0.0 0.0
0.0 0.04809784838815311 -0.04188420210269137 0.040905482433975536 0.0009787196687158525 -0.0028519265316719524 0.0 0.0
0.0 0.06636378898555777 -0.057640305250447714 0.05654408050986704 0.0010962247405806617 -0.0037709443685559957 0.0 0.0
0.0 0.08692327366237773 -0.07558729061129806 0.07437175844211995 0.00121553216917808 -0.0046696445479932356 0.0 0.0
0.0 0.10974720397427033 -0.09543332113400631 0.09409652614406046 0.001336794989945804 -0.005547403640307999 0.0 0.0
0.0 0.13439723233931 -0.11680393939590968 0.11534147351535008 0.001462465880559574 -0.006345110535743574 0.0 0.0
0.0 0.16008827109274704 -0.139081538704001 0.13748741243460638 0.001594126269394664 -0.006891581111787299 0.0 0.0
0.0 0.1856547634363721 -0.16123873951097764 0.15950843741500667 0.001730302095970864 -0.006819470263450765 0.0 0.0
0.0 0.20929571462645719 -0.18174214389521992 0.17987357103826662 0.0018685728569532963 -0.005726557712408348 0.0 0.0
0.0 0.22843436636935718 -0.1983650774815332 0.19634029064418987 0.0020247868373430783 -0.004826240009862616 0.0 0.0
0.0 0.23882161568098934 -0.20715718702181052 0.2048853525372351 0.002271834484575249 -0.014045371410683993 0.0 0.0
0.0 0.23115203579051807 -0.19822765403278692 0.19531542539640914 0.0029122286363777185 -0.057339394565573416 0.0 0.0
0.0 0.23115203579050383 -0.19822765403277331 0.19531542539639643 0.002912228636376672 0.05733939456558466 0.0 0.0
0.0 0.23882161568093987 -0.20715718702176605 0.20488535253719323 0.0022718344845725847 0.014045371410706097 0.0 0.0
0.0 0.22843436636926237 -0.1983650774814506 0.19634029064410832 0.0020247868373421537 0.00482624000987677 0.0 0.0
0.0 0.20929571462632934 -0.1817421438951096 0.17987357103815588 0.0018685728569537569 0.005726557712405865 0.0 0.0
0.0 0.18565476343623802 -0.16123873951086132 0.15950843741489093 0.001730302095970186 0.00681947026344841 0.0 0.0
0.0 0.16008827109260837 -0.13908153870388046 0.13748741243448687 0.0015941262693934938 0.006891581111787414 0.0 0.0
0.0 0.1343972323391683 -0.11680393939578718 0.11534147351522755 0.0014624658805595621 0.006345110535739471 0.0 0.0
0.0 0.10974720397413104 -0.09543332113388554 0.09409652614394028 0.0013367949899452107 0.0055474036403035856 0.0 0.0
0.0 0.08692327366224234 -0.07558729061118072 0.07437175844200328 0.0012155321691774198 0.004669644547989581 0.0 0.0
0.0 0.06636378898543702 -0.05764030525034294 0.05654408050976277 0.0010962247405801426 0.003770944368546874 0.0 0.0
0.0 0.04809784838805256 -0.04188420210260419 0.040905482433889064 0.0009787196687151476 0.0028519265316636804 0.0 0.0
0.0 0.03272546498564999 -0.028590627906928442 0.027725229830582933 0.0008653980763455031 0.0019670130080243825 0.0 0.0
0.0 0.020481419887689 -0.017984231918331307 0.017224602441319466 0.0007596294770118328 0.0012339901029077781 0.0 0.0
0.0 0.0114155329901607 -0.010120849470694976 0.009468377888472334 0.000652471582222643 0.0007211779525731587 0.0 0.0
0.0 0.00531227600688976 -0.004780860432839827 0.00427911269253629 0.0005017477403035351 0.0003928660879910569 0.0 0.0
0.0 0.0019126919016903654 -0.0015508807044148699 0.001305552140211142 0.0002453285642037291 0.00019349038800079942 0.0 0.0
0.0 0.00018614610711642705 -0.00015953538122420388 0.00012737820231826646 3.2157178905937344e-05 3.8765788713705456e-05 0.0 0.0
0.0 0.0 0.0 0.0 0.0 0.0 0.0 0.0
0.0 0.0 0.0 0.0 0.0 0.0 0.0 0.0
0.0 0.0 0.0 0.0 0.0 0.0 0.0 0.0