# vtk DataFile Version 3.0
Some data
ASCII
DATASET UNSTRUCTURED_GRID
POINTS 861 float
0.0 0.0 0.0
0.4 0.0 0.0
0.8 0.0 0.0
1.2000000000000002 0.0 0.0
1.6 0.0 0.0
2.0 0.0 0.0
2.4000000000000004 0.0 0.0
2.8000000000000003 0.0 0.0
3.2 0.0 0.0
3.6 0.0 0.0
4.0 0.0 0.0
4.4 0.0 0.0
4.800000000000001 0.0 0.0
5.2 0.0 0.0
5.6000000000000005 0.0 0.0
6.0 0.0 0.0
6.4 0.0 0.0
6.800000000000001 0.0 0.0
7.2 0.0 0.0
7.6000000000000005 0.0 0.0
8.0 0.0 0.0
8.4 0.0 0.0
8.8 0.0 0.0
9.200000000000001 0.0 0.0
9.600000000000001 0.0 0.0
10.0 0.0 0.0
10.4 0.0 0.0
10.8 0.0 0.0
11.200000000000001 0.0 0.0
11.600000000000001 0.0 0.0
12.0 0.0 0.0
12.4 0.0 0.0
12.8 0.0 0.0
13.200000000000001 0.0 0.0
13.600000000000001 0.0 0.0
14.0 0.0 0.0
14.4 0.0 0.0
14.8 0.0 0.0
15.200000000000001 0.0 0.0
15.600000000000001 0.0 0.0
16.0 0.0 0.0
0.0 0.1 0.0
0.4 0.1 0.0
0.8 0.1 0.0
1.2000000000000002 0.1 0.0
1.6 0.1 0.0
2.0 0.1 0.0
2.4000000000000004 0.1 0.0
2.8000000000000003 0.1 0.0
3.2 0.1 0.0
3.6 0.1 0.0
4.0 0.1 0.0
4.4 0.1 0.0
4.800000000000001 0.1 0.0
5.2 0.1 0.0
5.6000000000000005 0.1 0.0
6.0 0.1 0.0
6.4 0.1 0.0
6.800000000000001 0.1 0.0
7.2 0.1 0.0
7.6000000000000005 0.1 0.0
8.0 0.1 0.0
8.4 0.1 0.0
8.8 0.1 0.0
9.200000000000001 0.1 0.0
9.600000000000001 0.1 0.0
10.0 0.1 0.0
10.4 0.1 0.0
10.8 0.1 0.0
11.200000000000001 0.1 0.0
11.600000000000001 0.1 0.0
12.0 0.1 0.0
12.4 0.1 0.0
12.8 0.1 0.0
13.200000000000001 0.1 0.0
13.600000000000001 0.1 0.0
14.0 0.1 0.0
14.4 0.1 0.0
14.8 0.1 0.0
15.200000000000001 0.1 0.0
15.600000000000001 0.1 0.0
16.0 0.1 0.0
0.0 0.2 0.0
0.4 0.2 0.0
0.8 0.2 0.0
1.2000000000000002 0.2 0.0
1.6 0.2 0.0
2.0 0.2 0.0
2.4000000000000004 0.2 0.0
2.8000000000000003 0.2 0.0
3.2 0.2 0.0
3.6 0.2 0.0
4.0 0.2 0.0
4.4 0.2 0.0
4.800000000000001 0.2 0.0
5.2 0.2 0.0
5.6000000000000005 0.2 0.0
6.0 0.2 0.0
6.4 0.2 0.0
6.800000000000001 0.2 0.0
7.2 0.2 0.0
7.6000000000000005 0.2 0.0
8.0 0.2 0.0
8.4 0.2 0.0
8.8 0.2 0.0
9.200000000000001 0.2 0.0
9.600000000000001 0.2 0.0
10.0 0.2 0.0
10.4 0.2 0.0
10.8 0.2 0.0
11.200000000000001 0.2 0.0
11.600000000000001 0.2 0.0
12.0 0.2 0.0
12.4 0.2 0.0
12.8 0.2 0.0
13.200000000000001 0.2 0.0
13.600000000000001 0.2 0.0
14.0 0.2 0.0
14.4 0.2 0.0
14.8 0.2 0.0
15.200000000000001 0.2 0.0
15.600000000000001 0.2 0.0
16.0 0.2 0.0
0.0 0.30000000000000004 0.0
0.4 0.30000000000000004 0.0
0.8 0.30000000000000004 0.0
1.2000000000000002 0.30000000000000004 0.0
1.6 0.30000000000000004 0.0
2.0 0.30000000000000004 0.0
2.4000000000000004 0.30000000000000004 0.0
2.8000000000000003 0.30000000000000004 0.0
3.2 0.30000000000000004 0.0
3.6 0.30000000000000004 0.0
4.0 0.30000000000000004 0.0
4.4 0.30000000000000004 0.0
4.800000000000001 0.30000000000000004 0.0
5.2 0.30000000000000004 0.0
5.6000000000000005 0.30000000000000004 0.0
6.0 0.30000000000000004 0.0
6.4 0.30000000000000004 0.0
6.800000000000001 0.30000000000000004 0.0
7.2 0.30000000000000004 0.0
7.6000000000000005 0.30000000000000004 0.0
8.0 0.30000000000000004 0.0
8.4 0.30000000000000004 0.0
8.8 0.30000000000000004 0.0
9.200000000000001 0.30000000000000004 0.0
9.600000000000001 0.30000000000000004 0.0
10.0 0.30000000000000004 0.0
10.4 0.30000000000000004 0.0
10.8 0.30000000000000004 0.0
11.200000000000001 0.30000000000000004 0.0
11.600000000000001 0.30000000000000004 0.0
12.0 0.30000000000000004 0.0
12.4 0.30000000000000004 0.0
12.8 0.30000000000000004 0.0
13.200000000000001 0.30000000000000004 0.0
13.600000000000001 0.30000000000000004 0.0
14.0 0.30000000000000004 0.0
14.4 0.30000000000000004 0.0
14.8 0.30000000000000004 0.0
15.200000000000001 0.30000000000000004 0.0
15.600000000000001 0.30000000000000004 0.0
16.0 0.30000000000000004 0.0
0.0 0.4 0.0
0.4 0.4 0.0
0.8 0.4 0.0
1.2000000000000002 0.4 0.0
1.6 0.4 0.0
2.0 0.4 0.0
2.4000000000000004 0.4 0.0
2.8000000000000003 0.4 0.0
3.2 0.4 0.0
3.6 0.4 0.0
4.0 0.4 0.0
4.4 0.4 0.0
4.800000000000001 0.4 0.0
5.2 0.4 0.0
5.6000000000000005 0.4 0.0
6.0 0.4 0.0
6.4 0.4 0.0
6.800000000000001 0.4 0.0
7.2 0.4 0.0
7.6000000000000005 0.4 0.0
8.0 0.4 0.0
8.4 0.4 0.0
8.8 0.4 0.0
9.200000000000001 0.4 0.0
9.600000000000001 0.4 0.0
10.0 0.4 0.0
10.4 0.4 0.0
10.8 0.4 0.0
11.200000000000001 0.4 0.0
11.600000000000001 0.4 0.0
12.0 0.4 0.0
12.4 0.4 0.0
12.8 0.4 0.0
13.200000000000001 0.4 0.0
13.600000000000001 0.4 0.0
14.0 0.4 0.0
14.4 0.4 0.0
14.8 0.4 0.0
15.200000000000001 0.4 0.0
15.600000000000001 0.4 0.0
16.0 0.4 0.0
0.0 0.5 0.0
0.4 0.5 0.0
0.8 0.5 0.0
1.2000000000000002 0.5 0.0
1.6 0.5 0.0
2.0 0.5 0.0
2.4000000000000004 0.5 0.0
2.8000000000000003 0.5 0.0
3.2 0.5 0.0
3.6 0.5 0.0
4.0 0.5 0.0
4.4 0.5 0.0
4.800000000000001 0.5 0.0
5.2 0.5 0.0
5.6000000000000005 0.5 0.0
6.0 0.5 0.0
6.4 0.5 0.0
6.800000000000001 0.5 0.0
7.2 0.5 0.0
7.6000000000000005 0.5 0.0
8.0 0.5 0.0
8.4 0.5 0.0
8.8 0.5 0.0
9.200000000000001 0.5 0.0
9.600000000000001 0.5 0.0
10.0 0.5 0.0
10.4 0.5 0.0
10.8 0.5 0.0
11.200000000000001 0.5 0.0
11.600000000000001 0.5 0.0
12.0 0.5 0.0
12.4 0.5 0.0
12.8 0.5 0.0
13.200000000000001 0.5 0.0
13.600000000000001 0.5 0.0
14.0 0.5 0.0
14.4 0.5 0.0
14.8 0.5 0.0
15.200000000000001 0.5 0.0
15.600000000000001 0.5 0.0
16.0 0.5 0.0
0.0 0.6000000000000001 0.0
0.4 0.6000000000000001 0.0
0.8 0.6000000000000001 0.0
1.2000000000000002 0.6000000000000001 0.0
1.6 0.6000000000000001 0.0
2.0 0.6000000000000001 0.0
2.4000000000000004 0.6000000000000001 0.0
2.8000000000000003 0.6000000000000001 0.0
3.2 0.6000000000000001 0.0
3.6 0.6000000000000001 0.0
4.0 0.6000000000000001 0.0
4.4 0.6000000000000001 0.0
4.800000000000001 0.6000000000000001 0.0
5.2 0.6000000000000001 0.0
5.6000000000000005 0.6000000000000001 0.0
6.0 0.6000000000000001 0.0
6.4 0.6000000000000001 0.0
6.800000000000001 0.6000000000000001 0.0
7.2 0.6000000000000001 0.0
7.6000000000000005 0.6000000000000001 0.0
8.0 0.6000000000000001 0.0
8.4 0.6000000000000001 0.0
8.8 0.6000000000000001 0.0
9.200000000000001 0.6000000000000001 0.0
9.600000000000001 0.6000000000000001 0.0
10.0 0.6000000000000001 0.0
10.4 0.6000000000000001 0.0
10.8 0.6000000000000001 0.0
11.200000000000001 0.6000000000000001 0.0
11.600000000000001 0.6000000000000001 0.0
12.0 0.6000000000000001 0.0
12.4 0.6000000000000001 0.0
12.8 0.6000000000000001 0.0
13.200000000000001 0.6000000000000001 0.0
13.600000000000001 0.6000000000000001 0.0
14.0 0.6000000000000001 0.0
14.4 0.6000000000000001 0.0
14.8 0.6000000000000001 0.0
15.200000000000001 0.6000000000000001 0.0
15.600000000000001 0.6000000000000001 0.0
16.0 0.6000000000000001 0.0
0.0 0.7000000000000001 0.0
0.4 0.7000000000000001 0.0
0.8 0.7000000000000001 0.0
1.2000000000000002 0.7000000000000001 0.0
1.6 0.7000000000000001 0.0
2.0 0.7000000000000001 0.0
2.4000000000000004 0.7000000000000001 0.0
2.8000000000000003 0.7000000000000001 0.0
3.2 0.7000000000000001 0.0
3.6 0.7000000000000001 0.0
4.0 0.7000000000000001 0.0
4.4 0.7000000000000001 0.0
4.800000000000001 0.7000000000000001 0.0
5.2 0.7000000000000001 0.0
5.6000000000000005 0.7000000000000001 0.0
6.0 0.7000000000000001 0.0
6.4 0.7000000000000001 0.0
6.800000000000001 0.7000000000000001 0.0
7.2 0.7000000000000001 0.0
7.6000000000000005 0.7000000000000001 0.0
8.0 0.7000000000000001 0.0
8.4 0.7000000000000001 0.0
8.8 0.7000000000000001 0.0
9.200000000000001 0.7000000000000001 0.0
9.600000000000001 0.7000000000000001 0.0
10.0 0.7000000000000001 0.0
10.4 0.7000000000000001 0.0
10.8 0.7000000000000001 0.0
11.200000000000001 0.7000000000000001 0.0
11.600000000000001 0.7000000000000001 0.0
12.0 0.7000000000000001 0.0
12.4 0.7000000000000001 0.0
12.8 0.7000000000000001 0.0
13.200000000000001 0.7000000000000001 0.0
13.600000000000001 0.7000000000000001 0.0
14.0 0.7000000000000001 0.0
14.4 0.7000000000000001 0.0
14.8 0.7000000000000001 0.0
15.200000000000001 0.7000000000000001 0.0
15.600000000000001 0.7000000000000001 0.0
16.0 0.7000000000000001 0.0
0.0 0.8 0.0
0.4 0.8 0.0
0.8 0.8 0.0
1.2000000000000002 0.8 0.0
1.6 0.8 0.0
2.0 0.8 0.0
2.4000000000000004 0.8 0.0
2.8000000000000003 0.8 0.0
3.2 0.8 0.0
3.6 0.8 0.0
4.0 0.8 0.0
4.4 0.8 0.0
4.800000000000001 0.8 0.0
5.2 0.8 0.0
5.6000000000000005 0.8 0.0
6.0 0.8 0.0
6.4 0.8 0.0
6.800000000000001 0.8 0.0
7.2 0.8 0.0
7.6000000000000005 0.8 0.0
8.0 0.8 0.0
8.4 0.8 0.0
8.8 0.8 0.0
9.200000000000001 0.8 0.0
9.600000000000001 0.8 0.0
10.0 0.8 0.0
10.4 0.8 0.0
10.8 0.8 0.0
11.200000000000001 0.8 0.0
11.600000000000001 0.8 0.0
12.0 0.8 0.0
12.4 0.8 0.0
12.8 0.8 0.0
13.200000000000001 0.8 0.0
13.600000000000001 0.8 0.0
14.0 0.8 0.0
14.4 0.8 0.0
14.8 0.8 0.0
15.200000000000001 0.8 0.0
15.600000000000001 0.8 0.0
16.0 0.8 0.0
0.0 0.9 0.0
0.4 0.9 0.0
0.8 0.9 0.0
1.2000000000000002 0.9 0.0
1.6 0.9 0.0
2.0 0.9 0.0
2.4000000000000004 0.9 0.0
2.8000000000000003 0.9 0.0
3.2 0.9 0.0
3.6 0.9 0.0
4.0 0.9 0.0
4.4 0.9 0.0
4.800000000000001 0.9 0.0
5.2 0.9 0.0
5.6000000000000005 0.9 0.0
6.0 0.9 0.0
6.4 0.9 0.0
6.800000000000001 0.9 0.0
7.2 0.9 0.0
7.6000000000000005 0.9 0.0
8.0 0.9 0.0
8.4 0.9 0.0
8.8 0.9 0.0
9.200000000000001 0.9 0.0
9.600000000000001 0.9 0.0
10.0 0.9 0.0
10.4 0.9 0.0
10.8 0.9 0.0
11.200000000000001 0.9 0.0
11.600000000000001 0.9 0.0
12.0 0.9 0.0
12.4 0.9 0.0
12.8 0.9 0.0
13.200000000000001 0.9 0.0
13.600000000000001 0.9 0.0
14.0 0.9 0.0
14.4 0.9 0.0
14.8 0.9 0.0
15.200000000000001 0.9 0.0
15.600000000000001 0.9 0.0
16.0 0.9 0.0
0.0 1.0 0.0
0.4 1.0 0.0
0.8 1.0 0.0
1.2000000000000002 1.0 0.0
1.6 1.0 0.0
2.0 1.0 0.0
2.4000000000000004 1.0 0.0
2.8000000000000003 1.0 0.0
3.2 1.0 0.0
3.6 1.0 0.0
4.0 1.0 0.0
4.4 1.0 0.0
4.800000000000001 1.0 0.0
5.2 1.0 0.0
5.6000000000000005 1.0 0.0
6.0 1.0 0.0
6.4 1.0 0.0
6.800000000000001 1.0 0.0
7.2 1.0 0.0
7.6000000000000005 1.0 0.0
8.0 1.0 0.0
8.4 1.0 0.0
8.8 1.0 0.0
9.200000000000001 1.0 0.0
9.600000000000001 1.0 0.0
10.0 1.0 0.0
10.4 1.0 0.0
10.8 1.0 0.0
11.200000000000001 1.0 0.0
11.600000000000001 1.0 0.0
12.0 1.0 0.0
12.4 1.0 0.0
12.8 1.0 0.0
13.200000000000001 1.0 0.0
13.600000000000001 1.0 0.0
14.0 1.0 0.0
14.4 1.0 0.0
14.8 1.0 0.0
15.200000000000001 1.0 0.0
15.600000000000001 1.0 0.0
16.0 1.0 0.0
0.0 1.1 0.0
0.4 1.1 0.0
0.8 1.1 0.0
1.2000000000000002 1.1 0.0
1.6 1.1 0.0
2.0 1.1 0.0
2.4000000000000004 1.1 0.0
2.8000000000000003 1.1 0.0
3.2 1.1 0.0
3.6 1.1 0.0
4.0 1.1 0.0
4.4 1.1 0.0
4.800000000000001 1.1 0.0
5.2 1.1 0.0
5.6000000000000005 1.1 0.0
6.0 1.1 0.0
6.4 1.1 0.0
6.800000000000001 1.1 0.0
7.2 1.1 0.0
7.6000000000000005 1.1 0.0
8.0 1.1 0.0
8.4 1.1 0.0
8.8 1.1 0.0
9.200000000000001 1.1 0.0
9.600000000000001 1.1 0.0
10.0 1.1 0.0
10.4 1.1 0.0
10.8 1.1 0.0
11.200000000000001 1.1 0.0
11.600000000000001 1.1 0.0
12.0 1.1 0.0
12.4 1.1 0.0
12.8 1.1 0.0
13.200000000000001 1.1 0.0
13.600000000000001 1.1 0.0
14.0 1.1 0.0
14.4 1.1 0.0
14.8 1.1 0.0
15.200000000000001 1.1 0.0
15.600000000000001 1.1 0.0
16.0 1.1 0.0
0.0 1.2000000000000002 0.0
0.4 1.2000000000000002 0.0
0.8 1.2000000000000002 0.0
1.2000000000000002 1.2000000000000002 0.0
1.6 1.2000000000000002 0.0
2.0 1.2000000000000002 0.0
2.4000000000000004 1.2000000000000002 0.0
2.8000000000000003 1.2000000000000002 0.0
3.2 1.2000000000000002 0.0
3.6 1.2000000000000002 0.0
4.0 1.2000000000000002 0.0
4.4 1.2000000000000002 0.0
4.800000000000001 1.2000000000000002 0.0
5.2 1.2000000000000002 0.0
5.6000000000000005 1.2000000000000002 0.0
6.0 1.2000000000000002 0.0
6.4 1.2000000000000002 0.0
6.800000000000001 1.2000000000000002 0.0
7.2 1.2000000000000002 0.0
7.6000000000000005 1.2000000000000002 0.0
8.0 1.2000000000000002 0.0
8.4 1.2000000000000002 0.0
8.8 1.2000000000000002 0.0
9.200000000000001 1.2000000000000002 0.0
9.600000000000001 1.2000000000000002 0.0
10.0 1.2000000000000002 0.0
10.4 1.2000000000000002 0.0
10.8 1.2000000000000002 0.0
11.200000000000001 1.2000000000000002 0.0
11.600000000000001 1.2000000000000002 0.0
12.0 1.2000000000000002 0.0
12.4 1.2000000000000002 0.0
12.8 1.2000000000000002 0.0
13.200000000000001 1.2000000000000002 0.0
13.600000000000001 1.2000000000000002 0.0
14.0 1.2000000000000002 0.0
14.4 1.2000000000000002 0.0
14.8 1.2000000000000002 0.0
15.200000000000001 1.2000000000000002 0.0
15.600000000000001 1.2000000000000002 0.0
16.0 1.2000000000000002 0.0
0.0 1.3 0.0
0.4 1.3 0.0
0.8 1.3 0.0
1.2000000000000002 1.3 0.0
1.6 1.3 0.0
2.0 1.3 0.0
2.4000000000000004 1.3 0.0
2.8000000000000003 1.3 0.0
3.2 1.3 0.0
3.6 1.3 0.0
4.0 1.3 0.0
4.4 1.3 0.0
4.800000000000001 1.3 0.0
5.2 1.3 0.0
5.6000000000000005 1.3 0.0
6.0 1.3 0.0
6.4 1.3 0.0
6.800000000000001 1.3 0.0
7.2 1.3 0.0
7.6000000000000005 1.3 0.0
8.0 1.3 0.0
8.4 1.3 0.0
8.8 1.3 0.0
9.200000000000001 1.3 0.0
9.600000000000001 1.3 0.0
10.0 1.3 0.0
10.4 1.3 0.0
10.8 1.3 0.0
11.200000000000001 1.3 0.0
11.600000000000001 1.3 0.0
12.0 1.3 0.0
12.4 1.3 0.0
12.8 1.3 0.0
13.200000000000001 1.3 0.0
13.600000000000001 1.3 0.0
14.0 1.3 0.0
14.4 1.3 0.0
14.8 1.3 0.0
15.200000000000001 1.3 0.0
15.600000000000001 1.3 0.0
16.0 1.3 0.0
0.0 1.4000000000000001 0.0
0.4 1.4000000000000001 0.0
0.8 1.4000000000000001 0.0
1.2000000000000002 1.4000000000000001 0.0
1.6 1.4000000000000001 0.0
2.0 1.4000000000000001 0.0
2.4000000000000004 1.4000000000000001 0.0
2.8000000000000003 1.4000000000000001 0.0
3.2 1.4000000000000001 0.0
3.6 1.4000000000000001 0.0
4.0 1.4000000000000001 0.0
4.4 1.4000000000000001 0.0
4.800000000000001 1.4000000000000001 0.0
5.2 1.4000000000000001 0.0
5.6000000000000005 1.4000000000000001 0.0
6.0 1.4000000000000001 0.0
6.4 1.4000000000000001 0.0
6.800000000000001 1.4000000000000001 0.0
7.2 1.4000000000000001 0.0
7.6000000000000005 1.4000000000000001 0.0
8.0 1.4000000000000001 0.0
8.4 1.4000000000000001 0.0
8.8 1.4000000000000001 0.0
9.200000000000001 1.4000000000000001 0.0
9.600000000000001 1.4000000000000001 0.0
10.0 1.4000000000000001 0.0
10.4 1.4000000000000001 0.0
10.8 1.4000000000000001 0.0
11.200000000000001 1.4000000000000001 0.0
11.600000000000001 1.4000000000000001 0.0
12.0 1.4000000000000001 0.0
12.4 1.4000000000000001 0.0
12.8 1.4000000000000001 0.0
13.200000000000001 1.4000000000000001 0.0
13.600000000000001 1.4000000000000001 0.0
14.0 1.4000000000000001 0.0
14.4 1.4000000000000001 0.0
14.8 1.4000000000000001 0.0
15.200000000000001 1.4000000000000001 0.0
15.600000000000001 1.4000000000000001 0.0
16.0 1.4000000000000001 0.0
0.0 1.5 0.0
0.4 1.5 0.0
0.8 1.5 0.0
1.2000000000000002 1.5 0.0
1.6 1.5 0.0
2.0 1.5 0.0
2.4000000000000004 1.5 0.0
2.8000000000000003 1.5 0.0
3.2 1.5 0.0
3.6 1.5 0.0
4.0 1.5 0.0
4.4 1.5 0.0
4.800000000000001 1.5 0.0
5.2 1.5 0.0
5.6000000000000005 1.5 0.0
6.0 1.5 0.0
6.4 1.5 0.0
6.800000000000001 1.5 0.0
7.2 1.5 0.0
7.6000000000000005 1.5 0.0
8.0 1.5 0.0
8.4 1.5 0.0
8.8 1.5 0.0
9.200000000000001 1.5 0.0
9.600000000000001 1.5 0.0
10.0 1.5 0.0
10.4 1.5 0.0
10.8 1.5 0.0
11.200000000000001 1.5 0.0
11.600000000000001 1.5 0.0
12.0 1.5 0.0
12.4 1.5 0.0
12.8 1.5 0.0
13.200000000000001 1.5 0.0
13.600000000000001 1.5 0.0
14.0 1.5 0.0
14.4 1.5 0.0
14.8 1.5 0.0
15.200000000000001 1.5 0.0
15.600000000000001 1.5 0.0
16.0 1.5 0.0
0.0 1.6 0.0
0.4 1.6 0.0
0.8 1.6 0.0
1.2000000000000002 1.6 0.0
1.6 1.6 0.0
2.0 1.6 0.0
2.4000000000000004 1.6 0.0
2.8000000000000003 1.6 0.0
3.2 1.6 0.0
3.6 1.6 0.0
4.0 1.6 0.0
4.4 1.6 0.0
4.800000000000001 1.6 0.0
5.2 1.6 0.0
5.6000000000000005 1.6 0.0
6.0 1.6 0.0
6.4 1.6 0.0
6.800000000000001 1.6 0.0
7.2 1.6 0.0
7.6000000000000005 1.6 0.0
8.0 1.6 0.0
8.4 1.6 0.0
8.8 1.6 0.0
9.200000000000001 1.6 0.0
9.600000000000001 1.6 0.0
10.0 1.6 0.0
10.4 1.6 0.0
10.8 1.6 0.0
11.200000000000001 1.6 0.0
11.600000000000001 1.6 0.0
12.0 1.6 0.0
12.4 1.6 0.0
12.8 1.6 0.0
13.200000000000001 1.6 0.0
13.600000000000001 1.6 0.0
14.0 1.6 0.0
14.4 1.6 0.0
14.8 1.6 0.0
15.200000000000001 1.6 0.0
15.600000000000001 1.6 0.0
16.0 1.6 0.0
0.0 1.7000000000000002 0.0
0.4 1.7000000000000002 0.0
0.8 1.7000000000000002 0.0
1.2000000000000002 1.7000000000000002 0.0
1.6 1.7000000000000002 0.0
2.0 1.7000000000000002 0.0
2.4000000000000004 1.7000000000000002 0.0
2.8000000000000003 1.7000000000000002 0.0
3.2 1.7000000000000002 0.0
3.6 1.7000000000000002 0.0
4.0 1.7000000000000002 0.0
4.4 1.7000000000000002 0.0
4.800000000000001 1.7000000000000002 0.0
5.2 1.7000000000000002 0.0
5.6000000000000005 1.7000000000000002 0.0
6.0 1.7000000000000002 0.0
6.4 1.7000000000000002 0.0
6.800000000000001 1.7000000000000002 0.0
7.2 1.7000000000000002 0.0
7.6000000000000005 1.7000000000000002 0.0
8.0 1.7000000000000002 0.0
8.4 1.7000000000000002 0.0
8.8 1.7000000000000002 0.0
9.200000000000001 1.7000000000000002 0.0
9.600000000000001 1.7000000000000002 0.0
10.0 1.7000000000000002 0.0
10.4 1.7000000000000002 0.0
10.8 1.7000000000000002 0.0
11.200000000000001 1.7000000000000002 0.0
11.600000000000001 1.7000000000000002 0.0
12.0 1.7000000000000002 0.0
12.4 1.7000000000000002 0.0
12.8 1.7000000000000002 0.0
13.200000000000001 1.7000000000000002 0.0
13.600000000000001 1.7000000000000002 0.0
14.0 1.7000000000000002 0.0
14.4 1.7000000000000002 0.0
14.8 1.7000000000000002 0.0
15.200000000000001 1.7000000000000002 0.0
15.600000000000001 1.7000000000000002 0.0
16.0 1.7000000000000002 0.0
0.0 1.8 0.0
0.4 1.8 0.0
0.8 1.8 0.0
1.2000000000000002 1.8 0.0
1.6 1.8 0.0
2.0 1.8 0.0
2.4000000000000004 1.8 0.0
2.8000000000000003 1.8 0.0
3.2 1.8 0.0
3.6 1.8 0.0
4.0 1.8 0.0
4.4 1.8 0.0
4.800000000000001 1.8 0.0
5.2 1.8 0.0
5.6000000000000005 1.8 0.0
6.0 1.8 0.0
6.4 1.8 0.0
6.800000000000001 1.8 0.0
7.2 1.8 0.0
7.6000000000000005 1.8 0.0
8.0 1.8 0.0
8.4 1.8 0.0
8.8 1.8 0.0
9.200000000000001 1.8 0.0
9.600000000000001 1.8 0.0
10.0 1.8 0.0
10.4 1.8 0.0
10.8 1.8 0.0
11.200000000000001 1.8 0.0
11.600000000000001 1.8 0.0
12.0 1.8 0.0
12.4 1.8 0.0
12.8 1.8 0.0
13.200000000000001 1.8 0.0
13.600000000000001 1.8 0.0
14.0 1.8 0.0
14.4 1.8 0.0
14.8 1.8 0.0
15.200000000000001 1.8 0.0
15.600000000000001 1.8 0.0
16.0 1.8 0.0
0.0 1.9000000000000001 0.0
0.4 1.9000000000000001 0.0
0.8 1.9000000000000001 0.0
1.2000000000000002 1.9000000000000001 0.0
1.6 1.9000000000000001 0.0
2.0 1.9000000000000001 0.0
2.4000000000000004 1.9000000000000001 0.0
2.8000000000000003 1.9000000000000001 0.0
3.2 1.9000000000000001 0.0
3.6 1.9000000000000001 0.0
4.0 1.9000000000000001 0.0
4.4 1.9000000000000001 0.0
4.800000000000001 1.9000000000000001 0.0
5.2 1.9000000000000001 0.0
5.6000000000000005 1.9000000000000001 0.0
6.0 1.9000000000000001 0.0
6.4 1.9000000000000001 0.0
6.800000000000001 1.9000000000000001 0.0
7.2 1.9000000000000001 0.0
7.6000000000000005 1.9000000000000001 0.0
8.0 1.9000000000000001 0.0
8.4 1.9000000000000001 0.0
8.8 1.9000000000000001 0.0
9.200000000000001 1.9000000000000001 0.0
9.600000000000001 1.9000000000000001 0.0
10.0 1.9000000000000001 0.0
10.4 1.9000000000000001 0.0
10.8 1.9000000000000001 0.0
11.200000000000001 1.9000000000000001 0.0
11.600000000000001 1.9000000000000001 0.0
12.0 1.9000000000000001 0.0
12.4 1.9000000000000001 0.0
12.8 1.9000000000000001 0.0
13.200000000000001 1.9000000000000001 0.0
13.600000000000001 1.9000000000000001 0.0
14.0 1.9000000000000001 0.0
14.4 1.9000000000000001 0.0
14.8 1.9000000000000001 0.0
15.200000000000001 1.9000000000000001 0.0
15.600000000000001 1.9000000000000001 0.0
16.0 1.9000000000000001 0.0
0.0 2.0 0.0
0.4 2.0 0.0
0.8 2.0 0.0
1.2000000000000002 2.0 0.0
1.6 2.0 0.0
2.0 2.0 0.0
2.4000000000000004 2.0 0.0
2.8000000000000003 2.0 0.0
3.2 2.0 0.0
3.6 2.0 0.0
4.0 2.0 0.0
4.4 2.0 0.0
4.800000000000001 2.0 0.0
5.2 2.0 0.0
5.6000000000000005 2.0 0.0
6.0 2.0 0.0
6.4 2.0 0.0
6.800000000000001 2.0 0.0
7.2 2.0 0.0
7.6000000000000005 2.0 0.0
8.0 2.0 0.0
8.4 2.0 0.0
8.8 2.0 0.0
9.200000000000001 2.0 0.0
9.600000000000001 2.0 0.0
10.0 2.0 0.0
10.4 2.0 0.0
10.8 2.0 0.0
11.200000000000001 2.0 0.0
11.600000000000001 2.0 0.0
12.0 2.0 0.0
12.4 2.0 0.0
12.8 2.0 0.0
13.200000000000001 2.0 0.0
13.600000000000001 2.0 0.0
14.0 2.0 0.0
14.4 2.0 0.0
14.8 2.0 0.0
15.200000000000001 2.0 0.0
15.600000000000001 2.0 0.0
16.0 2.0 0.0
CELLS 800 4000
4 0 1 42 41
4 1 2 43 42
4 2 3 44 43
4 3 4 45 44
4 4 5 46 45
4 5 6 47 46
4 6 7 48 47
4 7 8 49 48
4 8 9 50 49
4 9 10 51 50
4 10 11 52 51
4 11 12 53 52
4 12 13 54 53
4 13 14 55 54
4 14 15 56 55
4 15 16 57 56
4 16 17 58 57
4 17 18 59 58
4 18 19 60 59
4 19 20 61 60
4 20 21 62 61
4 21 22 63 62
4 22 23 64 63
4 23 24 65 64
4 24 25 66 65
4 25 26 67 66
4 26 27 68 67
4 27 28 69 68
4 28 29 70 69
4 29 30 71 70
4 30 31 72 71
4 31 32 73 72
4 32 33 74 73
4 33 34 75 74
4 34 35 76 75
4 35 36 77 76
4 36 37 78 77
4 37 38 79 78
4 38 39 80 79
4 39 40 81 80
4 41 42 83 82
4 42 43 84 83
4 43 44 85 84
4 44 45 86 85
4 45 46 87 86
4 46 47 88 87
4 47 48 89 88
4 48 49 90 89
4 49 50 91 90
4 50 51 92 91
4 51 52 93 92
4 52 53 94 93
4 53 54 95 94
4 54 55 96 95
4 55 56 97 96
4 56 57 98 97
4 57 58 99 98
4 58 59 100 99
4 59 60 101 100
4 60 61 102 101
4 61 62 103 102
4 62 63 104 103
4 63 64 105 104
4 64 65 106 105
4 65 66 107 106
4 66 67 108 107
4 67 68 109 108
4 68 69 110 109
4 69 70 111 110
4 70 71 112 111
4 71 72 113 112
4 72 73 114 113
4 73 74 115 114
4 74 75 116 115
4 75 76 117 116
4 76 77 118 117
4 77 78 119 118
4 78 79 120 119
4 79 80 121 120
4 80 81 122 121
4 82 83 124 123
4 83 84 125 124
4 84 85 126 125
4 85 86 127 126
4 86 87 128 127
4 87 88 129 128
4 88 89 130 129
4 89 90 131 130
4 90 91 132 131
4 91 92 133 132
4 92 93 134 133
4 93 94 135 134
4 94 95 136 135
4 95 96 137 136
4 96 97 138 137
4 97 98 139 138
4 98 99 140 139
4 99 100 141 140
4 100 101 142 141
4 101 102 143 142
4 102 103 144 143
4 103 104 145 144
4 104 105 146 145
4 105 106 147 146
4 106 107 148 147
4 107 108 149 148
4 108 109 150 149
4 109 110 151 150
4 110 111 152 151
4 111 112 153 152
4 112 113 154 153
4 113 114 155 154
4 114 115 156 155
4 115 116 157 156
4 116 117 158 157
4 117 118 159 158
4 118 119 160 159
4 119 120 161 160
4 120 121 162 161
4 121 122 163 162
4 123 124 165 164
4 124 125 166 165
4 125 126 167 166
4 126 127 168 167
4 127 128 169 168
4 128 129 170 169
4 129 130 171 170
4 130 131 172 171
4 131 132 173 172
4 132 133 174 173
4 133 134 175 174
4 134 135 176 175
4 135 136 177 176
4 136 137 178 177
4 137 138 179 178
4 138 139 180 179
4 139 140 181 180
4 140 141 182 181
4 141 142 183 182
4 142 143 184 183
4 143 144 185 184
4 144 145 186 185
4 145 146 187 186
4 146 147 188 187
4 147 148 189 188
4 148 149 190 189
4 149 150 191 190
4 150 151 192 191
4 151 152 193 192
4 152 153 194 193
4 153 154 195 194
4 154 155 196 195
4 155 156 197 196
4 156 157 198 197
4 157 158 199 198
4 158 159 200 199
4 159 160 201 200
4 160 161 202 201
4 161 162 203 202
4 162 163 204 203
4 164 165 206 205
4 165 166 207 206
4 166 167 208 207
4 167 168 209 208
4 168 169 210 209
4 169 170 211 210
4 170 171 212 211
4 171 172 213 212
4 172 173 214 213
4 173 174 215 214
4 174 175 216 215
4 175 176 217 216
4 176 177 218 217
4 177 178 219 218
4 178 179 220 219
4 179 180 221 220
4 180 181 222 221
4 181 182 223 222
4 182 183 224 223
4 183 184 225 224
4 184 185 226 225
4 185 186 227 226
4 186 187 228 227
4 187 188 229 228
4 188 189 230 229
4 189 190 231 230
4 190 191 232 231
4 191 192 233 232
4 192 193 234 233
4 193 194 235 234
4 194 195 236 235
4 195 196 237 236
4 196 197 238 237
4 197 198 239 238
4 198 199 240 239
4 199 200 241 240
4 200 201 242 241
4 201 202 243 242
4 202 203 244 243
4 203 204 245 244
4 205 206 247 246
4 206 207 248 247
4 207 208 249 248
4 208 209 250 249
4 209 210 251 250
4 210 211 252 251
4 211 212 253 252
4 212 213 254 253
4 213 214 255 254
4 214 215 256 255
4 215 216 257 256
4 216 217 258 257
4 217 218 259 258
4 218 219 260 259
4 219 220 261 260
4 220 221 262 261
4 221 222 263 262
4 222 223 264 263
4 223 224 265 264
4 224 225 266 265
4 225 226 267 266
4 226 227 268 267
4 227 228 269 268
4 228 229 270 269
4 229 230 271 270
4 230 231 272 271
4 231 232 273 272
4 232 233 274 273
4 233 234 275 274
4 234 235 276 275
4 235 236 277 276
4 236 237 278 277
4 237 238 279 278
4 238 239 280 279
4 239 240 281 280
4 240 241 282 281
4 241 242 283 282
4 242 243 284 283
4 243 244 285 284
4 244 245 286 285
4 246 247 288 287
4 247 248 289 288
4 248 249 290 289
4 249 250 291 290
4 250 251 292 291
4 251 252 293 292
4 252 253 294 293
4 253 254 295 294
4 254 255 296 295
4 255 256 297 296
4 256 257 298 297
4 257 258 299 298
4 258 259 300 299
4 259 260 301 300
4 260 261 302 301
4 261 262 303 302
4 262 263 304 303
4 263 264 305 304
4 264 265 306 305
4 265 266 307 306
4 266 267 308 307
4 267 268 309 308
4 268 269 310 309
4 269 270 311 310
4 270 271 312 311
4 271 272 313 312
4 272 273 314 313
4 273 274 315 314
4 274 275 316 315
4 275 276 317 316
4 276 277 318 317
4 277 278 319 318
4 278 279 320 319
4 279 280 321 320
4 280 281 322 321
4 281 282 323 322
4 282 283 324 323
4 283 284 325 324
4 284 285 326 325
4 285 286 327 326
4 287 288 329 328
4 288 289 330 329
4 289 290 331 330
4 290 291 332 331
4 291 292 333 332
4 292 293 334 333
4 293 294 335 334
4 294 295 336 335
4 295 296 337 336
4 296 297 338 337
4 297 298 339 338
4 298 299 340 339
4 299 300 341 340
4 300 301 342 341
4 301 302 343 342
4 302 303 344 343
4 303 304 345 344
4 304 305 346 345
4 305 306 347 346
4 306 307 348 347
4 307 308 349 348
4 308 309 350 349
4 309 310 351 350
4 310 311 352 351
4 311 312 353 352
4 312 313 354 353
4 313 314 355 354
4 314 315 356 355
4 315 316 357 356
4 316 317 358 357
4 317 318 359 358
4 318 319 360 359
4 319 320 361 360
4 320 321 362 361
4 321 322 363 362
4 322 323 364 363
4 323 324 365 364
4 324 325 366 365
4 325 326 367 366
4 326 327 368 367
4 328 329 370 369
4 329 330 371 370
4 330 331 372 371
4 331 332 373 372
4 332 333 374 373
4 333 334 375 374
4 334 335 376 375
4 335 336 377 376
4 336 337 378 377
4 337 338 379 378
4 338 339 380 379
4 339 340 381 380
4 340 341 382 381
4 341 342 383 382
4 342 343 384 383
4 343 344 385 384
4 344 345 386 385
4 345 346 387 386
4 346 347 388 387
4 347 348 389 388
4 348 349 390 389
4 349 350 391 390
4 350 351 392 391
4 351 352 393 392
4 352 353 394 393
4 353 354 395 394
4 354 355 396 395
4 355 356 397 396
4 356 357 398 397
4 357 358 399 398
4 358 359 400 399
4 359 360 401 400
4 360 361 402 401
4 361 362 403 402
4 362 363 404 403
4 363 364 405 404
4 364 365 406 405
4 365 366 407 406
4 366 367 408 407
4 367 368 409 408
4 369 370 411 410
4 370 371 412 411
4 371 372 413 412
4 372 373 414 413
4 373 374 415 414
4 374 375 416 415
4 375 376 417 416
4 376 377 418 417
4 377 378 419 418
4 378 379 420 419
4 379 380 421 420
4 380 381 422 421
4 381 382 423 422
4 382 383 424 423
4 383 384 425 424
4 384 385 426 425
4 385 386 427 426
4 386 387 428 427
4 387 388 429 428
4 388 389 430 429
4 389 390 431 430
4 390 391 432 431
4 391 392 433 432
4 392 393 434 433
4 393 394 435 434
4 394 395 436 435
4 395 396 437 436
4 396 397 438 437
4 397 398 439 438
4 398 399 440 439
4 399 400 441 440
4 400 401 442 441
4 401 402 443 442
4 402 403 444 443
4 403 404 445 444
4 404 405 446 445
4 405 406 447 446
4 406 407 448 447
4 407 408 449 448
4 408 409 450 449
4 410 411 452 451
4 411 412 453 452
4 412 413 454 453
4 413 414 455 454
4 414 415 456 455
4 415 416 457 456
4 416 417 458 457
4 417 418 459 458
4 418 419 460 459
4 419 420 461 460
4 420 421 462 461
4 421 422 463 462
4 422 423 464 463
4 423 424 465 464
4 424 425 466 465
4 425 426 467 466
4 426 427 468 467
4 427 428 469 468
4 428 429 470 469
4 429 430 471 470
4 430 431 472 471
4 431 432 473 472
4 432 433 474 473
4 433 434 475 474
4 434 435 476 475
4 435 436 477 476
4 436 437 478 477
4 437 438 479 478
4 438 439 480 479
4 439 440 481 480
4 440 441 482 481
4 441 442 483 482
4 442 443 484 483
4 443 444 485 484
4 444 445 486 485
4 445 446 487 486
4 446 447 488 487
4 447 448 489 488
4 448 449 490 489
4 449 450 491 490
4 451 452 493 492
4 452 453 494 493
4 453 454 495 494
4 454 455 496 495
4 455 456 497 496
4 456 457 498 497
4 457 458 499 498
4 458 459 500 499
4 459 460 501 500
4 460 461 502 501
4 461 462 503 502
4 462 463 504 503
4 463 464 505 504
4 464 465 506 505
4 465 466 507 506
4 466 467 508 507
4 467 468 509 508
4 468 469 510 509
4 469 470 511 510
4 470 471 512 511
4 471 472 513 512
4 472 473 514 513
4 473 474 515 514
4 474 475 516 515
4 475 476 517 516
4 476 477 518 517
4 477 478 519 518
4 478 479 520 519
4 479 480 521 520
4 480 481 522 521
4 481 482 523 522
4 482 483 524 523
4 483 484 525 524
4 484 485 526 525
4 485 486 527 526
4 486 487 528 527
4 487 488 529 528
4 488 489 530 529
4 489 490 531 530
4 490 491 532 531
4 492 493 534 533
4 493 494 535 534
4 494 495 536 535
4 495 496 537 536
4 496 497 538 537
4 497 498 539 538
4 498 499 540 539
4 499 500 541 540
4 500 501 542 541
4 501 502 543 542
4 502 503 544 543
4 503 504 545 544
4 504 505 546 545
4 505 506 547 546
4 506 507 548 547
4 507 508 549 548
4 508 509 550 549
4 509 510 551 550
4 510 511 552 551
4 511 512 553 552
4 512 513 554 553
4 513 514 555 554
4 514 515 556 555
4 515 516 557 556
4 516 517 558 557
4 517 518 559 558
4 518 519 560 559
4 519 520 561 560
4 520 521 562 561
4 521 522 563 562
4 522 523 564 563
4 523 524 565 564
4 524 525 566 565
4 525 526 567 566
4 526 527 568 567
4 527 528 569 568
4 528 529 570 569
4 529 530 571 570
4 530 531 572 571
4 531 532 573 572
4 533 534 575 574
4 534 535 576 575
4 535 536 577 576
4 536 537 578 577
4 537 538 579 578
4 538 539 580 579
4 539 540 581 580
4 540 541 582 581
4 541 542 583 582
4 542 543 584 583
4 543 544 585 584
4 544 545 586 585
4 545 546 587 586
4 546 547 588 587
4 547 548 589 588
4 548 549 590 589
4 549 550 591 590
4 550 551 592 591
4 551 552 593 592
4 552 553 594 593
4 553 554 595 594
4 554 555 596 595
4 555 556 597 596
4 556 557 598 597
4 557 558 599 598
4 558 559 600 599
4 559 560 601 600
4 560 561 602 601
4 561 562 603 602
4 562 563 604 603
4 563 564 605 604
4 564 565 606 605
4 565 566 607 606
4 566 567 608 607
4 567 568 609 608
4 568 569 610 609
4 569 570 611 610
4 570 571 612 611
4 571 572 613 612
4 572 573 614 613
4 574 575 616 615
4 575 576 617 616
4 576 577 618 617
4 577 578 619 618
4 578 579 620 619
4 579 580 621 620
4 580 581 622 621
4 581 582 623 622
4 582 583 624 623
4 583 584 625 624
4 584 585 626 625
4 585 586 627 626
4 586 587 628 627
4 587 588 629 628
4 588 589 630 629
4 589 590 631 630
4 590 591 632 631
4 591 592 633 632
4 592 593 634 633
4 593 594 635 634
4 594 595 636 635
4 595 596 637 636
4 596 597 638 637
4 597 598 639 638
4 598 599 640 639
4 599 600 641 640
4 600 601 642 641
4 601 602 643 642
4 602 603 644 643
4 603 604 645 644
4 604 605 646 645
4 605 606 647 646
4 606 607 648 647
4 607 608 649 648
4 608 609 650 649
4 609 610 651 650
4 610 611 652 651
4 611 612 653 652
4 612 613 654 653
4 613 614 655 654
4 615 616 657 656
4 616 617 658 657
4 617 618 659 658
4 618 619 660 659
4 619 620 661 660
4 620 621 662 661
4 621 622 663 662
4 622 623 664 663
4 623 624 665 664
4 624 625 666 665
4 625 626 667 666
4 626 627 668 667
4 627 628 669 668
4 628 629 670 669
4 629 630 671 670
4 630 631 672 671
4 631 632 673 672
4 632 633 674 673
4 633 634 675 674
4 634 635 676 675
4 635 636 677 676
4 636 637 678 677
4 637 638 679 678
4 638 639 680 679
4 639 640 681 680
4 640 641 682 681
4 641 642 683 682
4 642 643 684 683
4 643 644 685 684
4 644 645 686 685
4 645 646 687 686
4 646 647 688 687
4 647 648 689 688
4 648 649 690 689
4 649 650 691 690
4 650 651 692 691
4 651 652 693 692
4 652 653 694 693
4 653 654 695 694
4 654 655 696 695
4 656 657 698 697
4 657 658 699 698
4 658 659 700 699
4 659 660 701 700
4 660 661 702 701
4 661 662 703 702
4 662 663 704 703
4 663 664 705 704
4 664 665 706 705
4 665 666 707 706
4 666 667 708 707
4 667 668 709 708
4 668 669 710 709
4 669 670 711 710
4 670 671 712 711
4 671 672 713 712
4 672 673 714 713
4 673 674 715 714
4 674 675 716 715
4 675 676 717 716
4 676 677 718 717
4 677 678 719 718
4 678 679 720 719
4 679 680 721 720
4 680 681 722 721
4 681 682 723 722
4 682 683 724 723
4 683 684 725 724
4 684 685 726 725
4 685 686 727 726
4 686 687 728 727
4 687 688 729 728
4 688 689 730 729
4 689 690 731 730
4 690 691 732 731
4 691 692 733 732
4 692 693 734 733
4 693 694 735 734
4 694 695 736 735
4 695 696 737 736
4 697 698 739 738
4 698 699 740 739
4 699 700 741 740
4 700 701 742 741
4 701 702 743 742
4 702 703 744 743
4 703 704 745 744
4 704 705 746 745
4 705 706 747 746
4 706 707 748 747
4 707 708 749 748
4 708 709 750 749
4 709 710 751 750
4 710 711 752 751
4 711 712 753 752
4 712 713 754 753
4 713 714 755 754
4 714 715 756 755
4 715 716 757 756
4 716 717 758 757
4 717 718 759 758
4 718 719 760 759
4 719 720 761 760
4 720 721 762 761
4 721 722 763 762
4 722 723 764 763
4 723 724 765 764
4 724 725 766 765
4 725 726 767 766
4 726 727 768 767
4 727 728 769 768
4 728 729 770 769
4 729 730 771 770
4 730 731 772 771
4 731 732 773 772
4 732 733 774 773
4 733 734 775 774
4 734 735 776 775
4 735 736 777 776
4 736 737 778 777
4 738 739 780 779
4 739 740 781 780
4 740 741 782 781
4 741 742 783 782
4 742 743 784 783
4 743 744 785 784
4 744 745 786 785
4 745 746 787 786
4 746 747 788 787
4 747 748 789 788
4 748 749 790 789
4 749 750 791 790
4 750 751 792 791
4 751 752 793 792
4 752 753 794 793
4 753 754 795 794
4 754 755 796 795
4 755 756 797 796
4 756 757 798 797
4 757 758 799 798
4 758 759 800 799
4 759 760 801 800
4 760 761 802 801
4 761 762 803 802
4 762 763 804 803
4 763 764 805 804
4 764 765 806 805
4 765 766 807 806
4 766 767 808 807
4 767 768 809 808
4 768 769 810 809
4 769 770 811 810
4 770 771 812 811
4 771 772 813 812
4 772 773 814 813
4 773 774 815 814
4 774 775 816 815
4 775 776 817 816
4 776 777 818 817
4 777 778 819 818
4 779 780 821 820
4 780 781 822 821
4 781 782 823 822
4 782 783 824 823
4 783 784 825 824
4 784 785 826 825
4 785 786 827 826
4 786 787 828 827
4 787 788 829 828
4 788 789 830 829
4 789 790 831 830
4 790 791 832 831
4 791 792 833 832
4 792 793 834 833
4 793 794 835 834
4 794 795 836 835
4 795 796 837 836
4 796 797 838 837
4 797 798 839 838
4 798 799 840 839
4 799 800 841 840
4 800 801 842 841
4 801 802 843 842
4 802 803 844 843
4 803 804 845 844
4 804 805 846 845
4 805 806 847 846
4 806 807 848 847
4 807 808 849 848
4 808 809 850 849
4 809 810 851 850
4 810 811 852 851
4 811 812 853 852
4 812 813 854 853
4 813 814 855 854
4 814 815 856 855
4 815 816 857 856
4 816 817 858 857
4 817 818 859 858
4 818 819 860 859
CELL_TYPES 800
9
9
9
9
9
9
9
9
9
9
9
9
9
9
9
9
9
9
9
9
9
9
9
9
9
9
9
9
9
9
9
9
9
9
9
9
9
9
9
9
9
9
9
9
9
9
9
9
9
9
9
9
9
9
9
9
9
9
9
9
9
9
9
9
9
9
9
9
9
9
9
9
9
9
9
9
9
9
9
9
9
9
9
9
9
9
9
9
9
9
9
9
9
9
9
9
9
9
9
9
9
9
9
9
9
9
9
9
9
9
9
9
9
9
9
9
9
9
9
9
9
9
9
9
9
9
9
9
9
9
9
9
9
9
9
9
9
9
9
9
9
9
9
9
9
9
9
9
9
9
9
9
9
9
9
9
9
9
9
9
9
9
9
9
9
9
9
9
9
9
9
9
9
9
9
9
9
9
9
9
9
9
9
9
9
9
9
9
9
9
9
9
9
9
9
9
9
9
9
9
9
9
9
9
9
9
9
9
9
9
9
9
9
9
9
9
9
9
9
9
9
9
9
9
9
9
9
9
9
9
9
9
9
9
9
9
9
9
9
9
9
9
9
9
9
9
9
9
9
9
9
9
9
9
9
9
9
9
9
9
9
9
9
9
9
9
9
9
9
9
9
9
9
9
9
9
9
9
9
9
9
9
9
9
9
9
9
9
9
9
9
9
9
9
9
9
9
9
9
9
9
9
9
9
9
9
9
9
9
9
9
9
9
9
9
9
9
9
9
9
9
9
9
9
9
9
9
9
9
9
9
9
9
9
9
9
9
9
9
9
9
9
9
9
9
9
9
9
9
9
9
9
9
9
9
9
9
9
9
9
9
9
9
9
9
9
9
9
9
9
9
9
9
9
9
9
9
9
9
9
9
9
9
9
9
9
9
9
9
9
9
9
9
9
9
9
9
9
9
9
9
9
9
9
9
9
9
9
9
9
9
9
9
9
9
9
9
9
9
9
9
9
9
9
9
9
9
9
9
9
9
9
9
9
9
9
9
9
9
9
9
9
9
9
9
9
9
9
9
9
9
9
9
9
9
9
9
9
9
9
9
9
9
9
9
9
9
9
9
9
9
9
9
9
9
9
9
9
9
9
9
9
9
9
9
9
9
9
9
9
9
9
9
9
9
9
9
9
9
9
9
9
9
9
9
9
9
9
9
9
9
9
9
9
9
9
9
9
9
9
9
9
9
9
9
9
9
9
9
9
9
9
9
9
9
9
9
9
9
9
9
9
9
9
9
9
9
9
9
9
9
9
9
9
9
9
9
9
9
9
9
9
9
9
9
9
9
9
9
9
9
9
9
9
9
9
9
9
9
9
9
9
9
9
9
9
9
9
9
9
9
9
9
9
9
9
9
9
9
9
9
9
9
9
9
9
9
9
9
9
9
9
9
9
9
9
9
9
9
9
9
9
9
9
9
9
9
9
9
9
9
9
9
9
9
9
9
9
9
9
9
9
9
9
9
9
9
9
9
9
9
9
9
9
9
9
9
9
9
9
9
9
9
9
9
9
9
9
9
9
9
9
9
9
9
9
9
9
9
9
9
9
9
9
9
9
9
9
9
9
9
9
9
9
9
9
9
9
9
9
9
9
9
9
9
9
9
9
9
9
9
9
9
9
9
9
9
9
9
9
9
9
9
9
9
9
9
9
9
9
9
9
9
9
9
9
9
9
9
9
9
9
9
9
9
9
9
9
9
9
9
9
9
9
9
9
9
9
9
9
9
9
9
9
9
9
9
9
9
9
9
9
9
9
9
9
9
9
9
9
9
9
9
9
9
9
9
9
9
9
9
9
9
9
9
9
9
9
9
9
POINT_DATA 861
SCALARS Disp float 2
LOOKUP_TABLE default
0.0 0.0
0.0047553346952066596 -0.1608620915849976
0.005847679067556529 -0.31397951046826666
0.00658318617265648 -0.4663115449883225
0.0074798373529667206 -0.6183390846856459
0.008780396430948965 -0.7697894086736384
0.010871325145754816 -0.9203153157181186
0.01417820577110027 -1.0694985540172448
0.01918719778827313 -1.2168228073328595
0.026420816294261018 -1.3616260197649341
0.03641277211363726 -1.5030218369630413
0.04971346534489465 -1.6398373143437497
0.066900395392098 -1.770604336354046
0.08857088612425869 -1.8936122677790261
0.11534049289112545 -2.0069558654645077
0.1477729623692489 -2.1085721595117612
0.18625028636973903 -2.1962825854495325
0.23080785048797275 -2.2678637845082217
0.28098356922740825 -2.321194763028321
0.33574221523048464 -2.354487582304568
0.3933897391631756 -2.36651266269564
0.4510372630958638 -2.3544875823045004
0.5057959090989308 -2.3211947630281826
0.5559716278383485 -2.2678637845080214
0.6005291919565607 -2.1962825854492816
0.6390065159570274 -2.1085721595114753
0.6714389854351271 -2.0069558654641932
0.6982085922019703 -1.8936122677786926
0.7198790829341069 -1.7706043363537034
0.7370660129812865 -1.6398373143434095
0.7503667062125232 -1.503021836962712
0.7603586620318821 -1.361626019764623
0.7675922805378561 -1.216822807332571
0.7726012725550186 -1.0694985540169832
0.7759081531803564 -0.9203153157178869
0.7779990818951578 -0.7697894086734413
0.7792996409731379 -0.6183390846854836
0.7801962921534475 -0.46631154498819694
0.7809317992585473 -0.3139795104681771
0.7820241436308961 -0.16086209158494638
0.7867794783260995 0.0
0.04013465089080323 -0.0020445157185209474
0.04337441425930614 -0.16103102606359948
0.04396535747396752 -0.3140410452043802
0.044624658798892415 -0.46639330364184034
0.045422920701795585 -0.6184511670388598
0.04654516954774721 -0.7700084827517983
0.04835843678567465 -0.9207401221886804
0.05126731510304168 -1.0702409243870918
0.05572835381492485 -1.2180063954450948
0.06221661019950879 -1.3633752034696365
0.07120611080159535 -1.5054612623012602
0.08317406219295392 -1.6430968023715216
0.09862457614490552 -1.774822520006445
0.11810515811317851 -1.8989356481628201
0.14218180031330352 -2.0135315358684984
0.17138256970588106 -2.1165230859266013
0.20607383421815997 -2.2056702469621565
0.24631059675561787 -2.278648808864423
0.2917021779734346 -2.3332063546126034
0.3412974794165769 -2.3674066858490708
0.3933897391631674 -2.3797963915260163
0.4454819989097549 -2.3674066858490015
0.4950773003528883 -2.3332063546124617
0.5404688815706896 -2.278648808864218
0.5807056441081289 -2.2056702469619
0.6153969086203871 -2.1165230859263096
0.6445976780129433 -2.0135315358681782
0.6686743202130468 -1.8989356481624813
0.6881549021812982 -1.774822520006097
0.7036054161332286 -1.6430968023711763
0.7155733675245686 -1.5054612623009265
0.7245628681266393 -1.363375203469322
0.7310511245112106 -1.2180063954448035
0.7355121632230843 -1.0702409243868285
0.7384210415404446 -0.9207401221884476
0.740234308778368 -0.7700084827516006
0.741356557624318 -0.6184511670386973
0.7421548195272207 -0.4663933036417148
0.7428141208521455 -0.31404104520429066
0.743405064066807 -0.16103102606354802
0.746644827435305 -0.002044515718518569
0.07942389890152338 -0.0036468440373323427
0.08176127468842778 -0.16111114484092587
0.08210448268741417 -0.31407803918920757
0.08264388500535673 -0.4664665972818699
0.08335088834684945 -0.6185441806777581
0.08431346942461487 -0.7701826602014313
0.08585165452103109 -0.9210909581249543
0.08836293641999482 -1.0708742708819925
0.09226696874025322 -1.2190372671300793
0.09799470283496099 -1.3649159332470808
0.1059629490238296 -1.507621175262026
0.11658314120733447 -1.6459876609458817
0.13028882479191745 -1.7785663640595881
0.14756192468229398 -1.903666756183438
0.16892326546373318 -2.0193856158937264
0.19486002213567347 -2.123615888601501
0.22572759945053114 -2.2140643081538847
0.261616921537969 -2.288317382950396
0.3022148593174606 -2.3440015767901983
0.3466465997735064 -2.3790189246454703
0.39338973916315945 -2.391744963384501
0.44013287855280964 -2.379018924645399
0.4845646190088472 -2.344001576790054
0.5251625567883252 -2.288317382950187
0.5610518788757469 -2.2140643081536235
0.5919194561905864 -2.1236158886012046
0.6178562128625078 -2.019385615893402
0.6392175536439276 -1.903666756183094
0.6564906535342849 -1.7785663640592353
0.6701963371188493 -1.6459876609455317
0.6808165293023375 -1.5076211752616884
0.688784775491192 -1.3649159332467629
0.6945125095858884 -1.2190372671297858
0.6984165419061382 -1.0708742708817272
0.7009278238050961 -0.9210909581247204
0.702466008901509 -0.7701826602012333
0.7034285899792732 -0.6185441806775954
0.7041355933207657 -0.4664665972817444
0.7046749956387082 -0.31407803918911814
0.7050182036376946 -0.16111114484087413
0.7073555794245944 -0.003646844037327531
0.11827202715522553 -0.004926434879994616
0.12001290343031387 -0.1611650223221081
0.12022349045991426 -0.31409894024767426
0.12064580663026915 -0.4665272297044775
0.12125792314589863 -0.6186240809297037
0.12208141710486964 -0.7703180480624591
0.12335926103408494 -0.9213697332865814
0.12547432896313718 -1.0713998428665998
0.128817664914194 -1.2199141720380253
0.13377532025062272 -1.366245776259915
0.14071069764357605 -1.5094988409884913
0.14997234731019773 -1.648508774351441
0.1619274887964979 -1.7818356336202288
0.1769908900644252 -1.9078030599868268
0.19562138690387676 -2.024513495672109
0.2182717855942703 -2.129844051402843
0.2452887648696087 -2.221457874000292
0.27680029140513895 -2.296864893511929
0.3125763695414371 -2.353576963777782
0.3518766505783198 -2.3893474361697975
0.39338973916315173 -2.4024105640165434
0.4349028277479811 -2.389347436169725
0.4742031087848563 -2.353576963777635
0.5099791869211424 -2.296864893511717
0.5414907134566584 -2.221457874000027
0.5685076927319812 -2.1298440514025425
0.591158091422358 -2.0245134956717803
0.6097885882617928 -1.9078030599864784
0.6248519895297029 -1.7818356336198717
0.6368071310159871 -1.6485087743510873
0.6460687806825942 -1.50949884098815
0.653004158075535 -1.3662457762595943
0.6579618134119538 -1.2199141720377296
0.661305149363003 -1.0713998428663332
0.6634202172920503 -0.9213697332863466
0.664698061221263 -0.7703180480622607
0.6655215551802331 -0.6186240809295409
0.6661336716958624 -0.46652722970435206
0.6665559878662173 -0.314098940247585
0.6667665748958177 -0.16116502232205607
0.6685074511709019 -0.0049264348799875875
0.15686538871010408 -0.005953704364287031
0.158168786879316 -0.16120939620008262
0.15830635089462716 -0.31411084187693905
0.15862841079668447 -0.46657432797769643
0.15914224117247308 -0.6186924926374042
0.1598399177160734 -0.77042441162096
0.16088677351180905 -0.9215822708417368
0.1626108235169668 -1.0718195011474412
0.1653953071528192 -1.220637932744972
0.16957931578686433 -1.3673640044332285
0.17547590328329507 -1.5110936459529125
0.183375447351384 -1.6506598911525812
0.19357838212005077 -1.7846311566337036
0.20643185571519782 -1.9113455804833877
0.22233527325813693 -2.0289136153115868
0.2416902279973857 -2.1352037639999097
0.26483471339639136 -2.227845318745314
0.29193645420179043 -2.3042838996088664
0.32286168343146654 -2.361930897748535
0.35704096773624583 -2.398408518900036
0.3933897391631442 -2.4118229402223226
0.4297385105900404 -2.3984085188999624
0.4639177948948126 -2.361930897748386
0.49484302412447806 -2.30428389960865
0.5219447649298652 -2.2278453187450458
0.5450892503288571 -2.1352037639996047
0.5644442050680915 -2.028913615311254
0.580347622611016 -1.911345580483035
0.5932010962061486 -1.784631156633343
0.6034040309748018 -1.650659891152224
0.6113035750428781 -1.5110936459525683
0.6172001625392982 -1.3673640044329054
0.6213841711733347 -1.220637932744674
0.6241686548091806 -1.0718195011471732
0.6258927048143342 -0.9215822708415013
0.626939560610068 -0.7704244116207613
0.6276372371536677 -0.6186924926372414
0.6281510675294562 -0.466574327977571
0.6284731274315135 -0.31411084187684984
0.6286106914468247 -0.16120939620003036
0.6299140896160331 -0.005953704364278089
0.19528958827770151 -0.00677341538773833
0.1962568830514446 -0.16124947404820986
0.19635110998984084 -0.3141186147969122
0.19658929086233518 -0.46660882579099733
0.19700321364975326 -0.6187498510526288
0.1975831909980943 -0.7705087167051872
0.19842537465093874 -0.921739563127388
0.19978873468834016 -1.0721366839227022
0.2020153303997128 -1.2212108729201048
0.2054281489719395 -1.3682720176547376
0.21028626884229373 -1.512406391903905
0.21682466808202652 -1.6524427054558555
0.225281045585304 -1.786955371276043
0.2359341467444235 -1.9142969018328537
0.24911525870820556 -2.0325886502820962
0.2651828346344362 -2.139695149346339
0.28444994896517767 -2.233222275362778
0.30711062024809377 -2.310566651763202
0.33314594314902485 -2.369058956642388
0.36218544118358786 -2.4062087679346025
0.3933897391631367 -2.4199990241154326
0.42459403714268334 -2.406208767934528
0.45363353517724 -2.369058956642237
0.4796688580781623 -2.3105666517629837
0.5023295293610681 -2.233222275362507
0.5215966436917979 -2.139695149346031
0.5376642196180164 -2.0325886502817605
0.5508453315817864 -1.9142969018324982
0.5614984327408941 -1.7869553712756796
0.56995481024416 -1.6524427054554955
0.5764932094838824 -1.5124063919035584
0.5813513293542278 -1.3682720176544125
0.5847641479264473 -1.2212108729198055
0.5869907436378148 -1.0721366839224333
0.5883541036752129 -0.9217395631271522
0.5891962873280561 -0.7705087167049882
0.5897762646763967 -0.6187498510524659
0.5901901874638145 -0.4666088257908719
0.5904283683363089 -0.31411861479682296
0.590522595274705 -0.16124947404815743
0.5914898900484453 -0.006773415387727784
0.23359082259464922 -0.007420112140242432
0.23429689012587246 -0.16128674469594098
0.23436179185532882 -0.31412475852804594
0.23452785307271298 -0.46663218946946844
0.23484282509971077 -0.6187955692912391
0.23530699992306503 -0.7705756198437902
0.23596469923862712 -0.9218537947366297
0.23700264398256723 -1.0723634737245533
0.23869902672709772 -1.22163696597082
0.24134455033994912 -1.368973117020953
0.24517103029525414 -1.5134401468497232
0.25035518846697025 -1.6538605266845536
0.25707531892924046 -1.7888127462615153
0.2655433793482213 -1.9166624800296257
0.2760237497808679 -2.035543186470936
0.28881598302181827 -2.1433220278206857
0.30421026517933647 -2.2375885169760075
0.32241646119523104 -2.315706066198984
0.34351426302633103 -2.374951732720551
0.36735780674937574 -2.412744436661702
0.3933897391631289 -2.4269447394625008
0.41942167157688026 -2.4127444366616264
0.4432652152999195 -2.3749517327203984
0.46436301713101236 -2.315706066198764
0.4825692131468984 -2.237588516975734
0.4979634953044071 -2.143322027820375
0.5107557285453476 -2.0355431864705973
0.5212360989779845 -1.9166624800292678
0.5297041593969563 -1.7888127462611492
0.5364242898592173 -1.653860526684191
0.541608448030925 -1.5134401468493746
0.545434927986223 -1.3689731170206263
0.5480804515990686 -1.2216369659705195
0.549776834343595 -1.0723634737242838
0.5508147790875328 -0.9218537947363936
0.5514724784030941 -0.7705756198435914
0.5519366532264481 -0.6187955692910763
0.5522516252534457 -0.46663218946934293
0.5524176864708298 -0.3141247585279567
0.5524825882002862 -0.16128674469588838
0.5531886557315073 -0.007420112140230571
0.27180062155221235 -0.0079211731139791
0.2723033516438627 -0.1613225744835132
0.27234438732850746 -0.3141298345579783
0.27244536518440915 -0.4666458468669692
0.27266379189379697 -0.6188288178370183
0.2730085663082772 -0.7706278838695562
0.2735004703524534 -0.9219338181926853
0.2742444944842384 -1.0725153581131726
0.2754520595596034 -1.2219282605087893
0.27735725750635043 -1.3694733438067697
0.2801619271792676 -1.5142002099695608
0.2840032161221736 -1.6549188944739848
0.2890036191989214 -1.7902100313807112
0.2953096718417216 -1.9184504360829326
0.3031158848590194 -2.037786104603061
0.3126612900352535 -2.1460911331708314
0.32419921731317847 -2.24094726332886
0.3379431225764391 -2.3196982739667793
0.3540564388307256 -2.3795955990766444
0.37261307911572134 -2.418000264824181
0.3933897391631208 -2.432654438309694
0.4141663992105189 -2.4180002648241046
0.43272303949551083 -2.37959559907649
0.4488363557497914 -2.3196982739665573
0.4625802610130454 -2.2409472633285845
0.4741181882909628 -2.146091133170519
0.4836635934671895 -2.0377861046027204
0.4914698064844804 -1.9184504360825727
0.49777585912727373 -1.790210031380343
0.5027762622040148 -1.6549188944736204
0.5066175511469145 -1.5142002099692107
0.5094222208198265 -1.3694733438064415
0.5113274187665694 -1.2219282605084878
0.5125349838419316 -1.0725153581129023
0.5132790079737152 -0.9219338181924491
0.5137709120178908 -0.7706278838693572
0.5141156864323708 -0.6188288178368554
0.5143341131417586 -0.4666458468668437
0.5144350909976602 -0.31412983455788906
0.5144761266823048 -0.1613225744834606
0.5149788567739537 -0.007921173113966192
0.3099369179236824 -0.008303279408983474
0.310289850674903 -0.16135799435784362
0.31030418281539107 -0.3141331885290531
0.3103445166484094 -0.4666508852974766
0.3104696351102481 -0.6188493601974469
0.3106912582397342 -0.7706649252269165
0.3110205253724032 -0.9219888845568825
0.3115062053688453 -1.0726081969898413
0.31227044458663433 -1.2221038849443822
0.3134818641793954 -1.3697872086149159
0.31529416167670865 -1.5146961233268643
0.31781233957823224 -1.6556269588087638
0.32111235742712807 -1.7911572804536098
0.32528412999219875 -1.9196725997547093
0.3304526527161122 -2.0393301208320866
0.33678801499431793 -2.148014011423131
0.3444958345940836 -2.2433069246139365
0.3537916676169189 -2.322543530686856
0.36487854243155904 -2.382974790249107
0.37801825605121137 -2.4219489837390653
0.3933897391631124 -2.4371100697431394
0.4087612222750127 -2.421948983738989
0.42190093589466254 -2.3829747902489515
0.4329878107092984 -2.3225435306866324
0.44228364373212875 -2.2433069246136603
0.44999146333188944 -2.148014011422817
0.4563268256100903 -2.0393301208317443
0.4614953483339993 -1.9196725997543482
0.46566712089906565 -1.7911572804532407
0.46896713874795737 -1.655626958808398
0.47148531664947696 -1.514696123326513
0.4732976141467867 -1.369787208614587
0.4745090337395452 -1.2221038849440806
0.4752732729573327 -1.0726081969895707
0.475758952953774 -0.9219888845566463
0.4760882200864427 -0.7706649252267177
0.4763098432159287 -0.618849360197284
0.4764349616777673 -0.46665088529735105
0.47647529551078555 -0.3141331885289638
0.4764896276512735 -0.161357994357791
0.4768425604024933 -0.008303279408969827
0.3480114762620311 -0.008594366720291858
0.3482609377777195 -0.1613943772025403
0.34824644917150277 -0.3141335025728726
0.34822899070839725 -0.46664813212228945
0.34826385282590094 -0.6188574145748663
0.34836121585084434 -0.7706853783773081
0.3485226179923074 -0.9220220285070165
0.3487665658454496 -1.0726593493962657
0.3491384460521186 -1.222190075990647
0.3497188342579925 -1.3699410916000356
0.35059171748761153 -1.5149495389892687
0.35182468312908766 -1.6560027721964796
0.3534520288655957 -1.7916716960625698
0.3555181072805225 -1.9203476866846332
0.35808747694045323 -2.04019548128405
0.3612548192447627 -2.149109833082113
0.36516445857407676 -2.244682295598664
0.3700220737383161 -2.324253086871737
0.3760874291978148 -2.3850805616637065
0.3836769500687163 -2.424550630815563
0.3933897391631039 -2.4402754750406657
0.40310252825749093 -2.4245506308154856
0.4106920491283913 -2.3850805616635506
0.41675740458788746 -2.3242530868715128
0.42161501975212395 -2.2446822955983867
0.42552465908143566 -2.1491098330817975
0.4286920013857429 -2.0401954812837073
0.43126137104567186 -1.9203476866842717
0.4333274494605971 -1.7916716960622001
0.4349547951971033 -1.656002772196113
0.4361877608385777 -1.5149495389889165
0.4370606440681953 -1.3699410915997063
0.43764103227406814 -1.222190075990345
0.4380129124807365 -1.0726593493959953
0.4382568603338785 -0.9220220285067802
0.4384182624753414 -0.7706853783771093
0.4385156255002848 -0.6188574145747034
0.4385504876177885 -0.4666481321221638
0.43853302915468284 -0.3141335025727833
0.4385185405484662 -0.16139437720248773
0.438768002064154 -0.008594366720277694
0.38603995194809404 -0.008817087894573817
0.38621657664373366 -0.16143230005344403
0.3861757576803119 -0.31412999008459996
0.3861030289946754 -0.46663811630794383
0.38605063395904576 -0.6188532545199297
0.38602451793652964 -0.7706888819831303
0.38601495152166426 -0.9220323267991655
0.3860125958328258 -1.072676249247091
0.38601232693868237 -1.222216588485818
0.38601261643126616 -1.3699834126840718
0.3860128248386495 -1.515015113286207
0.38601300872415895 -1.6560997889210745
0.3860105559374321 -1.7918052092402315
0.3860032973107238 -1.9205244525333436
0.385991318085431 -2.0404296622546063
0.385999067650716 -2.1494229651561456
0.3861126291497896 -2.2451123503100887
0.3865332481634504 -2.324861011514669
0.3875898544881033 -2.3859455332166557
0.3896647930957997 -2.4257789156369185
0.393389739163095 -2.4420991039286237
0.39711468523039034 -2.425778915636841
0.39918962383808637 -2.3859455332164994
0.4002462301627386 -2.3248610115144444
0.4006668491763994 -2.2451123503098116
0.40078041067547354 -2.1494229651558303
0.4007881602407589 -2.0404296622542626
0.4007761810154669 -1.9205244525329823
0.4007689223887595 -1.7918052092398615
0.4007664696020335 -1.6560997889207079
0.40076665348754376 -1.5150151132858547
0.4007668618949276 -1.3699834126837425
0.4007671513875117 -1.222216588485516
0.4007668824933684 -1.0726762492468205
0.4007645268045302 -0.922032326798929
0.4007549603896649 -0.7706888819829315
0.40072884436714884 -0.6188532545197668
0.40067644933151936 -0.4666381163078182
0.40060372064588284 -0.3141299900845106
0.4005629016824611 -0.1614323000533915
0.40073952637810045 -0.008817087894559351
0.4240336206835032 -0.008990683772955073
0.4241605889978174 -0.16146945516690867
0.4240959292642931 -0.3141229625461112
0.42397119930364513 -0.4666210958190339
0.42383446994502494 -0.6188373480651467
0.4236869371814565 -0.7706755234166959
0.4235074394789608 -0.9220192976585806
0.423258410317588 -1.072658851326113
0.42288615238284893 -1.2221901629113774
0.422306381143642 -1.3699411415170424
0.4214344506208084 -1.514949802451074
0.4202015349692176 -1.656002276012213
0.41856913286183395 -1.791669827077646
0.4164878412869934 -1.9203431754235623
0.4138953231814406 -2.0401924169264736
0.4107449864420232 -2.149129931196066
0.4070558259383435 -2.244785449331372
0.402981718345796 -2.3245563368376554
0.39885556249982246 -2.385738867885108
0.3952018311871167 -2.425744960848483
0.39338973916308617 -2.4426960162413454
0.39157764713905496 -2.4257449608484047
0.38792391582634933 -2.3857388678849523
0.3837977599803775 -2.324556336837431
0.37972365238783345 -2.2447854493310944
0.37603449188415733 -2.14912993119575
0.37288415514474316 -2.0401924169261307
0.3702916370391935 -1.920343175423201
0.3682103454643563 -1.791669827077277
0.3665779433569764 -1.6560022760118467
0.36534502770538885 -1.5149498024507222
0.3644730971825579 -1.369941141516713
0.3638933259433526 -1.2221901629110754
0.36352106800861433 -1.0726588513258426
0.36327203884724224 -0.9220192976583444
0.36309254114474687 -0.7706755234164969
0.36294500838117866 -0.6188373480649837
0.3628082790225587 -0.4666210958189082
0.36268354906191075 -0.31412296254602184
0.36261888932838643 -0.16146945516685612
0.3627458576427005 -0.008990683772940392
0.46200843821079396 -0.00912457589279585
0.4620977413874796 -0.1615039558171532
0.4620114369182141 -0.31411264554977036
0.46183798937208703 -0.4665974207590534
0.4616202055942191 -0.6188102861489866
0.46135426303947036 -0.7706455986066493
0.46100822684093223 -0.9219834755470079
0.4605184708308655 -1.0726072235483621
0.4597539454060173 -1.2221040661907023
0.4585437111721518 -1.3697874945479205
0.45673223022774817 -1.5146964486366339
0.45421357518911554 -1.6556258738207024
0.4509091807788641 -1.7911529655610028
0.44672416239002816 -1.919663036906811
0.4415345597611591 -2.0393236005963375
0.43521237254561257 -2.1480544598859352
0.42770085703686567 -2.24351217746474
0.4191051539673672 -2.3231392372945012
0.4097800207260865 -2.3842888175707113
0.40061344592232534 -2.4245407481265966
0.3933897391630776 -2.4422220057877846
0.38616603240382913 -2.424540748126519
0.37699945760006903 -2.384288817570556
0.367674324358792 -2.323139237294278
0.35907862128929924 -2.243512177464464
0.351567105780559 -2.1480544598856213
0.3452449185650182 -2.039323600595995
0.3400553159361547 -1.9196630369064511
0.3358702975473247 -1.7911529655606344
0.33256590313707945 -1.655625873820337
0.33004724809845243 -1.5146964486362828
0.32823576715405345 -1.3697874945475916
0.3270255329201914 -1.2221040661904006
0.326261007495345 -1.0726072235480917
0.3257712514852793 -0.9219834755467715
0.32542521528674184 -0.7706455986064503
0.3251592727319934 -0.6188102861488236
0.3249414889541257 -0.46659742075892785
0.3247680414079987 -0.314112645549681
0.3246817369387333 -0.1615039558171007
0.3247710401154189 -0.009124575892780996
0.4999768376291305 -0.009224551588967416
0.500033899179253 -0.1615342186667976
0.4999271637918263 -0.31409913950469287
0.4997080289228806 -0.4665675376209255
0.4994128663332905 -0.6187726512406109
0.49903274829597377 -0.770600143303254
0.49852728455070755 -0.9219256678966546
0.4977792243248762 -1.072513959857632
0.4965726471126687 -1.2219287258812386
0.49466884551151385 -1.3694739211036262
0.491864460079453 -1.5142004583564725
0.48802222820595687 -1.654917233687847
0.4830191108675187 -1.7902038652359054
0.4767057977753039 -1.9184370047602544
0.468886866857191 -2.0377766113138485
0.459349441096894 -2.1461472775338826
0.44794786553442656 -2.2412358818280396
0.4347381158970627 -2.320543501145458
0.4202008472562758 -2.3815433870927127
0.4055656631930372 -2.4220173497486552
0.393389739163069 -2.4406909827143553
0.3812138151331009 -2.4220173497485775
0.36657863106986427 -2.3815433870925578
0.35204136242908296 -2.3205435011452358
0.3388316127917267 -2.2412358818277656
0.3274300372292683 -2.1461472775335704
0.31789261146897974 -2.037776611313508
0.31007368055087486 -1.9184370047598962
0.3037603674586685 -1.790203865235539
0.29875725012023874 -1.6549172336874833
0.2949150182467508 -1.514200458356123
0.2921106328146967 -1.3694739211032987
0.29020683121354673 -1.2219287258809377
0.2890002540013423 -1.072513959857362
0.2882521937755128 -0.9219256678964186
0.2877467300302473 -0.7706001433030553
0.287366611992931 -0.618772651240448
0.28707144940334123 -0.4665675376207999
0.2868523145343957 -0.3140991395046035
0.28674557914696913 -0.16153421866674508
0.2868026406970916 -0.009224551588952435
0.5379466959361052 -0.0092957274831129
0.5379751046831235 -0.16155894558340053
0.537848146744059 -0.3140824014673606
0.5375859548760114 -0.46653186916711986
0.5372167608837368 -0.6187252879673901
0.5367296863322768 -0.7705405401196657
0.5360604134161352 -0.9218427704482164
0.5350210970581029 -1.0723619944634337
0.533326453847362 -1.221637913031509
0.5306820217909834 -1.3689738834108856
0.5268550586401112 -1.5134401389877215
0.5216697026001417 -1.6538583860113225
0.5149492197687771 -1.788805863300161
0.5064834791400981 -1.9166479406889223
0.49600639947053016 -2.0355328426963886
0.4832184641507286 -2.143386214967585
0.46787623865515005 -2.2379278807729874
0.4500096395375081 -2.316747528554469
0.43025065874465696 -2.377489585377032
0.41026580035108684 -2.4182209238292316
0.39338973916306064 -2.4381521861289146
0.376513677975035 -2.4182209238291543
0.3565288195814685 -2.377489585376878
0.3367698387886245 -2.3167475285542487
0.3189032396709919 -2.237927880772715
0.30356101417542447 -2.1433862149672747
0.29077307885563397 -2.0355328426960497
0.2802959991860765 -1.9166479406885661
0.2718302585574085 -1.7888058632997967
0.26510977572605454 -1.653858386010961
0.2599244196860954 -1.513440138987374
0.25609745653523175 -1.3689738834105596
0.2534530244788598 -1.221637913031209
0.25175838126812333 -1.0723619944631646
0.25071906491009366 -0.9218427704479806
0.2500497919939532 -0.7705405401194669
0.24956271744249367 -0.6187252879672271
0.24919352345021953 -0.4665318691669943
0.24893133158217204 -0.31408240146727123
0.24880437364310767 -0.16155894558334802
0.248832782390126 -0.00929572748309783
0.5759236255977404 -0.009342907308688107
0.5759267219331129 -0.16157729061248843
0.5757795438240819 -0.31406227762633526
0.5754765102144872 -0.4664908251894346
0.5750375537687893 -0.6186692673362005
0.5744485136575557 -0.7704675906700152
0.5735991032053733 -0.9217262264867124
0.5722358471040109 -1.0721355498258516
0.5700112398450222 -1.2212123100176766
0.5665986867956837 -1.3682727803608967
0.5617394839821435 -1.5124060004902682
0.5551998445809159 -1.6524402504592768
0.546745962312773 -1.7869492106586704
0.5361063648972986 -1.9142851387775053
0.5229491676788405 -2.0325812933408343
0.5068886774185389 -2.1397592418300606
0.48759969961783545 -2.2335777444732687
0.4650888246985875 -2.311744517578744
0.44014662316765707 -2.372135067145679
0.41490352590237656 -2.413182425169097
0.39338973916305253 -2.4346237647230464
0.3718759524237294 -2.413182425169021
0.3466328551584538 -2.372135067145526
0.32169065362753235 -2.3117445175785254
0.29917977870829526 -2.233577744473
0.27989080090760504 -2.1397592418297537
0.263830310647317 -2.0325812933404985
0.25067311342887183 -1.914285138777152
0.24003351601341075 -1.7869492106583091
0.23157963374528107 -1.6524402504589182
0.22503999434406574 -1.5124060004899234
0.22018079153053605 -1.3682727803605728
0.21676823848120583 -1.2212123100173782
0.21454363122222278 -1.072135549825583
0.21318037512086396 -0.9217262264864768
0.2123309646686832 -0.7704675906698166
0.21174192455745017 -0.6186692673360379
0.2113029681117526 -0.46649082518930907
0.21099993450215823 -0.3140622776262459
0.2108527563931274 -0.16157729061243595
0.21085585272849994 -0.009342907308672994
0.613911688747678 -0.009370780924897834
0.6138933024096375 -0.16158887558683524
0.6137264788788466 -0.3140386038497712
0.6133845421961422 -0.46644482756231676
0.6128797173517088 -0.618605672985109
0.6121861114734575 -0.7703784589998672
0.611138311596234 -0.9215674606806021
0.6094159062406523 -1.071818946417381
0.606632228026042 -1.2206396314304084
0.6024475435344527 -1.367364570508976
0.5965494507829109 -1.511092811235253
0.5886491985443325 -1.650657409358694
0.5784520344933537 -1.78462721560547
0.5656220008105357 -1.9113405273526518
0.5497618514853942 -2.028914191079934
0.53043106154088 -2.1352643747354603
0.5072333428084295 -2.228189972071537
0.48014435684442247 -2.3055431801752344
0.45009511456479295 -2.365492316820854
0.4196177031179604 -2.406905512884424
0.3933897391630445 -2.4300884255859465
0.3671617752081301 -2.406905512884348
0.3366843637613037 -2.365492316820703
0.3066351214816846 -2.305543180175018
0.2795461355176907 -2.228189972071271
0.2563484167852551 -2.1352643747351565
0.2370176268407567 -2.028914191079602
0.22115747751563075 -1.911340527352302
0.20832744383282825 -1.7846272156051126
0.19813027978186507 -1.650657409358339
0.19023002754330104 -1.5110928112349113
0.18433193479177154 -1.3673645705086548
0.18014725030019185 -1.2206396314301118
0.17736357208558864 -1.0718189464171135
0.17564116673001154 -0.9215674606803671
0.17459336685279017 -0.7703784589996687
0.1738997609745397 -0.6186056729849463
0.17339493613010673 -0.46644482756219124
0.1730529994474027 -0.31403860384968185
0.172886175916612 -0.16158887558678278
0.17286778957857138 -0.009370780924882686
0.6519135181526127 -0.009384068354547234
0.6518785715955613 -0.16159376873677297
0.6516940417382586 -0.314011355975599
0.6513152028845572 -0.4663942431997075
0.6507465664370787 -0.6185352297741776
0.6499412210278465 -0.7702695391750781
0.6486692865781357 -0.9213548032275641
0.6465550260687332 -1.0713995550812625
0.6432106005459174 -1.2199157797798077
0.6382513182082145 -1.3662459908700268
0.6313143336452581 -1.5094976097797068
0.6220531600343999 -1.648506730447163
0.6101073712667158 -1.7818352681356793
0.5950741475293372 -1.9078075621459871
0.5764999866614533 -2.0245270413303573
0.5539040122834137 -2.129906338382675
0.5268748604264375 -2.2217840117612306
0.49535196780514995 -2.2981692565058847
0.46030020875273764 -2.3575712083016036
0.4245386474876691 -2.3993663569447925
0.39338973916303643 -2.4244974298389237
0.36224083083840586 -2.399366356944718
0.3264792695733446 -2.3575712083014553
0.29142751052094434 -2.2981692565056715
0.25990461789967206 -2.2217840117609686
0.23287546604271306 -2.129906338382375
0.2102794916646912 -2.024527041330029
0.19170533079682547 -1.9078075621456407
0.1766721070594646 -1.7818352681353258
0.16472631829179835 -1.6485067304468117
0.1554651446809565 -1.5094976097793689
0.14852816011801426 -1.3662459908697084
0.14356887778032237 -1.2199157797795133
0.14022445225751493 -1.0713995550809965
0.1381101917481179 -0.9213548032273298
0.13683825729841007 -0.77026953917488
0.13603291188917888 -0.6185352297740149
0.13546427544170084 -0.466394243199582
0.1350854365879998 -0.31401135597550967
0.13490090673069727 -0.16159376873672052
0.1348659601736459 -0.009384068354532052
0.6899300811347746 -0.009387587059638547
0.689885355543193 -0.16159255216696744
0.6896876204772789 -0.31398072375253644
0.6892737348988323 -0.4663395338038412
0.6886404847107451 -0.6184570011569755
0.6877099529923874 -0.770135131244888
0.6861818763254302 -0.9210765348614177
0.6836690779731969 -1.0708735719866584
0.679761690795176 -1.2190384091596953
0.6740315983936311 -1.364915696436822
0.6660619324177002 -1.5076197076039077
0.6554439623298266 -1.645986676181444
0.6417511506444017 -1.7785706627144107
0.6245117693798881 -1.9036822096766264
0.6032126724603583 -2.0194159549034527
0.5773639273069615 -2.123692827770831
0.546597335296483 -2.2143945477254894
0.5108642243778868 -2.2896684023965395
0.47097775106904716 -2.3483818220043338
0.42983687301841134 -2.3905131010696747
0.3933897391630282 -2.4177626761535684
0.3569426053076478 -2.390513101069601
0.31580172725702044 -2.348381822004187
0.27591525394819477 -2.2896684023963294
0.24018214302961596 -2.214394547725232
0.20941555101915704 -2.123692827770536
0.18356680586578025 -2.01941595490313
0.1622677089462707 -1.9036822096762849
0.14502832768177745 -1.778570662714062
0.1313355159963728 -1.6459866761810968
0.12071754590851737 -1.5076197076035736
0.11274787993260198 -1.3649156964365066
0.10701778753106954 -1.2190384091594029
0.1031104003530582 -1.0708735719863942
0.10059760200083143 -0.9210765348611843
0.09906952533387788 -0.7701351312446899
0.09813899361552147 -0.618457001156813
0.0975057434274349 -0.4663395338037156
0.09709185784898854 -0.3139807237524472
0.09689412278307477 -0.16159255216691495
0.09684939719149308 -0.009387587059623368
0.7279600147063177 -0.009386243676955673
0.7279155084749647 -0.1615865016432829
0.7277133914052553 -0.31394735178551253
0.7272658291672692 -0.4662807063164966
0.7265619879070908 -0.6183693348367449
0.7254830876826532 -0.7699651023694757
0.7236807450096172 -0.920726012520459
0.720766780686261 -1.0702390028019388
0.7163005728108394 -1.2180067499437486
0.7098093623246596 -1.3633744618490824
0.7008188463454054 -1.5054598046982992
0.6888551189282602 -1.6430975685803562
0.6734206035144574 -1.774832280170498
0.6539752774824006 -1.8989624049835692
0.6299631825836708 -2.013581096803512
0.6008821904638474 -2.1166310527072065
0.5664364481327253 -2.206054400496932
0.5267187547805355 -2.2801185814874207
0.4824288723420911 -2.3379613400347212
0.43580068812621425 -2.3802559605287823
0.3933897391630199 -2.4097304568271465
0.3509787901998286 -2.3802559605287104
0.30435060598396163 -2.3379613400345773
0.26006072354553306 -2.280118581487215
0.22034303019336315 -2.206054400496679
0.1858972878622629 -2.116631052706916
0.15681629574246198 -2.0135810968031937
0.13280420084375463 -1.8989624049832328
0.1133588748117206 -1.774832280170155
0.09792435939794031 -1.6430975685800138
0.08596063198081529 -1.5054598046979693
0.07697011600157799 -1.3633744618487704
0.07047890551541222 -1.218006749943459
0.06601269764000117 -1.0702390028016762
0.06309873331665235 -0.9207260125202268
0.06129639064362057 -0.7699651023692784
0.06021749041918487 -0.6183693348365824
0.05951364915900706 -0.46628070631637103
0.05906608692102139 -0.31394735178542327
0.05886396985131221 -0.1615865016432304
0.05881946361995919 -0.009386243676940496
0.7659982807007862 -0.009384857097193604
0.765969883926536 -0.1615781103148604
0.7657793183462784 -0.3139124191583962
0.7652976943947444 -0.4662172530882148
0.7645079575253547 -0.6182672141623864
0.7632565021439067 -0.7697526054595049
0.7611723916467418 -0.9203002827737573
0.7578575638903734 -1.0694949291285927
0.7528420510448464 -1.2168220920152333
0.7456049135809609 -1.3616247485172384
0.7356125082230517 -1.5030206744118209
0.7223178657733366 -1.6398404748850086
0.7051494908107931 -1.7706201501615455
0.6835156290950309 -1.893650381180879
0.6568142861848483 -2.007026889480828
0.6245355917454058 -2.1087279527524156
0.586448715062773 -2.1967809825384044
0.542832375612675 -2.2695887447132974
0.49464773062225165 -2.326476398349727
0.44346051599742126 -2.368507577746052
0.39338973916301134 -2.3999999999999995
0.3433189623286045 -2.3685075777459814
0.2921317477037851 -2.326476398349587
0.24394710271338038 -2.2695887447130962
0.2003307632633049 -2.196780982538157
0.16224388658069636 -2.108727952752131
0.12996519214127866 -2.0070268894805157
0.10326384923112097 -1.8936503811805485
0.081629987515384 -1.770620150161208
0.06446161255286517 -1.6398404748846718
0.0511669701031724 -1.5030206744114956
0.04117456474528144 -1.3616247485169304
0.033937427281411206 -1.2168220920149468
0.02892191443589583 -1.0694949291283324
0.025607086679535568 -0.9203002827735266
0.023522976182375668 -0.7697526054593081
0.02227152080093001 -0.618267214162224
0.021481783931541133 -0.4662172530880893
0.021000159980007472 -0.31391241915830703
0.020809594399750036 -0.16157811031480793
0.020781197625499945 -0.009384857097178448
SCALARS Stress float 6
LOOKUP_TABLE default
-1058.6702103888722 -1845.1684288890413 -1374.571584318513 -13.105256618277647 0.0 0.0
1223.6341952757057 709.2887402300381 877.2040887077238 -24.598270992982663 0.0 0.0
535.468824707672 103.58773636624208 195.67693176464576 -36.48499013223831 0.0 0.0
452.1093500455171 17.29723476367028 141.89907598291688 -3.344303175633809 0.0 0.0
559.3060892106068 51.88523134348376 201.65332480916265 0.2792609922889091 0.0 0.0
647.530470404165 85.93665168083943 290.84235760773254 0.9327025286686319 0.0 0.0
748.1863412585702 114.9916118569407 386.4205316699052 0.41478580292383205 0.0 0.0
846.6271106646544 159.51742014783432 479.4240215271884 -0.4656793857927026 0.0 0.0
950.0026064246314 215.3428398311893 568.3455695420612 -1.6009369330342673 0.0 0.0
1066.098314539476 288.1841787367102 665.7829365646835 -2.86076887939913 0.0 0.0
1199.4182390338476 381.56032236194005 779.8004041567965 -4.13576397100093 0.0 0.0
1349.7790464819211 495.66177431087243 911.8835893852714 -5.302524047103625 0.0 0.0
1513.1529601229656 624.3759482720815 1057.440816712901 -6.047955055308954 0.0 0.0
1684.3067836466353 762.3763034571656 1211.475930818852 -6.673374119969329 0.0 0.0
1855.2611185533403 901.661189848096 1366.0233247628923 -7.130681102722889 0.0 0.0
2017.3846206621288 1033.9364524312616 1512.6677768404468 -7.389428536509927 0.0 0.0
2162.6310314248053 1152.004142633327 1643.8623370238029 -7.305600179923898 0.0 0.0
2282.715688490958 1248.5761143369537 1751.8882022096846 -6.7202305722752484 0.0 0.0
2373.137468488069 1320.1690329273347 1832.7135412416987 -5.600492331914438 0.0 0.0
2423.725209339759 1357.814109403764 1876.7991685986408 -5.411031650397124 0.0 0.0
2419.0655832748057 1350.5335887700328 1871.1615919338735 -1.425348727934761e-11 0.0 0.0
2423.7252093386487 1357.8141094026716 1876.7991685976474 5.411031650468537 0.0 0.0
2373.137468488096 1320.1690329274109 1832.713541241448 5.600492331930036 0.0 0.0
2282.7156884901515 1248.5761143362085 1751.8882022089463 6.720230572234843 0.0 0.0
2162.6310314257985 1152.0041426344421 1643.8623370242854 7.305600179821628 0.0 0.0
2017.3846206610306 1033.9364524302664 1512.667776839531 7.389428536418725 0.0 0.0
1855.2611185532048 901.6611898481013 1366.0233247626104 7.130681102843148 0.0 0.0
1684.3067836453743 762.376303456047 1211.475930817735 6.673374119976584 0.0 0.0
1513.1529601217348 624.3759482710193 1057.4408167118731 6.047955055168707 0.0 0.0
1349.7790464812513 495.66177431041336 911.883589384624 5.302524047069642 0.0 0.0
1199.4182390333312 381.5603223616522 779.8004041563127 4.135763971006485 0.0 0.0
1066.0983145379712 288.1841787354086 665.7829365635721 2.8607688794463044 0.0 0.0
950.0026064249172 215.34283983176164 568.3455695421184 1.600936932989745 0.0 0.0
846.6271106632371 159.5174201466295 479.42402152616256 0.46567938574888323 0.0 0.0
748.186341258202 114.99161185684905 386.42053166948347 -0.41478580283813393 0.0 0.0
647.5304704035185 85.93665168044468 290.8423576071674 -0.932702528702869 0.0 0.0
559.3060892101958 51.88523134332105 201.653324808883 -0.27926099230032797 0.0 0.0
452.10935004528824 17.29723476363072 141.89907598284003 3.3443031755905963 0.0 0.0
535.4688247073265 103.58773636599928 195.67693176443876 36.48499013221594 0.0 0.0
1223.634195275192 709.2887402295254 877.2040887071136 24.59827099306819 0.0 0.0
-1058.6702103862729 -1845.168428886464 -1374.5715843159333 13.105256617697616 0.0 0.0
-1349.1289181973311 -2104.885805042053 -1613.3911594628617 -12.279146578721495 0.0 0.0
828.7372879943747 396.58898709744756 546.2321995651945 -35.770150326625085 0.0 0.0
370.8197817350102 41.83939367578124 122.42185947853133 -29.759570795868914 0.0 0.0
400.8337969285718 1.6620106731236177 120.85047592223657 -16.43913226721164 0.0 0.0
498.70651890600567 22.244044610933226 166.62867423716565 -15.112294791383915 0.0 0.0
587.0897186032421 29.84331382194846 234.63570051694222 -18.933087569297932 0.0 0.0
659.9133452922529 41.176311453909676 311.14529822337573 -21.207782541706795 0.0 0.0
731.6186769783008 57.041048381471995 378.2462560528924 -22.033779672616532 0.0 0.0
799.0627846141376 76.1945202350385 431.90263739254317 -22.29841917183551 0.0 0.0
866.6774994408781 100.71504254479862 481.4218693162355 -22.510403211223963 0.0 0.0
936.4103386003807 131.14774817334475 532.5036616677721 -22.490482325796993 0.0 0.0
1008.2952027200104 166.16781011888082 586.2113213997524 -22.26032905388667 0.0 0.0
1080.3957091390162 204.86058623676712 641.6093909099719 -21.73453514042616 0.0 0.0
1150.2268962955934 241.87014150916087 694.9470564152026 -21.118534780371007 0.0 0.0
1211.55385035901 271.9172648993871 740.5350571329308 -20.509278395193583 0.0 0.0
1259.3839452888028 290.2763252906049 773.5381956071768 -19.705016784512406 0.0 0.0
1290.3897398059075 294.31734000160276 791.0030653969999 -18.435341964541703 0.0 0.0
1304.8088887871106 285.2430098147966 793.6668430106896 -16.494574180460287 0.0 0.0
1302.8879043356485 264.44943676805843 782.429917301538 -13.94586843909763 0.0 0.0
1267.9827542715827 216.68160128399973 741.7055357731829 -11.924068064581256 0.0 0.0
1204.8569307720086 151.22567544313247 678.4903548670179 5.054801022197353e-11 0.0 0.0
1267.9827542711218 216.6816012835571 741.705535772802 11.92406806472465 0.0 0.0
1302.8879043358315 264.4494367682826 782.429917301622 13.945868439105926 0.0 0.0
1304.8088887862987 285.2430098140372 793.6668430100219 16.49457418045739 0.0 0.0
1290.3897398071063 294.31734000289885 791.0030653979262 18.43534196448251 0.0 0.0
1259.3839452880711 290.27632528997185 773.5381956065794 19.705016784445306 0.0 0.0
1211.5538503586579 271.91726489916573 740.5350571325773 20.509278395317885 0.0 0.0
1150.22689629514 241.87014150885756 694.9470564148588 21.118534780355283 0.0 0.0
1080.3957091382456 204.8605862361562 641.6093909094238 21.73453514033368 0.0 0.0
1008.2952027200428 166.16781011911044 586.2113213997673 22.26032905384057 0.0 0.0
936.410338600201 131.1477481733753 532.5036616676427 22.49048232572687 0.0 0.0
866.677499440488 100.71504254465216 481.4218693159316 22.510403211229473 0.0 0.0
799.0627846139605 76.19452023508599 431.9026373923737 22.298419171791487 0.0 0.0
731.6186769780035 57.041048381444256 378.2462560526017 22.033779672531033 0.0 0.0
659.9133452920378 41.17631145399476 311.1452982230931 21.207782541721873 0.0 0.0
587.089718602561 29.843313821489033 234.6357005164062 18.93308756922484 0.0 0.0
498.70651890550675 22.24404461067878 166.62867423688314 15.112294791272197 0.0 0.0
400.8337969283581 1.6620106730342745 120.85047592215375 16.439132267244908 0.0 0.0
370.8197817348556 41.83939367561106 122.42185947844283 29.759570795836073 0.0 0.0
828.7372879938148 396.58898709693074 546.2321995645608 35.77015032664858 0.0 0.0
-1349.1289181953377 -2104.885805040004 -1613.3911594607728 12.279146578165596 0.0 0.0
-1108.201925841048 -1829.7513745973072 -1345.1248696153073 -51.15080197367732 0.0 0.0
631.5032198357181 304.5244059458558 404.34659412852386 -101.41943570336333 0.0 0.0
263.6317438014176 49.363605848286646 93.89849019576947 -31.05001038203786 0.0 0.0
342.1697053880605 -0.4918766827012959 102.51055184866244 -36.677165272340694 0.0 0.0
453.21411982000774 14.213615003546726 143.77780010354803 -37.322550346366455 0.0 0.0
555.2078486296597 26.054759004891565 207.8029745772588 -37.34968914861044 0.0 0.0
631.5267878079588 38.7847015930637 286.5776379590138 -40.084183005011305 0.0 0.0
705.1724666576232 50.92668226605991 356.1760393202087 -41.528080946190755 0.0 0.0
771.3849082761465 67.70670188076276 411.32091687052906 -42.25138038923349 0.0 0.0
835.9995094908884 88.59782606601765 458.95836598141557 -42.69384138320741 0.0 0.0
901.8163604751973 115.29910868620641 506.71179549417593 -42.5904278910118 0.0 0.0
969.4084124169149 147.3813734482726 556.9526193904566 -41.829828714275536 0.0 0.0
1038.2786292440724 181.94281322236608 608.7341949239042 -40.76416036266274 0.0 0.0
1103.6860679143697 215.9252868300867 658.3845051245283 -39.568591915241214 0.0 0.0
1161.95819367833 243.32428138635626 701.1289242710712 -38.34716849981954 0.0 0.0
1207.8473152691406 260.08319091009827 732.3645449653334 -36.79989616313786 0.0 0.0
1239.1650181641724 264.5999172081216 750.229595722893 -34.45414349395869 0.0 0.0
1254.365813420513 256.2685334229801 753.6914512228025 -31.0820203631782 0.0 0.0
1248.028575213894 230.8996899897652 738.0977190593171 -26.809814405824493 0.0 0.0
1226.1385529999002 196.14354469140676 710.1420040545501 -21.733716416917915 0.0 0.0
1147.0325600692545 115.01355740035473 631.446893277917 4.4292569612025545e-11 0.0 0.0
1226.1385529996396 196.14354469115716 710.1420040543525 21.733716417041695 0.0 0.0
1248.0285752144541 230.89968999040627 738.0977190597298 26.809814405864188 0.0 0.0
1254.3658134198533 256.26853342238456 753.6914512222671 31.082020363283057 0.0 0.0
1239.1650181644854 264.59991720852804 750.2295957231414 34.45414349398718 0.0 0.0
1207.8473152681509 260.0831909092079 732.3645449645342 36.79989616314452 0.0 0.0
1161.9581936770771 243.32428138521945 701.1289242701355 38.347168499852394 0.0 0.0
1103.6860679142226 215.9252868301109 658.3845051243834 39.56859191533578 0.0 0.0
1038.2786292436813 181.9428132221321 608.7341949236232 40.76416036261253 0.0 0.0
969.4084124168277 147.38137344839214 556.9526193904393 41.82982871430333 0.0 0.0
901.8163604747807 115.2991086859888 506.7117954938672 42.590427890976585 0.0 0.0
835.999509491095 88.59782606645402 458.9583659815181 42.6938413832091 0.0 0.0
771.3849082755688 67.70670188044122 411.3209168700985 42.25138038923812 0.0 0.0
705.1724666574596 50.92668226613422 356.17603931999116 41.5280809461211 0.0 0.0
631.5267878077432 38.784701593140724 286.57763795870954 40.08418300490142 0.0 0.0
555.2078486290449 26.054759004512416 207.80297457678796 37.349689148499856 0.0 0.0
453.2141198195679 14.213615003405224 143.7778001033575 37.32255034634929 0.0 0.0
342.1697053878936 -0.49187668286797304 102.51055184856152 36.6771652724184 0.0 0.0
263.63174380122314 49.363605847845434 93.89849019557896 31.05001038199366 0.0 0.0
631.5032198352233 304.52440594562285 404.34659412801716 101.41943570326151 0.0 0.0
-1108.2019258391974 -1829.7513745953495 -1345.1248696132864 51.150801973357474 0.0 0.0
-895.8555825973325 -1586.6069204553428 -1108.5929704735736 -64.77924087760465 0.0 0.0
475.19889019796886 210.1974329191434 288.6398444214065 -143.87310539836062 0.0 0.0
194.07164167827074 47.126651124122944 72.35948784071809 -53.339860915131794 0.0 0.0
285.97311985367776 4.174821171823702 87.04574814846205 -56.44536133422928 0.0 0.0
398.327508713488 6.628087891525814 121.52105090518178 -61.09418490910985 0.0 0.0
509.10770379961883 21.22736501524353 178.62256248013944 -57.653507406034734 0.0 0.0
601.5384447718627 33.7435061206696 257.0061685685373 -60.42658372626774 0.0 0.0
673.636466318881 45.067388617151806 329.7229065103455 -61.36706277567824 0.0 0.0
739.6916518469486 59.30832701257881 387.4555385876928 -62.03991824079938 0.0 0.0
801.6842521898237 76.96777905590602 434.31545924814736 -62.369966856010066 0.0 0.0
863.3178954190828 99.7926443436748 478.8546452559627 -61.921314949854725 0.0 0.0
926.9888974335926 127.64357868078315 525.2864777126614 -60.71275666202055 0.0 0.0
991.5017211152405 159.46718788953453 573.638877098479 -59.052697900594005 0.0 0.0
1053.3801017830272 188.93626627995417 619.3091991750948 -57.46135354633509 0.0 0.0
1108.0715591190108 213.585368546979 658.9042338356429 -55.73166951953743 0.0 0.0
1152.9272906149824 230.01678708183664 689.4786548644258 -53.474557899501775 0.0 0.0
1184.889144201587 234.99182067250302 707.9086883458318 -50.2897628482497 0.0 0.0
1200.3308533707357 226.61915683367062 711.5112635120357 -45.88920474606857 0.0 0.0
1196.9514724229693 203.80695549142933 698.6636594794511 -39.89479788729297 0.0 0.0
1181.9640466840046 175.2632868768352 677.1430435960601 -30.749000980097406 0.0 0.0
1069.5830068780385 60.85854780097674 565.9770818065098 -6.02895511292445e-12 0.0 0.0
1181.9640466840533 175.26328687692194 677.1430435960418 30.749000980220178 0.0 0.0
1196.9514724236815 203.80695549220053 698.6636594799968 39.89479788732928 0.0 0.0
1200.3308533713694 226.61915683438394 711.5112635125314 45.88920474613521 0.0 0.0
1184.8891442015797 234.991820672578 707.908688345749 50.28976284826577 0.0 0.0
1152.9272906148183 230.01678708177525 689.4786548642863 53.474557899516945 0.0 0.0
1108.0715591190406 213.585368547156 658.9042338356381 55.73166951950029 0.0 0.0
1053.380101782934 188.9362662800252 619.3091991749734 57.461353546425954 0.0 0.0
991.501721114818 159.46718788925165 573.6388770981714 59.05269790052601 0.0 0.0
926.9888974333564 127.64357868077516 525.286477712491 60.71275666210725 0.0 0.0
863.3178954183634 99.7926443431205 478.85464525546286 61.92131494976624 0.0 0.0
801.6842521898282 76.96777905617944 434.3154592481165 62.369966856088055 0.0 0.0
739.6916518468529 59.30832701275163 387.4555385875672 62.0399182408049 0.0 0.0
673.6364663182791 45.06738861677415 329.7229065098326 61.36706277559292 0.0 0.0
601.5384447715296 33.74350612061647 257.0061685681734 60.42658372617305 0.0 0.0
509.1077037992495 21.22736501521871 178.6225624798797 57.65350740587607 0.0 0.0
398.32750871312186 6.628087891496033 121.52105090507057 61.09418490910067 0.0 0.0
285.97311985357794 4.174821171638834 87.04574814837422 56.44536133418355 0.0 0.0
194.07164167821705 47.12665112396107 72.35948784065344 53.33986091499997 0.0 0.0
475.19889019744807 210.19743291895375 288.6398444209573 143.87310539826325 0.0 0.0
-895.8555825957063 -1586.6069204535856 -1108.5929704717628 64.77924087744597 0.0 0.0
-712.6447381151647 -1374.1707426382789 -901.3880770909448 -65.2742151129238 0.0 0.0
360.393688979711 128.87195806493938 200.20640302792773 -173.2851296019994 0.0 0.0
143.3304245539945 39.80694103080632 54.94120967544024 -82.15900556802922 0.0 0.0
234.23160490270936 10.722588941894438 73.48701350957303 -77.66291194360176 0.0 0.0
336.4142524744934 4.436380882935977 101.91588394763771 -84.09693095659661 0.0 0.0
456.5600957606785 9.694377784140228 147.4066317199649 -83.8374512624375 0.0 0.0
558.7241091369821 27.050043983370518 221.46737042155115 -80.94670811560542 0.0 0.0
636.2459730305658 40.58746930018829 298.89744304436346 -81.43798848354974 0.0 0.0
702.8943144785999 51.35653525192254 359.3046137571514 -81.6818382627408 0.0 0.0
762.6738042814872 65.65087187354757 406.44441833552366 -81.50975534155451 0.0 0.0
820.8624174499762 84.33338614520251 448.5091356950111 -80.5601024030125 0.0 0.0
880.1019628556243 107.97866697439684 491.14088210592115 -78.81518615633797 0.0 0.0
940.489464113647 135.13503558939175 535.2865881447176 -76.7686165240582 0.0 0.0
998.176005511049 162.41681444554996 577.8595262803894 -74.73088531560276 0.0 0.0
1050.0348494383425 184.00897645739065 614.5523255027249 -72.58934341970715 0.0 0.0
1093.0678443383601 198.21613944615558 643.1212438854867 -69.82904887023442 0.0 0.0
1125.8134556077557 204.4688675059927 662.6056484252579 -65.98577604801422 0.0 0.0
1144.3916273555512 198.9027702038996 669.1662461794162 -60.81821479454082 0.0 0.0
1145.4089022657463 179.65463672295138 660.2752585299568 -53.091970413828115 0.0 0.0
1133.3081727140775 152.52355162053243 640.8736959507967 -40.11040543083057 0.0 0.0
979.2656594970697 -3.607206512641582 489.155583414062 1.2785328351583303e-10 0.0 0.0
1133.3081727143694 152.52355162084257 640.8736959510986 40.11040543103778 0.0 0.0
1145.4089022655155 179.65463672277357 660.2752585298101 53.09197041384597 0.0 0.0
1144.3916273559346 198.902770204343 669.1662461797443 60.818214794628425 0.0 0.0
1125.8134556074285 204.46886750574012 662.6056484250038 65.98577604801166 0.0 0.0
1093.0678443381446 198.21613944601262 643.1212438852968 69.82904887021859 0.0 0.0
1050.0348494386908 184.00897645790138 614.5523255029228 72.5893434197418 0.0 0.0
998.1760055105133 162.4168144451449 577.8595262799901 74.73088531563202 0.0 0.0
940.4894641129741 135.1350355888612 535.2865881442373 76.7686165240228 0.0 0.0
880.1019628555765 107.97866697454542 491.14088210585606 78.8151861563845 0.0 0.0
820.8624174493972 84.33338614478788 448.509135694579 80.56010240289989 0.0 0.0
762.6738042814076 65.65087187376076 406.44441833545426 81.50975534164331 0.0 0.0
702.8943144781705 51.35653525175663 359.30461375680017 81.68183826274402 0.0 0.0
636.2459730299844 40.587469299865816 298.8974430438594 81.43798848355951 0.0 0.0
558.7241091363338 27.05004398299417 221.4673704210356 80.94670811556958 0.0 0.0
456.5600957605016 9.694377784376508 147.40663171988555 83.83745126233552 0.0 0.0
336.41425247426463 4.4363808830330695 101.91588394761952 84.0969309564546 0.0 0.0
234.2316049026347 10.722588941750928 73.4870135095071 77.6629119434616 0.0 0.0
143.33042455408483 39.80694103099456 54.941209675523815 82.15900556784872 0.0 0.0
360.39368897915716 128.8719580646325 200.20640302748433 173.2851296018627 0.0 0.0
-712.6447381138182 -1374.1707426367836 -901.3880770893697 65.27421511274999 0.0 0.0
-552.4188456422427 -1185.8215054364719 -718.6606216309581 -65.10323613773487 0.0 0.0
270.1261912389814 66.45455532286506 133.49908387936276 -188.9887890810442 0.0 0.0
103.83917610343889 29.20948084995331 39.91459708601764 -109.38345192124152 0.0 0.0
186.07218496362324 16.16608951480334 60.67278353667376 -99.36718720504489 0.0 0.0
275.4247157851908 4.266920811338535 83.80431366559489 -105.82133128567985 0.0 0.0
387.8795391295479 3.818732009361214 119.1317975264869 -108.59069898273462 0.0 0.0
497.14233418021104 20.09449467439284 182.41824031735615 -103.4418460948813 0.0 0.0
591.8688461405243 32.340965983914145 259.58108807883934 -102.94509546104373 0.0 0.0
657.504547152847 44.43698061544545 325.1093348608417 -100.79130119610343 0.0 0.0
718.1286977521706 54.431667942951655 373.9946916074311 -100.20180910037175 0.0 0.0
773.0301881653594 68.98060895192462 414.5614046606504 -98.51786295316367 0.0 0.0
828.0004536918937 88.32198751260634 453.8241932449443 -96.15835290381739 0.0 0.0
883.835934997208 111.51594737267035 494.09821209902816 -93.6623936600358 0.0 0.0
937.4493944157514 134.19508253923217 532.4898592630594 -91.39124387050263 0.0 0.0
986.1803573412211 153.6820326572361 566.6396428863359 -88.97805619260308 0.0 0.0
1027.4960271686768 167.02430163723108 594.0015298614468 -85.68397652504548 0.0 0.0
1060.789947768825 172.6371493378586 613.443334695123 -81.43682123490903 0.0 0.0
1083.8956573790308 171.34627885605892 624.3379533752584 -75.76631105026031 0.0 0.0
1091.034992112908 157.46031794891965 621.1803445816226 -66.66586345364476 0.0 0.0
1080.5781676887973 129.68381216949638 602.3161247977066 -50.40209074044291 0.0 0.0
876.0268560452358 -76.8899568158718 401.7374747596997 8.01243515979877e-11 0.0 0.0
1080.5781676879994 129.6838121687125 602.3161247972132 50.40209074049639 0.0 0.0
1091.0349921128045 157.46031794891826 621.1803445815758 66.6658634537607 0.0 0.0
1083.8956573782132 171.3462788552971 624.3379533747055 75.76631105041041 0.0 0.0
1060.7899477689666 172.6371493381456 613.4433346952068 81.43682123503481 0.0 0.0
1027.4960271683267 167.02430163696084 594.0015298611835 85.68397652507059 0.0 0.0
986.1803573414041 153.68203265760252 566.6396428864068 88.97805619266322 0.0 0.0
937.4493944155366 134.19508253916922 532.4898592628076 91.39124387053097 0.0 0.0
883.8359349967436 111.5159473723814 494.0982120986814 93.66239366006738 0.0 0.0
828.000453691959 88.32198751291732 453.8241932449915 96.15835290390062 0.0 0.0
773.0301881651036 68.98060895189943 414.56140466039517 98.51786295321102 0.0 0.0
718.128697751695 54.431667942659416 373.99469160709396 100.20180910030707 0.0 0.0
657.5045471521714 44.43698061497189 325.1093348602946 100.79130119604586 0.0 0.0
591.8688461398642 32.34096598348199 259.58108807827733 102.94509546094665 0.0 0.0
497.1423341794473 20.0944946738849 182.4182403168194 103.4418460948658 0.0 0.0
387.8795391291725 3.818732009386067 119.13179752636174 108.59069898257748 0.0 0.0
275.42471578490057 4.266920811138907 83.80431366544806 105.82133128552721 0.0 0.0
186.0721849635685 16.16608951486024 60.67278353667407 99.36718720489253 0.0 0.0
103.83917610344224 29.209480850046393 39.91459708604659 109.38345192101403 0.0 0.0
270.1261912384941 66.45455532268042 133.49908387903048 188.98878908090091 0.0 0.0
-552.4188456410702 -1185.8215054350906 -718.6606216295742 65.10323613764353 0.0 0.0
-415.62950071225 -1012.4058629155184 -558.7745379451543 -65.97447770685126 0.0 0.0
199.27343590874878 16.61963089475347 83.21163286295301 -197.64052576245632 0.0 0.0
71.25497572549325 18.20843897455645 26.83902441001491 -131.95532873662285 0.0 0.0
140.52614644151262 19.545009585075494 48.021931782443765 -119.85343530611145 0.0 0.0
216.64893777491176 6.081085257615167 66.81979746399115 -125.10726097869616 0.0 0.0
311.966920168599 -1.196816310467343 92.48332204252144 -133.47637172267483 0.0 0.0
424.9585898226901 8.275550978663528 140.90573314448824 -130.48841405351484 0.0 0.0
524.2114808389447 25.616332859433417 212.44139041946733 -123.91954197939086 0.0 0.0
605.9903858159181 33.3623367691202 280.8697790666266 -122.43314172095425 0.0 0.0
663.8004028313147 43.76370259479122 334.1227445925034 -118.09902405723776 0.0 0.0
718.2485611732087 53.732229455093425 375.12287462071606 -115.7548602727548 0.0 0.0
769.2804067964096 68.53814116329522 411.88930295795024 -112.80242234361258 0.0 0.0
820.3419540929149 87.25765679844483 448.3694282205521 -109.85787329113646 0.0 0.0
869.48416283062 106.35654157779935 483.0929526607114 -107.3153376796793 0.0 0.0
914.6393652280467 122.91763325317575 514.1844951052251 -104.73699542251606 0.0 0.0
953.9729496238178 133.4123148299761 539.2272983567486 -101.43199150391074 0.0 0.0
987.3404058602583 140.8234869394584 559.6650503776867 -96.45892578570286 0.0 0.0
1016.3297246511602 143.99247612425515 575.6209446545198 -90.48483991270736 0.0 0.0
1031.4323028351785 135.97878691323962 579.3237959504419 -80.90060123277199 0.0 0.0
1023.4886284075765 108.12576846807139 561.8159646786314 -62.262198118496386 0.0 0.0
757.7203704044103 -159.05595645066697 302.71561758313345 3.4850344832193514e-11 0.0 0.0
1023.4886284065005 108.1257684670236 561.8159646779598 62.26219811849712 0.0 0.0
1031.432302835209 135.97878691341242 579.3237959505268 80.90060123308231 0.0 0.0
1016.3297246507146 143.99247612386552 575.6209446541573 90.48483991281161 0.0 0.0
987.3404058608744 140.82348694025916 559.665050378068 96.45892578587781 0.0 0.0
953.9729496235193 133.4123148297566 539.2272983566033 101.43199150392186 0.0 0.0
914.6393652279111 122.91763325322722 514.1844951051098 104.7369954226703 0.0 0.0
869.4841628309123 106.35654157828253 483.09295266089276 107.31533767980474 0.0 0.0
820.3419540928716 87.25765679856973 448.36942822047416 109.85787329117058 0.0 0.0
769.2804067961799 68.53814116324571 411.8893029578151 112.80242234360905 0.0 0.0
718.2485611730342 53.73222945508533 375.12287462047016 115.75486027268188 0.0 0.0
663.8004028307857 43.76370259437215 334.1227445920917 118.09902405704608 0.0 0.0
605.9903858157118 33.362336769264516 280.86977906638987 122.43314172097922 0.0 0.0
524.2114808386577 25.616332859543743 212.4413904191945 123.9195419793515 0.0 0.0
424.9585898221777 8.27555097847561 140.90573314416488 130.4884140534452 0.0 0.0
311.9669201680265 -1.196816310790167 92.48332204228043 133.47637172239604 0.0 0.0
216.64893777467918 6.081085257349535 66.8197974638392 125.10726097850984 0.0 0.0
140.52614644145982 19.545009585132913 48.021931782444966 119.85343530600306 0.0 0.0
71.25497572547813 18.208438974522274 26.839024410000125 131.95532873642452 0.0 0.0
199.27343590836625 16.6196308945396 83.21163286268299 197.64052576228127 0.0 0.0
-415.6295007112851 -1012.4058629143027 -558.7745379439896 65.97447770681224 0.0 0.0
-295.1361692732865 -864.3725077234377 -419.99688029292327 -77.10070715247053 0.0 0.0
138.22007968317345 -20.653251759796518 44.16262750453189 -197.31565133611787 0.0 0.0
42.9296939239556 9.134487344347274 15.619279055332381 -149.3973524879437 0.0 0.0
96.70445944933121 20.901495465998533 35.28232837029519 -137.71903904616332 0.0 0.0
158.56948264619174 8.769287639321794 50.184666612542884 -141.91258277811522 0.0 0.0
231.56452989564374 -0.7526336255736249 68.84868257439041 -152.68467240869023 0.0 0.0
333.58990649397936 -0.461966473155595 101.60261932292048 -157.70394772576188 0.0 0.0
437.4162883016939 12.952349913365495 157.5664530331003 -147.85188904174 0.0 0.0
528.6895934558191 24.952301156787485 224.53756030224716 -141.8146725971021 0.0 0.0
598.176330164645 29.386669170293573 280.8752780482208 -137.76189887522426 0.0 0.0
651.2725840840321 37.62601867043886 324.884339282182 -132.22463083483152 0.0 0.0
699.6135563518274 48.83142264706113 361.5322227593618 -128.48173696373308 0.0 0.0
746.6955802346563 63.0323990514691 395.47136519502305 -125.15588469772369 0.0 0.0
790.7166896322964 77.76132530850066 426.38870991166567 -122.40492083346122 0.0 0.0
832.1485957537246 90.91053768245726 454.3663346450235 -119.86633172096036 0.0 0.0
868.8102776631933 100.43496771545016 477.8785323566848 -116.56161945299193 0.0 0.0
901.8678523950362 105.87215289603134 497.3862381259802 -111.4792430882679 0.0 0.0
935.6221232056635 113.62456761847574 517.8555379642986 -104.83462348703479 0.0 0.0
962.1687456901063 116.36568869195739 532.5445812801378 -95.43279918181213 0.0 0.0
960.8270689674791 91.15361225742997 519.9643331145658 -76.45957506024187 0.0 0.0
618.5598172713974 -250.35329857754775 189.29283895778573 7.883471653258312e-11 0.0 0.0
960.8270689664087 91.15361225640521 519.9643331138899 76.45957506031064 0.0 0.0
962.1687456899703 116.3656886919495 532.5445812800936 95.43279918214205 0.0 0.0
935.622123205543 113.62456761848792 517.855537964178 104.83462348725348 0.0 0.0
901.8678523948066 105.87215289589471 497.38623812580465 111.47924308839181 0.0 0.0
868.810277662826 100.43496771520353 477.8785323564338 116.56161945300373 0.0 0.0
832.1485957531231 90.9105376819181 454.36633464456077 119.86633172096211 0.0 0.0
790.7166896322274 77.76132530860922 426.3887099116232 122.40492083352665 0.0 0.0
746.6955802344019 63.03239905124081 395.4713651948086 125.15588469764478 0.0 0.0
699.6135563514304 48.83142264682723 361.5322227591092 128.48173696365217 0.0 0.0
651.2725840838079 37.62601867040607 324.8843392819439 132.2246308348048 0.0 0.0
598.1763301642816 29.386669170115788 280.87527804791586 137.76189887514067 0.0 0.0
528.6895934549007 24.952301155965152 224.53756030159323 141.81467259703481 0.0 0.0
437.4162883017445 12.952349914036326 157.56645303315418 147.8518890418218 0.0 0.0
333.5899064936967 -0.46196647300038407 101.60261932284295 157.703947725673 0.0 0.0
231.5645298952895 -0.7526336258166353 68.84868257422677 152.68467240846323 0.0 0.0
158.56948264615232 8.769287639318149 50.18466661252735 141.91258277794853 0.0 0.0
96.70445944930032 20.901495466034792 35.282328370296675 137.71903904601223 0.0 0.0
42.92969392389957 9.134487344385619 15.619279055327032 149.39735248777234 0.0 0.0
138.22007968272908 -20.653251760112184 44.16262750425046 197.31565133588498 0.0 0.0
-295.13616927262206 -864.3725077224024 -419.99688029203907 77.10070715251445 0.0 0.0
-208.84594435052819 -719.8827409442429 -313.08939146134674 -87.17542438490544 0.0 0.0
85.5470620118891 -50.19207422113645 14.67877195946965 -190.8118296442305 0.0 0.0
16.28159754585374 2.945092403652996 5.769506256274418 -162.02302426918487 0.0 0.0
54.36289634601762 20.78703860573376 22.544611033223912 -152.09613805769416 0.0 0.0
100.23250690328376 11.48587591447449 33.50326714007227 -155.30102101756526 0.0 0.0
152.63635836561306 1.7260130571284327 46.20777304431207 -167.00774229748097 0.0 0.0
225.55413762949453 -2.9771817689833053 66.23921400596393 -180.9036237744199 0.0 0.0
323.5528373676865 -2.5087009641044293 100.17716475793057 -179.5653905894108 0.0 0.0
420.3340654539286 8.009656129892633 151.90433036595704 -164.65789884609262 0.0 0.0
499.40322218837133 14.764322242399194 206.28615370075852 -154.8215772716102 0.0 0.0
559.2221523233012 20.621253978288046 253.38116870172888 -147.0936356801529 0.0 0.0
608.10499800344 27.32355103812452 291.24948873419515 -142.596868221011 0.0 0.0
652.2302210068802 38.166921770591514 325.3101613051478 -139.04723114851515 0.0 0.0
691.670539664404 48.69082102159996 354.1966906774187 -136.2933095413332 0.0 0.0
728.4300076794095 58.3890656491818 379.66735052334434 -133.98568344118956 0.0 0.0
762.564968462029 65.88618799921224 401.78773906839416 -131.17331180461014 0.0 0.0
795.6507991470893 71.80067632209601 422.25073914576404 -126.38124903600999 0.0 0.0
830.0144255399076 78.96155344869575 443.1841570394161 -118.95934884783304 0.0 0.0
869.335746644019 91.19006513299126 468.68549200130735 -109.73016858470662 0.0 0.0
888.109438398041 81.17508745764067 474.29845291040795 -94.14727419234296 0.0 0.0
450.18606317744985 -347.69736576965647 59.27336503886162 5.1954884838778526e-11 0.0 0.0
888.1094383975274 81.17508745723455 474.2984529100998 94.14727419244406 0.0 0.0
869.3357466436577 91.19006513272456 468.6854920010774 109.73016858496342 0.0 0.0
830.0144255396932 78.96155344860861 443.18415703925325 118.95934884811115 0.0 0.0
795.6507991466187 71.80067632165057 422.2507391453822 126.38124903596588 0.0 0.0
762.5649684618886 65.88618799926051 401.7877390683081 131.17331180469785 0.0 0.0
728.4300076789897 58.3890656487217 379.66735052305853 133.98568344115327 0.0 0.0
691.6705396641044 48.690821021394214 354.19669067719195 136.29330954132752 0.0 0.0
652.230221006343 38.166921770120695 325.31016130475325 139.0472311485014 0.0 0.0
608.1049980032225 27.323551038124087 291.249488734013 142.59686822101204 0.0 0.0
559.2221523235576 20.621253978890124 253.38116870184058 147.09363568020916 0.0 0.0
499.4032221880036 14.76432224227008 206.28615370045227 154.82157727152298 0.0 0.0
420.3340654529415 8.00965612905726 151.90433036529654 164.65789884603947 0.0 0.0
323.5528373673528 -2.5087009640819833 100.17716475778752 179.56539058946015 0.0 0.0
225.5541376291767 -2.977181768827009 66.23921400592982 180.9036237741632 0.0 0.0
152.63635836537063 1.726013056985086 46.207773044208444 167.00774229718954 0.0 0.0
100.23250690317153 11.485875914356571 33.503267140001334 155.30102101742324 0.0 0.0
54.36289634607147 20.78703860598939 22.54461103331674 152.09613805748157 0.0 0.0
16.28159754586753 2.9450924038140918 5.76950625632659 162.02302426895395 0.0 0.0
85.54706201151964 -50.19207422135936 14.678771959264798 190.81182964403934 0.0 0.0
-208.84594435001057 -719.8827409433114 -313.08939146070395 87.17542438502169 0.0 0.0
-143.45252153643565 -597.7371157009317 -231.50468212798427 -103.66761852370206 0.0 0.0
38.74066465844163 -69.635482834844 -8.011352404838927 -178.40311971366555 0.0 0.0
-8.906175577784705 -0.3023889540928347 -2.762242661624391 -169.95554160714624 0.0 0.0
13.222199572900863 19.7004585486347 9.877099709274384 -162.49301980668497 0.0 0.0
42.24327518812684 13.83562583752514 16.826006796724645 -164.73429831950432 0.0 0.0
73.59286199667467 4.814069365804662 23.429407107161573 -177.59965529191433 0.0 0.0
111.88149286559435 -0.45205092779040346 33.308698983059166 -192.81849730476023 0.0 0.0
168.09632113681505 -2.8884572308589487 49.554030351924304 -199.33306806508074 0.0 0.0
247.67451241010053 -7.549030892462728 73.28342273199277 -194.6167189935106 0.0 0.0
332.4403395397028 -15.85966419677515 101.20379895089653 -182.04321794941487 0.0 0.0
403.4083967721488 -17.477358952616697 132.74960825752615 -169.33399659328177 0.0 0.0
452.70388668092625 -11.239373975750205 164.15481775879078 -158.18541980517588 0.0 0.0
492.65126476801413 1.2835981622682517 194.6332651623395 -152.5661861104296 0.0 0.0
529.2653593966281 14.652633994338775 223.60510680932921 -149.657860936987 0.0 0.0
562.356071463094 23.81526966000881 250.42008022744162 -148.65721329798734 0.0 0.0
593.8911106783465 31.13394749215552 275.7041303088301 -149.02051882552064 0.0 0.0
627.6085428307657 36.908725187921874 301.4525500715603 -146.4837970727127 0.0 0.0
664.8628552175045 41.173730211226584 327.1179848740254 -138.60354561682936 0.0 0.0
707.2786719700438 46.78053765325957 353.38107800494356 -126.92587735888188 0.0 0.0
769.8864210533077 70.28599121862686 398.94157139986186 -117.01224898405744 0.0 0.0
219.77568000833705 -450.2273908046604 -101.1473849301 9.407585821463726e-11 0.0 0.0
769.8864210543294 70.28599122003862 398.9415714006377 117.01224898433335 0.0 0.0
707.2786719695617 46.7805376528906 353.3810780046577 126.92587735916564 0.0 0.0
664.8628552176415 41.173730211427745 327.1179848741109 138.6035456171279 0.0 0.0
627.6085428308303 36.908725188233674 301.4525500715742 146.4837970728862 0.0 0.0
593.8911106776557 31.13394749132614 275.7041303083781 149.02051882549773 0.0 0.0
562.3560714634506 23.815269660604965 250.4200802276601 148.6572132978774 0.0 0.0
529.2653593957639 14.652633993239533 223.60510680874083 149.65786093694024 0.0 0.0
492.65126476783144 1.2835981623187571 194.63326516225226 152.56618611057198 0.0 0.0
452.7038866806943 -11.239373975852338 164.15481775860513 158.1854198051795 0.0 0.0
403.4083967726927 -17.477358951594873 132.74960825792857 169.33399659341597 0.0 0.0
332.4403395393476 -15.859664196732634 101.2037989507816 182.0432179492381 0.0 0.0
247.6745124097326 -7.549030892642235 73.28342273181204 194.61671899358282 0.0 0.0
168.0963211364424 -2.8884572311361727 49.55403035173476 199.33306806497117 0.0 0.0
111.88149286558406 -0.45205092754403364 33.30869898312999 192.81849730453365 0.0 0.0
73.59286199665026 4.814069365843044 23.429407107167723 177.5996552916557 0.0 0.0
42.24327518809511 13.835625837451657 16.826006796693076 164.7342983192966 0.0 0.0
13.222199572928101 19.700458548761542 9.877099709320522 162.49301980653186 0.0 0.0
-8.90617557774975 -0.30238895400836663 -2.762242661588834 169.95554160702272 0.0 0.0
38.740664658165436 -69.6354828349526 -8.011352404971355 178.40311971341316 0.0 0.0
-143.45252153618713 -597.7371157002473 -231.50468212761825 103.66761852378855 0.0 0.0
-110.94852840761823 -480.7027969891565 -178.36043671172132 -108.89941584452089 0.0 0.0
2.5610114662777548 -81.74126886296949 -23.636070888133354 -164.96273816686744 0.0 0.0
-32.133796990362384 -2.189669720729088 -10.293747046697385 -173.8945130222811 0.0 0.0
-26.51467029231544 18.3513516920155 -2.448249052192205 -168.71514595990774 0.0 0.0
-14.859903612821983 15.703263901978438 0.25350266866790405 -170.13472927888702 0.0 0.0
-6.309957255565523 8.105164291822712 0.5406711305527923 -181.5419947516534 0.0 0.0
-2.3792585440661256 1.9013484184170488 -0.14628359922346856 -197.5345302434163 0.0 0.0
-0.5253022678766719 0.22100314570761714 -0.09088986004533872 -203.8662973479185 0.0 0.0
-0.03527063557365295 -0.12113960172039384 -0.048017562828061244 -199.2255231414419 0.0 0.0
0.10702980026148623 0.025036339437701116 0.05432882346436685 -187.0831048047451 0.0 0.0
0.16968129508272511 -0.3978503649734577 -0.18530238597969628 -183.18664323270175 0.0 0.0
-0.7909226378322245 0.578265765978152 0.035054277745864226 -180.68651924163908 0.0 0.0
-2.4089651563067918 1.1548651881257683 -0.14307111959086427 -178.5920133553091 0.0 0.0
-1.785648513665322 0.757895350115291 0.28224834111547636 -172.4506158063728 0.0 0.0
1.5951142158620542 2.4304458599561016 0.9917963598237947 -165.61302238751088 0.0 0.0
15.71542269153423 6.664195551318315 3.1945120981839636 -159.24323903233852 0.0 0.0
51.699101348801236 15.466298565781685 8.813088773908632 -153.65320924625382 0.0 0.0
133.26055742150828 18.550951974984997 13.329412253472185 -146.75055413290937 0.0 0.0
321.62576500401224 -42.2185073452424 32.04277155514096 -141.60950867844645 0.0 0.0
488.05602659947255 -18.185303031110443 169.23211600011638 -163.9424994116261 0.0 0.0
-340.5707493510431 -637.5717916984456 -417.02787653140064 2.2453150450019166e-11 0.0 0.0
488.0560266008358 -18.18530302910378 169.23211600114178 163.9424994117021 0.0 0.0
321.62576500354965 -42.21850734639152 32.04277155467996 141.60950867909224 0.0 0.0
133.2605574216784 18.55095197501963 13.329412253584522 146.75055413339226 0.0 0.0
51.69910134985089 15.46629856752324 8.813088774855416 153.6532092463704 0.0 0.0
15.715422691671208 6.664195551608216 3.1945120982886834 159.24323903220179 0.0 0.0
1.5951142163263512 2.4304458602421875 0.9917963601007003 165.6130223876625 0.0 0.0
-1.7856485139751044 0.7578953491923315 0.28224834070502425 172.45061580628305 0.0 0.0
-2.408965155905946 1.154865187535055 -0.14307111963847774 178.5920133555704 0.0 0.0
-0.7909226374942975 0.5782657656427297 0.035054277740467654 180.68651924162586 0.0 0.0
0.16968129551466404 -0.39785036486237857 -0.18530238582208725 183.1866432326345 0.0 0.0
0.1070298005446837 0.025036339686931086 0.05432882363387925 187.08310480458564 0.0 0.0
-0.03527063563932842 -0.12113960215882358 -0.04801756297751769 199.22552314151412 0.0 0.0
-0.5253022678339132 0.22100314552770217 -0.09088986008326039 203.8662973478887 0.0 0.0
-2.3792585441207343 1.9013484180673756 -0.14628359934449175 197.5345302432142 0.0 0.0
-6.309957255350092 8.105164292206945 0.540671130732437 181.5419947513649 0.0 0.0
-14.859903612682015 15.703263902167862 0.2535026687673556 170.13472927873147 0.0 0.0
-26.514670292215445 18.351351692135342 -2.4482490521258424 168.71514595977524 0.0 0.0
-32.13379699040052 -2.189669720820798 -10.2937470467368 173.89451302219584 0.0 0.0
2.5610114661973022 -81.7412688629817 -23.636070888160127 164.9627381666941 0.0 0.0
-110.94852840754935 -480.70279698852994 -178.36043671152586 108.89941584442867 0.0 0.0
-91.92595487649649 -377.31878016765353 -140.76486761823188 -104.20317722505115 0.0 0.0
-20.372272332993205 -87.47072188972062 -32.353552056628885 -154.58170216464381 0.0 0.0
-53.72795235192182 -3.9691174977918244 -17.310151933860947 -173.91855665796191 0.0 0.0
-64.52542055528039 17.082304446761267 -14.230086208209311 -170.67412167942743 0.0 0.0
-70.9136160167553 16.87765921851482 -16.20694221213251 -170.90015069381508 0.0 0.0
-85.18018810643734 11.161256699373459 -22.166668680650677 -179.76352694276008 0.0 0.0
-116.62802894068295 4.413324005395711 -33.48645458795629 -194.51712469894042 0.0 0.0
-169.19394549387448 3.2415829631172777 -49.787825717444306 -199.57712089288165 0.0 0.0
-247.6156570249103 7.269634924228406 -73.36647382673175 -194.60367550472773 0.0 0.0
-332.19106094455066 15.816573957779637 -101.1437739097542 -181.9791841780964 0.0 0.0
-404.26819599861767 17.911889782538765 -132.51092886755322 -169.49832629392887 0.0 0.0
-452.67235151215084 11.093792826821886 -164.457289742958 -157.99931785026945 0.0 0.0
-493.4859632111036 -1.4720782680139877 -195.49131183987566 -151.98735704474532 0.0 0.0
-530.3035928731723 -13.150470589709101 -224.13792045131356 -149.11354704696043 0.0 0.0
-559.6628814654614 -18.18388135210197 -246.283369617583 -148.32818899620372 0.0 0.0
-578.5912561247353 -17.34495563111456 -257.48638965408185 -150.80899003604227 0.0 0.0
-584.9560148896214 -11.43416092806055 -255.22027095283693 -156.29325746683529 0.0 0.0
-581.1234293025236 -3.2767835467027737 -236.3288858074708 -167.20255498093127 0.0 0.0
-565.7969784412744 36.571103297470856 -191.4144841703108 -177.12821687177316 0.0 0.0
-332.4338440394374 76.71023725157194 -64.99720286821264 -122.72103683806557 0.0 0.0
-864.7105479772647 -855.7014540250763 -851.9576759392494 -1.312088215854601e-10 0.0 0.0
-332.43384403966445 76.71023725160438 -64.9972028682935 122.72103683881716 0.0 0.0
-565.7969784417131 36.571103296729824 -191.4144841705791 177.12821687192823 0.0 0.0
-581.1234293020134 -3.2767835463490655 -236.32888580711372 167.20255498109498 0.0 0.0
-584.9560148887094 -11.434160926753655 -255.22027095221725 156.29325746688033 0.0 0.0
-578.5912561246048 -17.344955630892407 -257.4863896540106 150.8089900361108 0.0 0.0
-559.6628814647213 -18.183881351553218 -246.28336961700086 148.32818899611152 0.0 0.0
-530.3035928732767 -13.150470590053246 -224.13792045139525 149.11354704702526 0.0 0.0
-493.4859632106387 -1.4720782677063333 -195.4913118395263 151.98735704472605 0.0 0.0
-452.6723515119853 11.093792826519369 -164.45728974284185 157.99931785043313 0.0 0.0
-404.2681959979375 17.91188978300874 -132.51092886706394 169.49832629389553 0.0 0.0
-332.1910609435854 15.816573958026453 -101.14377390941145 181.97918417795995 0.0 0.0
-247.6156570241883 7.269634924583295 -73.36647382639197 194.60367550477082 0.0 0.0
-169.19394549349767 3.2415829630375317 -49.78782571735282 199.57712089283217 0.0 0.0
-116.62802894054757 4.413324005074722 -33.48645458801494 194.51712469869474 0.0 0.0
-85.1801881060695 11.161256699869453 -22.16666868039551 179.76352694255095 0.0 0.0
-70.91361601653749 16.87765921870242 -16.20694221201498 170.90015069356753 0.0 0.0
-64.52542055517793 17.08230444680701 -14.23008620816653 170.6741216791893 0.0 0.0
-53.72795235194951 -3.9691174978458883 -17.310151933884814 173.91855665778704 0.0 0.0
-20.372272333037238 -87.47072188973915 -32.35355205664803 154.58170216452737 0.0 0.0
-91.9259548763174 -377.3187801671212 -140.7648676180234 104.203177224896 0.0 0.0
-74.81583262254827 -289.06152828036653 -109.16320827087443 -94.79731405822228 0.0 0.0
-36.35409241475522 -86.74928590030466 -36.931179269780294 -143.7310943742308 0.0 0.0
-73.67469959030372 -5.393300043405295 -23.719406440916355 -170.06548646366696 0.0 0.0
-100.7398815927036 15.64909818479581 -25.533298818016217 -168.22205468839402 0.0 0.0
-125.52777812122025 17.37490653472897 -32.434024959493314 -166.98487040962203 0.0 0.0
-163.59643829774896 14.11696167600843 -44.556960577879266 -174.3759296262165 0.0 0.0
-228.13513197650227 6.1849771179372866 -66.34557070441603 -180.3651390262759 0.0 0.0
-323.7366763530109 2.4375867240434674 -100.39813599025567 -179.72384242479544 0.0 0.0
-420.3681063049792 -8.275898793696541 -151.98820625074012 -164.68089890273683 0.0 0.0
-499.38274896871286 -14.854888730653624 -206.28331517832277 -154.75945025732574 0.0 0.0
-559.1293937765677 -20.532723442441146 -253.3126356754334 -147.0178532586793 0.0 0.0
-608.2226238090998 -27.244327762089647 -291.3331430662836 -142.40008721620777 0.0 0.0
-652.6384289754648 -37.82676706887297 -325.51319903346814 -138.3598565532293 0.0 0.0
-692.0701468173435 -47.58322702900821 -354.05810394976686 -135.19379297185327 0.0 0.0
-725.3796871197951 -53.78881652143281 -376.1861175552655 -133.3999338622098 0.0 0.0
-748.0880193787784 -52.94192630946323 -388.40010153690787 -133.99020348213975 0.0 0.0
-757.9545791630732 -45.31558544943917 -389.822688459648 -138.08180625117504 0.0 0.0
-753.517798937066 -33.38980699787071 -381.52585780988693 -145.90502919586083 0.0 0.0
-718.7868847392003 -0.44837584912893647 -349.38028657416646 -155.30665232629613 0.0 0.0
-662.9458863032796 41.8386293213473 -303.79097032918355 -159.4575201703449 0.0 0.0
-1580.8475902491475 -1128.332350588971 -1307.8696907467233 4.271072384653962e-11 0.0 0.0
-662.9458863039675 41.83862932027627 -303.79097032968343 159.45752017069537 0.0 0.0
-718.7868847388349 -0.4483758488630514 -349.38028657391 155.30665232652447 0.0 0.0
-753.5177989363206 -33.38980699727493 -381.52585780940467 145.905029196126 0.0 0.0
-757.9545791636149 -45.315585450096144 -389.8226884600393 138.08180625129768 0.0 0.0
-748.0880193788794 -52.94192630979034 -388.40010153696693 133.9902034821343 0.0 0.0
-725.3796871195783 -53.78881652127132 -376.1861175551276 133.39993386224907 0.0 0.0
-692.0701468174715 -47.583227029417614 -354.05810394983587 135.19379297189636 0.0 0.0
-652.638428974944 -37.826767068424274 -325.5131990331392 138.35985655322182 0.0 0.0
-608.2226238088326 -27.244327762130453 -291.33314306605047 142.40008721618744 0.0 0.0
-559.1293937761551 -20.532723442285203 -253.31263567513457 147.01785325868866 0.0 0.0
-499.38274896823475 -14.854888730554102 -206.28331517795473 154.75945025728953 0.0 0.0
-420.36810630448986 -8.27589879368898 -151.9882062504263 164.6808989028186 0.0 0.0
-323.73667635251644 2.437586724057358 -100.39813599003998 179.72384242487107 0.0 0.0
-228.13513197589856 6.184977118066671 -66.3455707042144 180.3651390260593 0.0 0.0
-163.596438297468 14.116961675958049 -44.55696057781407 174.37592962605382 0.0 0.0
-125.52777812115244 17.374906534562104 -32.43402495952232 166.9848704094581 0.0 0.0
-100.73988159266187 15.649098184704874 -25.533298818035277 168.22205468814923 0.0 0.0
-73.67469959016995 -5.393300043234522 -23.719406440824482 170.0654864635142 0.0 0.0
-36.35409241473245 -86.74928590032715 -36.93117926977989 143.7310943741498 0.0 0.0
-74.81583262242063 -289.0615282799755 -109.16320827071885 94.79731405814525 0.0 0.0
-60.334489523514975 -213.93630904529303 -82.2812395706424 -83.29838984755627 0.0 0.0
-48.44132275285796 -81.18961136235693 -38.88962981822872 -131.25884487490617 0.0 0.0
-92.21789471437373 -6.289031735768557 -29.551777758341498 -162.16674113148667 0.0 0.0
-135.2984730129843 14.094783165773334 -36.35324190361907 -161.76863222411296 0.0 0.0
-178.5680541413539 17.304051816461588 -48.29093550066535 -158.85577152105134 0.0 0.0
-237.764552924123 13.970804555033684 -67.04864828614865 -158.6697362129555 0.0 0.0
-334.9616923155566 4.360980480089416 -101.08902312232203 -160.7307574272424 0.0 0.0
-437.69256468235244 -13.159100315516673 -157.72402145453484 -148.39190505645482 0.0 0.0
-528.7459788730779 -25.234679997750305 -224.62320149649923 -141.79474476474402 0.0 0.0
-598.2077437164363 -29.45877894658372 -280.9225305099667 -137.71844048065486 0.0 0.0
-651.1145425875338 -37.48131192834747 -324.7658391752292 -132.16117370025663 0.0 0.0
-699.5518622542963 -48.63466388374763 -361.4372078712233 -128.27402516259298 0.0 0.0
-746.853677712995 -62.699362575525846 -395.4603267642264 -124.39140203870461 0.0 0.0
-791.2413796981225 -77.2032225471893 -426.46735948813694 -120.97722445755863 0.0 0.0
-830.4811409516808 -88.0266868868769 -452.3203462928488 -118.84218050404544 0.0 0.0
-858.0028922251486 -90.47276212499293 -467.7878765023571 -119.37201914819234 0.0 0.0
-870.0659308244325 -81.64885193986396 -469.6217377478378 -123.93405592443213 0.0 0.0
-856.8718670627503 -55.37963203631044 -450.3630746657843 -131.30733707077263 0.0 0.0
-815.5665858264841 -10.469877778192114 -408.6659922116969 -138.14066593048125 0.0 0.0
-714.8855273408548 77.7983550539368 -320.2946425536182 -143.56990654546698 0.0 0.0
-2020.4079044373661 -1367.5645343564092 -1657.3834514920557 1.7351453607261647e-11 0.0 0.0
-714.8855273416237 77.79835505296086 -320.29464255419356 143.56990654569563 0.0 0.0
-815.5665858259946 -10.469877777861527 -408.66599221136516 138.14066593074367 0.0 0.0
-856.8718670623316 -55.37963203608149 -450.3630746654294 131.30733707107382 0.0 0.0
-870.0659308245519 -81.64885194012297 -469.6217377478797 123.93405592451694 0.0 0.0
-858.002892223831 -90.47276212373308 -467.7878765014814 119.37201914815637 0.0 0.0
-830.481140952174 -88.02668688763029 -452.32034629312625 118.84218050418932 0.0 0.0
-791.2413796974296 -77.20322254663938 -426.4673594876726 120.97722445748461 0.0 0.0
-746.8536777130319 -62.69936257582983 -395.4603267642788 124.3914020388297 0.0 0.0
-699.5518622539621 -48.634663883632314 -361.4372078709612 128.2740251625798 0.0 0.0
-651.1145425875882 -37.48131192881106 -324.76583917527927 132.1611737003424 0.0 0.0
-598.2077437161381 -29.458778946614572 -280.92253050967855 137.7184404806384 0.0 0.0
-528.7459788728407 -25.234679998025506 -224.62320149625296 141.79474476479248 0.0 0.0
-437.69256468236324 -13.15910031628264 -157.7240214545806 148.3919050565913 0.0 0.0
-334.96169231478723 4.360980480550463 -101.08902312191346 160.73075742719362 0.0 0.0
-237.7645529237643 13.97080455474862 -67.0486482861614 158.6697362126992 0.0 0.0
-178.5680541411844 17.30405181633808 -48.29093550065838 158.85577152086762 0.0 0.0
-135.29847301286546 14.0947831658254 -36.35324190356699 161.76863222399928 0.0 0.0
-92.21789471425457 -6.289031735665942 -29.551777758274774 162.16674113133035 0.0 0.0
-48.44132275284018 -81.18961136236375 -38.889629818225416 131.258844874762 0.0 0.0
-60.33448952343116 -213.93630904501967 -82.28123957053523 83.2983898475474 0.0 0.0
-49.1608739611969 -151.13017644567736 -60.08731512206227 -71.08503135911721 0.0 0.0
-58.014792914132315 -72.19529112895619 -39.06302521292655 -116.86374700078008 0.0 0.0
-109.69531795528829 -6.50728399527447 -34.86133160062713 -150.32302296762916 0.0 0.0
-168.19482775195814 12.174067462754246 -46.814323684730454 -150.81498893728946 0.0 0.0
-228.98581210170715 16.0432013632756 -63.76546806963759 -145.7388885013651 0.0 0.0
-315.150422591605 13.694136518051907 -89.87929808042303 -142.3116896018808 0.0 0.0
-422.17082992028793 -6.646322252825158 -140.4476193304729 -131.04662444461525 0.0 0.0
-524.2217403704827 -25.988683056543376 -212.48922760499033 -124.23093575842647 0.0 0.0
-606.1583499679629 -33.678670934320465 -281.04536214194445 -122.38838698619546 0.0 0.0
-663.8158745228147 -43.78612864052064 -334.16814454475383 -118.0629013051013 0.0 0.0
-718.076775982934 -53.51865539036225 -374.9593973911806 -115.72235832387125 0.0 0.0
-768.9746048707643 -68.14549839051256 -411.57111989648683 -112.60330749820223 0.0 0.0
-820.0678338798135 -86.68854671965966 -447.99683884046453 -109.10872305265295 0.0 0.0
-870.0413604341516 -106.2174627073809 -483.33890639004994 -105.81401128128698 0.0 0.0
-915.2579023056913 -122.63471377152135 -514.4468197430348 -103.46666464789736 0.0 0.0
-948.6543899319803 -128.35543511566306 -534.2514250093616 -103.76939133416474 0.0 0.0
-959.0372858674317 -117.03266170348547 -534.102048764913 -107.53052469045667 0.0 0.0
-936.6921787314639 -77.91993673970495 -503.91641180269346 -114.00569822514122 0.0 0.0
-873.0331985828459 -7.621257613314214 -438.445167732944 -120.02856996916366 0.0 0.0
-743.383336004845 111.33039544600365 -318.7103490431998 -125.02990931735461 0.0 0.0
-2363.306390740668 -1607.6218192792426 -1956.103296741757 5.81685810630006e-11 0.0 0.0
-743.3833360054579 111.33039544527773 -318.71034904357543 125.02990931753799 0.0 0.0
-873.0331985820349 -7.62125761252463 -438.4451677324012 120.02856996922617 0.0 0.0
-936.6921787308347 -77.91993673920072 -503.91641180224 114.00569822525796 0.0 0.0
-959.0372858672861 -117.03266170339931 -534.1020487648234 107.53052469048112 0.0 0.0
-948.6543899318085 -128.35543511552285 -534.2514250092258 103.7693913340925 0.0 0.0
-915.2579023053722 -122.63471377137934 -514.4468197427884 103.46666464792732 0.0 0.0
-870.0413604334346 -106.2174627068019 -483.3389063895886 105.81401128130362 0.0 0.0
-820.0678338795638 -86.68854671957853 -447.9968388403327 109.1087230526862 0.0 0.0
-768.9746048707095 -68.14549839070037 -411.57111989642164 112.60330749822177 0.0 0.0
-718.0767759829866 -53.51865539062466 -374.9593973912319 115.722358323789 0.0 0.0
-663.815874522405 -43.786128640380014 -334.1681445444268 118.06290130502644 0.0 0.0
-606.1583499678044 -33.67867093450398 -281.04536214169696 122.38838698620177 0.0 0.0
-524.221740369864 -25.98868305636801 -212.48922760448892 124.23093575837319 0.0 0.0
-422.1708299193287 -6.646322252051034 -140.44761932984915 131.0466244445197 0.0 0.0
-315.15042259119673 13.69413651788772 -89.87929808035895 142.31168960174887 0.0 0.0
-228.98581210161035 16.04320136297262 -63.765468069699665 145.7388885012443 0.0 0.0
-168.19482775178838 12.17406746273224 -46.81432368468756 150.81498893712478 0.0 0.0
-109.69531795515232 -6.507283995201909 -34.86133160056432 150.3230229675081 0.0 0.0
-58.01479291407413 -72.19529112895987 -39.06302521291021 116.86374700061738 0.0 0.0
-49.160873961076774 -151.13017644547514 -60.087315121965574 71.08503135908462 0.0 0.0
-41.21599068287718 -100.14030566073197 -42.40688890308273 -58.53801551044901 0.0 0.0
-65.75636811659645 -61.07141428591589 -38.048334720753694 -100.63263573000096 0.0 0.0
-126.24520989846592 -5.9764383595272985 -39.66663190955977 -134.6341537937775 0.0 0.0
-199.48616552959828 10.148613338013687 -56.80222035849507 -135.823968984333 0.0 0.0
-277.13373790521695 12.909941584477494 -79.23659605894274 -127.600988344645 0.0 0.0
-385.91530538980754 7.517730549214242 -115.43122779818685 -118.64751728714067 0.0 0.0
-495.4523930732415 -17.89349276203506 -181.29629109440148 -105.34476104086247 0.0 0.0
-592.1189519774535 -32.90552628001335 -259.77000683138397 -103.03838497730051 0.0 0.0
-657.6446321386715 -44.621049513210814 -325.2555083015292 -100.74476639591214 0.0 0.0
-718.1293294147005 -54.41653012509741 -374.01929998558956 -100.18624806382424 0.0 0.0
-772.8321284787196 -68.74963762090098 -414.3752369592273 -98.48577983488033 0.0 0.0
-827.4720634364777 -87.73697284261704 -453.3003755054464 -95.9579940603703 0.0 0.0
-883.0049690349294 -110.55626330604653 -493.2443331933762 -92.98793609225316 0.0 0.0
-937.7067957202212 -134.1579988043395 -532.5985110070702 -90.07454652787396 0.0 0.0
-989.0673463849906 -156.0807398556299 -569.2775468488555 -87.75380380685318 0.0 0.0
-1027.6416725874524 -166.9651467830071 -594.210138445379 -87.13070800021205 0.0 0.0
-1037.3713288717208 -151.1995306824975 -591.5653367896118 -89.88413159635577 0.0 0.0
-1001.886181551421 -97.6906400865573 -547.725011637591 -95.3827350838619 0.0 0.0
-913.5292265632913 -2.034852137184018 -457.0762784866191 -101.08733453320035 0.0 0.0
-761.3331247621886 139.89378928516248 -313.085805382651 -108.60750184703788 0.0 0.0
-2663.8180071484812 -1840.8596755267824 -2228.1543840595223 6.851763600934646e-11 0.0 0.0
-761.3331247611927 139.89378928606777 -313.0858053819352 108.60750184714328 0.0 0.0
-913.5292265627746 -2.0348521367318284 -457.07627848635957 101.08733453337844 0.0 0.0
-1001.8861815504099 -97.69064008553474 -547.7250116369001 95.38273508384464 0.0 0.0
-1037.3713288713227 -151.1995306822158 -591.5653367893165 89.88413159638885 0.0 0.0
-1027.6416725876977 -166.96514678342734 -594.2101384455743 87.1307080002686 0.0 0.0
-989.0673463846998 -156.08073985544326 -569.2775468485747 87.75380380685992 0.0 0.0
-937.7067957198994 -134.1579988042028 -532.598511006792 90.07454652790268 0.0 0.0
-883.0049690349088 -110.55626330617922 -493.2443331934163 92.98793609223023 0.0 0.0
-827.4720634365718 -87.73697284294357 -453.3003755055079 95.95799406037716 0.0 0.0
-772.8321284788598 -68.74963762127904 -414.3752369593262 98.48577983482534 0.0 0.0
-718.1293294145448 -54.41653012527145 -374.01929998546365 100.1862480638743 0.0 0.0
-657.6446321385848 -44.62104951343483 -325.25550830133074 100.74476639588717 0.0 0.0
-592.1189519763664 -32.90552627912243 -259.7700068305495 103.03838497721816 0.0 0.0
-495.452393072648 -17.893492761756004 -181.29629109394094 105.34476104079283 0.0 0.0
-385.91530538943437 7.517730549046975 -115.4312277980767 118.64751728705163 0.0 0.0
-277.13373790481313 12.90994158443734 -79.23659605885999 127.60098834445628 0.0 0.0
-199.48616552936974 10.148613338064305 -56.8022203584122 135.82396898424457 0.0 0.0
-126.2452098983276 -5.97643835945095 -39.66663190949526 134.6341537937227 0.0 0.0
-65.75636811658379 -61.07141428594259 -38.0483347207579 100.63263572986894 0.0 0.0
-41.21599068281492 -100.14030566062205 -42.40688890303108 58.53801551042545 0.0 0.0
-36.12217706143901 -60.71285155285337 -29.050508584287716 -45.82876003709579 0.0 0.0
-71.83685448243628 -48.89505223369544 -36.219572014839514 -82.73310337315165 0.0 0.0
-141.83727928926598 -4.832275245419596 -44.001452059190456 -115.18550217073172 0.0 0.0
-229.22515662053212 7.867368209132065 -66.41319173204113 -116.5538147320717 0.0 0.0
-328.4114843808414 9.541639790474488 -95.0554520305885 -107.01128177889758 0.0 0.0
-442.65472054861925 -6.201577710639308 -144.39356156942705 -89.08726972943722 0.0 0.0
-557.3193705575387 -25.32470698705233 -220.17604508773144 -82.30379535803706 0.0 0.0
-636.3989211683405 -40.914722644104295 -299.0017260857196 -81.34793145068963 0.0 0.0
-703.021001933617 -51.452604052974905 -359.42749071589435 -81.64053994348471 0.0 0.0
-762.6744361900182 -65.62687652775509 -406.4607370645513 -81.5171484045065 0.0 0.0
-820.6294304704843 -84.0714917251791 -448.28792022578557 -80.52556480824242 0.0 0.0
-879.393393568383 -107.24066903944636 -490.45108808060246 -78.60767155820444 0.0 0.0
-939.220006429341 -133.8673713749842 -534.054898341408 -76.20920873073398 0.0 0.0
-997.8145382798494 -162.09921767650388 -577.5090452232351 -73.78514433933596 0.0 0.0
-1053.4502973951314 -187.36421398062205 -617.8925059667365 -71.65848610745557 0.0 0.0
-1097.7558135738766 -202.5687287741276 -647.7347622913837 -70.26755113484151 0.0 0.0
-1109.4800611037672 -188.42332599577432 -646.9552680906841 -71.12740565932097 0.0 0.0
-1061.9799117508255 -120.9972382280692 -590.262820145515 -75.57483945587151 0.0 0.0
-948.0347387712262 1.6263445279559932 -473.1030746049437 -82.58119518296604 0.0 0.0
-768.9554594531405 169.66798093983766 -301.4015868184471 -94.40797473247396 0.0 0.0
-2932.50786834931 -2060.2543534530523 -2476.3555115349427 5.778488798569015e-11 0.0 0.0
-768.9554594527804 169.66798094014055 -301.40158681827154 94.40797473262396 0.0 0.0
-948.0347387722107 1.6263445269012493 -473.10307460565343 82.58119518314638 0.0 0.0
-1061.9799117505627 -120.99723822784571 -590.26282014535 75.57483945580535 0.0 0.0
-1109.4800611037676 -188.42332599591012 -646.9552680906396 71.12740565945107 0.0 0.0
-1097.7558135731706 -202.5687287735126 -647.7347622908493 70.26755113491535 0.0 0.0
-1053.4502973947774 -187.36421398037723 -617.8925059663874 71.65848610738993 0.0 0.0
-997.8145382788832 -162.099217675719 -577.5090452224935 73.78514433938524 0.0 0.0
-939.220006429349 -133.86737137518483 -534.0548983414444 76.20920873076534 0.0 0.0
-879.3933935680102 -107.24066903932287 -490.4510880803306 78.60767155824465 0.0 0.0
-820.629430470839 -84.07149172577627 -448.2879202259921 80.52556480825208 0.0 0.0
-762.6744361900694 -65.62687652810942 -406.4607370645433 81.5171484045112 0.0 0.0
-703.0210019333081 -51.452604052924954 -359.4274907155781 81.6405399433979 0.0 0.0
-636.3989211679501 -40.9147226440656 -299.0017260853324 81.3479314507295 0.0 0.0
-557.3193705570263 -25.32470698684115 -220.17604508725464 82.3037953579267 0.0 0.0
-442.65472054832827 -6.201577710901965 -144.39356156932251 89.08726972942962 0.0 0.0
-328.4114843802111 9.541639790906268 -95.05545203029223 107.01128177877439 0.0 0.0
-229.2251566202492 7.867368209315135 -66.4131917319032 116.55381473202156 0.0 0.0
-141.8372792891069 -4.8322752454067075 -44.00145205913877 115.18550217065672 0.0 0.0
-71.83685448239734 -48.895052233729956 -36.219572014838185 82.73310337303263 0.0 0.0
-36.1221770614245 -60.71285155276111 -29.05050858425568 45.828760037068925 0.0 0.0
-33.217568058095466 -32.704380531175325 -19.77658457678124 -33.25300154479005 0.0 0.0
-75.98335875314933 -36.60449455593795 -33.77635599272618 -63.37260450288368 0.0 0.0
-156.20287549097935 -3.3395870403444725 -47.862738759397146 -91.9142374235573 0.0 0.0
-258.1350116129312 5.102037781677826 -75.90469321743598 -93.00820026184395 0.0 0.0
-377.72171890804066 3.0066336181659716 -112.34400482070112 -80.94870249782856 0.0 0.0
-500.99933091984485 -15.1350175707646 -173.8461759001494 -64.33271286965449 0.0 0.0
-600.0088027206798 -33.000015354819425 -256.0484834097023 -60.929797447084574 0.0 0.0
-673.611782928744 -44.984713607456655 -329.6461967942764 -61.21548337512822 0.0 0.0
-739.821917150551 -59.37196520725727 -387.567853682881 -62.01154879444193 0.0 0.0
-801.6960293728063 -76.950098891501 -434.33550426259796 -62.39350704496266 0.0 0.0
-863.0280447889954 -99.48305473341975 -478.5786807475744 -61.88111214032026 0.0 0.0
-926.1759454107525 -126.83598379140798 -524.5066142615879 -60.50945702815546 0.0 0.0
-990.0722033595396 -158.1374183843393 -572.2909662719229 -58.63670502561268 0.0 0.0
-1052.3208075546072 -188.12357034908342 -618.3768103220323 -56.915636303403474 0.0 0.0
-1109.6695937765217 -215.45878918329947 -660.6157045388851 -55.21410448528015 0.0 0.0
-1157.7552852148674 -234.77750141220196 -694.3036986849165 -53.262565160432594 0.0 0.0
-1177.7995697855745 -227.58978564479548 -701.0775783649931 -52.05906448781063 0.0 0.0
-1126.825141078003 -155.1501349494129 -640.237573297026 -54.87440522960126 0.0 0.0
-984.7396705302626 -3.1401673725011108 -494.20831922096914 -64.03372014981926 0.0 0.0
-764.4786258915518 206.583213364166 -280.118544162745 -81.18571709072934 0.0 0.0
-3169.4349486213896 -2256.0866910571926 -2696.240185166064 -6.547651310029323e-11 0.0 0.0
-764.4786258917909 206.58321336384878 -280.11854416286553 81.18571709083764 0.0 0.0
-984.7396705302696 -3.140167372610904 -494.2083192209725 64.03372014994626 0.0 0.0
-1126.8251410775133 -155.15013494897866 -640.2375732966661 54.87440522965873 0.0 0.0
-1177.7995697861725 -227.58978564550478 -701.077578365435 52.059064487833474 0.0 0.0
-1157.7552852149931 -234.77750141245994 -694.3036986849543 53.26256516052552 0.0 0.0
-1109.6695937769769 -215.45878918391944 -660.6157045391507 55.21410448534477 0.0 0.0
-1052.3208075537157 -188.12357034834105 -618.376810321387 56.91563630344578 0.0 0.0
-990.0722033594711 -158.13741838445384 -572.2909662718832 58.63670502563143 0.0 0.0
-926.17594541007 -126.83598379094019 -524.5066142611026 60.509457028213994 0.0 0.0
-863.0280447892071 -99.48305473388817 -478.57868074770323 61.881112140304815 0.0 0.0
-801.6960293722782 -76.95009889122868 -434.3355042622408 62.39350704496124 0.0 0.0
-739.8219171499625 -59.37196520688963 -387.5678536824243 62.01154879432469 0.0 0.0
-673.6117829283978 -44.98471360742803 -329.64619679391825 61.21548337511709 0.0 0.0
-600.0088027200809 -33.00001535450379 -256.0484834091585 60.92979744699976 0.0 0.0
-500.9993309194028 -15.135017570789156 -173.84617589987795 64.3327128697258 0.0 0.0
-377.72171890760484 3.006633618075717 -112.34400482059897 80.94870249779314 0.0 0.0
-258.13501161254914 5.102037781982694 -75.90469321722983 93.00820026169727 0.0 0.0
-156.20287549081337 -3.339587040363633 -47.86273875935308 91.91423742346427 0.0 0.0
-75.98335875303931 -36.60449455589106 -33.77635599267911 63.372604502815605 0.0 0.0
-33.21756805801747 -32.704380531100085 -19.776584576735264 33.25300154472168 0.0 0.0
-31.358757261767753 -15.829931582988738 -14.156606653426948 -21.533076907499996 0.0 0.0
-77.40478272060741 -25.187661286775963 -30.777733202215003 -42.825882238908726 0.0 0.0
-168.90837641758196 -2.0550293586006156 -51.289021732854756 -64.38297777755234 0.0 0.0
-286.98456369640735 1.8757233372533388 -85.50880569737326 -64.81884103664609 0.0 0.0
-422.74457035315083 -7.609804295545459 -132.2719732976293 -51.73751033740605 0.0 0.0
-548.2421104866216 -23.420653930659327 -203.87546239806628 -41.19710004229159 0.0 0.0
-630.091824906116 -37.86792059059037 -285.6103737349333 -40.1805128884055 0.0 0.0
-704.94142678147 -50.44441816889974 -355.84941314937896 -41.39136998198019 0.0 0.0
-771.5638676419787 -67.81002841890589 -411.47625101950774 -42.239339567780405 0.0 0.0
-836.0015211612445 -88.56435555202091 -458.9605568477318 -42.7191727730556 0.0 0.0
-901.4563982871776 -114.93344528782421 -506.36999278386514 -42.54971164181292 0.0 0.0
-968.5740312236794 -146.59335741598807 -556.1665526547994 -41.65996497224567 0.0 0.0
-1036.9202953789836 -180.745316540531 -607.4850688393878 -40.50058054603534 0.0 0.0
-1102.0682101806474 -214.63357599577822 -656.9541728063496 -39.33410924267262 0.0 0.0
-1160.4308761872865 -242.24995679949276 -699.8591454787339 -38.174170763913295 0.0 0.0
-1206.3125867744072 -258.9660102748138 -731.0929417016612 -36.4439614711489 0.0 0.0
-1233.7251705805231 -259.42211490217016 -745.1388844420113 -33.93129044557435 0.0 0.0
-1210.468204188284 -213.69525301073114 -711.3891387897104 -33.79684523860667 0.0 0.0
-1043.5168150505995 -34.4326179686293 -539.4744994480333 -43.64009064181609 0.0 0.0
-738.7960249686979 261.655696036726 -239.37607230439784 -67.72844994054394 0.0 0.0
-3359.8387441578393 -2410.136163088162 -2871.5098825385917 -4.3645087544064154e-11 0.0 0.0
-738.7960249684756 261.65569603689573 -239.37607230420383 67.72844994058303 0.0 0.0
-1043.5168150493075 -34.43261796736433 -539.4744994471723 43.64009064190087 0.0 0.0
-1210.468204187303 -213.69525300979294 -711.3891387889529 33.79684523857924 0.0 0.0
-1233.7251705803794 -259.4221149021213 -745.1388844420039 33.931290445479895 0.0 0.0
-1206.312586774088 -258.9660102746065 -731.0929417014067 36.44396147114076 0.0 0.0
-1160.430876186952 -242.24995679934148 -699.8591454784869 38.17417076403159 0.0 0.0
-1102.068210180368 -214.63357599565637 -656.954172806048 39.33410924272542 0.0 0.0
-1036.9202953789888 -180.7453165407391 -607.485068839398 40.500580546114165 0.0 0.0
-968.5740312231566 -146.5933574156785 -556.1665526544238 41.65996497229069 0.0 0.0
-901.4563982870021 -114.93344528788133 -506.36999278373247 42.54971164180296 0.0 0.0
-836.0015211607436 -88.56435555176083 -458.9605568473757 42.719172773027246 0.0 0.0
-771.5638676413337 -67.81002841850854 -411.4762510190301 42.239339567750754 0.0 0.0
-704.9414267808304 -50.444418168547195 -355.84941314884253 41.391369981949275 0.0 0.0
-630.0918249057074 -37.86792059052858 -285.61037373452393 40.18051288843608 0.0 0.0
-548.2421104862765 -23.42065393063722 -203.875462397753 41.19710004225472 0.0 0.0
-422.7445703526177 -7.609804295553271 -132.271973297466 51.737510337423004 0.0 0.0
-286.98456369611915 1.8757233374893594 -85.50880569721251 64.81884103655521 0.0 0.0
-168.90837641749047 -2.0550293586825514 -51.289021732851914 64.38297777752075 0.0 0.0
-77.40478272053062 -25.187661286706483 -30.777733202171127 42.82588223885618 0.0 0.0
-31.35875726179091 -15.829931583012879 -14.156606653441136 21.53307690746016 0.0 0.0
-28.38113892316686 -9.163386522069429 -11.263357633570887 -12.280545058387423 0.0 0.0
-74.66638856506113 -16.129713663037563 -27.2388306684296 -21.441786075428386 0.0 0.0
-179.23557808584528 -1.755254190265771 -54.297249682833296 -31.482038193696447 0.0 0.0
-317.0738520902847 -1.3465523277981033 -95.50499286916288 -31.40516996025887 0.0 0.0
-470.94746403710667 -15.366028104513303 -153.43244927066047 -23.149191690822708 0.0 0.0
-581.9257418014051 -30.238803216710394 -232.2978024449841 -20.325465170300124 0.0 0.0
-657.947804934399 -39.448007757365026 -309.66584090227525 -21.264472832416757 0.0 0.0
-731.3350141668136 -56.66924731064675 -377.99621759385917 -21.97130739636611 0.0 0.0
-799.2856490511851 -76.26045867801545 -432.04750711679145 -22.295815628344535 0.0 0.0
-866.6572216206383 -100.6554812098138 -481.39653910604113 -22.523402402903404 0.0 0.0
-935.9850653075093 -130.7323889122195 -532.1016883132995 -22.461171324282528 0.0 0.0
-1007.4885471798001 -165.44357537938328 -585.4664056951384 -22.15834599784026 0.0 0.0
-1079.206721913843 -203.86617896325464 -640.5466206222269 -21.613106552706416 0.0 0.0
-1148.1359145202975 -240.1129929686129 -693.0679348841727 -21.065656233007424 0.0 0.0
-1206.770895536536 -267.65303959028006 -736.0918949065605 -20.489247815700082 0.0 0.0
-1248.51946581762 -280.2639873312665 -763.2380326535497 -19.414460793822837 0.0 0.0
-1270.4151810178785 -275.8430066456476 -771.9761466929172 -17.30006760635581 0.0 0.0
-1277.2508136588037 -260.4497785954444 -767.8900687879532 -14.945498019991755 0.0 0.0
-1202.6086128394384 -170.8286834252544 -686.7952261698338 -20.15264080285801 0.0 0.0
-726.0185179405336 302.7261949942201 -212.3576049171274 -48.63756598268256 0.0 0.0
-3364.860969500599 -2379.8511539160318 -2862.283696651318 -9.43423117405473e-12 0.0 0.0
-726.0185179401547 302.72619499455215 -212.35760491682692 48.63756598272884 0.0 0.0
-1202.6086128392558 -170.82868342510199 -686.7952261696711 20.152640802925696 0.0 0.0
-1277.2508136581164 -260.44977859483873 -767.8900687875159 14.945498019989358 0.0 0.0
-1270.4151810181393 -275.8430066459958 -771.9761466930997 17.300067606309263 0.0 0.0
-1248.5194658171495 -280.2639873309048 -763.2380326531809 19.414460793798973 0.0 0.0
-1206.7708955356902 -267.6530395895692 -736.0918949058984 20.489247815781354 0.0 0.0
-1148.1359145202566 -240.11299296872554 -693.0679348840453 21.065656232961643 0.0 0.0
-1079.2067219136256 -203.8661789632407 -640.5466206220915 21.6131065527403 0.0 0.0
-1007.48854717933 -165.44357537912236 -585.4664056947997 22.158345997835497 0.0 0.0
-935.9850653071052 -130.73238891206523 -532.1016883130296 22.461171324346232 0.0 0.0
-866.6572216205661 -100.65548120999821 -481.3965391059276 22.523402402945543 0.0 0.0
-799.2856490508439 -76.26045867795321 -432.04750711651224 22.295815628376396 0.0 0.0
-731.3350141663659 -56.66924731046347 -377.99621759347895 21.97130739637437 0.0 0.0
-657.947804934232 -39.44800775751847 -309.66584090201457 21.264472832345223 0.0 0.0
-581.9257418011175 -30.23880321682004 -232.29780244467776 20.325465170300586 0.0 0.0
-470.9474640364242 -15.366028104105201 -153.43244927027322 23.149191690937005 0.0 0.0
-317.07385208984067 -1.3465523276407514 -95.50499286899984 31.405169960229983 0.0 0.0
-179.2355780856897 -1.7552541904231678 -54.297249682833844 31.482038193749318 0.0 0.0
-74.66638856493563 -16.129713662929092 -27.238830668359405 21.441786075373248 0.0 0.0
-28.3811389232335 -9.163386522139547 -11.263357633611912 12.280545058464241 0.0 0.0
-17.513313712243118 -4.4582778281608455 -6.591477462121187 -7.7286999599674395 0.0 0.0
-64.00695189494861 -8.98907076274419 -21.898806797307834 -8.899850829888722 0.0 0.0
-185.91075344938594 -2.9010325412405535 -56.643535797187944 -10.743004342976842 0.0 0.0
-354.89073433108183 -12.319296311456633 -110.12434102613148 -9.697552327047102 0.0 0.0
-530.8562016999804 -46.327726280591904 -187.95785700042768 -2.721115253143882 0.0 0.0
-651.9032936420531 -82.32628079318954 -288.0145498436962 0.1411071281732177 0.0 0.0
-746.694945181558 -113.63655480446451 -385.35617496352836 0.4514569283533163 0.0 0.0
-846.9361157235173 -159.5266252154013 -479.6317685147727 -0.44237733158481873 0.0 0.0
-950.3681889875156 -215.5933369817712 -568.6552748374476 -1.6080907047640807 0.0 0.0
-1066.055620529813 -288.1008894693248 -665.7410944017499 -2.8732132922862057 0.0 0.0
-1198.7246293713144 -380.88661507570407 -779.1422029266344 -4.131537444679008 0.0 0.0
-1348.5848005350945 -494.5692181719564 -910.763387216933 -5.265860041087398 0.0 0.0
-1511.6344889558675 -623.0587734434512 -1056.054616778491 -6.027176994941064 0.0 0.0
-1681.1943631543616 -759.585475836748 -1208.6040387725757 -6.739848049672819 0.0 0.0
-1844.4266714981554 -891.3794673739023 -1355.6805912226794 -7.25048768831207 0.0 0.0
-1982.9932931282517 -1000.6682575627428 -1479.320626651196 -7.3342505222089756 0.0 0.0
-2074.0893885405826 -1065.8571217183576 -1557.473780058764 -6.602312684701658 0.0 0.0
-2094.317952447679 -1064.8069243580549 -1567.306527902745 -4.548877078666976 0.0 0.0
-2087.755367270499 -1042.5863752333798 -1552.3620920589128 -6.9877926896546025 0.0 0.0
-2044.1513612519761 -996.2133653224945 -1503.9660218005386 -36.65517374689029 0.0 0.0
-5161.065158460426 -4147.953432119522 -4627.1683166935145 -7.176481631177012e-12 0.0 0.0
-2044.1513612508975 -996.2133653214271 -1503.9660217995972 36.65517374688476 0.0 0.0
-2087.755367270538 -1042.5863752334922 -1552.362092058745 6.987792689685591 0.0 0.0
-2094.317952446371 -1064.8069243567984 -1567.306527901742 4.548877078713584 0.0 0.0
-2074.089388540779 -1065.8571217186695 -1557.4737800586504 6.6023126845921105 0.0 0.0
-1982.9932931283593 -1000.6682575629661 -1479.3206266511877 7.334250522183552 0.0 0.0
-1844.4266714977998 -891.3794673737034 -1355.6805912221562 7.250487688358351 0.0 0.0
-1681.1943631541767 -759.5854758367232 -1208.6040387723351 6.739848049654462 0.0 0.0
-1511.6344889549327 -623.0587734427061 -1056.054616777712 6.027176994895036 0.0 0.0
-1348.5848005341873 -494.5692181712666 -910.7633872161671 5.265860041059128 0.0 0.0
-1198.724629370462 -380.88661507506856 -779.1422029259761 4.131537444661319 0.0 0.0
-1066.0556205296625 -288.10088946945956 -665.7410944014787 2.8732132923142153 0.0 0.0
-950.3681889869508 -215.5933369814754 -568.6552748369689 1.6080907047479656 0.0 0.0
-846.9361157231604 -159.52662521531883 -479.6317685144128 0.44237733159091874 0.0 0.0
-746.6949451813366 -113.63655480459865 -385.35617496320305 -0.45145692842136853 0.0 0.0
-651.9032936413755 -82.32628079280721 -288.0145498430853 -0.14110712804006198 0.0 0.0
-530.8562016993053 -46.32772628020899 -187.95785699999706 2.721115253250588 0.0 0.0
-354.8907343306462 -12.31929631125568 -110.12434102594611 9.697552327033073 0.0 0.0
-185.91075344944164 -2.90103254158495 -56.643535797307976 10.743004343076638 0.0 0.0
-64.00695189482629 -8.989070762591009 -21.898806797225188 8.899850829856476 0.0 0.0
-17.513313712126628 -4.458277828178463 -6.591477462091526 7.728699960083681 0.0 0.0
SCALARS Strain float 6
LOOKUP_TABLE default
0.011888336738016654 -0.020445157185209492 0.0 -0.0008087200544617519 0.0 0.0
0.007309598834445659 -0.00168934478601872 0.0 -0.006283592444338529 0.0 0.0
0.002284814346812275 -0.0006153473611351549 0.0 -0.0006350326900461225 0.0 0.0
0.002040197856762741 -0.0008175865351785323 0.0 -3.474150936447054e-05 0.0 0.0
0.0027465128228656094 -0.0011208235321391036 0.0 8.350388164393516e-05 0.0 0.0
0.004239359740985118 -0.0021907407815996414 0.0 0.00017744237739176854 0.0 0.0
0.006747261675189128 -0.004248064705618295 0.0 0.00023468471969057624 0.0 0.0
0.010394840803147905 -0.007423703698468549 0.0 0.00025672880098790145 0.0 0.0
0.01530326315395095 -0.011835881122355181 0.0 0.00025222808190559695 0.0 0.0
0.02153196790670519 -0.017491837047023468 0.0 0.00020915201475082442 0.0 0.0
0.029115811313292057 -0.02439425338218687 0.0 0.00016926865606179748 0.0 0.0
0.03810952909807591 -0.0325948802777198 0.0 0.00012784424183714992 0.0 0.0
0.04857177597420509 -0.04218183652398918 0.0 2.3115733979756623e-05 0.0 0.0
0.06055012187378439 -0.05323380383793909 0.0 -9.669149887919781e-05 0.0 0.0
0.07400259530623791 -0.06575670403990914 0.0 -0.00028679044413872307 0.0 0.0
0.08863724184826706 -0.07950926414839937 0.0 -0.0005623266149597063 0.0 0.0
0.10379361014840474 -0.09387661512624093 0.0 -0.0008790527613655772 0.0 0.0
0.11841660357208647 -0.10785024356201106 0.0 -0.0011127592970347376 0.0 0.0
0.13116795592813987 -0.12011591584282577 0.0 -0.0010936597851695412 0.0 0.0
0.14050771241970947 -0.1291910354450252 0.0 -0.0010947327232257642 0.0 0.0
0.14411880983172431 -0.13283728830376684 0.0 1.3157877565284082e-15 0.0 0.0
0.140507712419694 -0.12919103544501606 0.0 0.0010947327232330517 0.0 0.0
0.13116795592810598 -0.12011591584279199 0.0 0.0010936597851741578 0.0 0.0
0.11841660357203748 -0.10785024356196685 0.0 0.0011127592970371584 0.0 0.0
0.10379361014834856 -0.09387661512617955 0.0 0.0008790527613631678 0.0 0.0
0.08863724184820808 -0.0795092641483465 0.0 0.0005623266149560923 0.0 0.0
0.07400259530617863 -0.06575670403985073 0.0 0.0002867904441404838 0.0 0.0
0.06055012187372476 -0.05323380383788649 0.0 9.669149887833782e-05 0.0 0.0
0.0485717759741454 -0.042181836523936124 0.0 -2.3115733983782808e-05 0.0 0.0
0.0381095290980204 -0.032594880277667826 0.0 -0.00012784424183918779 0.0 0.0
0.029115811313244415 -0.02439425338214181 0.0 -0.00016926865606300598 0.0 0.0
0.02153196790666621 -0.017491837046992333 0.0 -0.00020915201475130358 0.0 0.0
0.015303263153920787 -0.011835881122323172 0.0 -0.00025222808190619104 0.0 0.0
0.010394840803125405 -0.0074237036984533475 0.0 -0.00025672880098834717 0.0 0.0
0.006747261675173836 -0.004248064705604765 0.0 -0.000234684719689385 0.0 0.0
0.004239359740976689 -0.0021907407815944264 0.0 -0.00017744237739154807 0.0 0.0
0.0027465128228622957 -0.0011208235321374957 0.0 -8.350388164365396e-05 0.0 0.0
0.00204019785676188 -0.0008175865351783618 0.0 3.474150936395809e-05 0.0 0.0
0.002284814346810709 -0.0006153473611351795 0.0 0.0006350326900449151 0.0 0.0
0.00730959883444016 -0.0016893447860164897 0.0 0.006283592444330898 0.0 0.0
0.011888336738008331 -0.020445157185185685 0.0 0.0008087200544221643 0.0 0.0
0.008099408421257275 -0.018234220186661772 0.0 -0.00034678135507946475 0.0 0.0
0.004788383228955369 -0.001245266279641333 0.0 -0.0049659618912184286 0.0 0.0
0.001562805674482851 -0.0004926436047042051 0.0 -0.0004188288735128285 0.0 0.0
0.0018219540347850895 -0.0007752614677372251 0.0 -0.0002091581295982496 0.0 0.0
0.0024006384360684982 -0.0010254799605602892 0.0 -0.00016371891803406826 0.0 0.0
0.0036693951048488264 -0.0019662576389645626 0.0 -0.00019582896894596036 0.0 0.0
0.005902681944118094 -0.0038782120341790127 0.0 -0.0003889051677353995 0.0 0.0
0.009212396286562754 -0.006878584323737428 0.0 -0.0006591883260453861 0.0 0.0
0.013686618870583872 -0.01107229898610043 0.0 -0.0010189940932803637 0.0 0.0
0.01934719623333812 -0.016449567410734296 0.0 -0.001449150866707085 0.0 0.0
0.02619681499180641 -0.022996691494923442 0.0 -0.001901114076394587 0.0 0.0
0.0342730816791377 -0.030751733010660393 0.0 -0.0023531928192816703 0.0 0.0
0.04366386990028074 -0.03981013852770919 0.0 -0.0028564102400260856 0.0 0.0
0.05444653021049755 -0.05027244202205763 0.0 -0.0034310770373909565 0.0 0.0
0.06659676449087829 -0.06214875214609561 0.0 -0.004070434341688475 0.0 0.0
0.0798650423810706 -0.07521864544869748 0.0 -0.00473809003494965 0.0 0.0
0.0936600338121709 -0.08890861352176176 0.0 -0.0052705882683161415 0.0 0.0
0.1070354296940933 -0.10226799221086817 0.0 -0.005374779313076898 0.0 0.0
0.1187336033261988 -0.11403406880938821 0.0 -0.004790895780548203 0.0 0.0
0.1271094514871661 -0.12265671170450859 0.0 -0.0037156234266564232 0.0 0.0
0.13023064936647255 -0.12616150344430827 0.0 5.695530852500852e-15 0.0 0.0
0.12710945148715103 -0.12265671170449605 0.0 0.003715623426672886 0.0 0.0
0.11873360332616853 -0.11403406880935701 0.0 0.004790895780562084 0.0 0.0
0.10703542969405075 -0.10226799221082997 0.0 0.0053747793130858 0.0 0.0
0.09366003381212198 -0.08890861352170613 0.0 0.005270588268316143 0.0 0.0
0.07986504238101834 -0.07521864544864898 0.0 0.004738090034946286 0.0 0.0
0.06659676449082468 -0.06214875214604393 0.0 0.004070434341688942 0.0 0.0
0.05444653021044355 -0.05027244202200582 0.0 0.003431077037388965 0.0 0.0
0.043663869900227255 -0.03981013852765958 0.0 0.002856410240021482 0.0 0.0
0.034273081679087984 -0.030751733010610106 0.0 0.002353192819277149 0.0 0.0
0.026196814991763313 -0.022996691494880907 0.0 0.001901114076388958 0.0 0.0
0.019347196233302364 -0.0164495674107002 0.0 0.0014491508667036374 0.0 0.0
0.013686618870556281 -0.01107229898607344 0.0 0.0010189940932774943 0.0 0.0
0.009212396286542702 -0.006878584323718599 0.0 0.0006591883260423069 0.0 0.0
0.005902681944104845 -0.0038782120341665912 0.0 0.0003889051677344009 0.0 0.0
0.003669395104841735 -0.0019662576389608225 0.0 0.00019582896894501496 0.0 0.0
0.002400638436065821 -0.001025479960559683 0.0 0.00016371891803292597 0.0 0.0
0.0018219540347844568 -0.0007752614677373638 0.0 0.000209158129598683 0.0 0.0
0.0015628056744827752 -0.0004926436047049561 0.0 0.0004188288735122361 0.0 0.0
0.004788383228949477 -0.0012452662796388631 0.0 0.004965961891208699 0.0 0.0
0.008099408421245402 -0.018234220186637645 0.0 0.0003467813550488124 0.0 0.0
0.005843439467261028 -0.014409595807368357 0.0 -0.002973870686872466 0.0 0.0
0.003350729732363488 -0.0006699812925432919 0.0 -0.004846548084805404 0.0 0.0
0.0011032628961611603 -0.00028947521647021255 0.0 -0.0004036506214464166 0.0 0.0
0.0015580070742940721 -0.000669630313186029 0.0 -0.00047693770380445154 0.0 0.0
0.0020869805240726668 -0.0008645694542184614 0.0 -0.0004700664289366503 0.0 0.0
0.0031259577177270383 -0.0015478265533034176 0.0 -0.0005022340233829702 0.0 0.0
0.005061833744224921 -0.0031480554895048497 0.0 -0.0008603921086500822 0.0 0.0
0.008019142774027677 -0.005794592397539892 0.0 -0.0013978169559288327 0.0 0.0
0.01203970801870772 -0.009538882964652839 0.0 -0.002105522460014335 0.0 0.0
0.017119975354470497 -0.014352863951393856 0.0 -0.0029363349093637055 0.0 0.0
0.02323554796546686 -0.020187893436155683 0.0 -0.0038167254135973916 0.0 0.0
0.030407344710109793 -0.027059859899598488 0.0 -0.004690060410733185 0.0 0.0
0.03872347934369938 -0.03506556806891871 0.0 -0.005584305788983417 0.0 0.0
0.0482930508397697 -0.04433705912003171 0.0 -0.0065954050364396225 0.0 0.0
0.05912262181672442 -0.054909799018052916 0.0 -0.007738482569712917 0.0 0.0
0.07100541748349744 -0.06660482738120824 0.0 -0.008902285883251758 0.0 0.0
0.08344612425286933 -0.07893813519067894 0.0 -0.00980221467887435 0.0 0.0
0.09560907483366174 -0.09108042323752913 0.0 -0.009973112547786142 0.0 0.0
0.10628709779442165 -0.10185304582589565 0.0 -0.009005969278830853 0.0 0.0
0.11396859980712369 -0.10970375160363188 0.0 -0.006783377434163941 0.0 0.0
0.11685784847412914 -0.11307086245263406 0.0 1.0737938316296436e-14 0.0 0.0
0.11396859980710954 -0.10970375160361934 0.0 0.006783377434190062 0.0 0.0
0.10628709779439453 -0.1018530458258654 0.0 0.009005969278854983 0.0 0.0
0.09560907483362466 -0.09108042323749557 0.0 0.009973112547802834 0.0 0.0
0.08344612425282633 -0.07893813519063406 0.0 0.009802214678876289 0.0 0.0
0.07100541748345095 -0.06660482738116713 0.0 0.008902285883247808 0.0 0.0
0.05912262181667639 -0.05490979901801154 0.0 0.0077384825697115935 0.0 0.0
0.04829305083972146 -0.04433705911998402 0.0 0.006595405036438597 0.0 0.0
0.03872347934365206 -0.0350655680688732 0.0 0.005584305788976871 0.0 0.0
0.03040734471006564 -0.02705985989955432 0.0 0.004690060410726542 0.0 0.0
0.023235547965428417 -0.02018789343611913 0.0 0.0038167254135894977 0.0 0.0
0.01711997535443872 -0.014352863951360581 0.0 0.0029363349093566625 0.0 0.0
0.012039708018682772 -0.009538882964630558 0.0 0.0021055224600097845 0.0 0.0
0.00801914277400947 -0.005794592397522298 0.0 0.0013978169559239794 0.0 0.0
0.005061833744213535 -0.0031480554894943473 0.0 0.0008603921086464889 0.0 0.0
0.003125957717721443 -0.0015478265533007518 0.0 0.0005022340233812716 0.0 0.0
0.002086980524070783 -0.0008645694542181214 0.0 0.00047006642893670364 0.0 0.0
0.0015580070742936116 -0.0006696303131864372 0.0 0.00047693770380543134 0.0 0.0
0.0011032628961611382 -0.000289475216471843 0.0 0.00040365062144584127 0.0 0.0
0.0033507297323578404 -0.0006699812925401121 0.0 0.004846548084792865 0.0 0.0
0.005843439467249452 -0.01440959580734512 0.0 0.0029738706868526394 0.0 0.0
0.00435219068772087 -0.011534301634773375 0.0 -0.003389019562380302 0.0 0.0
0.0024393291308609203 -0.0004912567957838812 0.0 -0.0044280707551585495 0.0 0.0
0.000791128999944092 -0.0001640134386578685 0.0 -0.0006934181918967133 0.0 0.0
0.001293040857480472 -0.0005386534791325445 0.0 -0.000733796895898028 0.0 0.0
0.0017945130932506288 -0.0007415597982302374 0.0 -0.0007817588193588899 0.0 0.0
0.002626672360232888 -0.0012087570976428833 0.0 -0.0007998239888045893 0.0 0.0
0.004241139822834412 -0.0024565635839122707 0.0 -0.0011766485512861445 0.0 0.0
0.006823004850136319 -0.0047261513272435635 0.0 -0.0019411129544452217 0.0 0.0
0.010376239109356934 -0.00800332807446249 0.0 -0.00291572467881417 0.0 0.0
0.014866290911727538 -0.01224035593073978 0.0 -0.004057771428565556 0.0 0.0
0.02024628382446874 -0.017362353454431285 0.0 -0.005263976317080067 0.0 0.0
0.026520988941152325 -0.02336115103349824 0.0 -0.006459460069423934 0.0 0.0
0.033773178442784345 -0.03032396287057785 0.0 -0.007670070403565637 0.0 0.0
0.0421173726342236 -0.038394121499747455 0.0 -0.008997672400331067 0.0 0.0
0.05160111941230647 -0.047639997089303165 0.0 -0.010491200298002469 0.0 0.0
0.06208422245716499 -0.05793937699204249 0.0 -0.012029443601668296 0.0 0.0
0.07316063226358568 -0.06890505295714583 0.0 -0.013240482907056006 0.0 0.0
0.08410950583978531 -0.07983258329235243 0.0 -0.013551198902755279 0.0 0.0
0.09384544896647602 -0.0896466047916882 0.0 -0.012369057752305845 0.0 0.0
0.10101671202714352 -0.09694797127282984 0.0 -0.009070160484755651 0.0 0.0
0.10378272146207677 -0.10038988418910576 0.0 1.3725132141928498e-14 0.0 0.0
0.10101671202713054 -0.09694797127281654 0.0 0.009070160484789612 0.0 0.0
0.09384544896645158 -0.08964660479165981 0.0 0.012369057752337095 0.0 0.0
0.0841095058397528 -0.07983258329231621 0.0 0.013551198902774408 0.0 0.0
0.07316063226354874 -0.0689050529571089 0.0 0.013240482907058794 0.0 0.0
0.06208422245712461 -0.05793937699200283 0.0 0.012029443601663217 0.0 0.0
0.05160111941226451 -0.04763999708926087 0.0 0.010491200297997653 0.0 0.0
0.04211737263418117 -0.03839412149970528 0.0 0.008997672400328121 0.0 0.0
0.033773178442742795 -0.030323962870538304 0.0 0.007670070403557459 0.0 0.0
0.0265209889411141 -0.02336115103346087 0.0 0.006459460069415312 0.0 0.0
0.020246283824434972 -0.017362353454401073 0.0 0.0052639763170698175 0.0 0.0
0.014866290911699519 -0.012240355930711261 0.0 0.004057771428557121 0.0 0.0
0.010376239109334917 -0.008003328074440569 0.0 0.002915724678807586 0.0 0.0
0.006823004850120467 -0.004726151327230694 0.0 0.0019411129544395127 0.0 0.0
0.00424113982282491 -0.0024565635839042714 0.0 0.0011766485512821362 0.0 0.0
0.002626672360228569 -0.0012087570976398723 0.0 0.0007998239888020065 0.0 0.0
0.0017945130932492423 -0.0007415597982298649 0.0 0.0007817588193590703 0.0 0.0
0.001293040857480325 -0.0005386534791331428 0.0 0.0007337968958973904 0.0 0.0
0.0007911289999441634 -0.0001640134386585003 0.0 0.0006934181918949997 0.0 0.0
0.0024393291308557386 -0.000491256795781022 0.0 0.004428070755147727 0.0 0.0
0.0043521906877106884 -0.01153430163475279 0.0 0.003389019562366764 0.0 0.0
0.0032584954230297667 -0.009234902538718543 0.0 -0.003051423977109097 0.0 0.0
0.001801202730653858 -0.00042225863050870146 0.0 -0.0039765237851613665 0.0 0.0
0.0005745298967106026 -9.83727461901205e-05 0.0 -0.0010680670723843798 0.0 0.0
0.0010448628473073735 -0.00040798043259901955 0.0 -0.0010096422902511597 0.0 0.0
0.0015143836492361657 -0.0006288506146260314 0.0 -0.0010861520348063587 0.0 0.0
0.0021806654241699965 -0.0009533432136404284 0.0 -0.001103353289292435 0.0 0.0
0.0034636322511167415 -0.0018491492040329325 0.0 -0.0014132938238323818 0.0 0.0
0.0056356670512626925 -0.0036842052805124573 0.0 -0.00224754875302897 0.0 0.0
0.008710615337371944 -0.006483504410396597 0.0 -0.0034423016796396185 0.0 0.0
0.012600745163094874 -0.010131206974113755 0.0 -0.004805497903341817 0.0 0.0
0.017245164455649598 -0.014537754577069226 0.0 -0.006242002405602514 0.0 0.0
0.022628098545944577 -0.01966965552207269 0.0 -0.00766028449184461 0.0 0.0
0.02882051045476728 -0.025598688279071736 0.0 -0.009089327719477486 0.0 0.0
0.03594611392260777 -0.03246920923013378 0.0 -0.010636789947362328 0.0 0.0
0.04407296535273492 -0.04037577304993803 0.0 -0.012353370374008892 0.0 0.0
0.05312430017281804 -0.04925548971747803 0.0 -0.01410938409132956 0.0 0.0
0.06280778275550576 -0.05882200681242772 0.0 -0.015544249033350378 0.0 0.0
0.07253371254384396 -0.06850879125636626 0.0 -0.01605532953925278 0.0 0.0
0.08138064191806926 -0.07740996432303197 0.0 -0.014807906076023574 0.0 0.0
0.08816006966459715 -0.0843066588240262 0.0 -0.010821100065892868 0.0 0.0
0.0908719285672434 -0.0879423004944464 0.0 1.7065775875790834e-14 0.0 0.0
0.08816006966458545 -0.08430665882401267 0.0 0.010821100065932353 0.0 0.0
0.08138064191804698 -0.07740996432301082 0.0 0.014807906076058558 0.0 0.0
0.07253371254381566 -0.06850879125633558 0.0 0.016055329539274268 0.0 0.0
0.0628077827554737 -0.05882200681239738 0.0 0.015544249033354475 0.0 0.0
0.05312430017278286 -0.04925548971744391 0.0 0.014109384091322643 0.0 0.0
0.04407296535269856 -0.04037577304989951 0.0 0.012353370374003435 0.0 0.0
0.03594611392257137 -0.03246920923010006 0.0 0.010636789947357608 0.0 0.0
0.02882051045473219 -0.025598688279040053 0.0 0.009089327719469627 0.0 0.0
0.022628098545911853 -0.019669655522039902 0.0 0.007660284491833464 0.0 0.0
0.01724516445562058 -0.014537754577043056 0.0 0.006242002405588919 0.0 0.0
0.012600745163070677 -0.01013120697408943 0.0 0.004805497903332033 0.0 0.0
0.00871061533735298 -0.006483504410379519 0.0 0.0034423016796321223 0.0 0.0
0.005635667051249444 -0.0036842052805020264 0.0 0.0022475487530239638 0.0 0.0
0.0034636322511091967 -0.001849149204028469 0.0 0.0014132938238296056 0.0 0.0
0.0021806654241669334 -0.000953343213637405 0.0 0.0011033532892903378 0.0 0.0
0.0015143836492353653 -0.0006288506146255304 0.0 0.0010861520348049124 0.0 0.0
0.0010448628473073037 -0.0004079804325995179 0.0 0.001009642290249323 0.0 0.0
0.0005745298967106467 -9.837274618944012e-05 0.0 0.0010680670723820333 0.0 0.0
0.0018012027306494771 -0.00042225863050692755 0.0 0.003976523785151732 0.0 0.0
0.0032584954230209825 -0.009234902538700933 0.0 0.0030514239770985854 0.0 0.0
0.0024182369343576796 -0.007332038879777026 0.0 -0.0025629772284533306 0.0 0.0
0.0013269021401741314 -0.0003867424792917129 0.0 -0.0035409830286852145 0.0 0.0
0.0004155097636132379 -6.95832555344182e-05 0.0 -0.0014219848749761402 0.0 0.0
0.0008151295748905383 -0.0002893074588603377 0.0 -0.0012918339395031207 0.0 0.0
0.0012423751696989077 -0.000515383269174659 0.0 -0.0013719440065489506 0.0 0.0
0.0017777012514818853 -0.0007560411141510929 0.0 -0.001401729058490786 0.0 0.0
0.002756929612807351 -0.0013576194744634306 0.0 -0.0016453303878034768 0.0 0.0
0.004487444685967591 -0.002719862885561036 0.0 -0.0023800349128940373 0.0 0.0
0.0070492678544992055 -0.004995166129240933 0.0 -0.003650569293651807 0.0 0.0
0.010338673053226192 -0.008045562938621086 0.0 -0.005168225964326692 0.0 0.0
0.01424564888760876 -0.011732504484052896 0.0 -0.006737724691601577 0.0 0.0
0.018743470928762846 -0.01600317765986395 0.0 -0.008287518637241243 0.0 0.0
0.023886848327996247 -0.020907948139058448 0.0 -0.00983306142529956 0.0 0.0
0.029792766403626957 -0.02658449773119088 0.0 -0.01148398059244949 0.0 0.0
0.0365608598625159 -0.033147855796746326 0.0 -0.01330542677820245 0.0 0.0
0.04416836282121514 -0.040591319103880405 0.0 -0.015163256228689564 0.0 0.0
0.05240973201707186 -0.048715991153468245 0.0 -0.016711619106352642 0.0 0.0
0.06086999272980893 -0.05711083295058823 0.0 -0.017395816632309 0.0 0.0
0.06884352616936763 -0.0651041748600807 0.0 -0.016289747239928185 0.0 0.0
0.07530474501763992 -0.07167958880832788 0.0 -0.012090889275656994 0.0 0.0
0.07801074494886949 -0.07560899620089138 0.0 1.6489847681766534e-14 0.0 0.0
0.07530474501762906 -0.0716795888083213 0.0 0.012090889275693843 0.0 0.0
0.06884352616934875 -0.0651041748600621 0.0 0.01628974723996448 0.0 0.0
0.06086999272978523 -0.05711083295056876 0.0 0.01739581663233343 0.0 0.0
0.05240973201704455 -0.04871599115343989 0.0 0.016711619106357652 0.0 0.0
0.04416836282118534 -0.040591319103852386 0.0 0.015163256228682975 0.0 0.0
0.03656085986248569 -0.03314785579671486 0.0 0.013305426778196384 0.0 0.0
0.02979276640359725 -0.026584497731162247 0.0 0.011483980592443635 0.0 0.0
0.02388684832796704 -0.020907948139031407 0.0 0.009833061425292184 0.0 0.0
0.018743470928735597 -0.016003177659835846 0.0 0.008287518637230484 0.0 0.0
0.01424564888758511 -0.011732504484030308 0.0 0.00673772469158883 0.0 0.0
0.010338673053206114 -0.008045562938603212 0.0 0.005168225964314311 0.0 0.0
0.007049267854483606 -0.004995166129228731 0.0 0.003650569293643449 0.0 0.0
0.004487444685957167 -0.00271986288555392 0.0 0.0023800349128880282 0.0 0.0
0.002756929612801733 -0.0013576194744614298 0.0 0.001645330387801523 0.0 0.0
0.0017777012514797832 -0.000756041114149942 0.0 0.0014017290584887724 0.0 0.0
0.0012423751696979835 -0.0005153832691750084 0.0 0.0013719440065470198 0.0 0.0
0.0008151295748901716 -0.00028930745885996596 0.0 0.0012918339395011226 0.0 0.0
0.0004155097636130717 -6.958325553400124e-05 0.0 0.001421984874973182 0.0 0.0
0.0013269021401705672 -0.0003867424792901565 0.0 0.0035409830286774937 0.0 0.0
0.0024182369343509493 -0.007332038879762423 0.0 0.0025629772284461614 0.0 0.0
0.0017651688280580493 -0.005738788631203896 0.0 -0.0021114150166925043 0.0 0.0
0.0009637115758494613 -0.00036550217651655026 0.0 -0.0031484650226641566 0.0 0.0
0.0002887036835506093 -5.6098805330480014e-05 0.0 -0.0017154192735760973 0.0 0.0
0.0006012915554774195 -0.00018510537985935558 0.0 -0.0015581418436215572 0.0 0.0
0.0009739335629400528 -0.00039483392194701676 0.0 -0.0016263967476839367 0.0 0.0
0.00140234267364538 -0.0005958358218440736 0.0 -0.0016959052558234021 0.0 0.0
0.002119555074377707 -0.0009712753264860235 0.0 -0.0018593388433804391 0.0 0.0
0.003417909360588235 -0.0018933709523525437 0.0 -0.002450165063246754 0.0 0.0
0.0054273829467273 -0.00358693794342397 0.0 -0.003578408321046826 0.0 0.0
0.008090004460195463 -0.006006630760158248 0.0 -0.0051084334265746574 0.0 0.0
0.011263297658776391 -0.00896909032827835 0.0 -0.006730970394631997 0.0 0.0
0.01488036079248288 -0.012380945090647567 0.0 -0.008323009064004952 0.0 0.0
0.018985238601563856 -0.016273300523340035 0.0 -0.00988957361325302 0.0 0.0
0.02368553856453434 -0.02076767125039607 0.0 -0.011535424775286095 0.0 0.0
0.029090754591996178 -0.02598727160482327 0.0 -0.013321303984755842 0.0 0.0
0.03523314424808564 -0.03197991912246455 0.0 -0.015164386127252766 0.0 0.0
0.042000597716765925 -0.03862493983041113 0.0 -0.016733706232869315 0.0 0.0
0.0491299973087432 -0.045658111017883286 0.0 -0.01754150803895338 0.0 0.0
0.056176681942680814 -0.05268321217128308 0.0 -0.016745484669893698 0.0 0.0
0.06234434517099735 -0.05895748444788883 0.0 -0.012853068766769404 0.0 0.0
0.0650798310343807 -0.06327707097130694 0.0 1.4557799410397365e-14 0.0 0.0
0.062344345170988275 -0.05895748444788523 0.0 0.012853068766805129 0.0 0.0
0.05617668194266521 -0.05268321217126692 0.0 0.016745484669933103 0.0 0.0
0.04912999730872364 -0.04565811101786616 0.0 0.01754150803897556 0.0 0.0
0.042000597716743485 -0.038624939830385056 0.0 0.016733706232872413 0.0 0.0
0.035233144248061565 -0.0319799191224418 0.0 0.015164386127245449 0.0 0.0
0.029090754591971676 -0.02598727160479917 0.0 0.01332130398475033 0.0 0.0
0.023685538564510746 -0.020767671250370566 0.0 0.011535424775280773 0.0 0.0
0.018985238601541037 -0.016273300523317196 0.0 0.009889573613244853 0.0 0.0
0.014880360792461033 -0.01238094509062656 0.0 0.008323009063993117 0.0 0.0
0.011263297658757072 -0.008969090328259892 0.0 0.006730970394617076 0.0 0.0
0.008090004460179451 -0.006006630760144956 0.0 0.005108433426560792 0.0 0.0
0.005427382946715113 -0.0035869379434123804 0.0 0.003578408321039307 0.0 0.0
0.0034179093605802148 -0.0018933709523454218 0.0 0.002450165063241315 0.0 0.0
0.0021195550743736483 -0.0009712753264840119 0.0 0.0018593388433777672 0.0 0.0
0.0014023426736439872 -0.0005958358218449537 0.0 0.001695905255820843 0.0 0.0
0.0009739335629394593 -0.00039483392194772344 0.0 0.0016263967476814326 0.0 0.0
0.0006012915554770642 -0.0001851053798589886 0.0 0.0015581418436201324 0.0 0.0
0.0002887036835506071 -5.609880533060601e-05 0.0 0.0017154192735735186 0.0 0.0
0.0009637115758469735 -0.00036550217651579555 0.0 0.0031484650226574714 0.0 0.0
0.0017651688280529432 -0.005738788631192098 0.0 0.0021114150166875157 0.0 0.0
0.0012568252291259192 -0.004415836343705215 0.0 -0.0017730267786694107 0.0 0.0
0.0006797072203689576 -0.00035624830951314025 0.0 -0.002796024059846381 0.0 0.0
0.00017751692568311302 -4.215000503584244e-05 0.0 -0.0019421356790084235 0.0 0.0
0.00039925570661189275 -9.347914004064271e-05 0.0 -0.0017904112203176344 0.0 0.0
0.000704001404835059 -0.000268954531038946 0.0 -0.001843496200547062 0.0 0.0
0.0010458480733205658 -0.00044652691563164476 0.0 -0.001959958861237618 0.0 0.0
0.001544910219951532 -0.0006754491012640435 0.0 -0.00208021213563982 0.0 0.0
0.002439486508937445 -0.0012236163264411257 0.0 -0.00247524596373967 0.0 0.0
0.0038909537776400174 -0.0023345948678103086 0.0 -0.0033403928193131123 0.0 0.0
0.005887334524580279 -0.004070457969813959 0.0 -0.004653367628733022 0.0 0.0
0.008307448269778991 -0.006279882385705681 0.0 -0.006191281426746343 0.0 0.0
0.01105211502456731 -0.00883216062105082 0.0 -0.007726521207627839 0.0 0.0
0.01413306964943492 -0.011722670960472614 0.0 -0.009229234521746692 0.0 0.0
0.017640332075122493 -0.01505059862541756 0.0 -0.010766338308050674 0.0 0.0
0.021689522741914945 -0.018934671805752527 0.0 -0.012406356683653072 0.0 0.0
0.026354165567698793 -0.023459918012228118 0.0 -0.014091288544749968 0.0 0.0
0.031602290676482 -0.028592038189647888 0.0 -0.015581078921198376 0.0 0.0
0.03732152689693389 -0.03418732243935698 0.0 -0.016434387576291294 0.0 0.0
0.04333744567410277 -0.04011528764277838 0.0 -0.016056091545612158 0.0 0.0
0.049166625415494124 -0.04602273538681521 0.0 -0.013021302532134061 0.0 0.0
0.05194165011849706 -0.05082665140319379 0.0 1.3368646467615264e-14 0.0 0.0
0.04916662541548752 -0.046022735386814055 0.0 0.013021302532167264 0.0 0.0
0.04333744567409064 -0.040115287642766624 0.0 0.016056091545649194 0.0 0.0
0.037321526896918235 -0.03418732243934185 0.0 0.0164343875763125 0.0 0.0
0.0316022906764643 -0.02859203818963127 0.0 0.015581078921200288 0.0 0.0
0.026354165567680148 -0.02345991801221124 0.0 0.014091288544742467 0.0 0.0
0.021689522741897005 -0.0189346718057378 0.0 0.012406356683646643 0.0 0.0
0.017640332075105406 -0.01505059862540049 0.0 0.010766338308046157 0.0 0.0
0.014133069649418106 -0.011722670960457201 0.0 0.009229234521737358 0.0 0.0
0.011052115024550991 -0.008832160621036247 0.0 0.0077265212076158395 0.0 0.0
0.008307448269764445 -0.006279882385692123 0.0 0.006191281426733215 0.0 0.0
0.0058873345245686 -0.0040704579698039745 0.0 0.0046533676287221605 0.0 0.0
0.0038909537776315 -0.002334594867806581 0.0 0.003340392819307008 0.0 0.0
0.0024394865089322586 -0.0012236163264343878 0.0 0.0024752459637362094 0.0 0.0
0.0015449102199492364 -0.0006754491012621575 0.0 0.0020802121356376948 0.0 0.0
0.0010458480733197782 -0.00044652691563237866 0.0 0.0019599588612357922 0.0 0.0
0.0007040014048348252 -0.0002689545310388295 0.0 0.0018434962005447193 0.0 0.0
0.00039925570661167965 -9.347914004041595e-05 0.0 0.001790411220315656 0.0 0.0
0.00017751692568278535 -4.215000503556079e-05 0.0 0.001942135679006259 0.0 0.0
0.0006797072203669024 -0.00035624830951316757 0.0 0.0027960240598405087 0.0 0.0
0.0012568252291221174 -0.004415836343696245 0.0 0.0017730267786668006 0.0 0.0
0.0008823318780515326 -0.0033659680315637694 0.0 -0.001582513823056721 0.0 0.0
0.000459081114635906 -0.0003590135951354614 0.0 -0.0024994557308030555 0.0 0.0
6.833246688305447e-05 -1.8340074471492162e-05 0.0 -0.0021058044595648937 0.0 0.0
0.00020681536857132125 -1.1426276601370618e-05 0.0 -0.0019770869655518614 0.0 0.0
0.0004334269891560379 -0.0001429836892403768 0.0 -0.0020172452512801486 0.0 0.0
0.0006886128276938728 -0.00028747253875976547 0.0 -0.002161157736458714 0.0 0.0
0.0010186839113888904 -0.00044105157165594006 0.0 -0.0023183515043858857 0.0 0.0
0.0015623990177889612 -0.0007199564154659357 0.0 -0.0025333936783186856 0.0 0.0
0.0024695735131876942 -0.0013090774092881373 0.0 -0.0030418320687665345 0.0 0.0
0.003779646362592924 -0.0023387389663298676 0.0 -0.003932414219892574 0.0 0.0
0.005413094248545982 -0.003746645098539344 0.0 -0.005150736200589989 0.0 0.0
0.007272744688024248 -0.005419388612472726 0.0 -0.00646911137386149 0.0 0.0
0.009339738017458086 -0.007308323409292841 0.0 -0.007815002849060336 0.0 0.0
0.011675369111230047 -0.009486253008503198 0.0 -0.009173873279091416 0.0 0.0
0.014379856252648964 -0.0120468834049451 0.0 -0.010568804178358631 0.0 0.0
0.017553977347464257 -0.015093499556404984 0.0 -0.012003358679766365 0.0 0.0
0.0212545657782511 -0.01867516134902118 0.0 -0.013335692775165008 0.0 0.0
0.025478384796844247 -0.022774064524788237 0.0 -0.014190076234577928 0.0 0.0
0.030283235542865675 -0.02742481293530901 0.0 -0.014101864479815715 0.0 0.0
0.0356389959144418 -0.0327518299569096 0.0 -0.012349744602566083 0.0 0.0
0.038428707779751714 -0.03810518365485845 0.0 1.0658574717270497e-14 0.0 0.0
0.03563899591443766 -0.032751829956907945 0.0 0.012349744602594515 0.0 0.0
0.03028323554285719 -0.027424812935302238 0.0 0.014101864479847577 0.0 0.0
0.02547838479683273 -0.022774064524777596 0.0 0.014190076234594687 0.0 0.0
0.02125456577823873 -0.018675161349011437 0.0 0.01333569277516183 0.0 0.0
0.017553977347451986 -0.015093499556393053 0.0 0.012003358679759714 0.0 0.0
0.0143798562526373 -0.012046883404935758 0.0 0.010568804178352794 0.0 0.0
0.011675369111219136 -0.009486253008493758 0.0 0.00917387327908704 0.0 0.0
0.009339738017447587 -0.007308323409285151 0.0 0.007815002849054386 0.0 0.0
0.007272744688014171 -0.005419388612463452 0.0 0.006469111373852149 0.0 0.0
0.005413094248536766 -0.003746645098528188 0.0 0.00515073620057995 0.0 0.0
0.003779646362585395 -0.0023387389663239427 0.0 0.003932414219884484 0.0 0.0
0.002469573513182472 -0.0013090774092878804 0.0 0.0030418320687635044 0.0 0.0
0.0015623990177859866 -0.0007199564154638696 0.0 0.00253339367831629 0.0 0.0
0.0010186839113874838 -0.0004410515716549245 0.0 0.0023183515043831786 0.0 0.0
0.0006886128276933137 -0.00028747253876018527 0.0 0.002161157736456451 0.0 0.0
0.000433426989155712 -0.00014298368924065306 0.0 0.0020172452512780895 0.0 0.0
0.00020681536857106503 -1.1426276600309731e-05 0.0 0.0019770869655491214 0.0 0.0
6.833246688280519e-05 -1.8340074470788745e-05 0.0 0.002105804459562023 0.0 0.0
0.00045908111463469124 -0.00035901359513584093 0.0 0.002499455730800016 0.0 0.0
0.0008823318780494272 -0.0033659680315574806 0.0 0.001582513823055909 0.0 0.0
0.0006236537892209704 -0.0025690424279516738 0.0 -0.001484856083562709 0.0 0.0
0.000293716136839561 -0.0003715284780020436 0.0 -0.0022902899715725087 0.0 0.0
-3.9933836652821864e-05 1.599222226581802e-05 0.0 -0.0022093193250822796 0.0 0.0
2.175456799775338e-05 6.384494766386652e-05 0.0 -0.0021123282711620252 0.0 0.0
0.00016528142805889414 -1.9471612414140867e-05 0.0 -0.002141563574785266 0.0 0.0
0.00032345645800802117 -0.00011978378106873935 0.0 -0.002289468931210524 0.0 0.0
0.000506687493256642 -0.00021721121141491572 0.0 -0.002495333027391849 0.0 0.0
0.0007697850747640268 -0.0003402612862482659 0.0 -0.002678107034635815 0.0 0.0
0.001190335515678532 -0.0005635177071792707 0.0 -0.0028927659944719014 0.0 0.0
0.001816589294366197 -0.0009810203457785488 0.0 -0.0032955674889229443 0.0 0.0
0.0026323110888689474 -0.0015949497967148306 0.0 -0.00398378493585076 0.0 0.0
0.003575389222480103 -0.0023641505615521682 0.0 -0.00489935061199326 0.0 0.0
0.004616780189293584 -0.0032396439331083375 0.0 -0.005940150558671667 0.0 0.0
0.005794310093571979 -0.004259263893171385 0.0 -0.007058894934225217 0.0 0.0
0.007170889955300238 -0.005497707112599146 0.0 -0.008259356150255795 0.0 0.0
0.008846227042029491 -0.007044768665070821 0.0 -0.009553254611277484 0.0 0.0
0.010959068116941745 -0.00902712848076125 0.0 -0.010845094458500517 0.0 0.0
0.013653713279672509 -0.011587404139066991 0.0 -0.011789929848645037 0.0 0.0
0.01706859541300027 -0.014853714837743792 0.0 -0.011815369647060406 0.0 0.0
0.02162788745661133 -0.019149659489267723 0.0 -0.010760956498257349 0.0 0.0
0.024281972735968205 -0.024945170927421052 0.0 9.482865881427216e-15 0.0 0.0
0.021627887456609242 -0.01914965948925924 0.0 0.010760956498281762 0.0 0.0
0.017068595412995685 -0.01485371483774146 0.0 0.011815369647085575 0.0 0.0
0.013653713279665807 -0.011587404139059457 0.0 0.011789929848655893 0.0 0.0
0.010959068116935195 -0.00902712848075392 0.0 0.010845094458497781 0.0 0.0
0.008846227042023674 -0.007044768665068955 0.0 0.009553254611269955 0.0 0.0
0.0071708899552952255 -0.005497707112591792 0.0 0.008259356150249662 0.0 0.0
0.005794310093567658 -0.004259263893172173 0.0 0.007058894934221868 0.0 0.0
0.004616780189289244 -0.0032396439331044387 0.0 0.005940150558668377 0.0 0.0
0.003575389222475746 -0.002364150561548852 0.0 0.004899350611985751 0.0 0.0
0.0026323110888649853 -0.0015949497967069316 0.0 0.003983784935843293 0.0 0.0
0.0018165892943630842 -0.0009810203457762906 0.0 0.003295567488917824 0.0 0.0
0.0011903355156765614 -0.0005635177071787562 0.0 0.00289276599447074 0.0 0.0
0.0007697850747629653 -0.0003402612862488834 0.0 0.0026781070346337255 0.0 0.0
0.0005066874932561183 -0.00021721121141377823 0.0 0.0024953330273887243 0.0 0.0
0.0003234564580078597 -0.00011978378106853763 0.0 0.002289468931207674 0.0 0.0
0.0001652814280588941 -1.947161241441444e-05 0.0 0.0021415635747826086 0.0 0.0
2.175456799762575e-05 6.384494766439461e-05 0.0 0.0021123282711601305 0.0 0.0
-3.993383665282677e-05 1.5992222266132855e-05 0.0 0.002209319325080743 0.0 0.0
0.000293716136838959 -0.0003715284780024759 0.0 0.002290289971570309 0.0 0.0
0.0006236537892195788 -0.002569042427947685 0.0 0.0014848560835621933 0.0 0.0
0.0004415617390990526 -0.001981585263316045 0.0 -0.0014273082898147603 0.0 0.0
0.00016975716527236273 -0.000375389821842013 0.0 -0.0021428716370431892 0.0 0.0
-0.00014193456132283164 5.2700133807253885e-05 0.0 -0.002259869854172978 0.0 0.0
-0.0001564046515827929 0.00013518151627780862 0.0 -0.0021930375679228577 0.0 0.0
-9.8138822682275e-05 0.00010033254859792372 0.0 -0.00221037149836343 0.0 0.0
-4.46030467268459e-05 4.927480306046588e-05 0.0 -0.002345233695983742 0.0 0.0
-1.4902629629758203e-05 1.3654242180013082e-05 0.0 -0.002560101646683608 0.0 0.0
-3.28072872740105e-06 2.4903507629723123e-06 0.0 -0.002771104747623808 0.0 0.0
2.57480504595078e-08 -4.3460365070361793e-07 0.0 -0.0028954226425743777 0.0 0.0
6.223749589119912e-07 -2.4958503258493473e-07 0.0 -0.0030604215722387193 0.0 0.0
4.903661158471833e-07 -1.3173090275881203e-06 0.0 -0.003431804630269683 0.0 0.0
-2.8361265217811005e-06 2.4809213335648503e-06 0.0 -0.004103360741880991 0.0 0.0
-1.2139266793872463e-05 9.344924618329083e-06 0.0 -0.004945309534145096 0.0 0.0
-2.4047315001299264e-05 2.2556305356429723e-05 0.0 -0.00593189623561501 0.0 0.0
-5.287075009769099e-06 1.532178788105277e-05 0.0 -0.007083909573566162 0.0 0.0
0.00015163883044820104 -0.00010049056976612806 0.0 -0.008402524083051414 0.0 0.0
0.0006677256409180175 -0.0005157686635410345 0.0 -0.00984072112682119 0.0 0.0
0.001846531672892073 -0.0015162498295921444 0.0 -0.011243255595809312 0.0 0.0
0.003914431165436664 -0.00329153110700884 0.0 -0.012306713642772856 0.0 0.0
0.007249855843739725 -0.005971650164602764 0.0 -0.012567557797957924 0.0 0.0
0.009312365168238313 -0.012102706003400087 0.0 8.040876992021495e-15 0.0 0.0
0.007249855843739232 -0.00597165016459348 0.0 0.012567557797974777 0.0 0.0
0.003914431165435297 -0.0032915311070116204 0.0 0.012306713642785658 0.0 0.0
0.0018465316728912358 -0.001516249829590672 0.0 0.011243255595810145 0.0 0.0
0.0006677256409187185 -0.0005157686635342585 0.0 0.009840721126815546 0.0 0.0
0.00015163883044943378 -0.00010049056976629638 0.0 0.008402524083044363 0.0 0.0
-5.287075008321364e-06 1.532178788165949e-05 0.0 0.007083909573561083 0.0 0.0
-2.4047314999239497e-05 2.2556305351084226e-05 0.0 0.0059318962356104225 0.0 0.0
-1.2139266791664051e-05 9.344924615645465e-06 0.0 0.004945309534140597 0.0 0.0
-2.8361265195964874e-06 2.480921331374003e-06 0.0 0.004103360741874517 0.0 0.0
4.903661176414566e-07 -1.3173090279808048e-06 0.0 0.0034318046302630398 0.0 0.0
6.223749599095657e-07 -2.4958503217862996e-07 0.0 0.0030604215722355903 0.0 0.0
2.5748051020799264e-08 -4.3460365257213873e-07 0.0 0.0028954226425746982 0.0 0.0
-3.28072872686849e-06 2.4903507620895617e-06 0.0 0.0027711047476223507 0.0 0.0
-1.4902629629316472e-05 1.3654242178520786e-05 0.0 0.00256010164668057 0.0 0.0
-4.460304672664283e-05 4.927480306182142e-05 0.0 0.0023452336959811164 0.0 0.0
-9.813882268198731e-05 0.0001003325485984937 0.0 0.0022103714983610907 0.0 0.0
-0.00015640465158256374 0.00013518151627815183 0.0 0.002193037567921059 0.0 0.0
-0.00014193456132283164 5.2700133806915384e-05 0.0 0.0022598698541720025 0.0 0.0
0.00016975716527198624 -0.0003753898218418753 0.0 0.0021428716370408833 0.0 0.0
0.00044156173909831845 -0.0019815852633135287 0.0 0.0014273082898139154 0.0 0.0
0.0003174207857854306 -0.0015374399911101948 0.0 -0.0013544971713847678 0.0 0.0
7.788572598739791e-05 -0.0003582788185460835 0.0 -0.0020095247477152234 0.0 0.0
-0.00023673711771531308 8.672267414816377e-05 0.0 -0.0022611546256454972 0.0 0.0
-0.000326824149085225 0.00020347774445176806 0.0 -0.0022181800117365186 0.0 0.0
-0.0003553276527357424 0.00021484185471499633 0.0 -0.0022201763212106747 0.0 0.0
-0.00040878808258012686 0.0002164168824046978 0.0 -0.0023287114770883053 0.0 0.0
-0.0005356585798355882 0.0002442562607891009 0.0 -0.002512783290431447 0.0 0.0
-0.0007766088701398307 0.00034512849364342767 0.0 -0.0026842065757973236 0.0 0.0
-0.001190036467432565 0.0005626114755777379 0.0 -0.0028947704019870457 0.0 0.0
-0.0018146272025507297 0.0009795906807576785 0.0 -0.0032940757201927453 0.0 0.0
-0.0026310577180305573 0.0015933232478632924 0.0 -0.003979391173470157 0.0 0.0
-0.003581647198718065 0.0023695755018614904 0.0 -0.004897198458431954 0.0 0.0
-0.004642117102780255 0.0032612183961422663 0.0 -0.005933000057026828 0.0 0.0
-0.005842262100491656 0.004307078132663269 0.0 -0.0070489119145129495 0.0 0.0
-0.0071785685562127215 0.005530308291342431 0.0 -0.008267236336989302 0.0 0.0
-0.008549371553871365 0.0068425263510514985 0.0 -0.009674766031639217 0.0 0.0
-0.009704085120283965 0.008000864226742926 0.0 -0.011341867616605814 0.0 0.0
-0.010250329298151303 0.0086088711008379 0.0 -0.013332244172585609 0.0 0.0
-0.00972485894834907 0.008283578229720857 0.0 -0.015534948823618257 0.0 0.0
-0.006832279170920349 0.006190837551608194 0.0 -0.016453171312668248 0.0 0.0
-0.004530230060077228 -0.0006145092958059573 0.0 1.1051923265448238e-14 0.0 0.0
-0.006832279170921067 0.006190837551608361 0.0 0.016453171312685293 0.0 0.0
-0.009724858948346798 0.00828357822971568 0.0 0.015534948823630386 0.0 0.0
-0.01025032929814486 0.008608871100833903 0.0 0.013332244172590029 0.0 0.0
-0.009704085120275263 0.008000864226739906 0.0 0.01134186761660062 0.0 0.0
-0.008549371553862881 0.0068425263510438605 0.0 0.009674766031631806 0.0 0.0
-0.007178568556204804 0.005530308291338256 0.0 0.008267236336982625 0.0 0.0
-0.005842262100483612 0.00430707813265416 0.0 0.007048911914506352 0.0 0.0
-0.004642117102771462 0.0032612183961357186 0.0 0.005933000057019787 0.0 0.0
-0.003581647198709432 0.002369575501852817 0.0 0.004897198458423789 0.0 0.0
-0.0026310577180231744 0.0015933232478591874 0.0 0.003979391173461429 0.0 0.0
-0.001814627202545248 0.0009795906807553065 0.0 0.003294075720187967 0.0 0.0
-0.0011900364674294313 0.0005626114755774374 0.0 0.0028947704019858947 0.0 0.0
-0.000776608870138003 0.00034512849364237697 0.0 0.002684206575795782 0.0 0.0
-0.0005356585798343771 0.0002442562607874015 0.0 0.0025127832904283925 0.0 0.0
-0.00040878808257953283 0.00021641688240634172 0.0 0.0023287114770865897 0.0 0.0
-0.00035532765273525165 0.0002148418547155515 0.0 0.0022201763212086885 0.0 0.0
-0.00032682414908488287 0.000203477744451808 0.0 0.0022181800117339287 0.0 0.0
-0.00023673711771531573 8.672267414795523e-05 0.0 0.002261154625643051 0.0 0.0
7.788572598722818e-05 -0.00035827881854607707 0.0 0.0020095247477137632 0.0 0.0
0.00031742078578526065 -0.0015374399911081851 0.0 0.0013544971713828425 0.0 0.0
0.00022325794171412013 -0.001169339080061699 0.0 -0.00123236508275689 0.0 0.0
3.748384275114708e-06 -0.0003238174994447951 0.0 -0.00186853616404001 0.0 0.0
-0.0003246900192408035 0.00011911520709155274 0.0 -0.002210658539709378 0.0 0.0
-0.0004890391549936747 0.0002677909905418265 0.0 -0.0021879026528430043 0.0 0.0
-0.000604657915770788 0.0003234841226788189 0.0 -0.002168240368166972 0.0 0.0
-0.0007649734416086287 0.000376900567209389 0.0 -0.002237431174939546 0.0 0.0
-0.0010447402607560259 0.00046814880963006367 0.0 -0.0023528058184071796 0.0 0.0
-0.0015678517936436758 0.0007244573424052291 0.0 -0.0025466682681773945 0.0 0.0
-0.0024684495733921052 0.0013071851506932727 0.0 -0.003042865100348977 0.0 0.0
-0.0037771439728363325 0.002336102067080952 0.0 -0.003928156218055074 0.0 0.0
-0.005412669978795349 0.003746720473006465 0.0 -0.0051479267977536875 0.0 0.0
-0.007278811811105125 0.0054252116218301795 0.0 -0.006467179971764475 0.0 0.0
-0.009361765998859213 0.007329809208703599 0.0 -0.007796563829212608 0.0 0.0
-0.011718276272131338 0.009530853316539098 0.0 -0.009123511352615703 0.0 0.0
-0.014389737305519557 0.012079028063126562 0.0 -0.010531560345154083 0.0 0.0
-0.017292128405366827 0.014913268310916529 0.0 -0.0122134478111492 0.0 0.0
-0.020134023222806746 0.017747837516662413 0.0 -0.014395773780291849 0.0 0.0
-0.02240104538847393 0.020064178460984298 0.0 -0.017188812376130572 0.0 0.0
-0.02311463505630228 0.020977403961977285 0.0 -0.02002546475785233 0.0 0.0
-0.02048785195376107 0.01863805549913883 0.0 -0.02059732524173907 0.0 0.0
-0.018059266898120256 0.010025167634950571 0.0 1.1160343482696788e-14 0.0 0.0
-0.020487851953760662 0.018638055499133905 0.0 0.02059732524176502 0.0 0.0
-0.02311463505629649 0.02097740396197327 0.0 0.020025464757876605 0.0 0.0
-0.022401045388462375 0.020064178460976367 0.0 0.01718881237614239 0.0 0.0
-0.020134023222791283 0.01774783751664378 0.0 0.01439577378028667 0.0 0.0
-0.01729212840535134 0.01491326831090007 0.0 0.012213447811140279 0.0 0.0
-0.014389737305505409 0.012079028063113447 0.0 0.01053156034514544 0.0 0.0
-0.011718276272116822 0.00953085331652336 0.0 0.009123511352607921 0.0 0.0
-0.009361765998844074 0.007329809208691055 0.0 0.00779656382920387 0.0 0.0
-0.007278811811090368 0.00542521162181634 0.0 0.006467179971751462 0.0 0.0
-0.005412669978782444 0.0037467204729952934 0.0 0.0051479267977419954 0.0 0.0
-0.0037771439728263353 0.002336102067072847 0.0 0.00392815621804637 0.0 0.0
-0.002468449573385598 0.0013071851506883878 0.0 0.0030428651003452816 0.0 0.0
-0.0015678517936400882 0.0007244573424030899 0.0 0.0025466682681756243 0.0 0.0
-0.0010447402607539566 0.0004681488096298633 0.0 0.0023528058184051734 0.0 0.0
-0.0007649734416073508 0.0003769005672087025 0.0 0.002237431174938025 0.0 0.0
-0.0006046579157701358 0.0003234841226779104 0.0 0.0021682403681647314 0.0 0.0
-0.0004890391549934143 0.0002677909905414298 0.0 0.002187902652840636 0.0 0.0
-0.0003246900192405049 0.00011911520709204698 0.0 0.0022106585397072952 0.0 0.0
3.748384275263867e-06 -0.00032381749944494293 0.0 0.0018685361640389136 0.0 0.0
0.0002232579417139383 -0.0011693390800601685 0.0 0.0012323650827558883 0.0 0.0
0.00014265387530632825 -0.0008557579515852292 0.0 -0.0010828790680182316 0.0 0.0
-6.209229663022204e-05 -0.00027494883123666534 0.0 -0.0017064184164376787 0.0 0.0
-0.00040733782046549206 0.00015122041204852457 0.0 -0.002108099563435853 0.0 0.0
-0.0006428718231696553 0.0003277579596679952 0.0 -0.0021020621502755563 0.0 0.0
-0.0008441007836334728 0.0004249909079823576 0.0 -0.0020579806553217483 0.0 0.0
-0.0011069772282287186 0.0005252924349182425 0.0 -0.002064154356022285 0.0 0.0
-0.0015669049638720055 0.0007035254939564264 0.0 -0.002131337816957396 0.0 0.0
-0.0024432967975485296 0.0012261454246437215 0.0 -0.0024906913445428636 0.0 0.0
-0.0038879735167029004 0.002330765795968244 0.0 -0.003337409350769043 0.0 0.0
-0.00588523379151965 0.0040680556851736775 0.0 -0.0046481124998844145 0.0 0.0
-0.008308271631946241 0.006281548244564019 0.0 -0.006189998668460011 0.0 0.0
-0.011056686514917901 0.008837439046899362 0.0 -0.0077236215441599376 0.0 0.0
-0.014145538038316162 0.01173551130421066 0.0 -0.009199518890944081 0.0 0.0
-0.017665305012909565 0.015075481089442663 0.0 -0.010669348847079246 0.0 0.0
-0.021695445848012383 0.018953789499749574 0.0 -0.012278642420180341 0.0 0.0
-0.026173751653455583 0.02334122459175058 0.0 -0.014293630117157955 0.0 0.0
-0.03076415649978915 0.027921483458764877 0.0 -0.017118371423046466 0.0 0.0
-0.0346837728476884 0.031958543700158694 0.0 -0.020861953730136412 0.0 0.0
-0.036465565880031824 0.03399616096839909 0.0 -0.02448912066114418 0.0 0.0
-0.033513885116508574 0.0315991214868275 0.0 -0.02567272238324681 0.0 0.0
-0.030439810074920574 0.02034909829434889 0.0 1.1993010751165656e-14 0.0 0.0
-0.03351388511650596 0.03159912148682025 0.0 0.025672722383276177 0.0 0.0
-0.03646556588002232 0.03399616096839182 0.0 0.024489120661174733 0.0 0.0
-0.03468377284767188 0.0319585437001442 0.0 0.020861953730152424 0.0 0.0
-0.030764156499768297 0.0279214834587432 0.0 0.017118371423044745 0.0 0.0
-0.026173751653433556 0.023341224591735453 0.0 0.014293630117149191 0.0 0.0
-0.021695445847991664 0.01895378949972581 0.0 0.012278642420171305 0.0 0.0
-0.017665305012889026 0.015075481089425549 0.0 0.010669348847069993 0.0 0.0
-0.014145538038295127 0.01173551130418885 0.0 0.009199518890935081 0.0 0.0
-0.011056686514897135 0.008837439046880028 0.0 0.007723621544145501 0.0 0.0
-0.008308271631927551 0.006281548244544193 0.0 0.006189998668446316 0.0 0.0
-0.0058852337915050595 0.004068055685160195 0.0 0.0046481124998727285 0.0 0.0
-0.0038879735166930177 0.002330765795958777 0.0 0.003337409350762907 0.0 0.0
-0.002443296797542459 0.0012261454246360061 0.0 0.002490691344539503 0.0 0.0
-0.0015669049638687696 0.000703525493956469 0.0 0.002131337816956072 0.0 0.0
-0.0011069772282272631 0.0005252924349169086 0.0 0.0020641543560205484 0.0 0.0
-0.0008441007836326454 0.00042499090798163577 0.0 0.002057980655320015 0.0 0.0
-0.0006428718231691918 0.0003277579596679776 0.0 0.0021020621502740393 0.0 0.0
-0.00040733782046514403 0.00015122041204875339 0.0 0.0021080995634337935 0.0 0.0
-6.209229663012763e-05 -0.00027494883123673115 0.0 0.0017064184164358013 0.0 0.0
0.00014265387530617657 -0.0008557579515841488 0.0 0.0010828790680181158 0.0 0.0
7.102186754562488e-05 -0.0005917785986034981 0.0 -0.0009241054076685237 0.0 0.0
-0.0001231864900578375 -0.00021535972845419273 0.0 -0.001519228711010141 0.0 0.0
-0.00048643725889028794 0.00018430939178790804 0.0 -0.001954254318370335 0.0 0.0
-0.0007892323254027888 0.00038356215745492 0.0 -0.0019612016670028463 0.0 0.0
-0.001070335679668145 0.0005169195220520069 0.0 -0.0018874015131877106 0.0 0.0
-0.001445434334502014 0.0006627631661940615 0.0 -0.0018180262931227135 0.0 0.0
-0.002135736592717559 0.000997207049710386 0.0 -0.0019177246563811842 0.0 0.0
-0.0034174494609666116 0.0018920501589025779 0.0 -0.002460814333441775 0.0 0.0
-0.005423844083899192 0.0035820793178107328 0.0 -0.0035718975225471797 0.0 0.0
-0.008089244009063457 0.006005703713647281 0.0 -0.005103576024415723 0.0 0.0
-0.011265398988552111 0.008972289331023148 0.0 -0.00673050873709354 0.0 0.0
-0.014882298589167484 0.012384916142851952 0.0 -0.008319073515754014 0.0 0.0
-0.018982779325054523 0.01627327288617465 0.0 -0.009852686120727799 0.0 0.0
-0.023678525372808682 0.020759329913745513 0.0 -0.011405888635310507 0.0 0.0
-0.029081268736711782 0.025976589865071256 0.0 -0.013111338740081066 0.0 0.0
-0.035162701019225064 0.03194017851911106 0.0 -0.015297615987523945 0.0 0.0
-0.041511030766525514 0.03829068677385376 0.0 -0.018442471566560516 0.0 0.0
-0.04703197488811631 0.04399491783356863 0.0 -0.022698586747431318 0.0 0.0
-0.049679798983026636 0.04704159973516837 0.0 -0.027112864536547637 0.0 0.0
-0.04607614947699552 0.04417462289779142 0.0 -0.029138937393156504 0.0 0.0
-0.0421901529700649 0.03033608995654155 0.0 1.4401674297559452e-14 0.0 0.0
-0.04607614947699012 0.04417462289778259 0.0 0.029138937393188125 0.0 0.0
-0.0496797989830131 0.04704159973515919 0.0 0.027112864536579642 0.0 0.0
-0.047031974888095796 0.043994917833551174 0.0 0.02269858674744909 0.0 0.0
-0.041511030766500014 0.038290686773829005 0.0 0.018442471566559586 0.0 0.0
-0.0351627010191974 0.031940178519084275 0.0 0.0152976159875149 0.0 0.0
-0.029081268736684908 0.02597658986504585 0.0 0.013111338740071386 0.0 0.0
-0.023678525372781856 0.02075932991372219 0.0 0.011405888635301708 0.0 0.0
-0.018982779325027555 0.01627327288614859 0.0 0.00985268612071756 0.0 0.0
-0.014882298589141411 0.012384916142825747 0.0 0.008319073515739834 0.0 0.0
-0.011265398988528534 0.00897228933099885 0.0 0.006730508737076212 0.0 0.0
-0.00808924400904453 0.006005703713630105 0.0 0.005103576024402287 0.0 0.0
-0.005423844083885496 0.003582079317797488 0.0 0.003571897522538554 0.0 0.0
-0.0034174494609576973 0.0018920501588962552 0.0 0.0024608143334364464 0.0 0.0
-0.0021357365927126932 0.000997207049710235 0.0 0.0019177246563783384 0.0 0.0
-0.0014454343345000342 0.000662763166192698 0.0 0.0018180262931214437 0.0 0.0
-0.0010703356796671194 0.0005169195220504443 0.0 0.001887401513186151 0.0 0.0
-0.0007892323254020067 0.00038356215745451926 0.0 0.0019612016670008414 0.0 0.0
-0.0004864372588898048 0.0001843093917879676 0.0 0.001954254318368737 0.0 0.0
-0.00012318649005756564 -0.00021535972845432289 0.0 0.0015192287110080262 0.0 0.0
7.10218675457772e-05 -0.0005917785986028123 0.0 0.0009241054076680997 0.0 0.0
7.740838431336185e-06 -0.00037526720892472 0.0 -0.0007609942016358371 0.0 0.0
-0.00018010221707297788 -0.00014965001717355422 0.0 -0.0013082242644900125 0.0 0.0
-0.0005627646482820052 0.0002189880879468991 0.0 -0.0017502575472439258 0.0 0.0
-0.0009274875691158702 0.0004352080240157106 0.0 -0.0017658005366765872 0.0 0.0
-0.001284995696164622 0.0005980749114052572 0.0 -0.0016561745108665982 0.0 0.0
-0.0017980632042701172 0.0008104055989925573 0.0 -0.0015390732322363317 0.0 0.0
-0.002765833191931039 0.0013765488380716837 0.0 -0.001695458044301696 0.0 0.0
-0.004484829200438917 0.0027152402302612136 0.0 -0.002383558500957918 0.0 0.0
-0.007046450385408933 0.004991408005502108 0.0 -0.003642667275406567 0.0 0.0
-0.010339694828598317 0.00804656450954755 0.0 -0.005164504373392215 0.0 0.0
-0.014248552768459675 0.011736638762341973 0.0 -0.0067373769089769196 0.0 0.0
-0.018741902086713048 0.016004883263143966 0.0 -0.008281532989548882 0.0 0.0
-0.023866849604521564 0.020893238473452844 0.0 -0.009792036774902438 0.0 0.0
-0.029745993292415666 0.026537066681352417 0.0 -0.011347495000516718 0.0 0.0
-0.036522109348449676 0.033093258082270684 0.0 -0.013065368741374263 0.0 0.0
-0.04418683507625623 0.04060920116062458 0.0 -0.015182576964785924 0.0 0.0
-0.052249815899939225 0.04868954350725157 0.0 -0.018196073919457736 0.0 0.0
-0.059316345562723 0.0560217418961718 0.0 -0.02252306680594029 0.0 0.0
-0.06273162349526365 0.059986342780889476 0.0 -0.027575105387260646 0.0 0.0
-0.05844610500575578 0.056577054724036416 0.0 -0.0313513581373412 0.0 0.0
-0.053784466848309134 0.040318802714839536 0.0 1.4585554986012994e-14 0.0 0.0
-0.05844610500574837 0.05657705472403425 0.0 0.031351358137375246 0.0 0.0
-0.06273162349524637 0.05998634278087468 0.0 0.027575105387294865 0.0 0.0
-0.059316345562698394 0.056021741896152666 0.0 0.022523066805957632 0.0 0.0
-0.05224981589990921 0.04868954350722341 0.0 0.0181960739194589 0.0 0.0
-0.04418683507622287 0.04060920116058953 0.0 0.015182576964780384 0.0 0.0
-0.03652210934841647 0.03309325808223904 0.0 0.013065368741365336 0.0 0.0
-0.029745993292382797 0.026537066681321008 0.0 0.011347495000508096 0.0 0.0
-0.023866849604488517 0.02089323847341948 0.0 0.009792036774891301 0.0 0.0
-0.01874190208668127 0.016004883263111207 0.0 0.008281532989535068 0.0 0.0
-0.014248552768431299 0.01173663876231237 0.0 0.006737376908960195 0.0 0.0
-0.010339694828574901 0.008046564509524347 0.0 0.0051645043733799575 0.0 0.0
-0.00704645038539156 0.004991408005484856 0.0 0.0036426672753972185 0.0 0.0
-0.004484829200427318 0.0027152402302552405 0.0 0.002383558500952298 0.0 0.0
-0.002765833191924441 0.0013765488380677517 0.0 0.0016954580442979862 0.0 0.0
-0.001798063204267199 0.0008104055989902703 0.0 0.0015390732322344708 0.0 0.0
-0.0012849956961632689 0.0005980749114047972 0.0 0.0016561745108649385 0.0 0.0
-0.000927487569114944 0.0004352080240155088 0.0 0.0017658005366754828 0.0 0.0
-0.0005627646482815226 0.00021898808794697494 0.0 0.001750257547243205 0.0 0.0
-0.00018010221707286822 -0.00014965001717370037 0.0 0.0013082242644882963 0.0 0.0
7.740838431405074e-06 -0.0003752672089243412 0.0 0.000760994201635531 0.0 0.0
-4.596584510148345e-05 -0.0002058052292956768 0.0 -0.0005957738804822452 0.0 0.0
-0.000231512336039379 -8.23906214225635e-05 0.0 -0.0010755303438509719 0.0 0.0
-0.0006359502668690415 0.00025460825368128916 0.0 -0.0014974503984685774 0.0 0.0
-0.0010584519089221396 0.00048290994863525705 0.0 -0.0015153730688226659 0.0 0.0
-0.0014980384033558844 0.0006701878101139733 0.0 -0.0013719759554920198 0.0 0.0
-0.0021767571943434646 0.0009902574746860932 0.0 -0.0012386977679127583 0.0 0.0
-0.0034627565410063873 0.0018571162957417408 0.0 -0.0014496924080811108 0.0 0.0
-0.005632604462739886 0.003679973722943557 0.0 -0.0022443186136462726 0.0 0.0
-0.008710453382749528 0.00648265118934456 0.0 -0.0034352266100186567 0.0 0.0
-0.012603471553913977 0.010133947454349326 0.0 -0.004803317693402884 0.0 0.0
-0.0172479312376503 0.014541953552807393 0.0 -0.006241800246574452 0.0 0.0
-0.02262177036194668 0.019667600060569813 0.0 -0.007651428195351502 0.0 0.0
-0.028783997167246125 0.025569712614954658 0.0 -0.00904685272273309 0.0 0.0
-0.035862728759949274 0.032387883157590086 0.0 -0.010519806182886896 0.0 0.0
-0.04398867408706964 0.04027126005238469 0.0 -0.012150714315447553 0.0 0.0
-0.05316063584620609 0.04926451723692723 0.0 -0.014018051915130433 0.0 0.0
-0.06285838087057184 0.058968663560191356 0.0 -0.016472702756707855 0.0 0.0
-0.07142278530454542 0.06787630536429666 0.0 -0.020312215403834547 0.0 0.0
-0.07565831715807757 0.07281929422038107 0.0 -0.025934987961085038 0.0 0.0
-0.07088171925218571 0.06908034112152218 0.0 -0.03256952802990347 0.0 0.0
-0.06556990988728799 0.05063167442061338 0.0 1.450575770611806e-14 0.0 0.0
-0.07088171925217597 0.06908034112151416 0.0 0.032569528029936484 0.0 0.0
-0.07565831715805688 0.07281929422035482 0.0 0.025934987961116474 0.0 0.0
-0.07142278530451619 0.06787630536426871 0.0 0.02031221540384977 0.0 0.0
-0.06285838087053686 0.05896866356015627 0.0 0.016472702756712167 0.0 0.0
-0.053160635846167516 0.04926451723689239 0.0 0.014018051915127835 0.0 0.0
-0.0439886740870304 0.040271260052347324 0.0 0.01215071431543965 0.0 0.0
-0.03586272875991059 0.03238788315755636 0.0 0.010519806182880152 0.0 0.0
-0.028783997167207115 0.025569712614915183 0.0 0.009046852722723703 0.0 0.0
-0.02262177036190905 0.019667600060533717 0.0 0.007651428195339387 0.0 0.0
-0.017247931237616955 0.014541953552771738 0.0 0.006241800246560209 0.0 0.0
-0.012603471553886489 0.010133947454321035 0.0 0.004803317693390646 0.0 0.0
-0.008710453382728637 0.00648265118932501 0.0 0.003435226610009416 0.0 0.0
-0.005632604462725421 0.0036799737229307235 0.0 0.002244318613641198 0.0 0.0
-0.0034627565409980944 0.0018571162957358488 0.0 0.001449692408076882 0.0 0.0
-0.0021767571943397805 0.0009902574746826745 0.0 0.0012386977679118788 0.0 0.0
-0.0014980384033543269 0.0006701878101151326 0.0 0.001371975955490856 0.0 0.0
-0.0010584519089212473 0.00048290994863557223 0.0 0.0015153730688220789 0.0 0.0
-0.0006359502668683403 0.0002546082536810353 0.0 0.0014974503984675949 0.0 0.0
-0.00023151233603913463 -8.239062142279643e-05 0.0 0.001075530343849424 0.0 0.0
-4.596584510159736e-05 -0.00020580522929528527 0.0 0.0005957738804818959 0.0 0.0
-8.736639262854254e-05 -8.403067370356159e-05 0.0 -0.0004322890200822708 0.0 0.0
-0.00027434551794275054 -1.8382900660876474e-05 0.0 -0.0008238438585374877 0.0 0.0
-0.0007042108887552845 0.0002894004861738424 0.0 -0.0011948850865062446 0.0 0.0
-0.0011843441264750144 0.0005264687923776355 0.0 -0.001208878734774494 0.0 0.0
-0.0017174773208885556 0.0007433591406674036 0.0 -0.001040283174031799 0.0 0.0
-0.0025965998236786797 0.0012166387748971615 0.0 -0.0009052592220834668 0.0 0.0
-0.004232743698891435 0.0024546290959210296 0.0 -0.0011946962367501916 0.0 0.0
-0.006823357540272808 0.004726872153611852 0.0 -0.0019353620275819254 0.0 0.0
-0.010379634825648295 0.008006111353566908 0.0 -0.0029107308902864707 0.0 0.0
-0.014870333625823975 0.012244370360770175 0.0 -0.004057013203982304 0.0 0.0
-0.02024769771726809 0.017365518156728106 0.0 -0.005263516297473893 0.0 0.0
-0.02650870297317775 0.023353665886250246 0.0 -0.006448254017495216 0.0 0.0
-0.03372376563132826 0.03028276445529665 0.0 -0.007630458868290583 0.0 0.0
-0.04200923075657805 0.038291588380126605 0.0 -0.008915873646586497 0.0 0.0
-0.05146266905740446 0.047491180882407 0.0 -0.010369365421039972 0.0 0.0
-0.06203140779376988 0.057857734823146004 0.0 -0.01190688420818392 0.0 0.0
-0.07319005559782965 0.0689771217302389 0.0 -0.013508685213743927 0.0 0.0
-0.08321831459212478 0.0793738888934759 0.0 -0.01613465800814415 0.0 0.0
-0.08851665039685098 0.08555247408260358 0.0 -0.022083193027364657 0.0 0.0
-0.08363808698712662 0.08196205907374644 0.0 -0.03256192741939569 0.0 0.0
-0.07787227081157921 0.06162874716188993 0.0 1.1286110934705107e-14 0.0 0.0
-0.0836380869871147 0.08196205907373305 0.0 0.032561927419423826 0.0 0.0
-0.08851665039682685 0.0855524740825791 0.0 0.022083193027392645 0.0 0.0
-0.08321831459209067 0.07937388889344436 0.0 0.016134658008159393 0.0 0.0
-0.07319005559778913 0.06897712173019489 0.0 0.013508685213746995 0.0 0.0
-0.06203140779372612 0.05785773482310129 0.0 0.011906884208183432 0.0 0.0
-0.05146266905735943 0.04749118088235932 0.0 0.010369365421035517 0.0 0.0
-0.04200923075653331 0.03829158838008641 0.0 0.008915873646580266 0.0 0.0
-0.03372376563128401 0.030282764455252402 0.0 0.007630458868283209 0.0 0.0
-0.02650870297313518 0.02335366588621097 0.0 0.006448254017486094 0.0 0.0
-0.020247697717230166 0.017365518156688554 0.0 0.005263516297461685 0.0 0.0
-0.01487033362579264 0.01224437036074115 0.0 0.004057013203972121 0.0 0.0
-0.010379634825624158 0.008006111353545595 0.0 0.0029107308902779645 0.0 0.0
-0.0068233575402555985 0.004726872153596112 0.0 0.0019353620275766713 0.0 0.0
-0.004232743698881074 0.0024546290959135885 0.0 0.0011946962367464704 0.0 0.0
-0.0025965998236737696 0.0012166387748936292 0.0 0.000905259222083679 0.0 0.0
-0.0017174773208865144 0.0007433591406662581 0.0 0.0010402831740317473 0.0 0.0
-0.0011843441264738589 0.0005264687923782657 0.0 0.0012088787347725376 0.0 0.0
-0.0007042108887544918 0.00028940048617343147 0.0 0.0011948850865050357 0.0 0.0
-0.00027434551794234136 -1.838290066087766e-05 0.0 0.0008238438585366026 0.0 0.0
-8.736639262833435e-05 -8.403067370337135e-05 0.0 0.0004322890200813817 0.0 0.0
-0.00011181397895421527 -1.0876612042151657e-05 0.0 -0.0002799299997975 0.0 0.0
-0.00030307582186955064 3.63354674503538e-05 0.0 -0.0005567364691058135 0.0 0.0
-0.0007645258054507267 0.000320020950432652 0.0 -0.0008369787111081804 0.0 0.0
-0.0013089197081671072 0.0005676844160540527 0.0 -0.0008422153419896017 0.0 0.0
-0.0019547273830559904 0.0008294746871633394 0.0 -0.000667389451247399 0.0 0.0
-0.0030732604816435744 0.001522184028012878 0.0 -0.0005650838565190484 0.0 0.0
-0.005051093773988031 0.0031439535355247536 0.0 -0.0008657587698055792 0.0 0.0
-0.008025231912817744 0.0058027613966182496 0.0 -0.0013935697852081156 0.0 0.0
-0.012046849474457244 0.009545149180296452 0.0 -0.0021027942380948774 0.0 0.0
-0.01712469797184471 0.014357645104722712 0.0 -0.0029364024730397027 0.0 0.0
-0.0232345450797555 0.02018902540703773 0.0 -0.0038161611800406874 0.0 0.0
-0.03038847721662307 0.02704580933403415 0.0 -0.00467889941882664 0.0 0.0
-0.03866524118742313 0.03501493982590532 0.0 -0.005553255630269842 0.0 0.0
-0.04817309773005412 0.044225785812088504 0.0 -0.006550965470985966 0.0 0.0
-0.0589348025911582 0.054729722634227235 0.0 -0.007697293006668906 0.0 0.0
-0.07076917145484417 0.06637642837734234 0.0 -0.008832350125377957 0.0 0.0
-0.08312462866134339 0.07864805632149409 0.0 -0.009661529750697182 0.0 0.0
-0.09452448028429489 0.09025337509231746 0.0 -0.010650157971627796 0.0 0.0
-0.10128418919934433 0.09804934133440979 0.0 -0.015412555394652704 0.0 0.0
-0.0969850148825237 0.09555198208005078 0.0 -0.030415864493817682 0.0 0.0
-0.09111783463845442 0.07383486505888513 0.0 8.640657633840476e-15 0.0 0.0
-0.09698501488250966 0.09555198208003811 0.0 0.03041586449383963 0.0 0.0
-0.10128418919931642 0.09804934133438878 0.0 0.015412555394675523 0.0 0.0
-0.09452448028425565 0.09025337509228352 0.0 0.010650157971637859 0.0 0.0
-0.08312462866129719 0.07864805632144815 0.0 0.00966152975069742 0.0 0.0
-0.07076917145479465 0.06637642837729449 0.0 0.008832350125376346 0.0 0.0
-0.05893480259110786 0.05472972263417831 0.0 0.007697293006667312 0.0 0.0
-0.04817309773000356 0.04422578581203942 0.0 0.006550965470981208 0.0 0.0
-0.03866524118737244 0.03501493982585417 0.0 0.00555325563026571 0.0 0.0
-0.03038847721657513 0.027045809333988556 0.0 0.0046788994188209365 0.0 0.0
-0.0232345450797136 0.020189025406996373 0.0 0.0038161611800317363 0.0 0.0
-0.01712469797180979 0.014357645104690026 0.0 0.002936402473031728 0.0 0.0
-0.012046849474429718 0.009545149180271979 0.0 0.0021027942380893077 0.0 0.0
-0.008025231912797647 0.005802761396601203 0.0 0.0013935697852038242 0.0 0.0
-0.00505109377397541 0.0031439535355138886 0.0 0.0008657587698036083 0.0 0.0
-0.0030732604816374395 0.0015221840280081052 0.0 0.0005650838565178923 0.0 0.0
-0.0019547273830537123 0.0008294746871624377 0.0 0.0006673894512482069 0.0 0.0
-0.0013089197081661652 0.0005676844160544805 0.0 0.0008422153419883252 0.0 0.0
-0.0007645258054501508 0.00032002095043210077 0.0 0.0008369787111077698 0.0 0.0
-0.0003030758218693368 3.633546745052018e-05 0.0 0.0005567364691051303 0.0 0.0
-0.00011181397895427353 -1.0876612042216328e-05 0.0 0.00027992999979698207 0.0 0.0
-0.00011126557838237383 1.3649812224759458e-05 0.0 -0.0001596470857590365 0.0 0.0
-0.00030827912632810494 7.220926053504827e-05 0.0 -0.00027874321898056905 0.0 0.0
-0.0008120991346195779 0.00034152297070168903 0.0 -0.0004092664965180538 0.0 0.0
-0.0014392543727057498 0.0006114035781312581 0.0 -0.00040768133447966886 0.0 0.0
-0.002228426855770063 0.0009489349729455015 0.0 -0.0002681309931748148 0.0 0.0
-0.0036015536218420765 0.0019126289269158774 0.0 -0.0002131013470449269 0.0 0.0
-0.00589538374549038 0.0038812604383022973 0.0 -0.00038979893402059243 0.0 0.0
-0.009225215248472335 0.006893214290329691 0.0 -0.0006584921932290469 0.0 0.0
-0.01369677295200172 0.011081585722309733 0.0 -0.0010175225605774392 0.0 0.0
-0.01935215808179258 0.01645473959791958 0.0 -0.001449742506538146 0.0 0.0
-0.026192804245499433 0.0229951659604334 0.0 -0.0019010043873337924 0.0 0.0
-0.034247803538685055 0.030731006482176394 0.0 -0.00234607712269791 0.0 0.0
-0.04359980180732456 0.03975256276432588 0.0 -0.002839344672059111 0.0 0.0
-0.0543217761634834 0.05015914247873723 0.0 -0.0034167222155526804 0.0 0.0
-0.0663663587731917 0.06194532711312496 0.0 -0.004077741032096162 0.0 0.0
-0.07940841806368185 0.07482437509207698 0.0 -0.004733307424553432 0.0 0.0
-0.09270429460413973 0.08806782593542685 0.0 -0.0051025121438177945 0.0 0.0
-0.10500946973829274 0.10039828841620838 0.0 -0.005042918248294291 0.0 0.0
-0.11364758331790152 0.10952711827303235 0.0 -0.006821826035679461 0.0 0.0
-0.11129891647383913 0.11002761661811225 0.0 -0.021593181095481858 0.0 0.0
-0.1060273724079822 0.08881338076784619 0.0 4.919675777870225e-15 0.0 0.0
-0.11129891647382269 0.11002761661809783 0.0 0.021593181095494286 0.0 0.0
-0.11364758331786937 0.10952711827300116 0.0 0.006821826035692178 0.0 0.0
-0.10500946973824814 0.10039828841616713 0.0 0.005042918248300285 0.0 0.0
-0.09270429460408768 0.0880678259353733 0.0 0.005102512143818568 0.0 0.0
-0.07940841806362652 0.07482437509202401 0.0 0.004733307424552938 0.0 0.0
-0.0663663587731353 0.06194532711307299 0.0 0.0040777410320953 0.0 0.0
-0.05432177616342677 0.050159142478680654 0.0 0.003416722215549826 0.0 0.0
-0.04359980180726799 0.03975256276427007 0.0 0.0028393446720565473 0.0 0.0
-0.03424780353863169 0.030731006482125157 0.0 0.0023460771226942543 0.0 0.0
-0.026192804245452936 0.022995165960388517 0.0 0.0019010043873296163 0.0 0.0
-0.01935215808175382 0.016454739597880838 0.0 0.0014497425065345953 0.0 0.0
-0.013696772951971022 0.011081585722280395 0.0 0.0010175225605751625 0.0 0.0
-0.009225215248449822 0.006893214290309205 0.0 0.0006584921932270343 0.0 0.0
-0.005895383745475743 0.0038812604382882122 0.0 0.00038979893401815894 0.0 0.0
-0.0036015536218343405 0.0019126289269091102 0.0 0.00021310134704490517 0.0 0.0
-0.0022284268557668783 0.0009489349729452723 0.0 0.0002681309931766018 0.0 0.0
-0.0014392543727043555 0.000611403578131393 0.0 0.00040768133447932403 0.0 0.0
-0.0008120991346185628 0.0003415229707006694 0.0 0.00040926649651874114 0.0 0.0
-0.00030827912632774536 7.220926053529707e-05 0.0 0.0002787432189798523 0.0 0.0
-0.00011126557838254035 1.3649812224570375e-05 0.0 0.00015964708576003515 0.0 0.0
-7.099193562579254e-05 1.386579762074221e-05 0.0 -0.00010047309947957671 0.0 0.0
-0.000273702943134665 8.39132842246637e-05 0.0 -0.00011569806078855343 0.0 0.0
-0.000840236914739287 0.000349326271163658 0.0 -0.00013965905645869895 0.0 0.0
-0.0015892010261546593 0.0006345322828173193 0.0 -0.0001248414802353292 0.0 0.0
-0.002551490313547238 0.0010212067435852376 0.0 4.0505718528259765e-05 0.0 0.0
-0.004169457348266339 0.0021249690997084594 0.0 0.00019280884832372235 0.0 0.0
-0.006748672816916698 0.004257297467017595 0.0 0.00023856178488699425 0.0 0.0
-0.010412925752369387 0.007440736733462001 0.0 0.00025557048928046445 0.0 0.0
-0.015315812886765692 0.011846579285152224 0.0 0.00025250810426362316 0.0 0.0
-0.0215369285272433 0.017497133318441525 0.0 0.00020728456728085257 0.0 0.0
-0.029108809759530393 0.024391302864783068 0.0 0.0001669608167508686 0.0 0.0
-0.0380787717653231 0.03257093695347515 0.0 0.00012812376360947725 0.0 0.0
-0.04850279584788209 0.042121300089526414 0.0 2.6490093519248442e-05 0.0 0.0
-0.06041900578243121 0.0531202380269038 0.0 -0.00010490802279849911 0.0 0.0
-0.07372504668703138 0.06554207322684184 0.0 -0.00033592845264515756 0.0 0.0
-0.08795696390259403 0.07903099954790956 0.0 -0.0006586035063861758 0.0 0.0
-0.10212902016591338 0.09273417958527785 0.0 -0.0009533206506246762 0.0 0.0
-0.11475123055065167 0.10529836774123466 0.0 -0.0009830614427562868 0.0 0.0
-0.12421482451906722 0.11484941684994171 0.0 -0.0014599584893371965 0.0 0.0
-0.12657248932405046 0.11748382782730042 0.0 -0.015306223350770348 0.0 0.0
-0.1251769420860211 0.09730456827147405 0.0 2.0747292772682613e-15 0.0 0.0
-0.1265724893240327 0.11748382782728872 0.0 0.01530622335077392 0.0 0.0
-0.1242148245190301 0.11484941684990463 0.0 0.0014599584893404596 0.0 0.0
-0.1147512305506002 0.10529836774119045 0.0 0.0009830614427593157 0.0 0.0
-0.10212902016585505 0.09273417958521854 0.0 0.0009533206506227663 0.0 0.0
-0.08795696390253283 0.07903099954784779 0.0 0.0006586035063853093 0.0 0.0
-0.07372504668696914 0.06554207322678181 0.0 0.0003359284526436423 0.0 0.0
-0.060419005782368376 0.05312023802684189 0.0 0.00010490802279767598 0.0 0.0
-0.04850279584781981 0.04212130008946911 0.0 -2.64900935210248e-05 0.0 0.0
-0.03807877176526453 0.032570936953421295 0.0 -0.00012812376361184472 0.0 0.0
-0.029108809759479715 0.024391302864736703 0.0 -0.00016696081675326643 0.0 0.0
-0.02153692852720146 0.017497133318400263 0.0 -0.0002072845672812804 0.0 0.0
-0.015315812886732005 0.011846579285121218 0.0 -0.0002525081042644029 0.0 0.0
-0.01041292575234454 0.0074407367334387575 0.0 -0.0002555704892803492 0.0 0.0
-0.006748672816900215 0.004257297467001942 0.0 -0.00023856178488778918 0.0 0.0
-0.004169457348256963 0.0021249690997024264 0.0 -0.00019280884832104626 0.0 0.0
-0.0025514903135431654 0.0010212067435841437 0.0 -4.050571852638149e-05 0.0 0.0
-0.0015892010261531744 0.0006345322828174779 0.0 0.00012484148023516472 0.0 0.0
-0.0008402369147388689 0.00034932627116219964 0.0 0.00013965905645999622 0.0 0.0
-0.0002737029431344072 8.391328422512215e-05 0.0 0.00011569806078813413 0.0 0.0
-7.099193562522816e-05 1.3865797620434907e-05 0.0 0.00010047309948108785 0.0 0.0
SCALARS Statev float 8
LOOKUP_TABLE default
0.0 0.015534034309348257 0.012352077770149683 -0.014869177732825364 0.002517099962675694 -0.0006383517184241427 0.0 0.0
0.0 0.004948745127782895 0.003571167101473773 -0.0020845310611937663 -0.0014866360402800032 -0.005963814921429755 0.0 0.0
0.0 1.548494439870803e-05 5.636722547024675e-05 -3.656740825788889e-05 -1.9799817212357973e-05 -0.00016072781832702474 0.0 0.0
0.0 0.0001017412561251635 1.8445572655036845e-05 -1.3060069954232897e-05 -5.385502700804031e-06 8.73443191876896e-06 0.0 0.0
0.0 0.0006326233276027317 0.0003302902110415457 -0.00023881056782686853 -9.147964321467745e-05 7.987348874417942e-05 0.0 0.0
0.0 0.001526881502092943 0.0015668759028971476 -0.0012128647979859917 -0.00035401110491115593 0.0001653172445190762 0.0 0.0
0.0 0.004063687101327336 0.003758448184186544 -0.003121112455510285 -0.0006373357286762596 0.00022929250425256651 0.0 0.0
0.0 0.007802541456360882 0.007120117412337161 -0.006232214100919956 -0.0008879033114172091 0.00026278263300320674 0.0 0.0
0.0 0.013016536719335777 0.01172878273588767 -0.01063507305756109 -0.001093709678326575 0.00027304026203504254 0.0 0.0
0.0 0.01979378310376142 0.017632427006959904 -0.016334936064050787 -0.0012974909429091378 0.00024634201018301305 0.0 0.0
0.0 0.02815402019066903 0.024860761207900924 -0.02333322702921061 -0.0015275341786903018 0.00022303358768480954 0.0 0.0
0.0 0.03783049695969203 0.033471951911210523 -0.03168069519547336 -0.0017912567157371676 0.0001967770544494973 0.0 0.0
0.0 0.049254968393270475 0.04352873632106773 -0.041447825600095786 -0.002080910720971934 0.00010173914969877301 0.0 0.0
0.0 0.06243304713784399 0.055089366306965246 -0.05270201128352668 -0.00238735502343856 -9.937635319596095e-06 0.0 0.0
0.0 0.07733962336369052 0.06812781648538768 -0.0654330833241753 -0.002694733161212308 -0.00019409158980332518 0.0 0.0
0.0 0.09370313144549272 0.082370225088864 -0.07938386781430182 -0.0029863572745621476 -0.00046626404398507674 0.0 0.0
0.0 0.11074660639609818 0.09717425471076646 -0.09392689578673463 -0.003247358924031814 -0.0007840799590265667 0.0 0.0
0.0 0.12726238956525684 0.1115037216044516 -0.10804121829764485 -0.0034625033068065554 -0.0010253962995951582 0.0 0.0
0.0 0.14171080706075542 0.12403159244695304 -0.12040798449286777 -0.0036236079540853897 -0.001020853384854653 0.0 0.0
0.0 0.15212536339923372 0.1332410062900143 -0.12952931942513646 -0.00371168686487792 -0.0010243893117706 0.0 0.0
0.0 0.15626207944968068 0.13685602468640612 -0.133154615484804 -0.0037014092016021067 1.5031378919339033e-15 0.0 0.0
0.0 0.15212536339921978 0.13324100629000127 -0.12952931942512497 -0.0037116868648762557 0.0010243893117769607 0.0 0.0
0.0 0.14171080706071637 0.1240315924469188 -0.12040798449283474 -0.0036236079540839824 0.0010208533848590669 0.0 0.0
0.0 0.1272623895652031 0.11150372160440447 -0.10804121829759926 -0.0034625033068051933 0.0010253962995981055 0.0 0.0
0.0 0.11074660639603026 0.09717425471070767 -0.09392689578667665 -0.0032473589240310666 0.0007840799590254858 0.0 0.0
0.0 0.09370313144542874 0.0823702250888076 -0.07938386781424697 -0.002986357274560709 0.0004662640439826492 0.0 0.0
0.0 0.07733962336362296 0.06812781648532869 -0.0654330833241175 -0.002694733161211094 0.0001940915898035211 0.0 0.0
0.0 0.06243304713777952 0.055089366306908576 -0.05270201128347206 -0.0023873550234365442 9.937635318641239e-06 0.0 0.0
0.0 0.04925496839320578 0.04352873632101108 -0.0414478256000408 -0.002080910720970239 -0.00010173914970097514 0.0 0.0
0.0 0.037830496959630824 0.033471951911156705 -0.031680695195421084 -0.0017912567157356237 -0.00019677705445109248 0.0 0.0
0.0 0.02815402019061633 0.02486076120785471 -0.023333227029165605 -0.0015275341786890888 -0.0002230335876860903 0.0 0.0
0.0 0.01979378310372145 0.017632427006924824 -0.016334936064017057 -0.001297490942907791 -0.00024634201018410506 0.0 0.0
0.0 0.013016536719301228 0.011728782735857025 -0.01063507305753143 -0.0010937096783255732 -0.0002730402620350575 0.0 0.0
0.0 0.007802541456340533 0.00712011741231841 -0.006232214100902393 -0.0008879033114160133 -0.0002627826330030826 0.0 0.0
0.0 0.004063687101312606 0.003758448184172327 -0.0031211124554974823 -0.0006373357286748406 -0.00022929250425248918 0.0 0.0
0.0 0.0015268815020867664 0.0015668759028905149 -0.0012128647979806207 -0.0003540111049098927 -0.0001653172445184108 0.0 0.0
0.0 0.0006326233275995644 0.00033029021103962307 -0.00023881056782548257 -9.147964321413977e-05 -7.987348874374968e-05 0.0 0.0
0.0 0.00010174125612441718 1.8445572655145123e-05 -1.3060069954322886e-05 -5.385502700821747e-06 -8.734431918719648e-06 0.0 0.0
0.0 1.548494439795646e-05 5.636722546973401e-05 -3.656740825752796e-05 -1.9799817212205538e-05 0.00016072781832610802 0.0 0.0
0.0 0.004948745127774026 0.003571167101469156 -0.002084531061190657 -0.0014866360402784919 0.005963814921421011 0.0 0.0
0.0 0.015534034309328508 0.0123520777701361 -0.014869177732806677 0.002517099962670561 0.0006383517183920959 0.0 0.0
0.0 0.012518377364977216 0.009267637565486559 -0.012153571277941795 0.0028859337124552313 -0.00018715244955608626 0.0 0.0
0.0 0.0028828728580294737 0.0020589285689774583 -0.0011657569837892159 -0.0008931715851882394 -0.004500949936972302 0.0 0.0
0.0 -3.614160389607686e-05 -4.4901354460731345e-05 3.802188873720084e-05 6.879465723530539e-06 -3.195445316653264e-05 0.0 0.0
0.0 9.820869165279574e-06 1.5537800352704406e-06 -1.0451118266304833e-06 -5.086682086399945e-07 4.550589875501715e-06 0.0 0.0
0.0 0.0002932243255379384 0.0001904149198106187 -0.00013869739390019872 -5.1717525910419834e-05 3.274091425392272e-05 0.0 0.0
0.0 0.0013608637113325388 0.0011306650333409514 -0.0008828860793940284 -0.00024777895394692496 5.030116945491276e-05 0.0 0.0
0.0 0.003384121031582975 0.0031315976321727576 -0.0026275056261751187 -0.0005040920059976356 -0.00011320399469321131 0.0 0.0
0.0 0.006851291982705102 0.006207233858322796 -0.0054989921660979985 -0.0007082416922248028 -0.0003727491903013715 0.0 0.0
0.0 0.011712252988674253 0.010453450683954556 -0.009606823454265601 -0.0008466272296889513 -0.0007291146440465023 0.0 0.0
0.0 0.017955494377661252 0.015887014103925276 -0.014930993570322612 -0.000956020533602662 -0.0011565156249611732 0.0 0.0
0.0 0.02560910278702782 0.022510240413566182 -0.021449059235387934 -0.0010611811781782727 -0.0016087378061592267 0.0 0.0
0.0 0.03481527038967275 0.030360174362815608 -0.029190812275075154 -0.0011693620877404253 -0.0020638085415811435 0.0 0.0
0.0 0.04509496865153683 0.03953159632030578 -0.038251433808819554 -0.0012801625114861846 -0.002573861283200546 0.0 0.0
0.0 0.05727845286851793 0.05010062152590612 -0.04871403180053724 -0.0013865897253688823 -0.0031565360852461337 0.0 0.0
0.0 0.07105629321932863 0.0620576737221317 -0.060580205109354635 -0.0014774686127770574 -0.0038038137225509614 0.0 0.0
0.0 0.08618802621613364 0.07516384443597325 -0.0736206438638065 -0.0015432005721667742 -0.0044819248167509915 0.0 0.0
0.0 0.10202871806911731 0.08883606572123925 -0.08725811101396541 -0.0015779547072737334 -0.005030928822777097 0.0 0.0
0.0 0.11748078029865407 0.10212975002939595 -0.10054649366224547 -0.001583256367150587 -0.00516034984873091 0.0 0.0
0.0 0.13103619452572474 0.11378948283562496 -0.11222833926077272 -0.0015611435748521306 -0.0046095994908399345 0.0 0.0
0.0 0.14088314362992221 0.12220711842139398 -0.12072558727586143 -0.0014815311455325401 -0.003560610541816867 0.0 0.0
0.0 0.14492604015957714 0.12545093875807775 -0.12409261089306536 -0.0013583278650123789 5.0372032933676536e-15 0.0 0.0
0.0 0.14088314362990678 0.12220711842137999 -0.120725587275848 -0.001481531145531993 0.003560610541831463 0.0 0.0
0.0 0.13103619452568943 0.11378948283559422 -0.11222833926074224 -0.0015611435748519387 0.004609599490853709 0.0 0.0
0.0 0.11748078029860753 0.10212975002935533 -0.10054649366220567 -0.0015832563671496058 0.005160349848739855 0.0 0.0
0.0 0.10202871806905678 0.08883606572118771 -0.08725811101391309 -0.001577954707274624 0.005030928822777869 0.0 0.0
0.0 0.08618802621607594 0.07516384443592283 -0.07362064386375688 -0.001543200572165833 0.004481924816748497 0.0 0.0
0.0 0.07105629321926829 0.06205767372207901 -0.06058020510930289 -0.001477468612776151 0.0038038137225498104 0.0 0.0
0.0 0.057278452868457314 0.05010062152585342 -0.048714031800485114 -0.0013865897253682986 0.003156536085244346 0.0 0.0
0.0 0.04509496865147756 0.03953159632025439 -0.03825143380876885 -0.0012801625114855163 0.002573861283197142 0.0 0.0
0.0 0.03481527038961603 0.030360174362766085 -0.02919081227502594 -0.0011693620877401064 0.002063808541577222 0.0 0.0
0.0 0.025609102786979004 0.022510240413523834 -0.021449059235346016 -0.001061181178177849 0.0016087378061545089 0.0 0.0
0.0 0.01795549437762242 0.015887014103890793 -0.01493099357028883 -0.0009560205336019486 0.0011565156249576543 0.0 0.0
0.0 0.011712252988644378 0.01045345068392767 -0.009606823454239367 -0.0008466272296882993 0.000729114644044205 0.0 0.0
0.0 0.006851291982684331 0.006207233858303755 -0.005498992166079915 -0.0007082416922238371 0.0003727491902994032 0.0 0.0
0.0 0.003384121031569804 0.003131597632160288 -0.002627505626163869 -0.0005040920059964167 0.00011320399469201665 0.0 0.0
0.0 0.0013608637113265395 0.0011306650333357728 -0.0008828860793898166 -0.000247778953945956 -5.030116945490797e-05 0.0 0.0
0.0 0.00029322432553597906 0.00019041491980962966 -0.0001386973938994921 -5.171752591013779e-05 -3.274091425361272e-05 0.0 0.0
0.0 9.820869164759626e-06 1.5537800354479125e-06 -1.045111826767586e-06 -5.086682086801482e-07 -4.5505898755008115e-06 0.0 0.0
0.0 -3.614160389582246e-05 -4.4901354460422144e-05 3.802188873693618e-05 6.879465723485826e-06 3.195445316636722e-05 0.0 0.0
0.0 0.002882872858020624 0.0020589285689726396 -0.0011657569837859533 -0.0008931715851866863 0.004500949936962267 0.0 0.0
0.0 0.012518377364956772 0.009267637565470927 -0.012153571277921792 0.0028859337124508525 0.00018715244953265904 0.0 0.0
0.0 0.009146772724055929 0.006622134730147347 -0.008940829127566354 0.0023186943974190053 -0.002308910261214661 0.0 0.0
0.0 0.002000900557543007 0.0012565201332964658 -0.0006388286013262078 -0.0006176915319702584 -0.0035280954206616815 0.0 0.0
0.0 2.5678426942533087e-08 -2.678779843523035e-09 2.105284134767642e-09 5.734957087552363e-10 -4.864799241920996e-10 0.0 0.0
0.0 2.152242921274085e-06 1.865601027114592e-07 -1.5054391743824555e-07 -3.6016185273339463e-08 -1.3455526402246967e-07 0.0 0.0
0.0 9.05686785013219e-05 5.789704763326974e-05 -4.0149649350861437e-05 -1.7747398282408594e-05 1.5126725566113617e-05 0.0 0.0
0.0 0.0009206882409534125 0.0007007050749519657 -0.000533584113517498 -0.00016712096143446715 -1.6688064451034516e-05 0.0 0.0
0.0 0.0025197164265250084 0.002392243314513244 -0.001964822358819709 -0.0004274209556935359 -0.000339297729584935 0.0 0.0
0.0 0.00562502285662878 0.005103934523118962 -0.004457203049903444 -0.0006467314732155184 -0.0008579519036283532 0.0 0.0
0.0 0.0099424555872881 0.008901324905453928 -0.00810335773633664 -0.0007979671691172823 -0.0015562545149542986 0.0 0.0
0.0 0.015583141756163278 0.0137613120950872 -0.012853416268515485 -0.0009078958265717189 -0.0023813149713820094 0.0 0.0
0.0 0.022434315095788453 0.01965948251936145 -0.018651596745632656 -0.0010078857737287736 -0.0032630498510142374 0.0 0.0
0.0 0.030403214624459187 0.02661680363728331 -0.0255072252191288 -0.0011095784181545016 -0.004146272637447602 0.0 0.0
0.0 0.03993896476192084 0.034718101709698426 -0.03350476289877858 -0.0012133388109198645 -0.005054371704268801 0.0 0.0
0.0 0.05048056666071457 0.044086085188129766 -0.0427735796946238 -0.001312505493505957 -0.0060810133415414875 0.0 0.0
0.0 0.06277750892759096 0.0547295106568189 -0.05333178974806059 -0.001397720908758327 -0.007239969379215267 0.0 0.0
0.0 0.0763256176612732 0.06645485251096488 -0.06499492554540702 -0.0014599269655578098 -0.008423887233130966 0.0 0.0
0.0 0.09057644132128509 0.07877254343144498 -0.07727704285588895 -0.0014955005755560244 -0.009354310813452886 0.0 0.0
0.0 0.10455757872583682 0.09085218574352787 -0.08934968000767908 -0.001502505735848773 -0.009569046283064823 0.0 0.0
0.0 0.11691449083322894 0.10150045103192579 -0.10002835483443465 -0.0014720961974910973 -0.008657441691555136 0.0 0.0
0.0 0.12588511493327248 0.10919733536524312 -0.10778004849150727 -0.0014172868737357901 -0.006500839120744008 0.0 0.0
0.0 0.1296974203407323 0.11224237634980026 -0.11097821105961506 -0.0012641652901851728 1.0159841717927165e-14 0.0 0.0
0.0 0.12588511493325813 0.10919733536522962 -0.10778004849149414 -0.0014172868737355661 0.006500839120768519 0.0 0.0
0.0 0.11691449083319624 0.10150045103189746 -0.10002835483440614 -0.001472096197491359 0.008657441691578751 0.0 0.0
0.0 0.10455757872579652 0.09085218574349238 -0.08934968000764434 -0.0015025057358479786 0.009569046283080153 0.0 0.0
0.0 0.09057644132123396 0.07877254343140142 -0.07727704285584526 -0.0014955005755561874 0.009354310813454454 0.0 0.0
0.0 0.076325617661223 0.0664548525109208 -0.06499492554536412 -0.0014599269655566328 0.008423887233126932 0.0 0.0
0.0 0.06277750892753965 0.05472951065677404 -0.05333178974801681 -0.0013977209087572323 0.007239969379213512 0.0 0.0
0.0 0.050480566660659754 0.04408608518808209 -0.04277357969457667 -0.0013125054935054154 0.006081013341539232 0.0 0.0
0.0 0.03993896476186762 0.03471810170965229 -0.0335047628987329 -0.001213338810919396 0.005054371704262908 0.0 0.0
0.0 0.030403214624408675 0.026616803637239752 -0.025507225219085383 -0.0011095784181543668 0.004146272637440599 0.0 0.0
0.0 0.022434315095746372 0.0196594825193243 -0.018651596745596098 -0.001007885773728183 0.0032630498510068016 0.0 0.0
0.0 0.015583141756127203 0.013761312095055208 -0.012853416268483932 -0.0009078958265712674 0.002381314971374945 0.0 0.0
0.0 0.009942455587262207 0.008901324905430736 -0.008103357736314265 -0.0007979671691164773 0.0015562545149496896 0.0 0.0
0.0 0.005625022856609046 0.005103934523101359 -0.004457203049886794 -0.0006467314732145652 0.0008579519036244053 0.0 0.0
0.0 0.0025197164265138962 0.0023922433145025933 -0.0019648223588103714 -0.0004274209556922224 0.0003392977295827701 0.0 0.0
0.0 0.00092068824094869 0.000700705074948169 -0.000533584113514565 -0.00016712096143360364 1.66880644507735e-05 0.0 0.0
0.0 9.056867850030504e-05 5.78970476330879e-05 -4.014964935075976e-05 -1.7747398282328163e-05 -1.5126725565837059e-05 0.0 0.0
0.0 2.152242920937371e-06 1.8656010268409102e-07 -1.5054391741485338e-07 -3.60161852692159e-08 1.34555263992096e-07 0.0 0.0
0.0 2.5678426919816804e-08 -2.678779841143436e-09 2.1052841328877173e-09 5.734957082559921e-10 4.864799235722653e-10 0.0 0.0
0.0 0.002000900557535959 0.0012565201332921843 -0.0006388286013233662 -0.000617691531968817 0.003528095420650466 0.0 0.0
0.0 0.009146772724035785 0.006622134730132486 -0.008940829127547097 0.002318694397414612 0.0023089102611989934 0.0 0.0
0.0 0.006807401222050271 0.004788668764314157 -0.00660793986210302 0.0018192710977888563 -0.0025468894309714427 0.0 0.0
0.0 0.0013794664412251243 0.0008115905958819014 -0.0003964858584505357 -0.0004151047374313642 -0.0025577203849798612 0.0 0.0
0.0 0.0 0.0 0.0 0.0 0.0 0.0 0.0
0.0 -3.256875187301862e-07 6.112192511424693e-09 7.170115466835867e-10 -6.82920405811187e-09 -7.198553047306049e-09 0.0 0.0
0.0 1.8207918536104657e-05 -4.900742121749986e-06 5.072601740138262e-06 -1.7185961838802298e-07 1.2465584459537928e-05 0.0 0.0
0.0 0.0004659472594716169 0.0003809087324778682 -0.00028329852329946374 -9.761020917840379e-05 -5.032839252613784e-05 0.0 0.0
0.0 0.0019331350841226996 0.0016695721110089076 -0.001337464194505018 -0.00033210791650388824 -0.0003911029628446643 0.0 0.0
0.0 0.0044346536983399555 0.00401700796123316 -0.003446449211085483 -0.0005705587501476788 -0.001143341138361404 0.0 0.0
0.0 0.008244266633477968 0.007347926648522599 -0.006609148923873422 -0.0007387777246491731 -0.0021092057416837785 0.0 0.0
0.0 0.013216921602126102 0.0116247945082345 -0.010771195258862356 -0.0008535992493721428 -0.0032469618594374245 0.0 0.0
0.0 0.01918949204619772 0.01679766528177278 -0.015848057865137093 -0.000949607416635677 -0.004458999222731955 0.0 0.0
0.0 0.026291714148217887 0.022865439538574523 -0.021820955864182777 -0.0010444836743917429 -0.005670194232817667 0.0 0.0
0.0 0.03431499384102103 0.029915328934690167 -0.02877358791270494 -0.0011417410219852334 -0.006902385330857916 0.0 0.0
0.0 0.0439768856879981 0.03806284032349104 -0.03682976887971005 -0.0012330714437810027 -0.00825067480422871 0.0 0.0
0.0 0.05464190756802896 0.047369496020285326 -0.046057460242606076 -0.0013120357776792298 -0.009766688594248481 0.0 0.0
0.0 0.06640891654498157 0.057698829167009476 -0.05632585200923255 -0.0013729771577769005 -0.011334274348974773 0.0 0.0
0.0 0.07916002148015742 0.06865053730610526 -0.06724081531168721 -0.0014097219944180243 -0.012586715990028762 0.0 0.0
0.0 0.09173729642807572 0.07951504720345018 -0.07809791590119664 -0.0014171313022535693 -0.012954639241056387 0.0 0.0
0.0 0.10294132491569882 0.08921439752681748 -0.08782221687129173 -0.0013921806555256583 -0.011850425379771044 0.0 0.0
0.0 0.11119836769165561 0.09638550128943284 -0.09503562707179389 -0.0013498742176390416 -0.00867042347201438 0.0 0.0
0.0 0.1149752133142945 0.09937505987209784 -0.09824083679508386 -0.0011342230770140247 1.3806230464430413e-14 0.0 0.0
0.0 0.11119836769164211 0.09638550128941972 -0.095035627071781 -0.0013498742176387473 0.008670423472046749 0.0 0.0
0.0 0.1029413249156694 0.08921439752679147 -0.08782221687126529 -0.00139218065552616 0.01185042537980181 0.0 0.0
0.0 0.09173729642803682 0.07951504720341632 -0.07809791590116227 -0.0014171313022540287 0.012954639241074652 0.0 0.0
0.0 0.07916002148011442 0.06865053730606831 -0.0672408153116508 -0.0014097219944175083 0.012586715990031333 0.0 0.0
0.0 0.06640891654493565 0.057698829166969605 -0.056325852009193045 -0.0013729771577765408 0.011334274348969497 0.0 0.0
0.0 0.05464190756798079 0.047369496020243484 -0.046057460242564636 -0.001312035777678896 0.009766688594244148 0.0 0.0
0.0 0.04397688568794996 0.03806284032344901 -0.03682976887966855 -0.0012330714437804279 0.008250674804224582 0.0 0.0
0.0 0.03431499384097411 0.02991532893464984 -0.028773587912665086 -0.0011417410219847525 0.006902385330850622 0.0 0.0
0.0 0.026291714148175396 0.022865439538537213 -0.02182095586414598 -0.0010444836743912572 0.005670194232807916 0.0 0.0
0.0 0.019189492046161542 0.01679766528174103 -0.01584805786510594 -0.000949607416635089 0.004458999222722857 0.0 0.0
0.0 0.01321692160209448 0.01162479450820682 -0.010771195258835244 -0.0008535992493715724 0.0032469618594279754 0.0 0.0
0.0 0.008244266633453562 0.007347926648501127 -0.006609148923852697 -0.0007387777246484295 0.002109205741677122 0.0 0.0
0.0 0.004434653698324925 0.004017007961218982 -0.003446449211072397 -0.0005705587501465832 0.0011433411383568052 0.0 0.0
0.0 0.001933135084112507 0.001669572111000447 -0.0013374641944977992 -0.0003321079165026482 0.00039110296284188657 0.0 0.0
0.0 0.00046594725946753733 0.00038090873247496854 -0.0002832985232972722 -9.761020917769637e-05 5.032839252561764e-05 0.0 0.0
0.0 1.820791853546408e-05 -4.9007421215169766e-06 5.072601739943185e-06 -1.7185961842623817e-07 -1.2465584459238315e-05 0.0 0.0
0.0 -3.256875186467368e-07 6.112192454785989e-09 7.170115911447349e-10 -6.8292040459183525e-09 7.198553004299361e-09 0.0 0.0
0.0 0.0 0.0 0.0 0.0 0.0 0.0 0.0
0.0 0.0013794664412189702 0.0008115905958783644 -0.00039648585844818295 -0.00041510473743018377 0.002557720384970304 0.0 0.0
0.0 0.006807401222033618 0.004788668764301198 -0.006607939862086068 0.0018192710977848773 0.002546889430959966 0.0 0.0
0.0 0.004862680050342804 0.0034083808840117548 -0.004785098048336312 0.0013767171643245587 -0.0022028591806410873 0.0 0.0
0.0 0.0011001331031526686 0.0004928518273946043 -0.00022571828282194094 -0.00026713354457266313 -0.0017238171003353734 0.0 0.0
0.0 0.0 0.0 0.0 0.0 0.0 0.0 0.0
0.0 -2.1175026786527247e-07 1.9226471027512064e-08 -1.544969006812908e-08 -3.77678095938152e-09 -2.443498433731356e-08 0.0 0.0
0.0 -1.6281867443793487e-05 -8.159215890441088e-06 6.462685592485423e-06 1.6965302979556595e-06 7.108067629397708e-06 0.0 0.0
0.0 0.00020738038148269223 0.00013351645962276089 -9.586501134016441e-05 -3.765144828259633e-05 -1.346642288074737e-05 0.0 0.0
0.0 0.001356701910732541 0.001042787827039213 -0.0008141122046119855 -0.00022867562242722688 -0.00036098661832951106 0.0 0.0
0.0 0.003308063305656162 0.002963664554626691 -0.0024844275029010056 -0.0004792370517256868 -0.0011888549027428232 0.0 0.0
0.0 0.00658052070313512 0.005812135488492557 -0.005146988694302582 -0.000665146794189973 -0.0023804377822239887 0.0 0.0
0.0 0.010851901708808736 0.009495519077001045 -0.008705783999555978 -0.000789735077445066 -0.003745871083901607 0.0 0.0
0.0 0.016043421889172734 0.01394011615116004 -0.013055364178077756 -0.0008847519730822864 -0.005194721074363351 0.0 0.0
0.0 0.022119038673641605 0.019126268055286937 -0.01815268458950235 -0.0009735834657845742 -0.006635687071812216 0.0 0.0
0.0 0.029207713877745418 0.025123695569800205 -0.024060699378631152 -0.0010629961911690293 -0.00809133570466473 0.0 0.0
0.0 0.03706734233030944 0.03206564840614143 -0.030917240004674364 -0.0011484084014670487 -0.00966528843825949 0.0 0.0
0.0 0.04641659000143566 0.04002063305848339 -0.038798937169813384 -0.0012216958886700257 -0.0114097089095527 0.0 0.0
0.0 0.05684215435973968 0.0489209670261237 -0.04764228678237302 -0.001278680243750661 -0.01320160645601651 0.0 0.0
0.0 0.06776906360835262 0.058479327251363865 -0.05716172249390816 -0.0013176047574556661 -0.014686433944726192 0.0 0.0
0.0 0.07889274077367216 0.06811385793164117 -0.06678296829708331 -0.0013308896345579056 -0.015264692746923745 0.0 0.0
0.0 0.08902952253788937 0.07691349224961988 -0.07559971126545319 -0.0013137809841667382 -0.014117710460643812 0.0 0.0
0.0 0.09678209551711908 0.08368362467238373 -0.08240800377913157 -0.001275620893252069 -0.01029966479529207 0.0 0.0
0.0 0.10064743217884753 0.08670392283511016 -0.0857216325975165 -0.0009822902375936683 1.5403910785805053e-14 0.0 0.0
0.0 0.09678209551710658 0.0836836246723715 -0.08240800377911868 -0.0012756208932526746 0.010299664795328862 0.0 0.0
0.0 0.08902952253786597 0.07691349224959827 -0.07559971126543168 -0.001313780984166618 0.014117710460678555 0.0 0.0
0.0 0.07889274077363907 0.06811385793161207 -0.0667829682970538 -0.0013308896345583065 0.015264692746944093 0.0 0.0
0.0 0.0677690636083165 0.05847932725133267 -0.05716172249387743 -0.0013176047574552665 0.014686433944730319 0.0 0.0
0.0 0.05684215435969972 0.04892096702608909 -0.04764228678233881 -0.0012786802437502478 0.0132016064560098 0.0 0.0
0.0 0.046416590001392956 0.04002063305844635 -0.03879893716977661 -0.0012216958886697264 0.011409708909546797 0.0 0.0
0.0 0.0370673423302694 0.03206564840610651 -0.030917240004640033 -0.0011484084014664626 0.009665288438254396 0.0 0.0
0.0 0.029207713877707493 0.025123695569766978 -0.024060699378598546 -0.0010629961911684325 0.00809133570465733 0.0 0.0
0.0 0.022119038673604405 0.01912626805525458 -0.018152684589470475 -0.000973583465784098 0.006635687071800464 0.0 0.0
0.0 0.01604342188914101 0.013940116151132644 -0.013055364178051032 -0.000884751973081618 0.005194721074351221 0.0 0.0
0.0 0.010851901708781433 0.009495519076977462 -0.00870578399953294 -0.0007897350774445191 0.00374587108389067 0.0 0.0
0.0 0.006580520703115238 0.005812135488474963 -0.005146988694285847 -0.0006651467941891096 0.00238043778221645 0.0 0.0
0.0 0.003308063305643307 0.00296366455461511 -0.0024844275028905907 -0.0004792370517245219 0.0011888549027376902 0.0 0.0
0.0 0.001356701910725147 0.001042787827033571 -0.0008141122046073859 -0.00022867562242618618 0.00036098661832720095 0.0 0.0
0.0 0.00020738038147953574 0.00013351645962081797 -9.58650113387069e-05 -3.7651448282110626e-05 1.3466422879976182e-05 0.0 0.0
0.0 -1.628186744397721e-05 -8.159215889979175e-06 6.46268559213032e-06 1.6965302978487883e-06 -7.108067628997603e-06 0.0 0.0
0.0 -2.117502677458955e-07 1.9226471016883667e-08 -1.5449690059872236e-08 -3.776780957015529e-09 2.4434984322558555e-08 0.0 0.0
0.0 0.0 0.0 0.0 0.0 0.0 0.0 0.0
0.0 0.0011001331031467755 0.0004928518273918666 -0.00022571828282012823 -0.0002671335445717371 0.0017238171003275172 0.0 0.0
0.0 0.004862680050328822 0.003408380884000844 -0.004785098048321798 0.0013767171643209472 0.002202859180632836 0.0 0.0
0.0 0.003449295994428514 0.0023236079719677477 -0.0033095505535044667 0.0009859425815367195 -0.0017166351586627767 0.0 0.0
0.0 0.0005962306825234866 0.00027620164278256584 -0.00011357734322852198 -0.00016262429955404397 -0.00108412877063164 0.0 0.0
0.0 0.0 0.0 0.0 0.0 0.0 0.0 0.0
0.0 -3.7155433862380205e-07 2.6959649637958232e-08 -2.0453683908928497e-08 -6.505965729029205e-09 -6.050583753727464e-08 0.0 0.0
0.0 -2.535656712039795e-06 -2.6415575116465114e-06 2.125670944826855e-06 5.158865668196653e-07 3.7333001648875187e-06 0.0 0.0
0.0 2.334959314841103e-05 2.2729350137917716e-05 -1.4617769213846796e-05 -8.111580924071038e-06 9.950028284764164e-06 0.0 0.0
0.0 0.0006548822319861381 0.0005749870443939189 -0.00043875108608904434 -0.0001362359583048748 -0.0003005863885700195 0.0 0.0
0.0 0.0025288104474295143 0.0019659835363591005 -0.0016043928141515615 -0.0003615907222075394 -0.0010417486719004687 0.0 0.0
0.0 0.0048422041223188834 0.004316064591949401 -0.003743430209297627 -0.0005726343826517707 -0.0023402823781024625 0.0 0.0
0.0 0.008567011106914813 0.007390669103790912 -0.006679536194296442 -0.0007111329094944717 -0.0038656024460218593 0.0 0.0
0.0 0.01291655818800409 0.011105810967200829 -0.010296020139573505 -0.0008097908276273264 -0.005456992473210448 0.0 0.0
0.0 0.017971018356860432 0.015416687931439705 -0.014522050627021726 -0.0008946373044179717 -0.007037460049491616 0.0 0.0
0.0 0.023788417059771555 0.02037608989221776 -0.019398626655277446 -0.0009774632369403235 -0.008615450307719093 0.0 0.0
0.0 0.03058427386674411 0.026105546844251638 -0.025050564263368824 -0.001054982580882823 -0.010295894422132953 0.0 0.0
0.0 0.038254499220996774 0.032710440589125166 -0.03158703595969117 -0.0011234046294339942 -0.01214871204769861 0.0 0.0
0.0 0.04682276156811942 0.04017242143261978 -0.038994194276521385 -0.0011782271560983716 -0.014049364533863974 0.0 0.0
0.0 0.056547123981578434 0.0482849030042772 -0.04706782697646162 -0.001217076027815589 -0.01565294043029883 0.0 0.0
0.0 0.06612404766869995 0.05664404079126076 -0.055405213928737096 -0.0012388268625236581 -0.01641085458865562 0.0 0.0
0.0 0.07502284078070862 0.0645563122025989 -0.06332315344478352 -0.0012331587578153721 -0.015423091015030806 0.0 0.0
0.0 0.08241489816291055 0.07099985408464675 -0.06980366643044558 -0.0011961876542010929 -0.01143566209603124 0.0 0.0
0.0 0.08648713648175252 0.07411788194555903 -0.07330789992060463 -0.0008099820249544525 1.5447712553573467e-14 0.0 0.0
0.0 0.08241489816290302 0.07099985408463794 -0.06980366643043705 -0.001196187654200999 0.011435662096067393 0.0 0.0
0.0 0.07502284078068958 0.06455631220258044 -0.06332315344476513 -0.0012331587578152947 0.015423091015065588 0.0 0.0
0.0 0.06612404766867636 0.056644040791239164 -0.05540521392871586 -0.0012388268625232633 0.01641085458867809 0.0 0.0
0.0 0.05654712398154637 0.048284903004249737 -0.047067826976434364 -0.0012170760278153658 0.0156529404303022 0.0 0.0
0.0 0.04682276156808597 0.04017242143259092 -0.038994194276492936 -0.0011782271560979859 0.014049364533857057 0.0 0.0
0.0 0.03825449922096175 0.03271044058909468 -0.031587035959661156 -0.001123404629433526 0.012148712047691761 0.0 0.0
0.0 0.030584273866711156 0.02610554684422253 -0.025050564263340572 -0.0010549825808819783 0.010295894422126733 0.0 0.0
0.0 0.02378841705973926 0.020376089892189916 -0.01939862665525018 -0.0009774632369397198 0.008615450307711308 0.0 0.0
0.0 0.017971018356828784 0.01541668793141266 -0.01452205062699501 -0.0008946373044176432 0.007037460049479778 0.0 0.0
0.0 0.012916558187977052 0.011105810967178031 -0.010296020139551559 -0.0008097908276264714 0.005456992473197085 0.0 0.0
0.0 0.008567011106893244 0.007390669103772271 -0.006679536194278323 -0.0007111329094939381 0.003865602446010318 0.0 0.0
0.0 0.004842204122303777 0.004316064591935648 -0.003743430209284892 -0.0005726343826507579 0.0023402823780948536 0.0 0.0
0.0 0.0025288104474186237 0.001965983536350485 -0.0016043928141441176 -0.0003615907222063676 0.001041748671895722 0.0 0.0
0.0 0.0006548822319815804 0.000574987044390553 -0.0004387510860864543 -0.0001362359583040988 0.0003005863885682671 0.0 0.0
0.0 2.3349593147255104e-05 2.272935013754203e-05 -1.4617769213571115e-05 -8.111580923970924e-06 -9.950028284734809e-06 0.0 0.0
0.0 -2.535656712961602e-06 -2.641557511638801e-06 2.1256709448199426e-06 5.158865668188278e-07 -3.7333001648342627e-06 0.0 0.0
0.0 -3.71554338523354e-07 2.6959649630558343e-08 -2.0453683903316375e-08 -6.505965727237455e-09 6.050583751945212e-08 0.0 0.0
0.0 0.0 0.0 0.0 0.0 0.0 0.0 0.0
0.0 0.000596230682518982 0.0002762016427806633 -0.00011357734322727196 -0.00016262429955339077 0.001084128770625781 0.0 0.0
0.0 0.0034492959944176444 0.0023236079719593035 -0.0033095505534929378 0.0009859425815336301 0.0017166351586567962 0.0 0.0
0.0 0.0021721519955213205 0.0014865457303282908 -0.0021383653746124115 0.0006518196442841196 -0.0012537468065034372 0.0 0.0
0.0 0.00032441553179088714 0.00011709129194227684 -2.4872727832764925e-05 -9.221856410951166e-05 -0.0005791381877522246 0.0 0.0
0.0 0.0 0.0 0.0 0.0 0.0 0.0 0.0
0.0 -2.4436484517163937e-07 1.123532113513199e-08 -8.310448798480903e-09 -2.924872336655857e-09 -4.7184642108198884e-08 0.0 0.0
0.0 -1.65944424045745e-06 4.019814790380183e-08 -3.624537673827515e-08 -3.952771165498757e-09 -2.3549608862092905e-09 0.0 0.0
0.0 -2.590331526253457e-05 -2.0562168599534044e-05 1.682362302494391e-05 3.7385455745902153e-06 3.9287576571370995e-05 0.0 0.0
0.0 0.0002953520870879888 0.00021853405144898428 -0.0001638565969285737 -5.467745452041084e-05 -0.00016298946068474547 0.0 0.0
0.0 0.001363550254941709 0.0011539385413118627 -0.0009164733097620926 -0.0002374652315497698 -0.0008392110175146719 0.0 0.0
0.0 0.0037198297871189737 0.0028687791914013302 -0.0024234593799457547 -0.0004453198114555757 -0.0019867774786744203 0.0 0.0
0.0 0.006204819867329885 0.00533783211681983 -0.004728564551996475 -0.0006092675648233581 -0.003573146113830566 0.0 0.0
0.0 0.009859467106344614 0.00831533750902406 -0.007597694321862931 -0.0007176431871611267 -0.0052261572110861845 0.0 0.0
0.0 0.013937444986406823 0.0117545999246827 -0.010951881231832501 -0.0008027186928501947 -0.006856577573537986 0.0 0.0
0.0 0.01857146362026788 0.01568696945862778 -0.01480652173386206 -0.0008804477247657213 -0.008461421260468243 0.0 0.0
0.0 0.023922963473931323 0.020222291991739007 -0.019270588285048074 -0.0009517037066909282 -0.010140325385450264 0.0 0.0
0.0 0.030064235962637624 0.025473210958393545 -0.02445862398058924 -0.0010145869778042914 -0.011959723044263132 0.0 0.0
0.0 0.037361502839612565 0.03147223891974664 -0.030407180324643585 -0.0010650585951030521 -0.01384577023770193 0.0 0.0
0.0 0.04477327390190378 0.038114628493440356 -0.037008549080751504 -0.00110607941268886 -0.015479740197655172 0.0 0.0
0.0 0.05310900044404202 0.04512776881665555 -0.04399014739454603 -0.0011376214221094762 -0.01636520512008818 0.0 0.0
0.0 0.06124773146090498 0.05209247430280045 -0.05094697195767085 -0.0011455023451295823 -0.015693776853867657 0.0 0.0
0.0 0.0681440779325684 0.05823181462867956 -0.05712015640059987 -0.0011116582280796842 -0.012043660191228954 0.0 0.0
0.0 0.07256812758615451 0.06150671867405733 -0.06089113720707228 -0.0006155814669850527 1.4104602902298424e-14 0.0 0.0
0.0 0.06814407793256444 0.05823181462867325 -0.05712015640059367 -0.0011116582280795134 0.012043660191264662 0.0 0.0
0.0 0.06124773146088991 0.052092474302785075 -0.05094697195765539 -0.0011455023451297029 0.01569377685390303 0.0 0.0
0.0 0.0531090004440224 0.0451277688166371 -0.04399014739452818 -0.0011376214221089174 0.016365205120109007 0.0 0.0
0.0 0.044773273901875695 0.0381146284934166 -0.03700854908072794 -0.0011060794126886396 0.015479740197656001 0.0 0.0
0.0 0.03736150283958535 0.031472238919723526 -0.0304071803246204 -0.0010650585951031044 0.013845770237694458 0.0 0.0
0.0 0.030064235962610337 0.025473210958369623 -0.024458623980565777 -0.001014586977803842 0.011959723044255615 0.0 0.0
0.0 0.023922963473903575 0.02022229199171495 -0.01927058828502427 -0.0009517037066906718 0.010140325385443313 0.0 0.0
0.0 0.018571463620241306 0.015686969458605243 -0.014806521733840027 -0.000880447724765209 0.008461421260459637 0.0 0.0
0.0 0.013937444986381579 0.011754599924661725 -0.010951881231811797 -0.0008027186928499377 0.0068565775735262 0.0 0.0
0.0 0.009859467106321957 0.008315337509005236 -0.007597694321845063 -0.0007176431871601717 0.005226157211072211 0.0 0.0
0.0 0.006204819867312403 0.00533783211680522 -0.004728564551982502 -0.0006092675648227222 0.003573146113819192 0.0 0.0
0.0 0.0037198297871043023 0.002868779191390037 -0.002423459379935551 -0.0004453198114544851 0.0019867774786665768 0.0 0.0
0.0 0.0013635502549331293 0.0011539385413050335 -0.0009164733097563622 -0.00023746523154867034 0.0008392110175097461 0.0 0.0
0.0 0.0002953520870842298 0.00021853405144672028 -0.00016385659692687591 -5.467745451984443e-05 0.00016298946068298034 0.0 0.0
0.0 -2.5903315262629244e-05 -2.056216859890989e-05 1.6823623024457482e-05 3.738545574452314e-06 -3.9287576570305244e-05 0.0 0.0
0.0 -1.6594442405656381e-06 4.0198147846632384e-08 -3.624537669373572e-08 -3.952771152888672e-09 2.354960804119357e-09 0.0 0.0
0.0 -2.4436484509791044e-07 1.123532113164423e-08 -8.310448795894743e-09 -2.924872335750786e-09 4.718464209339819e-08 0.0 0.0
0.0 0.0 0.0 0.0 0.0 0.0 0.0 0.0
0.0 0.0003244155317874119 0.00011709129194097603 -2.487272783191981e-05 -9.221856410905621e-05 0.000579138187747815 0.0 0.0
0.0 0.002172151995513035 0.001486545730321931 -0.002138365374603495 0.0006518196442815659 0.0012537468064989568 0.0 0.0
0.0 0.001632023014865546 0.0008059519934678106 -0.00116667337943734 0.00036072138596953004 -0.0007707175856872936 0.0 0.0
0.0 4.4097791083498765e-05 2.3870885570193538e-05 2.0592010067400485e-05 -4.4462895637594134e-05 -0.0002309205924768479 0.0 0.0
0.0 1.501239477888374e-07 -8.943371455963241e-10 1.017711353153143e-09 -1.233742075570957e-10 2.99033348444305e-08 0.0 0.0
0.0 -3.110318095085595e-07 9.145119677157732e-09 -6.435641195785186e-09 -2.7094784813723947e-09 -6.371271751080803e-08 0.0 0.0
0.0 -2.8066666091522904e-07 -4.150770181029185e-07 3.3025465254695355e-07 8.482236555597009e-08 1.3673755684357569e-06 0.0 0.0
0.0 -1.6742310255708847e-05 -9.830502734427498e-06 7.856071201274573e-06 1.974431533152897e-06 2.494188007535584e-05 0.0 0.0
0.0 5.045332719671223e-05 2.8671666756282704e-05 -2.035048017291604e-05 -8.321186583366801e-06 -3.0060815204914698e-05 0.0 0.0
0.0 0.0006265932497463454 0.0005081832718486742 -0.0003959039640057618 -0.00011227930784291239 -0.0005531714061970503 0.0 0.0
0.0 0.0020365092215362266 0.0016217406025494734 -0.001329515642957147 -0.00029222495959232606 -0.001496802075550785 0.0 0.0
0.0 0.004417319909417632 0.003361845794584826 -0.0028988139033461276 -0.0004630318912386964 -0.0028624629433551055 0.0 0.0
0.0 0.006891892177751263 0.005594850886287762 -0.0050037770940085545 -0.0005910737922792035 -0.004472361225893533 0.0 0.0
0.0 0.00993048974348879 0.008169592710917807 -0.007484599065619342 -0.000684993645298476 -0.0060562586270993075 0.0 0.0
0.0 0.01345899620927009 0.011087347394631377 -0.01032458253758544 -0.000762764857045927 -0.0076022080206762845 0.0 0.0
0.0 0.017455701608726396 0.014442973679791256 -0.013613747152644124 -0.0008292265271471339 -0.00917507433721568 0.0 0.0
0.0 0.022189570028416275 0.018346695071637543 -0.017459452098566693 -0.0008872429730708454 -0.010848094371280585 0.0 0.0
0.0 0.02753287501120145 0.022877584429491025 -0.02194205963577555 -0.0009355247937154593 -0.012575987491861068 0.0 0.0
0.0 0.033759592137411504 0.027997839001039825 -0.027022517818346522 -0.0009753211826933001 -0.014131848761050891 0.0 0.0
0.0 0.04022322041718782 0.033590636439279724 -0.032575228785694424 -0.0010154076535852847 -0.01507153747095984 0.0 0.0
0.0 0.046837336786702745 0.039499967350610385 -0.038455046095782805 -0.0010449212548275936 -0.014815465156248606 0.0 0.0
0.0 0.05350050564986683 0.045279166988714724 -0.04425731634497929 -0.001021850643735466 -0.012027328056350917 0.0 0.0
0.0 0.058465609008744375 0.048757260342710426 -0.04836310592596227 -0.00039415441674815397 1.2343858574181965e-14 0.0 0.0
0.0 0.05350050564986615 0.04527916698871091 -0.044257316344975636 -0.001021850643735229 0.012027328056383223 0.0 0.0
0.0 0.04683733678669272 0.03949996735059886 -0.03845504609577128 -0.001044921254827589 0.014815465156281345 0.0 0.0
0.0 0.04022322041717184 0.03359063643926452 -0.032575228785679713 -0.001015407653584844 0.015071537470978204 0.0 0.0
0.0 0.0337595921373913 0.02799783900102281 -0.027022517818329827 -0.0009753211826929728 0.01413184876105119 0.0 0.0
0.0 0.027532875011180364 0.02287758442947347 -0.02194205963575837 -0.000935524793715125 0.012575987491853416 0.0 0.0
0.0 0.02218957002839736 0.01834669507162111 -0.017459452098550866 -0.0008872429730702424 0.010848094371274137 0.0 0.0
0.0 0.017455701608706957 0.014442973679774622 -0.013613747152627764 -0.0008292265271468614 0.00917507433721031 0.0 0.0
0.0 0.013458996209250387 0.011087347394615173 -0.010324582537569592 -0.0007627648570455785 0.007602208020667977 0.0 0.0
0.0 0.009930489743470512 0.008169592710902744 -0.007484599065604572 -0.00068499364529816 0.006056258627088361 0.0 0.0
0.0 0.0068918921777338885 0.005594850886273932 -0.005003777093995528 -0.0005910737922783994 0.004472361225880753 0.0 0.0
0.0 0.004417319909403933 0.0033618457945742398 -0.0028988139033362574 -0.00046303189123798335 0.0028624629433453325 0.0 0.0
0.0 0.002036509221528053 0.001621740602543334 -0.0013295156429516655 -0.00029222495959166774 0.001496802075545554 0.0 0.0
0.0 0.0006265932497403994 0.0005081832718443213 -0.0003959039640022216 -0.0001122793078420998 0.0005531714061925257 0.0 0.0
0.0 5.045332719528024e-05 2.867166675551641e-05 -2.0350480172346268e-05 -8.321186583170195e-06 3.0060815203946096e-05 0.0 0.0
0.0 -1.674231025630097e-05 -9.830502734054203e-06 7.856071200978821e-06 1.9744315330754254e-06 -2.4941880074229862e-05 0.0 0.0
0.0 -2.8066666108471504e-07 -4.150770181680641e-07 3.302546525991763e-07 8.482236556887705e-08 -1.367375568611458e-06 0.0 0.0
0.0 -3.1103180944933557e-07 9.145119675171675e-09 -6.435641194459957e-09 -2.709478480710289e-09 6.371271749740787e-08 0.0 0.0
0.0 1.5012394747879627e-07 -8.94337143643398e-10 1.0177113510135556e-09 -1.2337420737023362e-10 -2.990333478189685e-08 0.0 0.0
0.0 4.409779108144587e-05 2.387088556946405e-05 2.059201006786279e-05 -4.4462895637326946e-05 0.0002309205924740052 0.0 0.0
0.0 0.0016320230148581187 0.0008059519934635656 -0.0011666733794312247 0.000360721385967659 0.0007707175856841125 0.0 0.0
0.0 0.0006917017866251233 0.00037710340119578894 -0.000549457330560366 0.00017235392936457733 -0.0004492333060529502 0.0 0.0
0.0 -3.463380126878105e-05 -2.1924148816039622e-05 4.2285526927258925e-05 -2.036137811121932e-05 -1.890194542805915e-05 0.0 0.0
0.0 2.2756234019458266e-06 -3.622856323065417e-09 1.1119213435067454e-08 -7.496357112000574e-09 4.94855934509731e-07 0.0 0.0
0.0 7.864306231303351e-07 -1.6387003304045022e-09 -2.085611771306629e-10 1.847261507534281e-09 1.628291981626507e-07 0.0 0.0
0.0 -6.567574731283825e-07 -2.51830778560881e-07 1.9059225228478527e-07 6.123852627609469e-08 1.6680219481999514e-06 0.0 0.0
0.0 -1.3603478984858458e-05 -2.6682849820319127e-06 2.1635930694800353e-06 5.046919125518769e-07 9.942913408539874e-06 0.0 0.0
0.0 -3.108733516022796e-06 -1.4193728403111337e-05 1.152436464216416e-05 2.6693637609471404e-06 3.339560468157383e-05 0.0 0.0
0.0 0.0002229501508231147 9.113752664126812e-05 -7.181790745698813e-05 -1.931961918427992e-05 -0.00019904360065634428 0.0 0.0
0.0 0.0008941366788616661 0.0006077741656618256 -0.0004907680962077722 -0.00011700606945405322 -0.0009012793837673304 0.0 0.0
0.0 0.0022795398464271555 0.0016142059655658051 -0.0013540265137081688 -0.00026017945185763717 -0.0019197337153616413 0.0 0.0
0.0 0.003944289877632424 0.0030279871209495006 -0.00263084638689324 -0.00039714073405626064 -0.003238518936748003 0.0 0.0
0.0 0.006089485166795746 0.004710079257665528 -0.004206974637556898 -0.0005031046201086295 -0.004615352086988345 0.0 0.0
0.0 0.008470631443527955 0.006623802537037292 -0.006032847444677757 -0.0005909550923595315 -0.0060073888441296375 0.0 0.0
0.0 0.011174601961310314 0.008821347680456556 -0.008160906268098463 -0.0006604414123580883 -0.007402060255054082 0.0 0.0
0.0 0.014372906358249619 0.011394790838510704 -0.010676682695886874 -0.0007181081426238348 -0.008826990293623169 0.0 0.0
0.0 0.018169245797528745 0.014442663395755515 -0.013676401435105411 -0.000766261960650109 -0.010298105626306434 0.0 0.0
0.0 0.02255232474766814 0.018017388905717444 -0.01720731242319238 -0.0008100764825250423 -0.011692736537696879 0.0 0.0
0.0 0.02729743481050412 0.022111531234876875 -0.021259074418162726 -0.0008524568167141748 -0.012643604699556096 0.0 0.0
0.0 0.03266000907280378 0.026776370145347016 -0.02587373140300597 -0.0009026387423410219 -0.01267537228821453 0.0 0.0
0.0 0.0388782134414696 0.03203165903300366 -0.03111409355723514 -0.0009175654757685168 -0.011125830038065627 0.0 0.0
0.0 0.044261594716872264 0.03574514146276827 -0.035602507683685704 -0.00014263377908261792 9.983333604246525e-15 0.0 0.0
0.0 0.03887821344147123 0.03203165903300103 -0.031114093557232672 -0.0009175654757683564 0.011125830038092744 0.0 0.0
0.0 0.03266000907279857 0.026776370145339606 -0.025873731402998756 -0.0009026387423408133 0.012675372288243052 0.0 0.0
0.0 0.027297434810492037 0.02211153123486605 -0.021259074418152217 -0.000852456816713814 0.012643604699569239 0.0 0.0
0.0 0.022552324747653757 0.018017388905706186 -0.017207312423181687 -0.0008100764825245077 0.011692736537694277 0.0 0.0
0.0 0.018169245797514173 0.0144426633957439 -0.013676401435094064 -0.0007662619606498168 0.01029810562629864 0.0 0.0
0.0 0.014372906358236785 0.011394790838500021 -0.010676682695876292 -0.0007181081426237256 0.0088269902936178 0.0 0.0
0.0 0.011174601961298214 0.008821347680446495 -0.008160906268088785 -0.0006604414123577126 0.007402060255049784 0.0 0.0
0.0 0.008470631443516882 0.006623802537028183 -0.00603284744466911 -0.0005909550923590707 0.006007388844123867 0.0 0.0
0.0 0.006089485166782948 0.0047100792576562625 -0.004206974637548219 -0.0005031046201080448 0.004615352086978994 0.0 0.0
0.0 0.003944289877620175 0.003027987120940073 -0.002630846386884542 -0.00039714073405553173 0.0032385189367372313 0.0 0.0
0.0 0.002279539846418165 0.0016142059655594604 -0.0013540265137026088 -0.000260179451856851 0.001919733715354686 0.0 0.0
0.0 0.0008941366788580022 0.0006077741656592949 -0.0004907680962058101 -0.00011700606945348448 0.0009012793837649908 0.0 0.0
0.0 0.00022295015082013305 9.113752663978046e-05 -7.18179074557492e-05 -1.9319619184031175e-05 0.0001990436006533078 0.0 0.0
0.0 -3.108733517229971e-06 -1.419372840274531e-05 1.1524364641870232e-05 2.6693637608751473e-06 -3.339560468094288e-05 0.0 0.0
0.0 -1.3603478984871553e-05 -2.6682849817492023e-06 2.1635930692578958e-06 5.046919124912739e-07 -9.942913407012751e-06 0.0 0.0
0.0 -6.567574738328793e-07 -2.518307786087844e-07 1.9059225232332153e-07 6.123852628547452e-08 -1.6680219484120967e-06 0.0 0.0
0.0 7.864306230353753e-07 -1.6387003332195712e-09 -2.0856117435996048e-10 1.847261507578611e-09 -1.6282919813890725e-07 0.0 0.0
0.0 2.2756234013447927e-06 -3.6228563214464765e-09 1.1119213431972399e-08 -7.496357110524799e-09 -4.948559343785076e-07 0.0 0.0
0.0 -3.4633801269582245e-05 -2.1924148816048764e-05 4.2285526927132447e-05 -2.036137811108359e-05 1.8901945427504934e-05 0.0 0.0
0.0 0.0006917017866204028 0.0003771034011934572 -0.0005494573305569949 0.00017235392936353714 0.0004492333060506278 0.0 0.0
0.0 0.00024237287886719273 9.705370015977481e-05 -0.00014279265494364485 4.57389547838702e-05 -0.00013717704275458217 0.0 0.0
0.0 -3.4640674990429056e-05 -1.645743931217154e-05 2.2742904552580472e-05 -6.285465240408933e-06 2.895058470514381e-05 0.0 0.0
0.0 5.096525743868014e-07 9.381252579871773e-11 1.5396771685514519e-09 -1.6334896943491657e-09 1.0271581062143611e-07 0.0 0.0
0.0 4.096640072979324e-07 9.90752011270457e-09 -8.396156044114786e-09 -1.5113640685919163e-09 8.098632487915903e-08 0.0 0.0
0.0 1.5400283333188496e-07 5.750106963462592e-08 -4.581862448934665e-08 -1.1682445145270896e-08 -1.7696631709671442e-08 0.0 0.0
0.0 -8.526566959306337e-06 -2.142637265902894e-06 1.6792757579917178e-06 4.633615079111502e-07 1.93265875843627e-05 0.0 0.0
0.0 6.9917825745699916e-06 -3.4349989884266165e-06 2.834330997016563e-06 6.006679914100804e-07 1.1307437570034856e-05 0.0 0.0
0.0 6.960294203599023e-05 -6.98171238450738e-07 6.565271391379847e-07 4.164409931268908e-08 -8.677714978976524e-05 0.0 0.0
0.0 0.00024062611337838453 5.056454138732438e-05 -4.4335650003817116e-05 -6.228891383507174e-06 -0.0003627486475562638 0.0 0.0
0.0 0.0006820843206198397 0.0002824037987988647 -0.0002512558170587741 -3.114798174009121e-05 -0.0009290056555805511 0.0 0.0
0.0 0.0016053617050284983 0.0007881774789655673 -0.0007033259944072347 -8.485148455833236e-05 -0.0017824429801380959 0.0 0.0
0.0 0.0025837351040265367 0.0015412429547500325 -0.0013826656350138422 -0.00015857731973618997 -0.002842940154525973 0.0 0.0
0.0 0.003883452597882798 0.002447399160440425 -0.0022151351290241486 -0.00023226403141627405 -0.003956790139236083 0.0 0.0
0.0 0.005413874558248516 0.003505369907794339 -0.003203221363834143 -0.00030214854396019565 -0.005113342742044385 0.0 0.0
0.0 0.0071811561384828955 0.004770462622815943 -0.004397619233363386 -0.00037284338945255395 -0.0063268123773819575 0.0 0.0
0.0 0.009326162994566855 0.006337028605339233 -0.005896045541050834 -0.00044098306428839697 -0.007615987866545715 0.0 0.0
0.0 0.012018423672020648 0.008328567315677141 -0.00781808046734737 -0.0005104868483297705 -0.008940805096555251 0.0 0.0
0.0 0.015367862227632761 0.010881836576212865 -0.01030530152998583 -0.0005765350462270311 -0.00998808375562625 0.0 0.0
0.0 0.019232158502449324 0.014132444476637356 -0.013496627901047609 -0.0006358165755897628 -0.010165333241394943 0.0 0.0
0.0 0.024032459605866165 0.01848229669527252 -0.017747847456681096 -0.0007344492385914067 -0.009239797261464604 0.0 0.0
0.0 0.030819332324671753 0.02235603217232438 -0.022516091530780394 0.00016005935845601516 8.259018469125579e-15 0.0 0.0
0.0 0.02403245960586639 0.018482296695268612 -0.017747847456676992 -0.0007344492385916368 0.00923979726148543 0.0 0.0
0.0 0.01923215850244828 0.014132444476634195 -0.013496627901044587 -0.00063581657558961 0.010165333241416422 0.0 0.0
0.0 0.015367862227623671 0.010881836576205912 -0.010305301529978968 -0.0005765350462269512 0.009988083755633231 0.0 0.0
0.0 0.012018423672010035 0.008328567315670757 -0.007818080467341478 -0.0005104868483292753 0.00894080509655026 0.0 0.0
0.0 0.009326162994559925 0.00633702860533495 -0.005896045541046534 -0.00044098306428841735 0.007615987866538482 0.0 0.0
0.0 0.007181156138475867 0.004770462622810369 -0.00439761923335815 -0.0003728433894522171 0.006326812377377257 0.0 0.0
0.0 0.0054138745582439675 0.0035053699077918087 -0.003203221363831613 -0.00030214854396019885 0.005113342742041646 0.0 0.0
0.0 0.0038834525978768404 0.002447399160436943 -0.0022151351290209064 -0.00023226403141603618 0.003956790139230943 0.0 0.0
0.0 0.0025837351040198814 0.0015412429547464043 -0.0013826656350106412 -0.00015857731973576276 0.0028429401545184176 0.0 0.0
0.0 0.0016053617050202679 0.0007881774789610221 -0.0007033259944030249 -8.485148455799608e-05 0.0017824429801288851 0.0 0.0
0.0 0.00068208432061637 0.0002824037987974192 -0.00025125581705743357 -3.114798173998572e-05 0.0009290056555777287 0.0 0.0
0.0 0.0002406261133768972 5.056454138665299e-05 -4.433565000322822e-05 -6.228891383424656e-06 0.00036274864755416397 0.0 0.0
0.0 6.960294203530442e-05 -6.98171238348783e-07 6.565271390631896e-07 4.164409928552177e-08 8.677714978909973e-05 0.0 0.0
0.0 6.991782573155085e-06 -3.4349989884230255e-06 2.8343309970129835e-06 6.006679914100522e-07 -1.1307437570214461e-05 0.0 0.0
0.0 -8.526566959525754e-06 -2.1426372658754704e-06 1.6792757579741146e-06 4.6336150790135757e-07 -1.932658758384963e-05 0.0 0.0
0.0 1.5400283289635068e-07 5.750106963567401e-08 -4.5818624490450963e-08 -1.168244514522624e-08 1.7696631752557997e-08 0.0 0.0
0.0 4.096640068308793e-07 9.90752010832275e-09 -8.39615604017302e-09 -1.5113640681489081e-09 -8.098632478345155e-08 0.0 0.0
0.0 5.096525740515149e-07 9.381252618957887e-11 1.539677166806176e-09 -1.6334896929998106e-09 -1.0271581055161462e-07 0.0 0.0
0.0 -3.464067499008352e-05 -1.6457439311754108e-05 2.2742904552078053e-05 -6.285465240323933e-06 -2.895058470406303e-05 0.0 0.0
0.0 0.00024237287886428994 9.705370015871632e-05 -0.0001427926549421562 4.5738954783439704e-05 0.00013717704275294232 0.0 0.0
0.0 1.0612828797690164e-05 7.709530585827062e-06 -1.2034726049271755e-05 4.325195463444645e-06 -1.1615883835989039e-05 0.0 0.0
0.0 -1.3168828598982973e-06 -1.1139016856803044e-06 1.7039333400511772e-06 -5.900316543708608e-07 1.6439591260877033e-06 0.0 0.0
0.0 3.570797127735244e-06 9.298477840611243e-09 7.166355309651531e-09 -1.6464833150267402e-08 7.588151166766817e-07 0.0 0.0
0.0 1.2376260163296497e-06 2.3353838519247965e-08 -1.962119903034751e-08 -3.732639488897171e-09 2.593295559431378e-07 0.0 0.0
0.0 -7.264407146810777e-07 9.584523780442562e-08 -9.337232819958182e-08 -2.472909604843976e-09 1.3799822621010002e-06 0.0 0.0
0.0 -7.061829227733614e-06 -8.45073154550648e-08 9.505241383323662e-08 -1.0545098378168637e-08 1.4812235787753102e-05 0.0 0.0
0.0 8.070241605246478e-06 -3.7373968063719437e-07 3.591868729934646e-07 1.4552807643719622e-08 7.847246480804875e-06 0.0 0.0
0.0 6.92206914423808e-05 -4.590474595243532e-07 4.610468425512381e-07 -1.999383026881411e-09 -0.00012084288210086695 0.0 0.0
0.0 0.00022669864491393367 -5.163451849501126e-08 4.6162060295795796e-08 5.472458199256706e-09 -0.00030549084173563215 0.0 0.0
0.0 0.0003694686815761402 2.0627370195757867e-07 -1.3272879418462358e-07 -7.354490777300887e-08 -0.0006283412097770333 0.0 0.0
0.0 0.0006702091821272057 -1.2327694859959765e-06 6.485111609335502e-07 5.842583250623535e-07 -0.0010503782682445594 0.0 0.0
0.0 0.0008900760561567497 2.038466732966074e-06 -1.544210036455436e-06 -4.942566965105128e-07 -0.0017544359917396825 0.0 0.0
0.0 0.0012752933038153239 1.4232500904639254e-06 -2.5745573614629786e-07 -1.1657943543172617e-06 -0.0026236133605260776 0.0 0.0
0.0 0.0018441601569175574 -1.355885689612637e-05 1.6511728347028663e-05 -2.952871450902442e-06 -0.003690038230132163 0.0 0.0
0.0 0.0026682185908579676 -8.129282759409694e-06 7.0499244448011655e-06 1.079358314608325e-06 -0.004930940282528519 0.0 0.0
0.0 0.0036344241851822092 8.784977846478301e-05 -0.00010544664533814247 1.759686687335882e-05 -0.006332361975631016 0.0 0.0
0.0 0.004815042336775952 0.00044564921518354666 -0.0005023318711858777 5.668265600233108e-05 -0.007843229406619889 0.0 0.0
0.0 0.006185673607250367 0.001228049432127217 -0.0013891196349545987 0.0001610702028273791 -0.009335498392081493 0.0 0.0
0.0 0.008275542236414846 0.00229103873673145 -0.0025499357654439 0.00025889702871244986 -0.010465790029953053 0.0 0.0
0.0 0.012172252708652253 0.005036145930195871 -0.004894791435547829 -0.00014135449464803887 -0.010436305305606788 0.0 0.0
0.0 0.021174058678536962 0.009433319412648761 -0.010051244983731526 0.0006179255710827709 7.747708724581415e-15 0.0 0.0
0.0 0.012172252708653897 0.005036145930193108 -0.004894791435544994 -0.00014135449464811143 0.010436305305622649 0.0 0.0
0.0 0.008275542236412877 0.002291038736729982 -0.002549935765442319 0.0002588970287123372 0.01046579002995746 0.0 0.0
0.0 0.006185673607241773 0.0012280494321257507 -0.0013891196349528755 0.00016107020282712418 0.009335498392076048 0.0 0.0
0.0 0.0048150423367701225 0.00044564921518303166 -0.0005023318711848148 5.6682656001784155e-05 0.00784322940661273 0.0 0.0
0.0 0.003634424185180633 8.784977846592294e-05 -0.00010544664533939762 1.7596866873475616e-05 0.006332361975625738 0.0 0.0
0.0 0.002668218590851457 -8.129282759438967e-06 7.049924445089184e-06 1.0793583143492685e-06 0.004930940282521471 0.0 0.0
0.0 0.0018441601569155841 -1.3558856894518064e-05 1.6511728345217557e-05 -2.9528714506994253e-06 0.003690038230128742 0.0 0.0
0.0 0.0012752933038113357 1.4232500897106218e-06 -2.57455735346631e-07 -1.1657943543638891e-06 0.0026236133605181816 0.0 0.0
0.0 0.0008900760561540196 2.0384667329498925e-06 -1.5442100364704454e-06 -4.942566964796842e-07 0.0017544359917333807 0.0 0.0
0.0 0.0006702091821239192 -1.2327694859587477e-06 6.485111608700041e-07 5.842583250888487e-07 0.0010503782682387902 0.0 0.0
0.0 0.00036946868157579653 2.0627370216740054e-07 -1.3272879434540698e-07 -7.354490782195968e-08 0.0006283412097759764 0.0 0.0
0.0 0.00022669864491336214 -5.163451848710972e-08 4.6162060296701764e-08 5.472458190376615e-09 0.0003054908417350145 0.0 0.0
0.0 6.92206914413067e-05 -4.590474595322709e-07 4.6104684257530964e-07 -1.9993830430241153e-09 0.00012084288209979725 0.0 0.0
0.0 8.07024160470428e-06 -3.737396806285017e-07 3.5918687298608485e-07 1.4552807642427638e-08 -7.847246481214409e-06 0.0 0.0
0.0 -7.061829227737957e-06 -8.450731548329538e-08 9.505241386019635e-08 -1.0545098376907008e-08 -1.4812235786626738e-05 0.0 0.0
0.0 -7.264407154085493e-07 9.584523782556307e-08 -9.337232821756235e-08 -2.472909607997437e-09 -1.3799822624190788e-06 0.0 0.0
0.0 1.2376260156911067e-06 2.3353838527776015e-08 -1.9621199036829355e-08 -3.73263949094758e-09 -2.5932955601936557e-07 0.0 0.0
0.0 3.5707971275117375e-06 9.298477834605437e-09 7.166355313386843e-09 -1.646483314798309e-08 -7.588151165433961e-07 0.0 0.0
0.0 -1.3168828603451368e-06 -1.1139016857129672e-06 1.7039333400888569e-06 -5.900316543759023e-07 -1.643959126140987e-06 0.0 0.0
0.0 1.0612828796817254e-05 7.709530585981526e-06 -1.2034726049492045e-05 4.325195463510617e-06 1.1615883836342641e-05 0.0 0.0
0.0 1.2392568618169737e-06 -7.491151091484791e-08 1.1767598598030642e-07 -4.2764475065472074e-08 1.441325408975938e-07 0.0 0.0
0.0 1.0193361657633564e-07 1.0676732839692013e-08 -1.3945681913414806e-08 3.26894907372364e-09 3.7380425146472035e-08 0.0 0.0
0.0 -9.402791555580359e-07 -1.6260103183031367e-08 1.1105208448737375e-08 5.154894734293962e-09 -2.1338909199127728e-07 0.0 0.0
0.0 1.3283549225673245e-06 8.12810490049225e-08 -6.7037927272811e-08 -1.4243121732113068e-08 5.835700960381655e-07 0.0 0.0
0.0 -1.9756331697437696e-06 2.4650285760768693e-07 -2.2727872090948296e-07 -1.922413669820185e-08 1.525637808921149e-06 0.0 0.0
0.0 -8.236797045835749e-06 6.047399801440215e-07 -4.0968627280154997e-07 -1.950537073424399e-07 8.214373167574882e-06 0.0 0.0
0.0 2.343552104295118e-05 3.871868993985917e-06 -2.9820845308365448e-06 -8.897844631494356e-07 1.5939330654778512e-05 0.0 0.0
0.0 7.612283146283917e-05 -4.5850680194878737e-07 4.4792201086307447e-07 1.0584791085754828e-08 -8.970400418986222e-05 0.0 0.0
0.0 0.00024130544380363212 -5.110344066176898e-05 4.479010467913276e-05 6.313335982635956e-06 -0.0003649226204255862 0.0 0.0
0.0 0.000680177539683963 -0.00028166269775593725 0.00025050555868732295 3.115713906861446e-05 -0.0009283463258774918 0.0 0.0
0.0 0.001608957309904007 -0.0007816152966649906 0.0006985951116513417 8.30201850136478e-05 -0.0017759129316490814 0.0 0.0
0.0 0.0025994276435431216 -0.0015483306865315145 0.001388412075844718 0.0001599186106867966 -0.0028432073263784485 0.0 0.0
0.0 0.003911416294360037 -0.002470132371886571 0.0022351128749058674 0.00023501949698070187 -0.003957164415445139 0.0 0.0
0.0 0.00546202767784581 -0.003546676722687329 0.0032411682156250864 0.00030550850706224594 -0.005110435802902465 0.0 0.0
0.0 0.00717355924867987 -0.004776955025339943 0.004412308321478374 0.0003646467038615698 -0.006338969880038655 0.0 0.0
0.0 0.00902523357530285 -0.006068662291175482 0.005675134660538844 0.000393527630636635 -0.007714249161170671 0.0 0.0
0.0 0.01075143417939204 -0.007179286693657199 0.00679777060261954 0.00038151609103766166 -0.009310055269536958 0.0 0.0
0.0 0.012171308612247647 -0.007704120655669944 0.00739907654590642 0.0003050441097635145 -0.0111586109578335 0.0 0.0
0.0 0.012381350535086048 -0.007128139127451961 0.006964905519316125 0.00016323360813584858 -0.013232282004285204 0.0 0.0
0.0 0.010305389703679954 -0.005152540399148121 0.0052111397949888595 -5.859939584073508e-05 -0.014857797833773398 0.0 0.0
0.0 0.020174937350873758 -0.002768166015137393 0.0010889956384446547 0.0016791703766927371 1.2753686995381486e-14 0.0 0.0
0.0 0.010305389703682128 -0.005152540399147777 0.005211139794988403 -5.859939584062265e-05 0.014857797833780665 0.0 0.0
0.0 0.01238135053508387 -0.00712813912744901 0.006964905519313597 0.00016323360813542086 0.013232282004295319 0.0 0.0
0.0 0.012171308612241135 -0.00770412065566499 0.00739907654590196 0.00030504410976302503 0.011158610957835794 0.0 0.0
0.0 0.010751434179381994 -0.007179286693650174 0.006797770602612281 0.0003815160910378917 0.009310055269531176 0.0 0.0
0.0 0.00902523357529149 -0.006068662291167212 0.0056751346605304 0.0003935276306368077 0.007714249161162364 0.0 0.0
0.0 0.007173559248673231 -0.004776955025334026 0.0044123083214734375 0.00036464670386059214 0.006338969880033174 0.0 0.0
0.0 0.005462027677835264 -0.0035466767226794 0.003241168215617419 0.0003055085070619818 0.005110435802895021 0.0 0.0
0.0 0.003911416294350248 -0.0024701323718791172 0.0022351128748990022 0.00023501949698011434 0.00395716441543835 0.0 0.0
0.0 0.0025994276435316044 -0.00154833068652399 0.0013884120758379799 0.00015991861068601044 0.002843207326368157 0.0 0.0
0.0 0.0016089573098945925 -0.0007816152966595683 0.000698595111646641 8.302018501292658e-05 0.0017759129316407855 0.0 0.0
0.0 0.0006801775396795635 -0.0002816626977543979 0.0002505055586856789 3.115713906871893e-05 0.0009283463258744878 0.0 0.0
0.0 0.0002413054438018975 -5.1103440661202896e-05 4.479010467865051e-05 6.313335982552412e-06 0.0003649226204238731 0.0 0.0
0.0 7.612283146179362e-05 -4.5850680198744595e-07 4.4792201091357203e-07 1.0584791073883238e-08 8.970400418896415e-05 0.0 0.0
0.0 2.3435521041379084e-05 3.871868993950604e-06 -2.982084530815964e-06 -8.897844631346326e-07 -1.593933065463906e-05 0.0 0.0
0.0 -8.236797045749341e-06 6.047399800255436e-07 -4.096862727030519e-07 -1.9505370732248412e-07 -8.214373166572863e-06 0.0 0.0
0.0 -1.9756331695966556e-06 2.465028574669363e-07 -2.2727872078926432e-07 -1.9224136677676003e-08 -1.5256378076889362e-06 0.0 0.0
0.0 1.3283549222230164e-06 8.128104896753613e-08 -6.703792724379058e-08 -1.4243121723745207e-08 -5.835700955324305e-07 0.0 0.0
0.0 -9.402791558280648e-07 -1.626010316413791e-08 1.1105208433176586e-08 5.154894730958343e-09 2.1338909181931778e-07 0.0 0.0
0.0 1.0193361634669551e-07 1.0676732833700947e-08 -1.3945681909328034e-08 3.2689490756309226e-09 -3.7380425093418424e-08 0.0 0.0
0.0 1.2392568610875138e-06 -7.491151086901853e-08 1.1767598590977797e-07 -4.276447504077999e-08 -1.441325408055337e-07 0.0 0.0
0.0 0.0 0.0 0.0 0.0 0.0 0.0 0.0
0.0 -1.59855136193298e-07 -1.8514062365601714e-09 1.0225299249188145e-09 8.288763116405632e-10 -3.193717500959494e-08 0.0 0.0
0.0 -1.5058563880655375e-07 1.4418984232659375e-08 -9.451738250894474e-09 -4.967245981763257e-09 1.9278431829242378e-07 0.0 0.0
0.0 -4.414644030754786e-07 -1.6604797998704888e-07 1.357290017676988e-07 3.031897821934119e-08 -1.0159418938817193e-06 0.0 0.0
0.0 5.817983976424267e-06 3.922971981665321e-07 -3.3311461589624806e-07 -5.9182582270237915e-08 2.562947158115112e-06 0.0 0.0
0.0 3.4066266180855477e-06 7.3487515273099445e-06 -5.914339484095492e-06 -1.4344120432144284e-06 2.9455910201268033e-05 0.0 0.0
0.0 -2.9148976697150167e-06 5.694508746767465e-06 -4.497129981000102e-06 -1.197378765767281e-06 -8.059011065592719e-06 0.0 0.0
0.0 0.00023541612107723823 -9.610923577793923e-05 7.606719027011179e-05 2.0042045507827303e-05 -0.0002102583166550534 0.0 0.0
0.0 0.0008930219686164821 -0.0006070051994338632 0.0004900301758281763 0.00011697502360568694 -0.0009020134146133984 0.0 0.0
0.0 0.0022751721650911103 -0.0016119375338562324 0.0013518774145136671 0.00026006011934256453 -0.0019162833647098404 0.0 0.0
0.0 0.003943084058514058 -0.003027791048589323 0.0026307210460406695 0.00039707000254865396 -0.003236694705390856 0.0 0.0
0.0 0.006096267182061769 -0.004715564898302187 0.004212099610327554 0.0005034652879746341 -0.004615978837953773 0.0 0.0
0.0 0.00849241807991378 -0.006643583803135399 0.006051715602034563 0.0005918682011008339 -0.005997885694020626 0.0 0.0
0.0 0.011211160351240602 -0.00886038753451278 0.008199577075533475 0.0006608104589793068 -0.007365992043981612 0.0 0.0
0.0 0.014371947183253657 -0.011407801271035634 0.010695623438721135 0.0007121778323144864 -0.008797361204945354 0.0 0.0
0.0 0.017904025783125454 -0.014213701350242487 0.01347324576109031 0.000740455589152177 -0.010471575165881385 0.0 0.0
0.0 0.021459334192769682 -0.01699695773785501 0.01625274954247553 0.0007442081953794714 -0.012600710299026575 0.0 0.0
0.0 0.02432178039613958 -0.019255829891000237 0.018528562010853216 0.0007272678801470296 -0.015292046996584378 0.0 0.0
0.0 0.02593143381424841 -0.02004544362624123 0.01937739508425287 0.000668048541988339 -0.01800647827761048 0.0 0.0
0.0 0.024004370187375775 -0.017566051033756427 0.016978757067583398 0.0005872939661730199 -0.01852437747952459 0.0 0.0
0.0 0.02495508760928901 -0.013809332008878057 0.011333753466401619 0.0024755785424764414 1.0604364608646222e-14 0.0 0.0
0.0 0.024004370187379977 -0.01756605103375493 0.016978757067582045 0.0005872939661728801 0.01852437747954598 0.0 0.0
0.0 0.02593143381424703 -0.020045443626236472 0.01937739508424847 0.0006680485419880027 0.01800647827763179 0.0 0.0
0.0 0.024321780396129408 -0.019255829890990787 0.018528562010844157 0.00072726788014663 0.01529204699659275 0.0 0.0
0.0 0.02145933419274882 -0.016996957737838405 0.016252749542458773 0.0007442081953796299 0.012600710299019798 0.0 0.0
0.0 0.017904025783106688 -0.014213701350227082 0.013473245761075255 0.0007404555891518302 0.010471575165872531 0.0 0.0
0.0 0.014371947183236776 -0.011407801271022111 0.010695623438707745 0.000712177832314364 0.008797361204936202 0.0 0.0
0.0 0.011211160351223996 -0.008860387534498344 0.008199577075519488 0.0006608104589788453 0.007365992043973266 0.0 0.0
0.0 0.008492418079896768 -0.0066435838031216965 0.006051715602021052 0.0005918682011006435 0.005997885694011987 0.0 0.0
0.0 0.006096267182043846 -0.004715564898288477 0.004212099610314667 0.0005034652879738078 0.004615978837941025 0.0 0.0
0.0 0.003943084058499261 -0.0030277910485777965 0.0026307210460297836 0.00039707000254801265 0.0032366947053790417 0.0 0.0
0.0 0.0022751721650796646 -0.0016119375338479248 0.001351877414506334 0.00026006011934159065 0.001916283364701606 0.0 0.0
0.0 0.0008930219686100358 -0.0006070051994293218 0.0004900301758244582 0.00011697502360486329 0.0009020134146086392 0.0 0.0
0.0 0.00023541612107441957 -9.610923577648011e-05 7.606719026896869e-05 2.004204550751126e-05 0.000210258316652301 0.0 0.0
0.0 -2.9148976704776097e-06 5.694508746315282e-06 -4.497129980639448e-06 -1.1973787656758524e-06 8.059011066403377e-06 0.0 0.0
0.0 3.406626616843021e-06 7.348751527205363e-06 -5.9143394840108614e-06 -1.4344120431946045e-06 -2.94559102006736e-05 0.0 0.0
0.0 5.817983975856946e-06 3.9229719818619567e-07 -3.3311461591229234e-07 -5.9182582273905534e-08 -2.56294715822332e-06 0.0 0.0
0.0 -4.4146440321629237e-07 -1.6604798010071768e-07 1.35729001859751e-07 3.031897824097813e-08 1.0159418946965004e-06 0.0 0.0
0.0 -1.5058563931819008e-07 1.4418984256328204e-08 -9.4517382720539e-09 -4.96724598427256e-09 -1.9278431838935426e-07 0.0 0.0
0.0 -1.598551359760529e-07 -1.8514062343378152e-09 1.022529924327987e-09 8.28876310009049e-10 3.1937174965589786e-08 0.0 0.0
0.0 0.0 0.0 0.0 0.0 0.0 0.0 0.0
0.0 0.0 0.0 0.0 0.0 0.0 0.0 0.0
0.0 -2.601208151042033e-07 -4.54463681070783e-09 2.796718489368658e-09 1.747918321339569e-09 -5.343306389855201e-08 0.0 0.0
0.0 3.034054291392965e-07 -9.561134788603184e-09 1.1062018294505187e-08 -1.5008835058998862e-09 6.807127347356168e-08 0.0 0.0
0.0 1.461028882368059e-06 2.328537884976204e-07 -1.935285357765589e-07 -3.932525272106786e-08 9.300686379116925e-07 0.0 0.0
0.0 1.8978169631736636e-07 2.259161546990723e-06 -1.8178355629791614e-06 -4.413259840115948e-07 7.1443744519181705e-06 0.0 0.0
0.0 -1.622382790360912e-05 2.2287707952243093e-06 -1.781389672333489e-06 -4.4738112289077e-07 -1.4477852538630956e-06 0.0 0.0
0.0 0.00010688625612621913 -3.7188566257570954e-05 2.764451839916139e-05 9.544047858409371e-06 -4.1837970403244196e-05 0.0 0.0
0.0 0.0006399372035918603 -0.0005111586567918449 0.0003988160470159741 0.00011234260977587072 -0.0005615965788089512 0.0 0.0
0.0 0.002032962051328245 -0.0016190304445788846 0.0013268854254026299 0.00029214501917625407 -0.001494077668827371 0.0 0.0
0.0 0.00441436530205224 -0.003359767037122294 0.0028966541685669913 0.0004631128685553042 -0.0028577727736359007 0.0 0.0
0.0 0.006888434891102555 -0.005596069645663938 0.005005134231561613 0.0005909354141023243 -0.004471903410356673 0.0 0.0
0.0 0.00993639027754688 -0.008174035011278877 0.007489128761129821 0.0006849062501490507 -0.006056059217046232 0.0 0.0
0.0 0.01347000833574001 -0.011098509183760813 0.01033553711037246 0.0007629720733883513 -0.00758243066444092 0.0 0.0
0.0 0.017468311666877585 -0.014464603987471939 0.01363493409339922 0.0008296698940727171 -0.009096644929130981 0.0 0.0
0.0 0.022169429534814756 -0.018353560693023567 0.01746972070331716 0.0008838399897064071 -0.010733694073627746 0.0 0.0
0.0 0.02733849584890041 -0.022721128150270855 0.02180490224928428 0.0009162259009865732 -0.01274179386823146 0.0 0.0
0.0 0.03300393150883914 -0.027240732730198527 0.026320196215605787 0.0009205365145927457 -0.01550722869602885 0.0 0.0
0.0 0.03790188481738714 -0.031158027572427797 0.030274589447747444 0.0008834381246803308 -0.01915495834821637 0.0 0.0
0.0 0.04059257819894023 -0.03301643675588424 0.032212161490232774 0.0008042752656514704 -0.022693292004047915 0.0 0.0
0.0 0.03798233583837563 -0.030303201911053824 0.029657359456716118 0.0006458424543377144 -0.02380631359815574 0.0 0.0
0.0 0.03523110691264503 -0.024875192531506437 0.021670233932236802 0.0032049585992696156 1.1769231422764648e-14 0.0 0.0
0.0 0.037982335838376624 -0.030303201911049682 0.029657359456711725 0.0006458424543379728 0.023806313598182128 0.0 0.0
0.0 0.04059257819893582 -0.03301643675587617 0.032212161490225086 0.0008042752656510417 0.02269329200407506 0.0 0.0
0.0 0.03790188481737125 -0.031158027572412504 0.03027458944773297 0.000883438124679528 0.01915495834822846 0.0 0.0
0.0 0.033003931508814414 -0.027240732730177544 0.026320196215585175 0.0009205365145923862 0.015507228696026018 0.0 0.0
0.0 0.02733849584887848 -0.022721128150252217 0.021804902249266143 0.0009162259009860606 0.012741793868223156 0.0 0.0
0.0 0.022169429534788728 -0.01835356069300193 0.017469720703296006 0.000883839989705925 0.010733694073616844 0.0 0.0
0.0 0.017468311666855814 -0.014464603987453348 0.013634934093381089 0.000829669894072259 0.009096644929122693 0.0 0.0
0.0 0.01347000833571503 -0.011098509183740134 0.010335537110352025 0.0007629720733881015 0.007582430664430291 0.0 0.0
0.0 0.009936390277522454 -0.008174035011259215 0.0074891287611108005 0.0006849062501484149 0.006056059217031963 0.0 0.0
0.0 0.006888434891079778 -0.005596069645645743 0.005005134231543946 0.0005909354141017977 0.004471903410341864 0.0 0.0
0.0 0.004414365302035165 -0.003359767037108807 0.002896654168554543 0.00046311286855426395 0.002857772773624428 0.0 0.0
0.0 0.0020329620513169677 -0.0016190304445702316 0.0013268854253952642 0.00029214501917496587 0.0014940776688206056 0.0 0.0
0.0 0.000639937203585155 -0.0005111586567869383 0.0003988160470120038 0.00011234260977493435 0.0005615965788038165 0.0 0.0
0.0 0.00010688625612436147 -3.718856625687751e-05 2.7644518398665495e-05 9.544047858212167e-06 4.183797040255476e-05 0.0 0.0
0.0 -1.6223827903573856e-05 2.2287707944394287e-06 -1.7813896717229095e-06 -4.473811227165035e-07 1.4477852554595509e-06 0.0 0.0
0.0 1.8978169543580063e-07 2.259161546796142e-06 -1.8178355628186222e-06 -4.4132598397751565e-07 -7.144374451264204e-06 0.0 0.0
0.0 1.4610288818515232e-06 2.328537885232293e-07 -1.9352853579807907e-07 -3.932525272515767e-08 -9.300686379510737e-07 0.0 0.0
0.0 3.0340542927854597e-07 -9.561134782204816e-09 1.1062018289073182e-08 -1.5008835068734509e-09 -6.807127350154016e-08 0.0 0.0
0.0 -2.601208150903466e-07 -4.544636810377973e-09 2.7967184891725414e-09 1.7479183212069819e-09 5.3433063895465725e-08 0.0 0.0
0.0 0.0 0.0 0.0 0.0 0.0 0.0 0.0
0.0 0.0 0.0 0.0 0.0 0.0 0.0 0.0
0.0 0.0 0.0 0.0 0.0 0.0 0.0 0.0
0.0 -2.95889627028445e-07 -1.3592507698731995e-08 1.083743040721265e-08 2.7550772915178707e-09 -5.501979115714737e-08 0.0 0.0
0.0 -2.141736077908429e-06 -2.1857097596214445e-07 1.7809298611579005e-07 4.0477989846356896e-08 -6.06810818082783e-07 0.0 0.0
0.0 4.88510010377096e-06 3.009980780847627e-06 -2.423405021388217e-06 -5.865757594594031e-07 7.2040373300357e-06 0.0 0.0
0.0 1.687221260948209e-05 1.6040036112454395e-05 -1.3252097404240013e-05 -2.787938708214446e-06 3.2025671701737735e-05 0.0 0.0
0.0 0.000314356609529393 -0.00024552335549106604 0.00018651098709837098 5.9012368392694974e-05 -0.00021411853860118504 0.0 0.0
0.0 0.0013713064792236392 -0.0011540576251064978 0.0009169271222220851 0.0002371305028844124 -0.000845812168582231 0.0 0.0
0.0 0.0037145999009412724 -0.0028651383836737743 0.0024196671043174747 0.0004454712793562974 -0.0019808484917266376 0.0 0.0
0.0 0.006202229152014958 -0.005337096046227294 0.004727658328248531 0.0006094377179787663 -0.003568758307449405 0.0 0.0
0.0 0.009863013983365093 -0.008317732187809752 0.007600328347913786 0.0007174038398959587 -0.005226118078883215 0.0 0.0
0.0 0.013940703134311373 -0.011757000492244162 0.010954825047653638 0.0008021754445905194 -0.006855230518277386 0.0 0.0
0.0 0.018567368011919532 -0.015684468233995642 0.014804618610692528 0.0008798496233031132 -0.008434272721043311 0.0 0.0
0.0 0.023900181378608013 -0.020212653124284073 0.019260346827046117 0.0009523062972379507 -0.010030306488653778 0.0 0.0
0.0 0.030017143694149487 -0.025460601525455158 0.024445206350855776 0.0010153951745993548 -0.011766272099658397 0.0 0.0
0.0 0.03726416200718023 -0.0314133393597527 0.030357596972277367 0.0010557423874753443 -0.013948613900179806 0.0 0.0
0.0 0.0443860444541284 -0.03769254640289095 0.03663614108042268 0.0010564053224681896 -0.017044574745584577 0.0 0.0
0.0 0.05136659711837322 -0.0432212685172726 0.04222360463146592 0.0009976638858067142 -0.02121651267050448 0.0 0.0
0.0 0.05529815531044896 -0.04598373262813179 0.04511248847376126 0.0008712441543704795 -0.025552493126948503 0.0 0.0
0.0 0.052000082541140275 -0.04267030272736709 0.04202483039298933 0.0006454723343777369 -0.0275135485720309 0.0 0.0
0.0 0.04640733740928943 -0.035719208690393064 0.03189508452171412 0.003824124168678918 1.364793694724753e-14 0.0 0.0
0.0 0.052000082541138096 -0.04267030272736029 0.04202483039298265 0.0006454723343776072 0.027513548572060117 0.0 0.0
0.0 0.055298155310440356 -0.045983732628120326 0.04511248847375016 0.0008712441543701672 0.025552493126979693 0.0 0.0
0.0 0.05136659711835344 -0.043221268517253775 0.04222360463144756 0.0009976638858061474 0.021216512670520736 0.0 0.0
0.0 0.044386044454099355 -0.03769254640286593 0.03663614108039783 0.0010564053224680888 0.017044574745583328 0.0 0.0
0.0 0.03726416200714837 -0.031413339359725484 0.030357596972250343 0.0010557423874751326 0.013948613900171693 0.0 0.0
0.0 0.030017143694119414 -0.025460601525429297 0.0244452063508305 0.0010153951745988162 0.011766272099648334 0.0 0.0
0.0 0.023900181378579244 -0.020212653124259267 0.019260346827021664 0.000952306297237589 0.01003030648864476 0.0 0.0
0.0 0.018567368011888668 -0.0156844682339696 0.014804618610666637 0.0008798496233029505 0.00843427272103264 0.0 0.0
0.0 0.013940703134281054 -0.011757000492218544 0.01095482504762855 0.0008021754445899934 0.00685523051826295 0.0 0.0
0.0 0.009863013983337054 -0.008317732187786383 0.007600328347890646 0.0007174038398957423 0.005226118078866954 0.0 0.0
0.0 0.006202229151994357 -0.005337096046209715 0.004727658328231757 0.0006094377179779574 0.003568758307436944 0.0 0.0
0.0 0.0037145999009245124 -0.002865138383660777 0.002419667104305757 0.0004454712793550226 0.001980848491717931 0.0 0.0
0.0 0.0013713064792148669 -0.0011540576250996615 0.0009169271222165651 0.00023713050288309617 0.0008458121685775942 0.0 0.0
0.0 0.00031435660952570065 -0.00024552335548889964 0.00018651098709672334 5.901236839217615e-05 0.00021411853859958205 0.0 0.0
0.0 1.6872212608682684e-05 1.6040036112242596e-05 -1.3252097404074004e-05 -2.7879387081686394e-06 -3.202567170129137e-05 0.0 0.0
0.0 4.885100102461083e-06 3.0099807808420144e-06 -2.4234050213837435e-06 -5.865757594582472e-07 -7.204037330025054e-06 0.0 0.0
0.0 -2.141736078476887e-06 -2.1857097599776245e-07 1.7809298614416374e-07 4.04779898536017e-08 6.068108182189839e-07 0.0 0.0
0.0 -2.9588962689353585e-07 -1.3592507692400482e-08 1.0837430402124616e-08 2.755077290274585e-09 5.50197911312241e-08 0.0 0.0
0.0 0.0 0.0 0.0 0.0 0.0 0.0 0.0
0.0 0.0 0.0 0.0 0.0 0.0 0.0 0.0
0.0 0.0 0.0 0.0 0.0 0.0 0.0 0.0
0.0 0.0 0.0 0.0 0.0 0.0 0.0 0.0
0.0 -7.215911161373703e-08 -3.2041933060697377e-09 2.5170324971020384e-09 6.871608089677358e-10 -1.3547924817808832e-08 0.0 0.0
0.0 -3.8488714135943097e-07 -3.715199860062502e-08 3.237849350208132e-08 4.773505098559603e-09 -8.893988025812814e-08 0.0 0.0
0.0 -1.1255402394488795e-05 1.1830116497649514e-06 -1.030297463369601e-06 -1.5271418639535738e-07 2.6383376137867947e-06 0.0 0.0
0.0 9.532129608218122e-05 -3.035692319453888e-05 2.0797146464494535e-05 9.55977673004451e-06 3.344492496496717e-06 0.0 0.0
0.0 0.000694393940735576 -0.0005873559023494863 0.00045089327563039433 0.00013646262671909278 -0.0003259761507704841 0.0 0.0
0.0 0.002530465695937189 -0.0019632477402187444 0.0016019344234480242 0.0003613133167707197 -0.001044059496253011 0.0 0.0
0.0 0.004838700631621687 -0.004313042061437684 0.0037401630424078614 0.0005728790190298223 -0.002332985312259708 0.0 0.0
0.0 0.008567050006857568 -0.007391701926690846 0.0066804242160726016 0.000711277710618251 -0.003862083148562499 0.0 0.0
0.0 0.012920206174203747 -0.011109079437936266 0.010299575902289559 0.0008095035356467056 -0.005457061771123477 0.0 0.0
0.0 0.01797064985669258 -0.015416097792052757 0.014522409468944166 0.00089368832310859 -0.00703407906676407 0.0 0.0
0.0 0.02376617477744009 -0.02035752565409605 0.019381645836640614 0.000975879817455417 -0.008583193605703145 0.0 0.0
0.0 0.03051977643581571 -0.026057594078531678 0.02500239871528317 0.0010551953632485104 -0.010176525895654355 0.0 0.0
0.0 0.03817295009086782 -0.03266481004658145 0.03153614444169806 0.0011286656048833466 -0.011924569291885172 0.0 0.0
0.0 0.046809974667225376 -0.04019038964116155 0.03901124917799036 0.0011791404631712056 -0.014049877760783164 0.0 0.0
0.0 0.05647468090909976 -0.04817710655678879 0.047002136162172053 0.0011749703946167314 -0.01702758020870511 0.0 0.0
0.0 0.064898211487376 -0.05527503813255211 0.054185778306821065 0.0010892598257309877 -0.02128309124985009 0.0 0.0
0.0 0.06936549018721289 -0.058852644058382905 0.05794060878400053 0.0009120352743823823 -0.02626097003832904 0.0 0.0
0.0 0.06567205585305236 -0.05489922740609107 0.05426595738239336 0.0006332700236977167 -0.02993946061332971 0.0 0.0
0.0 0.05849598253291171 -0.046568897901946175 0.04218514250566144 0.004383755396284717 1.369650920457488e-14 0.0 0.0
0.0 0.06567205585305254 -0.0548992274060862 0.054265957382389214 0.0006332700236969885 0.029939460613362386 0.0 0.0
0.0 0.06936549018719859 -0.05885264405836714 0.05794060878398464 0.0009120352743825391 0.02626097003836094 0.0 0.0
0.0 0.06489821148735202 -0.05527503813252997 0.05418577830679937 0.0010892598257305835 0.021283091249867648 0.0 0.0
0.0 0.05647468090906661 -0.0481771065567599 0.04700213616214353 0.0011749703946162746 0.017027580208705845 0.0 0.0
0.0 0.046809974667186297 -0.04019038964112789 0.03901124917795675 0.0011791404631711847 0.014049877760776895 0.0 0.0
0.0 0.038172950090830125 -0.032664810046548996 0.03153614444166633 0.0011286656048826599 0.011924569291876155 0.0 0.0
0.0 0.0305197764357794 -0.026057594078499783 0.025002398715251985 0.0010551953632478071 0.010176525895645362 0.0 0.0
0.0 0.023766174777401974 -0.020357525654063364 0.019381645836607887 0.0009758798174554496 0.008583193605692306 0.0 0.0
0.0 0.017970649856655335 -0.01541609779202109 0.014522409468912808 0.0008936883231082666 0.007034079066750164 0.0 0.0
0.0 0.012920206174170144 -0.011109079437907909 0.010299575902261483 0.0008095035356464229 0.005457061771107465 0.0 0.0
0.0 0.008567050006830968 -0.007391701926668279 0.0066804242160506885 0.0007112777106175944 0.0038620831485495924 0.0 0.0
0.0 0.004838700631603408 -0.004313042061420785 0.0037401630423921574 0.0005728790190286242 0.002332985312250684 0.0 0.0
0.0 0.002530465695925958 -0.0019632477402099944 0.001601934423440479 0.0003613133167695143 0.0010440594962484618 0.0 0.0
0.0 0.0006943939407293961 -0.0005873559023447461 0.0004508932756266479 0.00013646262671809873 0.000325976150767679 0.0 0.0
0.0 9.53212960797036e-05 -3.0356923193571603e-05 2.0797146463768865e-05 9.559776729802532e-06 -3.3444924972006097e-06 0.0 0.0
0.0 -1.125540239467989e-05 1.1830116491626692e-06 -1.0302974628990992e-06 -1.5271418626360082e-07 -2.638337612993115e-06 0.0 0.0
0.0 -3.8488714163360347e-07 -3.71519986172893e-08 3.237849351440179e-08 4.773505102905713e-09 8.893988030288153e-08 0.0 0.0
0.0 -7.215911157200176e-08 -3.2041933039093247e-09 2.517032495399514e-09 6.871608085102661e-10 1.3547924810041739e-08 0.0 0.0
0.0 0.0 0.0 0.0 0.0 0.0 0.0 0.0
0.0 0.0 0.0 0.0 0.0 0.0 0.0 0.0
0.0 0.0 0.0 0.0 0.0 0.0 0.0 0.0
0.0 0.0 0.0 0.0 0.0 0.0 0.0 0.0
0.0 -2.293160194336277e-07 -1.4461379626515726e-08 1.153288570251186e-08 2.9284939240046764e-09 -3.8870249065241455e-08 0.0 0.0
0.0 -5.199758870164186e-07 -1.448611038422727e-07 1.1558506073673167e-07 2.927604310551511e-08 -1.734773057339791e-07 0.0 0.0
0.0 -1.1986084565773614e-06 1.574830018815189e-05 -1.2720793455544029e-05 -3.0275067326078072e-06 1.9170707633648338e-05 0.0 0.0
0.0 0.0001879139080633817 -0.00018937630052046848 0.00014069294006222065 4.868336045824772e-05 -8.056326143007454e-05 0.0 0.0
0.0 0.0013865122023144778 -0.0010444108163308679 0.0008174967072090971 0.00022691410912177047 -0.00037974306842662915 0.0 0.0
0.0 0.0033053396709237315 -0.0029604845299929187 0.0024814463652829883 0.00047903816470993063 -0.0011867955047873073 0.0 0.0
0.0 0.0065800461198563965 -0.005811668515234747 0.0051462414706351664 0.0006654270445995841 -0.0023738995907533565 0.0 0.0
0.0 0.010854629094931043 -0.009498230793352345 0.00870837907710625 0.0007898517162460967 -0.0037435947641443 0.0 0.0
0.0 0.0160472495432101 -0.013943323203224318 0.01305893498538888 0.0008843882178354333 -0.005194967904067303 0.0 0.0
0.0 0.02211371433474293 -0.019121341029784845 0.018149036683293568 0.0009723043464912679 -0.0066295284650948446 0.0 0.0
0.0 0.02916804051264709 -0.02508978053967401 0.024029137114673454 0.0010606434250005528 -0.008056133009233546 0.0 0.0
0.0 0.0369665523728355 -0.03198306846289962 0.03083539387071798 0.0011476745921816464 -0.009560599306475527 0.0 0.0
0.0 0.04629328789736919 -0.03992930768001503 0.03870106691724499 0.0012282407627700511 -0.01121915399605063 0.0 0.0
0.0 0.056840056312947126 -0.04894731201493497 0.04765912501699997 0.0012881869979349124 -0.013104573750377492 0.0 0.0
0.0 0.06786925748726466 -0.058564048456182696 0.057276127196378555 0.0012879212598041082 -0.01554804648313668 0.0 0.0
0.0 0.07801580257401092 -0.06717977583335169 0.06600292745759245 0.0011768483757592324 -0.019329742490908214 0.0 0.0
0.0 0.0836238706629325 -0.07162535855933694 0.07067945577767706 0.0009459027816598139 -0.024861432423706475 0.0 0.0
0.0 0.07938867996200802 -0.06723454236373792 0.0666264656474156 0.0006080767163222808 -0.0313422243583813 0.0 0.0
0.0 0.07075346163327573 -0.05771228534302341 0.05281965111805227 0.0048926342249711735 1.3757224526234069e-14 0.0 0.0
0.0 0.07938867996200244 -0.06723454236372929 0.06662646564740689 0.0006080767163223982 0.031342224358412385 0.0 0.0
0.0 0.08362387066290866 -0.07162535855931393 0.0706794557776535 0.0009459027816603035 0.02486143242373557 0.0 0.0
0.0 0.07801580257397878 -0.06717977583332319 0.06600292745756406 0.0011768483757591374 0.019329742490924305 0.0 0.0
0.0 0.06786925748722485 -0.05856404845614784 0.057276127196344215 0.001287921259803683 0.015548046483139304 0.0 0.0
0.0 0.05684005631290516 -0.04894731201489823 0.04765912501696392 0.0012881869979342218 0.013104573750373936 0.0 0.0
0.0 0.046293287897325015 -0.03992930767997667 0.038701066917207455 0.0012282407627692052 0.011219153996043583 0.0 0.0
0.0 0.03696655237279416 -0.03198306846286348 0.03083539387068289 0.0011476745921805641 0.009560599306468145 0.0 0.0
0.0 0.02916804051260264 -0.02508978053963532 0.024029137114634926 0.0010606434250004224 0.008056133009223754 0.0 0.0
0.0 0.02211371433470094 -0.019121341029748478 0.01814903668325782 0.0009723043464906539 0.006629528465082206 0.0 0.0
0.0 0.016047249543170772 -0.01394332320319041 0.013058934985355377 0.0008843882178350372 0.0051949679040529315 0.0 0.0
0.0 0.010854629094899784 -0.00949823079332512 0.00870837907707966 0.0007898517162454486 0.0037435947641319997 0.0 0.0
0.0 0.006580046119834251 -0.005811668515214851 0.005146241470616306 0.0006654270445985412 0.002373899590745243 0.0 0.0
0.0 0.0033053396709088936 -0.0029604845299797656 0.0024814463652711284 0.0004790381647086382 0.0011867955047817147 0.0 0.0
0.0 0.0013865122023056084 -0.0010444108163241072 0.0008174967072036331 0.0002269141091204719 0.00037974306842383543 0.0 0.0
0.0 0.00018791390806015062 -0.0001893763005184759 0.00014069294006070838 4.868336045776728e-05 8.056326142929357e-05 0.0 0.0
0.0 -1.198608457179991e-06 1.5748300187650195e-05 -1.2720793455153857e-05 -3.0275067324962106e-06 -1.9170707633210703e-05 0.0 0.0
0.0 -5.199758872909652e-07 -1.4486110388307184e-07 1.1558506076818898e-07 2.927604311488174e-08 1.7347730579830206e-07 0.0 0.0
0.0 -2.2931601939196662e-07 -1.4461379623806564e-08 1.1532885700353495e-08 2.928493923453548e-09 3.887024905798412e-08 0.0 0.0
0.0 0.0 0.0 0.0 0.0 0.0 0.0 0.0
0.0 0.0 0.0 0.0 0.0 0.0 0.0 0.0
0.0 0.0 0.0 0.0 0.0 0.0 0.0 0.0
0.0 0.0 0.0 0.0 0.0 0.0 0.0 0.0
0.0 0.0 0.0 0.0 0.0 0.0 0.0 0.0
0.0 -9.84003397632755e-07 1.2694843600453483e-07 -1.0095377630438065e-07 -2.5994659700145737e-08 2.2786862947719408e-07 0.0 0.0
0.0 1.874901888018465e-05 7.12521684784573e-06 -6.7726130165389425e-06 -3.526038313065673e-07 1.2049958439972142e-05 0.0 0.0
0.0 0.000481973427265492 -0.00037507495928582626 0.0002800456025209933 9.502935676483295e-05 -6.89339547779587e-05 0.0 0.0
0.0 0.0019351921965390045 -0.001666272433434819 0.0013355432434995539 0.00033072918993526325 -0.0004026088699380923 0.0 0.0
0.0 0.00443665177029087 -0.004017244991231687 0.0034469087520646057 0.0005703362391670808 -0.0011395607437052577 0.0 0.0
0.0 0.008247907051592854 -0.007350934968230747 0.0066118865233530475 0.0007390484448776924 -0.0021045807559587257 0.0 0.0
0.0 0.013221596182070139 -0.011628781883691095 0.010775073554774575 0.0008537083289165302 -0.003245897612397789 0.0 0.0
0.0 0.019192191307203746 -0.0167996500965446 0.015850523342090347 0.0009491267544542497 -0.0044590618396497285 0.0 0.0
0.0 0.02627990607178582 -0.022854837143203483 0.02181182196569878 0.0010430151775046989 -0.0056616310761291935 0.0 0.0
0.0 0.03426129750819584 -0.02986904719151496 0.028729906792771147 0.0011391403987437952 -0.0068681817029576184 0.0 0.0
0.0 0.043853062130126554 -0.03795737728981169 0.03672615980505707 0.0012312174847546253 -0.008175970374642252 0.0 0.0
0.0 0.054472609726869924 -0.04722843282910513 0.04591304688085039 0.0013153859482546947 -0.009651582062731328 0.0 0.0
0.0 0.06632028944659701 -0.05763625316784123 0.05625353385435735 0.0013827193134839794 -0.011214470861098298 0.0 0.0
0.0 0.0791839849335131 -0.06869405879491647 0.067296754936237 0.001397303858679411 -0.01283191737540239 0.0 0.0
0.0 0.09093717063532623 -0.0787772704491044 0.07749904549666044 0.0012782249524440062 -0.015421290740159332 0.0 0.0
0.0 0.09772402738179078 -0.08433897477408989 0.08334975293483923 0.0009892218392506997 -0.021250754665417006 0.0 0.0
0.0 0.09360556672134523 -0.07992599685386671 0.07936224725184415 0.0005637496020226461 -0.03150651309721621 0.0 0.0
0.0 0.08420129713491978 -0.06945358638280713 0.06411066791649471 0.005342918466312447 1.2144799055313626e-14 0.0 0.0
0.0 0.09360556672133427 -0.07992599685385426 0.07936224725183183 0.0005637496020224141 0.03150651309724293 0.0 0.0
0.0 0.097724027381765 -0.08433897477406585 0.08334975293481534 0.0009892218392505417 0.021250754665443343 0.0 0.0
0.0 0.09093717063528892 -0.07877727044907162 0.07749904549662798 0.0012782249524435922 0.015421290740173826 0.0 0.0
0.0 0.07918398493346476 -0.0686940587948747 0.067296754936195 0.0013973038586796596 0.012831917375405157 0.0 0.0
0.0 0.06632028944654639 -0.05763625316779727 0.056253533854313684 0.0013827193134835919 0.011214470861096597 0.0 0.0
0.0 0.054472609726816675 -0.04722843282905915 0.04591304688080473 0.0013153859482544085 0.009651582062726035 0.0 0.0
0.0 0.043853062130077974 -0.03795737728976933 0.03672615980501545 0.0012312174847538492 0.00817597037463547 0.0 0.0
0.0 0.03426129750814515 -0.02986904719147116 0.02872990679272764 0.0011391403987435287 0.0068681817029499995 0.0 0.0
0.0 0.02627990607173968 -0.022854837143162898 0.021811821965658906 0.0010430151775039976 0.005661631076119311 0.0 0.0
0.0 0.01919219130716002 -0.016799650096506524 0.015850523342052635 0.0009491267544538733 0.004459061839637723 0.0 0.0
0.0 0.013221596182036137 -0.011628781883661458 0.010775073554745513 0.0008537083289159434 0.003245897612387625 0.0 0.0
0.0 0.008247907051567794 -0.007350934968208315 0.006611886523331464 0.0007390484448768428 0.0021045807559517426 0.0 0.0
0.0 0.004436651770273587 -0.004017244991215631 0.003446908752049778 0.0005703362391658532 0.001139560743700149 0.0 0.0
0.0 0.0019351921965287948 -0.0016662724334261625 0.0013355432434922483 0.00033072918993391575 0.0004026088699354732 0.0 0.0
0.0 0.00048197342726104405 -0.0003750749592827555 0.00028004560251865355 9.502935676410159e-05 6.893395477724376e-05 0.0 0.0
0.0 1.8749018879455e-05 7.125216847724567e-06 -6.772613016425952e-06 -3.526038312987515e-07 -1.2049958439563799e-05 0.0 0.0
0.0 -9.840033981541848e-07 1.269484360165298e-07 -1.0095377631605507e-07 -2.5994659700469178e-08 -2.278686295266804e-07 0.0 0.0
0.0 0.0 0.0 0.0 0.0 0.0 0.0 0.0
0.0 0.0 0.0 0.0 0.0 0.0 0.0 0.0
0.0 0.0 0.0 0.0 0.0 0.0 0.0 0.0
0.0 0.0 0.0 0.0 0.0 0.0 0.0 0.0
0.0 0.0 0.0 0.0 0.0 0.0 0.0 0.0
0.0 0.0 0.0 0.0 0.0 0.0 0.0 0.0
0.0 1.6189744060094734e-07 5.534867747494517e-07 -4.342547228848744e-07 -1.1923205186459206e-07 4.295914867975508e-07 0.0 0.0
0.0 5.067630409976017e-05 -5.082719767999855e-05 3.499889316489653e-05 1.5828304515102097e-05 5.198183138879477e-06 0.0 0.0
0.0 0.0008851000873639177 -0.0006729941037035537 0.0005111109383391427 0.00016188316536441 -2.9521555969257656e-05 0.0 0.0
0.0 0.0025131074560513804 -0.0023858520909457383 0.001959739840516131 0.00042611225042960753 -0.0003434121022563076 0.0 0.0
0.0 0.005641094845903876 -0.00510996552588781 0.004463797227566475 0.0006461682983213398 -0.0008554819754423734 0.0 0.0
0.0 0.009949172016501737 -0.008907959555404969 0.008109639144398752 0.0007983204110062114 -0.0015536828237137322 0.0 0.0
0.0 0.015589084674488883 -0.013765977734638113 0.01285802376546935 0.0009079539691687613 -0.002381053226989981 0.0 0.0
0.0 0.02243467951176334 -0.019659218245427143 0.018651953046870288 0.001007265198556823 -0.0032630149286971195 0.0 0.0
0.0 0.030384105893019563 -0.02659974692561086 0.025491665245296377 0.001108081680314496 -0.004137319874187448 0.0 0.0
0.0 0.03987567330806075 -0.03466298528859808 0.03345205836228041 0.0012109269263176666 -0.005026748083171381 0.0 0.0
0.0 0.0503473230693665 -0.04397013830235408 0.042660420117586924 0.0013097181847671092 -0.006039622050831223 0.0 0.0
0.0 0.06256770317613855 -0.05454581186363909 0.05315053738572567 0.0013952744779135008 -0.007201028786738032 0.0 0.0
0.0 0.07605818315074264 -0.06622269694893686 0.0647651501360023 0.0014575468129344742 -0.008358578626253022 0.0 0.0
0.0 0.09020107039248136 -0.07846284430745704 0.07697687081347115 0.0014859734939860166 -0.009220422974904715 0.0 0.0
0.0 0.10336434589285123 -0.08985976585105412 0.08843906534290409 0.0014207005081500299 -0.010210798983525908 0.0 0.0
0.0 0.11175671375092247 -0.09692746580021631 0.095847017452505 0.0010804483477113238 -0.014845234216309096 0.0 0.0
0.0 0.10850969027497738 -0.09325761532208171 0.09277644545395751 0.0004811698681240318 -0.029535394644590617 0.0 0.0
0.0 0.09891401670297527 -0.08224110998610536 0.07653852293428129 0.00570258705182396 9.210514295698857e-15 0.0 0.0
0.0 0.10850969027496425 -0.09325761532206826 0.09277644545394463 0.00048116986812364994 0.02953539464461204 0.0 0.0
0.0 0.11175671375089533 -0.09692746580019168 0.09584701745248088 0.0010804483477108544 0.014845234216330811 0.0 0.0
0.0 0.1033643458928089 -0.08985976585101726 0.0884390653428681 0.0014207005081491217 0.010210798983536325 0.0 0.0
0.0 0.09020107039242856 -0.07846284430741145 0.07697687081342522 0.0014859734939862705 0.009220422974906183 0.0 0.0
0.0 0.07605818315068667 -0.06622269694888823 0.06476515013595427 0.0014575468129339943 0.008358578626251518 0.0 0.0
0.0 0.06256770317608173 -0.05454581186358984 0.05315053738567686 0.0013952744779129943 0.007201028786734899 0.0 0.0
0.0 0.050347323069309294 -0.04397013830230428 0.042660420117538095 0.0013097181847662037 0.006039622050825776 0.0 0.0
0.0 0.039875673308002825 -0.03466298528854771 0.033452058362230294 0.0012109269263173971 0.005026748083166227 0.0 0.0
0.0 0.030384105892966005 -0.0265997469255645 0.02549166524525058 0.001108081680313866 0.004137319874181156 0.0 0.0
0.0 0.02243467951171685 -0.019659218245386 0.018651953046829674 0.0010072651985563374 0.0032630149286882975 0.0 0.0
0.0 0.015589084674451444 -0.013765977734604777 0.012858023765436651 0.000907953969168123 0.0023810532269823736 0.0 0.0
0.0 0.009949172016473391 -0.008907959555379357 0.008109639144373976 0.0007983204110053873 0.0015536828237085484 0.0 0.0
0.0 0.00564109484588413 -0.005109965525869578 0.00446379722754943 0.0006461682983201465 0.0008554819754384834 0.0 0.0
0.0 0.002513107456039404 -0.0023858520909344526 0.0019597398405061845 0.00042611225042826626 0.00034341210225393955 0.0 0.0
0.0 0.00088510008735788 -0.0006729941036986426 0.0005111109383352475 0.00016188316536339448 2.952155596858087e-05 0.0 0.0
0.0 5.067630409893117e-05 -5.082719768015234e-05 3.4998893165078646e-05 1.5828304515073556e-05 -5.198183138292345e-06 0.0 0.0
0.0 1.6189744012831365e-07 5.534867748460747e-07 -4.3425472296380786e-07 -1.1923205188228746e-07 -4.295914868927453e-07 0.0 0.0
0.0 0.0 0.0 0.0 0.0 0.0 0.0 0.0
0.0 0.0 0.0 0.0 0.0 0.0 0.0 0.0
0.0 0.0 0.0 0.0 0.0 0.0 0.0 0.0
0.0 0.0 0.0 0.0 0.0 0.0 0.0 0.0
0.0 0.0 0.0 0.0 0.0 0.0 0.0 0.0
0.0 0.0 0.0 0.0 0.0 0.0 0.0 0.0
0.0 -1.6193343122471564e-06 8.375699502325791e-07 -7.319276689227518e-07 -1.0564228130982428e-07 5.858750036963461e-07 0.0 0.0
0.0 0.00020018969841386792 -0.00012688725164728966 8.919524350641718e-05 3.769200814087231e-05 3.28084988058803e-05 0.0 0.0
0.0 0.0012613220985675795 -0.0010857298213275922 0.0008424876266298453 0.00024324219469774722 5.1129700168974724e-05 0.0 0.0
0.0 0.003373919325760477 -0.0031293154938078433 0.002627080008334111 0.0005022354854737301 -0.00011336078719917451 0.0 0.0
0.0 0.0068547827329418646 -0.006220538374995026 0.005512563679241916 0.0007079746957531054 -0.0003728651970762874 0.0 0.0
0.0 0.01172909858734049 -0.010462806655438 0.009615888281447847 0.0008469183739901568 -0.0007276769574089601 0.0 0.0
0.0 0.01796197856703238 -0.015891950004163168 0.01493593636287863 0.0009560136412845282 -0.0011569382753004018 0.0 0.0
0.0 0.02560631167384466 -0.022507130034800163 0.02144669777456329 0.0010604322602369052 -0.00160900916011812 0.0 0.0
0.0 0.03478902929405528 -0.030336725774397836 0.029168791929760903 0.0011679338446369167 -0.002058018624725987 0.0 0.0
0.0 0.04502490555295581 -0.039470387397133565 0.038192263645338044 0.0012781237517954882 -0.002558374286873928 0.0 0.0
0.0 0.05714223764237658 -0.04998086798266111 0.04859790166947359 0.001382966313187497 -0.003142868684523583 0.0 0.0
0.0 0.07080975711294288 -0.06183812169725428 0.06036929812541172 0.0014688235718425787 -0.003811380810492061 0.0 0.0
0.0 0.08569993152661386 -0.07473107376457097 0.07320805878102658 0.0015230149835444196 -0.004480919434233734 0.0 0.0
0.0 0.10097246401341203 -0.08792394742905822 0.08638345397708891 0.0015404934519692966 -0.00487761126493517 0.0 0.0
0.0 0.11514219516206933 -0.10016572544107383 0.09863282598551544 0.0015328994555583934 -0.004848626774034397 0.0 0.0
0.0 0.12527248689378429 -0.10892097611809695 0.10754715593164468 0.0013738201864521298 -0.006559841705242306 0.0 0.0
0.0 0.12439250179018214 -0.1075332709990208 0.10710642145885464 0.00042684954016616617 -0.020960892737706977 0.0 0.0
0.0 0.11598051181699294 -0.09706626983633025 0.09137191953819848 0.005694350298131649 5.042841144664578e-15 0.0 0.0
0.0 0.12439250179016571 -0.10753327099900534 0.1071064214588396 0.0004268495401657304 0.020960892737718805 0.0 0.0
0.0 0.12527248689374804 -0.10892097611806525 0.10754715593161322 0.0013738201864518184 0.0065598417052541436 0.0 0.0
0.0 0.11514219516201979 -0.10016572544103106 0.09863282598547288 0.001532899455558147 0.004848626774040424 0.0 0.0
0.0 0.10097246401335142 -0.08792394742900565 0.08638345397703642 0.0015404934519692962 0.004877611264936551 0.0 0.0
0.0 0.08569993152655157 -0.0747310737645169 0.07320805878097301 0.0015230149835438235 0.004480919434233551 0.0 0.0
0.0 0.07080975711288072 -0.061838121697200044 0.06036929812535847 0.0014688235718416031 0.0038113808104901434 0.0 0.0
0.0 0.057142237642311564 -0.04998086798260465 0.04859790166941783 0.0013829663131867526 0.0031428686845213242 0.0 0.0
0.0 0.04502490555289162 -0.03947038739707785 0.0381922636452827 0.0012781237517951575 0.002558374286870923 0.0 0.0
0.0 0.03478902929399579 -0.03033672577434591 0.029168791929709576 0.0011679338446363209 0.0020580186247223927 0.0 0.0
0.0 0.025606311673792705 -0.02250713003475505 0.02144669777451865 0.0010604322602363928 0.0016090091601131155 0.0 0.0
0.0 0.017961978566989147 -0.015891950004124876 0.01493593636284109 0.000956013641283792 0.0011569382752963028 0.0 0.0
0.0 0.011729098587307798 -0.010462806655408498 0.009615888281419127 0.0008469183739893656 0.0007276769574062693 0.0 0.0
0.0 0.0068547827329188465 -0.006220538374973907 0.0055125636792217525 0.0007079746957521511 0.00037286519707416753 0.0 0.0
0.0 0.0033739193257457294 -0.003129315493793883 0.002627080008321434 0.0005022354854724476 0.00011336078719767106 0.0 0.0
0.0 0.001261322098559995 -0.0010857298213210011 0.0008424876266245178 0.00024324219469648277 -5.1129700169002446e-05 0.0 0.0
0.0 0.00020018969841181528 -0.00012688725164632474 8.919524350575274e-05 3.7692008140572036e-05 -3.2808498805579376e-05 0.0 0.0
0.0 -1.619334312393531e-06 8.37569949887132e-07 -7.319276686641804e-07 -1.0564228122289257e-07 -5.858750036658067e-07 0.0 0.0
0.0 0.0 0.0 0.0 0.0 0.0 0.0 0.0
0.0 0.0 0.0 0.0 0.0 0.0 0.0 0.0
0.0 0.0 0.0 0.0 0.0 0.0 0.0 0.0
0.0 0.0 0.0 0.0 0.0 0.0 0.0 0.0
0.0 0.0 0.0 0.0 0.0 0.0 0.0 0.0
0.0 0.0 0.0 0.0 0.0 0.0 0.0 0.0
0.0 -1.380182697769616e-07 1.5871894943677381e-06 -1.3938486612172795e-06 -1.9334083315033587e-07 1.2267000162831907e-06 0.0 0.0
0.0 0.000405985793184874 -0.00024863767996886535 0.00017462428693758541 7.401339303128022e-05 7.588021681913025e-05 0.0 0.0
0.0 0.001692519888110903 -0.001465452126011402 0.001126723738445783 0.00033872838756561746 0.00019097445565747064 0.0 0.0
0.0 0.004050318153894663 -0.003763687185660897 0.003127403560822288 0.0006362836248386086 0.00023269284481840116 0.0 0.0
0.0 0.007828048480482483 -0.007136982764347061 0.006248518033181572 0.0008884647311654855 0.0002613213945910671 0.0 0.0
0.0 0.013031261571209731 -0.011740344859556944 0.010646010774323634 0.0010943340852333087 0.00027341328342555626 0.0 0.0
0.0 0.0198004418025019 -0.017637413400400846 0.016339942693390803 0.001297470707010043 0.0002446363400805734 0.0 0.0
0.0 0.028148654959989437 -0.02485522983967733 0.023328935691714663 0.0015262941479626444 0.0002206708035316961 0.0 0.0
0.0 0.03779907379211797 -0.033443846670730956 0.031654760762706895 0.0017890859080240886 0.00019657994414361323 0.0 0.0
0.0 0.0491806752224676 -0.04346329348843567 0.04138506029814214 0.0020782331902934772 0.00010484339445348146 0.0 0.0
0.0 0.06229309535594816 -0.05496531823857338 0.05258346780319714 0.0023818504353762156 -1.7289998152752485e-05 0.0 0.0
0.0 0.07705569457995864 -0.06787350341743548 0.0651988096696301 0.0026746937478053113 -0.00024167211269710172 0.0 0.0
0.0 0.0930285237121403 -0.08176198076327366 0.07884086995605409 0.0029211108072194894 -0.0005632582495974604 0.0 0.0
0.0 0.10910414752099704 -0.09569356957587613 0.09261612044097062 0.003077449134905411 -0.0008674905857235567 0.0 0.0
0.0 0.12361212973862287 -0.1082278109668045 0.10512996564249928 0.0030978453243051245 -0.0009239260407336199 0.0 0.0
0.0 0.13441054153651105 -0.11766847038365316 0.11460217253711451 0.0030662978465387453 -0.0013691171843716867 0.0 0.0
0.0 0.1366865774342163 -0.12010200159847512 0.11714271857933413 0.0029592830191409875 -0.014829706092060774 0.0 0.0
0.0 0.13249157926780528 -0.11253429891693852 0.10336198521934077 0.009172313697597651 2.1649348980190553e-15 0.0 0.0
0.0 0.13668657743419943 -0.12010200159845973 0.11714271857932011 0.002959283019139498 0.014829706092064415 0.0 0.0
0.0 0.1344105415364681 -0.11766847038361576 0.11460217253707819 0.003066297846537679 0.0013691171843745482 0.0 0.0
0.0 0.12361212973856754 -0.10822781096675617 0.10512996564245226 0.0030978453243039558 0.0009239260407360398 0.0 0.0
0.0 0.1091041475209296 -0.09569356957581712 0.09261612044091275 0.0030774491349040796 0.000867490585723071 0.0 0.0
0.0 0.09302852371206961 -0.08176198076321227 0.0788408699559933 0.0029211108072189525 0.0005632582495969235 0.0 0.0
0.0 0.07705569457988856 -0.06787350341737393 0.0651988096695704 0.002674693747803526 0.00024167211269498536 0.0 0.0
0.0 0.06229309535587656 -0.05496531823851108 0.05258346780313573 0.002381850435375325 1.7289998152167883e-05 0.0 0.0
0.0 0.04918067522239925 -0.04346329348837577 0.04138506029808367 0.0020782331902921016 -0.00010484339445466194 0.0 0.0
0.0 0.03779907379205365 -0.033443846670674744 0.0316547607626521 0.0017890859080226553 -0.0001965799441456138 0.0 0.0
0.0 0.028148654959934294 -0.024855229839628967 0.023328935691667385 0.0015262941479615836 -0.00022067080353386408 0.0 0.0
0.0 0.019800441802454622 -0.01763741340035956 0.016339942693350845 0.0012974707070087107 -0.0002446363400813653 0.0 0.0
0.0 0.013031261571173645 -0.011740344859524916 0.010646010774292716 0.0010943340852322065 -0.00027341328342612645 0.0 0.0
0.0 0.007828048480456467 -0.007136982764323336 0.006248518033158993 0.0008884647311643448 -0.00026132139459103087 0.0 0.0
0.0 0.004050318153878152 -0.003763687185645235 0.0031274035608081247 0.0006362836248371125 -0.0002326928448183114 0.0 0.0
0.0 0.0016925198881032459 -0.0014654521260039242 0.0011267237384397716 0.000338728387564153 -0.0001909744556565254 0.0 0.0
0.0 0.00040598579318190686 -0.00024863767996694826 0.00017462428693623534 7.401339303071374e-05 -7.588021681863917e-05 0.0 0.0
0.0 -1.3801826987562739e-07 1.5871894942542251e-06 -1.3938486611321354e-06 -1.933408331221049e-07 -1.2267000162652167e-06 0.0 0.0
0.0 0.0 0.0 0.0 0.0 0.0 0.0 0.0
0.0 0.0 0.0 0.0 0.0 0.0 0.0 0.0
0.0 0.0 0.0 0.0 0.0 0.0 0.0 0.0
SCALARS Wm float 4
LOOKUP_TABLE default
10.81037156767351 1.9434992226761678 4.320952314609166 4.545920030388171
5.025255704409981 2.477244837311988 1.1140027691837602 1.4340080979142324
0.5631880775887603 0.5546517451196566 -0.002807848354625523 0.011344180823729025
0.46200509283986746 0.45345144981260527 0.0023798363719144447 0.006173806655347722
0.8376932492607687 0.6791733371121337 0.055747034248271904 0.10277287790036299
1.6695350120652241 0.9199503265509462 0.2549476356397845 0.4946370498744932
3.292527485877886 1.2634449887119314 0.8198191318471597 1.2092633653187972
5.852493667592525 1.6597002366077827 1.8560264094926775 2.336767021492061
9.552973090359519 2.132651616402013 3.5186496519699606 3.901671821987546
14.571465199469948 2.7172049426067724 5.937411876854322 5.916848380008861
21.05318619813146 3.4554466522655494 9.211148898345279 8.386590647520633
29.045646683505964 4.377168088327436 13.340198785137767 11.328279810040772
38.805135864659945 5.482730384111234 18.556056038529412 14.766349442019285
50.44953426964072 6.77213692055754 24.952419778967474 18.7249775701157
63.95194767371702 8.154238943942001 32.60917007226117 23.188538657513845
78.97265754959264 9.456270521615357 41.45546368479366 28.060923343183628
94.67438141899085 10.453321829496078 51.0730661023817 33.147993487113055
109.78730238746891 10.953796675243268 60.754320025047235 38.079185687178374
122.83607467711995 10.954829725930146 69.48598669175777 42.395258259432055
131.95593039686236 10.450128618514075 75.92174184152218 45.58405993682602
135.02283101926537 9.61141257767155 78.51261950762651 46.89879893396731
131.95593039683953 10.450128618504202 75.92174184151342 45.58405993682194
122.83607467708948 10.954829725935197 69.48598669173376 42.395258259420515
109.78730238741375 10.953796675236658 60.75432002501517 38.07918568716194
94.67438141894243 10.453321829507107 51.073066102342544 33.147993487092734
78.97265754953007 9.456270521607582 41.455463684758314 28.06092334316423
63.951947673658594 8.154238943939554 32.60917007222559 23.18853865749343
50.449534269581775 6.772136920550161 24.952419778935273 18.72497757009631
38.805135864603926 5.482730384105166 18.556056038498923 14.766349441999873
29.04564668345522 4.377168088322126 13.340198785110733 11.328279810022366
21.05318619809025 3.455446652261786 9.211148898323685 8.386590647504779
14.571465199436386 2.717204942600102 5.937411876839349 5.916848379996934
9.552973090337561 2.132651616402222 3.5186496519582637 3.9016718219770747
5.852493667575729 1.6597002366033513 1.8560264094866235 2.3367670214857537
3.292527485867533 1.263444988710026 0.8198191318434014 1.2092633653141056
1.669535012060091 0.9199503265492099 0.2549476356387387 0.4946370498721422
0.8376932492587931 0.6791733371111051 0.05574703424791944 0.10277287789976851
0.462005092839454 0.45345144981216146 0.002379836371916302 0.0061738066553765686
0.5631880775880108 0.5546517451190612 -0.002807848354650843 0.011344180823600033
5.025255704404901 2.477244837312018 1.1140027691813492 1.4340080979115326
10.810371567649025 1.9434992226645595 4.320952314602202 4.545920030382268
12.655144509467897 5.656814345749677 3.303370711923791 3.69495945179443
1.8674516468681528 0.41240107097641 0.5886205408952658 0.8664300349964769
0.23758678233400715 0.26069486082336807 -0.006063505377562391 -0.01704457311179864
0.3672629451551316 0.36692900152745134 -8.378949440883398e-05 0.00041773312208914976
0.6417836389568236 0.5587483422148901 0.02381302506684197 0.05922227167509166
1.343440749545316 0.7966296929158649 0.1907046940868796 0.35610636254257133
2.7068644411777396 1.0444704840929624 0.6510405765214304 1.011353380563347
4.958405253447209 1.3349289764104142 1.574791597660731 2.0486846793760654
8.230135419442814 1.6484139311525774 3.0804510187597205 3.501270469530512
12.62273329653648 1.9969242122287745 5.2548749777674555 5.37093410654025
18.23736499288857 2.3929004397808926 8.18955496754201 7.654909585565664
25.225236747031143 2.856007794743713 12.00777497959631 10.361453972691125
33.546831804454506 3.3995648689418374 16.621136391337576 13.52613054417508
43.59230363635344 4.0105125421656975 22.406604069527074 17.175187024660673
55.28824880396221 4.648895923125072 29.327532322526967 21.311820558310163
68.38793568134548 5.213414294756275 37.326012007881936 25.84850937870726
82.24213895134065 5.57370525289306 46.09837183068257 30.570061867765006
95.78692165362445 5.6336025480164595 54.98324588079139 35.17007322481659
107.58360121614085 5.35183291527966 63.01644037323915 39.215327927622035
115.90494521508596 4.775816666996249 68.98485341117164 42.14427513691805
118.97040499986885 4.163348482265916 71.46595958633594 43.341096931267046
115.90494521507499 4.775816666999234 68.98485341116228 42.14427513691348
107.58360121611099 5.351832915281819 63.01644037321785 39.21532792761131
95.7869216535761 5.633602548009197 54.983245880764116 35.170073224802785
82.24213895129222 5.57370525289702 46.09837183064846 30.570061867746755
68.38793568129313 5.213414294752447 37.32601200785063 25.84850937869003
55.28824880390724 4.6488959231195 29.32753232249572 21.311820558292023
43.59230363630339 4.010512542163478 22.40660406949742 17.175187024642504
33.54683180440634 3.399564868938825 16.62113639131024 13.52613054415727
25.22523674698794 2.8560077947422084 12.00777497957176 10.361453972673974
18.237364992852235 2.3929004397787943 8.189554967522485 7.654909585550967
12.622733296509036 1.9969242122274062 5.254874977753199 5.370934106528429
8.230135419421698 1.6484139311506112 3.0804510187498226 3.501270469521265
4.958405253433782 1.3349289764094059 1.5747915976547606 2.048684679369617
2.706864441169271 1.0444704840917742 0.6510405765182993 1.0113533805591974
1.3434407495410283 0.7966296929142862 0.19070469408579047 0.35610636254095157
0.6417836389553444 0.5587483422138886 0.02381302506666585 0.05922227167479003
0.36726294515489133 0.3669290015271502 -8.378949440073068e-05 0.0004177331221417756
0.23758678233402586 0.2606948608232179 -0.006063505377511228 -0.017044573111680675
1.8674516468627504 0.41240107097575407 0.5886205408930454 0.8664300349939523
12.65514450944394 5.656814345738719 3.3033707119169673 3.694959451788251
9.393844741224843 4.437564877456323 2.2353372706632393 2.7209425931052795
1.134963707129453 0.14954411358084943 0.3848663489594204 0.6005532445891828
0.1497632735315045 0.14976415876120558 -3.6811495252537546e-08 -8.48418205815541e-07
0.27704034619678064 0.2769380270873053 4.749879420497474e-05 5.4820315270387827e-05
0.49559071467864324 0.4733691516120182 0.00481115854349191 0.017410404523133086
1.0463506648912426 0.7153894652944808 0.11158130800532558 0.21937989159143678
2.1817003547900664 0.9558877606533925 0.4561684934911394 0.769644100645534
4.146025057759866 1.2355116927045926 1.228469616648525 1.6820437484067465
7.019467245829203 1.526927971521856 2.5098426591420053 2.982696615165342
10.898156879052335 1.8391449632977717 4.39964600959501 4.659365906159552
15.820286617912663 2.1865315688080997 6.936123504986223 6.697631544118339
21.839379713213333 2.5855704822294006 10.150755176894208 9.10305405408972
29.21857804607813 3.0597429275851904 14.258729507031846 11.900105611461097
37.878350015483214 3.603263412381899 19.134100898826816 15.140985704274481
48.11957352805448 4.17231155344899 25.123166808923067 18.82409516568242
59.653029480967795 4.696639643981988 32.06779873808356 22.888591098902253
71.94465228907914 5.071730884610427 39.70342428827466 27.1694971161941
84.04693497461008 5.18578085787771 47.51131710876564 31.34983700796672
94.62563002405437 4.958613740555968 54.63830331866889 35.0287129648295
102.13410700588095 4.510650545921275 59.93951825229035 37.68393820766932
104.82986876013041 3.793152002224952 62.21241287775189 38.824303880153565
102.13410700586454 4.510650545917904 59.939518252281786 37.683938207664795
94.62563002403344 4.958613740563943 54.63830331864979 35.02871296481968
84.04693497457714 5.185780857879852 47.511317108742844 31.34983700795447
71.94465228903509 5.071730884609831 39.70342428824656 27.169497116178682
59.65302948092164 4.6966396439772105 32.06779873805721 22.888591098887197
48.11957352800819 4.172311553443708 25.123166808897402 18.82409516566707
37.87835001543806 3.6032634123792184 19.134100898800803 15.140985704258036
29.21857804603721 3.0597429275841193 14.258729507008054 11.900105611445042
21.839379713174512 2.58557048222683 10.150755176873128 9.103054054074555
15.820286617880786 2.186531568805494 6.936123504969856 6.697631544105434
10.898156879027383 1.8391449632966868 4.399646009582219 4.659365906148474
7.019467245811118 1.5269279715199284 2.5098426591338248 2.9826966151573635
4.146025057746983 1.2355116927030858 1.2284696166431475 1.6820437484007495
2.181700354782956 0.9558877606522999 0.4561684934887354 0.7696441006419205
1.0463506648880676 0.7153894652932282 0.11158130800459647 0.21937989159024285
0.4955907146777473 0.47336915161122145 0.004811158543444268 0.017410404523081287
0.27704034619666157 0.27693802708720056 4.749879420126037e-05 5.482031525969149e-05
0.1497632735313644 0.14976415876106472 -3.68114952114993e-08 -8.484182050657688e-07
1.1349637071253826 0.14954411358080197 0.384866348957642 0.6005532445869379
9.393844741202786 4.437564877446716 2.2353372706569683 2.720942593099105
7.0184028699630545 3.445221358079662 1.5438281823007995 2.029353329582594
0.7431658254347085 0.08103570584284706 0.24142348394587684 0.42070663564598465
0.10577018469194495 0.10577018469194495 0.0 0.0
0.20925945796449402 0.20925489014975424 3.703603684371915e-06 8.642110554559833e-07
0.3853250080638825 0.3887624888473246 -0.0012306349917799403 -0.0022068457916620643
0.7828571041155644 0.6145527087032142 0.04912315017219749 0.11918124524015272
1.717302221565395 0.8740619215858659 0.3053756064193729 0.5378646935601561
3.365696696105723 1.1301538470280585 0.9099654976596198 1.3255773514180456
5.854394547428 1.401550058471355 1.9822801054764847 2.4705643834801583
9.212640884734434 1.681657766411447 3.5786169869762148 3.9523661313467717
13.437845216180088 1.9825045235077712 5.707584167082781 5.747756525589535
18.63704302837225 2.328725013307139 8.455943191934779 7.852374823130335
24.84134486406627 2.734625604226839 11.811782752210533 10.294936507628897
32.403779265122324 3.204660428764823 16.084513263804364 13.114605572553153
41.16917670592237 3.7150893952724253 21.109665884413356 16.34442142623658
51.09309199433633 4.203306748177795 26.955041337004456 19.934743909154097
61.88268911113554 4.587388570874246 33.55898533946016 23.73631520080112
72.6059504675487 4.756978785495007 40.342264648360974 27.50670703369269
82.07605374998367 4.624472561534644 46.579199413148004 30.872381775300994
88.91050602026813 4.266124226913495 51.28976876362552 33.35461302972917
91.3700452042622 3.4085675216890414 53.491351969894986 34.47012571267816
88.91050602026199 4.266124226919125 51.2897687636177 33.35461302972516
82.07605374996001 4.624472561536599 46.57919941313131 30.872381775292133
72.60595046752235 4.7569787855016035 40.34226464833956 27.50670703368117
61.88268911109876 4.587388570873182 33.5589853394374 23.736315200788173
51.09309199430058 4.203306748179138 26.955041336981164 19.93474390914031
41.16917670588916 3.7150893952770083 21.109665884390065 16.34442142622207
32.40377926508446 3.204660428763475 16.08451326378233 13.114605572538665
24.84134486402844 2.734625604223237 11.81178275219037 10.294936507614835
18.637043028340496 2.3287250133055686 8.455943191917608 7.852374823117322
13.437845216152867 1.9825045235051695 5.7075841670692675 5.747756525578435
9.212640884712878 1.681657766410265 3.5786169869654643 3.9523661313371403
5.8543945474124195 1.4015500584705465 1.9822801054691577 2.4705643834727145
3.365696696095388 1.1301538470264032 0.9099654976558201 1.325577351413164
1.7173022215591893 0.8740619215844875 0.30537560641732353 0.537864693557378
0.7828571041131202 0.614552708702194 0.049123150171688806 0.11918124523923725
0.3853250080632902 0.3887624888466354 -0.001230634991769293 -0.002206845791575959
0.2092594579643859 0.20925489014966683 3.7036036826195445e-06 8.642110364195269e-07
0.10577018469186752 0.10577018469186752 0.0 0.0
0.7431658254314806 0.08103570584287524 0.24142348394445362 0.42070663564415195
7.018402869945094 3.4452213580719806 1.5438281822959508 2.029353329577164
5.160857634984125 2.652559214809471 1.0247179352097335 1.4835804849649181
0.5443812639757979 0.10673867747468566 0.16557465641782407 0.2720679300832879
0.09617288815947747 0.09617288815947747 0.0 0.0
0.1664348654325841 0.1664274366140658 4.1024249203392503e-07 7.018576026238409e-06
0.30298113917198194 0.3068821747860949 -0.000971018187086815 -0.0029300174270262187
0.5822208046933047 0.5294027411384787 0.012602089038825901 0.04021597451599987
1.2962107323028746 0.7713219975709016 0.1874048514354082 0.3374838832965657
2.629851291881627 1.0200260097503895 0.6263085205274918 0.9835167616037458
4.728739801873225 1.2704425251425713 1.4908228309019813 1.9674744458286728
7.569829312673198 1.5216507836262207 2.7954059229136003 3.2527726061333753
11.149850916328148 1.7844034196230858 4.56012432853615 4.805323168168911
15.50327556141901 2.078423510150913 6.811755787044225 6.613096264223876
20.760083641042048 2.4254518133153766 9.635345932979268 8.6992858947474
26.9419238175296 2.8289104482515666 13.000218576642375 11.11279479263565
34.363292934812456 3.270389937566979 17.21414478298592 13.878758214259554
42.86814363062203 3.722547316368693 22.167884498602582 16.977711815650768
52.057856542289905 4.1175998868767 27.63098542617429 20.309271229238906
61.415600114573984 4.350414525778422 33.41362897735815 23.651556611437396
69.87140792430634 4.320980226523986 38.85974404946252 26.690683648319858
76.18330527190697 4.038326740827366 43.130649762369536 29.014328768710023
78.49092948377606 3.0239779862514937 45.293205946059935 30.173745551464695
76.18330527189534 4.038326740826381 43.13064976236262 29.01432876870632
69.87140792428386 4.3209802265213195 38.859744049449695 26.690683648312813
61.415600114543096 4.350414525775053 33.41362897734058 23.651556611427466
52.05785654225888 4.11759988687498 27.63098542615584 20.309271229228052
42.868143630583816 3.722547316362013 22.167884498583042 16.97771181563877
34.363292934777576 3.270389937564729 17.214144782966113 13.87875821424674
26.941923817495436 2.8289104482470453 13.000218576624787 11.112794792623593
20.76008364101218 2.4254518133128893 9.63534593296351 8.69928589473578
15.50327556139267 2.078423510150351 6.811755787029821 6.613096264212494
11.149850916305049 1.7844034196210306 4.560124328524831 4.805323168159186
7.569829312654759 1.5216507836248538 2.7954059229048056 3.252772606125102
4.728739801859635 1.2704425251407796 1.4908228308963736 1.967474445822481
2.6298512918729764 1.020026009748749 0.6263085205244254 0.9835167615998016
1.2962107322980696 0.7713219975692555 0.18740485143411767 0.33748388329469653
0.5822208046916098 0.5294027411376924 0.012602089038544895 0.040215974515372344
0.30298113917159886 0.3068821747855153 -0.0009710181870503332 -0.0029300174268660985
0.16643486543240865 0.16642743661389459 4.1024249179030226e-07 7.018576022264267e-06
0.09617288815930249 0.09617288815930249 0.0 0.0
0.5443812639730333 0.10673867747453591 0.16557465641666363 0.2720679300818344
5.160857634970199 2.652559214803889 1.0247179352059634 1.4835804849603471
3.7204360969253747 2.028262752717521 0.6578748680710903 1.0342984761367644
0.38515726075603 0.1428438923178238 0.07810369293022854 0.16420967550797758
0.10779019008243132 0.10779019008243132 0.0 0.0
0.1449934055930847 0.14497992858620057 9.466100070054239e-07 1.2530396877125434e-05
0.2471177484201328 0.2483812771837492 -0.0002009523390995593 -0.0010625764245168093
0.43292981761755056 0.4293095139020431 -0.0016242151547330482 0.005244518870240584
0.9147698006165501 0.6472001310894131 0.07820737650246694 0.1893622930246702
1.9862186508157122 0.9046099495655966 0.42024848022522804 0.661360221024888
3.6330285266476765 1.1290637090573064 1.0271601534960129 1.4768046640943588
5.995480157375326 1.3589689271888705 2.0735684552858227 2.5629427749006317
8.933702013967407 1.5867761305043444 3.474767485080948 3.872158398382112
12.476901987489926 1.8360662380392112 5.254278476401416 5.3865572730493
16.709021454135648 2.126885896783567 7.460428092131212 7.121707465220865
21.80038167644252 2.466410642569536 10.209203518936045 9.124767514936938
27.794110420697578 2.8542186871527986 13.505863132331191 11.434028601213601
34.71021844142366 3.2556554392337804 17.412674314995204 14.041888687194675
42.53318103873125 3.6442715773090595 22.02059879152774 16.868310669894456
50.51623660704675 3.9512890444526327 26.783955640906896 19.78099192168722
57.93333120400036 4.035588833863152 31.381738165374824 22.5160042047624
63.825526041531674 3.8285773011938655 35.28940941666802 24.707539323669813
66.057219423712 2.6469206362534874 37.48290915795715 25.92738962950134
63.82552604152121 3.828577301189747 35.289409416663965 24.70753932366745
57.93333120398722 4.035588833865696 31.381738165364837 22.516004204756705
50.516236607023544 3.951289044448433 26.7839556408949 19.780991921680194
42.53318103870936 3.644271577312306 22.020598791512143 16.868310669884913
34.710218441397004 3.2556554392327044 17.41267431497967 14.041888687184642
27.79411042067382 2.854218687155054 13.505863132315692 11.434028601203073
21.80038167641971 2.466410642570591 10.209203518922234 9.124767514926889
16.70902145411135 2.1268858967817232 7.460428092118525 7.121707465211102
12.476901987467699 1.8360662380382184 5.254278476389819 5.386557273039662
8.933702013948974 1.5867761305032513 3.474767485071835 3.872158398373891
5.995480157360554 1.3589689271873073 2.073568455279285 2.562942774893959
3.633028526637079 1.1290637090555764 1.027160153491965 1.4768046640895383
1.9862186508089086 0.9046099495640567 0.42024848022291467 0.6613602210219365
0.9147698006132338 0.6472001310878885 0.07820737650180601 0.18936229302353916
0.4329298176163844 0.4293095139010294 -0.0016242151547814104 0.005244518870136413
0.24711774841962697 0.24838127718323683 -0.00020095233909846113 -0.0010625764245113984
0.14499340559280238 0.14497992858592212 9.466100066451608e-07 1.2530396873620373e-05
0.10779019008209743 0.10779019008209743 0.0 0.0
0.3851572607540872 0.14284389231772443 0.07810369292945533 0.16420967550690754
3.720436096914608 2.028262752713004 0.6578748680684157 1.0342984761331901
2.5813943939220048 1.5272584425123976 0.37748530119950213 0.6766506502101048
0.29405098773581145 0.18406790798041778 0.03132265556438517 0.07866042419100863
0.12900994538981986 0.12900994538981986 0.0 0.0
0.1400464565446091 0.1400376571801567 5.916227772428284e-07 8.207741675143951e-06
0.21029130190903972 0.21029415694884654 -5.4812085704235365e-06 2.6261687635944806e-06
0.33305005685802697 0.34614338757939567 -0.0036574687872241943 -0.009435861934144536
0.6373596856469546 0.5400791639762985 0.022836991474220452 0.0744435301964354
1.352663543861052 0.7520912248667333 0.20011083952966088 0.40046147946465777
2.6886452628311055 0.9907991587159348 0.6927935562449468 1.005052547870223
4.464276072159006 1.1857189995619257 1.3940334904199545 1.884523582177126
6.810943116450794 1.387364940075378 2.472243414986509 2.9513347613889067
9.59053111031783 1.5979784838078372 3.8189339973433434 4.17361862916665
12.872495203114443 1.8386343817072188 5.4706526762617385 5.563208145145489
16.791913290055504 2.120610739295833 7.5101542617779415 7.16114828898173
21.458381355590028 2.445887411651374 10.000113736934686 9.01238020700397
27.029052792369363 2.8090375347018517 13.09683745849148 11.123177799176027
33.09770578090802 3.1773774241451647 16.463476331325275 13.456852025437591
39.790925772779765 3.531536676272895 20.370092706873628 15.889296389633236
46.375678880937045 3.747638570305485 24.333676293632497 18.29436401699904
51.84078740169697 3.641013960488335 27.813374461990406 20.386398979218246
54.0860142231624 2.287372248926999 30.090346713285186 21.708295260950223
51.840787401692594 3.641013960487154 27.813374461988346 20.386398979217077
46.37567888092246 3.747638570302967 24.333676293624958 18.294364016994525
39.79092577276711 3.5315366762756275 20.370092706864178 15.889296389627308
33.09770578088611 3.177377424144548 16.463476331312343 13.456852025429232
27.029052792344658 2.8090375346973073 13.096837458479488 11.123177799167857
21.45838135556573 2.4458874116468112 10.000113736923259 9.01238020699565
16.79191329003572 2.120610739295394 7.5101542617670125 7.161148288973318
12.872495203096289 1.8386343817069002 5.470652676251927 5.563208145137462
9.59053111029956 1.597978483805878 3.818933997334661 4.173618629159023
6.810943116436013 1.3873649400746875 2.4722434149793804 2.9513347613819425
4.4642760721474275 1.1857189995605804 1.3940334904150242 1.8845235821718236
2.688645262822852 0.9907991587151969 0.6927935562414671 1.005052547866188
1.3526635438561736 0.752091224865862 0.20011083952805206 0.40046147946225963
0.6373596856447037 0.540079163975241 0.022836991473819554 0.07444353019564294
0.33305005685723665 0.346143387578256 -0.0036574687871432938 -0.009435861933876013
0.21029130190860837 0.21029415694844286 -5.481208575985931e-06 2.62616874150151e-06
0.14004645654438128 0.14003765717993163 5.916227770131883e-07 8.20774167260772e-06
0.12900994538949623 0.12900994538949623 0.0 0.0
0.29405098773430405 0.18406790798017064 0.03132265556388997 0.07866042419024313
2.581394393914048 1.5272584425090314 0.3774853011976831 0.6766506502073338
1.7742646405496898 1.177302712583228 0.21920515507036964 0.37775677289609266
0.2231753375866375 0.20060448811203377 -0.0010851810199233626 0.023656030494527087
0.15208729523483766 0.1520924806806906 -2.1719582759986377e-07 -4.968250025342334e-06
0.1462937920514723 0.14628245271631257 8.207922390617571e-07 1.0518542920683493e-05
0.1883148821305674 0.18862444414166613 -3.856983039558048e-05 -0.00027099218070309193
0.2714493377210008 0.27853430167216975 -0.001733472026217308 -0.005351491924951747
0.4384363725263025 0.4296797394598797 -0.0018092055509226928 0.010565838617345412
0.8678230704514898 0.6038339796089869 0.07261900204972259 0.19137008879278036
1.7342976176622025 0.807215522390083 0.3315765498226591 0.5955055454494604
3.108591674091106 1.0072078723334 0.8716210810311336 1.2297627207265711
4.79077324104281 1.177070546577123 1.5691277661629004 2.044574928302788
6.831145517059648 1.3538497909420595 2.497680799328039 2.9796149267895484
9.234231347803888 1.552495772758052 3.653207950704673 4.028527624341162
12.070672518407866 1.7802933694203402 5.061441364715166 5.228937784272364
15.503929344936582 2.0520963916164976 6.8288978793842805 6.622935073935803
19.55290140173306 2.365607794382208 8.948815164840527 8.238478442510331
24.29860508049967 2.708545782155525 11.542439559815406 10.047619738528734
29.465417185995683 3.0861040843404095 14.365874749700085 12.013438351955193
34.88682132075907 3.423742119999146 17.410088605486635 14.052990595273293
40.04187214385641 3.466245874007032 20.5575417290197 16.01808454082967
42.41242914678222 1.9499974718865047 22.979222219841418 17.483209455054297
40.041872143851585 3.4662458740026842 20.557541729019334 16.018084540829555
34.88682132075192 3.4237421199997593 17.410088605481892 14.05299059527028
29.465417185981387 3.086104084338112 14.365874749692892 12.013438351950384
24.29860508048084 2.7085457821515204 11.542439559806699 10.047619738522616
19.552901401718614 2.3656077943826137 8.948815164831965 8.238478442504032
15.503929344922657 2.0520963916155988 6.828897879376968 6.6229350739300905
12.070672518393932 1.7802933694193175 5.06144136470809 5.228937784266523
9.234231347789105 1.5524957727559607 3.6532079506979436 4.028527624335203
6.831145517047019 1.3538497909408869 2.4976807993222416 2.979614926783891
4.7907732410313955 1.1770705465760192 1.5691277661579157 2.0445749282974606
3.108591674082624 1.0072078723323115 0.8716210810276703 1.2297627207226423
1.7342976176558154 0.8072155223876756 0.3315765498209563 0.5955055454471834
0.8678230704484479 0.603833979608508 0.07261900204880553 0.1913700887911336
0.43843637252513534 0.42967973945909654 -0.0018092055510054677 0.010565838617044106
0.27144933772051627 0.27853430167142307 -0.00173347202617942 -0.005351491924727515
0.18831488213018277 0.18862444414132137 -3.856983039870985e-05 -0.00027099218073984573
0.14629379205119353 0.14628245271603615 8.207922387916424e-07 1.0518542918553883e-05
0.15208729523451756 0.15209248068035966 -2.171958270000216e-07 -4.968250015090288e-06
0.22317533758554786 0.20060448811163983 -0.0010851810201427414 0.023656030494050823
1.7742646405442533 1.177302712580978 0.2192051550690501 0.37775677289422577
1.141559974935569 0.8746787216266453 0.08117126976284976 0.18570998354607393
0.1880887885421966 0.20272810880956996 -0.006975061472627222 -0.007664258794746061
0.1725354953459824 0.17262156440258403 -7.296353753386552e-06 -7.877270284823133e-05
0.1590189943855647 0.15904729614074237 -1.911838206656354e-06 -2.6389916971011686e-05
0.1791145645862457 0.17946090900543904 -4.725906148559172e-05 -0.0002990853577077312
0.23262138093572104 0.23537868431174114 -0.0008142410086387318 -0.0019430623673814304
0.32432785198960196 0.3357655751345883 -0.004254337895156011 -0.007183385249830464
0.5289598729623263 0.47009206552812366 0.011972149511739924 0.046895657922462565
0.9879812807255084 0.6167260314428061 0.11196458254443184 0.2592906667382704
1.8020876831465937 0.7800418623657376 0.3771596229588189 0.6448861978220383
2.89481492331662 0.9295313684650329 0.7819482336836874 1.1833353211679003
4.245643504124336 1.0811595337890634 1.3465834108567756 1.8179005594784947
5.820645306435258 1.2436641990586907 2.043324609962761 2.533656497413805
7.667523757168638 1.424210099215851 2.894542778613181 3.3487708793396065
9.902951497131914 1.6408890245650063 3.9654608441910484 4.296601628375858
12.631008911927198 1.9059585706340239 5.312916193467647 5.412134147825526
15.892861556510198 2.224265925691033 6.9591866549601695 6.709408975858992
19.59485496487626 2.5700073886134613 8.858253334063514 8.166594242199286
23.872654667027472 2.9955070601541536 11.088159757299927 9.788987849573392
28.652323528723457 3.2918774245187734 13.770128632235144 11.590317471969538
31.19994023027435 1.6670684823995958 16.22370436651373 13.309167381361027
28.65232352872857 3.2918774245227174 13.770128632235854 11.590317471970009
23.872654667019745 2.9955070601502967 11.08815975729765 9.788987849571793
19.594854964868066 2.5700073886137162 8.85825333405861 8.166594242195735
15.892861556499058 2.2242659256898354 6.959186654954575 6.70940897585465
12.631008911914536 1.9059585706311 5.31291619346227 5.412134147821166
9.902951497121464 1.6408890245628098 3.965460844186616 4.296601628372033
7.667523757159987 1.4242100992147482 2.894542778609242 3.348770879335999
5.820645306426945 1.2436641990573265 2.043324609959345 2.533656497410275
4.24564350411589 1.0811595337879039 1.3465834108532164 1.81790055947477
2.894814923310373 0.9295313684657411 0.7819482336805731 1.183335321164058
1.8020876831414694 0.7800418623649323 0.37715962295694977 0.6448861978195872
0.9879812807231492 0.6167260314419256 0.11196458254388812 0.2592906667373358
0.528959872960523 0.4700920655273825 0.011972149511409512 0.04689565792173098
0.3243278519887409 0.33576557513354727 -0.004254337895126437 -0.007183385249679909
0.23262138093526769 0.23537868431096534 -0.0008142410085929307 -0.0019430623671046116
0.1791145645858776 0.17946090900511763 -4.72590614921204e-05 -0.0002990853577478531
0.1590189943851504 0.1590472961403241 -1.91183820609508e-06 -2.638991696751545e-05
0.1725354953455246 0.17262156440210336 -7.2963537516321735e-06 -7.877270282710897e-05
0.18808878854178776 0.20272810880921707 -0.006975061472643461 -0.007664258794785947
1.1415599749320797 0.874678721624928 0.08117126976218363 0.18570998354496837
0.7361217036396364 0.667907102828082 0.01786491972962879 0.05034968108192581
0.17342881572873103 0.18536345697360068 -0.0029995971661643415 -0.008935044078705396
0.18785494901079985 0.1878723430464654 -9.224449329999089e-07 -1.6471590732581265e-05
0.17440455548449 0.17441863893562298 -6.269657850398564e-07 -1.3456485347957748e-05
0.18058065719538313 0.18057544707517367 1.3027054844710818e-06 3.90741472497188e-06
0.21226225220388517 0.2166071342407508 -0.0009369266213989225 -0.0034079554154666314
0.26722296535175744 0.27098910879169913 -0.0016735595425737063 -0.002092583897368086
0.3443561942060641 0.3273549073862389 0.002960627880916498 0.014040658938908783
0.48838374579807775 0.4040731907465258 0.02011327866527944 0.06419727638627237
0.7862451859955738 0.5077825142547777 0.08431473484404275 0.19414793689675347
1.3031390323645802 0.6263929634976776 0.245400755482303 0.43134531338459936
1.9496763772346342 0.7223634051068011 0.4618089987812396 0.7655039733465934
2.7560028210503336 0.8271691064600863 0.7708318516378342 1.1580018629524138
3.7330969087030623 0.9552359453981177 1.167727596788294 1.6101333665166517
4.917651713255233 1.1106493045720292 1.6660729882114595 2.140929420471742
6.416445730479566 1.3165275698221262 2.311662715669558 2.7882554449878825
8.35264196849745 1.592936517761689 3.170242912069481 3.5894625386662784
10.79098493938762 1.92281379790063 4.30770148250791 4.560469658979081
13.671230431566576 2.271157163674229 5.6950529326097845 5.705020335282571
17.62046006530292 2.90640541577173 7.539123863645434 7.174930785885756
21.014404147018862 1.495518742039746 10.30495885488145 9.213926550097673
17.620460065310418 2.9064054157790755 7.5391238636455435 7.174930785885794
13.671230431566519 2.2711571636748404 5.695052932609388 5.705020335282285
10.79098493938142 1.9228137979003923 4.3077014825046795 4.560469658976353
8.352641968491717 1.5929365177625556 3.1702429120659645 3.589462538663196
6.416445730472203 1.3165275698191172 2.311662715667354 2.7882554449857344
4.917651713254245 1.1106493045752581 1.6660729882094534 2.140929420469533
3.7330969086974104 0.9552359453948841 1.1677275967870833 1.6101333665154423
2.756002821047031 0.8271691064601421 0.7708318516363049 1.1580018629505826
1.949676377230581 0.7223634051062578 0.4618089987796972 0.7655039733446262
1.303139032360562 0.6263929634977136 0.2454007554806426 0.4313453133822062
0.7862451859935866 0.5077825142539577 0.0843147348436052 0.19414793689602344
0.4883837457969792 0.40407319074604153 0.02011327866510057 0.06419727638583711
0.34435619420545194 0.3273549073857802 0.002960627880855989 0.014040658938815762
0.2672229653510542 0.270989108791052 -0.0016735595425948703 -0.0020925838974029643
0.21226225220340347 0.21660713424015515 -0.0009369266213723003 -0.0034079554153794082
0.18058065719494654 0.18057544707473128 1.302705483848862e-06 3.907414731435504e-06
0.174404555484182 0.1744186389352984 -6.269657839693201e-07 -1.3456485332418166e-05
0.18785494901054384 0.18787234304619738 -9.224449321673981e-07 -1.6471590721401528e-05
0.17342881572850077 0.18536345697305137 -0.002999597166097636 -0.008935044078452968
0.7361217036377253 0.6679071028269677 0.017864919729389306 0.050349681081368246
0.47793460078791034 0.4733502239573912 0.0004448545197208021 0.004139522310798226
0.1686454508978748 0.16928589422390478 -6.183925753269022e-05 -0.0005786040684971966
0.1976058553353101 0.1977375015076066 -1.0829469176620661e-05 -0.00012081670311998238
0.189636765972805 0.1896821488614811 -2.9056090387812923e-06 -4.2477279637374475e-05
0.18991085165879976 0.19019602884657621 -4.297712657185831e-05 -0.00024220006120460468
0.21034818248608525 0.21369462724029878 -0.0007870643683448815 -0.002559380385868542
0.24979069117622107 0.25233588427423437 -0.0012532690263172951 -0.0012919240716958854
0.2943274847223993 0.2684997201078269 0.004898726327300334 0.02092903828727215
0.33120448315804785 0.2566091800371723 0.021545003703105425 0.0530502994177702
0.37444282426263986 0.21937548011910563 0.04650666921474893 0.10856067492878516
0.476396836693322 0.20722250988162358 0.09717022833662495 0.1720040984750735
0.6407797366411185 0.2200621595083228 0.15445447254640965 0.266263104586386
0.8849340378969283 0.26209143796112916 0.2431939991284853 0.37964860080731433
1.2081221574931054 0.2928326585025253 0.36793383656140605 0.5473556624291737
1.6441792569378275 0.29365726004751364 0.5575393197071078 0.7929826771832058
2.1932442036381876 0.30631709915615324 0.7975340629302432 1.0893930415517923
2.904441238797177 0.3442327664052891 1.1216477564149177 1.43856071597697
3.810058114954534 0.4164596366871292 1.543864557302797 1.8497339209646084
5.24403955788994 0.6231940784578236 2.168772046674113 2.4520734327580023
8.4443433207091 1.6071191181369069 3.216429518334689 3.620794684237506
13.98899289826892 1.3845630173394001 6.294629535976828 6.309800344952691
8.444343320709008 1.6071191181359872 3.216429518335256 3.6207946842377656
5.244039557884874 0.6231940784535026 2.1687720466736886 2.4520734327576816
3.8100581149490367 0.4164596366862114 1.5438645573004488 1.849733920962378
2.904441238796319 0.34423276640767597 1.1216477564132603 1.4385607159753797
2.193244203639943 0.30631709915920713 0.7975340629295999 1.0893930415511353
1.6441792569317837 0.29365726004455006 0.5575393197057124 0.7929826771815225
1.2081221574939232 0.2928326585042471 0.36793383656103595 0.5473556624286409
0.8849340378937831 0.26209143795975776 0.2431939991275576 0.37964860080646784
0.6407797366391556 0.22006215950786429 0.154454472545808 0.26626310458548397
0.4763968366911745 0.20722250988097052 0.09717022833596206 0.17200409847424158
0.3744428242624471 0.21937548011920416 0.04650666921467597 0.10856067492856719
0.3312044831582412 0.2566091800375334 0.021545003703046423 0.05305029941766126
0.29432748472196546 0.26849972010767775 0.0048987263272032055 0.02092903828708466
0.24979069117548044 0.2523358842735943 -0.0012532690263448894 -0.0012919240717689635
0.21034818248565354 0.21369462723963256 -0.0007870643683032042 -0.002559380385675946
0.1899108516584227 0.19019602884626535 -4.297712658139973e-05 -0.00024220006126122475
0.1896367659725182 0.18968214886121096 -2.905609040294688e-06 -4.2477279652504096e-05
0.19760585533514885 0.19773750150742087 -1.0829469173848509e-05 -0.00012081670309813153
0.16864545089757363 0.16928589422361917 -6.183925753330855e-05 -0.0005786040685123193
0.47793460078682315 0.4733502239562233 0.0004448545197128111 0.00413952231088686
0.31760408650152777 0.317647515209923 -2.4699665670363174e-06 -4.095874182818501e-05
0.160329304669842 0.1603333721629905 -3.861226354782416e-07 -3.6813705130687944e-06
0.201483679801656 0.20144578518541847 3.3794328632979007e-06 3.4515183374261804e-05
0.2026557119537898 0.20276689713683002 -1.125795999620112e-05 -9.992722304401267e-05
0.20472333595545122 0.20506205687271845 -5.748798139618038e-05 -0.0002812329358710297
0.2263117047937472 0.22846052806795533 -0.0007057791729063419 -0.001443044101301755
0.2747224161849709 0.27904110993066367 -0.0014799460417332703 -0.0028387477039596076
0.3468905269901347 0.32882085698871455 0.0034292879953578 0.014640382006062259
0.48875670438496965 0.40378940383642936 0.02034910723110943 0.06461819331743086
0.7851412784463295 0.5071491914188226 0.08408504272453055 0.19390704430297623
1.302668792903337 0.6288475074335966 0.2445492040686503 0.4292720814010902
1.955633815228671 0.7230707863930729 0.4653503810935021 0.767212647742096
2.771984384226944 0.830075222134615 0.7766435777263314 1.1652655843659958
3.7606638106192163 0.959232744488371 1.1795179303012917 1.621913135829556
4.90709615999107 1.1035476685352807 1.6651688172915222 2.138379674164265
6.182891102357591 1.2651429004761892 2.223819578398157 2.693928623483243
7.4287525664918395 1.4339333743054787 2.778038120956317 3.2167810712300406
8.458504420235254 1.6113543170787543 3.261046214819043 3.586103888337458
8.82114341216856 1.7178378782730088 3.428855744365036 3.6744497895305175
7.04743500515486 0.9225928632190783 3.02746329331958 3.0973788486162004
14.159231367737668 2.4621844884731137 5.719331503826887 5.977715375437666
7.047435005150188 0.9225928632119312 3.0274632933209005 3.0973788486173506
8.821143412171796 1.7178378782775523 3.4288557443643914 3.67444978952985
8.458504420230419 1.61135431707823 3.261046214816738 3.58610388833545
7.428752566477407 1.4339333742975786 2.778038120952916 3.2167810712269143
6.182891102345602 1.2651429004712076 2.223819578394608 2.6939286234797866
4.90709615998931 1.1035476685378114 1.6651688172895234 2.138379674161974
3.7606638106115886 0.9592327444867871 1.1795179302983534 1.6219131358264476
2.7719843842221055 0.8300752221352489 0.7766435777238906 1.1652655843629662
1.9556338152221053 0.7230707863923531 0.4653503810909493 0.767212647738802
1.3026687928985605 0.6288475074329438 0.24454920406695832 0.4292720813986586
0.7851412784433245 0.5071491914171463 0.08408504272397918 0.1939070443021991
0.4887567043838359 0.40378940383580486 0.020349107230954344 0.06461819331707655
0.3468905269895075 0.3288208569883026 0.0034292879952819155 0.014640382005922886
0.2747224161842944 0.2790411099299698 -0.0014799460417368698 -0.0028387477039385467
0.226311704793389 0.22846052806738748 -0.0007057791728722363 -0.001443044101126332
0.20472333595506656 0.20506205687208873 -5.7487981367794876e-05 -0.0002812329356543332
0.20265571195330734 0.20276689713625412 -1.1257959989446615e-05 -9.992722295730185e-05
0.20148367980123866 0.2014457851850352 3.3794328594713133e-06 3.451518334397095e-05
0.1603293046696847 0.1603333721628254 -3.861226352988379e-07 -3.681370505393053e-06
0.3176040865006843 0.31764751520905277 -2.4699665649585164e-06 -4.095874180351584e-05
0.20518809982296915 0.20518809982296915 0.0 0.0
0.146662470627416 0.14665691948970122 2.702453418794739e-07 5.280892372970864e-06
0.19861431647711222 0.19865194968119862 -3.178189904349277e-06 -3.44550141820878e-05
0.21221483071478003 0.21201376599265986 2.2529366811726783e-05 0.00017853535530847265
0.22322215455418842 0.22374088235454467 -8.299850785831875e-05 -0.0004357292924978791
0.2592033939500015 0.2662005719527291 -0.0014602425990823654 -0.005536935403645264
0.33584371223785114 0.3381250352032821 -0.0025677494443341656 0.00028642647890331436
0.5334269409851798 0.4706857710603221 0.013312947811952585 0.04942822211290521
0.9875858898116394 0.616526128543231 0.11187042689873933 0.25918933436966946
1.800060973627343 0.7798401852313648 0.376274684470691 0.6439461039252874
2.894328297262856 0.9294682801063145 0.7816721244585944 1.183187892697946
4.250160225302208 1.0818126769563308 1.3484306459243651 1.8199169024215123
5.8349235975968 1.2451498245893782 2.0498279123867524 2.5399458606206706
7.690645118326232 1.4253099625760721 2.906277634598368 3.3590575211517923
9.88901863480982 1.6293416985171876 3.9651027144174806 4.29457422187515
12.397225998356063 1.8495745864229454 5.217061344338928 5.330590067594187
15.01190867402768 2.079586342752444 6.545843028244481 6.386479303030752
17.334679823785482 2.3317530776955 7.693052566433028 7.309874179656964
18.549957135123417 2.4120413988869034 8.353274767758046 7.784640968478465
17.142637252514763 2.3944782897753267 7.647984049096878 7.100174913642556
20.763999586864134 5.373725158224307 7.893830617494643 7.496443811145172
17.142637252520732 2.3944782897783106 7.647984049098646 7.100174913643781
18.549957135121403 2.4120413988858473 8.35327476775749 7.784640968478066
17.33467982377663 2.331753077693735 7.693052566428945 7.309874179653949
15.011908674011863 2.079586342750901 6.545843028236438 6.386479303024522
12.397225998346043 1.8495745864254092 5.217061344332095 5.33059006758854
9.889018634791682 1.6293416985100637 3.9651027144115623 4.294574221870058
7.690645118316647 1.4253099625770578 2.9062776345929295 3.3590575211466622
5.8349235975835105 1.2451498245864105 2.049827912381553 2.5399458606155445
4.250160225291111 1.0818126769555405 1.3484306459193793 1.8199169024161908
2.894328297252434 0.9294682801041778 0.7816721244548374 1.1831878926934185
1.8000609736205395 0.7798401852301006 0.3762746844682797 0.6439461039221595
0.9875858898077117 0.6165261285420837 0.11187042689768878 0.25918933436793923
0.5334269409834372 0.470685771059561 0.013312947811657327 0.04942822211221888
0.33584371223693726 0.3381250352021366 -0.0025677494442948143 0.0002864264790954059
0.2592033939494841 0.2662005719520739 -0.0014602425990451005 -0.0055369354035445725
0.22322215455367767 0.22374088235406087 -8.299850786339945e-05 -0.00043572929251986417
0.21221483071435768 0.21201376599207958 2.2529366825453734e-05 0.00017853535545268994
0.19861431647673863 0.19865194968084612 -3.1781899066714387e-06 -3.4455014200814245e-05
0.14666247062728566 0.14665691948957846 2.7024534145801815e-07 5.280892365722374e-06
0.2051880998225039 0.2051880998225039 0.0 0.0
0.1263904054383728 0.1263904054383728 0.0 0.0
0.12774014100423203 0.127730768813817 6.316936465528355e-07 8.74049676847986e-06
0.1891453102878396 0.18915602520715502 -6.076566036240563e-07 -1.0107262711789667e-05
0.21781214145603836 0.21800758100741766 -2.181995019295488e-05 -0.00017361960118633562
0.24509780306860604 0.2468281252161194 -0.00031151628977654685 -0.001418805857736821
0.30276163054218025 0.3041746887860582 -0.0011338438445864323 -0.00027921439929135016
0.45665711279557397 0.441472872381087 0.001025949155602928 0.01415829125888412
0.8725238682295438 0.6049989534370956 0.07438892860582262 0.19313598618662584
1.7324945005201586 0.807144691069274 0.3308128905582166 0.5945369188926684
3.1070201622671307 1.007306466209688 0.8711059684141131 1.2286077276433294
4.79035191580734 1.176886258103365 1.5678048331334828 2.0456608245704957
6.834784322223473 1.3539759107606741 2.4995260993595996 2.981282312103202
9.241809598728231 1.5529436936975296 3.6570291548505165 4.031836750180187
12.078941608262644 1.7802005497815898 5.066130319977411 5.232610738503641
15.477761919602308 2.0401473980283567 6.821157814903033 6.616456706670918
19.36355046695706 2.314820027680001 8.869712347615383 8.179018091661675
23.633429339325623 2.5926213220568997 11.220920020833166 9.819887996435554
27.442604768895276 2.7775490917928938 13.34433413759237 11.320721539510005
29.487192077664744 2.7678199577262035 14.572922249418847 12.146449870519701
27.301638724147566 2.4438319076293236 13.471968917656083 11.385837898862153
30.683781694583846 7.961207240859064 12.185751426065519 10.536823027659269
27.301638724146798 2.443831907627751 13.471968917656563 11.385837898862478
29.487192077659728 2.767819957724487 14.572922249416838 12.146449870518401
27.442604768879505 2.777549091788967 13.344334137585317 11.320721539505218
23.633429339312343 2.5926213220615297 11.220920020822641 9.819887996428168
19.363550466939117 2.314820027677579 8.86971234760647 8.17901809165507
15.477761919587847 2.0401473980317144 6.821157814893013 6.61645670666312
12.078941608247117 1.7802005497804825 5.0661303199695125 5.232610738497117
9.241809598712202 1.552943693697529 3.6570291548419958 4.0318367501726815
6.834784322206913 1.3539759107591254 2.4995260993518915 2.9812823120958942
4.790351915793737 1.176886258103107 1.5678048331269472 2.0456608245636847
3.1070201622567497 1.0073064662085554 0.8711059684097859 1.2286077276384078
1.7324945005139403 0.8071446910684781 0.33081289055590485 0.5945369188895585
0.8725238682259893 0.6049989534364322 0.07438892860479324 0.19313598618476369
0.45665711279428123 0.4414728723801013 0.0010259491555434253 0.014158291258636303
0.3027616305415379 0.30417468878500065 -0.0011338438445411473 -0.00027921439892144597
0.2450978030681608 0.24682812521553005 -0.00031151628975832765 -0.0014188058576109944
0.2178121414557209 0.2180075810071129 -2.1819950194683965e-05 -0.00017361960119735868
0.18914531028747297 0.18915602520679364 -6.076566040686563e-07 -1.010726271655984e-05
0.12774014100400333 0.12773076881358883 6.316936464977709e-07 8.740496767980233e-06
0.12639040543817445 0.12639040543817445 0.0 0.0
0.07381914766644977 0.07381914766644977 0.0 0.0
0.10552907349801798 0.10552907349801798 0.0 0.0
0.17415892030657024 0.17414847948112128 6.169848764971448e-07 9.823840572470336e-06
0.21987132976363025 0.2197399461500244 1.6323604463049424e-05 0.00011506000914280205
0.2686956726295418 0.27060445835746233 -0.00034899896189158856 -0.0015597867660288123
0.36626718245659473 0.37663285114005 -0.003028045153688357 -0.0073376235297669245
0.6517462311084936 0.5372362990894894 0.02769477808935532 0.08681515392964853
1.3549702526133856 0.7525328943087537 0.20123716829666413 0.40120019000796786
2.686165300141951 0.9910771328920591 0.6915055086402129 1.0035826586096788
4.463296935787001 1.1859476145720897 1.3932705228517808 1.8840787983631317
6.812572959394647 1.387148911808592 2.4734262362205386 2.9519978113655143
9.59187048229512 1.5972043036779535 3.8200802595071215 4.174585919110041
12.867864348397509 1.8367206398670755 5.469238593894549 5.561905114635889
16.773613281562504 2.1181367247335485 7.501349871347041 7.154126685481912
21.418872716291265 2.4401241103020435 9.980570144633385 8.998178461355844
26.937327375575578 2.788647511989443 13.054158205625823 11.094521657960314
32.701210296282945 3.075372493281006 16.28513229581523 13.340705507186728
38.07300963089916 3.165443237692297 19.539805518317696 15.367760874889166
40.86152117260523 2.926458644946319 21.431775650704044 16.50328687695487
37.954397845610636 2.515652782174557 19.88844980703767 15.55029525639839
41.56981335952221 10.441331530179138 17.21310329281894 13.91537853652414
37.95439784561179 2.515652782177334 19.888449807036732 15.550295256397728
40.861521172597726 2.9264586449455625 21.43177565069983 16.503286876952338
38.07300963088533 3.165443237693817 19.539805518308217 15.367760874883292
32.701210296257706 3.0753724932778805 16.28513229580188 13.340705507177944
26.937327375544527 2.7886475119819885 13.05415820561178 11.094521657950756
21.41887271626698 2.4401241102994837 9.98057014462082 8.998178461346669
16.773613281538672 2.1181367247297276 7.501349871335702 7.154126685473249
12.867864348376136 1.8367206398663876 5.469238593883151 5.561905114626594
9.591870482274599 1.597204303677175 3.8200802594966663 4.174585919100755
6.812572959376276 1.3871489118077012 2.473426236211699 2.9519978113568737
4.463296935773492 1.1859476145707069 1.3932705228459703 1.8840787983568155
2.6861653001322168 0.9910771328909048 0.6915055086362379 1.003582658605074
1.354970252608394 0.7525328943077328 0.20123716829506594 0.4012001900055959
0.6517462311057383 0.5372362990878881 0.02769477808895007 0.08681515392889949
0.3662671824556985 0.37663285113901773 -0.0030280451536489465 -0.0073376235296703
0.2686956726290146 0.2706044583569368 -0.00034899896189080604 -0.001559786766031382
0.21987132976319734 0.21973994614956474 1.632360446452397e-05 0.0001150600091681278
0.1741589203062718 0.17414847948082776 6.169848761276928e-07 9.823840567913113e-06
0.10552907349777196 0.10552907349777196 0.0 0.0
0.07381914766632296 0.07381914766632296 0.0 0.0
0.040594402246950684 0.040594402246950684 0.0 0.0
0.08265800100650843 0.08265800100650843 0.0 0.0
0.1554014872550066 0.1553989579967495 1.387452495936036e-07 2.390513007501489e-06
0.21940092419006713 0.21938188661024935 3.2240314593177837e-06 1.5813548358478257e-05
0.2943168937599605 0.29530112942558917 -0.000339732229713843 -0.0006445034359149156
0.46092487437290575 0.4521459329353203 0.0006338305772522219 0.008145110860333234
0.9271163824452907 0.6488691613395872 0.08295655350380443 0.19529066760189895
1.9861023511194325 0.9051623949988334 0.4200876683700994 0.6608522877504992
3.631318836160868 1.1296255270478155 1.0262310878805634 1.4754622212324895
5.995878111278737 1.3591881484967816 2.0735961115366224 2.563093851245333
8.935748479104136 1.5864444040530599 3.4760101766502416 3.8732938984008403
12.474710544261367 1.8340670496454456 5.254178028796392 5.386465465819528
16.68782815060896 2.121088565832056 7.451772807073228 7.114966777703679
21.74741317481338 2.4597213789029397 10.18238065515929 9.105311140751152
27.740479335770246 2.8606327351022913 13.470121375008265 11.409725225659683
34.71812673870575 3.2730855248116546 17.40650724565398 14.038533968240117
42.39831788591365 3.566281909078259 21.984786649320576 16.8472493275148
49.084131390101305 3.508947521072547 26.163019816246333 19.412164052782458
52.28021800969381 2.994531891639861 28.45891839644486 20.82676772160908
48.897276377801475 2.6345740338496624 26.606439894584316 19.6562624493675
53.438410372199385 12.993128150037858 22.983643998624743 17.461638223536788
48.897276377802214 2.6345740338502286 26.606439894584426 19.65626244936756
52.28021800967709 2.9945318916348804 28.458918396437504 20.826767721604707
49.084131390077665 3.5089475210681855 26.1630198162342 19.41216405277528
42.39831788589001 3.5662819090806197 21.984786649304418 16.84724932750497
34.71812673868005 3.2730855248158948 17.406507245635805 14.038533968228363
27.740479335740872 2.860632735100965 13.470121374991601 11.409725225648309
21.74741317478551 2.459721378901336 10.182380655144055 9.105311140740115
16.687828150581453 2.121088565831125 7.451772807058222 7.1149667776921
12.474710544235684 1.8340670496447251 5.254178028782733 5.386465465808227
8.93574847908225 1.5864444040527372 3.476010176638902 3.8732938983906076
5.995878111261199 1.3591881484953217 2.073596111528566 2.5630938512373094
3.631318836149301 1.1296255270470439 1.0262310878756744 1.475462221226584
1.9861023511116433 0.9051623949964104 0.420087668367711 0.6608522877475216
0.9271163824412887 0.6488691613381472 0.08295655350286116 0.19529066760028074
0.4609248743714318 0.4521459329343011 0.0006338305771296025 0.008145110860000863
0.29431689375937664 0.29530112942473785 -0.0003397322296787532 -0.0006445034356823194
0.21940092418972146 0.21938188660989433 3.2240314598720516e-06 1.5813548367287403e-05
0.15540148725483086 0.15539895799657533 1.3874524948658373e-07 2.3905130061022167e-06
0.08265800100633666 0.08265800100633666 0.0 0.0
0.04059440224690125 0.04059440224690125 0.0 0.0
0.02095691520629884 0.02095691520629884 0.0 0.0
0.061394659334372825 0.061394659334372825 0.0 0.0
0.13515362894732053 0.13514547655525067 4.997065771355153e-07 7.652685492710979e-06
0.21810009137505426 0.21804270116140406 7.45774887713873e-06 4.993246477303221e-05
0.3292297955389344 0.33690461293698215 -0.0016920013150135249 -0.005982816083034045
0.5913834923984874 0.513670228676001 0.016909139826386248 0.06080412389609967
1.3018173301868683 0.7721622860883972 0.19029679546019013 0.3393582486382809
2.6290402588608237 1.0207408260740531 0.6254609677485721 0.9828384650381982
4.7286741741129 1.271001690656254 1.4907448140622566 1.966927669394391
7.571694676134061 1.521855370390804 2.7962872574208086 3.2535520483224447
11.15177409248229 1.7837975155593775 4.561498637436272 4.806477939486638
15.496182372650935 2.074976980038626 6.809726205710502 6.611479186901812
20.721870077107884 2.4155509769281522 9.618988770485855 8.687330329693879
26.855817470943308 2.81716177866903 12.956144808759062 11.082510883515212
34.282129847664734 3.283025818747254 17.157172602900545 13.841931426016933
42.91928022613873 3.7738890427772334 22.167339649714812 16.978051533646685
52.09268084459619 4.070583768565752 27.6819011094222 20.34019596660825
60.15953311970787 3.823730784358905 32.947796231977094 23.388006103371858
64.04436803455454 3.042360119656315 35.93391987395486 25.06808804094336
60.27470674758162 2.759256318909757 33.70725938001939 23.808191048652464
66.00205357185536 15.601958461302168 29.170582700763 21.229512409790207
60.2747067475639 2.7592563188967283 33.7072593800164 23.80819104865077
64.04436803453316 3.0423601196549557 35.93391987394195 25.068088040936228
60.15953311967789 3.823730784355537 32.94779623196009 23.38800610336225
52.092680844558835 4.070583768560761 27.681901109401828 20.340195966596234
42.91928022610265 3.7738890427743064 22.167339649694288 16.97805153363405
34.282129847627914 3.283025818744205 17.15717260288004 13.84193142600366
26.855817470910168 2.8171617786664296 12.956144808740957 11.082510883502781
20.721870077076616 2.4155509769288694 9.618988770467404 8.687330329680348
15.496182372620146 2.074976980036873 6.80972620569427 6.611479186889008
11.151774092455746 1.7837975155588803 4.561498637422236 4.806477939474629
7.571694676114037 1.521855370390433 2.796287257410712 3.25355204831289
4.728674174098176 1.2710016906547366 1.490744814056017 1.966927669387421
2.6290402588514663 1.0207408260727282 0.6254609677449858 0.9828384650337519
1.3018173301817417 0.7721622860870351 0.19029679545864556 0.33935824863606023
0.5913834923965526 0.5136702286750447 0.016909139826061723 0.06080412389544615
0.3292297955382797 0.33690461293610235 -0.001692001314961333 -0.005982816082861123
0.21810009137477726 0.218042701161109 7.457748878257229e-06 4.9932464790009034e-05
0.13515362894710736 0.13514547655503903 4.997065770194003e-07 7.65268549129789e-06
0.061394659334216194 0.061394659334216194 0.0 0.0
0.020956915206272325 0.020956915206272325 0.0 0.0
0.010291928607158617 0.010291928607158617 0.0 0.0
0.04343371273848905 0.04343371273848905 0.0 0.0
0.11580646683299634 0.11580646683299634 0.0 0.0
0.21899126833631077 0.21905792526478515 -9.473266156153219e-06 -5.718366231829825e-05
0.3794417794803347 0.38375309160724486 -0.0014254407704954546 -0.002885871356414518
0.7788050538855011 0.6111256751897438 0.049468453487285374 0.11821092520847194
1.7164961936031335 0.8733624395920006 0.305353892060063 0.5377798619510703
3.3669502755327505 1.1306663844667286 0.9105549086890987 1.3257289823769227
5.856777007701438 1.402029674132872 1.9833373601943496 2.471409973374218
9.215614295313117 1.6817778031198856 3.580180973096444 3.953655519096787
13.438500699453924 1.9813946002722882 5.708586951464309 5.748519147717331
18.623754781176196 2.3237686909032007 8.451192482279666 7.848793607993329
24.789591142050334 2.7220827318665166 11.788704033351049 10.278804376832769
32.29401659005813 3.188589691569528 16.027907943825145 13.077518954663466
41.041247839383296 3.7192513018548086 21.028144015524152 16.293852522004336
51.07348924518535 4.254626500565984 26.910658096594247 19.908204648025123
61.88575922618861 4.569337632731055 33.57259155528305 23.743830038174504
71.34367592481141 4.176797734716843 39.90100857128353 27.26586961881106
76.0526864323064 3.1053438970719713 43.637075957520906 29.310266577713538
72.29792253119126 2.843822169727078 41.389914414074 28.06418594739021
79.71239763827701 18.215417951341166 36.256112465333295 25.24086722160255
72.29792253118674 2.8438221697317303 41.389914414067974 28.064185947387045
76.05268643229456 3.1053438970822214 43.63707595750654 29.310266577705796
71.3436759247821 4.1767977347191785 39.90100857126297 27.26586961879994
61.885759226152814 4.569337632735403 33.572591555257425 23.743830038159974
51.07348924514118 4.254626500562647 26.91065809656853 19.908204648009992
41.041247839341274 3.7192513018544733 21.02814401549843 16.29385252198837
32.29401659001536 3.188589691563661 16.027907943802855 13.077518954648845
24.789591142013712 2.722082731866932 11.788704033329253 10.278804376817519
18.623754781139375 2.323768690899227 8.451192482260996 7.848793607979158
13.438500699424441 1.9813946002724356 5.70858695144801 5.748519147703999
9.215614295289207 1.6817778031178212 3.5801809730849166 3.953655519086471
5.856777007684147 1.4020296741308842 1.9833373601867799 2.4714099733664816
3.3669502755215106 1.1306663844654088 0.9105549086848065 1.3257289823712948
1.7164961935966245 0.8733624395903808 0.3053538920580013 0.5377798619482435
0.7788050538829517 0.6111256751887273 0.04946845348673046 0.11821092520749381
0.37944177947948166 0.38375309160632154 -0.0014254407704903478 -0.002885871356349654
0.2189912683358231 0.21905792526430815 -9.47326615854921e-06 -5.718366232650271e-05
0.11580646683275102 0.11580646683275102 0.0 0.0
0.04343371273838092 0.04343371273838092 0.0 0.0
0.010291928607115974 0.010291928607115974 0.0 0.0
0.005016316242016355 0.005016316242016355 0.0 0.0
0.02973663611578857 0.02973663611578857 0.0 0.0
0.09996257672027226 0.09996257672027226 0.0 0.0
0.22658106161648262 0.22679838184571555 -2.8806174770789388e-05 -0.00018851405446226386
0.45249695235660614 0.4342686031756277 0.003131729447148562 0.01509661973382991
1.024773354435213 0.7074823473471884 0.1064360797241996 0.21085492736382455
2.1786526931927255 0.9554424337373071 0.4542893688266437 0.7689208906287744
4.152395126544235 1.2356882691170639 1.2327821792166676 1.6839246782105055
7.024147873629224 1.5272316255109233 2.512050809429604 2.9848654386886952
10.901740976596397 1.839102370872693 4.401693522280668 4.660945083443037
15.818532855934393 2.1846592248510315 6.936236279464388 6.697637351618969
21.819346308659316 2.5793198007667644 10.142763973802019 9.097262534090527
29.157941723641983 3.0464663040101185 14.230414912669971 11.881060506961877
37.75673836572336 3.584748334463839 19.07098996193334 15.101000069326178
47.93591723255969 4.156322295567113 25.0184171221764 18.761177814816186
59.42247293406727 4.685962436090382 31.928179689147886 22.80833080882898
71.56763670755787 5.012127383634761 39.50235435377222 27.053154970150885
82.49108315661962 4.665351953649871 46.825488304870966 31.000242898098797
88.3328386627585 3.219594655325543 51.63683280182072 33.476411205612266
85.09871871008447 2.812137577608297 49.789597069990045 32.49698406248613
94.67273816893002 20.687984673371307 44.32090345713457 29.66385003842415
85.09871871006546 2.8121375776007618 49.78959706998255 32.496984062482156
88.33283866272875 3.2195946553198236 51.63683280180492 33.476411205604066
82.4910831565765 4.665351953643344 46.825488304847 31.000242898086135
71.56763670751374 5.01212738363542 39.502354353743236 27.05315497013511
59.4224729340219 4.685962436091161 31.92817968911857 22.808330808812176
47.93591723251621 4.156322295569013 25.018417122148016 18.761177814799165
37.75673836567691 3.584748334461719 19.070989961906236 15.101000069308977
29.15794172359946 3.0464663040109725 14.230414912644058 11.881060506944435
21.81934630861745 2.579319800763343 10.14276397377966 9.097262534074456
15.81853285590083 2.184659224849876 6.936236279446292 6.697637351604666
10.901740976568474 1.8391023708695782 4.401693522267385 4.66094508343151
7.024147873608976 1.5272316255084688 2.512050809420635 2.9848654386798743
4.152395126530484 1.2356882691149318 1.23278217921124 1.6839246782043116
2.178652693184741 0.9554424337357533 0.4542893688241443 0.7689208906248424
1.0247733544315185 0.7074823473459941 0.10643607972326657 0.21085492736225758
0.4524969523556603 0.4342686031746386 0.003131729447122251 0.015096619733899383
0.22658106161607583 0.2267983818453505 -2.8806174776941856e-05 -0.00018851405449774234
0.09996257672014462 0.09996257672014462 0.0 0.0
0.029736636115717283 0.029736636115717283 0.0 0.0
0.00501631624200194 0.00501631624200194 0.0 0.0
0.0023807076701819097 0.0023807076701819097 0.0 0.0
0.020323035097151602 0.020323035097151602 0.0 0.0
0.09105596237551514 0.09105596237551514 0.0 0.0
0.24802510590001603 0.24838945179229793 -7.900623821924298e-05 -0.0002853396540626681
0.5675408603411267 0.513556093858597 0.015133778562392276 0.03885098792013767
1.307978343492151 0.7881490368821834 0.17807853154189313 0.3417507750680746
2.703357554081143 1.04342005842311 0.6489529919928081 1.010984503665225
4.963872049724643 1.3342903564958495 1.5761626306086969 2.053419062620097
8.23862763470778 1.6486624173868103 3.0854915966584846 3.504473620662487
12.626430416591404 1.9966105398629623 5.25718546540787 5.37263441132057
18.232449827320494 2.390109044766659 8.188394731011337 7.653946051542501
25.19865667799526 2.848786035550089 11.996386035108902 10.353484607336274
33.48079865287908 3.386862023122145 16.58883461505181 13.505102014705129
43.4647410312309 3.9904255950583556 22.340000632881168 17.13431480329139
55.04545106883781 4.607217226491621 29.200707990389393 21.237525851956793
67.86677915563448 5.101829750167479 37.062190320018026 25.702759085448964
81.07054460413924 5.309632488765935 45.50129121231915 30.259620903054145
93.21913822077248 5.121693018807374 53.620419549276704 34.47702565268837
100.81379751938218 3.7548310107205585 59.56676696364482 37.492199545016774
98.7394920695821 2.498643150816523 59.047250745744684 37.19359817302096
110.88531826307428 22.03764345061235 54.11412854493459 34.73354626752732
98.73949206956677 2.498643150815921 59.047250745734864 37.19359817301598
100.81379751934745 3.7548310107183216 59.56676696362325 37.49219954500588
93.21913822072541 5.121693018803975 53.620419549247856 34.47702565267358
81.07054460408538 5.3096324887645725 45.50129121228499 30.259620903035792
67.86677915557544 5.10182975016076 37.0621903199843 25.70275908543038
55.04545106877815 4.607217226482707 29.200707990357294 21.237525851938113
43.46474103117757 3.9904255950562844 22.340000632849367 17.134314803271895
33.480798652830316 3.3868620231222333 16.588834615022215 13.505102014685875
25.198656677948023 2.848786035546586 11.996386035083168 10.353484607318268
18.232449827281947 2.390109044764489 8.188394730990556 7.653946051526918
12.626430416560511 1.9966105398611322 5.2571854653919825 5.372634411307393
8.238627634685283 1.648662417385276 3.085491596647652 3.5044736206523552
4.963872049708701 1.3342903564937223 1.5761626306020773 2.0534190626129023
2.703357554071696 1.043420058421835 0.6489529919893118 1.010984503660549
1.3079783434877985 0.7881490368812547 0.17807853154053163 0.34175077506601215
0.5675408603395349 0.5135560938574548 0.015133778562237072 0.038850987919843386
0.24802510589951615 0.24838945179168143 -7.900623820975786e-05 -0.00028533965395557254
0.0910559623753439 0.0910559623753439 0.0 0.0
0.020323035097075372 0.020323035097075372 0.0 0.0
0.0023807076701947683 0.0023807076701947683 0.0 0.0
0.0006642097530162581 0.0006642097530162581 0.0 0.0
0.01461056735690626 0.01461056735690626 0.0 0.0
0.0939804124726851 0.0939804124726851 0.0 0.0
0.2963228941401647 0.29710280160108715 -0.00023978318837283098 -0.0005401242725495757
0.7366375132453216 0.6233531983537537 0.036513602040928836 0.07677071285063891
1.6598372070474023 0.9405906976788333 0.2586114385501023 0.4606350708184667
3.290224667844991 1.2616926270138045 0.8169100417751103 1.2116219990560761
5.865923342269781 1.660131638878311 1.8631989857612166 2.3425927176302506
9.562085282553529 2.1329620772430524 3.52351336147349 3.9056098438369897
14.574498811287613 2.7160959102074793 5.939824082631049 5.918578818449085
21.043762037136407 3.4500444591576804 9.208877677869552 8.384839900109174
29.0109515949681 4.36582916724308 13.326298893416897 11.318823534308125
38.730792947241696 5.465720459908646 18.52101730323183 14.744055184101217
50.300119370336645 6.734671718168844 24.882467750029274 18.68297990213854
63.58266959973798 8.018951678514881 32.458575556332924 23.105142364890146
77.96303152171485 9.018936681596156 41.08259478121819 27.861500058900507
92.14754255336615 9.358791512490713 50.12851088808271 32.660240152792746
104.42042552206078 8.843558702725423 58.58520529950728 36.99166151982814
113.27996099400612 8.017469563943296 65.04356499033935 40.21892643972348
109.89861622634814 2.507850567891272 66.41506315220283 40.97570250625395
159.17670491020908 55.758609784266895 63.8676507658214 39.55044436012082
109.89861622632375 2.507850567882162 66.41506315219259 40.975702506249
113.2799609939736 8.017469563949367 65.04356499031351 40.21892643971066
104.42042552200047 8.843558702714668 58.58520529947448 36.99166151981137
92.14754255330939 9.358791512492726 50.12851088804398 32.6602401527727
77.96303152165656 9.018936681598158 41.08259478117917 27.861500058879173
63.58266959967669 8.018951678511659 32.45857555629598 23.105142364869067
50.3001193702815 6.734671718170993 24.882467749993445 18.68297990211707
38.73079294718476 5.465720459904505 18.52101730319963 14.744055184080633
29.010951594914452 4.36582916723707 13.326298893388547 11.318823534288832
21.04376203709134 3.4500444591518153 9.20887767784695 8.384839900092574
14.574498811254532 2.716095910206208 5.939824082613345 5.918578818434981
9.562085282527887 2.132962077240555 3.523513361461273 3.9056098438260634
5.865923342251662 1.6601316388759837 1.8631989857534665 2.342592717622209
3.290224667834475 1.261692627012601 0.8169100417709882 1.2116219990508874
1.659837207041904 0.9405906976772254 0.2586114385486724 0.46063507081600663
0.7366375132429703 0.6233531983523164 0.03651360204060498 0.07677071285004876
0.2963228941395583 0.2971028016004319 -0.00023978318835885448 -0.0005401242725147691
0.09398041247258902 0.09398041247258902 0.0 0.0
0.014610567356904166 0.014610567356904166 0.0 0.0
0.0006642097530125409 0.0006642097530125409 0.0 0.0
CELL_DATA 800
SCALARS Stress float 6
LOOKUP_TABLE default
153.4282266713163 -507.19001314561564 -182.92741651427954 -106.9688190467356 0.0 0.0
396.00313531461785 -37.41659428977133 117.29516406865612 58.83266551148012 0.0 0.0
387.46881609503765 7.6988613603707385 118.3541172317178 -4.628697451827728 0.0 0.0
448.28836276304196 -8.477805429670308 134.90760284554364 -13.454045126203898 0.0 0.0
521.5269885683259 -13.378343690365472 178.21522914620135 -11.211676871888292 0.0 0.0
590.8126380532658 -6.039168277390967 245.6476288778765 -9.610947537066194 0.0 0.0
657.7834154072191 1.845232614900965 307.27859015137824 -9.649570165539053 0.0 0.0
724.7165903811137 17.74476648574852 361.4116435874553 -10.657405360978881 0.0 0.0
792.6670630742967 40.12318342982374 411.45201775874534 -11.91539818137457 0.0 0.0
862.0274361613117 68.09496657033138 461.7652533796226 -12.85115972449677 0.0 0.0
932.2145869460451 99.97640566285676 513.4284815493447 -13.292995645162193 0.0 0.0
1002.5397421175514 135.15839565148042 566.5251612757493 -13.236882399459093 0.0 0.0
1073.0689294027945 172.00667713377862 620.4347407522591 -13.01949793512045 0.0 0.0
1144.4639670673505 211.03005406329612 675.7846137767009 -12.759050085817888 0.0 0.0
1217.4679228225027 253.29983118273523 733.5144931062586 -12.396597261410255 0.0 0.0
1291.613254888906 298.85486343017146 793.4298835014755 -11.758507724851846 0.0 0.0
1364.6226256819266 346.3713361230476 853.7455259387787 -10.637466012815933 0.0 0.0
1433.03597068448 393.4643021368943 911.5223492526354 -9.008470261045336 0.0 0.0
1493.2005067211267 437.63598860586745 963.6428365975366 -7.558140077175376 0.0 0.0
1559.6737367742262 495.3787590835042 1025.2313664944556 -9.448534456101978 0.0 0.0
1559.6737367741239 495.37875908341124 1025.231366494327 9.448534456183545 0.0 0.0
1493.2005067207679 437.63598860554316 963.6428365970738 7.558140077208936 0.0 0.0
1433.035970683998 393.4643021364724 911.5223492521552 9.008470261040529 0.0 0.0
1364.6226256824239 346.3713361236345 853.7455259390258 10.637466012733466 0.0 0.0
1291.6132548892222 298.85486343059154 793.4298835016601 11.758507724856848 0.0 0.0
1217.467922822243 253.29983118258704 733.5144931060845 12.396597261429955 0.0 0.0
1144.4639670672832 211.0300540633732 675.7846137765764 12.759050085847818 0.0 0.0
1073.0689294022538 172.00667713340508 620.4347407517746 13.019497935087315 0.0 0.0
1002.5397421167378 135.1583956508508 566.525161275114 13.236882399368863 0.0 0.0
932.2145869457507 99.97640566276917 513.4284815490884 13.292995645141044 0.0 0.0
862.0274361607953 68.09496657003312 461.7652533792485 12.851159724494131 0.0 0.0
792.667063074052 40.12318342983015 411.4520177585573 11.915398181345466 0.0 0.0
724.7165903805661 17.74476648542729 361.4116435870652 10.657405360939256 0.0 0.0
657.7834154065305 1.8452326144549573 307.2785901508593 9.649570165542332 0.0 0.0
590.812638052977 -6.039168277404933 245.64762887759417 9.610947537085323 0.0 0.0
521.5269885679188 -13.378343690535662 178.21522914591017 11.211676871821432 0.0 0.0
448.2883627628896 -8.477805429523595 134.90760284553366 13.454045126147127 0.0 0.0
387.46881609491356 7.698861360320201 118.35411723166854 4.628697451826998 0.0 0.0
396.0031353145849 -37.41659428969283 117.2951640686306 -58.83266551141423 0.0 0.0
153.4282266718163 -507.190013145108 -182.92741651377133 106.9688190463963 0.0 0.0
56.50768272652434 -536.9058413546716 -240.00760958673985 -149.87296817086013 0.0 0.0
246.81426260733912 -22.919670957203305 67.16801149531946 12.214893993342407 0.0 0.0
339.7839746267849 24.42464443175195 109.26209559123312 -10.328246335575063 0.0 0.0
409.5713243391449 -5.940788090352567 121.39204417943924 -33.0616738171425 0.0 0.0
491.8422977759615 -14.509364059124843 157.70804727855736 -31.919034489673738 0.0 0.0
565.9973921390017 -7.451635877657177 223.57848793631592 -28.48019278986086 0.0 0.0
637.1689852933489 0.24023684602489226 289.7348351309174 -28.86927201635241 0.0 0.0
705.1081204386662 15.330144499851357 347.1856804364098 -30.410682953309813 0.0 0.0
771.9706450893061 36.25640659901668 397.76334179652474 -32.317406433602926 0.0 0.0
838.7240896814633 61.90268393678127 446.35812520257366 -33.53307662639693 0.0 0.0
905.1125797615388 90.67465144371035 494.8736652696949 -33.701083981887216 0.0 0.0
971.0111876471037 121.26938407238171 543.5863198567703 -33.09905486540631 0.0 0.0
1036.5972843449536 154.03751418750562 593.0361787214623 -32.20071245110557 0.0 0.0
1103.0663695274434 188.85074917747502 643.8521301583335 -31.284712190274906 0.0 0.0
1170.8432399040212 226.3121161868863 696.5916839138869 -30.217054225536124 0.0 0.0
1239.4046363041734 266.6026796916228 751.109159395124 -28.576173704787177 0.0 0.0
1307.1164158422716 308.91457005924514 806.1837104058375 -26.029505618850234 0.0 0.0
1371.7436532461718 352.1117158812858 860.1033452708114 -22.72365743509456 0.0 0.0
1434.565401293424 398.92596066473277 914.7573900492848 -19.50864301195439 0.0 0.0
1479.8288811349498 435.0228295217405 955.2461122848371 -15.62951259479805 0.0 0.0
1479.828881135024 435.0228295218322 955.2461122849318 15.629512594954274 0.0 0.0
1434.5654012934738 398.9259606648227 914.757390049389 19.508643011983363 0.0 0.0
1371.7436532454662 352.11171588064167 860.103345270293 22.7236574351824 0.0 0.0
1307.1164158418783 308.91457005892346 806.1837104054597 26.02950561879701 0.0 0.0
1239.4046363036036 266.60267969114386 751.1091593946267 28.576173704744136 0.0 0.0
1170.8432399029355 226.31211618590467 696.5916839129519 30.217054225560187 0.0 0.0
1103.0663695266207 188.85074917679782 643.8521301577103 31.2847121903076 0.0 0.0
1036.5972843447146 154.0375141874303 593.0361787212985 32.200712451106966 0.0 0.0
971.0111876466456 121.26938407210257 543.5863198564216 33.099054865337905 0.0 0.0
905.1125797613304 90.67465144370499 494.87366526952854 33.70108398184231 0.0 0.0
838.7240896815999 61.902683937148225 446.3581252026228 33.5330766263701 0.0 0.0
771.9706450891092 36.25640659905292 397.76334179636234 32.31740643359767 0.0 0.0
705.1081204386996 15.330144500157523 347.1856804363417 30.410682953254252 0.0 0.0
637.1689852934126 0.2402368463807889 289.73483513084375 28.869272016293596 0.0 0.0
565.9973921385116 -7.451635877894816 223.57848793591594 28.48019278978606 0.0 0.0
491.8422977754067 -14.509364059472027 157.70804727821553 31.919034489579822 0.0 0.0
409.57132433881696 -5.940788090597257 121.39204417927782 33.06167381715489 0.0 0.0
339.783974626603 24.42464443145583 109.26209559109009 10.328246335690142 0.0 0.0
246.81426260747295 -22.919670956961067 67.16801149543264 -12.214893993431508 0.0 0.0
56.50768272680301 -536.9058413544066 -240.00760958641672 149.87296817056304 0.0 0.0
10.382502609338474 -539.3655436999006 -255.78022977530208 -163.85837817362872 0.0 0.0
143.23186174615714 -20.789135788949498 36.73281778716229 -40.21790541377865 0.0 0.0
276.61671371107775 28.952788212107023 91.67085057695542 -32.03172690534435 0.0 0.0
362.5855231635404 1.2908930007672077 109.24180815416044 -51.69166986036451 0.0 0.0
452.30482692883805 -12.739276472205624 138.51106507052816 -54.75550617464301 0.0 0.0
538.2542227157576 -11.30188396618453 197.6582456331738 -49.61550954762736 0.0 0.0
612.2301236566432 -0.44706879009864764 268.81772205752117 -48.38754778868552 0.0 0.0
681.0595370178207 12.919949081947141 329.4334520888772 -50.13864557437138 0.0 0.0
747.468686789793 32.47038340156777 381.5595223181769 -52.33889537201001 0.0 0.0
811.689729471503 55.56255658714769 428.7406043314385 -53.570405818916846 0.0 0.0
874.3215575390003 80.81614823055304 474.0656204975357 -53.407940950678146 0.0 0.0
935.6099266330748 107.66620707496374 518.7821200930309 -52.24078871443195 0.0 0.0
996.7574203796025 135.8283871537081 563.7940063326876 -50.84537329748063 0.0 0.0
1058.1915440447785 166.28263733131354 609.9653772532412 -49.35496872238638 0.0 0.0
1120.5251718275126 198.79694907203466 657.5435312476145 -47.621008812682284 0.0 0.0
1183.4541651226564 233.56268187827948 706.5094024972924 -45.13018105357631 0.0 0.0
1245.9599855255242 270.5507218531735 756.328662124698 -41.48945944689818 0.0 0.0
1308.0366214058627 310.9403135054964 807.5391396641194 -36.84414281299072 0.0 0.0
1365.0978117820177 351.45318267580797 856.2161588447815 -30.80572683363269 0.0 0.0
1404.2462450011078 380.45686731031435 890.1589808185832 -21.1701015755157 0.0 0.0
1404.2462450008495 380.45686731006606 890.1589808183472 21.170101575583622 0.0 0.0
1365.0978117823217 351.4531826761546 856.2161588449064 30.805726833664988 0.0 0.0
1308.0366214059668 310.94031350567843 807.5391396641525 36.84414281313297 0.0 0.0
1245.959985524872 270.5507218525976 756.3286621241247 41.489459446935754 0.0 0.0
1183.4541651221957 233.56268187791906 706.5094024968573 45.13018105363042 0.0 0.0
1120.5251718268655 198.7969490714975 657.5435312471258 47.62100881265772 0.0 0.0
1058.1915440438531 166.28263733051855 609.9653772525655 49.35496872244411 0.0 0.0
996.757420379146 135.82838715344016 563.7940063323355 50.845373297573545 0.0 0.0
935.6099266325886 107.66620707464787 518.7821200926642 52.24078871440963 0.0 0.0
874.3215575388311 80.81614823060168 474.06562049740376 53.40794095070804 0.0 0.0
811.6897294709852 55.56255658684357 428.7406043310529 53.57040581890472 0.0 0.0
747.4686867896426 32.4703834016468 381.5595223180394 52.33889537196096 0.0 0.0
681.0595370173287 12.919949081724326 329.43345208850474 50.138645574408606 0.0 0.0
612.2301236561193 -0.4470687903743453 268.81772205706795 48.38754778860408 0.0 0.0
538.2542227155491 -11.301883966096057 197.65824563295044 49.61550954750113 0.0 0.0
452.3048269285357 -12.739276472167063 138.5110650703964 54.755506174668426 0.0 0.0
362.5855231633801 1.2908930007846662 109.2418081541297 51.69166986033809 0.0 0.0
276.6167137109811 28.95278821184602 91.67085057684815 32.031726905305916 0.0 0.0
143.2318617462567 -20.789135788742133 36.732817787254355 40.2179054136292 0.0 0.0
10.382502609557491 -539.3655436995182 -255.7802297749626 163.85837817351924 0.0 0.0
-6.350006125569237 -523.4875864034434 -246.59928545067368 -166.3284392081535 0.0 0.0
84.69957824561436 -25.541397498412582 17.747454224160528 -84.65269880408854 0.0 0.0
216.47277293656208 27.938987869805487 73.32352824191025 -60.568957023802255 0.0 0.0
312.31147605683657 6.880769831212355 95.74960894979583 -71.87282395005288 0.0 0.0
403.2530643470003 -9.686395672751924 120.22672992928898 -79.01373685072686 0.0 0.0
498.2472725939287 -12.904614904967897 170.34188626483098 -72.94102779508071 0.0 0.0
580.0122312893778 -2.7762939046275186 241.7231815043471 -68.82120549556396 0.0 0.0
652.3074050555651 11.145242905493713 307.8871243874337 -70.01868617428869 0.0 0.0
718.2056902089262 28.52934420931698 361.83274647743156 -71.96721570346158 0.0 0.0
780.1767029382939 48.96785024237849 408.2506583476317 -72.97792794657539 0.0 0.0
839.2834483283016 70.8158532535699 450.842368709165 -72.41619609574636 0.0 0.0
896.5512876396476 93.75935255984135 491.88748261765403 -70.76798038225755 0.0 0.0
952.7568433267595 117.72351420907773 532.4576567961593 -68.87800676589808 0.0 0.0
1009.5092566053045 143.53954044671912 574.0473518453291 -66.96855355720956 0.0 0.0
1066.520197509034 170.8390443320144 616.406060324172 -64.6737210500944 0.0 0.0
1123.3923322743326 200.04029386782113 659.5894401022434 -61.45259265347829 0.0 0.0
1180.9675125093668 231.83607652252283 704.3613941515657 -57.04069484688829 0.0 0.0
1238.4021146601203 266.9397885910011 750.6250312563952 -51.08887747539995 0.0 0.0
1291.0328082528956 301.8460596915111 794.3077181130654 -42.073247291956086 0.0 0.0
1327.9301600527024 326.9151371076721 825.1698701264577 -27.064381043652066 0.0 0.0
1327.9301600530307 326.9151371080293 825.1698701266561 27.0643810438595 0.0 0.0
1291.0328082532233 301.8460596919001 794.3077181133478 42.07324729205505 0.0 0.0
1238.4021146605942 266.9397885915523 750.6250312567574 51.08887747548416 0.0 0.0
1180.9675125100684 231.83607652331045 704.3613941520276 57.04069484692529 0.0 0.0
1123.3923322743756 200.04029386796796 659.5894401022206 61.452592653524036 0.0 0.0
1066.520197509919 170.83904433301518 616.4060603247128 64.67372105005138 0.0 0.0
1009.5092566054849 143.5395404470593 574.0473518454164 66.9685535572542 0.0 0.0
952.7568433266922 117.7235142091581 532.4576567961243 68.8780067658686 0.0 0.0
896.5512876394434 93.75935255981655 491.8874826174558 70.76798038228156 0.0 0.0
839.2834483277286 70.81585325319769 450.8423687087263 72.41619609573698 0.0 0.0
780.1767029378238 48.967850242100425 408.25065834727246 72.9779279465305 0.0 0.0
718.2056902090012 28.529344209687224 361.8327464774269 71.96721570352695 0.0 0.0
652.3074050554649 11.14524290569144 307.8871243872932 70.01868617429773 0.0 0.0
580.0122312889473 -2.7762939047931923 241.72318150396111 68.82120549546269 0.0 0.0
498.24727259358536 -12.904614905005975 170.3418862645705 72.94102779493564 0.0 0.0
403.25306434680954 -9.686395672537856 120.22672992927966 79.01373685055955 0.0 0.0
312.3114760566401 6.880769830999468 95.74960894967437 71.87282394993088 0.0 0.0
216.47277293657118 27.938987869748374 73.32352824189586 60.56895702369549 0.0 0.0
84.6995782457366 -25.54139749809179 17.74745422429344 84.65269880391133 0.0 0.0
-6.350006125486274 -523.4875864031619 -246.59928545039415 166.3284392080471 0.0 0.0
-9.21624989283687 -496.9993695031368 -224.073470203471 -164.54741283454098 0.0 0.0
50.400358593605525 -30.983107965828772 5.825175188333022 -119.15051501824763 0.0 0.0
164.15560685446968 23.901047691418416 56.41699636376641 -89.53273571008161 0.0 0.0
259.2315468666745 10.157248085488657 80.81636073798782 -93.44103737529045 0.0 0.0
346.3849456040466 -4.941299735757723 102.93128796525706 -102.06948098038394 0.0 0.0
446.8463163618536 -13.103738312470734 142.91365261721228 -99.16643752551947 0.0 0.0
539.8881727760104 -5.953049301840284 209.5085008450129 -91.6453487357663 0.0 0.0
617.1265541086566 8.956640524971235 280.53402139689695 -90.02632327219266 0.0 0.0
683.339161054293 24.6596474830408 337.63470377744665 -91.2992830517293 0.0 0.0
743.4832949340677 42.145643576489675 384.16523447573957 -91.815888667444 0.0 0.0
799.4967071978216 60.615833467170745 424.70139105582416 -90.78059879703243 0.0 0.0
852.6068936247165 79.66165523451764 462.2292570709552 -88.64528492296434 0.0 0.0
904.4528063009932 99.50829833024318 498.80813727099417 -86.41175484264997 0.0 0.0
955.7714093335262 120.69020416339876 535.4785282651724 -84.07983731082933 0.0 0.0
1007.4151485649825 142.92982457536056 572.6859004375532 -81.33050909278343 0.0 0.0
1059.301723710895 166.48789026801632 610.6053073806848 -77.63989268915101 0.0 0.0
1110.7498179841975 192.18270865023197 649.3030990629968 -72.58733231328657 0.0 0.0
1162.6608834091785 220.97688211575877 689.6796956326143 -65.51174553739644 0.0 0.0
1211.6864445769465 250.4361746044786 728.8465218589639 -53.81085591344355 0.0 0.0
1248.5470939313655 272.91332757478267 758.3756383322673 -33.79255645218458 0.0 0.0
1248.5470939313398 272.91332757479506 758.3756383323013 33.79255645235218 0.0 0.0
1211.686444576348 250.43617460390996 728.8465218585944 53.810855913439354 0.0 0.0
1162.660883408515 220.97688211516774 689.6796956321518 65.51174553754888 0.0 0.0
1110.7498179834404 192.18270864954587 649.3030990623726 72.58733231332081 0.0 0.0
1059.3017237097238 166.48789026692262 610.60530737982 77.63989268914315 0.0 0.0
1007.4151485645568 142.92982457500125 572.685900437193 81.33050909268249 0.0 0.0
955.7714093327685 120.69020416278337 535.4785282645861 84.07983731089989 0.0 0.0
904.4528063002513 99.50829832965749 498.8081372704325 86.41175484268233 0.0 0.0
852.6068936241861 79.66165523414345 462.229257070565 88.6452849229363 0.0 0.0
799.4967071975447 60.61583346708922 424.70139105559133 90.78059879702472 0.0 0.0
743.483294933793 42.145643576446076 384.16523447551106 91.81588866744698 0.0 0.0
683.3391610538254 24.65964748283848 337.63470377709916 91.29928305175389 0.0 0.0
617.1265541079124 8.95664052450163 280.5340213963203 90.02632327222796 0.0 0.0
539.8881727750285 -5.953049302554618 209.50850084431534 91.64534873580523 0.0 0.0
446.8463163615105 -13.103738312379024 142.9136526170439 99.16643752553091 0.0 0.0
346.3849456039448 -4.941299735326289 102.93128796536105 102.06948098032477 0.0 0.0
259.2315468665776 10.15724808557164 80.8163607379843 93.44103737513518 0.0 0.0
164.15560685450382 23.90104769146966 56.416996363792045 89.53273570990012 0.0 0.0
50.4003585936725 -30.983107965562155 5.825175188433105 119.1505150180021 0.0 0.0
-9.216249892783523 -496.99936950291317 -224.0734702032141 164.54741283439495 0.0 0.0
-5.903076975292265 -463.49382398768273 -194.6701590211612 -161.39668016219545 0.0 0.0
28.506160028364217 -35.49118291624806 -2.0955068663651524 -144.65373280232836 0.0 0.0
119.01950547553068 18.582634648999363 41.280642037359 -115.44861846582434 0.0 0.0
205.45472444013996 12.127693340706973 65.27204852570097 -114.59703245375631 0.0 0.0
286.4010010901392 -0.9880656096016993 85.62872879587312 -123.57092744886877 0.0 0.0
379.7110437633647 -11.120014798603586 115.99895667803574 -125.88071999596141 0.0 0.0
482.7188379221534 -7.693651962461339 173.23677464737096 -117.71134163153532 0.0 0.0
570.2559891949393 5.1079139596292915 244.29050036889922 -111.66629570241842 0.0 0.0
641.0998876985909 20.441936628968044 306.94099902024016 -110.6187262927351 0.0 0.0
700.3500594426395 35.26115841743368 355.12789309385306 -110.13739100731263 0.0 0.0
753.3045153257207 50.07540658936581 394.27802394949066 -108.52422927424533 0.0 0.0
802.7839555811498 65.43265918768012 429.1103282729697 -105.96832483025293 0.0 0.0
850.0994303588068 81.33591024735505 461.90769009586916 -103.3453533933785 0.0 0.0
896.4192519314225 97.77635073006289 493.9449310761024 -100.80443943525668 0.0 0.0
942.8039424534845 114.94426288680408 526.0958661797234 -97.76146115824795 0.0 0.0
988.770867326411 133.29285237025874 558.5088665247697 -93.53321119966269 0.0 0.0
1034.410513773324 152.23887346640137 591.002551989648 -88.06132124544315 0.0 0.0
1079.9627629790923 173.34784638381092 624.4160632936923 -80.25266838948532 0.0 0.0
1125.1847995387288 196.8823003892605 658.7219854203956 -66.41484119031861 0.0 0.0
1163.7428078572648 217.38153622783446 688.0594663096083 -41.864212433280784 0.0 0.0
1163.7428078572848 217.3815362278848 688.0594663096012 41.86421243338948 0.0 0.0
1125.1847995379662 196.88230038855252 658.721985419868 66.41484119046261 0.0 0.0
1079.9627629789156 173.34784638375783 624.4160632936049 80.25266838971503 0.0 0.0
1034.4105137728955 152.23887346603487 591.0025519893268 88.06132124548586 0.0 0.0
988.7708673265155 133.29285237052335 558.5088665247907 93.53321119981584 0.0 0.0
942.8039424543349 114.94426288782222 526.0958661802813 97.76146115835591 0.0 0.0
896.4192519321523 97.77635073103336 493.9449310765883 100.80443943541944 0.0 0.0
850.0994303587031 81.33591024742236 461.9076900957123 103.34535339343321 0.0 0.0
802.7839555810928 65.43265918787073 429.1103282728755 105.9683248303721 0.0 0.0
753.3045153259337 50.07540658985822 394.27802394958405 108.52422927433378 0.0 0.0
700.3500594422208 35.26115841720071 355.1278930934985 110.13739100723625 0.0 0.0
641.099887697872 20.441936628406623 306.9409990196879 110.61872629263421 0.0 0.0
570.2559891943348 5.10791395922525 244.2905003683944 111.66629570228484 0.0 0.0
482.71883792144286 -7.6936519629732985 173.2367746468449 117.71134163138848 0.0 0.0
379.7110437628562 -11.120014798877637 115.9989566777637 125.880719995752 0.0 0.0
286.4010010897071 -0.9880656101006471 85.62872879560024 123.57092744863492 0.0 0.0
205.45472443987563 12.12769334042624 65.27204852553832 114.59703245352469 0.0 0.0
119.0195054755643 18.582634649099184 41.28064203739904 115.4486184656215 0.0 0.0
28.506160028435737 -35.491182916010004 -2.095506866272279 144.65373280214047 0.0 0.0
-5.903076975233716 -463.49382398727573 -194.67015902085245 161.39668016217584 0.0 0.0
-0.25514803531476105 -424.3477901022329 -162.12545083862454 -157.92659725394404 0.0 0.0
12.052504262179667 -39.786088837697875 -8.32007537265546 -162.4082636437058 0.0 0.0
79.06117229823435 13.297175563927421 27.707504358648528 -136.8281645109296 0.0 0.0
152.45381354724913 13.785601251954201 49.869937242136224 -133.89779898901543 0.0 0.0
222.75383982919158 1.6861778358567543 67.37182711914161 -142.96060579597707 0.0 0.0
304.205687817575 -7.203121811674796 90.7808292765481 -150.5767433468366 0.0 0.0
407.35160082043444 -8.064860004707104 134.6741948247681 -146.2228590487067 0.0 0.0
505.86548104785015 1.5406451699599804 199.61394474494853 -136.37449553296048 0.0 0.0
585.2334638043415 14.895378812630236 265.26882266718593 -130.91232110077092 0.0 0.0
647.6009319292434 28.119020699081688 318.02380087462734 -128.24211601104287 0.0 0.0
698.3023321614717 39.23905356325753 357.2857877415105 -125.73233792913838 0.0 0.0
744.5230238735917 51.104691974155955 390.5734744712541 -122.75179540823282 0.0 0.0
787.5281899177761 62.99507034132157 420.19447209655164 -119.81526408055166 0.0 0.0
828.727429244457 75.14276680660733 448.05899658451955 -117.0774061500578 0.0 0.0
869.1208655110315 87.0174268740673 474.827012678029 -113.9373957754022 0.0 0.0
910.4053220308156 100.1785695908712 502.41774803382185 -109.42186181665544 0.0 0.0
949.8664385959244 112.8018882674954 528.7596709901125 -103.30323154774499 0.0 0.0
987.6803583617179 125.07948917785626 554.0036461064963 -95.17870101865948 0.0 0.0
1028.4374728700157 140.43071501846524 582.0105207071189 -80.31298660868178 0.0 0.0
1070.4959698518535 159.010691723324 612.0461024654924 -52.048456721162054 0.0 0.0
1070.4959698513533 159.01069172283988 612.0461024652499 52.048456721188884 0.0 0.0
1028.4374728694706 140.4307150179694 582.0105207068299 80.31298660889108 0.0 0.0
987.6803583616287 125.07948917793001 554.0036461063893 95.17870101892545 0.0 0.0
949.8664385957508 112.80188826746698 528.7596709899161 103.30323154792691 0.0 0.0
910.4053220305375 100.1785695907704 502.41774803363484 109.42186181676851 0.0 0.0
869.1208655101467 87.01742687323946 474.8270126773994 113.93739577538385 0.0 0.0
828.7274292440069 75.14276680627525 448.05899658419753 117.07740615011647 0.0 0.0
787.5281899179373 62.995070341696234 420.194472096671 119.81526408064269 0.0 0.0
744.5230238731862 51.10469197382044 390.5734744709586 122.75179540808496 0.0 0.0
698.3023321612475 39.23905356316803 357.2857877413036 125.7323379290309 0.0 0.0
647.6009319290721 28.11902069906092 318.0238008744104 128.24211601090042 0.0 0.0
585.2334638041393 14.895378812697949 265.26882266696623 130.91232110074506 0.0 0.0
505.86548104778484 1.540645170395667 199.61394474484914 136.37449553303017 0.0 0.0
407.351600820329 -8.064860004139895 134.674194824792 146.22285904877603 0.0 0.0
304.20568781726047 -7.203121811685595 90.78082927644317 150.5767433467134 0.0 0.0
222.75383982899902 1.6861778357649326 67.37182711906512 142.96060579572963 0.0 0.0
152.45381354716667 13.785601251945433 49.86993724210946 133.89779898886076 0.0 0.0
79.06117229817991 13.297175563928494 27.70750435863252 136.8281645108079 0.0 0.0
12.052504262115614 -39.78608883780462 -8.3200753727067 162.40826364351364 0.0 0.0
-0.2551480353402269 -424.34779010205557 -162.12545083843114 157.92659725378263 0.0 0.0
3.5073162895940797 -381.12519648883 -131.4082663434475 -154.71131460930363 0.0 0.0
-3.736014694476503 -44.20994799720634 -14.383760113264838 -172.81695300539744 0.0 0.0
42.715048242935076 9.084029925809704 15.539723450623434 -153.64627633449248 0.0 0.0
100.8626112566461 15.110782158191437 34.79036126170411 -150.15441738474783 0.0 0.0
157.34018662568286 4.217756340529579 48.48122754014867 -159.55222783693222 0.0 0.0
220.44523279891294 -3.364073408583292 65.88152224379213 -170.50482975771533 0.0 0.0
308.25525783053763 -5.5775050237179045 96.12422517027258 -174.1090391600358 0.0 0.0
414.6165798584714 -0.7940617537807801 147.39688446289435 -165.1755148264217 0.0 0.0
506.3558969550709 8.67080741822294 209.13614847179903 -154.31116229246769 0.0 0.0
575.6342290332663 19.91796140833897 265.6068773283786 -147.01184199283557 0.0 0.0
628.5374369712013 28.014307974402527 308.17080261704484 -142.93602601247886 0.0 0.0
671.729724529989 36.32060950928302 341.4292252937024 -139.11690668487688 0.0 0.0
710.7829310257315 44.76784335380812 369.5581188530442 -135.8333146747197 0.0 0.0
747.0194726389103 52.60359067838326 394.13702293433886 -132.97835482747462 0.0 0.0
781.9731861400593 59.670558519733724 416.5997110508837 -129.94199625693912 0.0 0.0
817.059380524471 66.77107507241317 438.4124995183928 -125.35878567036501 0.0 0.0
852.76474468885 74.32237757152255 460.4542936662876 -118.57130396796384 0.0 0.0
883.2323281244405 77.85765637898497 477.9097022280659 -109.93984078233831 0.0 0.0
914.6861278481385 80.62961611359978 495.1302280760717 -95.43696565994846 0.0 0.0
960.8668562609403 95.60741699689899 525.2393304798819 -65.39712680563693 0.0 0.0
960.866856260668 95.60741699668074 525.2393304796249 65.39712680580192 0.0 0.0
914.6861278475426 80.62961611311383 495.130228075633 95.43696566025362 0.0 0.0
883.2323281240841 77.85765637876304 477.90970222785415 109.93984078259291 0.0 0.0
852.7647446881068 74.32237757086361 460.45429366576195 118.571303968007 0.0 0.0
817.0593805241501 66.77107507211792 438.4124995181238 125.35878567034214 0.0 0.0
781.9731861402659 59.67055852015348 416.599711050999 129.94199625707054 0.0 0.0
747.0194726388837 52.603590678460364 394.1370229342835 132.97835482747084 0.0 0.0
710.782931024868 44.76784335298011 369.55811885246567 135.83331467463415 0.0 0.0
671.7297245296289 36.32060950895577 341.42922529338375 139.11690668475956 0.0 0.0
628.5374369710455 28.014307974503204 308.17080261690484 142.93602601252618 0.0 0.0
575.6342290327833 19.917961408070816 265.60687732799875 147.01184199280206 0.0 0.0
506.3558969538856 8.670807417092448 209.13614847098586 154.31116229236125 0.0 0.0
414.61657985760024 -0.7940617544844386 147.39688446231105 165.1755148263726 0.0 0.0
308.25525783032543 -5.577505023357157 96.12422517027667 174.10903915993552 0.0 0.0
220.44523279867738 -3.364073408653762 65.88152224369574 170.50482975755455 0.0 0.0
157.34018662551313 4.217756340389823 48.48122754006263 159.5522278367498 0.0 0.0
100.86261125663505 15.110782158287261 34.79036126173036 150.15441738451972 0.0 0.0
42.71504824295109 9.084029925975171 15.539723450677878 153.64627633421065 0.0 0.0
-3.7360146945372317 -44.20994799718287 -14.383760113276146 172.81695300527878 0.0 0.0
3.507316289553252 -381.12519648849593 -131.4082663432637 154.7113146092325 0.0 0.0
-0.05126862175439584 -334.71691566970094 -107.41078890303625 -149.40908608388077 0.0 0.0
-21.223295927059596 -49.4238215039982 -21.192894939799274 -178.96269614561976 0.0 0.0
9.1057826602661 6.58285615239385 4.706295801941005 -165.9132757933824 0.0 0.0
50.783878680052744 15.93609842134806 20.01487940691981 -162.80970003308624 0.0 0.0
90.85980979831928 7.664189873436577 29.573527319216453 -171.6746551146169 0.0 0.0
132.91116981444603 -0.3508299081413604 40.11520511261133 -185.91920113624667 0.0 0.0
189.6398847002736 -2.4359069165726424 58.07253681059931 -195.30843631843493 0.0 0.0
276.4787231332889 0.22485198563972553 90.0124334437804 -194.2725887736027 0.0 0.0
378.9570166541727 4.363024647147119 136.37475438418488 -183.36796077011113 0.0 0.0
462.3293155861126 10.277499213596233 187.38452072230234 -169.58295177405074 0.0 0.0
522.0637027194226 16.805163954011483 232.52322240073966 -161.0171280912435 0.0 0.0
565.7942667169438 20.982034685078787 267.2534477866308 -155.8098430541112 0.0 0.0
602.3523534005217 26.1975413713527 296.35062051647725 -151.78051548662512 0.0 0.0
634.2720871958375 30.41545421570826 320.376743772495 -148.5771654565088 0.0 0.0
663.318562454084 32.7584469803962 340.15807727504387 -145.5192664175079 0.0 0.0
691.9247431656254 33.646393299884096 357.3590849385014 -141.37115070423755 0.0 0.0
723.7350748382231 34.904964653091156 374.947153408321 -134.35795315977606 0.0 0.0
755.3854849994615 34.87043751996205 391.5690001163241 -124.23545603231175 0.0 0.0
773.8512176862134 19.29647003715229 394.0776411311056 -110.8204999510319 0.0 0.0
820.2437935844722 22.01211732454638 417.7832829626024 -83.44885421111718 0.0 0.0
820.2437935843018 22.012117324434342 417.78328296253335 83.44885421127604 0.0 0.0
773.8512176857997 19.296470036855254 394.0776411308472 110.82049995131933 0.0 0.0
755.3854849988325 34.870437519452764 391.56900011587413 124.23545603257509 0.0 0.0
723.7350748380866 34.904964653152604 374.9471534082165 134.35795315992138 0.0 0.0
691.9247431652763 33.646393299649645 357.35908493824314 141.3711507042587 0.0 0.0
663.3185624538814 32.758446980276574 340.1580772749008 145.5192664174837 0.0 0.0
634.2720871952579 30.41545421503494 320.3767437720789 148.57716545642995 0.0 0.0
602.3523534001242 26.19754137108798 296.3506205162103 151.78051548673335 0.0 0.0
565.794266716473 20.982034684773275 267.2534477862501 155.80984305413205 0.0 0.0
522.0637027197982 16.805163954729444 232.5232224009159 161.01712809129026 0.0 0.0
462.3293155863321 10.277499214278404 187.3845207224276 169.5829517740194 0.0 0.0
378.95701665393307 4.3630246474421845 136.37475438409456 183.36796077019727 0.0 0.0
276.47872313284864 0.2248519856567448 90.01243344362076 194.27258877360188 0.0 0.0
189.63988469989164 -2.4359069169308043 58.07253681036798 195.30843631827767 0.0 0.0
132.91116981427703 -0.3508299082792208 40.11520511251571 185.91920113599568 0.0 0.0
90.85980979829328 7.664189873460166 29.573527319218847 171.6746551143841 0.0 0.0
50.783878680077386 15.93609842149391 20.01487940697136 162.80970003291588 0.0 0.0
9.105782660309853 6.5828561525955305 4.706295802014756 165.91327579317021 0.0 0.0
-21.223295927067888 -49.423821503994844 -21.19289493980128 178.96269614549504 0.0 0.0
-0.05126862188483727 -334.7169156694302 -107.41078890294831 149.40908608377097 0.0 0.0
-8.921281382093028 -286.60265265211603 -89.78224685003784 -140.48717879643362 0.0 0.0
-38.4653566289738 -54.300709403148055 -27.82707156958116 -182.4438137703856 0.0 0.0
-22.54800159640009 5.2046446403130115 -5.202854461919301 -173.99072843685056 0.0 0.0
2.277348983904727 16.554827233563454 5.64942315937145 -171.28012932634135 0.0 0.0
24.35441461266114 11.16090589435051 10.65517879604373 -179.19917157326137 0.0 0.0
42.736784379944204 3.630109999188713 14.025689816308477 -193.90792024587833 0.0 0.0
63.374177115544825 0.013775253347664496 19.611792885271704 -207.38307941731568 0.0 0.0
93.85688280731141 0.07448766822264297 29.794834862904214 -213.65365095768936 0.0 0.0
141.20299372639352 2.724325823697571 46.912293968837126 -207.57898989155427 0.0 0.0
202.30151360949407 4.356073073346234 69.28623400734976 -196.35972989079693 0.0 0.0
261.9152902878847 6.678452522983061 95.64715772179628 -182.7662239312674 0.0 0.0
309.8712910614446 7.792167156743588 121.56987975386905 -174.39384929546202 0.0 0.0
353.11448791639657 9.669977378375151 148.2803364117335 -169.1312186824257 0.0 0.0
389.6685423738879 8.970426135504951 172.3630049726884 -164.49545381925674 0.0 0.0
417.362740567352 6.702950537649983 192.08411591836585 -160.20655702870724 0.0 0.0
445.8469646461886 1.0954787195842641 209.59111073183468 -156.39883652473912 0.0 0.0
481.6974113952496 -5.636150850973621 227.88671475059198 -150.43527154582006 0.0 0.0
527.8885184432152 -10.085748537259377 251.18285548444226 -140.12493300989368 0.0 0.0
567.5978017204634 -27.050184014111466 266.59862065450704 -123.329433632033 0.0 0.0
592.1842701079809 -77.61342436065576 254.22935701893672 -104.60204733658134 0.0 0.0
592.1842701087031 -77.6134243597941 254.2293570194599 104.60204733679072 0.0 0.0
567.5978017210402 -27.050184013051535 266.59862065501454 123.32943363259052 0.0 0.0
527.8885184436136 -10.085748536637425 251.18285548475285 140.12493301024807 0.0 0.0
481.69741139514946 -5.636150851188546 227.88671475049063 150.43527154591803 0.0 0.0
445.84696464591576 1.0954787194666409 209.591110731712 156.3988365247685 0.0 0.0
417.36274056775704 6.702950538129215 192.08411591859164 160.20655702870516 0.0 0.0
389.6685423738644 8.970426135699682 172.36300497272538 164.495453819337 0.0 0.0
353.11448791601333 9.669977377601079 148.28033641134317 169.13121868252907 0.0 0.0
309.87129106151025 7.792167156920932 121.56987975390349 174.39384929547415 0.0 0.0
261.91529028805616 6.678452523320679 95.6471577218979 182.7662239312574 0.0 0.0
202.30151360950669 4.356073073669187 69.28623400743753 196.35972989063723 0.0 0.0
141.20299372598024 2.72432582308876 46.91229396851314 207.57898989157002 0.0 0.0
93.85688280700157 0.07448766767758741 29.794834862641956 213.65365095763713 0.0 0.0
63.37417711567046 0.013775253628552697 19.611792885392518 207.38307941715405 0.0 0.0
42.73678438009323 3.6301099995636315 14.025689816464547 193.90792024563163 0.0 0.0
24.354414612643126 11.160905894271686 10.65517879601567 179.19917157298235 0.0 0.0
2.2773489839638286 16.5548272336004 5.649423159400303 171.2801293261279 0.0 0.0
-22.548001596465504 5.20464464018635 -5.202854461977032 173.9907284367366 0.0 0.0
-38.46535662897815 -54.30070940318566 -27.827071569594718 182.44381377029546 0.0 0.0
-8.921281382220476 -286.6026526518504 -89.78224684999479 140.48717879626525 0.0 0.0
-19.399759774592013 -239.9404368999741 -77.79165171908527 -129.177600161818 0.0 0.0
-52.8799770997512 -55.77029825397386 -32.592847677227624 -182.19095161640885 0.0 0.0
-52.580118328512754 3.894130092956226 -14.605597195424968 -178.1716147179686 0.0 0.0
-44.650679593758156 17.046910561827588 -8.281618142139402 -175.3226110196857 0.0 0.0
-41.5402267831618 14.333209361293697 -8.160920837395269 -181.43889162615687 0.0 0.0
-47.886000394622116 7.827581003110902 -12.137386410953123 -194.87145036556396 0.0 0.0
-64.68088475879772 2.8016182522105444 -19.16861096876289 -207.50860863818596 0.0 0.0
-93.92480985095797 0.34514270346455334 -29.690862357205276 -213.76695161131744 0.0 0.0
-140.92967384923872 -2.6934669357191403 -46.811097179089586 -207.5967269063286 0.0 0.0
-202.1010000663772 -4.495791255012865 -69.27452542891342 -196.31411065265306 0.0 0.0
-262.14509210199606 -5.9953761603009745 -95.25752555240834 -182.72623677637733 0.0 0.0
-311.0164721269949 -6.857256042965517 -121.67290203131849 -174.07032368590262 0.0 0.0
-356.37773461380493 -8.18182253466378 -149.13613790285473 -168.61399200659446 0.0 0.0
-395.3851827896352 -10.627788236917198 -175.49176596671572 -164.19976587954332 0.0 0.0
-422.30330388124355 -17.21861142772481 -198.89684799375237 -161.50021521837553 0.0 0.0
-438.27150031751995 -27.65881749431631 -218.98171307517347 -161.66126204284473 0.0 0.0
-433.05937042941264 -40.60375972888866 -230.82809231906973 -163.36868101594618 0.0 0.0
-378.0512951312327 -40.7055591263302 -221.3615751654288 -164.6692881403716 0.0 0.0
-201.32506816739743 -34.66155635209424 -149.2085161534098 -166.45757659203156 0.0 0.0
21.29515712539677 -170.25443648164986 -62.90075431834573 -134.3474544727593 0.0 0.0
21.295157125281946 -170.2544364816361 -62.90075431844639 134.34745447311465 0.0 0.0
-201.32506816772246 -34.661556352454454 -149.20851615357083 166.45757659243293 0.0 0.0
-378.0512951313462 -40.70555912680038 -221.3615751655388 164.6692881406974 0.0 0.0
-433.0593704285875 -40.60375972813058 -230.82809231850888 163.36868101605194 0.0 0.0
-438.27150031630543 -27.65881749242598 -218.9817130741784 161.66126204267772 0.0 0.0
-422.30330388050186 -17.218611426571556 -198.89684799310774 161.50021521827432 0.0 0.0
-395.3851827895662 -10.62778823744246 -175.49176596676637 164.19976587959718 0.0 0.0
-356.37773461349593 -8.18182253515733 -149.13613790278117 168.61399200669393 0.0 0.0
-311.01647212676886 -6.857256043662858 -121.6729020313537 174.07032368600844 0.0 0.0
-262.1450921015924 -5.995376160829842 -95.25752555235263 182.72623677642264 0.0 0.0
-202.10100006566057 -4.49579125497289 -69.27452542868463 196.31411065256782 0.0 0.0
-140.92967384868678 -2.693466935492639 -46.81109717884108 207.59672690642623 0.0 0.0
-93.92480985084163 0.3451427032056138 -29.690862357243088 213.76695161131434 0.0 0.0
-64.68088475872302 2.8016182518424193 -19.168610968844163 207.5086086380564 0.0 0.0
-47.886000394650424 7.827581002785971 -12.137386411057872 194.871450365379 0.0 0.0
-41.54022678291052 14.33320936168394 -8.16092083720411 181.43889162593902 0.0 0.0
-44.65067959344471 17.046910562305502 -8.281618141903804 175.32261101951232 0.0 0.0
-52.58011832847839 3.8941300929715945 -14.605597195412248 178.17161471776723 0.0 0.0
-52.87997709979522 -55.77029825404089 -32.59284767726229 182.19095161631722 0.0 0.0
-19.399759774583778 -239.94043689969283 -77.79165171900176 129.1776001616565 0.0 0.0
-24.366000193519888 -195.48957160527706 -65.95667153963907 -116.37227408644505 0.0 0.0
-64.75786521015172 -54.32837803473106 -35.72551825803815 -178.03943005074058 0.0 0.0
-80.73315077798989 2.7488851056796286 -23.396535259009116 -178.22859795041725 0.0 0.0
-90.05694567120491 17.18506603604865 -21.856390318717743 -174.96587290440917 0.0 0.0
-106.04547294360574 16.88416900797401 -26.793954495936966 -178.24976627929163 0.0 0.0
-137.05690546290134 11.206171932290012 -38.24065056689754 -188.23997156472205 0.0 0.0
-190.68826175782775 5.169337206852183 -57.59708428967639 -196.2566313843669 0.0 0.0
-276.40658103633376 0.1316301933656039 -89.90340283483582 -194.49207126307988 0.0 0.0
-378.70046723961855 -4.405938777769798 -136.2877901606916 -183.40660151616652 0.0 0.0
-462.1622107309787 -10.202760422357773 -187.26523696567966 -169.52993735246486 0.0 0.0
-521.7967211344483 -16.317644318006863 -232.2273010607511 -160.85102544120954 0.0 0.0
-565.6054399889691 -19.93508595296452 -266.79802719540226 -155.35627783057126 0.0 0.0
-602.8460296447295 -24.994651765007383 -296.1029624024628 -150.8133987748492 0.0 0.0
-637.2345454847446 -31.85012398597486 -322.35367232548106 -147.7832746549853 0.0 0.0
-670.1625207795462 -41.89901657529845 -347.546833831413 -147.01669454604584 0.0 0.0
-700.6198307430591 -55.869929666238434 -372.07480545163514 -149.2042582849104 0.0 0.0
-725.1708824806129 -72.85860440315253 -394.6736524308745 -155.1241914992777 0.0 0.0
-738.316340955316 -89.36677948813738 -411.4979152143093 -164.56265313627824 0.0 0.0
-775.2291701876866 -144.31185618186785 -457.49270571460613 -173.817510796968 0.0 0.0
-755.2452077795426 -214.77667573114815 -481.79441742164306 -187.29744001831807 0.0 0.0
-755.2452077803229 -214.7766757322085 -481.7944174222408 187.2974400186696 0.0 0.0
-775.2291701882033 -144.31185618284485 -457.4927057150576 173.8175107973814 0.0 0.0
-738.3163409548249 -89.36677948780647 -411.4979152140303 164.56265313654976 0.0 0.0
-725.170882480089 -72.85860440273618 -394.6736524305584 155.12419149934942 0.0 0.0
-700.619830743523 -55.86992966686829 -372.07480545191527 149.2042582849702 0.0 0.0
-670.1625207790848 -41.899016575082115 -347.54683383113206 147.01669454610453 0.0 0.0
-637.2345454840276 -31.850123985138993 -322.3536723249167 147.78327465484637 0.0 0.0
-602.8460296443112 -24.99465176482235 -296.10296240221965 150.81339877488765 0.0 0.0
-565.6054399881923 -19.935085952281653 -266.79802719482103 155.3562778304948 0.0 0.0
-521.7967211339469 -16.317644317867504 -232.22730106037872 160.85102544117905 0.0 0.0
-462.16221073005136 -10.202760421523688 -187.2652369649638 169.52993735229052 0.0 0.0
-378.7004672387466 -4.405938777249785 -136.28779016016148 183.40660151617612 0.0 0.0
-276.4065810356187 0.13163019380346164 -89.90340283444834 194.49207126305873 0.0 0.0
-190.6882617571855 5.169337207395653 -57.59708428930779 196.2566313841842 0.0 0.0
-137.0569054624732 11.206171932734714 -38.24065056663241 188.23997156453032 0.0 0.0
-106.04547294342052 16.884169008036558 -26.793954495865535 178.24976627909896 0.0 0.0
-90.05694567114521 17.18506603590469 -21.85639031874449 174.9658729041149 0.0 0.0
-80.73315077795556 2.748885105657841 -23.39653525900778 178.22859795013215 0.0 0.0
-64.75786521011702 -54.32837803472257 -35.72551825802583 178.03943005056715 0.0 0.0
-24.366000193486187 -195.4895716051059 -65.95667153957763 116.37227408630841 0.0 0.0
-25.88026260261541 -154.21082223184425 -54.0273254503379 -102.96328478344975 0.0 0.0
-74.63508747295015 -50.39807134146308 -37.50876303554635 -169.82975821214313 0.0 0.0
-107.09932788036059 1.7962497667089847 -31.58797329347702 -174.08589568627872 0.0 0.0
-133.7212901489708 16.946570928750127 -35.02164418186122 -170.02936110005518 0.0 0.0
-168.95712597402792 18.24506080538684 -45.35027544453227 -170.05025530484443 0.0 0.0
-223.28241986755484 13.218681766592457 -63.96634240574451 -174.30789075537112 0.0 0.0
-308.443817217649 8.074473190171364 -95.58745070019773 -175.2089609537107 0.0 0.0
-414.19701695686416 0.9922899189734729 -147.22442063710753 -165.53849728893096 0.0 0.0
-506.227509587391 -8.696960405588847 -209.06354249950775 -154.28799722839005 0.0 0.0
-575.5735234842433 -19.873143675721543 -265.5605069907257 -146.9542326887382 0.0 0.0
-628.3489370243597 -27.666806848862592 -307.9625436653867 -142.80191435156706 0.0 0.0
-671.4423375029414 -35.46111879503053 -340.9402417511657 -138.6344837420722 0.0 0.0
-710.8895958960519 -43.66284962306408 -369.0735510016839 -134.654635991237 0.0 0.0
-749.0340345513571 -53.3824230479851 -395.36343664850233 -131.64485540192186 0.0 0.0
-787.7246121900848 -66.55625285201644 -422.54815850501836 -130.7923216004288 0.0 0.0
-826.1896551455536 -84.39783770365686 -451.39945477677827 -133.3420951821646 0.0 0.0
-861.8956584900886 -105.83338312753585 -480.5994358119023 -139.95039031618666 0.0 0.0
-902.5196298224585 -139.9746477160556 -518.5903311487665 -147.56014683728648 0.0 0.0
-946.6848831646171 -190.6801878296267 -566.6620810298632 -154.96291025811175 0.0 0.0
-1019.8791699244052 -309.06724559883867 -659.7691993086906 -166.18282004505926 0.0 0.0
-1019.8791699249732 -309.0672455995629 -659.7691993091346 166.1828200452975 0.0 0.0
-946.684883164542 -190.68018782976426 -566.6620810298579 154.9629102583978 0.0 0.0
-902.5196298218178 -139.97464771560294 -518.5903311483203 147.56014683754947 0.0 0.0
-861.8956584900836 -105.83338312775095 -480.5994358118457 139.95039031640263 0.0 0.0
-826.1896551452946 -84.3978377035575 -451.3994547766076 133.34209518219137 0.0 0.0
-787.7246121904515 -66.55625285252347 -422.5481585052547 130.79232160046678 0.0 0.0
-749.0340345522583 -53.38242304924428 -395.36343664913795 131.64485540210137 0.0 0.0
-710.889595896073 -43.66284962337298 -369.073551001684 134.6546359913703 0.0 0.0
-671.442337502734 -35.46111879506732 -340.94024175100407 138.6344837420817 0.0 0.0
-628.3489370241498 -27.666806848949243 -307.96254366519685 142.80191435160683 0.0 0.0
-575.5735234842155 -19.873143676221076 -265.5605069906844 146.9542326888505 0.0 0.0
-506.2275095872383 -8.696960406038198 -209.0635424993847 154.2879972285267 0.0 0.0
-414.1970169565906 0.9922899185290617 -147.22442063700623 165.5384972890731 0.0 0.0
-308.44381721730855 8.074473189678526 -95.58745070019799 175.20896095369733 0.0 0.0
-223.28241986721827 13.21868176641586 -63.966342405703244 174.30789075523245 0.0 0.0
-168.95712597402354 18.245060804861758 -45.35027544469155 170.0502553047371 0.0 0.0
-133.72129014887662 16.946570928699465 -35.02164418184918 170.02936109990216 0.0 0.0
-107.0993278802286 1.7962497668711879 -31.587973293389577 174.08589568615355 0.0 0.0
-74.63508747281922 -50.3980713413589 -37.508763035476164 169.8297582120808 0.0 0.0
-25.88026260256584 -154.21082223167167 -54.02732545027124 102.96328478340277 0.0 0.0
-26.56450235555166 -116.77249084294644 -43.001097959549426 -89.2913398785312 0.0 0.0
-83.25576137916165 -44.46002880058521 -38.314737053924055 -157.65604783101014 0.0 0.0
-131.76186870223634 1.1343496956682015 -39.18546376953371 -165.62558787570032 0.0 0.0
-175.6727464498847 15.946359918173012 -47.917159567752904 -160.68201282155937 0.0 0.0
-229.29428741962226 18.233534006722902 -63.518472549665724 -156.54545413943066 0.0 0.0
-304.37570447459024 15.397669803676454 -88.98079864298779 -155.12458642812507 0.0 0.0
-406.3225267412007 10.241356915032737 -133.87208849673635 -147.78929867656277 0.0 0.0
-505.51417133205393 -1.4082218820113432 -199.39476130825778 -136.5774632050405 0.0 0.0
-585.2531923033176 -14.980740443989127 -265.2857470350711 -130.83919561677283 0.0 0.0
-647.5763117647036 -28.103085686925986 -318.02081315184887 -128.1961483577218 0.0 0.0
-698.1807006077988 -39.00288405732735 -357.1412480612131 -125.62994240842244 0.0 0.0
-744.3468511740045 -50.53809203860429 -390.2411322420535 -122.28029742600226 0.0 0.0
-787.4744081038531 -62.06424163033305 -419.7049081323322 -118.5472665468868 0.0 0.0
-829.5868227857254 -75.00409782324533 -448.3339747113368 -115.39927214328657 0.0 0.0
-872.3423938939729 -90.79389853452508 -478.13642323892896 -114.2932238201425 0.0 0.0
-917.560260485285 -112.69851234312182 -511.95783507626135 -116.75872844521281 0.0 0.0
-966.6391943603031 -143.8656188232945 -552.279043591635 -122.63236773014896 0.0 0.0
-1021.1914587822469 -187.67780179412622 -601.8508687730041 -129.2630842741955 0.0 0.0
-1087.6090668170395 -255.380882942744 -668.967497983617 -133.85822934959342 0.0 0.0
-1173.005207522463 -375.865137399308 -770.5641541645437 -142.6321120235741 0.0 0.0
-1173.005207523183 -375.86513740005546 -770.5641541650509 142.63211202364684 0.0 0.0
-1087.6090668174575 -255.38088294334736 -668.9674979839372 133.85822934989156 0.0 0.0
-1021.1914587818151 -187.67780179383303 -601.8508687726793 129.26308427439852 0.0 0.0
-966.6391943601416 -143.86561882329784 -552.2790435914465 122.63236773026861 0.0 0.0
-917.5602604837554 -112.69851234162115 -511.95783507513124 116.75872844514157 0.0 0.0
-872.342393892652 -90.79389853322937 -478.13642323800616 114.29322382006583 0.0 0.0
-829.5868227847534 -75.00409782236517 -448.3339747106909 115.3992721432218 0.0 0.0
-787.4744081034463 -62.064241630107105 -419.70490813207914 118.54726654695814 0.0 0.0
-744.346851173774 -50.538092038600155 -390.24113224185203 122.28029742602234 0.0 0.0
-698.1807006075561 -39.002884057334526 -357.14124806101984 125.62994240839089 0.0 0.0
-647.5763117645081 -28.103085686971657 -318.0208131516381 128.19614835762252 0.0 0.0
-585.2531923028965 -14.980740443845903 -265.2857470346779 130.83919561671274 0.0 0.0
-505.5141713319213 -1.408221882341687 -199.39476130807418 136.57746320506155 0.0 0.0
-406.32252674088494 10.241356914644063 -133.87208849662863 147.78929867662126 0.0 0.0
-304.3757044738801 15.397669804143698 -88.98079864263167 155.124586427922 0.0 0.0
-229.29428741932807 18.233534006779067 -63.51847254956502 156.545454139313 0.0 0.0
-175.67274644965462 15.946359918261086 -47.917159567661706 160.68201282138997 0.0 0.0
-131.76186870214468 1.134349695630485 -39.18546376951829 165.62558787550537 0.0 0.0
-83.25576137907946 -44.460028800592674 -38.31473705390164 157.65604783082225 0.0 0.0
-26.56450235550943 -116.7724908428479 -43.00109795950719 89.29133987839029 0.0 0.0
-27.200128808736828 -83.66253285551649 -33.258798499276 -75.32824592205252 0.0 0.0
-91.23108622204909 -37.14429855951968 -38.51261543447063 -141.9601517073953 0.0 0.0
-154.93587438666327 0.8223289975094987 -46.23283136073149 -152.9131479806867 0.0 0.0
-216.0588809947688 14.171141651865797 -60.54476220243683 -146.88304498048285 0.0 0.0
-286.9546254700644 17.7620481216749 -80.95388473474162 -139.20646000467158 0.0 0.0
-378.3601670665438 17.28920599853138 -114.37261624852134 -131.00076771637157 0.0 0.0
-481.26062170210054 9.382132408643518 -172.2578001136697 -118.83140507981321 0.0 0.0
-570.1398782719343 -5.109364266076852 -244.1631725069923 -111.67162845941417 0.0 0.0
-641.2223719583346 -20.577633124777776 -307.05052643679244 -110.53179826991585 0.0 0.0
-700.3618722333703 -35.24575071219051 -355.14223620670333 -110.11539882505764 0.0 0.0
-753.2700597142149 -49.95305828115758 -394.2139090048012 -108.4301263909319 0.0 0.0
-802.7972101527146 -65.1988401657501 -429.01165303362376 -105.52820593780554 0.0 0.0
-849.9798988780492 -80.68696795836031 -461.5330284905487 -102.14879318400847 0.0 0.0
-895.8688683197545 -96.59862457131351 -493.0773946971172 -99.10487061985272 0.0 0.0
-942.7796132664168 -115.09639916057306 -526.0837424405229 -97.66331894817687 0.0 0.0
-994.4856636088994 -141.86946813651664 -565.373335323094 -99.26841542798438 0.0 0.0
-1055.3297165347662 -181.88882473504466 -615.834543177752 -104.28126238542862 0.0 0.0
-1125.71588618352 -238.98676270886122 -679.7132857764914 -109.86648458648088 0.0 0.0
-1205.850979051621 -319.1796078894462 -759.899471123329 -113.86094448714186 0.0 0.0
-1286.6765367964035 -433.0238766493529 -856.6543761420361 -125.14479019278716 0.0 0.0
-1286.676536796745 -433.0238766497972 -856.6543761422674 125.14479019298565 0.0 0.0
-1205.8509790508192 -319.17960788873916 -759.8994711227963 113.86094448730435 0.0 0.0
-1125.7158861824073 -238.9867627077882 -679.7132857757911 109.86648458653676 0.0 0.0
-1055.3297165342115 -181.88882473452975 -615.8345431773408 104.28126238541252 0.0 0.0
-994.4856636095633 -141.86946813731595 -565.3733353235413 99.2684154280208 0.0 0.0
-942.7796132668402 -115.09639916114533 -526.0837424408182 97.6633189482068 0.0 0.0
-895.8688683197804 -96.59862457148813 -493.0773946970985 99.1048706198626 0.0 0.0
-849.9798988779803 -80.68696795848696 -461.5330284904787 102.14879318405437 0.0 0.0
-802.7972101523136 -65.1988401655133 -429.01165303335694 105.52820593776752 0.0 0.0
-753.2700597140083 -49.95305828118808 -394.21390900468566 108.43012639089685 0.0 0.0
-700.3618722330996 -35.24575071214595 -355.14223620650296 110.115398824984 0.0 0.0
-641.2223719581932 -20.57763312501374 -307.0505264366529 110.53179826999181 0.0 0.0
-570.1398782712698 -5.109364265677231 -244.16317250646443 111.67162845935238 0.0 0.0
-481.26062170085504 9.382132409710708 -172.2578001128042 118.83140507970407 0.0 0.0
-378.3601670659631 17.289205998687546 -114.37261624824855 131.0007677162575 0.0 0.0
-286.9546254700442 17.762048121014427 -80.95388473493753 139.20646000454835 0.0 0.0
-216.05888099474805 14.171141651376931 -60.54476220257939 146.88304498027878 0.0 0.0
-154.9358743864691 0.8223289976386954 -46.232831360635046 152.9131479805609 0.0 0.0
-91.23108622196902 -37.144298559460964 -38.512615434429 141.96015170731204 0.0 0.0
-27.20012880870187 -83.66253285547405 -33.25879849925278 75.32824592196926 0.0 0.0
-27.910245449746633 -55.322622287841725 -24.9698603212765 -60.95225575859039 0.0 0.0
-98.69931981473681 -29.015310451135697 -38.314389079761746 -123.13972611792082 0.0 0.0
-176.86671897792024 0.7674152242000947 -52.828619728546435 -136.05435791965905 0.0 0.0
-254.43264418380215 11.437373250615995 -72.88808987585213 -128.74216084951027 0.0 0.0
-339.963718826065 17.73413233713053 -97.60910384050362 -118.01648716927528 0.0 0.0
-442.3825727151254 17.36583628308309 -140.9960288008255 -104.2479312491215 0.0 0.0
-538.69267656293 7.15980553555929 -208.58250311095986 -92.29614873556362 0.0 0.0
-617.2633091215176 -9.11263091755798 -280.59749161436486 -89.84198778133025 0.0 0.0
-683.4846179729599 -24.793417525254206 -337.7743296101787 -91.24081491921213 0.0 0.0
-743.5023323659332 -42.13266542646065 -384.1769630443864 -91.80703023617856 0.0 0.0
-799.5460511038482 -60.59467329199749 -424.71566148779743 -90.67960140419447 0.0 0.0
-852.7764933655565 -79.70446880588543 -462.33260282222295 -88.24975347674737 0.0 0.0
-904.2882801933138 -99.15001226369343 -498.5649488417217 -85.44612118559915 0.0 0.0
-954.0689892256079 -118.77307553711519 -533.7153106032159 -82.66412211447695 0.0 0.0
-1004.631421130068 -140.11592851178716 -569.879389616699 -80.76425103255755 0.0 0.0
-1062.5683980185618 -170.84246515654405 -614.1757292164682 -81.19592815996657 0.0 0.0
-1133.534389368322 -219.66324302792663 -673.940906534817 -84.82906512008523 0.0 0.0
-1218.157017938625 -289.9074402598347 -751.368602565896 -90.10613258252457 0.0 0.0
-1307.0800457951646 -378.7557155580382 -840.3256599720805 -95.95199267178528 0.0 0.0
-1385.2152156595398 -488.570857455462 -934.1795563522257 -111.79884227932897 0.0 0.0
-1385.215215658896 -488.57085745489525 -934.1795563518097 111.798842279458 0.0 0.0
-1307.0800457945707 -378.7557155575206 -840.3256599717588 95.95199267197957 0.0 0.0
-1218.1570179377593 -289.90744025902075 -751.368602565301 90.10613258254418 0.0 0.0
-1133.5343893673653 -219.6632430270078 -673.9409065339995 84.82906512005388 0.0 0.0
-1062.5683980171834 -170.842465155271 -614.1757292154803 81.19592816001344 0.0 0.0
-1004.6314211292248 -140.1159285110561 -569.8793896161206 80.76425103254844 0.0 0.0
-954.0689892253142 -118.77307553694607 -533.7153106029286 82.6641221144567 0.0 0.0
-904.2882801934189 -99.15001226402225 -498.5649488417786 85.44612118570745 0.0 0.0
-852.7764933656262 -79.70446880615897 -462.3326028222128 88.24975347672645 0.0 0.0
-799.5460511040012 -60.59467329241329 -424.7156614878571 90.67960140422447 0.0 0.0
-743.5023323660921 -42.1326654268921 -384.1769630444129 91.80703023615212 0.0 0.0
-683.4846179727715 -24.79341752536248 -337.7743296099632 91.24081491917741 0.0 0.0
-617.2633091212416 -9.1126309176136 -280.5974916140712 89.84198778134258 0.0 0.0
-538.6926765624589 7.159805535627415 -208.58250311055917 92.29614873558322 0.0 0.0
-442.38257271471804 17.365836283095533 -140.99602880058944 104.24793124903562 0.0 0.0
-339.96371882554644 17.734132337316037 -97.60910384029869 118.01648716910034 0.0 0.0
-254.43264418337094 11.437373251072394 -72.88808987558782 128.74216084943487 0.0 0.0
-176.86671897771794 0.7674152242247896 -52.82861972847854 136.05435791961736 0.0 0.0
-98.69931981461646 -29.01531045107191 -38.3143890797065 123.13972611782259 0.0 0.0
-27.91024544975338 -55.32262228783965 -24.969860321277906 60.95225575851566 0.0 0.0
-28.437366379302706 -32.166101620911604 -18.18104040006429 -46.09621930096388 0.0 0.0
-105.34697239623698 -20.583071428598366 -37.7790131474506 -101.53724234801115 0.0 0.0
-197.66547660877876 0.8161548396258169 -59.05479653074588 -115.02084089869669 0.0 0.0
-291.3972261561782 8.064331372660478 -85.01147881003374 -106.87835663119836 0.0 0.0
-391.7247457443501 17.841491516641895 -114.55371114801038 -93.58905060857049 0.0 0.0
-494.3310521155431 16.368906258814054 -167.92861390969733 -77.09743050830558 0.0 0.0
-579.6253261112292 3.1455936003641725 -241.31446021306584 -68.79620088659999 0.0 0.0
-652.5514922285107 -11.327673330755914 -308.0782035336514 -69.79906485367357 0.0 0.0
-718.3315702793475 -28.622822638968785 -361.94665151395554 -71.93830817764517 0.0 0.0
-780.2182420454019 -48.97529669354712 -408.2770465834162 -72.9747287295917 0.0 0.0
-839.3930152307659 -70.87674854868524 -450.9204744245019 -72.30261535744634 0.0 0.0
-896.7595167695331 -93.94289194147541 -492.0771496492754 -70.43408558318053 0.0 0.0
-952.4914224909 -117.51873726324868 -532.2440367294464 -68.22082388560807 0.0 0.0
-1007.4490879507828 -141.60334322481745 -572.1040488624939 -66.01609153555248 0.0 0.0
-1062.3346973060852 -166.66441636117622 -612.2633320237437 -63.83461379706067 0.0 0.0
-1122.9863379759738 -199.74296366969918 -659.0731590160874 -62.62146542581955 0.0 0.0
-1201.9583936076365 -254.8858838737799 -725.8698891870893 -64.62479406617196 0.0 0.0
-1299.013425480577 -336.45715630544237 -815.0747792375792 -70.30853931743354 0.0 0.0
-1398.485980507065 -435.6796564263286 -914.5311607988265 -79.54659357864776 0.0 0.0
-1478.5614388393155 -546.467053012287 -1010.137466230375 -100.69293635306471 0.0 0.0
-1478.5614388400822 -546.4670530130538 -1010.1374662309361 100.69293635309353 0.0 0.0
-1398.485980508417 -435.67965642779495 -914.5311607997997 79.54659357886366 0.0 0.0
-1299.0134254817597 -336.4571563067583 -815.0747792383937 70.30853931762653 0.0 0.0
-1201.958393608038 -254.88588387426125 -725.8698891873535 64.62479406617933 0.0 0.0
-1122.9863379762944 -199.74296367015748 -659.0731590161357 62.62146542595024 0.0 0.0
-1062.3346973056114 -166.66441636082862 -612.2633320232554 63.83461379706692 0.0 0.0
-1007.4490879497176 -141.6033432238806 -572.1040488616818 66.01609153555182 0.0 0.0
-952.4914224902749 -117.51873726279754 -532.2440367289511 68.22082388564712 0.0 0.0
-896.7595167683888 -93.94289194051171 -492.0771496484555 70.43408558316222 0.0 0.0
-839.3930152308276 -70.87674854899686 -450.9204744244963 72.30261535745842 0.0 0.0
-780.2182420454959 -48.97529669390129 -408.2770465834743 72.974728729581 0.0 0.0
-718.3315702792368 -28.62282263913891 -361.9466515138509 71.93830817763869 0.0 0.0
-652.5514922283705 -11.327673330913075 -308.07820353344687 69.79906485363847 0.0 0.0
-579.6253261107245 3.1455936005448244 -241.31446021261618 68.79620088655535 0.0 0.0
-494.33105211515397 16.368906258823472 -167.92861390941582 77.0974305082841 0.0 0.0
-391.72474574397756 17.8414915164392 -114.55371114794767 93.58905060860998 0.0 0.0
-291.39722615578927 8.064331372849523 -85.01147880986923 106.8783566311104 0.0 0.0
-197.66547660855247 0.8161548396984148 -59.054796530656205 115.02084089861343 0.0 0.0
-105.34697239610702 -20.583071428597567 -37.77901314741137 101.5372423478681 0.0 0.0
-28.437366379277485 -32.16610162089545 -18.18104040005188 46.09621930089983 0.0 0.0
-28.14089730101789 -14.590203552942882 -12.81933025618823 -30.89209330578435 0.0 0.0
-110.27254558174317 -12.260988910789829 -36.76006034775989 -77.33731517182878 0.0 0.0
-217.5467114370269 0.5476939213502039 -65.09970525470298 -89.73598675306918 0.0 0.0
-327.7707943331781 5.5937173199297 -96.65703754427454 -81.59454455096852 0.0 0.0
-439.00301520836274 17.90609044125705 -132.2349114959571 -66.53628477188286 0.0 0.0
-535.5413102673771 12.884306837151179 -195.65920364594632 -51.99476847005071 0.0 0.0
-612.4923358245921 0.21771079540641125 -269.00851161767105 -48.10047269483676 0.0 0.0
-681.3056292739853 -13.050652075686983 -329.6423698818793 -49.94941414325499 0.0 0.0
-747.5567167913923 -32.512041284245726 -381.62782066078114 -52.329848998759644 0.0 0.0
-811.7641063937405 -55.60492138245778 -428.79603651834367 -53.56698268888167 0.0 0.0
-874.4563134078271 -80.9338031469104 -474.1835913574545 -53.293906367610404 0.0 0.0
-935.7211631590633 -107.83567132323674 -518.9192312421915 -51.99070323984851 0.0 0.0
-996.3518122685828 -135.62412529228808 -563.5074620483233 -50.4722270976523 0.0 0.0
-1056.4341240793442 -164.84737505847698 -608.4073773324112 -48.85825914211608 0.0 0.0
-1116.9251115233074 -195.43177046382783 -654.1002282883185 -46.85759535726553 0.0 0.0
-1180.5911996184 -230.71787756665987 -703.5942210116663 -44.39394565669673 0.0 0.0
-1257.7814368208253 -283.26546457980413 -768.1599483100954 -44.05627191134983 0.0 0.0
-1366.751904017001 -375.56653331281814 -868.4757719154908 -49.90168340194407 0.0 0.0
-1482.9402333298178 -490.3561741714186 -984.1227338456144 -63.46250772690223 0.0 0.0
-1575.1402241303808 -611.2789905400124 -1091.0832466572392 -90.5782611803875 0.0 0.0
-1575.1402241299159 -611.2789905395321 -1091.083246656857 90.57826118036361 0.0 0.0
-1482.9402333284054 -490.35617417005324 -984.122733844541 63.462507726995206 0.0 0.0
-1366.7519040151117 -375.56653331095686 -868.475771914113 49.901683401908656 0.0 0.0
-1257.781436820253 -283.26546457929965 -768.159948309622 44.0562719112833 0.0 0.0
-1180.591199618334 -230.71787756670372 -703.594221011652 44.39394565674808 0.0 0.0
-1116.925111524336 -195.4317704649985 -654.1002282890663 46.85759535728793 0.0 0.0
-1056.4341240799058 -164.8473750592309 -608.407377332857 48.858259142269944 0.0 0.0
-996.351812268889 -135.6241252927908 -563.5074620485075 50.47222709775356 0.0 0.0
-935.7211631582458 -107.83567132262552 -518.9192312415701 51.99070323991687 0.0 0.0
-874.4563134073519 -80.93380314666973 -474.18359135710705 53.29390636762858 0.0 0.0
-811.7641063930184 -55.604921381967735 -428.79603651786374 53.56698268886218 0.0 0.0
-747.5567167905931 -32.512041283684354 -381.627820660236 52.32984899870765 0.0 0.0
-681.30562927336 -13.05065207529939 -329.6423698814054 49.949414143115035 0.0 0.0
-612.4923358241791 0.21771079549586148 -269.00851161728417 48.10047269485043 0.0 0.0
-535.5413102667619 12.884306837463601 -195.65920364548202 51.99476847006132 0.0 0.0
-439.00301520802947 17.906090441148162 -132.23491149583634 66.53628477184529 0.0 0.0
-327.77079433289043 5.593717319858096 -96.65703754421833 81.5945445508732 0.0 0.0
-217.54671143679894 0.5476939214478809 -65.09970525460533 89.73598675291973 0.0 0.0
-110.2725455815865 -12.260988910698288 -36.76006034768543 77.3373151717327 0.0 0.0
-28.140897300981525 -14.590203552902516 -12.81933025616521 30.892093305752326 0.0 0.0
-25.764225198720485 -2.9166389671219743 -8.604259249752735 -15.85356349973349 0.0 0.0
-111.82187792608352 -4.602243607348946 -34.92723646002973 -50.51214315446092 0.0 0.0
-236.7183299330222 -0.13263110478476925 -71.05528831134208 -59.683057368806836 0.0 0.0
-365.5252682793262 4.39619996360883 -108.31856791247549 -53.063994850575874 0.0 0.0
-479.14571659918136 18.18209055535768 -150.69334909596668 -39.35039112545411 0.0 0.0
-565.0087141778494 7.4055080717274215 -222.53084046215616 -29.28372761293629 0.0 0.0
-637.8341332699499 -0.7958611567137481 -290.36786362071956 -28.598656665170182 0.0 0.0
-705.2214413506715 -15.389444276709341 -347.3150211081498 -30.284400007874456 0.0 0.0
-772.0297337251029 -36.255175661206266 -397.794886225194 -32.314124353966776 0.0 0.0
-838.833700497627 -61.98705607793664 -446.449232045199 -33.5261761772299 0.0 0.0
-905.2291549374659 -90.81070898710864 -494.9948099713705 -33.61213463465099 0.0 0.0
-970.9487059845649 -121.32265867480939 -543.5827098574213 -32.94866475018693 0.0 0.0
-1036.067351141855 -153.76185524709396 -592.6447615432 -32.03708631433189 0.0 0.0
-1101.890372295666 -188.06201314976005 -642.8855184719782 -31.077291793954036 0.0 0.0
-1169.1846735894403 -225.13481195530736 -695.1834013048183 -29.692397590189824 0.0 0.0
-1237.7085423569965 -265.5015622244551 -749.6931284644111 -27.150100550307748 0.0 0.0
-1309.7486490780952 -312.84054303002813 -809.2431329436236 -24.4254929325367 0.0 0.0
-1403.1677908308889 -388.2062648289903 -893.0910895659167 -27.96979297329731 0.0 0.0
-1564.3743727090323 -545.1455027658128 -1052.0877648345627 -45.52985409556807 0.0 0.0
-1685.1647596267317 -691.3715429706499 -1186.365790728564 -80.46384698867567 0.0 0.0
-1685.164759626629 -691.3715429705379 -1186.3657907285478 80.46384698861937 0.0 0.0
-1564.3743727083847 -545.1455027652157 -1052.0877648341411 45.52985409571897 0.0 0.0
-1403.1677908297515 -388.2062648279142 -893.0910895650512 27.969792973326285 0.0 0.0
-1309.7486490774056 -312.84054302941627 -809.2431329430901 24.425492932482086 0.0 0.0
-1237.708542355745 -265.50156222329247 -749.6931284634592 27.150100550241866 0.0 0.0
-1169.1846735878094 -225.13481195378034 -695.1834013035727 29.69239759017389 0.0 0.0
-1101.8903722946347 -188.06201314889032 -642.8855184711063 31.07729179405498 0.0 0.0
-1036.0673511418397 -153.76185524725662 -592.644761543066 32.037086314380396 0.0 0.0
-970.9487059840366 -121.32265867449293 -543.5827098570293 32.948664750229 0.0 0.0
-905.2291549373094 -90.81070898718079 -494.9948099712184 33.61213463466371 0.0 0.0
-838.833700497062 -61.98705607761039 -446.4492320447549 33.52617617720394 0.0 0.0
-772.0297337250802 -36.25517566145428 -397.7948862251191 32.31412435399588 0.0 0.0
-705.2214413500808 -15.389444276402386 -347.31502110768844 30.28440000791985 0.0 0.0
-637.8341332693765 -0.7958611564384057 -290.3678636202411 28.59865666518128 0.0 0.0
-565.0087141777467 7.405508071446651 -222.53084046197165 29.283727612970594 0.0 0.0
-479.14571659897047 18.18209055517468 -150.69334909585908 39.35039112549927 0.0 0.0
-365.5252682788275 4.3961999639338485 -108.31856791223925 53.063994850580855 0.0 0.0
-236.7183299328426 -0.13263110481759632 -71.05528831129806 59.68305736873852 0.0 0.0
-111.82187792593619 -4.602243607346807 -34.92723645998489 50.51214315445238 0.0 0.0
-25.764225198751973 -2.916638967135853 -8.604259249766347 15.85356349972281 0.0 0.0
-18.893564471547023 2.647712132578188 -4.87375570169065 -2.206288445496444 0.0 0.0
-107.15822515880113 1.6837887108543033 -31.64233093438404 -20.572059171713153 0.0 0.0
-255.9458202819 -1.5747412217814851 -77.25616845110443 -23.75190257768701 0.0 0.0
-405.14548673925435 5.903124555725981 -120.30921219591146 -21.556433982528233 0.0 0.0
-514.2067009656973 15.847288886471034 -171.56888077612484 -13.588214863853043 0.0 0.0
-591.621773948902 4.339120553065236 -246.1839362981142 -9.463664699130472 0.0 0.0
-658.3337344122095 -2.297812614553848 -307.8549526813754 -9.570243371010625 0.0 0.0
-724.9098195867513 -17.771474990291082 -361.56515136250795 -10.59624881952628 0.0 0.0
-792.7169428494935 -40.10370426388601 -411.4686707786633 -11.904619736844982 0.0 0.0
-862.1472845729799 -68.1991676376563 -461.8703377101733 -12.843728514517217 0.0 0.0
-932.2906397935205 -100.10223605967951 -513.528336369945 -13.255504136497194 0.0 0.0
-1002.306009424492 -135.07216671784147 -566.3690483241373 -13.191194098606326 0.0 0.0
-1072.4714420584517 -171.6672944478561 -619.9690767732973 -12.97920362968565 0.0 0.0
-1143.9498689492648 -210.90862358359135 -675.4623246003512 -12.649436599085764 0.0 0.0
-1217.8892253968272 -254.39436946450536 -734.2523109918875 -11.974434246757944 0.0 0.0
-1293.5107884201548 -302.11482236299724 -795.9664895164337 -10.533256020008867 0.0 0.0
-1366.8829260849168 -351.44378044646203 -857.3069632704675 -7.826956735355391 0.0 0.0
-1437.4465907648112 -403.7181711655948 -918.4687333184557 -6.5081198017235184 0.0 0.0
-1539.1216259879932 -496.97753155006706 -1015.2139485932233 -20.990469103790915 0.0 0.0
-1881.0644363321526 -856.1976683688868 -1366.7174941079202 -65.17543566819208 0.0 0.0
-1881.064436331987 -856.1976683687309 -1366.7174941077255 65.17543566819037 0.0 0.0
-1539.1216259876292 -496.9775315497458 -1015.2139485928496 20.990469103863404 0.0 0.0
-1437.4465907640017 -403.71817116484647 -918.4687333177787 6.508119801737962 0.0 0.0
-1366.8829260848875 -351.44378044652706 -857.3069632703669 7.826956735313459 0.0 0.0
-1293.5107884206593 -302.1148223636111 -795.9664895167681 10.533256019998925 0.0 0.0
-1217.889225397101 -254.39436946490622 -734.2523109920386 11.974434246743014 0.0 0.0
-1143.9498689498796 -210.9086235843668 -675.462324600747 12.649436599139964 0.0 0.0
-1072.4714420581822 -171.66729444775802 -619.9690767730997 12.979203629630797 0.0 0.0
-1002.3060094236342 -135.07216671718498 -566.3690483235018 13.191194098587918 0.0 0.0
-932.2906397929744 -100.10223605935562 -513.5283363695287 13.255504136489755 0.0 0.0
-862.1472845729821 -68.19916763791497 -461.87033771014404 12.843728514536323 0.0 0.0
-792.7169428493097 -40.103704263973924 -411.46867077852244 11.904619736894071 0.0 0.0
-724.9098195863708 -17.771474990184238 -361.5651513622281 10.59624881953749 0.0 0.0
-658.3337344122145 -2.2978126148730738 -307.8549526812949 9.570243370910648 0.0 0.0
-591.621773948783 4.339120552864745 -246.1839362979136 9.463664699173641 0.0 0.0
-514.2067009650651 15.847288886828688 -171.56888077570883 13.588214863968743 0.0 0.0
-405.1454867387764 5.903124555782042 -120.30921219576322 21.556433982536824 0.0 0.0
-255.94582028171192 -1.5747412218594867 -77.25616845107142 23.75190257768274 0.0 0.0
-107.15822515872962 1.6837887107934506 -31.642330934380848 20.57205917175799 0.0 0.0
-18.89356447150282 2.647712132588362 -4.873755701674337 2.20628844554982 0.0 0.0
SCALARS Strain float 6
LOOKUP_TABLE default
0.009993872579636964 -0.011067250985614119 0.0 -0.006042100138081624 0.0 0.0
0.002104109483764065 -0.0011523460735770596 0.0 0.0010244923224900782 0.0 0.0
0.0017435105375310546 -0.000716466948156802 0.0 -5.9611033660145196e-05 0.0 0.0
0.0021186413540167683 -0.0009692050336589375 0.0 -0.0001839739926046413 0.0 0.0
0.003028509904917336 -0.0016557821568690123 0.0 -0.00022026729802826495 0.0 0.0
0.004880244940916604 -0.003219402743609101 0.0 -0.0003125093181120808 0.0 0.0
0.007769698678390615 -0.0058358842020436175 0.0 -0.000473945762615835 0.0 0.0
0.011837538411320035 -0.009629792410411397 0.0 -0.000710828674056696 0.0 0.0
0.01715234361321477 -0.014663859084689035 0.0 -0.0010302759112727211 0.0 0.0
0.02372682052682852 -0.020943045214605993 0.0 -0.0014066820711344519 0.0 0.0
0.03158580577826993 -0.028494566829953438 0.0 -0.0017940941336249128 0.0 0.0
0.04079680499894367 -0.03738835840085408 0.0 -0.0021920365521905516 0.0 0.0
0.05143884087554211 -0.04770782018096442 0.0 -0.0026090607680577804 0.0 0.0
0.0635578112087398 -0.059495253938925075 0.0 -0.003046459683460928 0.0 0.0
0.07704154858837634 -0.07263298409415331 0.0 -0.003505231337645104 0.0 0.0
0.09146073564096126 -0.08669293963732017 0.0 -0.003906207791391947 0.0 0.0
0.10599290831961432 -0.10086342934412684 0.0 -0.004068230620863533 0.0 0.0
0.11945912494656533 -0.11398307970241728 0.0 -0.003753880266992915 0.0 0.0
0.13044243430777325 -0.12465347564392415 0.0 -0.002997073480299428 0.0 0.0
0.13717472959910226 -0.13101416187439785 0.0 -0.002742161654601616 0.0 0.0
0.1371747295990945 -0.13101416187439074 0.0 0.0027421616546072225 0.0 0.0
0.1304424343077505 -0.12465347564390372 0.0 0.0029970734803154153 0.0 0.0
0.11945912494652391 -0.11398307970237864 0.0 0.003753880266999521 0.0 0.0
0.1059929083195642 -0.100863429344074 0.0 0.004068230620867919 0.0 0.0
0.09146073564090626 -0.08669293963726332 0.0 0.0039062077913849524 0.0 0.0
0.07704154858832007 -0.07263298409409824 0.0 0.0035052313376456867 0.0 0.0
0.06355781120868315 -0.059495253938868675 0.0 0.0030464596834604007 0.0 0.0
0.051438840875485115 -0.04770782018091024 0.0 0.0026090607680571143 0.0 0.0
0.04079680499888755 -0.037388358400802124 0.0 0.0021920365521847507 0.0 0.0
0.03158580577822093 -0.0284945668299057 0.0 0.0017940941336223593 0.0 0.0
0.023726820526786846 -0.02094304521456669 0.0 0.0014066820711295391 0.0 0.0
0.017152343613181714 -0.014663859084656838 0.0 0.0010302759112711946 0.0 0.0
0.011837538411295312 -0.009629792410389193 0.0 0.000710828674054198 0.0 0.0
0.007769698678372766 -0.0058358842020290735 0.0 0.0004739457626150856 0.0 0.0
0.004880244940905998 -0.003219402743599664 0.0 0.0003125093181114147 0.0 0.0
0.003028509904912491 -0.0016557821568659037 0.0 0.00022026729802701595 0.0 0.0
0.0021186413540155713 -0.0009692050336577718 0.0 0.00018397399260380864 0.0 0.0
0.0017435105375306625 -0.0007164669481568575 0.0 5.9611033660145196e-05 0.0 0.0
0.0021041094837628005 -0.0011523460735757551 0.0 -0.00102449232248783 0.0 0.0
0.009993872579626917 -0.011067250985601046 0.0 0.006042100138052953 0.0 0.0
0.0069714239442591475 -0.008412235480688923 0.0 -0.007182971736631044 0.0 0.0
0.0011676890170597073 -0.0005855638107687966 0.0 0.00015878635151342357 0.0 0.0
0.0014983795535843045 -0.0005514381242847644 0.0 -0.000134263563098036 0.0 0.0
0.0018815815554948621 -0.0008315363946383991 0.0 -0.0004333392335437447 0.0 0.0
0.0026060374046463115 -0.0013359554426555231 0.0 -0.0005134064361569657 0.0 0.0
0.004189315417929558 -0.0026250669295342366 0.0 -0.0007423336393853619 0.0 0.0
0.006775200270413454 -0.00492091215587287 0.0 -0.001160948432764236 0.0 0.0
0.010456338790176975 -0.00832109089942712 0.0 -0.0017394029212045026 0.0 0.0
0.015269988099114621 -0.012858007312144926 0.0 -0.0024758048730257054 0.0 0.0
0.021197183488693983 -0.018503213691052345 0.0 -0.003314471769779004 0.0 0.0
0.02823517946857928 -0.025253857675629376 0.0 -0.004172946009571743 0.0 0.0
0.036445246920668216 -0.03317351313751571 0.0 -0.005013887628824737 0.0 0.0
0.045942102323311904 -0.042374760368804054 0.0 -0.005911824269644511 0.0 0.0
0.056797478726955335 -0.05292594022922881 0.0 -0.0069022756722332546 0.0 0.0
0.06892190758064737 -0.0647344135006378 0.0 -0.007932690556237076 0.0 0.0
0.08194855228392067 -0.07743431933313882 0.0 -0.008838387424105365 0.0 0.0
0.09515760578111951 -0.09031317638850478 0.0 -0.009239095799859987 0.0 0.0
0.10748689874663545 -0.1023189813178389 0.0 -0.008707143853092736 0.0 0.0
0.11753380237398497 -0.1120373048699701 0.0 -0.007213090359896701 0.0 0.0
0.12354424892030481 -0.11780405327442178 0.0 -0.004649078735362577 0.0 0.0
0.12354424892029692 -0.11780405327441335 0.0 0.004649078735380507 0.0 0.0
0.11753380237396369 -0.11203730486994834 0.0 0.007213090359924346 0.0 0.0
0.10748689874659931 -0.10231898131780648 0.0 0.008707143853111665 0.0 0.0
0.09515760578107607 -0.09031317638846348 0.0 0.009239095799869701 0.0 0.0
0.0819485522838723 -0.07743431933309353 0.0 0.00883838742409826 0.0 0.0
0.06892190758059699 -0.06473441350059339 0.0 0.00793269055623591 0.0 0.0
0.05679747872690402 -0.052925940229181734 0.0 0.006902275672232228 0.0 0.0
0.045942102323260986 -0.042374760368754094 0.0 0.0059118242696426515 0.0 0.0
0.03644524692061832 -0.03317351313746797 0.0 0.005013887628816993 0.0 0.0
0.02823517946853521 -0.025253857675586078 0.0 0.004172946009565137 0.0 0.0
0.021197183488656457 -0.01850321369101371 0.0 0.003314471769770122 0.0 0.0
0.01526998809908467 -0.012858007312115616 0.0 0.0024758048730215143 0.0 0.0
0.010456338790154424 -0.008321090899404027 0.0 0.0017394029211995066 0.0 0.0
0.006775200270397713 -0.004920912155856438 0.0 0.0011609484327605446 0.0 0.0
0.0041893154179205305 -0.0026250669295274642 0.0 0.0007423336393825308 0.0 0.0
0.0026060374046426027 -0.0013359554426543019 0.0 0.0005134064361551893 0.0 0.0
0.0018815815554940607 -0.0008315363946390653 0.0 0.0004333392335439945 0.0 0.0
0.0014983795535840616 -0.0005514381242857636 0.0 0.0001342635630995348 0.0 0.0
0.001167689017059853 -0.0005855638107679639 0.0 -0.0001587863515145893 0.0 0.0
0.006971423944247379 -0.008412235480675418 0.0 0.007182971736606342 0.0 0.0
0.005097815077490939 -0.0066673416192226664 0.0 -0.00662982532919279 0.0 0.0
0.0006922437857334665 -0.0003738926982447266 0.0 -0.0005228327703791225 0.0 0.0
0.0012021481103717951 -0.0004076674053715146 0.0 -0.00041641244976947656 0.0 0.0
0.0016488998214027467 -0.0007026633727658105 0.0 -0.0006732611565851698 0.0 0.0
0.0022325937959205427 -0.0010764405648662212 0.0 -0.0007906459240163421 0.0 0.0
0.003520036282039389 -0.002070815113273894 0.0 -0.0010722079680136332 0.0 0.0
0.005782937285019947 -0.004021735731171816 0.0 -0.0016717826403398472 0.0 0.0
0.009059210339144044 -0.007012384462766752 0.0 -0.002536213188974956 0.0 0.0
0.013356736788920603 -0.011033739603901527 0.0 -0.0036062699756014838 0.0 0.0
0.018629529477277418 -0.016037543696497236 0.0 -0.004806053252361331 0.0 0.0
0.024852302312658177 -0.021993895660123997 0.0 -0.00603575019545774 0.0 0.0
0.032076031338603934 -0.02895191483100179 0.0 -0.007242602440899137 0.0 0.0
0.04042062644787979 -0.0370278668201478 0.0 -0.008496626179501338 0.0 0.0
0.04998979702611352 -0.04632091790885484 0.0 -0.00990118513308974 0.0 0.0
0.060733944202917355 -0.056780212898623006 0.0 -0.01140161105443449 0.0 0.0
0.07235569573774503 -0.06810864323874855 0.0 -0.012713158298918725 0.0 0.0
0.08425106077870996 -0.07970538203970312 0.0 -0.013352441453947317 0.0 0.0
0.0954675198947371 -0.09061448774558611 0.0 -0.012770929676336862 0.0 0.0
0.10466502686616055 -0.09951949255955528 0.0 -0.01052697016516091 0.0 0.0
0.1103202849681066 -0.10497056078184652 0.0 -0.0060862042081935575 0.0 0.0
0.11032028496809931 -0.10497056078184075 0.0 0.006086204208219426 0.0 0.0
0.10466502686614074 -0.09951949255953396 0.0 0.010526970165197103 0.0 0.0
0.09546751989470537 -0.0906144877455537 0.0 0.012770929676363396 0.0 0.0
0.08425106077867209 -0.07970538203966893 0.0 0.013352441453959862 0.0 0.0
0.07235569573770298 -0.06810864323870902 0.0 0.012713158298912175 0.0 0.0
0.060733944202872675 -0.056780212898581706 0.0 0.011401611054431493 0.0 0.0
0.04998979702606832 -0.04632091790881443 0.0 0.009901185133088797 0.0 0.0
0.04042062644783434 -0.037027866820104505 0.0 0.00849662617949909 0.0 0.0
0.03207603133856052 -0.028951914830960712 0.0 0.007242602440888701 0.0 0.0
0.024852302312619257 -0.021993895660085583 0.0 0.006035750195449607 0.0 0.0
0.01862952947724414 -0.016037543696466372 0.0 0.00480605325235034 0.0 0.0
0.013356736788893986 -0.011033739603875325 0.0 0.0036062699755937677 0.0 0.0
0.009059210339123658 -0.007012384462748544 0.0 0.0025362131889695716 0.0 0.0
0.00578293728500634 -0.004021735731160714 0.0 0.0016717826403351288 0.0 0.0
0.003520036282032152 -0.0020708151132673436 0.0 0.001072207968009442 0.0 0.0
0.0022325937959178643 -0.0010764405648643338 0.0 0.0007906459240160368 0.0 0.0
0.0016488998214022332 -0.0007026633727656439 0.0 0.0006732611565850033 0.0 0.0
0.0012021481103718645 -0.0004076674053725138 0.0 0.00041641244976897696 0.0 0.0
0.0006922437857335151 -0.0003738926982439772 0.0 0.0005228327703771796 0.0 0.0
0.00509781507748 -0.006667341619209847 0.0 0.006629825329173805 0.0 0.0
0.003805343055375318 -0.005358216811334693 0.0 -0.00562162407798289 0.0 0.0
0.0004351888061394499 -0.00028137753619672523 0.0 -0.001100485084453151 0.0 0.0
0.0009304700905152369 -0.00029499951241868105 0.0 -0.0007873964413094292 0.0 0.0
0.0014074336142725977 -0.0005775499045969079 0.0 -0.0009341588912184784 0.0 0.0
0.0019014631282141814 -0.0008738763310071063 0.0 -0.0010682644564979638 0.0 0.0
0.0029058746561886964 -0.0015945055682811127 0.0 -0.0013318651114844204 0.0 0.0
0.004798897417762453 -0.003160979179984258 0.0 -0.002014139699384937 0.0 0.0
0.0076597744836365556 -0.005717094938939571 0.0 -0.0030952669989211257 0.0 0.0
0.011427079963092314 -0.009209944401300962 0.0 -0.004413906013348401 0.0 0.0
0.016039956111730112 -0.013565165688673497 0.0 -0.005882376930522376 0.0 0.0
0.021451492168388243 -0.018729608827806166 0.0 -0.0073786947987459495 0.0 0.0
0.027697595318708655 -0.024733199073074363 0.0 -0.008852689113691803 0.0 0.0
0.03489609357884298 -0.03169021755017898 0.0 -0.010393017898724988 0.0 0.0
0.04316739297798839 -0.03971320068019368 0.0 -0.01207382811668814 0.0 0.0
0.05250669178705299 -0.04879916118272254 0.0 -0.013864236736944036 0.0 0.0
0.06270183084293002 -0.05873578671044122 0.0 -0.015497267029076056 0.0 0.0
0.07326658417616146 -0.06903225420979453 0.0 -0.016396443851815545 0.0 0.0
0.08337663420746785 -0.07886470033845283 0.0 -0.015841452073497575 0.0 0.0
0.09184945667707746 -0.08707508350496251 0.0 -0.013061961689617707 0.0 0.0
0.09732732501466322 -0.09236729468008953 0.0 -0.007275350671697711 0.0 0.0
0.09732732501465695 -0.09236729468008154 0.0 0.007275350671732128 0.0 0.0
0.09184945667705903 -0.08707508350494209 0.0 0.013061961689661394 0.0 0.0
0.08337663420743957 -0.07886470033842174 0.0 0.015841452073527273 0.0 0.0
0.07326658417612891 -0.06903225420975811 0.0 0.016396443851829035 0.0 0.0
0.06270183084289349 -0.05873578671040436 0.0 0.01549726702907106 0.0 0.0
0.05250669178701389 -0.048799161182678574 0.0 0.01386423673693693 0.0 0.0
0.04316739297794919 -0.03971320068015327 0.0 0.012073828116684004 0.0 0.0
0.03489609357880341 -0.031690217550139455 0.0 0.010393017898718881 0.0 0.0
0.02769759531867161 -0.02473319907303817 0.0 0.00885268911368109 0.0 0.0
0.021451492168354375 -0.01872960882777508 0.0 0.0073786947987351525 0.0 0.0
0.016039956111701253 -0.013565165688646852 0.0 0.005882376930508748 0.0 0.0
0.011427079963068992 -0.00920994440127676 0.0 0.004413906013340796 0.0 0.0
0.007659774483618931 -0.005717094938922029 0.0 0.003095266998913715 0.0 0.0
0.004798897417751052 -0.003160979179974821 0.0 0.002014139699379136 0.0 0.0
0.002905874656183083 -0.0015945055682767828 0.0 0.001331865111479924 0.0 0.0
0.0019014631282124328 -0.0008738763310053299 0.0 0.001068264456495327 0.0 0.0
0.0014074336142721466 -0.0005775499045975185 0.0 0.0009341588912169241 0.0 0.0
0.0009304700905153895 -0.0002949995124189586 0.0 0.0007873964413080414 0.0 0.0
0.0004351888061393805 -0.000281377536195504 0.0 0.0011004850844508474 0.0 0.0
0.0038053430553658674 -0.005358216811323955 0.0 0.005621624077968068 0.0 0.0
0.0028383661786937145 -0.004298944357892603 0.0 -0.004603209421703558 0.0 0.0
0.0002897386921342712 -0.00023925384050205167 0.0 -0.0015489566952372191 0.0 0.0
0.0007003009681895711 -0.00021135366637026198 0.0 -0.0011639255642310609 0.0 0.0
0.001159691454008356 -0.0004592811426280541 0.0 -0.0012147246870195805 0.0 0.0
0.0015970673649267284 -0.0007083174972596362 0.0 -0.001342251998637245 0.0 0.0
0.0023612993107251304 -0.00120798684939194 0.0 -0.0015765099479690126 0.0 0.0
0.003859262553198947 -0.002372375304560581 0.0 -0.0022103773237580615 0.0 0.0
0.006263849184031334 -0.004450614751970283 0.0 -0.0033761036523315135 0.0 0.0
0.009496034007839806 -0.0074047669832102425 0.0 -0.004889738368767715 0.0 0.0
0.013443384208481242 -0.011103795862508647 0.0 -0.006534025990695219 0.0 0.0
0.018047429134777103 -0.015477801271335467 0.0 -0.008205266991317461 0.0 0.0
0.02332414033993032 -0.020535144728069943 0.0 -0.009845493147158907 0.0 0.0
0.029383218442833196 -0.026377679959028733 0.0 -0.011545170535723431 0.0 0.0
0.036355661883401474 -0.033131781599877286 0.0 -0.013413346700330953 0.0 0.0
0.04427816333184935 -0.040832101584693525 0.0 -0.015382849255111963 0.0 0.0
0.05301449966218383 -0.04934170981946462 0.0 -0.017171639923119764 0.0 0.0
0.06220301511039378 -0.05829854385899891 0.0 -0.01828168850452183 0.0 0.0
0.0712006901632591 -0.06705405524094399 0.0 -0.017881999954260486 0.0 0.0
0.07902347792417776 -0.07464153964209697 0.0 -0.014890624730142965 0.0 0.0
0.08444133675805929 -0.07988166463838242 0.0 -0.008283479642223146 0.0 0.0
0.08444133675805358 -0.07988166463837665 0.0 0.00828347964225784 0.0 0.0
0.07902347792416092 -0.0746415396420832 0.0 0.014890624730185598 0.0 0.0
0.0712006901632348 -0.06705405524092312 0.0 0.01788199995429407 0.0 0.0
0.06220301511036608 -0.05829854385897537 0.0 0.018281688504536264 0.0 0.0
0.05301449966215224 -0.049341709819439306 0.0 0.01717163992311521 0.0 0.0
0.044278163331815945 -0.04083210158466244 0.0 0.015382849255103914 0.0 0.0
0.03635566188336825 -0.033131781599847976 0.0 0.013413346700327788 0.0 0.0
0.02938321844280034 -0.026377679958999645 0.0 0.011545170535718352 0.0 0.0
0.02332414033989888 -0.020535144728041077 0.0 0.009845493147147444 0.0 0.0
0.018047429134748605 -0.015477801271308156 0.0 0.008205266991304305 0.0 0.0
0.01344338420845706 -0.011103795862485555 0.0 0.006534025990679815 0.0 0.0
0.009496034007819787 -0.007404766983192257 0.0 0.004889738368758778 0.0 0.0
0.006263849184016873 -0.004450614751959403 0.0 0.0033761036523247134 0.0 0.0
0.0038592625531897184 -0.00237237530455614 0.0 0.002210377323754731 0.0 0.0
0.002361299310721182 -0.0012079868493888313 0.0 0.0015765099479672084 0.0 0.0
0.0015970673649254863 -0.0007083174972575268 0.0 0.0013422519986364956 0.0 0.0
0.0011596914540077663 -0.00045928114262749897 0.0 0.001214724687017582 0.0 0.0
0.0007003009681896266 -0.00021135366637009545 0.0 0.0011639255642287016 0.0 0.0
0.0002897386921340561 -0.0002392538405009692 0.0 0.0015489566952340272 0.0 0.0
0.0028383661786860193 -0.004298944357883842 0.0 0.0046032094216910124 0.0 0.0
0.0020917028812078783 -0.0034198370011761514 0.0 -0.003722157063335202 0.0 0.0
0.0001989108348157409 -0.0002170718943242389 0.0 -0.0018804985264302687 0.0 0.0
0.0005053026123481158 -0.00014753704802433765 0.0 -0.0015008320400557162 0.0 0.0
0.0009111185180198378 -0.0003454095854067418 0.0 -0.0014896380525765418 0.0 0.0
0.0013051902146191327 -0.0005631068860663113 0.0 -0.001606543381745762 0.0 0.0
0.001874853710508162 -0.0009056737392225678 0.0 -0.0018206090805046593 0.0 0.0
0.003001630976676911 -0.0017051070554627845 0.0 -0.002367330319470312 0.0 0.0
0.004903723069878907 -0.0032644142628319717 0.0 -0.0034465734465268794 0.0 0.0
0.007572927731347601 -0.005635962084652002 0.0 -0.00499613125398507 0.0 0.0
0.010855749782074056 -0.008674271560166202 0.0 -0.006745940992572308 0.0 0.0
0.014653196764311108 -0.01225788087258195 0.0 -0.008494457543955447 0.0 0.0
0.01897063495693463 -0.01637598107085103 0.0 -0.010207138102035995 0.0 0.0
0.02390145197262547 -0.02111476591122141 0.0 -0.011971550667480235 0.0 0.0
0.029576852995535835 -0.026600571928060646 0.0 -0.013876950230891083 0.0 0.0
0.03607476145897624 -0.03290707331593623 0.0 -0.01589847821726903 0.0 0.0
0.04332674561032453 -0.039965600437881665 0.0 -0.017774695956996323 0.0 0.0
0.05108358412351327 -0.04752828024505451 0.0 -0.01899662122277057 0.0 0.0
0.05891640591503884 -0.05516095256972564 0.0 -0.018801660128723807 0.0 0.0
0.06610380219700955 -0.06214222402631275 0.0 -0.015974716826236635 0.0 0.0
0.0715452879916277 -0.06740692037083829 0.0 -0.009126370898136116 0.0 0.0
0.07154528799162246 -0.06740692037083296 0.0 0.0091263708981692 0.0 0.0
0.06610380219699485 -0.062142224026302095 0.0 0.0159747168262811 0.0 0.0
0.05891640591501908 -0.055160952569706545 0.0 0.01880166012875817 0.0 0.0
0.051083584123489734 -0.047528280245033194 0.0 0.018996621222784338 0.0 0.0
0.043326745610298256 -0.039965600437854576 0.0 0.017774695956992104 0.0 0.0
0.036074761458948695 -0.03290707331590381 0.0 0.01589847821726198 0.0 0.0
0.029576852995508662 -0.026600571928029115 0.0 0.013876950230886309 0.0 0.0
0.023901451972599325 -0.021114765911195654 0.0 0.011971550667474018 0.0 0.0
0.018970634956908733 -0.016375981070825052 0.0 0.010207138102025892 0.0 0.0
0.014653196764287835 -0.012257880872557081 0.0 0.008494457543942957 0.0 0.0
0.01085574978205428 -0.008674271560148439 0.0 0.006745940992556154 0.0 0.0
0.00757292773133128 -0.0056359620846393454 0.0 0.004996131253974356 0.0 0.0
0.004903723069867444 -0.003264414262823534 0.0 0.003446573446517831 0.0 0.0
0.0030016309766698612 -0.0017051070554592318 0.0 0.0023673303194640116 0.0 0.0
0.0018748537105054974 -0.0009056737392220127 0.0 0.0018206090805006347 0.0 0.0
0.0013051902146182792 -0.0005631068860678656 0.0 0.0016065433817429864 0.0 0.0
0.0009111185180191994 -0.000345409585407519 0.0 0.001489638052573572 0.0 0.0
0.0005053026123480742 -0.00014753704802394907 0.0 0.0015008320400530795 0.0 0.0
0.00019891083481560212 -0.0002170718943232952 0.0 0.0018804985264278262 0.0 0.0
0.0020917028812019456 -0.0034198370011686696 0.0 0.0037221570633274026 0.0 0.0
0.00151099702859199 -0.0026844538065443346 0.0 -0.0030037400287741267 0.0 0.0
0.00013242176762642832 -0.00020452908752277565 0.0 -0.0021113074273681753 0.0 0.0
0.0003337988416073079 -9.36671371656872e-05 0.0 -0.001778766138642085 0.0 0.0
0.0006667484204820467 -0.0002345297163993676 0.0 -0.001740543960862706 0.0 0.0
0.001011186547293097 -0.000427562857724717 0.0 -0.0018612298348694711 0.0 0.0
0.0014370041996728533 -0.0006614374091079567 0.0 -0.002043449024767774 0.0 0.0
0.0022274610946564077 -0.0011595392233754165 0.0 -0.002475915558026426 0.0 0.0
0.003629934774869323 -0.0022158946329438045 0.0 -0.0033835766314704308 0.0 0.0
0.005688401949498059 -0.003957606618929743 0.0 -0.004772842940606703 0.0 0.0
0.008288937035277735 -0.00630144952827183 0.0 -0.006474349737378482 0.0 0.0
0.011281808893277637 -0.009092154546345155 0.0 -0.008229207727983912 0.0 0.0
0.014650666923772523 -0.01227826454313452 0.0 -0.009922555980188819 0.0 0.0
0.018467641327226225 -0.01592620586251492 0.0 -0.011639709272008525 0.0 0.0
0.022858229312430617 -0.020154370927159437 0.0 -0.013478330843540498 0.0 0.0
0.027922048021480544 -0.025060117411354277 0.0 -0.015417626938966866 0.0 0.0
0.03366526179430386 -0.03063925851499283 0.0 -0.017231978405300885 0.0 0.0
0.03993762659894401 -0.03675477060323695 0.0 -0.018507632250869488 0.0 0.0
0.04651389760673305 -0.04318037061944091 0.0 -0.0185845536112772 0.0 0.0
0.05300023001005055 -0.04949847259285933 0.0 -0.01625947125715821 0.0 0.0
0.058510740576440984 -0.054827635048359635 0.0 -0.009791733526202495 0.0 0.0
0.058510740576436765 -0.05482763504835786 0.0 0.009791733526232249 0.0 0.0
0.05300023001003899 -0.04949847259285045 0.0 0.01625947125720273 0.0 0.0
0.04651389760671684 -0.043180370619424924 0.0 0.01858455361131106 0.0 0.0
0.039937626598925 -0.036754770603218745 0.0 0.018507632250883033 0.0 0.0
0.03366526179428274 -0.030639258514972845 0.0 0.017231978405295556 0.0 0.0
0.02792204802145898 -0.0250601174113374 0.0 0.015417626938958873 0.0 0.0
0.022858229312409745 -0.020154370927140786 0.0 0.013478330843535558 0.0 0.0
0.018467641327206435 -0.015926205862493825 0.0 0.011639709272003362 0.0 0.0
0.014650666923752692 -0.012278264543116757 0.0 0.00992255598017533 0.0 0.0
0.011281808893259276 -0.009092154546327835 0.0 0.008229207727968813 0.0 0.0
0.008288937035262262 -0.006301449528257175 0.0 0.0064743497373613845 0.0 0.0
0.005688401949485805 -0.003957606618918197 0.0 0.004772842940596933 0.0 0.0
0.00362993477486076 -0.0022158946329347007 0.0 0.003383576631463825 0.0 0.0
0.002227461094651717 -0.0011595392233697543 0.0 0.0024759155580230674 0.0 0.0
0.0014370041996712157 -0.0006614374091071795 0.0 0.002043449024765581 0.0 0.0
0.0010111865472925974 -0.00042756285772493907 0.0 0.0018612298348668344 0.0 0.0
0.0006667484204816998 -0.00023452971639925657 0.0 0.0017405439608607354 0.0 0.0
0.0003337988416070581 -9.366713716557618e-05 0.0 0.001778766138640503 0.0 0.0
0.00013242176762634505 -0.00020452908752313648 0.0 0.0021113074273656773 0.0 0.0
0.0015109970285875074 -0.0026844538065391617 0.0 0.003003740028766133 0.0 0.0
0.0010695785535887042 -0.002087630846674071 0.0 -0.0024561683854410765 0.0 0.0
6.920978141612688e-05 -0.00019386922702602227 0.0 -0.002246595217473446 0.0 0.0
0.0001766396111500257 -4.1962007911289234e-05 0.0 -0.0019974015923484023 0.0 0.0
0.0004294314640331809 -0.00012790395468009752 0.0 -0.0019518339352675163 0.0 0.0
0.0007079969299578909 -0.00028791858894516853 0.0 -0.0020756130879685253 0.0 0.0
0.0010264639710565182 -0.0004605386077882745 0.0 -0.002273632309334278 0.0 0.0
0.001537130160283895 -0.0007395262043297102 0.0 -0.0025922359190239663 0.0 0.0
0.0024647553664425143 -0.001342316561307344 0.0 -0.003235258379507333 0.0 0.0
0.003895771924385158 -0.002447446218694971 0.0 -0.004320550210262508 0.0 0.0
0.005771208962787988 -0.0040488908272480195 0.0 -0.005760520240994438 0.0 0.0
0.00794933355553698 -0.006019888460411682 0.0 -0.007355110215405192 0.0 0.0
0.010375526157054588 -0.008276567038388638 0.0 -0.008937514768139254 0.0 0.0
0.013097281509838465 -0.010847063723373296 0.0 -0.010528673110731857 0.0 0.0
0.016218419676514106 -0.01383089950401084 0.0 -0.012185356959032834 0.0 0.0
0.019850959318049796 -0.017334472406628443 0.0 -0.013918684867733067 0.0 0.0
0.024057183597113257 -0.021412697686882698 0.0 -0.015569592986194203 0.0 0.0
0.028799672857619835 -0.026024590025766514 0.0 -0.016758709281623596 0.0 0.0
0.03400023883615831 -0.031122239462695322 0.0 -0.017057487633579227 0.0 0.0
0.03962044238081014 -0.0366395504367345 0.0 -0.015587171365251451 0.0 0.0
0.045185178949125784 -0.04202175174165035 0.0 -0.010243189684575937 0.0 0.0
0.04518517894912298 -0.042021751741649016 0.0 0.010243189684602139 0.0 0.0
0.0396204423808022 -0.03663955043672962 0.0 0.015587171365292418 0.0 0.0
0.03400023883614563 -0.03112223946268422 0.0 0.01705748763360876 0.0 0.0
0.02879967285760532 -0.026024590025755856 0.0 0.016758709281632533 0.0 0.0
0.024057183597097728 -0.02141269768686893 0.0 0.015569592986187097 0.0 0.0
0.019850959318034406 -0.017334472406611567 0.0 0.013918684867726183 0.0 0.0
0.01621841967649988 -0.01383089950399663 0.0 0.012185356959027616 0.0 0.0
0.013097281509824601 -0.01084706372336397 0.0 0.010528673110726694 0.0 0.0
0.010375526157041029 -0.008276567038377092 0.0 0.00893751476812793 0.0 0.0
0.007949333555524157 -0.0060198884603992475 0.0 0.007355110215394034 0.0 0.0
0.005771208962777066 -0.00404889082723936 0.0 0.005760520240982392 0.0 0.0
0.0038957719243769007 -0.0024474462186929724 0.0 0.004320550210254903 0.0 0.0
0.002464755366437088 -0.0013423165613062338 0.0 0.0032352583795029477 0.0 0.0
0.0015371301602812026 -0.0007395262043267126 0.0 0.0025922359190201916 0.0 0.0
0.0010264639710554913 -0.00046053860778805245 0.0 0.0022736323093318356 0.0 0.0
0.0007079969299575439 -0.0002879185889456126 0.0 0.00207561308796686 0.0 0.0
0.00042943146403295884 -0.00012790395467965343 0.0 0.0019518339352646574 0.0 0.0
0.0001766396111497759 -4.196200791056759e-05 0.0 0.0019974015923447386 0.0 0.0
6.920978141580769e-05 -0.00019386922702580023 0.0 0.0022465952174720027 0.0 0.0
0.001069578553585776 -0.002087630846670189 0.0 0.002456168385437024 0.0 0.0
0.0007529928336362651 -0.0016373507800252485 0.0 -0.0020901795830596814 0.0 0.0
-1.9558216078630064e-07 -0.0001834844425809279 0.0 -0.002326132132286801 0.0 0.0
2.859421239101434e-05 1.2195656838187574e-05 0.0 -0.002156705816802884 0.0 0.0
0.00019997572417802811 -2.6506011161386844e-05 0.0 -0.0021162378124807146 0.0 0.0
0.0003987326930368629 -0.00014253763905491823 0.0 -0.0022335344060748497 0.0 0.0
0.0006133365926650203 -0.00026798550262718823 0.0 -0.002465510669521581 0.0 0.0
0.0009120348119804889 -0.0004214817827918882 0.0 -0.002758526170217851 0.0 0.0
0.0014201492805724636 -0.0006867172634470453 0.0 -0.0031412084757099223 0.0 0.0
0.002239759748293768 -0.0012003701569227587 0.0 -0.00376806637949606 0.0 0.0
0.003356475908665363 -0.0020364932376213396 0.0 -0.004724073178977328 0.0 0.0
0.004688929428749544 -0.0031461452506011955 0.0 -0.005930589052596469 0.0 0.0
0.006159204481754818 -0.0044511449833775085 0.0 -0.007238981942055356 0.0 0.0
0.007797313724996882 -0.005947512694420176 0.0 -0.00862089376999664 0.0 0.0
0.009672365479805142 -0.007702236909437055 0.0 -0.010037637032669411 0.0 0.0
0.011878380728144067 -0.009805910554725017 0.0 -0.011489660612455876 0.0 0.0
0.014521823661349728 -0.01235596321854171 0.0 -0.01290457848200649 0.0 0.0
0.01769181023384314 -0.015424635848043877 0.0 -0.014014096175538615 0.0 0.0
0.0214402878426736 -0.019076637997402113 0.0 -0.014376953504510348 0.0 0.0
0.025911543113192353 -0.02353709245548341 0.0 -0.013717424383464849 0.0 0.0
0.03135534025786077 -0.028835261870117534 0.0 -0.01031394269898922 0.0 0.0
0.031355340257859174 -0.028835261870116646 0.0 0.010313942699011702 0.0 0.0
0.02591154311318776 -0.023537092455480746 0.0 0.013717424383500154 0.0 0.0
0.021440287842665107 -0.019076637997396784 0.0 0.014376953504535717 0.0 0.0
0.01769181023383347 -0.015424635848034551 0.0 0.014014096175543722 0.0 0.0
0.0145218236613405 -0.01235596321853416 0.0 0.012904578481998552 0.0 0.0
0.011878380728135143 -0.009805910554717023 0.0 0.011489660612447439 0.0 0.0
0.009672365479797357 -0.007702236909432614 0.0 0.010037637032664859 0.0 0.0
0.007797313724989471 -0.005947512694414625 0.0 0.00862089376999503 0.0 0.0
0.0061592044817473934 -0.0044511449833724015 0.0 0.0072389819420486945 0.0 0.0
0.004688929428742536 -0.0031461452505916476 0.0 0.00593058905258681 0.0 0.0
0.003356475908659201 -0.002036493237613124 0.0 0.0047240731789662815 0.0 0.0
0.002239759748289258 -0.0012003701569183178 0.0 0.0037680663794918967 0.0 0.0
0.0014201492805697435 -0.000686717263445491 0.0 0.003141208475707702 0.0 0.0
0.0009120348119792121 -0.0004214817827925543 0.0 0.002758526170214659 0.0 0.0
0.0006133365926644374 -0.0002679855026274103 0.0 0.0024655106695178064 0.0 0.0
0.00039873269303675185 -0.0001425376390548072 0.0 0.0022335344060722406 0.0 0.0
0.00019997572417786158 -2.650601116077622e-05 0.0 0.002116237812478605 0.0 0.0
2.859421239082005e-05 1.2195656839020241e-05 0.0 0.0021567058168002196 0.0 0.0
-1.95582160827934e-07 -0.00018348444258090013 0.0 0.0023261321322853024 0.0 0.0
0.0007529928336345026 -0.0016373507800230298 0.0 0.0020901795830575443 0.0 0.0
0.0005326077641600174 -0.0013032201259285114 0.0 -0.001848455541012678 0.0 0.0
-6.913446204807883e-05 -0.00017205181315532725 0.0 -0.0023712823777433945 0.0 0.0
-0.00011273393592758918 6.76415130915764e-05 0.0 -0.002261710740514067 0.0 0.0
-2.191614765746641e-05 7.087934641114568e-05 0.0 -0.0022264287335884703 0.0 0.0
8.905875303411026e-05 3.2822455720005195e-06 0.0 -0.0023290729879024974 0.0 0.0
0.00018979465824710273 -6.900948985621991e-05 0.0 -0.0025719406069679707 0.0 0.0
0.0003019902053797985 -0.00013599071487147008 0.0 -0.0029097365878028303 0.0 0.0
0.00046451414065680485 -0.00021706172997992823 0.0 -0.003239277921685324 0.0 0.0
0.0007258471230721653 -0.00034416789603430864 0.0 -0.003558984460365344 0.0 0.0
0.0010913645462529292 -0.000539476904872549 0.0 -0.003975737367652221 0.0 0.0
0.0015414369087318747 -0.0008129551076665464 0.0 -0.004625221322051565 0.0 0.0
0.00203111618722647 -0.0011526495112823554 0.0 -0.0054836668970202895 0.0 0.0
0.002573524735273211 -0.0015513951318602004 0.0 -0.006525456883780756 0.0 0.0
0.0031967380432974396 -0.002054734096333277 0.0 -0.0077460995249543085 0.0 0.0
0.003968864836993033 -0.0027365652229462967 0.0 -0.009144120619847373 0.0 0.0
0.005029001035484634 -0.0037159339272894165 0.0 -0.010615214679787155 0.0 0.0
0.006597792722375123 -0.005189896771785385 0.0 -0.01185259059283067 0.0 0.0
0.00890245223018947 -0.007364480979408672 0.0 -0.012321997040330435 0.0 0.0
0.012080574348247483 -0.010466281871525762 0.0 -0.011677972878289256 0.0 0.0
0.01679716895210359 -0.015259568546571067 0.0 -0.010117075510637952 0.0 0.0
0.016797168952102925 -0.015259568546566182 0.0 0.010117075510655604 0.0 0.0
0.012080574348245554 -0.010466281871519545 0.0 0.011677972878317122 0.0 0.0
0.008902452230185473 -0.0073644809794020105 0.0 0.012321997040347366 0.0 0.0
0.006597792722371626 -0.0051898967717827205 0.0 0.011852590592831114 0.0 0.0
0.005029001035482275 -0.0037159339272880842 0.0 0.010615214679779827 0.0 0.0
0.0039688648369908125 -0.0027365652229418558 0.0 0.009144120619841045 0.0 0.0
0.0031967380432960796 -0.002054734096331501 0.0 0.007746099524949868 0.0 0.0
0.0025735247352723367 -0.0015513951318624208 0.0 0.006525456883778924 0.0 0.0
0.0020311161872252487 -0.001152649511280579 0.0 0.005483666897013961 0.0 0.0
0.0015414369087308755 -0.000812955107664326 0.0 0.004625221322044848 0.0 0.0
0.0010913645462517774 -0.0005394769048705506 0.0 0.0039757373676440055 0.0 0.0
0.0007258471230712493 -0.000344167896036085 0.0 0.0035589844603629017 0.0 0.0
0.0004645141406563469 -0.0002170617299817046 0.0 0.003239277921683159 0.0 0.0
0.00030199020537974297 -0.00013599071487035985 0.0 0.0029097365877994996 0.0 0.0
0.00018979465824701947 -6.900948985477662e-05 0.0 0.002571940606964085 0.0 0.0
8.905875303419353e-05 3.2822455716674526e-06 0.0 0.0023290729878994443 0.0 0.0
-2.1916147657272123e-05 7.08793464112012e-05 0.0 0.0022264287335858057 0.0 0.0
-0.00011273393592764469 6.764151309113231e-05 0.0 0.002261710740512679 0.0 0.0
-6.913446204802332e-05 -0.00017205181315549378 0.0 0.0023712823777423675 0.0 0.0
0.0005326077641589488 -0.0013032201259270803 0.0 0.0018484555410107073 0.0 0.0
0.0003794912624422442 -0.001053754959229547 0.0 -0.0016790739935652887 0.0 0.0
-0.00013184837118250525 -0.00015063787487940017 0.0 -0.0023680770726234868 0.0 0.0
-0.0002468233078556509 0.00012024013699368785 0.0 -0.0023161149055788144 0.0 0.0
-0.00023640549281231382 0.00016463471846417388 0.0 -0.002279206597879335 0.0 0.0
-0.00021706098260566853 0.00014632510608714178 0.0 -0.002360977363907446 0.0 0.0
-0.00023633014670133845 0.00013193853509640974 0.0 -0.00258448781128251 0.0 0.0
-0.00031423106276402824 0.00015213530781332807 0.0 -0.0029128329340290804 0.0 0.0
-0.0004656585361031973 0.0002191174770937998 0.0 -0.0032413638853456828 0.0 0.0
-0.0007243521832789174 0.00034348370735082234 0.0 -0.0035593027221866302 0.0 0.0
-0.0010896526443128773 0.0005379100108122703 0.0 -0.003973499447535667 0.0 0.0
-0.001540914707601801 0.0008141187199723898 0.0 -0.004620676358920384 0.0 0.0
-0.002043568617638075 0.001164475357235517 0.0 -0.005480698383435512 0.0 0.0
-0.0026106877519360555 0.0015832963618334084 0.0 -0.006525135045428676 0.0 0.0
-0.00325562166355689 0.002092612189570353 0.0 -0.007750318668822531 0.0 0.0
-0.003928233967665604 0.002651396441060161 0.0 -0.009163902027331472 0.0 0.0
-0.004469498755757556 0.003099674693983534 0.0 -0.010735551212256056 0.0 0.0
-0.004566860723608401 0.0031578782786536586 0.0 -0.012441101034082191 0.0 0.0
-0.0038369369016508226 0.002556700042804838 0.0 -0.014262924966475687 0.0 0.0
-0.0019734908812615998 0.0012031005999157962 0.0 -0.01578561371436582 0.0 0.0
0.0023910675540809723 -0.0028147876214301704 0.0 -0.01390386414916911 0.0 0.0
0.0023910675540801257 -0.0028147876214297263 0.0 0.013903864149183709 0.0 0.0
-0.0019734908812619606 0.001203100599914464 0.0 0.015785613714379698 0.0 0.0
-0.003836936901649546 0.0025567000428021736 0.0 0.014262924966480794 0.0 0.0
-0.004566860723604113 0.0031578782786536586 0.0 0.012441101034077251 0.0 0.0
-0.004469498755752463 0.0030996746939866426 0.0 0.01073555121224673 0.0 0.0
-0.0039282339676609684 0.002651396441060605 0.0 0.0091639020273242 0.0 0.0
-0.00325562166355213 0.00209261218956458 0.0 0.007750318668816314 0.0 0.0
-0.0026106877519307264 0.0015832963618278573 0.0 0.006525135045424735 0.0 0.0
-0.002043568617632427 0.0011644753572288558 0.0 0.005480698383429128 0.0 0.0
-0.0015409147075966106 0.0008141187199670608 0.0 0.004620676358913722 0.0 0.0
-0.0010896526443089083 0.0005379100108102719 0.0 0.00397349944752895 0.0 0.0
-0.0007243521832764194 0.00034348370735037825 0.0 0.0035593027221859086 0.0 0.0
-0.0004656585361020038 0.0002191174770922455 0.0 0.0032413638853447946 0.0 0.0
-0.00031423106276289026 0.0001521353078114407 0.0 0.0029128329340262216 0.0 0.0
-0.0002363301467008111 0.00013193853509496645 0.0 0.002584487811279762 0.0 0.0
-0.00021706098260533546 0.00014632510608847404 0.0 0.0023609773639053366 0.0 0.0
-0.00023640549281186973 0.0001646347184657837 0.0 0.0022792065978776144 0.0 0.0
-0.0002468233078555815 0.00012024013699374336 0.0 0.002316114905576816 0.0 0.0
-0.00013184837118257464 -0.0001506378748796222 0.0 0.00236807707262246 0.0 0.0
0.00037949126244177234 -0.0010537549592283292 0.0 0.0016790739935632626 0.0 0.0
0.00027033936374977474 -0.0008419638504266469 0.0 -0.0015128395631237856 0.0 0.0
-0.00018870525348724243 -0.00012091826951859952 0.0 -0.002314446171858303 0.0 0.0
-0.00037272188346884616 0.00016996028160620735 0.0 -0.002317146990942376 0.0 0.0
-0.00044314142061006867 0.00025368488070232065 0.0 -0.002273768456877323 0.0 0.0
-0.0005168441478964614 0.0002849336310333239 0.0 -0.0023265522254740933 0.0 0.0
-0.0006569173762922542 0.0003287346080972364 0.0 -0.0025114978778768837 0.0 0.0
-0.0009234814642993527 0.00043724944661804876 0.0 -0.002774887709863477 0.0 0.0
-0.0014209791994841403 0.0006886224921285322 0.0 -0.003145925102276459 0.0 0.0
-0.0022375068413404975 0.0011987184489843372 0.0 -0.003767393445212819 0.0 0.0
-0.003354264334046564 0.002035003917808531 0.0 -0.004721470601183331 0.0 0.0
-0.004689463362779353 0.00314878002975294 0.0 -0.005928274297320235 0.0 0.0
-0.006170995647043848 0.004466318540769176 0.0 -0.00723286282252672 0.0 0.0
-0.007832887454595636 0.005985000166971233 0.0 -0.008597429514331012 0.0 0.0
-0.00972765091802738 0.007744774234434981 0.0 -0.010009468076781436 0.0 0.0
-0.01184065494370494 0.009721438201332422 0.0 -0.011552353532448323 0.0 0.0
-0.014000845015533267 0.0117437158838114 0.0 -0.013329458632080127 0.0 0.0
-0.01583726332755743 0.01345185704892815 0.0 -0.015405100569588104 0.0 0.0
-0.016814111359067796 0.014335749287752275 0.0 -0.017675669915402148 0.0 0.0
-0.01602538264558355 0.013271315181415222 0.0 -0.018642164591710753 0.0 0.0
-0.011294748479097852 0.00839111587723318 0.0 -0.016232317641562688 0.0 0.0
-0.011294748479099614 0.008391115877230071 0.0 0.016232317641585448 0.0 0.0
-0.016025382645582106 0.013271315181409893 0.0 0.018642164591738786 0.0 0.0
-0.016814111359061162 0.014335749287747834 0.0 0.017675669915420744 0.0 0.0
-0.015837263327546036 0.013451857048919269 0.0 0.015405100569588825 0.0 0.0
-0.014000845015520472 0.011743715883795858 0.0 0.013329458632070579 0.0 0.0
-0.011840654943693699 0.009721438201323096 0.0 0.011552353532440385 0.0 0.0
-0.009727650918016487 0.00774477423442832 0.0 0.010009468076773165 0.0 0.0
-0.00783288745458395 0.005985000166961241 0.0 0.008597429514324573 0.0 0.0
-0.006170995647031552 0.004466318540760961 0.0 0.007232862822516284 0.0 0.0
-0.004689463362768223 0.003148780029743836 0.0 0.00592827429730769 0.0 0.0
-0.0033542643340373907 0.0020350039178043122 0.0 0.004721470601171063 0.0 0.0
-0.002237506841334211 0.0011987184489818947 0.0 0.0037673934452071567 0.0 0.0
-0.0014209791994808374 0.0006886224921283102 0.0 0.003145925102273739 0.0 0.0
-0.0009234814642972433 0.00043724944661904797 0.0 0.00277488770985998 0.0 0.0
-0.0006569173762910885 0.00032873460809834665 0.0 0.002511497877873914 0.0 0.0
-0.000516844147895823 0.0002849336310333239 0.0 0.0023265522254721227 0.0 0.0
-0.00044314142060956907 0.000253684880701599 0.0 0.0022737684568738814 0.0 0.0
-0.0003727218834687074 0.00016996028160609633 0.0 0.0023171469909391285 0.0 0.0
-0.00018870525348710365 -0.00012091826951862727 0.0 0.002314446171856138 0.0 0.0
0.00027033936374959433 -0.0008419638504259339 0.0 0.0015128395631220093 0.0 0.0
0.00018295590851019616 -0.0006511927290797914 0.0 -0.0013385227021848467 0.0 0.0
-0.00024129982086532054 -8.378402283459874e-05 0.0 -0.002207589886212835 0.0 0.0
-0.0004907280188409802 0.00021694591602672286 0.0 -0.002262634534865915 0.0 0.0
-0.0006411829593223894 0.0003375902325182256 0.0 -0.0022089723126987038 0.0 0.0
-0.0008075757400818895 0.0004154510588555427 0.0 -0.0022227756725078374 0.0 0.0
-0.0010643749297554461 0.0005163147687420322 0.0 -0.00234153708580484 0.0 0.0
-0.0015472702948726158 0.000755356705417265 0.0 -0.0026159939339852334 0.0 0.0
-0.002463878296319638 0.0013430200009696414 0.0 -0.0032422348291228364 0.0 0.0
-0.0038925447937753765 0.0024445687687904005 0.0 -0.004316599244439945 0.0 0.0
-0.005769832970580591 0.004047818622279209 0.0 -0.005757543221615036 0.0 0.0
-0.007951108640160964 0.006023152065083748 0.0 -0.007353336301572255 0.0 0.0
-0.010384389685862028 0.00828870228976375 0.0 -0.008924238582968425 0.0 0.0
-0.013122914351313353 0.010875662358271754 0.0 -0.010471186218044604 0.0 0.0
-0.016260666933727505 0.013865107145231814 0.0 -0.012080500397362526 0.0 0.0
-0.01982451621980437 0.017270858172710124 0.0 -0.01393002865047388 0.0 0.0
-0.023641363839018006 0.020917389943766018 0.0 -0.016262517096989892 0.0 0.0
-0.027256815883577853 0.02436015892871879 0.0 -0.019268496797691936 0.0 0.0
-0.029828002352584468 0.02670583313520991 0.0 -0.022417890479907332 0.0 0.0
-0.029752198583749653 0.026344144279701442 0.0 -0.024042147510279333 0.0 0.0
-0.024249538486520006 0.02027210725685613 0.0 -0.020682526930093814 0.0 0.0
-0.02424953848652081 0.020272107256853467 0.0 0.020682526930119904 0.0 0.0
-0.029752198583745795 0.026344144279697446 0.0 0.02404214751031364 0.0 0.0
-0.029828002352572963 0.026705833135201473 0.0 0.022417890479931202 0.0 0.0
-0.02725681588356127 0.024360158928701914 0.0 0.019268496797697432 0.0 0.0
-0.023641363838998286 0.020917389943747366 0.0 0.016262517096980844 0.0 0.0
-0.019824516219786606 0.01727085817269014 0.0 0.01393002865046461 0.0 0.0
-0.01626066693371045 0.013865107145209166 0.0 0.012080500397352756 0.0 0.0
-0.013122914351295367 0.010875662358253102 0.0 0.01047118621803833 0.0 0.0
-0.01038438968584382 0.008288702289746208 0.0 0.008924238582956323 0.0 0.0
-0.007951108640143686 0.0060231520650670944 0.0 0.007353336301557878 0.0 0.0
-0.005769832970566352 0.00404781862226411 0.0 0.005757543221602268 0.0 0.0
-0.0038925447937650653 0.0024445687687797424 0.0 0.004316599244432839 0.0 0.0
-0.0024638782963135597 0.0013430200009634241 0.0 0.003242234829119117 0.0 0.0
-0.0015472702948690353 0.0007553567054133792 0.0 0.0026159939339825133 0.0 0.0
-0.0010643749297537114 0.0005163147687406999 0.0 0.0023415370858033135 0.0 0.0
-0.000807575740080918 0.0004154510588532112 0.0 0.002222775672506727 0.0 0.0
-0.0006411829593218898 0.00033759023251783704 0.0 0.002208972312696844 0.0 0.0
-0.0004907280188407165 0.00021694591602722246 0.0 0.002262634534864416 0.0 0.0
-0.00024129982086493196 -8.378402283437669e-05 0.0 0.0022075898862120857 0.0 0.0
0.00018295590851008514 -0.0006511927290791027 0.0 0.001338522702184236 0.0 0.0
0.00010683787142598544 -0.00047951405374208056 0.0 -0.0011607874184209055 0.0 0.0
-0.0002921166581140444 -3.9944396353297495e-05 0.0 -0.0020495286218031317 0.0 0.0
-0.0006016584212417686 0.0002620324556895648 0.0 -0.0021527877431721243 0.0 0.0
-0.0008304457273306809 0.00041515863513175155 0.0 -0.002089063007058467 0.0 0.0
-0.0010839907359709577 0.0005348322840458275 0.0 -0.0020492673349011004 0.0 0.0
-0.001468420826759853 0.0007125031601320497 0.0 -0.0021343591437853193 0.0 0.0
-0.0022342207298297334 0.0011743142131839246 0.0 -0.0025093869769714228 0.0 0.0
-0.0036265255286854203 0.0022138912196407734 0.0 -0.0033849584000020805 0.0 0.0
-0.005685292071916703 0.003954252712351947 0.0 -0.004766541931390644 0.0 0.0
-0.008289185728666354 0.0063017853074593955 0.0 -0.006472116836463593 0.0 0.0
-0.011284484891831925 0.009095835226379245 0.0 -0.008228413169503568 0.0 0.0
-0.014654500212253424 0.012284248061344094 0.0 -0.00990471956890504 0.0 0.0
-0.018473817151117206 0.015935330035384165 0.0 -0.01155506981112514 0.0 0.0
-0.022870013234601055 0.020164163443960437 0.0 -0.01329456581065891 0.0 0.0
-0.02790670135012313 0.02502415591878826 0.0 -0.015337269778169405 0.0 0.0
-0.03342975132255746 0.03034531810674812 0.0 -0.018050856751658517 0.0 0.0
-0.03884543594375717 0.0355198682302067 0.0 -0.021659600067780227 0.0 0.0
-0.04287031179204756 0.03924887153334877 0.0 -0.025570752818139475 0.0 0.0
-0.043275053071010885 0.03925113817552406 0.0 -0.027756883153023604 0.0 0.0
-0.0363149815224932 0.031676112524320565 0.0 -0.02475543329152302 0.0 0.0
-0.03631498152249227 0.03167611252431568 0.0 0.024755433291550666 0.0 0.0
-0.04327505307100378 0.03925113817551429 0.0 0.02775688315306174 0.0 0.0
-0.042870311792031685 0.039248871533335006 0.0 0.025570752818167286 0.0 0.0
-0.03884543594373606 0.03551986823018627 0.0 0.021659600067787166 0.0 0.0
-0.03342975132253227 0.030345318106731245 0.0 0.01805085675165119 0.0 0.0
-0.02790670135009872 0.02502415591877094 0.0 0.015337269778160745 0.0 0.0
-0.022870013234577852 0.02016416344394223 0.0 0.013294565810647974 0.0 0.0
-0.018473817151093003 0.01593533003536174 0.0 0.011555069811117313 0.0 0.0
-0.01465450021222968 0.012284248061321223 0.0 0.009904719568892162 0.0 0.0
-0.01128448489180886 0.00909583522635704 0.0 0.008228413169486803 0.0 0.0
-0.008289185728647203 0.006301785307440966 0.0 0.006472116836445996 0.0 0.0
-0.005685292071902354 0.003954252712339512 0.0 0.004766541931379542 0.0 0.0
-0.003626525528676122 0.0022138912196314475 0.0 0.003384958399994753 0.0 0.0
-0.002234220729824002 0.0011743142131782625 0.0 0.0025093869769670374 0.0 0.0
-0.0014684208267574522 0.0007125031601327159 0.0 0.002134359143782405 0.0 0.0
-0.0010839907359698336 0.0005348322840456055 0.0 0.0020492673348998514 0.0 0.0
-0.0008304457273299176 0.00041515863513180706 0.0 0.002089063007056663 0.0 0.0
-0.0006016584212412968 0.0002620324556892317 0.0 0.002152787743169682 0.0 0.0
-0.00029211665811365584 -3.9944396353491785e-05 0.0 0.002049528621800689 0.0 0.0
0.00010683787142598544 -0.00047951405374171453 0.0 0.0011607874184190736 0.0 0.0
3.9381352988504537e-05 -0.0003276242733155632 0.0 -0.0009792671969866829 0.0 0.0
-0.00034267006011926004 8.894059687181155e-06 0.0 -0.001845481972196139 0.0 0.0
-0.0007065318470529103 0.00030583909355313965 0.0 -0.0019877569860780597 0.0 0.0
-0.0010101880474656655 0.00048532304437498563 0.0 -0.0019080850661533089 0.0 0.0
-0.0013451433283670766 0.0006448504042008141 0.0 -0.0018188683059556787 0.0 0.0
-0.0018983542104050455 0.0009474670557719778 0.0 -0.0019134971089742603 0.0 0.0
-0.003003215574243545 0.0017149429954292916 0.0 -0.0023934850172150635 0.0 0.0
-0.004899063087161898 0.00326023825707189 0.0 -0.003443168232034055 0.0 0.0
-0.007571231382146215 0.005633530319106406 0.0 -0.004988295891442285 0.0 0.0
-0.010857707455515647 0.008676207737211117 0.0 -0.0067438928990962155 0.0 0.0
-0.014656244301496202 0.01226137024749585 0.0 -0.008492784626729255 0.0 0.0
-0.018967956374384365 0.01637394096768019 0.0 -0.010186124236439165 0.0 0.0
-0.02388167255519169 0.021097272764537767 0.0 -0.011874365378512719 0.0 0.0
-0.029542846110032578 0.0265717563348562 0.0 -0.013648050885939678 0.0 0.0
-0.0360605319751289 0.03289261246539388 0.0 -0.015724243569925633 0.0 0.0
-0.04328900412035244 0.0398855471862154 0.0 -0.018481839408284295 0.0 0.0
-0.050471842546112256 0.04676573637721715 0.0 -0.02221979548987174 0.0 0.0
-0.055876477904726954 0.05178764603538921 0.0 -0.026540010066474717 0.0 0.0
-0.05653494457356323 0.05196508445743442 0.0 -0.029554920723072975 0.0 0.0
-0.04798730990918801 0.04283460033001241 0.0 -0.028527124560631834 0.0 0.0
-0.04798730990918604 0.04283460033000841 0.0 0.028527124560663975 0.0 0.0
-0.05653494457355247 0.05196508445742776 0.0 0.029554920723112332 0.0 0.0
-0.05587647790470697 0.051787646035375 0.0 0.026540010066503195 0.0 0.0
-0.05047184254608714 0.046765736377194944 0.0 0.02221979548987879 0.0 0.0
-0.043289004120322064 0.0398855471861812 0.0 0.018481839408278522 0.0 0.0
-0.036060531975098176 0.03289261246536057 0.0 0.01572424356991725 0.0 0.0
-0.029542846110003185 0.026571756334826446 0.0 0.013648050885928353 0.0 0.0
-0.023881672555161465 0.02109727276450757 0.0 0.011874365378503948 0.0 0.0
-0.018967956374354583 0.016373940967652212 0.0 0.01018612423642648 0.0 0.0
-0.014656244301468085 0.012261370247468317 0.0 0.008492784626712213 0.0 0.0
-0.010857707455491743 0.008676207737188246 0.0 0.006743892899078396 0.0 0.0
-0.007571231382127695 0.005633530319087976 0.0 0.0049882958914323206 0.0 0.0
-0.004899063087149387 0.0032602382570625643 0.0 0.003443168232025784 0.0 0.0
-0.003003215574235635 0.0017149429954277373 0.0 0.00239348501720979 0.0 0.0
-0.001898354210401472 0.0009474670557704234 0.0 0.001913497108971124 0.0 0.0
-0.0013451433283657513 0.0006448504041978165 0.0 0.0018188683059541522 0.0 0.0
-0.0010101880474646663 0.0004853230443727652 0.0 0.001908085066150783 0.0 0.0
-0.0007065318470522927 0.0003058390935533617 0.0 0.0019877569860764777 0.0 0.0
-0.00034267006011901024 8.894059687292177e-06 0.0 0.0018454819721950566 0.0 0.0
3.9381352988580864e-05 -0.0003276242733154383 0.0 0.0009792671969856004 0.0 0.0
-1.9112503335055875e-05 -0.0001972929527826739 0.0 -0.0007923793248616751 0.0 0.0
-0.00039250204977733794 6.044401108606934e-05 0.0 -0.0016008164395329705 0.0 0.0
-0.0008062128653738287 0.00034835701840929545 0.0 -0.0017686289124574373 0.0 0.0
-0.0011797266126642447 0.000547959891046168 0.0 -0.0016731316390757867 0.0 0.0
-0.0016033074868562758 0.0007636301061973993 0.0 -0.0015650796916105436 0.0 0.0
-0.002371512911757273 0.0012394873812915375 0.0 -0.0016755158379781199 0.0 0.0
-0.003857076821180111 0.002376846072903449 0.0 -0.002229673707386831 0.0 0.0
-0.0062603568419987154 0.004446409978691834 0.0 -0.0033665699177592434 0.0 0.0
-0.009496546926159727 0.00740444219594294 0.0 -0.004882537178290958 0.0 0.0
-0.013446619456352532 0.011106995534678976 0.0 -0.006532708371879248 0.0 0.0
-0.018049864549757405 0.015480151777990114 0.0 -0.008201956294641877 0.0 0.0
-0.023313807898902278 0.020524180768914935 0.0 -0.009821327337725616 0.0 0.0
-0.02933703887286543 0.026333032390267963 0.0 -0.011453009363431521 0.0 0.0
-0.036271683179499525 0.03305856842876764 0.0 -0.013195674264309787 0.0 0.0
-0.044239100256019764 0.040809846777502656 0.0 -0.015134825536466945 0.0 0.0
-0.053108370666442556 0.0494131974816594 0.0 -0.017549988409431116 0.0 0.0
-0.06199982610406857 0.05794554902620641 0.0 -0.02095409982932117 0.0 0.0
-0.06873930476319987 0.06422043864167115 0.0 -0.025404490050838946 0.0 0.0
-0.06965063589014134 0.06459831304749075 0.0 -0.029762349545136235 0.0 0.0
-0.05967718836780016 0.05406125710886567 0.0 -0.032209429241460974 0.0 0.0
-0.05967718836779691 0.05406125710886567 0.0 0.03220942924149334 0.0 0.0
-0.06965063589012738 0.06459831304747965 0.0 0.029762349545177036 0.0 0.0
-0.0687393047631758 0.06422043864165161 0.0 0.025404490050867257 0.0 0.0
-0.06199982610403873 0.057945549026181986 0.0 0.020954099829328665 0.0 0.0
-0.053108370666407306 0.04941319748163142 0.0 0.017549988409429396 0.0 0.0
-0.04423910025598306 0.04080984677747024 0.0 0.015134825536462393 0.0 0.0
-0.036271683179463825 0.03305856842873345 0.0 0.013195674264300489 0.0 0.0
-0.02933703887282956 0.026333032390231104 0.0 0.011453009363423972 0.0 0.0
-0.023313807898866078 0.020524180768878075 0.0 0.009821327337713043 0.0 0.0
-0.018049864549724244 0.015480151777955697 0.0 0.008201956294626223 0.0 0.0
-0.01344661945632402 0.011106995534649222 0.0 0.0065327083718629 0.0 0.0
-0.009496546926137377 0.007404442195921179 0.0 0.004882537178279522 0.0 0.0
-0.0062603568419828115 0.004446409978676957 0.0 0.003366569917751472 0.0 0.0
-0.003857076821169904 0.0023768460728951224 0.0 0.002229673707381724 0.0 0.0
-0.002371512911752631 0.0012394873812882068 0.0 0.0016755158379743451 0.0 0.0
-0.0016033074868543468 0.0007636301061972883 0.0 0.0015650796916082677 0.0 0.0
-0.0011797266126632178 0.0005479598910474448 0.0 0.0016731316390748985 0.0 0.0
-0.0008062128653729614 0.0003483570184090179 0.0 0.00176862891245691 0.0 0.0
-0.00039250204977691466 6.044401108612485e-05 0.0 0.0016008164395316937 0.0 0.0
-1.911250333509057e-05 -0.00019729295278265134 0.0 0.0007923793248607036 0.0 0.0
-6.66661188650497e-05 -9.090289793550754e-05 0.0 -0.0005992508509125305 0.0 0.0
-0.0004391917351171115 0.00011177362117253953 0.0 -0.001319984150524145 0.0 0.0
-0.0009009694205072138 0.00038916118390741605 0.0 -0.001495270931683057 0.0 0.0
-0.0013418266148899904 0.0006051378677028874 0.0 -0.001389741127654276 0.0 0.0
-0.0018736891093545094 0.000896815178603072 0.0 -0.0012740760707792564 0.0 0.0
-0.002899667908667636 0.0016078863891347828 0.0 -0.0014124094850733737 0.0 0.0
-0.004795832331230154 0.003160243945782293 0.0 -0.0020198229381846178 0.0 0.0
-0.0076601296717825895 0.005716214933596753 0.0 -0.003083675399685737 0.0 0.0
-0.011429958536615298 0.009212156447750752 0.0 -0.004408201742798656 0.0 0.0
-0.01604384664312264 0.01356890547247791 0.0 -0.005881536864402015 0.0 0.0
-0.02145178231179576 0.01872940183538785 0.0 -0.007372926726548601 0.0 0.0
-0.02767869102332865 0.024713131906608066 0.0 -0.008826438601968245 0.0 0.0
-0.03482907177524569 0.03162456338227848 0.0 -0.010319589736044854 0.0 0.0
-0.043042887741281566 0.03960057478120538 0.0 -0.011915019165264162 0.0 0.0
-0.05240845540319242 0.0487259305118104 0.0 -0.013606421291841975 0.0 0.0
-0.06278358823678346 0.0588199833154599 0.0 -0.01543174659058244 0.0 0.0
-0.07326484823161808 0.06889941989828108 0.0 -0.017927423166761547 0.0 0.0
-0.0813762516650522 0.076475160943005 0.0 -0.02212533480831308 0.0 0.0
-0.08279871588987632 0.07730132229441189 0.0 -0.028380238095182253 0.0 0.0
-0.07172109034943594 0.06565075843327195 0.0 -0.035787760146064385 0.0 0.0
-0.07172109034943121 0.06565075843326307 0.0 0.035787760146093306 0.0 0.0
-0.08279871588985947 0.07730132229438746 0.0 0.02838023809521789 0.0 0.0
-0.08137625166502427 0.07647516094297035 0.0 0.022125334808339947 0.0 0.0
-0.07326484823158264 0.06889941989824333 0.0 0.01792742316676832 0.0 0.0
-0.06278358823674338 0.058819983315418156 0.0 0.01543174659058233 0.0 0.0
-0.05240845540315028 0.048725930511770876 0.0 0.013606421291838283 0.0 0.0
-0.043042887741239544 0.03960057478116896 0.0 0.011915019165256585 0.0 0.0
-0.034829071775204334 0.03162456338224029 0.0 0.010319589736037582 0.0 0.0
-0.027678691023286794 0.024713131906572094 0.0 0.008826438601958392 0.0 0.0
-0.02145178231175742 0.01872940183534877 0.0 0.007372926726534029 0.0 0.0
-0.016043846643089686 0.013568905472443937 0.0 0.00588153686438786 0.0 0.0
-0.01142995853658945 0.009212156447724995 0.0 0.004408201742789136 0.0 0.0
-0.007660129671763341 0.005716214933577879 0.0 0.003083675399677882 0.0 0.0
-0.004795832331217671 0.003160243945772079 0.0 0.0020198229381790944 0.0 0.0
-0.002899667908661502 0.0016078863891300088 0.0 0.0014124094850704316 0.0 0.0
-0.001873689109352046 0.0008968151786010736 0.0 0.0012740760707793952 0.0 0.0
-0.001341826614888783 0.0006051378677031649 0.0 0.0013897411276534155 0.0 0.0
-0.0009009694205063257 0.00038916118390730503 0.0 0.0014952709316819746 0.0 0.0
-0.0004391917351165217 0.00011177362117228973 0.0 0.0013199841505222853 0.0 0.0
-6.666611886496643e-05 -9.090289793548326e-05 0.0 0.0005992508509116978 0.0 0.0
-9.959018579139278e-05 -1.1510676428905242e-05 0.0 -0.00040159721297519657 0.0 0.0
-0.00047783115402089127 0.0001592439643403054 0.0 -0.0010053850972337741 0.0 0.0
-0.0009909055401851052 0.0004267080946443458 0.0 -0.0011665678277898994 0.0 0.0
-0.0015023582944570235 0.0006646900653419774 0.0 -0.001060815969798512 0.0 0.0
-0.0021698464094875025 0.0010631827369613767 0.0 -0.0009522981699796318 0.0 0.0
-0.003500013895834736 0.0020633814816823914 0.0 -0.0011267260270924895 0.0 0.0
-0.005783823577044739 0.004021257303751025 0.0 -0.0016690279648827744 0.0 0.0
-0.009064765876045794 0.007016768573582688 0.0 -0.0025256165708662515 0.0 0.0
-0.013361718424059726 0.01103832526658688 0.0 -0.003602520785805974 0.0 0.0
-0.018633313173608973 0.016040983045019885 0.0 -0.004805142806663443 0.0 0.0
-0.024848929623414673 0.02198978220759029 0.0 -0.006028106216896534 0.0 0.0
-0.032048250566386244 0.02892329843493724 0.0 -0.007217746911290679 0.0 0.0
-0.04034075625236516 0.03694978945314675 0.0 -0.008447795074469633 0.0 0.0
-0.049841572234266995 0.046182194481326544 0.0 -0.009814992266716782 0.0 0.0
-0.06055589941429565 0.05662298519374476 0.0 -0.011207208287355885 0.0 0.0
-0.07224467983431831 0.06801487323792488 0.0 -0.01231229219855079 0.0 0.0
-0.08407000442485463 0.07945159072543317 0.0 -0.0134002170557177 0.0 0.0
-0.09367279045156499 0.08845120203307433 0.0 -0.016695219809160777 0.0 0.0
-0.09612804914463034 0.09021321086193668 0.0 -0.025029195400403992 0.0 0.0
-0.08449505272501995 0.07794004780236463 0.0 -0.03898468231886121 0.0 0.0
-0.08449505272501368 0.07794004780236108 0.0 0.038984682318884356 0.0 0.0
-0.09612804914461072 0.09021321086192469 0.0 0.025029195400434967 0.0 0.0
-0.09367279045153254 0.08845120203305212 0.0 0.016695219809183648 0.0 0.0
-0.08407000442481377 0.07945159072539543 0.0 0.013400217055722141 0.0 0.0
-0.07224467983427249 0.06801487323787914 0.0 0.012312292198551483 0.0 0.0
-0.06055589941424825 0.056622985193691466 0.0 0.011207208287353942 0.0 0.0
-0.049841572234219034 0.04618219448127503 0.0 0.00981499226671309 0.0 0.0
-0.040340756252317825 0.03694978945309746 0.0 0.008447795074464054 0.0 0.0
-0.0320482505663386 0.02892329843489372 0.0 0.007217746911285516 0.0 0.0
-0.0248489296233717 0.021989782207549435 0.0 0.006028106216885348 0.0 0.0
-0.018633313173572055 0.016040983044986357 0.0 0.00480514280665198 0.0 0.0
-0.013361718424030371 0.011038325266561344 0.0 0.0036025207857977304 0.0 0.0
-0.0090647658760235 0.00701676857356337 0.0 0.002525616570858369 0.0 0.0
-0.005783823577029747 0.004021257303737813 0.0 0.0016690279648785 0.0 0.0
-0.0035000138958267354 0.0020633814816771734 0.0 0.0011267260270901025 0.0 0.0
-0.0021698464094844806 0.0010631827369590452 0.0 0.0009522981699784105 0.0 0.0
-0.0015023582944557572 0.0006646900653412557 0.0 0.0010608159697974573 0.0 0.0
-0.0009909055401842587 0.0004267080946443458 0.0 0.0011665678277879565 0.0 0.0
-0.000477831154020357 0.00015924396434041643 0.0 0.0010053850972325251 0.0 0.0
-9.959018579130605e-05 -1.1510676428792485e-05 0.0 0.00040159721297478024 0.0 0.0
-0.00011153977866829035 3.6969531837099945e-05 0.0 -0.00020609632549653534 0.0 0.0
-0.0004998151695293496 0.00019711245354242513 0.0 -0.0006566578610079921 0.0 0.0
-0.0010768097705409208 0.0004609972718426225 0.0 -0.0007758797457944888 0.0 0.0
-0.0016713643103318798 0.0007324690378754939 0.0 -0.0006896325178152862 0.0 0.0
-0.002511789928494157 0.001288475978214576 0.0 -0.0006191825927462924 0.0 0.0
-0.004163024174991564 0.0026027560818550066 0.0 -0.0007678753371265501 0.0 0.0
-0.006783453344486906 0.004925457628392138 0.0 -0.0011546772721456877 0.0 0.0
-0.010466993816803133 0.00833114200333207 0.0 -0.0017328067499209898 0.0 0.0
-0.015276628609655757 0.012864469018432745 0.0 -0.0024730192446167365 0.0 0.0
-0.021200227443981506 0.018505687466739973 0.0 -0.003313303226710085 0.0 0.0
-0.02822712188127341 0.025245052533481527 0.0 -0.004165562943796164 0.0 0.0
-0.036409158874034675 0.03313745072500107 0.0 -0.004995325311439702 0.0 0.0
-0.04585588412071301 0.04229093618484869 0.0 -0.005887284856267383 0.0 0.0
-0.05663898977282458 0.05277331396498974 0.0 -0.006870455179336821 0.0 0.0
-0.06866217159152532 0.0644831658178262 0.0 -0.007814669562849708 0.0 0.0
-0.08151541792700062 0.0770096114609089 0.0 -0.008369454714839852 0.0 0.0
-0.09431350533848246 0.08944984068837902 0.0 -0.008204328382468429 0.0 0.0
-0.10522044468410516 0.09985151439365358 0.0 -0.009166964315405313 0.0 0.0
-0.10971132783314068 0.10338811255252178 0.0 -0.018457692545018445 0.0 0.0
-0.0985726035232221 0.09144679933657018 0.0 -0.04108601368885001 0.0 0.0
-0.09857260352321455 0.09144679933656308 0.0 0.04108601368886583 0.0 0.0
-0.1097113278331178 0.10338811255250224 0.0 0.01845769254504326 0.0 0.0
-0.10522044468406795 0.0998515143936225 0.0 0.00916696431542291 0.0 0.0
-0.09431350533843581 0.08944984068833595 0.0 0.008204328382469428 0.0 0.0
-0.08151541792694907 0.07700961146086405 0.0 0.00836945471483913 0.0 0.0
-0.06866217159147212 0.0644831658177818 0.0 0.007814669562848015 0.0 0.0
-0.05663898977277106 0.05277331396494178 0.0 0.0068704551793359325 0.0 0.0
-0.045855884120659295 0.04229093618479496 0.0 0.005887284856262581 0.0 0.0
-0.036409158873981134 0.03313745072495 0.0 0.004995325311436455 0.0 0.0
-0.028227121881225666 0.02524505253343423 0.0 0.004165562943788226 0.0 0.0
-0.021200227443940848 0.018505687466702003 0.0 0.00331330322670198 0.0 0.0
-0.015276628609622745 0.012864469018399438 0.0 0.0024730192446122123 0.0 0.0
-0.01046699381677799 0.008331142003309644 0.0 0.001732806749917437 0.0 0.0
-0.006783453344469486 0.004925457628377372 0.0 0.0011546772721426901 0.0 0.0
-0.004163024174981669 0.0026027560818451256 0.0 0.0007678753371249125 0.0 0.0
-0.0025117899284901116 0.0012884759782108013 0.0 0.0006191825927459038 0.0 0.0
-0.0016713643103304816 0.0007324690378762155 0.0 0.0006896325178155083 0.0 0.0
-0.0010768097705400395 0.0004609972718421229 0.0 0.0007758797457936006 0.0 0.0
-0.0004998151695286834 0.00019711245354214757 0.0 0.000656657861007881 0.0 0.0
-0.00011153977866840657 3.696953183709821e-05 0.0 0.00020609632549639656 0.0 0.0
-9.112875700406642e-05 4.888954092274744e-05 0.0 -2.868174979145377e-05 0.0 0.0
-0.0004908533124587111 0.00021661977769404928 0.0 -0.000267436769232271 0.0 0.0
-0.0011614827369001712 0.0004919292769905992 0.0 -0.0003087747335099311 0.0 0.0
-0.0018669726619602312 0.0008278695132013514 0.0 -0.00028406276432851874 0.0 0.0
-0.002912944507357046 0.0015730879216463434 0.0 -0.000254528139722765 0.0 0.0
-0.004858066462751304 0.003191133283363401 0.0 -0.0003104288396522381 0.0 0.0
-0.007785990099655721 0.00584901710023944 0.0 -0.0004723965892085291 0.0 0.0
-0.011852150901185993 0.009643658009306888 0.0 -0.0007073303449645629 0.0 0.0
-0.01716043493758143 0.014671856301797348 0.0 -0.001027813057630611 0.0 0.0
-0.023728651671454465 0.020944218091612843 0.0 -0.0014055202600097294 0.0 0.0
-0.031572962333575344 0.02848111990912905 0.0 -0.0017899118304408046 0.0 0.0
-0.040753612970432784 0.03734611852149983 0.0 -0.0021848128762878005 0.0 0.0
-0.05134898468477389 0.04762076905821466 0.0 -0.0026042502456746774 0.0 0.0
-0.06339179726114075 0.0593311556268743 0.0 -0.003036724080824449 0.0 0.0
-0.07669960819908236 0.07228653638737592 0.0 -0.0034162495554226346 0.0 0.0
-0.09066577376719362 0.08588258956659445 0.0 -0.0035171309116115435 0.0 0.0
-0.10416754100285958 0.09901627366325583 0.0 -0.002960490145790029 0.0 0.0
-0.11559315928608482 0.11007389229558706 0.0 -0.0017506196681612574 0.0 0.0
-0.12226924855088393 0.1161666223386213 0.0 -0.006013819106144569 0.0 0.0
-0.1156021572470057 0.10739419804938777 0.0 -0.03790950883439781 0.0 0.0
-0.1156021572469976 0.10739419804938066 0.0 0.03790950883440425 0.0 0.0
-0.12226924855085781 0.11616662233859731 0.0 0.006013819106155449 0.0 0.0
-0.11559315928604175 0.11007389229554843 0.0 0.001750619668169584 0.0 0.0
-0.1041675410028066 0.09901627366320298 0.0 0.002960490145788419 0.0 0.0
-0.09066577376713615 0.08588258956653405 0.0 0.0035171309116116822 0.0 0.0
-0.07669960819902322 0.07228653638731508 0.0 0.00341624955542133 0.0 0.0
-0.06339179726108124 0.05933115562681124 0.0 0.0030367240808242546 0.0 0.0
-0.05134898468471393 0.04762076905815582 0.0 0.0026042502456713468 0.0 0.0
-0.04075361297037387 0.037346118521445204 0.0 0.0021848128762868013 0.0 0.0
-0.03157296233352236 0.028481119909078645 0.0 0.0017899118304356698 0.0 0.0
-0.023728651671410295 0.020944218091568212 0.0 0.0014055202600063155 0.0 0.0
-0.017160434937544992 0.014671856301761377 0.0 0.0010278130576294175 0.0 0.0
-0.01185215090115803 0.009643658009280465 0.0 0.0007073303449628976 0.0 0.0
-0.007785990099636332 0.005849017100219567 0.0 0.00047239658920580907 0.0 0.0
-0.00485806646273963 0.0031911332833519657 0.0 0.0003104288396518773 0.0 0.0
-0.0029129445073516804 0.0015730879216437899 0.0 0.0002545281397239585 0.0 0.0
-0.0018669726619583672 0.0008278695132008518 0.0 0.00028406276432862976 0.0 0.0
-0.0011614827368991634 0.0004919292769898775 0.0 0.0003087747335098756 0.0 0.0
-0.000490853312458267 0.00021661977769363294 0.0 0.00026743676923285387 0.0 0.0
-9.112875700388514e-05 4.8889540922707544e-05 0.0 2.868174979214766e-05 0.0 0.0
SCALARS Statev float 8
LOOKUP_TABLE default
0.0 0.010701939598157798 0.008191555301790538 -0.008575549704650486 0.000383994402859949 -0.004651505490474062 0.0 0.0
0.0 0.0003909005483446311 0.00024391166185930302 -0.00019531565305329216 -4.859600880601086e-05 0.00025966767084083654 0.0 0.0
0.0 3.342380937738801e-05 -4.754075056001044e-06 3.773145031477424e-06 9.809300245235895e-07 5.62033213615258e-07 0.0 0.0
0.0 0.00013963613710597791 6.684423632536845e-05 -5.202205809770765e-05 -1.4822178227660906e-05 -9.07140596399064e-06 0.0 0.0
0.0 0.0009077933370726744 0.00066813029025946 -0.0005392771118453941 -0.00012885317841406622 -7.451549869371718e-05 0.0 0.0
0.0 0.0024889368196905756 0.002285594441551003 -0.0019345165018254326 -0.00035107793972557046 -0.0001875670001302203 0.0 0.0
0.0 0.00547286898997084 0.004944467335503938 -0.004397517356780226 -0.0005469499787237113 -0.00034850135046382737 0.0 0.0
0.0 0.009848970162270038 0.008782690074524271 -0.008089323891887287 -0.0006933661826369833 -0.0005722824043639706 0.0 0.0
0.0 0.01569859908624578 0.013866371099626143 -0.01305829638058859 -0.0008080747190375463 -0.0008753757349148517 0.0 0.0
0.0 0.02303578320546694 0.02021147367594689 -0.01929783101314625 -0.0009136426628006488 -0.0012396169947159938 0.0 0.0
0.0 0.03191063361300569 0.02784484017435801 -0.026825984255524637 -0.0010188559188333713 -0.0016212851902378041 0.0 0.0
0.0 0.04211710057068307 0.03683663162374676 -0.03571055302402154 -0.0011260785997251992 -0.0020199570809975834 0.0 0.0
0.0 0.05405050466098084 0.0472621583553572 -0.046027598061400735 -0.001234560293956436 -0.0024398072949012146 0.0 0.0
0.0 0.06775976786714354 0.059165713375163034 -0.057820031337975475 -0.0013456820371875351 -0.0028805920323452957 0.0 0.0
0.0 0.08305105298590239 0.07243443046069731 -0.07097300962617384 -0.0014614208345234362 -0.0033440755732467705 0.0 0.0
0.0 0.09946653776636079 0.0866410964869142 -0.08505964924688544 -0.0015814472400287613 -0.0037533471909688733 0.0 0.0
0.0 0.11603153812879938 0.10096997048429743 -0.09926773379731103 -0.0017022366869864328 -0.003929943562696926 0.0 0.0
0.0 0.13137687832827669 0.11425142507022722 -0.11243356373319607 -0.0018178613370311153 -0.003636770153599325 0.0 0.0
0.0 0.14387882256180778 0.1250783500119727 -0.1231563905719755 -0.0019219594399971928 -0.0028988176592961478 0.0 0.0
0.0 0.1513135670222245 0.13165727610359806 -0.12961369801491235 -0.002043578088685683 -0.00261933070667229 0.0 0.0
0.0 0.151313567022216 0.13165727610359046 -0.12961369801490513 -0.002043578088685333 0.0026193307066768364 0.0 0.0
0.0 0.143878822561783 0.12507835001195056 -0.12315639057195468 -0.0019219594399959028 0.002898817659311699 0.0 0.0
0.0 0.13137687832823053 0.11425142507018686 -0.11243356373315677 -0.0018178613370300716 0.003636770153605994 0.0 0.0
0.0 0.11603153812874019 0.10096997048424608 -0.09926773379726 -0.0017022366869860425 0.003929943562702384 0.0 0.0
0.0 0.09946653776629652 0.08664109648685853 -0.08505964924682995 -0.001581447240028581 0.0037533471909618134 0.0 0.0
0.0 0.08305105298583851 0.07243443046064185 -0.07097300962611869 -0.0014614208345231777 0.0033440755732470975 0.0 0.0
0.0 0.06775976786707867 0.05916571337510665 -0.05782003133791975 -0.0013456820371868972 0.0028805920323443793 0.0 0.0
0.0 0.05405050466091714 0.04726215835530161 -0.04602759806134622 -0.001234560293955385 0.002439807294900979 0.0 0.0
0.0 0.04211710057062124 0.03683663162369281 -0.0357105530239686 -0.0011260785997241872 0.0020199570809929556 0.0 0.0
0.0 0.03191063361295085 0.027844840174309958 -0.026825984255477286 -0.0010188559188326625 0.0016212851902355258 0.0 0.0
0.0 0.023035783205420858 0.02021147367590679 -0.01929783101310679 -0.0009136426627999999 0.0012396169947111154 0.0 0.0
0.0 0.015698599086209554 0.013866371099594037 -0.013058296380557076 -0.0008080747190369637 0.0008753757349137035 0.0 0.0
0.0 0.009848970162244569 0.00878269007450122 -0.008089323891864883 -0.0006933661826363362 0.0005722824043619877 0.0 0.0
0.0 0.005472868989953747 0.0049444673354880845 -0.004397517356765263 -0.0005469499787228184 0.00034850135046303525 0.0 0.0
0.0 0.002488936819680612 0.002285594441541396 -0.0019345165018167826 -0.0003510779397246128 0.0001875670001293055 0.0 0.0
0.0 0.000907793337068221 0.0006681302902559586 -0.000539277111842482 -0.0001288531784134762 7.451549869333734e-05 0.0 0.0
0.0 0.00013963613710468064 6.684423632513832e-05 -5.202205809751896e-05 -1.4822178227619386e-05 9.071405963895975e-06 0.0 0.0
0.0 3.342380937687491e-05 -4.754075055922566e-06 3.7731450314146314e-06 9.80930024507978e-07 -5.620332136057866e-07 0.0 0.0
0.0 0.0003909005483426414 0.0002439116618582827 -0.00019531565305246784 -4.8596008805815005e-05 -0.0002596676708394451 0.0 0.0
0.0 0.010701939598141485 0.008191555301779518 -0.00857554970463844 0.0003839944028589197 0.0046515054904498 0.0 0.0
0.0 0.007697786523870584 0.005523515354214409 -0.006002956164205889 0.0004794408099914786 -0.005234623150409862 0.0 0.0
0.0 9.735811856412316e-08 -9.785169814275069e-09 7.955171207828274e-09 1.8299986064463344e-09 -7.27040002772591e-09 0.0 0.0
0.0 9.430826945183483e-08 -1.020951514236367e-08 7.758883502814768e-09 2.450631639548195e-09 3.6392644398315674e-09 0.0 0.0
0.0 3.982288158303873e-05 6.901817932767788e-06 -5.387401408760169e-06 -1.514416524007853e-06 -3.537473920892161e-06 0.0 0.0
0.0 0.0005583632618885742 0.00036162394059565257 -0.0002890831047781207 -7.254083581753186e-05 -9.845898779120706e-05 0.0 0.0
0.0 0.001830674013750485 0.0016835187353225372 -0.0014034449300329745 -0.000280073805289563 -0.0003720911331171708 0.0 0.0
0.0 0.004454595778290892 0.004024317951912123 -0.0035317576094665948 -0.0004925603424455268 -0.0007856478965516547 0.0 0.0
0.0 0.00838651340345289 0.0074745719253880355 -0.006819300920613763 -0.0006552710047742728 -0.001344064042811475 0.0 0.0
0.0 0.013655777961020089 0.012061164496261403 -0.011284688364811264 -0.00077647613145014 -0.0020556785893888676 0.0 0.0
0.0 0.02023992139190556 0.0177659542539957 -0.016885103788410197 -0.0008808504655855019 -0.002878541773635844 0.0 0.0
0.0 0.028134791665661407 0.02458793904484169 -0.02360725156530108 -0.000980687479540601 -0.0037348319178072092 0.0 0.0
0.0 0.037452577861186165 0.03258747453832642 -0.03150796379662181 -0.0010795107417046234 -0.004583599915574455 0.0 0.0
0.0 0.04803076216552823 0.04187972644095059 -0.04070049774514196 -0.001179228695808623 -0.005493215007780139 0.0 0.0
0.0 0.060245130877594956 0.052531201198321824 -0.05124981622558751 -0.0012813849727342902 -0.006495574413759681 0.0 0.0
0.0 0.07399031884377412 0.06445204708127843 -0.06306482169584537 -0.0013872253854330737 -0.007539868851305107 0.0 0.0
0.0 0.08877222220659302 0.07727809686102993 -0.07578156203804799 -0.0014965348229819255 -0.008466897165943132 0.0 0.0
0.0 0.1037770770450945 0.09029467112260578 -0.08868779904942883 -0.001606872073176912 -0.008900712226814933 0.0 0.0
0.0 0.11779387672610347 0.10244650307213274 -0.10073176939946984 -0.0017147336726628711 -0.008411736306436508 0.0 0.0
0.0 0.12917862815167008 0.11233150039358888 -0.1105079504862797 -0.0018235499073091903 -0.006959478000741294 0.0 0.0
0.0 0.13594880267078316 0.11823050792733993 -0.11632655493190082 -0.0019039529954391493 -0.0044458950716302036 0.0 0.0
0.0 0.13594880267077397 0.11823050792733193 -0.11632655493189259 -0.0019039529954393754 0.004445895071646102 0.0 0.0
0.0 0.12917862815164585 0.11233150039356762 -0.11050795048625817 -0.0018235499073095006 0.006959478000768562 0.0 0.0
0.0 0.11779387672606445 0.10244650307209838 -0.10073176939943604 -0.0017147336726623026 0.008411736306454294 0.0 0.0
0.0 0.10377707704504607 0.09029467112256326 -0.08868779904938709 -0.0016068720731760966 0.00890071222682534 0.0 0.0
0.0 0.08877222220653894 0.07727809686098293 -0.0757815620380019 -0.0014965348229810129 0.008466897165936585 0.0 0.0
0.0 0.0739903188437197 0.0644520470812306 -0.06306482169579908 -0.0013872253854314998 0.007539868851303628 0.0 0.0
0.0 0.0602451308775386 0.052531201198272676 -0.05124981622553923 -0.001281384972733424 0.006495574413758229 0.0 0.0
0.0 0.048030762165470545 0.0418797264409005 -0.040700497745092226 -0.0011792286958082756 0.005493215007778261 0.0 0.0
0.0 0.03745257786113046 0.03258747453827787 -0.03150796379657388 -0.001079510741703986 0.0045835999155676 0.0 0.0
0.0 0.02813479166561171 0.024587939044798408 -0.023607251565258315 -0.00098068747954009 0.003734831917801187 0.0 0.0
0.0 0.02023992139186262 0.017765954253958112 -0.016885103788373115 -0.0008808504655849921 0.0028785417736273107 0.0 0.0
0.0 0.01365577796098744 0.012061164496232245 -0.011284688364782674 -0.0007764761314495687 0.0020556785893847446 0.0 0.0
0.0 0.008386513403427984 0.007474571925365673 -0.006819300920592252 -0.0006552710047734228 0.0013440640428072012 0.0 0.0
0.0 0.004454595778273956 0.0040243179518964865 -0.003531757609451958 -0.0004925603424445287 0.0007856478965487278 0.0 0.0
0.0 0.0018306740137421494 0.0016835187353150041 -0.001403444930026349 -0.0002800738052886547 0.0003720911331153121 0.0 0.0
0.0 0.0005583632618854382 0.0003616239405936843 -0.00028908310477650847 -7.254083581717584e-05 9.845898779065163e-05 0.0 0.0
0.0 3.982288158258309e-05 6.901817932996469e-06 -5.387401408936807e-06 -1.5144165240595232e-06 3.5374739209809017e-06 0.0 0.0
0.0 9.430826938068039e-08 -1.0209515134588993e-08 7.758883496907494e-09 2.4506316376819497e-09 -3.6392644370560787e-09 0.0 0.0
0.0 9.735811846572097e-08 -9.78516980428818e-09 7.9551711997036e-09 1.8299986045861706e-09 7.270400020323914e-09 0.0 0.0
0.0 0.007697786523852105 0.005523515354202129 -0.006002956164192806 0.0004794408099906782 0.005234623150389022 0.0 0.0
0.0 0.005691500792338893 0.003853183904231443 -0.004338610491472109 0.0004854265872406672 -0.0044996664129356165 0.0 0.0
0.0 0.0 0.0 0.0 0.0 0.0 0.0 0.0
0.0 0.0 0.0 0.0 0.0 0.0 0.0 0.0
0.0 5.117005562698758e-06 1.7712573174361556e-06 -1.3768407930953348e-06 -3.9441652434084124e-07 -1.2694484004310327e-06 0.0 0.0
0.0 0.0002561175936252744 0.0001597273441738359 -0.00012652034450614377 -3.320699966769206e-05 -7.882434374598296e-05 0.0 0.0
0.0 0.0013886492741639776 0.0011082997109610848 -0.0009104369909195742 -0.0001978627200415095 -0.0004272063438944776 0.0 0.0
0.0 0.003476457530878583 0.0031243426466378644 -0.0026979286186500765 -0.000426414027987789 -0.0010427445190869355 0.0 0.0
0.0 0.006944098932354727 0.006167442755811177 -0.0055612447245164415 -0.0006061980312947342 -0.001884410796508128 0.0 0.0
0.0 0.01164296758712461 0.010240438213551256 -0.009502549207247411 -0.0007378890063038434 -0.0029258643357653533 0.0 0.0
0.0 0.017492407382949847 0.015297535571297781 -0.014454710978728563 -0.0008428245925692166 -0.004109637976715412 0.0 0.0
0.0 0.02448558168983994 0.021313017178055307 -0.020375395634221957 -0.0009376215438333486 -0.005341446963098924 0.0 0.0
0.0 0.03258916662948797 0.028337654196190554 -0.027308657796287453 -0.0010289963999030973 -0.0065634721876115226 0.0 0.0
0.0 0.04210498456750962 0.03648627293621137 -0.03536618161584791 -0.0011200913203634727 -0.00783563632663409 0.0 0.0
0.0 0.0528184099655393 0.045863211327766454 -0.04465009571356438 -0.001213115614202068 -0.009259570539698718 0.0 0.0
0.0 0.06494732566624832 0.05641582906425926 -0.05510709458937049 -0.001308734474888752 -0.010782537939869621 0.0 0.0
0.0 0.07813914875212158 0.0678485330386951 -0.06644151129671001 -0.001407021741985059 -0.012126465945222233 0.0 0.0
0.0 0.09161870989175322 0.07956157992704914 -0.07805470267749366 -0.0015068772495554445 -0.01281307848113764 0.0 0.0
0.0 0.10427531369293602 0.09060505596746221 -0.08899582567150863 -0.0016092302959535589 -0.012291955819767983 0.0 0.0
0.0 0.11460282507743194 0.09965104181953134 -0.09794478751699412 -0.0017062543025371684 -0.010126495716323685 0.0 0.0
0.0 0.12089240831143885 0.1052049775152944 -0.10343123727966855 -0.0017737402356257828 -0.005810992887711853 0.0 0.0
0.0 0.12089240831143179 0.10520497751528768 -0.10343123727966227 -0.001773740235625363 0.005810992887736838 0.0 0.0
0.0 0.11460282507740938 0.09965104181951072 -0.0979447875169739 -0.0017062543025368182 0.010126495716359457 0.0 0.0
0.0 0.10427531369290027 0.09060505596743028 -0.08899582567147692 -0.0016092302959532948 0.012291955819792668 0.0 0.0
0.0 0.09161870989171243 0.07956157992701282 -0.07805470267745843 -0.001506877249554419 0.012813078481149699 0.0 0.0
0.0 0.07813914875207446 0.06784853303865418 -0.06644151129667003 -0.0014070217419841146 0.012126465945214979 0.0 0.0
0.0 0.06494732566619905 0.05641582906421628 -0.05510709458932821 -0.0013087344748880844 0.010782537939866943 0.0 0.0
0.0 0.05281840996549039 0.04586321132772368 -0.044650095713522395 -0.0012131156142012709 0.009259570539697023 0.0 0.0
0.0 0.04210498456745921 0.036486272936167276 -0.03536618161580448 -0.0011200913203627985 0.007835636326630634 0.0 0.0
0.0 0.03258916662943942 0.028337654196148542 -0.027308657796246073 -0.0010289963999024665 0.006563472187601376 0.0 0.0
0.0 0.02448558168979639 0.021313017178017108 -0.02037539563418424 -0.0009376215438328698 0.005341446963090402 0.0 0.0
0.0 0.017492407382913813 0.015297535571266058 -0.014454710978697534 -0.0008428245925685219 0.0041096379767045785 0.0 0.0
0.0 0.011642967587095184 0.010240438213525303 -0.009502549207222037 -0.0007378890063032635 0.002925864335758275 0.0 0.0
0.0 0.006944098932333732 0.006167442755792358 -0.005561244724498416 -0.0006061980312939442 0.0018844107965022595 0.0 0.0
0.0 0.003476457530865436 0.0031243426466257837 -0.0026979286186390615 -0.0004264140279867225 0.0010427445190832757 0.0 0.0
0.0 0.0013886492741561833 0.0011082997109546876 -0.000910436990914114 -0.00019786272004057264 0.00042720634389192743 0.0 0.0
0.0 0.00025611759362304616 0.00015972734417252977 -0.00012652034450510042 -3.3206999667429206e-05 7.882434374534731e-05 0.0 0.0
0.0 5.117005562407815e-06 1.771257317703914e-06 -1.3768407933025457e-06 -3.9441652440138827e-07 1.2694484006081115e-06 0.0 0.0
0.0 0.0 0.0 0.0 0.0 0.0 0.0 0.0
0.0 0.0 0.0 0.0 0.0 0.0 0.0 0.0
0.0 0.005691500792322947 0.0038531839042204915 -0.0043386104914603625 0.00048542658723987203 0.004499666412918055 0.0 0.0
0.0 0.00415064526819303 0.0026819627782219886 -0.0031202028166818396 0.0004382400384598494 -0.0034593543682768938 0.0 0.0
0.0 0.0 0.0 0.0 0.0 0.0 0.0 0.0
0.0 0.0 0.0 0.0 0.0 0.0 0.0 0.0
0.0 1.7764958665315978e-06 -1.7819784007305854e-07 1.3787375697884427e-07 4.03240830942293e-08 1.8782013220909485e-07 0.0 0.0
0.0 9.452785419752724e-05 5.100830786398521e-05 -4.022466122891276e-05 -1.0783646635072336e-05 -4.10858774385147e-05 0.0 0.0
0.0 0.0008729068384080546 0.0006507942002588476 -0.0005270987554681338 -0.0001236954447907139 -0.000383631750148371 0.0 0.0
0.0 0.0025985315739141587 0.002257256592715143 -0.001914494591270533 -0.0003427620014446101 -0.0011194640279426054 0.0 0.0
0.0 0.005542754180551878 0.004876786009298121 -0.004332529359302542 -0.0005442566499955802 -0.0021850240786553724 0.0 0.0
0.0 0.009651915564724917 0.008421594648077806 -0.0077325334673180104 -0.000689061180759793 -0.0034783322092034005 0.0 0.0
0.0 0.014761370182485457 0.012824900359923657 -0.0120273638979565 -0.0007975364619671499 -0.004933663867216896 0.0 0.0
0.0 0.020836189600978657 0.01803756225969084 -0.017148499368517818 -0.0008890628911730179 -0.006437284249501246 0.0 0.0
0.0 0.027894085822597982 0.02409330913327666 -0.023119337680487618 -0.0009739714527890369 -0.007932705368722454 0.0 0.0
0.0 0.03604442619010667 0.031107581118717035 -0.03005101337103999 -0.0010565677476770405 -0.009497603810768312 0.0 0.0
0.0 0.045463991612085565 0.03919622703339994 -0.03805556346975132 -0.001140663563648611 -0.011203236920444415 0.0 0.0
0.0 0.05610780619402694 0.048354958456492105 -0.047128967017632806 -0.001225991438859288 -0.013023478363292807 0.0 0.0
0.0 0.06750648798457312 0.058374313782513454 -0.05706151552121546 -0.0013127982612979863 -0.014698383324580839 0.0 0.0
0.0 0.07946660661123617 0.06876604281962576 -0.06736344123241575 -0.0014026015872099949 -0.015654914818805998 0.0 0.0
0.0 0.09082922658680419 0.07871097086393834 -0.07721585856253307 -0.0014951123014052944 -0.015177296666317376 0.0 0.0
0.0 0.10024290197931487 0.08703852330251984 -0.08545630301387112 -0.001582220288648718 -0.012515009474822278 0.0 0.0
0.0 0.10622185308421674 0.0924158017252509 -0.09077222032035916 -0.0016435814048917268 -0.006923513718130234 0.0 0.0
0.0 0.10622185308420923 0.09241580172524382 -0.09077222032035215 -0.0016435814048916908 0.0069235137181619544 0.0 0.0
0.0 0.10024290197929445 0.0870385233025008 -0.08545630301385174 -0.0015822202886490546 0.01251500947486468 0.0 0.0
0.0 0.09082922658677187 0.07871097086390907 -0.07721585856250349 -0.0014951123014055677 0.015177296666345978 0.0 0.0
0.0 0.0794666066111976 0.06876604281959157 -0.06736344123238153 -0.0014026015872100708 0.015654914818819005 0.0 0.0
0.0 0.06750648798453089 0.0583743137824769 -0.0570615155211793 -0.0013127982612975877 0.014698383324575248 0.0 0.0
0.0 0.05610780619397912 0.04835495845645089 -0.04712896701759171 -0.0012259914388591635 0.013023478363286262 0.0 0.0
0.0 0.04546399161204022 0.03919622703336048 -0.038055563469712214 -0.001140663563648266 0.0112032369204397 0.0 0.0
0.0 0.03604442619006167 0.031107581118677872 -0.03005101337100102 -0.0010565677476768467 0.00949760381076259 0.0 0.0
0.0 0.027894085822556335 0.0240933091332403 -0.0231193376804519 -0.000973971452788389 0.007932705368711428 0.0 0.0
0.0 0.020836189600942023 0.018037562259658618 -0.01714849936848639 -0.0008890628911722424 0.006437284249490572 0.0 0.0
0.0 0.014761370182453732 0.012824900359896193 -0.012027363897929709 -0.0007975364619664762 0.004933663867203852 0.0 0.0
0.0 0.009651915564698582 0.008421594648054658 -0.007732533467295553 -0.0006890611807591022 0.003478332209194946 0.0 0.0
0.0 0.005542754180532587 0.004876786009281084 -0.00433252935928635 -0.0005442566499947317 0.002185024078647844 0.0 0.0
0.0 0.0025985315739025976 0.0022572565927050678 -0.0019144945912614925 -0.00034276200144357457 0.0011194640279381211 0.0 0.0
0.0 0.0008729068384018859 0.0006507942002545025 -0.0005270987554645192 -0.00012369544478998336 0.0003836317501457608 0.0 0.0
0.0 9.452785419591635e-05 5.100830786349763e-05 -4.0224661228506885e-05 -1.078364663499083e-05 4.108587743805284e-05 0.0 0.0
0.0 1.7764958662467406e-06 -1.7819784004332652e-07 1.3787375695581053e-07 4.032408308752122e-08 -1.8782013217738892e-07 0.0 0.0
0.0 0.0 0.0 0.0 0.0 0.0 0.0 0.0
0.0 0.0 0.0 0.0 0.0 0.0 0.0 0.0
0.0 0.004150645268179294 0.0026819627782129645 -0.003120202816671965 0.0004382400384589987 0.0034593543682634566 0.0 0.0
0.0 0.002911502945057402 0.001802838168597987 -0.002163882090521381 0.00036104392192339463 -0.0024640930548545255 0.0 0.0
0.0 0.0 0.0 0.0 0.0 0.0 0.0 0.0
0.0 0.0 0.0 0.0 0.0 0.0 0.0 0.0
0.0 6.929946244958124e-08 -5.867089801559984e-09 4.478351496008589e-09 1.388738305550426e-09 8.798859195521545e-09 0.0 0.0
0.0 3.140156479826209e-05 1.2127619250744001e-05 -9.636648226892096e-06 -2.490971023851926e-06 -1.5348745892253476e-05 0.0 0.0
0.0 0.0004638710059055247 0.00032178260037297454 -0.0002578282043609875 -6.395439601198707e-05 -0.0002873462601372595 0.0 0.0
0.0 0.001881678984714753 0.001465154866633654 -0.0012185150476198448 -0.00024663981901380935 -0.0010189877901930994 0.0 0.0
0.0 0.004240918860698728 0.0036124524063708536 -0.0031489070913368095 -0.00046354531503404344 -0.002205761449793009 0.0 0.0
0.0 0.007697377832760888 0.006622779729459072 -0.005996604423377838 -0.0006261753060812329 -0.0037028476890952344 0.0 0.0
0.0 0.012072067502968405 0.010365434050889246 -0.009623051286276385 -0.0007423827646128623 -0.005340419438018447 0.0 0.0
0.0 0.017247404116828437 0.014777921435572485 -0.013944583291290853 -0.0008333381442816324 -0.00702511920695604 0.0 0.0
0.0 0.02320607207609059 0.01987394224026495 -0.018961198778199025 -0.0009127434620659254 -0.008693104443160371 0.0 0.0
0.0 0.030140066961205386 0.025758429064730085 -0.024770330035321968 -0.0009880990294081162 -0.010421817722768982 0.0 0.0
0.0 0.03800074717181178 0.0325610579353767 -0.03149835771429623 -0.0010627002210804746 -0.01232030881529017 0.0 0.0
0.0 0.04704925730755448 0.040314511176543805 -0.03917659913406652 -0.0011379120424772514 -0.01432555263690578 0.0 0.0
0.0 0.05709744179853882 0.0488836308401024 -0.047669288724167334 -0.0012143421159350575 -0.0161623213181608 0.0 0.0
0.0 0.06734785260656766 0.05791149473204264 -0.056619378026679275 -0.001292116705363341 -0.017338053184449104 0.0 0.0
0.0 0.07735179719743279 0.06675337061283576 -0.06538042878296009 -0.0013729418298756655 -0.017030347262274335 0.0 0.0
0.0 0.08594886292976829 0.07443396974598819 -0.0729829210654655 -0.0014510486805226817 -0.0141910836032682 0.0 0.0
0.0 0.09175107940830882 0.07974553473726304 -0.07823584717786089 -0.001509687559402114 -0.007844176408344746 0.0 0.0
0.0 0.09175107940830328 0.07974553473725753 -0.07823584717785516 -0.0015096875594023047 0.007844176408377262 0.0 0.0
0.0 0.08594886292975315 0.07443396974597294 -0.07298292106545035 -0.0014510486805225855 0.014191083603310886 0.0 0.0
0.0 0.07735179719740934 0.0667533706128132 -0.06538042878293795 -0.001372941829875236 0.017030347262305935 0.0 0.0
0.0 0.06734785260653965 0.057911494732016754 -0.056619378026654385 -0.0012921167053623844 0.017338053184463093 0.0 0.0
0.0 0.05709744179850619 0.04888363084007374 -0.04766928872413961 -0.0012143421159341308 0.016162321318156352 0.0 0.0
0.0 0.0470492573075173 0.040314511176511456 -0.03917659913403482 -0.0011379120424766282 0.014325552636899042 0.0 0.0
0.0 0.0380007471717763 0.03256105793534546 -0.03149835771426586 -0.0010627002210796027 0.01232030881528609 0.0 0.0
0.0 0.030140066961170532 0.02575842906469922 -0.02477033003529191 -0.0009880990294073 0.010421817722763481 0.0 0.0
0.0 0.02320607207605619 0.01987394224023501 -0.01896119877816967 -0.0009127434620653309 0.00869310444314927 0.0 0.0
0.0 0.01724740411679647 0.014777921435544902 -0.013944583291263898 -0.000833338144281006 0.007025119206942984 0.0 0.0
0.0 0.012072067502940717 0.01036543405086603 -0.009623051286253828 -0.0007423827646121969 0.005340419438003004 0.0 0.0
0.0 0.007697377832739584 0.006622779729440567 -0.005996604423360063 -0.0006261753060805002 0.003702847689085978 0.0 0.0
0.0 0.004240918860684268 0.0036124524063585435 -0.0031489070913255624 -0.00046354531503298065 0.00220576144978575 0.0 0.0
0.0 0.00188167898470665 0.0014651548666272175 -0.0012185150476143516 -0.0002466398190128662 0.0010189877901892628 0.0 0.0
0.0 0.0004638710059017909 0.000321782600370627 -0.0002578282043591046 -6.395439601152245e-05 0.0002873462601353065 0.0 0.0
0.0 3.140156479750811e-05 1.2127619250814317e-05 -9.636648226936644e-06 -2.490971023877596e-06 1.534874589227346e-05 0.0 0.0
0.0 6.92994622914334e-08 -5.86708978807203e-09 4.478351485713519e-09 1.3887383023585593e-09 -8.798859175293273e-09 0.0 0.0
0.0 0.0 0.0 0.0 0.0 0.0 0.0 0.0
0.0 0.0 0.0 0.0 0.0 0.0 0.0 0.0
0.0 0.002911502945045937 0.0018028381685907461 -0.0021638820905132724 0.00036104392192252543 0.0024640930548438782 0.0 0.0
0.0 0.0018946067368261483 0.0011339722915710737 -0.0014032277352324179 0.0002692554436613435 -0.001624000221226661 0.0 0.0
0.0 0.0 0.0 0.0 0.0 0.0 0.0 0.0
0.0 0.0 0.0 0.0 0.0 0.0 0.0 0.0
0.0 7.616774122468806e-07 -5.549138125016537e-08 4.2107338484635224e-08 1.338404276552882e-08 1.233693222903045e-07 0.0 0.0
0.0 1.1964853788717454e-05 1.4620394784386411e-07 -1.2196318928445382e-07 -2.4240758559409904e-08 -1.2132491046774568e-07 0.0 0.0
0.0 0.0001969409116824796 0.0001336169045104863 -0.00010650866456744918 -2.7108239943037006e-05 -0.00018415972055716088 0.0 0.0
0.0 0.0011218795442338207 0.0008363514710935088 -0.0006827053767961914 -0.0001536460942973169 -0.000837082878260353 0.0 0.0
0.0 0.0030269003364822556 0.0024265407453970033 -0.002068134098284361 -0.00035840664711264333 -0.0019949116023954398 0.0 0.0
0.0 0.005840539385529331 0.004858502696328458 -0.0043161104377185955 -0.0005423922586098625 -0.0035580878121795135 0.0 0.0
0.0 0.009437761490456992 0.007939583062127789 -0.0072673604234486325 -0.0006722226386791558 -0.005314154909477244 0.0 0.0
0.0 0.013694262356079859 0.01155320433349079 -0.010786884096615962 -0.0007663202368748237 -0.007083642563390257 0.0 0.0
0.0 0.018592985268833354 0.015698529660219854 -0.014855302941008251 -0.0008432267192116038 -0.008829549879242707 0.0 0.0
0.0 0.024216998816254293 0.020465820221346277 -0.019553434781776173 -0.0009123854395701034 -0.010628061073366316 0.0 0.0
0.0 0.030720420793214312 0.02598233865858797 -0.025003907407199672 -0.0009784312513882844 -0.012566492518232745 0.0 0.0
0.0 0.03821558493220691 0.032322301940308606 -0.03127844491742044 -0.0010438570228881844 -0.014627579222211806 0.0 0.0
0.0 0.04634618173378751 0.039420593852035016 -0.03831114509895619 -0.001109448753078844 -0.016558764211400706 0.0 0.0
0.0 0.05521870904248888 0.04702639369283072 -0.04585135501374206 -0.0011750386790886518 -0.01785182404657981 0.0 0.0
0.0 0.06398158019169861 0.05471323796465964 -0.053471123562235524 -0.0012421144024241072 -0.0177583754396605 0.0 0.0
0.0 0.07162025207185818 0.06176128462803039 -0.06045077535082037 -0.0013105092772099937 -0.015111323890762493 0.0 0.0
0.0 0.07733038187244623 0.06708473545614754 -0.06571612464072715 -0.0013686108154203928 -0.008582136136503465 0.0 0.0
0.0 0.07733038187244143 0.06708473545614227 -0.06571612464072205 -0.0013686108154202523 0.008582136136535138 0.0 0.0
0.0 0.07162025207184688 0.06176128462801765 -0.0604507753508081 -0.0013105092772095627 0.015111323890805085 0.0 0.0
0.0 0.0639815801916797 0.054713237964640546 -0.05347112356221655 -0.0012421144024240144 0.017758375439691873 0.0 0.0
0.0 0.05521870904246481 0.0470263936928083 -0.04585135501372003 -0.0011750386790882385 0.01785182404659302 0.0 0.0
0.0 0.046346181733756896 0.03942059385200865 -0.03831114509893023 -0.0011094487530783955 0.016558764211394496 0.0 0.0
0.0 0.038215584932172614 0.03232230194027917 -0.031278444917391 -0.0010438570228881714 0.014627579222203353 0.0 0.0
0.0 0.03072042079318138 0.025982338658559333 -0.02500390740717117 -0.0009784312513881628 0.012566492518225857 0.0 0.0
0.0 0.02421699881622482 0.020465820221320513 -0.019553434781751144 -0.0009123854395693739 0.010628061073359386 0.0 0.0
0.0 0.018592985268803548 0.015698529660194388 -0.014855302940983455 -0.0008432267192109324 0.008829549879231055 0.0 0.0
0.0 0.013694262356052082 0.01155320433346733 -0.010786884096593096 -0.0007663202368742325 0.007083642563376617 0.0 0.0
0.0 0.009437761490434644 0.007939583062109226 -0.007267360423430864 -0.0006722226386783607 0.0053141549094620835 0.0 0.0
0.0 0.005840539385512488 0.004858502696314063 -0.004316110437705039 -0.0005423922586090218 0.0035580878121701117 0.0 0.0
0.0 0.0030269003364702595 0.0024265407453871986 -0.0020681340982755666 -0.000358406647111632 0.0019949116023881283 0.0 0.0
0.0 0.0011218795442270025 0.0008363514710884542 -0.0006827053767919337 -0.0001536460942965203 0.0008370828782559615 0.0 0.0
0.0 0.00019694091168027657 0.0001336169045095453 -0.00010650866456669462 -2.7108239942850702e-05 0.0001841597205558587 0.0 0.0
0.0 1.1964853788268752e-05 1.4620394799304417e-07 -1.219631894014428e-07 -2.4240758591591667e-08 1.2132491073260007e-07 0.0 0.0
0.0 7.616774120036076e-07 -5.54913812317514e-08 4.210733847065235e-08 1.3384042761090036e-08 -1.2336932224923908e-07 0.0 0.0
0.0 0.0 0.0 0.0 0.0 0.0 0.0 0.0
0.0 0.0 0.0 0.0 0.0 0.0 0.0 0.0
0.0 0.001894606736817574 0.001133972291565922 -0.00140322773522642 0.0002692554436604982 0.0016240002212191168 0.0 0.0
0.0 0.0011226263921998258 0.0006325629073572777 -0.000806285754344079 0.00017372284698680143 -0.0009506942644728543 0.0 0.0
0.0 0.0 0.0 0.0 0.0 0.0 0.0 0.0
0.0 0.0 0.0 0.0 0.0 0.0 0.0 0.0
0.0 6.928205378478581e-07 -3.733951306313336e-08 2.7903524939343766e-08 9.435988123798777e-09 1.2742599449485983e-07 0.0 0.0
0.0 5.4835029854381085e-06 1.0043555796366128e-06 -8.052464815010678e-07 -1.9910909813554872e-07 -2.7419595217689663e-06 0.0 0.0
0.0 0.00010063177689416945 4.134232178228846e-05 -3.294202440839814e-05 -8.400297373890365e-06 -8.595136125889832e-05 0.0 0.0
0.0 0.0005749666492748263 0.00038061709278432664 -0.0003061762298840771 -7.444086290024954e-05 -0.0005750183903932385 0.0 0.0
0.0 0.0018927306539247427 0.0014023392545024344 -0.0011653787201044063 -0.00023696053439802744 -0.0016107081895419446 0.0 0.0
0.0 0.004061127902017571 0.0031824809326960763 -0.0027563300832856037 -0.0004261508494104722 -0.003070982766296681 0.0 0.0
0.0 0.006876657646324464 0.005570146607992082 -0.004993607532561431 -0.0005765390754306492 -0.0048072022292349244 0.0 0.0
0.0 0.010218162224099511 0.00838508449442743 -0.007704967634306969 -0.0006801168601204592 -0.0065946873349051124 0.0 0.0
0.0 0.014043333323099627 0.011590569054072679 -0.010831143255488031 -0.0007594257985846489 -0.008326782639881791 0.0 0.0
0.0 0.018435300470761792 0.015254784691294154 -0.014429597221200036 -0.0008251874700941118 -0.010082110838961354 0.0 0.0
0.0 0.02346449899569463 0.01949939481129502 -0.01861490512244901 -0.0008844896888460015 -0.011956324563589745 0.0 0.0
0.0 0.029311453227210474 0.02441921035325353 -0.02347928272844102 -0.000939927624812497 -0.013936440793886637 0.0 0.0
0.0 0.0359010575367138 0.030017129660586825 -0.029020916757850228 -0.0009962129027365795 -0.015809494201684364 0.0 0.0
0.0 0.042956816940540016 0.0361506367448508 -0.035100840880195376 -0.0010497958646554333 -0.017164690240748803 0.0 0.0
0.0 0.05025815206668488 0.042594120517850984 -0.04149324205862787 -0.0011008784592231205 -0.017347230498034622 0.0 0.0
0.0 0.057321196029531965 0.04894170449928885 -0.04778495417758595 -0.0011567503217028731 -0.015215402431245346 0.0 0.0
0.0 0.0630539487546049 0.054314845918464943 -0.053098875398500237 -0.0012159705199646952 -0.009115103588827387 0.0 0.0
0.0 0.06305394875460274 0.05431484591846213 -0.053098875398497156 -0.0012159705199649604 0.009115103588856794 0.0 0.0
0.0 0.057321196029524055 0.048941704499278836 -0.04778495417757585 -0.0011567503217029891 0.015215402431287144 0.0 0.0
0.0 0.05025815206667062 0.04259412051783518 -0.041493242058612545 -0.0011008784592226087 0.017347230498065032 0.0 0.0
0.0 0.04295681694052099 0.03615063674483232 -0.03510084088017758 -0.0010497958646547543 0.017164690240759985 0.0 0.0
0.0 0.03590105753669035 0.03001712966056666 -0.02902091675783044 -0.0009962129027362124 0.015809494201677564 0.0 0.0
0.0 0.029311453227187957 0.024419210353234203 -0.023479282728422278 -0.0009399276248119176 0.013936440793878884 0.0 0.0
0.0 0.02346449899567212 0.019499394811275418 -0.018614905122429855 -0.0008844896888455645 0.011956324563584045 0.0 0.0
0.0 0.018435300470738866 0.015254784691274299 -0.014429597221180394 -0.0008251874700939049 0.010082110838955008 0.0 0.0
0.0 0.014043333323077209 0.01159056905405393 -0.010831143255469643 -0.0007594257985842835 0.008326782639870224 0.0 0.0
0.0 0.010218162224077853 0.008385084494409747 -0.007704967634289849 -0.0006801168601198947 0.006594687334891411 0.0 0.0
0.0 0.006876657646305406 0.005570146607977108 -0.004993607532547255 -0.0005765390754298526 0.00480720222921968 0.0 0.0
0.0 0.004061127902003046 0.003182480932684605 -0.0027563300832750283 -0.0004261508494095754 0.003070982766287247 0.0 0.0
0.0 0.001892730653914512 0.0014023392544947027 -0.0011653787200977279 -0.00023696053439697498 0.0016107081895344326 0.0 0.0
0.0 0.000574966649269817 0.00038061709278105024 -0.0003061762298813735 -7.444086289967648e-05 0.0005750183903889788 0.0 0.0
0.0 0.00010063177689279565 4.134232178204975e-05 -3.294202440819615e-05 -8.40029737385352e-06 8.595136125830649e-05 0.0 0.0
0.0 5.483502985254205e-06 1.0043555798472421e-06 -8.052464816675361e-07 -1.9910909817971196e-07 2.741959522349213e-06 0.0 0.0
0.0 6.928205376352142e-07 -3.733951305122376e-08 2.7903524930424694e-08 9.435988120799248e-09 -1.2742599445425477e-07 0.0 0.0
0.0 0.0 0.0 0.0 0.0 0.0 0.0 0.0
0.0 0.0 0.0 0.0 0.0 0.0 0.0 0.0
0.0 0.0011226263921928516 0.0006325629073534785 -0.0008062857543395408 0.00017372284698606214 0.0009506942644669587 0.0 0.0
0.0 0.0005600754411039386 0.0002832417778923177 -0.00037385628931070126 9.061451141838366e-05 -0.0004449212955201296 0.0 0.0
0.0 1.266647607192392e-07 -7.072771973675951e-10 8.507483974345466e-10 -1.4347120006705642e-10 2.5171596720899338e-08 0.0 0.0
0.0 0.0 0.0 0.0 0.0 0.0 0.0 0.0
0.0 8.694762653476193e-07 -2.987712020632065e-08 2.159330647060148e-08 8.283813735721381e-09 1.7349073420562356e-07 0.0 0.0
0.0 4.216632361067432e-06 3.444726504938498e-07 -2.7524939906914666e-07 -6.922325142471658e-08 -1.4341260884064027e-06 0.0 0.0
0.0 5.922654689297224e-05 1.8013980314766682e-05 -1.4228108181300435e-05 -3.785872133466246e-06 -5.706952248397917e-05 0.0 0.0
0.0 0.0002686206829257617 0.00013167395135103868 -0.00010506945470990534 -2.660449664113334e-05 -0.00032881840994350084 0.0 0.0
0.0 0.0009722184663966621 0.0006115767012138276 -0.0004953260560563917 -0.00011625064515743588 -0.0010879766867638507 0.0 0.0
0.0 0.0024307854261897987 0.0016907028734448363 -0.0014175621876457807 -0.0002731406857990545 -0.0023145051004604283 0.0 0.0
0.0 0.004372607347636243 0.003321325075726733 -0.002886618974747247 -0.0004347061009794853 -0.003849366295087576 0.0 0.0
0.0 0.006883580313471035 0.005310924036568144 -0.004754897640901326 -0.0005560263956668187 -0.005496941877242967 0.0 0.0
0.0 0.009609467831282852 0.007583502286609121 -0.006938431661199517 -0.0006450706254096041 -0.007128994981235855 0.0 0.0
0.0 0.01273451235713881 0.010164855798020086 -0.009450391365324173 -0.0007144644326959118 -0.0087628400199605 0.0 0.0
0.0 0.016368005860092343 0.013153433233738639 -0.012382182714042882 -0.0007712505196957543 -0.010456638346275665 0.0 0.0
0.0 0.020651202315142603 0.016655498791705425 -0.0158349658534407 -0.0008205329382647289 -0.012229438916392858 0.0 0.0
0.0 0.025507132209230156 0.020729662056377107 -0.019863345242180468 -0.0008663168141966378 -0.013939928772479458 0.0 0.0
0.0 0.03093992039192437 0.0253380141410323 -0.02442637335609142 -0.0009116407849408796 -0.015217282330040067 0.0 0.0
0.0 0.03663826046953981 0.030417728233446684 -0.02946981469906149 -0.0009479135343851915 -0.015628269703408828 0.0 0.0
0.0 0.042588361327265345 0.035910651507853955 -0.03492797398341618 -0.0009826775244377512 -0.014346490811672122 0.0 0.0
0.0 0.04822142754554774 0.04131211478903626 -0.040270629546523606 -0.001041485242512651 -0.009393027036102657 0.0 0.0
0.0 0.04822142754554708 0.0413121147890341 -0.04027062954652198 -0.0010414852425121009 0.009393027036126714 0.0 0.0
0.0 0.042588361327262486 0.035910651507847606 -0.034927973983410424 -0.0009826775244371805 0.014346490811709122 0.0 0.0
0.0 0.03663826046953047 0.03041772823343513 -0.02946981469905013 -0.0009479135343850003 0.015628269703435053 0.0 0.0
0.0 0.03093992039191171 0.025338014141019723 -0.02442637335607937 -0.0009116407849403545 0.015217282330048442 0.0 0.0
0.0 0.025507132209212496 0.02072966205636234 -0.01986334524216611 -0.0008663168141962174 0.013939928772472649 0.0 0.0
0.0 0.020651202315123702 0.016655498791689805 -0.015834965853425437 -0.0008205329382643663 0.012229438916384266 0.0 0.0
0.0 0.016368005860075852 0.013153433233724579 -0.012382182714029182 -0.0007712505196954015 0.010456638346270496 0.0 0.0
0.0 0.012734512357125385 0.01016485579800843 -0.00945039136531287 -0.0007144644326955563 0.00876284001995645 0.0 0.0
0.0 0.009609467831267138 0.007583502286596393 -0.0069384316611873515 -0.0006450706254090418 0.007128994981226056 0.0 0.0
0.0 0.006883580313455528 0.005310924036556041 -0.004754897640889838 -0.0005560263956662012 0.005496941877231194 0.0 0.0
0.0 0.004372607347623204 0.003321325075717254 -0.002886618974738541 -0.0004347061009787125 0.0038493662950759653 0.0 0.0
0.0 0.0024307854261824066 0.0016907028734395903 -0.0014175621876411277 -0.0002731406857984624 0.002314505100454207 0.0 0.0
0.0 0.0009722184663923093 0.0006115767012108265 -0.0004953260560539446 -0.00011625064515688175 0.0010879766867601043 0.0 0.0
0.0 0.00026862068292310984 0.0001316739513499547 -0.0001050694547090237 -2.660449664093109e-05 0.00032881840994102983 0.0 0.0
0.0 5.922654689176665e-05 1.801398031466734e-05 -1.4228108181224e-05 -3.7858721334433155e-06 5.7069522483626004e-05 0.0 0.0
0.0 4.2166323609376994e-06 3.4447265065687055e-07 -2.752493991981138e-07 -6.922325145874986e-08 1.4341260891125368e-06 0.0 0.0
0.0 8.694762648168817e-07 -2.987712019000699e-08 2.1593306458356525e-08 8.283813731647456e-09 -1.7349073409897767e-07 0.0 0.0
0.0 0.0 0.0 0.0 0.0 0.0 0.0 0.0
0.0 1.2666476022059354e-07 -7.072771946710994e-10 8.50748394078545e-10 -1.4347119940746084e-10 -2.5171596621278046e-08 0.0 0.0
0.0 0.0005600754410995505 0.00028324177789037044 -0.0003738562893082749 9.061451141790462e-05 0.0004449212955170017 0.0 0.0
0.0 0.00018189914036967445 9.005761988593134e-05 -0.00012495928796392962 3.4901668077998274e-05 -0.00014786146396923104 0.0 0.0
0.0 1.8030073051673429e-06 -4.177191184509683e-09 1.0378638774830307e-08 -6.201447590320216e-09 3.8291760625588695e-07 0.0 0.0
0.0 8.129603515550081e-07 -9.729788138728575e-10 -5.062304710215263e-10 1.479209284894036e-09 1.6676851108718092e-07 0.0 0.0
0.0 1.3942118126280809e-06 -1.7202479833820512e-08 1.1633862331670308e-08 5.568617502153395e-09 2.882879494068393e-07 0.0 0.0
0.0 4.50972941183924e-06 2.9021983424604713e-07 -2.0858274579754297e-07 -8.163708844850843e-08 -1.7638895848297726e-06 0.0 0.0
0.0 4.862887394238815e-05 8.42730639949511e-06 -6.6917906958954255e-06 -1.7355157035996869e-06 -4.856105475037445e-05 0.0 0.0
0.0 0.00016755676420112075 4.7290333320160836e-05 -3.7733615942715654e-05 -9.556717377445152e-06 -0.00021951649807819664 0.0 0.0
0.0 0.00041893956033708024 0.00017311159305014926 -0.0001381047885096401 -3.500680454050915e-05 -0.0006156648216530872 0.0 0.0
0.0 0.0010815166298879613 0.0005560813335699026 -0.00044918762360095807 -0.00010689370996894481 -0.0013842828894846154 0.0 0.0
0.0 0.002187799109423227 0.0013413223606386472 -0.0011133099792266983 -0.00022801238141194834 -0.002519494805914669 0.0 0.0
0.0 0.0036316508931019025 0.002452603494684558 -0.0020982906826910097 -0.0003543128119935471 -0.0038373663874103035 0.0 0.0
0.0 0.005391321707410834 0.0037625863718776633 -0.0033064835850475406 -0.00045610278683012043 -0.00521345398235191 0.0 0.0
0.0 0.007351336054003249 0.0052693742008260176 -0.004730445940401441 -0.0005389282604245746 -0.006647747068670514 0.0 0.0
0.0 0.009622513863361236 0.007027193340808259 -0.006422340934063097 -0.0006048524067451566 -0.008106133881734796 0.0 0.0
0.0 0.012289440018968643 0.009121162702256807 -0.008464487830033307 -0.0006566748722234993 -0.009597910149028275 0.0 0.0
0.0 0.01543265037188593 0.01164870816287918 -0.010950269442884939 -0.000698438719994243 -0.011066753522851401 0.0 0.0
0.0 0.019122242984582212 0.014687913036744143 -0.013951137328939519 -0.0007367757078046342 -0.012267442784461527 0.0 0.0
0.0 0.023278558081815358 0.01830301957413072 -0.017530558457328246 -0.0007724611168024853 -0.012761892576090296 0.0 0.0
0.0 0.02808911958410073 0.022662348191513672 -0.021881681517443193 -0.0007806666740704794 -0.012276757884101434 0.0 0.0
0.0 0.033468162735923096 0.02791381439036913 -0.027088281841919654 -0.0008255325484494844 -0.009229107594244695 0.0 0.0
0.0 0.033468162735923804 0.027913814390368115 -0.027088281841918565 -0.000825532548449563 0.009229107594265113 0.0 0.0
0.0 0.028089119584101332 0.022662348191510313 -0.021881681517440053 -0.0007806666740702536 0.012276757884133002 0.0 0.0
0.0 0.0232785580818117 0.018303019574123933 -0.017530558457321987 -0.0007724611168019428 0.012761892576112242 0.0 0.0
0.0 0.01912224298457279 0.01468791303673509 -0.013951137328930859 -0.0007367757078042236 0.012267442784464743 0.0 0.0
0.0 0.015432650371874676 0.011648708162870957 -0.01095026944287713 -0.0006984387199938269 0.01106675352284319 0.0 0.0
0.0 0.012289440018957428 0.009121162702248503 -0.008464487830025234 -0.0006566748722232671 0.009597910149020152 0.0 0.0
0.0 0.009622513863353232 0.007027193340801738 -0.006422340934056784 -0.0006048524067449553 0.00810613388173127 0.0 0.0
0.0 0.00735133605399589 0.005269374200819797 -0.004730445940395563 -0.0005389282604242333 0.006647747068667497 0.0 0.0
0.0 0.005391321707402378 0.003762586371871564 -0.003306483585042183 -0.0004561027868293814 0.005213453982344978 0.0 0.0
0.0 0.003631650893090918 0.0024526034946770123 -0.0020982906826842234 -0.00035431281199278797 0.0038373663874000366 0.0 0.0
0.0 0.0021877991094133385 0.0013413223606325996 -0.0011133099792213766 -0.00022801238141122233 0.0025194948059040294 0.0 0.0
0.0 0.0010815166298831348 0.0005560813335668976 -0.0004491876235984875 -0.00010689370996840989 0.0013842828894793321 0.0 0.0
0.0 0.0004189395603350653 0.00017311159304941659 -0.00013810478850907062 -3.500680454034588e-05 0.0006156648216508771 0.0 0.0
0.0 0.00016755676419969218 4.729033331990955e-05 -3.77336159425109e-05 -9.55671737739865e-06 0.0002195164980770491 0.0 0.0
0.0 4.8628873941516685e-05 8.42730639940699e-06 -6.691790695825098e-06 -1.7355157035818761e-06 4.85610547498626e-05 0.0 0.0
0.0 4.509729411507272e-06 2.902198343039219e-07 -2.085827458398564e-07 -8.16370884640673e-08 1.7638895852473395e-06 0.0 0.0
0.0 1.3942118121365584e-06 -1.7202479827439693e-08 1.1633862327329383e-08 5.568617500112952e-09 -2.8828794930130727e-07 0.0 0.0
0.0 8.12960351106587e-07 -9.729788137991681e-10 -5.062304704954294e-10 1.479209284295063e-09 -1.667685109932312e-07 0.0 0.0
0.0 1.8030073045943297e-06 -4.1771911826671024e-09 1.0378638770354691e-08 -6.201447587687759e-09 -3.8291760613307903e-07 0.0 0.0
0.0 0.00018189914036766914 9.005761988535912e-05 -0.0001249592879631283 3.490166807776909e-05 0.0001478614639685216 0.0 0.0
0.0 3.2261345653687674e-05 1.2636821817251751e-05 -1.8262155016127415e-05 5.625333198875673e-06 -2.212221665904094e-05 0.0 0.0
0.0 2.3409661729961703e-06 6.496376963596438e-10 1.3091562580591183e-08 -1.3741200276949575e-08 4.872012716183131e-07 0.0 0.0
0.0 8.28283976103979e-07 8.757322001854407e-09 -7.994197467743662e-09 -7.631245341108108e-10 1.6872916499049268e-07 0.0 0.0
0.0 1.0341171999299922e-06 3.4830124123105497e-09 -4.631541757330647e-09 1.1485293450206947e-09 2.129476539670559e-07 0.0 0.0
0.0 5.871051864885442e-06 1.0807006395908236e-08 -7.893786694732192e-09 -2.913219701182444e-09 5.162425499004796e-07 0.0 0.0
0.0 4.414167211545827e-05 2.5944360706274624e-06 -2.0163285577844523e-06 -5.781075128429991e-07 -5.1137643771552175e-05 0.0 0.0
0.0 0.00014241762279701013 1.455767201000341e-05 -1.1580636136983619e-05 -2.9770358730198075e-06 -0.00021375655537772664 0.0 0.0
0.0 0.00032260074834433597 4.003371041693809e-05 -3.195659181571803e-05 -8.077118601220022e-06 -0.00046178045923536215 0.0 0.0
0.0 0.0005445369870934829 9.428708412899952e-05 -7.561659360995052e-05 -1.8670490519048993e-05 -0.0008604575917751385 0.0 0.0
0.0 0.000938619990979917 0.00019032043882650276 -0.0001538756488140144 -3.6444790012488376e-05 -0.0014230608790718607 0.0 0.0
0.0 0.0013950049121919364 0.0003853488726596201 -0.00031000369826694036 -7.534517439267977e-05 -0.0022492604109450886 0.0 0.0
0.0 0.0020886425484265116 0.0006758028022851658 -0.0005444485908431029 -0.000131354211442063 -0.003216546856179283 0.0 0.0
0.0 0.002926585672479175 0.0010448777663763912 -0.0008476527822598811 -0.00019722498411651015 -0.004326751040909222 0.0 0.0
0.0 0.003969226799538682 0.0015203954780902904 -0.0012565389059909374 -0.000263856572099353 -0.0056076586253039715 0.0 0.0
0.0 0.005250162120595434 0.002180231733840296 -0.0018559096909059698 -0.00032432204293432644 -0.0070614353784741795 0.0 0.0
0.0 0.00685489219378455 0.0031157960964308196 -0.002738254207820303 -0.0003775418886105145 -0.008582029804965547 0.0 0.0
0.0 0.00882016245240089 0.004522681511248302 -0.0040973398283117544 -0.00042534168293654594 -0.009896932062735009 0.0 0.0
0.0 0.011239378484101692 0.006624655298394169 -0.006145445175830889 -0.0004792101225632781 -0.010500372911201816 0.0 0.0
0.0 0.014353627850960777 0.009601907994605759 -0.009079736317892748 -0.0005221716767130073 -0.010074690241072826 0.0 0.0
0.0 0.018894457075590135 0.014101171500551108 -0.013601880984077412 -0.0004992905164736962 -0.008757248895262394 0.0 0.0
0.0 0.018894457075589094 0.014101171500548909 -0.013601880984074968 -0.0004992905164739361 0.008757248895277325 0.0 0.0
0.0 0.014353627850961424 0.009601907994603295 -0.009079736317890205 -0.0005221716767130897 0.010074690241093445 0.0 0.0
0.0 0.011239378484098981 0.006624655298389578 -0.006145445175826274 -0.0004792101225633001 0.01050037291121414 0.0 0.0
0.0 0.008820162452396025 0.004522681511244832 -0.004097339828308318 -0.000425341682936512 0.00989693206273418 0.0 0.0
0.0 0.006854892193780017 0.0031157960964294635 -0.002738254207818976 -0.0003775418886104865 0.008582029804957836 0.0 0.0
0.0 0.005250162120589261 0.0021802317338371086 -0.0018559096909029787 -0.00032432204293412895 0.007061435378467878 0.0 0.0
0.0 0.0039692267995351605 0.001520395478089395 -0.0012565389059901147 -0.00026385657209928063 0.005607658625298486 0.0 0.0
0.0 0.0029265856724769025 0.0010448777663756863 -0.0008476527822593915 -0.0001972249841162944 0.004326751040906046 0.0 0.0
0.0 0.0020886425484221843 0.0006758028022839341 -0.0005444485908420632 -0.0001313542114418708 0.0032165468561727974 0.0 0.0
0.0 0.0013950049121878708 0.0003853488726584228 -0.0003100036982659983 -7.534517439242446e-05 0.0022492604109385014 0.0 0.0
0.0 0.0009386199909757495 0.0001903204388259041 -0.0001538756488134802 -3.644479001242391e-05 0.0014230608790657216 0.0 0.0
0.0 0.000544536987091844 9.42870841287512e-05 -7.561659360978882e-05 -1.867049051896232e-05 0.0008604575917724915 0.0 0.0
0.0 0.00032260074834337255 4.003371041681835e-05 -3.195659181562725e-05 -8.077118601191067e-06 0.0004617804592338764 0.0 0.0
0.0 0.00014241762279559262 1.455767200992223e-05 -1.1580636136908159e-05 -2.977035873014066e-06 0.0002137565553764969 0.0 0.0
0.0 4.414167211453983e-05 2.594436070595554e-06 -2.0163285577581066e-06 -5.781075128374511e-07 5.113764377087351e-05 0.0 0.0
0.0 5.871051864652699e-06 1.0807006408924502e-08 -7.89378670278715e-09 -2.9132197061407357e-09 -5.162425493264526e-07 0.0 0.0
0.0 1.0341171994111593e-06 3.4830124097744975e-09 -4.63154175459075e-09 1.1485293448161685e-09 -2.1294765385734702e-07 0.0 0.0
0.0 8.282839756553083e-07 8.757321996808003e-09 -7.99419746324245e-09 -7.631245335657651e-10 -1.687291648967851e-07 0.0 0.0
0.0 2.340966172321822e-06 6.496376968874008e-10 1.3091562575233056e-08 -1.3741200272117913e-08 -4.87201271473837e-07 0.0 0.0
0.0 3.22613456528791e-05 1.2636821817283534e-05 -1.826215501615126e-05 5.625333198867674e-06 2.2122216659259048e-05 0.0 0.0
0.0 1.746363269014452e-06 -1.080716133846742e-07 1.601080298073669e-07 -5.203641642269867e-08 2.3480853834527648e-07 0.0 0.0
0.0 1.9028631458580495e-06 6.795419448546787e-09 4.3792250009357676e-09 -1.1174644449477697e-08 4.0529838982822875e-07 0.0 0.0
0.0 1.0591057555242166e-06 1.0083133209799479e-08 -9.086756999857542e-09 -9.963762099406261e-10 1.1608575477740314e-07 0.0 0.0
0.0 1.5570240245463079e-06 -4.156213990790442e-09 1.719051189618349e-09 2.437162801172218e-09 -1.2654623421090848e-08 0.0 0.0
0.0 8.494176296692709e-06 -1.0141590401186503e-07 1.0733784983769146e-07 -5.921945825817016e-09 -2.2717727674064606e-06 0.0 0.0
0.0 4.885199921309838e-05 -3.3648528399911843e-06 2.7655498724923698e-06 5.993029674988083e-07 -5.11589565301782e-05 0.0 0.0
0.0 0.00014424801533402572 -1.537712804486814e-05 1.2352972960934439e-05 3.0241550839336954e-06 -0.00021522102173266282 0.0 0.0
0.0 0.00032346378612930696 -4.0053066329018556e-05 3.1968255264232206e-05 8.084811064786292e-06 -0.00046239351439855567 0.0 0.0
0.0 0.0005442068791663934 -9.396066020493669e-05 7.533988548692556e-05 1.8620774718011136e-05 -0.0008605452724043586 0.0 0.0
0.0 0.0009371818892785174 -0.00018980311900688076 0.00015332567884439872 3.6477440162482055e-05 -0.0014214160090511767 0.0 0.0
0.0 0.0014001374791555831 -0.0003820685996608845 0.0003079916742922881 7.40769253685962e-05 -0.002245235280827478 0.0 0.0
0.0 0.0020927602662204176 -0.0006812814941145263 0.0005497275762128745 0.0001315539179016518 -0.003217784175518778 0.0 0.0
0.0 0.002940351515291968 -0.0010647760195233085 0.0008659346657317378 0.0001988413537915706 -0.004333153149342948 0.0 0.0
0.0 0.003999249019199804 -0.0015578750809141632 0.0012894357076204126 0.00026843937329375 -0.005615721712388468 0.0 0.0
0.0 0.0052186199228708065 -0.0021408906373916016 0.0018056892703862911 0.00033520136700530964 -0.007064399229492591 0.0 0.0
0.0 0.006518831869654903 -0.002648102050024191 0.0022520889613660755 0.00039601308865811304 -0.008633954805699074 0.0 0.0
0.0 0.007636977242528653 -0.0028087116495332754 0.0023650658831753787 0.0004436457663578967 -0.010317308180874892 0.0 0.0
0.0 0.008408368696084776 -0.0023397811274322978 0.001861108532991497 0.00047867259444079983 -0.012122224220650856 0.0 0.0
0.0 0.008735022375928915 -0.001242670649182869 0.0008506080051950567 0.0003920626439878116 -0.01362166521866941 0.0 0.0
0.0 0.00829328021862824 0.0019348589822539952 -0.002025923834811344 9.106485255734901e-05 -0.012157347241023238 0.0 0.0
0.0 0.008293280218631276 0.001934858982253592 -0.0020259238348112924 9.106485255770084e-05 0.012157347241033218 0.0 0.0
0.0 0.008735022375931174 -0.0012426706491823862 0.0008506080051947965 0.0003920626439875887 0.01362166521867807 0.0 0.0
0.0 0.008408368696082615 -0.0023397811274313233 0.0018611085329908478 0.00047867259444047425 0.012122224220651729 0.0 0.0
0.0 0.007636977242523292 -0.002808711649531135 0.002365065883173667 0.0004436457663574675 0.010317308180868576 0.0 0.0
0.0 0.006518831869648786 -0.0026481020500208423 0.002252088961363047 0.0003960130886577951 0.008633954805691919 0.0 0.0
0.0 0.005218619922864348 -0.002140890637387978 0.0018056892703830485 0.00033520136700492854 0.0070643992294866335 0.0 0.0
0.0 0.003999249019192904 -0.001557875080910612 0.0012894357076172933 0.0002684393732933189 0.00561572171238155 0.0 0.0
0.0 0.002940351515286173 -0.0010647760195201545 0.0008659346657292282 0.00019884135379092608 0.004333153149337713 0.0 0.0
0.0 0.0020927602662139297 -0.0006812814941111074 0.0005497275762099863 0.000131553917901121 0.003217784175511018 0.0 0.0
0.0 0.0014001374791501487 -0.00038206859965842215 0.0003079916742902924 7.407692536812983e-05 0.002245235280820228 0.0 0.0
0.0 0.0009371818892742201 -0.0001898031190060915 0.00015332567884361852 3.647744016247294e-05 0.0014214160090455681 0.0 0.0
0.0 0.0005442068791648688 -9.396066020448597e-05 7.533988548654968e-05 1.862077471793627e-05 0.0008605452724023677 0.0 0.0
0.0 0.00032346378612835747 -4.005306632885181e-05 3.1968255264090365e-05 8.084811064761425e-06 0.000462393514397708 0.0 0.0
0.0 0.00014424801533271153 -1.5377128044777765e-05 1.2352972960877836e-05 3.0241550838999255e-06 0.00021522102173148863 0.0 0.0
0.0 4.885199921225499e-05 -3.364852839966841e-06 2.7655498724741696e-06 5.993029674926827e-07 5.115895652983533e-05 0.0 0.0
0.0 8.49417629640831e-06 -1.014159040630842e-07 1.0733784988239738e-07 -5.921945819317083e-09 2.2717727681294303e-06 0.0 0.0
0.0 1.5570240243116857e-06 -4.156214043654562e-09 1.7190512334309976e-09 2.437162810223977e-09 1.2654623954119258e-08 0.0 0.0
0.0 1.0591057552062211e-06 1.0083133149533725e-08 -9.086756950572197e-09 -9.963761989610536e-10 -1.1608575415798342e-07 0.0 0.0
0.0 1.9028631450714174e-06 6.795419446720134e-09 4.37922499599115e-09 -1.1174644442706392e-08 -4.052983896639658e-07 0.0 0.0
0.0 1.7463632684856744e-06 -1.0807161335057875e-07 1.601080297566021e-07 -5.2036416406020456e-08 -2.3480853827189452e-07 0.0 0.0
0.0 0.0 0.0 0.0 0.0 0.0 0.0 0.0
0.0 3.3206270015814023e-07 3.228124362425176e-09 -1.4545472289870203e-09 -1.773577133437446e-09 6.641880132428198e-08 0.0 0.0
0.0 1.3780527081081008e-06 -2.7604808890925724e-08 2.1327022310713347e-08 6.27778658021134e-09 -1.752175869512578e-07 0.0 0.0
0.0 4.537063494794286e-06 1.363213219522606e-07 -1.104534628065688e-07 -2.586785914567831e-08 7.87890879996141e-07 0.0 0.0
0.0 1.196095062090529e-05 -1.4814614103770556e-06 1.2536448341398241e-06 2.2781657623723871e-07 -9.305263843301861e-06 0.0 0.0
0.0 5.7807637581217305e-05 -1.2184566929658882e-05 9.757414391088084e-06 2.427152538570763e-06 -6.43782475354973e-05 0.0 0.0
0.0 0.00017595878597361647 -4.868177613445028e-05 3.8974741512531664e-05 9.70703462191863e-06 -0.0002235515018667075 0.0 0.0
0.0 0.00042093910837027895 -0.0001736039532646767 0.00013849936535494987 3.5104587909726884e-05 -0.0006175281758564202 0.0 0.0
0.0 0.0010788448609157673 -0.0005550450985500964 0.00044826575677272087 0.00010677934177737546 -0.0013831076255026544 0.0 0.0
0.0 0.0021847169878473054 -0.0013396552764737267 0.0011118765483753327 0.0002277787280983938 -0.0025175814156012874 0.0 0.0
0.0 0.00363196660429307 -0.0024532971751752486 0.0020993322180501753 0.0003539649571250729 -0.0038372109665845114 0.0 0.0
0.0 0.005401077437277856 -0.003773068116821552 0.003317388769757442 0.0004556793470641108 -0.005213231210729294 0.0 0.0
0.0 0.007379151660538222 -0.005300303727623194 0.004761549937725481 0.0005387537898977092 -0.0066368553302579725 0.0 0.0
0.0 0.00966462640840471 -0.007072783885070842 0.0064646425276495174 0.0006081413574213262 -0.008088285506266626 0.0 0.0
0.0 0.012256208808039421 -0.009074011115417275 0.008404369252292475 0.0006696418631247981 -0.009641136503349726 0.0 0.0
0.0 0.014996556870706099 -0.011139662964494782 0.010414023577850552 0.0007256393866442296 -0.011389803274376291 0.0 0.0
0.0 0.017560772654304956 -0.012912707300405404 0.012136383268576682 0.0007763240318287247 -0.013388486080097493 0.0 0.0
0.0 0.019353672474365563 -0.013873826696344887 0.013057861800938524 0.0008159648954063665 -0.01553635542463053 0.0 0.0
0.0 0.018935732669954894 -0.013051943637489828 0.012143791648471122 0.0009081519890186991 -0.01638253695135017 0.0 0.0
0.0 0.014332479148938579 -0.008563379079929326 0.007609439818087142 0.0009539392618421795 -0.013797450921324552 0.0 0.0
0.0 0.014332479148943976 -0.008563379079929673 0.007609439818087268 0.0009539392618424074 0.013797450921342743 0.0 0.0
0.0 0.018935732669958263 -0.013051943637487943 0.012143791648469225 0.0009081519890187157 0.016382536951372827 0.0 0.0
0.0 0.01935367247436333 -0.013873826696339794 0.013057861800933584 0.0008159648954062043 0.015536355424645596 0.0 0.0
0.0 0.017560772654294017 -0.012912707300395534 0.012136383268566978 0.000776324031828554 0.013388486080097283 0.0 0.0
0.0 0.014996556870688791 -0.011139662964481031 0.01041402357783704 0.0007256393866439898 0.011389803274365966 0.0 0.0
0.0 0.012256208808026959 -0.009074011115407597 0.008404369252283182 0.00066964186312441 0.009641136503341027 0.0 0.0
0.0 0.009664626408392982 -0.007072783885061431 0.006464642527640598 0.0006081413574208337 0.008088285506260163 0.0 0.0
0.0 0.007379151660525779 -0.005300303727612958 0.004761549937715557 0.000538753789897398 0.006636855330251034 0.0 0.0
0.0 0.00540107743726426 -0.003773068116811244 0.003317388769747849 0.0004556793470633944 0.005213231210719852 0.0 0.0
0.0 0.0036319666042794567 -0.002453297175165857 0.002099332218041685 0.00035396495712417203 0.0038372109665723623 0.0 0.0
0.0 0.0021847169878368815 -0.0013396552764668654 0.0011118765483694082 0.0002277787280974566 0.002517581415591286 0.0 0.0
0.0 0.0010788448609103077 -0.0005550450985465944 0.0004482657567697815 0.00010677934177681279 0.0013831076254968667 0.0 0.0
0.0 0.0004209391083681396 -0.00017360395326371147 0.00013849936535419247 3.510458790951902e-05 0.0006175281758539754 0.0 0.0
0.0 0.00017595878597195238 -4.868177613418411e-05 3.897474151232982e-05 9.707034621854232e-06 0.0002235515018655854 0.0 0.0
0.0 5.7807637579968284e-05 -1.218456692956907e-05 9.757414391014699e-06 2.4271525385543604e-06 6.437824753501978e-05 0.0 0.0
0.0 1.1960950620618092e-05 -1.481461410463835e-06 1.2536448342120832e-06 2.2781657625173494e-07 9.30526384383618e-06 0.0 0.0
0.0 4.537063494498353e-06 1.363213218972948e-07 -1.1045346275899605e-07 -2.5867859138294876e-08 -7.878908796121847e-07 0.0 0.0
0.0 1.3780527078291337e-06 -2.7604808954480373e-08 2.132702236212734e-08 6.277786592352889e-09 1.7521758741041344e-07 0.0 0.0
0.0 3.3206269971330245e-07 3.2281243589135146e-09 -1.4545472286881782e-09 -1.7735771302251563e-09 -6.64188012348373e-08 0.0 0.0
0.0 0.0 0.0 0.0 0.0 0.0 0.0 0.0
0.0 0.0 0.0 0.0 0.0 0.0 0.0 0.0
0.0 9.659038647247042e-07 1.536493391610939e-08 -9.441890028047111e-09 -5.923043888061976e-09 1.9697054502569396e-07 0.0 0.0
0.0 2.3595770756542535e-06 8.103527067074457e-08 -6.628456757845172e-08 -1.4750703092293867e-08 4.821090557083344e-07 0.0 0.0
0.0 6.5906872819304125e-06 3.108815427979235e-07 -2.5702362177301864e-07 -5.385792102489637e-08 1.4093816020137892e-06 0.0 0.0
0.0 1.759269509190842e-05 -3.447932170468054e-06 2.764652700768243e-06 6.832794696998235e-07 -1.2122353544859724e-05 0.0 0.0
0.0 7.467764486831156e-05 -2.4084321376399944e-05 1.9348216499120896e-05 4.736104877279025e-06 -7.553450598501555e-05 0.0 0.0
0.0 0.00028255755165385336 -0.00013632067504941052 0.0001089374375896382 2.7383237459772364e-05 -0.00033827744158699467 0.0 0.0
0.0 0.0009745181612617269 -0.0006122414076125181 0.0004959263949838164 0.00011631501262870165 -0.0010902343643667343 0.0 0.0
0.0 0.0024257268864546445 -0.0016880480001960664 0.0014151169926879966 0.00027293100750806906 -0.002310855280470874 0.0 0.0
0.0 0.004369864745694978 -0.003320115829159045 0.0028854832949453636 0.00043463253421368144 -0.0038471381966614393 0.0 0.0
0.0 0.006885338329834438 -0.00531280798081054 0.0047570188782934415 0.0005557891025171004 -0.005496911415001884 0.0 0.0
0.0 0.009616834751219907 -0.007591780039166614 0.006947434014857742 0.0006443460243088703 -0.0071219902943214855 0.0 0.0
0.0 0.012748302064890499 -0.010187570972770215 0.009474031886040471 0.0007135390867297457 -0.008720675950158524 0.0 0.0
0.0 0.01638463196778737 -0.01318861555051545 0.01241542305367195 0.0007731924968434984 -0.010369117277137541 0.0 0.0
0.0 0.02061125724708756 -0.016619549775889496 0.015788230280927552 0.0008313194949619398 -0.012229728469668306 0.0 0.0
0.0 0.02517909080583986 -0.02031411150201089 0.019422995467400807 0.0008911160346100756 -0.014529069859621754 0.0 0.0
0.0 0.0297353992404424 -0.023826986819536565 0.022875583202903484 0.0009514036166330751 -0.01744914172358151 0.0 0.0
0.0 0.03300456674859719 -0.02630325167176941 0.025274041432333354 0.0010292102394360617 -0.020499608571022607 0.0 0.0
0.0 0.03331532438298148 -0.026154787571215803 0.025027524772557857 0.0011272627986579505 -0.022027629676923878 0.0 0.0
0.0 0.02665834911215941 -0.020603397304259273 0.01929797093100068 0.0013054263732585878 -0.018522150269508045 0.0 0.0
0.0 0.0266583491121641 -0.02060339730425899 0.019297970931000122 0.0013054263732588693 0.018522150269531037 0.0 0.0
0.0 0.033315324382984284 -0.02615478757121252 0.02502752477255467 0.0011272627986578295 0.022027629676954465 0.0 0.0
0.0 0.0330045667485908 -0.02630325167175976 0.02527404143232428 0.0010292102394354702 0.02049960857104306 0.0 0.0
0.0 0.029735399240424978 -0.023826986819520248 0.022875583202887774 0.0009514036166324768 0.017449141723584197 0.0 0.0
0.0 0.025179090805817417 -0.02031411150199206 0.0194229954673823 0.00089111603460976 0.014529069859612356 0.0 0.0
0.0 0.020611257247065248 -0.016619549775871014 0.0157882302809092 0.0008313194949618114 0.012229728469658542 0.0 0.0
0.0 0.016384631967764417 -0.013188615550496732 0.012415423053653294 0.0007731924968434361 0.010369117277125438 0.0 0.0
0.0 0.012748302064869942 -0.010187570972752587 0.009474031886023332 0.0007135390867292512 0.008720675950150516 0.0 0.0
0.0 0.00961683475119867 -0.007591780039149257 0.006947434014840938 0.0006443460243083187 0.007121990294309261 0.0 0.0
0.0 0.006885338329813697 -0.005312807980794157 0.00475701887827782 0.0005557891025163359 0.005496911414986989 0.0 0.0
0.0 0.004369864745677182 -0.003320115829145632 0.0028854832949328658 0.0004346325342127674 0.0038471381966472115 0.0 0.0
0.0 0.0024257268864429716 -0.001688048000187008 0.0014151169926799989 0.0002729310075070089 0.002310855280461992 0.0 0.0
0.0 0.0009745181612555377 -0.0006122414076083226 0.0004959263949803836 0.000116315012627939 0.001090234364361167 0.0 0.0
0.0 0.00028255755165081304 -0.00013632067504827183 0.0001089374375887268 2.7383237459545017e-05 0.00033827744158444804 0.0 0.0
0.0 7.467764486730672e-05 -2.4084321376551082e-05 1.934821649923839e-05 4.736104877312648e-06 7.553450598529163e-05 0.0 0.0
0.0 1.7592695091333467e-05 -3.447932170544847e-06 2.7646527008297564e-06 6.832794697150469e-07 1.2122353545144536e-05 0.0 0.0
0.0 6.590687281374371e-06 3.1088154276881837e-07 -2.570236217490074e-07 -5.385792101982278e-08 -1.4093816018841068e-06 0.0 0.0
0.0 2.3595770750547986e-06 8.103527064889636e-08 -6.628456756069521e-08 -1.4750703088195763e-08 -4.821090555798598e-07 0.0 0.0
0.0 9.659038644330307e-07 1.5364933911636078e-08 -9.441890025310556e-09 -5.923043886328447e-09 -1.969705449648645e-07 0.0 0.0
0.0 0.0 0.0 0.0 0.0 0.0 0.0 0.0
0.0 0.0 0.0 0.0 0.0 0.0 0.0 0.0
0.0 0.0 0.0 0.0 0.0 0.0 0.0 0.0
0.0 1.762862297087584e-06 7.425115861487428e-08 -6.029149643128876e-08 -1.3959662183589334e-08 3.448992119798501e-07 0.0 0.0
0.0 5.382295081064799e-06 -3.8194555627117346e-08 4.197651443009634e-08 -3.781958802982789e-09 -1.968403781951999e-07 0.0 0.0
0.0 2.4182127145919132e-05 -5.446706687260745e-06 4.445474058281101e-06 1.001232628979677e-06 -1.4176431088501775e-05 0.0 0.0
0.0 0.00011880463232379404 -5.6916997645868723e-05 4.54800564373004e-05 1.1436941208568305e-05 -0.00011773952021969346 0.0 0.0
0.0 0.0005986737885250123 -0.0003880541934962853 0.0003128155057518554 7.523868774442994e-05 -0.0005881260941761067 0.0 0.0
0.0 0.0018915297978388396 -0.0014001591468105542 0.0011635689300903626 0.00023659021672019104 -0.001609451378336554 0.0 0.0
0.0 0.0040557132761085985 -0.003179425841618705 0.002753348005564309 0.0004260778360543954 -0.003065632388372598 0.0 0.0
0.0 0.006873685864686842 -0.005570490018100998 0.004993905048519196 0.0005765849695818 -0.004805566907813209 0.0 0.0
0.0 0.010221317477648834 -0.008387797586970742 0.007707866723662365 0.0006799308633083762 -0.006595223918194076 0.0 0.0
0.0 0.014044818086452256 -0.011593934792804388 0.010835056546413029 0.0007588782463913542 -0.00831507570236701 0.0 0.0
0.0 0.018426850864668238 -0.015259098835241937 0.014434882269181553 0.000824216566060382 -0.010013955346015612 0.0 0.0
0.0 0.02344259334490396 -0.0195070862294743 0.018622302736831072 0.000884783492643228 -0.011794375272796183 0.0 0.0
0.0 0.029272485235930353 -0.02439838486331345 0.023452407185761533 0.0009459776775518982 -0.013851457868507552 0.0 0.0
0.0 0.035756629579618435 -0.02977893454126011 0.02876453352512141 0.0010144010161386966 -0.01653299328187075 0.0 0.0
0.0 0.04218563468353647 -0.03505645696557805 0.033960818967395265 0.0010956379981827784 -0.02006537928728829 0.0 0.0
0.0 0.047135930774499755 -0.03894864750398702 0.03775269705098653 0.0011959504530004612 -0.023890332722574934 0.0 0.0
0.0 0.04780068310097302 -0.03922353030831523 0.03789317774303679 0.0013303525652784104 -0.02601672617147889 0.0 0.0
0.0 0.03948287486703661 -0.03216959942222666 0.030640084168786597 0.0015295152534400619 -0.022901215835216558 0.0 0.0
0.0 0.039482874867038525 -0.03216959942222401 0.03064008416878361 0.0015295152534403977 0.02290121583524326 0.0 0.0
0.0 0.0478006831009701 -0.03922353030830742 0.03789317774302893 0.001330352565278479 0.026016726171513148 0.0 0.0
0.0 0.047135930774487744 -0.03894864750397238 0.03775269705097243 0.0011959504529999246 0.023890332722600105 0.0 0.0
0.0 0.04218563468351452 -0.03505645696555747 0.03396081896737538 0.0010956379981820735 0.020065379287293673 0.0 0.0
0.0 0.03575662957959397 -0.029778934541238623 0.02876453352510102 0.001014401016137592 0.016532993281864347 0.0 0.0
0.0 0.029272485235905865 -0.02439838486329231 0.0234524071857411 0.0009459776775512087 0.013851457868499888 0.0 0.0
0.0 0.023442593344879553 -0.019507086229453668 0.01862230273681089 0.0008847834926427767 0.01179437527278609 0.0 0.0
0.0 0.01842685086464147 -0.01525909883521905 0.014434882269158986 0.0008242165660600658 0.010013955346006857 0.0 0.0
0.0 0.014044818086425215 -0.011593934792781486 0.010835056546390786 0.000758878246390699 0.008315075702353871 0.0 0.0
0.0 0.01022131747762184 -0.00838779758694861 0.00770786672364085 0.0006799308633077632 0.006595223918177722 0.0 0.0
0.0 0.006873685864663873 -0.005570490018082576 0.004993905048501605 0.0005765849695809708 0.004805566907796903 0.0 0.0
0.0 0.004055713276092194 -0.0031794258416056563 0.00275334800555238 0.00042607783605327606 0.0030656323883622764 0.0 0.0
0.0 0.0018915297978280583 -0.001400159146802139 0.0011635689300831626 0.00023659021671897638 0.0016094513783289528 0.0 0.0
0.0 0.0005986737885190763 -0.00038805419349255367 0.0003128155057487718 7.523868774378186e-05 0.0005881260941709612 0.0 0.0
0.0 0.00011880463232237451 -5.6916997645783485e-05 4.5480056437229766e-05 1.1436941208553751e-05 0.00011773952021941897 0.0 0.0
0.0 2.418212714508739e-05 -5.446706687372244e-06 4.445474058370545e-06 1.0012326290016552e-06 1.4176431088782334e-05 0.0 0.0
0.0 5.382295080571581e-06 -3.819455574546412e-08 4.19765145271853e-08 -3.78195878173132e-09 1.968403785929363e-07 0.0 0.0
0.0 1.7628622966370727e-06 7.425115859493936e-08 -6.029149641515662e-08 -1.3959662179784548e-08 -3.4489921188806817e-07 0.0 0.0
0.0 0.0 0.0 0.0 0.0 0.0 0.0 0.0
0.0 0.0 0.0 0.0 0.0 0.0 0.0 0.0
0.0 0.0 0.0 0.0 0.0 0.0 0.0 0.0
0.0 0.0 0.0 0.0 0.0 0.0 0.0 0.0
0.0 6.301117771691601e-07 3.177133557320747e-08 -2.5610055499987776e-08 -6.161280073216576e-09 1.139376708674144e-07 0.0 0.0
0.0 7.479034888138472e-06 5.4592668232219e-07 -4.381286801518101e-07 -1.0779800217037303e-07 1.3945185929680183e-06 0.0 0.0
0.0 3.6708517437099246e-05 -5.1579559363543925e-06 4.177398285230486e-06 9.80557651123909e-07 -9.184325894947939e-06 0.0 0.0
0.0 0.00024075558898842086 -0.0001521784904473114 0.00012192185080672324 3.025663964058815e-05 -0.00021048712866142982 0.0 0.0
0.0 0.0011395975188551958 -0.0008412259672905819 0.0006877547006624188 0.00015347126662816304 -0.0008486767511774917 0.0 0.0
0.0 0.003023004597816397 -0.0024222725009618302 0.0020643305022338848 0.00035794199872794504 -0.001991437062061671 0.0 0.0
0.0 0.005836643190451208 -0.004856561761696897 0.004314009137137604 0.0005425526245592936 -0.003551382513933379 0.0 0.0
0.0 0.00943940698827328 -0.007941480074727137 0.0072691803281119596 0.0006722997466151756 -0.005312392714370466 0.0 0.0
0.0 0.013697379977778687 -0.011556144453854066 0.010789909585823116 0.0007662348680309475 -0.00708319298364714 0.0 0.0
0.0 0.018586809358276668 -0.015695286063419852 0.014852221873729433 0.0008430641896904221 -0.008814257559247692 0.0 0.0
0.0 0.024181121354450295 -0.020445103055474808 0.01953343821327667 0.0009116648421981292 -0.010546431067120608 0.0 0.0
0.0 0.03065212724078953 -0.02594801579733645 0.024971330063187462 0.0009766857341489841 -0.012359687567881592 0.0 0.0
0.0 0.03817681323756072 -0.03230840412119846 0.03126479942763633 0.00104360469356213 -0.014454620423599334 0.0 0.0
0.0 0.046378833181608195 -0.039377440007497364 0.03825510602849999 0.0011223339789973464 -0.0171913500077205 0.0 0.0
0.0 0.05486852004654884 -0.04639177901530762 0.0451684341113236 0.0012233449039840438 -0.020864139078861168 0.0 0.0
0.0 0.06133520679444153 -0.05162594854653738 0.050274436090993496 0.0013515124555438856 -0.02511174576685047 0.0 0.0
0.0 0.06222102620380822 -0.05212430829682429 0.05061235682161923 0.0015119514752050455 -0.028074728444740127 0.0 0.0
0.0 0.0523570030402164 -0.04348844460439307 0.04178472334385151 0.0017037212605415463 -0.0269002422881256 0.0 0.0
0.0 0.05235700304021844 -0.04348844460439041 0.04178472334384888 0.001703721260541524 0.026900242288155164 0.0 0.0
0.0 0.06222102620380414 -0.05212430829681568 0.05061235682161103 0.0015119514752046435 0.028074728444777375 0.0 0.0
0.0 0.06133520679442599 -0.0516259485465203 0.05027443609097664 0.0013515124555436627 0.02511174576687822 0.0 0.0
0.0 0.05486852004652313 -0.04639177901528388 0.04516843411130026 0.0012233449039835923 0.02086413907886843 0.0 0.0
0.0 0.046378833181571356 -0.039377440007465535 0.03825510602846813 0.0011223339789973876 0.017191350007714254 0.0 0.0
0.0 0.03817681323752406 -0.03230840412116692 0.03126479942760481 0.0010436046935621127 0.014454620423590563 0.0 0.0
0.0 0.030652127240755368 -0.025948015797307163 0.02497133006315857 0.0009766857341485897 0.01235968756787014 0.0 0.0
0.0 0.02418112135441594 -0.02044510305544501 0.019533438213247316 0.0009116648421976927 0.010546431067111242 0.0 0.0
0.0 0.018586809358243438 -0.01569528606339132 0.014852221873701273 0.0008430641896900446 0.008814257559235502 0.0 0.0
0.0 0.013697379977746199 -0.011556144453826855 0.010789909585796217 0.0007662348680306341 0.007083192983630554 0.0 0.0
0.0 0.00943940698824593 -0.007941480074704218 0.007269180328089572 0.0006722997466146465 0.005312392714353605 0.0 0.0
0.0 0.005836643190430232 -0.004856561761679229 0.004314009137120775 0.0005425526245584541 0.003551382513922427 0.0 0.0
0.0 0.0030230045978034735 -0.00242227250095125 0.0020643305022243494 0.00035794199872690166 0.0019914370620542025 0.0 0.0
0.0 0.0011395975188488385 -0.0008412259672859997 0.000687754700658695 0.00015347126662730446 0.0008486767511736368 0.0 0.0
0.0 0.00024075558898554834 -0.00015217849044599766 0.00012192185080566821 3.025663964032945e-05 0.00021048712865977628 0.0 0.0
0.0 3.6708517436039296e-05 -5.157955936414944e-06 4.177398285271761e-06 9.805576511430814e-07 9.18432589502361e-06 0.0 0.0
0.0 7.479034887487536e-06 5.459266822702636e-07 -4.3812868011058e-07 -1.0779800215968128e-07 -1.3945185928411796e-06 0.0 0.0
0.0 6.301117768796378e-07 3.177133555832444e-08 -2.5610055487985994e-08 -6.161280070339225e-09 -1.1393767081387647e-07 0.0 0.0
0.0 0.0 0.0 0.0 0.0 0.0 0.0 0.0
0.0 0.0 0.0 0.0 0.0 0.0 0.0 0.0
0.0 0.0 0.0 0.0 0.0 0.0 0.0 0.0
0.0 0.0 0.0 0.0 0.0 0.0 0.0 0.0
0.0 4.5863203886725496e-07 2.8922759253031426e-08 -2.30657714050237e-08 -5.856987848009348e-09 7.774049813048284e-08 0.0 0.0
0.0 3.241628952765024e-06 2.6053331691204254e-07 -2.0807629639336721e-07 -5.2457020518637325e-08 5.164519678466237e-07 0.0 0.0
0.0 5.642039064427078e-05 -2.330134998101033e-05 1.860021051189388e-05 4.701139469116468e-06 -3.086535840996519e-05 0.0 0.0
0.0 0.0004943199233607272 -0.0003450453369582598 0.0002775902976021958 6.745503935606422e-05 -0.0003202927317395403 0.0 0.0
0.0 0.0018904361154957353 -0.001465747484728561 0.0012201342757148176 0.0002456132090137433 -0.001029823773824504 0.0 0.0
0.0 0.004236409495293477 -0.003608605480189012 0.0031451819321758005 0.00046342354801321106 -0.00219862407660195 0.0 0.0
0.0 0.007696527487254836 -0.006622975456998076 0.005996520862194503 0.0006264545948035724 -0.0036964065843411997 0.0 0.0
0.0 0.012075391710077868 -0.010368572237229137 0.009626139918695799 0.0007424323185333415 -0.005339216978808927 0.0 0.0
0.0 0.017249465822326664 -0.014780099796407858 0.013946732575562634 0.0008333672208452191 -0.007023121476387348 0.0 0.0
0.0 0.023190900484805457 -0.01986298103951666 0.018950039468662694 0.0009129415708539524 -0.008674080542527902 0.0 0.0
0.0 0.030077824316209634 -0.02571216991355698 0.024724502608033876 0.000987667305523098 -0.010342209788018732 0.0 0.0
0.0 0.037887089561805955 -0.03248007081258198 0.03142075735670998 0.0010593134558719952 -0.012121040676821584 0.0 0.0
0.0 0.04698753901391178 -0.04028093612756215 0.03914866020394144 0.0011322759236207125 -0.014084890273043696 0.0 0.0
0.0 0.05722788032359673 -0.04897305596790927 0.04775229361658957 0.0012207623513196828 -0.01649444134335155 0.0 0.0
0.0 0.06730284955048683 -0.057672560381571064 0.056332652297491334 0.001339908084079713 -0.019851321982760062 0.0 0.0
0.0 0.07507895329744074 -0.06421043373774533 0.06271568741221355 0.001494746325531791 -0.024233110327266126 0.0 0.0
0.0 0.07636054873244508 -0.0649438577244607 0.06327098306663007 0.001672874657830599 -0.028514973640403025 0.0 0.0
0.0 0.06552162478758568 -0.05488523791021399 0.05302501923812533 0.0018602186720886268 -0.0307560442918297 0.0 0.0
0.0 0.06552162478758879 -0.05488523791021249 0.05302501923812408 0.001860218672088362 0.030756044291860383 0.0 0.0
0.0 0.07636054873243572 -0.06494385772444844 0.06327098306661777 0.0016728746578306573 0.028514973640441303 0.0 0.0
0.0 0.07507895329741901 -0.06421043373772349 0.06271568741219213 0.0014947463255313353 0.02423311032729418 0.0 0.0
0.0 0.06730284955045668 -0.05767256038154342 0.05633265229746497 0.0013399080840784383 0.019851321982767962 0.0 0.0
0.0 0.05722788032356074 -0.048973055967877516 0.04775229361655878 0.0012207623513187198 0.016494441343349223 0.0 0.0
0.0 0.04698753901387242 -0.0402809361275277 0.039148660203907504 0.0011322759236201822 0.014084890273039264 0.0 0.0
0.0 0.037887089561765834 -0.032480070812547064 0.031420757356675814 0.0010593134558712532 0.012121040676812552 0.0 0.0
0.0 0.03007782431616865 -0.02571216991352117 0.024724502607998418 0.0009876673055227313 0.010342209788009774 0.0 0.0
0.0 0.02319090048476386 -0.019862981039480504 0.01895003946862711 0.0009129415708533867 0.008674080542515599 0.0 0.0
0.0 0.01724946582228786 -0.014780099796374645 0.013946732575529978 0.0008333672208446642 0.007023121476371305 0.0 0.0
0.0 0.012075391710044346 -0.010368572237200517 0.009626139918667925 0.0007424323185325889 0.0053392169787929225 0.0 0.0
0.0 0.0076965274872300374 -0.006622975456976507 0.0059965208621738895 0.0006264545948026153 0.003696406584330216 0.0 0.0
0.0 0.004236409495276329 -0.0036086054801741305 0.0031451819321620562 0.00046342354801207335 0.002198624076594018 0.0 0.0
0.0 0.0018904361154851146 -0.0014657474847200069 0.0012201342757074583 0.0002456132090125488 0.0010298237738191425 0.0 0.0
0.0 0.0004943199233560936 -0.0003450453369552817 0.000277590297599768 6.74550393555136e-05 0.00032029273173688193 0.0 0.0
0.0 5.6420390643209355e-05 -2.3301349981088323e-05 1.8600210511940468e-05 4.701139469147869e-06 3.0865358409963156e-05 0.0 0.0
0.0 3.2416289522024286e-06 2.6053331686397295e-07 -2.080762963552667e-07 -5.245702050872393e-08 -5.164519677547741e-07 0.0 0.0
0.0 4.58632038783933e-07 2.8922759247613115e-08 -2.306577140070698e-08 -5.856987846907093e-09 -7.77404981159682e-08 0.0 0.0
0.0 0.0 0.0 0.0 0.0 0.0 0.0 0.0
0.0 0.0 0.0 0.0 0.0 0.0 0.0 0.0
0.0 0.0 0.0 0.0 0.0 0.0 0.0 0.0
0.0 0.0 0.0 0.0 0.0 0.0 0.0 0.0
0.0 0.0 0.0 0.0 0.0 0.0 0.0 0.0
0.0 3.425099627701566e-06 -2.612052651592714e-07 2.0315339026714096e-07 5.805187489214857e-08 -3.224914486972829e-07 0.0 0.0
0.0 0.00011057803908371243 -6.013371007981141e-05 4.819003568132186e-05 1.1943674398489682e-05 -5.741841286784001e-05 0.0 0.0
0.0 0.0008930853033937111 -0.0006553522095662447 0.0005326523588028518 0.00012269985076339312 -0.0004101428884654013 0.0 0.0
0.0 0.0025986735960885684 -0.0022549590005930603 0.0019131062982940294 0.0003418527022990316 -0.0011254723266588178 0.0 0.0
0.0 0.00554266660924639 -0.004876481025936647 0.004331908756607289 0.000544572269329357 -0.0021762875565879804 0.0 0.0
0.0 0.009654683294737147 -0.008424154896447947 0.007734853228255642 0.0006893016681923036 -0.0034730037364892694 0.0 0.0
0.0 0.014765641622891061 -0.012828633947811075 0.01203103902300242 0.0007975949248086578 -0.004932865390917323 0.0 0.0
0.0 0.020835565609415428 -0.018037513070101707 0.01714831534364837 0.0008891977264533332 -0.006432992726901798 0.0 0.0
0.0 0.027869422272479554 -0.024073923501867107 0.02309959136668723 0.0009743321351798644 -0.007910795489386899 0.0 0.0
0.0 0.035962637848766764 -0.031041258823780234 0.029985053879764204 0.0010562049440160089 -0.009432719025531949 0.0 0.0
0.0 0.04531550122535711 -0.039076203389658615 0.037939261792109547 0.001136941597549069 -0.011056809975301979 0.0 0.0
0.0 0.055986685847257855 -0.04826517353923937 0.04704735554962154 0.0012178179896178264 -0.012776571312480186 0.0 0.0
0.0 0.06759171907012765 -0.05845688073093227 0.05714560888832031 0.0013112718426119274 -0.014617667540046786 0.0 0.0
0.0 0.07950077098075133 -0.0687261899231712 0.0672821068934579 0.0014440830297133217 -0.01708730084390131 0.0 0.0
0.0 0.08878372126798587 -0.07660848244096385 0.07498631441745497 0.001622168023508867 -0.021211323797186443 0.0 0.0
0.0 0.09068259971843404 -0.07783160221317872 0.0760101948645847 0.001821407348594043 -0.02734613237865983 0.0 0.0
0.0 0.07901861461448022 -0.06666318993410335 0.06465004534072885 0.0020131445933744717 -0.03447875197347454 0.0 0.0
0.0 0.07901861461447666 -0.06666318993409678 0.06465004534072182 0.0020131445933749765 0.03447875197350309 0.0 0.0
0.0 0.09068259971841416 -0.07783160221315877 0.07601019486456412 0.001821407348594681 0.027346132378692663 0.0 0.0
0.0 0.0887837212679523 -0.0766084824409332 0.07498631441742393 0.0016221680235091926 0.0212113237972108 0.0 0.0
0.0 0.07950077098070996 -0.06872618992313487 0.06728210689342155 0.0014440830297133187 0.01708730084390799 0.0 0.0
0.0 0.06759171907008103 -0.058456880730891336 0.0571456088882803 0.0013112718426110006 0.014617667540044975 0.0 0.0
0.0 0.055986685847211184 -0.04826517353919835 0.047047355549581726 0.0012178179896166175 0.012776571312476413 0.0 0.0
0.0 0.045315501225311965 -0.0390762033896193 0.037939261792071265 0.0011369415975480118 0.011056809975294412 0.0 0.0
0.0 0.03596263784872138 -0.031041258823740585 0.02998505387972544 0.0010562049440151471 0.009432719025524169 0.0 0.0
0.0 0.027869422272435433 -0.024073923501828305 0.023099591366649387 0.000974332135178927 0.007910795489377283 0.0 0.0
0.0 0.020835565609371512 -0.018037513070063523 0.017148315343610766 0.0008891977264527455 0.00643299272688707 0.0 0.0
0.0 0.01476564162285323 -0.01282863394777827 0.012031039022969989 0.0007975949248082762 0.004932865390903307 0.0 0.0
0.0 0.009654683294708557 -0.008424154896422752 0.007734853228231058 0.0006893016681916912 0.0034730037364798334 0.0 0.0
0.0 0.005542666609225567 -0.0048764810259180275 0.004331908756589719 0.000544572269328309 0.002176287556580582 0.0 0.0
0.0 0.002598673596076117 -0.002254959000582156 0.0019131062982843438 0.0003418527022978116 0.0011254723266538747 0.0 0.0
0.0 0.0008930853033871813 -0.0006553522095616202 0.0005326523587990368 0.00012269985076258347 0.0004101428884627383 0.0 0.0
0.0 0.00011057803908202922 -6.0133710079420754e-05 4.819003568098979e-05 1.1943674398430837e-05 5.741841286746538e-05 0.0 0.0
0.0 3.4250996272126722e-06 -2.6120526536629995e-07 2.0315339042963076e-07 5.805187493668156e-08 3.224914489801678e-07 0.0 0.0
0.0 0.0 0.0 0.0 0.0 0.0 0.0 0.0
0.0 0.0 0.0 0.0 0.0 0.0 0.0 0.0
0.0 0.0 0.0 0.0 0.0 0.0 0.0 0.0
0.0 0.0 0.0 0.0 0.0 0.0 0.0 0.0
0.0 0.0 0.0 0.0 0.0 0.0 0.0 0.0
0.0 0.0 0.0 0.0 0.0 0.0 0.0 0.0
0.0 3.6570436862685067e-06 -9.930312764995023e-08 7.973092614989371e-08 1.9572201500046072e-08 -8.68906359210037e-08 0.0 0.0
0.0 0.00023774516951549957 -0.00014632456502773885 0.00011679539469861178 2.952917032912703e-05 -8.732646794515456e-05 0.0 0.0
0.0 0.0013785353012445841 -0.0010964696897110431 0.0009021591766266506 0.0001943105130843929 -0.00045079403698183027 0.0 0.0
0.0 0.0034763985735623082 -0.003124548099155175 0.0026979174786105975 0.000426630620544577 -0.0010437218198498966 0.0 0.0
0.0 0.0069505896523698926 -0.006172277262612216 0.005565599835227327 0.000606677427384888 -0.0018762741870039365 0.0 0.0
0.0 0.01164862666324132 -0.010245144633020304 0.009507108666829849 0.0007380359661904488 -0.002922232748822099 0.0 0.0
0.0 0.017496715371511356 -0.015301094078491473 0.014458167437564048 0.0008429266409274213 -0.004108772031707981 0.0 0.0
0.0 0.024480808886025933 -0.021309324148132084 0.020371491366176924 0.000937832781955166 -0.005335285434117598 0.0 0.0
0.0 0.0325553714178441 -0.02830977710443907 0.027280516199951543 0.001029260904487508 -0.006541867769172648 0.0 0.0
0.0 0.04201219498156306 -0.03640769457203317 0.03528812116813283 0.0011195734039003103 -0.007791656122200153 0.0 0.0
0.0 0.05264990380605011 -0.04571928374245661 0.0445091691045013 0.0012101146379553244 -0.009179834897869273 0.0 0.0
0.0 0.06474225350231609 -0.05624557185480733 0.05494360603634646 0.0013019658184608898 -0.010598059547711433 0.0 0.0
0.0 0.07798941029708353 -0.06774319198409381 0.06634218449481308 0.0014010074892807421 -0.011735170905013732 0.0 0.0
0.0 0.09135509684276782 -0.07935823536008535 0.07782900597063581 0.0015292293894495327 -0.012827485520870152 0.0 0.0
0.0 0.10220270400118114 -0.08870509438932245 0.08697619318573968 0.0017289012035827257 -0.016046497924935503 0.0 0.0
0.0 0.10524755515885834 -0.0909250663400068 0.08896439728203062 0.001960669057976219 -0.02420418279995426 0.0 0.0
0.0 0.09346514066917957 -0.07917289496016393 0.07699710754888325 0.002175787411280607 -0.03780716492351618 0.0 0.0
0.0 0.09346514066917702 -0.07917289496015868 0.07699710754887858 0.0021757874112801135 0.03780716492353963 0.0 0.0
0.0 0.10524755515884254 -0.09092506633999059 0.08896439728201552 0.0019606690579750175 0.024204182799984028 0.0 0.0
0.0 0.10220270400115093 -0.08870509438929458 0.08697619318571308 0.0017289012035814628 0.016046497924958835 0.0 0.0
0.0 0.09135509684272293 -0.0793582353600459 0.07782900597059711 0.0015292293894487814 0.012827485520875459 0.0 0.0
0.0 0.07798941029703113 -0.06774319198404836 0.06634218449476767 0.0014010074892807033 0.011735170905013758 0.0 0.0
0.0 0.06474225350225848 -0.05624557185475766 0.054943606036296354 0.0013019658184613302 0.010598059547709199 0.0 0.0
0.0 0.0526499038059933 -0.045719283742407635 0.04450916910445204 0.0012101146379555803 0.009179834897863582 0.0 0.0
0.0 0.042012194981507975 -0.036407694571985325 0.035288121168085315 0.0011195734039000176 0.007791656122193258 0.0 0.0
0.0 0.03255537141779216 -0.028309777104393665 0.02728051619990712 0.001029260904486544 0.0065418677691665966 0.0 0.0
0.0 0.024480808885978717 -0.021309324148090607 0.020371491366136096 0.0009378327819545033 0.005335285434106177 0.0 0.0
0.0 0.017496715371471808 -0.015301094078456708 0.014458167437529871 0.0008429266409268396 0.004108772031696771 0.0 0.0
0.0 0.011648626663210909 -0.010245144632993286 0.009507108666803522 0.000738035966189764 0.002922232748814531 0.0 0.0
0.0 0.006950589652347192 -0.006172277262591757 0.005565599835207719 0.0006066774273840382 0.0018762741869978732 0.0 0.0
0.0 0.0034763985735473788 -0.003124548099141534 0.0026979174785981387 0.00042663062054339596 0.0010437218198454444 0.0 0.0
0.0 0.0013785353012370904 -0.0010964696897049532 0.0009021591766214895 0.0001943105130834628 0.0004507940369793054 0.0 0.0
0.0 0.00023774516951285791 -0.0001463245650263655 0.00011679539469750574 2.9529170328859823e-05 8.732646794442175e-05 0.0 0.0
0.0 3.6570436856665987e-06 -9.930312784531422e-08 7.973092630212655e-08 1.9572201543196074e-08 8.689063610591613e-08 0.0 0.0
0.0 0.0 0.0 0.0 0.0 0.0 0.0 0.0
0.0 0.0 0.0 0.0 0.0 0.0 0.0 0.0
0.0 0.0 0.0 0.0 0.0 0.0 0.0 0.0
0.0 0.0 0.0 0.0 0.0 0.0 0.0 0.0
0.0 0.0 0.0 0.0 0.0 0.0 0.0 0.0
0.0 0.0 0.0 0.0 0.0 0.0 0.0 0.0
0.0 8.066050959846115e-06 3.784791414514004e-07 -2.7771623025276687e-07 -1.0076291119860423e-07 1.9941524220008196e-07 0.0 0.0
0.0 0.0004769307070464922 -0.0003148282333091635 0.00025280692689506575 6.202130641409796e-05 -0.00010762750811538887 0.0 0.0
0.0 0.0018088915144915006 -0.00166066860268796 0.0013844192095363614 0.000276249393151598 -0.0003871868781583784 0.0 0.0
0.0 0.004460745387399193 -0.004031028265303306 0.0035371339388397026 0.0004938943264636025 -0.0007828947354984753 0.0 0.0
0.0 0.008390687238177787 -0.007484943308127064 0.006829284531027386 0.0006556587770996779 -0.0013391095498186218 0.0 0.0
0.0 0.013664005025054129 -0.012067555033859843 0.011291007966813331 0.0007765470670465062 -0.0020529356280151686 0.0 0.0
0.0 0.020243432669688286 -0.017768713373678073 0.016887698348315418 0.0008810150253626498 -0.0028774629364060962 0.0 0.0
0.0 0.028124967247641984 -0.0245796843850238 0.023598770131053815 0.0009809142539699911 -0.003728605193545701 0.0 0.0
0.0 0.03741068079157729 -0.03255177339691019 0.03147226689461214 0.0010795065022980452 -0.004566992669687272 0.0 0.0
0.0 0.04793290678645982 -0.04179515729018917 0.040616677292056584 0.001178479998132577 -0.005470802734181069 0.0 0.0
0.0 0.06006648936251362 -0.052375959208778855 0.05109646019458708 0.0012794990141917514 -0.006466450386015418 0.0 0.0
0.0 0.07369129489711104 -0.06419672554346831 0.06281228776526135 0.0013844377782069703 -0.007428668394177241 0.0 0.0
0.0 0.08825190784306305 -0.07684966725124895 0.07535601676579906 0.0014936504854498782 -0.008016503407685852 0.0 0.0
0.0 0.10272466968541667 -0.08944788760705245 0.08783555573049659 0.0016123318765559327 -0.007886796974345451 0.0 0.0
0.0 0.11502501871356713 -0.10012655176154307 0.09834815739720332 0.0017783943643397645 -0.008803357006752447 0.0 0.0
0.0 0.12020044590340637 -0.10428530587099608 0.10218914686003544 0.0020961590109605465 -0.01786580444177606 0.0 0.0
0.0 0.10930959144358002 -0.09296338572563725 0.09059636122589049 0.002367024499746747 -0.04003998367799723 0.0 0.0
0.0 0.1093095914435736 -0.09296338572563004 0.09059636122588301 0.0023670244997469904 0.04003998367801378 0.0 0.0
0.0 0.12020044590338318 -0.10428530587097491 0.10218914686001454 0.0020961590109603045 0.01786580444179891 0.0 0.0
0.0 0.1150250187135283 -0.10012655176150864 0.09834815739716987 0.0017783943643387586 0.008803357006769668 0.0 0.0
0.0 0.1027246696853652 -0.08944788760700756 0.08783555573045229 0.0016123318765552189 0.00788679697434716 0.0 0.0
0.0 0.08825190784300764 -0.07684966725120046 0.07535601676575171 0.0014936504854487396 0.008016503407685987 0.0 0.0
0.0 0.07369129489705498 -0.0641967255434191 0.06281228776521362 0.001384437778205479 0.007428668394175754 0.0 0.0
0.0 0.060066489362455504 -0.05237595920872788 0.051096460194537625 0.0012794990141902437 0.006466450386013218 0.0 0.0
0.0 0.04793290678639833 -0.04179515729013558 0.04061667729200388 0.0011784799981316859 0.0054708027341756355 0.0 0.0
0.0 0.03741068079151795 -0.03255177339685823 0.03147226689456087 0.0010795065022973522 0.004566992669683478 0.0 0.0
0.0 0.02812496724758798 -0.024579684384976715 0.023598770131007345 0.0009809142539693569 0.0037286051935375977 0.0 0.0
0.0 0.02024343266964402 -0.017768713373639087 0.01688769834827733 0.0008810150253617663 0.002877462936398329 0.0 0.0
0.0 0.013664005025017628 -0.012067555033827204 0.01129100796678141 0.0007765470670457941 0.002052935628010266 0.0 0.0
0.0 0.008390687238151976 -0.007484943308103722 0.006829284531005002 0.0006556587770987178 0.0013391095498144789 0.0 0.0
0.0 0.004460745387382307 -0.0040310282652876225 0.003537133938825138 0.0004938943264624831 0.0007828947354953335 0.0 0.0
0.0 0.0018088915144815559 -0.001660668602678723 0.0013844192095283149 0.0002762493931504083 0.0003871868781562948 0.0 0.0
0.0 0.0004769307070422233 -0.00031482823330628587 0.00025280692689268376 6.202130641360186e-05 0.00010762750811441334 0.0 0.0
0.0 8.066050959156667e-06 3.784791411978872e-07 -2.7771623005377284e-07 -1.0076291114416062e-07 -1.994152420428891e-07 0.0 0.0
0.0 0.0 0.0 0.0 0.0 0.0 0.0 0.0
0.0 0.0 0.0 0.0 0.0 0.0 0.0 0.0
0.0 0.0 0.0 0.0 0.0 0.0 0.0 0.0
0.0 0.0 0.0 0.0 0.0 0.0 0.0 0.0
0.0 0.0 0.0 0.0 0.0 0.0 0.0 0.0
0.0 0.0 0.0 0.0 0.0 0.0 0.0 0.0
0.0 2.8886631985064474e-05 -1.2854359724237452e-05 1.0171842019972811e-05 2.6825177042647867e-06 -3.829122555651706e-06 0.0 0.0
0.0 0.000844045032187909 -0.00057549339036304 0.000465188104601255 0.00011030528576178492 -7.788134649267545e-05 0.0 0.0
0.0 0.002463844802007164 -0.002262724816624367 0.0019127291152275505 0.0003499957013968159 -0.00018740119856354198 0.0 0.0
0.0 0.005480974790631803 -0.0049595505755385665 0.004411223132671832 0.0005483274428667321 -0.0003479834253853911 0.0 0.0
0.0 0.009866773801476415 -0.008796606742781434 0.008102802927834456 0.0006938038149469762 -0.0005695791103107213 0.0 0.0
0.0 0.01570884782452322 -0.013874208785897787 0.013066096402674542 0.0008081123832232471 -0.0008730530010516262 0.0 0.0
0.0 0.023038022003949513 -0.020213019506611307 0.019299187496376394 0.0009138320102349127 -0.0012385517893210058 0.0 0.0
0.0 0.031895719051854454 -0.02783195499325218 0.02681290262518225 0.0010190523680699251 -0.0016175902766663412 0.0 0.0
0.0 0.042068040012112916 -0.0367942447458733 0.03566846676846609 0.001125777977407187 -0.002013327353005918 0.0 0.0
0.0 0.053949275908148256 -0.04717408203131336 0.04594044475220632 0.0012336372791070251 -0.002435520598488764 0.0 0.0
0.0 0.06757064429915152 -0.05900160433867034 0.05765658045446783 0.0013450238842024724 -0.0028722814050363343 0.0 0.0
0.0 0.08265064345837451 -0.07209313209278281 0.07063029593011538 0.0014628361626674393 -0.0032605819102147814 0.0 0.0
0.0 0.09851636212763146 -0.08584534179291198 0.08425894776150455 0.0015863940314074412 -0.0033801985833514284 0.0 0.0
0.0 0.11385278979750721 -0.09914625248801039 0.09743720773145506 0.00170904475655527 -0.002858739708230409 0.0 0.0
0.0 0.12677239091988607 -0.11038920668898684 0.10855861016529014 0.0018305965236966703 -0.0016660141107388516 0.0 0.0
0.0 0.13431361768187225 -0.11684192764115892 0.1148200066344998 0.002021921006659027 -0.005740943007795287 0.0 0.0
0.0 0.12784318302161793 -0.10953120780906014 0.10680351349557209 0.0027276943134880425 -0.037062228170711316 0.0 0.0
0.0 0.1278431830216099 -0.10953120780905234 0.10680351349556476 0.002727694313487552 0.037062228170717776 0.0 0.0
0.0 0.13431361768184358 -0.11684192764113356 0.11482000663447534 0.0020219210066581856 0.0057409430078052244 0.0 0.0
0.0 0.126772390919839 -0.11038920668894568 0.10855861016524998 0.0018305965236956221 0.0016660141107469905 0.0 0.0
0.0 0.11385278979744638 -0.09914625248795751 0.09743720773140273 0.0017090447565547137 0.002858739708229344 0.0 0.0
0.0 0.09851636212756379 -0.08584534179285341 0.08425894776144596 0.0015863940314074355 0.003380198583351696 0.0 0.0
0.0 0.08265064345830563 -0.07209313209272313 0.0706302959300559 0.0014628361626671826 0.0032605819102136707 0.0 0.0
0.0 0.0675706442990812 -0.05900160433860951 0.057656580454407136 0.0013450238842023657 0.002872281405035435 0.0 0.0
0.0 0.053949275908080206 -0.04717408203125431 0.04594044475214769 0.0012336372791065884 0.002435520598486146 0.0 0.0
0.0 0.042068040012048065 -0.036794244745816725 0.03566846676841042 0.0011257779774062806 0.0020133273530051586 0.0 0.0
0.0 0.03189571905179571 -0.027831954993200812 0.026812902625131668 0.0010190523680691486 0.0016175902766613032 0.0 0.0
0.0 0.02303802200389904 -0.02021301950656747 0.0192991874963331 0.000913832010234375 0.0012385517893173433 0.0 0.0
0.0 0.015708847824482956 -0.013874208785862187 0.013066096402639497 0.0008081123832226869 0.0008730530010497946 0.0 0.0
0.0 0.009866773801446928 -0.008796606742754795 0.008102802927808487 0.0006938038149463081 0.0005695791103089102 0.0 0.0
0.0 0.0054809747906109435 -0.004959550575519511 0.004411223132653668 0.0005483274428658432 0.0003479834253839707 0.0 0.0
0.0 0.002463844801995605 -0.002262724816613288 0.0019127291152175973 0.0003499957013956907 0.00018740119856261992 0.0 0.0
0.0 0.0008440450321831112 -0.0005754933903596748 0.0004651881045984854 0.00011030528576118961 7.788134649236482e-05 0.0 0.0
0.0 2.8886631984530078e-05 -1.285435972445681e-05 1.0171842020132172e-05 2.682517704324626e-06 3.8291225556510355e-06 0.0 0.0
0.0 0.0 0.0 0.0 0.0 0.0 0.0 0.0
0.0 0.0 0.0 0.0 0.0 0.0 0.0 0.0
0.0 0.0 0.0 0.0 0.0 0.0 0.0 0.0