# vtk DataFile Version 3.0
Some data
ASCII
DATASET UNSTRUCTURED_GRID
POINTS 861 float
0.0 0.0 0.0
0.4 0.0 0.0
0.8 0.0 0.0
1.2000000000000002 0.0 0.0
1.6 0.0 0.0
2.0 0.0 0.0
2.4000000000000004 0.0 0.0
2.8000000000000003 0.0 0.0
3.2 0.0 0.0
3.6 0.0 0.0
4.0 0.0 0.0
4.4 0.0 0.0
4.800000000000001 0.0 0.0
5.2 0.0 0.0
5.6000000000000005 0.0 0.0
6.0 0.0 0.0
6.4 0.0 0.0
6.800000000000001 0.0 0.0
7.2 0.0 0.0
7.6000000000000005 0.0 0.0
8.0 0.0 0.0
8.4 0.0 0.0
8.8 0.0 0.0
9.200000000000001 0.0 0.0
9.600000000000001 0.0 0.0
10.0 0.0 0.0
10.4 0.0 0.0
10.8 0.0 0.0
11.200000000000001 0.0 0.0
11.600000000000001 0.0 0.0
12.0 0.0 0.0
12.4 0.0 0.0
12.8 0.0 0.0
13.200000000000001 0.0 0.0
13.600000000000001 0.0 0.0
14.0 0.0 0.0
14.4 0.0 0.0
14.8 0.0 0.0
15.200000000000001 0.0 0.0
15.600000000000001 0.0 0.0
16.0 0.0 0.0
0.0 0.1 0.0
0.4 0.1 0.0
0.8 0.1 0.0
1.2000000000000002 0.1 0.0
1.6 0.1 0.0
2.0 0.1 0.0
2.4000000000000004 0.1 0.0
2.8000000000000003 0.1 0.0
3.2 0.1 0.0
3.6 0.1 0.0
4.0 0.1 0.0
4.4 0.1 0.0
4.800000000000001 0.1 0.0
5.2 0.1 0.0
5.6000000000000005 0.1 0.0
6.0 0.1 0.0
6.4 0.1 0.0
6.800000000000001 0.1 0.0
7.2 0.1 0.0
7.6000000000000005 0.1 0.0
8.0 0.1 0.0
8.4 0.1 0.0
8.8 0.1 0.0
9.200000000000001 0.1 0.0
9.600000000000001 0.1 0.0
10.0 0.1 0.0
10.4 0.1 0.0
10.8 0.1 0.0
11.200000000000001 0.1 0.0
11.600000000000001 0.1 0.0
12.0 0.1 0.0
12.4 0.1 0.0
12.8 0.1 0.0
13.200000000000001 0.1 0.0
13.600000000000001 0.1 0.0
14.0 0.1 0.0
14.4 0.1 0.0
14.8 0.1 0.0
15.200000000000001 0.1 0.0
15.600000000000001 0.1 0.0
16.0 0.1 0.0
0.0 0.2 0.0
0.4 0.2 0.0
0.8 0.2 0.0
1.2000000000000002 0.2 0.0
1.6 0.2 0.0
2.0 0.2 0.0
2.4000000000000004 0.2 0.0
2.8000000000000003 0.2 0.0
3.2 0.2 0.0
3.6 0.2 0.0
4.0 0.2 0.0
4.4 0.2 0.0
4.800000000000001 0.2 0.0
5.2 0.2 0.0
5.6000000000000005 0.2 0.0
6.0 0.2 0.0
6.4 0.2 0.0
6.800000000000001 0.2 0.0
7.2 0.2 0.0
7.6000000000000005 0.2 0.0
8.0 0.2 0.0
8.4 0.2 0.0
8.8 0.2 0.0
9.200000000000001 0.2 0.0
9.600000000000001 0.2 0.0
10.0 0.2 0.0
10.4 0.2 0.0
10.8 0.2 0.0
11.200000000000001 0.2 0.0
11.600000000000001 0.2 0.0
12.0 0.2 0.0
12.4 0.2 0.0
12.8 0.2 0.0
13.200000000000001 0.2 0.0
13.600000000000001 0.2 0.0
14.0 0.2 0.0
14.4 0.2 0.0
14.8 0.2 0.0
15.200000000000001 0.2 0.0
15.600000000000001 0.2 0.0
16.0 0.2 0.0
0.0 0.30000000000000004 0.0
0.4 0.30000000000000004 0.0
0.8 0.30000000000000004 0.0
1.2000000000000002 0.30000000000000004 0.0
1.6 0.30000000000000004 0.0
2.0 0.30000000000000004 0.0
2.4000000000000004 0.30000000000000004 0.0
2.8000000000000003 0.30000000000000004 0.0
3.2 0.30000000000000004 0.0
3.6 0.30000000000000004 0.0
4.0 0.30000000000000004 0.0
4.4 0.30000000000000004 0.0
4.800000000000001 0.30000000000000004 0.0
5.2 0.30000000000000004 0.0
5.6000000000000005 0.30000000000000004 0.0
6.0 0.30000000000000004 0.0
6.4 0.30000000000000004 0.0
6.800000000000001 0.30000000000000004 0.0
7.2 0.30000000000000004 0.0
7.6000000000000005 0.30000000000000004 0.0
8.0 0.30000000000000004 0.0
8.4 0.30000000000000004 0.0
8.8 0.30000000000000004 0.0
9.200000000000001 0.30000000000000004 0.0
9.600000000000001 0.30000000000000004 0.0
10.0 0.30000000000000004 0.0
10.4 0.30000000000000004 0.0
10.8 0.30000000000000004 0.0
11.200000000000001 0.30000000000000004 0.0
11.600000000000001 0.30000000000000004 0.0
12.0 0.30000000000000004 0.0
12.4 0.30000000000000004 0.0
12.8 0.30000000000000004 0.0
13.200000000000001 0.30000000000000004 0.0
13.600000000000001 0.30000000000000004 0.0
14.0 0.30000000000000004 0.0
14.4 0.30000000000000004 0.0
14.8 0.30000000000000004 0.0
15.200000000000001 0.30000000000000004 0.0
15.600000000000001 0.30000000000000004 0.0
16.0 0.30000000000000004 0.0
0.0 0.4 0.0
0.4 0.4 0.0
0.8 0.4 0.0
1.2000000000000002 0.4 0.0
1.6 0.4 0.0
2.0 0.4 0.0
2.4000000000000004 0.4 0.0
2.8000000000000003 0.4 0.0
3.2 0.4 0.0
3.6 0.4 0.0
4.0 0.4 0.0
4.4 0.4 0.0
4.800000000000001 0.4 0.0
5.2 0.4 0.0
5.6000000000000005 0.4 0.0
6.0 0.4 0.0
6.4 0.4 0.0
6.800000000000001 0.4 0.0
7.2 0.4 0.0
7.6000000000000005 0.4 0.0
8.0 0.4 0.0
8.4 0.4 0.0
8.8 0.4 0.0
9.200000000000001 0.4 0.0
9.600000000000001 0.4 0.0
10.0 0.4 0.0
10.4 0.4 0.0
10.8 0.4 0.0
11.200000000000001 0.4 0.0
11.600000000000001 0.4 0.0
12.0 0.4 0.0
12.4 0.4 0.0
12.8 0.4 0.0
13.200000000000001 0.4 0.0
13.600000000000001 0.4 0.0
14.0 0.4 0.0
14.4 0.4 0.0
14.8 0.4 0.0
15.200000000000001 0.4 0.0
15.600000000000001 0.4 0.0
16.0 0.4 0.0
0.0 0.5 0.0
0.4 0.5 0.0
0.8 0.5 0.0
1.2000000000000002 0.5 0.0
1.6 0.5 0.0
2.0 0.5 0.0
2.4000000000000004 0.5 0.0
2.8000000000000003 0.5 0.0
3.2 0.5 0.0
3.6 0.5 0.0
4.0 0.5 0.0
4.4 0.5 0.0
4.800000000000001 0.5 0.0
5.2 0.5 0.0
5.6000000000000005 0.5 0.0
6.0 0.5 0.0
6.4 0.5 0.0
6.800000000000001 0.5 0.0
7.2 0.5 0.0
7.6000000000000005 0.5 0.0
8.0 0.5 0.0
8.4 0.5 0.0
8.8 0.5 0.0
9.200000000000001 0.5 0.0
9.600000000000001 0.5 0.0
10.0 0.5 0.0
10.4 0.5 0.0
10.8 0.5 0.0
11.200000000000001 0.5 0.0
11.600000000000001 0.5 0.0
12.0 0.5 0.0
12.4 0.5 0.0
12.8 0.5 0.0
13.200000000000001 0.5 0.0
13.600000000000001 0.5 0.0
14.0 0.5 0.0
14.4 0.5 0.0
14.8 0.5 0.0
15.200000000000001 0.5 0.0
15.600000000000001 0.5 0.0
16.0 0.5 0.0
0.0 0.6000000000000001 0.0
0.4 0.6000000000000001 0.0
0.8 0.6000000000000001 0.0
1.2000000000000002 0.6000000000000001 0.0
1.6 0.6000000000000001 0.0
2.0 0.6000000000000001 0.0
2.4000000000000004 0.6000000000000001 0.0
2.8000000000000003 0.6000000000000001 0.0
3.2 0.6000000000000001 0.0
3.6 0.6000000000000001 0.0
4.0 0.6000000000000001 0.0
4.4 0.6000000000000001 0.0
4.800000000000001 0.6000000000000001 0.0
5.2 0.6000000000000001 0.0
5.6000000000000005 0.6000000000000001 0.0
6.0 0.6000000000000001 0.0
6.4 0.6000000000000001 0.0
6.800000000000001 0.6000000000000001 0.0
7.2 0.6000000000000001 0.0
7.6000000000000005 0.6000000000000001 0.0
8.0 0.6000000000000001 0.0
8.4 0.6000000000000001 0.0
8.8 0.6000000000000001 0.0
9.200000000000001 0.6000000000000001 0.0
9.600000000000001 0.6000000000000001 0.0
10.0 0.6000000000000001 0.0
10.4 0.6000000000000001 0.0
10.8 0.6000000000000001 0.0
11.200000000000001 0.6000000000000001 0.0
11.600000000000001 0.6000000000000001 0.0
12.0 0.6000000000000001 0.0
12.4 0.6000000000000001 0.0
12.8 0.6000000000000001 0.0
13.200000000000001 0.6000000000000001 0.0
13.600000000000001 0.6000000000000001 0.0
14.0 0.6000000000000001 0.0
14.4 0.6000000000000001 0.0
14.8 0.6000000000000001 0.0
15.200000000000001 0.6000000000000001 0.0
15.600000000000001 0.6000000000000001 0.0
16.0 0.6000000000000001 0.0
0.0 0.7000000000000001 0.0
0.4 0.7000000000000001 0.0
0.8 0.7000000000000001 0.0
1.2000000000000002 0.7000000000000001 0.0
1.6 0.7000000000000001 0.0
2.0 0.7000000000000001 0.0
2.4000000000000004 0.7000000000000001 0.0
2.8000000000000003 0.7000000000000001 0.0
3.2 0.7000000000000001 0.0
3.6 0.7000000000000001 0.0
4.0 0.7000000000000001 0.0
4.4 0.7000000000000001 0.0
4.800000000000001 0.7000000000000001 0.0
5.2 0.7000000000000001 0.0
5.6000000000000005 0.7000000000000001 0.0
6.0 0.7000000000000001 0.0
6.4 0.7000000000000001 0.0
6.800000000000001 0.7000000000000001 0.0
7.2 0.7000000000000001 0.0
7.6000000000000005 0.7000000000000001 0.0
8.0 0.7000000000000001 0.0
8.4 0.7000000000000001 0.0
8.8 0.7000000000000001 0.0
9.200000000000001 0.7000000000000001 0.0
9.600000000000001 0.7000000000000001 0.0
10.0 0.7000000000000001 0.0
10.4 0.7000000000000001 0.0
10.8 0.7000000000000001 0.0
11.200000000000001 0.7000000000000001 0.0
11.600000000000001 0.7000000000000001 0.0
12.0 0.7000000000000001 0.0
12.4 0.7000000000000001 0.0
12.8 0.7000000000000001 0.0
13.200000000000001 0.7000000000000001 0.0
13.600000000000001 0.7000000000000001 0.0
14.0 0.7000000000000001 0.0
14.4 0.7000000000000001 0.0
14.8 0.7000000000000001 0.0
15.200000000000001 0.7000000000000001 0.0
15.600000000000001 0.7000000000000001 0.0
16.0 0.7000000000000001 0.0
0.0 0.8 0.0
0.4 0.8 0.0
0.8 0.8 0.0
1.2000000000000002 0.8 0.0
1.6 0.8 0.0
2.0 0.8 0.0
2.4000000000000004 0.8 0.0
2.8000000000000003 0.8 0.0
3.2 0.8 0.0
3.6 0.8 0.0
4.0 0.8 0.0
4.4 0.8 0.0
4.800000000000001 0.8 0.0
5.2 0.8 0.0
5.6000000000000005 0.8 0.0
6.0 0.8 0.0
6.4 0.8 0.0
6.800000000000001 0.8 0.0
7.2 0.8 0.0
7.6000000000000005 0.8 0.0
8.0 0.8 0.0
8.4 0.8 0.0
8.8 0.8 0.0
9.200000000000001 0.8 0.0
9.600000000000001 0.8 0.0
10.0 0.8 0.0
10.4 0.8 0.0
10.8 0.8 0.0
11.200000000000001 0.8 0.0
11.600000000000001 0.8 0.0
12.0 0.8 0.0
12.4 0.8 0.0
12.8 0.8 0.0
13.200000000000001 0.8 0.0
13.600000000000001 0.8 0.0
14.0 0.8 0.0
14.4 0.8 0.0
14.8 0.8 0.0
15.200000000000001 0.8 0.0
15.600000000000001 0.8 0.0
16.0 0.8 0.0
0.0 0.9 0.0
0.4 0.9 0.0
0.8 0.9 0.0
1.2000000000000002 0.9 0.0
1.6 0.9 0.0
2.0 0.9 0.0
2.4000000000000004 0.9 0.0
2.8000000000000003 0.9 0.0
3.2 0.9 0.0
3.6 0.9 0.0
4.0 0.9 0.0
4.4 0.9 0.0
4.800000000000001 0.9 0.0
5.2 0.9 0.0
5.6000000000000005 0.9 0.0
6.0 0.9 0.0
6.4 0.9 0.0
6.800000000000001 0.9 0.0
7.2 0.9 0.0
7.6000000000000005 0.9 0.0
8.0 0.9 0.0
8.4 0.9 0.0
8.8 0.9 0.0
9.200000000000001 0.9 0.0
9.600000000000001 0.9 0.0
10.0 0.9 0.0
10.4 0.9 0.0
10.8 0.9 0.0
11.200000000000001 0.9 0.0
11.600000000000001 0.9 0.0
12.0 0.9 0.0
12.4 0.9 0.0
12.8 0.9 0.0
13.200000000000001 0.9 0.0
13.600000000000001 0.9 0.0
14.0 0.9 0.0
14.4 0.9 0.0
14.8 0.9 0.0
15.200000000000001 0.9 0.0
15.600000000000001 0.9 0.0
16.0 0.9 0.0
0.0 1.0 0.0
0.4 1.0 0.0
0.8 1.0 0.0
1.2000000000000002 1.0 0.0
1.6 1.0 0.0
2.0 1.0 0.0
2.4000000000000004 1.0 0.0
2.8000000000000003 1.0 0.0
3.2 1.0 0.0
3.6 1.0 0.0
4.0 1.0 0.0
4.4 1.0 0.0
4.800000000000001 1.0 0.0
5.2 1.0 0.0
5.6000000000000005 1.0 0.0
6.0 1.0 0.0
6.4 1.0 0.0
6.800000000000001 1.0 0.0
7.2 1.0 0.0
7.6000000000000005 1.0 0.0
8.0 1.0 0.0
8.4 1.0 0.0
8.8 1.0 0.0
9.200000000000001 1.0 0.0
9.600000000000001 1.0 0.0
10.0 1.0 0.0
10.4 1.0 0.0
10.8 1.0 0.0
11.200000000000001 1.0 0.0
11.600000000000001 1.0 0.0
12.0 1.0 0.0
12.4 1.0 0.0
12.8 1.0 0.0
13.200000000000001 1.0 0.0
13.600000000000001 1.0 0.0
14.0 1.0 0.0
14.4 1.0 0.0
14.8 1.0 0.0
15.200000000000001 1.0 0.0
15.600000000000001 1.0 0.0
16.0 1.0 0.0
0.0 1.1 0.0
0.4 1.1 0.0
0.8 1.1 0.0
1.2000000000000002 1.1 0.0
1.6 1.1 0.0
2.0 1.1 0.0
2.4000000000000004 1.1 0.0
2.8000000000000003 1.1 0.0
3.2 1.1 0.0
3.6 1.1 0.0
4.0 1.1 0.0
4.4 1.1 0.0
4.800000000000001 1.1 0.0
5.2 1.1 0.0
5.6000000000000005 1.1 0.0
6.0 1.1 0.0
6.4 1.1 0.0
6.800000000000001 1.1 0.0
7.2 1.1 0.0
7.6000000000000005 1.1 0.0
8.0 1.1 0.0
8.4 1.1 0.0
8.8 1.1 0.0
9.200000000000001 1.1 0.0
9.600000000000001 1.1 0.0
10.0 1.1 0.0
10.4 1.1 0.0
10.8 1.1 0.0
11.200000000000001 1.1 0.0
11.600000000000001 1.1 0.0
12.0 1.1 0.0
12.4 1.1 0.0
12.8 1.1 0.0
13.200000000000001 1.1 0.0
13.600000000000001 1.1 0.0
14.0 1.1 0.0
14.4 1.1 0.0
14.8 1.1 0.0
15.200000000000001 1.1 0.0
15.600000000000001 1.1 0.0
16.0 1.1 0.0
0.0 1.2000000000000002 0.0
0.4 1.2000000000000002 0.0
0.8 1.2000000000000002 0.0
1.2000000000000002 1.2000000000000002 0.0
1.6 1.2000000000000002 0.0
2.0 1.2000000000000002 0.0
2.4000000000000004 1.2000000000000002 0.0
2.8000000000000003 1.2000000000000002 0.0
3.2 1.2000000000000002 0.0
3.6 1.2000000000000002 0.0
4.0 1.2000000000000002 0.0
4.4 1.2000000000000002 0.0
4.800000000000001 1.2000000000000002 0.0
5.2 1.2000000000000002 0.0
5.6000000000000005 1.2000000000000002 0.0
6.0 1.2000000000000002 0.0
6.4 1.2000000000000002 0.0
6.800000000000001 1.2000000000000002 0.0
7.2 1.2000000000000002 0.0
7.6000000000000005 1.2000000000000002 0.0
8.0 1.2000000000000002 0.0
8.4 1.2000000000000002 0.0
8.8 1.2000000000000002 0.0
9.200000000000001 1.2000000000000002 0.0
9.600000000000001 1.2000000000000002 0.0
10.0 1.2000000000000002 0.0
10.4 1.2000000000000002 0.0
10.8 1.2000000000000002 0.0
11.200000000000001 1.2000000000000002 0.0
11.600000000000001 1.2000000000000002 0.0
12.0 1.2000000000000002 0.0
12.4 1.2000000000000002 0.0
12.8 1.2000000000000002 0.0
13.200000000000001 1.2000000000000002 0.0
13.600000000000001 1.2000000000000002 0.0
14.0 1.2000000000000002 0.0
14.4 1.2000000000000002 0.0
14.8 1.2000000000000002 0.0
15.200000000000001 1.2000000000000002 0.0
15.600000000000001 1.2000000000000002 0.0
16.0 1.2000000000000002 0.0
0.0 1.3 0.0
0.4 1.3 0.0
0.8 1.3 0.0
1.2000000000000002 1.3 0.0
1.6 1.3 0.0
2.0 1.3 0.0
2.4000000000000004 1.3 0.0
2.8000000000000003 1.3 0.0
3.2 1.3 0.0
3.6 1.3 0.0
4.0 1.3 0.0
4.4 1.3 0.0
4.800000000000001 1.3 0.0
5.2 1.3 0.0
5.6000000000000005 1.3 0.0
6.0 1.3 0.0
6.4 1.3 0.0
6.800000000000001 1.3 0.0
7.2 1.3 0.0
7.6000000000000005 1.3 0.0
8.0 1.3 0.0
8.4 1.3 0.0
8.8 1.3 0.0
9.200000000000001 1.3 0.0
9.600000000000001 1.3 0.0
10.0 1.3 0.0
10.4 1.3 0.0
10.8 1.3 0.0
11.200000000000001 1.3 0.0
11.600000000000001 1.3 0.0
12.0 1.3 0.0
12.4 1.3 0.0
12.8 1.3 0.0
13.200000000000001 1.3 0.0
13.600000000000001 1.3 0.0
14.0 1.3 0.0
14.4 1.3 0.0
14.8 1.3 0.0
15.200000000000001 1.3 0.0
15.600000000000001 1.3 0.0
16.0 1.3 0.0
0.0 1.4000000000000001 0.0
0.4 1.4000000000000001 0.0
0.8 1.4000000000000001 0.0
1.2000000000000002 1.4000000000000001 0.0
1.6 1.4000000000000001 0.0
2.0 1.4000000000000001 0.0
2.4000000000000004 1.4000000000000001 0.0
2.8000000000000003 1.4000000000000001 0.0
3.2 1.4000000000000001 0.0
3.6 1.4000000000000001 0.0
4.0 1.4000000000000001 0.0
4.4 1.4000000000000001 0.0
4.800000000000001 1.4000000000000001 0.0
5.2 1.4000000000000001 0.0
5.6000000000000005 1.4000000000000001 0.0
6.0 1.4000000000000001 0.0
6.4 1.4000000000000001 0.0
6.800000000000001 1.4000000000000001 0.0
7.2 1.4000000000000001 0.0
7.6000000000000005 1.4000000000000001 0.0
8.0 1.4000000000000001 0.0
8.4 1.4000000000000001 0.0
8.8 1.4000000000000001 0.0
9.200000000000001 1.4000000000000001 0.0
9.600000000000001 1.4000000000000001 0.0
10.0 1.4000000000000001 0.0
10.4 1.4000000000000001 0.0
10.8 1.4000000000000001 0.0
11.200000000000001 1.4000000000000001 0.0
11.600000000000001 1.4000000000000001 0.0
12.0 1.4000000000000001 0.0
12.4 1.4000000000000001 0.0
12.8 1.4000000000000001 0.0
13.200000000000001 1.4000000000000001 0.0
13.600000000000001 1.4000000000000001 0.0
14.0 1.4000000000000001 0.0
14.4 1.4000000000000001 0.0
14.8 1.4000000000000001 0.0
15.200000000000001 1.4000000000000001 0.0
15.600000000000001 1.4000000000000001 0.0
16.0 1.4000000000000001 0.0
0.0 1.5 0.0
0.4 1.5 0.0
0.8 1.5 0.0
1.2000000000000002 1.5 0.0
1.6 1.5 0.0
2.0 1.5 0.0
2.4000000000000004 1.5 0.0
2.8000000000000003 1.5 0.0
3.2 1.5 0.0
3.6 1.5 0.0
4.0 1.5 0.0
4.4 1.5 0.0
4.800000000000001 1.5 0.0
5.2 1.5 0.0
5.6000000000000005 1.5 0.0
6.0 1.5 0.0
6.4 1.5 0.0
6.800000000000001 1.5 0.0
7.2 1.5 0.0
7.6000000000000005 1.5 0.0
8.0 1.5 0.0
8.4 1.5 0.0
8.8 1.5 0.0
9.200000000000001 1.5 0.0
9.600000000000001 1.5 0.0
10.0 1.5 0.0
10.4 1.5 0.0
10.8 1.5 0.0
11.200000000000001 1.5 0.0
11.600000000000001 1.5 0.0
12.0 1.5 0.0
12.4 1.5 0.0
12.8 1.5 0.0
13.200000000000001 1.5 0.0
13.600000000000001 1.5 0.0
14.0 1.5 0.0
14.4 1.5 0.0
14.8 1.5 0.0
15.200000000000001 1.5 0.0
15.600000000000001 1.5 0.0
16.0 1.5 0.0
0.0 1.6 0.0
0.4 1.6 0.0
0.8 1.6 0.0
1.2000000000000002 1.6 0.0
1.6 1.6 0.0
2.0 1.6 0.0
2.4000000000000004 1.6 0.0
2.8000000000000003 1.6 0.0
3.2 1.6 0.0
3.6 1.6 0.0
4.0 1.6 0.0
4.4 1.6 0.0
4.800000000000001 1.6 0.0
5.2 1.6 0.0
5.6000000000000005 1.6 0.0
6.0 1.6 0.0
6.4 1.6 0.0
6.800000000000001 1.6 0.0
7.2 1.6 0.0
7.6000000000000005 1.6 0.0
8.0 1.6 0.0
8.4 1.6 0.0
8.8 1.6 0.0
9.200000000000001 1.6 0.0
9.600000000000001 1.6 0.0
10.0 1.6 0.0
10.4 1.6 0.0
10.8 1.6 0.0
11.200000000000001 1.6 0.0
11.600000000000001 1.6 0.0
12.0 1.6 0.0
12.4 1.6 0.0
12.8 1.6 0.0
13.200000000000001 1.6 0.0
13.600000000000001 1.6 0.0
14.0 1.6 0.0
14.4 1.6 0.0
14.8 1.6 0.0
15.200000000000001 1.6 0.0
15.600000000000001 1.6 0.0
16.0 1.6 0.0
0.0 1.7000000000000002 0.0
0.4 1.7000000000000002 0.0
0.8 1.7000000000000002 0.0
1.2000000000000002 1.7000000000000002 0.0
1.6 1.7000000000000002 0.0
2.0 1.7000000000000002 0.0
2.4000000000000004 1.7000000000000002 0.0
2.8000000000000003 1.7000000000000002 0.0
3.2 1.7000000000000002 0.0
3.6 1.7000000000000002 0.0
4.0 1.7000000000000002 0.0
4.4 1.7000000000000002 0.0
4.800000000000001 1.7000000000000002 0.0
5.2 1.7000000000000002 0.0
5.6000000000000005 1.7000000000000002 0.0
6.0 1.7000000000000002 0.0
6.4 1.7000000000000002 0.0
6.800000000000001 1.7000000000000002 0.0
7.2 1.7000000000000002 0.0
7.6000000000000005 1.7000000000000002 0.0
8.0 1.7000000000000002 0.0
8.4 1.7000000000000002 0.0
8.8 1.7000000000000002 0.0
9.200000000000001 1.7000000000000002 0.0
9.600000000000001 1.7000000000000002 0.0
10.0 1.7000000000000002 0.0
10.4 1.7000000000000002 0.0
10.8 1.7000000000000002 0.0
11.200000000000001 1.7000000000000002 0.0
11.600000000000001 1.7000000000000002 0.0
12.0 1.7000000000000002 0.0
12.4 1.7000000000000002 0.0
12.8 1.7000000000000002 0.0
13.200000000000001 1.7000000000000002 0.0
13.600000000000001 1.7000000000000002 0.0
14.0 1.7000000000000002 0.0
14.4 1.7000000000000002 0.0
14.8 1.7000000000000002 0.0
15.200000000000001 1.7000000000000002 0.0
15.600000000000001 1.7000000000000002 0.0
16.0 1.7000000000000002 0.0
0.0 1.8 0.0
0.4 1.8 0.0
0.8 1.8 0.0
1.2000000000000002 1.8 0.0
1.6 1.8 0.0
2.0 1.8 0.0
2.4000000000000004 1.8 0.0
2.8000000000000003 1.8 0.0
3.2 1.8 0.0
3.6 1.8 0.0
4.0 1.8 0.0
4.4 1.8 0.0
4.800000000000001 1.8 0.0
5.2 1.8 0.0
5.6000000000000005 1.8 0.0
6.0 1.8 0.0
6.4 1.8 0.0
6.800000000000001 1.8 0.0
7.2 1.8 0.0
7.6000000000000005 1.8 0.0
8.0 1.8 0.0
8.4 1.8 0.0
8.8 1.8 0.0
9.200000000000001 1.8 0.0
9.600000000000001 1.8 0.0
10.0 1.8 0.0
10.4 1.8 0.0
10.8 1.8 0.0
11.200000000000001 1.8 0.0
11.600000000000001 1.8 0.0
12.0 1.8 0.0
12.4 1.8 0.0
12.8 1.8 0.0
13.200000000000001 1.8 0.0
13.600000000000001 1.8 0.0
14.0 1.8 0.0
14.4 1.8 0.0
14.8 1.8 0.0
15.200000000000001 1.8 0.0
15.600000000000001 1.8 0.0
16.0 1.8 0.0
0.0 1.9000000000000001 0.0
0.4 1.9000000000000001 0.0
0.8 1.9000000000000001 0.0
1.2000000000000002 1.9000000000000001 0.0
1.6 1.9000000000000001 0.0
2.0 1.9000000000000001 0.0
2.4000000000000004 1.9000000000000001 0.0
2.8000000000000003 1.9000000000000001 0.0
3.2 1.9000000000000001 0.0
3.6 1.9000000000000001 0.0
4.0 1.9000000000000001 0.0
4.4 1.9000000000000001 0.0
4.800000000000001 1.9000000000000001 0.0
5.2 1.9000000000000001 0.0
5.6000000000000005 1.9000000000000001 0.0
6.0 1.9000000000000001 0.0
6.4 1.9000000000000001 0.0
6.800000000000001 1.9000000000000001 0.0
7.2 1.9000000000000001 0.0
7.6000000000000005 1.9000000000000001 0.0
8.0 1.9000000000000001 0.0
8.4 1.9000000000000001 0.0
8.8 1.9000000000000001 0.0
9.200000000000001 1.9000000000000001 0.0
9.600000000000001 1.9000000000000001 0.0
10.0 1.9000000000000001 0.0
10.4 1.9000000000000001 0.0
10.8 1.9000000000000001 0.0
11.200000000000001 1.9000000000000001 0.0
11.600000000000001 1.9000000000000001 0.0
12.0 1.9000000000000001 0.0
12.4 1.9000000000000001 0.0
12.8 1.9000000000000001 0.0
13.200000000000001 1.9000000000000001 0.0
13.600000000000001 1.9000000000000001 0.0
14.0 1.9000000000000001 0.0
14.4 1.9000000000000001 0.0
14.8 1.9000000000000001 0.0
15.200000000000001 1.9000000000000001 0.0
15.600000000000001 1.9000000000000001 0.0
16.0 1.9000000000000001 0.0
0.0 2.0 0.0
0.4 2.0 0.0
0.8 2.0 0.0
1.2000000000000002 2.0 0.0
1.6 2.0 0.0
2.0 2.0 0.0
2.4000000000000004 2.0 0.0
2.8000000000000003 2.0 0.0
3.2 2.0 0.0
3.6 2.0 0.0
4.0 2.0 0.0
4.4 2.0 0.0
4.800000000000001 2.0 0.0
5.2 2.0 0.0
5.6000000000000005 2.0 0.0
6.0 2.0 0.0
6.4 2.0 0.0
6.800000000000001 2.0 0.0
7.2 2.0 0.0
7.6000000000000005 2.0 0.0
8.0 2.0 0.0
8.4 2.0 0.0
8.8 2.0 0.0
9.200000000000001 2.0 0.0
9.600000000000001 2.0 0.0
10.0 2.0 0.0
10.4 2.0 0.0
10.8 2.0 0.0
11.200000000000001 2.0 0.0
11.600000000000001 2.0 0.0
12.0 2.0 0.0
12.4 2.0 0.0
12.8 2.0 0.0
13.200000000000001 2.0 0.0
13.600000000000001 2.0 0.0
14.0 2.0 0.0
14.4 2.0 0.0
14.8 2.0 0.0
15.200000000000001 2.0 0.0
15.600000000000001 2.0 0.0
16.0 2.0 0.0
CELLS 800 4000
4 0 1 42 41
4 1 2 43 42
4 2 3 44 43
4 3 4 45 44
4 4 5 46 45
4 5 6 47 46
4 6 7 48 47
4 7 8 49 48
4 8 9 50 49
4 9 10 51 50
4 10 11 52 51
4 11 12 53 52
4 12 13 54 53
4 13 14 55 54
4 14 15 56 55
4 15 16 57 56
4 16 17 58 57
4 17 18 59 58
4 18 19 60 59
4 19 20 61 60
4 20 21 62 61
4 21 22 63 62
4 22 23 64 63
4 23 24 65 64
4 24 25 66 65
4 25 26 67 66
4 26 27 68 67
4 27 28 69 68
4 28 29 70 69
4 29 30 71 70
4 30 31 72 71
4 31 32 73 72
4 32 33 74 73
4 33 34 75 74
4 34 35 76 75
4 35 36 77 76
4 36 37 78 77
4 37 38 79 78
4 38 39 80 79
4 39 40 81 80
4 41 42 83 82
4 42 43 84 83
4 43 44 85 84
4 44 45 86 85
4 45 46 87 86
4 46 47 88 87
4 47 48 89 88
4 48 49 90 89
4 49 50 91 90
4 50 51 92 91
4 51 52 93 92
4 52 53 94 93
4 53 54 95 94
4 54 55 96 95
4 55 56 97 96
4 56 57 98 97
4 57 58 99 98
4 58 59 100 99
4 59 60 101 100
4 60 61 102 101
4 61 62 103 102
4 62 63 104 103
4 63 64 105 104
4 64 65 106 105
4 65 66 107 106
4 66 67 108 107
4 67 68 109 108
4 68 69 110 109
4 69 70 111 110
4 70 71 112 111
4 71 72 113 112
4 72 73 114 113
4 73 74 115 114
4 74 75 116 115
4 75 76 117 116
4 76 77 118 117
4 77 78 119 118
4 78 79 120 119
4 79 80 121 120
4 80 81 122 121
4 82 83 124 123
4 83 84 125 124
4 84 85 126 125
4 85 86 127 126
4 86 87 128 127
4 87 88 129 128
4 88 89 130 129
4 89 90 131 130
4 90 91 132 131
4 91 92 133 132
4 92 93 134 133
4 93 94 135 134
4 94 95 136 135
4 95 96 137 136
4 96 97 138 137
4 97 98 139 138
4 98 99 140 139
4 99 100 141 140
4 100 101 142 141
4 101 102 143 142
4 102 103 144 143
4 103 104 145 144
4 104 105 146 145
4 105 106 147 146
4 106 107 148 147
4 107 108 149 148
4 108 109 150 149
4 109 110 151 150
4 110 111 152 151
4 111 112 153 152
4 112 113 154 153
4 113 114 155 154
4 114 115 156 155
4 115 116 157 156
4 116 117 158 157
4 117 118 159 158
4 118 119 160 159
4 119 120 161 160
4 120 121 162 161
4 121 122 163 162
4 123 124 165 164
4 124 125 166 165
4 125 126 167 166
4 126 127 168 167
4 127 128 169 168
4 128 129 170 169
4 129 130 171 170
4 130 131 172 171
4 131 132 173 172
4 132 133 174 173
4 133 134 175 174
4 134 135 176 175
4 135 136 177 176
4 136 137 178 177
4 137 138 179 178
4 138 139 180 179
4 139 140 181 180
4 140 141 182 181
4 141 142 183 182
4 142 143 184 183
4 143 144 185 184
4 144 145 186 185
4 145 146 187 186
4 146 147 188 187
4 147 148 189 188
4 148 149 190 189
4 149 150 191 190
4 150 151 192 191
4 151 152 193 192
4 152 153 194 193
4 153 154 195 194
4 154 155 196 195
4 155 156 197 196
4 156 157 198 197
4 157 158 199 198
4 158 159 200 199
4 159 160 201 200
4 160 161 202 201
4 161 162 203 202
4 162 163 204 203
4 164 165 206 205
4 165 166 207 206
4 166 167 208 207
4 167 168 209 208
4 168 169 210 209
4 169 170 211 210
4 170 171 212 211
4 171 172 213 212
4 172 173 214 213
4 173 174 215 214
4 174 175 216 215
4 175 176 217 216
4 176 177 218 217
4 177 178 219 218
4 178 179 220 219
4 179 180 221 220
4 180 181 222 221
4 181 182 223 222
4 182 183 224 223
4 183 184 225 224
4 184 185 226 225
4 185 186 227 226
4 186 187 228 227
4 187 188 229 228
4 188 189 230 229
4 189 190 231 230
4 190 191 232 231
4 191 192 233 232
4 192 193 234 233
4 193 194 235 234
4 194 195 236 235
4 195 196 237 236
4 196 197 238 237
4 197 198 239 238
4 198 199 240 239
4 199 200 241 240
4 200 201 242 241
4 201 202 243 242
4 202 203 244 243
4 203 204 245 244
4 205 206 247 246
4 206 207 248 247
4 207 208 249 248
4 208 209 250 249
4 209 210 251 250
4 210 211 252 251
4 211 212 253 252
4 212 213 254 253
4 213 214 255 254
4 214 215 256 255
4 215 216 257 256
4 216 217 258 257
4 217 218 259 258
4 218 219 260 259
4 219 220 261 260
4 220 221 262 261
4 221 222 263 262
4 222 223 264 263
4 223 224 265 264
4 224 225 266 265
4 225 226 267 266
4 226 227 268 267
4 227 228 269 268
4 228 229 270 269
4 229 230 271 270
4 230 231 272 271
4 231 232 273 272
4 232 233 274 273
4 233 234 275 274
4 234 235 276 275
4 235 236 277 276
4 236 237 278 277
4 237 238 279 278
4 238 239 280 279
4 239 240 281 280
4 240 241 282 281
4 241 242 283 282
4 242 243 284 283
4 243 244 285 284
4 244 245 286 285
4 246 247 288 287
4 247 248 289 288
4 248 249 290 289
4 249 250 291 290
4 250 251 292 291
4 251 252 293 292
4 252 253 294 293
4 253 254 295 294
4 254 255 296 295
4 255 256 297 296
4 256 257 298 297
4 257 258 299 298
4 258 259 300 299
4 259 260 301 300
4 260 261 302 301
4 261 262 303 302
4 262 263 304 303
4 263 264 305 304
4 264 265 306 305
4 265 266 307 306
4 266 267 308 307
4 267 268 309 308
4 268 269 310 309
4 269 270 311 310
4 270 271 312 311
4 271 272 313 312
4 272 273 314 313
4 273 274 315 314
4 274 275 316 315
4 275 276 317 316
4 276 277 318 317
4 277 278 319 318
4 278 279 320 319
4 279 280 321 320
4 280 281 322 321
4 281 282 323 322
4 282 283 324 323
4 283 284 325 324
4 284 285 326 325
4 285 286 327 326
4 287 288 329 328
4 288 289 330 329
4 289 290 331 330
4 290 291 332 331
4 291 292 333 332
4 292 293 334 333
4 293 294 335 334
4 294 295 336 335
4 295 296 337 336
4 296 297 338 337
4 297 298 339 338
4 298 299 340 339
4 299 300 341 340
4 300 301 342 341
4 301 302 343 342
4 302 303 344 343
4 303 304 345 344
4 304 305 346 345
4 305 306 347 346
4 306 307 348 347
4 307 308 349 348
4 308 309 350 349
4 309 310 351 350
4 310 311 352 351
4 311 312 353 352
4 312 313 354 353
4 313 314 355 354
4 314 315 356 355
4 315 316 357 356
4 316 317 358 357
4 317 318 359 358
4 318 319 360 359
4 319 320 361 360
4 320 321 362 361
4 321 322 363 362
4 322 323 364 363
4 323 324 365 364
4 324 325 366 365
4 325 326 367 366
4 326 327 368 367
4 328 329 370 369
4 329 330 371 370
4 330 331 372 371
4 331 332 373 372
4 332 333 374 373
4 333 334 375 374
4 334 335 376 375
4 335 336 377 376
4 336 337 378 377
4 337 338 379 378
4 338 339 380 379
4 339 340 381 380
4 340 341 382 381
4 341 342 383 382
4 342 343 384 383
4 343 344 385 384
4 344 345 386 385
4 345 346 387 386
4 346 347 388 387
4 347 348 389 388
4 348 349 390 389
4 349 350 391 390
4 350 351 392 391
4 351 352 393 392
4 352 353 394 393
4 353 354 395 394
4 354 355 396 395
4 355 356 397 396
4 356 357 398 397
4 357 358 399 398
4 358 359 400 399
4 359 360 401 400
4 360 361 402 401
4 361 362 403 402
4 362 363 404 403
4 363 364 405 404
4 364 365 406 405
4 365 366 407 406
4 366 367 408 407
4 367 368 409 408
4 369 370 411 410
4 370 371 412 411
4 371 372 413 412
4 372 373 414 413
4 373 374 415 414
4 374 375 416 415
4 375 376 417 416
4 376 377 418 417
4 377 378 419 418
4 378 379 420 419
4 379 380 421 420
4 380 381 422 421
4 381 382 423 422
4 382 383 424 423
4 383 384 425 424
4 384 385 426 425
4 385 386 427 426
4 386 387 428 427
4 387 388 429 428
4 388 389 430 429
4 389 390 431 430
4 390 391 432 431
4 391 392 433 432
4 392 393 434 433
4 393 394 435 434
4 394 395 436 435
4 395 396 437 436
4 396 397 438 437
4 397 398 439 438
4 398 399 440 439
4 399 400 441 440
4 400 401 442 441
4 401 402 443 442
4 402 403 444 443
4 403 404 445 444
4 404 405 446 445
4 405 406 447 446
4 406 407 448 447
4 407 408 449 448
4 408 409 450 449
4 410 411 452 451
4 411 412 453 452
4 412 413 454 453
4 413 414 455 454
4 414 415 456 455
4 415 416 457 456
4 416 417 458 457
4 417 418 459 458
4 418 419 460 459
4 419 420 461 460
4 420 421 462 461
4 421 422 463 462
4 422 423 464 463
4 423 424 465 464
4 424 425 466 465
4 425 426 467 466
4 426 427 468 467
4 427 428 469 468
4 428 429 470 469
4 429 430 471 470
4 430 431 472 471
4 431 432 473 472
4 432 433 474 473
4 433 434 475 474
4 434 435 476 475
4 435 436 477 476
4 436 437 478 477
4 437 438 479 478
4 438 439 480 479
4 439 440 481 480
4 440 441 482 481
4 441 442 483 482
4 442 443 484 483
4 443 444 485 484
4 444 445 486 485
4 445 446 487 486
4 446 447 488 487
4 447 448 489 488
4 448 449 490 489
4 449 450 491 490
4 451 452 493 492
4 452 453 494 493
4 453 454 495 494
4 454 455 496 495
4 455 456 497 496
4 456 457 498 497
4 457 458 499 498
4 458 459 500 499
4 459 460 501 500
4 460 461 502 501
4 461 462 503 502
4 462 463 504 503
4 463 464 505 504
4 464 465 506 505
4 465 466 507 506
4 466 467 508 507
4 467 468 509 508
4 468 469 510 509
4 469 470 511 510
4 470 471 512 511
4 471 472 513 512
4 472 473 514 513
4 473 474 515 514
4 474 475 516 515
4 475 476 517 516
4 476 477 518 517
4 477 478 519 518
4 478 479 520 519
4 479 480 521 520
4 480 481 522 521
4 481 482 523 522
4 482 483 524 523
4 483 484 525 524
4 484 485 526 525
4 485 486 527 526
4 486 487 528 527
4 487 488 529 528
4 488 489 530 529
4 489 490 531 530
4 490 491 532 531
4 492 493 534 533
4 493 494 535 534
4 494 495 536 535
4 495 496 537 536
4 496 497 538 537
4 497 498 539 538
4 498 499 540 539
4 499 500 541 540
4 500 501 542 541
4 501 502 543 542
4 502 503 544 543
4 503 504 545 544
4 504 505 546 545
4 505 506 547 546
4 506 507 548 547
4 507 508 549 548
4 508 509 550 549
4 509 510 551 550
4 510 511 552 551
4 511 512 553 552
4 512 513 554 553
4 513 514 555 554
4 514 515 556 555
4 515 516 557 556
4 516 517 558 557
4 517 518 559 558
4 518 519 560 559
4 519 520 561 560
4 520 521 562 561
4 521 522 563 562
4 522 523 564 563
4 523 524 565 564
4 524 525 566 565
4 525 526 567 566
4 526 527 568 567
4 527 528 569 568
4 528 529 570 569
4 529 530 571 570
4 530 531 572 571
4 531 532 573 572
4 533 534 575 574
4 534 535 576 575
4 535 536 577 576
4 536 537 578 577
4 537 538 579 578
4 538 539 580 579
4 539 540 581 580
4 540 541 582 581
4 541 542 583 582
4 542 543 584 583
4 543 544 585 584
4 544 545 586 585
4 545 546 587 586
4 546 547 588 587
4 547 548 589 588
4 548 549 590 589
4 549 550 591 590
4 550 551 592 591
4 551 552 593 592
4 552 553 594 593
4 553 554 595 594
4 554 555 596 595
4 555 556 597 596
4 556 557 598 597
4 557 558 599 598
4 558 559 600 599
4 559 560 601 600
4 560 561 602 601
4 561 562 603 602
4 562 563 604 603
4 563 564 605 604
4 564 565 606 605
4 565 566 607 606
4 566 567 608 607
4 567 568 609 608
4 568 569 610 609
4 569 570 611 610
4 570 571 612 611
4 571 572 613 612
4 572 573 614 613
4 574 575 616 615
4 575 576 617 616
4 576 577 618 617
4 577 578 619 618
4 578 579 620 619
4 579 580 621 620
4 580 581 622 621
4 581 582 623 622
4 582 583 624 623
4 583 584 625 624
4 584 585 626 625
4 585 586 627 626
4 586 587 628 627
4 587 588 629 628
4 588 589 630 629
4 589 590 631 630
4 590 591 632 631
4 591 592 633 632
4 592 593 634 633
4 593 594 635 634
4 594 595 636 635
4 595 596 637 636
4 596 597 638 637
4 597 598 639 638
4 598 599 640 639
4 599 600 641 640
4 600 601 642 641
4 601 602 643 642
4 602 603 644 643
4 603 604 645 644
4 604 605 646 645
4 605 606 647 646
4 606 607 648 647
4 607 608 649 648
4 608 609 650 649
4 609 610 651 650
4 610 611 652 651
4 611 612 653 652
4 612 613 654 653
4 613 614 655 654
4 615 616 657 656
4 616 617 658 657
4 617 618 659 658
4 618 619 660 659
4 619 620 661 660
4 620 621 662 661
4 621 622 663 662
4 622 623 664 663
4 623 624 665 664
4 624 625 666 665
4 625 626 667 666
4 626 627 668 667
4 627 628 669 668
4 628 629 670 669
4 629 630 671 670
4 630 631 672 671
4 631 632 673 672
4 632 633 674 673
4 633 634 675 674
4 634 635 676 675
4 635 636 677 676
4 636 637 678 677
4 637 638 679 678
4 638 639 680 679
4 639 640 681 680
4 640 641 682 681
4 641 642 683 682
4 642 643 684 683
4 643 644 685 684
4 644 645 686 685
4 645 646 687 686
4 646 647 688 687
4 647 648 689 688
4 648 649 690 689
4 649 650 691 690
4 650 651 692 691
4 651 652 693 692
4 652 653 694 693
4 653 654 695 694
4 654 655 696 695
4 656 657 698 697
4 657 658 699 698
4 658 659 700 699
4 659 660 701 700
4 660 661 702 701
4 661 662 703 702
4 662 663 704 703
4 663 664 705 704
4 664 665 706 705
4 665 666 707 706
4 666 667 708 707
4 667 668 709 708
4 668 669 710 709
4 669 670 711 710
4 670 671 712 711
4 671 672 713 712
4 672 673 714 713
4 673 674 715 714
4 674 675 716 715
4 675 676 717 716
4 676 677 718 717
4 677 678 719 718
4 678 679 720 719
4 679 680 721 720
4 680 681 722 721
4 681 682 723 722
4 682 683 724 723
4 683 684 725 724
4 684 685 726 725
4 685 686 727 726
4 686 687 728 727
4 687 688 729 728
4 688 689 730 729
4 689 690 731 730
4 690 691 732 731
4 691 692 733 732
4 692 693 734 733
4 693 694 735 734
4 694 695 736 735
4 695 696 737 736
4 697 698 739 738
4 698 699 740 739
4 699 700 741 740
4 700 701 742 741
4 701 702 743 742
4 702 703 744 743
4 703 704 745 744
4 704 705 746 745
4 705 706 747 746
4 706 707 748 747
4 707 708 749 748
4 708 709 750 749
4 709 710 751 750
4 710 711 752 751
4 711 712 753 752
4 712 713 754 753
4 713 714 755 754
4 714 715 756 755
4 715 716 757 756
4 716 717 758 757
4 717 718 759 758
4 718 719 760 759
4 719 720 761 760
4 720 721 762 761
4 721 722 763 762
4 722 723 764 763
4 723 724 765 764
4 724 725 766 765
4 725 726 767 766
4 726 727 768 767
4 727 728 769 768
4 728 729 770 769
4 729 730 771 770
4 730 731 772 771
4 731 732 773 772
4 732 733 774 773
4 733 734 775 774
4 734 735 776 775
4 735 736 777 776
4 736 737 778 777
4 738 739 780 779
4 739 740 781 780
4 740 741 782 781
4 741 742 783 782
4 742 743 784 783
4 743 744 785 784
4 744 745 786 785
4 745 746 787 786
4 746 747 788 787
4 747 748 789 788
4 748 749 790 789
4 749 750 791 790
4 750 751 792 791
4 751 752 793 792
4 752 753 794 793
4 753 754 795 794
4 754 755 796 795
4 755 756 797 796
4 756 757 798 797
4 757 758 799 798
4 758 759 800 799
4 759 760 801 800
4 760 761 802 801
4 761 762 803 802
4 762 763 804 803
4 763 764 805 804
4 764 765 806 805
4 765 766 807 806
4 766 767 808 807
4 767 768 809 808
4 768 769 810 809
4 769 770 811 810
4 770 771 812 811
4 771 772 813 812
4 772 773 814 813
4 773 774 815 814
4 774 775 816 815
4 775 776 817 816
4 776 777 818 817
4 777 778 819 818
4 779 780 821 820
4 780 781 822 821
4 781 782 823 822
4 782 783 824 823
4 783 784 825 824
4 784 785 826 825
4 785 786 827 826
4 786 787 828 827
4 787 788 829 828
4 788 789 830 829
4 789 790 831 830
4 790 791 832 831
4 791 792 833 832
4 792 793 834 833
4 793 794 835 834
4 794 795 836 835
4 795 796 837 836
4 796 797 838 837
4 797 798 839 838
4 798 799 840 839
4 799 800 841 840
4 800 801 842 841
4 801 802 843 842
4 802 803 844 843
4 803 804 845 844
4 804 805 846 845
4 805 806 847 846
4 806 807 848 847
4 807 808 849 848
4 808 809 850 849
4 809 810 851 850
4 810 811 852 851
4 811 812 853 852
4 812 813 854 853
4 813 814 855 854
4 814 815 856 855
4 815 816 857 856
4 816 817 858 857
4 817 818 859 858
4 818 819 860 859
CELL_TYPES 800
9
9
9
9
9
9
9
9
9
9
9
9
9
9
9
9
9
9
9
9
9
9
9
9
9
9
9
9
9
9
9
9
9
9
9
9
9
9
9
9
9
9
9
9
9
9
9
9
9
9
9
9
9
9
9
9
9
9
9
9
9
9
9
9
9
9
9
9
9
9
9
9
9
9
9
9
9
9
9
9
9
9
9
9
9
9
9
9
9
9
9
9
9
9
9
9
9
9
9
9
9
9
9
9
9
9
9
9
9
9
9
9
9
9
9
9
9
9
9
9
9
9
9
9
9
9
9
9
9
9
9
9
9
9
9
9
9
9
9
9
9
9
9
9
9
9
9
9
9
9
9
9
9
9
9
9
9
9
9
9
9
9
9
9
9
9
9
9
9
9
9
9
9
9
9
9
9
9
9
9
9
9
9
9
9
9
9
9
9
9
9
9
9
9
9
9
9
9
9
9
9
9
9
9
9
9
9
9
9
9
9
9
9
9
9
9
9
9
9
9
9
9
9
9
9
9
9
9
9
9
9
9
9
9
9
9
9
9
9
9
9
9
9
9
9
9
9
9
9
9
9
9
9
9
9
9
9
9
9
9
9
9
9
9
9
9
9
9
9
9
9
9
9
9
9
9
9
9
9
9
9
9
9
9
9
9
9
9
9
9
9
9
9
9
9
9
9
9
9
9
9
9
9
9
9
9
9
9
9
9
9
9
9
9
9
9
9
9
9
9
9
9
9
9
9
9
9
9
9
9
9
9
9
9
9
9
9
9
9
9
9
9
9
9
9
9
9
9
9
9
9
9
9
9
9
9
9
9
9
9
9
9
9
9
9
9
9
9
9
9
9
9
9
9
9
9
9
9
9
9
9
9
9
9
9
9
9
9
9
9
9
9
9
9
9
9
9
9
9
9
9
9
9
9
9
9
9
9
9
9
9
9
9
9
9
9
9
9
9
9
9
9
9
9
9
9
9
9
9
9
9
9
9
9
9
9
9
9
9
9
9
9
9
9
9
9
9
9
9
9
9
9
9
9
9
9
9
9
9
9
9
9
9
9
9
9
9
9
9
9
9
9
9
9
9
9
9
9
9
9
9
9
9
9
9
9
9
9
9
9
9
9
9
9
9
9
9
9
9
9
9
9
9
9
9
9
9
9
9
9
9
9
9
9
9
9
9
9
9
9
9
9
9
9
9
9
9
9
9
9
9
9
9
9
9
9
9
9
9
9
9
9
9
9
9
9
9
9
9
9
9
9
9
9
9
9
9
9
9
9
9
9
9
9
9
9
9
9
9
9
9
9
9
9
9
9
9
9
9
9
9
9
9
9
9
9
9
9
9
9
9
9
9
9
9
9
9
9
9
9
9
9
9
9
9
9
9
9
9
9
9
9
9
9
9
9
9
9
9
9
9
9
9
9
9
9
9
9
9
9
9
9
9
9
9
9
9
9
9
9
9
9
9
9
9
9
9
9
9
9
9
9
9
9
9
9
9
9
9
9
9
9
9
9
9
9
9
9
9
9
9
9
9
9
9
9
9
9
9
9
9
9
9
9
9
9
9
9
9
9
9
9
9
9
9
9
9
9
9
9
9
9
9
9
9
9
9
9
9
9
9
9
9
9
9
9
9
9
9
9
9
9
9
9
9
9
9
9
9
9
9
9
9
9
9
9
9
9
9
9
9
9
9
9
9
9
9
9
9
9
9
9
9
9
9
9
9
9
9
9
9
9
9
9
9
9
9
9
9
9
9
9
9
9
9
9
9
9
9
9
9
9
9
9
9
9
9
9
9
9
9
9
9
9
9
9
9
9
9
9
POINT_DATA 861
SCALARS Disp float 2
LOOKUP_TABLE default
0.0 0.0
0.00514772626666048 -0.19036220095450573
0.006320233933347106 -0.3724387500630464
0.007073312879616693 -0.5536365141601787
0.008008035539138245 -0.7345120236036562
0.009417191373851832 -0.9147471049962003
0.011763098677534185 -1.0939289770430005
0.015581454596859003 -1.2715479087363413
0.02149343482242244 -1.4469722932993354
0.030172021396269007 -1.619390139861001
0.04229809222839004 -1.7877126860715575
0.05854438430819622 -1.9505034338205522
0.07957155062837191 -2.105978460375596
0.10602041877743301 -2.2520802120036945
0.13851233368617402 -2.3865405507106305
0.17758292199423795 -2.5069279556888966
0.22355645080234088 -2.61070132671808
0.27638707350220315 -2.6952998428101855
0.3355148433261671 -2.7583135149688665
0.39979468606026136 -2.7977203574932514
0.46737333539844733 -2.8121269638565045
0.5349519847366296 -2.797720357493167
0.5992318274707118 -2.7583135149686933
0.658359597294654 -2.695299842809936
0.7111902199944885 -2.610701326717766
0.7571637488025614 -2.5069279556885395
0.7962343371105952 -2.3865405507102375
0.8287262520193059 -2.252080212003279
0.8551751201683366 -2.1059784603751703
0.8762022864884833 -1.9505034338201288
0.8924485785682628 -1.787712686071148
0.904574649400362 -1.6193901398606154
0.9132532359741917 -1.4469722932989786
0.9191652161997426 -1.2715479087360186
0.9229835721190585 -1.0939289770427152
0.9253294794227355 -0.9147471049959578
0.9267386352574467 -0.7345120236034569
0.9276733579169676 -0.5536365141600255
0.9284264368632368 -0.37243875006293803
0.9295989445299222 -0.19036220095444464
0.9347466707965794 0.0
0.0474889735534205 -0.002183504767144472
0.05103240150132425 -0.19056533845366272
0.05165811419496848 -0.37249980542237054
0.05233031476105705 -0.553721016632247
0.053158452844220196 -0.7346343702097607
0.05436761453754046 -0.9149982552608656
0.05639433112198542 -1.0944310609639505
0.0597460211424847 -1.2724437701945979
0.06500667571389424 -1.4484206314604784
0.07279049846682877 -1.621551598505122
0.08370417226424219 -1.7907445173859846
0.09833320912792848 -1.9545600036347268
0.11725577626209806 -2.11121318870195
0.1410569498117578 -2.2586451513171255
0.17030672618262926 -2.3945796971536057
0.20550609859022462 -2.51655367178761
0.24696936778362433 -2.6219585152694753
0.29468133935784935 -2.708128248654668
0.34816697827339144 -2.772517747227093
0.4063648269685149 -2.812949997622738
0.46737333539843695 -2.8277735729141726
0.5283818438283553 -2.8129499976226513
0.5865796925234675 -2.7725177472269165
0.6400653314389905 -2.7081282486544125
0.6877773030131915 -2.621958515269155
0.7292405722065647 -2.5165536717872454
0.7644399446141327 -2.3945796971532065
0.7936897209849769 -2.2586451513167023
0.8174908945346092 -2.111213188701517
0.8364134616687529 -1.9545600036342972
0.8510424985324152 -1.7907445173855696
0.8619561723298087 -1.621551598504732
0.8697399950827279 -1.4484206314601182
0.8750006496541258 -1.2724437701942728
0.8783523396746172 -1.0944310609636638
0.8803790562590577 -0.9149982552606225
0.881588217952376 -0.7346343702095613
0.8824163560355386 -0.5537210166320937
0.883088556601627 -0.3724998054222622
0.883714269295271 -0.19056533845360132
0.8872576972431697 -0.0021835047671420523
0.09408155380289408 -0.00390285382204002
0.09665455019941017 -0.19066387149604885
0.09701646880129648 -0.37253529321924095
0.09756606080312626 -0.5537960395205533
0.09829556439799536 -0.7347344079283994
0.09932534912908737 -0.9151973817753553
0.10103802172493472 -1.0948457327639964
0.1039245874066338 -1.2732092035081048
0.10852320754593649 -1.449684657612637
0.11539233782063853 -1.6234595517087895
0.12506761100132535 -1.7934345975465587
0.13805575977847062 -1.9581655930304844
0.15485526752667308 -2.115869368669385
0.17598092596522125 -2.264490760172381
0.2019556171180308 -2.4017474348040504
0.2332425827332471 -2.5251497417270325
0.27015268700990275 -2.6320311607142
0.31271806961444565 -2.7196329231593164
0.36055089293281706 -2.785284243115009
0.41266489107969145 -2.8266332062342476
0.46737333539842696 -2.841838636806524
0.5220817797171589 -2.8266332062341593
0.5741957778640231 -2.7852842431148286
0.6220286011823773 -2.7196329231590557
0.6645939837868997 -2.6320311607138747
0.7015040880635317 -2.525149741726662
0.7327910536787238 -2.4017474348036445
0.7587657448315089 -2.264490760171952
0.7798914032700329 -2.1158693686689456
0.7966909110182123 -1.958165593030049
0.809679059795336 -1.7934345975461392
0.8193543329760055 -1.6234595517083954
0.8262234632506936 -1.4496846576122737
0.8308220833899858 -1.2732092035077776
0.8337086490716779 -1.0948457327637082
0.8354213216675214 -0.9151973817751116
0.836451106398612 -0.7347344079281999
0.8371806099934808 -0.5537960395204001
0.8377302019953103 -0.3725352932191326
0.8380921205971968 -0.19066387149598713
0.8406651169937078 -0.003902853822035013
0.1402048037165577 -0.005279020784015271
0.1421320069573055 -0.19073047884207323
0.14235376467898475 -0.37255525053306293
0.1427841457905321 -0.5538578172560296
0.14341382690741178 -0.7348187484567631
0.144286696435665 -0.9153512114666275
0.1457029476804006 -1.095175705123469
0.14812803104372088 -1.2738454913168826
0.15206077519270794 -1.4507624842483666
0.15800307740466984 -1.6251103081798048
0.16642359809263613 -1.7957785305391263
0.1777538380904948 -1.9613170538623876
0.19241700986955343 -2.1199444138427856
0.21085607701025105 -2.2696121529377864
0.23353182703775852 -2.408036914107105
0.2608765606915089 -2.532707941975084
0.2932007786426341 -2.640911386746892
0.33058453681131394 -2.7298087511616314
0.372732795306387 -2.7966087595293914
0.4188098659838143 -2.8388000947108156
0.4673733353984173 -2.854389763234079
0.5159368048130167 -2.8388000947107255
0.5620138754904349 -2.7966087595292075
0.604162133985493 -2.7298087511613662
0.6415458921541547 -2.6409113867465615
0.6738701101052593 -2.532707941974708
0.7012148437589885 -2.408036914106694
0.7238905937864745 -2.2696121529373516
0.7423296609271509 -2.1199444138423407
0.7569928327061893 -1.9613170538619467
0.7683230727040294 -1.7957785305387022
0.7767435933919804 -1.6251103081794074
0.7826858956039298 -1.4507624842480007
0.7866186397529077 -1.2738454913165536
0.789043723116222 -1.0951757051231799
0.7904599743609546 -0.9153512114663834
0.7913328438892069 -0.7348187484565634
0.7919625250060861 -0.5538578172558761
0.7923929061176336 -0.3725552505329547
0.7926146638393129 -0.19073047884201116
0.7945418670800563 -0.005279020784007921
0.18605826029636044 -0.006386477104792533
0.18750816704560874 -0.19078371199142086
0.18765312424035266 -0.37256670862207597
0.18798205108730998 -0.5539058754914372
0.1885105193903665 -0.7348898071711879
0.1892431098352671 -0.9154701697630718
0.19039492712182568 -1.0954275971339165
0.19236695302631873 -1.2743549580363887
0.19563734089879026 -1.4516547283382717
0.20064873431688857 -1.626502440407055
0.20780629065348008 -1.7977745776605432
0.21747118589479045 -1.9640127268813425
0.22999101096689956 -2.1234373902698986
0.24573694211432584 -2.274008388203245
0.2651106897813445 -2.41344485089535
0.28849815646814003 -2.539222940449177
0.31620851309606535 -2.648592166712667
0.3483719325561748 -2.7386469288381594
0.38480494232921325 -2.806490556367652
0.42486603825156916 -2.8494725755214345
0.4673733353984079 -2.8654651758472682
0.5098806325452432 -2.849472575521343
0.5499417284675906 -2.806490556367466
0.586374738240616 -2.7386469288378903
0.6185381577007097 -2.6485921667123318
0.6462485143286174 -2.5392229404487963
0.6696359810153947 -2.413444850894934
0.6890097286823949 -2.2740083882028053
0.704755659829803 -2.123437390269449
0.7172754849018949 -1.9640127268808976
0.7269403801431896 -1.7977745776601155
0.7340979364797676 -1.6265024404066546
0.7391093298978553 -1.451654728337903
0.742379717770319 -1.274354958036058
0.7443517436748072 -1.0954275971336265
0.7455035609613635 -0.9154701697628276
0.7462361514062634 -0.7348898071709881
0.7467646197093196 -0.5539058754912839
0.747093546556277 -0.3725667086219678
0.7472385037510209 -0.19078371199135852
0.7486884105002656 -0.006386477104783161
0.23173287606828918 -0.007272320893828352
0.23281298486786772 -0.19082966334458423
0.23291275262033118 -0.3725744792748534
0.23315721055987493 -0.5539412662650252
0.2335838516732072 -0.7349489285890527
0.23418857745589133 -0.915562427629727
0.2351056374508869 -1.0956132058314656
0.23665874502220077 -1.2747420438675654
0.2392712504721299 -1.4523639515911047
0.2433558034908709 -1.627637149955702
0.24925070254548493 -1.799423032695073
0.25724982648849026 -1.9662534425005413
0.26762920177953065 -2.126349545403669
0.28068723960169706 -2.277680698727026
0.2967593344567007 -2.4179725258044362
0.3161927461917905 -2.5446935374121673
0.33927854303904237 -2.655067548713464
0.3661839182727732 -2.7461383176140908
0.3968588166999786 -2.8149256317661098
0.43088928062022397 -2.858660598177606
0.4673733353983983 -2.875087149241844
0.5038573901765695 -2.858660598177513
0.5378878540968072 -2.814925631765921
0.5685627525240018 -2.746138317613818
0.5954681277577193 -2.655067548713125
0.6185539246049562 -2.5446935374117823
0.6379873363400304 -2.4179725258040166
0.654059431195019 -2.2776806987265825
0.6671174690171703 -2.1263495454032153
0.6774968443081963 -1.9662534425000928
0.6854959682511886 -1.7994230326946419
0.6913908673057914 -1.6276371499552988
0.6954754203245235 -1.4523639515907343
0.6980879257744462 -1.2747420438672332
0.6996410333457563 -1.0956132058311752
0.7005580933407503 -0.9155624276294825
0.7011628191234339 -0.734948928588853
0.701589460236766 -0.5539412662648718
0.7018339181763098 -0.37257447927474513
0.7019336859287733 -0.19082966334452167
0.7030137947283487 -0.007272320893817274
0.2772772878104874 -0.007972743232626608
0.27806738529565106 -0.19087036843951571
0.27813711857551887 -0.3725810181996727
0.27830918540049016 -0.5539654183528862
0.2786348523825783 -0.7349961989777909
0.2791176128326571 -0.9156339549276628
0.279825212381923 -1.0957459982887772
0.2809989293186349 -1.27501972681512
0.28298607875343884 -1.4528950453882936
0.2861519277755704 -1.6285180377242623
0.29079324038140103 -1.8007269435483755
0.2971346000307689 -1.96804225956238
0.30538360139513204 -2.128684796083204
0.3157677584899006 -2.28063367398077
0.32855667935786914 -2.421623658341599
0.3440448648727684 -2.5491224973242854
0.3625066590805716 -2.6603358670383406
0.38413423557007553 -2.7522742731459586
0.40899657966658715 -2.8219038368201157
0.4369369646720915 -2.8663615620824636
0.46737333539838843 -2.8832644365437603
0.49780970612468284 -2.866361562082369
0.5257500911301807 -2.8219038368199247
0.5506124352266833 -2.7522742731456833
0.5722400117161766 -2.6603358670379986
0.5907018059239674 -2.549122497323897
0.6061899914388538 -2.4216236583411757
0.6189789123068107 -2.280633673980323
0.6293630694015673 -2.1286847960827475
0.637612070765919 -1.9680422595619287
0.6439534304152763 -1.800726943547942
0.648594743021098 -1.6285180377238568
0.6517605920432225 -1.452895045387922
0.6537477414780215 -1.275019726814787
0.6549214584147307 -1.0957459982884863
0.6556290579639955 -0.9156339549274181
0.6561118184140742 -0.7349961989775912
0.6564374853961621 -0.5539654183527328
0.6566095522211333 -0.37258101819956446
0.6566792855010011 -0.19087036843945301
0.6574693829861624 -0.007972743232614115
0.3227244911256639 -0.008516576974382148
0.3232869858014042 -0.19090751473455048
0.32333275508430137 -0.37258686074166203
0.32343944664970237 -0.5539797199373474
0.32366613379367754 -0.7350308721830765
0.3240256615041645 -0.9156888883709173
0.324548799618033 -1.0958369450103662
0.3253805732374642 -1.275204985173887
0.3267896886711302 -1.4532612247707775
0.32907000033529343 -1.6291520760414069
0.3324728321765017 -1.8016920810407784
0.3371711994178791 -1.9693849901593548
0.3433089346079221 -2.1304499822403837
0.35104359525448886 -2.2828752355628503
0.3605754973246359 -2.424406481994477
0.3721444411552177 -2.5525159089068823
0.38599668672860105 -2.664399501291978
0.40233481765565493 -2.7570491564149235
0.4213274441847051 -2.827409337072717
0.44307482577601803 -2.872558957753324
0.4673733353983782 -2.8899917364417353
0.49167184502073663 -2.8725589577532284
0.5134192266120445 -2.8274093370725244
0.5324118531410875 -2.7570491564146464
0.5487499840681332 -2.6643995012916335
0.5626022296415069 -2.5525159089064906
0.5741711734720788 -2.424406481994051
0.5837030755422173 -2.2828752355624005
0.5914377361887755 -2.130449982239925
0.5975754713788102 -1.969384990158901
0.6022738386201796 -1.801692081040343
0.6056766704613812 -1.6291520760409999
0.6079569821255395 -1.4532612247704044
0.609366097559202 -1.2752049851735532
0.6101978711786313 -1.0958369450100753
0.6107210092924993 -0.9156888883706727
0.611080537002986 -0.7350308721828767
0.6113072241469611 -0.5539797199371939
0.611413915712362 -0.3725868607415538
0.6114596849952592 -0.19090751473448772
0.6120221796709978 -0.008516576974368533
0.36809378913064583 -0.00893151551199996
0.3684864719338423 -0.1909424904550801
0.3685055289223356 -0.372591266115115
0.3685508250920756 -0.5539852527388018
0.3686816232140649 -0.7350524535778992
0.36891353668356924 -0.9157279673198859
0.3692628900845798 -1.095897444118318
0.3697963978822589 -1.2753162880272537
0.3706806124052221 -1.453483450647959
0.3721296715153435 -1.6295550732116
0.3743311826019877 -1.802329008984735
0.3774128087761926 -1.9702914806754148
0.38146383303739323 -2.1316557511672802
0.3865810180390725 -2.284417608635643
0.3928948507966263 -2.4263335895206777
0.4005803011256245 -2.5548847833009565
0.40984755005034235 -2.6672666365162154
0.42091058511305424 -2.7604620906855843
0.4339821946303756 -2.831422709363678
0.44938399957424535 -2.8772211982506377
0.4673733353983677 -2.895248347092902
0.48536267122248905 -2.8772211982505413
0.5007644761663554 -2.831422709363484
0.5138360856836717 -2.7604620906853055
0.5248991207463778 -2.667266636515869
0.5341663696710889 -2.5548847833005635
0.5418518200000808 -2.426333589520249
0.5481656527576291 -2.284417608635192
0.5532828377593029 -2.1316557511668197
0.5573338620204983 -1.9702914806749594
0.560415488194698 -1.8023290089842983
0.5626169992813379 -1.6295550732111916
0.5640660583914561 -1.4534834506475856
0.5649502729144174 -1.2753162880269198
0.5654837807120955 -1.0958974441180267
0.5658331341131057 -0.9157279673196415
0.5660650475826099 -0.7350524535776994
0.566195845704599 -0.5539852527386484
0.566241141874339 -0.37259126611500676
0.5662601988628322 -0.19094249045501735
0.5666528816660278 -0.008931515511985493
0.4133980308784017 -0.009246170867891838
0.41367225967094573 -0.19097717482113888
0.4136609919841173 -0.3725926852460876
0.41364718424336017 -0.5539828146123902
0.4136850568853994 -0.7350610638670292
0.4137876208498335 -0.9157498040887542
0.4139594744856066 -1.0959334801244383
0.41422564829361463 -1.2753747042307266
0.414647549253423 -1.4535909268099794
0.41533690934717576 -1.6297554491344748
0.4163988728071001 -1.8026607981866376
0.4179103021581328 -1.9707808153133366
0.4199098756490168 -2.1323201308944055
0.4224452280808627 -2.285280270358117
0.4255848333450348 -2.4274255054178715
0.42943075873068043 -2.556247701248823
0.43414186928449566 -2.6689517457445717
0.43994053264821714 -2.7625246272844297
0.4470975162339323 -2.8339314513225142
0.45598968081340774 -2.880300082475701
0.4673733353983568 -2.8989912671048996
0.4787569899833056 -2.8803000824756038
0.4876491545627795 -2.8339314513223193
0.49480613814849167 -2.762524627284149
0.5006048015122095 -2.6689517457442244
0.5053159120660217 -2.556247701248428
0.5091618374516642 -2.4274255054174425
0.5123014427158342 -2.285280270357665
0.5148367951476781 -2.132320130893944
0.5168363686385599 -1.9707808153128803
0.5183477979895904 -1.8026607981862002
0.5194097614495127 -1.629755449134066
0.5200991215432642 -1.4535909268096054
0.5205210225030719 -1.2753747042303925
0.5207871963110795 -1.0959334801241472
0.5209590499468524 -0.9157498040885096
0.5210616139112865 -0.7350610638668295
0.5210994865533257 -0.5539828146122368
0.5210856788125685 -0.3725926852459792
0.52107441112574 -0.19097717482107618
0.5213486399182835 -0.009246170867876786
0.4586532323199373 -0.009484482108755654
0.4588440888169436 -0.19101319345372755
0.4588039464570127 -0.37258991134823416
0.45873294860194613 -0.5539729265568424
0.4586807611879063 -0.7350569561459426
0.4586545621895403 -0.915753830962859
0.4586448103927449 -1.0959448142313315
0.45864216023671867 -1.2753936419123073
0.4586416594558995 -1.453622163932312
0.4586418646371204 -1.6298078697142202
0.45864208642175014 -1.8027456345851431
0.45864189451424103 -1.9709070753775704
0.4586382254952051 -2.1324937459531434
0.4586272360048982 -2.285511459518194
0.45861249681021843 -2.4277291408352584
0.4586291947266869 -2.5566480321672933
0.4587857973602957 -2.6694919780608837
0.4593171453325182 -2.763271515047552
0.46058480493172066 -2.83496819292688
0.4629979405792401 -2.881758395296625
0.4673733353983456 -2.9011545829949736
0.4717487302174516 -2.8817583952965276
0.47416186586497067 -2.8349681929266852
0.4754295254641721 -2.7632715150472706
0.47596087343639465 -2.669491978060536
0.47611747607000404 -2.5566480321668985
0.4761341739864731 -2.427729140834829
0.47611943479179425 -2.2855114595177417
0.47610844530148844 -2.132493745952682
0.4761047762824536 -1.9709070753771136
0.4761045843749455 -1.8027456345847053
0.4761048061595758 -1.6298078697138112
0.4761050113407969 -1.4536221639319378
0.4761045105599781 -1.275393641911973
0.47610186040395197 -1.0959448142310402
0.47609210860715667 -0.9157538309626143
0.4760659096087908 -0.735056956145743
0.4760137221947509 -0.5539729265566892
0.4759427243396844 -0.3725899113481258
0.47590258197975355 -0.19101319345366488
0.4760934384767595 -0.009484482108740235
0.5038704567244279 -0.00966819161421025
0.5040043742642629 -0.19104890682229164
0.5039382010058363 -0.37258306476146313
0.5038128072636022 -0.5539557978566473
0.5036733209053611 -0.7350405835461938
0.5035205077652908 -0.9157400536423415
0.5033300929143509 -1.095930846105012
0.5030583514000961 -1.2753741752399654
0.5026356041440293 -1.4535909429669664
0.5019467793184956 -1.6297555001504889
0.5008857087809652 -1.8026609359663535
0.49937356794056453 -1.9707800531103337
0.4973657660393089 -2.1323169141675415
0.4948082876420651 -2.2852738531918413
0.4916408892233761 -2.427422901776064
0.48783108270983466 -2.5562782118592757
0.4834267002112388 -2.6690884521339897
0.4786258663435651 -2.762902176379058
0.4738037617269327 -2.8347146411338526
0.4695256769179726 -2.8817093313686866
0.4673733353983345 -2.901850778204499
0.4652209938786959 -2.881709331368589
0.46094290906973606 -2.8347146411336577
0.45612080445310577 -2.762902176378777
0.4513199705854365 -2.6690884521336433
0.44691558808684523 -2.5562782118588814
0.4431057815733076 -2.427422901775635
0.4399383831546226 -2.28527385319139
0.4373809047573832 -2.132316914167081
0.4353731028561322 -1.9707800531098771
0.4338609620157356 -1.8026609359659163
0.4327998914782083 -1.6297555001500799
0.43211106665267657 -1.4535909429665925
0.43168831939661084 -1.2753741752396313
0.43141657788235666 -1.0959308461047206
0.4312261630314173 -0.9157400536420969
0.43107334989134727 -0.7350405835459942
0.4309338635331062 -0.553955797856494
0.4308084697908721 -0.3725830647613548
0.43074229653244567 -0.19104890682222897
0.4308762140722805 -0.009668191614194622
0.5490646266105016 -0.009809632557731093
0.5491576446964549 -0.19108232033894262
0.5490680256090593 -0.3725724852207077
0.5488914764369239 -0.5539317259079474
0.5486681232826359 -0.7350125492029518
0.5483916736162263 -0.915708798635634
0.5480251959177836 -1.0958922113134835
0.5474868473812646 -1.2753152049127114
0.5466021605223891 -1.4534835152938834
0.5451543423532706 -1.629555347120454
0.5429535615871097 -1.8023291357289117
0.5398705046712808 -1.9702896355209725
0.5358120508548904 -2.131648888883812
0.5306757838692233 -2.284404466290062
0.5243379311560479 -2.4263284279245005
0.5166864309299575 -2.554946798275013
0.507700824642109 -2.6675392480612348
0.4975374972679509 -2.761201476526172
0.4866079983790202 -2.8329846203407207
0.4758896303366542 -2.8802524678758332
0.4673733353983236 -2.901243153695974
0.45885704045999276 -2.880252467875736
0.44813867241762817 -2.8329846203405262
0.43720917352870214 -2.7612014765258928
0.42704584615455116 -2.6675392480608893
0.418060239866711 -2.55494679827462
0.4104087396406278 -2.4263284279240724
0.40407088692745946 -2.284404466289612
0.39893461994179996 -2.131648888883353
0.39487616612541737 -1.9702896355205175
0.39179310920959537 -1.8023291357284752
0.38959232844344033 -1.629555347120046
0.3881445102743259 -1.45348351529351
0.38725982341545245 -1.2753152049123773
0.38672147487893477 -1.0958922113131921
0.38635499718049293 -0.9157087986353896
0.3860785475140835 -0.735012549202752
0.3858551943597957 -0.553931725907794
0.3856786451876605 -0.3725724852205993
0.3855890261002649 -0.19108232033887998
0.38568204418621815 -0.009809632557715268
0.5942504058222852 -0.009915225190045642
0.5943094344511195 -0.1911118582655218
0.5941982334590303 -0.37255839297576815
0.5939738361352532 -0.5539011317127558
0.5936702538432702 -0.7349735054199715
0.5932751127781554 -0.9156611928200613
0.5927372928095804 -1.095828884591123
0.5919011826303425 -1.2752033983356617
0.5904933434736493 -1.453261593977643
0.5882145238861917 -1.629152619216832
0.5848117370429977 -1.8016920075020797
0.5801114304875791 -1.9693820918539273
0.5739687862885883 -2.130440330313057
0.5662235608612386 -2.2828570973971676
0.5566789443622959 -2.4243996842331783
0.5451378332355953 -2.552604318295114
0.5314945020869604 -2.6647861302337024
0.5158673049455622 -2.758102751775719
0.4988225460818478 -2.829729683826419
0.4817121328644797 -2.8772458688085365
0.4673733353983129 -2.899356151528269
0.4530345379321466 -2.8772458688084392
0.4359241247147813 -2.8297296838262254
0.41887936585107327 -2.758102751775441
0.40325216870968533 -2.6647861302333595
0.3896088375610615 -2.552604318294723
0.37806772643437164 -2.4243996842327524
0.3685231099354392 -2.28285709739672
0.36077788450810033 -2.1304403303126005
0.3546352403091201 -1.9693820918534743
0.3499349337537115 -1.8016920075016452
0.3465321469105259 -1.6291526192164254
0.3442533273230741 -1.4532615939772702
0.3428454881663846 -1.275203398335328
0.34200937798714887 -1.0958288845908317
0.3414715580185749 -0.9156611928198168
0.3410764169534604 -0.734973505419772
0.3407728346614778 -0.5539011317126025
0.34054843733770074 -0.3725583929756598
0.3404372363456118 -0.19111185826545912
0.340496264974446 -0.00991522519002969
0.639436787257944 -0.009990446271905033
0.6394659881463965 -0.1911361350246354
0.6393338024442057 -0.3725408564832574
0.6390644149719693 -0.5538644830136658
0.6386842734761228 -0.7349243480636448
0.6381777019877126 -0.9155985003889374
0.6374573763589595 -1.0957349273417927
0.6362826631170287 -1.275018152293841
0.634297762539672 -1.4528959571200626
0.6311330095902379 -1.6285187120398346
0.6264907899908171 -1.8007264495059188
0.6201473667850013 -1.9680385250192272
0.6118973780127656 -2.128674031727787
0.601516198835817 -2.2806142690026547
0.588734611547197 -2.421617744378122
0.5732664961616764 -2.5492274532958343
0.5549106381170207 -2.660798481865198
0.5337759782543353 -2.753584132385288
0.5106106794657047 -2.8249385078977416
0.48725963117197063 -2.872746080898545
0.4673733353983024 -2.896251811282162
0.44748703962463543 -2.8727460808984486
0.42413599133090585 -2.8249385078975493
0.4009706925422839 -2.753584132385012
0.3798360326796108 -2.6607984818648585
0.3614801746349689 -2.5492274532954458
0.3460120592494624 -2.4216177443776994
0.33323047196085587 -2.28061426900221
0.32284929278392094 -2.1286740317273325
0.31459930401169883 -1.968038525018777
0.3082558808058958 -1.8007264495054869
0.30361366120648553 -1.6285187120394296
0.30044890825705967 -1.4528959571196909
0.29846400767970815 -1.2750181522935082
0.2972892944377806 -1.0957349273415018
0.2965689688090287 -0.915598500388693
0.2960623973206191 -0.7349243480634453
0.2956822558247729 -0.5538644830135124
0.29541286835253666 -0.3725408564831491
0.29528068265034596 -0.19113613502457275
0.2953098835387986 -0.009990446271888973
0.6846299828096833 -0.010040394031345734
0.6846329540553445 -0.19115418843942047
0.684479964232733 -0.3725198159973786
0.6841680936904205 -0.5538222137522445
0.6837162652326798 -0.7348663723702973
0.6831008001679265 -0.915520359198063
0.6821760249394779 -1.095599823539219
0.6806237489887386 -1.2747410419191298
0.6780136945154941 -1.4523653905963017
0.673929293199712 -1.6276377262788133
0.6680327396544311 -1.7994219674778982
0.6600318676390594 -1.9662492453515215
0.649656363533563 -2.1263398575563213
0.6366171816760232 -2.2776651935892214
0.6205776837737562 -2.4179716892719063
0.6011631907715937 -2.544804057830767
0.5780918298003688 -2.6555657521041978
0.5514657678196925 -2.747639434041869
0.5222318378929316 -2.818623378545972
0.4927481061803805 -2.8667895314080925
0.4673733353982922 -2.8919478086312003
0.4419985646162056 -2.8667895314079965
0.4125148329036606 -2.818623378545781
0.3832809029769107 -2.7476394340415955
0.3566548409962487 -2.655565752103862
0.33358348002504024 -2.544804057830383
0.31416898702289453 -2.4179716892714866
0.2981294891206445 -2.2776651935887804
0.28509030726312157 -2.1263398575558714
0.27471480315764163 -1.9662492453510747
0.2667139311422854 -1.7994219674774694
0.26081737759701723 -1.6276377262784112
0.2567329762812452 -1.4523653905959317
0.2541229218080077 -1.2747410419187977
0.2525706458572726 -1.0955998235389286
0.25164587062882604 -0.9155203591978186
0.2510304055640733 -0.7348663723700979
0.2505785771063329 -0.5538222137520913
0.25026670656402067 -0.3725198159972702
0.2501137167414095 -0.19115418843935786
0.2501166879870706 -0.010040394031329603
0.7298344209779462 -0.010070015279922838
0.7298151491955869 -0.19116553993903468
0.7296419585130004 -0.372495148715355
0.7292898177303083 -0.553774855190838
0.7287700306246613 -0.7348004428555626
0.7280402955960241 -0.9154229315211021
0.7268876008361209 -1.095412956060734
0.7249177825938201 -1.2743547259295953
0.721648538824034 -1.4516564424327076
0.7166362267840993 -1.62650269350195
0.7094765621646741 -1.7977729005326986
0.6998110688333655 -1.9640086314265779
0.6873004989538998 -2.1234310730529375
0.6715876016873285 -2.2740020396030727
0.6522709935377259 -2.4134547393509047
0.6289202736274043 -2.539333669782087
0.6011816800840764 -2.649093934031986
0.5691407911722127 -2.7402795967108835
0.5339231961758069 -2.8107997409166234
0.4983307281260884 -2.85938015829814
0.467373335398282 -2.8864216924124255
0.4364159426704781 -2.859380158298045
0.4008234746207674 -2.8107997409164347
0.3656058796243744 -2.7402795967106135
0.33356499071252743 -2.649093934031654
0.30582639716921867 -2.5393336697817075
0.282475677258917 -2.4134547393504895
0.26315906910933395 -2.2740020396026353
0.24744617184278295 -2.123431073052492
0.23493560196333652 -1.9640086314261354
0.22527010863204586 -1.7977729005322738
0.2181104440126356 -1.626502693501551
0.21309813197271288 -1.45165644243234
0.20982888820293533 -1.2743547259292642
0.2078590699606399 -1.095412956060444
0.2067063752007396 -0.915422931520858
0.2059766401721031 -0.7348004428553632
0.20545685306645647 -0.5537748551906848
0.20510471228376467 -0.37249514871524664
0.20493152160117842 -0.19116553993897206
0.20491224981881911 -0.010070015279906664
0.7750529739763918 -0.0100842651341607
0.7750165221899024 -0.1911701831111967
0.7748250365072117 -0.37246683459271773
0.7744347289428939 -0.5537228829895618
0.7738486867229571 -0.7347269079211407
0.7729937915860744 -0.9153014522829808
0.7715833956962163 -1.0951611286381686
0.7691594180908281 -1.2738456374584364
0.7652257594302204 -1.4507640971794349
0.7592814609756819 -1.6251100635182796
0.7508588703006128 -1.795776363158176
0.7395300633299121 -1.9613138435449657
0.7248815825204562 -2.119943494371882
0.7064853101967564 -2.2696189087407297
0.6838851072052214 -2.408063961524812
0.656615427864148 -2.532824305998755
0.6243063586109902 -2.6414061329184073
0.58700942678582 -2.7315326902015062
0.5459145459898906 -2.801477465294549
0.5041498061328478 -2.850490529546928
0.467373335398272 -2.8796167979029454
0.4305968646636991 -2.850490529546834
0.3888321248066654 -2.801477465294363
0.3477372440107511 -2.7315326902012402
0.31044031218560003 -2.6414061329180796
0.27813124293246444 -2.5328243059983806
0.2508615635914135 -2.4080639615244026
0.22826136059990135 -2.2696189087402976
0.20986508827622455 -2.1199434943714413
0.19521660746679095 -1.961313843544528
0.18388780049611067 -1.7957763631577557
0.1754652098210588 -1.6251100635178841
0.16952091136653386 -1.4507640971790698
0.16558725270593636 -1.2738456374581073
0.16316327510055478 -1.0951611286378795
0.16175287921070014 -0.915301452282737
0.1608979840738186 -0.7347269079209413
0.1603119418538822 -0.5537228829894087
0.15992163428956477 -0.3724668345926094
0.15973014860687426 -0.19117018311113407
0.1596936968203848 -0.010084265134144503
0.8202867560510672 -0.010088184703750964
0.8202400835938298 -0.19116865373051573
0.8200347777732689 -0.3724350466935255
0.8196081375510641 -0.5536668303278118
0.8189539415472957 -0.7346443370726651
0.8179566111148177 -0.9151488347313044
0.8162536036988118 -1.094831686450018
0.8133656092330595 -1.2732089971885592
0.8087636000173096 -1.4496857565149386
0.8018916503059981 -1.6234587138546401
0.7922148089672851 -1.7934322287510505
0.7792307899365546 -1.9581642063194797
0.762450912594549 -2.1158754063389758
0.7413734775476174 -2.264512800878631
0.7154850874579842 -2.401797373358625
0.6843206866902264 -2.525288086359673
0.6475612276692718 -2.632543154914786
0.6052573642683465 -2.721447029529009
0.5584488923763068 -2.790663780533557
0.5103901047205068 -2.8400616377624126
0.46737333539826165 -2.8714340644913645
0.42435656607602 -2.8400616377623202
0.37629777842023093 -2.7906637805333743
0.32948930652820857 -2.7214470295287474
0.287185443127305 -2.6325431549144636
0.2504259841063755 -2.525288086359304
0.21926158333864326 -2.401797373358221
0.1933731932490357 -2.2645128008782045
0.1722957582021303 -2.1158754063385414
0.15551588086014978 -1.9581642063190479
0.14253186182944205 -1.7934322287506348
0.13285502049074827 -1.6234587138542487
0.12598307077945206 -1.4496857565145767
0.12138106156371388 -1.2732089971882323
0.1184930670979692 -1.0948316864497303
0.11679005968196769 -0.9151488347310611
0.11579272924949134 -0.7346443370724658
0.1151385332457233 -0.5536668303276587
0.11471189302351897 -0.3724350466934172
0.11450658720295821 -0.19116865373045308
0.11445991474572102 -0.010088184703734756
0.8655344694617361 -0.010086896093963193
0.8654878242085137 -0.1911622179914752
0.8652776149444713 -0.37240039525822116
0.8648157592293868 -0.5536067241122716
0.8640854537726261 -0.7345503604068421
0.8629196047585203 -0.9149539954705678
0.8609032158691621 -1.0944172373146732
0.857546323640205 -1.272442351614744
0.852280232160335 -1.4484208527696187
0.8444929937576592 -1.6215501460599235
0.8335785596831623 -1.7907423520620431
0.8189565582794449 -1.9545614106753526
0.8000577818430462 -2.111227283935961
0.7763076895811429 -2.25868339994292
0.7471511723027794 -2.394657023530894
0.7121220683813844 -2.5167360339005658
0.6709915119395559 -2.622545993427557
0.623949530990356 -2.7101070355777055
0.5718724800308101 -2.778390959443381
0.5173595279745858 -2.827991095343306
0.46737333539825104 -2.861705349336812
0.4173871428219207 -2.827991095343216
0.362874190765709 -2.778390959443202
0.3107971398061825 -2.7101070355774493
0.26375515885700773 -2.62254599342724
0.2226246024152071 -2.516736033900204
0.18759549849384066 -2.3946570235304967
0.1584389812155058 -2.2586833999425004
0.1346888889536319 -2.111227283935533
0.1157901125172611 -1.954561410674927
0.10116811111356876 -1.7907423520616328
0.09025367703909315 -1.6215501460595365
0.08246643863643424 -1.4484208527692604
0.07720034715657705 -1.2724423516144197
0.07384345492762887 -1.0944172373143866
0.07182706603827575 -0.9149539954703252
0.07066121702417225 -0.734550360406643
0.06993091156741212 -0.5536067241121184
0.06946905585232808 -0.37240039525811286
0.06925884658828586 -0.19116221799141261
0.0692122013350635 -0.010086896093946977
0.9107910614779318 -0.010085426614885887
0.9107606590538385 -0.19115339384411195
0.9105619069074241 -0.3723640904824101
0.9100635634991715 -0.5535416534873373
0.9092390970908772 -0.7344391016554317
0.9078789238731757 -0.9147092227198208
0.9055392444097048 -1.0939141671342254
0.9017125379174287 -1.2715447047601949
0.8957936216533686 -1.4469713370705113
0.8871111473479827 -1.6193880967741514
0.8749852643342149 -1.78771116052021
0.8587485652702465 -1.9505085036429028
0.8377486014219923 -2.1060014337666915
0.8113536404561632 -2.2521352844477676
0.7789639771970976 -2.386649692339451
0.7401141971097336 -2.507177477047198
0.6946582036876652 -2.611437760192743
0.6429956955474693 -2.6975949094758715
0.5862361898303231 -2.764828842672172
0.526172647501431 -2.8141711106213565
0.4673733353982402 -2.849999999999998
0.40857402329505416 -2.8141711106212686
0.3485104809661763 -2.7648288426719976
0.29175097524905236 -2.6975949094756215
0.24008846710888515 -2.6114377601924335
0.19463247368684788 -2.5071774770468434
0.155782693599515 -2.386649692339061
0.1233930303404817 -2.2521352844473554
0.09699806937468484 -2.106001433766271
0.07599810552646112 -1.9505085036424838
0.059761406462520435 -1.7877111605198055
0.04763552344877566 -1.6193880967737693
0.03895304914340825 -1.4469713370701565
0.03303413287936216 -1.2715447047598731
0.029207426387096093 -1.0939141671339405
0.026867746923631145 -0.9147092227195791
0.025507573705932284 -0.7344391016552327
0.024683107297638868 -0.5535416534871841
0.024184763889386597 -0.3723640904823019
0.02398601174297249 -0.19115339384404936
0.02395560931887935 -0.010085426614869686
SCALARS Stress float 6
LOOKUP_TABLE default
-1123.9229465119327 -1915.8831834257417 -1443.0598724590723 -18.057828338909495 0.0 0.0
1270.2818231908518 739.1709879408237 925.005901425342 -23.58503562503948 0.0 0.0
561.5064284355494 123.48858063779939 213.21982740320888 -38.13079199322797 0.0 0.0
464.54880394060933 20.19089928476862 147.62394005247484 -2.748816587322718 0.0 0.0
577.0416207800008 59.98843465633966 216.16097293809364 1.0714632076157442 0.0 0.0
675.3993025568163 98.78880109899407 316.97503451503087 1.4322633040326491 0.0 0.0
784.8627221846907 135.4445684636956 421.93761898165786 0.7117158260211958 0.0 0.0
893.4893540731832 187.6052859230645 521.0581592754164 -0.4015678736405657 0.0 0.0
1008.2623872584984 251.94216390921088 617.2088927480877 -1.7489108851835533 0.0 0.0
1136.7827696104846 334.39999035108747 724.4348981634124 -3.2040330199901534 0.0 0.0
1283.8715482087616 439.1032514837452 850.595448125626 -4.6437547532792545 0.0 0.0
1449.6148665027479 566.5168236793559 996.9307389348933 -5.886491393198569 0.0 0.0
1629.7389583013892 710.5789279130283 1158.5620252907222 -6.674604294115498 0.0 0.0
1818.3435240356084 865.2421140051349 1329.7072059307238 -7.314351451802114 0.0 0.0
2006.986466392397 1021.9596030715945 1501.8862261612621 -7.755775243226422 0.0 0.0
2186.3892780462725 1171.6521495891109 1665.9512764008891 -7.967680909326539 0.0 0.0
2347.496859492918 1305.9200291168459 1813.2350468925724 -7.8088519161069065 0.0 0.0
2480.938028307328 1416.2022305466094 1934.8258461247135 -7.146589878691101 0.0 0.0
2582.521191434118 1499.170740506108 2026.9046257120303 -6.01551962613817 0.0 0.0
2640.6408178720876 1544.2819684555702 2078.4341114126146 -6.3864849997337645 0.0 0.0
2633.92376960566 1535.398137482123 2070.9444773026557 4.0040859516921046e-11 0.0 0.0
2640.6408178735473 1544.2819684570682 2078.4341114136187 6.386484999812749 0.0 0.0
2582.5211914333277 1499.170740505359 2026.9046257112805 6.015519626138419 0.0 0.0
2480.9380283069827 1416.202230546359 1934.825846124273 7.146589878593618 0.0 0.0
2347.4968594909915 1305.9200291149973 1813.2350468909838 7.808851916088386 0.0 0.0
2186.389278046547 1171.652149589538 1665.9512764009664 7.967680909439801 0.0 0.0
2006.9864663910505 1021.959603070384 1501.8862261600852 7.755775243184502 0.0 0.0
1818.3435240350802 865.2421140047645 1329.7072059302272 7.314351451818716 0.0 0.0
1629.7389583009772 710.5789279128414 1158.5620252901576 6.6746042940721075 0.0 0.0
1449.6148665009941 566.5168236778061 996.9307389335557 5.88649139313506 0.0 0.0
1283.8715482080956 439.1032514833101 850.5954481250276 4.643754753380724 0.0 0.0
1136.782769609364 334.39999035020315 724.4348981625413 3.2040330198929485 0.0 0.0
1008.2623872577778 251.94216390873365 617.2088927474698 1.7489108853218394 0.0 0.0
893.4893540734193 187.60528592361072 521.0581592753896 0.40156787352389856 0.0 0.0
784.8627221833436 135.4445684625762 421.93761898063815 -0.711715825956734 0.0 0.0
675.3993025563304 98.78880109876901 316.97503451453696 -1.4322633039199086 0.0 0.0
577.0416207793904 59.98843465589016 216.16097293765807 -1.071463207562422 0.0 0.0
464.5488039401962 20.19089928449539 147.6239400522662 2.748816587197765 0.0 0.0
561.5064284352618 123.4885806378248 213.21982740308394 38.130791993292135 0.0 0.0
1270.2818231904537 739.1709879404079 925.0059014248031 23.585035625056022 0.0 0.0
-1123.922946509268 -1915.883183423099 -1443.0598724564322 18.05782833835317 0.0 0.0
-1431.9734455998137 -2194.030406784762 -1701.8457678357854 -18.101937836931643 0.0 0.0
863.0507148991459 411.0072001982331 577.4786320122923 -33.256544679524936 0.0 0.0
390.124035488672 49.4412872190412 130.27257413870066 -31.751727225172225 0.0 0.0
411.4022941287975 2.7176869831197026 124.77827373398293 -16.24942241078684 0.0 0.0
514.1449745431569 26.117605074770424 177.08896882640357 -15.448283868292451 0.0 0.0
606.7780444007182 36.06510271030902 253.88882860496034 -19.837624964340897 0.0 0.0
684.4545353943017 49.63762702012551 335.5226631859552 -22.035804559345394 0.0 0.0
759.9660646921164 66.91496953358389 402.5974063081119 -22.730154621512565 0.0 0.0
830.5741864958947 86.36807056113284 454.9452874039743 -23.07958292310878 0.0 0.0
899.6949222639814 109.58996388620308 503.12083834668374 -23.487880292930182 0.0 0.0
969.3948611391424 137.54210499741993 552.4785095467959 -23.64075837677484 0.0 0.0
1040.364556177526 169.77141263178163 604.2185050206105 -23.490479461009354 0.0 0.0
1111.3855546774482 205.89277430615877 657.7888639386757 -23.003702923275565 0.0 0.0
1179.9861117845396 240.93049740385555 709.5566694279261 -22.396833817804584 0.0 0.0
1240.1015833171991 269.5401912213347 753.8659784533677 -21.726183977232147 0.0 0.0
1286.8345175892146 286.95762053815923 785.8937671533331 -20.79183763714879 0.0 0.0
1316.9031774880054 290.41419804882094 802.6231139284271 -19.346648408162814 0.0 0.0
1330.4274988234483 280.8070831509664 804.5711013023961 -17.256020252790645 0.0 0.0
1326.2312230693528 257.9716003356819 791.1565679045866 -14.743472618036943 0.0 0.0
1281.2480504273094 200.1848816076035 740.4184186268359 -13.400338304686626 0.0 0.0
1201.5967155914686 118.81776184341598 661.038684916365 -1.1318945780658396e-11 0.0 0.0
1281.2480504279636 200.18488160828792 740.4184186273418 13.400338304700082 0.0 0.0
1326.2312230689777 257.9716003353668 791.1565679043365 14.743472618149646 0.0 0.0
1330.4274988238867 280.8070831514824 804.571101302695 17.256020252826666 0.0 0.0
1316.9031774871075 290.4141980480145 802.6231139278041 19.346648408206388 0.0 0.0
1286.8345175896845 286.95762053875677 785.8937671536636 20.791837637192238 0.0 0.0
1240.1015833167362 269.54019122103216 753.8659784529937 21.72618397723914 0.0 0.0
1179.986111783898 240.93049740335508 709.5566694275067 22.396833817836587 0.0 0.0
1111.3855546773543 205.89277430626123 657.78886393853 23.003702923280244 0.0 0.0
1040.3645561768672 169.77141263133063 604.2185050201753 23.490479460949196 0.0 0.0
969.3948611384292 137.5421049969268 552.4785095463384 23.64075837679531 0.0 0.0
899.6949222632188 109.58996388567292 503.12083834616783 23.48788029291258 0.0 0.0
830.574186495511 86.36807056101493 454.9452874036754 23.07958292323053 0.0 0.0
759.9660646921886 66.91496953392016 402.5974063080723 22.730154621421256 0.0 0.0
684.4545353938789 49.63762702000054 335.52266318554007 22.035804559323108 0.0 0.0
606.7780444003316 36.06510271021324 253.88882860458466 19.837624964332033 0.0 0.0
514.1449745425984 26.117605074444242 177.08896882605887 15.448283868212853 0.0 0.0
411.4022941284043 2.717686982818501 124.77827373378686 16.24942241069951 0.0 0.0
390.12403548853194 49.44128721914406 130.27257413869347 31.751727225069512 0.0 0.0
863.0507148984858 411.00720019776054 577.4786320116393 33.25654467957529 0.0 0.0
-1431.9734455978328 -2194.0304067827115 -1701.8457678336995 18.101937836450695 0.0 0.0
-1184.0272132521886 -1911.7390676520504 -1426.778265627651 -56.60175934216703 0.0 0.0
667.5956406020817 319.95919322863483 433.9160691444715 -100.32485558585134 0.0 0.0
274.770480016768 56.8305319305684 99.48033864421011 -33.612346249645185 0.0 0.0
352.26047934062535 -0.22803681362461392 105.40074595351722 -37.03583916906705 0.0 0.0
468.8023882248957 17.52060069865782 152.2865972964995 -37.70168676972924 0.0 0.0
574.404900521801 31.80984139912325 225.43057301160337 -38.734939728810915 0.0 0.0
655.7408517234411 46.411219604478305 310.7614533422778 -41.416221697000644 0.0 0.0
732.7005539533229 60.16140470827622 381.0763737523232 -42.68074102041692 0.0 0.0
801.5954584341474 76.93864639031167 434.1779342084965 -43.56002433551892 0.0 0.0
867.3742458708302 96.371030346021 479.7326966950546 -44.28089339397311 0.0 0.0
933.2298396208968 120.75943419242498 525.6165669764075 -44.36327581384929 0.0 0.0
1000.2517032039038 150.31553987950906 574.0925161071948 -43.692431050918266 0.0 0.0
1068.1831227427087 182.707560236105 624.2753316511021 -42.67442311477903 0.0 0.0
1132.6693698266338 214.9370213179647 672.608051802378 -41.48838063587884 0.0 0.0
1189.9734571644087 241.18087576298643 714.3387633405629 -40.155783736850594 0.0 0.0
1235.1368955299147 257.3849116476616 744.9714065572641 -38.38942971401741 0.0 0.0
1265.8748647584098 261.6753082843714 762.4504341643251 -35.791749555708165 0.0 0.0
1279.9902626230814 252.61914412458552 765.013027663801 -32.25941315915263 0.0 0.0
1269.8184257565588 223.69531739817089 745.7189168787703 -28.154558232639264 0.0 0.0
1242.576061834388 183.72946811445405 712.4782908629966 -23.86926939497442 0.0 0.0
1144.8426431526925 84.69645407517768 615.5405014225399 4.984990198408923e-11 0.0 0.0
1242.576061834528 183.72946811462623 712.4782908630186 23.86926939502502 0.0 0.0
1269.8184257566704 223.69531739834792 745.7189168788665 28.15455823267701 0.0 0.0
1279.99026262362 252.61914412520645 765.0130276641909 32.25941315920392 0.0 0.0
1265.8748647578695 261.67530828392677 762.4504341639185 35.79174955573263 0.0 0.0
1235.1368955296293 257.38491164749576 744.9714065570556 38.38942971400645 0.0 0.0
1189.9734571641739 241.18087576290011 714.33876334038 40.15578373694633 0.0 0.0
1132.6693698256106 214.93702131710597 672.6080518015958 41.48838063593293 0.0 0.0
1068.1831227427172 182.70756023631026 624.2753316510707 42.67442311486502 0.0 0.0
1000.251703203893 150.31553987969562 574.0925161071701 43.692431050872884 0.0 0.0
933.2298396204139 120.7594341921679 525.6165669760911 44.363275813777435 0.0 0.0
867.3742458701319 96.37103034557143 479.7326966946088 44.28089339406865 0.0 0.0
801.5954584336027 76.938646390017 434.1779342081135 43.56002433550074 0.0 0.0
732.7005539529138 60.16140470814529 381.0763737519873 42.68074102038902 0.0 0.0
655.7408517231786 46.41121960446088 310.761453341952 41.416221696917376 0.0 0.0
574.4049005213534 31.80984139895572 225.430573011212 38.734939728702194 0.0 0.0
468.8023882245457 17.52060069860336 152.28659729633742 37.701686769587944 0.0 0.0
352.2604793406437 -0.22803681329026282 105.40074595362923 37.03583916897288 0.0 0.0
274.77048001665077 56.830531930303046 99.48033864409577 33.61234624953824 0.0 0.0
667.5956406015138 319.95919322839154 433.91606914392264 100.32485558576221 0.0 0.0
-1184.0272132502769 -1911.739067650012 -1426.7782656255758 56.60175934194525 0.0 0.0
-961.1114275340904 -1658.2002288140523 -1180.7424995983909 -70.06780262710711 0.0 0.0
505.39795565209283 224.7744226100607 313.3269848248702 -144.5503918258185 0.0 0.0
201.3455287772175 51.76852020667899 75.93421469516893 -55.83814016650494 0.0 0.0
293.4160261493464 5.01090185537255 89.52203755249995 -57.66080963930506 0.0 0.0
413.8940212063206 8.757118292628643 127.94490673791825 -61.91970189249138 0.0 0.0
528.5053729234144 26.312429971590934 193.91271093136575 -59.303824454266056 0.0 0.0
624.7318069548583 40.849067675148845 280.5923306048999 -62.20842209960691 0.0 0.0
700.42980610842 53.61183222030532 355.21423615407093 -62.94784509132721 0.0 0.0
768.5945172083733 67.65162536160668 410.48101893670855 -63.82982841619176 0.0 0.0
831.4167235745922 83.69586408606754 454.4299791314906 -64.48474723068084 0.0 0.0
893.1469350288268 104.32806844650388 496.8001402029715 -64.25221674683496 0.0 0.0
956.4462366450913 130.0187594157995 541.5827373672338 -63.14445574250207 0.0 0.0
1020.3808013486359 159.90519164333583 588.559330572205 -61.56585729002864 0.0 0.0
1081.4886044052635 188.0306301921641 633.1714183713362 -59.97305721252777 0.0 0.0
1135.4939326900799 211.75793045401394 672.010209392786 -58.07239369325526 0.0 0.0
1179.9456596512894 227.89010798784625 702.2621800490643 -55.52050071035694 0.0 0.0
1211.5497229982016 232.88666055537712 720.5336951564743 -52.048462318506544 0.0 0.0
1225.7467217857866 223.6537338061589 723.0957621448591 -47.51758824469423 0.0 0.0
1219.409719808421 198.20338432472866 707.4344970725629 -41.732196418404946 0.0 0.0
1201.660220153513 167.04983940159636 683.2042799961621 -33.313264626285815 0.0 0.0
1063.524179677389 27.7337847455846 546.7312019671053 9.897149766402435e-11 0.0 0.0
1201.6602201541616 167.04983940229863 683.20427999656 33.31326462645897 0.0 0.0
1219.4097198079928 198.20338432432328 707.4344970722952 41.73219641845763 0.0 0.0
1225.746721786059 223.6537338065017 723.0957621452161 47.517588244751664 0.0 0.0
1211.5497229984373 232.88666055570715 720.5336951565946 52.0484623184718 0.0 0.0
1179.9456596503508 227.8901079869918 702.2621800483682 55.52050071027994 0.0 0.0
1135.4939326893345 211.75793045339475 672.0102093922318 58.07239369325095 0.0 0.0
1081.4886044047216 188.0306301918053 633.1714183709375 59.973057212636014 0.0 0.0
1020.3808013480161 159.9051916428591 588.5593305717974 61.56585728997931 0.0 0.0
956.4462366447351 130.0187594156213 541.5827373669816 63.144455742460806 0.0 0.0
893.146935029007 104.32806844690333 496.8001402030957 64.2522167467943 0.0 0.0
831.4167235734557 83.695864085135 454.42997913073265 64.4847472305782 0.0 0.0
768.594517208318 67.65162536182669 410.48101893662675 63.82982841617143 0.0 0.0
700.4298061078027 53.611832219959076 355.2142361535862 62.94784509131797 0.0 0.0
624.7318069543512 40.84906767491215 280.59233060440806 62.208422099524064 0.0 0.0
528.5053729230231 26.312429971533486 193.91271093107454 59.303824454237784 0.0 0.0
413.89402120600596 8.757118292750407 127.94490673785364 61.91970189238858 0.0 0.0
293.41602614941473 5.010901855654722 89.52203755260317 57.66080963924328 0.0 0.0
201.34552877716953 51.76852020639546 75.93421469506946 55.83814016646023 0.0 0.0
505.39795565157334 224.7744226098273 313.3269848243868 144.55039182564002 0.0 0.0
-961.1114275324296 -1658.2002288121935 -1180.7424995965264 70.06780262704 0.0 0.0
-768.388956408341 -1437.48172472571 -964.9961568383001 -69.7627312738451 0.0 0.0
385.86041463856105 142.50390627793126 220.46438780121377 -174.93193898759006 0.0 0.0
148.38670146262444 42.463815142793756 57.25515498162544 -85.21266679141927 0.0 0.0
240.4002348539596 11.329612167978162 75.51959924760698 -79.88687436799327 0.0 0.0
350.7194148168339 5.440502148459198 106.55146978398999 -85.93581475598964 0.0 0.0
475.30405289410214 14.481923613759516 159.92844790538678 -85.17472321715272 0.0 0.0
581.283284967601 33.76328141589381 243.60365803226347 -83.17195169505757 0.0 0.0
662.3030239078496 48.14823140778781 324.67597858046634 -83.55260693530353 0.0 0.0
730.6426932076387 58.86262520357073 382.9396313499814 -83.88819788193977 0.0 0.0
790.8279390774951 71.36260723343867 426.29861062678486 -84.06344761673412 0.0 0.0
849.0540203837216 88.01230488671337 465.7105210504741 -83.36437529920843 0.0 0.0
908.0929934960324 109.75739754265393 506.6282094642161 -81.75378265465528 0.0 0.0
968.1681157131923 135.45740936190717 549.6432099257925 -79.81062669457776 0.0 0.0
1025.4600181561977 161.579773814794 591.3949939588917 -77.7836031284586 0.0 0.0
1076.7591942757767 182.46942221199376 627.5011113173092 -75.40240827676139 0.0 0.0
1119.5719714602146 196.62694755510915 655.9520599786138 -72.27135951070971 0.0 0.0
1152.1883149408955 203.05907113704876 675.4577525129451 -68.14702963480293 0.0 0.0
1170.0840245799416 197.21577373454195 681.5523412543015 -62.88610986853564 0.0 0.0
1169.2410828610919 176.44641168321166 670.9479732833424 -55.35569137051609 0.0 0.0
1155.7436804347476 148.0604031337513 650.1829177012137 -43.076342581575 0.0 0.0
967.373027474604 -41.38213633343675 464.6655229928781 7.460698725481052e-11 0.0 0.0
1155.7436804350891 148.06040313413348 650.1829177015609 43.07634258170315 0.0 0.0
1169.2410828603684 176.44641168254373 670.9479732828074 55.355691370530124 0.0 0.0
1170.0840245801578 197.21577373486008 681.5523412545981 62.8861098686692 0.0 0.0
1152.1883149415664 203.05907113782098 675.4577525133546 68.1470296348544 0.0 0.0
1119.5719714602212 196.62694755526894 655.9520599785833 72.27135951075687 0.0 0.0
1076.7591942751974 182.4694222115734 627.5011113169235 75.40240827684603 0.0 0.0
1025.4600181552985 161.57977381403765 591.3949939582724 77.78360312854139 0.0 0.0
968.1681157131408 135.45740936208443 549.6432099256923 79.81062669459774 0.0 0.0
908.0929934951538 109.75739754190664 506.62820946359335 81.75378265461309 0.0 0.0
849.0540203840517 88.01230488732855 465.71052105065223 83.36437529927002 0.0 0.0
790.8279390770793 71.36260723326245 426.2986106264866 84.06344761666605 0.0 0.0
730.6426932073392 58.8626252035733 382.93963134975434 83.88819788205126 0.0 0.0
662.3030239078561 48.14823140819581 324.6759785803347 83.55260693535851 0.0 0.0
581.2832849673489 33.7632814159653 243.60365803194557 83.17195169499311 0.0 0.0
475.304052893659 14.481923613624144 159.92844790511108 85.17472321712373 0.0 0.0
350.7194148164323 5.440502148266291 106.55146978382717 85.93581475581071 0.0 0.0
240.40023485388724 11.329612167926117 75.51959924756926 79.88687436794245 0.0 0.0
148.38670146261762 42.46381514276391 57.25515498161446 85.21266679126165 0.0 0.0
385.8604146380447 142.50390627773712 220.46438780080197 174.93193898747666 0.0 0.0
-768.3889564068182 -1437.4817247240587 -964.996156836621 69.76273127369986 0.0 0.0
-599.5125072951629 -1242.0191239429087 -773.9976888739101 -68.08963322556022 0.0 0.0
291.8547787017236 79.0444554626091 149.88249062469527 -191.85733073797167 0.0 0.0
107.58965927352207 30.385043428476475 41.39241081059956 -113.0409211323457 0.0 0.0
191.493976773702 16.643112474861738 62.44266517622695 -102.48644336744907 0.0 0.0
286.8008271898226 4.670257360395056 87.15370895276189 -108.81618686467976 0.0 0.0
406.68268718036614 6.679237958792974 128.29127443324924 -110.73856450799678 0.0 0.0
519.9706546277076 26.123679720166997 201.75750744359044 -105.836031664787 0.0 0.0
616.8603629269334 39.439956463028544 285.28587205800665 -105.43639272581257 0.0 0.0
684.47559779676 50.85583402921897 349.5374860380959 -103.51874274955878 0.0 0.0
744.7998232338423 59.173365415402635 394.1910641785517 -103.07434782215194 0.0 0.0
799.6154163670859 71.82836106207172 431.40587650271874 -101.69798982416175 0.0 0.0
854.4943512316324 89.53435220162604 468.7016152509641 -99.51647151512066 0.0 0.0
910.3078133552374 111.63127330792791 507.92957582713314 -97.16875454863387 0.0 0.0
963.7611356878303 133.60354391624116 545.753799815678 -94.92057243766817 0.0 0.0
1012.0812693672008 152.4402454605048 579.401488356806 -92.20399032218816 0.0 0.0
1053.2653375360933 165.6988180868811 606.6490205702969 -88.47756004885244 0.0 0.0
1086.7592649195096 171.97669171878277 626.4957797910358 -83.9461893756021 0.0 0.0
1110.1128461208505 171.34009154356673 637.8573309229558 -78.23305632007002 0.0 0.0
1116.5274039365122 157.025820305951 634.0971117567976 -69.35349118828695 0.0 0.0
1105.5445588223793 128.84669288740264 614.7165322292688 -53.80513503434401 0.0 0.0
856.8546237156501 -120.57886413831011 370.64097191022245 5.4010129701964615e-11 0.0 0.0
1105.5445588221926 128.84669288729273 614.7165322291959 53.80513503450602 0.0 0.0
1116.527403936893 157.02582030641722 634.097111757088 69.35349118843823 0.0 0.0
1110.1128461207702 171.34009154359035 637.8573309228709 78.2330563202393 0.0 0.0
1086.759264919656 171.97669171909774 626.4957797910749 83.94618937581103 0.0 0.0
1053.2653375363698 165.69881808726774 606.6490205705138 88.47756004893137 0.0 0.0
1012.0812693677277 152.44024546120076 579.401488357118 92.20399032221671 0.0 0.0
963.7611356869324 133.60354391553497 545.7537998149598 94.92057243773482 0.0 0.0
910.3078133552342 111.63127330808246 507.9295758271031 97.1687545487219 0.0 0.0
854.494351231355 89.53435220152963 468.70161525074855 99.51647151506685 0.0 0.0
799.6154163666678 71.82836106183748 431.4058765023856 101.6979898241627 0.0 0.0
744.7998232343018 59.17336541615548 394.19106417882654 103.0743478221124 0.0 0.0
684.4755977956452 50.855834028303335 349.5374860373039 103.51874274951842 0.0 0.0
616.8603629271829 39.43995646364287 285.28587205802233 105.43639272581939 0.0 0.0
519.9706546273759 26.123679720178465 201.7575074432702 105.83603166463347 0.0 0.0
406.68268717993135 6.679237958796863 128.2912744330717 110.73856450788523 0.0 0.0
286.8008271894289 4.670257359977406 87.15370895252161 108.81618686453021 0.0 0.0
191.49397677382305 16.643112475213268 62.44266517636821 102.48644336737917 0.0 0.0
107.58965927352729 30.385043428494598 41.39241081060657 113.04092113207864 0.0 0.0
291.85477870123106 79.04445546243099 149.88249062433863 191.85733073789726 0.0 0.0
-599.5125072940119 -1242.0191239415785 -773.9976888725066 68.08963322541334 0.0 0.0
-454.58797019660074 -1062.6886961920736 -605.7416785411467 -67.28298593272424 0.0 0.0
217.82293986012223 28.586303713088455 96.35650965585958 -201.68576899852735 0.0 0.0
74.2327874158157 18.20682483392099 27.731786252995274 -136.06848863160968 0.0 0.0
145.31821859532377 20.026688674203466 49.60454133682109 -123.67110584852522 0.0 0.0
225.03250722830165 6.100917440418033 69.27473537627853 -129.0580033603173 0.0 0.0
329.3503467570862 -0.14810412225870417 98.62090397959204 -137.24271169052398 0.0 0.0
446.72286549323087 13.496495893701011 156.2554950973737 -132.6662295830899 0.0 0.0
549.7878946292273 31.935916622626777 236.4644051420861 -126.89878639465697 0.0 0.0
631.7829500497412 39.26956626752382 306.388570085153 -125.23781293991819 0.0 0.0
689.4678243111898 47.37817143083585 355.3148074725488 -121.29909223834633 0.0 0.0
743.3619398859712 55.81436272957118 392.37299262087805 -119.19431989322496 0.0 0.0
794.2551340689279 69.24457421499994 426.6067782636456 -116.44937083658533 0.0 0.0
845.4975099317347 87.24748204736564 461.8869531918021 -113.71382831573979 0.0 0.0
894.7459165593333 105.95703896098466 496.1286816308175 -111.22863524483658 0.0 0.0
939.5882525327497 121.97036080894259 526.7424008485683 -108.3391116344848 0.0 0.0
978.7301666839247 132.44033297906998 551.6380902383993 -104.49270157336139 0.0 0.0
1012.6740565202936 140.6218842256718 572.6792987856676 -99.22855391473321 0.0 0.0
1043.0493016045966 145.73995367701187 590.3141088959237 -93.29148382270405 0.0 0.0
1058.8094348585005 138.78457150545793 594.8484158776569 -84.03756086556645 0.0 0.0
1051.0159497145053 111.11670464596295 577.4407387195981 -66.19855096638071 0.0 0.0
729.8875577418149 -209.686129005611 263.7939794052707 6.558131815381785e-11 0.0 0.0
1051.0159497145014 111.11670464603145 577.4407387196502 66.1985509665147 0.0 0.0
1058.8094348587897 138.78457150582148 594.8484158779792 84.03756086573351 0.0 0.0
1043.0493016042412 145.73995367675838 590.3141088956377 93.29148382277704 0.0 0.0
1012.6740565202098 140.62188422572856 572.6792987855512 99.2285539148837 0.0 0.0
978.7301666841868 132.44033297951694 551.6380902386356 104.49270157350331 0.0 0.0
939.5882525329392 121.97036080928638 526.7424008486302 108.33911163455261 0.0 0.0
894.7459165591566 105.95703896088533 496.1286816305888 111.22863524478345 0.0 0.0
845.4975099311284 87.24748204688296 461.88695319136565 113.71382831562735 0.0 0.0
794.2551340689878 69.24457421525408 426.6067782637082 116.44937083659968 0.0 0.0
743.3619398852652 55.81436272905089 392.3729926203593 119.19431989317292 0.0 0.0
689.4678243109806 47.378171430821816 355.31480747239016 121.29909223826274 0.0 0.0
631.782950049246 39.26956626738739 306.3885700847426 125.23781293990884 0.0 0.0
549.7878946286352 31.935916622325415 236.46440514160474 126.89878639467403 0.0 0.0
446.72286549273576 13.49649589349038 156.2554950970167 132.6662295829763 0.0 0.0
329.35034675675524 -0.14810412222561498 98.62090397950769 137.24271169030186 0.0 0.0
225.03250722810367 6.100917440220632 69.27473537616083 129.05800336016551 0.0 0.0
145.31821859535515 20.026688674509625 49.60454133692197 123.67110584832565 0.0 0.0
74.23278741585182 18.20682483396067 27.731786253018132 136.06848863135124 0.0 0.0
217.82293985971984 28.586303712827867 96.35650965555614 201.68576899836737 0.0 0.0
-454.5879701956379 -1062.688696190814 -605.7416785399416 67.28298593271882 0.0 0.0
-327.0057591289706 -908.1760494279955 -458.6305452011084 -75.98318555381329 0.0 0.0
154.48005090973112 -9.414386567891102 54.794270895682125 -202.7911235838119 0.0 0.0
45.39598069665379 8.195093657852368 16.077167225992486 -153.70439255290313 0.0 0.0
100.74851252355957 21.385907858245847 36.64130818915966 -142.05565485399873 0.0 0.0
165.01507822129867 8.676209765924254 52.056495780875274 -146.67252520902977 0.0 0.0
245.21455349406958 -1.1810257979359429 72.60163196823669 -158.71054502705218 0.0 0.0
354.10644158857116 2.2659826458613255 111.8328352253911 -160.78038928566733 0.0 0.0
462.843528504264 18.636688250267635 177.6724110977353 -150.72966970221057 0.0 0.0
555.2496983357158 29.92830037349924 249.7007882696697 -145.07590170404026 0.0 0.0
623.0686795809283 32.36626504896214 303.9410278831155 -140.80983238363598 0.0 0.0
675.3580107644701 38.99054884797955 343.73727610461924 -135.79931500847445 0.0 0.0
723.3187850082293 49.06877699417045 377.1236750486986 -132.3044770491114 0.0 0.0
770.550083460318 62.97483873097388 409.3347654992672 -129.22216234352933 0.0 0.0
814.7491646417319 77.5632967384188 439.45259938350245 -126.5665758558115 0.0 0.0
855.9443606960966 90.39417287873596 466.86220668329236 -123.74127370507036 0.0 0.0
892.5411838467867 99.83954087369919 490.14771108047694 -119.90743709773061 0.0 0.0
925.9884518061642 105.99324398193002 510.07992229910263 -114.37686823275696 0.0 0.0
962.2234852948992 116.70516639407077 533.2509093105681 -107.82048782669227 0.0 0.0
991.6548077266266 122.7066988261169 550.9622097692936 -99.09522271572274 0.0 0.0
991.4587599892085 98.66938036630316 539.4634477540503 -81.10850150728368 0.0 0.0
580.7009674541478 -308.759252666331 141.41894030711003 6.934186558282818e-11 0.0 0.0
991.4587599892764 98.66938036650654 539.4634477541154 81.10850150746705 0.0 0.0
991.6548077263408 122.70669882586944 550.9622097691549 99.09522271590463 0.0 0.0
962.2234852949782 116.70516639438175 533.2509093106165 107.82048782689881 0.0 0.0
925.9884518060308 105.99324398191511 510.0799222989055 114.37686823293576 0.0 0.0
892.5411838462263 99.83954087311695 490.147711080168 119.90743709768346 0.0 0.0
855.9443606971444 90.39417288018666 466.86220668400733 123.74127370525848 0.0 0.0
814.749164641376 77.56329673810252 439.45259938323335 126.56657585580494 0.0 0.0
770.5500834602155 62.97483873100089 409.3347654991695 129.22216234349963 0.0 0.0
723.3187850079078 49.06877699404478 377.12367504852097 132.3044770491153 0.0 0.0
675.3580107641986 38.990548847926306 343.7372761043788 135.79931500849443 0.0 0.0
623.068679580681 32.36626504893073 303.9410278829159 140.8098323835364 0.0 0.0
555.2496983358079 29.928300374094825 249.70078826966352 145.07590170410305 0.0 0.0
462.84352850323796 18.636688249394574 177.6724110970102 150.7296697021842 0.0 0.0
354.10644158849885 2.2659826465014707 111.83283522547252 160.7803892856985 0.0 0.0
245.2145534934679 -1.1810257983232164 72.60163196797869 158.71054502676373 0.0 0.0
165.015078221119 8.676209765644488 52.05649578073636 146.67252520892052 0.0 0.0
100.74851252358816 21.38590785838235 36.64130818920954 142.05565485372443 0.0 0.0
45.39598069664117 8.195093658009123 16.077167226035552 153.70439255273882 0.0 0.0
154.4800509093024 -9.414386568223268 54.794270895389495 202.79112358360385 0.0 0.0
-327.0057591281843 -908.1760494268319 -458.63054520012 75.98318555389312 0.0 0.0
-232.5351269001848 -758.2639810693245 -342.3321218090639 -84.6614437619265 0.0 0.0
99.97484939113406 -40.036755526920274 23.24905947086599 -197.5994340380599 0.0 0.0
18.297779509762222 1.4390231371488988 5.922660184935785 -166.36805625766414 0.0 0.0
57.47725938257066 21.232407139091077 23.61257820213003 -156.7654111049159 0.0 0.0
104.75793354250614 11.58697102549321 34.87063023353481 -160.62488430857277 0.0 0.0
161.19904101363352 1.2425765019408375 48.56088196428601 -173.99356355918826 0.0 0.0
242.42222710136195 -3.5098268010596634 71.53806370051572 -187.40037967094162 0.0 0.0
347.5701663529202 0.9105173571916079 113.29812459171023 -181.79942770780625 0.0 0.0
447.95137733938316 12.754657889295792 173.3348874441991 -166.7636743699571 0.0 0.0
525.9649861969864 17.221199571023536 229.98745454006016 -157.70657072446042 0.0 0.0
583.8625300927865 21.397181652860002 274.9082116375061 -150.73181623916003 0.0 0.0
631.3313235363535 27.353523912106084 309.6587897255951 -146.52291293304515 0.0 0.0
675.220817094207 38.23198036061275 341.3063567906804 -143.26474462057413 0.0 0.0
714.5330437729012 48.78225419550213 368.4838133862546 -140.54455144988378 0.0 0.0
750.9710837876459 58.30378416916296 392.71850265111436 -137.98034785134962 0.0 0.0
785.2819551596976 66.1467297848835 414.52749377809965 -134.76578019075993 0.0 0.0
818.5078461095668 72.37998873047387 434.9285258186156 -129.4338063833857 0.0 0.0
855.1948024999438 82.12012496377342 458.16076129168493 -121.8657094643784 0.0 0.0
900.3202885183549 100.73466098736696 489.54346424645786 -113.82789587212577 0.0 0.0
922.9359176638684 94.71396653976414 499.0012898483254 -99.8629708383529 0.0 0.0
400.72121098731054 -414.30018731617895 1.4220985714880214 1.0014034046434972e-10 0.0 0.0
922.9359176641449 94.71396654023894 499.0012898485869 99.86297083859401 0.0 0.0
900.3202885181811 100.73466098738581 489.54346424640516 113.82789587242215 0.0 0.0
855.194802500344 82.12012496447485 458.1607612919014 121.86570946479625 0.0 0.0
818.5078461095798 72.37998873042076 434.9285258184785 129.433806383449 0.0 0.0
785.2819551590678 66.14672978444729 414.52749377767947 134.76578019064297 0.0 0.0
750.9710837883765 58.30378417000668 392.71850265170156 137.98034785157077 0.0 0.0
714.5330437719368 48.782254194492054 368.4838133855577 140.54455144976325 0.0 0.0
675.2208170939829 38.23198036053572 341.30635679052705 143.26474462057504 0.0 0.0
631.3313235359958 27.353523911988916 309.65878972536564 146.52291293304745 0.0 0.0
583.8625300923851 21.39718165260908 274.9082116371885 150.73181623918364 0.0 0.0
525.964986196949 17.221199571326196 229.98745453999152 157.70657072443896 0.0 0.0
447.95137733923315 12.75465788957225 173.3348874440844 166.76367436999877 0.0 0.0
347.57016635234845 0.9105173569909555 113.29812459140348 181.79942770784714 0.0 0.0
242.4222271010251 -3.50982680085737 71.53806370049321 187.40037967083742 0.0 0.0
161.19904101349084 1.242576501941754 48.56088196425191 173.9935635589118 0.0 0.0
104.75793354234473 11.58697102527379 34.87063023341914 160.6248843084208 0.0 0.0
57.47725938244671 21.232407138981834 23.612578202059872 156.76541110471405 0.0 0.0
18.29777950983395 1.4390231374216838 5.922660185038839 166.36805625751026 0.0 0.0
99.9748493908235 -40.03675552714216 23.249059470672208 197.5994340378045 0.0 0.0
-232.53512689948676 -758.2639810682848 -342.33212180828474 84.6614437619633 0.0 0.0
-159.10619631196715 -629.0838987192525 -251.44040617798808 -100.66682909588556 0.0 0.0
50.930461963175865 -61.95036328708232 -1.3869042226066917 -186.39942843363946 0.0 0.0
-7.657416951346017 -1.7928209749329134 -2.8349871124708566 -174.23368056587313 0.0 0.0
15.20884262746171 20.06484233224246 10.582333239998517 -167.29739116709484 0.0 0.0
44.68872301807873 14.177291982185652 17.650443936801537 -170.4932691972432 0.0 0.0
77.87727908182687 4.40359157957442 24.571022035274986 -185.19661392055139 0.0 0.0
120.53305059664434 -0.9759094217421302 35.78472865494568 -201.05230027639627 0.0 0.0
186.0256761962301 -4.118443451704473 54.754784505804686 -207.04833769392576 0.0 0.0
275.04704214304036 -9.901990452691763 82.60989590367237 -198.97424579126752 0.0 0.0
364.6926675213152 -17.482056808166018 115.37535378395312 -182.7453941609382 0.0 0.0
431.04722625680085 -15.285769568654494 151.04504914002072 -168.39100159294074 0.0 0.0
477.16311674097034 -5.630724745106416 183.8576288134145 -159.1084733695044 0.0 0.0
517.0619638038443 7.534195497339525 214.74557774632652 -155.44881144593322 0.0 0.0
552.6897231736268 17.326529158837502 242.20510130330368 -153.87940548739073 0.0 0.0
584.5295561499069 25.40133662723583 267.14747690799095 -153.10697156480097 0.0 0.0
616.0290331739765 32.73069422731545 291.26556892102104 -152.71014405324334 0.0 0.0
650.1719466808241 38.88622574929463 316.19666435867595 -149.18722188661172 0.0 0.0
688.1024109313865 43.81443980350071 341.80158774322604 -140.9176941935619 0.0 0.0
736.9394756368065 56.521495701639985 373.5477238997874 -130.62434367952847 0.0 0.0
809.6094706553333 90.53266719495903 429.2522249470266 -124.33089473867908 0.0 0.0
156.91660074094165 -523.711086934461 -169.2270377975997 6.188827228470473e-11 0.0 0.0
809.609470655519 90.53266719537018 429.2522249473069 124.33089473894975 0.0 0.0
736.9394756367678 56.5214957017002 373.54772389983555 130.62434367984974 0.0 0.0
688.1024109319807 43.814439804247094 341.80158774361337 140.91769419387245 0.0 0.0
650.1719466808306 38.8862257492691 316.1966643585865 149.1872218866111 0.0 0.0
616.029033174066 32.73069422727256 291.26556892103224 152.7101440532385 0.0 0.0
584.5295561491004 25.401336626144328 267.14747690746793 153.10697156449382 0.0 0.0
552.689723173107 17.32652915837624 242.2051013029189 153.87940548740744 0.0 0.0
517.06196380368 7.534195497137809 214.74557774620317 155.44881144596806 0.0 0.0
477.16311674104077 -5.630724744693875 183.85762881345332 159.10847336954703 0.0 0.0
431.0472262568715 -15.285769568379937 151.04504914002734 168.3910015929102 0.0 0.0
364.692667521168 -17.482056807729798 115.37535378399768 182.74539416093467 0.0 0.0
275.0470421428032 -9.901990452520035 82.60989590362284 198.9742457913247 0.0 0.0
186.02567619625506 -4.1184434510635 54.7547845060072 207.04833769397388 0.0 0.0
120.53305059624043 -0.9759094223314082 35.78472865464666 201.0523002761285 0.0 0.0
77.87727908192375 4.403591579981737 24.57102203542893 185.1966139203162 0.0 0.0
44.68872301805427 14.17729198213545 17.650443936780636 170.49326919701355 0.0 0.0
15.208842627363156 20.06484233202739 10.582333239903877 167.29739116692332 0.0 0.0
-7.6574169513324115 -1.7928209748421562 -2.834987112439701 174.23368056572096 0.0 0.0
50.930461962919004 -61.950363287140455 -1.3869042227216775 186.39942843332335 0.0 0.0
-159.10619631152625 -629.0838987184679 -251.44040617748541 100.66682909587868 0.0 0.0
-118.09191087981253 -508.33978286537604 -190.04955079301567 -109.849768000866 0.0 0.0
9.84801482430958 -75.56248414295447 -19.41919789121446 -171.3383774259556 0.0 0.0
-31.853248284751373 -3.0812148693661174 -10.476959658164578 -178.02893880134067 0.0 0.0
-25.882294390827862 18.61265549222537 -2.17926493571755 -173.60863758992846 0.0 0.0
-14.578784731528549 16.277102311134676 0.5109767550058151 -175.98911962076312 0.0 0.0
-6.429554359409112 7.893256829000878 0.44316658596174197 -189.27305799777017 0.0 0.0
-2.5397202907413714 1.645184259855479 -0.27163591641692 -206.2528704155029 0.0 0.0
-0.6525568947244622 0.15616314001542353 -0.15046487111249185 -211.62694865005398 0.0 0.0
-0.09982803986137867 -0.0731763855675931 -0.05213779129140228 -204.58196061343756 0.0 0.0
0.09598721473565774 0.0032667561552646163 0.04005965082959406 -194.09953780425104 0.0 0.0
-0.005927409697775943 -0.1861861859524616 -0.13366249349174097 -192.19570763064078 0.0 0.0
-1.0147800543808643 0.4980975414627693 0.00911092926531154 -189.44461393726013 0.0 0.0
-1.865532941373715 0.6131051001610786 0.1326766619158164 -183.0731507036593 0.0 0.0
-1.7543774909518675 1.2167980079705245 0.5000670563762242 -174.8614730722078 0.0 0.0
2.7985485047385055 3.5807243281188903 1.3540328034285096 -168.9045040532261 0.0 0.0
19.31844401730062 8.758923677459464 3.9589499727389494 -163.65055877076566 0.0 0.0
58.87900967169131 18.841987906739618 10.482157521891494 -158.39405453503872 0.0 0.0
141.32424432345036 24.80321311846621 14.37953812707677 -150.26216556376326 0.0 0.0
343.76109753051935 -30.20005398960052 28.96145731384729 -143.80533571234287 0.0 0.0
527.6392138275414 -1.858342612942792 193.92843796265478 -177.20420995519973 0.0 0.0
-439.38236622289025 -730.337668211543 -509.8141906813822 2.0655477328546112e-11 0.0 0.0
527.6392138278304 -1.8583426124366582 193.92843796283864 177.2042099552274 0.0 0.0
343.7610975299963 -30.200053990748714 28.96145731339196 143.8053357130127 0.0 0.0
141.32424432366173 24.803213118526443 14.379538127186521 150.2621655642877 0.0 0.0
58.87900967122395 18.841987905973696 10.482157521416738 158.39405453518827 0.0 0.0
19.31844401666109 8.758923676404464 3.9589499721046764 163.6505587706186 0.0 0.0
2.7985485051687533 3.580724328412238 1.3540328036963984 168.90450405319302 0.0 0.0
-1.7543774912622894 1.2167980071790296 0.5000670559847862 174.86147307239017 0.0 0.0
-1.8655329415908994 0.6131050991622473 0.132676661497662 183.073150703779 0.0 0.0
-1.0147800532190345 0.49809754224292035 0.00911092989387896 189.44461393722668 0.0 0.0
-0.005927409427663122 -0.18618618624802608 -0.1336624935118742 192.19570763056288 0.0 0.0
0.09598721509435393 0.003266756526782544 0.040059651048343525 194.09953780409558 0.0 0.0
-0.09982803957844055 -0.0731763852371703 -0.0521377911020533 204.5819606135209 0.0 0.0
-0.6525568945907239 0.1561631400599608 -0.1504648710553056 211.62694865013142 0.0 0.0
-2.539720290623796 1.6451842600124267 -0.27163591633446993 206.25287041524905 0.0 0.0
-6.4295543592564055 7.893256829214856 0.4431665860714866 189.27305799750278 0.0 0.0
-14.57878473149132 16.27710231114753 0.5109767550202045 175.98911962054106 0.0 0.0
-25.882294390854845 18.61265549210647 -2.179264935760552 173.60863758986733 0.0 0.0
-31.853248284729972 -3.081214869400698 -10.47695965816817 178.02893880125413 0.0 0.0
9.848014824215817 -75.56248414299488 -19.4191978912533 171.3383774257797 0.0 0.0
-118.09191087971823 -508.33978286461206 -190.04955079278164 109.84976800076943 0.0 0.0
-97.34481308950416 -399.22598843432183 -148.90839612095294 -107.40390695248556 0.0 0.0
-17.097848761131644 -83.26280841895681 -30.116379977282683 -159.67136369240328 0.0 0.0
-54.41709241545837 -4.169571266098245 -17.57739291517218 -177.92349932844866 0.0 0.0
-65.40017228997785 17.28202962965373 -14.430297899143593 -175.40423985870677 0.0 0.0
-72.75159629367377 17.622634109900623 -16.540866783655183 -176.43059209471025 0.0 0.0
-89.62669701775847 11.174397176697376 -23.484376478597152 -187.21753698073067 0.0 0.0
-125.5691000834884 4.435940259577902 -36.20727380226514 -202.61615126939142 0.0 0.0
-187.21485276904454 4.336775805381941 -55.08490549754913 -207.2802382043801 0.0 0.0
-275.05828856496623 9.6640910614568 -82.71675742597003 -198.97174692561205 0.0 0.0
-364.5364768779788 17.47323261353605 -115.31487323514725 -182.70842714495814 0.0 0.0
-431.60176305034565 15.537924707907635 -150.9461322854769 -168.4825360369992 0.0 0.0
-477.40997458412716 5.398695417396517 -184.35329287455585 -158.8987637784452 0.0 0.0
-518.128507820718 -7.24461542242603 -215.78438999064997 -155.0043501882888 0.0 0.0
-553.4023250675843 -14.909561959897289 -242.25305260032152 -153.1584612366985 0.0 0.0
-579.933178579181 -18.046243413687264 -260.99138375832285 -152.8046578936487 0.0 0.0
-595.8526496208708 -16.154023835086036 -268.77672842780913 -155.1670637682664 0.0 0.0
-598.9720722894385 -9.25411370621184 -263.20904380060045 -160.20034212626302 0.0 0.0
-593.9450485107461 -2.1423556867147227 -243.152845043669 -170.5667732725729 0.0 0.0
-577.6485801558576 40.78602968560088 -191.8243751256099 -183.02022092731553 0.0 0.0
-326.9070559685364 106.6405410518583 -33.931388477474385 -132.4190514657187 0.0 0.0
-977.2498605428095 -961.9669055445789 -972.636885962535 -1.2853718089900212e-10 0.0 0.0
-326.9070559689378 106.64054105168793 -33.9313884777232 132.41905146644623 0.0 0.0
-577.6485801562587 40.786029684757324 -191.82437512595234 183.02022092750894 0.0 0.0
-593.9450485111203 -2.142355687363917 -243.15284504392378 170.5667732728586 0.0 0.0
-598.9720722892182 -9.254113706262785 -263.20904380038667 160.20034212618958 0.0 0.0
-595.8526496213746 -16.15402383591318 -268.7767284281496 155.16706376842038 0.0 0.0
-579.93317857793 -18.04624341224543 -260.991383757402 152.8046578935888 0.0 0.0
-553.4023250679217 -14.909561960803657 -242.2530526006023 153.15846123671076 0.0 0.0
-518.1285078201969 -7.244615422157114 -215.78438999018374 155.00435018824697 0.0 0.0
-477.4099745836377 5.3986954178127124 -184.35329287416081 158.8987637786311 0.0 0.0
-431.6017630498375 15.53792470804637 -150.94613228511716 168.48253603693976 0.0 0.0
-364.5364768772994 17.473232613585004 -115.31487323486395 182.70842714497127 0.0 0.0
-275.0582885643615 9.664091061448405 -82.71675742576579 198.97174692570184 0.0 0.0
-187.21485276866184 4.336775805219309 -55.08490549747384 207.2802382043413 0.0 0.0
-125.569100083212 4.435940259487922 -36.20727380221005 202.61615126919696 0.0 0.0
-89.62669701743947 11.174397176836337 -23.48437647846426 187.21753698049167 0.0 0.0
-72.75159629345865 17.6226341100704 -16.54086678354347 176.4305920945041 0.0 0.0
-65.40017228996226 17.282029629628763 -14.430297899150316 175.40423985848616 0.0 0.0
-54.417092415413016 -4.1695712660590445 -17.577392915149865 177.9234993282835 0.0 0.0
-17.097848761148306 -83.26280841897227 -30.11637997729652 159.67136369220725 0.0 0.0
-97.34481308939189 -399.2259884338375 -148.90839612077067 107.40390695243939 0.0 0.0
-79.91104359034046 -305.7130580611297 -115.68723049544104 -98.6133818263644 0.0 0.0
-35.17457456578835 -84.25340601814348 -35.826253392859556 -148.3383586874986 0.0 0.0
-75.35791469324984 -5.165272002290438 -24.152511273819115 -174.0289530247646 0.0 0.0
-102.96807530068433 15.848825019138625 -26.154344004343034 -172.44431626226012 0.0 0.0
-129.82794628765183 18.47957578218526 -33.33307687453124 -172.8759932692082 0.0 0.0
-171.97766942405156 14.306419071106232 -47.006296979745706 -180.84305770851591 0.0 0.0
-244.81032087528027 6.086281795390824 -71.8885730487785 -186.80297520011237 0.0 0.0
-347.7936366234537 -1.0803705846295024 -113.58085415418387 -182.0661303246477 0.0 0.0
-448.0029365648803 -13.006622869431808 -173.43360975301522 -166.81932968782849 0.0 0.0
-525.9179387589031 -17.27450695132321 -229.97955469770199 -157.65720142242301 0.0 0.0
-583.8324360162559 -21.35442985865923 -274.8905246836502 -150.6664187702435 0.0 0.0
-631.5118534030536 -27.24885047887704 -309.7803627394785 -146.24925510321924 0.0 0.0
-675.8033724615152 -37.87134832529091 -341.5661442869028 -142.46000963226146 0.0 0.0
-714.53574180004 -47.02275451133772 -367.8768287813143 -139.28013037516286 0.0 0.0
-745.9646474442666 -51.917908684779945 -387.4191736986761 -137.57787717862408 0.0 0.0
-766.3148044850238 -49.91008745111694 -397.2327688704569 -138.44986844280925 0.0 0.0
-774.0207118255452 -41.4499502208359 -396.8081259899594 -142.48606589430764 0.0 0.0
-768.2921396765485 -28.918124473132565 -387.24464193394294 -149.78358854528494 0.0 0.0
-727.8761197321741 9.425774971451915 -349.0732187149519 -158.52896629040356 0.0 0.0
-651.273140140299 71.73526814022054 -283.47009056064354 -164.66221175254367 0.0 0.0
-1720.6300146662709 -1246.5098497903866 -1441.6621178809773 3.271338755439501e-11 0.0 0.0
-651.2731401406204 71.73526813962332 -283.47009056084556 164.6622117528198 0.0 0.0
-727.8761197318397 9.425774971616889 -349.0732187147595 158.52896629075337 0.0 0.0
-768.2921396761435 -28.918124472915736 -387.2446419336242 149.78358854538652 0.0 0.0
-774.0207118253762 -41.449950220587354 -396.8081259898986 142.48606589436963 0.0 0.0
-766.314804485182 -49.91008745142718 -397.23276887056727 138.44986844270218 0.0 0.0
-745.9646474435199 -51.91790868412415 -387.4191736981558 137.5778771786375 0.0 0.0
-714.5357417997595 -47.02275451126519 -367.8768287811813 139.28013037516416 0.0 0.0
-675.8033724616021 -37.871348325768196 -341.5661442870957 142.4600096325118 0.0 0.0
-631.5118534028927 -27.248850478967782 -309.78036273932173 146.2492551031928 0.0 0.0
-583.8324360158826 -21.354429858501447 -274.89052468342 150.66641877021192 0.0 0.0
-525.9179387585375 -17.274506951344332 -229.97955469739543 157.6572014223613 0.0 0.0
-448.0029365646735 -13.006622869750455 -173.4336097528407 166.81932968792378 0.0 0.0
-347.79363662278286 -1.0803705842847742 -113.58085415378926 182.06613032467084 0.0 0.0
-244.810320874579 6.086281795568613 -71.88857304852547 186.80297519993817 0.0 0.0
-171.97766942371703 14.306419071192288 -47.00629697962392 180.84305770828243 0.0 0.0
-129.82794628764404 18.479575782018394 -33.333076874579675 172.87599326902978 0.0 0.0
-102.96807530057943 15.848825019155413 -26.15434400430817 172.44431626205775 0.0 0.0
-75.35791469316727 -5.165272002250142 -24.152511273782793 174.02895302465348 0.0 0.0
-35.17457456579575 -84.25340601816801 -35.82625339286884 148.33835868741824 0.0 0.0
-79.91104359016283 -305.71305806069626 -115.68723049525771 98.61338182624192 0.0 0.0
-64.5847964618007 -226.37558768576378 -87.28811524426932 -86.98303472917473 0.0 0.0
-48.604241743223305 -79.96813647410413 -38.57206304886249 -135.55300379846298 0.0 0.0
-94.69683104590264 -5.825357631831586 -30.15491511294011 -165.9926839760475 0.0 0.0
-139.01003650171938 14.466203396050492 -37.33619104021331 -165.93100809151966 0.0 0.0
-184.59448116080688 18.21974088821252 -49.82450964654207 -163.45316021540327 0.0 0.0
-250.39005615674074 13.970270768690428 -70.93524392631345 -163.96244798134825 0.0 0.0
-354.9893496738099 0.9739112490067665 -111.48097473138719 -163.6002007080795 0.0 0.0
-463.06545355827893 -18.930507565209012 -177.8408266580742 -151.31872192058398 0.0 0.0
-555.2774759015789 -30.196216927494053 -249.79258771244025 -145.08675261664303 0.0 0.0
-623.0563117049747 -32.39316823827434 -303.96683766609505 -140.78090102091926 0.0 0.0
-675.2257602065894 -38.86119746401905 -343.6308589787625 -135.74647339894085 0.0 0.0
-723.2562733592604 -48.80521321936757 -377.0064805643342 -132.00962575441704 0.0 0.0
-770.8255611691311 -62.60409336872128 -409.3459718603882 -128.279062678484 0.0 0.0
-814.9673515751831 -76.5163842972151 -439.1742495429313 -124.94486575536445 0.0 0.0
-852.6259363124204 -85.97637924891463 -463.26858451974056 -122.91959787498756 0.0 0.0
-878.0266089076924 -87.07560958538177 -476.81175564595094 -123.78446914934982 0.0 0.0
-887.9337874607975 -77.25714263192631 -476.97376108598644 -128.44978814048417 0.0 0.0
-872.1558230157927 -49.16627071594729 -455.29005725339135 -135.31731901659293 0.0 0.0
-825.1365749032307 1.1443471574888093 -407.7092154830491 -141.38024160264217 0.0 0.0
-703.3592785248886 110.84376566840163 -297.27372113245195 -146.07315027313828 0.0 0.0
-2164.7097826147055 -1486.6873353030774 -1793.7436802582456 -2.8137492336099967e-12 0.0 0.0
-703.3592785251493 110.84376566796493 -297.2737211326893 146.07315027339934 0.0 0.0
-825.1365749026725 1.1443471579145097 -407.7092154826287 141.3802416028824 0.0 0.0
-872.1558230146769 -49.1662707149525 -455.2900572526356 135.31731901674777 0.0 0.0
-887.9337874616639 -77.25714263298391 -476.9737610865981 128.44978814070282 0.0 0.0
-878.0266089061906 -87.0756095838548 -476.81175564490786 123.78446914915506 0.0 0.0
-852.6259363126786 -85.97637924948299 -463.2685845198708 122.9195978751784 0.0 0.0
-814.9673515748244 -76.51638429699241 -439.17424954268654 124.94486575540603 0.0 0.0
-770.8255611692717 -62.60409336923264 -409.3459718605306 128.27906267857904 0.0 0.0
-723.256273358934 -48.80521321921735 -377.0064805640945 132.00962575437228 0.0 0.0
-675.225760206897 -38.86119746477576 -343.63085897900515 135.74647339907833 0.0 0.0
-623.0563117041953 -32.39316823768229 -303.9668376654811 140.78090102076888 0.0 0.0
-555.27747590127 -30.19621692762089 -249.7925877121238 145.08675261665064 0.0 0.0
-463.06545355765724 -18.930507565064133 -177.84082665764856 151.31872192065268 0.0 0.0
-354.9893496732372 0.9739112491523545 -111.48097473108808 163.60020070807968 0.0 0.0
-250.39005615623776 13.97027076864957 -70.93524392619943 163.96244798102103 0.0 0.0
-184.59448116048554 18.21974088829262 -49.82450964643108 163.45316021516635 0.0 0.0
-139.01003650156986 14.466203396053338 -37.336191040173794 165.9310080913692 0.0 0.0
-94.6968310458461 -5.82535763186751 -30.154915112932468 165.9926839759867 0.0 0.0
-48.60424174320694 -79.96813647410072 -38.572063048856535 135.55300379841574 0.0 0.0
-64.58479646179524 -226.37558768549377 -87.28811524418667 86.98303472902025 0.0 0.0
-52.55834890697081 -160.07318392726256 -63.78945985027001 -74.33361114114916 0.0 0.0
-59.07960494961843 -71.8365053066596 -39.2748330768834 -120.8011340818517 0.0 0.0
-112.88677809091368 -5.990327314950668 -35.6636826372176 -153.97893061401527 0.0 0.0
-173.03974758356517 12.534928386370417 -48.15588457654985 -154.43388256869233 0.0 0.0
-237.61071239048061 17.13800983709035 -65.89028842187614 -150.149513276297 0.0 0.0
-330.56106425015645 11.983322705521726 -96.14890168621494 -145.2365578163965 0.0 0.0
-444.03271704314596 -11.99817396196783 -155.7157734124528 -133.3980860970771 0.0 0.0
-549.86153725521 -32.442232349167696 -236.56382612038377 -127.21826416009773 0.0 0.0
-631.907294780404 -39.55234383798935 -306.5653622725632 -125.22696473660469 0.0 0.0
-689.4404444113882 -47.358314115170195 -355.32673946160764 -121.278751990023 0.0 0.0
-743.1678468021117 -55.57638616718806 -392.1824598491071 -119.16356999209881 0.0 0.0
-793.8622315085435 -68.71673202610388 -426.18726673282225 -116.15950992873243 0.0 0.0
-845.242026802506 -86.59092311102839 -461.46512648811574 -112.76877864356308 0.0 0.0
-895.1849931413446 -105.57467912517275 -496.20984884800237 -109.51760523176756 0.0 0.0
-939.2207316167293 -120.77017294851575 -526.0858635928994 -107.23978506220134 0.0 0.0
-970.3683519346184 -124.97965431680055 -543.9842267418499 -107.86395889888828 0.0 0.0
-977.7956380863744 -111.57950639320859 -541.2532238456744 -111.89534120204422 0.0 0.0
-951.7435320497899 -69.74289998298806 -507.6933904150792 -118.0182215559574 0.0 0.0
-880.3977699305494 7.8933889224073965 -434.44934435196114 -122.90200114327969 0.0 0.0
-732.7007588125443 145.54973398821684 -295.34551619182315 -125.96717691842059 0.0 0.0
-2512.4393998549945 -1729.0057023796876 -2095.5673721777366 4.132516551180743e-11 0.0 0.0
-732.7007588124975 145.54973398809804 -295.3455161918595 125.96717691861733 0.0 0.0
-880.3977699299113 7.893388922852083 -434.4493443514839 122.90200114354428 0.0 0.0
-951.7435320489813 -69.74289998225977 -507.6933904144796 118.0182215561578 0.0 0.0
-977.7956380870561 -111.57950639408347 -541.2532238462551 111.89534120212903 0.0 0.0
-970.3683519344709 -124.97965431661224 -543.9842267417176 107.8639588988896 0.0 0.0
-939.2207316156185 -120.7701729475387 -526.0858635920501 107.23978506197989 0.0 0.0
-895.1849931411718 -105.57467912526423 -496.2098488478716 109.51760523193289 0.0 0.0
-845.2420268018021 -86.59092311047891 -461.46512648769385 112.76877864362301 0.0 0.0
-793.8622315086751 -68.71673202650645 -426.187266732927 116.15950992876687 0.0 0.0
-743.1678468021339 -55.57638616747951 -392.1824598491453 119.1635699921093 0.0 0.0
-689.4404444111112 -47.35831411510709 -355.32673946138743 121.2787519899216 0.0 0.0
-631.9072947798259 -39.552343837698466 -306.5653622720696 125.2269647365255 0.0 0.0
-549.8615372548085 -32.44223234922511 -236.56382611999942 127.2182641601 0.0 0.0
-444.0327170424859 -11.998173961704564 -155.7157734120215 133.3980860970336 0.0 0.0
-330.56106424972825 11.983322705496331 -96.1489016860863 145.2365578162835 0.0 0.0
-237.61071239013756 17.13800983725723 -65.89028842172924 150.14951327610555 0.0 0.0
-173.03974758338657 12.534928386406115 -48.15588457648636 154.43388256852958 0.0 0.0
-112.88677809080573 -5.990327314904858 -35.663682637171235 153.9789306139164 0.0 0.0
-59.07960494957904 -71.83650530667778 -39.27483307687704 120.80113408182396 0.0 0.0
-52.55834890683569 -160.07318392701035 -63.78945985015379 74.33361114100843 0.0 0.0
-43.90532004602264 -106.25503608323507 -45.04810683877731 -61.255186167422394 0.0 0.0
-67.45139478093868 -61.22083336692877 -38.60166844436022 -104.11324704528273 0.0 0.0
-130.07092685456266 -5.519583172524114 -40.67779829441325 -138.01524708497104 0.0 0.0
-205.3346696856584 10.526946733838857 -58.43459501197544 -138.9713002953002 0.0 0.0
-288.2132498076177 13.305506547135392 -82.38768809259608 -130.82324918289387 0.0 0.0
-403.1606063644608 4.05904867097607 -124.62645596912287 -120.0466194757537 0.0 0.0
-518.3437572818227 -24.269546743477072 -200.61548032069086 -107.48988774240246 0.0 0.0
-617.2057166243906 -40.11956516466461 -285.5653225856097 -105.54129513990884 0.0 0.0
-684.570386929652 -51.00368015803782 -349.674082666842 -103.50387397266829 0.0 0.0
-744.7567681353846 -59.11733185876518 -394.17634345910267 -103.0714452433146 0.0 0.0
-799.3485057134988 -71.52251911212983 -431.1475175314342 -101.65988845826891 0.0 0.0
-853.7806248511384 -88.73397123416099 -467.98649783360804 -99.22695534260441 0.0 0.0
-909.3604263296813 -110.50261505985021 -506.9189983851764 -96.31845031608577 0.0 0.0
-964.1005573979817 -133.59065054112395 -545.9101429839882 -93.4252408442355 0.0 0.0
-1014.7408990903616 -154.63909199163314 -581.8517561443476 -91.07681916330861 0.0 0.0
-1050.9641346274464 -163.5705122482237 -604.6653021230659 -90.72427614099068 0.0 0.0
-1056.4999393152384 -144.69270225660924 -598.3271203360791 -93.88979800013874 0.0 0.0
-1015.4011827721745 -86.53125465940593 -549.2233187062737 -99.19961735093489 0.0 0.0
-918.673346532031 17.157654577944953 -450.1053798200652 -103.62044037180198 0.0 0.0
-753.1694551943447 172.997786627018 -291.58588957152404 -108.75751062519916 0.0 0.0
-2814.052418646056 -1961.6428871998964 -2367.4709974240554 1.1294076784906792e-10 0.0 0.0
-753.1694551936612 172.99778662767187 -291.58588957104763 108.75751062530176 0.0 0.0
-918.6733465314157 17.157654578421898 -450.10537981972783 103.6204403720262 0.0 0.0
-1015.4011827715922 -86.531254658861 -549.2233187058883 99.19961735098244 0.0 0.0
-1056.4999393145238 -144.692702255995 -598.3271203356297 93.88979800014693 0.0 0.0
-1050.9641346282845 -163.57051224931448 -604.665302123558 90.72427614115924 0.0 0.0
-1014.7408990885095 -154.63909198974477 -581.8517561430817 91.07681916314203 0.0 0.0
-964.100557397096 -133.59065054031709 -545.9101429833288 93.42524084401408 0.0 0.0
-909.3604263296598 -110.50261506014957 -506.9189983852364 96.31845031621764 0.0 0.0
-853.7806248511959 -88.73397123449043 -467.98649783366636 99.22695534273493 0.0 0.0
-799.3485057135188 -71.52251911236716 -431.1475175314715 101.65988845820996 0.0 0.0
-744.7567681357983 -59.11733185950889 -394.17634345932896 103.07144524330698 0.0 0.0
-684.5703869292897 -51.00368015794167 -349.67408266650455 103.50387397262202 0.0 0.0
-617.2057166237099 -40.11956516424177 -285.5653225849926 105.54129513976763 0.0 0.0
-518.3437572808606 -24.269546742769784 -200.61548031997503 107.48988774230945 0.0 0.0
-403.1606063639731 4.059048671034411 -124.62645596889797 120.04661947573841 0.0 0.0
-288.2132498073583 13.305506546849239 -82.38768809263486 130.82324918268918 0.0 0.0
-205.33466968556505 10.526946733741191 -58.43459501197565 138.97130029520144 0.0 0.0
-130.07092685438417 -5.519583172357963 -40.67779829430946 138.0152470849524 0.0 0.0
-67.45139478090736 -61.22083336694702 -38.60166844435631 104.11324704527534 0.0 0.0
-43.905320045976055 -106.25503608308522 -45.04810683871838 61.255186167283156 0.0 0.0
-38.281643596577275 -64.61642177760267 -30.869419612253978 -47.98890878759529 0.0 0.0
-73.99871711231548 -49.29029829679861 -36.98670462273422 -85.65970165394762 0.0 0.0
-146.22638763600767 -4.4491543081576985 -45.203112202931635 -118.17341661747292 0.0 0.0
-236.13859503395244 7.961597608956511 -68.45102608008914 -119.12778598583054 0.0 0.0
-341.71163246424004 8.966927899824885 -99.54550647172077 -108.89543527305499 0.0 0.0
-462.10295331082057 -10.499611934220072 -156.64876488708595 -90.22107329185829 0.0 0.0
-580.0430983707612 -32.40323337973224 -242.38704200126358 -84.24309031255895 0.0 0.0
-662.5233957688702 -48.52974175680401 -324.8494682947774 -83.49015575516108 0.0 0.0
-730.7397896439691 -58.94439409609419 -383.0546551685004 -83.8732334591563 0.0 0.0
-790.7756021887221 -71.28723805112926 -426.2656705255515 -84.07953491070074 0.0 0.0
-848.707616437414 -87.63032755768405 -465.3749759082802 -83.31378478249013 0.0 0.0
-907.1190094533446 -108.74176514839121 -505.6742157425124 -81.46485700085691 0.0 0.0
-966.6584435877621 -133.94434216657078 -548.1562194191117 -79.1218219004875 0.0 0.0
-1025.208293792619 -161.37806459958847 -591.1424054867585 -76.7239870486294 0.0 0.0
-1080.4698223839368 -186.13483001712183 -631.1560173156596 -74.47973832286027 0.0 0.0
-1122.6968146257755 -199.5874261451873 -659.1570877310212 -73.1669711854362 0.0 0.0
-1128.9705554585744 -180.81847168877627 -653.339542871111 -74.56164374255148 0.0 0.0
-1073.7122996888024 -106.69894934015576 -589.2815927333329 -79.11409402895681 0.0 0.0
-951.4262091469482 23.700144196481773 -463.7802103192486 -84.92178277743953 0.0 0.0
-764.0621430594142 200.66074303616165 -282.75693301918596 -94.09766092947629 0.0 0.0
-3080.145235528712 -2177.112754586017 -2611.9560990060136 3.158007189085765e-11 0.0 0.0
-764.0621430588151 200.66074303668768 -282.7569330186825 94.09766092961053 0.0 0.0
-951.4262091466649 23.70014419669367 -463.7802103190796 84.92178277758417 0.0 0.0
-1073.7122996886228 -106.69894934004152 -589.2815927332055 79.11409402895775 0.0 0.0
-1128.970555457621 -180.81847168786422 -653.3395428704695 74.56164374247322 0.0 0.0
-1122.6968146247539 -199.58742614430807 -659.1570877302765 73.16697118550091 0.0 0.0
-1080.4698223846272 -186.13483001796052 -631.1560173161367 74.47973832293228 0.0 0.0
-1025.2082937917903 -161.37806459885977 -591.142405486112 76.7239870484957 0.0 0.0
-966.6584435871678 -133.94434216616207 -548.1562194187518 79.12182190044314 0.0 0.0
-907.1190094533822 -108.7417651486656 -505.6742157425237 81.46485700088681 0.0 0.0
-848.7076164371782 -87.63032755764269 -465.37497590812774 83.31378478235278 0.0 0.0
-790.7756021886811 -71.28723805138674 -426.2656705254807 84.07953491071375 0.0 0.0
-730.7397896439268 -58.94439409637479 -383.05465516839683 83.87323345914089 0.0 0.0
-662.5233957684931 -48.52974175673319 -324.8494682943932 83.49015575516228 0.0 0.0
-580.0430983698828 -32.4032333791063 -242.38704200054087 84.24309031241002 0.0 0.0
-462.10295331031716 -10.499611934102601 -156.64876488677675 90.2210732917607 0.0 0.0
-341.71163246380627 8.966927899837508 -99.54550647160677 108.8954352730091 0.0 0.0
-236.1385950339611 7.9615976085109255 -68.45102608022536 119.12778598576412 0.0 0.0
-146.22638763580812 -4.449154308062092 -45.20311220284304 118.173416617393 0.0 0.0
-73.99871711221132 -49.29029829671545 -36.98670462267803 85.6597016538701 0.0 0.0
-38.2816435965814 -64.6164217775306 -30.869419612233592 47.988908787454044 0.0 0.0
-35.017216191845705 -34.97377817905034 -20.997298311268803 -34.855352075870414 0.0 0.0
-78.50614336702486 -37.06723889472291 -34.67201467852433 -65.65691015243794 0.0 0.0
-161.12156091855599 -3.0059197019606545 -49.23824418615498 -94.36758050883634 0.0 0.0
-266.3553586223586 4.676651385707169 -78.47775035665836 -94.95531833400236 0.0 0.0
-392.8743649243766 1.1695256562576608 -118.61655150044531 -81.59908980466813 0.0 0.0
-520.6842368256991 -20.65310329870202 -189.22757709442396 -65.20647668667667 0.0 0.0
-623.4072753749848 -40.21164920190684 -279.69048316249376 -62.557251731793166 0.0 0.0
-700.4476682271983 -53.57848926757983 -355.1746561624944 -62.818114843239805 0.0 0.0
-768.7075484605491 -67.71214476846032 -410.58870931423235 -63.82128924086943 0.0 0.0
-831.3601734645295 -83.61036887282575 -454.38604539256085 -64.51317311346516 0.0 0.0
-892.7058750019428 -103.86356965930423 -496.3746298246591 -64.18848587574091 0.0 0.0
-955.3278639621109 -128.90991779019475 -540.504313099529 -62.87523339430703 0.0 0.0
-1018.6295605228781 -158.2808146261503 -586.893548168542 -61.07409324300722 0.0 0.0
-1080.3471028726844 -187.18532994336317 -632.1678281006749 -59.37654911476015 0.0 0.0
-1137.34368253747 -213.92586570452258 -673.9919289379807 -57.51875065354686 0.0 0.0
-1184.1373786796862 -232.08587993817915 -706.5360567410592 -55.42242237913846 0.0 0.0
-1198.6137734995068 -220.03866885813164 -708.1504385968719 -54.645813334998884 0.0 0.0
-1137.450399486303 -138.49084170091263 -637.523692314544 -58.05251591068938 0.0 0.0
-986.4207416431245 21.683462549390825 -482.6246713474652 -66.34417032040746 0.0 0.0
-762.8154442177565 235.2959814128861 -264.4358176375682 -80.64646726850096 0.0 0.0
-3310.9030253910946 -2365.882061875933 -2824.7335282991753 3.091926714660076e-11 0.0 0.0
-762.8154442172327 235.2959814133401 -264.43581763708363 80.64646726863289 0.0 0.0
-986.4207416431492 21.683462549298312 -482.6246713475298 66.34417032050631 0.0 0.0
-1137.4503994859112 -138.49084170059825 -637.5236923141471 58.0525159107427 0.0 0.0
-1198.6137734992617 -220.03866885795688 -708.1504385967659 54.6458133348909 0.0 0.0
-1184.1373786788217 -232.08587993741762 -706.5360567403986 55.42242237910368 0.0 0.0
-1137.343682537927 -213.92586570518202 -673.9919289382041 57.518750653616955 0.0 0.0
-1080.3471028723848 -187.1853299432585 -632.1678281003262 59.376549114836656 0.0 0.0
-1018.629560522728 -158.28081462620247 -586.8935481685164 61.07409324303872 0.0 0.0
-955.3278639622981 -128.90991779061972 -540.5043130996163 62.87523339436329 0.0 0.0
-892.7058750014746 -103.86356965904643 -496.37462982437404 64.18848587562852 0.0 0.0
-831.3601734639939 -83.61036887257026 -454.38604539219546 64.51317311347402 0.0 0.0
-768.7075484605803 -67.7121447687689 -410.5887093142123 63.82128924082552 0.0 0.0
-700.4476682271091 -53.57848926784861 -355.17465616229674 62.818114843298154 0.0 0.0
-623.4072753745548 -40.21164920180196 -279.6904831620358 62.55725173171572 0.0 0.0
-520.6842368252956 -20.65310329867838 -189.22757709409498 65.20647668652249 0.0 0.0
-392.87436492386087 1.1695256563398924 -118.61655150026745 81.59908980465413 0.0 0.0
-266.3553586223486 4.676651385282712 -78.477750356781 94.95531833391763 0.0 0.0
-161.12156091834368 -3.005919701836917 -49.23824418605415 94.36758050876024 0.0 0.0
-78.50614336691959 -37.067238894648945 -34.67201467847056 65.65691015239268 0.0 0.0
-35.01721619179489 -34.97377817900194 -20.997298311239046 34.855352075803594 0.0 0.0
-32.93201533425677 -17.004885475652735 -14.981070242972848 -22.591933860948004 0.0 0.0
-80.20512057351763 -25.620744288089806 -31.747759458482232 -44.38979955091329 0.0 0.0
-174.34376372126934 -1.7084981921039915 -52.815678574012 -66.14065848632751 0.0 0.0
-297.02060449981764 0.7107692500254301 -88.81561275798477 -66.00219895383152 0.0 0.0
-439.8335494617875 -10.40425177753436 -140.59743566814444 -51.71641764806743 0.0 0.0
-567.9956229736656 -29.365770064569617 -221.7077312316644 -42.096755790762515 0.0 0.0
-654.3941740298465 -45.467130259778706 -309.7865630705985 -41.43824680338306 0.0 0.0
-732.5083657682251 -59.752866111986265 -380.77645982815477 -42.55233892638479 0.0 0.0
-801.7568143348669 -77.0330601879082 -434.32343034966215 -43.56302608355171 0.0 0.0
-867.291549733897 -96.25383017772964 -479.6553804640997 -44.3078515522011 0.0 0.0
-932.6914999200098 -120.21769684984045 -525.1007937990152 -44.29794627716063 0.0 0.0
-999.1085646738131 -149.2358256805265 -573.008668572895 -43.47783887643432 0.0 0.0
-1066.4495909549146 -181.1785014336368 -622.6660608946943 -42.37804736355641 0.0 0.0
-1130.6834746995173 -213.34861230020962 -670.8366288287907 -41.2409264892983 0.0 0.0
-1188.0808854756351 -239.82774742597115 -712.740668172798 -39.94659953766458 0.0 0.0
-1232.9399136677957 -255.69393402774833 -743.0982747742842 -37.95138621185406 0.0 0.0
-1256.94834960106 -253.22392468225212 -754.05551226488 -35.50112540641568 0.0 0.0
-1223.12974776085 -197.82101559556347 -710.1222352454362 -36.217300781506694 0.0 0.0
-1043.4034151891765 -6.780274261638397 -525.5889000298221 -46.15064366808688 0.0 0.0
-738.5299278874977 289.77456744406743 -224.88224177919537 -67.2419252913817 0.0 0.0
-3492.144297679458 -2510.1658467787875 -2990.030093013939 5.874944974948448e-11 0.0 0.0
-738.5299278875191 289.77456744399376 -224.8822417791911 67.24192529147442 0.0 0.0
-1043.4034151888832 -6.780274261396073 -525.5889000296688 46.150643668175746 0.0 0.0
-1223.1297477605121 -197.8210155953156 -710.1222352452202 36.21730078152785 0.0 0.0
-1256.9483496013038 -253.22392468259943 -754.0555122651198 35.501125406480234 0.0 0.0
-1232.939913668464 -255.69393402852208 -743.0982747747374 37.95138621178253 0.0 0.0
-1188.0808854749653 -239.82774742545942 -712.7406681723002 39.94659953772132 0.0 0.0
-1130.6834746992392 -213.34861230009977 -670.8366288285195 41.24092648928094 0.0 0.0
-1066.4495909551108 -181.1785014340437 -622.666060894878 42.378047363582134 0.0 0.0
-999.108564673564 -149.23582568050185 -573.0086685726931 43.47783887643541 0.0 0.0
-932.691499920244 -120.21769685032241 -525.1007937991892 44.29794627714578 0.0 0.0
-867.2915497329786 -96.25383017704016 -479.6553804634555 44.30785155211548 0.0 0.0
-801.7568143348076 -77.03306018816536 -434.323430349591 43.563026083610055 0.0 0.0
-732.5083657679343 -59.752866111991395 -380.77645982783065 42.552338926356306 0.0 0.0
-654.3941740293758 -45.467130259625456 -309.78656307011966 41.438246803323175 0.0 0.0
-567.9956229733415 -29.365770064610945 -221.70773123132724 42.096755790651436 0.0 0.0
-439.83354946131556 -10.404251777563413 -140.5974356679783 51.71641764802263 0.0 0.0
-297.0206044994628 0.7107692502809515 -88.81561275780054 66.00219895380042 0.0 0.0
-174.34376372096358 -1.708498191806287 -52.81567857383095 66.14065848634533 0.0 0.0
-80.20512057349443 -25.62074428818022 -31.747759458502387 44.38979955090238 0.0 0.0
-32.932015334159814 -17.004885475599576 -14.981070242927814 22.591933860859573 0.0 0.0
-29.804638400537055 -9.74254957268079 -11.864156391965349 -12.829046881276257 0.0 0.0
-77.63764346190428 -16.50416983116219 -28.24254398791994 -22.230511944541803 0.0 0.0
-185.2394384857623 -1.4144724110945397 -55.99617326905705 -32.3066907860729 0.0 0.0
-329.4663528880639 -3.0392051150117467 -99.65307321411774 -31.7272062275099 0.0 0.0
-488.6013156592479 -19.317769929325085 -164.0889156193847 -23.107352320357684 0.0 0.0
-602.0435236799242 -36.13247528304979 -251.69266199306674 -21.080300768192167 0.0 0.0
-682.5662178759957 -47.92724738292888 -334.0089442063699 -22.026988518645233 0.0 0.0
-759.7114859045424 -66.58185681998279 -402.34040438208666 -22.670046157261236 0.0 0.0
-830.7749829924261 -86.42729329207637 -455.08028923800623 -23.087471475800438 0.0 0.0
-899.5724328450914 -109.4306776860683 -502.9994864804411 -23.500397454848454 0.0 0.0
-968.773908419769 -136.93997958747315 -551.8877087752606 -23.59447076878583 0.0 0.0
-1039.2620821593036 -168.77649103380512 -603.1908854369424 -23.36534968353585 0.0 0.0
-1109.7700811216325 -204.52130041068375 -656.3201241965963 -22.87301415916167 0.0 0.0
-1177.2201885046857 -238.58026691537938 -707.0394300874786 -22.341306165938988 0.0 0.0
-1234.1894566460821 -264.2691822402204 -748.3520630281944 -21.67402069077824 0.0 0.0
-1274.1413155239507 -275.27680879425424 -773.8463215089457 -20.386971093629164 0.0 0.0
-1294.118541523771 -269.32972545545056 -780.9007973042595 -18.042158916124176 0.0 0.0
-1296.4684512278563 -250.02101919183667 -772.6053397042734 -16.05336276202553 0.0 0.0
-1207.3481790937376 -146.78376184984214 -677.2752904498409 -22.39105548031243 0.0 0.0
-723.6125010541073 333.60064303376595 -195.635684689167 -49.270078846860905 0.0 0.0
-3477.388943783529 -2459.919267144453 -2960.2712810712346 2.8563817977556027e-12 0.0 0.0
-723.6125010538973 333.60064303391596 -195.63568468901667 49.2700788469416 0.0 0.0
-1207.3481790940325 -146.78376185017493 -677.2752904500554 22.39105548040946 0.0 0.0
-1296.4684512275733 -250.02101919162902 -772.6053397040691 16.05336276189854 0.0 0.0
-1294.118541524425 -269.32972545621607 -780.9007973048397 18.04215891609523 0.0 0.0
-1274.141315524478 -275.27680879492175 -773.8463215092496 20.38697109360523 0.0 0.0
-1234.1894566453952 -264.2691822396812 -748.352063027741 21.67402069078349 0.0 0.0
-1177.2201885045147 -238.580266915401 -707.0394300874002 22.34130616600578 0.0 0.0
-1109.7700811210502 -204.5213004102876 -656.3201241961499 22.87301415917929 0.0 0.0
-1039.2620821586568 -168.77649103337458 -603.1908854365037 23.365349683472598 0.0 0.0
-968.7739084197573 -136.93997958772377 -551.8877087752503 23.594470768786927 0.0 0.0
-899.5724328443067 -109.4306776855311 -502.9994864798524 23.500397454805032 0.0 0.0
-830.7749829921445 -86.42729329209105 -455.0802892377972 23.087471475864174 0.0 0.0
-759.7114859039455 -66.58185681967304 -402.34040438164124 22.670046157181474 0.0 0.0
-682.5662178753056 -47.92724738248403 -334.0089442057831 22.026988518595072 0.0 0.0
-602.0435236795615 -36.13247528306816 -251.69266199269475 21.08030076815334 0.0 0.0
-488.60131565867033 -19.317769929158246 -164.08891561907268 23.107352320350675 0.0 0.0
-329.4663528875964 -3.039205114686525 -99.6530732138947 31.727206227616747 0.0 0.0
-185.2394384855478 -1.4144724109843216 -55.99617326895964 32.30669078603278 0.0 0.0
-77.63764346192009 -16.50416983128145 -28.242543987960467 22.230511944504897 0.0 0.0
-29.804638400587944 -9.742549572700966 -11.864156391986674 12.829046881295373 0.0 0.0
-18.767617281298023 -4.813640203423448 -7.074377245416438 -7.999839315776928 0.0 0.0
-66.93761811709189 -9.293820152904214 -22.869431480998834 -9.22933701204176 0.0 0.0
-192.70933957710494 -2.799000893398361 -58.652502141151 -10.9542249616714 0.0 0.0
-369.53797866251784 -15.898143431483696 -115.96688857623644 -9.186987199849161 0.0 0.0
-551.2240880601373 -54.945158566096964 -202.9367625690744 -1.7051398569201552 0.0 0.0
-678.9310082305648 -95.21224288320155 -314.4009208843021 0.7427472547990988 0.0 0.0
-783.5149426796056 -134.2246742620732 -420.90070316095046 0.7680215832980721 0.0 0.0
-893.8266678528638 -187.67700970757977 -521.2762724041631 -0.38228020338269886 0.0 0.0
-1008.6066896979531 -252.17853524220527 -617.5053854260314 -1.7628273733311701 0.0 0.0
-1136.5775014176568 -334.15797353011186 -724.2414206629882 -3.2203743827030546 0.0 0.0
-1282.8735477618113 -438.1377167552246 -849.6448249027143 -4.635626564683669 0.0 0.0
-1447.9804200669282 -565.012416809704 -995.3863210126578 -5.8443687777769195 0.0 0.0
-1627.5015104813297 -708.5939670309457 -1156.481684944989 -6.659434351450583 0.0 0.0
-1813.6159586629783 -860.924537987622 -1325.2721681441292 -7.3891538932139 0.0 0.0
-1992.2789443707406 -1007.9488541048884 -1487.7683358278036 -7.859426424877405 0.0 0.0
-2143.655885276503 -1130.250742060475 -1624.4175492212094 -7.831169348446423 0.0 0.0
-2242.9174140657146 -1203.994237071047 -1710.9856512079373 -6.85872228078906 0.0 0.0
-2268.4156769325473 -1208.6068368536164 -1726.1056378850285 -4.795427046763432 0.0 0.0
-2276.547588988544 -1201.5923136410288 -1725.6812700968526 -8.6962487301525 0.0 0.0
-2273.7976963086467 -1196.7822979862638 -1718.7804160103497 -38.01313592858175 0.0 0.0
-5522.108439528851 -4476.696720319254 -4973.588285064623 -2.7839064387080725e-11 0.0 0.0
-2273.7976963079154 -1196.7822979855375 -1718.7804160096846 38.01313592851335 0.0 0.0
-2276.5475889889976 -1201.592313641563 -1725.6812700970645 8.696248730145378 0.0 0.0
-2268.4156769313213 -1208.6068368524884 -1726.105637883736 4.795427046757311 0.0 0.0
-2242.9174140655023 -1203.9942370709093 -1710.9856512077959 6.8587222806825565 0.0 0.0
-2143.6558852749645 -1130.250742059083 -1624.4175492198144 7.831169348401595 0.0 0.0
-1992.2789443689978 -1007.9488541032898 -1487.7683358263812 7.859426424845047 0.0 0.0
-1813.615958662116 -860.9245379869249 -1325.272168143415 7.389153893272606 0.0 0.0
-1627.5015104798201 -708.5939670296417 -1156.481684943734 6.659434351393394 0.0 0.0
-1447.980420065799 -565.0124168087948 -995.3863210116972 5.844368777762579 0.0 0.0
-1282.8735477608038 -438.1377167544564 -849.6448249019028 4.635626564688991 0.0 0.0
-1136.5775014166059 -334.15797352933214 -724.2414206621295 3.220374382675338 0.0 0.0
-1008.6066896971122 -252.17853524163732 -617.5053854253744 1.7628273733633328 0.0 0.0
-893.8266678518576 -187.67700970685405 -521.2762724034337 0.38228020331352397 0.0 0.0
-783.5149426791381 -134.22467426189883 -420.9007031604423 -0.7680215833494479 0.0 0.0
-678.9310082300431 -95.21224288303141 -314.40092088377446 -0.7427472547971021 0.0 0.0
-551.2240880594254 -54.94515856564516 -202.93676256858677 1.7051398569035214 0.0 0.0
-369.5379786621791 -15.898143431471166 -115.96688857612561 9.18698719991987 0.0 0.0
-192.70933957699532 -2.799000893519466 -58.65250214115441 10.954224961578337 0.0 0.0
-66.93761811697286 -9.293820152908507 -22.869431480964405 9.229337011952122 0.0 0.0
-18.76761728120041 -4.813640203392122 -7.074377245377759 7.999839315983903 0.0 0.0
SCALARS Strain float 6
LOOKUP_TABLE default
0.01286931566665121 -0.0218350476714447 0.0 -0.0010157668520593033 0.0 0.0
0.007900292416683885 -0.0020313749915698495 0.0 -0.006701685232170285 0.0 0.0
0.0024069832661952665 -0.0006105535932421507 0.0 -0.0007140888908774988 0.0 0.0
0.002109752007238922 -0.0008450247206832169 0.0 -2.1573111358814217e-05 0.0 0.0
0.0029298481177939244 -0.0012234660610450556 0.0 0.00011593450579239476 0.0 0.0
0.004693828922994927 -0.002511502646653242 0.0 0.00023303983770619832 0.0 0.0
0.007705329028758968 -0.005020839209498873 0.0 0.00031131976933623437 0.0 0.0
0.012162920181110332 -0.008958614582567003 0.0 0.0003415201358381836 0.0 0.0
0.01823820849926253 -0.014483381611430916 0.0 0.0003296200088930593 0.0 0.0
0.026005821757459524 -0.021614586441209588 0.0 0.0002592797403197813 0.0 0.0
0.035465453639909036 -0.030318313144272725 0.0 0.0001691829090829075 0.0 0.0
0.04659182299997737 -0.04056569814174339 0.0 5.603031727454181e-05 0.0 0.0
0.059345043086546034 -0.05234728326353576 0.0 -0.00012871639166621473 0.0 0.0
0.07367597882225276 -0.06564939313430972 0.0 -0.00033730257554521787 0.0 0.0
0.08945312902100638 -0.08039146442975573 0.0 -0.0006157546419507229 0.0 0.0
0.10630514639520863 -0.0962571609871361 0.0 -0.0009692040494448668 0.0 0.0
0.12350518938495639 -0.11257188551395172 0.0 -0.0013356890887763827 0.0 0.0
0.13994799065478275 -0.12828405844482532 0.0 -0.0015725767570205942 0.0 0.0
0.15425951569757282 -0.1420423225822683 0.0 -0.001504293881588991 0.0 0.0
0.16482311509035064 -0.15229640129487024 0.0 -0.0015654020270131843 0.0 0.0
0.16894662334546065 -0.1564660905766796 0.0 2.2403953692240464e-15 0.0 0.0
0.16482311509033049 -0.1522964012948419 0.0 0.0015654020270209562 0.0 0.0
0.15425951569753063 -0.1420423225822307 0.0 0.0015042938815947688 0.0 0.0
0.1399479906547212 -0.12828405844476595 0.0 0.0015725767570225193 0.0 0.0
0.12350518938488447 -0.11257188551389055 0.0 0.0013356890887752894 0.0 0.0
0.10630514639513344 -0.09625716098705951 0.0 0.0009692040494438748 0.0 0.0
0.08945312902093058 -0.08039146442968746 0.0 0.0006157546419491323 0.0 0.0
0.07367597882217679 -0.0656493931342367 0.0 0.000337302575544215 0.0 0.0
0.059345043086471747 -0.05234728326346373 0.0 0.0001287163916639635 0.0 0.0
0.04659182299990775 -0.04056569814168303 0.0 -5.6030317277191814e-05 0.0 0.0
0.03546545363984855 -0.030318313144215674 0.0 -0.00016918290908299566 0.0 0.0
0.026005821757411222 -0.02161458644116702 0.0 -0.0002592797403226588 0.0 0.0
0.01823820849922566 -0.014483381611397672 0.0 -0.00032962000889147033 0.0 0.0
0.012162920181083507 -0.008958614582538674 0.0 -0.0003415201358393367 0.0 0.0
0.007705329028741152 -0.00502083920948803 0.0 -0.0003113197693351828 0.0 0.0
0.004693828922985319 -0.0025115026466460432 0.0 -0.00023303983770399562 0.0 0.0
0.0029298481177901818 -0.0012234660610443034 0.0 -0.0001159345057911636 0.0 0.0
0.0021097520072375746 -0.0008450247206836584 0.0 2.1573111357256998e-05 0.0 0.0
0.002406983266193246 -0.0006105535932409039 0.0 0.0007140888908772394 0.0 0.0
0.007900292416678268 -0.0020313749915669326 0.0 0.006701685232161348 0.0 0.0
0.01286931566664297 -0.021835047671420582 0.0 0.0010157668520168173 0.0 0.0
0.008858569869759381 -0.019514269110200114 0.0 -0.0005468152018251772 0.0 0.0
0.005211425801934969 -0.0015083527077156221 0.0 -0.00536125615528417 0.0 0.0
0.0016223915746659899 -0.00048271578097316156 0.0 -0.0004634233834834427 0.0 0.0
0.0018754233115646501 -0.000797626801872849 0.0 -0.00020446636668976304 0.0 0.0
0.002546624720604268 -0.0011119216237156062 0.0 -0.00015890399148776313 0.0 0.0
0.004044847847206526 -0.002251383895774552 0.0 -0.00020507466655931634 0.0 0.0
0.0067230082561803 -0.004583778604979531 0.0 -0.0004322784301623788 0.0 0.0
0.010765430739886022 -0.0083064738588184 0.0 -0.0007712990717860543 0.0 0.0
0.016305596655430063 -0.013561821566508045 0.0 -0.0012359217705849742 0.0 0.0
0.023371870687934934 -0.02034705923894119 0.0 -0.0018032752850352764 0.0 0.0
0.031928388326374624 -0.028609557375007928 0.0 -0.0024129125473294315 0.0 0.0
0.0419395049973198 -0.03831079604965993 0.0 -0.0030289617935847254 0.0 0.0
0.05340467585478666 -0.04945454146894203 0.0 -0.003687850111492597 0.0 0.0
0.06631368740066408 -0.062052740843431445 0.0 -0.004405599625629208 0.0 0.0
0.08056143597308368 -0.07603442046709982 0.0 -0.005169233428822254 0.0 0.0
0.09582830200124388 -0.09110893019068254 0.0 -0.00592521894979121 0.0 0.0
0.11146905095953073 -0.10664916998060013 0.0 -0.006487040046013398 0.0 0.0
0.12649701311220882 -0.1216654017456553 0.0 -0.006544059385809563 0.0 0.0
0.139604359513332 -0.13485364073071268 0.0 -0.005846938176837818 0.0 0.0
0.14900794640630713 -0.14456424370498352 0.0 -0.004718757011699754 0.0 0.0
0.15252127107480068 -0.14855836475009832 0.0 5.7098423211776606e-15 0.0 0.0
0.14900794640628823 -0.14456424370496102 0.0 0.004718757011715949 0.0 0.0
0.13960435951329425 -0.13485364073067677 0.0 0.005846938176855506 0.0 0.0
0.12649701311215508 -0.12166540174559887 0.0 0.0065440593858191445 0.0 0.0
0.11146905095946776 -0.10664916998054187 0.0 0.006487040046015091 0.0 0.0
0.09582830200117637 -0.09110893019061198 0.0 0.005925218949786848 0.0 0.0
0.0805614359730152 -0.07603442046703378 0.0 0.005169233428820537 0.0 0.0
0.06631368740059579 -0.06205274084336625 0.0 0.004405599625627681 0.0 0.0
0.05340467585471996 -0.0494545414688757 0.0 0.003687850111488382 0.0 0.0
0.04193950499725746 -0.03831079604960069 0.0 0.003028961793579284 0.0 0.0
0.03192838832631971 -0.028609557374956324 0.0 0.0024129125473235933 0.0 0.0
0.023371870687890754 -0.020347059238900626 0.0 0.0018032752850307072 0.0 0.0
0.016305596655396458 -0.01356182156647606 0.0 0.0012359217705837254 0.0 0.0
0.010765430739861533 -0.008306473858793174 0.0 0.0007712990717822964 0.0 0.0
0.006723008256164668 -0.004583778604965827 0.0 0.00043227843016072526 0.0 0.0
0.004044847847198415 -0.0022513838957681546 0.0 0.000205074666558997 0.0 0.0
0.002546624720601137 -0.0011119216237149335 0.0 0.0001589039914871017 0.0 0.0
0.001875423311563696 -0.0007976268018736765 0.0 0.00020446636668865626 0.0 0.0
0.0016223915746653667 -0.0004827157809726277 0.0 0.00046342338348186445 0.0 0.0
0.005211425801928243 -0.00150835270771247 0.0 0.00536125615527437 0.0 0.0
0.008858569869746586 -0.019514269110175092 0.0 0.0005468152017927303 0.0 0.0
0.006432490991290229 -0.015477580084354021 0.0 -0.003323393369336231 0.0 0.0
0.0036686437480030042 -0.0008257019420526287 0.0 -0.0052925219665951396 0.0 0.0
0.001139388254645113 -0.00027722555346201973 0.0 -0.0004369576105491769 0.0 0.0
0.001598869495873586 -0.0006840031189125499 0.0 -0.0004797382390725459 0.0 0.0
0.0021991104074513797 -0.0009218912350112737 0.0 -0.0004748075025445609 0.0 0.0
0.0034280716586742076 -0.0017647810288091512 0.0 -0.000543746553873347 0.0 0.0
0.005749047846933028 -0.003723220797592636 0.0 -0.0009716943738609419 0.0 0.0
0.009356482276252211 -0.007008605611424365 0.0 -0.0016386065546199603 0.0 0.0
0.014334688017505919 -0.01170926393944001 0.0 -0.0025424378567872746 0.0 0.0
0.02068050431923607 -0.017793548373412255 0.0 -0.0036245302281969318 0.0 0.0
0.028329277447290108 -0.025170065765710632 0.0 -0.004785422510149043 0.0 0.0
0.03723457065668466 -0.03378525113830344 0.0 -0.005940319090700905 0.0 0.0
0.04740645773343827 -0.04365612570417847 0.0 -0.007100290890093682 0.0 0.0
0.05887543698919721 -0.0548350081033032 0.0 -0.00835194667586549 0.0 0.0
0.07157707096003244 -0.06728608476749655 0.0 -0.009698222667668599 0.0 0.0
0.08524633736483991 -0.08077135093737013 0.0 -0.01100234688126587 0.0 0.0
0.09934435860149801 -0.09476435738708389 0.0 -0.011946922495305844 0.0 0.0
0.11299775740364272 -0.10840251253481974 0.0 -0.012050365733687894 0.0 0.0
0.12493352683155716 -0.12045506151149007 0.0 -0.010921268678686761 0.0 0.0
0.13352805308201246 -0.12925048544038867 0.0 -0.008467797037896765 0.0 0.0
0.13677111079683443 -0.13308095159953356 0.0 1.2382456171522449e-14 0.0 0.0
0.13352805308199497 -0.12925048544037077 0.0 0.00846779703792596 0.0 0.0
0.12493352683152292 -0.12045506151145527 0.0 0.010921268678715974 0.0 0.0
0.11299775740359566 -0.10840251253476947 0.0 0.012050365733704889 0.0 0.0
0.09934435860144294 -0.09476435738703153 0.0 0.011946922495308057 0.0 0.0
0.08524633736478017 -0.0807713509373118 0.0 0.01100234688126062 0.0 0.0
0.07157707095997146 -0.0672860847674366 0.0 0.00969822266766686 0.0 0.0
0.058875436989136457 -0.054835008103247825 0.0 0.008351946675862532 0.0 0.0
0.04740645773337939 -0.043656125704119204 0.0 0.007100290890087454 0.0 0.0
0.03723457065662908 -0.03378525113824752 0.0 0.005940319090691556 0.0 0.0
0.028329277447241567 -0.025170065765664208 0.0 0.0047854225101384385 0.0 0.0
0.020680504319197022 -0.017793548373376395 0.0 0.0036245302281902826 0.0 0.0
0.014334688017475264 -0.01170926393941181 0.0 0.0025424378567814247 0.0 0.0
0.009356482276230278 -0.007008605611404176 0.0 0.0016386065546150214 0.0 0.0
0.005749047846919716 -0.003723220797580534 0.0 0.0009716943738569865 0.0 0.0
0.0034280716586677466 -0.0017647810288047034 0.0 0.000543746553871383 0.0 0.0
0.0021991104074493262 -0.0009218912350103532 0.0 0.00047480750254294036 0.0 0.0
0.001598869495873138 -0.000684003118911173 0.0 0.0004797382390713398 0.0 0.0
0.0011393882546451091 -0.0002772255534630098 0.0 0.00043695761054777854 0.0 0.0
0.0036686437479968373 -0.0008257019420491791 0.0 0.005292521966582231 0.0 0.0
0.0064324909912775894 -0.015477580084329317 0.0 0.0033233933693158856 0.0 0.0
0.004818008101869551 -0.012418116413762633 0.0 -0.0037451126778131885 0.0 0.0
0.0026862012030338827 -0.0005992024768598338 0.0 -0.004827202955316781 0.0 0.0
0.0008151735415333157 -0.0001570770141751847 0.0 -0.000725895822164564 0.0 0.0
0.0013250777855337986 -0.0005491798544193607 0.0 -0.0007494209837064138 0.0 0.0
0.0018781883064160924 -0.0007769962139423571 0.0 -0.0007919678013919249 0.0 0.0
0.002861400966235988 -0.0013639399385832445 0.0 -0.0008573923024837578 0.0 0.0
0.004801668260069856 -0.0029093218496000395 0.0 -0.0013333228283640578 0.0 0.0
0.00794728439038419 -0.005728772641418597 0.0 -0.0022716458076974095 0.0 0.0
0.0123438079511862 -0.009850353628172813 0.0 -0.0035103543143837007 0.0 0.0
0.017953528624910235 -0.015214443491325936 0.0 -0.004988075382199641 0.0 0.0
0.024688450857281195 -0.021699900569924574 0.0 -0.00656503384245496 0.0 0.0
0.03249176472114664 -0.029235669254290386 0.0 -0.008130223547974921 0.0 0.0
0.04137779864969533 -0.03784010800256702 0.0 -0.009690156643116602 0.0 0.0
0.05139352146025642 -0.04758814015431887 0.0 -0.011335544584876813 0.0 0.0
0.0625256046015724 -0.0584870804564986 0.0 -0.01309437298005443 0.0 0.0
0.07458618950609458 -0.07036599361071816 0.0 -0.0148152221252689 0.0 0.0
0.08713497014975626 -0.08280502999233613 0.0 -0.016096881052370723 0.0 0.0
0.09941502082969102 -0.09507002839421735 0.0 -0.01635240126947813 0.0 0.0
0.11028166146562543 -0.10603156626321396 0.0 -0.014968932454499085 0.0 0.0
0.11830067511503808 -0.11419684643593572 0.0 -0.011220518771469944 0.0 0.0
0.12140867353650323 -0.1181326952037231 0.0 1.7567544641217125e-14 0.0 0.0
0.11830067511502196 -0.11419684643591585 0.0 0.011220518771510556 0.0 0.0
0.11028166146559551 -0.10603156626318622 0.0 0.014968932454536399 0.0 0.0
0.0994150208296498 -0.09507002839417426 0.0 0.016352401269500532 0.0 0.0
0.08713497014970782 -0.08280502999228632 0.0 0.016096881052372284 0.0 0.0
0.07458618950604211 -0.07036599361067063 0.0 0.014815222125262335 0.0 0.0
0.06252560460151892 -0.058487080456449014 0.0 0.013094372980049233 0.0 0.0
0.05139352146020322 -0.04758814015426827 0.0 0.011335544584872669 0.0 0.0
0.04137779864964369 -0.03784010800251834 0.0 0.009690156643107028 0.0 0.0
0.03249176472109825 -0.029235669254243604 0.0 0.008130223547961817 0.0 0.0
0.024688450857238857 -0.021699900569880835 0.0 0.006565033842441807 0.0 0.0
0.017953528624875256 -0.015214443491296591 0.0 0.004988075382187233 0.0 0.0
0.012343807951159117 -0.00985035362814557 0.0 0.0035103543143751555 0.0 0.0
0.007947284390365312 -0.0057287726414026125 0.0 0.00227164580769142 0.0 0.0
0.0048016682600586745 -0.0029093218495913307 0.0 0.0013333228283599003 0.0 0.0
0.002861400966231182 -0.0013639399385799206 0.0 0.0008573923024827546 0.0 0.0
0.0018781883064143932 -0.0007769962139411725 0.0 0.0007919678013907963 0.0 0.0
0.0013250777855335182 -0.0005491798544181732 0.0 0.0007494209837055784 0.0 0.0
0.0008151735415336502 -0.00015707701417638122 0.0 0.000725895822163983 0.0 0.0
0.002686201203028454 -0.0005992024768568802 0.0 0.004827202955304049 0.0 0.0
0.0048180081018584335 -0.012418116413740727 0.0 0.003745112677799851 0.0 0.0
0.003624766873120764 -0.009966500549065463 0.0 -0.0033527254579132793 0.0 0.0
0.001993579929990248 -0.0004959225125548349 0.0 -0.004320399843793156 0.0 0.0
0.0005923550521264933 -9.614370895240591e-05 0.0 -0.0011077646682884504 0.0 0.0
0.0010717439375172591 -0.00041724504497816925 0.0 -0.0010385493396757133 0.0 0.0
0.001576323434946368 -0.0006509006614478019 0.0 -0.0011052440105662007 0.0 0.0
0.0023555096643239695 -0.001056080815497472 0.0 -0.001162832352278871 0.0 0.0
0.003904803988814527 -0.0021875035399830088 0.0 -0.001592536489214074 0.0 0.0
0.006553017221205696 -0.004482762753413491 0.0 -0.002630344113044436 0.0 0.0
0.010352226613212261 -0.00800733671368988 0.0 -0.00413197656622262 0.0 0.0
0.015211187193362258 -0.012634208879486821 0.0 -0.00588618122183428 0.0 0.0
0.021028064472377338 -0.018222510779735523 0.0 -0.007752335828615474 0.0 0.0
0.027730900391774317 -0.024681943190768506 0.0 -0.009598573771716483 0.0 0.0
0.03533219527441926 -0.03202565780441743 0.0 -0.011433617102492046 0.0 0.0
0.043899598518056256 -0.040342728946196456 0.0 -0.013353512824584631 0.0 0.0
0.05345151794226785 -0.04967805848665772 0.0 -0.015380653212703762 0.0 0.0
0.06387227914340105 -0.05992797718541315 0.0 -0.017353217270239037 0.0 0.0
0.07484222011004335 -0.07078080983286153 0.0 -0.018891163504187358 0.0 0.0
0.08574553654143487 -0.08164783226229737 0.0 -0.019376079761434885 0.0 0.0
0.09561763211924296 -0.09158436118358763 0.0 -0.017901951386135817 0.0 0.0
0.10321049133649347 -0.09930251733395394 0.0 -0.013321201167471689 0.0 0.0
0.10626824286709267 -0.10348693003882461 0.0 1.9463597400459776e-14 0.0 0.0
0.1032104913364782 -0.09930251733393652 0.0 0.013321201167516058 0.0 0.0
0.09561763211921612 -0.09158436118356464 0.0 0.017901951386176947 0.0 0.0
0.08574553654139903 -0.0816478322622598 0.0 0.019376079761461294 0.0 0.0
0.07484222011000169 -0.07078080983281622 0.0 0.018891163504191108 0.0 0.0
0.06387227914335615 -0.05992797718536795 0.0 0.017353217270232257 0.0 0.0
0.05345151794222159 -0.0496780584866142 0.0 0.015380653212698315 0.0 0.0
0.043899598518010445 -0.04034272894615522 0.0 0.013353512824579777 0.0 0.0
0.035332195274375075 -0.03202565780437322 0.0 0.011433617102481936 0.0 0.0
0.0277309003917332 -0.024681943190731883 0.0 0.009598573771702321 0.0 0.0
0.021028064472341082 -0.018222510779697033 0.0 0.007752335828600217 0.0 0.0
0.015211187193332098 -0.012634208879458429 0.0 0.005886181221819842 0.0 0.0
0.010352226613189134 -0.008007336713667795 0.0 0.004131976566214452 0.0 0.0
0.006553017221189881 -0.004482762753397109 0.0 0.002630344113038166 0.0 0.0
0.0039048039888057067 -0.0021875035399751895 0.0 0.0015925364892097813 0.0 0.0
0.0023555096643204263 -0.0010560808154956379 0.0 0.001162832352278001 0.0 0.0
0.0015763234349452286 -0.0006509006614481769 0.0 0.0011052440105641815 0.0 0.0
0.0010717439375170228 -0.00041724504497825713 0.0 0.0010385493396750406 0.0 0.0
0.0005923550521265207 -9.614370895252854e-05 0.0 0.001107764668286402 0.0 0.0
0.001993579929985626 -0.0004959225125524568 0.0 0.004320399843783388 0.0 0.0
0.0036247668731117593 -0.009966500549046763 0.0 0.003352725457902383 0.0 0.0
0.0027002719989463373 -0.0079313306391703 0.0 -0.002798218556255033 0.0 0.0
0.0014748456900524729 -0.00043328224047441686 0.0 -0.0038316067260697386 0.0 0.0
0.0004302821150089963 -7.154788798380005e-05 0.0 -0.0014695319747204945 0.0 0.0
0.0008388738160950172 -0.0002977143072454356 0.0 -0.001332390076848489 0.0 0.0
0.0012892086200204898 -0.0005319590330145305 0.0 -0.0014047867448189542 0.0 0.0
0.001902232222099601 -0.0008189258229547844 0.0 -0.0014578315660664018 0.0 0.0
0.0030877094578868024 -0.0015920057743038733 0.0 -0.0018230939968120158 0.0 0.0
0.005207016276553757 -0.003323843893657818 0.0 -0.002778550737968591 0.0 0.0
0.008371323085837646 -0.006201585250109494 0.0 -0.0043751933369278635 0.0 0.0
0.012474315091693774 -0.010077986586038184 0.0 -0.0063078840865519285 0.0 0.0
0.017367528747024186 -0.014761829439160427 0.0 -0.008335617041444317 0.0 0.0
0.022973124042557108 -0.02014766340518866 0.0 -0.010341070205852596 0.0 0.0
0.029296766391508515 -0.026237029066527938 0.0 -0.012321118141944165 0.0 0.0
0.036412665846462626 -0.03312642888762314 0.0 -0.014374643623086117 0.0 0.0
0.04438188323761685 -0.040894037231247814 0.0 -0.01653610047380406 0.0 0.0
0.05314901072792715 -0.04949778437554061 0.0 -0.01863523661314285 0.0 0.0
0.06248896510122834 -0.05871850162836967 0.0 -0.020315245329872434 0.0 0.0
0.07197534207617017 -0.06813672153899546 0.0 -0.02101108874630365 0.0 0.0
0.0808817029343134 -0.07706640226231493 0.0 -0.019694664017524545 0.0 0.0
0.08814314837302481 -0.08444493280514666 0.0 -0.014847264742056512 0.0 0.0
0.09121013694543205 -0.08899630348245689 0.0 1.975719934876885e-14 0.0 0.0
0.088143148373011 -0.08444493280513375 0.0 0.014847264742101757 0.0 0.0
0.08088170293429038 -0.0770664022622896 0.0 0.019694664017568596 0.0 0.0
0.07197534207614008 -0.06813672153896558 0.0 0.02101108874633126 0.0 0.0
0.062488965101192895 -0.058718501628333225 0.0 0.02031524532987918 0.0 0.0
0.05314901072788891 -0.04949778437550059 0.0 0.01863523661313543 0.0 0.0
0.044381883237578516 -0.04089403723120642 0.0 0.01653610047379499 0.0 0.0
0.03641266584642497 -0.033126428887590126 0.0 0.01437464362308027 0.0 0.0
0.02929676639147187 -0.026237029066491016 0.0 0.012321118141934682 0.0 0.0
0.022973124042522986 -0.020147663405155714 0.0 0.010341070205837655 0.0 0.0
0.01736752874699377 -0.014761829439131992 0.0 0.008335617041427136 0.0 0.0
0.012474315091668528 -0.010077986586009955 0.0 0.0063078840865355024 0.0 0.0
0.008371323085818495 -0.00620158525009599 0.0 0.004375193336918271 0.0 0.0
0.005207016276541116 -0.003323843893643417 0.0 0.002778550737960976 0.0 0.0
0.0030877094578801974 -0.0015920057742985472 0.0 0.001823093996806685 0.0 0.0
0.0019022322220969183 -0.0008189258229533183 0.0 0.0014578315660647213 0.0 0.0
0.001289208620019586 -0.0005319590330157302 0.0 0.0014047867448171683 0.0 0.0
0.0008388738160948715 -0.0002977143072440626 0.0 0.0013323900768475573 0.0 0.0
0.00043028211500898474 -7.154788798372778e-05 0.0 0.001469531974717022 0.0 0.0
0.0014748456900485418 -0.00043328224047253994 0.0 0.0038316067260619393 0.0 0.0
0.002700271998938529 -0.00793133063915473 0.0 0.002798218556246581 0.0 0.0
0.001975243712909306 -0.006221280402768952 0.0 -0.0022859877303492925 0.0 0.0
0.0010747884562893406 -0.00038925694983119963 0.0 -0.0033903390411254126 0.0 0.0
0.00030225013104873783 -6.190733404327377e-05 0.0 -0.0017688000718624852 0.0 0.0
0.0006221672588242053 -0.00019226836161150853 0.0 -0.0016077955235105632 0.0 0.0
0.0010105342902087175 -0.00040971797011872096 0.0 -0.00167426011611926 0.0 0.0
0.0014879499991808833 -0.0006323037059520443 0.0 -0.0017518288973667278 0.0 0.0
0.002351645607472201 -0.0011186958945035895 0.0 -0.0020164040235910704 0.0 0.0
0.0039510829643948295 -0.0023147065316069487 0.0 -0.0028271677980785974 0.0 0.0
0.006441248071169459 -0.004486365898364622 0.0 -0.0042806976414260425 0.0 0.0
0.009758952034952811 -0.007574630428523663 0.0 -0.006218888477989846 0.0 0.0
0.013728340318998113 -0.011345241728525274 0.0 -0.008294629142563405 0.0 0.0
0.018237951267163748 -0.015657738294068593 0.0 -0.010340451021591632 0.0 0.0
0.02329144807391455 -0.020502184183572737 0.0 -0.012340603881031104 0.0 0.0
0.02896634745342136 -0.025972684179119108 0.0 -0.014391799559035084 0.0 0.0
0.035346382978584896 -0.03216978095020434 0.0 -0.0165302148397188 0.0 0.0
0.04243747465337808 -0.03911185747357532 0.0 -0.018631786053791077 0.0 0.0
0.05011171337163376 -0.04665976289257054 0.0 -0.020349001329297983 0.0 0.0
0.05811240073251933 -0.05455419400416421 0.0 -0.021205465312810045 0.0 0.0
0.0660034113775199 -0.062418526533036645 0.0 -0.020265973746999347 0.0 0.0
0.07297094466475172 -0.0694917978785916 0.0 -0.015773023875585847 0.0 0.0
0.07609092681573928 -0.07452293599945632 0.0 1.8282684394188564e-14 0.0 0.0
0.07297094466474018 -0.06949179787857974 0.0 0.015773023875629677 0.0 0.0
0.06600341137750053 -0.06241852653301534 0.0 0.02026597374704432 0.0 0.0
0.05811240073249485 -0.05455419400414158 0.0 0.02120546531283559 0.0 0.0
0.050111713371605186 -0.046659762892542166 0.0 0.0203490013293032 0.0 0.0
0.04243747465334671 -0.03911185747354206 0.0 0.018631786053783305 0.0 0.0
0.035346382978554074 -0.03216978095017234 0.0 0.016530214839709283 0.0 0.0
0.02896634745339189 -0.025972684179090617 0.0 0.01439179955902628 0.0 0.0
0.023291448073885494 -0.020502184183546737 0.0 0.012340603881019782 0.0 0.0
0.018237951267136388 -0.015657738294040505 0.0 0.010340451021577133 0.0 0.0
0.013728340318973766 -0.011345241728504414 0.0 0.008294629142545964 0.0 0.0
0.009758952034932572 -0.007574630428504191 0.0 0.00621888847797334 0.0 0.0
0.006441248071154358 -0.004486365898351603 0.0 0.004280697641416812 0.0 0.0
0.003951082964385168 -0.002314706531600036 0.0 0.002827167798073242 0.0 0.0
0.0023516456074673866 -0.0011186958945009007 0.0 0.002016404023586744 0.0 0.0
0.001487949999179489 -0.0006323037059514147 0.0 0.0017518288973644397 0.0 0.0
0.0010105342902082236 -0.00040971797011925314 0.0 0.001674260116117348 0.0 0.0
0.000622167258823743 -0.00019226836161016935 0.0 0.001607795523507943 0.0 0.0
0.00030225013104883156 -6.190733404317032e-05 0.0 0.0017688000718592326 0.0 0.0
0.0010747884562865707 -0.0003892569498303626 0.0 0.003390339041118124 0.0 0.0
0.0019752437129035064 -0.006221280402756292 0.0 0.002285987730344635 0.0 0.0
0.0014062366893506381 -0.004793861396866788 0.0 -0.0018948377996284471 0.0 0.0
0.0007603299482968099 -0.00036061007782176556 0.0 -0.002992421518143504 0.0 0.0
0.000190576060372807 -5.1239577211809635e-05 0.0 -0.001998204769412286 0.0 0.0
0.00041672338672026614 -9.917192957833593e-05 0.0 -0.00184681584384071 0.0 0.0
0.0007327685680776981 -0.0002812730005415017 0.0 -0.001902606384528984 0.0 0.0
0.0011033322804443423 -0.0004700619611156015 0.0 -0.002027971779551196 0.0 0.0
0.001693639666624587 -0.0007572291477049395 0.0 -0.0022067324904275513 0.0 0.0
0.0028011113163714844 -0.0014828060606669516 0.0 -0.0027930068823942217 0.0 0.0
0.004611783872286548 -0.0029420262983287774 0.0 -0.003961195325483708 0.0 0.0
0.007103929381714343 -0.005185177436688324 0.0 -0.00564985163863598 0.0 0.0
0.010126498853232043 -0.008010327181797899 0.0 -0.0076014315445015225 0.0 0.0
0.013545128039275512 -0.011246105565173328 0.0 -0.009556332772388388 0.0 0.0
0.017340494795762194 -0.01485477542038106 0.0 -0.011461648543063719 0.0 0.0
0.021583203395892245 -0.018919673274364925 0.0 -0.013379326946756953 0.0 0.0
0.026376057375911116 -0.023549655895394855 0.0 -0.015359984486254943 0.0 0.0
0.03177648675495648 -0.028811429883354514 0.0 -0.01731409285759629 0.0 0.0
0.0377379706255465 -0.034653847389372106 0.0 -0.018962104536197375 0.0 0.0
0.044163446820129994 -0.04093908769813092 0.0 -0.019880547011030186 0.0 0.0
0.05092501015045384 -0.047594362717809785 0.0 -0.019459176854057757 0.0 0.0
0.05755736401709151 -0.05429818084087243 0.0 -0.015992824700503297 0.0 0.0
0.06074627405589837 -0.059919552745708524 0.0 1.55873577933896e-14 0.0 0.0
0.057557364017082877 -0.054298180840863006 0.0 0.015992824700543893 0.0 0.0
0.05092501015043865 -0.04759436271779596 0.0 0.019459176854100483 0.0 0.0
0.04416344682011112 -0.04093908769811119 0.0 0.019880547011055422 0.0 0.0
0.0377379706255243 -0.03465384738935056 0.0 0.01896210453620102 0.0 0.0
0.03177648675493189 -0.02881142988333287 0.0 0.017314092857584864 0.0 0.0
0.026376057375888107 -0.023549655895365437 0.0 0.015359984486246973 0.0 0.0
0.021583203395870852 -0.018919673274345458 0.0 0.013379326946750106 0.0 0.0
0.01734049479574086 -0.014854775420360084 0.0 0.011461648543053307 0.0 0.0
0.013545128039254875 -0.011246105565153916 0.0 0.009556332772374719 0.0 0.0
0.010126498853213678 -0.008010327181780663 0.0 0.007601431544485896 0.0 0.0
0.007103929381699917 -0.00518517743667486 0.0 0.0056498516386220025 0.0 0.0
0.004611783872275986 -0.002942026298316851 0.0 0.003961195325475697 0.0 0.0
0.0028011113163646725 -0.0014828060606653867 0.0 0.002793006882390336 0.0 0.0
0.0016936396666213467 -0.0007572291477004007 0.0 0.0022067324904254788 0.0 0.0
0.0011033322804431445 -0.00047006196111689747 0.0 0.00202797177954932 0.0 0.0
0.0007327685680773966 -0.00028127300054239666 0.0 0.0019026063845275151 0.0 0.0
0.0004167233867201327 -9.917192957777266e-05 0.0 0.0018468158438372396 0.0 0.0
0.00019057606037244066 -5.123957721106894e-05 0.0 0.001998204769410136 0.0 0.0
0.0007603299482946708 -0.00036061007782173346 0.0 0.002992421518137345 0.0 0.0
0.0014062366893466737 -0.004793861396856947 0.0 0.0018948377996262325 0.0 0.0
0.0009817070079912685 -0.003647969467548416 0.0 -0.0016597385940110287 0.0 0.0
0.0005146747396122258 -0.00034830043294206627 0.0 -0.0026483189061859975 0.0 0.0
8.044144779149832e-05 -2.9122522127804486e-05 0.0 -0.0021622683555725538 0.0 0.0
0.00022011786466153303 -1.547337521394947e-05 0.0 -0.002037796360191354 0.0 0.0
0.00045338948936703323 -0.00015095841976396477 0.0 -0.002083777767745633 0.0 0.0
0.0007265835881436217 -0.0003045785891839009 0.0 -0.002246441447178532 0.0 0.0
0.0011035764983620751 -0.000482675570360439 0.0 -0.002432026546341505 0.0 0.0
0.0017721529008028459 -0.0008485952841992018 0.0 -0.0027571328812990097 0.0 0.0
0.002916592041355667 -0.0016485101960099094 0.0 -0.003509178568969227 0.0 0.0
0.004563212745956975 -0.003016865465340835 0.0 -0.004722402861558252 0.0 0.0
0.0066039215760613995 -0.004843585729295092 0.0 -0.006290306176776474 0.0 0.0
0.008915813044256914 -0.0069791257699088 0.0 -0.007962914026912493 0.0 0.0
0.011460261578599924 -0.009350743270108916 0.0 -0.009652954744812306 0.0 0.0
0.014288772199041283 -0.01202517397633196 0.0 -0.011339133809878011 0.0 0.0
0.017499103858189924 -0.015095117116974088 0.0 -0.01303728822964777 0.0 0.0
0.021190874067145128 -0.018658961709699762 0.0 -0.01473472086710887 0.0 0.0
0.025412854984287206 -0.02276122226296987 0.0 -0.016245721451311573 0.0 0.0
0.03016830572504154 -0.027377354347530778 0.0 -0.01716651609651642 0.0 0.0
0.03559176807648891 -0.03261057124898449 0.0 -0.017098524210179954 0.0 0.0
0.04173892595999026 -0.038705623611886314 0.0 -0.015207771974581731 0.0 0.0
0.044973339560304755 -0.04499765331581952 0.0 1.3264563059056655e-14 0.0 0.0
0.04173892595998462 -0.03870562361187867 0.0 0.015207771974617767 0.0 0.0
0.035591768076478236 -0.03261057124897427 0.0 0.017098524210219575 0.0 0.0
0.030168305725027864 -0.027377354347514385 0.0 0.017166516096539637 0.0 0.0
0.02541285498427142 -0.022761222262954465 0.0 0.016245721451309057 0.0 0.0
0.021190874067128832 -0.018658961709686426 0.0 0.0147347208670991 0.0 0.0
0.01749910385817522 -0.015095117116955038 0.0 0.013037288229641706 0.0 0.0
0.014288772199027546 -0.012025173976323572 0.0 0.011339133809871602 0.0 0.0
0.011460261578586643 -0.009350743270096554 0.0 0.009652954744804609 0.0 0.0
0.008915813044244133 -0.00697912576989743 0.0 0.007962914026900577 0.0 0.0
0.006603921576049562 -0.004843585729285195 0.0 0.006290306176764876 0.0 0.0
0.004563212745947543 -0.003016865465331011 0.0 0.004722402861547657 0.0 0.0
0.002916592041349299 -0.0016485101960035187 0.0 0.0035091785689636114 0.0 0.0
0.0017721529007991366 -0.0008485952841976503 0.0 0.002757132881297096 0.0 0.0
0.0011035764983603773 -0.00048267557035905513 0.0 0.002432026546340517 0.0 0.0
0.0007265835881431698 -0.00030457858918380077 0.0 0.002246441447176175 0.0 0.0
0.00045338948936669284 -0.00015095841976461757 0.0 0.0020837777677435256 0.0 0.0
0.00022011786466117692 -1.54733752142e-05 0.0 0.0020377963601887197 0.0 0.0
8.044144779129589e-05 -2.9122522126706945e-05 0.0 0.0021622683555707002 0.0 0.0
0.0005146747396109923 -0.00034830043294228506 0.0 0.002648318906181104 0.0 0.0
0.0009817070079891786 -0.003647969467541293 0.0 0.001659738594008992 0.0 0.0
0.000685571981360011 -0.002764832983778427 0.0 -0.0015302939366597951 0.0 0.0
0.0003287013821445074 -0.00035351499323753375 0.0 -0.00239505855723837 0.0 0.0
-3.134428448197371e-05 6.773834404474141e-06 0.0 -0.0022649620656786424 0.0 0.0
3.008112660258253e-05 6.163090979682287e-05 0.0 -0.002174855726824796 0.0 0.0
0.00017554575809167132 -2.2512840217539452e-05 0.0 -0.002213046976248091 0.0 0.0
0.0003430220002589871 -0.0001293182148656345 0.0 -0.0023853927919058344 0.0 0.0
0.0005475343047263708 -0.0002368505650666749 0.0 -0.0026215236366402108 0.0 0.0
0.0008600934597704466 -0.00038676942526978594 0.0 -0.002842996584626943 0.0 0.0
0.0013890763169514349 -0.0006935664217633923 0.0 -0.0031706958762982474 0.0 0.0
0.0021891544420963647 -0.0012639825131021613 0.0 -0.0037763736119378177 0.0 0.0
0.003216741013696261 -0.0020831280020399256 0.0 -0.004727188624765207 0.0 0.0
0.004388753552395845 -0.0030779735107772884 0.0 -0.005928737194467266 0.0 0.0
0.005668657403412393 -0.004189973929317369 0.0 -0.007252356516916022 0.0 0.0
0.007093697120022506 -0.005469254412750969 0.0 -0.008650628325203467 0.0 0.0
0.008731913312272091 -0.0069777565729018205 0.0 -0.010121058545422123 0.0 0.0
0.010696294924326055 -0.008816244331681426 0.0 -0.011663332403063319 0.0 0.0
0.013137217396920897 -0.011126707723343305 0.0 -0.013154920994742176 0.0 0.0
0.016194558686795826 -0.014047121809839596 0.0 -0.014191830875108455 0.0 0.0
0.020061435206488246 -0.017727417816011806 0.0 -0.014206267482364261 0.0 0.0
0.025344773955530583 -0.022685985229935913 0.0 -0.013255064703008091 0.0 0.0
0.028459136462372355 -0.029531179510354617 0.0 1.0819470319667346e-14 0.0 0.0
0.02534477395552837 -0.022685985229931996 0.0 0.013255064703038267 0.0 0.0
0.020061435206482493 -0.017727417816005897 0.0 0.01420626748239507 0.0 0.0
0.01619455868678751 -0.014047121809827822 0.0 0.014191830875121034 0.0 0.0
0.013137217396912535 -0.011126707723335167 0.0 0.013154920994736169 0.0 0.0
0.010696294924318336 -0.00881624433167359 0.0 0.011663332403053207 0.0 0.0
0.008731913312265754 -0.006977756572900332 0.0 0.01012105854541424 0.0 0.0
0.007093697120017406 -0.005469254412748608 0.0 0.008650628325199318 0.0 0.0
0.0056686574034069525 -0.004189973929312907 0.0 0.007252356516909435 0.0 0.0
0.00438875355239036 -0.003077973510770758 0.0 0.005928737194457527 0.0 0.0
0.003216741013691051 -0.002083128002034012 0.0 0.004727188624755459 0.0 0.0
0.002189154442092238 -0.0012639825130973655 0.0 0.0037763736119325155 0.0 0.0
0.0013890763169489763 -0.0006935664217611639 0.0 0.003170695876295964 0.0 0.0
0.0008600934597692316 -0.0003867694252668341 0.0 0.00284299658462615 0.0 0.0
0.0005475343047257258 -0.00023685056506861423 0.0 0.00262152363663672 0.0 0.0
0.0003430220002586853 -0.00012931821486401632 0.0 0.0023853927919035675 0.0 0.0
0.00017554575809165758 -2.2512840217716865e-05 0.0 0.002213046976245434 0.0 0.0
3.0081126602547333e-05 6.163090979604155e-05 0.0 0.0021748557268225642 0.0 0.0
-3.1344284482088646e-05 6.773834404860106e-06 0.0 0.002264962065676722 0.0 0.0
0.0003287013821437968 -0.00035351499323768294 0.0 0.0023950585572349286 0.0 0.0
0.0006855719813587317 -0.002764832983773692 0.0 0.0015302939366576202 0.0 0.0
0.0004771412425156427 -0.0021101037315920516 0.0 -0.0014596491322987617 0.0 0.0
0.00018839267134426648 -0.0003586600057639852 0.0 -0.002221213582762607 0.0 0.0
-0.0001389252687468228 4.810242312225863e-05 0.0 -0.0023136212702982825 0.0 0.0
-0.00015398158638307206 0.00013508377871443197 0.0 -0.0022556908959254014 0.0 0.0
-9.798301550727073e-05 0.00010240160417649457 0.0 -0.0022848104077125815 0.0 0.0
-4.493849395172521e-05 4.875223206283226e-05 0.0 -0.0024453880294498156 0.0 0.0
-1.5502441027026437e-05 1.3170097132420821e-05 0.0 -0.0026966715430887813 0.0 0.0
-3.938671056730774e-06 2.6449538050876765e-06 0.0 -0.0029331715938177216 0.0 0.0
-3.6949949786167454e-07 -8.07849355791192e-08 0.0 -0.003077510299359231 0.0 0.0
5.33707313256403e-07 -2.550800698155139e-07 0.0 -0.0033549884594396436 0.0 0.0
3.7346400774804136e-08 -6.888985790584829e-07 0.0 -0.003939827209861921 0.0 0.0
-4.826158181280016e-06 3.8110150139745687e-06 0.0 -0.004868810297840914 0.0 0.0
-1.8323136678535562e-05 1.6083634319941857e-05 0.0 -0.005976028224319601 0.0 0.0
-3.2160856233298066e-05 3.2085831380088256e-05 0.0 -0.00722894579663207 0.0 0.0
2.4484022359382972e-06 1.3018209036633655e-05 0.0 -0.008640436419668359 0.0 0.0
0.00021662568759663937 -0.0001525530522616407 0.0 -0.010201926636260825 0.0 0.0
0.0008599382572892097 -0.0006835319470885652 0.0 -0.011855198966607937 0.0 0.0
0.002248759464281168 -0.001887745473143185 0.0 -0.013418600105756167 0.0 0.0
0.004600994058402304 -0.003915949056692769 0.0 -0.014577372846339243 0.0 0.0
0.008485663083281159 -0.007046244464926649 0.0 -0.015053007062292588 0.0 0.0
0.010938487047764423 -0.014297555497996054 0.0 9.874046025259986e-15 0.0 0.0
0.008485663083281319 -0.00704624446492485 0.0 0.015053007062311628 0.0 0.0
0.004600994058400541 -0.003915949056695261 0.0 0.014577372846354516 0.0 0.0
0.002248759464279965 -0.0018877454731412182 0.0 0.013418600105756531 0.0 0.0
0.0008599382572898975 -0.0006835319470926656 0.0 0.01185519896659953 0.0 0.0
0.00021662568759808515 -0.00015255305226774475 0.0 0.010201926636251538 0.0 0.0
2.4484022377297245e-06 1.3018209036824095e-05 0.0 0.008640436419662502 0.0 0.0
-3.2160856230852e-05 3.208583137465586e-05 0.0 0.007228945796625679 0.0 0.0
-1.832313667580283e-05 1.6083634313940987e-05 0.0 0.005976028224310714 0.0 0.0
-4.8261581787826646e-06 3.8110150166181247e-06 0.0 0.004868810297833488 0.0 0.0
3.7346402625211984e-08 -6.888985810005871e-07 0.0 0.0039398272098538955 0.0 0.0
5.337073142445449e-07 -2.550800689055837e-07 0.0 0.0033549884594370315 0.0 0.0
-3.6949949714440704e-07 -8.07849346909069e-08 0.0 0.00307751029935896 0.0 0.0
-3.938671056219153e-06 2.644953805047046e-06 0.0 0.0029331715938172315 0.0 0.0
-1.5502441026786314e-05 1.3170097132894678e-05 0.0 0.0026966715430849567 0.0 0.0
-4.493849395146426e-05 4.875223206352414e-05 0.0 0.002445388029447197 0.0 0.0
-9.798301550716746e-05 0.00010240160417652035 0.0 0.0022848104077106686 0.0 0.0
-0.00015398158638293933 0.0001350837787139215 0.0 0.0022556908959242106 0.0 0.0
-0.00013892526874665796 4.810242312206027e-05 0.0 0.0023136212702971177 0.0 0.0
0.00018839267134389886 -0.00035866000576396354 0.0 0.002221213582760383 0.0 0.0
0.00047714124251489585 -0.00211010373158912 0.0 0.0014596491322982348 0.0 0.0
0.00033479384958764785 -0.0016257522448772062 0.0 -0.0013948165673819761 0.0 0.0
8.468035176053301e-05 -0.0003456344260752753 0.0 -0.0020758120365097074 0.0 0.0
-0.00023945875082585793 8.71306376324003e-05 0.0 -0.002313218032711573 0.0 0.0
-0.0003311001255940267 0.00020600324447509123 0.0 -0.0022792593060247464 0.0 0.0
-0.0003653743728893946 0.00022203471495453792 0.0 -0.0022935092584696914 0.0 0.0
-0.0004290349887627763 0.00022516163612345977 0.0 -0.0024272710650925233 0.0 0.0
-0.0005776954564933501 0.0002630145892409989 0.0 -0.0026407243718362832 0.0 0.0
-0.0008681109629020479 0.00039218499797962457 0.0 -0.002851685354713524 0.0 0.0
-0.0013894651020006582 0.0006932431921416991 0.0 -0.0031741508057067 0.0 0.0
-0.0021873692038302354 0.0012626129688310557 0.0 -0.003775102668482925 0.0 0.0
-0.0032165142224138523 0.0020824942811580207 0.0 -0.0047233153730081206 0.0 0.0
-0.004399928427070365 0.003087199282987789 0.0 -0.00592692196628628 0.0 0.0
-0.005706600373124338 0.004224285346656745 0.0 -0.007248123303458294 0.0 0.0
-0.007156096019915906 0.005534966140660299 0.0 -0.008639745189027565 0.0 0.0
-0.008721506165288075 0.007003564553785695 0.0 -0.010128276605146777 0.0 0.0
-0.010267736265171754 0.008506169461404227 0.0 -0.011795756931053605 0.0 0.0
-0.011506520457837 0.009763649998244497 0.0 -0.013704819240660754 0.0 0.0
-0.012028673105382578 0.010350192606900312 0.0 -0.01593097657266532 0.0 0.0
-0.011375236781990553 0.00991786293079883 0.0 -0.018392976500537922 0.0 0.0
-0.008038032910747735 0.007529637103959437 0.0 -0.01946172255123795 0.0 0.0
-0.005380853799095885 -0.00044285350500396453 0.0 1.2726798781503845e-14 0.0 0.0
-0.008038032910747988 0.007529637103958041 0.0 0.019461722551257214 0.0 0.0
-0.011375236781987555 0.009917862930792649 0.0 0.018392976500552674 0.0 0.0
-0.012028673105374347 0.01035019260688953 0.0 0.015930976572667996 0.0 0.0
-0.011506520457825678 0.009763649998233941 0.0 0.013704819240652921 0.0 0.0
-0.01026773626516124 0.008506169461390364 0.0 0.011795756931045752 0.0 0.0
-0.008721506165278375 0.007003564553783226 0.0 0.010128276605137381 0.0 0.0
-0.007156096019905505 0.005534966140646845 0.0 0.00863974518901831 0.0 0.0
-0.005706600373113064 0.0042242853466479885 0.0 0.00724812330344941 0.0 0.0
-0.004399928427059535 0.003087199282979563 0.0 0.005926921966275605 0.0 0.0
-0.0032165142224048144 0.002082494281150997 0.0 0.004723315372997127 0.0 0.0
-0.002187369203823783 0.0012626129688266259 0.0 0.0037751026684774737 0.0 0.0
-0.0013894651019967662 0.0006932431921394083 0.0 0.0031741508057051724 0.0 0.0
-0.0008681109628998328 0.000392184997978 0.0 0.0028516853547112015 0.0 0.0
-0.0005776954564919328 0.0002630145892400646 0.0 0.0026407243718337696 0.0 0.0
-0.0004290349887617111 0.00022516163612357627 0.0 0.002427271065090354 0.0 0.0
-0.0003653743728888618 0.00022203471495499833 0.0 0.00229350925846803 0.0 0.0
-0.0003311001255940183 0.0002060032444750506 0.0 0.002279259306023072 0.0 0.0
-0.00023945875082573764 8.713063763249371e-05 0.0 0.002313218032710153 0.0 0.0
8.468035176050173e-05 -0.000345634426075336 0.0 0.002075812036507278 0.0 0.0
0.00033479384958716576 -0.0016257522448751664 0.0 0.001394816567381283 0.0 0.0
0.00023254521488315382 -0.0012351678791769766 0.0 -0.0012819739637427371 0.0 0.0
4.248748197085844e-06 -0.00031475721615066874 0.0 -0.001928264894437091 0.0 0.0
-0.0003327103244137484 0.0001233589284750296 0.0 -0.0022615946952853835 0.0 0.0
-0.0004998779080291806 0.00027333071945740296 0.0 -0.0022449356195504352 0.0 0.0
-0.0006247535258719427 0.0003353906311119469 0.0 -0.002236676220062857 0.0 0.0
-0.0008036592060653055 0.00039430411139992357 0.0 -0.002326552573841614 0.0 0.0
-0.0011310327937020287 0.0005098075694446927 0.0 -0.002472008370198787 0.0 0.0
-0.001778794244243177 0.0008538845215186424 0.0 -0.0027749738242679243 0.0 0.0
-0.002915631284992432 0.0016467449466177771 0.0 -0.0035114811115783294 0.0 0.0
-0.004560748669099045 0.003014404668283187 0.0 -0.0047183027053054665 0.0 0.0
-0.006604797102487127 0.004844642321370001 0.0 -0.006287719190484877 0.0 0.0
-0.00892688841527421 0.006989806282031387 0.0 -0.007960378708553512 0.0 0.0
-0.011493401002572037 0.00938291927242462 0.0 -0.00962843721496439 0.0 0.0
-0.014342649623553194 0.012083778973367813 0.0 -0.011273057704993374 0.0 0.0
-0.017486691174082365 0.01511608771442691 0.0 -0.012987639286590271 0.0 0.0
-0.02079638314242365 0.018369467820810455 0.0 -0.01497977254211516 0.0 0.0
-0.023936167077508196 0.021511609501435516 0.0 -0.017479338435341166 0.0 0.0
-0.02636603282886099 0.023997123016693746 0.0 -0.02059952233937214 0.0 0.0
-0.02705983366412086 0.024924786537169515 0.0 -0.023719817412500687 0.0 0.0
-0.02404332872587073 0.02231731280074929 0.0 -0.024390886961530692 0.0 0.0
-0.021290737345826767 0.012473133381151484 0.0 1.3551659794330817e-14 0.0 0.0
-0.024043328725869242 0.02231731280074555 0.0 0.024390886961563045 0.0 0.0
-0.027059833664113284 0.024924786537163315 0.0 0.023719817412530875 0.0 0.0
-0.026366032828846246 0.02399712301668088 0.0 0.020599522339383048 0.0 0.0
-0.023936167077488937 0.021511609501417207 0.0 0.01747933843533466 0.0 0.0
-0.020796383142404198 0.018369467820789857 0.0 0.014979772542101817 0.0 0.0
-0.017486691174064314 0.0151160877144127 0.0 0.01298763928658015 0.0 0.0
-0.01434264962353475 0.01208377897335033 0.0 0.011273057704983413 0.0 0.0
-0.011493401002552675 0.00938291927240374 0.0 0.009628437214954825 0.0 0.0
-0.008926888415255841 0.0069898062820134745 0.0 0.007960378708537132 0.0 0.0
-0.006604797102471362 0.0048446423213557525 0.0 0.006287719190468649 0.0 0.0
-0.004560748669086814 0.0030144046682722583 0.0 0.004718302705294327 0.0 0.0
-0.0029156312849848653 0.001646744946610336 0.0 0.0035114811115731694 0.0 0.0
-0.0017787942442389969 0.0008538845215172834 0.0 0.002774973824264905 0.0 0.0
-0.0011310327936993776 0.0005098075694443054 0.0 0.002472008370196829 0.0 0.0
-0.0008036592060640599 0.0003943041113997624 0.0 0.0023265525738391155 0.0 0.0
-0.0006247535258715993 0.0003353906311111886 0.0 0.0022366762200605574 0.0 0.0
-0.0004998779080287768 0.0002733307194573123 0.0 0.0022449356195481524 0.0 0.0
-0.0003327103244134545 0.00012335892847505396 0.0 0.0022615946952839433 0.0 0.0
4.2487481970997965e-06 -0.00031475721615076513 0.0 0.0019282648944360147 0.0 0.0
0.0002325452148831166 -0.0012351678791753505 0.0 0.0012819739637411447 0.0 0.0
0.0001475715720860461 -0.000904068570869714 0.0 -0.0011307794514792714 0.0 0.0
-6.52154540684773e-05 -0.00026907342846390264 0.0 -0.001762242482443918 0.0 0.0
-0.0004194978948328706 0.00015814368725152185 0.0 -0.0021577076333094834 0.0 0.0
-0.0006599745197000829 0.00033621447140831846 0.0 -0.0021541978800266566 0.0 0.0
-0.0008734041963723502 0.0004410056965340771 0.0 -0.002119325416698095 0.0 0.0
-0.0011662012921123982 0.0005514912334836702 0.0 -0.002139082106507158 0.0 0.0
-0.001717412684766244 0.0007864198584538634 0.0 -0.0022668546886209268 0.0 0.0
-0.002804936669913992 0.0014852630943508667 0.0 -0.002811808054329637 0.0 0.0
-0.004608323430188722 0.002937790869105694 0.0 -0.003958516015048211 0.0 0.0
-0.00710200803831469 0.005183175403096004 0.0 -0.005644680720709622 0.0 0.0
-0.010128866748265828 0.008013431114967084 0.0 -0.00760069877783129 0.0 0.0
-0.01355368844301183 0.011255552508725902 0.0 -0.009551092945119735 0.0 0.0
-0.01735983703292564 0.01487428578012916 0.0 -0.011417121139673985 0.0 0.0
-0.021612302407865554 0.018950986437034884 0.0 -0.013247117567183159 0.0 0.0
-0.02635715953205427 0.023553417731892137 0.0 -0.0152006241666874 0.0 0.0
-0.03148055284416948 0.028596724895891407 0.0 -0.017582731342061134 0.0 0.0
-0.03658816036254135 0.03370383098018394 0.0 -0.020823974476196664 0.0 0.0
-0.0408399450063907 0.03808672070442043 0.0 -0.0249870370589725 0.0 0.0
-0.042693965101353 0.04023056221489542 0.0 -0.02891549085759886 0.0 0.0
-0.039311513354418744 0.03753193488644084 0.0 -0.030183080450730204 0.0 0.0
-0.035846993665416535 0.024956712069064482 0.0 1.5105104667068048e-14 0.0 0.0
-0.03931151335441449 0.03753193488643476 0.0 0.030183080450767327 0.0 0.0
-0.04269396510134176 0.04023056221488696 0.0 0.028915490857636124 0.0 0.0
-0.04083994500637005 0.03808672070440551 0.0 0.024987037058990802 0.0 0.0
-0.03658816036251476 0.03370383098015228 0.0 0.0208239744761948 0.0 0.0
-0.03148055284414215 0.028596724895872228 0.0 0.017582731342047644 0.0 0.0
-0.026357159532027944 0.023553417731863896 0.0 0.015200624166676488 0.0 0.0
-0.02161230240783916 0.01895098643701014 0.0 0.01324711756717245 0.0 0.0
-0.01735983703289882 0.014874285780100735 0.0 0.01141712113966176 0.0 0.0
-0.013553688442986015 0.011255552508701522 0.0 0.009551092945101723 0.0 0.0
-0.01012886674824273 0.008013431114941377 0.0 0.007600698777814047 0.0 0.0
-0.00710200803829668 0.005183175403081962 0.0 0.005644680720694532 0.0 0.0
-0.004608323430176633 0.002937790869094599 0.0 0.003958516015039787 0.0 0.0
-0.002804936669906602 0.0014852630943458626 0.0 0.00281180805432567 0.0 0.0
-0.0017174126847621567 0.0007864198584518107 0.0 0.002266854688618305 0.0 0.0
-0.0011662012921105644 0.0005514912334829892 0.0 0.0021390821065040964 0.0 0.0
-0.0008734041963712955 0.0004410056965340473 0.0 0.002119325416695993 0.0 0.0
-0.0006599745196995476 0.0003362144714081669 0.0 0.002154197880025515 0.0 0.0
-0.0004194978948325047 0.00015814368725121245 0.0 0.0021577076333084764 0.0 0.0
-6.521545406840926e-05 -0.00026907342846391923 0.0 0.0017622424824432995 0.0 0.0
0.00014757157208554434 -0.0009040685708684961 0.0 0.0011307794514772633 0.0 0.0
7.30022211314448e-05 -0.0006258442065004517 0.0 -0.0009663369448349392 0.0 0.0
-0.00012873101717277767 -0.00021165086949354535 0.0 -0.001570414743064072 0.0 0.0
-0.0005019664680340147 0.00019288489194785078 0.0 -0.002001781117773356 0.0 0.0
-0.0008119112101037659 0.00039458980255627647 0.0 -0.00200807669964684 0.0 0.0
-0.001108391230320877 0.000535665248370344 0.0 -0.0019374647720416288 0.0 0.0
-0.001533621396454039 0.0007041681099923395 0.0 -0.0018847871488278508 0.0 0.0
-0.0023687985883548107 0.0011453052595196771 0.0 -0.002080904231641565 0.0 0.0
-0.003949517274109441 0.0023117820826599167 0.0 -0.002838455430857031 0.0 0.0
-0.006437066908488624 0.00448101690670671 0.0 -0.004273944473267003 0.0 0.0
-0.009758715686068547 0.007574464690092217 0.0 -0.006214268914718456 0.0 0.0
-0.013732053506545768 0.011350200120908946 0.0 -0.008294753167073303 0.0 0.0
-0.018241764972564526 0.015664232512029586 0.0 -0.010332292019932535 0.0 0.0
-0.02328895993648036 0.020502363783677063 0.0 -0.012281793754410117 0.0 0.0
-0.02895345808196069 0.025959519039731625 0.0 -0.014211536738995294 0.0 0.0
-0.03531212834267586 0.03213997480635954 0.0 -0.016272783309173238 0.0 0.0
-0.042279966787720315 0.03900130232173381 0.0 -0.018849134178852815 0.0 0.0
-0.04936314738417607 0.046101890647525456 0.0 -0.022459210294774903 0.0 0.0
-0.055374948314144856 0.05231658866924918 0.0 -0.027182718170027792 0.0 0.0
-0.058145433852955966 0.05553152640223574 0.0 -0.031905976586151776 0.0 0.0
-0.05404668008425303 0.052281687002220724 0.0 -0.033961762651021216 0.0 0.0
-0.049715739434169064 0.03704171448534417 0.0 1.691355389077387e-14 0.0 0.0
-0.05404668008424565 0.05228168700221315 0.0 0.03396176265106057 0.0 0.0
-0.058145433852939465 0.055531526402222364 0.0 0.031905976586193034 0.0 0.0
-0.055374948314118835 0.05231658866922733 0.0 0.027182718170050066 0.0 0.0
-0.04936314738414373 0.04610189064748896 0.0 0.022459210294773994 0.0 0.0
-0.0422799667876856 0.03900130232169998 0.0 0.018849134178841924 0.0 0.0
-0.035312128342641254 0.03213997480633084 0.0 0.01627278330915796 0.0 0.0
-0.028953458081926793 0.025959519039698172 0.0 0.014211536738985956 0.0 0.0
-0.023288959936446377 0.020502363783646428 0.0 0.012281793754397773 0.0 0.0
-0.018241764972531525 0.015664232511995297 0.0 0.0103322920199147 0.0 0.0
-0.013732053506516679 0.011350200120879169 0.0 0.008294753167053763 0.0 0.0
-0.009758715686045139 0.0075744646900699295 0.0 0.006214268914700869 0.0 0.0
-0.006437066908471688 0.004481016906692502 0.0 0.0042739444732560194 0.0 0.0
-0.003949517274098737 0.0023117820826506694 0.0 0.0028384554308505503 0.0 0.0
-0.002368798588349329 0.0011453052595169044 0.0 0.0020809042316383224 0.0 0.0
-0.001533621396451938 0.0007041681099913012 0.0 0.0018847871488264392 0.0 0.0
-0.001108391230319787 0.0005356652483705675 0.0 0.0019374647720395758 0.0 0.0
-0.0008119112101030381 0.0003945898025561044 0.0 0.002008076699644784 0.0 0.0
-0.0005019664680336072 0.00019288489194784335 0.0 0.002001781117772044 0.0 0.0
-0.00012873101717256305 -0.0002116508694937048 0.0 0.0015704147430637115 0.0 0.0
7.300222113156769e-05 -0.0006258442064995674 0.0 0.0009663369448331095 0.0 0.0
7.428114152905325e-06 -0.0003978450400889754 0.0 -0.000796317420176491 0.0 0.0
-0.00018752322118775993 -0.00014702457199669542 0.0 -0.0013534722115886755 0.0 0.0
-0.0005810754561548083 0.0002285388395118082 0.0 -0.0017942512970556814 0.0 0.0
-0.000954623750066416 0.00044813911413882606 0.0 -0.0018061816744533682 0.0 0.0
-0.0013341169031174294 0.0006195260404112723 0.0 -0.0016938960645804778 0.0 0.0
-0.0019253003665023784 0.0008778443391771632 0.0 -0.0016038459195942879 0.0 0.0
-0.003096313973985003 0.0016098564052930212 0.0 -0.001874731015525754 0.0 0.0
-0.005202913029979766 0.003317131821230437 0.0 -0.00278136143739713 0.0 0.0
-0.008368069736283335 0.006197573436774269 0.0 -0.004366974027793669 0.0 0.0
-0.012476193576328889 0.01008009268942239 0.0 -0.006304635132689234 0.0 0.0
-0.017371781950815637 0.01476774486610151 0.0 -0.00833553797160012 0.0 0.0
-0.022970470151085116 0.020149467963247302 0.0 -0.010328852356207587 0.0 0.0
-0.02926835745379537 0.026214793374245926 0.0 -0.012254330591454188 0.0 0.0
-0.036348349699758656 0.033061146997912495 0.0 -0.014182775386924664 0.0 0.0
-0.04431748863053696 0.04081502513608423 0.0 -0.016241670349287658 0.0 0.0
-0.053107317466734354 0.04946891756873688 0.0 -0.01872369121172457 0.0 0.0
-0.0621217786898766 0.05852273916606075 0.0 -0.022189010428597656 0.0 0.0
-0.0698249898842966 0.06652267837202082 0.0 -0.02699796846283064 0.0 0.0
-0.07339707704914007 0.07069383490559177 0.0 -0.032375038157268075 0.0 0.0
-0.06857312811829938 0.06682961300202167 0.0 -0.03630005283594693 0.0 0.0
-0.06343692695521864 0.049150594348678654 0.0 1.80706144492504e-14 0.0 0.0
-0.06857312811828944 0.06682961300201537 0.0 0.03630005283598668 0.0 0.0
-0.0733970770491188 0.07069383490557335 0.0 0.03237503815730936 0.0 0.0
-0.06982498988426494 0.0665226783719922 0.0 0.0269979684628517 0.0 0.0
-0.06212177868983809 0.05852273916602571 0.0 0.02218901042859859 0.0 0.0
-0.053107317466692686 0.04946891756869046 0.0 0.018723691211718334 0.0 0.0
-0.0443174886304946 0.04081502513605196 0.0 0.016241670349275768 0.0 0.0
-0.0363483496997163 0.0330611469978748 0.0 0.014182775386909399 0.0 0.0
-0.02926835745375364 0.026214793374203516 0.0 0.012254330591442458 0.0 0.0
-0.02297047015104514 0.020149467963206425 0.0 0.01032885235619171 0.0 0.0
-0.017371781950780537 0.014767744866065812 0.0 0.008335537971580018 0.0 0.0
-0.012476193576300315 0.010080092689391045 0.0 0.006304635132672221 0.0 0.0
-0.008368069736261849 0.006197573436754379 0.0 0.004366974027782238 0.0 0.0
-0.005202913029965669 0.003317131821219779 0.0 0.0027813614373885945 0.0 0.0
-0.003096313973977107 0.0016098564052898967 0.0 0.0018747310155213495 0.0 0.0
-0.001925300366499193 0.0008778443391755195 0.0 0.0016038459195934782 0.0 0.0
-0.0013341169031163894 0.0006195260404101013 0.0 0.0016938960645790325 0.0 0.0
-0.0009546237500657683 0.00044813911413816925 0.0 0.0018061816744520437 0.0 0.0
-0.0005810754561543103 0.00022853883951220696 0.0 0.0017942512970554082 0.0 0.0
-0.00018752322118758185 -0.00014702457199683962 0.0 0.0013534722115885797 0.0 0.0
7.42811415282509e-06 -0.0003978450400883845 0.0 0.000796317420174681 0.0 0.0
-4.817945589810139e-05 -0.00021935551407476655 0.0 -0.0006238558142387388 0.0 0.0
-0.0002405780811822781 -7.997335888141854e-05 0.0 -0.001113576121501319 0.0 0.0
-0.0006566643315983038 0.0002649070233041094 0.0 -0.001536282692361961 0.0 0.0
-0.0010899098604238765 0.0004966538134137061 0.0 -0.0015484414128933695 0.0 0.0
-0.0015619026678553981 0.0006973222457831258 0.0 -0.00139798796144397 0.0 0.0
-0.0023530372356754823 0.0010945345754112285 0.0 -0.001300684415725412 0.0 0.0
-0.0039031412527547995 0.0021934745052512848 0.0 -0.0016278892269258238 0.0 0.0
-0.006548827515108637 0.0044770223034677325 0.0 -0.0026260124545200297 0.0 0.0
-0.010351944762151136 0.008006467084334012 0.0 -0.004124634891812236 0.0 0.0
-0.015214970824199859 0.012638313802669061 0.0 -0.005884733745139983 0.0 0.0
-0.021031447438417204 0.018228021598610426 0.0 -0.007751769174877047 0.0 0.0
-0.02772007901346788 0.024677009032779376 0.0 -0.009581737196036012 0.0 0.0
-0.03527933393254627 0.03198181592219939 0.0 -0.011365665286153532 0.0 0.0
-0.043786881770217306 0.04023142424245937 0.0 -0.013188940268794361 0.0 0.0
-0.05333416007490514 0.04953863873547172 0.0 -0.015127420566443013 0.0 0.0
-0.06386164181706179 0.05989875916005771 0.0 -0.017287807888581284 0.0 0.0
-0.07472435306898931 0.07079809592895239 0.0 -0.02010976460788854 0.0 0.0
-0.08407310488533692 0.08053371920181239 0.0 -0.024413963775159087 0.0 0.0
-0.08851257880765542 0.08572956625711589 0.0 -0.03046216149927603 0.0 0.0
-0.08318732597190616 0.08149500930582129 0.0 -0.03751893960741754 0.0 0.0
-0.077393481819513 0.06165505364127158 0.0 1.7316009737200488e-14 0.0 0.0
-0.0831873259718932 0.08149500930581151 0.0 0.0375189396074562 0.0 0.0
-0.08851257880762961 0.0857295662570914 0.0 0.030462161499313974 0.0 0.0
-0.0840731048852999 0.08053371920177618 0.0 0.024413963775178096 0.0 0.0
-0.07472435306894465 0.07079809592891277 0.0 0.020109764607890157 0.0 0.0
-0.06386164181701315 0.059898759160014386 0.0 0.017287807888577367 0.0 0.0
-0.053334160074855884 0.04953863873541843 0.0 0.015127420566434784 0.0 0.0
-0.04378688177016758 0.04023142424241406 0.0 0.013188940268781684 0.0 0.0
-0.035279333932496854 0.03198181592215274 0.0 0.011365665286140558 0.0 0.0
-0.027720079013421408 0.02467700903273225 0.0 0.009581737196020462 0.0 0.0
-0.021031447438376188 0.0182280215985703 0.0 0.007751769174857931 0.0 0.0
-0.015214970824166212 0.01263831380263511 0.0 0.005884733745125297 0.0 0.0
-0.010351944762125358 0.008006467084307958 0.0 0.004124634891801597 0.0 0.0
-0.006548827515091235 0.004477022303451997 0.0 0.0026260124545129685 0.0 0.0
-0.0039031412527447164 0.002193474505245653 0.0 0.0016278892269204425 0.0 0.0
-0.002353037235671045 0.0010945345754086512 0.0 0.0013006844157231903 0.0 0.0
-0.0015619026678539065 0.0006973222457827549 0.0 0.0013979879614439549 0.0 0.0
-0.0010899098604230408 0.0004966538134116899 0.0 0.00154844141289248 0.0 0.0
-0.0006566643315975815 0.0002649070233041549 0.0 0.0015362826923609211 0.0 0.0
-0.0002405780811819664 -7.997335888124326e-05 0.0 0.0011135761215003118 0.0 0.0
-4.817945589826066e-05 -0.0002193555140744306 0.0 0.0006238558142369026 0.0 0.0
-9.112946622374978e-05 -9.084711914057996e-05 0.0 -0.0004531195769863155 0.0 0.0
-0.0002849218364752535 -1.5568957405290763e-05 0.0 -0.0008535398319816932 0.0 0.0
-0.0007272415587606065 0.0003005101091472631 0.0 -0.0012267785466148723 0.0 0.0
-0.0012204372303182024 0.0005401243151315822 0.0 -0.0012334925567502467 0.0 0.0
-0.0018011716960243621 0.0007805289144872334 0.0 -0.0010536570036016335 0.0 0.0
-0.002831613783426121 0.0013704839489884703 0.0 -0.0009611983023178857 0.0 0.0
-0.004792966869057951 0.002906348053579177 0.0 -0.0013502171558658254 0.0 0.0
-0.007947045332494788 0.005728643705180249 0.0 -0.0022645774803861265 0.0 0.0
-0.012347446393932595 0.009853429588846094 0.0 -0.003505226608426537 0.0 0.0
-0.01795861141200941 0.015219898236549585 0.0 -0.004988214863933305 0.0 0.0
-0.024689247057212323 0.021703358908240496 0.0 -0.006563491020303348 0.0 0.0
-0.032471609725195805 0.02922212553549213 0.0 -0.00811030850118637 0.0 0.0
-0.04130594141644461 0.03777833356980946 0.0 -0.009629263291459042 0.0 0.0
-0.051245594144043595 0.04744619362221008 0.0 -0.011221204639719535 0.0 0.0
-0.06233735291576073 0.05828682996140082 0.0 -0.012936276971240526 0.0 0.0
-0.07447343574278924 0.07022791711207146 0.0 -0.014675648927884281 0.0 0.0
-0.08700750134790977 0.08275389558600074 0.0 -0.01648774232746283 0.0 0.0
-0.09798976577637415 0.09416283590937059 0.0 -0.01950629998950782 0.0 0.0
-0.10357452581621533 0.10067980191533293 0.0 -0.02606881817927714 0.0 0.0
-0.0981765132395235 0.09659260267863883 0.0 -0.03737728278840289 0.0 0.0
-0.09194117683643596 0.07493813960530356 0.0 1.477290512141849e-14 0.0 0.0
-0.0981765132395082 0.09659260267862625 0.0 0.03737728278843731 0.0 0.0
-0.10357452581618509 0.1006798019153023 0.0 0.026068818179310106 0.0 0.0
-0.0979897657763318 0.0941628359093304 0.0 0.01950629998952511 0.0 0.0
-0.08700750134785837 0.0827538955859504 0.0 0.016487742327462918 0.0 0.0
-0.0744734357427332 0.07022791711201994 0.0 0.014675648927880813 0.0 0.0
-0.062337352915703775 0.05828682996134117 0.0 0.012936276971234863 0.0 0.0
-0.051245594143986224 0.04744619362215425 0.0 0.0112212046397117 0.0 0.0
-0.04130594141638808 0.03777833356975322 0.0 0.009629263291449992 0.0 0.0
-0.03247160972514239 0.029222125535437328 0.0 0.008110308501174565 0.0 0.0
-0.024689247057165204 0.02170335890819542 0.0 0.006563491020286869 0.0 0.0
-0.017958611411970995 0.01521989823651346 0.0 0.004988214863920986 0.0 0.0
-0.012347446393903037 0.009853429588815911 0.0 0.0035052266084167607 0.0 0.0
-0.007947045332473802 0.005728643705159296 0.0 0.002264577480380274 0.0 0.0
-0.004792966869045249 0.002906348053568465 0.0 0.0013502171558610618 0.0 0.0
-0.0028316137834202104 0.0013704839489840713 0.0 0.0009611983023146602 0.0 0.0
-0.0018011716960224058 0.0007805289144868289 0.0 0.0010536570036020765 0.0 0.0
-0.0012204372303172776 0.0005401243151295837 0.0 0.001233492556749056 0.0 0.0
-0.0007272415587598817 0.00030051010914741217 0.0 0.001226778546613883 0.0 0.0
-0.00028492183647491873 -1.5568957405159523e-05 0.0 0.0008535398319811048 0.0 0.0
-9.1129466223613e-05 -9.084711914045882e-05 0.0 0.0004531195769854467 0.0 0.0
-0.00011668114309334548 -1.3154799012419245e-05 0.0 -0.00029369514019232407 0.0 0.0
-0.0003149728472477302 3.982559860755073e-05 0.0 -0.0005770673941618729 0.0 0.0
-0.0007899325534571728 0.00033219667248240206 0.0 -0.0008598285603222573 0.0 0.0
-0.0013510452824666102 0.0005807943864510558 0.0 -0.0008564615414603401 0.0 0.0
-0.0020644080453080535 0.0008827375714931204 0.0 -0.0006686702560214264 0.0 0.0
-0.00337542231060488 0.0017372840620650792 0.0 -0.0006051208594621065 0.0 0.0
-0.005738752352197695 0.0037194566174772485 0.0 -0.0009761022068394276 0.0 0.0
-0.009362504601877654 0.007016429218460929 0.0 -0.0016330598342661415 0.0 0.0
-0.014342448658826765 0.011716222049081888 0.0 -0.0025397821820282397 0.0 0.0
-0.02068598881253071 0.017799587291779245 0.0 -0.003625426385254522 0.0 0.0
-0.02832607546180433 0.025170055480666576 0.0 -0.004783418668301599 0.0 0.0
-0.03720487046592009 0.033762164348065615 0.0 -0.005921497237242254 0.0 0.0
-0.04732164048617154 0.043581052179605034 0.0 -0.007054746585989055 0.0 0.0
-0.058707281420706026 0.054677543989048935 0.0 -0.008290561852629816 0.0 0.0
-0.07131598857173883 0.06703468996959008 0.0 -0.0096387813635127 0.0 0.0
-0.08490482473589049 0.08044136049095074 0.0 -0.010899024359019453 0.0 0.0
-0.09882915302734965 0.09430069745425337 0.0 -0.011772912318841172 0.0 0.0
-0.1113904191162062 0.10712827311900251 0.0 -0.012950261000783149 0.0 0.0
-0.11858407443479965 0.1154325292558383 0.0 -0.01847859008715705 0.0 0.0
-0.11384444622255657 0.1124971710181111 0.0 -0.034914245738568585 0.0 0.0
-0.10754192330560865 0.08955724283066427 0.0 1.0760489721484134e-14 0.0 0.0
-0.1138444462225383 0.11249717101809287 0.0 0.03491424573859571 0.0 0.0
-0.11858407443476433 0.11543252925580447 0.0 0.018478590087184322 0.0 0.0
-0.11139041911615753 0.10712827311895544 0.0 0.012950261000795535 0.0 0.0
-0.0988291530272914 0.09430069745419338 0.0 0.01177291231884308 0.0 0.0
-0.08490482473582715 0.08044136049088374 0.0 0.010899024359016683 0.0 0.0
-0.0713159885716747 0.06703468996952919 0.0 0.009638781363509742 0.0 0.0
-0.05870728142064125 0.05467754398898559 0.0 0.00829056185262187 0.0 0.0
-0.04732164048610745 0.04358105217953937 0.0 0.007054746585982395 0.0 0.0
-0.03720487046586035 0.03376216434800677 0.0 0.0059214972372340436 0.0 0.0
-0.028326075461751955 0.025170055480612456 0.0 0.0047834186682897736 0.0 0.0
-0.020685988812487472 0.017799587291740526 0.0 0.003625426385244019 0.0 0.0
-0.014342448658792972 0.011716222049047844 0.0 0.002539782182022055 0.0 0.0
-0.009362504601853568 0.007016429218438052 0.0 0.0016330598342608475 0.0 0.0
-0.005738752352182749 0.003719456617464508 0.0 0.0009761022068358379 0.0 0.0
-0.003375422310597353 0.0017372840620587912 0.0 0.0006051208594596656 0.0 0.0
-0.002064408045305495 0.0008827375714917801 0.0 0.0006686702560212952 0.0 0.0
-0.0013510452824654607 0.0005807943864514958 0.0 0.000856461541459889 0.0 0.0
-0.000789932553456362 0.0003321966724831603 0.0 0.0008598285603224896 0.0 0.0
-0.00031497284724744826 3.982559860709412e-05 0.0 0.0005770673941617309 0.0 0.0
-0.00011668114309300801 -1.3154799012366409e-05 0.0 0.00029369514019117444 0.0 0.0
-0.00011661313305571605 1.3790444325349642e-05 0.0 -0.00016677760945659132 0.0 0.0
-0.00032106814658089834 7.629943201892538e-05 0.0 -0.0002889966552790434 0.0 0.0
-0.0008400812239085841 0.00035478105557675634 0.0 -0.00041998698021894775 0.0 0.0
-0.0014902014648064208 0.0006258842023720339 0.0 -0.00041032669523811754 0.0 0.0
-0.0023701930885831855 0.0010261770861672698 0.0 -0.0002583114799625143 0.0 0.0
-0.003977797379330029 0.002198060057417946 0.0 -0.00022203234299795544 0.0 0.0
-0.006716601397894022 0.004587596578963434 0.0 -0.0004322416257553339 0.0 0.0
-0.010778729636033872 0.008321462141820642 0.0 -0.0007698758968357916 0.0 0.0
-0.0163166623531823 0.013572097222137276 0.0 -0.0012346348761787015 0.0 0.0
-0.023377090596465866 0.020353085402442652 0.0 -0.0018043889056071393 0.0 0.0
-0.03192054434776798 0.02860534115420299 0.0 -0.0024118039346365107 0.0 0.0
-0.0419009723001452 0.03827851338288509 0.0 -0.0030172881739383177 0.0 0.0
-0.05331108587287733 0.04936986286141947 0.0 -0.003664042447242773 0.0 0.0
-0.06613326192533339 0.06188758215431828 0.0 -0.004386359950936321 0.0 0.0
-0.08023202649969835 0.07573840509586942 0.0 -0.005171343751489735 0.0 0.0
-0.09519957545402946 0.09055304656237513 0.0 -0.005893660273292364 0.0 0.0
-0.11021567173878521 0.10552697361021825 0.0 -0.006228872004457486 0.0 0.0
-0.12389878988593186 0.11926060026568397 0.0 -0.006114551124166588 0.0 0.0
-0.13323750376971252 0.12917468930692552 0.0 -0.008418587436918657 0.0 0.0
-0.13062393079069912 0.12945263570528012 0.0 -0.025230273462167514 0.0 0.0
-0.12496548144083164 0.10717032245683317 0.0 5.061923102900323e-15 0.0 0.0
-0.13062393079067755 0.12945263570525947 0.0 0.025230273462183907 0.0 0.0
-0.1332375037696728 0.12917468930688414 0.0 0.008418587436934702 0.0 0.0
-0.12389878988587663 0.11926060026563004 0.0 0.006114551124170489 0.0 0.0
-0.11021567173871931 0.10552697361014836 0.0 0.006228872004457256 0.0 0.0
-0.09519957545395884 0.09055304656230145 0.0 0.005893660273290642 0.0 0.0
-0.08023202649962656 0.075738405095801 0.0 0.00517134375148705 0.0 0.0
-0.06613326192526105 0.061887582154246334 0.0 0.004386359950934932 0.0 0.0
-0.05331108587280597 0.04936986286135097 0.0 0.0036640424472400212 0.0 0.0
-0.04190097230007895 0.0382785133828219 0.0 0.0030172881739320145 0.0 0.0
-0.03192054434770996 0.028605341154144495 0.0 0.0024118039346302388 0.0 0.0
-0.023377090596418116 0.02035308540239874 0.0 0.001804388905601716 0.0 0.0
-0.016316662353145116 0.01357209722210104 0.0 0.0012346348761758373 0.0 0.0
-0.010778729636006693 0.00832146214179617 0.0 0.000769875896832218 0.0 0.0
-0.006716601397876613 0.004587596578949462 0.0 0.00043224162575311684 0.0 0.0
-0.0039777973793207935 0.002198060057410144 0.0 0.00022203234299721187 0.0 0.0
-0.0023701930885795513 0.0010261770861657484 0.0 0.00025831147996287945 0.0 0.0
-0.0014902014648052013 0.0006258842023728462 0.0 0.00041032669523952787 0.0 0.0
-0.0008400812239078228 0.00035478105557683944 0.0 0.00041998698021842624 0.0 0.0
-0.0003210681465807375 7.629943201841354e-05 0.0 0.0002889966552785638 0.0 0.0
-0.00011661313305590828 1.3790444325357081e-05 0.0 0.00016677760945683982 0.0 0.0
-7.600606023323023e-05 1.4694790772954434e-05 0.0 -0.00010399791110510006 0.0 0.0
-0.00028644321313460496 8.8241473632615e-05 0.0 -0.00011998138115654281 0.0 0.0
-0.0008713694433337011 0.00036304775811039214 0.0 -0.0001424049245017282 0.0 0.0
-0.0016535122706836862 0.0006507062493432101 0.0 -0.00011572126842796569 0.0 0.0
-0.002730799532494843 0.0011125875141042249 0.0 7.697164190803541e-05 0.0 0.0
-0.00462481585146549 0.002447727507469352 0.0 0.00024935929806317093 0.0 0.0
-0.007707982444683693 0.0050307018044784355 0.0 0.000315932854960485 0.0 0.0
-0.012182028445420132 0.008976468545490912 0.0 0.0003406803518802323 0.0 0.0
-0.01825173821180751 0.014495156991075132 0.0 0.0003296549128911036 0.0 0.0
-0.026010446648942222 0.02162049285772071 0.0 0.0002567565911138713 0.0 0.0
-0.035453227597170185 0.030311915418330653 0.0 0.00016653792458919646 0.0 0.0
-0.04654582864027798 0.04052907032449941 0.0 5.7228349914852615e-05 0.0 0.0
-0.059243656017603986 0.05225850169268939 0.0 -0.00012528021661942224 0.0 0.0
-0.07348078028111829 0.06548115495152888 0.0 -0.00035081446574501945 0.0 0.0
-0.08904930418303704 0.08007331191443004 0.0 -0.00067469180610578 0.0 0.0
-0.10538221688679064 0.09558556853367425 0.0 -0.0010637975331223622 0.0 0.0
-0.12139812695283013 0.11108233234814058 0.0 -0.0013548730547484397 0.0 0.0
-0.1355275173216775 0.125121261018335 0.0 -0.0012772075281531382 0.0 0.0
-0.1460288100575478 0.1356211677120951 0.0 -0.0020831534367264457 0.0 0.0
-0.14857856804010364 0.138199847219493 0.0 -0.018332751391330924 0.0 0.0
-0.14699828025797113 0.11705349336814548 0.0 1.0547118733938987e-15 0.0 0.0
-0.14857856804007968 0.13819984721947337 0.0 0.018332751391334848 0.0 0.0
-0.14602881005750218 0.1356211677120469 0.0 0.0020831534367315267 0.0 0.0
-0.13552751732161394 0.125121261018279 0.0 0.0012772075281545902 0.0 0.0
-0.12139812695275556 0.11108233234806694 0.0 0.0013548730547463736 0.0 0.0
-0.10538221688671262 0.09558556853360484 0.0 0.0010637975331218522 0.0 0.0
-0.08904930418295762 0.08007331191436025 0.0 0.000674691806101883 0.0 0.0
-0.07348078028103774 0.0654811549514528 0.0 0.00035081446574574716 0.0 0.0
-0.05924365601752577 0.05225850169261939 0.0 0.00012528021661840482 0.0 0.0
-0.04654582864020554 0.04052907032443291 0.0 -5.722834991840099e-05 0.0 0.0
-0.03545322759710687 0.030311915418272536 0.0 -0.00016653792459097802 0.0 0.0
-0.026010446648890195 0.021620492857674076 0.0 -0.0002567565911153948 0.0 0.0
-0.018251738211766854 0.014495156991038614 0.0 -0.00032965491289146725 0.0 0.0
-0.012182028445390167 0.008976468545465867 0.0 -0.00034068035188116776 0.0 0.0
-0.007707982444663771 0.005030701804460814 0.0 -0.0003159328549608802 0.0 0.0
-0.004624815851454774 0.002447727507461077 0.0 -0.00024935929806219395 0.0 0.0
-0.0027307995324903425 0.0011125875141030283 0.0 -7.697164190763578e-05 0.0 0.0
-0.001653512270682107 0.0006507062493425549 0.0 0.00011572126842893273 0.0 0.0
-0.0008713694433329657 0.0003630477581096272 0.0 0.0001424049245005184 0.0 0.0
-0.00028644321313405494 8.824147363236335e-05 0.0 0.00011998138115537765 0.0 0.0
-7.600606023284726e-05 1.4694790772906647e-05 0.0 0.00010399791110779074 0.0 0.0
SCALARS Statev float 8
LOOKUP_TABLE default
0.0 0.01684468327896584 0.013450515815383651 -0.016106105982772498 0.0026555901673888495 -0.00078101508365348 0.0 0.0
0.0 0.0055504149154162255 0.004045148634778875 -0.0024342983443496773 -0.0016108502904291977 -0.006395079769044771 0.0 0.0
0.0 5.970056059060172e-05 0.00010451373607903133 -6.590711267301005e-05 -3.8606623406021395e-05 -0.00021838859496553517 0.0 0.0
0.0 0.00012258768290763196 3.873024654174132e-05 -2.7720101117433937e-05 -1.1010145424307482e-05 1.4161504276381105e-05 0.0 0.0
0.0 0.0007663264396032445 0.0004588641252855698 -0.00033360434374961237 -0.00012525978153595766 0.00010200548409339017 0.0 0.0
0.0 0.0019257845332530704 0.0019404781636318798 -0.0015168851465404407 -0.00042359301709143894 0.00021442041475377378 0.0 0.0
0.0 0.005009462411603757 0.004617088699003543 -0.0038878615400678284 -0.0007292271589357097 0.000302067463597959 0.0 0.0
0.0 0.009645832295278347 0.008758468578542136 -0.0077748197421594265 -0.0009836488363827106 0.00034674051819551087 0.0 0.0
0.0 0.016165727645391013 0.014500623147955981 -0.013304885510967092 -0.001195737636988875 0.0003523558504004454 0.0 0.0
0.0 0.024674423400236845 0.02191016024217885 -0.020494759891304188 -0.0014154003508747045 0.00030093216957965355 0.0 0.0
0.0 0.03515128907821323 0.030980643948279284 -0.02931212890718988 -0.0016685150410893708 0.00022955172087553796 0.0 0.0
0.0 0.04723683690551781 0.041688920011384994 -0.0397284638519837 -0.001960456159401311 0.00013255470538612332 0.0 0.0
0.0 0.061250173387201984 0.05400005972484471 -0.051717726427712725 -0.002282333297131986 -4.19465358427126e-05 0.0 0.0
0.0 0.07708736088946691 0.06787668518197851 -0.06525352760938594 -0.002623157572592506 -0.00024221600667179263 0.0 0.0
0.0 0.09462138629668024 0.08320396543289366 -0.0802379534062832 -0.002966012026610325 -0.0005149295637887795 0.0 0.0
0.0 0.11349094080937751 0.0996296051439623 -0.0963369109034109 -0.00329269424055137 -0.0008656241976236225 0.0 0.0
0.0 0.13284510836379904 0.11644643770150592 -0.11286038779995775 -0.003586049901548218 -0.0012341740138669935 0.0 0.0
0.0 0.15142076902312585 0.1325698426282531 -0.1287414237859103 -0.0038284188423426623 -0.0014796710885976098 0.0 0.0
0.0 0.1676341919741178 0.14663602278972943 -0.1426240375590796 -0.004011985230649817 -0.0014260921264491917 0.0 0.0
0.0 0.17943019583284675 0.15705398512079244 -0.152939198743221 -0.004114786377571589 -0.0014823777220166457 0.0 0.0
0.0 0.18423340403388838 0.1611865184196095 -0.15708577889372768 -0.004100739525881604 1.721713049906981e-15 0.0 0.0
0.0 0.17943019583281913 0.15705398512076874 -0.1529391987431965 -0.00411478637757217 0.0014823777220233916 0.0 0.0
0.0 0.1676341919740716 0.1466360227896889 -0.1426240375590406 -0.004011985230648373 0.0014260921264549675 0.0 0.0
0.0 0.15142076902305637 0.13256984262819216 -0.12874142378585085 -0.0038284188423413526 0.001479671088600803 0.0 0.0
0.0 0.13284510836372193 0.11644643770143852 -0.1128603877998926 -0.003586049901545938 0.0012341740138661402 0.0 0.0
0.0 0.1134909408092908 0.0996296051438865 -0.09633691090333592 -0.0032926942405507044 0.0008656241976211553 0.0 0.0
0.0 0.09462138629659728 0.08320396543282105 -0.08023795340621265 -0.0029660120266082747 0.0005149295637877347 0.0 0.0
0.0 0.07708736088938131 0.06787668518190389 -0.06525352760931256 -0.002623157572591368 0.00024221600667057204 0.0 0.0
0.0 0.061250173387117954 0.054000059724771364 -0.051717726427641234 -0.0022823332971300637 4.19465358410258e-05 0.0 0.0
0.0 0.04723683690544361 0.04168892001131981 -0.03972846385192024 -0.0019604561593995775 -0.0001325547053879477 0.0 0.0
0.0 0.03515128907814612 0.030980643948220574 -0.029312128907132542 -0.0016685150410880316 -0.0002295517208769451 0.0 0.0
0.0 0.024674423400185025 0.02191016024213352 -0.020494759891260178 -0.001415400350873357 -0.00030093216958126695 0.0 0.0
0.0 0.016165727645351693 0.014500623147921072 -0.013304885510933477 -0.0011957376369875813 -0.0003523558504006541 0.0 0.0
0.0 0.009645832295248298 0.00875846857851491 -0.007774819742133512 -0.0009836488363814035 -0.00034674051819514755 0.0 0.0
0.0 0.0050094624115889505 0.004617088698989255 -0.0038878615400549385 -0.0007292271589343122 -0.0003020674635977452 0.0 0.0
0.0 0.0019257845332450942 0.0019404781636236249 -0.001516885146533588 -0.0004235930170900352 -0.00021442041475303665 0.0 0.0
0.0 0.0007663264395999879 0.0004588641252835525 -0.00033360434374818127 -0.0001252597815353699 -0.00010200548409285219 0.0 0.0
0.0 0.00012258768290676687 3.873024654173617e-05 -2.772010111744192e-05 -1.1010145424293728e-05 -1.4161504276313973e-05 0.0 0.0
0.0 5.9700560589634244e-05 0.00010451373607830022 -6.590711267250939e-05 -3.860662340579025e-05 0.00021838859496444183 0.0 0.0
0.0 0.005550414915406542 0.004045148634773815 -0.002434298344346087 -0.0016108502904277223 0.006395079769035621 0.0 0.0
0.0 0.01684468327894574 0.013450515815370013 -0.016106105982753634 0.0026555901673836124 0.0007810150836182262 0.0 0.0
0.0 0.013654262768804848 0.010174622835827629 -0.0132448458964297 0.0030702230606020637 -0.000311490009945066 0.0 0.0
0.0 0.0033232730687725092 0.0023789009757550286 -0.0014025946883396312 -0.0009763062874153937 -0.0049289210744503445 0.0 0.0
0.0 -5.586829418169674e-05 -5.86578107407577e-05 5.067269737269126e-05 7.985113368066475e-06 -5.065092955620393e-05 0.0 0.0
0.0 1.8049940675625714e-05 9.6557819963157e-06 -6.944384994276886e-06 -2.7113970020388317e-06 6.776124650465928e-06 0.0 0.0
0.0 0.00038652326934130295 0.00028070970874024485 -0.00020565873403511747 -7.505097470512702e-05 4.1923698800038625e-05 0.0 0.0
0.0 0.0016972268361103123 0.0014458885221758386 -0.0011407090998175797 -0.0003051794223582611 5.281445797711535e-05 0.0 0.0
0.0 0.004210617275651223 0.0038784760145179134 -0.0033020009422097727 -0.0005764750723081354 -0.00014581297089088867 0.0 0.0
0.0 0.008510030658980055 0.007669868980187984 -0.006897203499985977 -0.0007726654802020088 -0.00047580706170639056 0.0 0.0
0.0 0.014591435130130679 0.012964695759898247 -0.012065382708463903 -0.0008993130514343304 -0.0009358871925845601 0.0 0.0
0.0 0.022452975300659875 0.01979246227996436 -0.018790785417456213 -0.0010016768625081426 -0.001497932841227184 0.0 0.0
0.0 0.03207901132912625 0.028116444942495242 -0.027014457843966114 -0.0011019870985291365 -0.0021055826884313583 0.0 0.0
0.0 0.04352555366488213 0.037898667092910766 -0.03669277852102163 -0.0012058885718890923 -0.0027235855605916024 0.0 0.0
0.0 0.056207925053796536 0.049143270538766666 -0.04783024371254863 -0.0013130268262179687 -0.003388801973490013 0.0 0.0
0.0 0.07085592738401605 0.06183948759198905 -0.06042307915863203 -0.0014164084333570372 -0.00411444078599775 0.0 0.0
0.0 0.08706587555394349 0.07589603731100972 -0.07439117008055066 -0.0015048672304590377 -0.004886793037118235 0.0 0.0
0.0 0.1045155919786298 0.09100340649483506 -0.08943462586625953 -0.0015687806285756055 -0.005654925060508277 0.0 0.0
0.0 0.12249659344820721 0.10652409104005658 -0.10492195153371958 -0.0016021395063368958 -0.0062355336167072796 0.0 0.0
0.0 0.13986352903957455 0.1214729428947716 -0.11986693926122138 -0.001606003633550359 -0.006319731122523286 0.0 0.0
0.0 0.15505432489536458 0.13454689565034567 -0.13296741704593018 -0.0015794786044153796 -0.005655273032803337 0.0 0.0
0.0 0.1661214372151205 0.14401261110452224 -0.1425326684094403 -0.0014799426950818106 -0.0045445526137388274 0.0 0.0
0.0 0.17075064725206723 0.147683072166983 -0.14635850045855367 -0.0013245717084294974 5.8559927740287065e-15 0.0 0.0
0.0 0.16612143721509712 0.14401261110450184 -0.14253266840941947 -0.0014799426950823321 0.004544552613754848 0.0 0.0
0.0 0.15505432489532225 0.13454689565030886 -0.13296741704589368 -0.0015794786044151647 0.005655273032819563 0.0 0.0
0.0 0.13986352903951108 0.12147294289471695 -0.11986693926116641 -0.0016060036335504217 0.006319731122532395 0.0 0.0
0.0 0.1224965934481369 0.10652409103999592 -0.10492195153365959 -0.0016021395063363375 0.006235533616708408 0.0 0.0
0.0 0.10451559197855055 0.09100340649476657 -0.08943462586619078 -0.0015687806285756552 0.005654925060503349 0.0 0.0
0.0 0.08706587555386647 0.07589603731094255 -0.07439117008048432 -0.0015048672304583165 0.00488679303711643 0.0 0.0
0.0 0.07085592738393932 0.06183948759192259 -0.06042307915856592 -0.0014164084333566545 0.004114440785995805 0.0 0.0
0.0 0.056207925053720104 0.04914327053870039 -0.04783024371248319 -0.0013130268262172274 0.0033888019734857376 0.0 0.0
0.0 0.04352555366481292 0.0378986670928504 -0.0366927785209618 -0.0012058885718885808 0.0027235855605869438 0.0 0.0
0.0 0.032079011329065335 0.028116444942442458 -0.02701445784391381 -0.0011019870985286573 0.0021055826884252542 0.0 0.0
0.0 0.022452975300612382 0.019792462279922426 -0.018790785417414916 -0.0010016768625075024 0.001497932841222844 0.0 0.0
0.0 0.014591435130094586 0.012964695759865943 -0.012065382708432356 -0.0008993130514335882 0.0009358871925817284 0.0 0.0
0.0 0.00851003065895299 0.007669868980163578 -0.006897203499962383 -0.0007726654802011984 0.0004758070617038201 0.0 0.0
0.0 0.0042106172756359314 0.0038784760145035863 -0.003302000942196701 -0.0005764750723068821 0.00014581297088952496 0.0 0.0
0.0 0.001697226836102427 0.0014458885221689532 -0.0011407090998118462 -0.00030517942235710604 -5.2814457977319337e-05 0.0 0.0
0.0 0.0003865232693389867 0.0002807097087388992 -0.00020565873403416884 -7.505097470473066e-05 -4.192369879966541e-05 0.0 0.0
0.0 1.8049940675200324e-05 9.655781996582733e-06 -6.944384994482321e-06 -2.7113970021002268e-06 -6.776124650437364e-06 0.0 0.0
0.0 -5.586829418151295e-05 -5.865781074053672e-05 5.067269737249013e-05 7.985113368046432e-06 5.065092955596063e-05 0.0 0.0
0.0 0.003323273068763021 0.0023789009757499125 -0.0014025946883360857 -0.0009763062874138264 0.004928921074439891 0.0 0.0
0.0 0.013654262768783296 0.010174622835811139 -0.013244845896408829 0.0030702230605976818 0.0003114900099188717 0.0 0.0
0.0 0.010074378668297109 0.007344851057631621 -0.009835092964413527 0.0024902419067818963 -0.0025875704978880597 0.0 0.0
0.0 0.0023108023840960807 0.0014614784385522564 -0.000773230343575973 -0.000688248094976283 -0.003988298843979073 0.0 0.0
0.0 3.1240960923657767e-08 2.1604234407771075e-09 -1.9851233946725955e-09 -1.7530004610466838e-10 2.8906962107161807e-09 0.0 0.0
0.0 -3.102980826910198e-06 -4.673837119702108e-06 3.6289030967870756e-06 1.044934022914906e-06 1.7276701253258976e-06 0.0 0.0
0.0 0.0001435941985539768 0.00010980926331963727 -7.786076022247009e-05 -3.194850309716752e-05 1.5314425461919337e-05 0.0 0.0
0.0 0.0011758924770698493 0.0009419077776812923 -0.0007240770255046608 -0.0002178307521766307 -4.019233739880525e-05 0.0 0.0
0.0 0.0031950617307140296 0.0030061025977359554 -0.0025055234380164495 -0.0005005791597195099 -0.0004332834917999338 0.0 0.0
0.0 0.007042010459579101 0.006354836174176495 -0.005638747243407276 -0.0007160889307692176 -0.0010837569213545408 0.0 0.0
0.0 0.012461512361983895 0.011093385596233392 -0.0102402970824276 -0.0008530885138057939 -0.001976157540425529 0.0 0.0
0.0 0.019566452012455587 0.017207788680443533 -0.01625474311129354 -0.0009530455691499961 -0.003048878614075281 0.0 0.0
0.0 0.02819580918978643 0.02463269225093887 -0.0235855933267768 -0.0010470989241620555 -0.004208699924569002 0.0 0.0
0.0 0.0381767386012878 0.03331992422464519 -0.03217531250873434 -0.001144611715910855 -0.005372317487038966 0.0 0.0
0.0 0.049867207211124635 0.04327601645755554 -0.04203097582376828 -0.0012450406337872894 -0.006545523389601556 0.0 0.0
0.0 0.06261349880191718 0.054543407749744546 -0.053201777077449504 -0.0013416306722949922 -0.007812597727599064 0.0 0.0
0.0 0.07708397899522157 0.06706048313286572 -0.06563552081555403 -0.0014249623173117224 -0.00917619747908954 0.0 0.0
0.0 0.0927050209328393 0.08057418736449773 -0.0790881130424777 -0.0014860743220199573 -0.010503284294983645 0.0 0.0
0.0 0.10887638156346445 0.09455117289137902 -0.09303024598012163 -0.0015209269112574546 -0.011481629751081641 0.0 0.0
0.0 0.12458268699206762 0.10812425434820987 -0.10659810332001234 -0.0015261510281975072 -0.011630993362618912 0.0 0.0
0.0 0.13840257828381825 0.12003855605418974 -0.11855023208452793 -0.0014883239696617582 -0.010555259421662449 0.0 0.0
0.0 0.14844489550893541 0.1286594844113067 -0.12723655125191485 -0.0014229331593917194 -0.008157496535762102 0.0 0.0
0.0 0.15281211819222806 0.13209725301431754 -0.13086385915304657 -0.0012333938612708953 1.1736271676721088e-14 0.0 0.0
0.0 0.14844489550891643 0.1286594844112888 -0.12723655125189756 -0.0014229331593913616 0.008157496535790638 0.0 0.0
0.0 0.1384025782837789 0.12003855605415541 -0.11855023208449372 -0.0014883239696618052 0.010555259421691172 0.0 0.0
0.0 0.1245826869920118 0.10812425434816164 -0.1065981033199638 -0.0015261510281977134 0.011630993362635237 0.0 0.0
0.0 0.10887638156340206 0.09455117289132539 -0.09303024598006845 -0.0015209269112568982 0.011481629751083532 0.0 0.0
0.0 0.09270502093277155 0.08057418736443883 -0.07908811304241925 -0.0014860743220195892 0.010503284294978535 0.0 0.0
0.0 0.07708397899515211 0.06706048313280553 -0.06563552081549426 -0.0014249623173112887 0.009176197479086557 0.0 0.0
0.0 0.06261349880185066 0.054543407749686454 -0.05320177707739254 -0.0013416306722939047 0.007812597727595402 0.0 0.0
0.0 0.04986720721105683 0.04327601645749689 -0.04203097582371007 -0.0012450406337868145 0.006545523389594209 0.0 0.0
0.0 0.03817673860122383 0.03331992422458992 -0.03217531250867941 -0.0011446117159104685 0.005372317487030208 0.0 0.0
0.0 0.02819580918973278 0.024632692250891878 -0.023585593326730294 -0.0010470989241615838 0.004208699924559332 0.0 0.0
0.0 0.019566452012413877 0.017207788680406642 -0.016254743111257138 -0.0009530455691494888 0.00304887861406739 0.0 0.0
0.0 0.01246151236195123 0.011093385596204446 -0.010240297082399319 -0.0008530885138051378 0.001976157540419915 0.0 0.0
0.0 0.007042010459555851 0.006354836174155906 -0.005638747243387552 -0.0007160889307683482 0.0010837569213499644 0.0 0.0
0.0 0.0031950617307006783 0.003006102597723443 -0.0025055234380051434 -0.000500579159718301 0.0004332834917970606 0.0 0.0
0.0 0.0011758924770637433 0.0009419077776762311 -0.0007240770255006342 -0.00021783075217559635 4.019233739825445e-05 0.0 0.0
0.0 0.00014359419855249704 0.00010980926331900888 -7.786076022204522e-05 -3.1948503096963564e-05 -1.5314425461702923e-05 0.0 0.0
0.0 -3.102980827077591e-06 -4.673837119571563e-06 3.6289030966878178e-06 1.044934022883767e-06 -1.7276701253074576e-06 0.0 0.0
0.0 3.124096091298439e-08 2.160423453633837e-09 -1.9851234054048706e-09 -1.753000482286919e-10 -2.8906962186543174e-09 0.0 0.0
0.0 0.002310802384088605 0.0014614784385477385 -0.0007732303435729819 -0.0006882480949747553 0.003988298843967321 0.0 0.0
0.0 0.010074378668275449 0.007344851057615591 -0.009835092964393036 0.0024902419067774463 0.002587570497870597 0.0 0.0
0.0 0.007564812971591553 0.005365151146921339 -0.007339896160391094 0.001974745013469742 -0.002834231243660796 0.0 0.0
0.0 0.0016301899693212337 0.0009663635359258165 -0.0004949871791946927 -0.0004713763567311213 -0.0029480478615811403 0.0 0.0
0.0 0.0 0.0 0.0 0.0 0.0 0.0 0.0
0.0 -5.704236133996406e-07 -2.0293610112436284e-07 1.7273185654590344e-07 3.0204244578455815e-08 1.6954160455185035e-07 0.0 0.0
0.0 3.6551240687700317e-05 1.3771237930310088e-05 -8.02341348914225e-06 -5.747824441167555e-06 1.2988323210462922e-05 0.0 0.0
0.0 0.0006433598061868443 0.0005492118129733502 -0.0004118749626590289 -0.0001373368503143207 -8.644258457829888e-05 0.0 0.0
0.0 0.0024712734715545684 0.0021601713227156366 -0.001755580981636146 -0.0004045903410794889 -0.000524613341069168 0.0 0.0
0.0 0.005615489800640716 0.005058374462403653 -0.004413365739126387 -0.0006450087232772663 -0.0014533238215101553 0.0 0.0
0.0 0.010403839125475382 0.009218034331591803 -0.008419998450763225 -0.0007980358808285731 -0.002680566544973208 0.0 0.0
0.0 0.01668203844290049 0.014603633771863606 -0.013704152757697147 -0.0008994810141664643 -0.004149773668200789 0.0 0.0
0.0 0.024235177803540113 0.021124408495111276 -0.0201366202993094 -0.0009877881958018624 -0.005729755024746106 0.0 0.0
0.0 0.03311966275461477 0.028716935783095733 -0.0276387195903509 -0.001078216192744833 -0.007309345623322392 0.0 0.0
0.0 0.04304579121457076 0.037398591426275454 -0.036226223762902424 -0.001172367663373068 -0.00888980049834623 0.0 0.0
0.0 0.054654054486011024 0.04721788151107534 -0.04595630327111479 -0.0012615782399605403 -0.010555894841113949 0.0 0.0
0.0 0.06723652692093288 0.0581737871478922 -0.05683461389564436 -0.00133917325224779 -0.012339431862042113 0.0 0.0
0.0 0.08083511114051525 0.07008168963989349 -0.06868213239110686 -0.001399557248786619 -0.01409345561603426 0.0 0.0
0.0 0.09529128379381314 0.08250735206833304 -0.081071338167881 -0.0014360139004520045 -0.015420251042230142 0.0 0.0
0.0 0.10940753002971745 0.09470641146468864 -0.09326503333735219 -0.0014413781273363779 -0.0157346726222971 0.0 0.0
0.0 0.12192106150802634 0.10554306968867927 -0.10413231685951614 -0.0014107528291630905 -0.01442641390105982 0.0 0.0
0.0 0.13115758064367788 0.11356775519336716 -0.11220479888271923 -0.0013629563106481463 -0.010787446331328228 0.0 0.0
0.0 0.13550489052061535 0.11695275011818534 -0.11585598105498429 -0.0010967690632010662 1.6278645098566358e-14 0.0 0.0
0.0 0.13115758064365915 0.11356775519334941 -0.11220479888270124 -0.0013629563106481093 0.010787446331366588 0.0 0.0
0.0 0.12192106150799402 0.10554306968865046 -0.10413231685948741 -0.0014107528291630027 0.014426413901096448 0.0 0.0
0.0 0.10940753002966974 0.09470641146464712 -0.09326503333730989 -0.0014413781273372392 0.01573467262231876 0.0 0.0
0.0 0.0952912837937561 0.0825073520682841 -0.08107133816783231 -0.0014360139004517569 0.015420251042232155 0.0 0.0
0.0 0.08083511114045769 0.07008168963984339 -0.0686821323910575 -0.0013995572487858288 0.014093455616028698 0.0 0.0
0.0 0.06723652692087378 0.05817378714784069 -0.05683461389559365 -0.0013391732522470647 0.012339431862036974 0.0 0.0
0.0 0.054654054485951856 0.04721788151102372 -0.04595630327106382 -0.0012615782399598967 0.0105558948411084 0.0 0.0
0.0 0.04304579121451268 0.037398591426225605 -0.036226223762852915 -0.0011723676633726748 0.008889800498337297 0.0 0.0
0.0 0.03311966275456056 0.028716935783048486 -0.027638719590304135 -0.0010782161927443744 0.007309345623309825 0.0 0.0
0.0 0.024235177803491173 0.02112440849506882 -0.0201366202992672 -0.0009877881958016133 0.005729755024733482 0.0 0.0
0.0 0.01668203844286407 0.014603633771831775 -0.013704152757665988 -0.0008994810141657773 0.004149773668189717 0.0 0.0
0.0 0.010403839125444899 0.00921803433156521 -0.008419998450737284 -0.0007980358808279165 0.002680566544964926 0.0 0.0
0.0 0.005615489800622254 0.005058374462386615 -0.004413365739110324 -0.0006450087232762886 0.0014533238215042868 0.0 0.0
0.0 0.002471273471542935 0.002160171322705899 -0.0017555809816277531 -0.0004045903410781458 0.0005246133410660872 0.0 0.0
0.0 0.0006433598061822565 0.0005492118129699799 -0.00041187496265644214 -0.00013733685031353822 8.644258457766348e-05 0.0 0.0
0.0 3.6551240686770634e-05 1.3771237930268756e-05 -8.023413489135188e-06 -5.747824441133581e-06 -1.298832321025537e-05 0.0 0.0
0.0 -5.704236133012532e-07 -2.0293610116811582e-07 1.727318565799011e-07 3.0204244588227015e-08 -1.695416045844765e-07 0.0 0.0
0.0 0.0 0.0 0.0 0.0 0.0 0.0 0.0
0.0 0.001630189969314457 0.0009663635359219074 -0.0004949871791920764 -0.0004713763567298331 0.0029480478615707267 0.0 0.0
0.0 0.007564812971573802 0.005365151146907505 -0.007339896160373193 0.001974745013465696 0.002834231243648332 0.0 0.0
0.0 0.005472110454562919 0.0038629948328164545 -0.005379169595306875 0.0015161747624904236 -0.002445809951353293 0.0 0.0
0.0 0.0012994294169916252 0.0006087302979161601 -0.000298954840284829 -0.0003097754576313304 -0.0020462846369544837 0.0 0.0
0.0 0.0 0.0 0.0 0.0 0.0 0.0 0.0
0.0 -1.7918878968638495e-07 1.6580370838373166e-08 -1.3354665710081564e-08 -3.22570512829003e-09 -1.9972891801069645e-08 0.0 0.0
0.0 -1.881982275922997e-05 -9.285681239127414e-06 7.803154711137932e-06 1.4825265279894706e-06 1.1921581261664887e-05 0.0 0.0
0.0 0.0003215124360562668 0.0002406049571321781 -0.00017564168236703628 -6.49632747651416e-05 -5.55609504558858e-05 0.0 0.0
0.0 0.0017654642704338053 0.0014144379731487573 -0.0011189895325626816 -0.0002954484405860748 -0.0005113011171783247 0.0 0.0
0.0 0.0042612625356854 0.003800738416648829 -0.003243035406719957 -0.0005577030099288765 -0.0015441602228854902 0.0 0.0
0.0 0.008383610504533432 0.007361716532004397 -0.006631276352871302 -0.0007304401791330934 -0.003041429993757402 0.0 0.0
0.0 0.013797173338119827 0.012003539324765115 -0.011165332091097593 -0.000838207233667524 -0.004793356402816736 0.0 0.0
0.0 0.020368311553945966 0.017613378609364516 -0.016690425492017807 -0.0009229531173467177 -0.006668598949725765 0.0 0.0
0.0 0.0279928403292308 0.02411501383480446 -0.023108648374041398 -0.0010063654607630516 -0.008535774597205966 0.0 0.0
0.0 0.0367309611085062 0.031519005624784845 -0.030426227862768485 -0.0010927777620163134 -0.010396078955462539 0.0 0.0
0.0 0.046275879187623166 0.03990176057893579 -0.0387253452970978 -0.001176415281837972 -0.012342325983914673 0.0 0.0
0.0 0.05728873612932853 0.04928267777118292 -0.048034015139328055 -0.00124866263185489 -0.014400421905105862 0.0 0.0
0.0 0.06930687432918445 0.059553287797400566 -0.05824782587603043 -0.001305461921370085 -0.01641368959659981 0.0 0.0
0.0 0.08172298171208961 0.07039905377081385 -0.06905463608736599 -0.001344417683447809 -0.01800525211893492 0.0 0.0
0.0 0.09420451385681192 0.0812132685910184 -0.07985645658221874 -0.0013568120087997825 -0.01855856033314392 0.0 0.0
0.0 0.10552025404165907 0.09104251828238731 -0.089706309657787 -0.0013362086246002565 -0.017182327398319118 0.0 0.0
0.0 0.11419657215038223 0.09862913791557218 -0.09733392945241873 -0.0012952084631533201 -0.012761208713911216 0.0 0.0
0.0 0.11867470843157182 0.10206630280970883 -0.1011319615314562 -0.0009343412782526393 1.8491284892174775e-14 0.0 0.0
0.0 0.11419657215036597 0.0986291379155563 -0.09733392945240221 -0.0012952084631539713 0.01276120871395392 0.0 0.0
0.0 0.10552025404163232 0.09104251828236233 -0.0897063096577626 -0.0013362086245996693 0.01718232739836005 0.0 0.0
0.0 0.09420451385677098 0.08121326859098246 -0.07985645658218198 -0.0013568120088004643 0.018558560333168588 0.0 0.0
0.0 0.08172298171203918 0.07039905377077063 -0.06905463608732294 -0.0013444176834476915 0.018005252118938 0.0 0.0
0.0 0.0693068743291329 0.05955328779735582 -0.058247825875986106 -0.0013054619213696802 0.016413689596592413 0.0 0.0
0.0 0.05728873612927721 0.04928267777113836 -0.04803401513928388 -0.0012486626318544626 0.014400421905099315 0.0 0.0
0.0 0.04627587918757343 0.039901760578892415 -0.03872534529705507 -0.001176415281837357 0.01234232598390874 0.0 0.0
0.0 0.03673096110845587 0.03151900562474104 -0.030426227862725388 -0.001092777762015624 0.010396078955452165 0.0 0.0
0.0 0.027992840329186166 0.024115013834765685 -0.023108648374003296 -0.0010063654607623755 0.008535774597192354 0.0 0.0
0.0 0.020368311553903066 0.017613378609327802 -0.016690425491981624 -0.0009229531173461914 0.006668598949709707 0.0 0.0
0.0 0.013797173338086353 0.012003539324736325 -0.011165332091069395 -0.0008382072336669202 0.004793356402803183 0.0 0.0
0.0 0.008383610504508256 0.007361716531982428 -0.006631276352850023 -0.0007304401791324034 0.003041429993747786 0.0 0.0
0.0 0.004261262535668024 0.0038007384166333963 -0.003243035406705802 -0.0005577030099275952 0.0015441602228785055 0.0 0.0
0.0 0.0017654642704238001 0.0014144379731408287 -0.0011189895325560734 -0.0002954484405847569 0.0005113011171748712 0.0 0.0
0.0 0.0003215124360531727 0.00024060495713023493 -0.00017564168236560343 -6.496327476463088e-05 5.55609504553922e-05 0.0 0.0
0.0 -1.881982275947858e-05 -9.285681238792826e-06 7.803154710880779e-06 1.482526527911985e-06 -1.192158126135752e-05 0.0 0.0
0.0 -1.7918878958620634e-07 1.6580370829333657e-08 -1.3354665703083526e-08 -3.225705126253981e-09 1.9972891788994082e-08 0.0 0.0
0.0 0.0 0.0 0.0 0.0 0.0 0.0 0.0
0.0 0.0012994294169854062 0.0006087302979132113 -0.0002989548402828726 -0.0003097754576303371 0.0020462846369461904 0.0 0.0
0.0 0.005472110454548051 0.0038629948328048314 -0.005379169595291629 0.0015161747624867908 0.0024458099513442848 0.0 0.0
0.0 0.003929874931451278 0.0026738093161969246 -0.003781500313709367 0.001107690997512443 -0.0019130533243227497 0.0 0.0
0.0 0.0007472061487726802 0.00035896221567481183 -0.00016589861379783424 -0.00019306360187697745 -0.0013374614264761062 0.0 0.0
0.0 0.0 0.0 0.0 0.0 0.0 0.0 0.0
0.0 -4.2819074672083497e-07 3.2598703140169964e-08 -2.4906694850939358e-08 -7.692008289230642e-09 -6.631307165159322e-08 0.0 0.0
0.0 -8.455041027986399e-06 -7.059566458887966e-06 5.62148439737094e-06 1.4380820615170347e-06 9.823684421882274e-06 0.0 0.0
0.0 7.602739796635798e-05 7.127455478583343e-05 -4.986107032832622e-05 -2.1413484457507296e-05 -1.8230227462443303e-05 0.0 0.0
0.0 0.0009395409093062273 0.0008296779654939013 -0.0006400319297977615 -0.0001896460356961406 -0.0004472255851697844 0.0 0.0
0.0 0.0032689273906534597 0.002609803204700642 -0.0021678243234955507 -0.0004419788812050904 -0.001407877632533028 0.0 0.0
0.0 0.006293692456720606 0.005549535076954818 -0.0049048447945033045 -0.0006446902824515115 -0.003029449681183599 0.0 0.0
0.0 0.010993447988735717 0.009430362619915495 -0.008665367081996606 -0.0007649955379188914 -0.004967917564863953 0.0 0.0
0.0 0.016517426367716585 0.014124303021535943 -0.013274439305166077 -0.0008498637163698579 -0.007013543173730213 0.0 0.0
0.0 0.022883926803000304 0.01953800623757783 -0.018610541216472893 -0.0009274650211049326 -0.009047356076156025 0.0 0.0
0.0 0.030093207643866714 0.025674568598434915 -0.024667829349294033 -0.001006739249140917 -0.011057924332811924 0.0 0.0
0.0 0.0383129349701711 0.03261289618362136 -0.03153017420394908 -0.0010827219796722834 -0.013140676181396433 0.0 0.0
0.0 0.04739283356385676 0.04041923949150682 -0.039269014321964335 -0.001150225169542472 -0.01533744859961561 0.0 0.0
0.0 0.05731378788438719 0.04904120579823244 -0.04783640692881542 -0.0012047988694170225 -0.01748502833250777 0.0 0.0
0.0 0.06831052009981599 0.058252877483895515 -0.057008502519897766 -0.0012443749639977414 -0.01922394486798961 0.0 0.0
0.0 0.07906733725307573 0.0676385739792657 -0.0663714667311476 -0.0012671072481181527 -0.01999405901414274 0.0 0.0
0.0 0.0890310983706627 0.07648575031272493 -0.0752255945903047 -0.0012601557224202935 -0.018793068632076818 0.0 0.0
0.0 0.09731749839362923 0.08373077041658793 -0.08250877463300618 -0.0012219957835816718 -0.01414779798661004 0.0 0.0
0.0 0.10206990363098357 0.0873009569885117 -0.08655216576832658 -0.0007487912201851027 1.9059840511426174e-14 0.0 0.0
0.0 0.09731749839361725 0.08373077041657477 -0.08250877463299314 -0.0012219957835817507 0.01414779798665318 0.0 0.0
0.0 0.08903109837063795 0.07648575031270116 -0.07522559459028072 -0.0012601557224204748 0.018793068632118895 0.0 0.0
0.0 0.07906733725304277 0.06763857397923592 -0.06637146673111807 -0.0012671072481178138 0.019994059014168147 0.0 0.0
0.0 0.06831052009977452 0.05825287748385987 -0.05700850251986262 -0.0012443749639972441 0.019223944867993635 0.0 0.0
0.0 0.05731378788434205 0.04904120579819374 -0.04783640692877661 -0.0012047988694171123 0.017485028332499323 0.0 0.0
0.0 0.04739283356381113 0.040419239491467356 -0.03926901432192518 -0.001150225169542198 0.015337448599606169 0.0 0.0
0.0 0.038312934970131225 0.03261289618358603 -0.03153017420391497 -0.001082721979671097 0.013140676181389718 0.0 0.0
0.0 0.03009320764382408 0.025674568598398485 -0.024667829349257927 -0.001006739249140541 0.011057924332801297 0.0 0.0
0.0 0.022883926802961495 0.019538006237544626 -0.018610541216440214 -0.0009274650211044163 0.009047356076141787 0.0 0.0
0.0 0.016517426367681665 0.01412430302150677 -0.013274439305137602 -0.0008498637163691704 0.007013543173713022 0.0 0.0
0.0 0.010993447988705241 0.009430362619889493 -0.008665367081971041 -0.0007649955379184467 0.004967917564848043 0.0 0.0
0.0 0.006293692456702548 0.00554953507693868 -0.004904844794488085 -0.000644690282450597 0.003029449681174532 0.0 0.0
0.0 0.003268927390637279 0.0026098032046876977 -0.0021678243234838244 -0.00044197888120387315 0.0014078776325253243 0.0 0.0
0.0 0.0009395409092992525 0.0008296779654884904 -0.0006400319297934705 -0.00018964603569501947 0.0004472255851664497 0.0 0.0
0.0 7.602739796474545e-05 7.127455478506443e-05 -4.986107032779833e-05 -2.1413484457266112e-05 1.8230227462213547e-05 0.0 0.0
0.0 -8.455041028886387e-06 -7.059566458809775e-06 5.621484397308434e-06 1.438082061501314e-06 -9.823684421724372e-06 0.0 0.0
0.0 -4.2819074657463115e-07 3.259870312858171e-08 -2.4906694842016207e-08 -7.692008286562386e-09 6.631307162822855e-08 0.0 0.0
0.0 0.0 0.0 0.0 0.0 0.0 0.0 0.0
0.0 0.0007472061487675388 0.00035896221567254075 -0.0001658986137963403 -0.00019306360187620026 0.0013374614264692751 0.0 0.0
0.0 0.003929874931439137 0.002673809316187461 -0.003781500313696612 0.001107690997509148 0.0019130533243162063 0.0 0.0
0.0 0.0025377585451192668 0.0017455380017924796 -0.002498331394915205 0.0007527933931227229 -0.0014113089132238774 0.0 0.0
0.0 0.0004335280052440726 0.0001730879770421515 -6.091929412266916e-05 -0.00011216868291948198 -0.000768424044144557 0.0 0.0
0.0 4.5030000765742004e-07 -5.889399966331698e-09 5.402290337682763e-09 4.871096286490315e-10 9.028034844085993e-08 0.0 0.0
0.0 -3.9933846218285653e-07 2.3010864123224606e-08 -1.7665084308602554e-08 -5.345779814626124e-09 -7.114747973550936e-08 0.0 0.0
0.0 -2.617404465203464e-06 -1.5647667077462215e-06 1.2383065860592942e-06 3.264601216869658e-07 3.493927564865081e-06 0.0 0.0
0.0 -1.588734975569546e-05 -1.1092534818547531e-05 1.0393690764266659e-05 6.988440542809147e-07 3.232635461008378e-05 0.0 0.0
0.0 0.0004751971269654442 0.000372659266492659 -0.00028171083308618805 -9.094843340647074e-05 -0.0002917430390109022 0.0 0.0
0.0 0.0018940440438065525 0.0016047439738957614 -0.0012950076650631128 -0.00030973630883264914 -0.0011774835749480564 0.0 0.0
0.0 0.004835995515973033 0.003800820525449768 -0.0032754564494999003 -0.0005253640759498675 -0.0026526060732071067 0.0 0.0
0.0 0.008115148350495033 0.006915652381751939 -0.0062443473380022355 -0.000671305043749706 -0.004642000278891344 0.0 0.0
0.0 0.01273503829739899 0.010683811652593928 -0.009920711143412855 -0.0007631005091810757 -0.0067451029839514795 0.0 0.0
0.0 0.01788500980253586 0.01501045262553708 -0.014172668296644738 -0.0008377843288923361 -0.008826609200716023 0.0 0.0
0.0 0.02365038825770423 0.01988766217711463 -0.018977344899124254 -0.0009103172779903597 -0.010862324112926485 0.0 0.0
0.0 0.030160001554826524 0.025395746451512404 -0.02441615747663881 -0.0009795889748736106 -0.012945827300852211 0.0 0.0
0.0 0.03745615451458616 0.03162151085840742 -0.030580136774177084 -0.0010413740842303034 -0.015121806388470495 0.0 0.0
0.0 0.04586822708801176 0.03856994145478466 -0.03747850675308718 -0.0010914347016975046 -0.017273380933337378 0.0 0.0
0.0 0.054331088598370124 0.0461182948635493 -0.04498484228073995 -0.0011334525828093913 -0.019059030128406453 0.0 0.0
0.0 0.06366555829144031 0.05400123531835576 -0.05283284865679848 -0.001168386661557207 -0.019992676023114893 0.0 0.0
0.0 0.07276365561520177 0.06180981368430208 -0.06063196261445972 -0.001177851069842347 -0.019173485455746986 0.0 0.0
0.0 0.08054496299856481 0.06874870108122753 -0.06760469636917027 -0.0011440047120572893 -0.014912442713022899 0.0 0.0
0.0 0.08574594184894527 0.07252265080262972 -0.07198398304870766 -0.0005386677539220479 1.7432236210090934e-14 0.0 0.0
0.0 0.08054496299855546 0.06874870108121618 -0.0676046963691587 -0.001144004712057452 0.01491244271306499 0.0 0.0
0.0 0.07276365561518205 0.06180981368428227 -0.0606319626144393 -0.001177851069842979 0.01917348545578978 0.0 0.0
0.0 0.06366555829141517 0.05400123531833224 -0.052832848656775566 -0.0011683866615566883 0.019992676023139484 0.0 0.0
0.0 0.05433108859833711 0.04611829486352106 -0.04498484228071217 -0.001133452582808849 0.01905903012840971 0.0 0.0
0.0 0.04586822708797453 0.03856994145475301 -0.03747850675305541 -0.0010914347016976215 0.01727338093332776 0.0 0.0
0.0 0.03745615451455041 0.031621510858376264 -0.030580136774146414 -0.001041374084229813 0.015121806388460099 0.0 0.0
0.0 0.03016000155479314 0.025395746451483327 -0.024416157476610426 -0.0009795889748728814 0.012945827300844094 0.0 0.0
0.0 0.023650388257671927 0.01988766217708722 -0.01897734489909741 -0.0009103172779898111 0.010862324112916627 0.0 0.0
0.0 0.01788500980250316 0.015010452625509898 -0.01417266829661773 -0.0008377843288921791 0.008826609200701342 0.0 0.0
0.0 0.012735038297371692 0.010683811652571557 -0.009920711143391232 -0.0007631005091803228 0.006745102983934718 0.0 0.0
0.0 0.008115148350471432 0.006915652381732488 -0.006244347337983244 -0.0006713050437492468 0.004642000278875923 0.0 0.0
0.0 0.0048359955159557825 0.0038008205254363237 -0.0032754564494875574 -0.0005253640759487637 0.0026526060731979968 0.0 0.0
0.0 0.0018940440437966914 0.001604743973887888 -0.001295007665056303 -0.00030973630883158315 0.0011774835749424786 0.0 0.0
0.0 0.0004751971269604786 0.0003726592664894687 -0.0002817108330837241 -9.094843340574465e-05 0.0002917430390080527 0.0 0.0
0.0 -1.5887349756206092e-05 -1.10925348183638e-05 1.0393690764107769e-05 6.98844054255928e-07 -3.2326354609484146e-05 0.0 0.0
0.0 -2.6174044659243528e-06 -1.5647667077226911e-06 1.238306586040342e-06 3.264601216823473e-07 -3.493927564804596e-06 0.0 0.0
0.0 -3.9933846203843063e-07 2.3010864114477826e-08 -1.766508430182229e-08 -5.345779812654833e-09 7.114747970917023e-08 0.0 0.0
0.0 4.503000071303827e-07 -5.889399959299267e-09 5.402290331223529e-09 4.871096280759266e-10 -9.028034833325816e-08 0.0 0.0
0.0 0.00043352800524021676 0.0001730879770405473 -6.091929412158813e-05 -0.00011216868291895918 0.0007684240441393488 0.0 0.0
0.0 0.0025377585451103234 0.0017455380017855622 -0.0024983313949055895 0.0007527933931200303 0.0014113089132192903 0.0 0.0
0.0 0.0019044889708403538 0.0009910555930518357 -0.0014314356062219292 0.0004403800131700933 -0.0009070563874288746 0.0 0.0
0.0 0.00011391803904617645 5.599952023984075e-05 3.733377258099319e-07 -5.6372857965650695e-05 -0.00035613691155394957 0.0 0.0
0.0 -2.3607289888514954e-07 4.548215305307588e-09 -5.32361710209284e-09 7.75401796785643e-10 -4.7666224544853404e-08 0.0 0.0
0.0 -4.6935384922183686e-07 2.164817357651057e-08 -1.6737800486346704e-08 -4.9103730901639445e-09 -9.233073872632927e-08 0.0 0.0
0.0 -7.23224415138267e-07 -1.2077647085957943e-06 9.533116321378805e-07 2.544530764579206e-07 4.1364431884029525e-06 0.0 0.0
0.0 -2.5236294196330316e-05 -1.560957777055466e-05 1.2567446067537737e-05 3.0421317030169e-06 3.5265305800482384e-05 0.0 0.0
0.0 0.00013643494357057676 9.425568548860979e-05 -6.965014571330305e-05 -2.4605539775306797e-05 -0.00011658742971387637 0.0 0.0
0.0 0.0009657508123544225 0.00078135732287217 -0.0006152155925152909 -0.0001661417303568795 -0.0008335211762654842 0.0 0.0
0.0 0.002820595575960491 0.0022549790135727226 -0.0018842420702881951 -0.00037073694328452583 -0.0020752086033311848 0.0 0.0
0.0 0.005824076306208121 0.0044930469232078146 -0.003956494200737068 -0.0005365527224707419 -0.0038193238176487104 0.0 0.0
0.0 0.009043847024947324 0.007323800536838591 -0.006676636995734166 -0.0006471635411044223 -0.005836040449391353 0.0 0.0
0.0 0.012910025935563134 0.010567822792298667 -0.009840785760058788 -0.0007270370322398933 -0.007836374570749939 0.0 0.0
0.0 0.0173073911353776 0.014196208784805962 -0.013399822340596551 -0.0007963864442093977 -0.009781760432597835 0.0 0.0
0.0 0.022193596391778505 0.018284981416866467 -0.017426187112019164 -0.0008587943048472853 -0.011733961460631404 0.0 0.0
0.0 0.02782339114961088 0.02293222014177368 -0.02201741690871946 -0.0009148032330542128 -0.013751347928089026 0.0 0.0
0.0 0.03404373062321049 0.028198761713653812 -0.027236594245332108 -0.0009621674683216564 -0.015755296175325784 0.0 0.0
0.0 0.04110442617244615 0.03403213811593722 -0.03302971104812386 -0.0010024270678133723 -0.017475205249171535 0.0 0.0
0.0 0.048373043170743 0.040327263507212455 -0.03927940193819308 -0.0010478615690193845 -0.018478880669283184 0.0 0.0
0.0 0.05583091175579326 0.04697723947471382 -0.045893970685696485 -0.0010832687890173535 -0.01817093895875336 0.0 0.0
0.0 0.06338389296703187 0.05355726945932599 -0.05249514443108906 -0.001062125028236983 -0.014938414180908608 0.0 0.0
0.0 0.06926499496498843 0.05759175875008881 -0.05729257662073497 -0.00029918212935382566 1.4681398458060713e-14 0.0 0.0
0.0 0.06338389296702643 0.053557269459317415 -0.05249514443108045 -0.0010621250282369019 0.01493841418094682 0.0 0.0
0.0 0.05583091175578067 0.046977239474699485 -0.04589397068568207 -0.0010832687890174587 0.01817093895879373 0.0 0.0
0.0 0.048373043170723315 0.040327263507193734 -0.0392794019381747 -0.0010478615690190437 0.018478880669305732 0.0 0.0
0.0 0.04110442617242046 0.034032138115915385 -0.03302971104810274 -0.0010024270678126086 0.017475205249172853 0.0 0.0
0.0 0.03404373062318229 0.028198761713630685 -0.02723659424530887 -0.0009621674683218258 0.015755296175314973 0.0 0.0
0.0 0.027823391149581617 0.022932220141748682 -0.02201741690869464 -0.0009148032330540399 0.013751347928078618 0.0 0.0
0.0 0.022193596391754496 0.01828498141684598 -0.017426187111999055 -0.0008587943048469486 0.011733961460624644 0.0 0.0
0.0 0.01730739113535227 0.014196208784785043 -0.013399822340576012 -0.0007963864442090234 0.009781760432587806 0.0 0.0
0.0 0.012910025935539363 0.010567822792279184 -0.009840785760039498 -0.0007270370322396764 0.007836374570736222 0.0 0.0
0.0 0.009043847024925175 0.007323800536821142 -0.006676636995717428 -0.0006471635411037071 0.005836040449375467 0.0 0.0
0.0 0.005824076306190589 0.004493046923194281 -0.003956494200724119 -0.0005365527224701619 0.0038193238176360304 0.0 0.0
0.0 0.0028205955759473514 0.0022549790135625828 -0.0018842420702791184 -0.00037073694328346385 0.0020752086033223576 0.0 0.0
0.0 0.0009657508123490204 0.0007813573228680905 -0.0006152155925119878 -0.00016614173035610236 0.0008335211762619412 0.0 0.0
0.0 0.00013643494356773794 9.425568548681316e-05 -6.965014571195113e-05 -2.4605539774862095e-05 0.00011658742971139819 0.0 0.0
0.0 -2.5236294196273212e-05 -1.5609577769712074e-05 1.2567446066888547e-05 3.042131702823565e-06 -3.5265305798607745e-05 0.0 0.0
0.0 -7.232244156327848e-07 -1.2077647086274382e-06 9.533116321639648e-07 2.5445307646346524e-07 -4.136443188452019e-06 0.0 0.0
0.0 -4.6935384971146325e-07 2.1648173579859094e-08 -1.6737800487853913e-08 -4.910373092004604e-09 9.233073882264467e-08 0.0 0.0
0.0 -2.360728988178214e-07 4.5482153017712844e-09 -5.3236170994539795e-09 7.754017976827665e-10 4.766622453096609e-08 0.0 0.0
0.0 0.00011391803904343438 5.599952023890812e-05 3.733377264206257e-07 -5.637285796532877e-05 0.00035613691155049503 0.0 0.0
0.0 0.0019044889708324127 0.0009910555930471678 -0.0014314356062152436 0.0004403800131680756 0.0009070563874256219 0.0 0.0
0.0 0.0008718972995354173 0.0004934884881746099 -0.0007189504352656651 0.00022546194709105563 -0.0005591398251059842 0.0 0.0
0.0 -5.129131845357557e-06 -1.0381051427525983e-05 3.6719207985535206e-05 -2.6338156558009288e-05 -7.952626369121858e-05 0.0 0.0
0.0 2.3827761454902987e-06 -4.92477418578889e-09 1.3021728498038553e-08 -8.096954312248407e-09 5.1637577708077e-07 0.0 0.0
0.0 7.416735698493798e-07 -9.542394886079667e-10 -6.545323538248171e-10 1.6087718424318491e-09 1.5398417255262044e-07 0.0 0.0
0.0 -2.275273421732873e-06 -7.137764569555156e-07 5.495707726305454e-07 1.642056843249693e-07 4.345728265813461e-06 0.0 0.0
0.0 -1.7115913051031023e-05 -4.706429225205656e-06 3.848412773274235e-06 8.580164519314247e-07 1.5474879090915074e-05 0.0 0.0
0.0 1.5694988339045952e-05 -6.492281795550683e-06 5.813999847675776e-06 6.782819478748312e-07 4.178389380735965e-06 0.0 0.0
0.0 0.00039236746160404483 0.00020561503196159776 -0.0001618454345682142 -4.3769597393383595e-05 -0.0003937403210975283 0.0 0.0
0.0 0.0013621669075959632 0.0009559694726589936 -0.0007803540882810152 -0.00017561538437797753 -0.0013412508021597852 0.0 0.0
0.0 0.003185883374052031 0.002304200796138668 -0.001969042802090384 -0.0003351579940482864 -0.0026722174421402655 0.0 0.0
0.0 0.0053769326163361 0.004129067015533017 -0.003662415524963953 -0.00046665149056906123 -0.004330792565667394 0.0 0.0
0.0 0.008103980956107766 0.0062646748970317 -0.0057044082195764085 -0.0005602666774552865 -0.006058116158782905 0.0 0.0
0.0 0.011090703374490071 0.008653464998855828 -0.008017112411084649 -0.0006363525877711727 -0.007790513064744841 0.0 0.0
0.0 0.01441505057912663 0.011342006081549408 -0.01064455996157074 -0.0006974461199786677 -0.009512054641029522 0.0 0.0
0.0 0.018245947146157737 0.014420781869482108 -0.013671101658161761 -0.0007496802113203587 -0.011243543707580227 0.0 0.0
0.0 0.022680014288844443 0.017985475626691113 -0.017189981185217484 -0.0007954944414736269 -0.012982765724628987 0.0 0.0
0.0 0.027689307336126227 0.02208127852556301 -0.021242967648729967 -0.0008383108768330179 -0.014563081968327559 0.0 0.0
0.0 0.033040673959844266 0.026702753041925004 -0.025817921626662195 -0.0008848314152628492 -0.0155822618734795 0.0 0.0
0.0 0.039092765918616885 0.031975583821747866 -0.031029448924774113 -0.0009461348969737075 -0.015618761563842318 0.0 0.0
0.0 0.046198310789995645 0.03801481925625306 -0.03704628763331686 -0.000968531622936179 -0.013909553353683147 0.0 0.0
0.0 0.052708846458155864 0.04235041637225116 -0.04232293741490044 -2.747895735074273e-05 1.1964821494681033e-14 0.0 0.0
0.0 0.04619831078999434 0.038014819256247154 -0.03704628763331077 -0.0009685316229363585 0.013909553353716048 0.0 0.0
0.0 0.03909276591860974 0.03197558382173801 -0.03102944892476431 -0.0009461348969736755 0.015618761563878088 0.0 0.0
0.0 0.0330406739598287 0.026702753041910703 -0.025817921626648394 -0.0008848314152622782 0.015582261873497285 0.0 0.0
0.0 0.027689307336105737 0.02208127852554687 -0.021242967648714483 -0.0008383108768323924 0.014563081968324221 0.0 0.0
0.0 0.0226800142888268 0.01798547562667668 -0.017189981185203543 -0.0007954944414731249 0.01298276572462074 0.0 0.0
0.0 0.018245947146137656 0.014420781869465903 -0.013671101658144955 -0.0007496802113209337 0.011243543707571286 0.0 0.0
0.0 0.01441505057911283 0.011342006081537938 -0.010644559961559791 -0.0006974461199781446 0.00951205464102468 0.0 0.0
0.0 0.011090703374474663 0.00865346499884332 -0.008017112411072471 -0.0006363525877708572 0.007790513064737133 0.0 0.0
0.0 0.008103980956091793 0.006264674897020185 -0.005704408219565332 -0.0005602666774548508 0.006058116158770962 0.0 0.0
0.0 0.005376932616322126 0.004129067015522332 -0.0036624155249538807 -0.00046665149056845115 0.004330792565655489 0.0 0.0
0.0 0.0031858833740394344 0.0023042007961297756 -0.0019690428020822316 -0.00033515799404754517 0.0026722174421299504 0.0 0.0
0.0 0.0013621669075883117 0.0009559694726536178 -0.0007803540882764036 -0.00017561538437721363 0.0013412508021536278 0.0 0.0
0.0 0.0003923674616012235 0.00020561503195998582 -0.00016184543456697738 -4.376959739300827e-05 0.00039374032109508244 0.0 0.0
0.0 1.569498833776868e-05 -6.492281795294599e-06 5.813999847509113e-06 6.782819477855158e-07 -4.1783893803694865e-06 0.0 0.0
0.0 -1.7115913051737815e-05 -4.7064292249939395e-06 3.848412773104564e-06 8.580164518893487e-07 -1.5474879089677972e-05 0.0 0.0
0.0 -2.2752734223885814e-06 -7.137764569914094e-07 5.495707726593357e-07 1.642056843320854e-07 -4.345728265944129e-06 0.0 0.0
0.0 7.416735699274276e-07 -9.542394940929151e-10 -6.54532349312994e-10 1.6087718434049888e-09 -1.539841725633737e-07 0.0 0.0
0.0 2.3827761448084355e-06 -4.924774183072626e-09 1.3021728493835165e-08 -8.096954310761489e-09 -5.163757769332054e-07 0.0 0.0
0.0 -5.1291318466591545e-06 -1.0381051427830205e-05 3.6719207985669294e-05 -2.6338156557838973e-05 7.95262636896441e-05 0.0 0.0
0.0 0.0008718972995300001 0.000493488488171758 -0.0007189504352615256 0.0002254619470897666 0.0005591398251034701 0.0 0.0
0.0 0.00034848114289170876 0.0001603165055739859 -0.00023523339391709686 7.49168883431112e-05 -0.00022162515841328258 0.0 0.0
0.0 -3.971476859108248e-05 -2.0956828935905398e-05 3.055215980873162e-05 -9.59533087282623e-06 2.8134012398943067e-05 0.0 0.0
0.0 3.752924145788859e-07 1.0881436507427485e-09 -6.668165866363456e-10 -4.213270641053044e-10 7.578167770759034e-08 0.0 0.0
0.0 4.5050491554821905e-07 7.676823635417465e-09 -6.538063199095495e-09 -1.1387604363241018e-09 1.0358347437603764e-08 0.0 0.0
0.0 -1.8119581611860448e-06 -1.5625312024153857e-07 1.0945030385267133e-07 4.680281638887552e-08 3.365523316071624e-06 0.0 0.0
0.0 -1.0341438121381174e-05 -2.902474727873147e-06 2.336278912146175e-06 5.661958157269445e-07 2.2163189061333278e-05 0.0 0.0
0.0 1.7275523538959706e-05 -2.9177194070455257e-06 2.505650919420732e-06 4.12068487624821e-07 -7.843733047058799e-06 0.0 0.0
0.0 0.00010612437465436516 5.919590370446263e-06 -5.006516958211405e-06 -9.13073412234932e-07 -0.00015136819460590792 0.0 0.0
0.0 0.00039670451651836795 0.0001229029644127037 -0.00010757106242986461 -1.5331901982838892e-05 -0.0005840306810117691 0.0 0.0
0.0 0.0010763441631892812 0.0005125310499534695 -0.0004564701971034287 -5.606085285004184e-05 -0.001400683487845621 0.0 0.0
0.0 0.0023410809267025686 0.001265143801769306 -0.0011335607411014207 -0.00013158306066788427 -0.0025381056040569778 0.0 0.0
0.0 0.0036706016513358185 0.002270278324793455 -0.00205828876872018 -0.0002119895560732767 -0.003860327040663708 0.0 0.0
0.0 0.005320130104846056 0.0034167672442586704 -0.0031299335944788105 -0.00028683364977985667 -0.005231521968118889 0.0 0.0
0.0 0.007206021387943374 0.004719545949847585 -0.00436354482182976 -0.00035600112801782225 -0.00665019605386739 0.0 0.0
0.0 0.00935316893619808 0.006248088751825397 -0.005827247706451154 -0.0004208410453742409 -0.00813066791507971 0.0 0.0
0.0 0.011899401507527671 0.008102144153178677 -0.007618955899675508 -0.0004831882535031669 -0.00967810053037116 0.0 0.0
0.0 0.015020477218096993 0.010418981998678732 -0.009871585935530525 -0.0005473960631482014 -0.011215487110216223 0.0 0.0
0.0 0.01879972193794069 0.013332470673458982 -0.012721338010845183 -0.0006111326626137999 -0.012359900850592149 0.0 0.0
0.0 0.02314358166517269 0.017021841657706354 -0.01634429449521511 -0.000677547162491268 -0.012508151014530396 0.0 0.0
0.0 0.02873696145470551 0.022076403940466886 -0.021280356022507167 -0.0007960479179596952 -0.011638763071405264 0.0 0.0
0.0 0.036993086768157206 0.026635146271569557 -0.026931089731267285 0.0002959434596977199 1.0012390222469136e-14 0.0 0.0
0.0 0.028736961454708998 0.022076403940464798 -0.021280356022504606 -0.0007960479179602005 0.01163876307143192 0.0 0.0
0.0 0.02314358166516944 0.01702184165770096 -0.016344294495209494 -0.0006775471624914766 0.01250815101455702 0.0 0.0
0.0 0.01879972193792818 0.013332470673449394 -0.012721338010835666 -0.0006111326626137251 0.012359900850600692 0.0 0.0
0.0 0.015020477218082976 0.010418981998670166 -0.009871585935522387 -0.0005473960631477827 0.011215487110210223 0.0 0.0
0.0 0.011899401507515487 0.008102144153170461 -0.007618955899667305 -0.00048318825350315413 0.009678100530361104 0.0 0.0
0.0 0.009353168936191942 0.006248088751820671 -0.005827247706446201 -0.00042084104537447315 0.00813066791507582 0.0 0.0
0.0 0.007206021387936933 0.0047195459498438124 -0.0043635448218264485 -0.00035600112801736976 0.0066501960538630205 0.0 0.0
0.0 0.005320130104837394 0.0034167672442535625 -0.0031299335944737702 -0.0002868336497797889 0.00523152196811185 0.0 0.0
0.0 0.003670601651326692 0.002270278324788295 -0.0020582887687155475 -0.00021198955607274627 0.003860327040653416 0.0 0.0
0.0 0.002341080926693679 0.0012651438017641642 -0.0011335607410967639 -0.00013158306066739957 0.0025381056040476267 0.0 0.0
0.0 0.0010763441631837624 0.0005125310499507991 -0.0004564701971009681 -5.606085284983118e-05 0.0014006834878403645 0.0 0.0
0.0 0.0003967045165161364 0.0001229029644116146 -0.00010757106242892481 -1.5331901982689452e-05 0.0005840306810087436 0.0 0.0
0.0 0.00010612437465314735 5.919590370371671e-06 -5.006516958123147e-06 -9.130734122486307e-07 0.000151368194604488 0.0 0.0
0.0 1.727552353772984e-05 -2.9177194070035836e-06 2.5056509193734144e-06 4.120684876301837e-07 7.843733047049385e-06 0.0 0.0
0.0 -1.0341438121303615e-05 -2.902474727817591e-06 2.336278912104015e-06 5.661958157135763e-07 -2.216318906054356e-05 0.0 0.0
0.0 -1.8119581614570064e-06 -1.5625312023957004e-07 1.0945030385820301e-07 4.68028163813637e-08 -3.3655233157416567e-06 0.0 0.0
0.0 4.505049150255341e-07 7.676823628427744e-09 -6.538063194845956e-09 -1.1387604335809674e-09 -1.0358347438310116e-08 0.0 0.0
0.0 3.752924143091098e-07 1.0881436506432341e-09 -6.668165872929771e-10 -4.213270633542405e-10 -7.578167765116563e-08 0.0 0.0
0.0 -3.971476859124676e-05 -2.0956828935591488e-05 3.055215980831533e-05 -9.595330872723799e-06 -2.813401239827552e-05 0.0 0.0
0.0 0.00034848114288804627 0.00016031650557243318 -0.00023523339391486934 7.491688834243578e-05 0.0002216251584111972 0.0 0.0
0.0 3.260827388357702e-05 2.0016796427117912e-05 -3.061700977441342e-05 1.0600213347295454e-05 -3.160214828750372e-05 0.0 0.0
0.0 -5.0803972965436326e-06 -3.319925828534769e-06 4.795640350429746e-06 -1.4757145218949631e-06 6.1853237748163855e-06 0.0 0.0
0.0 3.5737632607735953e-06 3.7108856380565873e-09 1.3185554715294015e-08 -1.689644035335523e-08 7.549341191470615e-07 0.0 0.0
0.0 6.781778040061273e-07 7.997140582902379e-08 -7.183773651303877e-08 -8.133669315981749e-09 1.2213927436687286e-06 0.0 0.0
0.0 -1.685901062469128e-06 9.302674958279451e-08 -8.561934396289915e-08 -7.4074056198954656e-09 3.0481473573389125e-06 0.0 0.0
0.0 -7.287376147763257e-06 -2.8608703223572945e-07 3.063662576567847e-07 -2.0279225421052668e-08 1.516172452119692e-05 0.0 0.0
0.0 2.3525763003557382e-05 -7.435170581617762e-07 7.27141522406015e-07 1.6375535755751113e-08 -1.5384227687244052e-05 0.0 0.0
0.0 0.00010730143278783023 -6.673391797540124e-07 6.596054562551439e-07 7.733723498876389e-09 -0.00018202126136702008 0.0 0.0
0.0 0.00029022689323796356 -5.8330563843237126e-08 5.7148245529685005e-08 1.182318313563053e-09 -0.00041794481138454257 0.0 0.0
0.0 0.0004742402880415426 1.1876085005564551e-07 -6.734355224400202e-08 -5.1417297811656625e-08 -0.0008316944679843785 0.0 0.0
0.0 0.0008407959499046504 -4.127895699029035e-07 3.264749591958167e-08 3.801420739833862e-07 -0.0014412830106635913 0.0 0.0
0.0 0.0011766171006372035 1.0085547967165034e-06 -1.879763810125432e-07 -8.205784157037365e-07 -0.0024060303166565317 0.0 0.0
0.0 0.0017932936370413126 -7.876799328550863e-06 1.041882439994983e-05 -2.542025071398195e-06 -0.003596077265172027 0.0 0.0
0.0 0.0026643047914321812 -2.081367118201942e-05 2.412037568837221e-05 -3.306704506352912e-06 -0.004955746646693369 0.0 0.0
0.0 0.003707020374121873 -4.14220459043303e-06 1.3434593582895287e-06 2.798745232143488e-06 -0.006444677866976418 0.0 0.0
0.0 0.004880512852846045 0.00013911027798543395 -0.00016143157966387822 2.2321301678445197e-05 -0.00807446937224087 0.0 0.0
0.0 0.006249917248996203 0.0006095294270736998 -0.0006737001358318895 6.417070875818913e-05 -0.009796076257652433 0.0 0.0
0.0 0.007768306075931466 0.00160091236953223 -0.001778205865059724 0.0001772934955274914 -0.011465191953427252 0.0 0.0
0.0 0.009990680889719189 0.002880330675736077 -0.0032058649544782158 0.0003255342787421417 -0.01270790348207879 0.0 0.0
0.0 0.014682074778299258 0.006135572157168019 -0.00595460127417664 -0.00018097088299137544 -0.012749352332874995 0.0 0.0
0.0 0.025706203317922345 0.011275171090539486 -0.012069661992294744 0.0007944909017552617 9.605597567352575e-15 0.0 0.0
0.0 0.014682074778304736 0.006135572157167769 -0.005954601274176664 -0.00018097088299110346 0.01274935233289367 0.0 0.0
0.0 0.009990680889717649 0.002880330675734524 -0.003205864954476435 0.00032553427874191154 0.01270790348208535 0.0 0.0
0.0 0.007768306075920738 0.0016009123695302258 -0.001778205865057577 0.0001772934955273496 0.011465191953420792 0.0 0.0
0.0 0.00624991724898521 0.0006095294270748631 -0.0006737001358335731 6.417070875871275e-05 0.009796076257642082 0.0 0.0
0.0 0.004880512852840209 0.00013911027798754375 -0.00016143157966661752 2.2321301679074793e-05 0.008074469372233497 0.0 0.0
0.0 0.0037070203741189777 -4.142204589951373e-06 1.3434593580603825e-06 2.7987452318897576e-06 0.006444677866970993 0.0 0.0
0.0 0.0026643047914259137 -2.081367117979469e-05 2.4120375685844555e-05 -3.3067045060488883e-06 0.004955746646684606 0.0 0.0
0.0 0.0017932936370341768 -7.87679932685864e-06 1.0418824397989972e-05 -2.5420250711312913e-06 0.0035960772651615867 0.0 0.0
0.0 0.0011766171006327756 1.0085547955175655e-06 -1.8797637958426947e-07 -8.205784159334587e-07 0.0024060303166495416 0.0 0.0
0.0 0.0008407959499010344 -4.1278956987631345e-07 3.264749583050091e-08 3.801420740458295e-07 0.0014412830106565779 0.0 0.0
0.0 0.00047424028804177783 1.1876085013561559e-07 -6.734355232546795e-08 -5.141729780998162e-08 0.000831694467983788 0.0 0.0
0.0 0.0002902268932369022 -5.833056376109547e-08 5.71482454741981e-08 1.1823182868516308e-09 0.00041794481138318835 0.0 0.0
0.0 0.00010730143278697928 -6.67339179758575e-07 6.596054562781977e-07 7.733723480379472e-09 0.00018202126136552364 0.0 0.0
0.0 2.3525763002068407e-05 -7.435170581504165e-07 7.271415223951422e-07 1.6375535755290644e-08 1.53842276867181e-05 0.0 0.0
0.0 -7.287376147776339e-06 -2.8608703225272157e-07 3.063662576724739e-07 -2.0279225419758627e-08 -1.51617245203386e-05 0.0 0.0
0.0 -1.6859010624473537e-06 9.302674954073226e-08 -8.561934392402273e-08 -7.407405616706317e-09 -3.0481473563652054e-06 0.0 0.0
0.0 6.781778031817712e-07 7.99714058537849e-08 -7.183773653399672e-08 -8.133669319789074e-09 -1.2213927440651997e-06 0.0 0.0
0.0 3.5737632604511036e-06 3.710885638585466e-09 1.3185554716562087e-08 -1.6896440355138365e-08 -7.549341191848477e-07 0.0 0.0
0.0 -5.080397297394442e-06 -3.3199258285524597e-06 4.795640350454487e-06 -1.4757145219020411e-06 -6.185323774752487e-06 0.0 0.0
0.0 3.260827388322615e-05 2.0016796427396484e-05 -3.0617009774809104e-05 1.0600213347412726e-05 3.1602148288232306e-05 0.0 0.0
0.0 1.3877424389578785e-07 -6.836617977435686e-07 9.978834787177103e-07 -3.142216809741551e-07 1.4342230003357064e-06 0.0 0.0
0.0 -1.529063422444661e-07 1.008129718320015e-07 -1.4172708811275307e-07 4.091411628075383e-08 -8.430850846487186e-08 0.0 0.0
0.0 -2.639404142034927e-07 6.264979528311449e-09 -1.3234033054280083e-08 6.969053525968237e-09 -2.1254144174073212e-07 0.0 0.0
0.0 9.093760309224114e-07 1.7833345162782e-07 -1.5260895685961132e-07 -2.572449476821018e-08 9.958121384407109e-07 0.0 0.0
0.0 -1.420458929392859e-06 6.259568342409465e-09 -1.715021095861895e-08 1.0890642616211327e-08 8.84387615419887e-08 0.0 0.0
0.0 -5.783157798693394e-06 6.335273731664853e-07 -3.7696000456054133e-07 -2.5656736860590957e-07 6.55691565697587e-06 0.0 0.0
0.0 3.59745354877904e-05 2.493043610061063e-06 -1.829672885521059e-06 -6.633707245400627e-07 -6.71440533419379e-06 0.0 0.0
0.0 0.0001149937473057963 -8.158893595076477e-06 7.0514815528245825e-06 1.107412042251906e-06 -0.00015704225805658254 0.0 0.0
0.0 0.0003980304469866978 -0.0001237526587225969 0.00010826016784801069 1.5492490874586086e-05 -0.000587518095673742 0.0 0.0
0.0 0.0010741481088980425 -0.000511449280372758 0.00045546978059368633 5.597949977907226e-05 -0.0013998931155984689 0.0 0.0
0.0 0.0023480328272938835 -0.0012616177185284768 0.0011309828146147485 0.00013063490391372726 -0.0025330424045271315 0.0 0.0
0.0 0.0036928188556360616 -0.0022813104503354676 0.002067560904712783 0.00021374954562268376 -0.003861238037166492 0.0 0.0
0.0 0.0053592896016242805 -0.003450501342140361 0.0031596390770518234 0.0002908622650885339 -0.0052330667510105434 0.0 0.0
0.0 0.007267141239384042 -0.00477482831641831 0.004416030883957926 0.0003587974324603851 -0.006648685192950484 0.0 0.0
0.0 0.00932327642108862 -0.006240396713150187 0.005832408927347873 0.00040798778580231217 -0.00814181605252934 0.0 0.0
0.0 0.01146132444895949 -0.007715869145461741 0.007289995513506632 0.0004258736319551101 -0.00977858510206614 0.0 0.0
0.0 0.013374385451696922 -0.008920354832650029 0.008516648892640498 0.0004037059400095271 -0.011622214793019333 0.0 0.0
0.0 0.014869130438416542 -0.00942689066392442 0.009105257545002262 0.00032163311892215374 -0.013713608520121882 0.0 0.0
0.0 0.015054738551596385 -0.008713551399371276 0.008559723349448625 0.00015382804992266453 -0.016013713628482817 0.0 0.0
0.0 0.01238331547100059 -0.006294433902043477 0.006455176732031128 -0.00016074282998764511 -0.0177402748821836 0.0 0.0
0.0 0.024610279467921502 -0.0033965101836425093 0.0014421509029609128 0.0019543592806815935 1.4399072212345487e-14 0.0 0.0
0.0 0.012383315471002526 -0.006294433902042351 0.006455176732029616 -0.00016074282998725892 0.017740274882193412 0.0 0.0
0.0 0.015054738551594045 -0.008713551399368058 0.008559723349445547 0.0001538280499225101 0.016013713628495053 0.0 0.0
0.0 0.01486913043840433 -0.009426890663915678 0.009105257544993781 0.00032163311892189256 0.01371360852012084 0.0 0.0
0.0 0.013374385451682841 -0.008920354832639563 0.008516648892630848 0.0004037059400087122 0.011622214793012455 0.0 0.0
0.0 0.011461324448944633 -0.00771586914545046 0.007289995513495644 0.00042587363195481623 0.009778585102056286 0.0 0.0
0.0 0.009323276421079734 -0.006240396713143194 0.005832408927341451 0.00040798778580174665 0.008141816052520727 0.0 0.0
0.0 0.007267141239370532 -0.004774828316408002 0.004416030883948079 0.00035879743245992405 0.006648685192941071 0.0 0.0
0.0 0.005359289601611406 -0.003450501342130592 0.003159639077043203 0.0002908622650873877 0.005233066751002199 0.0 0.0
0.0 0.0036928188556219106 -0.002281310450325868 0.0020675609047038006 0.00021374954562206674 0.0038612380371533988 0.0 0.0
0.0 0.0023480328272819833 -0.001261617718521233 0.0011309828146083324 0.00013063490391289944 0.0025330424045169084 0.0 0.0
0.0 0.0010741481088909581 -0.0005114492803692037 0.00045546978059045535 5.597949977874816e-05 0.001399893115592847 0.0 0.0
0.0 0.0003980304469840743 -0.0001237526587214348 0.00010826016784697549 1.5492490874459332e-05 0.0005875180956710482 0.0 0.0
0.0 0.00011499374730409667 -8.158893594905207e-06 7.051481552699799e-06 1.107412042205398e-06 0.00015704225805476569 0.0 0.0
0.0 3.5974535486529065e-05 2.4930436100439594e-06 -1.829672885508098e-06 -6.633707245358576e-07 6.714405334208164e-06 0.0 0.0
0.0 -5.783157799709907e-06 6.335273730442774e-07 -3.769600044609417e-07 -2.5656736858333455e-07 -6.556915656036968e-06 0.0 0.0
0.0 -1.420458929285521e-06 6.259568221783202e-09 -1.715021085681255e-08 1.0890642635024594e-08 -8.843876052368126e-08 0.0 0.0
0.0 9.093760310747877e-07 1.7833345151078824e-07 -1.5260895676210266e-07 -2.5724494748684922e-08 -9.958121372484309e-07 0.0 0.0
0.0 -2.6394041432466634e-07 6.264979514175037e-09 -1.323403305540933e-08 6.969053541230082e-09 2.125414424681265e-07 0.0 0.0
0.0 -1.529063421844329e-07 1.0081297184009308e-07 -1.4172708814183708e-07 4.09141163017476e-08 8.43085085848887e-08 0.0 0.0
0.0 1.387742429279032e-07 -6.836617977867442e-07 9.97883478777168e-07 -3.142216809904441e-07 -1.4342230004289942e-06 0.0 0.0
0.0 0.0 0.0 0.0 0.0 0.0 0.0 0.0
0.0 6.920547483522755e-07 2.131909523058622e-09 8.572002076863951e-09 -1.070391159992756e-08 1.3376850039097593e-07 0.0 0.0
0.0 3.42216682970513e-07 1.0257413833645409e-07 -8.035046412166656e-08 -2.222367421479649e-08 7.816940365556659e-07 0.0 0.0
0.0 3.8520196951243797e-07 -4.958100035654935e-07 4.029654041688373e-07 9.2844599396649e-08 -3.1595081410531502e-06 0.0 0.0
0.0 3.053110432399338e-06 2.105953927797629e-06 -1.7487825422539672e-06 -3.571713855436076e-07 1.0711692436848217e-05 0.0 0.0
0.0 5.175156453395218e-06 7.179324191992695e-06 -5.703933561303327e-06 -1.4753906306893453e-06 2.44071763690933e-05 0.0 0.0
0.0 2.1277565428724844e-05 -5.684626205708542e-06 4.327819581650342e-06 1.356806624058296e-06 -4.356969259732593e-05 0.0 0.0
0.0 0.0004070862898266134 -0.00021181789823412794 0.0001672246382753333 4.459325995879453e-05 -0.00040811413004750434 0.0 0.0
0.0 0.0013614184401000064 -0.0009552769511017012 0.0007796232414880935 0.000175653709613608 -0.001342829825636559 0.0 0.0
0.0 0.0031816776149155377 -0.002302040067778068 0.001966930962854896 0.0003351091049231708 -0.0026687590868139668 0.0 0.0
0.0 0.005377053118932607 -0.004130002354219314 0.003663330029613437 0.00046667232460587875 -0.004329055746471712 0.0 0.0
0.0 0.008116263787850481 -0.006274872968086475 0.005714112210211977 0.000560760757874497 -0.006059138392211659 0.0 0.0
0.0 0.011123033016115634 -0.008683540379182751 0.008046221738928445 0.0006373186402543051 -0.00777645708974499 0.0 0.0
0.0 0.014460074108078537 -0.011392320289491973 0.01069527389005247 0.0006970463994395054 -0.009462416010116255 0.0 0.0
0.0 0.018217814196290306 -0.014415873560436217 0.013675601526136396 0.0007402720342998112 -0.011199126883268157 0.0 0.0
0.0 0.022276314785985046 -0.017635523404480897 0.016873696898032815 0.0007618265064480735 -0.013179924252358638 0.0 0.0
0.0 0.02623935601240542 -0.020723450632696667 0.01996261599581644 0.0007608346368802253 -0.015627019578715165 0.0 0.0
0.0 0.02936592197882601 -0.023148816280088864 0.022408408466643683 0.0007404078134451934 -0.018652335688283443 0.0 0.0
0.0 0.03104890506465509 -0.023929924231075247 0.023262233654641563 0.0006676905764336765 -0.02165894085072544 0.0 0.0
0.0 0.028773895923133685 -0.021104565258799873 0.02055652161399677 0.0005480436448031 -0.022250278208747625 0.0 0.0
0.0 0.03031872773649161 -0.016719845224002456 0.013962244431282545 0.002757600792719901 1.3124917819240522e-14 0.0 0.0
0.0 0.028773895923139493 -0.02110456525879798 0.020556521613995238 0.0005480436448027319 0.022250278208776383 0.0 0.0
0.0 0.03104890506465255 -0.023929924231068798 0.023262233654635336 0.0006676905764334638 0.02165894085075109 0.0 0.0
0.0 0.02936592197881123 -0.02314881628007533 0.0224084084666308 0.0007404078134445324 0.018652335688293026 0.0 0.0
0.0 0.026239356012381677 -0.02072345063267779 0.01996261599579723 0.0007608346368805474 0.015627019578707855 0.0 0.0
0.0 0.02227631478596086 -0.017635523404461284 0.016873696898013366 0.0007618265064479228 0.013179924252346691 0.0 0.0
0.0 0.01821781419627058 -0.01441587356042013 0.013675601526120811 0.0007402720342993125 0.01119912688325786 0.0 0.0
0.0 0.014460074108058309 -0.011392320289474624 0.010695273890035245 0.0006970463994393694 0.00946241601010628 0.0 0.0
0.0 0.011123033016091813 -0.008683540379163959 0.008046221738909535 0.0006373186402544234 0.007776457089732171 0.0 0.0
0.0 0.00811626378782737 -0.00627487296806881 0.005714112210194991 0.0005607607578738174 0.0060591383921956244 0.0 0.0
0.0 0.005377053118913524 -0.00413000235420483 0.003663330029599305 0.00046667232460552416 0.0043290557464558945 0.0 0.0
0.0 0.0031816776149009643 -0.0023020400677672337 0.0019669309628450806 0.0003351091049221543 0.0026687590868036304 0.0 0.0
0.0 0.0013614184400913404 -0.0009552769510953839 0.0007796232414828165 0.00017565370961256755 0.00134282982563016 0.0 0.0
0.0 0.00040708628982318045 -0.00021181789823219462 0.00016722463827384903 4.4593259958345253e-05 0.0004081141300441847 0.0 0.0
0.0 2.1277565427528786e-05 -5.684626205917644e-06 4.32781958180574e-06 1.3568066241118661e-06 4.356969259763253e-05 0.0 0.0
0.0 5.175156452548632e-06 7.179324191877684e-06 -5.703933561210387e-06 -1.4753906306673963e-06 -2.4407176368555853e-05 0.0 0.0
0.0 3.0531104308235527e-06 2.1059539277790506e-06 -1.7487825422389273e-06 -3.5717138554011644e-07 -1.0711692436829874e-05 0.0 0.0
0.0 3.852019693495062e-07 -4.958100036086416e-07 4.029654042037836e-07 9.284459940486788e-08 3.159508141402117e-06 0.0 0.0
0.0 3.4221668208399426e-07 1.0257413833253844e-07 -8.035046412041618e-08 -2.2223674212118216e-08 -7.816940365515404e-07 0.0 0.0
0.0 6.920547481442194e-07 2.131909523260299e-09 8.572002078161646e-09 -1.0703911601422396e-08 -1.3376850042218501e-07 0.0 0.0
0.0 0.0 0.0 0.0 0.0 0.0 0.0 0.0
0.0 0.0 0.0 0.0 0.0 0.0 0.0 0.0
0.0 -2.601208151042033e-07 -4.54463681070783e-09 2.796718489368658e-09 1.747918321339569e-09 -5.343306389855201e-08 0.0 0.0
0.0 8.655736172189016e-07 1.5851279485126765e-08 -7.1438275843702476e-09 -8.707451900750471e-09 1.9725837913367244e-07 0.0 0.0
0.0 1.4878610633386074e-06 7.706813422696954e-07 -6.358868848329655e-07 -1.3479445743673167e-07 2.9052251630985324e-06 0.0 0.0
0.0 3.6925653311527746e-07 2.161056294189777e-06 -1.721494118008709e-06 -4.395621761811045e-07 5.5656661021477175e-06 0.0 0.0
0.0 -1.2020000763443987e-05 3.015289348716974e-07 -3.48070484363415e-07 4.654154949177457e-08 -7.570282749630844e-06 0.0 0.0
0.0 0.00020195633304237015 -0.00010822653162076537 8.184481560103372e-05 2.6381716019731452e-05 -0.00014005207941589372 0.0 0.0
0.0 0.0009803759174253363 -0.0007847664034575217 0.0006185562118523823 0.00016621019160513938 -0.0008446646693620446 0.0 0.0
0.0 0.002816721090397765 -0.002251919257640729 0.0018811668583221348 0.00037075239931859204 -0.0020723882310318513 0.0 0.0
0.0 0.005821455761989634 -0.004491266488646373 0.003954606520230771 0.0005366599684156017 -0.0038145290074376725 0.0 0.0
0.0 0.009042169653503481 -0.007326476031897051 0.00667945217350915 0.0006470238583878999 -0.00583599462364506 0.0 0.0
0.0 0.012920357598387739 -0.010576124616891083 0.009849184443937347 0.00072694017295373 -0.007834967810312314 0.0 0.0
0.0 0.017323663447097324 -0.014213634324923646 0.013417048947428487 0.0007965853774951627 -0.009749493324853694 0.0 0.0
0.0 0.02220497615470852 -0.01831100160074986 0.017452355956843784 0.0008586456439060594 -0.011622834312363424 0.0 0.0
0.0 0.027769972243788004 -0.02291789729614515 0.022009457846888476 0.0009084394492566998 -0.013602669394312563 0.0 0.0
0.0 0.033729042734340346 -0.02793625084747802 0.02699984539698785 0.0009364054504901432 -0.015973533243119592 0.0 0.0
0.0 0.04005147738492354 -0.03297983778081423 0.03204275537052339 0.0009370824102908474 -0.019154127230370365 0.0 0.0
0.0 0.045408796686162 -0.03723585038326573 0.03634138323759637 0.0008944671456693467 -0.0232279119117568 0.0 0.0
0.0 0.04826398927053758 -0.03917812952932519 0.03837557179352856 0.0008025577357966319 -0.02707754771676451 0.0 0.0
0.0 0.045256438490340514 -0.036074361894990366 0.035476766558612816 0.0005975953363775292 -0.028284129497179417 0.0 0.0
0.0 0.042504729157580946 -0.029944091275684988 0.02645246855127044 0.003491622724414554 1.514153386006356e-14 0.0 0.0
0.0 0.04525643849034261 -0.03607436189498582 0.03547676655860817 0.0005975953363776699 0.02828412949721313 0.0 0.0
0.0 0.048263989270532714 -0.039178129529315465 0.03837557179351943 0.0008025577357960068 0.027077547716798656 0.0 0.0
0.0 0.04540879668614373 -0.03723585038324805 0.0363413832375793 0.0008944671456687332 0.023227911911773085 0.0 0.0
0.0 0.040051477384889636 -0.03297983778078581 0.03204275537049481 0.000937082410291019 0.01915412723036567 0.0 0.0
0.0 0.033729042734312306 -0.027936250847454335 0.02699984539696485 0.0009364054504894719 0.01597353324310862 0.0 0.0
0.0 0.02776997224375613 -0.022917897296118577 0.02200945784686248 0.0009084394492561109 0.01360266939429917 0.0 0.0
0.0 0.022204976154678747 -0.018311001600724557 0.017452355956818835 0.0008586456439057079 0.011622834312352169 0.0 0.0
0.0 0.017323663447065308 -0.014213634324897102 0.013417048947402194 0.0007965853774948964 0.009749493324840233 0.0 0.0
0.0 0.012920357598356882 -0.01057612461686631 0.009849184443913066 0.0007269401729532457 0.007834967810294882 0.0 0.0
0.0 0.009042169653474388 -0.007326476031873917 0.0066794521734864 0.000647023858387516 0.005835994623626026 0.0 0.0
0.0 0.0058214557619696225 -0.004491266488630449 0.003954606520215859 0.000536659968414589 0.0038145290074245355 0.0 0.0
0.0 0.0028167210903837538 -0.0022519192576299 0.0018811668583126133 0.0003707523993172828 0.0020723882310233286 0.0 0.0
0.0 0.0009803759174184898 -0.0007847664034523853 0.0006185562118482249 0.0001662101916041611 0.0008446646693571852 0.0 0.0
0.0 0.00020195633303877363 -0.00010822653161887409 8.184481559956098e-05 2.6381716019313163e-05 0.00014005207941326963 0.0 0.0
0.0 -1.2020000763787925e-05 3.015289342996914e-07 -3.480704839145663e-07 4.654154961489314e-08 7.5702827508237316e-06 0.0 0.0
0.0 3.692565328767908e-07 2.161056293924542e-06 -1.7214941177905563e-06 -4.395621761339866e-07 -5.565666101169426e-06 0.0 0.0
0.0 1.4878610624801501e-06 7.706813421211497e-07 -6.358868847153004e-07 -1.3479445740584766e-07 -2.9052251622840145e-06 0.0 0.0
0.0 8.65573617108536e-07 1.5851279525801043e-08 -7.1438276178226376e-09 -8.707451907982794e-09 -1.9725837935116144e-07 0.0 0.0
0.0 -2.601208150903466e-07 -4.544636810377973e-09 2.7967184891725414e-09 1.7479183212069819e-09 5.3433063895465725e-08 0.0 0.0
0.0 0.0 0.0 0.0 0.0 0.0 0.0 0.0
0.0 0.0 0.0 0.0 0.0 0.0 0.0 0.0
0.0 0.0 0.0 0.0 0.0 0.0 0.0 0.0
0.0 -2.95889627028445e-07 -1.3592507698731995e-08 1.083743040721265e-08 2.7550772915178707e-09 -5.501979115714737e-08 0.0 0.0
0.0 -1.4683095674769391e-06 -1.4390647120893206e-07 1.2171238425182008e-07 2.2194086957122267e-08 -4.362262538400109e-07 0.0 0.0
0.0 -9.728128908627098e-07 6.5339137543475655e-06 -5.27630203364284e-06 -1.257611720704723e-06 1.447890055023254e-05 0.0 0.0
0.0 4.6554788605680894e-05 -7.064443674296235e-06 4.1865475601737335e-06 2.8778961141224463e-06 3.2881027853037885e-06 0.0 0.0
0.0 0.0004960752357852077 -0.00040020592420071134 0.0003056733936461181 9.453253055459321e-05 -0.00034672911237956257 0.0 0.0
0.0 0.001900869964792452 -0.0016037186755377178 0.0012943551993423645 0.00030936347619535246 -0.0011846179967757611 0.0 0.0
0.0 0.004830144398489931 -0.003796706993752433 0.003271069640317206 0.000525637353435226 -0.0026459939316911428 0.0 0.0
0.0 0.00811328056434043 -0.006915541044376769 0.0062441054848585715 0.0006714355595182006 -0.004637645138848157 0.0 0.0
0.0 0.012740639416845126 -0.010687852541559652 0.009925056591768056 0.000762795949791586 -0.006745626757176019 0.0 0.0
0.0 0.017890438105351007 -0.0150148098131602 0.014177741924798055 0.0008370678883621401 -0.00882221839085901 0.0 0.0
0.0 0.023643716404114466 -0.019884833876866535 0.018975257669296273 0.0009095762075702773 -0.010815799632043793 0.0 0.0
0.0 0.030123450151342473 -0.025380209908213734 0.02440030017237347 0.0009799097358402361 -0.012787807870982312 0.0 0.0
0.0 0.037373011996826314 -0.03158630873940434 0.03054586577828768 0.0010404429611166298 -0.014878666103364618 0.0 0.0
0.0 0.04568114594735152 -0.038431570849635194 0.0373546717253031 0.001076899124332121 -0.01744690271316727 0.0 0.0
0.0 0.053706269694251824 -0.04545341828910252 0.04438121488659344 0.0010722034025089976 -0.02100457085914833 0.0 0.0
0.0 0.061325257125645544 -0.051482385089493016 0.05047614778546683 0.0010062373040262292 -0.02564848128980034 0.0 0.0
0.0 0.06547614775657093 -0.05438327893644756 0.05351978878619993 0.0008634901502475931 -0.03030825057128915 0.0 0.0
0.0 0.06167836302713105 -0.050607869963495714 0.05001186891977307 0.0005960010437226247 -0.03232418935108175 0.0 0.0
0.0 0.05581267800987527 -0.04289040204673023 0.038774732839193506 0.004115669207536662 1.637492225148307e-14 0.0 0.0
0.0 0.06167836302713006 -0.0506078699634888 0.05001186891976612 0.0005960010437226987 0.03232418935111856 0.0 0.0
0.0 0.06547614775655987 -0.054383278936432834 0.05351978878618602 0.0008634901502468311 0.030308250571326953 0.0 0.0
0.0 0.06132525712562012 -0.051482385089469035 0.050476147785443445 0.0010062373040255375 0.025648481289820016 0.0 0.0
0.0 0.053706269694212806 -0.045453418289068966 0.0443812148865594 0.001072203402509566 0.021004570859146317 0.0 0.0
0.0 0.045681145947310875 -0.03843157084960075 0.037354671725268754 0.0010768991243319639 0.017446902713156354 0.0 0.0
0.0 0.03737301199678955 -0.031586308739372536 0.030545865778257037 0.0010404429611155154 0.014878666103352211 0.0 0.0
0.0 0.030123450151304146 -0.02538020990818065 0.024400300172340926 0.0009799097358397044 0.012787807870970828 0.0 0.0
0.0 0.02364371640407662 -0.019884833876834623 0.01897525766926458 0.0009095762075700481 0.010815799632030672 0.0 0.0
0.0 0.017890438105311695 -0.015014809813127295 0.014177741924765428 0.0008370678883618631 0.008822218390840731 0.0 0.0
0.0 0.012740639416810655 -0.010687852541530941 0.009925056591739648 0.0007627959497913066 0.006745626757156342 0.0 0.0
0.0 0.008113280564313638 -0.006915541044354323 0.006244105484836716 0.0006714355595176097 0.004637645138831889 0.0 0.0
0.0 0.004830144398470473 -0.003796706993737211 0.0032710696403031514 0.0005256373534340616 0.002645993931681189 0.0 0.0
0.0 0.0019008699647807632 -0.0016037186755285299 0.0012943551993345832 0.0003093634761939466 0.0011846179967692498 0.0 0.0
0.0 0.0004960752357802169 -0.00040020592419748806 0.0003056733936436661 9.453253055382171e-05 0.0003467291123768855 0.0 0.0
0.0 4.655478860446991e-05 -7.0644436741813314e-06 4.186547560097577e-06 2.8778961140836946e-06 -3.2881027852461666e-06 0.0 0.0
0.0 -9.728128918540789e-07 6.5339137541931675e-06 -5.276302033518885e-06 -1.2576117206742634e-06 -1.447890054979685e-05 0.0 0.0
0.0 -1.4683095681866352e-06 -1.4390647122564127e-07 1.217123842645478e-07 2.2194086961110244e-08 4.36226253898972e-07 0.0 0.0
0.0 -2.9588962689353585e-07 -1.3592507692400482e-08 1.0837430402124616e-08 2.755077290274585e-09 5.50197911312241e-08 0.0 0.0
0.0 0.0 0.0 0.0 0.0 0.0 0.0 0.0
0.0 0.0 0.0 0.0 0.0 0.0 0.0 0.0
0.0 0.0 0.0 0.0 0.0 0.0 0.0 0.0
0.0 0.0 0.0 0.0 0.0 0.0 0.0 0.0
0.0 -3.008317283811859e-07 -1.6894082401111415e-08 1.3667650964936457e-08 3.226431436173586e-09 -5.3084951058647605e-08 0.0 0.0
0.0 6.156408487133777e-07 1.8812594467082834e-07 -1.4951657681885134e-07 -3.860936785195199e-08 4.452293855346386e-07 0.0 0.0
0.0 -1.466940355720869e-05 3.326073602467773e-06 -2.90289917472508e-06 -4.231744277427039e-07 6.806174797142642e-06 0.0 0.0
0.0 0.00016402824457471913 -9.034844562729523e-05 6.586850232190762e-05 2.4479943305387714e-05 -4.323986640948985e-05 0.0 0.0
0.0 0.0009804089651526153 -0.0008419227281721413 0.000652765282606636 0.0001891574455655047 -0.0004773624748745217 0.0 0.0
0.0 0.0032687362146853025 -0.002605411778483224 0.0021635730882387594 0.00044183869024446516 -0.0014093246005783158 0.0 0.0
0.0 0.006289750794805594 -0.005546234445872395 0.004901225133169718 0.0006450093127026758 -0.0030214236661489807 0.0 0.0
0.0 0.01099463841456718 -0.009432350248628768 0.008667279681324483 0.000765070567304289 -0.004964706344526144 0.0 0.0
0.0 0.016522948401630162 -0.014129044477213491 0.013279613426794764 0.0008494310504187286 -0.007013959421642624 0.0 0.0
0.0 0.022882522462226364 -0.019536647730431074 0.01861048713539099 0.0009261605950400919 -0.00903890193675373 0.0 0.0
0.0 0.030059365995149363 -0.025647687742314504 0.024642887312472894 0.0010048004298415852 -0.011002190737345072 0.0 0.0
0.0 0.038221773702706636 -0.03254709810305642 0.03146408420004516 0.001083013903011283 -0.012968247255949604 0.0 0.0
0.0 0.047273310452341025 -0.04034852040728911 0.03919333161319034 0.0011551887940987463 -0.015057671700164643 0.0 0.0
0.0 0.057237882333001255 -0.04900485051515405 0.047803325974852234 0.0012015245403018252 -0.017544275621891686 0.0 0.0
0.0 0.06804886784652728 -0.05795380872718944 0.05676396208786681 0.0011898466393226248 -0.02096844305459585 0.0 0.0
0.0 0.07727442975143556 -0.06570161583048426 0.06460839789310016 0.0010932179373839982 -0.02570837343726849 0.0 0.0
0.0 0.0819928571847642 -0.0694531319043431 0.06855487854317388 0.0008982533611691969 -0.031027972432434648 0.0 0.0
0.0 0.07773926401847804 -0.06498516299674441 0.06439749105173778 0.0005876719450066307 -0.03488620519781934 0.0 0.0
0.0 0.07017145542073133 -0.055860335688924304 0.05118652366057296 0.004673812028351346 1.6606507835525974e-14 0.0 0.0
0.0 0.0777392640184751 -0.0649851629967362 0.06439749105172995 0.0005876719450062545 0.03488620519785776 0.0 0.0
0.0 0.08199285718474653 -0.06945313190432369 0.06855487854315452 0.0008982533611691487 0.031027972432473017 0.0 0.0
0.0 0.07727442975140249 -0.0657016158304541 0.06460839789307027 0.0010932179373837616 0.02570837343728892 0.0 0.0
0.0 0.06804886784648535 -0.05795380872715292 0.056763962087830445 0.0011898466393223711 0.020968443054596678 0.0 0.0
0.0 0.05723788233295092 -0.04900485051511059 0.04780332597480927 0.001201524540301392 0.017544275621883265 0.0 0.0
0.0 0.04727331045229721 -0.04034852040725129 0.0391933316131533 0.001155188794098028 0.015057671700154917 0.0 0.0
0.0 0.03822177370266052 -0.03254709810301629 0.03146408420000575 0.001083013903010524 0.012968247255937213 0.0 0.0
0.0 0.030059365995101516 -0.02564768774227342 0.024642887312431912 0.0010048004298414683 0.011002190737331628 0.0 0.0
0.0 0.022882522462179505 -0.019536647730391397 0.018610487135351583 0.0009261605950398027 0.009038901936736156 0.0 0.0
0.0 0.016522948401588775 -0.014129044477178701 0.013279613426760161 0.0008494310504185296 0.0070139594216232885 0.0 0.0
0.0 0.01099463841453258 -0.009432350248599583 0.008667279681295896 0.0007650705673036834 0.0049647063445092295 0.0 0.0
0.0 0.006289750794783102 -0.0055462344458520685 0.004901225133150393 0.0006450093127016754 0.0030214236661381517 0.0 0.0
0.0 0.0032687362146699163 -0.0026054117784709697 0.002163573088227933 0.00044183869024303586 0.0014093246005716157 0.0 0.0
0.0 0.0009804089651458568 -0.0008419227281669214 0.0006527652826024922 0.00018915744556442964 0.00047736247487132667 0.0 0.0
0.0 0.00016402824457208557 -9.034844562612308e-05 6.586850232104102e-05 2.4479943305081925e-05 4.3239866408879574e-05 0.0 0.0
0.0 -1.4669403557150822e-05 3.3260736017237474e-06 -2.9028991741345986e-06 -4.231744275891785e-07 -6.806174795926991e-06 0.0 0.0
0.0 6.15640847908054e-07 1.8812594470522926e-07 -1.495165768476651e-07 -3.860936785755946e-08 -4.452293855748428e-07 0.0 0.0
0.0 -3.0083172820327663e-07 -1.6894082390560128e-08 1.3667650956397697e-08 3.226431434162971e-09 5.3084951026648725e-08 0.0 0.0
0.0 0.0 0.0 0.0 0.0 0.0 0.0 0.0
0.0 0.0 0.0 0.0 0.0 0.0 0.0 0.0
0.0 0.0 0.0 0.0 0.0 0.0 0.0 0.0
0.0 0.0 0.0 0.0 0.0 0.0 0.0 0.0
0.0 -1.680433764396781e-07 -1.0793184899027673e-08 8.54508648894806e-09 2.2480984100807976e-09 -2.827633481288059e-08 0.0 0.0
0.0 -1.2694607408785917e-06 4.897203918691486e-08 -3.860630213885221e-08 -1.0365737048091651e-08 2.1980492242752025e-07 0.0 0.0
0.0 3.7663377701341644e-06 1.078762660795886e-05 -9.39810211993979e-06 -1.3895244880190005e-06 1.7652697105744413e-05 0.0 0.0
0.0 0.00030014115378071686 -0.0002932450343533381 0.0002189050577854691 7.433997656786882e-05 -0.00012781046293125467 0.0 0.0
0.0 0.0017951797906686803 -0.0014151111739724876 0.0011218454615919086 0.0002932657123805782 -0.0005327290528625574 0.0 0.0
0.0 0.0042569770320528095 -0.003796279351341658 0.0032386117161562816 0.0005576676351853764 -0.0015406404297029356 0.0 0.0
0.0 0.008383014559900382 -0.007361244387828184 0.006630497387595776 0.0007307470002324074 -0.003034282856843205 0.0 0.0
0.0 0.013801354330597593 -0.012007422176121267 0.011169188083853296 0.0008382340922679802 -0.004791699791300874 0.0 0.0
0.0 0.020373271197267197 -0.017617417311429084 0.016695049347880308 0.0009223679635487548 -0.006668689972704677 0.0 0.0
0.0 0.027982746878470913 -0.024106107937537515 0.023101528020727548 0.001004579916809959 -0.008522694055024873 0.0 0.0
0.0 0.03667144342306678 -0.03146919255698598 0.030379315638521923 0.0010898769184640592 -0.010337081601447199 0.0 0.0
0.0 0.04613696338679062 -0.03978962100638372 0.03861378851653824 0.0011758324898454814 -0.012191528437162176 0.0 0.0
0.0 0.05712025143479399 -0.04915774723398463 0.04790187412600795 0.0012558731079767107 -0.014159183968245831 0.0 0.0
0.0 0.06925123256616153 -0.05953627451474722 0.058223915437248475 0.001312359077498662 -0.016336637263170608 0.0 0.0
0.0 0.08166263637293796 -0.07033073731353626 0.06902872313990172 0.001302014173634529 -0.01914046323923537 0.0 0.0
0.0 0.09277505328524559 -0.07974851420000315 0.07857272310987995 0.0011757910901232264 -0.02338548055278265 0.0 0.0
0.0 0.0986855032332866 -0.08441556786110484 0.08348825590693419 0.0009273119541705435 -0.02935817832316932 0.0 0.0
0.0 0.09387885699250532 -0.07949015954158367 0.07892147697652256 0.000568682565061051 -0.03629567001533433 0.0 0.0
0.0 0.08481797403177604 -0.06917635892225747 0.06400246541239958 0.005173893509857978 1.6914421252511858e-14 0.0 0.0
0.0 0.0938788569924977 -0.07949015954157208 0.0789214769765118 0.0005686825650602213 0.03629567001537126 0.0 0.0
0.0 0.09868550323326152 -0.08441556786107991 0.08348825590690932 0.0009273119541704407 0.029358178323205378 0.0 0.0
0.0 0.09277505328520454 -0.07974851419996667 0.07857272310984365 0.0011757910901230315 0.023385480552801652 0.0 0.0
0.0 0.08166263637288965 -0.07033073731349405 0.06902872313985994 0.001302014173634119 0.019140463239237997 0.0 0.0
0.0 0.06925123256610892 -0.059536274514701254 0.05822391543720341 0.0013123590774977913 0.016336637263165858 0.0 0.0
0.0 0.05712025143473495 -0.0491577472339339 0.04790187412595709 0.0012558731079768018 0.014159183968236658 0.0 0.0
0.0 0.04613696338673566 -0.03978962100633609 0.038613788516491505 0.0011758324898445858 0.012191528437151237 0.0 0.0
0.0 0.036671443423012054 -0.031469192556938384 0.030379315638474656 0.0010898769184637639 0.0103370816014348 0.0 0.0
0.0 0.02798274687841712 -0.02410610793749128 0.023101528020681723 0.0010045799168095467 0.008522694055008934 0.0 0.0
0.0 0.02037327119722046 -0.017617417311388956 0.016695049347840548 0.0009223679635484085 0.006668689972687343 0.0 0.0
0.0 0.013801354330559344 -0.012007422176088104 0.011169188083820801 0.0008382340922673014 0.004791699791286018 0.0 0.0
0.0 0.00838301455987173 -0.007361244387802883 0.006630497387571348 0.0007307470002315326 0.0030342828568327646 0.0 0.0
0.0 0.0042569770320343165 -0.003796279351325462 0.0032386117161413335 0.0005576676351841272 0.0015406404296958594 0.0 0.0
0.0 0.001795179790658676 -0.0014151111739647711 0.0011218454615855484 0.00029326571237922025 0.0005327290528591125 0.0 0.0
0.0 0.0003001411537768855 -0.0002932450343507776 0.0002189050577835229 7.433997656725434e-05 0.000127810462930301 0.0 0.0
0.0 3.766337769570005e-06 1.0787626607471546e-05 -9.39810211955207e-06 -1.3895244879193484e-06 -1.76526971051637e-05 0.0 0.0
0.0 -1.269460741086098e-06 4.8972039192882113e-08 -3.860630214437725e-08 -1.036573704850343e-08 -2.198049224537186e-07 0.0 0.0
0.0 -1.6804337643450485e-07 -1.0793184898566844e-08 8.545086488621468e-09 2.248098409945835e-09 2.8276334812116163e-08 0.0 0.0
0.0 0.0 0.0 0.0 0.0 0.0 0.0 0.0
0.0 0.0 0.0 0.0 0.0 0.0 0.0 0.0
0.0 0.0 0.0 0.0 0.0 0.0 0.0 0.0
0.0 0.0 0.0 0.0 0.0 0.0 0.0 0.0
0.0 0.0 0.0 0.0 0.0 0.0 0.0 0.0
0.0 -1.6575787269213513e-06 6.379143371644941e-07 -5.08605265479127e-07 -1.293090716853586e-07 9.265815917841611e-07 0.0 0.0
0.0 3.9273247889826865e-05 -1.2970410168760626e-05 7.444911568712416e-06 5.525498600048492e-06 7.131163859052075e-06 0.0 0.0
0.0 0.0006604942546567954 -0.0005430136198873133 0.00040888174460179547 0.00013413187528551836 -0.00011351410539108911 0.0 0.0
0.0 0.00247271493690734 -0.002155783690729627 0.001752759661782493 0.0004030240289471312 -0.0005369728833525143 0.0 0.0
0.0 0.005616594632982088 -0.005057936709503908 0.0044131026649336085 0.000644834044570305 -0.0014479419874240088 0.0 0.0
0.0 0.010407765513974172 -0.009221359932753885 0.008423045926026222 0.0007983140067276476 -0.002675549848295235 0.0 0.0
0.0 0.016688210709026558 -0.014608805166084838 0.013709330752628075 0.0008994744134567712 -0.0041495436134582585 0.0 0.0
0.0 0.024237676306214553 -0.02112607498142855 0.020139055999297117 0.0009870189821314253 -0.005729040703918716 0.0 0.0
0.0 0.03309937241052239 -0.028699091751719842 0.027622926858850642 0.0010761648928691871 -0.007292930467060381 0.0 0.0
0.0 0.042966150093663544 -0.03733055515802224 0.0361614529799031 0.0011691021781191674 -0.008835300079299946 0.0 0.0
0.0 0.054482773241972524 -0.047072888366746224 0.045813347875466856 0.0012595404912793034 -0.010449309501227652 0.0 0.0
0.0 0.0670061578386347 -0.05798251119503715 0.05663945587271024 0.0013430553223269153 -0.012188533212744414 0.0 0.0
0.0 0.08067475488959575 -0.06996068175440963 0.06855233635863123 0.0014083453957784986 -0.013955157436955476 0.0 0.0
0.0 0.09515085145278765 -0.08240671614159475 0.08099394261214686 0.001412773529447903 -0.015777346754107843 0.0 0.0
0.0 0.10805742537182669 -0.09346653557996584 0.09219282898017389 0.001273706599791897 -0.018751617282668855 0.0 0.0
0.0 0.11524134453912747 -0.0993338339211968 0.0983678164831001 0.0009660174380967251 -0.025206343965111844 0.0 0.0
0.0 0.11058736528842446 -0.09440614577277179 0.0938752458787914 0.0005308998939805348 -0.03632887871391238 0.0 0.0
0.0 0.10078130853198178 -0.08317258509474316 0.07756409508414777 0.005608490010595337 1.4382592339323708e-14 0.0 0.0
0.0 0.1105873652884127 -0.09440614577275766 0.09387524587877809 0.0005308998939795799 0.03632887871394509 0.0 0.0
0.0 0.11524134453909479 -0.09933383392116668 0.09836781648306979 0.0009660174380968732 0.02520634396514351 0.0 0.0
0.0 0.10805742537177959 -0.09346653557992433 0.09219282898013331 0.0012737065997909711 0.018751617282685453 0.0 0.0
0.0 0.09515085145272906 -0.08240671614154416 0.08099394261209615 0.0014127735294480021 0.015777346754109335 0.0 0.0
0.0 0.08067475488953395 -0.06996068175435582 0.06855233635857819 0.001408345395777634 0.013955157436952467 0.0 0.0
0.0 0.06700615783856792 -0.05798251119497923 0.056639455872652913 0.0013430553223263567 0.012188533212737841 0.0 0.0
0.0 0.054482773241907666 -0.04707288836668967 0.04581334787541148 0.0012595404912781661 0.010449309501218822 0.0 0.0
0.0 0.04296615009359886 -0.03733055515796652 0.03616145297984736 0.0011691021781191863 0.008835300079290485 0.0 0.0
0.0 0.03309937241046099 -0.028699091751666246 0.027622926858797567 0.0010761648928687049 0.007292930467047843 0.0 0.0
0.0 0.02423767630616195 -0.021126074981382966 0.02013905599925188 0.0009870189821310886 0.005729040703903695 0.0 0.0
0.0 0.016688210708984373 -0.014608805166048167 0.013709330752592029 0.0008994744134561305 0.004149543613445824 0.0 0.0
0.0 0.010407765513940957 -0.009221359932724606 0.008423045925997569 0.0007983140067270386 0.0026755498482860284 0.0 0.0
0.0 0.005616594632959677 -0.005057936709483473 0.004413102664914428 0.0006448340445690476 0.0014479419874173977 0.0 0.0
0.0 0.0024727149368939643 -0.0021557836907182305 0.0017527596617725886 0.00040302402894564377 0.0005369728833487575 0.0 0.0
0.0 0.0006604942546508733 -0.0005430136198828926 0.00040888174459837747 0.0001341318752845144 0.00011351410538986761 0.0 0.0
0.0 3.927324788925961e-05 -1.2970410168993286e-05 7.444911568937257e-06 5.525498600055942e-06 -7.131163858427296e-06 0.0 0.0
0.0 -1.6575787274919252e-06 6.379143372177697e-07 -5.086052655241735e-07 -1.2930907169359113e-07 -9.265815918727275e-07 0.0 0.0
0.0 0.0 0.0 0.0 0.0 0.0 0.0 0.0
0.0 0.0 0.0 0.0 0.0 0.0 0.0 0.0
0.0 0.0 0.0 0.0 0.0 0.0 0.0 0.0
0.0 0.0 0.0 0.0 0.0 0.0 0.0 0.0
0.0 0.0 0.0 0.0 0.0 0.0 0.0 0.0
0.0 0.0 0.0 0.0 0.0 0.0 0.0 0.0
0.0 -1.410079182387245e-06 1.9004747705394143e-06 -1.513785685774971e-06 -3.8668908476445834e-07 1.5670449394696534e-06 0.0 0.0
0.0 9.218782445978742e-05 -9.17428291676337e-05 6.411235268589438e-05 2.7630476481739326e-05 3.643173403449958e-06 0.0 0.0
0.0 0.0011385920189246098 -0.0009120544476809032 0.0006995578810799325 0.00021249656660096938 -5.78630341821938e-05 0.0 0.0
0.0 0.0031887493956783137 -0.002999662022044027 0.0025005211631254753 0.0004991408589185545 -0.0004374049983954478 0.0 0.0
0.0 0.007057903497457559 -0.006360756761946741 0.0056452663106262915 0.0007154904513204574 -0.001079879428223139 0.0 0.0
0.0 0.01246897576898857 -0.01110069932295879 0.010247266982994637 0.0008534323399641482 -0.0019734628429420678 0.0 0.0
0.0 0.019573607480020662 -0.01721339487982397 0.0162604360473709 0.000952958832453059 -0.0030494243150759074 0.0 0.0
0.0 0.028194235000642335 -0.02463059569817756 0.02358445552433724 0.0010461401738403012 -0.004207545366698511 0.0 0.0
0.0 0.0381459067156489 -0.033292694383931155 0.03215016762659818 0.001142526757332965 -0.005356285331848607 0.0 0.0
0.0 0.049774006257871956 -0.04319515937488946 0.041953271208998805 0.0012418881658906441 -0.006503831970262819 0.0 0.0
0.0 0.06242536549478625 -0.05438014190890193 0.05304200689525751 0.0013381350136443637 -0.00775442980826894 0.0 0.0
0.0 0.07679023311550566 -0.06680443676775881 0.06538259637624728 0.001421840391511581 -0.009119475569523059 0.0 0.0
0.0 0.09231581551419622 -0.08023831348075455 0.07875577287842635 0.0014825406023281057 -0.010405656338265349 0.0 0.0
0.0 0.1082816221845254 -0.09405533043476505 0.09255031128486574 0.0015050191498994312 -0.011311397688557778 0.0 0.0
0.0 0.12282213108343248 -0.10663668525366346 0.10521750022247088 0.0014191850311925606 -0.012479436090623564 0.0 0.0
0.0 0.13178018337586253 -0.11416561112029096 0.11311294215431801 0.0010526689659728886 -0.017878631719471922 0.0 0.0
0.0 0.1280910917736306 -0.11005445809462176 0.10960317992639072 0.00045127816823083166 -0.03404010070978062 0.0 0.0
0.0 0.11816016027271117 -0.09833149572690049 0.09238481047851808 0.005946685248382335 9.998946115530316e-15 0.0 0.0
0.0 0.12809109177361216 -0.11005445809460346 0.10960317992637285 0.0004512781682306678 0.03404010070980654 0.0 0.0
0.0 0.13178018337582395 -0.11416561112025653 0.11311294215428364 0.0010526689659729259 0.017878631719498033 0.0 0.0
0.0 0.12282213108337735 -0.10663668525361578 0.1052175002224234 0.0014191850311923602 0.012479436090635676 0.0 0.0
0.0 0.1082816221844574 -0.09405533043470649 0.09255031128480676 0.001505019149899744 0.011311397688558837 0.0 0.0
0.0 0.09231581551412123 -0.08023831348068972 0.07875577287836158 0.0014825406023282089 0.01040565633826351 0.0 0.0
0.0 0.07679023311543372 -0.06680443676769648 0.06538259637618558 0.001421840391510863 0.009119475569519362 0.0 0.0
0.0 0.0624253654947125 -0.054380141908838 0.05304200689519444 0.0013381350136435902 0.007754429808261217 0.0 0.0
0.0 0.04977400625779785 -0.04319515937482527 0.04195327120893459 0.0012418881658906584 0.006503831970255825 0.0 0.0
0.0 0.038145906715580845 -0.03329269438387233 0.03215016762653989 0.0011425267573323677 0.005356285331840384 0.0 0.0
0.0 0.028194235000582324 -0.024630595698124997 0.023584455524284925 0.001046140173840097 0.004207545366686879 0.0 0.0
0.0 0.019573607479974834 -0.017213394879783322 0.016260436047331076 0.0009529588324522498 0.003049424315066518 0.0 0.0
0.0 0.012468975768951259 -0.011100699322925567 0.010247266982962074 0.0008534323399634956 0.0019734628429351237 0.0 0.0
0.0 0.007057903497432113 -0.006360756761923627 0.00564526631060436 0.0007154904513192646 0.0010798794282182154 0.0 0.0
0.0 0.003188749395663795 -0.002999662022030486 0.002500521163113392 0.0004991408589170963 0.0004374049983926366 0.0 0.0
0.0 0.0011385920189170026 -0.000912054447674552 0.0006995578810748432 0.00021249656659970764 5.7863034181197205e-05 0.0 0.0
0.0 9.218782445836679e-05 -9.174282916722977e-05 6.411235268565662e-05 2.763047648157303e-05 -3.6431734029992024e-06 0.0 0.0
0.0 -1.4100791827879813e-06 1.9004747705737717e-06 -1.5137856858038032e-06 -3.8668908476998836e-07 -1.5670449395163215e-06 0.0 0.0
0.0 0.0 0.0 0.0 0.0 0.0 0.0 0.0
0.0 0.0 0.0 0.0 0.0 0.0 0.0 0.0
0.0 0.0 0.0 0.0 0.0 0.0 0.0 0.0
0.0 0.0 0.0 0.0 0.0 0.0 0.0 0.0
0.0 0.0 0.0 0.0 0.0 0.0 0.0 0.0
0.0 0.0 0.0 0.0 0.0 0.0 0.0 0.0
0.0 -4.159178266286206e-06 3.0918821402046605e-06 -2.5989112061799674e-06 -4.929709340246887e-07 2.1269857195111227e-06 0.0 0.0
0.0 0.00027736462897710266 -0.0002022965386100096 0.00014373058889594604 5.8565949714063596e-05 4.208410020213564e-05 0.0 0.0
0.0 0.0015959175083966122 -0.0013993174668445823 0.0010981181553237091 0.0003011993115208724 5.2011566988542834e-05 0.0 0.0
0.0 0.004201237603958606 -0.0038766745958979916 0.0033023700727545296 0.0005743045231434627 -0.00014589077501294572 0.0 0.0
0.0 0.0085140352779272 -0.007683555598314261 0.006911293590490613 0.0007722620078236456 -0.0004751652967913953 0.0 0.0
0.0 0.014609416130647975 -0.012975048812015288 0.01207545078025201 0.000899598031763278 -0.0009344977469932954 0.0 0.0
0.0 0.022460116509316612 -0.019797873678490167 0.01879638091188469 0.001001492766605466 -0.001498883738694109 0.0 0.0
0.0 0.03207246888184852 -0.02810991633821324 0.027009048626347818 0.00110086771186544 -0.002105075814642295 0.0 0.0
0.0 0.04348494618716032 -0.0378626129540548 0.03665871638665975 0.0012038965673950484 -0.002713538628052353 0.0 0.0
0.0 0.056105158016735754 -0.04905349760418009 0.04774333405549555 0.001310163548684507 -0.003366693263173672 0.0 0.0
0.0 0.07065782690590788 -0.06166559052831423 0.06025409406100693 0.001411496467307296 -0.0040959229707791135 0.0 0.0
0.0 0.08670904347441083 -0.07558001108437057 0.0740859387275591 0.0014940723568115186 -0.004889581482509619 0.0 0.0
0.0 0.10383435688298741 -0.09040255357186451 0.08885744915079705 0.0015451044210674212 -0.005628629649075184 0.0 0.0
0.0 0.12110191723605768 -0.1053204248153059 0.10376109322925348 0.001559331586052465 -0.005994323938547872 0.0 0.0
0.0 0.13687302821441327 -0.1189503871681367 0.11740709467524497 0.001543292492891828 -0.00590585740826026 0.0 0.0
0.0 0.14785538103345497 -0.12843685145269335 0.12708167291185937 0.0013551785408338342 -0.008127503715674595 0.0 0.0
0.0 0.14673524701747237 -0.12679892084791164 0.12640576021149635 0.00039316063641532304 -0.024589762437158318 0.0 0.0
0.0 0.138109622780663 -0.11570882254423755 0.1098134284552733 0.0058953940889642014 5.02549390990481e-15 0.0 0.0
0.0 0.1467352470174496 -0.12679892084789066 0.1264057602114755 0.0003931606364151121 0.02458976243717367 0.0 0.0
0.0 0.14785538103340856 -0.128436851452653 0.12708167291181893 0.0013551785408339658 0.00812750371568938 0.0 0.0
0.0 0.13687302821435032 -0.1189503871680823 0.11740709467519071 0.0015432924928915433 0.005905857408265805 0.0 0.0
0.0 0.12110191723597948 -0.10532042481523873 0.10376109322918557 0.0015593315860532382 0.005994323938548017 0.0 0.0
0.0 0.10383435688290463 -0.09040255357179271 0.08885744915072546 0.0015451044210671478 0.005628629649073774 0.0 0.0
0.0 0.08670904347433026 -0.07558001108430072 0.0740859387274897 0.0014940723568110915 0.004889581482506866 0.0 0.0
0.0 0.07065782690582509 -0.06166559052824268 0.06025409406093546 0.0014114964673071283 0.0040959229707768574 0.0 0.0
0.0 0.05610515801665556 -0.04905349760411038 0.0477433340554266 0.001310163548683743 0.0033666932631706893 0.0 0.0
0.0 0.04348494618708644 -0.0378626129539905 0.036658716386596034 0.001203896567394471 0.0027135386280468703 0.0 0.0
0.0 0.03207246888178202 -0.02810991633815564 0.027009048626290603 0.0011008677118650313 0.0021050758146360085 0.0 0.0
0.0 0.022460116509265188 -0.019797873678444662 0.018796380911840157 0.0010014927666045052 0.0014988837386892512 0.0 0.0
0.0 0.014609416130607587 -0.012975048811979225 0.01207545078021658 0.0008995980317626326 0.0009344977469896033 0.0 0.0
0.0 0.00851403527789927 -0.0076835555982889365 0.006911293590466152 0.0007722620078227784 0.00047516529678885927 0.0 0.0
0.0 0.004201237603942037 -0.003876674595882483 0.0033023700727402502 0.0005743045231422311 0.00014589077501138095 0.0 0.0
0.0 0.0015959175083875045 -0.0013993174668366292 0.0010981181553170996 0.0003011993115195299 -5.201156698878158e-05 0.0 0.0
0.0 0.0002773646289745469 -0.00020229653860854503 0.00014373058889492494 5.8565949713620266e-05 -4.208410020167935e-05 0.0 0.0
0.0 -4.1591782664843695e-06 3.091882139908307e-06 -2.5989112059576513e-06 -4.929709339505951e-07 -2.126985719489778e-06 0.0 0.0
0.0 0.0 0.0 0.0 0.0 0.0 0.0 0.0
0.0 0.0 0.0 0.0 0.0 0.0 0.0 0.0
0.0 0.0 0.0 0.0 0.0 0.0 0.0 0.0
0.0 0.0 0.0 0.0 0.0 0.0 0.0 0.0
0.0 0.0 0.0 0.0 0.0 0.0 0.0 0.0
0.0 0.0 0.0 0.0 0.0 0.0 0.0 0.0
0.0 4.978422681044647e-06 -3.619925382677357e-06 1.9396656424973387e-06 1.6802597401801274e-06 3.709565170073387e-06 0.0 0.0
0.0 0.0005227335935323032 -0.00036150197389691344 0.00025607203099089234 0.00010542994290602108 9.913846004799754e-05 0.0 0.0
0.0 0.0020968988962853843 -0.0018445805559639205 0.0014337908282130592 0.00041078972775086104 0.0002397035837507825 0.0 0.0
0.0 0.004997099890849248 -0.0046230957974202 0.0038952017070279688 0.0007278940903922344 0.00030594857437760993 0.0 0.0
0.0 0.009672543794303537 -0.008776325029323427 0.007792199183643271 0.0009841258456801498 0.0003456499945242075 0.0 0.0
0.0 0.016181653496895966 -0.014513230644320098 0.013316881554600181 0.0011963490897199196 0.0003525716687444091 0.0 0.0
0.0 0.02468122928983095 -0.021915158233143585 0.020500054342250298 0.0014151038908932884 0.00029862145808901117 0.0 0.0
0.0 0.03514093297262108 -0.03097053367084803 0.029303826443109984 0.0016667072277380176 0.00022680106993008386 0.0 0.0
0.0 0.047189333068034696 -0.041646524646676876 0.03968908229692854 0.0019574423497483416 0.00013320514402595345 0.0 0.0
0.0 0.06114096073247972 -0.05390376194316124 0.051625496734704644 0.002278265208456531 -3.8707570050564716e-05 0.0 0.0
0.0 0.07687907227642073 -0.06769199554700103 0.06507744545125632 0.0026145500957447465 -0.0002547554651332372 0.0 0.0
0.0 0.09420506881111555 -0.08283148524608237 0.07989298526465666 0.002938499981425575 -0.0005725192625823756 0.0 0.0
0.0 0.11256452346946764 -0.09879593989733064 0.09558471209223005 0.0032112278051005796 -0.000961992331592559 0.0 0.0
0.0 0.13074514779133173 -0.11455600971492004 0.11117144893558534 0.0033845607793345452 -0.0012657096650981817 0.0 0.0
0.0 0.14697309333544575 -0.1285875076491227 0.12517251323037673 0.003414994418745897 -0.001214866976545213 0.0 0.0
0.0 0.1588961130604567 -0.1390369824882119 0.13562578599167213 0.003411196496539906 -0.0019701022032344636 0.0 0.0
0.0 0.16126519769154507 -0.14158292362955532 0.13819489154094583 0.003388032088609382 -0.017838580624259363 0.0 0.0
0.0 0.15703737814692045 -0.1335631655684027 0.12369343188285155 0.009869733685550962 1.4155343563970746e-15 0.0 0.0
0.0 0.16126519769152017 -0.14158292362953295 0.13819489154092468 0.003388032088608245 0.017838580624264178 0.0 0.0
0.0 0.1588961130604025 -0.13903698248816515 0.1356257859916256 0.003411196496539483 0.0019701022032396383 0.0 0.0
0.0 0.1469730933353768 -0.12858750764906168 0.12517251323031886 0.0034149944187429667 0.0012148669765467447 0.0 0.0
0.0 0.13074514779124638 -0.11455600971484611 0.11117144893551154 0.0033845607793343644 0.0012657096650975 0.0 0.0
0.0 0.11256452346938292 -0.09879593989725616 0.09558471209215809 0.003211227805098 0.0009619923315926319 0.0 0.0
0.0 0.09420506881102983 -0.08283148524600713 0.0798929852645836 0.002938499981423475 0.0005725192625788966 0.0 0.0
0.0 0.07687907227633084 -0.06769199554692268 0.06507744545117915 0.002614550095743513 0.00025475546513320513 0.0 0.0
0.0 0.06114096073239474 -0.05390376194308673 0.05162549673463228 0.002278265208454477 3.87075700502915e-05 0.0 0.0
0.0 0.04718933306795508 -0.041646524646607286 0.039689082296860634 0.001957442349746596 -0.00013320514402931447 0.0 0.0
0.0 0.035140932972551914 -0.03097053367078738 0.02930382644305076 0.0016667072277366246 -0.00022680106993193568 0.0 0.0
0.0 0.02468122928977465 -0.021915158233094357 0.020500054342202634 0.001415103890891741 -0.0002986214580901741 0.0 0.0
0.0 0.016181653496852647 -0.01451323064428181 0.013316881554563068 0.0011963490897187476 -0.0003525716687451908 0.0 0.0
0.0 0.009672543794273566 -0.008776325029296308 0.0077921991836171975 0.000984125845679101 -0.0003456499945242435 0.0 0.0
0.0 0.004997099890829376 -0.004623095797401593 0.0038952017070109373 0.0007278940903906563 -0.0003059485743773375 0.0 0.0
0.0 0.0020968988962758697 -0.0018445805559547672 0.001433790828205508 0.0004107897277492602 -0.00023970358374983167 0.0 0.0
0.0 0.0005227335935288867 -0.00036150197389456354 0.000256072030989236 0.00010542994290532833 -9.913846004738154e-05 0.0 0.0
0.0 4.978422680758326e-06 -3.619925382606604e-06 1.9396656424537284e-06 1.6802597401528516e-06 -3.7095651700255818e-06 0.0 0.0
0.0 0.0 0.0 0.0 0.0 0.0 0.0 0.0
0.0 0.0 0.0 0.0 0.0 0.0 0.0 0.0
0.0 0.0 0.0 0.0 0.0 0.0 0.0 0.0
SCALARS Wm float 4
LOOKUP_TABLE default
11.70217096828861 1.975857717383486 4.787198561585598 4.93911468931952
5.643017286234702 2.7455708082757684 1.2829379011494408 1.6145085768094944
0.6289869505717685 0.6035355350510744 0.0008425008727582922 0.024608914647935902
0.4937248468334506 0.47668471884467756 0.004612392180073194 0.012427735808699845
0.9420639736064575 0.7211168132786014 0.07806335013524827 0.1428838101926076
1.958186044111498 1.0068459157912044 0.33703226719712204 0.6143078611231702
3.969419135661069 1.4104667912885742 1.0659566926348663 1.492995651737631
7.203089293987479 1.893232648608303 2.4201025989685747 2.8897540464105984
11.947000988474347 2.4867815049721997 4.613790445541904 4.846429037960242
18.43038282458161 3.2268417964747593 7.822500571820139 7.381040456286723
26.797694427474788 4.14940675269827 12.162516376162412 10.48577129861412
37.03650930334155 5.275210361500648 17.611117170335522 14.150181771505412
49.3318027417517 6.59674781824417 24.37014400927916 18.364910914228382
63.709438921415526 8.106776974872082 32.48139027934383 23.1212716671996
80.03389796915384 9.69654341880358 41.96428704339325 28.37306750695697
97.84298438050148 11.167590630705632 52.67812762706457 33.997266122731276
116.1718347824347 12.270431566164834 64.12385916569147 39.77754405057839
133.6386235428417 12.801892572732669 75.51003147756458 45.3266994925444
148.68751397290328 12.776671855714289 85.73856844499444 50.17227367219469
159.23772309099786 12.122468653566507 93.3397450620416 53.77550937538969
162.73340775508512 10.968487243979075 96.47472505829165 55.29019545281433
159.23772309099252 12.122468653587053 93.33974506202355 53.77550937538195
148.68751397285757 12.776671855711927 85.7385684449648 50.17227367218075
133.63862354278098 12.801892572736477 75.51003147752118 45.32669949252333
116.17183478234983 12.2704315661497 64.12385916564492 39.77754405055518
97.842984380427 11.16759063070783 52.6781276270142 33.99726612270502
80.03389796907625 9.69654341879707 41.96428704334731 28.373067506931847
63.70943892134078 8.106776974868193 32.48139027929873 23.121271667173822
49.33180274168405 6.596747818243462 24.37014400923738 18.364910914203236
37.03650930327637 5.275210361492415 17.611117170300876 14.15018177148309
26.797694427418293 4.149406752690996 12.162516376133333 10.485771298593939
18.430382824538974 3.2268417964680935 7.822500571799648 7.381040456271241
11.947000988443913 2.4867815049677193 4.61379044552786 4.846429037948337
7.203089293968784 1.8932326486082744 2.4201025989591387 2.8897540464013742
3.969419135648265 1.4104667912844546 1.0659566926308994 1.4929956517329115
1.9581860441051997 1.0068459157892993 0.3370322671956212 0.6143078611202787
0.9420639736041337 0.7211168132772964 0.07806335013485131 0.14288381019198657
0.4937248468328012 0.476684718844051 0.004612392180056725 0.01242773580869357
0.6289869505708185 0.6035355350503784 0.0008425008726972822 0.0246089146477426
5.643017286229741 2.745570808276469 1.2829379011467175 1.6145085768065555
11.702170968262264 1.9758577173704133 4.787198561578355 4.939114689313499
13.829522596141407 6.107494809964295 3.6863029837073364 4.035724802469773
2.17700563375156 0.4768258480263475 0.7016298676451358 0.9985499180800754
0.2515611335912324 0.28406664276998106 -0.009542961770725606 -0.02296254740802315
0.38895373805938505 0.3856159034924543 0.00045148430882740136 0.0028863502581032863
0.7167507408279002 0.5928292640393217 0.03670948756864658 0.08721198921993234
1.5701529226194175 0.8558055868362473 0.2573321264478595 0.45701520933531137
3.259179500113241 1.143388332100604 0.8564892488247372 1.2593019191879
6.09845204830428 1.4860607857388508 2.066085269504679 2.5463059930607503
10.288824906108596 1.8682063402759999 4.055593546067227 4.36502501976537
15.968328084079209 2.297863674702482 6.950286047061458 6.720178362315264
23.231339966840117 2.7802160601098302 10.855241777358565 9.595882129371718
32.18818003252188 3.331986046889532 15.881655058978826 12.974538926653526
42.717434235626385 3.96601728173062 21.89139952925303 16.860017424642727
55.14698005243744 4.663324602189914 29.235226123334925 21.248429326912607
69.30586644274914 5.377034568891037 37.814136672452676 26.11469520140543
84.85008694290892 5.9957901186117315 47.50751776614101 31.346779058156173
101.03380620160488 6.380417423289111 57.94296433217036 36.71042444614536
116.70032103838093 6.4296765613568345 68.38574666689021 41.88489781013387
130.29020384693524 6.08511111620891 77.78432577814833 46.42076695257797
139.887482176952 5.392357964819501 84.77936144624579 49.71576276588669
143.4563458670854 4.6274243000957735 87.74044346911279 51.08847809787689
139.8874821769278 5.392357964817174 84.77936144623095 49.715762765879646
130.29020384689724 6.085111116210343 77.78432577812175 46.42076695256516
116.70032103832852 6.429676561362133 68.38574666685145 41.884897810115014
101.03380620153992 6.380417423286817 57.94296433212883 36.71042444612425
84.85008694283718 5.995790118608809 47.50751776609592 31.346779058132473
69.30586644268413 5.37703456889116 37.81413667241074 26.114695201382233
55.14698005236888 4.663324602183917 29.235226123295313 21.248429326889656
42.7174342355631 3.966017281727607 21.89139952921581 16.86001742461968
32.188180032467635 3.331986046887825 15.881655058947182 12.974538926632624
23.231339966790756 2.7802160601045696 10.855241777332783 9.595882129353411
15.968328084041737 2.297863674697861 6.950286047043022 6.720178362300848
10.288824906082638 1.8682063402737712 4.055593546054616 4.365025019754248
6.09845204828658 1.4860607857377224 2.066085269496451 2.5463059930524086
3.2591795001030595 1.1433883320990395 0.8564892488209037 1.2593019191831143
1.5701529226143482 0.8558055868348915 0.2573321264463307 0.4570152093331263
0.7167507408261958 0.5928292640382645 0.0367094875684085 0.08721198921952313
0.38895373805894795 0.38561590349192165 0.0004514843088418216 0.0028863502581845425
0.2515611335910997 0.28406664276969096 -0.009542961770664734 -0.022962547407926494
2.1770056337453774 0.47682584802538397 0.7016298676426351 0.9985499180773587
13.829522596116377 6.10749480995312 3.6863029836999837 4.035724802463264
10.341739004333693 4.817601507934057 2.5249133895671148 2.9992241068325227
1.3376943791505342 0.18040251667639243 0.4637680448414005 0.6935238176327417
0.15851686912031138 0.15851594175578448 1.0859743632165583e-07 8.187670905519288e-07
0.29159683024808586 0.2934844004964462 -0.00036584998314701314 -0.0015217202652133153
0.5484444488252371 0.5048130174359788 0.010313372354572442 0.0333180590346861
1.2214602154499195 0.7679405991150212 0.15757850115732533 0.29594111517757304
2.6305655385990896 1.045871061468524 0.612447100272056 0.9722473768585107
5.106523955098737 1.3712548974968326 1.6281294162744597 2.1071396413274432
8.788622228945151 1.7211740772447237 3.32903466602685 3.738413485673576
13.804159856502055 2.1005531164216937 5.849247796790289 5.854358943290072
20.17888601169169 2.519738540973238 9.233067718502038 8.426079752216411
27.922999483819968 2.9937822166693153 13.49410604516933 11.435111221981318
37.25141261832499 3.546100281212393 18.826734027849017 14.878578309263581
47.99794345293281 4.16919400011561 25.047884159176316 18.78086529364085
60.4041449887105 4.811051370223436 32.47705748814125 23.1160361303458
74.09362598269769 5.3952023430219285 40.896011600711354 27.802412038964412
88.45219776080029 5.808750417188418 49.98396818198991 32.65947916162198
102.44131775468986 5.925281466578215 59.15866684027499 37.357369447836625
114.60054943802533 5.645732959230263 67.47967740986958 41.47513906892548
123.23089860329893 5.112987317525345 73.66603955545388 44.45187173031973
126.33824898552649 4.199136141138164 76.380400662488 45.75871218190029
123.23089860328521 5.112987317529361 73.66603955544201 44.45187173031376
114.60054943799543 5.6457329592362315 67.47967740984555 41.47513906891365
102.44131775464291 5.925281466581208 59.15866684024191 37.35736944781975
88.45219776074431 5.8087504171870386 49.98396818195407 32.65947916160323
74.09362598263596 5.3952023430179255 40.896011600673916 27.8024120389441
60.4041449886529 4.8110513702231925 32.47705748810467 23.116036130325014
47.99794345287468 4.169194000110835 25.047884159143024 18.78086529362083
37.2514126182706 3.5461002812104083 18.826734027816975 14.878578309243206
27.92299948377234 2.9937822166691364 13.494106045141068 11.435111221962144
20.178886011651226 2.519738540971207 9.23306771847999 8.426079752200032
13.804159856470223 2.1005531164182716 5.8492477967746455 5.854358943277308
8.78862222892185 1.7211740772423683 3.329034666015917 3.7384134856635676
5.106523955082815 1.3712548974946666 1.628129416267759 2.1071396413203916
2.630565538589902 1.0458710614667046 0.6124471002689712 0.9722473768542256
1.2214602154460414 0.7679405991137812 0.15757850115629637 0.2959411151759642
0.5484444488241436 0.504813017435178 0.010313372354469743 0.033318059034495605
0.2915968302479529 0.2934844004962644 -0.0003658499831382672 -0.001521720265173317
0.15851686912023832 0.1585159417557067 1.0859743665878953e-07 8.18767094928473e-07
1.337694379145926 0.18040251667609417 0.46376804483946055 0.6935238176303704
10.34173900430995 4.817601507923855 2.5249133895602127 2.999224106825885
7.76478829883543 3.7444888894227883 1.7637228037065815 2.2565766057060612
0.8866045509480444 0.0908866325176601 0.29979421054245625 0.49592370788792683
0.11165896788529173 0.11165896788529173 0.0 0.0
0.21990016371273668 0.2199751588384637 -2.438515008163323e-06 -7.255661071876519e-05
0.4209677705246735 0.4176123282149685 5.9288139561935636e-05 0.0032961541701432167
0.9109498642001355 0.6622500132600012 0.07629485185426786 0.17240499908586632
2.0736970169159052 0.9527961376771544 0.42159494195448916 0.6993059372842612
4.154709366924882 1.2509472295327257 1.223934437087173 1.6798277003049824
7.3423662866095505 1.5713435709026153 2.6525868605679293 3.1184358551390052
11.687114148362756 1.906183423053939 4.789029620653732 4.9919011046550885
17.170000769042705 2.2658772065726804 7.64266133490121 7.261462227568817
23.8640479930939 2.6749977671365586 11.28829084281384 9.900759383143512
31.744046766766296 3.1489409819212373 15.68093009770346 12.914175687141597
41.120941610191906 3.6902826319579187 21.112902815833774 16.317756162400205
51.75869165475833 4.27206227578412 27.36382219537409 20.12280718360013
63.554325020638196 4.825589052254958 34.46613371195852 24.26260225642473
76.1577618869436 5.259883673958043 42.322184341088224 28.575693871897307
88.54549417860983 5.447683328666704 50.29003378073219 32.80777706921094
99.41805681725889 5.284981137653579 57.566773088177754 36.56630259142754
107.26600452838558 4.86021537764457 63.06341297019476 39.3423761805463
110.09743899573999 3.7664728044478926 65.70193846018572 40.629027731106355
107.26600452837394 4.86021537764954 63.06341297018353 39.34237618054082
99.41805681722238 5.284981137645956 57.56677308815861 36.566302591417795
88.54549417856781 5.447683328666484 50.29003378070469 32.80777706919665
76.15776188689924 5.259883673962506 42.32218434105661 28.575693871880116
63.554325020586894 4.825589052251601 34.46613371192783 24.262602256407508
51.75869165470413 4.272062275777861 27.363822195343936 20.122807183582314
41.12094161014186 3.690282631954349 21.11290281580516 16.31775616238236
31.744046766716345 3.1489409819151732 15.68093009767701 12.914175687124168
23.864047993050203 2.6749977671325516 11.288290842790643 9.900759383127003
17.170000769007608 2.265877206571861 7.642661334881859 7.261462227553886
11.687114148334505 1.9061834230498589 4.789029620640619 4.991901104644018
7.342366286589421 1.5713435709014627 2.6525868605582144 3.118435855129742
4.154709366911964 1.2509472295306894 1.2239344370822018 1.6798277002990731
2.0736970169085565 0.9527961376755154 0.42159494195198965 0.6993059372810515
0.9109498641974372 0.6622500132590159 0.07629485185362307 0.17240499908479845
0.42096777052384915 0.4176123282141645 5.928813954187735e-05 0.0032961541701426035
0.21990016371254753 0.21997515883829014 -2.438515009265694e-06 -7.255661073332062e-05
0.11165896788532488 0.11165896788532488 0.0 0.0
0.8866045509442362 0.0908866325175031 0.29979421054082367 0.4959237078859097
7.76478829881626 3.744488889414691 1.7637228037012789 2.2565766057002943
5.74212284018878 2.8881544255700025 1.1875589956953134 1.6664094189234637
0.6488209545257062 0.10765778412686075 0.20930634413766924 0.3318568262611762
0.10164206902332963 0.10164206902332963 0.0 0.0
0.17568809963326665 0.1756818100662737 3.5059575947504334e-07 5.938971233487455e-06
0.3263241761976296 0.33169667906755873 -0.001721585924894867 -0.003650916945034122
0.6715770712382583 0.5703517610637714 0.026769716607834566 0.07445559356665195
1.5675264724986564 0.8390690440378168 0.2683450135973612 0.4601124148634793
3.2578856771757456 1.1264392182826084 0.8619704730585442 1.269475985834593
5.945816214453169 1.4174385265204585 2.019976743673728 2.508400944258984
9.623776833896038 1.7123508608830185 3.7750720393366777 4.136353933676343
14.271814849843729 2.0224926923008413 6.146532134312793 6.1027900232300905
19.88956229264911 2.368403550963828 9.145922003191988 8.375236738493303
26.56856579085686 2.7743324387271913 12.837973315973848 10.95626003615582
34.2760728611429 3.243458650800704 17.157258403183082 13.875355807159114
43.29143603131675 3.7524760286043253 22.398557988118412 17.140402014594
53.400981631228134 4.2729500559576525 28.410903791933073 20.717127783337418
64.14903024080468 4.729872910501325 34.923710691261185 24.495446639042157
74.96202623994895 5.001402502760439 41.715535248764766 28.245088488423757
84.67001258133016 4.965430279163676 48.06667937778614 31.637902924380352
91.92377500951159 4.631996927789908 53.053107115417674 34.23867096630398
94.58707766795249 3.3400025246846403 55.66514795499795 35.58192718826995
91.92377500949578 4.6319969277883875 53.053107115408295 34.23867096629908
84.67001258130956 4.965430279166392 48.06667937777088 31.63790292437232
74.96202623991576 5.001402502762235 41.71553524874204 28.24508848841148
64.14903024076295 4.729872910501711 34.92371069123417 24.495446639027058
53.40098163119142 4.272950055962875 28.410903791906623 20.71712778332191
43.29143603127631 3.75247602860432 22.398557988093366 17.140402014578633
34.276072861099095 3.243458650794983 17.157258403159968 13.875355807144139
26.568565790822483 2.7743324387301866 12.837973315951768 10.956260036140522
19.889562292613334 2.3684035509599783 9.145922003173675 8.375236738479678
14.27181484981421 2.0224926923006317 6.146532134296562 6.1027900232170165
9.62377683387366 1.7123508608821916 3.775072039325245 4.136353933666221
5.945816214435362 1.4174385265180012 2.01997674366616 2.5084009442511994
3.2578856771655995 1.126439218282171 0.8619704730541339 1.2694759858292943
1.567526472492894 0.8390690440366159 0.26834501359545165 0.46011241486082644
0.671577071236364 0.5703517610627985 0.026769716607522337 0.07445559356604316
0.3263241761970005 0.3316966790667854 -0.0017215859248677322 -0.0036509169449172128
0.17568809963314833 0.17568181006615888 3.5059575927603094e-07 5.938971230153005e-06
0.10164206902317473 0.10164206902317473 0.0 0.0
0.6488209545228809 0.10765778412687499 0.20930634413638222 0.33185682625962404
5.742122840173209 2.888154425563385 1.1875589956911947 1.666409418918629
4.164969037707935 2.2105646199579483 0.7759323798474164 1.1784720379025713
0.45892967326417117 0.1426365074867605 0.10679085566505704 0.20950231011235323
0.11420738652046944 0.11420738652046944 0.0 0.0
0.1541245833979155 0.15410916545873612 1.0256537066026557e-06 1.4392285472793056e-05
0.2640157392601671 0.2674838357417951 -0.0006418474841044181 -0.0028262489975235624
0.4904108290462572 0.467028472277278 0.0023565989043008496 0.021025757864678318
1.106627961912879 0.7065101493890734 0.12535798807380505 0.27475982445000047
2.4685827058396965 0.994067092196309 0.5911208330921777 0.8833947805512106
4.590605068717069 1.2560897939272655 1.4222647449801828 1.9122505298096222
7.644506057849496 1.5190973285205018 2.834535218863575 3.2908735104654143
11.463073433748452 1.7843303531312487 4.726324330860006 4.952418749757195
16.045116082871434 2.0761669592275034 7.108519352830097 6.8604297708138375
21.442020747212975 2.4176279912967336 10.011248141509371 9.013144614406869
27.79529994303654 2.8167584856445687 13.535175647361365 11.4433658100306
35.10437244580713 3.2697530667609884 17.659090503057815 14.175528875988324
43.34903305464708 3.739392604965917 22.42044388696057 17.18919656272059
52.49296327821135 4.198408747735893 27.897225048216583 20.397329482258876
61.73026246495151 4.56693177490935 33.49935194295902 23.663978747083124
70.26655262239267 4.672086546607842 38.87598478152377 26.718481294261046
77.05528464373242 4.430036697091862 43.44692940621522 29.17831854042536
79.64625940389278 2.9281881234479084 46.1158528477982 30.602218432646634
77.05528464372145 4.430036697091329 43.44692940620847 29.178318540421596
70.26655262237425 4.6720865466104335 38.87598478151022 26.718481294253614
61.73026246491984 4.566931774904966 33.49935194294149 23.663978747073376
52.49296327817691 4.198408747735009 27.897225048195406 20.397329482246516
43.34903305460773 3.7393926049622213 22.42044388693847 17.189196562707075
35.104372445772796 3.2697530667616506 17.659090503036506 14.17552887597463
27.79529994300526 2.8167584856430796 13.535175647343687 11.443365810018486
21.442020747177075 2.4176279912914937 10.011248141491574 9.013144614394008
16.045116082844572 2.0761669592275247 7.108519352814996 6.8604297708020505
11.463073433721776 1.7843303531277095 4.726324330847468 4.9524187497466015
7.644506057830347 1.5190973285205354 2.8345352188537376 3.2908735104560707
4.590605068703442 1.256089793924485 1.4222647449750405 1.9122505298039165
2.468582705830566 0.9940670921954629 0.5911208330884293 0.8833947805466732
1.106627961908648 0.7065101493878296 0.12535798807267468 0.27475982444814395
0.49041082904496314 0.4670284722763114 0.0023565989042054368 0.021025757864446364
0.2640157392597198 0.2674838357413027 -0.0006418474840934785 -0.002826248997489491
0.1541245833977757 0.15410916545860176 1.0256537061492444e-06 1.4392285467779322e-05
0.11420738652008076 0.11420738652008076 0.0 0.0
0.45892967326181344 0.14263650748661366 0.10679085566410833 0.2095023101110917
4.164969037696375 2.210564619953422 0.7759323798443372 1.1784720378986182
2.9103292671453405 1.666253816423127 0.4577429000251271 0.786332550697087
0.3463197048310486 0.18561583217245536 0.04926951670436555 0.11143435595422742
0.13679169867899166 0.13680745651094595 -8.23290305344124e-07 -1.4934541648948963e-05
0.1494392921063295 0.14942500609021242 9.176681420014073e-07 1.3368347975063384e-05
0.2245955732019713 0.22555028641599764 -0.00016927926862406127 -0.0007854339454023145
0.3687024775707384 0.3793906154246992 -0.004339585303936184 -0.006348552550024684
0.7639477804909323 0.588541240165249 0.04700952576134097 0.12839701456434216
1.6936759197831168 0.8287323936521338 0.3053342366982462 0.5596092894327366
3.411702523277356 1.0952989784896168 0.9765021065957286 1.3399014381920105
5.724670334377355 1.3196591892095535 1.9473896275007947 2.4576215176670058
8.770317905562216 1.5495126266301156 3.4067994233843466 3.8140058555477534
12.369867776310118 1.7943249961222327 5.217654799795354 5.357887980392529
16.56829748311836 2.078365969281898 7.403046016400246 7.086885497436223
21.48217390884782 2.4142264520079695 10.03568777822775 9.032259678612098
27.196558587596424 2.8016187766308094 13.1649840638006 11.229955747165006
33.84276807617687 3.232062788772803 16.93551023753591 13.675195049868153
40.96915302349733 3.6751700586065716 20.96978656430132 16.324196400589443
48.72358107370928 4.110841188663096 25.556476196502008 19.05626368854418
56.320075127881445 4.380580329730081 30.190353745510976 21.749141052640358
62.65346875872206 4.2599333133847255 34.28687189047725 24.106663554860095
65.28293779784725 2.5428622486928125 37.07843745712692 25.661638092027527
62.65346875871663 4.259933313387065 34.286871890472234 24.10666355485732
56.32007512786446 4.380580329729345 30.190353745500673 21.74914105263445
48.72358107368914 4.110841188663239 25.556476196489335 19.05626368853654
40.96915302346948 3.675170058604509 20.96978656428537 16.32419640057962
33.84276807615188 3.2320627887762123 16.935510237518663 13.675195049856995
27.19655858756532 2.8016187766263445 13.164984063784832 11.22995574715414
21.482173908823313 2.414226452007472 10.035687778213841 9.032259678602006
16.56829748309666 2.0783659692826086 7.403046016387578 7.086885497426475
12.369867776287158 1.7943249961211158 5.217654799783384 5.357887980382666
8.77031790554317 1.5495126266285653 3.406799423375203 3.814005855539402
5.7246703343611545 1.3196591892076075 1.9473896274936822 2.4576215176598657
3.411702523267071 1.0952989784885316 0.9765021065913387 1.339901438187201
1.6936759197767512 0.8287323936505715 0.30533423669622534 0.5596092894299549
0.763947780487784 0.5885412401638993 0.047009525760697134 0.1283970145631874
0.368702477569875 0.3793906154236764 -0.004339585303885479 -0.006348552549915567
0.2245955732016231 0.22555028641563798 -0.00016927926862434227 -0.000785433945390535
0.14943929210593243 0.14942500608982076 9.176681415783688e-07 1.336834797013782e-05
0.1367916986785736 0.13680745651050907 -8.232903041218908e-07 -1.4934541631370911e-05
0.34631970482929963 0.1856158321722599 0.04926951670373851 0.1114343559533009
2.9103292671368273 1.6662538164196257 0.45774290002308526 0.7863325506941172
2.012003897088683 1.2775246493658239 0.274982731291986 0.4594965164308733
0.25793023991617287 0.20650976142190258 0.007103834039195653 0.04431664445507467
0.16095168143013389 0.1609432583355816 5.424922846087172e-07 7.880602267691425e-06
0.15605489230981592 0.15603760712941375 1.3682713799755646e-06 1.591690902223427e-05
0.20157076490058362 0.2025191203557033 -0.0001395432112375532 -0.0008088122438821254
0.2955608876692659 0.3064576646448046 -0.0029970061950912665 -0.007899770780447504
0.511958721819567 0.4702939400627218 0.005304445965495444 0.03636033579134951
1.0868652893264599 0.6657815442347667 0.12796653747429151 0.2931172076174022
2.22789823480783 0.8937744105199147 0.503393067220032 0.8307307570678836
4.011962467945031 1.1148721297404398 1.2453017107722086 1.6517886274323814
6.207936009174583 1.3087197694153863 2.2090554901739328 2.6901607495852637
8.85531562140872 1.5133594067954697 3.4684807204893144 3.873475494123933
11.936710229346458 1.7484787902992402 5.005185451991614 5.183045987055606
15.509994491569008 2.0237435688967054 6.835944763104106 6.650306159568202
19.733137528394433 2.353995909133603 9.066060249696436 8.3130813695644
24.600015190793187 2.73514438436293 11.673135720878015 10.191735085552253
30.172122237989058 3.1504341663036333 14.770618186147006 12.251069885538415
36.18165753940453 3.6209863318493767 18.102286105775217 14.458385101779948
42.492457713403624 4.05261363117993 21.68878125435552 16.751062827868168
48.51345016101082 4.115225474219169 25.415125052868056 18.983099633923594
51.321441419808764 2.1921508123006923 28.406266903419883 20.723023704088206
48.51345016100569 4.115225474218268 25.4151250528653 18.983099633922116
42.49245771339011 4.05261363117643 21.68878125434933 16.75106282786436
36.181657539389356 3.62098633184942 18.10228610576594 14.458385101774011
30.172122237969514 3.150434166303456 14.770618186135394 12.251069885530667
24.600015190762697 2.735144384353026 11.673135720865872 10.191735085543797
19.733137528380187 2.353995909140127 9.066060249684494 8.31308136955557
15.509994491549564 2.023743568893763 6.835944763094826 6.650306159560973
11.936710229327918 1.7484787902975476 5.005185451982409 5.183045987047958
8.855315621391506 1.5133594067936107 3.4684807204812658 3.873475494116627
6.207936009159593 1.3087197694139614 2.209055490167126 2.690160749578505
4.011962467934611 1.1148721297398714 1.2453017107674376 1.651788627427301
2.22789823480053 0.8937744105193457 0.5033930672170668 0.8307307570641179
1.0868652893224642 0.6657815442331589 0.12796653747338538 0.2931172076159188
0.5119587218181215 0.47029394006226993 0.005304445965225651 0.03636033579062601
0.2955608876686401 0.3064576646436877 -0.0029970061950193166 -0.007899770780028577
0.2015707649002755 0.20251912035540762 -0.00013954321123654613 -0.0008088122438955849
0.15605489230930888 0.15603760712889017 1.3682713805505234e-06 1.5916909038122942e-05
0.16095168142980604 0.1609432583352562 5.424922844002693e-07 7.880602265376128e-06
0.2579302399149874 0.20650976142162014 0.0071038340388843175 0.0443166444544827
2.0120038970824985 1.2775246493631445 0.2749827312905014 0.4594965164288527
1.2982373687478366 0.9473425548798821 0.11112621577660022 0.23976859809135453
0.20915443067241318 0.21313874536206048 -0.0052898237683581895 0.0013055090787109241
0.18199975616805375 0.1820896031358296 -7.508557928086471e-06 -8.233840984779139e-05
0.16913819571246486 0.16916495323490327 -1.84880345490876e-06 -2.4908718983539097e-05
0.19153026332903272 0.19245575199835713 -0.0001408483648158069 -0.00078464030450858
0.2526707891920514 0.25725813536208286 -0.0015145341966206582 -0.003072811973410825
0.3647718226632621 0.37062564577580137 -0.004331918397906145 -0.0015219047146332217
0.6451406721127175 0.5155563701515441 0.03186353864863688 0.09772076331253683
1.2773127150252885 0.6825054441846602 0.19510798712674804 0.39969928371387997
2.362970118739166 0.8645753226416267 0.5816065463465682 0.916788249750972
3.800747151698884 1.034119144955314 1.1535009840067554 1.6131270227368162
5.559331651727199 1.2085281342846521 1.928555028292506 2.4222484891500398
7.586961455721165 1.4025165635367736 2.8647672570481553 3.319677635136238
9.9267513175354 1.6237139011512254 3.982132173951654 4.320905242432519
12.699155674084148 1.8930490449687627 5.3475928937209884 5.458513735394395
16.007676782418727 2.225770967689366 7.016541219118201 6.765364595611158
19.86978721154795 2.6163915782261924 9.002892008607521 8.250503624714232
24.184947969815475 3.0448948522175563 11.250487291754254 9.889565825843668
29.204253593792032 3.5993800646089675 13.886058960708134 11.718814568474922
34.86502498263314 3.9864071715992133 17.092272568523118 13.786345242510798
37.94409215798752 1.91593015408205 20.184820636789116 15.843341367116357
34.86502498263604 3.9864071716031955 17.09227256852248 13.786345242510361
29.204253593789193 3.5993800646115286 13.886058960704924 11.718814568472743
24.184947969805826 3.0448948522191035 11.250487291747621 9.889565825839105
19.869787211533158 2.6163915782259775 9.00289200859913 8.250503624708054
16.007676782410496 2.2257709676932262 7.01654121911139 6.765364595605886
12.699155674063995 1.8930490449620252 5.34759289371357 5.458513735388397
9.92675131752339 1.6237139011481205 3.982132173946871 4.320905242428401
7.586961455710681 1.402516563536169 2.864767257043106 3.319677635131404
5.559331651716027 1.2085281342829381 1.9285550282877322 2.42224848914536
3.800747151689719 1.0341191449543456 1.1535009840029151 1.6131270227324588
2.3629701187319605 0.8645753226408754 0.5816065463436466 0.9167882497474389
1.2773127150210617 0.682505444183975 0.19510798712533792 0.39969928371174873
0.6451406721111479 0.5155563701509656 0.031863538648328964 0.0977207633118535
0.36477182266227015 0.37062564577473617 -0.0043319183979218315 -0.0015219047145442347
0.25267078919160657 0.25725813536138104 -0.0015145341965821968 -0.003072811973192122
0.19153026332866213 0.19245575199801498 -0.00014084836481881435 -0.0007846403045340477
0.16913819571201058 0.169164953234451 -1.8488034546542421e-06 -2.4908718985761003e-05
0.181999756167754 0.18208960313550412 -7.508557926161311e-06 -8.233840982397625e-05
0.20915443067164552 0.21313874536162705 -0.005289823768459698 0.0013055090784780522
1.2982373687435664 0.9473425548777619 0.11112621577576444 0.23976859809004006
0.8313857100856075 0.7180011771410374 0.031202403824742764 0.08218212911982768
0.18440745169948733 0.19953637405259964 -0.004504576068254296 -0.010624346284858054
0.19749876570866406 0.19751144662993944 -6.695763111968447e-07 -1.2011344964188092e-05
0.18475512653489012 0.1847553862298451 9.438801901733361e-07 -1.2035751451715146e-06
0.19272750573579012 0.19343082930454603 -0.00011744101820550639 -0.0005858825505504059
0.23036694642573355 0.23568079655279825 -0.0013818028682805361 -0.003932047258784095
0.2958398925662723 0.29596433721934406 -0.0012714370711573919 0.00114699241808553
0.3927730680850088 0.36201751132292287 0.005580943250223124 0.025174613511862804
0.6011966710237334 0.45110759503522563 0.039127481461522264 0.11096159452698527
1.0334167338206521 0.5710783301980277 0.14991319080391965 0.3124252128187047
1.7425321567074854 0.6945458656539354 0.39592656664170245 0.6520597244118471
2.6136751312776516 0.8065870308288318 0.7149555484984599 1.0921325519503609
3.673105641176796 0.9413784902062787 1.142874444561043 1.5888527064094755
4.9261389594754945 1.1048877748512616 1.6734746722356555 2.1477765123885777
6.420793575569641 1.3058599974551641 2.3224008908971965 2.7925326872172813
8.27423222437431 1.5745834857811154 3.139422229834758 3.560226508758434
10.613616233579462 1.9276728822820204 4.195865241226818 4.490078110070623
13.466962941821766 2.3268328887648435 5.5501030606145 5.590026992442426
16.843006893221848 2.777881924007314 7.186678206447419 6.87844676276712
21.64248551271195 3.6240789246279586 9.4321272542993 8.586279333784692
25.813841672646276 1.7999029579079782 12.94788703799631 11.066051676741987
21.642485512710028 3.62407892462364 9.432127254300687 8.586279333785692
16.843006893216103 2.7778819240038106 7.18667820644611 6.87844676276618
13.46696294181402 2.32683288876554 5.550103060609818 5.590026992438664
10.613616233569298 1.9276728822808973 4.1958652412218855 4.490078110066515
8.274232224361437 1.574583485776054 3.1394222298306715 3.560226508754713
6.420793575564469 1.3058599974538136 2.3224008908953158 2.7925326872153398
4.9261389594719684 1.1048877748513506 1.673474672233814 2.1477765123868022
3.673105641170387 0.9413784902049046 1.1428744445586363 1.5888527064068458
2.6136751312730313 0.8065870308292712 0.7149555484961518 1.0921325519476075
1.7425321567034222 0.6945458656543715 0.3959265666397944 0.6520597244092565
1.0334167338178852 0.5710783301974851 0.1499131908030398 0.31242521281736024
0.6011966710224395 0.45110759503489034 0.03912748146122426 0.11096159452632459
0.39277306808445395 0.3620175113227222 0.005580943250104814 0.025174613511627142
0.29583989256561316 0.29596433721870846 -0.001271437071177417 0.0011469924180819166
0.2303669464253149 0.23568079655220706 -0.0013818028682442353 -0.003932047258647833
0.1927275057353361 0.19343082930402922 -0.0001174410181983662 -0.0005858825504947672
0.1847551265344914 0.18475538622944884 9.438801888312475e-07 -1.2035751462835935e-06
0.19749876570833969 0.19751144662960546 -6.695763105209002e-07 -1.2011344955200635e-05
0.1844074516990233 0.19953637405189423 -0.004504576068193839 -0.010624346284677006
0.8313857100830357 0.7180011771396343 0.031202403824359716 0.08218212911904156
0.5307575327418954 0.5180928317854282 0.0018493622422002228 0.010815338714266808
0.17561191619984062 0.1777807458951492 -0.0003169117147474743 -0.0018519179805611247
0.20712053209088047 0.20725056606048653 -1.0107131200639129e-05 -0.00011992683840544834
0.20021164770395905 0.20044739184486948 -2.5441351062798778e-05 -0.00021030278984770015
0.2025133514163041 0.20317962922121682 -0.0001362062457113266 -0.0005300715592013828
0.2279870657832411 0.23172168703476576 -0.0011176728551445083 -0.0026169483963801635
0.2760245043360045 0.27375021929037324 -0.00046052551091441216 0.0027348105565457026
0.32620298888704274 0.2860574870897694 0.008623907305527647 0.03152159449174557
0.36504217957091245 0.2619252144685751 0.030741708035335102 0.07237525706700254
0.42741246552371476 0.2221161663223613 0.06530397147776291 0.1399923277235905
0.5846008493970201 0.22649126950455645 0.13492924694946978 0.22318033294299394
0.8343283930925676 0.26437283251253635 0.2199579324037892 0.34999762817624175
1.1886848698352104 0.29671982353529536 0.3563233014483895 0.5356417448515255
1.6473648718548557 0.300271956132043 0.5536934117182317 0.7933995040045806
2.230892679886932 0.30944423370855545 0.8168257920484344 1.1046226541299426
2.941077030011853 0.3445678077909327 1.1332900838752178 1.4632191383457018
3.8308176718650935 0.42455741381829626 1.5372376243731356 1.8690226336736606
4.914545065131719 0.5525973026026656 2.0374246386548753 2.324523123874178
6.551806345775791 0.8308921485383389 2.754300484630818 2.9666137126066334
10.494148892552495 2.060191183951079 4.060219262785037 4.373738445816382
17.47936226260331 1.7809144050353831 8.029004105692918 7.669443751875012
10.494148892560432 2.0601911839557085 4.06021926278693 4.373738445817795
6.551806345772076 0.830892148535187 2.75430048463045 2.966613712606437
4.914545065122071 0.5525973025990947 2.037424638651672 2.3245231238713058
3.8308176718551077 0.4245574138144781 1.5372376243701011 1.8690226336705251
2.941077030008027 0.34456780779059376 1.1332900838736673 1.4632191383437654
2.2308926798882784 0.3094442337113549 0.81682579204758 1.104622654129343
1.6473648718501366 0.3002719561306374 0.5536934117167387 0.7933995040027608
1.1886848698308223 0.296719823534351 0.3563233014469589 0.5356417448495122
0.834328393090169 0.26437283251152244 0.21995793240298644 0.3499976281756608
0.5846008493938056 0.2264912695030583 0.13492924694868358 0.22318033294206321
0.4274124655235036 0.2221161663221932 0.06530397147776448 0.13999232772354614
0.3650421795708515 0.26192521446888234 0.030741708035202563 0.07237525706676659
0.3262029888867327 0.2860574870898525 0.008623907305395025 0.031521594491485116
0.27602450433514547 0.2737502192896588 -0.00046052551096421846 0.002734810556450905
0.227987065782737 0.23172168703408147 -0.0011176728551105704 -0.002616948396234003
0.20251335141598334 0.2031796292207071 -0.0001362062456905275 -0.0005300715590332292
0.2002116477037594 0.200447391844749 -2.544135107104563e-05 -0.0002103027899185688
0.2071205320906717 0.20725056606028505 -1.0107131200039788e-05 -0.00011992683841333832
0.17561191619957117 0.17778074589486967 -0.00031691171474286766 -0.0018519179805556603
0.5307575327406092 0.5180928317839895 0.0018493622421833229 0.010815338714436393
0.3491875342452026 0.34964100945874727 -6.168907945623522e-05 -0.00039178613408844107
0.16679538700561655 0.16675469266283283 6.431982855520089e-06 3.426235992819028e-05
0.21087298423869377 0.2108365133491826 1.7115724134368846e-06 3.4759317097712234e-05
0.21348507626344013 0.21369405221051452 -3.2203337438527285e-05 -0.00017677260963593565
0.21800871593664262 0.21810551522393878 -7.62825123132509e-05 -2.0516774982846138e-05
0.24555002962234357 0.2476893958958993 -0.0009786684352803838 -0.0011606978382755313
0.30432309013600894 0.3039191167218305 -0.0006366428038531548 0.001040616218031599
0.3962210592460653 0.36354989573781543 0.006324161895728516 0.026347001612521487
0.6019740895106397 0.45086407138916956 0.039486788725705046 0.11162322939576522
1.032331924357814 0.5706082905497376 0.14962610591153902 0.31209752789653694
1.7430612023284924 0.6962966115464485 0.3957712227116209 0.6509933680704235
2.6233860942013907 0.8081765814977047 0.7199533512682388 1.0952561614354475
3.697741729818387 0.9454842137518946 1.1526379903253394 1.5996195257411525
4.962142095691293 1.1086252743579534 1.6900703431726496 2.1634464781606897
6.391327810841249 1.2927827405330188 2.315250784033467 2.78329428627476
7.930718345607905 1.50250132960951 3.003461413328443 3.4247556026699515
9.383451868509301 1.7240858992320218 3.655699712882077 4.003666256395201
10.56429095403356 1.9740211088641235 4.19481966331754 4.395450181851892
10.981130738733938 2.1384359886259516 4.36622847895819 4.476466271149797
8.771566007790724 1.2452178636312223 3.805591871731358 3.72075627242814
17.69800042097688 3.0468832174728813 7.342801158447746 7.308316045056255
8.771566007785415 1.245217863623449 3.805591871732741 3.7207562724292167
10.981130738735102 2.138435988628604 4.366228478957414 4.476466271149086
10.564290954022454 1.9740211088612425 4.19481966331303 4.395450181848179
9.383451868504732 1.7240858992366623 3.655699712877206 4.003666256390867
7.930718345599157 1.5025013296101117 3.0034614133236004 3.424755602665445
6.391327810832115 1.2927827405297592 2.3152507840305603 2.783294286271797
4.96214209568454 1.108625274359195 1.690070343168654 2.1634464781566902
3.6977417298124844 0.9454842137533955 1.152637990321847 1.5996195257372448
2.6233860941912646 0.8081765814953624 0.7199533512647173 1.0952561614311846
1.7430612023230823 0.6962966115466243 0.3957712227092123 0.650993368067246
1.0323319243537976 0.5706082905483402 0.14962610591050257 0.31209752789495465
0.6019740895089012 0.45086407138839074 0.03948678872536934 0.11162322939514097
0.39622105924508066 0.36354989573729435 0.006324161895579734 0.02634700161220674
0.3043230901353267 0.30391911672115796 -0.0006366428038617449 0.0010406162180303996
0.245550029621848 0.24768939589521527 -0.000978668435254925 -0.0011606978381124128
0.21800871593630983 0.21810551522340318 -7.62825122895538e-05 -2.0516774803722352e-05
0.21348507626314397 0.2136940522099847 -3.2203337413435716e-05 -0.00017677260942731214
0.2108729842384336 0.21083651334879 1.7115724210673369e-06 3.4759317222528245e-05
0.16679538700528157 0.1667546926624768 6.431982854499089e-06 3.4262359950265515e-05
0.34918753424448534 0.3496410094580617 -6.168907946139502e-05 -0.000391786134114992
0.22608002821002549 0.22608002821002549 0.0 0.0
0.15319636655049562 0.15321962961544594 -1.4484362279805493e-06 -2.181462872240582e-05
0.20799226909567237 0.20814593793902772 -1.5169627006687078e-05 -0.0001384992163487105
0.22311968015510958 0.22247695388237235 7.844465809921574e-05 0.0005642816146381499
0.2374512135175036 0.2398405483972068 -0.00044206692885747837 -0.001947267950845683
0.2814559756383355 0.2876870424697743 -0.001508593076360129 -0.004722473755078687
0.3780012249569667 0.3726748884583085 -0.0021895689992587277 0.007515905497916784
0.6509340925538343 0.5162197612642897 0.03378509066206209 0.10092924062748254
1.2771072338013565 0.6823347277155942 0.19506468039535646 0.3997078256904057
2.3609482889725486 0.8643774803245629 0.580674078913886 0.9158967297340976
3.801242169794111 1.0343164734527879 1.153548206261318 1.6133774900800029
5.567782304887595 1.209689731024077 1.9321775057331354 2.4259150681303825
7.609079988011923 1.404811357394906 2.875138745666703 3.3291298849503175
9.954711427221 1.623340686003719 3.997639339915967 4.333731401301309
12.658304959728447 1.8724008965712826 5.337569856762848 5.448334206394313
15.649874364040235 2.1450216202797128 6.862576030580433 6.642276713180089
18.682966773018034 2.4371816052146964 8.425299381248228 7.820485786555107
21.33036098659844 2.7685407443988375 9.7387036546882 8.823116587511404
22.6702008428459 2.8861908162102936 10.464127787557702 9.319882239077902
20.95908973314378 2.838082885728116 9.589973945044052 8.531032902371612
25.583393762543317 6.40639460326642 10.071465456008045 9.105533703268836
20.959089733153135 2.838082885733175 9.589973945046646 8.531032902373314
22.67020084284552 2.8861908162117427 10.464127787556626 9.319882239077154
21.330360986594144 2.768540744405083 9.738703654682041 8.82311658750702
18.682966772993506 2.4371816052069066 8.42529938123859 7.820485786548009
15.64987436402339 2.1450216202794676 6.8625760305710966 6.642276713172825
12.658304959710161 1.87240089656624 5.337569856755564 5.44833420638836
9.954711427206858 1.6233406860028565 3.997639339908902 4.333731401295102
7.609079987991486 1.4048113573894525 2.8751387456588846 3.32912988494315
5.56778230487324 1.2096897310235044 1.9321775057262323 2.4259150681235035
3.8012421697800054 1.0343164734497245 1.1535482062560913 1.6133774900741895
2.360948288963981 0.8643774803234288 0.5806740789105209 0.915896729730032
1.2771072337966176 0.6823347277148453 0.19506468039376296 0.39970782568800883
0.6509340925517176 0.5162197612634609 0.03378509066164455 0.1009292406266121
0.3780012249558981 0.3726748884571787 -0.002189568999270241 0.0075159054979896745
0.281455975637653 0.28768704246895943 -0.00150859307632258 -0.004722473754983801
0.23745121351701948 0.2398405483967238 -0.00044206692885916067 -0.0019472679508451528
0.22311968015466796 0.22247695388186783 7.844465810102617e-05 0.0005642816146990838
0.2079922690953925 0.20814593793874858 -1.5169627006586298e-05 -0.00013849921634951726
0.15319636655038893 0.15321962961534483 -1.4484362274665364e-06 -2.181462872846202e-05
0.22608002820943235 0.22608002820943235 0.0 0.0
0.13948116485495085 0.13948116485495085 0.0 0.0
0.13430333565653185 0.13429396346611683 6.316936465528355e-07 8.74049676847986e-06
0.19840655227842355 0.19844147918369306 -2.3124237506735225e-06 -3.2614481518906856e-05
0.2289093370048715 0.2295526869514565 -8.88865400672275e-05 -0.0005544634065177819
0.2606310729177678 0.2621430181519342 -0.00034990575873556306 -0.0011620394754308454
0.329571321109348 0.3303679922619627 -0.0017558255215174181 0.0009591543689028269
0.5332074784135935 0.48035116281178847 0.010177008812783975 0.04267930678902092
1.0921771627342156 0.6667298582137046 0.13017984779020123 0.2952674567303102
2.225867491925949 0.8937200357994441 0.5024835215865212 0.8296639345399831
4.010556024429162 1.1149999085411926 1.2448222655567174 1.6507338503312534
6.208786694085077 1.3087972472255691 2.208208824348108 2.691780622511403
8.862181555720172 1.5137540704358579 3.471955271348489 3.8764722139358287
11.948315709945707 1.7491916155628924 5.011190930928947 5.1879331634538675
15.515235488787571 2.0211184905477446 6.840506979454158 6.653610018785673
19.67213964410486 2.3311072383797153 9.044412932008209 8.296619473716936
24.297062947104443 2.6624136583357196 11.538467192998315 10.096182095770413
29.239929199306435 3.005254136255579 14.300523399691194 11.934151663359666
33.5551727810314 3.246431662209035 16.735946072449888 13.57279504637248
35.80745800979905 3.2610443985740503 18.09854047915101 14.447873132074
33.1996573124991 2.863363411079196 16.768225149201538 13.56806875221837
37.30455298732615 9.17332995242437 15.41231602013793 12.718907014763849
33.199657312496356 2.8633634110748076 16.76822514920253 13.568068752219022
35.80745800979276 3.261044398571522 18.09854047914868 14.447873132072571
33.555172781010405 3.246431662202007 16.73594607244141 13.572795046366988
29.23992919928225 3.005254136256714 14.300523399675996 11.934151663349544
24.297062947086655 2.6624136583383713 11.53846719298633 10.096182095761955
19.67213964407943 2.3311072383768696 9.044412931995172 8.296619473707386
15.515235488765661 2.021118490546245 6.840506979442657 6.653610018776751
11.948315709928702 1.7491916155670837 5.011190930917361 5.187933163444255
8.862181555698607 1.5137540704339243 3.47195527133809 3.876472213926592
6.208786694067473 1.3087972472256038 2.2082088243391733 2.691780622502695
4.010556024416324 1.114999908539581 1.2448222655512902 1.6507338503254534
2.225867491917746 0.893720035798308 0.5024835215833843 0.8296639345360538
1.0921771627297996 0.6667298582123554 0.130179847789038 0.295267456728406
0.5332074784114416 0.4803511628107304 0.010177008812459573 0.04267930678825136
0.32957132110834386 0.3303679922606487 -0.0017558255214796636 0.0009591543691749493
0.26063107291726734 0.2621430181512148 -0.00034990575870386326 -0.001162039475243645
0.22890933700459054 0.22955268695101122 -8.88865400483373e-05 -0.0005544634063723422
0.19840655227823437 0.1984414791835493 -2.3124237563577485e-06 -3.261448155857166e-05
0.13430333565643668 0.1342939634660222 6.316936464977709e-07 8.740496767980233e-06
0.13948116485455778 0.13948116485455778 0.0 0.0
0.08154069363879973 0.08154069363879973 0.0 0.0
0.11159217011201983 0.11159217011201983 0.0 0.0
0.18312377753084838 0.18311333670539945 6.169848764971448e-07 9.823840572470336e-06
0.23124053421588614 0.23115120339165218 1.022040352309088e-05 7.911042071084483e-05
0.28544088959010694 0.2895210516567146 -0.0008267296111832413 -0.003253432455424425
0.40587081680283915 0.4057462234484063 -0.0014425577282141894 0.0015671510826468314
0.7795354462919732 0.5855961793204805 0.052608544317539085 0.14133072265395336
1.695587943153854 0.8291448963979253 0.30637413238341143 0.5600689143725177
3.4088614888517323 1.0956595270128064 0.9749567871514144 1.338245174687512
5.724140937202652 1.3199569939528906 1.9467903309172279 2.4573936123325346
8.773464160193209 1.549431602766635 3.4087473780530724 3.8152851793734994
12.372464516063427 1.793271111193273 5.21968708990415 5.359506314966001
16.560887570493353 2.0754980547307045 7.400579920757649 7.084809595005006
21.45009751187348 2.408308971122822 10.020681254985686 9.021107285764966
27.120963821217412 2.787495007977969 13.128529900517714 11.204938912721726
33.66508121120625 3.1963205291922567 16.84914393057663 13.619616751437368
40.34207632151053 3.5367889408903492 20.668514468074726 16.13677291254548
46.40572232534911 3.659872003720012 24.390491553245514 18.35535876838357
49.43325663695187 3.397823112159872 26.478748969731235 19.556684555060762
46.01571008694692 2.94130828936602 24.620622983698812 18.453778813882067
50.251759840004496 11.831296457627916 21.683486524653972 16.7369768577226
46.01571008695184 2.9413082893716656 24.620622983698397 18.45377881388178
49.43325663694051 3.3978231121574343 26.47874896972561 19.556684555057476
46.405722325327886 3.659872003719078 24.390491553232778 18.35535876837602
40.34207632148261 3.5367889408930377 20.66851446805592 16.13677291253363
33.665081211160675 3.196320529177696 16.849143930557766 13.619616751425204
27.120963821193666 2.7874950079815495 13.128529900501553 11.204938912710555
21.45009751184401 2.4083089711209036 10.020681254969691 9.02110728575342
16.56088757046239 2.0754980547259874 7.400579920742783 7.0848095949936205
12.372464516036189 1.7932711111924495 5.219687089889723 5.359506314954015
8.773464160170452 1.5494316027660142 3.4087473780415003 3.815285179362932
5.724140937183523 1.3199569939500264 1.9467903309091423 2.4573936123243554
3.408861488839626 1.0956595270110745 0.9749567871464541 1.3382451746820971
1.695587943147048 0.8291448963967353 0.3063741323810425 0.5600689143692706
0.7795354462888232 0.5855961793191123 0.05260854431689608 0.1413307226528144
0.40587081680184917 0.40574622344744865 -0.0014425577282194976 0.0015671510826200355
0.2854408895895265 0.28952105165602515 -0.0008267296111598102 -0.0032534324553388804
0.23124053421542468 0.23115120339118198 1.0220403521133986e-05 7.911042072147859e-05
0.18312377753060147 0.18311333670515745 6.169848761276928e-07 9.823840567913113e-06
0.11159217011196347 0.11159217011196347 0.0 0.0
0.08154069363852764 0.08154069363852764 0.0 0.0
0.044870083500733675 0.044870083500733675 0.0 0.0
0.08780389977470124 0.08780389977470124 0.0 0.0
0.16381810706082847 0.1638074484665341 6.366593226293898e-07 1.002193497175889e-05
0.2308759744654504 0.2309884076117042 -1.3424125836383003e-05 -9.900902041742367e-05
0.3137060925261311 0.31633025957597394 -0.0009903916140116468 -0.0016337754358314173
0.521791957045303 0.48568505455506844 0.007349705765273965 0.0287571967249606
1.1193810934648212 0.7074040879078853 0.13088189475759426 0.2810951107993418
2.4676691690682584 0.9948007166875863 0.5905355316345957 0.8823329207460763
4.588688869801836 1.2567655667337259 1.421146672291835 1.9107766307762761
7.645708663465468 1.5194027159521704 2.834935902043078 3.2913700454702184
11.466369372177315 1.783930896174815 4.728322011520056 4.954116464482449
16.041051548862267 2.0729942330483095 7.108030103959335 6.860027211854623
21.409183337979492 2.4089739229302816 9.997285291794888 9.002924123254317
27.717275051962062 2.8062992673612044 13.495065492372571 11.415910292228277
35.01702597920868 3.2735053136819996 17.603687373932956 14.139833291593742
43.297154520988364 3.747193512246817 22.38305483713392 17.16690617160763
52.15902879176465 4.076437628897427 27.763085992873428 20.319505169993782
59.686659697134075 4.010334520595155 32.55129584518433 23.125029331354597
63.137099552869394 3.439995910190387 35.08212588734175 24.614977755337225
59.22467566382672 3.093336705107266 32.85491525451115 23.276423704208305
64.36519781429926 14.538462928231883 28.862460245224526 20.96427464084285
59.22467566381779 3.0933367051007776 32.85491525450962 23.276423704207424
63.13709955285252 3.439995910188354 35.082125887332296 24.61497775533185
59.68665969710085 4.010334520589326 32.55129584516687 23.12502933134467
52.15902879173358 4.076437628900292 27.76308599285197 20.319505169981312
43.29715452095907 3.7471935122572417 22.383054837109334 17.16690617159248
35.017025979164885 3.27350531367193 17.603687373912468 14.139833291580475
27.717275051925746 2.8062992673592904 13.495065492352136 11.415910292214326
21.409183337944153 2.408973922929383 9.997285291774935 9.002924123239838
16.041051548829632 2.072994233048097 7.108030103941101 6.860027211840432
11.466369372148547 1.783930896173462 4.728322011505199 4.954116464469886
7.645708663444284 1.5194027159525678 2.834935902031927 3.2913700454597894
4.588688869786536 1.2567655667320017 1.42114667228543 1.9107766307691052
2.467669169058653 0.994800716685726 0.5905355316310742 0.8823329207418525
1.119381093459805 0.7074040879057717 0.13088189475648357 0.28109511079755006
0.5217919570437624 0.4856850545540799 0.0073497057651012426 0.028757196724581168
0.31370609252560544 0.3163302595750825 -0.0009903916139618074 -0.0016337754355151264
0.23087597446511485 0.2309884076113873 -1.3424125841088098e-05 -9.90090204313577e-05
0.163818107060721 0.1638074484664331 6.366593221431451e-07 1.0021934965748754e-05
0.08780389977466746 0.08780389977466746 0.0 0.0
0.04487008350056407 0.04487008350056407 0.0 0.0
0.02316993941752339 0.02316993941752339 0.0 0.0
0.0654442655528539 0.0654442655528539 0.0 0.0
0.14283448151104614 0.1428285073680025 3.662909033654852e-07 5.6078521402870744e-06
0.22980824190068744 0.22986172284573317 -1.1739697600662126e-05 -4.174124744504666e-05
0.3546897289191409 0.36098115316209234 -0.0017828067792776052 -0.004508617463673749
0.680632659873055 0.5555204766177236 0.03063988532020232 0.0944722979351289
1.573031537156806 0.839517357635447 0.2715558219922729 0.4619583575290859
3.2563937416458435 1.1273876084183132 0.8606770080936196 1.2683291251339106
5.945813093973408 1.41814292200179 2.0198524141567282 2.5078177578148906
9.62668938395587 1.7126130641404849 3.776506861604656 4.1375694582107325
14.274179080190072 2.021470500402103 6.148424188099809 6.104284391688152
19.87673421483382 2.3627093236270493 9.141835961177724 8.372188930029054
26.51001001362587 2.7596573957196195 12.812001435411329 10.938351182494927
34.15411990115161 3.227441184969097 17.093044564353047 13.833634151829475
43.17315804379993 3.766688191948215 22.316449410081734 17.090020441769987
53.40505940987083 4.3208327255964445 28.382822351954268 20.701404332320138
63.998401217456774 4.628992922805645 34.891198916999876 24.47820937765124
73.06290002265432 4.3234059713004775 40.923713062576276 27.815780988777583
77.26515065028558 3.4695183557441416 44.20905457966704 29.586577714874416
72.99172079197821 3.265699243349675 41.57077907893249 28.155242469696024
79.31821440001006 17.272516924608215 36.59683847841397 25.448858996987877
72.9917207919687 3.265699243346614 41.57077907892829 28.15524246969377
77.26515065026085 3.4695183557411666 44.20905457965284 29.58657771486681
73.06290002262058 4.323405971301627 40.923713062553574 27.815780988765354
63.998401217409665 4.6289929227989415 34.89119891697404 24.47820937763669
53.4050594098216 4.320832725590072 28.382822351927206 20.701404332304325
43.17315804374867 3.766688191943564 22.31644941005285 17.09002044175225
34.1541199011059 3.227441184965399 17.09304456432757 13.83363415181294
26.510010013581653 2.759657395716065 12.812001435387305 10.938351182478277
19.876734214793803 2.3627093236253978 9.141835961155682 8.372188930012719
14.274179080156854 2.0214705004008118 6.148424188082127 6.104284391673907
9.626689383930206 1.7126130641395851 3.7765068615915336 4.137569458199088
5.945813093954679 1.4181429220005914 2.0198524141481227 2.5078177578059657
3.2563937416337105 1.1273876084164587 0.8606770080888841 1.2683291251283684
1.5730315371502783 0.839517357633353 0.2715558219904003 0.46195835752652475
0.6806326598705221 0.5555204766164732 0.030639885319753542 0.0944722979342956
0.3546897289185945 0.36098115316131296 -0.0017828067792280545 -0.004508617463490341
0.22980824190036286 0.22986172284541506 -1.1739697602711856e-05 -4.174124744940014e-05
0.14283448151083994 0.14282850736779648 3.662909033509835e-07 5.607852140109466e-06
0.06544426555270433 0.06544426555270433 0.0 0.0
0.023169939417414888 0.023169939417414888 0.0 0.0
0.011367766826186492 0.011367766826186492 0.0 0.0
0.04642574703574236 0.04642574703574236 0.0 0.0
0.122713929332259 0.122713929332259 0.0 0.0
0.23132115975047174 0.2316234733285087 -4.3064274090301e-05 -0.00025924930394665606
0.41478394988792816 0.41150126531317943 1.1312513720239392e-05 0.0032713720610284746
0.9070715591025471 0.658354196452241 0.07695020121113436 0.17176716143917223
2.072785698263025 0.9522965017027568 0.42145278017056825 0.6990364163896999
4.155638065885552 1.2516167309196473 1.224309977032731 1.6797113579331728
7.345158533458826 1.5719890542548038 2.6538022434501434 3.119367235753876
11.691101826484417 1.9062335898248324 4.791228438446009 4.9936397982135725
17.169688833288777 2.2638737135353466 7.643650496679862 7.2621646230735735
23.84110577852853 2.6668214925079985 11.279650794864558 9.894633491155984
31.66532466431349 3.1303530288249557 15.644711509917666 12.89026012557087
40.965067946215 3.6684003172110398 21.030235386662948 16.26643224234101
51.57714483433975 4.276306325050269 27.246921601714277 20.0539169075752
63.471462532545885 4.875628340849147 34.38128996127003 24.21454423042676
75.96007912798568 5.181165749715401 42.24502355771068 28.533889820559597
86.59136087030338 4.67601056625754 49.513404730861694 32.401945573184165
91.72630039330457 3.518710769502748 53.642128107573654 34.56546151622816
87.55475164878258 3.406099605221339 50.98992850780855 33.15872353575269
95.593614579892 19.980786119227147 45.39796646431254 30.21486199635231
87.55475164876725 3.406099605216266 50.98992850780172 33.15872353574927
91.72630039327589 3.5187107695028526 53.64212810755463 34.565461516218384
86.59136087026205 4.676010566257226 49.513404730834694 32.401945573170124
75.96007912793623 5.181165749716083 42.24502355767818 28.533889820541983
63.471462532487756 4.875628340842377 34.38128996123709 24.214544230408272
51.57714483429212 4.276306325056727 27.246921601680285 20.053916907555106
40.96506794616237 3.668400317209262 21.030235386631585 16.26643224232152
31.665324664261 3.1303530288213604 15.644711509888214 12.890260125551428
23.841105778483318 2.6668214925078444 11.279650794838272 9.894633491137206
17.169688833248642 2.263873713531994 7.643650496659082 7.262164623057564
11.691101826454076 1.9062335898224214 4.79122843843084 4.99363979820081
7.34515853343663 1.5719890542534374 2.6538022434395123 3.119367235743682
4.15563806587159 1.2516167309188138 1.2243099770267678 1.6797113579260072
2.072785698254512 0.9522965017009187 0.4214527801676698 0.6990364163859243
0.9070715590990027 0.6583541964509476 0.07695020121030255 0.17176716143775236
0.4147839498871265 0.41150126531225456 1.1312513729740161e-05 0.0032713720611418882
0.23132115975011402 0.2316234733281784 -4.3064274094744134e-05 -0.00025924930396962836
0.12271392933203533 0.12271392933203533 0.0 0.0
0.0464257470356574 0.0464257470356574 0.0 0.0
0.01136776682614183 0.01136776682614183 0.0 0.0
0.005523636839029285 0.005523636839029285 0.0 0.0
0.03187084670739831 0.03187084670739831 0.0 0.0
0.10624255612565406 0.10624255612565406 0.0 0.0
0.24047414517301058 0.2412468636982592 -0.00011260266808400026 -0.0006601158571646627
0.502337614547018 0.46773797102055437 0.007049532703782148 0.02755011082268139
1.1996190021093003 0.761013679700703 0.15170286210424178 0.2869024603043553
2.6277709131058846 1.0456185777034401 0.6105391772347094 0.9716131581677347
5.113177892923504 1.37156081386303 1.6326501912232132 2.1089668878372634
8.793994879760547 1.7215685644890533 3.3316199132587214 3.7408064020127707
13.808401936887813 2.100227422065027 5.851872629684158 5.856301885138633
20.174328842512228 2.5164286529291378 9.232396210059099 8.425503979523986
27.889915610625906 2.9836431387583784 13.48046971287931 11.425802758988217
37.15940716994033 3.526164514085594 18.782682298118228 14.850560357736509
47.82088476373079 4.1426179058136725 24.953854112877853 18.72441274503926
60.137096967112726 4.786542056455847 32.322618163908956 23.027936746747912
73.73823558386842 5.370296820839137 40.68231828355313 27.685620479476142
87.81267968362074 5.6880250871990725 49.6473341489697 32.47732044745197
100.1280368536596 5.184285768446072 58.10617301406349 36.83757807115003
106.55163818613923 3.6052964947709896 63.462890164560065 39.483451526808174
103.08383010826718 3.439307403682191 61.2731201128278 38.371402591757175
113.32848924084493 22.52495977299937 55.36584606786166 35.43768339998391
103.08383010824373 3.4393074036752593 61.27312011281679 38.37140259175163
106.55163818610538 3.605296494772037 63.4628901645368 39.4834515267966
100.12803685360878 5.184285768444485 58.10617301403087 36.83757807113343
87.81267968356013 5.688025087197865 49.64733414893067 32.4773204474316
73.73823558379866 5.370296820833214 40.68231828351182 27.685620479453622
60.13709696704836 4.786542056450903 32.322618163871084 23.02793674672637
47.82088476366991 4.1426179058118295 24.953854112840983 18.72441274501711
37.15940716988384 3.5261645140864046 18.78268229808323 14.850560357714219
27.889915610573986 2.9836431387569693 13.480469712849228 11.425802758967787
20.174328842467386 2.5164286529273436 9.232396210034418 8.425503979505631
13.808401936852214 2.1002274220606423 5.851872629666978 5.856301885124593
8.793994879734619 1.7215685644871113 3.3316199132462416 3.740806402001268
5.113177892906694 1.3715608138615059 1.6326501912158256 2.1089668878293635
2.627770913096571 1.0456185777020799 0.610539177231453 0.9716131581630373
1.1996190021046775 0.7610136796994067 0.1517028621029528 0.2869024603023182
0.5023376145457691 0.46773797101950754 0.007049532703688474 0.02755011082257326
0.24047414517266902 0.2412468636979332 -0.00011260266808555532 -0.0006601158571785703
0.10624255612548103 0.10624255612548103 0.0 0.0
0.03187084670736963 0.03187084670736963 0.0 0.0
0.00552363683899778 0.00552363683899778 0.0 0.0
0.0026212640296791084 0.0026212640296791084 0.0 0.0
0.02187832892923306 0.02187832892923306 0.0 0.0
0.09712310823697723 0.09712310823697723 0.0 0.0
0.26545444026866655 0.2668243539488294 -0.0003226475347318697 -0.0010472661454310043
0.6384898260985683 0.5513725263563779 0.025113926010477745 0.06200337373171268
1.534281770848271 0.8488627609060555 0.24328970868966096 0.44212930125255434
3.256266768557092 1.142628900903131 0.8544582101527265 1.2591796575012348
6.104333064840601 1.4854883862820765 2.067650138525881 2.551194540032643
10.298309196634147 1.8684063892718734 4.061334016588152 4.368568790774128
15.972069507804108 2.2970071400114183 6.952986595083972 6.722075772708726
23.22166695978978 2.775447071129002 10.852426692333797 9.593793196326981
32.1458032622724 3.320493149481686 15.863050463952337 12.962259648838383
42.616838318986716 3.9463128083511494 21.841347796091927 16.829177714543654
54.954253420896244 4.632192629672124 29.13306926032015 21.188991530903962
68.94258250031461 5.314453113017146 37.62081767611622 26.007311711181227
84.10415288308305 5.840092345354759 47.12097388157259 31.143086656155702
99.44584763229811 6.02919454491534 57.11819623669865 36.298456850684126
113.2801354493669 5.7192167037569295 66.56464323779394 40.99627550781601
121.63157775136779 4.07244688277958 73.2920637753387 44.26706709324945
119.68102380234151 3.1815534050337435 72.60304999996977 43.896420397338055
132.62407338056036 23.928360124802083 67.3234433748956 41.37226988086267
119.68102380231822 3.181553405031317 72.60304999995566 43.896420397331234
121.6315777513222 4.072446882777037 73.29206377530987 44.26706709323534
113.2801354493141 5.719216703761298 66.56464323775562 40.996275507797186
99.44584763223205 6.029194544918904 57.11819623665251 36.298456850660564
84.10415288301816 5.840092345361638 47.12097388152563 31.14308665613093
68.94258250024556 5.314453113016053 37.62081767607247 26.007311711157026
54.954253420828614 4.632192629671991 29.133069260277477 21.188991530879143
42.61683831892075 3.9463128083482557 21.841347796052876 16.829177714519613
32.14580326221177 3.3204931494771497 15.863050463918572 12.962259648816056
23.22166695974093 2.7754470711282377 10.852426692305675 9.593793196307024
15.972069507764157 2.2970071400070564 6.952986595064001 6.722075772693096
10.298309196605532 1.8684063892697966 4.061334016574049 4.368568790761682
6.104333064820848 1.4854883862794601 2.067650138517415 2.5511945400239746
3.2562667685453075 1.142628900900736 0.854458210148556 1.259179657496015
1.5342817708427192 0.8488627609047827 0.24328970868790412 0.44212930125003297
0.6384898260966356 0.5513725263551464 0.02511392601022188 0.062003373731267526
0.26545444026827925 0.2668243539483417 -0.0003226475347231037 -0.0010472661453394072
0.09712310823680002 0.09712310823680002 0.0 0.0
0.02187832892920615 0.02187832892920615 0.0 0.0
0.0026212640296759526 0.0026212640296759526 0.0 0.0
0.0007641996478619318 0.0007641996478619318 0.0 0.0
0.01583769009892895 0.01583769009892895 0.0 0.0
0.10079865559079466 0.10079865559079466 0.0 0.0
0.3211736327064936 0.32027558977011705 -9.676501590179373e-05 0.0009948079522782921
0.836255716284676 0.6702976880976605 0.054162973320396934 0.11179505486661834
1.9515725387035892 1.0261870226425938 0.34343685910811744 0.5819486569528779
3.9679772076350543 1.4091953403378321 1.063125649461294 1.4956562178359292
7.217551726587482 1.8935541801045335 2.4280564583555737 2.8959410881273753
11.956948111416832 2.486862772187236 4.619357980117876 4.850727359111726
18.43238537646758 3.2244615738806472 7.825108750913802 7.3828150516731235
26.78094500678615 4.140470884024914 12.157950833502976 10.48252328925826
36.982153922383475 5.257331681935106 17.588920944948445 14.135901295499924
49.21600963353327 6.5681056203783195 24.315763202650462 18.3321408105045
63.47247730983306 8.042072412263199 32.37163194798828 23.05877294958156
79.47367825178551 9.491182453543159 41.7325411900468 28.249954608195548
96.43422558453082 10.570946749051302 52.14097886961251 33.72229996586702
112.88114519342207 10.868800335794546 62.85980464719708 39.152540210430445
126.9740840621176 10.224953658992803 72.74917968926324 43.99995071386164
136.98306532561952 9.22691626998457 80.19155172778176 47.564597327853214
133.24345969819134 3.2137410177492294 81.68043059293593 48.34928808750615
189.56054609101395 63.64346264598588 79.00290879594777 46.91417464908029
133.24345969816352 3.2137410177449146 81.6804305929202 48.34928808749845
136.98306532558024 9.226916269995208 80.19155172774767 47.564597327837284
126.97408406204762 10.224953658986442 72.74917968922063 43.999950713840654
112.88114519335002 10.868800335799346 62.8598046471458 39.15254021040488
96.43422558444291 10.570946749037958 52.140978869563476 33.72229996584142
79.4736782517008 9.491182453531845 41.73254118999925 28.249954608169734
63.4724773097536 8.042072412258008 32.37163194794091 23.0587729495547
49.21600963345549 6.568105620368334 24.315763202608238 18.332140810478947
36.98215392231421 5.257331681926786 17.588920944911333 14.135901295476073
26.780945006729446 4.140470884019013 12.157950833473 10.482523289237442
18.432385376422694 3.224461573874848 7.825108750891532 7.382815051656316
11.956948111383843 2.486862772182805 4.619357980102407 4.850727359098633
7.217551726564455 1.8935541801001283 2.4280564583461723 2.8959410881181533
3.9679772076213826 1.4091953403356063 1.0631256494560444 1.4956562178297332
1.9515725386968903 1.026187022640812 0.34343685910621646 0.5819486569498613
0.8362557162820397 0.670297688096164 0.05416297331998203 0.11179505486589374
0.32117363270584165 0.3202755897694868 -9.676501590195983e-05 0.0009948079522568206
0.10079865559065161 0.10079865559065161 0.0 0.0
0.01583769009887573 0.01583769009887573 0.0 0.0
0.0007641996478670786 0.0007641996478670786 0.0 0.0
CELL_DATA 800
SCALARS Stress float 6
LOOKUP_TABLE default
159.27511116994086 -511.6212342918824 -182.28815852910054 -108.12875097843332 0.0 0.0
398.65755862968354 -51.76627567552502 116.5142960497228 57.41567489385463 0.0 0.0
396.41709855655523 9.045442018455145 121.44257616759839 -3.8361885896856753 0.0 0.0
456.475244845987 -10.542968523614727 138.73299242337185 -14.105670576881646 0.0 0.0
531.2527946219508 -15.522517897761979 186.9760013722535 -11.430649448241045 0.0 0.0
602.2602382270807 -9.42453629018145 256.96876410463244 -9.86300066238609 0.0 0.0
671.0697735267573 -2.1381206265878063 317.48361147358617 -10.039254896473517 0.0 0.0
740.0558677975732 12.967915909815112 369.3739159011069 -11.269485038663516 0.0 0.0
810.5992075046399 35.06885335929218 418.8457552141052 -12.707588871804328 0.0 0.0
882.9820498962097 63.407493782291894 470.2259534102707 -13.744628755917082 0.0 0.0
956.2344271328005 96.14187413252755 523.7014669138659 -14.224283000526796 0.0 0.0
1029.3298079337144 132.3341532769079 578.6740964349879 -14.166061470694672 0.0 0.0
1102.229526974358 170.458977189214 634.4184580752196 -13.934466537976405 0.0 0.0
1175.6898177282944 211.05487291108815 691.5979681023545 -13.654054013436465 0.0 0.0
1250.4488508226418 255.04528793801762 751.0749543032932 -13.231150556449137 0.0 0.0
1325.9751659059216 302.24652238359766 812.5154373782455 -12.474633612040472 0.0 0.0
1399.979614343182 351.13061814872424 874.0251991176806 -11.199809939314864 0.0 0.0
1469.3514644612733 399.49852322004716 932.9352177362177 -9.48181744746891 0.0 0.0
1531.309316262196 445.62482826816165 986.942029446263 -8.238256705445586 0.0 0.0
1606.6553206150397 512.2846521998912 1057.4106643661505 -11.392269044024198 0.0 0.0
1606.6553206154 512.2846522002642 1057.4106643664138 11.392269044048984 0.0 0.0
1531.3093162628152 445.62482826882376 986.9420294466571 8.238256705516173 0.0 0.0
1469.3514644610696 399.498523219917 932.9352177359785 9.481817447499132 0.0 0.0
1399.979614342585 351.1306181482125 874.0251991171664 11.199809939330311 0.0 0.0
1325.9751659054314 302.24652238321517 812.5154373778608 12.474633612008045 0.0 0.0
1250.4488508228849 255.0452879384057 751.0749543034527 13.231150556488467 0.0 0.0
1175.6898177278204 211.05487291076673 691.597968101993 13.654054013498163 0.0 0.0
1102.2295269745189 170.45897718956053 634.4184580752773 13.934466537894457 0.0 0.0
1029.3298079331748 132.33415327657295 578.6740964345729 14.166061470703028 0.0 0.0
956.2344271315432 96.14187413148369 523.7014669129981 14.22428300053734 0.0 0.0
882.9820498956976 63.407493782019074 470.2259534099173 13.744628755879889 0.0 0.0
810.5992075042656 35.06885335915635 418.8457552138238 12.70758887183025 0.0 0.0
740.0558677976913 12.967915910222317 369.3739159011348 11.269485038692178 0.0 0.0
671.0697735261762 -2.1381206269332225 317.48361147315893 10.039254896426254 0.0 0.0
602.2602382264416 -9.424536290581159 256.9687641041332 9.863000662510004 0.0 0.0
531.252794621648 -15.522517897814513 186.97600137201556 11.430649448293627 0.0 0.0
456.47524484569203 -10.542968523673407 138.73299242325547 14.105670576798918 0.0 0.0
396.41709855637924 9.045442018479939 121.44257616755614 3.8361885896977537 0.0 0.0
398.6575586296012 -51.766275675447716 116.51429604967757 -57.41567489376962 0.0 0.0
159.27511117048186 -511.6212342913585 -182.28815852858003 108.12875097807557 0.0 0.0
60.51518958185176 -541.045457903012 -241.4097596206251 -153.1424631738423 0.0 0.0
255.0521502501145 -37.96237352134308 65.12768483643079 11.164440000685213 0.0 0.0
347.42559729597696 27.4545043451865 112.46354036602114 -10.149791251087624 0.0 0.0
419.5142058386721 -8.11235185475926 124.47267742404512 -33.87738801704245 0.0 0.0
502.2134424163338 -16.379589943080077 165.5970799638873 -32.4356712783394 0.0 0.0
577.9696058448395 -10.624789200269813 235.2776346988819 -29.15963582048475 0.0 0.0
650.7145693741439 -3.378468709009507 301.3109293266151 -29.69451547573678 0.0 0.0
720.7092380150934 11.14747018781705 356.54132182896865 -31.56391687272427 0.0 0.0
790.1374405167286 31.87887007730523 406.13094211396526 -33.77055944145684 0.0 0.0
859.7797585448186 57.821704393246165 455.40698777058196 -35.11712570827525 0.0 0.0
928.9822818722569 87.21845586252692 505.3663969550122 -35.308832469128404 0.0 0.0
997.4063061324348 118.73252865504172 555.7345587139831 -34.69404690188572 0.0 0.0
1065.251735313979 152.6610823863898 606.8851182040621 -33.78234014552183 0.0 0.0
1133.637558231976 188.90854080109858 659.3798390181008 -32.824483844070286 0.0 0.0
1202.926364166779 227.8780196594197 713.6379057623086 -31.628327434132895 0.0 0.0
1272.5997553587754 269.5560112367754 769.4141918201134 -29.76920391303372 0.0 0.0
1341.24576511868 313.18205918427464 825.6186639935927 -26.987474015926143 0.0 0.0
1407.1360083901886 357.9947912321966 880.9821151632452 -23.65728021243001 0.0 0.0
1473.244092572273 408.34608770370176 939.0528474093351 -20.897723185300162 0.0 0.0
1521.748120599567 447.80436694659454 982.8617207110716 -18.148361524075817 0.0 0.0
1521.7481205993213 447.80436694636285 982.8617207109148 18.1483615240987 0.0 0.0
1473.2440925720878 408.3460877035526 939.0528474092131 20.89772318534076 0.0 0.0
1407.136008390083 357.99479123216554 880.9821151631668 23.657280212513946 0.0 0.0
1341.2457651181685 313.18205918384723 825.6186639931541 26.987474015976993 0.0 0.0
1272.5997553580369 269.5560112361461 769.4141918194924 29.769203913027336 0.0 0.0
1202.9263641669413 227.87801965972574 713.637905762359 31.628327434212608 0.0 0.0
1133.6375582311412 188.9085408004258 659.379839017454 32.824483844183234 0.0 0.0
1065.2517353128017 152.66108238537325 606.8851182031957 33.782340145516585 0.0 0.0
997.4063061321403 118.73252865495519 555.7345587137034 34.69404690193912 0.0 0.0
928.9822818713875 87.21845586186015 505.36639695441175 35.30883246906552 0.0 0.0
859.779758543891 57.82170439253878 455.40698776995305 35.11712570828192 0.0 0.0
790.1374405164162 31.878870077256465 406.130942113719 33.77055944153294 0.0 0.0
720.7092380146086 11.147470187616037 356.5413218286206 31.56391687276858 0.0 0.0
650.7145693741134 -3.3784687087414653 301.310929326509 29.694515475722188 0.0 0.0
577.9696058448848 -10.624789199918101 235.277634698804 29.159635820356662 0.0 0.0
502.21344241611814 -16.37958994301028 165.5970799637366 32.43567127819138 0.0 0.0
419.51420583833396 -8.112351854989702 124.47267742388496 33.87738801691063 0.0 0.0
347.42559729582524 27.4545043450497 112.46354036593493 10.14979125100201 0.0 0.0
255.0521502502428 -37.96237352091707 65.12768483659985 -11.164440000844838 0.0 0.0
60.51518958212 -541.0454579026484 -241.40975962028017 153.14246317365797 0.0 0.0
11.935937254075554 -545.8471601266526 -260.39977383656094 -167.4011247963408 0.0 0.0
146.48838205781288 -32.34526466356231 34.242935218275164 -42.03681460073899 0.0 0.0
282.6438077914313 31.31432498953469 94.1874398342898 -32.864381144466385 0.0 0.0
372.31191780414315 -0.032949704810105285 111.91581714367318 -52.97886294531918 0.0 0.0
463.67937960618394 -14.92391534969541 144.9778987446776 -55.60716158644384 0.0 0.0
550.4763694410115 -13.834286783427745 209.43019084473065 -50.50080238392391 0.0 0.0
626.1436959299087 -3.7466920657311604 281.7332286470685 -49.65983459944765 0.0 0.0
696.9721935776971 9.37045601329239 340.4739193216663 -51.811455444449464 0.0 0.0
765.7941410548094 28.783547765057676 391.10984848315 -54.41049034360539 0.0 0.0
832.6861569189975 52.053986597265435 438.40736543467466 -55.79501159300945 0.0 0.0
897.918673669172 77.79008464259387 484.79966488847947 -55.642899824195354 0.0 0.0
961.5844666449943 105.39270435166979 530.9325202816071 -54.46329608017987 0.0 0.0
1024.7689258362993 134.63255887765757 577.4571552990956 -53.05226570491739 0.0 0.0
1087.9271866267386 166.32213558546889 625.0962443360048 -51.492881780922886 0.0 0.0
1151.5462296952246 200.10710377220698 673.959831871879 -49.55507957849455 0.0 0.0
1215.3688470211634 236.04984425751007 723.9669992259221 -46.77027377239084 0.0 0.0
1278.8062650349052 274.3620841336083 774.9095465778247 -42.876084669324754 0.0 0.0
1342.5426713242805 316.8023444142074 827.9700759197514 -38.26586146489406 0.0 0.0
1401.8942371867731 359.90813700753176 879.1034136177955 -32.68498200383058 0.0 0.0
1443.278093953807 391.2694542750874 915.3612748005078 -24.078470988775486 0.0 0.0
1443.2780939541472 391.2694542754533 915.3612748006386 24.07847098885091 0.0 0.0
1401.8942371873577 359.90813700817597 879.1034136180283 32.684982003948896 0.0 0.0
1342.5426713242819 316.8023444142808 827.9700759196592 38.26586146496573 0.0 0.0
1278.8062650348731 274.36208413367365 774.9095465776626 42.87608466938039 0.0 0.0
1215.3688470210259 236.0498442574798 723.96699922582 46.770273772374026 0.0 0.0
1151.5462296944117 200.10710377150184 673.9598318713247 49.555079578470995 0.0 0.0
1087.9271866257811 166.32213558465946 625.0962443352669 51.49288178097083 0.0 0.0
1024.76892583617 134.63255887772453 577.4571552989044 53.05226570501267 0.0 0.0
961.5844666454403 105.39270435233195 530.9325202818789 54.46329608021179 0.0 0.0
897.91867366921 77.79008464283962 484.7996648885034 55.642899824115844 0.0 0.0
832.6861569186125 52.05398659709989 438.40736543440084 55.7950115929856 0.0 0.0
765.794141054077 28.783547764566933 391.10984848268686 54.41049034355632 0.0 0.0
696.9721935771433 9.370456012953184 340.47391932127204 51.81145544428726 0.0 0.0
626.1436959290834 -3.7466920663045613 281.733228646472 49.65983459944025 0.0 0.0
550.4763694405788 -13.834286783623703 209.43019084436366 50.50080238378848 0.0 0.0
463.6793796058934 -14.923915349704865 144.9778987445231 55.60716158637016 0.0 0.0
372.3119178042486 -0.03294970408002662 111.91581714393054 52.97886294523977 0.0 0.0
282.6438077914962 31.31432498969669 94.18743983435786 32.864381144372445 0.0 0.0
146.4883820579837 -32.34526466326341 34.24293521841608 42.03681460058954 0.0 0.0
11.935937254218885 -545.8471601263299 -260.3997738362722 167.40112479626413 0.0 0.0
-6.027953357346576 -531.5361588270117 -253.46581938024588 -169.7007563933356 0.0 0.0
86.09180551127702 -34.19278484751517 15.569706199128552 -87.08555028463367 0.0 0.0
221.19999117715764 29.397441910375434 75.1792299262599 -62.75713074466812 0.0 0.0
321.0679218582897 6.669830215308623 98.31326080546066 -73.71365554418699 0.0 0.0
415.48953416283 -12.20588965021327 125.08631153560702 -80.60852737307665 0.0 0.0
511.56047409135994 -15.048684671400448 181.40527540892612 -73.92845583577328 0.0 0.0
594.5413413641861 -5.57883596739541 255.8339621030422 -70.46465529181124 0.0 0.0
668.6094203592968 8.216065282869952 320.8550042421514 -72.15176456431175 0.0 0.0
736.6764094026723 25.545946962945358 372.8966195344117 -74.60400802395318 0.0 0.0
801.0604598704454 46.05262772586587 418.73668108453955 -75.78545347999474 0.0 0.0
862.536072985392 68.23115092227758 461.8919496425192 -75.23144030850966 0.0 0.0
921.9444023531491 91.78220676815576 504.0228076894528 -73.57015921687346 0.0 0.0
980.03475812187 116.66645680981327 545.8934837181162 -71.6636445755553 0.0 0.0
1038.2590882396653 143.5388431036129 588.7079934773452 -69.64389019239361 0.0 0.0
1096.305371297302 171.87851722285302 632.1031684785175 -67.07539300449815 0.0 0.0
1153.9378384317245 202.06297648526305 676.1621973200336 -63.51777949061715 0.0 0.0
1212.4051188782557 235.16690870902656 722.0198846477723 -58.85977421345063 0.0 0.0
1271.2845138152973 272.1416349522008 769.9302318302136 -52.94391223146225 0.0 0.0
1325.7719000661202 309.2384517152435 815.6496508835913 -44.35305425925492 0.0 0.0
1364.613323187299 336.3555089805287 848.5267092126596 -30.365381110904163 0.0 0.0
1364.6133231869599 336.3555089802243 848.5267092124951 30.365381111065396 0.0 0.0
1325.7719000656782 309.2384517148587 815.649650883345 44.353054259399954 0.0 0.0
1271.284513814809 272.1416349517661 769.9302318299908 52.943912231493655 0.0 0.0
1212.4051188784047 235.1669087092611 722.0198846479773 58.85977421345031 0.0 0.0
1153.9378384314266 202.0629764850559 676.1621973197749 63.51777949059 0.0 0.0
1096.3053712959963 171.87851722166835 632.1031684774808 67.07539300453361 0.0 0.0
1038.2590882388065 143.53884310289658 588.7079934767426 69.64389019244064 0.0 0.0
980.0347581209787 116.66645680907627 545.8934837174969 71.6636445755209 0.0 0.0
921.9444023516601 91.78220676681661 504.0228076884031 73.57015921682594 0.0 0.0
862.5360729848927 68.23115092195343 461.89194964215835 75.23144030842282 0.0 0.0
801.0604598698744 46.0526277255003 418.7366810841419 75.78545347989976 0.0 0.0
736.6764094022601 25.54594696278633 372.8966195340793 74.60400802395199 0.0 0.0
668.609420359191 8.216065283088724 320.85500424203354 72.1517645643888 0.0 0.0
594.5413413639542 -5.578835967262975 255.83396210278667 70.46465529186464 0.0 0.0
511.56047409117934 -15.048684671204022 181.40527540876428 73.92845583576546 0.0 0.0
415.48953416256376 -12.205889650099316 125.08631153554084 80.60852737301849 0.0 0.0
321.06792185805693 6.6698302152387745 98.3132608053712 73.71365554410556 0.0 0.0
221.1999911771093 29.397441910074136 75.17922992615502 62.757130744567775 0.0 0.0
86.09180551140618 -34.192784847228005 15.569706199253446 87.08555028448421 0.0 0.0
-6.027953357239028 -531.5361588267336 -253.46581937997792 169.7007563932418 0.0 0.0
-9.584462052961939 -506.17801077820184 -232.4656646500609 -167.65167321355793 0.0 0.0
51.36589226738984 -37.021217534639405 4.303402419825132 -122.11805307446161 0.0 0.0
168.0652110154963 24.59780871496717 57.79890591913903 -92.96177397684025 0.0 0.0
266.90873050043683 10.52512105016638 83.22905506031965 -95.92891015891612 0.0 0.0
358.19163256322577 -7.29994509389108 106.48274347155584 -104.77901433694677 0.0 0.0
461.3027421221354 -15.25788916392827 152.33703750260045 -100.4790821767849 0.0 0.0
555.2409063234352 -8.042539514277486 224.27373375535595 -93.35993563748444 0.0 0.0
633.8808628680546 6.614175455462647 295.54057815239554 -92.5963138370497 0.0 0.0
702.0475134209133 22.4018174300936 350.6851884728671 -94.41246423576348 0.0 0.0
764.2222681950718 39.83857384655487 395.8123195190506 -95.1411746462043 0.0 0.0
822.3279027092234 58.508206447244156 436.2492467188938 -94.11728549037285 0.0 0.0
877.360715347884 78.01986677979642 474.4427624166332 -91.96815891355573 0.0 0.0
930.7916440051616 98.57213597904506 511.9526821320469 -89.71947120080681 0.0 0.0
983.4401976612754 120.61719720018377 549.6305992330778 -87.24334765137353 0.0 0.0
1035.96398348941 143.71678563658617 587.6885643603571 -84.13921779536406 0.0 0.0
1088.3299969229715 168.07467395823713 626.2438416363967 -80.08013376193604 0.0 0.0
1140.4483317054828 194.83335168789503 665.7880584363592 -74.80700690149008 0.0 0.0
1193.5267508471884 225.2276949106729 707.5277434230495 -67.7628653746257 0.0 0.0
1244.2220275237512 256.7110294345029 748.546708095507 -56.47331083179029 0.0 0.0
1283.1222110814713 281.3095936249225 780.1730215602906 -37.53646129952871 0.0 0.0
1283.1222110805647 281.3095936240426 780.1730215596933 37.53646129965488 0.0 0.0
1244.2220275237485 256.71102943456526 748.5467080954515 56.47331083188106 0.0 0.0
1193.5267508474121 225.2276949109789 707.5277434231033 67.76286537475569 0.0 0.0
1140.448331705962 194.83335168850476 665.7880584366383 74.80700690165074 0.0 0.0
1088.3299969235488 168.07467395896475 626.2438416367635 80.08013376203714 0.0 0.0
1035.963983489819 143.71678563713849 587.6885643606249 84.13921779540611 0.0 0.0
983.4401976609842 120.61719720005371 549.6305992328917 87.24334765144636 0.0 0.0
930.791644005027 98.57213597910348 511.95268213187364 89.7194712008897 0.0 0.0
877.3607153482351 78.0198667804114 474.442762416801 91.96815891368728 0.0 0.0
822.3279027090512 58.50820644728594 436.2492467186699 94.11728549038992 0.0 0.0
764.2222681953958 39.838573847156084 395.8123195192152 95.14117464621944 0.0 0.0
702.0475134205786 22.40181743005421 350.68518847264886 94.41246423583846 0.0 0.0
633.8808628679515 6.614175455717827 295.5405781522291 92.5963138370855 0.0 0.0
555.2409063233879 -8.042539513929135 224.2737337552322 93.35993563748536 0.0 0.0
461.3027421218487 -15.257889163879156 152.33703750241125 100.47908217670388 0.0 0.0
358.19163256274976 -7.299945094208612 106.48274347132231 104.77901433679531 0.0 0.0
266.9087305002706 10.52512105007547 83.22905506024367 95.92891015878494 0.0 0.0
168.06521101559423 24.59780871510675 57.798905919210284 92.96177397669294 0.0 0.0
51.36589226754597 -37.021217534243085 4.303402419990864 122.11805307433565 0.0 0.0
-9.58446205289006 -506.17801077789244 -232.4656646497746 167.65167321344393 0.0 0.0
-6.6661106491340405 -473.464258016133 -203.80928769516538 -164.3138953964576 0.0 0.0
29.787451409061976 -39.150454616803145 -2.808900962322352 -148.11539985982895 0.0 0.0
122.4702499730802 18.76086242757713 42.36933372019719 -119.79076540133627 0.0 0.0
211.98873588312338 12.349990730911976 67.29764152562704 -117.95232751035299 0.0 0.0
296.4279483698151 -2.26781693429621 88.5245473559636 -127.10008584876125 0.0 0.0
395.1683371133931 -13.667483067815848 123.1119729988709 -128.43044822525115 0.0 0.0
499.9789083750316 -9.290099215930322 187.3879961915038 -119.34409230476732 0.0 0.0
588.1084587941685 3.519198269177922 261.2147840357268 -114.36022276796172 0.0 0.0
660.1881436730736 18.90010700072543 322.45911049818756 -114.1106533087279 0.0 0.0
721.007495960161 33.58602201129899 368.54221515048897 -113.88666585206278 0.0 0.0
775.7241485381483 48.50489723490134 406.7534116073226 -112.32269720298488 0.0 0.0
826.8093409536563 64.16156494552688 441.59515029403155 -109.73279356933872 0.0 0.0
875.4188187456834 80.54037243636503 474.8477987056226 -107.10586356278971 0.0 0.0
922.7643097641723 97.59360904183634 507.5074307848975 -104.40038809419076 0.0 0.0
969.9277553117646 115.49425822650143 540.3451445035114 -100.91934595210392 0.0 0.0
1016.3107944186823 134.47257948656258 573.2654430168205 -96.27697772634704 0.0 0.0
1062.1311816802472 154.10880721011472 606.1701962693935 -90.60896381626823 0.0 0.0
1108.4146111295772 176.43642773040636 640.5240737791153 -82.877119348714 0.0 0.0
1155.2869492674474 201.94382796163302 676.6274042055952 -69.49465347098469 0.0 0.0
1196.27428388565 224.93165609595155 708.4319833786245 -46.152318419291774 0.0 0.0
1196.2742838856477 224.93165609598063 708.4319833786151 46.15231841938429 0.0 0.0
1155.2869492673085 201.9438279615838 676.6274042055423 69.49465347120898 0.0 0.0
1108.4146111295152 176.4364277304593 640.5240737790666 82.877119348902 0.0 0.0
1062.1311816799202 154.10880720991238 606.1701962691213 90.60896381643488 0.0 0.0
1016.3107944182609 134.4725794863154 573.2654430164584 96.27697772651635 0.0 0.0
969.9277553115563 115.49425822643786 540.3451445032451 100.91934595215227 0.0 0.0
922.7643097646009 97.59360904248129 507.50743078505513 104.40038809433193 0.0 0.0
875.4188187449139 80.54037243576349 474.84779870506134 107.10586356282957 0.0 0.0
826.8093409529288 64.161564944919 441.59515029348756 109.73279356925975 0.0 0.0
775.724148537421 48.50489723431782 406.7534116068172 112.32269720289068 0.0 0.0
721.0074959596723 33.58602201094513 368.5422151500826 113.88666585188945 0.0 0.0
660.1881436727372 18.900107000632943 322.45911049790806 114.11065330868223 0.0 0.0
588.1084587934079 3.5191982686515644 261.21478403513277 114.36022276789407 0.0 0.0
499.97890837456697 -9.290099216152935 187.3879961911085 119.34409230461874 0.0 0.0
395.1683371133831 -13.667483067259079 123.11197299894867 128.4304482251501 0.0 0.0
296.427948369762 -2.2678169340032674 88.5245473560359 127.10008584860475 0.0 0.0
211.98873588295788 12.349990730846866 67.2976415255593 117.95232751024267 0.0 0.0
122.47024997317628 18.76086242780131 42.36933372029327 119.79076540110783 0.0 0.0
29.787451409158052 -39.15045461662167 -2.8089009622390853 148.11539985958768 0.0 0.0
-6.666110649142304 -473.464258015906 -203.80928769493434 164.31389539636552 0.0 0.0
-1.0321490880732753 -434.8728421562975 -171.1750001663637 -160.8862557478211 0.0 0.0
14.07028820432405 -41.21101022259455 -8.1422688137338 -166.25830903850914 0.0 0.0
82.19130842303726 13.088443774079748 28.583925659135097 -141.69887662690562 0.0 0.0
157.64409903368133 13.73088404335515 51.409371345423764 -138.0733437647392 0.0 0.0
231.17600801352947 1.3256761912072939 69.91179479871256 -147.15441533599264 0.0 0.0
318.3402681977782 -9.514409474463612 95.68476862665278 -154.86605348944107 0.0 0.0
426.2152351014201 -9.806368959701041 146.51003055856683 -148.504215400143 0.0 0.0
526.0138641970318 0.6876390939032646 217.3696863757348 -138.80446994285157 0.0 0.0
605.5288846405476 14.145178220515856 283.63211700235837 -134.48844185320144 0.0 0.0
668.4636223441896 27.096937060515888 334.0901961257582 -132.28222327896492 0.0 0.0
720.3967094188513 38.25542885506697 371.5069449983214 -129.89669313990376 0.0 0.0
767.7967604386196 50.256142289901845 403.8655583894659 -126.8708744636695 0.0 0.0
811.7325796682816 62.43035989341803 433.2288006224485 -123.93198015718801 0.0 0.0
853.5871224741076 74.84525811922956 461.1188683334094 -121.03432820196957 0.0 0.0
894.619226340604 87.23520149521515 488.2633244024816 -117.40599136744682 0.0 0.0
936.3141821770207 101.03911579897834 516.3069746795418 -112.37683152417637 0.0 0.0
975.5895473272542 113.98648545585614 542.6972960602308 -106.06768509480469 0.0 0.0
1013.408222938363 126.8155716689065 568.1740424523003 -98.13880481416949 0.0 0.0
1055.675087637155 144.09938865284687 597.8398380650799 -83.88189468023192 0.0 0.0
1100.8009722778963 165.80694954479358 630.953373998865 -57.051685662954746 0.0 0.0
1100.8009722779466 165.80694954488123 630.9533739989785 57.05168566305967 0.0 0.0
1055.675087637282 144.09938865308473 597.8398380652543 83.88189468046865 0.0 0.0
1013.408222938221 126.81557166883408 568.1740424522151 98.13880481420884 0.0 0.0
975.5895473270904 113.98648545581682 542.697296060083 106.06768509493341 0.0 0.0
936.314182177236 101.03911579932978 516.3069746796687 112.37683152426874 0.0 0.0
894.6192263403663 87.23520149509255 488.26332440234364 117.40599136740205 0.0 0.0
853.5871224744951 74.84525811974297 461.11886833364497 121.03432820194439 0.0 0.0
811.7325796688001 62.43035989403012 433.2288006227416 123.93198015709442 0.0 0.0
767.7967604383254 50.25614228975209 403.865558389276 126.87087446363418 0.0 0.0
720.3967094185701 38.25542885499301 371.5069449981176 129.8966931398975 0.0 0.0
668.4636223438584 27.096937060393316 334.09019612550526 132.2822232788935 0.0 0.0
605.5288846402019 14.14517822039506 283.6321170020613 134.4884418531402 0.0 0.0
526.0138641967709 0.6876390941996036 217.3696863755467 138.80446994302906 0.0 0.0
426.21523510057676 -9.806368960323592 146.51003055801326 148.5042154000504 0.0 0.0
318.34026819723874 -9.514409474816867 95.68476862637277 154.86605348925966 0.0 0.0
231.17600801324218 1.3256761908266412 69.91179479852005 147.154415335782 0.0 0.0
157.64409903374053 13.730884043652827 51.40937134553181 138.07334376451536 0.0 0.0
82.19130842303672 13.088443774213724 28.58392565917513 141.6988766266686 0.0 0.0
14.0702882043176 -41.21101022257214 -8.142268813728949 166.25830903832536 0.0 0.0
-1.0321490880774604 -434.87284215603023 -171.17500016613755 160.88625574774247 0.0 0.0
3.43916877311608 -391.9167954579413 -139.3220943482923 -158.04467256436055 0.0 0.0
-0.9022409888778316 -43.66456758518517 -13.369506763458457 -176.84357470325693 0.0 0.0
45.4163667137912 8.542858355720623 16.187672124987504 -158.67796632528638 0.0 0.0
104.66933236588244 15.057173247750812 35.916294921342825 -154.90581022800728 0.0 0.0
163.71336246205655 3.9077829096068504 50.3787326445414 -164.71111833120932 0.0 0.0
231.30812202473558 -4.334263668200574 69.38819614141417 -175.91459044806723 0.0 0.0
327.05917816964643 -7.586643975944636 104.32344820382028 -178.49189775718594 0.0 0.0
437.62206406455357 -1.5148502220484032 163.40218267912067 -167.66786801979015 0.0 0.0
529.5234093617486 8.729476904690415 229.54622922432208 -157.36539959982025 0.0 0.0
597.9995738746238 19.635299965313894 285.26667069326226 -151.01221402906685 0.0 0.0
650.7286642360693 27.67500401419966 325.5460664464336 -147.23702529076024 0.0 0.0
694.4597509858554 36.0075358519392 356.85876279885895 -143.4736740451562 0.0 0.0
733.9203918234646 44.51579174402212 383.6123473629983 -140.1844326490919 0.0 0.0
770.3140013999168 52.30732231027772 407.26144611833223 -137.17407234900352 0.0 0.0
805.3861069021635 59.41772141708261 429.2377207316908 -133.6656944589129 0.0 0.0
841.0532096465616 67.2133616664237 451.3934442226387 -128.4936274327046 0.0 0.0
876.712978184062 75.2519052968619 473.59012287645044 -121.36933601779735 0.0 0.0
905.953921002686 78.28139107841928 490.1458128471347 -113.11553169323697 0.0 0.0
938.357400643387 82.47513965424449 508.377073506042 -99.61895854842089 0.0 0.0
988.631795321562 101.62297941368801 542.5207581148592 -71.40918021836437 0.0 0.0
988.6317953216856 101.62297941388991 542.520758114918 71.40918021857345 0.0 0.0
938.3574006429394 82.47513965395092 508.377073505702 99.61895854873192 0.0 0.0
905.9539210023031 78.28139107816935 490.1458128467955 113.11553169348147 0.0 0.0
876.7129781843757 75.25190529748969 473.5901228766122 121.36933601819077 0.0 0.0
841.0532096454991 67.21336166543492 451.39344422189504 128.49362743266 0.0 0.0
805.3861069022184 59.41772141722544 429.2377207316528 133.66569445902383 0.0 0.0
770.3140014005829 52.307322311416485 407.2614461188562 137.17407234936152 0.0 0.0
733.9203918229489 44.51579174361814 383.6123473626636 140.1844326490873 0.0 0.0
694.4597509852256 36.00753585142833 356.85876279839084 143.47367404513008 0.0 0.0
650.7286642359753 27.675004014381216 325.54606644635294 147.23702529083153 0.0 0.0
597.9995738744328 19.635299965378096 285.2666706930631 151.0122140290311 0.0 0.0
529.523409361567 8.729476904873522 229.5462292241483 157.36539959984088 0.0 0.0
437.62206406411224 -1.5148502220588504 163.4021826788438 167.66786801983108 0.0 0.0
327.059178169325 -7.586643975600334 104.3234482037627 178.4918977571772 0.0 0.0
231.3081220247373 -4.334263667639832 69.38819614158027 175.91459044795943 0.0 0.0
163.71336246189946 3.907782909488019 50.3787326444634 164.71111833103774 0.0 0.0
104.66933236574273 15.057173247596303 35.91629492125538 154.90581022782402 0.0 0.0
45.416366713726866 8.542858355693937 16.187672124960567 158.67796632503556 0.0 0.0
-0.9022409889388485 -43.6645675851613 -13.369506763469884 176.84357470312554 0.0 0.0
3.4391687731586913 -391.91679545760735 -139.32209434807294 158.04467256426656 0.0 0.0
1.8523960606341134 -345.39602224006956 -112.98593135940311 -153.65369166833182 0.0 0.0
-18.206592403393905 -47.47968005222435 -19.704156582115314 -182.65695366740695 0.0 0.0
11.185099119279922 5.91340284524547 5.129254747500637 -170.86159158974615 0.0 0.0
53.205982861245595 16.01704363507165 20.76579422539474 -167.93359938653487 0.0 0.0
94.79541419310641 7.410301602722944 30.725035420145314 -177.53326669731536 0.0 0.0
139.6470413318974 -0.8431495440448069 42.26856873074716 -192.29306245221568 0.0 0.0
203.65458034909477 -3.0080078652096534 63.023907087463286 -201.80620627315903 0.0 0.0
301.3217610327276 -0.7192830689898155 100.98878503548141 -199.0959036933334 0.0 0.0
407.6574701754471 4.43808129390273 154.78623871412265 -185.9462862018927 0.0 0.0
489.13129215765167 10.768550469061559 209.35893703527816 -172.6457473130199 0.0 0.0
546.6054098272597 17.12438903346996 254.1203048514215 -164.98565062561565 0.0 0.0
589.0845759456022 21.270538440943092 286.98256804864315 -160.0197671809971 0.0 0.0
624.9531810154522 26.425656885493673 313.8534340555819 -156.1146879084379 0.0 0.0
656.1353376812658 30.257741855576214 335.56163487372646 -152.800881276513 0.0 0.0
684.5335772698054 32.13677877495992 353.35485295735543 -149.36269607659224 0.0 0.0
713.3501893273076 33.31471540769532 369.74182879150214 -144.7213048884679 0.0 0.0
745.977897567732 35.6954500206662 387.7736009278607 -137.11197911458993 0.0 0.0
776.1136015785439 35.24255526144515 403.31813835360845 -127.22793642040637 0.0 0.0
792.4255142480763 18.495769639815904 403.7442084530956 -115.62877290019912 0.0 0.0
844.2074966947591 26.825851342434134 432.5750649804108 -91.06411112121934 0.0 0.0
844.2074966952364 26.825851342997225 432.5750649808131 91.06411112140029 0.0 0.0
792.4255142486907 18.495769640686717 403.7442084536211 115.62877290060808 0.0 0.0
776.1136015793426 35.24255526254893 403.3181383541644 127.22793642082604 0.0 0.0
745.9778975680182 35.695450021198354 387.7736009280339 137.11197911476683 0.0 0.0
713.3501893273466 33.31471540771818 369.7418287914654 144.7213048883806 0.0 0.0
684.5335772696823 32.13677877500092 353.35485295735566 149.3626960765617 0.0 0.0
656.1353376802978 30.257741854319505 335.56163487301995 152.80088127627192 0.0 0.0
624.9531810147978 26.42565688476533 313.8534340551139 156.11468790836807 0.0 0.0
589.0845759451649 21.270538440646234 286.98256804831 160.01976718098297 0.0 0.0
546.6054098274758 17.124389034051575 254.12030485153292 164.98565062569259 0.0 0.0
489.1312921571254 10.768550468646694 209.3589370348594 172.64574731290827 0.0 0.0
407.6574701752308 4.438081294132864 154.78623871400455 185.94628620195775 0.0 0.0
301.3217610323378 -0.7192830688924641 100.98878503533672 199.09590369335538 0.0 0.0
203.6545803485796 -3.0080078656723463 63.02390708716438 201.80620627305873 0.0 0.0
139.64704133154123 -0.8431495444983037 42.26856873050214 192.2930624519824 0.0 0.0
94.79541419313377 7.410301602869255 30.725035420200626 177.53326669708173 0.0 0.0
53.20598286117521 16.01704363506698 20.76579422537263 167.93359938635592 0.0 0.0
11.185099119302329 5.913402845340398 5.129254747535959 170.86159158953825 0.0 0.0
-18.206592403447182 -47.479680052197175 -19.704156582123908 182.6569536672268 0.0 0.0
1.8523960606802987 -345.3960222397404 -112.98593135922066 153.65369166811223 0.0 0.0
-5.800323885659878 -296.4365432291785 -92.90951054747862 -145.57454642969978 0.0 0.0
-36.48121264321697 -52.16945220509537 -26.59245121443831 -185.91188508646692 0.0 0.0
-21.236718912696624 4.814590826480129 -4.926485800958126 -178.6927146458839 0.0 0.0
3.2589970312542484 16.774353025090207 6.0093590290401275 -176.5490518355477 0.0 0.0
25.704974907418073 11.150303488576824 11.074942850729006 -185.30183763649168 0.0 0.0
44.960875980330826 3.27284064759198 14.677480237814992 -201.0979925043325 0.0 0.0
67.98846597856253 -0.15665613816188806 21.1910014632844 -215.33860447918937 0.0 0.0
104.26896709172959 0.15308414629838119 33.51605084671259 -221.10368080591587 0.0 0.0
163.0971417812532 3.572672100638316 55.16422778138948 -213.28479053992302 0.0 0.0
233.16056512079064 4.988542636459165 82.5742244616225 -199.8916159626653 0.0 0.0
295.09121536529966 7.849444964329194 113.84158502435568 -186.03024499142865 0.0 0.0
345.5204235879684 8.655536366822211 143.57652752134206 -178.29483002635604 0.0 0.0
385.7386507747617 9.440161480585274 170.53747916973202 -172.53711985748822 0.0 0.0
415.06851164299854 8.799845336022855 192.111492795822 -167.63597738966945 0.0 0.0
439.24847994255 5.696860779983226 209.27838345681053 -163.60750799145978 0.0 0.0
466.3536610044345 -0.1548830805432999 224.713877260599 -159.70780436615968 0.0 0.0
502.2611219832122 -5.996800166576037 242.1925645622892 -153.3927001316688 0.0 0.0
548.9484553845293 -8.230664941473833 265.6107814084482 -142.5277850310739 0.0 0.0
582.0264583050716 -28.786168035792883 274.9362883777105 -127.70159551351803 0.0 0.0
608.6500492104167 -76.526048886908 263.21009971695685 -114.7416708149376 0.0 0.0
608.6500492103058 -76.52604888698775 263.210099716907 114.74167081518546 0.0 0.0
582.0264583050628 -28.786168035707448 274.93628837772565 127.70159551390226 0.0 0.0
548.9484553845364 -8.230664941494638 265.61078140842056 142.52778503130918 0.0 0.0
502.26112198327354 -5.996800166484803 242.19256456233072 153.39270013172677 0.0 0.0
466.3536610042721 -0.15488308072417567 224.7138772604709 159.7078043660827 0.0 0.0
439.2484799418241 5.696860778880961 209.27838345618892 163.60750799138026 0.0 0.0
415.06851164275537 8.799845335593943 192.11149279557114 167.63597738976398 0.0 0.0
385.7386507748052 9.440161480641216 170.53747916969516 172.53711985756604 0.0 0.0
345.5204235880019 8.655536366775621 143.57652752127206 178.29483002633782 0.0 0.0
295.0912153657572 7.849444965224109 113.84158502468917 186.0302449913745 0.0 0.0
233.1605651208499 4.988542637003562 82.57422446176831 199.89161596261965 0.0 0.0
163.0971417813104 3.572672101233863 55.16422778156243 213.28479054001377 0.0 0.0
104.26896709177367 0.1530841465766457 33.51605084679964 221.1036808059818 0.0 0.0
67.98846597873316 -0.15665613766992603 21.19100146348223 215.3386044789928 0.0 0.0
44.96087598052139 3.2728406480803702 14.677480238017292 201.09799250413928 0.0 0.0
25.704974907521724 11.150303488744777 11.074942850811285 185.30183763628474 0.0 0.0
3.258997031148059 16.774353024870415 6.009359028942834 176.54905183528612 0.0 0.0
-21.236718912713464 4.8145908263742845 -4.926485800995039 178.69271464569312 0.0 0.0
-36.48121264326349 -52.16945220518155 -26.592451214479087 185.91188508635116 0.0 0.0
-5.800323885712215 -296.43654322886573 -92.90951054738512 145.57454642954326 0.0 0.0
-17.366133113613216 -248.4261290026833 -79.7811499046226 -134.47926824100406 0.0 0.0
-52.433189493097295 -54.19419310513418 -31.986833357836208 -185.85532699321263 0.0 0.0
-52.2525967779344 3.941682045434852 -14.495616164950029 -182.57934388278193 0.0 0.0
-45.14068458781715 17.42057149631987 -8.32274472448764 -180.47361570346584 0.0 0.0
-42.69467505653025 14.631131727939389 -8.444242528238256 -187.53506493031364 0.0 0.0
-50.39809055300227 7.690877096802808 -13.033324285691762 -202.04825902001608 0.0 0.0
-69.64282634902733 2.6817816586735423 -20.946752581393 -215.50298457938743 0.0 0.0
-104.57150144187399 0.2522748711280478 -33.491702264653576 -221.2356496820663 0.0 0.0
-162.8562378926427 -3.4931833179155145 -55.061533793148044 -213.32874363388794 0.0 0.0
-232.92429625054498 -4.947931734750348 -82.48778627392909 -199.86598146183803 0.0 0.0
-295.30042238567705 -7.1087025287585845 -113.49662746348211 -185.95440856248922 0.0 0.0
-346.73150619657247 -7.232771065617911 -143.5699158240863 -177.9064737354269 0.0 0.0
-389.3163771717511 -8.26515012055016 -171.61562253997695 -171.97709134182247 0.0 0.0
-421.2747928286793 -11.838048745160165 -196.10970291489048 -167.49899102220968 0.0 0.0
-443.7251992988192 -19.212538433653066 -217.60671740877655 -165.44911996302872 0.0 0.0
-455.7114141678594 -30.172479233248737 -235.61293493628997 -165.81421939603672 0.0 0.0
-447.3798754697284 -42.95626138084964 -245.93105933532172 -167.07062771439047 0.0 0.0
-389.5396761683237 -40.6507358822451 -234.1115700389851 -167.6935620217247 0.0 0.0
-208.68276667228366 -34.13169240129989 -166.239464412315 -169.90565835990196 0.0 0.0
10.586505842623978 -173.21807336412098 -65.78832428011484 -144.95955790431861 0.0 0.0
10.586505843117834 -173.21807336320168 -65.78832427969803 144.9595579047685 0.0 0.0
-208.68276667246386 -34.13169240141289 -166.239464412354 169.9056583603542 0.0 0.0
-389.5396761686561 -40.65073588292884 -234.11157003925948 167.69356202204378 0.0 0.0
-447.3798754704135 -42.956261381960076 -245.93105933582137 167.07062771444993 0.0 0.0
-455.7114141683336 -30.172479234290478 -235.6129349366694 165.81421939610306 0.0 0.0
-443.72519929823335 -19.21253843333953 -217.60671740845459 165.44911996306655 0.0 0.0
-421.27479282864624 -11.838048745379965 -196.10970291481502 167.4989910222121 0.0 0.0
-389.31637717243905 -8.265150122412848 -171.61562254061155 171.97709134200292 0.0 0.0
-346.73150619575426 -7.232771065687643 -143.56991582373178 177.90647373547074 0.0 0.0
-295.3004223850453 -7.108702528723711 -113.49662746313597 185.95440856245787 0.0 0.0
-232.9242962502533 -4.947931735569007 -82.48778627404047 199.86598146184983 0.0 0.0
-162.85623789187238 -3.4931833172219076 -55.06153379268993 213.32874363394657 0.0 0.0
-104.57150144162135 0.2522748709007061 -33.49170226463726 221.2356496820836 0.0 0.0
-69.64282634895287 2.6817816584365053 -20.94675258143164 215.50298457921542 0.0 0.0
-50.39809055280251 7.690877096921476 -13.03332428559387 202.04825901980854 0.0 0.0
-42.69467505643304 14.631131727853445 -8.444242528235637 187.53506493010303 0.0 0.0
-45.14068458777174 17.42057149635051 -8.32274472446655 180.47361570331623 0.0 0.0
-52.252596777884555 3.9416820454934562 -14.495616164919689 182.57934388270445 0.0 0.0
-52.43318949301974 -54.19419310506533 -31.986833357795266 185.85532699308186 0.0 0.0
-17.366133113672515 -248.42612900242935 -79.78114990457615 134.47926824087344 0.0 0.0
-24.50500680497055 -202.64990420412954 -68.14647330273002 -121.50401117594143 0.0 0.0
-65.60397273020291 -53.20870639348664 -35.64247675395232 -181.92522302556117 0.0 0.0
-81.60092110711925 3.077777820307666 -23.562454555826655 -182.4162679783508 0.0 0.0
-92.0284366778666 17.7914912271507 -22.272020024936978 -179.88523281416724 0.0 0.0
-109.65939995295334 17.399904455621808 -27.80638367906933 -183.93293280507226 0.0 0.0
-144.01373104842622 11.278351182581968 -40.597967908906874 -194.6096345173401 0.0 0.0
-205.00169870611785 5.456797391356586 -62.74858346234279 -202.79319219056387 0.0 0.0
-301.2560099566848 1.0323680343524302 -100.92767907432969 -199.3788478357406 0.0 0.0
-407.3723830224727 -4.406972766451382 -154.670758074199 -186.03627555068454 0.0 0.0
-488.94539304239606 -10.618568815522785 -209.2099342577306 -172.59387184507247 0.0 0.0
-546.2645507310435 -16.467239474147085 -253.7222404310602 -164.80097089898632 0.0 0.0
-588.9017335400066 -19.999117622756195 -286.40178964052416 -159.44522011753986 0.0 0.0
-625.8536161281679 -25.405968105517175 -313.80081631357984 -155.05319548640637 0.0 0.0
-659.9027170191731 -32.80737780308486 -338.4199792363129 -152.15655493403034 0.0 0.0
-692.354072900137 -43.74051419795218 -362.503535606635 -151.6023035070405 0.0 0.0
-722.2329635994961 -58.58619695190416 -386.37968843237906 -153.89296140260615 0.0 0.0
-745.1668039551794 -75.13053491366017 -407.54362317436573 -159.4394082114507 0.0 0.0
-756.1015683849507 -89.87815734274429 -421.9708502038385 -168.1680246319422 0.0 0.0
-792.6848521837214 -144.57689402046537 -468.31057091040134 -177.19538029723847 0.0 0.0
-781.9628345368374 -222.22815202602132 -502.4867962212586 -194.09107740591304 0.0 0.0
-781.9628345378335 -222.22815202733085 -502.486796222057 194.09107740629383 0.0 0.0
-792.6848521841054 -144.57689402112194 -468.31057091075576 177.195380297555 0.0 0.0
-756.1015683854112 -89.87815734350465 -421.9708502041926 168.16802463225946 0.0 0.0
-745.166803954565 -75.13053491334693 -407.54362317404025 159.43940821159555 0.0 0.0
-722.2329635989839 -58.586196951246194 -386.3796884319835 153.89296140242897 0.0 0.0
-692.3540728996252 -43.74051419761352 -362.5035356063014 151.60230350706422 0.0 0.0
-659.9027170184129 -32.80737780230922 -338.41997923580027 152.15655493391958 0.0 0.0
-625.8536161272541 -25.405968104784677 -313.80081631303193 155.05319548642686 0.0 0.0
-588.9017335391677 -19.999117622136986 -286.4017896399339 159.44522011757857 0.0 0.0
-546.2645507304362 -16.467239473895262 -253.72224043065 164.80097089893758 0.0 0.0
-488.9453930416871 -10.618568814989885 -209.2099342571546 172.59387184495466 0.0 0.0
-407.3723830220063 -4.4069727666320055 -154.67075807395057 186.03627555083239 0.0 0.0
-301.2560099561518 1.0323680343645725 -100.92767907409774 199.3788478357614 0.0 0.0
-205.0016987056913 5.456797391323123 -62.74858346220851 202.79319219044626 0.0 0.0
-144.0137310480116 11.278351182725686 -40.597967908736635 194.60963451717362 0.0 0.0
-109.65939995270287 17.399904455837493 -27.806383678931777 183.9329328048948 0.0 0.0
-92.02843667779544 17.79149122717132 -22.272020024910795 179.88523281390158 0.0 0.0
-81.60092110705175 3.077777820291285 -23.562454555815325 182.41626797809832 0.0 0.0
-65.60397273014003 -53.20870639346048 -35.64247675393037 181.92522302535195 0.0 0.0
-24.50500680495046 -202.6499042039261 -68.14647330266295 121.50401117574927 0.0 0.0
-26.790370346677282 -159.97670695486187 -56.03012319046173 -107.60047989374695 0.0 0.0
-76.49701460853791 -49.75524568823519 -37.874493480254316 -173.92949518314546 0.0 0.0
-109.16882821041996 2.3383379282799432 -32.044969335339545 -178.09460885724798 0.0 0.0
-137.13576516891646 17.725675641133943 -35.829618961985766 -174.50369867028957 0.0 0.0
-174.85533639309654 18.82947964735069 -47.09435407442208 -174.96184903161463 0.0 0.0
-234.08457450711109 13.87601575876787 -67.64613830482594 -179.66797985798027 0.0 0.0
-326.9982681104985 9.71486947019783 -103.9200501823815 -179.63755178449713 0.0 0.0
-437.072284902124 1.7454880828825274 -163.18222968566488 -168.12663622047904 0.0 0.0
-529.3587098273632 -8.713440617151548 -229.45339775912493 -157.3772539360794 0.0 0.0
-597.8882872398764 -19.522332019841834 -285.1788104514878 -150.96363502115975 0.0 0.0
-650.4749487641847 -27.20336114636379 -325.24412492560896 -147.08077864355437 0.0 0.0
-694.1831809127068 -34.98003371310047 -356.2674504854883 -142.83981310695066 0.0 0.0
-734.3156937339976 -43.52000352257639 -383.27840175560306 -138.833444351709 0.0 0.0
-773.0525491544781 -53.959159174254566 -409.2500887041508 -135.90222299080548 0.0 0.0
-812.2196730172398 -68.34576194482385 -436.75748247931836 -135.26357171230572 0.0 0.0
-850.7657655196172 -87.31404736025189 -466.0115663428286 -138.0359298245032 0.0 0.0
-885.7644829261205 -108.88062726596795 -494.82626706763443 -144.3602684574344 0.0 0.0
-925.339440101534 -142.48921777009198 -531.9292756454796 -151.40704057593172 0.0 0.0
-968.4044994558706 -191.95980396157012 -578.7850299210234 -158.1481041867389 0.0 0.0
-1051.2345265012425 -317.793333612072 -681.4018051937538 -168.7787567197462 0.0 0.0
-1051.2345265009203 -317.79333361183757 -681.4018051935831 168.7787567199221 0.0 0.0
-968.4044994551778 -191.95980396099904 -578.7850299205796 158.14810418699534 0.0 0.0
-925.339440100581 -142.48921776921932 -531.9292756448742 151.4070405760027 0.0 0.0
-885.7644829256456 -108.88062726557186 -494.82626706722965 144.36026845754225 0.0 0.0
-850.7657655199351 -87.31404736075382 -466.0115663430234 138.0359298245231 0.0 0.0
-812.2196730170454 -68.34576194469636 -436.75748247918625 135.263571712268 0.0 0.0
-773.0525491544773 -53.95915917447735 -409.2500887041795 135.90222299088703 0.0 0.0
-734.3156937344102 -43.52000352324334 -383.2784017558812 138.8334443518309 0.0 0.0
-694.1831809132194 -34.980033714145236 -356.2674504859235 142.83981310715023 0.0 0.0
-650.4749487642009 -27.203361146621383 -325.24412492556917 147.08077864353288 0.0 0.0
-597.8882872402329 -19.52233202071627 -285.1788104517069 150.9636350212317 0.0 0.0
-529.3587098270935 -8.7134406172943 -229.45339775889113 157.3772539360969 0.0 0.0
-437.0722849015564 1.7454880830664394 -163.18222968527846 168.12663622049146 0.0 0.0
-326.99826810977675 9.714869470432767 -103.92005018202678 179.637551784421 0.0 0.0
-234.08457450654532 13.87601575896587 -67.64613830459051 179.66797985771524 0.0 0.0
-174.85533639304708 18.829479647094434 -47.09435407448589 174.96184903141375 0.0 0.0
-137.13576516876603 17.725675641082436 -35.82961896195976 174.50369867017105 0.0 0.0
-109.16882821032121 2.338337928301928 -32.04496933530764 178.09460885714006 0.0 0.0
-76.49701460848064 -49.755245688302864 -37.87449348025778 173.92949518308953 0.0 0.0
-26.79037034665466 -159.976706954681 -56.03012319040069 107.60047989369785 0.0 0.0
-27.709974551300448 -121.21399016263385 -44.67718941418028 -93.32512542909967 0.0 0.0
-85.79759899970736 -44.17728594805577 -38.99246548432893 -161.80436990945392 0.0 0.0
-134.92831137469588 1.7319187292124587 -39.95612586120831 -169.4278749229489 0.0 0.0
-180.46711010785202 16.785939272129777 -49.13105801590255 -164.57171175201003 0.0 0.0
-237.10941671862813 19.029284745168155 -65.86574535343935 -160.6711211278264 0.0 0.0
-317.86977005507896 17.226666630026156 -94.07369376921925 -159.182141712895 0.0 0.0
-424.84864504387417 11.762199687838166 -145.66996499726434 -150.1078251035886 0.0 0.0
-525.5998874812192 -0.5437850410309366 -217.1114127563792 -139.05119301595994 0.0 0.0
-605.5236787904188 -14.207056754920352 -283.6420135674316 -134.44376326627915 0.0 0.0
-668.3949921320774 -27.025993040952713 -334.04510856553475 -132.2488049615988 0.0 0.0
-720.2548980131544 -37.9525683156577 -371.31155729002677 -129.76253379368129 0.0 0.0
-767.6569560478495 -49.59020482882933 -403.4848962134047 -126.23518088192968 0.0 0.0
-811.8476582344897 -61.52211339561646 -432.81565659884455 -122.44169426805205 0.0 0.0
-854.8829519711828 -75.22122592876603 -461.85256540452866 -119.34961367135273 0.0 0.0
-898.6128898972586 -92.4693034912281 -492.6722409113953 -118.49143518122435 0.0 0.0
-944.5643110593358 -116.0131816987299 -527.6323335888588 -121.25631421330513 0.0 0.0
-993.7715041820451 -148.17521793496115 -568.544508096159 -127.01650396642945 0.0 0.0
-1047.5422795702764 -191.73226563859112 -617.5231897352056 -133.0397643940445 0.0 0.0
-1115.1687097588785 -260.27137309624374 -685.5637649101421 -136.33433945812033 0.0 0.0
-1205.5419342456964 -383.25974311693335 -791.5612072872074 -142.88780802902377 0.0 0.0
-1205.5419342455284 -383.25974311677766 -791.5612072871435 142.88780802912922 0.0 0.0
-1115.16870975939 -260.2713730970082 -685.5637649105458 136.33433945847338 0.0 0.0
-1047.5422795698819 -191.73226563845054 -617.5231897348483 133.0397643944287 0.0 0.0
-993.7715041817913 -148.17521793490667 -568.5445080959862 127.01650396661472 0.0 0.0
-944.5643110583246 -116.0131816978428 -527.6323335881773 121.25631421334816 0.0 0.0
-898.6128898962099 -92.46930349014339 -492.67224091060507 118.49143518103742 0.0 0.0
-854.8829519712496 -75.22122592913213 -461.8525654045069 119.34961367157615 0.0 0.0
-811.8476582335329 -61.522113394853726 -432.81565659821644 122.44169426807994 0.0 0.0
-767.6569560471298 -49.590204828252396 -403.48489621289616 126.23518088187613 0.0 0.0
-720.2548980127484 -37.95256831553405 -371.31155728972226 129.7625337937151 0.0 0.0
-668.3949921312616 -27.02599304029443 -334.0451085649613 132.24880496141515 0.0 0.0
-605.5236787897314 -14.207056754421583 -283.6420135668557 134.44376326614366 0.0 0.0
-525.5998874809086 -0.5437850412051022 -217.11141275609208 139.05119301604822 0.0 0.0
-424.8486450434443 11.762199687593476 -145.6699649970539 150.10782510368998 0.0 0.0
-317.8697700547277 17.226666629859295 -94.07369376913314 159.18214171273652 0.0 0.0
-237.1094167182437 19.02928474548284 -65.86574535322941 160.67112112763283 0.0 0.0
-180.4671101075475 16.78593927224717 -49.13105801578327 164.5717117518417 0.0 0.0
-134.92831137460155 1.7319187292734934 -39.956125861162455 169.42787492281155 0.0 0.0
-85.79759899964918 -44.17728594814063 -38.99246548433694 161.80436990930235 0.0 0.0
-27.70997455130011 -121.21399016255478 -44.67718941415646 93.32512542895448 0.0 0.0
-28.404286149677695 -86.89983057601106 -34.59123501770662 -78.73435750524673 0.0 0.0
-94.24922213896137 -37.110028066433166 -39.40777506161836 -145.94598333443514 0.0 0.0
-159.09571165938064 1.3933092756181384 -47.3094884591141 -156.4185968746085 0.0 0.0
-222.20546064404897 14.988925375922065 -62.15229880221953 -150.1947104337239 0.0 0.0
-296.37233294134825 19.218760816485194 -83.82706304720143 -142.53751718756186 0.0 0.0
-393.0115081225855 19.45309195017907 -121.51713595825171 -133.352201589538 0.0 0.0
-498.4068059537133 10.885695311002266 -186.31169156414433 -120.41812131009088 0.0 0.0
-588.0003047747434 -3.5536692240113226 -261.1006864463822 -114.37904354479284 0.0 0.0
-660.2770588310276 -19.009537803828948 -322.5541071697866 -114.05870019168859 0.0 0.0
-720.9956997714808 -33.53916371611387 -368.5288793465529 -113.8704934732738 0.0 0.0
-775.7173804854585 -48.3737116320451 -406.68918180875255 -112.18912685655239 0.0 0.0
-826.8865572474604 -63.904704933928514 -441.5071884736892 -109.1361898739217 0.0 0.0
-875.32557354452 -79.82565307312258 -474.45045768992276 -105.68602582024374 0.0 0.0
-922.2222564485326 -96.46616054155633 -506.66352819240444 -102.65139440400604 0.0 0.0
-970.4071762187702 -116.58449426515364 -541.012143609157 -101.41476657354212 0.0 0.0
-1023.7071230005779 -145.71634283546763 -582.2753539192454 -103.41293468779268 0.0 0.0
-1085.3324099339388 -187.48463942510767 -634.0638416935085 -108.4806075401701 0.0 0.0
-1156.0184118463158 -245.44568879940496 -698.4846085033441 -113.37462217654134 0.0 0.0
-1236.99389321238 -326.2184634494538 -779.3280417112937 -115.82360230767702 0.0 0.0
-1320.0142913028526 -439.48138045304415 -877.2905720574963 -123.97443803801336 0.0 0.0
-1320.0142913027678 -439.48138045308536 -877.2905720575206 123.97443803821531 0.0 0.0
-1236.9938932117032 -326.21846344883 -779.3280417108544 115.82360230779312 0.0 0.0
-1156.0184118450754 -245.44568879828623 -698.4846085025308 113.37462217672328 0.0 0.0
-1085.3324099334588 -187.48463942468348 -634.0638416931126 108.48060754014608 0.0 0.0
-1023.7071230018519 -145.71634283693376 -582.2753539200903 103.4129346879462 0.0 0.0
-970.40717621873 -116.58449426524994 -541.0121436091167 101.4147665734636 0.0 0.0
-922.2222564470425 -96.46616054006236 -506.6635281913738 102.65139440379008 0.0 0.0
-875.3255735447368 -79.82565307356617 -474.4504576900155 105.68602582034381 0.0 0.0
-826.8865572475983 -63.904704934383034 -441.5071884737799 109.13618987408144 0.0 0.0
-775.7173804853448 -48.37371163221553 -406.6891818087303 112.18912685658168 0.0 0.0
-720.9956997717469 -33.53916371667946 -368.52887934669195 113.87049347327397 0.0 0.0
-660.2770588310455 -19.00953780417589 -322.5541071697841 114.0587001916694 0.0 0.0
-588.0003047741848 -3.5536692236906955 -261.10068644590217 114.37904354466846 0.0 0.0
-498.4068059527155 10.885695311758068 -186.31169156342094 120.41812130999773 0.0 0.0
-393.01150812214127 19.453091950176326 -121.51713595804094 133.35220158946183 0.0 0.0
-296.3723329411564 19.2187608161897 -83.82706304723658 142.53751718743152 0.0 0.0
-222.20546064385948 14.988925375907208 -62.152298802172105 150.19471043357782 0.0 0.0
-159.09571165924757 1.3933092756723378 -47.3094884590585 156.41859687447845 0.0 0.0
-94.24922213884126 -37.110028066345095 -39.4077750615559 145.94598333442445 0.0 0.0
-28.404286149653146 -86.89983057596088 -34.5912350176842 78.73435750525101 0.0 0.0
-29.12388149916694 -57.50666151209499 -25.989162903378578 -63.729407035231986 0.0 0.0
-102.09010324393601 -29.120173467906692 -39.3630830135528 -126.77679348458726 0.0 0.0
-181.920640480318 1.1939815122862454 -54.215810584589036 -139.16888474699218 0.0 0.0
-261.5210076155686 12.281018708917419 -74.79954785736908 -131.4224625214012 0.0 0.0
-351.00891174144135 19.909016699674915 -101.25718408823585 -120.4678737652673 0.0 0.0
-456.74559909898414 19.38017403492553 -150.31542904099902 -105.2641004673192 0.0 0.0
-554.1275609100574 9.112458880002912 -223.33509857080168 -93.85179162572368 0.0 0.0
-634.0042326531783 -6.779914062594308 -295.616872356863 -92.45482255979213 0.0 0.0
-702.1680114520959 -22.51719953363505 -350.80828519354463 -94.38398433446301 0.0 0.0
-764.2466350953564 -39.82022076075934 -395.8201919279111 -95.12879731236546 0.0 0.0
-822.4420528945453 -58.52676669561737 -436.30734672668575 -93.97109888386063 0.0 0.0
-877.60470777626 -78.09841692912497 -474.5970450767339 -91.44328180411563 0.0 0.0
-930.5239735208748 -98.08247635966414 -511.59677885743787 -88.57984595933715 0.0 0.0
-981.394627127565 -118.3778376437254 -547.5340497716899 -85.74218932496656 0.0 0.0
-1033.3986916874078 -141.34995479021524 -585.1644996216187 -83.93353286293114 0.0 0.0
-1093.562425393218 -175.07746349997018 -632.066380474785 -84.80146271859617 0.0 0.0
-1166.5278933494615 -226.81236658463263 -694.3655399103209 -88.6910925795714 0.0 0.0
-1251.9838368204014 -298.5518733658489 -772.979965957728 -93.363440200321 0.0 0.0
-1340.9152660491736 -387.31359727143695 -861.8691398463707 -97.61675798059345 0.0 0.0
-1419.4207484597368 -494.60372560362384 -954.8543978047629 -109.67497390608835 0.0 0.0
-1419.4207484595372 -494.6037256035029 -954.8543978046655 109.6749739062561 0.0 0.0
-1340.915266048565 -387.31359727092223 -861.8691398459714 97.61675798079114 0.0 0.0
-1251.983836819918 -298.55187336548016 -772.9799659574287 93.36344020045414 0.0 0.0
-1166.5278933485943 -226.81236658382244 -694.3655399097156 88.69109257954742 0.0 0.0
-1093.5624253915134 -175.0774634983266 -632.0663804734984 84.80146271852729 0.0 0.0
-1033.398691686597 -141.34995478955278 -585.1644996210135 83.9335328630122 0.0 0.0
-981.3946271266275 -118.3778376428686 -547.5340497710538 85.74218932478058 0.0 0.0
-930.5239735193945 -98.08247635825526 -511.5967788564546 88.57984595916464 0.0 0.0
-877.604707776003 -78.09841692914077 -474.5970450765612 91.44328180424779 0.0 0.0
-822.4420528946844 -58.5267666960086 -436.3073467267528 93.97109888384014 0.0 0.0
-764.2466350954335 -39.82022076107671 -395.8201919279036 95.12879731228587 0.0 0.0
-702.1680114520157 -22.517199533860122 -350.8082851934153 94.38398433445475 0.0 0.0
-634.0042326526856 -6.779914062413955 -295.6168723564522 92.4548225597742 0.0 0.0
-554.1275609092828 9.11245888052563 -223.33509857018035 93.85179162560945 0.0 0.0
-456.74559909835136 19.380174035196077 -150.31542904059762 105.26410046727118 0.0 0.0
-351.00891174113855 19.909016699546196 -101.25718408818446 120.46787376518557 0.0 0.0
-261.52100761538185 12.281018708752098 -74.79954785737308 131.42246252130494 0.0 0.0
-181.9206404801921 1.1939815122383748 -54.21581058456647 139.16888474697237 0.0 0.0
-102.09010324377908 -29.12017346788214 -39.36308301349837 126.77679348451038 0.0 0.0
-29.12388149916721 -57.506661512049355 -25.989162903364967 63.7294070351231 0.0 0.0
-29.652947054802837 -33.469973353031364 -18.936876122350256 -48.24410241384734 0.0 0.0
-109.07130534799592 -20.732811659914283 -38.94123510237306 -104.65925997456806 0.0 0.0
-203.5433914474732 0.9938475263123863 -60.76486317634823 -117.67288895583658 0.0 0.0
-299.55714774557134 9.308427945270337 -87.12676944432906 -109.04216047904114 0.0 0.0
-403.74428057064915 20.29805737749223 -119.41219889883816 -94.91505884750096 0.0 0.0
-507.89599769276106 18.24718108204341 -179.0161877735519 -77.58092672446361 0.0 0.0
-594.2317653370801 5.863640020139229 -255.46454517855472 -70.35474288517301 0.0 0.0
-668.815214769801 -8.384764326946936 -321.02972881993907 -71.98087696708191 0.0 0.0
-736.7981355605414 -25.639197369397365 -373.0061337579839 -74.5952985665456 0.0 0.0
-801.1309121615584 -46.07845622860984 -418.7817951862738 -75.77027907509574 0.0 0.0
-862.7257588538159 -68.36038595002238 -462.03840361548737 -75.07243728622575 0.0 0.0
-922.2056163623366 -92.01914492717928 -504.2655126159427 -73.14608077247007 0.0 0.0
-979.6056025724772 -116.32028731212392 -545.5312455375317 -70.90223922404374 0.0 0.0
-1035.7413543025166 -141.17249255321838 -586.321395265057 -68.59583425086227 0.0 0.0
-1091.9542192596803 -167.63637727816814 -627.8049120223477 -66.33479243836173 0.0 0.0
-1155.321759680181 -203.98159422107167 -677.5736516260561 -65.48877724956088 0.0 0.0
-1237.649519134643 -263.43667493107165 -748.2827091902976 -68.01625655752238 0.0 0.0
-1335.9817184660446 -347.10067546559895 -839.2596476487876 -73.38653082721606 0.0 0.0
-1434.7666619549236 -445.6851369409669 -938.0422096122124 -81.04314266127821 0.0 0.0
-1513.7591268777214 -552.4437335202269 -1031.1536518606663 -97.9544943250206 0.0 0.0
-1513.7591268774809 -552.4437335200142 -1031.1536518604753 97.9544943250966 0.0 0.0
-1434.7666619551856 -445.6851369413166 -938.0422096123481 81.04314266144118 0.0 0.0
-1335.9817184656742 -347.10067546531053 -839.2596476484534 73.38653082729591 0.0 0.0
-1237.6495191341414 -263.43667493066204 -748.2827091898522 68.01625655752656 0.0 0.0
-1155.3217596792542 -203.98159422022803 -677.5736516253597 65.48877724953309 0.0 0.0
-1091.9542192601834 -167.63637727883028 -627.8049120225854 66.3347924384045 0.0 0.0
-1035.7413543033213 -141.17249255423098 -586.32139526553 68.59583425098359 0.0 0.0
-979.6056025717296 -116.32028731156348 -545.5312455369591 70.90223922405147 0.0 0.0
-922.2056163621984 -92.01914492725228 -504.2655126157838 73.14608077247132 0.0 0.0
-862.7257588532814 -68.36038594971097 -462.03840361512493 75.07243728615826 0.0 0.0
-801.1309121613601 -46.07845622864053 -418.78179518610204 75.77027907502787 0.0 0.0
-736.798135560337 -25.63919736948697 -373.0061337578357 74.59529856653693 0.0 0.0
-668.8152147698065 -8.38476432727607 -321.0297288198702 71.9808769670907 0.0 0.0
-594.2317653365892 5.863640020325722 -255.46454517812126 70.35474288509343 0.0 0.0
-507.89599769219797 18.24718108228319 -179.01618777311947 77.58092672432755 0.0 0.0
-403.74428057031196 20.29805737743719 -119.41219889872468 94.9150588474197 0.0 0.0
-299.55714774546664 9.308427944939535 -87.12676944440476 109.04216047894289 0.0 0.0
-203.54339144741203 0.9938475260457711 -60.764863176409875 117.67288895572557 0.0 0.0
-109.0713053477995 -20.7328116597691 -38.941235102270575 104.65925997443995 0.0 0.0
-29.652947054777407 -33.46997335297205 -18.936876122324836 48.24410241376621 0.0 0.0
-29.3534602403182 -15.206635607689856 -13.368028754402415 -32.40510474903454 0.0 0.0
-114.31409443669133 -12.37935929357391 -38.00803611907957 -79.79170813387631 0.0 0.0
-224.25710453608824 0.41790128929363224 -67.15176097403838 -91.84928213656907 0.0 0.0
-337.0850159267384 7.468014250554807 -98.97311257530603 -83.19459269279187 0.0 0.0
-451.0917453081189 20.103194830442852 -138.68142999260704 -66.90234744663445 0.0 0.0
-548.2179619274591 15.123748651655866 -207.63350332218246 -52.43365336919642 0.0 0.0
-626.3886793072107 3.534258974439382 -281.9219790607289 -49.36168510269744 0.0 0.0
-697.1884947503113 -9.493753780067976 -340.65783825855164 -51.65725346393317 0.0 0.0
-765.8979835440692 -28.842560022167305 -391.18873975054805 -54.41263773127787 0.0 0.0
-832.8037124852729 -52.132840340770386 -438.4982788749393 -55.774938069333416 0.0 0.0
-898.1229816257012 -77.97911754105345 -484.9850701984325 -55.49078146897998 0.0 0.0
-961.7106273486396 -105.60181938896802 -531.0982519458383 -54.1624021132016 0.0 0.0
-1024.2099299664874 -134.3249343322726 -577.0425048322465 -52.63207870136802 0.0 0.0
-1085.8221734553258 -164.59387342377374 -623.2145581353534 -50.92384895121534 0.0 0.0
-1147.6128369647945 -196.47249141901847 -670.195226462677 -48.70320248231384 0.0 0.0
-1213.434514686408 -234.3712418999003 -722.0303079750531 -46.3573708291648 0.0 0.0
-1295.1038654844156 -292.2589788588598 -791.5374816694223 -46.77145066092588 0.0 0.0
-1407.147577104187 -388.54164869820534 -895.5426204555113 -52.84041398756848 0.0 0.0
-1521.6832309534961 -501.91035057354026 -1009.6697502305278 -64.9296961965186 0.0 0.0
-1611.436794327416 -617.5676712434063 -1112.707579702045 -87.51060379767176 0.0 0.0
-1611.4367943272516 -617.5676712432835 -1112.7075797018838 87.51060379775564 0.0 0.0
-1521.6832309531974 -501.9103505733119 -1009.6697502302668 64.92969619663596 0.0 0.0
-1407.1475771036135 -388.54164869769045 -895.5426204550439 52.84041398755814 0.0 0.0
-1295.103865484075 -292.258978858619 -791.5374816690944 46.771450660970785 0.0 0.0
-1213.4345146854937 -234.37124189908423 -722.0303079743851 46.35737082910875 0.0 0.0
-1147.6128369639077 -196.4724914182372 -670.1952264619292 48.703202482243405 0.0 0.0
-1085.8221734547528 -164.5938734233708 -623.2145581348318 50.923848951264446 0.0 0.0
-1024.20992996677 -134.3249343327618 -577.0425048323852 52.632078701426444 0.0 0.0
-961.7106273485977 -105.60181938915049 -531.0982519458166 54.16240211321971 0.0 0.0
-898.1229816253947 -77.9791175409707 -484.98507019817947 55.4907814689214 0.0 0.0
-832.8037124846242 -52.132840340360005 -438.49827887452636 55.77493806927984 0.0 0.0
-765.8979835437448 -28.842560022109033 -391.1887397503085 54.412637731236075 0.0 0.0
-697.1884947504566 -9.493753780559466 -340.6578382585708 51.65725346400647 0.0 0.0
-626.3886793071167 3.5342589741670203 -281.9219790605335 49.36168510271454 0.0 0.0
-548.217961927214 15.123748651530665 -207.63350332191504 52.43365336912656 0.0 0.0
-451.09174530798066 20.103194830107228 -138.6814299925815 66.90234744661367 0.0 0.0
-337.08501592653744 7.468014250440652 -98.97311257529225 83.19459269269545 0.0 0.0
-224.25710453584134 0.41790128928963766 -67.15176097396551 91.84928213655625 0.0 0.0
-114.31409443657057 -12.379359293503853 -38.008036119022314 79.79170813381654 0.0 0.0
-29.353460240280967 -15.206635607672373 -13.368028754386001 32.40510474901532 0.0 0.0
-26.948643619140814 -3.061123278212138 -9.002930069205885 -16.72834835257973 0.0 0.0
-116.13266827330483 -4.620402507410988 -36.22592123421474 -52.1402967510785 0.0 0.0
-244.3451803313593 -0.5900763569667618 -73.48057700649781 -61.18048944586887 0.0 0.0
-376.2163964361299 7.068547542452767 -110.95836052908763 -54.022959621138455 0.0 0.0
-490.84783153516736 19.745742065649736 -158.84524824659292 -39.1893280392201 0.0 0.0
-577.3253410626739 10.412040487170934 -234.4884000732646 -29.779527122919006 0.0 0.0
-651.3094038886188 2.8867700121333115 -301.8947774167839 -29.438909034361874 0.0 0.0
-720.822794713665 -11.212955039361034 -356.6538871718668 -31.44992400599469 0.0 0.0
-790.2239538869064 -31.90655743666126 -406.1832098275364 -33.773703661993984 0.0 0.0
-859.9381068844671 -57.95422673369336 -455.5435903282922 -35.09447892761372 0.0 0.0
-929.1398148125666 -87.40818114677379 -505.5339427341561 -35.195253263632736 0.0 0.0
-997.3267811134767 -118.80436753518421 -555.7323449987394 -34.52317874904794 0.0 0.0
-1064.624430136026 -152.34842847277542 -606.423362598891 -33.6022788823228 0.0 0.0
-1132.3222126816172 -188.06204288612213 -658.3059408260691 -32.5680655694912 0.0 0.0
-1201.1325172667553 -226.6680057306245 -712.1341906264329 -30.96883658980744 0.0 0.0
-1271.1174009842878 -268.8421765976235 -768.2652208151956 -28.26231541844356 0.0 0.0
-1346.5439517415962 -320.2172023419005 -831.5029684127877 -26.08854560904504 0.0 0.0
-1446.3163616993234 -402.81315559681013 -922.284661246669 -30.60708097960965 0.0 0.0
-1607.3581483767575 -560.0649407425578 -1081.5054576906423 -47.252825956805715 0.0 0.0
-1722.3012805830977 -697.9388283388636 -1208.4671435435148 -77.39364385614954 0.0 0.0
-1722.301280583341 -697.9388283391378 -1208.46714354375 77.39364385620465 0.0 0.0
-1607.358148376402 -560.0649407422666 -1081.5054576904067 47.25282595698565 0.0 0.0
-1446.3163616993866 -402.81315559694497 -922.2846612467321 30.60708097960267 0.0 0.0
-1346.5439517411232 -320.21720234151843 -831.5029684124448 26.088545609060127 0.0 0.0
-1271.1174009850392 -268.8421765985064 -768.2652208156915 28.262315418444835 0.0 0.0
-1201.1325172678312 -226.66800573183738 -712.1341906272283 30.968836589812497 0.0 0.0
-1132.3222126816595 -188.06204288633316 -658.3059408260685 32.56806556952309 0.0 0.0
-1064.6244301353233 -152.34842847225838 -606.4233625983765 33.602278882353886 0.0 0.0
-997.3267811130829 -118.80436753501098 -555.7323449984326 34.52317874910266 0.0 0.0
-929.139814812319 -87.40818114676912 -505.5339427339383 35.19525326362648 0.0 0.0
-859.9381068841408 -57.95422673361571 -455.5435903280346 35.09447892757888 0.0 0.0
-790.2239538865506 -31.90655743657429 -406.1832098272523 33.773703662004536 0.0 0.0
-720.8227947134434 -11.212955039451366 -356.6538871716731 31.44992400602101 0.0 0.0
-651.3094038880816 2.8867700123963473 -301.89477741635307 29.438909034301176 0.0 0.0
-577.3253410620553 10.412040487512265 -234.48840007274762 29.779527122768904 0.0 0.0
-490.84783153478645 19.74574206567523 -158.84524824635045 39.18932803917623 0.0 0.0
-376.2163964357767 7.068547542542796 -110.95836052896365 54.02295962116765 0.0 0.0
-244.34518033087716 -0.5900763564307425 -73.48057700619238 61.180489445875274 0.0 0.0
-116.13266827320355 -4.620402507361483 -36.225921234169505 52.14029675109772 0.0 0.0
-26.94864361913601 -3.06112327826498 -9.002930069220296 16.728348352507137 0.0 0.0
-19.990876150125384 2.744159057143564 -5.1740151278945445 -2.459776986034868 0.0 0.0
-111.59532668779926 1.7656546879617014 -32.94890159995126 -21.189103070465073 0.0 0.0
-264.65812761605963 -2.0233725547504147 -80.00445005124301 -24.567973848626654 0.0 0.0
-416.22028707705954 8.943373420918451 -123.63206114155636 -21.90930789795802 0.0 0.0
-525.0456618095695 17.2971784685186 -180.93665614493545 -13.456336731081144 0.0 0.0
-603.1379330512688 7.844952201166102 -257.64241168148664 -9.772228690728788 0.0 0.0
-671.6100640459347 1.6883090860778367 -318.0348583182071 -9.949157450128196 0.0 0.0
-740.2308203631061 -12.99325346986727 -369.4993819819861 -11.208888885140402 0.0 0.0
-810.6825325241638 -35.08579839001925 -418.88964942557186 -12.698746320492935 0.0 0.0
-883.1503544277368 -63.56535349139824 -470.3804032334456 -13.728676289715107 0.0 0.0
-956.3215566638448 -96.29780519920317 -523.8219947328228 -14.178728863052699 0.0 0.0
-1029.0632336512922 -132.25328035971563 -578.5031595995686 -14.116359605946062 0.0 0.0
-1101.6151560376125 -170.1667908041801 -633.9621594363418 -13.883684547247817 0.0 0.0
-1175.2485759325232 -211.10941227050773 -691.3881312010351 -13.498145668983128 0.0 0.0
-1251.049205937214 -256.4751524036217 -752.0580351068274 -12.692591540737112 0.0 0.0
-1328.1634143603708 -306.01381913616217 -815.441210985906 -11.05831834993571 0.0 0.0
-1403.214025469857 -357.4946895587391 -878.6986242244386 -8.355007571163668 0.0 0.0
-1478.0920698142586 -414.661462919533 -944.4872075913396 -7.997955964571864 0.0 0.0
-1588.0927953193589 -516.884102511231 -1050.0783599702372 -23.227830687738745 0.0 0.0
-1920.8741344588047 -865.2972106626462 -1391.4339326723325 -63.228703850082894 0.0 0.0
-1920.8741344585478 -865.2972106624017 -1391.4339326721538 63.22870385008663 0.0 0.0
-1588.0927953191404 -516.884102511053 -1050.0783599700385 23.227830687722765 0.0 0.0
-1478.0920698144278 -414.6614629197781 -944.4872075912474 7.997955964534601 0.0 0.0
-1403.2140254696287 -357.4946895586084 -878.6986242241782 8.355007571164304 0.0 0.0
-1328.1634143595525 -306.0138191354491 -815.441210985314 11.058318349782686 0.0 0.0
-1251.049205936433 -256.47515240297844 -752.0580351062044 12.692591540738563 0.0 0.0
-1175.2485759317694 -211.1094122699112 -691.3881312005016 13.498145669018424 0.0 0.0
-1101.615156036802 -170.16679080356303 -633.9621594357699 13.883684547277117 0.0 0.0
-1029.06323365033 -132.25328035896112 -578.5031595988344 14.116359605891047 0.0 0.0
-956.3215566633534 -96.2978051989461 -523.821994732425 14.17872886303942 0.0 0.0
-883.1503544269904 -63.56535349090498 -470.3804032329317 13.728676289672654 0.0 0.0
-810.6825325235028 -35.08579838962114 -418.8896494251335 12.69874632046524 0.0 0.0
-740.230820362365 -12.99325346940227 -369.49938198151244 11.208888885098213 0.0 0.0
-671.6100640455745 1.6883090861262673 -318.03485831792943 9.949157450184458 0.0 0.0
-603.137933050994 7.8449522011361665 -257.64241168119975 9.772228690653446 0.0 0.0
-525.0456618091686 17.297178468597423 -180.93665614464248 13.456336731147251 0.0 0.0
-416.2202870766767 8.94337342087677 -123.63206114145379 21.909307897951862 0.0 0.0
-264.658127615909 -2.023372554881055 -80.00445005123701 24.567973848615978 0.0 0.0
-111.59532668767382 1.765654687948354 -32.94890159991763 21.189103070356186 0.0 0.0
-19.990876150105265 2.744159057130452 -5.174015127892444 2.4597769860754344 0.0 0.0
SCALARS Strain float 6
LOOKUP_TABLE default
0.010863942768205292 -0.011933211331507376 0.0 -0.0065617993608586 0.0 0.0
0.0022477754504135646 -0.0013209642924058018 0.0 0.001099007384865014 0.0 0.0
0.001781599390447695 -0.0007277891569624773 0.0 -4.93084184522985e-05 0.0 0.0
0.002203575928355874 -0.0010342453908643856 0.0 -0.00019898284362759866 0.0 0.0
0.0032728969100423097 -0.0018674843538494246 0.0 -0.00024450571070847027 0.0 0.0
0.005465779860159137 -0.0037661709280760736 0.0 -0.00036006914665653866 0.0 0.0
0.008962557424780124 -0.006989726896032611 0.0 -0.0005605562046007706 0.0 0.0
0.013965793496216222 -0.011720998096999224 0.0 -0.0008625201006058347 0.0 0.0
0.02057801165847635 -0.01804898402632027 0.0 -0.001277427197728942 0.0 0.0
0.02879968078691809 -0.025966449792740542 0.0 -0.001771545832214283 0.0 0.0
0.03859416117936554 -0.035442005643007146 0.0 -0.0022832682192489018 0.0 0.0
0.04993716681793159 -0.04645649070264035 0.0 -0.0027950122605418515 0.0 0.0
0.06281255212340105 -0.05899833819892342 0.0 -0.003313359463837817 0.0 0.0
0.07717711409951572 -0.07302042878203219 0.0 -0.003838988025370804 0.0 0.0
0.09283745089457424 -0.08832431270844632 0.0 -0.0043638790531286 0.0 0.0
0.10929599750187821 -0.10441452325054268 0.0 -0.004792300252460191 0.0 0.0
0.12567824284260887 -0.1204279719793897 0.0 -0.0049243976619746666 0.0 0.0
0.14076676092438262 -0.13516319051354753 0.0 -0.004521959399529929 0.0 0.0
0.15309711428652206 -0.14716936193856878 0.0 -0.003687486872647916 0.0 0.0
0.16073394721013556 -0.1543812459357734 0.0 -0.003687022527144812 0.0 0.0
0.16073394721012557 -0.1543812459357614 0.0 0.003687022527150252 0.0 0.0
0.153097114286493 -0.14716936193853636 0.0 0.0036874868726669563 0.0 0.0
0.14076676092433174 -0.1351631905134978 0.0 0.004521959399537923 0.0 0.0
0.1256782428425444 -0.12042797197932842 0.0 0.004924397661981383 0.0 0.0
0.10929599750180774 -0.10441452325047473 0.0 0.004792300252451476 0.0 0.0
0.09283745089450207 -0.0883243127083726 0.0 0.004363879053128739 0.0 0.0
0.07717711409944364 -0.07302042878196247 0.0 0.0038389880253704156 0.0 0.0
0.06281255212332884 -0.05899833819885014 0.0 0.003313359463836485 0.0 0.0
0.04993716681786284 -0.04645649070257418 0.0 0.002795012260536467 0.0 0.0
0.038594161179302366 -0.0354420056429503 0.0 0.0022832682192462928 0.0 0.0
0.028799680786865844 -0.025966449792690582 0.0 0.0017715458322076771 0.0 0.0
0.02057801165843612 -0.018048984026281634 0.0 0.0012774271977273877 0.0 0.0
0.013965793496186013 -0.011720998096967916 0.0 0.0008625201006038363 0.0 0.0
0.008962557424758988 -0.006989726896014181 0.0 0.0005605562045988277 0.0 0.0
0.005465779860146847 -0.0037661709280668587 0.0 0.0003600691466573158 0.0 0.0
0.0032728969100369043 -0.0018674843538452057 0.0 0.0002445057107086368 0.0 0.0
0.0022035759283543788 -0.0010342453908638305 0.0 0.00019898284362643293 0.0 0.0
0.0017815993904469196 -0.0007277891569620887 0.0 4.930841845246503e-05 0.0 0.0
0.002247775450411743 -0.001320964292404081 0.0 -0.0010990073848622384 0.0 0.0
0.010863942768194773 -0.011933211331493691 0.0 0.0065617993608273195 0.0 0.0
0.007645530430524804 -0.009089410486408378 0.0 -0.007854919462861265 0.0 0.0
0.001234539119413177 -0.0006701041962827725 0.0 0.00014515565719472323 0.0 0.0
0.0015272407098979313 -0.0005525534258835618 0.0 -0.0001319436469996993 0.0 0.0
0.0019470520975403 -0.000875303034724384 0.0 -0.0004503645024776237 0.0 0.0
0.002798683030515347 -0.0014958211656410647 0.0 -0.0005593428959654867 0.0 0.0
0.004674236475365384 -0.003068991572678481 0.0 -0.0008443198921760375 0.0 0.0
0.007797819627747938 -0.005900525567764436 0.0 -0.0013589406329526932 0.0 0.0
0.012324093388390293 -0.010147297328326532 0.0 -0.002089903732059306 0.0 0.0
0.01831619128454569 -0.01585989677912969 0.0 -0.003040470496735115 0.0 0.0
0.02573618372262532 -0.022990166821208025 0.0 -0.004133565443825149 0.0 0.0
0.034521482051039415 -0.03147834778165981 0.0 -0.005253155227708001 0.0 0.0
0.04465259360296506 -0.04130884681596214 0.0 -0.006335991307068661 0.0 0.0
0.05615853998525986 -0.05250894411345097 0.0 -0.007449355557522019 0.0 0.0
0.06903058440460141 -0.06506673252849904 0.0 -0.00862469014086259 0.0 0.0
0.08310792252851469 -0.07881903794933764 0.0 -0.009793476554112973 0.0 0.0
0.09796671683756912 -0.0933435769207378 0.0 -0.010758811239786614 0.0 0.0
0.11284669272345965 -0.10788659974686654 0.0 -0.011114122373512003 0.0 0.0
0.1266480777923919 -0.12135585196282062 0.0 -0.01044779858003736 0.0 0.0
0.13788980855249722 -0.1322485224971266 0.0 -0.008806623040593708 0.0 0.0
0.14464619093582237 -0.1387413625193079 0.0 -0.006035936773806538 0.0 0.0
0.14464619093581266 -0.13874136251929947 0.0 0.006035936773825079 0.0 0.0
0.1378898085524705 -0.13224852249710084 0.0 0.008806623040627182 0.0 0.0
0.12664807779234663 -0.12135585196277576 0.0 0.010447798580058842 0.0 0.0
0.11284669272340411 -0.1078865997468137 0.0 0.01111412237352305 0.0 0.0
0.09796671683750655 -0.09334357692067918 0.0 0.010758811239778843 0.0 0.0
0.08310792252844998 -0.07881903794927192 0.0 0.009793476554110891 0.0 0.0
0.06903058440453672 -0.06506673252843864 0.0 0.00862469014086198 0.0 0.0
0.056158539985195544 -0.0525089441133928 0.0 0.007449355557519577 0.0 0.0
0.0446525936029038 -0.04130884681590219 0.0 0.006335991307061195 0.0 0.0
0.03452148205098274 -0.03147834778160741 0.0 0.00525315522769948 0.0 0.0
0.025736183722578604 -0.022990166821165836 0.0 0.004133565443814768 0.0 0.0
0.018316191284509176 -0.015859896779094385 0.0 0.00304047049673134 0.0 0.0
0.012324093388362461 -0.010147297328300775 0.0 0.0020899037320548097 0.0 0.0
0.007797819627729324 -0.005900525567745563 0.0 0.0013589406329492237 0.0 0.0
0.004674236475355031 -0.00306899157266749 0.0 0.0008443198921718464 0.0 0.0
0.00279868303051109 -0.001495821165637401 0.0 0.0005593428959626001 0.0 0.0
0.001947052097539398 -0.0008753030347249391 0.0 0.00045036450247593063 0.0 0.0
0.001527240709897515 -0.0005525534258838949 0.0 0.00013194364699858907 0.0 0.0
0.001234539119413014 -0.0006701041962811627 0.0 -0.0001451556571968604 0.0 0.0
0.007645530430512137 -0.009089410486393754 0.0 0.007854919462836452 0.0 0.0
0.005625249546579891 -0.007213871539998168 0.0 -0.007262061307289097 0.0 0.0
0.0007295954044569952 -0.0004328232992319436 0.0 -0.000546478589809607 0.0 0.0
0.0012249663917214201 -0.00040867524649090825 0.0 -0.000427236954878063 0.0 0.0
0.0016989808896859596 -0.0007305913191999469 0.0 -0.0006923870266132837 0.0 0.0
0.0023783178241815126 -0.0011908510981791798 0.0 -0.0008462469910553438 0.0 0.0
0.003911154800728671 -0.002419010253724041 0.0 -0.0012096894966358296 0.0 0.0
0.0066395613062742095 -0.004831300841251718 0.0 -0.001949723209137999 0.0 0.0
0.010664205360362188 -0.008570572222536876 0.0 -0.0030355023757276667 0.0 0.0
0.016014290608329915 -0.013642915533723876 0.0 -0.004411861380474641 0.0 0.0
0.022619742335816387 -0.019973447317914506 0.0 -0.005970451869653365 0.0 0.0
0.03039798596875492 -0.027476969122354422 0.0 -0.0075665714923088545 0.0 0.0
0.039328349409076375 -0.03613253002651984 0.0 -0.009114816249600782 0.0 0.0
0.04945590697405721 -0.04598218969403112 0.0 -0.01067694630794544 0.0 0.0
0.060813051475396396 -0.05705436034229994 0.0 -0.01234498992744848 0.0 0.0
0.07328962408620843 -0.06923839775552976 0.0 -0.014040729098754534 0.0 0.0
0.08654290278472607 -0.08219213140371684 0.0 -0.015445731743753244 0.0 0.0
0.09993642596652821 -0.09528027017503549 0.0 -0.016051114426821167 0.0 0.0
0.11247635226680558 -0.10750172208348907 0.0 -0.015322312552124517 0.0 0.0
0.12273883603037704 -0.11745702445475281 0.0 -0.01279098648736432 0.0 0.0
0.12908989216667352 -0.12359007452061466 0.0 -0.007768999348859051 0.0 0.0
0.1290898921666641 -0.12359007452060355 0.0 0.007768999348888972 0.0 0.0
0.12273883603035285 -0.11745702445472572 0.0 0.01279098648740895 0.0 0.0
0.11247635226676561 -0.1075017220834491 0.0 0.015322312552154549 0.0 0.0
0.09993642596647992 -0.09528027017498752 0.0 0.016051114426834934 0.0 0.0
0.08654290278467089 -0.08219213140366222 0.0 0.015445731743745417 0.0 0.0
0.07328962408615139 -0.06923839775547691 0.0 0.01404072909875076 0.0 0.0
0.06081305147533894 -0.057054360342247534 0.0 0.012344989927445149 0.0 0.0
0.04945590697400076 -0.04598218969397516 0.0 0.01067694630794147 0.0 0.0
0.0393283494090223 -0.036132530026462994 0.0 0.009114816249588431 0.0 0.0
0.03039798596870491 -0.027476969122303796 0.0 0.007566571492296337 0.0 0.0
0.022619742335775433 -0.019973447317875204 0.0 0.005970451869639237 0.0 0.0
0.01601429060829679 -0.013642915533694122 0.0 0.004411861380465842 0.0 0.0
0.01066420536033763 -0.008570572222514894 0.0 0.0030355023757182575 0.0 0.0
0.006639561306258007 -0.004831300841239505 0.0 0.0019497232091335026 0.0 0.0
0.003911154800720351 -0.0024190102537177127 0.0 0.00120968949663125 0.0 0.0
0.002378317824178605 -0.0011908510981771814 0.0 0.0008462469910535675 0.0 0.0
0.0016989808896851477 -0.0007305913191969493 0.0 0.00069238702661234 0.0 0.0
0.0012249663917213993 -0.00040867524649029763 0.0 0.00042723695487684177 0.0 0.0
0.0007295954044571895 -0.00043282329923091667 0.0 0.0005464785898076641 0.0 0.0
0.005625249546567984 -0.00721387153998475 0.0 0.00726206130726928 0.0 0.0
0.0042213874874951415 -0.005803447350624352 0.0 -0.006162782840327813 0.0 0.0
0.000458393645528965 -0.0003234561918031842 0.0 -0.0011321121537002377 0.0 0.0
0.000949134948130835 -0.000297581622103249 0.0 -0.0008158426996806856 0.0 0.0
0.0014476867749202219 -0.0005955847491621036 0.0 -0.0009580897019422219 0.0 0.0
0.002006824966442243 -0.000950085054345795 0.0 -0.0011255025894012782 0.0 0.0
0.0032100856641177206 -0.0018542515344599497 0.0 -0.001485437079471269 0.0 0.0
0.005496386584766658 -0.003806793649766993 0.0 -0.0023419267497424567 0.0 0.0
0.009003915026823218 -0.007008554047054583 0.0 -0.0036935155983077728 0.0 0.0
0.01369211953757523 -0.011421881585775173 0.0 -0.005383306908771396 0.0 0.0
0.019472596280697252 -0.016940896743335543 0.0 -0.007283702150699206 0.0 0.0
0.026243919048961277 -0.0234586007018609 0.0 -0.009220638854377516 0.0 0.0
0.03397874606395966 -0.030943247230338145 0.0 -0.011108284702983529 0.0 0.0
0.04273124786015492 -0.039446058462855316 0.0 -0.013024090278329514 0.0 0.0
0.05256187211815774 -0.049020860268516486 0.0 -0.01502789058847609 0.0 0.0
0.06341525042568251 -0.059614676311685155 0.0 -0.01705910417617179 0.0 0.0
0.0750432182238131 -0.07097889219933906 0.0 -0.018819187643811075 0.0 0.0
0.08693397203598648 -0.08259478821151633 0.0 -0.01971450718382889 0.0 0.0
0.09822658533513938 -0.09359987257394398 0.0 -0.019006831033130056 0.0 0.0
0.10767270824972897 -0.10277138824439902 0.0 -0.01582509646610214 0.0 0.0
0.11383845820180258 -0.10873946711904159 0.0 -0.009196974722644025 0.0 0.0
0.11383845820179334 -0.10873946711903404 0.0 0.009196974722683104 0.0 0.0
0.10767270824970684 -0.10277138824437904 0.0 0.015825096466154598 0.0 0.0
0.09822658533510473 -0.09359987257391156 0.0 0.019006831033164473 0.0 0.0
0.08693397203594408 -0.08259478821147281 0.0 0.019714507183843932 0.0 0.0
0.07504321822376542 -0.07097889219929288 0.0 0.01881918764380286 0.0 0.0
0.06341525042563284 -0.05961467631164252 0.0 0.017059104176166295 0.0 0.0
0.052561872118107644 -0.049020860268470745 0.0 0.015027890588471648 0.0 0.0
0.042731247860106014 -0.03944605846281091 0.0 0.013024090278322409 0.0 0.0
0.033978746063912824 -0.030943247230299065 0.0 0.011108284702970095 0.0 0.0
0.026243919048918707 -0.02345860070182071 0.0 0.009220638854362528 0.0 0.0
0.01947259628066128 -0.016940896743302236 0.0 0.007283702150680971 0.0 0.0
0.013692119537546121 -0.011421881585747862 0.0 0.0053833069087610985 0.0 0.0
0.009003915026802117 -0.007008554047033488 0.0 0.003693515598299446 0.0 0.0
0.005496386584753071 -0.0038067936497541144 0.0 0.002341926749737655 0.0 0.0
0.003210085664111323 -0.0018542515344538435 0.0 0.0014854370794679383 0.0 0.0
0.0020068249664402515 -0.0009500850543442407 0.0 0.0011255025894000292 0.0 0.0
0.0014476867749193267 -0.0005955847491619926 0.0 0.0009580897019411949 0.0 0.0
0.0009491349481312028 -0.00029758162210452577 0.0 0.0008158426996793811 0.0 0.0
0.00045839364552899275 -0.0003234561918021295 0.0 0.0011321121536982948 0.0 0.0
0.0042213874874850454 -0.005803447350612948 0.0 0.006162782840311826 0.0 0.0
0.003162519436033573 -0.004658975710996022 0.0 -0.005046053700791642 0.0 0.0
0.00030590618400917063 -0.0002686100297040195 0.0 -0.001587534689968001 0.0 0.0
0.0007167309831263222 -0.00021580713182711708 0.0 -0.0012085030616989234 0.0 0.0
0.001193886770485958 -0.00047256095726411207 0.0 -0.0012470337276946075 0.0 0.0
0.0016716452844809104 -0.0007568964225991293 0.0 -0.0013983275233732384 0.0 0.0
0.0025860966019426654 -0.0013893328210210498 0.0 -0.0017293672173016306 0.0 0.0
0.004406416844758655 -0.0028634726436296276 0.0 -0.0025577370484989315 0.0 0.0
0.0073536166530008 -0.005481545420048972 0.0 -0.004023589685669349 0.0 0.0
0.011369933046049122 -0.009219664007401374 0.0 -0.005946244305115533 0.0 0.0
0.016315569239006913 -0.013915822915885556 0.0 -0.008065119661138709 0.0 0.0
0.022080023980394617 -0.019445853268643898 0.0 -0.010220436354310691 0.0 0.0
0.02862400045393683 -0.025764353764848202 0.0 -0.012316800832950003 0.0 0.0
0.03600496121199094 -0.03292232828775843 0.0 -0.01443524757086867 0.0 0.0
0.04430730315252794 -0.04099992716433887 0.0 -0.01666565139825671 0.0 0.0
0.05352609802735675 -0.04999135936038401 0.0 -0.018907704456915086 0.0 0.0
0.06349519184397143 -0.0597298948189362 0.0 -0.0208559486228459 0.0 0.0
0.0738359933673002 -0.06983385388364072 0.0 -0.02199683548477166 0.0 0.0
0.08388488525030477 -0.07963232087194294 0.0 -0.021459376665070806 0.0 0.0
0.09261444980325154 -0.08811549027314403 0.0 -0.018010648259497775 0.0 0.0
0.09873918990626677 -0.09404998025373335 0.0 -0.010407727394363187 0.0 0.0
0.09873918990625802 -0.09404998025372935 0.0 0.010407727394403765 0.0 0.0
0.09261444980323116 -0.0881154902731236 0.0 0.01801064825955012 0.0 0.0
0.08388488525027529 -0.0796323208719123 0.0 0.021459376665109886 0.0 0.0
0.07383599336726385 -0.06983385388360164 0.0 0.021996835484790478 0.0 0.0
0.06349519184393079 -0.05972989481889224 0.0 0.020855948622840237 0.0 0.0
0.05352609802731431 -0.04999135936033916 0.0 0.018907704456906926 0.0 0.0
0.04430730315248588 -0.04099992716429801 0.0 0.016665651398252046 0.0 0.0
0.0360049612119496 -0.03292232828771757 0.0 0.014435247570862564 0.0 0.0
0.028624000453897375 -0.025764353764806458 0.0 0.012316800832936292 0.0 0.0
0.022080023980358826 -0.019445853268608815 0.0 0.010220436354294926 0.0 0.0
0.016315569238976008 -0.013915822915852472 0.0 0.008065119661118447 0.0 0.0
0.011369933046024627 -0.009219664007378059 0.0 0.005946244305104653 0.0 0.0
0.007353616652983008 -0.005481545420031209 0.0 0.004023589685660078 0.0 0.0
0.004406416844747907 -0.0028634726436185254 0.0 0.0025577370484925477 0.0 0.0
0.002586096601937926 -0.001389332821017164 0.0 0.0017293672172974395 0.0 0.0
0.0016716452844794116 -0.0007568964225996844 0.0 0.0013983275233712678 0.0 0.0
0.0011938867704854028 -0.0004725609572642231 0.0 0.0012470337276929422 0.0 0.0
0.0007167309831264956 -0.000215807131826673 0.0 0.0012085030616970083 0.0 0.0
0.0003059061840091082 -0.0002686100297025207 0.0 0.0015875346899663634 0.0 0.0
0.0031625194360251907 -0.004658975710986307 0.0 0.005046053700778819 0.0 0.0
0.0023377578559278245 -0.00370563716864869 0.0 -0.004074648722148827 0.0 0.0
0.00021187629041399814 -0.0002362200987541252 0.0 -0.0019255001981777764 0.0 0.0
0.0005206559556437396 -0.0001534550634020304 0.0 -0.0015572799502173718 0.0 0.0
0.000940385119275508 -0.0003571123829961831 0.0 -0.0015331759362344766 0.0 0.0
0.0013593577909537385 -0.0005939884333707734 0.0 -0.0016638883074989175 0.0 0.0
0.002030824430326761 -0.0010215987762378642 0.0 -0.001960475414557128 0.0 0.0
0.003408530635032242 -0.0020523770243310313 0.0 -0.0027044120657029325 0.0 0.0
0.005749568605916369 -0.004043883723718222 0.0 -0.00409646998217611 0.0 0.0
0.009063002551090743 -0.00705990782874677 0.0 -0.006065475545665666 0.0 0.0
0.013170264575555812 -0.010923993109311914 0.0 -0.008300175101277896 0.0 0.0
0.017925604490466485 -0.015463639575705734 0.0 -0.010545600383367215 0.0 0.0
0.02328547081925439 -0.02062033870686797 0.0 -0.01272743349053973 0.0 0.0
0.02930274364616868 -0.026441129666393337 0.0 -0.014925446507130569 0.0 0.0
0.03607626965371531 -0.033020538954533496 0.0 -0.01721294535093959 0.0 0.0
0.043651996562486445 -0.040400462246402924 0.0 -0.019527495327291255 0.0 0.0
0.05193448881881878 -0.048486391184974664 0.0 -0.021583052656654 0.0 0.0
0.06066618965404334 -0.05702136928372381 0.0 -0.0228693020661479 0.0 0.0
0.06942155315464621 -0.06557080292936801 0.0 -0.022580695963165698 0.0 0.0
0.07746356115718707 -0.07339584479431771 0.0 -0.019313629499925378 0.0 0.0
0.08365053188058945 -0.07939125603386898 0.0 -0.011423361647630248 0.0 0.0
0.08365053188058191 -0.07939125603386143 0.0 0.011423361647670327 0.0 0.0
0.07746356115716924 -0.07339584479430039 0.0 0.01931362949997939 0.0 0.0
0.06942155315462165 -0.06557080292934359 0.0 0.022580695963205666 0.0 0.0
0.060666189654013325 -0.05702136928369539 0.0 0.022869302066165553 0.0 0.0
0.05193448881878479 -0.04848639118494269 0.0 0.02158305265664917 0.0 0.0
0.04365199656245078 -0.040400462246368285 0.0 0.01952749532728193 0.0 0.0
0.0360762696536818 -0.033020538954497525 0.0 0.017212945350932762 0.0 0.0
0.029302743646135054 -0.026441129666363583 0.0 0.01492544650712313 0.0 0.0
0.02328547081922222 -0.020620338706839547 0.0 0.012727433490525297 0.0 0.0
0.01792560449043709 -0.015463639575679977 0.0 0.010545600383350395 0.0 0.0
0.013170264575530444 -0.010923993109289043 0.0 0.008300175101256246 0.0 0.0
0.009063002551070676 -0.007059907828728118 0.0 0.006065475545652177 0.0 0.0
0.005749568605902172 -0.004043883723707786 0.0 0.004096469982166284 0.0 0.0
0.003408530635024082 -0.002052377024325036 0.0 0.002704412065695161 0.0 0.0
0.002030824430323458 -0.0010215987762333123 0.0 0.0019604754145528536 0.0 0.0
0.0013593577909529198 -0.0005939884333693302 0.0 0.0016638883074968636 0.0 0.0
0.0009403851192749113 -0.0003571123829961831 0.0 0.0015331759362331165 0.0 0.0
0.0005206559556437396 -0.00015345506340119774 0.0 0.001557279950214402 0.0 0.0
0.0002118762904140814 -0.00023622009875348682 0.0 0.00192550019817464 0.0 0.0
0.0023377578559210244 -0.0037056371686409895 0.0 0.004074648722138641 0.0 0.0
0.001690740201129956 -0.0029049001839514255 0.0 -0.0032766846041737685 0.0 0.0
0.00014437820345618302 -0.00021494418512019164 0.0 -0.0021613096364077045 0.0 0.0
0.000348447987965364 -0.00010072063225285977 0.0 -0.001842085396149773 0.0 0.0
0.0006904426575791017 -0.0002448739487341811 0.0 -0.001794702786734742 0.0 0.0
0.001052860200707273 -0.00044803324270037415 0.0 -0.0019230647591072514 0.0 0.0
0.0015384220789179531 -0.0007294008242180183 0.0 -0.0021669454626163376 0.0 0.0
0.002506863195178885 -0.001381025401778313 0.0 -0.002776055087632845 0.0 0.0
0.004245331085587417 -0.0027571887062540767 0.0 -0.00398817852997696 0.0 0.0
0.006807700857868582 -0.005001088498141737 0.0 -0.005783892121175471 0.0 0.0
0.010055180558798615 -0.007995879047737686 0.0 -0.007947816755237758 0.0 0.0
0.013799658613431576 -0.011539340446887092 0.0 -0.010179325504671877 0.0 0.0
0.017983420693007665 -0.015539583770771692 0.0 -0.012324747752815113 0.0 0.0
0.022648522176669073 -0.020033738696300762 0.0 -0.014461814138149509 0.0 0.0
0.02790102867264453 -0.02512192617479103 0.0 -0.016678264833794754 0.0 0.0
0.03382141168185146 -0.030881176177374847 0.0 -0.018918361122784944 0.0 0.0
0.04039254972648314 -0.03728522918117205 0.0 -0.020923182971544496 0.0 0.0
0.04745713427069716 -0.04419258761301048 0.0 -0.022282027870159538 0.0 0.0
0.0548187132819522 -0.05140191760783308 0.0 -0.022329947396451777 0.0 0.0
0.062109708246021564 -0.05851447961731138 0.0 -0.019665554318470668 0.0 0.0
0.06841860043582168 -0.06462347784417855 0.0 -0.012230260917553526 0.0 0.0
0.06841860043581598 -0.06462347784417233 0.0 0.012230260917590607 0.0 0.0
0.06210970824600706 -0.058514479617295834 0.0 0.01966555431852346 0.0 0.0
0.05481871328193211 -0.05140191760781354 0.0 0.02232994739648908 0.0 0.0
0.0474571342706738 -0.04419258761298783 0.0 0.02228202787017619 0.0 0.0
0.04039254972645567 -0.03728522918114319 0.0 0.0209231829715375 0.0 0.0
0.03382141168182293 -0.030881176177347314 0.0 0.018918361122772676 0.0 0.0
0.02790102867261926 -0.025121926174763498 0.0 0.01667826483378665 0.0 0.0
0.022648522176643482 -0.02003373869627234 0.0 0.014461814138138851 0.0 0.0
0.017983420692982865 -0.015539583770748155 0.0 0.012324747752800236 0.0 0.0
0.013799658613408483 -0.01153934044686511 0.0 0.010179325504655112 0.0 0.0
0.010055180558778992 -0.007995879047719479 0.0 0.007947816755217552 0.0 0.0
0.00680770085785351 -0.005001088498128192 0.0 0.005783892121163148 0.0 0.0
0.004245331085576898 -0.0027571887062438627 0.0 0.003988178529970576 0.0 0.0
0.00250686319517307 -0.0013810254017765367 0.0 0.002776055087627516 0.0 0.0
0.0015384220789158298 -0.0007294008242182404 0.0 0.00216694546261309 0.0 0.0
0.0010528602007068844 -0.0004480332427017064 0.0 0.001923064759105031 0.0 0.0
0.0006904426575788103 -0.00024487394873295987 0.0 0.001794702786731911 0.0 0.0
0.00034844798796510035 -0.00010072063225224914 0.0 0.001842085396146692 0.0 0.0
0.00014437820345611363 -0.00021494418512008062 0.0 0.002161309636405373 0.0 0.0
0.001690740201125085 -0.002904900183945576 0.0 0.003276684604166469 0.0 0.0
0.001193971848670955 -0.00224957129073719 0.0 -0.002658470191960055 0.0 0.0
8.103283923809046e-05 -0.0001969054699131334 0.0 -0.0022988522315709747 0.0 0.0
0.00018998466892621024 -4.969087453721155e-05 0.0 -0.002062795872177503 0.0 0.0
0.00044685658245556537 -0.0001355709813856132 0.0 -0.0020136020422298895 0.0 0.0
0.0007393014749891708 -0.00030330171895676106 0.0 -0.00215008941332398 0.0 0.0
0.001090614393598796 -0.0004978902846028976 0.0 -0.0023870885675931763 0.0 0.0
0.0017066017713878584 -0.0008590098065928142 0.0 -0.002834029533863025 0.0 0.0
0.0028666624457864415 -0.0016676436527431893 0.0 -0.003745510877562197 0.0 0.0
0.004661713467855752 -0.0031261152368742273 0.0 -0.005200117722127751 0.0 0.0
0.007005428659815557 -0.005199625570749156 0.0 -0.007052317937953134 0.0 0.0
0.009724991769477845 -0.007717092300084438 0.0 -0.009069427092572024 0.0 0.0
0.012735949314054584 -0.010561297214781273 0.0 -0.011054039277194727 0.0 0.0
0.016064807060307537 -0.013740709998446565 0.0 -0.01302228241826281 0.0 0.0
0.01980716853462601 -0.017347402994968952 0.0 -0.015025152862956637 0.0 0.0
0.024067992699475016 -0.021479909601373137 0.0 -0.017049708653870177 0.0 0.0
0.02889936812262653 -0.026180048091555275 0.0 -0.01889819053970282 0.0 0.0
0.034251457487207135 -0.031400347474492385 0.0 -0.020173232719689016 0.0 0.0
0.04008029505796436 -0.03713153280810788 0.0 -0.020498409654509886 0.0 0.0
0.046436483168978374 -0.043378063941371 0.0 -0.018865515739968752 0.0 0.0
0.052859806808103385 -0.04959425574240317 0.0 -0.012779040422261523 0.0 0.0
0.052859806808099735 -0.04959425574239873 0.0 0.012779040422294274 0.0 0.0
0.04643648316896776 -0.043378063941362566 0.0 0.018865515740017824 0.0 0.0
0.040080295057949106 -0.03713153280809456 0.0 0.0204984096545463 0.0 0.0
0.0342514574871898 -0.031400347474472845 0.0 0.02017323271970506 0.0 0.0
0.02889936812260585 -0.026180048091540176 0.0 0.018898190539693216 0.0 0.0
0.024067992699454893 -0.02147990960135271 0.0 0.017049708653861906 0.0 0.0
0.019807168534608455 -0.017347402994946748 0.0 0.015025152862953695 0.0 0.0
0.016064807060289926 -0.013740709998431466 0.0 0.013022282418256537 0.0 0.0
0.012735949314037598 -0.010561297214767507 0.0 0.011054039277182848 0.0 0.0
0.009724991769461427 -0.007717092300068007 0.0 0.009069427092558369 0.0 0.0
0.0070054286598018045 -0.005199625570736055 0.0 0.0070523179379373135 0.0 0.0
0.004661713467845635 -0.0031261152368644574 0.0 0.005200117722117981 0.0 0.0
0.0028666624457796552 -0.0016676436527378602 0.0 0.0037455108775556467 0.0 0.0
0.0017066017713842363 -0.0008590098065892615 0.0 0.002834029533859972 0.0 0.0
0.0010906143935975887 -0.0004978902846002331 0.0 0.002387088567591178 0.0 0.0
0.0007393014749887961 -0.0003033017189570941 0.0 0.0021500894133222592 0.0 0.0
0.0004468565824552462 -0.00013557098138605728 0.0 0.0020136020422276135 0.0 0.0
0.00018998466892597432 -4.969087453721155e-05 0.0 0.002062795872174311 0.0 0.0
8.103283923777127e-05 -0.00019690546991291136 0.0 0.0022988522315693927 0.0 0.0
0.001193971848667874 -0.0022495712907329175 0.0 0.0026584701919547538 0.0 0.0
0.000833639494675617 -0.0017466986097532944 0.0 -0.002227326196112517 0.0 0.0
9.736627081105564e-06 -0.00018051748515657273 0.0 -0.002374103611804207 0.0 0.0
3.936053622846658e-05 5.094977195585493e-06 0.0 -0.002221033922155613 0.0 0.0
0.00021083845503569454 -3.086081359227055e-05 0.0 -0.0021828485040755463 0.0 0.0
0.00041809679242303666 -0.00015223528999108726 0.0 -0.002317728266645752 0.0 0.0
0.0006515087959795829 -0.00028936387494238325 0.0 -0.002588098206189715 0.0 0.0
0.0009996020071088574 -0.0004722610479661604 0.0 -0.002945910957117215 0.0 0.0
0.0016326443534644547 -0.0008294618274660159 0.0 -0.0034982952021647695 0.0 0.0
0.002673024004842664 -0.001539260424475719 0.0 -0.004424307710004571 0.0 0.0
0.004079343183210682 -0.002660825623886698 0.0 -0.005724465846899451 0.0 0.0
0.005741319406546971 -0.004105619199122668 0.0 -0.007277193086460576 0.0 0.0
0.00756324719010576 -0.00576857182523538 0.0 -0.008911802623349008 0.0 0.0
0.009565671791906552 -0.007635207247993492 0.0 -0.010601232898024338 0.0 0.0
0.011816797527157238 -0.009772888098336097 0.0 -0.012305556979993137 0.0 0.0
0.014414219643304804 -0.012274169225300557 0.0 -0.014014536246716502 0.0 0.0
0.0174729493481664 -0.015240135881113392 0.0 -0.015633487942712965 0.0 0.0
0.02107712303304171 -0.0187382291360092 0.0 -0.0168390857899528 0.0 0.0
0.025285741378795634 -0.022856392788408453 0.0 -0.017232957701624696 0.0 0.0
0.030367461904181464 -0.027938130919499482 0.0 -0.016603885836587395 0.0 0.0
0.03671623801133933 -0.03410902118530412 0.0 -0.01286951064357128 0.0 0.0
0.03671623801133776 -0.03410902118529968 0.0 0.01286951064359898 0.0 0.0
0.030367461904175275 -0.027938130919489268 0.0 0.01660388583663064 0.0 0.0
0.025285741378785476 -0.022856392788393354 0.0 0.01723295770165645 0.0 0.0
0.021077123033029943 -0.018738229135995432 0.0 0.016839085789960295 0.0 0.0
0.01747294934815402 -0.015240135881100958 0.0 0.015633487942701252 0.0 0.0
0.014414219643293091 -0.012274169225289011 0.0 0.014014536246705456 0.0 0.0
0.011816797527147815 -0.009772888098332544 0.0 0.012305556979986032 0.0 0.0
0.009565671791897074 -0.007635207247987719 0.0 0.01060123289801973 0.0 0.0
0.007563247190096517 -0.005768571825228275 0.0 0.008911802623339238 0.0 0.0
0.005741319406537909 -0.004105619199111787 0.0 0.007277193086448308 0.0 0.0
0.004079343183202633 -0.002660825623881369 0.0 0.005724465846886628 0.0 0.0
0.0026730240048371268 -0.00153926042447039 0.0 0.00442430770999791 0.0 0.0
0.001632644353461138 -0.0008294618274635734 0.0 0.003498295202161439 0.0 0.0
0.000999602007107192 -0.0004722610479670486 0.0 0.002945910957114606 0.0 0.0
0.0006515087959788057 -0.0002893638749437155 0.0 0.0025880982061863567 0.0 0.0
0.0004180967924229395 -0.00015223528999053215 0.0 0.002317728266643254 0.0 0.0
0.00021083845503538923 -3.086081359215953e-05 0.0 0.002182848504073326 0.0 0.0
3.9360536228383314e-05 5.094977195974071e-06 0.0 0.002221033922153004 0.0 0.0
9.736627080814131e-06 -0.0001805174851563507 0.0 0.0023741036118020142 0.0 0.0
0.0008336394946739656 -0.0017466986097505275 0.0 0.0022273261961078816 0.0 0.0
0.0005813566119378666 -0.0013716493672625008 0.0 -0.0019394911851061125 0.0 0.0
-6.426255844908801e-05 -0.00016622367367641333 0.0 -0.0024163673048524514 0.0 0.0
-0.00010600699477976427 6.330976700541502e-05 0.0 -0.0023228365612315005 0.0 0.0
-1.7893465000737296e-05 6.997888317150647e-05 0.0 -0.002295505249210017 0.0 0.0
9.545620758512341e-05 4.04234908324419e-07 0.0 -0.002418790587233155 0.0 0.0
0.0002026272987220995 -7.680490499062387e-05 0.0 -0.0027069378959696244 0.0 0.0
0.00032940456497720927 -0.00015135894236983916 0.0 -0.003103325482868513 0.0 0.0
0.0005267502237365079 -0.0002508740195670267 0.0 -0.003502820021168085 0.0 0.0
0.0008619565937170587 -0.0004182885103904965 0.0 -0.003942457670898181 0.0 0.0
0.0013277315556925184 -0.0006862848912547737 0.0 -0.0045630478808835195 0.0 0.0
0.0018890468044045344 -0.0010554823136965652 0.0 -0.005477792545115379 0.0 0.0
0.0024948805898100668 -0.0014993756148578008 0.0 -0.0066077716843192524 0.0 0.0
0.0031554536769237834 -0.0020240210940736247 0.0 -0.007920527434833569 0.0 0.0
0.0039060825868654087 -0.002674122887315722 0.0 -0.00940528852492789 0.0 0.0
0.0048282791276426235 -0.0035198316792839357 0.0 -0.011045861647783206 0.0 0.0
0.00608464148428009 -0.004702816173911106 0.0 -0.012723167627641363 0.0 0.0
0.007912514169930024 -0.00643560039717217 0.0 -0.014087819357652354 0.0 0.0
0.010530803981146974 -0.008918146837443963 0.0 -0.014559870486319237 0.0 0.0
0.014131625283743593 -0.01247527212644961 0.0 -0.013970799585561022 0.0 0.0
0.01969881175506817 -0.018108143554987244 0.0 -0.012567916580328686 0.0 0.0
0.019698811755068588 -0.018108143554988132 0.0 0.012567916580351168 0.0 0.0
0.014131625283741109 -0.012475272126446946 0.0 0.013970799585594329 0.0 0.0
0.010530803981142006 -0.008918146837439078 0.0 0.014559870486339221 0.0 0.0
0.007912514169925527 -0.006435600397167285 0.0 0.014087819357651021 0.0 0.0
0.006084641484276926 -0.004702816173908886 0.0 0.012723167627629595 0.0 0.0
0.004828279127639501 -0.003519831679285712 0.0 0.011045861647773991 0.0 0.0
0.003906082586864007 -0.002674122887316166 0.0 0.00940528852492506 0.0 0.0
0.003155453676922576 -0.0020240210940722925 0.0 0.007920527434828517 0.0 0.0
0.002494880589808568 -0.0014993756148564685 0.0 0.006607771684310593 0.0 0.0
0.0018890468044030218 -0.0010554823136916802 0.0 0.005477792545105775 0.0 0.0
0.0013277315556906866 -0.000686284891251443 0.0 0.004563047880875082 0.0 0.0
0.0008619565937158236 -0.00041828851038760995 0.0 0.003942457670896238 0.0 0.0
0.0005267502237359944 -0.00025087401956569444 0.0 0.0035028200211667526 0.0 0.0
0.0003294045649769317 -0.00015135894236784075 0.0 0.0031033254828646273 0.0 0.0
0.0002026272987219746 -7.680490498873649e-05 0.0 0.0027069378959662382 0.0 0.0
9.545620758527606e-05 4.042349088795305e-07 0.0 0.002418790587230879 0.0 0.0
-1.7893465000806685e-05 6.997888317072931e-05 0.0 0.002295505249207491 0.0 0.0
-0.00010600699477963937 6.330976700497093e-05 0.0 0.0023228365612291135 0.0 0.0
-6.426255844912965e-05 -0.00016622367367671864 0.0 0.0024163673048510914 0.0 0.0
0.0005813566119368396 -0.001371649367260766 0.0 0.0019394911851039476 0.0 0.0
0.00040596754605162766 -0.001097114370093466 0.0 -0.0017492339322676687 0.0 0.0
-0.000132894522946847 -0.00014433390896528842 0.0 -0.002415894811383601 0.0 0.0
-0.00024548949662581143 0.00011987643483091226 0.0 -0.0023741193273420502 0.0 0.0
-0.00023959221535127528 0.00016750649971930542 0.0 -0.002348927202754564 0.0 0.0
-0.00022376517304542598 0.00015074960133176774 0.0 -0.0024529046753044015 0.0 0.0
-0.00025020830966906993 0.00013872723418528743 0.0 -0.0027210791771460907 0.0 0.0
-0.0003429895878512834 0.00016717399330778981 0.0 -0.0031078275949950607 0.0 0.0
-0.0005290600461075046 0.0002534381884367054 0.0 -0.0035059329262209227 0.0 0.0
-0.0008607745553909918 0.0004179526453835791 0.0 -0.003943531859263716 0.0 0.0
-0.0013260609411259727 0.0006853409126075238 0.0 -0.00456131565553386 0.0 0.0
-0.0018904159348871186 0.0010586044301312825 0.0 -0.0054742184928163184 0.0 0.0
-0.002514338650364517 0.001519270264191963 0.0 -0.006608344688840528 0.0 0.0
-0.00321058485943837 0.002072190559773812 0.0 -0.00792535483033463 0.0 0.0
-0.00397767201671087 0.002719226927733409 0.0 -0.009411192124987089 0.0 0.0
-0.004741385746341281 0.0033802968360587826 0.0 -0.01106634978753196 0.0 0.0
-0.005309724831233847 0.003866731174559046 0.0 -0.012853778539925531 0.0 0.0
-0.005336857369313969 0.0038643229769421694 0.0 -0.014743457229720702 0.0 0.0
-0.004443056271787427 0.0031144523076083175 0.0 -0.01674803926135937 0.0 0.0
-0.0023311864518007624 0.0015130786048289657 0.0 -0.018497650086000184 0.0 0.0
0.0027788166243342127 -0.0032356564079374373 0.0 -0.016783361474095093 0.0 0.0
0.0027788166243343237 -0.0032356564079338845 0.0 0.01678336147411219 0.0 0.0
-0.0023311864518009845 0.0015130786048285216 0.0 0.01849765008601506 0.0 0.0
-0.004443056271786011 0.0031144523076043207 0.0 0.016748039261365144 0.0 0.0
-0.005336857369308348 0.0038643229769319554 0.0 0.014743457229712986 0.0 0.0
-0.005309724831227422 0.003866731174548832 0.0 0.012853778539914817 0.0 0.0
-0.00474138574633573 0.003380296836055674 0.0 0.0110663497875238 0.0 0.0
-0.003977672016704875 0.002719226927727192 0.0 0.00941119212497915 0.0 0.0
-0.0032105848594314174 0.0020721905597604895 0.0 0.007925354830327858 0.0 0.0
-0.0025143386503574255 0.0015192702641870781 0.0 0.006608344688831813 0.0 0.0
-0.0018904159348808736 0.0010586044301270636 0.0 0.005474218492806382 0.0 0.0
-0.0013260609411212543 0.0006853409126015286 0.0 0.004561315655526366 0.0 0.0
-0.0008607745553882579 0.00041795264538468935 0.0 0.0039435318592617175 0.0 0.0
-0.0005290600461056449 0.00025343818843492905 0.0 0.003505932926219535 0.0 0.0
-0.0003429895878503536 0.00016717399330645755 0.0 0.003107827594990953 0.0 0.0
-0.0002502083096683483 0.00013872723418539845 0.0 0.002721079177142649 0.0 0.0
-0.0002237651730448431 0.00015074960133121262 0.0 0.00245290467530207 0.0 0.0
-0.00023959221535119202 0.00016750649971941645 0.0 0.0023489272027533703 0.0 0.0
-0.0002454894966257559 0.0001198764348311343 0.0 0.0023741193273416616 0.0 0.0
-0.00013289452294663884 -0.00014433390896512188 0.0 0.0024158948113824075 0.0 0.0
0.00040596754605101704 -0.0010971143700923731 0.0 0.0017492339322662809 0.0 0.0
0.00028366953223543656 -0.0008742723008590969 0.0 -0.0015795521452872385 0.0 0.0
-0.00019474043227774018 -0.00011416987947754365 0.0 -0.002364928349095685 0.0 0.0
-0.0003774286429618634 0.00017325744727658687 0.0 -0.0023724983453062565 0.0 0.0
-0.0004535493906613619 0.0002605314597100561 0.0 -0.0023396534777060662 0.0 0.0
-0.0005365785080999608 0.000296446749747159 0.0 -0.0024148082699850804 0.0 0.0
-0.000696115686728116 0.0003494489911786136 0.0 -0.0026364121538079432 0.0 0.0
-0.0010126125634672412 0.0004880255939130329 0.0 -0.002964908494720586 0.0 0.0
-0.0016342926436779814 0.0008319900016846571 0.0 -0.0035060858375746684 0.0 0.0
-0.002670803743315159 0.001537903515588912 0.0 -0.004424889196941673 0.0 0.0
-0.004077314129614151 0.0026597663373828517 0.0 -0.00572195132580533 0.0 0.0
-0.005743997195286871 0.004111089134014367 0.0 -0.007275573485746423 0.0 0.0
-0.007582819647057759 0.005792214365451187 0.0 -0.008904035293570312 0.0 0.0
-0.009617181728638652 0.00768706092754412 0.0 -0.010571740324488155 0.0 0.0
-0.0118815639148305 0.009819303766713361 0.0 -0.0122685719741773 0.0 0.0
-0.014326633424539964 0.012129437179130509 0.0 -0.014080149778182394 0.0 0.0
-0.01673748598305541 0.01440308828508785 0.0 -0.016105999321204822 0.0 0.0
-0.01870520155228972 0.016249519628203313 0.0 -0.018416164111226485 0.0 0.0
-0.0196895043819538 0.01715360323009074 0.0 -0.0209151728293131 0.0 0.0
-0.018745566064157587 0.015934421429928403 0.0 -0.02198722185858759 0.0 0.0
-0.013335795572460882 0.010322440006892641 0.0 -0.01959539872658783 0.0 0.0
-0.013335795572461756 0.010322440006887312 0.0 0.019595398726615476 0.0 0.0
-0.01874556606415549 0.015934421429923518 0.0 0.021987221858620787 0.0 0.0
-0.019689504381945416 0.017153603230079195 0.0 0.02091517282933497 0.0 0.0
-0.01870520155227523 0.016249519628191322 0.0 0.01841616411122665 0.0 0.0
-0.016737485983039396 0.014403088285074972 0.0 0.016105999321191056 0.0 0.0
-0.014326633424526045 0.012129437179118963 0.0 0.014080149778171791 0.0 0.0
-0.011881563914816637 0.009819303766703591 0.0 0.012268571974166309 0.0 0.0
-0.009617181728623608 0.007687060927533462 0.0 0.010571740324480383 0.0 0.0
-0.007582819647042119 0.005792214365439641 0.0 0.008904035293558599 0.0 0.0
-0.005743997195273229 0.004111089134003265 0.0 0.0072755734857303245 0.0 0.0
-0.004077314129602966 0.002659766337375302 0.0 0.005721951325790453 0.0 0.0
-0.002670803743307651 0.0015379035155824727 0.0 0.004424889196935677 0.0 0.0
-0.0016342926436739846 0.0008319900016822146 0.0 0.0035060858375711157 0.0 0.0
-0.0010126125634648542 0.00048802559391170064 0.0 0.0029649084947173665 0.0 0.0
-0.0006961156867264368 0.00034944899117839157 0.0 0.0026364121538053897 0.0 0.0
-0.0005365785080993085 0.0002964467497477141 0.0 0.002414808269983193 0.0 0.0
-0.000453549390661126 0.0002605314597100561 0.0 0.0023396534777029576 0.0 0.0
-0.0003774286429616275 0.00017325744727647585 0.0 0.002372498345303814 0.0 0.0
-0.00019474043227751814 -0.00011416987947754365 0.0 0.002364928349093548 0.0 0.0
0.00028366953223513125 -0.0008742723008582105 0.0 0.0015795521452847405 0.0 0.0
0.00019005839348459896 -0.0006756527944686008 0.0 -0.0013988062386187106 0.0 0.0
-0.00025102509935603923 -7.722840819801569e-05 0.0 -0.0022608864668358652 0.0 0.0
-0.0005011831198906413 0.00022343220065568214 0.0 -0.0023146365387817502 0.0 0.0
-0.0006586693078386996 0.00034818989085916296 0.0 -0.0022690449579574334 0.0 0.0
-0.0008394884144055648 0.00043324799276522885 0.0 -0.0023020724281486993 0.0 0.0
-0.001130372083772091 0.0005546626896657525 0.0 -0.002461200292509347 0.0 0.0
-0.0017180733946962068 0.0008756664970508421 0.0 -0.0028647234753353956 0.0 0.0
-0.00286565751946094 0.0016686394664511273 0.0 -0.00375554152725166 0.0 0.0
-0.004658297195720196 0.003123246099312915 0.0 -0.005196748911293625 0.0 0.0
-0.007004459511693567 0.005199280652271154 0.0 -0.007049686173087433 0.0 0.0
-0.009729204339059383 0.00772335946938707 0.0 -0.009067723818954487 0.0 0.0
-0.012751372519226645 0.01058051118900405 0.0 -0.011033558527481335 0.0 0.0
-0.016101865516270963 0.013779637318246607 0.0 -0.012942868484384529 0.0 0.0
-0.019853086515147694 0.01738056292108192 0.0 -0.014889234596745626 0.0 0.0
-0.023990764190988945 0.02135611835610618 0.0 -0.017066677956131704 0.0 0.0
-0.02828617179560422 0.02547798903715881 0.0 -0.019742428403566548 0.0 0.0
-0.03223815564444529 0.029259212889925834 0.0 -0.02310613689637786 0.0 0.0
-0.03496782219080635 0.031768306323772144 0.0 -0.026540817929365912 0.0 0.0
-0.03478597657466753 0.031307677907990605 0.0 -0.028294789493271688 0.0 0.0
-0.028568865505621918 0.024468006175007773 0.0 -0.02476369803576789 0.0 0.0
-0.02856886550562135 0.02446800617500866 0.0 0.024763698035800197 0.0 0.0
-0.034785976574662356 0.03130767790798883 0.0 0.028294789493314154 0.0 0.0
-0.03496782219079263 0.03176830632376326 0.0 0.026540817929393168 0.0 0.0
-0.032238155644423616 0.02925921288990674 0.0 0.023106136896382468 0.0 0.0
-0.02828617179558003 0.02547798903713261 0.0 0.01974242840355489 0.0 0.0
-0.023990764190966282 0.02135611835608442 0.0 0.01706667795611877 0.0 0.0
-0.01985308651512599 0.017380562921059717 0.0 0.01488923459673408 0.0 0.0
-0.016101865516247926 0.01377963731822085 0.0 0.01294286848437548 0.0 0.0
-0.012751372519203538 0.01058051118897696 0.0 0.011033558527466791 0.0 0.0
-0.009729204339038316 0.007723359469365532 0.0 0.00906772381893478 0.0 0.0
-0.007004459511675817 0.005199280652250504 0.0 0.007049686173069447 0.0 0.0
-0.004658297195707706 0.003123246099301147 0.0 0.005196748911283022 0.0 0.0
-0.0028656575194537792 0.0016686394664462423 0.0 0.00375554152724511 0.0 0.0
-0.0017180733946918075 0.0008756664970490657 0.0 0.0028647234753310657 0.0 0.0
-0.0011303720837697595 0.0005546626896654194 0.0 0.0024612002925053222 0.0 0.0
-0.0008394884144048848 0.0004332479927640076 0.0 0.002302072428146257 0.0 0.0
-0.0006586693078380057 0.0003481898908587189 0.0 0.0022690449579562955 0.0 0.0
-0.000501183119890336 0.00022343220065568214 0.0 0.0023146365387809453 0.0 0.0
-0.00025102509935565065 -7.722840819843202e-05 0.0 0.002260886466835199 0.0 0.0
0.00019005839348434916 -0.0006756527944678219 0.0 0.0013988062386180722 0.0 0.0
0.00011028689660871893 -0.0004974892048649482 0.0 -0.0012132266305782957 0.0 0.0
-0.0003042333678499598 -3.37013330142244e-05 0.0 -0.002103456808822901 0.0 0.0
-0.0006172309950168708 0.0002709259580034873 0.0 -0.0022022174747863554 0.0 0.0
-0.0008546547347869915 0.00042903027708374175 0.0 -0.00214230609864971 0.0 0.0
-0.0011271406919062532 0.0005592489372524545 0.0 -0.0021192554446784195 0.0 0.0
-0.0015726819966601635 0.0007832484022716191 0.0 -0.0022667846102137346 0.0 0.0
-0.0025135292764608685 0.0013960164557542676 0.0 -0.002814353190407348 0.0 0.0
-0.004240924667562568 0.0027544144970053086 0.0 -0.003990502821708319 0.0 0.0
-0.006804465671114784 0.004997720172889242 0.0 -0.005777701348356368 0.0 0.0
-0.010056258053268402 0.007997325865791272 0.0 -0.007946213929836188 0.0 0.0
-0.013804662201543166 0.01154562415430549 0.0 -0.010177753605235318 0.0 0.0
-0.017990791214033186 0.015549327099853016 0.0 -0.012294541351613675 0.0 0.0
-0.022658005755372773 0.020045634898914866 0.0 -0.014340106954944032 0.0 0.0
-0.02790775473445345 0.025123841247844503 0.0 -0.016441051966949782 0.0 0.0
-0.03376153314027666 0.03079402427167688 0.0 -0.018846278169649122 0.0 0.0
-0.039998986491613125 0.03682256683891927 0.0 -0.021967055854233086 0.0 0.0
-0.04595232125510432 0.042531338794677964 0.0 -0.026003793383465368 0.0 0.0
-0.05026257206543133 0.046548976595543134 0.0 -0.030242600990791013 0.0 0.0
-0.05057682688887771 0.04645481919334715 0.0 -0.03247653902191161 0.0 0.0
-0.042781366549794045 0.038020640780494386 0.0 -0.02928252484178473 0.0 0.0
-0.04278136654979152 0.03802064078049261 0.0 0.029282524841819646 0.0 0.0
-0.05057682688886861 0.04645481919333472 0.0 0.032476539021958295 0.0 0.0
-0.05026257206541264 0.04654897659552626 0.0 0.03024260099082826 0.0 0.0
-0.045952321255076256 0.042531338794650875 0.0 0.02600379338347386 0.0 0.0
-0.039998986491582206 0.03682256683889351 0.0 0.02196705585422526 0.0 0.0
-0.03376153314024549 0.030794024271651566 0.0 0.0188462781696358 0.0 0.0
-0.02790775473442364 0.02512384124781386 0.0 0.016441051966938736 0.0 0.0
-0.02265800575534231 0.02004563489888911 0.0 0.014340106954933873 0.0 0.0
-0.017990791214002932 0.015549327099826371 0.0 0.012294541351597854 0.0 0.0
-0.013804662201514634 0.011545624154278622 0.0 0.010177753605215445 0.0 0.0
-0.010056258053244768 0.007997325865771732 0.0 0.007946213929814872 0.0 0.0
-0.006804465671097049 0.004997720172875031 0.0 0.005777701348342157 0.0 0.0
-0.004240924667551285 0.0027544144969948725 0.0 0.003990502821700603 0.0 0.0
-0.0025135292764540823 0.0013960164557482724 0.0 0.002814353190402963 0.0 0.0
-0.0015726819966574018 0.0007832484022693986 0.0 0.002266784610209932 0.0 0.0
-0.0011271406919051014 0.0005592489372531206 0.0 0.002119255444675866 0.0 0.0
-0.00085465473478602 0.0004290302770838528 0.0 0.0021423060986481557 0.0 0.0
-0.0006172309950165794 0.0002709259580035983 0.0 0.0022022174747846623 0.0 0.0
-0.0003042333678495296 -3.3701333014724e-05 0.0 0.0021034568088209304 0.0 0.0
0.00011028689660856628 -0.0004974892048645891 0.0 0.0012132266305764083 0.0 0.0
4.021516764218802e-05 -0.00034000587112897884 0.0 -0.0010235466475682076 0.0 0.0
-0.0003564694060027296 1.4935355468703726e-05 0.0 -0.0018972977833476568 0.0 0.0
-0.000726572518186086 0.00031654873650033277 0.0 -0.0020333278216990436 0.0 0.0
-0.0010399624419839826 0.0005012247738432896 0.0 -0.001951677209997893 0.0 0.0
-0.0014025456914543155 0.0006805844211101864 0.0 -0.0018847242574676626 0.0 0.0
-0.002056376071502164 0.0010662249672408475 0.0 -0.0020611303138514114 0.0 0.0
-0.003408736490837644 0.0020610708864239324 0.0 -0.0027318819038072983 0.0 0.0
-0.005743693813251544 0.004038384492361269 0.0 -0.004092602641581511 0.0 0.0
-0.009061442831520411 0.007057761423911124 0.0 -0.006057785326372744 0.0 0.0
-0.013173466430876996 0.010927338945208698 0.0 -0.00829880696602131 0.0 0.0
-0.017930369026484372 0.015468808478631857 0.0 -0.01054193914530327 0.0 0.0
-0.023281866097165205 0.020617269195855048 0.0 -0.012690216767420548 0.0 0.0
-0.029275451293110516 0.026416247924495373 0.0 -0.014782124829691656 0.0 0.0
-0.03602635648860886 0.032975652598243865 0.0 -0.016917188488863255 0.0 0.0
-0.04360326048460386 0.040347252856417715 0.0 -0.01935376266333333 0.0 0.0
-0.05178402376985072 0.04828062613034012 0.0 -0.02252647208716585 0.0 0.0
-0.05970090230420197 0.05588714052209687 0.0 -0.02671925932867425 0.0 0.0
-0.0654990358942395 0.06129913847594137 0.0 -0.031368160057775096 0.0 0.0
-0.06604347500785651 0.06135839421111022 0.0 -0.03441899015047101 0.0 0.0
-0.05657633319469586 0.05130276070706907 0.0 -0.03338763446640747 0.0 0.0
-0.05657633319469184 0.051302760707065076 0.0 0.03338763446644616 0.0 0.0
-0.06604347500784324 0.06135839421110045 0.0 0.03441899015051786 0.0 0.0
-0.06549903589421495 0.061299138475923165 0.0 0.0313681600578119 0.0 0.0
-0.059700902304168774 0.055887140522066225 0.0 0.02671925932868119 0.0 0.0
-0.05178402376981303 0.04828062613029527 0.0 0.022526472087160576 0.0 0.0
-0.04360326048456524 0.04034725285637908 0.0 0.019353762663320007 0.0 0.0
-0.036026356488570624 0.03297565259821367 0.0 0.01691718848884788 0.0 0.0
-0.02927545129307249 0.02641624792445585 0.0 0.014782124829680499 0.0 0.0
-0.0232818660971275 0.020617269195815968 0.0 0.012690216767406393 0.0 0.0
-0.017930369026449136 0.015468808478596552 0.0 0.010541939145282453 0.0 0.0
-0.01317346643084806 0.010927338945177834 0.0 0.008298806966000438 0.0 0.0
-0.009061442831497374 0.007057761423887365 0.0 0.006057785326357923 0.0 0.0
-0.005743693813236167 0.004038384492348612 0.0 0.004092602641570575 0.0 0.0
-0.0034087364908282486 0.0020610708864194915 0.0 0.002731881903800082 0.0 0.0
-0.002056376071498195 0.001066224967238183 0.0 0.0020611303138478865 0.0 0.0
-0.0014025456914529277 0.000680584421108521 0.0 0.0018847242574660805 0.0 0.0
-0.0010399624419832054 0.0005012247738429565 0.0 0.0019516772099962831 0.0 0.0
-0.0007265725181856003 0.00031654873650033277 0.0 0.002033327821697406 0.0 0.0
-0.0003564694060023549 1.493535546887026e-05 0.0 0.001897297783347518 0.0 0.0
4.02151676422019e-05 -0.00034000587112879843 0.0 0.001023546647568263 0.0 0.0
-2.0375670872624374e-05 -0.00020486374095665671 0.0 -0.0008284822914580159 0.0 0.0
-0.00040772563149749086 6.657891204669975e-05 0.0 -0.0016480983152996342 0.0 0.0
-0.0008300141562556929 0.0003601292171504511 0.0 -0.001809038687160286 0.0 0.0
-0.0012145194542346749 0.0005664403807066343 0.0 -0.0017097356941257191 0.0 0.0
-0.0016815001167382326 0.0008167859584782278 0.0 -0.0016292902662363995 0.0 0.0
-0.0025968374854396237 0.0014214757772295084 0.0 -0.001831504477282031 0.0 0.0
-0.004402617741300158 0.002865917340098445 0.0 -0.00257568780234263 0.0 0.0
-0.007349122803788244 0.005476320765642972 0.0 -0.004013191907248692 0.0 0.0
-0.011370891694646168 0.009219904702287618 0.0 -0.005939343975056799 0.0 0.0
-0.01632027270588257 0.013920498610314525 0.0 -0.008064279814140818 0.0 0.0
-0.022082956683350308 0.019448404350716597 0.0 -0.01021364243663292 0.0 0.0
-0.028607592481202704 0.025746992141638447 0.0 -0.012274634215735603 0.0 0.0
-0.03594009890513891 0.03285969244766296 0.0 -0.014297601070584975 0.0 0.0
-0.04419513256483698 0.04090051953575102 0.0 -0.016380345411773023 0.0 0.0
-0.05345651614060509 0.0499366898484066 0.0 -0.018637160638653172 0.0 0.0
-0.06351244314319099 0.05971103060445504 0.0 -0.02141778245657089 0.0 0.0
-0.07333368861567485 0.06915827701598598 0.0 -0.02524981258957082 0.0 0.0
-0.08056440615395857 0.0759173748016706 0.0 -0.030048202710326488 0.0 0.0
-0.08134524970283685 0.07616505369650284 0.0 -0.034563311661630736 0.0 0.0
-0.07041520438736866 0.0646774466436324 0.0 -0.037336654443253625 0.0 0.0
-0.07041520438736296 0.06467744664362751 0.0 0.03733665444329193 0.0 0.0
-0.0813452497028196 0.07616505369648863 0.0 0.03456331166167875 0.0 0.0
-0.08056440615392875 0.07591737480164307 0.0 0.030048202710361738 0.0 0.0
-0.07333368861563608 0.06915827701595179 0.0 0.02524981258957909 0.0 0.0
-0.06351244314314665 0.05971103060441996 0.0 0.021417782456567946 0.0 0.0
-0.0534565161405592 0.04993668984836486 0.0 0.018637160638647843 0.0 0.0
-0.04419513256479127 0.04090051953571017 0.0 0.016380345411759367 0.0 0.0
-0.035940098905092546 0.03285969244762432 0.0 0.014297601070571209 0.0 0.0
-0.0286075924811579 0.025746992141594482 0.0 0.012274634215723085 0.0 0.0
-0.022082956683308633 0.019448404350673743 0.0 0.010213642436611936 0.0 0.0
-0.016320272705848057 0.01392049861027922 0.0 0.008064279814120279 0.0 0.0
-0.011370891694618447 0.009219904702259862 0.0 0.005939343975043004 0.0 0.0
-0.0073491228037687595 0.005476320765625653 0.0 0.004013191907238672 0.0 0.0
-0.004402617741288105 0.0028659173400902294 0.0 0.0025756878023348306 0.0 0.0
-0.002596837485433684 0.0014214757772261777 0.0 0.0018315044772781452 0.0 0.0
-0.0016815001167365604 0.0008167859584770065 0.0 0.0016292902662352338 0.0 0.0
-0.001214519454233752 0.0005664403807057461 0.0 0.0017097356941249697 0.0 0.0
-0.0008300141562550475 0.000360129217150007 0.0 0.0018090386871600916 0.0 0.0
-0.0004077256314968247 6.657891204650546e-05 0.0 0.001648098315298635 0.0 0.0
-2.037567087271458e-05 -0.00020486374095644855 0.0 0.0008284822914566004 0.0 0.0
-6.965446106094175e-05 -9.446513199942719e-05 0.0 -0.0006271733313800154 0.0 0.0
-0.0004558454565965486 0.00011835475237598203 0.0 -0.0013605703796693847 0.0 0.0
-0.0009280604337623122 0.000401431619567294 0.0 -0.0015297475564258756 0.0 0.0
-0.0013822866569797587 0.0006275356784904984 0.0 -0.0014191791909733964 0.0 0.0
-0.001980787706899967 0.0009750708627159765 0.0 -0.0013355308424949086 0.0 0.0
-0.0032038633122016547 0.0018665333034331155 0.0 -0.0015656718677976023 0.0 0.0
-0.005492244809611108 0.0038045794686201173 0.0 -0.0023456965758965054 0.0 0.0
-0.009003628037992262 0.007007168622158888 0.0 -0.0036809397641677233 0.0 0.0
-0.013695763118091397 0.011424876184715549 0.0 -0.005377997771264187 0.0 0.0
-0.01947781911811783 0.016945836790964952 0.0 -0.00728292170070155 0.0 0.0
-0.026242875377511687 0.02345662628067302 0.0 -0.009210000938410068 0.0 0.0
-0.03394881336115202 0.03091183281334109 0.0 -0.011064725251080376 0.0 0.0
-0.04263646198783891 0.03935354771699462 0.0 -0.012914015768807796 0.0 0.0
-0.052396013926422014 0.04886954344218042 0.0 -0.014813079780276905 0.0 0.0
-0.06327549906424387 0.059500708047123485 0.0 -0.01675275411021182 0.0 0.0
-0.07505957849560715 0.07098582448455248 0.0 -0.018828450143652753 0.0 0.0
-0.08667227592129192 0.0821735381147799 0.0 -0.021673704249890124 0.0 0.0
-0.09539059474041905 0.09034591065725817 0.0 -0.026281221985022807 0.0 0.0
-0.09669650988345163 0.0910595218664354 0.0 -0.03293971293815434 0.0 0.0
-0.08466732932797806 0.07847261630346081 0.0 -0.04111436305413291 0.0 0.0
-0.08466732932797096 0.07847261630345503 0.0 0.041114363054169434 0.0 0.0
-0.09669650988343045 0.09105952186641275 0.0 0.03293971293819714 0.0 0.0
-0.09539059474038426 0.0903459106572253 0.0 0.026281221985053504 0.0 0.0
-0.08667227592124747 0.08217353811473815 0.0 0.02167370424989723 0.0 0.0
-0.07505957849555557 0.07098582448450586 0.0 0.018828450143649922 0.0 0.0
-0.06327549906419072 0.05950070804706753 0.0 0.01675275411020649 0.0 0.0
-0.05239601392636889 0.04886954344212269 0.0 0.014813079780268607 0.0 0.0
-0.04263646198778493 0.03935354771694444 0.0 0.012914015768796833 0.0 0.0
-0.033948813361100026 0.030911832813289575 0.0 0.011064725251067692 0.0 0.0
-0.026242875377463747 0.0234566262806275 0.0 0.00921000093839111 0.0 0.0
-0.01947781911807764 0.016945836790925428 0.0 0.007282921700683537 0.0 0.0
-0.013695763118059562 0.01142487618468424 0.0 0.005377997771252835 0.0 0.0
-0.009003628037968815 0.007007168622134907 0.0 0.003680939764158453 0.0 0.0
-0.005492244809596231 0.0038045794686074608 0.0 0.00234569657588915 0.0 0.0
-0.0032038633121937443 0.0018665333034276754 0.0 0.0015656718677923287 0.0 0.0
-0.0019807877068975105 0.0009750708627143112 0.0 0.0013355308424930767 0.0 0.0
-0.001382286656978808 0.0006275356784889441 0.0 0.0014191791909723694 0.0 0.0
-0.0009280604337615142 0.00040143161956596174 0.0 0.0015297475564244323 0.0 0.0
-0.000455845456595938 0.00011835475237625959 0.0 0.0013605703796677193 0.0 0.0
-6.965446106094175e-05 -9.446513199920688e-05 0.0 0.0006271733313789607 0.0 0.0
-0.0001039053046584526 -1.1950944546368358e-05 0.0 -0.000421266361737449 0.0 0.0
-0.0004959893790644765 0.00016658639936578679 0.0 -0.0010372922057403922 0.0 0.0
-0.0010211847331533241 0.00043920280471165807 0.0 -0.0011940406677753979 0.0 0.0
-0.001550297779631421 0.0006931175511284415 0.0 -0.001083597432996103 0.0 0.0
-0.002315281961700888 0.0011759420007603216 0.0 -0.0010084307601901932 0.0 0.0
-0.0038917541323300886 0.002410298699134117 0.0 -0.001263022435682437 0.0 0.0
-0.006639965088925587 0.004830412290138586 0.0 -0.0019452787243762204 0.0 0.0
-0.010669584845446917 0.008574904671869055 0.0 -0.003023865162619155 0.0 0.0
-0.016020310207312538 0.01364845164067896 0.0 -0.004408505011155861 0.0 0.0
-0.022624290017227627 0.01997742035382566 0.0 -0.005969128185441097 0.0 0.0
-0.03039103250178904 0.027468858163058663 0.0 -0.007553496077449484 0.0 0.0
-0.039285447689326874 0.03608862629195997 0.0 -0.009075780154338298 0.0 0.0
-0.0493421342132892 0.04587097947502716 0.0 -0.010603524010859844 0.0 0.0
-0.06061074135146027 0.05686348014143139 0.0 -0.012221293561977875 0.0 0.0
-0.07304260013603925 0.06901403902634629 0.0 -0.013787626449532686 0.0 0.0
-0.08633566034264042 0.08199598821351772 0.0 -0.014995479921656063 0.0 0.0
-0.099500994032619 0.09474319338059356 0.0 -0.016274007167611182 0.0 0.0
-0.1098791908599614 0.10449672716744551 0.0 -0.020040488277275226 0.0 0.0
-0.11227940939105349 0.10621288272753837 0.0 -0.02914042698116659 0.0 0.0
-0.09974155007102654 0.0930581259804808 0.0 -0.044421875917968645 0.0 0.0
-0.09974155007101804 0.09305812598047325 0.0 0.04442187591799718 0.0 0.0
-0.1122794093910284 0.10621288272751483 0.0 0.029140426981203504 0.0 0.0
-0.10987919085992096 0.10449672716740821 0.0 0.020040488277302315 0.0 0.0
-0.09950099403256828 0.09474319338054471 0.0 0.016274007167617566 0.0 0.0
-0.08633566034258146 0.08199598821346354 0.0 0.014995479921653898 0.0 0.0
-0.07304260013597888 0.06901403902629077 0.0 0.01378762644952991 0.0 0.0
-0.060610741351399586 0.05686348014137366 0.0 0.012221293561972046 0.0 0.0
-0.04934213421322792 0.0458709794749641 0.0 0.010603524010851184 0.0 0.0
-0.039285447689267596 0.03608862629190046 0.0 0.009075780154330498 0.0 0.0
-0.03039103250173513 0.027468858163006038 0.0 0.007553496077434191 0.0 0.0
-0.022624290017182046 0.019977420353783026 0.0 0.005969128185425804 0.0 0.0
-0.01602031020727642 0.0136484516406441 0.0 0.0044085050111458135 0.0 0.0
-0.010669584845419584 0.008574904671840411 0.0 0.003023865162611966 0.0 0.0
-0.0066399650889077885 0.004830412290120822 0.0 0.001945278724370808 0.0 0.0
-0.003891754132320211 0.002410298699125013 0.0 0.001263022435677913 0.0 0.0
-0.0023152819616973457 0.0011759420007564358 0.0 0.0010084307601885834 0.0 0.0
-0.0015502977796305537 0.0006931175511277754 0.0 0.0010835974329951314 0.0 0.0
-0.001021184733152193 0.00043920280471115847 0.0 0.0011940406677752313 0.0 0.0
-0.0004959893790640636 0.00016658639936587005 0.0 0.001037292205739615 0.0 0.0
-0.0001039053046583173 -1.195094454636142e-05 0.0 0.0004212663617371992 0.0 0.0
-0.00011664713807457705 3.862174414145936e-05 0.0 -0.0002174685285835365 0.0 0.0
-0.0005193938557540856 0.0002054358717242244 0.0 -0.0006778238577640205 0.0 0.0
-0.0011106199216115997 0.0004737882542219518 0.0 -0.0007953463627962953 0.0 0.0
-0.001730626825661441 0.0007704144068159113 0.0 -0.0007057592810146285 0.0 0.0
-0.0027039743082299117 0.0014440796327976901 0.0 -0.0006626365577923343 0.0 0.0
-0.004649245381705025 0.0030464419804074883 0.0 -0.0008695878832596371 0.0 0.0
-0.007806108368386716 0.005905473545800177 0.0 -0.0013513984107869637 0.0 0.0
-0.012335125869524816 0.010157746595675032 0.0 -0.0020823428507131814 0.0 0.0
-0.018323985142484206 0.015867357700181994 0.0 -0.0030379353140760346 0.0 0.0
-0.02573909426651233 0.022992222418619424 0.0 -0.00413168028547195 0.0 0.0
-0.03450752554305997 0.031463361665672984 0.0 -0.005241199933335938 0.0 0.0
-0.04459831722300525 0.04125459023571043 0.0 -0.0063081536431932594 0.0 0.0
-0.05603440913604352 0.052387616693628125 0.0 -0.007411481773154538 0.0 0.0
-0.06880613420999587 0.06484875381720823 0.0 -0.008571260693357341 0.0 0.0
-0.08274188086144127 0.07846201143419362 0.0 -0.009624821533633754 0.0 0.0
-0.09736251932847864 0.09274606973168442 0.0 -0.010172955295419839 0.0 0.0
-0.1116823054376562 0.1066857771926637 0.0 -0.009968890993996782 0.0 0.0
-0.12360690356448187 0.11806407520739626 0.0 -0.011297071705215322 0.0 0.0
-0.12821467464003028 0.12171681754641028 0.0 -0.02178243686806336 0.0 0.0
-0.11625370237322538 0.1089962878682944 0.0 -0.046511234632730436 0.0 0.0
-0.11625370237321488 0.10899628786828242 0.0 0.04651123463275059 0.0 0.0
-0.12821467464000091 0.12171681754638275 0.0 0.021782436868093835 0.0 0.0
-0.12360690356443622 0.11806407520735007 0.0 0.01129707170523453 0.0 0.0
-0.11168230543759793 0.10668577719260774 0.0 0.00996889099399939 0.0 0.0
-0.09736251932841276 0.09274606973161426 0.0 0.010172955295417202 0.0 0.0
-0.08274188086137327 0.07846201143411946 0.0 0.00962482153363245 0.0 0.0
-0.06880613420992797 0.06484875381713984 0.0 0.008571260693352956 0.0 0.0
-0.05603440913597431 0.0523876166935624 0.0 0.007411481773148543 0.0 0.0
-0.04459831722293911 0.04125459023564604 0.0 0.00630815364318893 0.0 0.0
-0.03450752554300021 0.03146336166561414 0.0 0.005241199933325752 0.0 0.0
-0.025739094266461697 0.02299222241857013 0.0 0.004131680285460848 0.0 0.0
-0.01832398514244389 0.015867357700143137 0.0 0.003037935314070317 0.0 0.0
-0.012335125869494198 0.010157746595645056 0.0 0.0020823428507080743 0.0 0.0
-0.007806108368366049 0.00590547354578197 0.0 0.0013513984107822452 0.0 0.0
-0.004649245381693298 0.0030464419803987175 0.0 0.000869587883255557 0.0 0.0
-0.0027039743082248394 0.0014440796327939154 0.0 0.000662636557790669 0.0 0.0
-0.0017306268256601955 0.0007704144068158003 0.0 0.0007057592810151281 0.0 0.0
-0.0011106199216104513 0.0004737882542234506 0.0 0.0007953463627963786 0.0 0.0
-0.0005193938557537213 0.00020543587172425215 0.0 0.0006778238577642703 0.0 0.0
-0.00011664713807445215 3.862174414120956e-05 0.0 0.0002174685285825928 0.0 0.0
-9.630959664450045e-05 5.146813220274771e-05 0.0 -3.1977100818453286e-05 0.0 0.0
-0.000511201763071012 0.00022564461587143425 0.0 -0.00027545833991604596 0.0 0.0
-0.0012002489041713083 0.0005068770037272019 0.0 -0.00031938366003214647 0.0 0.0
-0.0019434648313188252 0.0008816468817234302 0.0 -0.00029411763815045955 0.0 0.0
-0.003157527789759168 0.0017801575107871948 0.0 -0.00027738299560947643 0.0 0.0
-0.005445085441036335 0.0037392146559731554 0.0 -0.0003584945471455936 0.0 0.0
-0.008979498401541358 0.007003585174985227 0.0 -0.0005583508187168573 0.0 0.0
-0.01398125967991265 0.011735812768282727 0.0 -0.0008583979802017638 0.0 0.0
-0.020587140885077182 0.01805782492439767 0.0 -0.0012748508256442137 0.0 0.0
-0.02880039636033091 0.02596620413802575 0.0 -0.0017697959783405381 0.0 0.0
-0.03857337558460722 0.035420492871415465 0.0 -0.0022769439607304154 0.0 0.0
-0.04987342535581596 0.046393786008594784 0.0 -0.0027843713817573557 0.0 0.0
-0.06268131653466547 0.058869828322109186 0.0 -0.0033036060902107423 0.0 0.0
-0.0769327256717863 0.07277723343297815 0.0 -0.0038162605028780883 0.0 0.0
-0.09234860501094913 0.08782944022405381 0.0 -0.004233825733435781 0.0 0.0
-0.108233187329871 0.1033339504409061 0.0 -0.004293700958376889 0.0 0.0
-0.12338061136174439 0.11810179668323828 0.0 -0.003583457765482745 0.0 0.0
-0.13604569584586498 0.1303712143652147 0.0 -0.002347949544338701 0.0 0.0
-0.1432206179813954 0.1369105074657937 0.0 -0.007793858179596214 0.0 0.0
-0.13598188084940743 0.1276266702938198 0.0 -0.04286333158101252 0.0 0.0
-0.1359818808493954 0.12762667029380914 0.0 0.0428633315810199 0.0 0.0
-0.14322061798136182 0.13691050746576128 0.0 0.007793858179609647 0.0 0.0
-0.13604569584581327 0.1303712143651623 0.0 0.002347949544346861 0.0 0.0
-0.12338061136167741 0.11810179668317256 0.0 0.0035834577654821897 0.0 0.0
-0.10823318732979748 0.10333395044083682 0.0 0.004293700958373253 0.0 0.0
-0.09234860501087405 0.08782944022398276 0.0 0.0042338257334358365 0.0 0.0
-0.07693272567171017 0.07277723343290576 0.0 0.003816260502877006 0.0 0.0
-0.06268131653458867 0.058869828322036355 0.0 0.0033036060902095765 0.0 0.0
-0.049873425355743115 0.04639378600852684 0.0 0.002784371381754608 0.0 0.0
-0.03857337558454141 0.03542049287135196 0.0 0.0022769439607244757 0.0 0.0
-0.02880039636027544 0.025966204137973792 0.0 0.0017697959783349315 0.0 0.0
-0.020587140885032884 0.01805782492435637 0.0 0.0012748508256417712 0.0 0.0
-0.013981259679879092 0.01173581276825253 0.0 0.0008583979801987662 0.0 0.0
-0.00897949840151778 0.007003585174963023 0.0 0.0005583508187161079 0.0 0.0
-0.005445085441022615 0.003739214655960499 0.0 0.00035849454714348417 0.0 0.0
-0.0031575277897529586 0.0017801575107825318 0.0 0.00027738299560983726 0.0 0.0
-0.0019434648313169387 0.000881646881722431 0.0 0.00029411763815032077 0.0 0.0
-0.001200248904170368 0.0005068770037263137 0.0 0.0003193836600320077 0.0 0.0
-0.0005112017630704152 0.00022564461587112894 0.0 0.0002754583399146304 0.0 0.0
-9.630959664438336e-05 5.146813220264883e-05 0.0 3.197710081898064e-05 0.0 0.0
SCALARS Statev float 8
LOOKUP_TABLE default
0.0 0.011737834564791076 0.009026703123124114 -0.009409624731086703 0.0003829216079625904 -0.005156125598138967 0.0 0.0
0.0 0.0005267688502368325 0.0003516096878264434 -0.0002893751320090672 -6.223455581737627e-05 0.0003526036112449038 0.0 0.0
0.0 3.342380937738801e-05 -4.754075056001044e-06 3.773145031477424e-06 9.809300245235895e-07 5.62033213615258e-07 0.0 0.0
0.0 0.00018911922151711635 0.00011348473997557459 -8.871819234227373e-05 -2.4766547633300954e-05 -1.5609126128137244e-05 0.0 0.0
0.0 0.0011310076948862565 0.000873813162144293 -0.0007125285703693083 -0.00016128459177498439 -9.59072678813367e-05 0.0 0.0
0.0 0.003093584397716755 0.00282579501074541 -0.002430204743127597 -0.0003955902676178135 -0.00023185013804551948 0.0 0.0
0.0 0.006771116698891191 0.006080226793416834 -0.005496206215399157 -0.0005840205780176767 -0.00043004589094661487 0.0 0.0
0.0 0.012219704663038039 0.010839026904944737 -0.01012169300100028 -0.0007173339039444522 -0.0007160167951032091 0.0 0.0
0.0 0.01955743254114109 0.017205887533813247 -0.016380160849038615 -0.0008257266847746284 -0.0011122285423954858 0.0 0.0
0.0 0.02878521422431268 0.02518522070822589 -0.02425367525669228 -0.0009315454515336011 -0.0015928656583873609 0.0 0.0
0.0 0.03988443280176738 0.03474275405527113 -0.03370281117259979 -0.0010399428826713378 -0.0020983525402420533 0.0 0.0
0.0 0.05254410193648602 0.04585703015283086 -0.04470615561247184 -0.0011508745403590055 -0.0026108534614228207 0.0 0.0
0.0 0.06705055898290233 0.058508720641425906 -0.05724566110729512 -0.001263059534130741 -0.0031322113988441237 0.0 0.0
0.0 0.08334926747304992 0.07265264427239441 -0.07127477146784165 -0.0013778728045526992 -0.0036614853231961304 0.0 0.0
0.0 0.10115213608997295 0.088094387003823 -0.0865972534404475 -0.0014971335633754777 -0.004191874095894762 0.0 0.0
0.0 0.11992195477214072 0.10433826461199137 -0.1027180199575344 -0.0016202446544569486 -0.004630130015503665 0.0 0.0
0.0 0.13862303252163274 0.12051607849679256 -0.11877261784994203 -0.001743460646850544 -0.004778800132763572 0.0 0.0
0.0 0.15584020393305922 0.13541865421351065 -0.13355725310635153 -0.0018614011071591084 -0.004398695772712833 0.0 0.0
0.0 0.16989388212973405 0.1475894179917827 -0.14562010906134693 -0.0019693089304357782 -0.0035803895354771234 0.0 0.0
0.0 0.17835243183355962 0.15505521358190943 -0.15294657021930108 -0.0021086433626083573 -0.0035389230295724975 0.0 0.0
0.0 0.1783524318335471 0.1550552135818986 -0.15294657021929003 -0.0021086433626085737 0.0035389230295776153 0.0 0.0
0.0 0.1698938821296988 0.14758941799175215 -0.14562010906131628 -0.0019693089304358273 0.003580389535495246 0.0 0.0
0.0 0.15584020393300113 0.13541865421346022 -0.13355725310630182 -0.0018614011071584132 0.004398695772720434 0.0 0.0
0.0 0.13862303252156039 0.12051607849672955 -0.11877261784987986 -0.0017434606468496366 0.00477880013277009 0.0 0.0
0.0 0.1199219547720611 0.10433826461192221 -0.10271801995746588 -0.001620244654456335 0.004630130015495371 0.0 0.0
0.0 0.10115213608988921 0.08809438700375043 -0.08659725344037512 -0.001497133563375328 0.004191874095894389 0.0 0.0
0.0 0.08334926747296846 0.07265264427232368 -0.07127477146777157 -0.0013778728045520851 0.0036614853231949395 0.0 0.0
0.0 0.06705055898281886 0.058508720641353505 -0.057245661107223254 -0.0012630595341302682 0.003132211398843857 0.0 0.0
0.0 0.05254410193640874 0.045857030152763684 -0.04470615561240543 -0.0011508745403582426 0.0026108534614173277 0.0 0.0
0.0 0.0398844328016991 0.03474275405521137 -0.03370281117254091 -0.0010399428826704503 0.0020983525402393072 0.0 0.0
0.0 0.028785214224254382 0.025185220708175263 -0.024253675256642255 -0.0009315454515330117 0.0015928656583812386 0.0 0.0
0.0 0.019557432541096924 0.01720588753377426 -0.01638016084900028 -0.0008257266847739866 0.0011122285423935945 0.0 0.0
0.0 0.012219704663004368 0.010839026904914593 -0.010121693000970789 -0.0007173339039438042 0.000716016795100838 0.0 0.0
0.0 0.006771116698869915 0.006080226793397445 -0.005496206215380513 -0.0005840205780169304 0.0004300458909452864 0.0 0.0
0.0 0.0030935843977058157 0.002825795010734967 -0.002430204743118091 -0.0003955902676168756 0.0002318501380446858 0.0 0.0
0.0 0.0011310076948808769 0.0008738131621399657 -0.000712528570365638 -0.00016128459177432755 9.590726788081965e-05 0.0 0.0
0.0 0.00018911922151576162 0.0001134847399752918 -8.871819234204228e-05 -2.476654763324954e-05 1.5609126128046964e-05 0.0 0.0
0.0 3.342380937687491e-05 -4.754075055922566e-06 3.7731450314146314e-06 9.80930024507978e-07 -5.620332136057866e-07 0.0 0.0
0.0 0.0005267688502343834 0.0003516096878250817 -0.0002893751320079242 -6.22345558171577e-05 -0.0003526036112432334 0.0 0.0
0.0 0.011737834564773742 0.009026703123112456 -0.009409624731074043 0.0003829216079615852 0.005156125598112337 0.0 0.0
0.0 0.008557083003015048 0.00616927165633009 -0.006655525051951477 0.0004862533956213851 -0.005864067441601315 0.0 0.0
0.0 1.3887743743689452e-07 2.6335135236049544e-08 -2.257604623923823e-08 -3.759088996811773e-09 1.793718581544766e-08 0.0 0.0
0.0 9.430826945183483e-08 -1.020951514236367e-08 7.758883502814768e-09 2.450631639548195e-09 3.6392644398315674e-09 0.0 0.0
0.0 5.825851690776754e-05 2.4021556700868122e-05 -1.8760950556511917e-05 -5.260606144356436e-06 -9.958458256071878e-06 0.0 0.0
0.0 0.0007209653450681659 0.000511442053464889 -0.0004122074323553328 -9.923462110955606e-05 -0.00013767916934707446 0.0 0.0
0.0 0.0023192709650461667 0.002121367714389105 -0.00179599676586155 -0.00032537094852755523 -0.0004652446265097358 0.0 0.0
0.0 0.005559057487486169 0.004991145471803626 -0.004455594976168251 -0.000535550495635374 -0.000972911931768115 0.0 0.0
0.0 0.010463045639380109 0.009272080386340005 -0.008587158839499525 -0.0006849215468404775 -0.0016795728127138908 0.0 0.0
0.0 0.017088528849484256 0.015022518800248953 -0.014224888555570176 -0.0007976302446787755 -0.002601453223996176 0.0 0.0
0.0 0.025391189486448272 0.02220712796814697 -0.021306495223701157 -0.0009006327444458129 -0.0036770428096175706 0.0 0.0
0.0 0.03529895081535194 0.03076544792090444 -0.029762917042731544 -0.0010025308781728857 -0.004794140405609331 0.0 0.0
0.0 0.046831325705214526 0.04067726270335642 -0.03957279816196772 -0.0011044645413887011 -0.005884968697344147 0.0 0.0
0.0 0.05972671689718727 0.05197160060957564 -0.05076404424510586 -0.001207556364469758 -0.007010185135630236 0.0 0.0
0.0 0.0742686837280774 0.06463482918317033 -0.06332174913662941 -0.001313080046540893 -0.008197971850889675 0.0 0.0
0.0 0.09026874880189341 0.07850556459581338 -0.07708358164274111 -0.0014219829530722453 -0.009382308297469246 0.0 0.0
0.0 0.10716540084238346 0.09316217336536058 -0.09162833605615334 -0.0015338373092072413 -0.010371811588917175 0.0 0.0
0.0 0.12409633493233947 0.10784866498263306 -0.1062022133991195 -0.0016464515835135317 -0.010763285211304964 0.0 0.0
0.0 0.13980647504372784 0.12147086311003412 -0.11971364873365145 -0.0017572143763826492 -0.01014025393727577 0.0 0.0
0.0 0.15255886679333117 0.13254468649230539 -0.1306718075256727 -0.0018728789666327137 -0.008534952639184806 0.0 0.0
0.0 0.16017591779074153 0.13918344946431105 -0.13722346959207493 -0.0019599798722361155 -0.005800008073993552 0.0 0.0
0.0 0.16017591779073131 0.13918344946430194 -0.13722346959206594 -0.001959979872236048 0.0058000080740117956 0.0 0.0
0.0 0.1525588667933016 0.13254468649227918 -0.13067180752564667 -0.0018728789666326061 0.008534952639217752 0.0 0.0
0.0 0.13980647504367655 0.1214708631099892 -0.11971364873360671 -0.0017572143763824617 0.010140253937296161 0.0 0.0
0.0 0.12409633493227737 0.10784866498257878 -0.10620221339906594 -0.001646451583512747 0.010763285211315348 0.0 0.0
0.0 0.10716540084231357 0.09316217336529983 -0.09162833605609363 -0.001533837309206188 0.010371811588909489 0.0 0.0
0.0 0.0902687488018185 0.0785055645957484 -0.07708358164267659 -0.0014219829530717947 0.009382308297466127 0.0 0.0
0.0 0.07426868372800569 0.06463482918310784 -0.06332174913656788 -0.0013130800465399194 0.008197971850887597 0.0 0.0
0.0 0.059726716897117074 0.05197160060951438 -0.05076404424504567 -0.0012075563644687165 0.007010185135627862 0.0 0.0
0.0 0.04683132570514529 0.04067726270329609 -0.0395727981619082 -0.001104464541387874 0.005884968697335987 0.0 0.0
0.0 0.03529895081528965 0.03076544792085021 -0.02976291704267801 -0.0010025308781721877 0.0047941404056016275 0.0 0.0
0.0 0.025391189486397826 0.022207127968102886 -0.02130649522365776 -0.0009006327444451205 0.0036770428096071033 0.0 0.0
0.0 0.017088528849444454 0.015022518800213557 -0.014224888555535463 -0.0007976302446780862 0.002601453223991412 0.0 0.0
0.0 0.010463045639350629 0.009272080386313773 -0.008587158839474012 -0.0006849215468397662 0.001679572812708818 0.0 0.0
0.0 0.005559057487466178 0.004991145471785408 -0.004455594976150922 -0.0005355504956344873 0.0009729119317648352 0.0 0.0
0.0 0.002319270965034789 0.0021213677143789365 -0.0017959967658523663 -0.0003253709485265701 0.0004652446265072098 0.0 0.0
0.0 0.0007209653450635537 0.0005114420534615886 -0.0004122074323525675 -9.923462110902125e-05 0.0001376791693461122 0.0 0.0
0.0 5.8258516907276744e-05 2.402155670107099e-05 -1.8760950556662327e-05 -5.260606144408519e-06 9.958458256092461e-06 0.0 0.0
0.0 9.430826938068039e-08 -1.0209515134588993e-08 7.758883496907494e-09 2.4506316376819497e-09 -3.6392644370560787e-09 0.0 0.0
0.0 1.388774374283818e-07 2.6335135324238793e-08 -2.257604631343774e-08 -3.759089010799454e-09 -1.7937185877474206e-08 0.0 0.0
0.0 0.008557083002995515 0.006169271656317145 -0.006655525051937752 0.0004862533956206084 0.005864067441578898 0.0 0.0
0.0 0.0063937493858275355 0.004356199459364694 -0.004857331494238632 0.0005011320348739392 -0.005085846684936667 0.0 0.0
0.0 0.0 0.0 0.0 0.0 0.0 0.0 0.0
0.0 0.0 0.0 0.0 0.0 0.0 0.0 0.0
0.0 9.020880482020676e-06 5.24560182353842e-06 -4.08496825417197e-06 -1.1606335693664706e-06 -3.6618083241342996e-06 0.0 0.0
0.0 0.0003610223551007564 0.0002550019012430657 -0.00020324560390441048 -5.175629733865506e-05 -0.00012335389043157397 0.0 0.0
0.0 0.001773224046616301 0.0014521668096155681 -0.0012099789793782894 -0.00024218783023727792 -0.0005531790656448188 0.0 0.0
0.0 0.004394292187797709 0.0039258226314966725 -0.003450751994057597 -0.0004750706374390764 -0.0013041453593451795 0.0 0.0
0.0 0.008728238478361693 0.007704110955476139 -0.007061255333254293 -0.0006428556222218474 -0.002361953454949824 0.0 0.0
0.0 0.014646574784164763 0.01281515999742818 -0.012051477288242227 -0.0007636827091859497 -0.003704525006007771 0.0 0.0
0.0 0.022038905744912247 0.01919200357926931 -0.018327076967370327 -0.0008649266118989794 -0.005245116718944242 0.0 0.0
0.0 0.030831635927211918 0.02675227722470567 -0.025791842037730914 -0.000960435186974749 -0.006843213794594316 0.0 0.0
0.0 0.04090837186803091 0.03547491491280132 -0.03442071806788828 -0.0010541968449130398 -0.008406793400558443 0.0 0.0
0.0 0.05248576777564135 0.04540019691614084 -0.04425201336671632 -0.0011481835494245424 -0.009987266853781514 0.0 0.0
0.0 0.06526624252091917 0.05656054311214491 -0.05531643587378317 -0.0012441072383617131 -0.011675582464296484 0.0 0.0
0.0 0.07939719110196687 0.06884299334119845 -0.06750067418204013 -0.001342319159158248 -0.013396513064234105 0.0 0.0
0.0 0.0944714081242561 0.0819060838148454 -0.08046337685563376 -0.0014427069592116005 -0.014837718184712162 0.0 0.0
0.0 0.10967373420415613 0.09511630208742083 -0.09357150687828444 -0.001544795209136354 -0.015493725326119945 0.0 0.0
0.0 0.12384524352393045 0.10748079754068511 -0.10582996468469406 -0.001650832855991025 -0.014824856353080895 0.0 0.0
0.0 0.1353829521942748 0.11758788217038116 -0.11583506866358362 -0.0017528135067975206 -0.012366081721314521 0.0 0.0
0.0 0.1424485412885015 0.12383344779051789 -0.12200846273885863 -0.0018249850516591974 -0.00745597922600497 0.0 0.0
0.0 0.14244854128849033 0.12383344779050749 -0.12200846273884865 -0.0018249850516587926 0.00745597922603391 0.0 0.0
0.0 0.1353829521942467 0.11758788217035536 -0.11583506866355853 -0.0017528135067968415 0.012366081721357614 0.0 0.0
0.0 0.12384524352388579 0.10748079754064511 -0.1058299646846546 -0.0016508328559904518 0.014824856353109993 0.0 0.0
0.0 0.10967373420410154 0.09511630208737255 -0.09357150687823708 -0.001544795209135493 0.015493725326132989 0.0 0.0
0.0 0.09447140812419277 0.08190608381479071 -0.08046337685557935 -0.0014427069592113418 0.014837718184704553 0.0 0.0
0.0 0.0793971911019038 0.06884299334114358 -0.06750067418198581 -0.0013423191591577532 0.013396513064230637 0.0 0.0
0.0 0.06526624252085626 0.056560543112089925 -0.05531643587372927 -0.001244107238360674 0.011675582464292528 0.0 0.0
0.0 0.0524857677755772 0.04540019691608486 -0.04425201336666117 -0.0011481835494236798 0.009987266853776305 0.0 0.0
0.0 0.040908371867967176 0.035474914912746416 -0.03442071806783367 -0.0010541968449127358 0.008406793400545677 0.0 0.0
0.0 0.030831635927154735 0.026752277224655875 -0.025791842037681423 -0.0009604351869744427 0.006843213794582831 0.0 0.0
0.0 0.022038905744866766 0.019192003579229622 -0.018327076967331185 -0.0008649266118984355 0.005245116718930425 0.0 0.0
0.0 0.014646574784129543 0.012815159997397284 -0.012051477288211812 -0.0007636827091854687 0.0037045250059996103 0.0 0.0
0.0 0.008728238478335832 0.007704110955453251 -0.007061255333232037 -0.0006428556222212156 0.0023619534549425233 0.0 0.0
0.0 0.0043942921877824035 0.0039258226314828415 -0.0034507519940446497 -0.00047507063743819215 0.0013041453593407794 0.0 0.0
0.0 0.0017732240466077675 0.0014521668096085672 -0.0012099789793721808 -0.00024218783023638592 0.0005531790656419996 0.0 0.0
0.0 0.00036102235509808653 0.00025500190124136526 -0.00020324560390303235 -5.1756297338332765e-05 0.00012335389043075545 0.0 0.0
0.0 9.020880481588138e-06 5.245601823680671e-06 -4.084968254280629e-06 -1.160633569400061e-06 3.661808324222965e-06 0.0 0.0
0.0 0.0 0.0 0.0 0.0 0.0 0.0 0.0
0.0 0.0 0.0 0.0 0.0 0.0 0.0 0.0
0.0 0.006393749385810497 0.004356199459352987 -0.00485733149422618 0.0005011320348731947 0.005085846684917846 0.0 0.0
0.0 0.004717548850945269 0.003074024286970988 -0.003535007215595682 0.0004609829286246921 -0.00395667300721445 0.0 0.0
0.0 0.0 0.0 0.0 0.0 0.0 0.0 0.0
0.0 0.0 0.0 0.0 0.0 0.0 0.0 0.0
0.0 1.7764958665315978e-06 -1.7819784007305854e-07 1.3787375697884427e-07 4.03240830942293e-08 1.8782013220909485e-07 0.0 0.0
0.0 0.00014943771665283418 9.86979284561834e-05 -7.819183754707318e-05 -2.050609090911008e-05 -7.75917335512819e-05 0.0 0.0
0.0 0.0011577762844079689 0.0009018181797672096 -0.0007395594868525185 -0.00016225869291469145 -0.0005243671536062164 0.0 0.0
0.0 0.003338999606730819 0.0028990625671491974 -0.002503336514729174 -0.000395726052420025 -0.0014258862309489105 0.0 0.0
0.0 0.007039066249586591 0.006154474529314266 -0.00556543773656676 -0.0005890367927475066 -0.00275554265897172 0.0 0.0
0.0 0.012225931335982609 0.010606401340307905 -0.009885251777184275 -0.0007211495631236321 -0.0044134548044600045 0.0 0.0
0.0 0.01869861462544406 0.016164477944560635 -0.015341464170532396 -0.0008230137740282316 -0.006298491255459275 0.0 0.0
0.0 0.02635670193848926 0.022726423334881514 -0.021813114422530422 -0.0009133089123510921 -0.008242630130366892 0.0 0.0
0.0 0.035144200533642096 0.03026273157388033 -0.02926320744911502 -0.000999524124765307 -0.010151872633164173 0.0 0.0
0.0 0.04509779772808963 0.03882491398033746 -0.0377404983841444 -0.0010844155961930563 -0.012092462898847295 0.0 0.0
0.0 0.05632539733683408 0.048468946931830854 -0.04729810386145904 -0.0011708430703718095 -0.01412252001597497 0.0 0.0
0.0 0.06872157881184796 0.05913969609774806 -0.05788145608813569 -0.001258240009612356 -0.016187124067113316 0.0 0.0
0.0 0.08177268206135269 0.07059086679236243 -0.06924405702813774 -0.0013468097642246864 -0.017993456510433055 0.0 0.0
0.0 0.09525402259679233 0.08230772663163038 -0.08086898524977243 -0.001438741381857938 -0.018949330119054027 0.0 0.0
0.0 0.10796255053996091 0.09343327056623651 -0.09189875863023671 -0.0015345119359998218 -0.01831856017412105 0.0 0.0
0.0 0.11846753154262606 0.10273118090329662 -0.10110544817655068 -0.0016257327267459117 -0.015248506760731827 0.0 0.0
0.0 0.1251944879705415 0.10879271491315587 -0.1071015346153443 -0.0016911802978115571 -0.008802224768202272 0.0 0.0
0.0 0.12519448797053273 0.10879271491314763 -0.10710153461533597 -0.0016911802978116996 0.008802224768239254 0.0 0.0
0.0 0.11846753154260414 0.10273118090327577 -0.1011054481765298 -0.00162573272674592 0.015248506760782397 0.0 0.0
0.0 0.10796255053992439 0.09343327056620332 -0.09189875863020319 -0.0015345119360000914 0.018318560174155056 0.0 0.0
0.0 0.0952540225967442 0.08230772663158792 -0.08086898524972955 -0.0014387413818583894 0.018949330119069078 0.0 0.0
0.0 0.08177268206129841 0.07059086679231552 -0.06924405702809136 -0.0013468097642241519 0.01799345651042519 0.0 0.0
0.0 0.06872157881179486 0.05913969609770158 -0.057881456088090644 -0.001258240009610908 0.01618712406710736 0.0 0.0
0.0 0.05632539733677934 0.04846894693178307 -0.04729810386141191 -0.0011708430703711579 0.01412252001596992 0.0 0.0
0.0 0.04509779772803643 0.038824913980290976 -0.03774049838409858 -0.0010844155961924021 0.012092462898840636 0.0 0.0
0.0 0.03514420053359292 0.030262731573837354 -0.029263207449073052 -0.0009995241247643008 0.010151872633151357 0.0 0.0
0.0 0.026356701938442063 0.022726423334840408 -0.0218131144224899 -0.0009133089123505224 0.008242630130353031 0.0 0.0
0.0 0.01869861462540412 0.01616447794452637 -0.015341464170498715 -0.0008230137740276476 0.006298491255442273 0.0 0.0
0.0 0.012225931335950856 0.010606401340280121 -0.009885251777157284 -0.0007211495631228274 0.004413454804449723 0.0 0.0
0.0 0.007039066249563203 0.006154474529293845 -0.005565437736547095 -0.0005890367927467479 0.0027555426589623917 0.0 0.0
0.0 0.0033389996067162996 0.0028990625671365855 -0.0025033365147176883 -0.0003957260524188964 0.0014258862309434145 0.0 0.0
0.0 0.001157776284400522 0.0009018181797617666 -0.0007395594868479081 -0.00016225869291385873 0.0005243671536029873 0.0 0.0
0.0 0.00014943771665111504 9.869792845559487e-05 -7.81918375465873e-05 -2.0506090909007674e-05 7.75917335507888e-05 0.0 0.0
0.0 1.7764958662467406e-06 -1.7819784004332652e-07 1.3787375695581053e-07 4.032408308752122e-08 -1.8782013217738892e-07 0.0 0.0
0.0 0.0 0.0 0.0 0.0 0.0 0.0 0.0
0.0 0.0 0.0 0.0 0.0 0.0 0.0 0.0
0.0 0.004717548850930385 0.0030740242869611734 -0.003535007215585104 0.0004609829286239305 0.003956673007199683 0.0 0.0
0.0 0.003358991721301565 0.0021024762331559883 -0.0024911608471595466 0.00038868461400355897 -0.002866581949015388 0.0 0.0
0.0 0.0 0.0 0.0 0.0 0.0 0.0 0.0
0.0 0.0 0.0 0.0 0.0 0.0 0.0 0.0
0.0 3.1234164431588785e-07 -2.5617850497127908e-08 2.0115826190663957e-08 5.502024306463789e-09 4.21043713021938e-08 0.0 0.0
0.0 5.335613555416731e-05 2.9461319231278742e-05 -2.3385133077501534e-05 -6.076186153777224e-06 -3.6200336992930345e-05 0.0 0.0
0.0 0.0006568192180136208 0.0004852016138399964 -0.0003925837057643047 -9.261790807569164e-05 -0.0004231391490034268 0.0 0.0
0.0 0.002455911307472221 0.0019545591045030965 -0.0016539879859400535 -0.0003005711185630431 -0.001344057885211634 0.0 0.0
0.0 0.0054575816047228885 0.004637444469072314 -0.004120484135795611 -0.0005169603332767021 -0.0028198376057877025 0.0 0.0
0.0 0.00984385624860959 0.008419325987798995 -0.007752574041711171 -0.000666751946087825 -0.004718882270050608 0.0 0.0
0.0 0.01539805101907104 0.013147934238079962 -0.012374963903547146 -0.0007729703345328136 -0.006828284390738053 0.0 0.0
0.0 0.021936904372092413 0.018710520646597707 -0.017850528576737943 -0.0008599920698597677 -0.008996911642935845 0.0 0.0
0.0 0.02937806224005838 0.025065890820992053 -0.024126747882100407 -0.0009391429388916454 -0.011121214767073779 0.0 0.0
0.0 0.037855154140070395 0.03226679021913177 -0.03125107247844784 -0.0010157177406839245 -0.01326889444525818 0.0 0.0
0.0 0.047264154915983424 0.04039547385887146 -0.03930340695499826 -0.0010920669038732005 -0.015531487878788853 0.0 0.0
0.0 0.057816507149983445 0.049443386134905114 -0.048274464466792295 -0.0011689216681127913 -0.017813894625575352 0.0 0.0
0.0 0.06928772243493155 0.059245019632748516 -0.05799840743088834 -0.0012466122018601712 -0.01981490688394073 0.0 0.0
0.0 0.08085772762335633 0.06942468382395918 -0.06809866605686743 -0.0013260177670917292 -0.02102434439505229 0.0 0.0
0.0 0.09205047129615404 0.07931638465356941 -0.07790687760509095 -0.001409507048478456 -0.020578459415200673 0.0 0.0
0.0 0.10164729131776579 0.0879012262719278 -0.08640989231688764 -0.0014913339550401549 -0.0172764952186845 0.0 0.0
0.0 0.10819694176836513 0.09391580277363723 -0.09236158537289532 -0.0015542174007418628 -0.009919753397469313 0.0 0.0
0.0 0.10819694176835906 0.0939158027736308 -0.09236158537288917 -0.0015542174007415568 0.009919753397508252 0.0 0.0
0.0 0.10164729131774547 0.08790122627190745 -0.08640989231686762 -0.001491333955039788 0.017276495218735668 0.0 0.0
0.0 0.09205047129612254 0.07931638465353935 -0.07790687760506142 -0.0014095070484779302 0.020578459415238063 0.0 0.0
0.0 0.08085772762331492 0.06942468382392175 -0.06809866605683026 -0.0013260177670914913 0.02102434439506902 0.0 0.0
0.0 0.06928772243488311 0.05924501963270664 -0.057998407430846596 -0.0012466122018600471 0.019814906883933753 0.0 0.0
0.0 0.05781650714993339 0.049443386134861864 -0.048274464466749184 -0.0011689216681126883 0.017813894625566644 0.0 0.0
0.0 0.04726415491593625 0.040395473858830376 -0.03930340695495746 -0.001092066903872902 0.015531487878783242 0.0 0.0
0.0 0.03785515414002401 0.03226679021909093 -0.031251072478407735 -0.0010157177406831725 0.013268894445250999 0.0 0.0
0.0 0.029378062240011965 0.02506589082095202 -0.02412674788206096 -0.0009391429388910352 0.011121214767058359 0.0 0.0
0.0 0.021936904372051615 0.018710520646562506 -0.01785052857670366 -0.0008599920698588439 0.008996911642919858 0.0 0.0
0.0 0.015398051019033413 0.013147934238048584 -0.012374963903516336 -0.0007729703345322481 0.006828284390717594 0.0 0.0
0.0 0.009843856248582519 0.008419325987775788 -0.007752574041688489 -0.0006667519460872951 0.004718882270038753 0.0 0.0
0.0 0.005457581604702646 0.004637444469055171 -0.004120484135779527 -0.0005169603332756415 0.0028198376057779672 0.0 0.0
0.0 0.0024559113074595967 0.0019545591044929215 -0.0016539879859309495 -0.0003005711185619729 0.001344057885205238 0.0 0.0
0.0 0.0006568192180084261 0.0004852016138364802 -0.0003925837057613783 -9.261790807510191e-05 0.0004231391490002889 0.0 0.0
0.0 5.3356135553392243e-05 2.9461319231333257e-05 -2.3385133077533284e-05 -6.076186153799895e-06 3.620033699292872e-05 0.0 0.0
0.0 3.1234164401444015e-07 -2.5617850471780222e-08 2.0115826170972936e-08 5.502024300809174e-09 -4.2104371261965705e-08 0.0 0.0
0.0 0.0 0.0 0.0 0.0 0.0 0.0 0.0
0.0 0.0 0.0 0.0 0.0 0.0 0.0 0.0
0.0 0.0033589917212892956 0.002102476233148141 -0.0024911608471508413 0.0003886846140026993 0.0028665819490040476 0.0 0.0
0.0 0.0022367094979416635 0.001355178090606547 -0.0016540289760844742 0.00029885088547792663 -0.001938568081994878 0.0 0.0
0.0 0.0 0.0 0.0 0.0 0.0 0.0 0.0
0.0 0.0 0.0 0.0 0.0 0.0 0.0 0.0
0.0 1.2459832782016668e-06 -8.711175530045244e-08 6.722946238267231e-08 1.9882292917777628e-08 2.0432140011233723e-07 0.0 0.0
0.0 2.2018074092533244e-05 6.6031447371640376e-06 -5.220605110624359e-06 -1.382539626539672e-06 -1.1587191465021139e-05 0.0 0.0
0.0 0.00030750596420294683 0.00021914947965637782 -0.00017584089573038906 -4.3308583925988616e-05 -0.00029087958762886296 0.0 0.0
0.0 0.0015368017684058667 0.0011757829386204442 -0.0009748761714015768 -0.00020090676721886726 -0.0011529388657409573 0.0 0.0
0.0 0.003973754250653548 0.003206127285402883 -0.002787494850819269 -0.00041863243458361427 -0.0026097870861926074 0.0 0.0
0.0 0.007565590446791956 0.006274100658973745 -0.005680437482493505 -0.0005936631764802395 -0.004582037052652203 0.0 0.0
0.0 0.012152490678575406 0.01016841945149769 -0.009457598652702433 -0.0007108207987952552 -0.006819648445201079 0.0 0.0
0.0 0.017549127658752602 0.014729871211039079 -0.013932447721662036 -0.0007974234893770388 -0.009085405319728412 0.0 0.0
0.0 0.023680071622551625 0.019910059187345445 -0.01903853979472407 -0.0008715193926213832 -0.011300907174138328 0.0 0.0
0.0 0.030583421923177614 0.025758731809153244 -0.024818431602398203 -0.0009403002067550405 -0.013533070280814302 0.0 0.0
0.0 0.038374937996789094 0.03237009966463455 -0.031363099388919076 -0.0010070002757154753 -0.01585574030571511 0.0 0.0
0.0 0.04712582942210867 0.03978611689002264 -0.038712524187812514 -0.001073592702210158 -0.018215543829913902 0.0 0.0
0.0 0.0564472236072246 0.04791454188048044 -0.04677438972625422 -0.0011401521542262357 -0.020331451946211488 0.0 0.0
0.0 0.06643659221521231 0.05649595225086137 -0.05528946125284992 -0.0012064909980114254 -0.021691385536536413 0.0 0.0
0.0 0.07623804668812484 0.0651049208512626 -0.063829577040657 -0.0012753438106056013 -0.021503293411632415 0.0 0.0
0.0 0.08480325706877334 0.07300498325910068 -0.07165769240391631 -0.0013472908551843555 -0.018410199004802577 0.0 0.0
0.0 0.09128101926238945 0.07906920592037306 -0.07765885491345233 -0.0014103510069207207 -0.010823381508179455 0.0 0.0
0.0 0.0912810192623824 0.07906920592036557 -0.07765885491344494 -0.0014103510069206338 0.010823381508218332 0.0 0.0
0.0 0.08480325706875727 0.07300498325908338 -0.07165769240389903 -0.0013472908551843733 0.018410199004853675 0.0 0.0
0.0 0.07623804668810076 0.06510492085123835 -0.06382957704063301 -0.0012753438106053714 0.02150329341166994 0.0 0.0
0.0 0.0664365922151809 0.056495952250832274 -0.05528946125282139 -0.0012064909980108581 0.0216913855365519 0.0 0.0
0.0 0.056447223607186806 0.04791454188044765 -0.04677438972622219 -0.0011401521542254284 0.020331451946204455 0.0 0.0
0.0 0.04712582942206822 0.039786116889987524 -0.03871252418777828 -0.0010735927022092352 0.018215543829903952 0.0 0.0
0.0 0.03837493799674969 0.0323700996646001 -0.03136309938888545 -0.0010070002757146526 0.015855740305706446 0.0 0.0
0.0 0.030583421923141514 0.02575873180912172 -0.024818431602367443 -0.000940300206754291 0.013533070280806346 0.0 0.0
0.0 0.0236800716225162 0.019910059187315185 -0.01903853979469452 -0.0008715193926206664 0.011300907174124922 0.0 0.0
0.0 0.017549127658720118 0.014729871211011688 -0.013932447721635209 -0.0007974234893764779 0.009085405319712817 0.0 0.0
0.0 0.012152490678546214 0.010168419451473624 -0.009457598652679136 -0.0007108207987944869 0.0068196484451816825 0.0 0.0
0.0 0.0075655904467694214 0.006274100658954802 -0.005680437482475315 -0.0005936631764794853 0.0045820370526393085 0.0 0.0
0.0 0.003973754250638763 0.003206127285390809 -0.0027874948508082335 -0.00041863243458257473 0.002609787086183661 0.0 0.0
0.0 0.0015368017683969571 0.00117578293861368 -0.0009748761713957583 -0.0002009067672179215 0.0011529388657351173 0.0 0.0
0.0 0.00030750596419899063 0.00021914947965407668 -0.0001758408957285193 -4.3308583925557395e-05 0.0002908795876259023 0.0 0.0
0.0 2.2018074091619323e-05 6.603144737158351e-06 -5.2206051106169514e-06 -1.3825396265413894e-06 1.1587191465002082e-05 0.0 0.0
0.0 1.245983277765114e-06 -8.711175526903953e-08 6.722946235833695e-08 1.9882292910690027e-08 -2.0432140003799813e-07 0.0 0.0
0.0 0.0 0.0 0.0 0.0 0.0 0.0 0.0
0.0 0.0 0.0 0.0 0.0 0.0 0.0 0.0
0.0 0.0022367094979317036 0.0013551780906004753 -0.0016540289760775743 0.0002988508854770993 0.0019385680819858889 0.0 0.0
0.0 0.0013709284490847455 0.0007868291830863306 -0.000988846697051593 0.0002020175139652625 -0.001185163279452094 0.0 0.0
0.0 2.413150468070681e-07 -3.1561199297649185e-09 2.895078666521106e-09 2.6104126324386403e-10 4.838109291425756e-08 0.0 0.0
0.0 0.0 0.0 0.0 0.0 0.0 0.0 0.0
0.0 1.343535810957597e-06 -6.745450613659108e-08 5.1836617700734505e-08 1.5617888435866596e-08 2.5068220686766373e-07 0.0 0.0
0.0 1.0656456539837857e-05 3.836367124505305e-06 -3.0299194380476015e-06 -8.064476864577077e-07 -1.0057359739347176e-05 0.0 0.0
0.0 0.00015446037482799835 7.597627665734594e-05 -6.079122160905389e-05 -1.51850550482921e-05 -0.00015368676725360347 0.0 0.0
0.0 0.0008432096184415242 0.0005808425120700831 -0.0004729056584898275 -0.00010793685358025564 -0.0008455002874309859 0.0 0.0
0.0 0.0025798894065653727 0.0019423477528067148 -0.0016455515758644432 -0.00029679617694227154 -0.0021837204207198896 0.0 0.0
0.0 0.005373412869216008 0.004226722377500155 -0.003738072886779957 -0.0004886494907201968 -0.0040355423770838525 0.0 0.0
0.0 0.008983441492595227 0.007254643146857078 -0.006627533005335344 -0.0006271101415217329 -0.006228147852611214 0.0 0.0
0.0 0.013236919833782626 0.010812318627117403 -0.010092762109536666 -0.0007195565175807297 -0.008490668493853128 0.0 0.0
0.0 0.018041189635557828 0.014825619441833618 -0.014033371003979073 -0.0007922484378545475 -0.010675426384787409 0.0 0.0
0.0 0.0234462466524465 0.019333348019101464 -0.018478448425331757 -0.0008548995937696931 -0.012850698396106064 0.0 0.0
0.0 0.029499378123233562 0.02443703924995295 -0.023524093479175903 -0.0009129457707770419 -0.015104818567169151 0.0 0.0
0.0 0.03635325888963446 0.030211563338994985 -0.029243028358736295 -0.0009685349802586798 -0.017392083235008134 0.0 0.0
0.0 0.04390270558926457 0.03663699795131581 -0.035611493024882104 -0.0010255049264337108 -0.019462284161730205 0.0 0.0
0.0 0.051866637455825856 0.043564212206335017 -0.04248508977520853 -0.0010791224311264887 -0.020903147963927077 0.0 0.0
0.0 0.06005282679865399 0.050794156588442205 -0.04966362206809162 -0.001130534520350598 -0.021054142933867575 0.0 0.0
0.0 0.0679795629248387 0.05794424164791268 -0.056754704172022254 -0.0011895374758903972 -0.018575089687627652 0.0 0.0
0.0 0.07451731331716738 0.06410973605974768 -0.06285488107248738 -0.00125485498726029 -0.011488589003935115 0.0 0.0
0.0 0.07451731331716228 0.06410973605974203 -0.06285488107248136 -0.0012548549872606505 0.011488589003970831 0.0 0.0
0.0 0.06797956292482635 0.05794424164789816 -0.05675470417200745 -0.0011895374758907216 0.01857508968767737 0.0 0.0
0.0 0.06005282679863592 0.05079415658842258 -0.04966362206807205 -0.0011305345203504928 0.021054142933904365 0.0 0.0
0.0 0.051866637455802264 0.0435642122063122 -0.042485089775186155 -0.0010791224311260538 0.020903147963942055 0.0 0.0
0.0 0.0439027055892322 0.03663699795128799 -0.03561149302485448 -0.0010255049264334948 0.019462284161722007 0.0 0.0
0.0 0.0363532588896017 0.030211563338967254 -0.029243028358708713 -0.0009685349802585304 0.01739208323499645 0.0 0.0
0.0 0.029499378123203312 0.024437039249926865 -0.023524093479150004 -0.000912945770776868 0.015104818567161372 0.0 0.0
0.0 0.02344624665241528 0.019333348019074638 -0.018478448425305178 -0.0008548995937694622 0.012850698396096623 0.0 0.0
0.0 0.018041189635529194 0.014825619441809781 -0.014033371003955516 -0.0007922484378542638 0.010675426384772993 0.0 0.0
0.0 0.013236919833755502 0.010812318627095299 -0.010092762109515043 -0.0007195565175802438 0.008490668493836444 0.0 0.0
0.0 0.008983441492571347 0.007254643146838548 -0.0066275330053174 -0.0006271101415211488 0.006228147852591936 0.0 0.0
0.0 0.005373412869198279 0.004226722377486185 -0.003738072886766773 -0.0004886494907194112 0.004035542377072326 0.0 0.0
0.0 0.002579889406553442 0.0019423477527976628 -0.0016455515758563844 -0.0002967961769412781 0.0021837204207111986 0.0 0.0
0.0 0.0008432096184364736 0.0005808425120667209 -0.00047290565848703375 -0.00010793685357968665 0.0008455002874268604 0.0 0.0
0.0 0.0001544603748263989 7.597627665697019e-05 -6.079122160873887e-05 -1.518505504823122e-05 0.0001536867672527148 0.0 0.0
0.0 1.0656456539610674e-05 3.836367124693265e-06 -3.0299194381962745e-06 -8.064476864969947e-07 1.0057359739864676e-05 0.0 0.0
0.0 1.343535810551308e-06 -6.74545061154224e-08 5.1836617684484416e-08 1.561788843093987e-08 -2.5068220678900275e-07 0.0 0.0
0.0 0.0 0.0 0.0 0.0 0.0 0.0 0.0
0.0 2.413150465246296e-07 -3.1561199259962506e-09 2.8950786630596134e-09 2.610412629367381e-10 -4.838109285659394e-08 0.0 0.0
0.0 0.0013709284490773343 0.0007868291830822207 -0.0009888466970467474 0.00020201751396452635 0.001185163279445817 0.0 0.0
0.0 0.0007227743472166218 0.00037991767009602426 -0.0004938117018102479 0.00011389403171422377 -0.0006038894486233678 0.0 0.0
0.0 5.68229300698234e-07 -7.067340485817422e-09 9.746384288017086e-09 -2.679043802201258e-09 1.14239571365149e-07 0.0 0.0
0.0 8.951410656191049e-08 -1.3689216835930715e-09 8.919423533883084e-10 4.76979330204864e-10 1.7690051220060478e-08 0.0 0.0
0.0 8.694762653476193e-07 -2.987712020632065e-08 2.159330647060148e-08 8.283813735721381e-09 1.7349073420562356e-07 0.0 0.0
0.0 8.907615776244383e-06 2.1644360101103285e-06 -1.702490844898389e-06 -4.61945165211952e-07 -8.844875018258861e-06 0.0 0.0
0.0 8.804236661667098e-05 3.1654682184938685e-05 -2.5174489012670214e-05 -6.480193172268463e-06 -0.00010019889176830217 0.0 0.0
0.0 0.00040942774404984113 0.00021641108688143977 -0.00017400264715289107 -4.240843972854875e-05 -0.0005136348630196076 0.0 0.0
0.0 0.0014124244393285597 0.000921383124149282 -0.0007585330315174359 -0.00016285009263184585 -0.0015658285933049247 0.0 0.0
0.0 0.0033405959472075676 0.0023715099802405276 -0.0020311581635185736 -0.000340351816721952 -0.0031543675273300875 0.0 0.0
0.0 0.005877546756248596 0.004472783746430302 -0.0039729027037238955 -0.0004998810427064049 -0.005089159155575265 0.0 0.0
0.0 0.00906870903902768 0.0070011800539884475 -0.006391055224131682 -0.0006101248298567647 -0.007155345763792141 0.0 0.0
0.0 0.012517622680497916 0.009852950007101503 -0.009164357123363897 -0.0006885928837376031 -0.009188881514607696 0.0 0.0
0.0 0.016387790396533736 0.013037397309850745 -0.012286989848386982 -0.0007504074614637617 -0.011199884793824616 0.0 0.0
0.0 0.020778099796055296 0.016644951680269342 -0.015842576435242967 -0.0008023752450263694 -0.01324188992241959 0.0 0.0
0.0 0.025816294200870043 0.02077404532818736 -0.01992506246700777 -0.0008489828611795851 -0.01531205462590431 0.0 0.0
0.0 0.03140402879753344 0.025472012283227315 -0.02457744491908359 -0.0008945673641437158 -0.01722777338307766 0.0 0.0
0.0 0.037534640102501834 0.030691155638546797 -0.029751152349385926 -0.0009400032891608667 -0.018595431351457647 0.0 0.0
0.0 0.043946905852925065 0.036403166258839256 -0.035428790162725245 -0.0009743760961140159 -0.019027907742497806 0.0 0.0
0.0 0.05069079426954541 0.04263097448550187 -0.041620337928418086 -0.001010636557083763 -0.017570469278839283 0.0 0.0
0.0 0.05717984061270315 0.048882863437788394 -0.04780564180931698 -0.0010772216284714213 -0.011850721079422788 0.0 0.0
0.0 0.057179840612700775 0.048882863437784516 -0.04780564180931328 -0.0010772216284712273 0.01185072107945282 0.0 0.0
0.0 0.050690794269540124 0.04263097448549254 -0.04162033792840936 -0.0010106365570831742 0.01757046927888431 0.0 0.0
0.0 0.04394690585291397 0.03640316625882503 -0.03542879016271176 -0.000974376096113269 0.01902790774253104 0.0 0.0
0.0 0.03753464010248384 0.030691155638529075 -0.02975115234936881 -0.0009400032891602628 0.01859543135146858 0.0 0.0
0.0 0.031404028797511946 0.025472012283209354 -0.02457744491906626 -0.0008945673641430748 0.017227773383068638 0.0 0.0
0.0 0.02581629420084582 0.020774045328167116 -0.01992506246698803 -0.0008489828611790982 0.015312054625894595 0.0 0.0
0.0 0.02077809979603336 0.01664495168025095 -0.015842576435224673 -0.0008023752450262821 0.013241889922411994 0.0 0.0
0.0 0.01638779039651489 0.013037397309834603 -0.012286989848371137 -0.0007504074614634675 0.0111998847938184 0.0 0.0
0.0 0.012517622680479026 0.009852950007086199 -0.009164357123349225 -0.0006885928837369734 0.009188881514596157 0.0 0.0
0.0 0.009068709039007505 0.007001180053972652 -0.006391055224116421 -0.0006101248298562298 0.007155345763777559 0.0 0.0
0.0 0.005877546756230911 0.004472783746417302 -0.003972902703711701 -0.0004998810427055995 0.005089159155559909 0.0 0.0
0.0 0.0033405959471951713 0.0023715099802313327 -0.002031158163510252 -0.00034035181672108087 0.003154367527320049 0.0 0.0
0.0 0.001412424439321219 0.0009213831241442708 -0.0007585330315131319 -0.00016285009263113884 0.0015658285932978423 0.0 0.0
0.0 0.00040942774404662495 0.00021641108687985494 -0.00017400264715162843 -4.240843972822657e-05 0.0005136348630166681 0.0 0.0
0.0 8.804236661533104e-05 3.165468218481283e-05 -2.5174489012557647e-05 -6.480193172255165e-06 0.000100198891767705 0.0 0.0
0.0 8.907615775990644e-06 2.1644360102257503e-06 -1.7024908449899406e-06 -4.619451652358025e-07 8.844875018768772e-06 0.0 0.0
0.0 8.694762648168817e-07 -2.987712019000699e-08 2.1593306458356525e-08 8.283813731647456e-09 -1.7349073409897767e-07 0.0 0.0
0.0 8.951410621589535e-08 -1.3689216782533113e-09 8.919423499060667e-10 4.769793283472438e-10 -1.7690051151067024e-08 0.0 0.0
0.0 5.682293000733039e-07 -7.067340481250902e-09 9.746384282047934e-09 -2.6790438007974454e-09 -1.1423957123934295e-07 0.0 0.0
0.0 0.0007227743472113595 0.0003799176700935603 -0.0004938117018072521 0.00011389403171369178 0.0006038894486192882 0.0 0.0
0.0 0.00026391364116191106 0.00013680458397323747 -0.0001864188015011 4.9614217527862574e-05 -0.00022982820442420286 0.0 0.0
0.0 2.0717276247831737e-06 -6.165853434397743e-09 1.47916262852059e-08 -8.625772850807937e-09 4.367858720835785e-07 0.0 0.0
0.0 8.129603515550081e-07 -9.729788138728575e-10 -5.062304710215263e-10 1.479209284894036e-09 1.6676851108718092e-07 0.0 0.0
0.0 1.3942118126280809e-06 -1.7202479833820512e-08 1.1633862331670308e-08 5.568617502153395e-09 2.882879494068393e-07 0.0 0.0
0.0 9.275150483369467e-06 1.3227269918069747e-06 -1.0061235848244074e-06 -3.166034069825718e-07 -9.795799580652403e-06 0.0 0.0
0.0 7.28863939037895e-05 1.5411718100149316e-05 -1.2274712128192364e-05 -3.137005971956951e-06 -8.828839431091127e-05 0.0 0.0
0.0 0.0002323952711781419 7.135295419676394e-05 -5.7203277485275135e-05 -1.4149676711488772e-05 -0.0003224302755661472 0.0 0.0
0.0 0.0006239146252329759 0.0002764398012505541 -0.00022239959301875343 -5.404020823180045e-05 -0.0009100484541514352 0.0 0.0
0.0 0.0015909360575752656 0.0008735731339774664 -0.0007177852676108782 -0.00015578786636658858 -0.0020070059893799665 0.0 0.0
0.0 0.0030985817927528148 0.001963877953678933 -0.0016669330324426109 -0.0002969449212363211 -0.0034800711318301925 0.0 0.0
0.0 0.004990791423942889 0.00341515939823801 -0.0029901525722719957 -0.00042500682596601327 -0.0051323796283275725 0.0 0.0
0.0 0.0072206866093453784 0.005080203970112129 -0.004560823801448728 -0.0005193801686633982 -0.006831545649996046 0.0 0.0
0.0 0.009661225534764884 0.006951324523240905 -0.006359125609814409 -0.000592198913426491 -0.008571741955214644 0.0 0.0
0.0 0.012422992407995994 0.009084849903844863 -0.00843663134878149 -0.0006482185550633692 -0.010319145523398469 0.0 0.0
0.0 0.015589485469446938 0.01156978920455425 -0.010878020473834616 -0.0006917687307196291 -0.012072821197720802 0.0 0.0
0.0 0.019239635848412952 0.014510783217828657 -0.013782071430973654 -0.0007287117868550062 -0.01375211097916288 0.0 0.0
0.0 0.02342599726885623 0.017982437121625842 -0.01721607913836914 -0.0007663579832567063 -0.015056630061463131 0.0 0.0
0.0 0.028102522997781768 0.022063014411325493 -0.02126345795481745 -0.0007995564565080589 -0.015578994528159414 0.0 0.0
0.0 0.033596708239209044 0.02703869430008045 -0.026236355183646805 -0.0008023391164336405 -0.015100711788884806 0.0 0.0
0.0 0.039881995455692085 0.033184301902349805 -0.03232797659950354 -0.0008563253028462645 -0.011685677198995428 0.0 0.0
0.0 0.03988199545569137 0.033184301902347293 -0.032327976599500596 -0.0008563253028467148 0.011685677199020778 0.0 0.0
0.0 0.03359670823920589 0.02703869430007328 -0.02623635518363923 -0.0008023391164340391 0.015100711788922732 0.0 0.0
0.0 0.02810252299777314 0.022063014411313833 -0.021263457954805838 -0.0007995564565079839 0.01557899452818571 0.0 0.0
0.0 0.02342599726884361 0.017982437121613702 -0.01721607913835735 -0.0007663579832563448 0.015056630061468325 0.0 0.0
0.0 0.019239635848396174 0.014510783217816065 -0.01378207143096133 -0.0007287117868547302 0.013752110979152304 0.0 0.0
0.0 0.015589485469431907 0.011569789204543216 -0.010878020473823458 -0.000691768730719754 0.012072821197710153 0.0 0.0
0.0 0.012422992407986692 0.009084849903837336 -0.008436631348774166 -0.0006482185550631738 0.010319145523394496 0.0 0.0
0.0 0.009661225534755262 0.006951324523232903 -0.006359125609806678 -0.0005921989134262248 0.008571741955210944 0.0 0.0
0.0 0.007220686609334092 0.005080203970104127 -0.004560823801441294 -0.0005193801686628334 0.006831545649986458 0.0 0.0
0.0 0.004990791423929329 0.003415159398228907 -0.0029901525722635324 -0.00042500682596537375 0.0051323796283143045 0.0 0.0
0.0 0.003098581792742049 0.001963877953672265 -0.0016669330324366254 -0.0002969449212356388 0.0034800711318188206 0.0 0.0
0.0 0.0015909360575684494 0.0008735731339731784 -0.0007177852676072013 -0.00015578786636597715 0.002007005989372459 0.0 0.0
0.0 0.0006239146252298386 0.00027643980124911525 -0.00022239959301759935 -5.4040208231515694e-05 0.0009100484541478189 0.0 0.0
0.0 0.00023239527117664132 7.135295419653205e-05 -5.720327748507093e-05 -1.4149676711461116e-05 0.00032243027556484217 0.0 0.0
0.0 7.288639390276532e-05 1.5411718100105243e-05 -1.2274712128158933e-05 -3.137005971946298e-06 8.828839431058536e-05 0.0 0.0
0.0 9.275150483108713e-06 1.322726991875498e-06 -1.006123584876863e-06 -3.1660340699863706e-07 9.795799581191639e-06 0.0 0.0
0.0 1.3942118121365584e-06 -1.7202479827439693e-08 1.1633862327329383e-08 5.568617500112952e-09 -2.8828794930130727e-07 0.0 0.0
0.0 8.12960351106587e-07 -9.729788137991681e-10 -5.062304704954294e-10 1.479209284295063e-09 -1.667685109932312e-07 0.0 0.0
0.0 2.0717276240791394e-06 -6.165853431574411e-09 1.4791626278552993e-08 -8.625772846978897e-09 -4.3678587193397695e-07 0.0 0.0
0.0 0.0002639136411589306 0.00013680458397212256 -0.00018641880149963588 4.961421752751312e-05 0.00022982820442242239 0.0 0.0
0.0 5.702265684234153e-05 2.633915070118035e-05 -3.7531402766315915e-05 1.119225206513557e-05 -4.70220815200154e-05 0.0 0.0
0.0 2.3409661729961703e-06 6.496376963596438e-10 1.3091562580591183e-08 -1.3741200276949575e-08 4.872012716183131e-07 0.0 0.0
0.0 8.28283976103979e-07 8.757322001854407e-09 -7.994197467743662e-09 -7.631245341108108e-10 1.6872916499049268e-07 0.0 0.0
0.0 1.369766756856525e-06 -1.2882075813040775e-08 9.652136496998812e-09 3.229939316042559e-09 -3.675753478972779e-07 0.0 0.0
0.0 1.187581929450767e-05 2.6920255699178056e-07 -1.7740589733909756e-07 -9.17966596526893e-08 -9.866697958763332e-06 0.0 0.0
0.0 6.825004440804474e-05 4.748400148555816e-06 -3.7115739013650384e-06 -1.036826247190764e-06 -9.266399341330197e-05 0.0 0.0
0.0 0.00019608454530556287 2.1013753072080373e-05 -1.6806460516259334e-05 -4.207292555821059e-06 -0.000303923624639051 0.0 0.0
0.0 0.0004220579692102993 5.590909076737645e-05 -4.496191339085538e-05 -1.0947177376521002e-05 -0.0006284721706911782 0.0 0.0
0.0 0.0007292375825097807 0.00013457623463383422 -0.0001087598165497241 -2.581641808411011e-05 -0.0011697553938791808 0.0 0.0
0.0 0.0012783274089221612 0.0002932728807356878 -0.00023762542006344978 -5.564746067223796e-05 -0.00196445687336887 0.0 0.0
0.0 0.0019472155090367168 0.0005961272725610635 -0.0004813303379337282 -0.0001147969346273352 -0.003059399360226806 0.0 0.0
0.0 0.002864517763853857 0.0009956265677024706 -0.0008090078700279462 -0.0001866186976745243 -0.004289938893976624 0.0 0.0
0.0 0.003953315401030973 0.0014967268840254506 -0.0012368077065598106 -0.0002599191774656396 -0.0056775448766862215 0.0 0.0
0.0 0.00528304125808602 0.002132107035848183 -0.0018073521073376055 -0.000324754928510578 -0.007226020818862188 0.0 0.0
0.0 0.006841940963834354 0.002954499594285064 -0.002575525688084811 -0.0003789739062002531 -0.008918964043894228 0.0 0.0
0.0 0.008739421253505852 0.0040897116705280005 -0.0036654404511108395 -0.00042427121941715804 -0.010646966170881287 0.0 0.0
0.0 0.011014415200632278 0.005755502206607532 -0.005288935866521038 -0.0004665663400864919 -0.01209371425594066 0.0 0.0
0.0 0.013750275524013927 0.00817213187892479 -0.007655154657547129 -0.0005169772213776579 -0.012707009280915277 0.0 0.0
0.0 0.01733761645923496 0.011590718172731112 -0.011045897166246472 -0.0005448210064846345 -0.012310678843885288 0.0 0.0
0.0 0.02275141161728432 0.01693558758526116 -0.016417723087161645 -0.0005178644980995214 -0.0110762748597345 0.0 0.0
0.0 0.022751411617287498 0.016935587585261938 -0.016417723087162377 -0.000517864498099558 0.011076274859753758 0.0 0.0
0.0 0.017337616459237266 0.011590718172728824 -0.011045897166244226 -0.0005448210064845957 0.012310678843913599 0.0 0.0
0.0 0.013750275524011618 0.008172131878919712 -0.007655154657542169 -0.0005169772213775403 0.012707009280932203 0.0 0.0
0.0 0.01101441520062538 0.005755502206602928 -0.005288935866516456 -0.0004665663400864706 0.012093714255938574 0.0 0.0
0.0 0.008739421253498287 0.004089711670525185 -0.00366544045110815 -0.00042427121941703255 0.01064696617087052 0.0 0.0
0.0 0.006841940963828582 0.002954499594282985 -0.002575525688083098 -0.000378973906199887 0.008918964043886049 0.0 0.0
0.0 0.005283041258082467 0.0021321070358469776 -0.001807352107336646 -0.0003247549285103316 0.007226020818858128 0.0 0.0
0.0 0.003953315401026537 0.0014967268840240548 -0.001236807706558748 -0.0002599191774653063 0.005677544876680159 0.0 0.0
0.0 0.002864517763847692 0.0009956265677006299 -0.0008090078700264357 -0.000186618697674194 0.004289938893968201 0.0 0.0
0.0 0.0019472155090308738 0.0005961272725591055 -0.00048133033793213125 -0.0001147969346269739 0.0030593993602179067 0.0 0.0
0.0 0.0012783274089167842 0.0002932728807345949 -0.00023762542006253352 -5.5647460672061544e-05 0.0019644568733610266 0.0 0.0
0.0 0.0007292375825078325 0.00013457623463346597 -0.00010875981654947004 -2.5816418083995807e-05 0.0011697553938760587 0.0 0.0
0.0 0.000422057969208971 5.590909076719045e-05 -4.496191339071772e-05 -1.094717737647271e-05 0.0006284721706889888 0.0 0.0
0.0 0.00019608454530384818 2.10137530719844e-05 -1.6806460516168058e-05 -4.207292555816332e-06 0.00030392362463772067 0.0 0.0
0.0 6.825004440701225e-05 4.748400148514179e-06 -3.7115739013303406e-06 -1.0368262471838407e-06 9.266399341242729e-05 0.0 0.0
0.0 1.1875819294182492e-05 2.692025570015152e-07 -1.7740589734484696e-07 -9.179665965667159e-08 9.866697959177489e-06 0.0 0.0
0.0 1.369766756779603e-06 -1.2882075827109822e-08 9.652136513571044e-09 3.2299393135386904e-09 3.675753487716448e-07 0.0 0.0
0.0 8.282839756553083e-07 8.757321996808003e-09 -7.99419746324245e-09 -7.631245335657651e-10 -1.687291648967851e-07 0.0 0.0
0.0 2.340966172321822e-06 6.496376968874008e-10 1.3091562575233056e-08 -1.3741200272117913e-08 -4.87201271473837e-07 0.0 0.0
0.0 5.702265684119259e-05 2.6339150701024488e-05 -3.753140276608324e-05 1.1192252065058698e-05 4.7022081519885404e-05 0.0 0.0
0.0 3.1411485524631955e-06 4.872932587349894e-07 -7.046496074033064e-07 2.1735634866831031e-07 -1.0034451346157223e-06 0.0 0.0
0.0 2.0075146899755563e-06 -1.1517581609322225e-10 7.022283982266948e-09 -6.9071081661688705e-09 2.2443952816314164e-07 0.0 0.0
0.0 1.4718101536635575e-06 -5.7413915412201116e-08 4.570518941136384e-08 1.1708726000838595e-08 -5.878568658849561e-07 0.0 0.0
0.0 3.1705401635491193e-06 -2.420522544411712e-07 2.0849826924888786e-07 3.355398519228348e-08 -2.770198609507613e-06 0.0 0.0
0.0 1.5884021630676118e-05 -1.0114639632229914e-06 8.855663149180133e-07 1.2589764830498769e-07 -1.4948831210324084e-05 0.0 0.0
0.0 7.412749453504432e-05 -6.231527687391978e-06 5.125726443232355e-06 1.1058012441596165e-06 -9.445180988588173e-05 0.0 0.0
0.0 0.00019742422886083848 -2.2172912490225975e-05 1.7880716618791643e-05 4.292195871434326e-06 -0.000306288795463024 0.0 0.0
0.0 0.0004222193902715814 -5.6061679988422866e-05 4.508200852127382e-05 1.0979671467148972e-05 -0.0006298694803540605 0.0 0.0
0.0 0.0007291720491880186 -0.00013432544159437362 0.00010854190444447063 2.578353714990292e-05 -0.0011702581920231725 0.0 0.0
0.0 0.001276917676730959 -0.00029259303688626705 0.00023696244749456453 5.563058939170254e-05 -0.0019630578965299655 0.0 0.0
0.0 0.0019544938532581593 -0.0005948218179470941 0.0004809523680013366 0.00011386944994575714 -0.0030568111815039586 0.0 0.0
0.0 0.002871219493010092 -0.0010068851497162107 0.0008199819864890645 0.00018690316322714592 -0.004295560530279978 0.0 0.0
0.0 0.0039834612454382095 -0.0015338241325704052 0.001272118310808971 0.0002617058217614329 -0.005689652642890938 0.0 0.0
0.0 0.0053231207558467565 -0.0021832196800575495 0.0018523404278438552 0.00033087925221369314 -0.007233705241698364 0.0 0.0
0.0 0.006776360759697906 -0.0028779886336108293 0.0024843616531656544 0.00039362698044517443 -0.008915511228012585 0.0 0.0
0.0 0.008247209022089065 -0.003429845881648858 0.002980607047069066 0.00044923883457978763 -0.010698193687777054 0.0 0.0
0.0 0.009447204214376288 -0.0035332889730395837 0.0030391378816388426 0.0004941510914007416 -0.012571539069433627 0.0 0.0
0.0 0.01022275259350267 -0.0029075013498276537 0.00238222911770858 0.0005252722321190726 -0.01456802295507695 0.0 0.0
0.0 0.010516460077565381 -0.0015883293536597663 0.0011213537202085671 0.00046697563345119943 -0.016288876527321458 0.0 0.0
0.0 0.010136808579631076 0.0023673744986547392 -0.002452368768773068 8.49942701183285e-05 -0.01489888722133895 0.0 0.0
0.0 0.010136808579634863 0.0023673744986543854 -0.0024523687687727468 8.499427011836465e-05 0.0148988872213502 0.0 0.0
0.0 0.010516460077567659 -0.0015883293536593157 0.0011213537202083592 0.00046697563345095505 0.016288876527330454 0.0 0.0
0.0 0.010222752593499368 -0.0029075013498260126 0.0023822291177070915 0.00052527223211892 0.014568022955078575 0.0 0.0
0.0 0.00944720421436453 -0.0035332889730329527 0.0030391378816324033 0.0004941510914005466 0.012571539069425139 0.0 0.0
0.0 0.008247209022077363 -0.0034298458816421937 0.00298060704706278 0.0004492388345794111 0.010698193687765478 0.0 0.0
0.0 0.006776360759690634 -0.0028779886336072545 0.00248436165316234 0.0003936269804449138 0.008915511228003933 0.0 0.0
0.0 0.005323120755837241 -0.0021832196800519368 0.0018523404278388998 0.00033087925221303595 0.007233705241690393 0.0 0.0
0.0 0.003983461245427242 -0.0015338241325637586 0.0012721183108029778 0.0002617058217607799 0.00568965264288182 0.0 0.0
0.0 0.0028712194930018095 -0.0010068851497127833 0.0008199819864862874 0.00018690316322649619 0.004295560530270694 0.0 0.0
0.0 0.0019544938532507065 -0.0005948218179434367 0.0004809523679984103 0.00011386944994502643 0.0030568111814944293 0.0 0.0
0.0 0.001276917676724968 -0.00029259303688440206 0.0002369624474929331 5.5630589391468974e-05 0.001963057896522318 0.0 0.0
0.0 0.0007291720491860253 -0.0001343254415937637 0.00010854190444395548 2.578353714980827e-05 0.0011702581920204117 0.0 0.0
0.0 0.00042221939027025534 -5.606167998814298e-05 4.508200852103761e-05 1.0979671467105345e-05 0.000629869480352448 0.0 0.0
0.0 0.00019742422885890345 -2.217291249008194e-05 1.7880716618698283e-05 4.29219587138365e-06 0.000306288795461152 0.0 0.0
0.0 7.412749453367487e-05 -6.2315276873443025e-06 5.125726443196507e-06 1.105801244147805e-06 9.445180988513805e-05 0.0 0.0
0.0 1.5884021630207265e-05 -1.011463963251177e-06 8.855663149423735e-07 1.2589764830880013e-07 1.4948831210730589e-05 0.0 0.0
0.0 3.1705401634417743e-06 -2.4205225450736696e-07 2.0849826930645373e-07 3.355398520091369e-08 2.7701986102594885e-06 0.0 0.0
0.0 1.4718101533454009e-06 -5.7413915472453044e-08 4.570518946065401e-08 1.170872601179948e-08 5.878568665040817e-07 0.0 0.0
0.0 2.007514689386851e-06 -1.1517583098564758e-10 7.022283982258198e-09 -6.907108151267659e-09 -2.244395276568126e-07 0.0 0.0
0.0 3.141148551883751e-06 4.872932588714737e-07 -7.046496075994986e-07 2.173563487280282e-07 1.0034451349262886e-06 0.0 0.0
0.0 0.0 0.0 0.0 0.0 0.0 0.0 0.0
0.0 8.208630712641972e-07 2.6566521159530423e-09 3.978263656743069e-09 -6.634915772697648e-09 9.955023661003692e-08 0.0 0.0
0.0 2.787880819487116e-06 -1.5105252954563198e-07 1.234946806297013e-07 2.755784891592649e-08 -1.0868615876964235e-06 0.0 0.0
0.0 5.6901331647078735e-06 -1.2800046870829788e-07 1.2331852009724176e-07 4.6819486110695745e-09 -1.1454511218922733e-06 0.0 0.0
0.0 2.1287624044696138e-05 -3.891227170365325e-06 3.2485520210159573e-06 6.426751493493763e-07 -2.3680143519141047e-05 0.0 0.0
0.0 8.423635483937288e-05 -2.0026456575472082e-05 1.613968682970411e-05 3.8867697457679426e-06 -0.00010648690508252181 0.0 0.0
0.0 0.00024227910752179998 -7.354174904313113e-05 5.911618370355905e-05 1.4425565339572085e-05 -0.00032859699624325565 0.0 0.0
0.0 0.0006275630955574263 -0.0002778555604545231 0.00022355262796637317 5.4302932488149884e-05 -0.0009141608157100408 0.0 0.0
0.0 0.0015885028609969247 -0.0008725584244637706 0.0007168736677761614 0.00015568475668760888 -0.0020064176147827732 0.0 0.0
0.0 0.003095666464397015 -0.001962329919012051 0.0016656261905102759 0.0002967037285017749 -0.0034782309918193876 0.0 0.0
0.0 0.004993524301207683 -0.003417958661489464 0.0029934451446419473 0.00042451351684751504 -0.005133160864059601 0.0 0.0
0.0 0.007237513238745684 -0.005097912340252647 0.0045792546687941724 0.0005186576714584767 -0.006831247432042293 0.0 0.0
0.0 0.00970170588125778 -0.006996723824626458 0.006404609119409085 0.0005921147052173718 -0.008556048783164872 0.0 0.0
0.0 0.012469523088759274 -0.009138891365293732 0.008485856611345557 0.0006530347539481778 -0.010290536760034906 0.0 0.0
0.0 0.015503977408486995 -0.011474229134746161 0.010765853337360111 0.0007083757973860414 -0.012109319832590868 0.0 0.0
0.0 0.01859993962322581 -0.013793769993134353 0.013033100291799557 0.000760669701334795 -0.014105390822970942 0.0 0.0
0.0 0.02139907602485648 -0.015703378769645858 0.014896106662077297 0.0008072721075685699 -0.01634345180447763 0.0 0.0
0.0 0.023300016485871544 -0.01667677005134892 0.01583588538892128 0.0008408846624276501 -0.018728988509097853 0.0 0.0
0.0 0.022776109602200195 -0.01570147300063528 0.014765812765389545 0.0009356602352457266 -0.01968368191472349 0.0 0.0
0.0 0.01758061878733213 -0.010513053822147615 0.009506906320885605 0.0010061475012620052 -0.017072214720310962 0.0 0.0
0.0 0.017580618787337188 -0.01051305382214667 0.00950690632088413 0.0010061475012625386 0.017072214720333656 0.0 0.0
0.0 0.022776109602204477 -0.015701473000632783 0.014765812765386837 0.0009356602352459378 0.01968368191475257 0.0 0.0
0.0 0.0233000164858655 -0.016676770051339905 0.015835885388912313 0.0008408846624275891 0.0187289885091156 0.0 0.0
0.0 0.02139907602484244 -0.015703378769633486 0.014896106662065148 0.0008072721075683334 0.016343451804475908 0.0 0.0
0.0 0.018599939623206895 -0.01379376999311932 0.013033100291784751 0.0007606697013345723 0.014105390822959479 0.0 0.0
0.0 0.01550397740847105 -0.011474229134733793 0.01076585333734814 0.0007083757973856492 0.012109319832579957 0.0 0.0
0.0 0.012469523088743823 -0.009138891365281737 0.008485856611333817 0.0006530347539479183 0.010290536760025355 0.0 0.0
0.0 0.009701705881242724 -0.006996723824614063 0.006404609119396957 0.0005921147052171018 0.008556048783156835 0.0 0.0
0.0 0.007237513238728196 -0.005097912340239387 0.004579254668781673 0.0005186576714577124 0.006831247432030077 0.0 0.0
0.0 0.004993524301190778 -0.003417958661477865 0.002993445144631112 0.00042451351684675296 0.005133160864044136 0.0 0.0
0.0 0.0030956664643831434 -0.001962329919002747 0.0016656261905019893 0.0002967037285007577 0.0034782309918060424 0.0 0.0
0.0 0.001588502860989143 -0.0008725584244584927 0.0007168736677716975 0.00015568475668679537 0.002006417614774856 0.0 0.0
0.0 0.0006275630955541662 -0.0002778555604528253 0.00022355262796501751 5.4302932487807845e-05 0.0009141608157062176 0.0 0.0
0.0 0.00024227910751977523 -7.354174904272569e-05 5.911618370323536e-05 1.4425565339490308e-05 0.00032859699624156506 0.0 0.0
0.0 8.423635483790932e-05 -2.0026456575395134e-05 1.6139686829640795e-05 3.886769745754317e-06 0.00010648690508213268 0.0 0.0
0.0 2.12876240441682e-05 -3.8912271704355174e-06 3.2485520210746973e-06 6.426751493608049e-07 2.368014351956062e-05 0.0 0.0
0.0 5.690133164388782e-06 -1.2800046875794365e-07 1.233185201401438e-07 4.681948617803698e-09 1.1454511222373389e-06 0.0 0.0
0.0 2.7878808189231936e-06 -1.5105252965477021e-07 1.2349468071882515e-07 2.7557848935945148e-08 1.0868615885357438e-06 0.0 0.0
0.0 8.208630708736926e-07 2.6566520957038954e-09 3.9782636531818195e-09 -6.634915748885359e-09 -9.955023602719256e-08 0.0 0.0
0.0 0.0 0.0 0.0 0.0 0.0 0.0 0.0
0.0 0.0 0.0 0.0 0.0 0.0 0.0 0.0
0.0 9.659038647247042e-07 1.536493391610939e-08 -9.441890028047111e-09 -5.923043888061976e-09 1.9697054502569396e-07 0.0 0.0
0.0 3.14641178409048e-06 1.0107405086910694e-07 -8.018530435680869e-08 -2.088874651230194e-08 5.933763624734528e-07 0.0 0.0
0.0 8.128573908544866e-06 -1.4639697539498197e-07 1.1343645713993118e-07 3.296051825506179e-08 -4.968752436687885e-07 0.0 0.0
0.0 2.8128063763238832e-05 -7.609044080689161e-06 6.1760588271975305e-06 1.432985253491646e-06 -2.7568390737709327e-05 0.0 0.0
0.0 0.00010849861644100762 -4.06043950556226e-05 3.268654165400767e-05 7.917853401614901e-06 -0.00012551655435560325 0.0 0.0
0.0 0.00042852418068064737 -0.00022438982521198967 0.00018071467226053305 4.3675152951456606e-05 -0.0005294353021369329 0.0 0.0
0.0 0.0014156870799139935 -0.0009224512073544937 0.0007595302541550315 0.00016292095319946225 -0.0015698952563854326 0.0 0.0
0.0 0.0033354765367207507 -0.002368753904147794 0.0020285951410189407 0.00034015876312885245 -0.0031508446101245926 0.0 0.0
0.0 0.0058754233419834705 -0.00447206978920118 0.0039722916658333175 0.0004997781233678619 -0.005087158917812355 0.0 0.0
0.0 0.009073173480586715 -0.007005500824346418 0.006395797664584198 0.0006097031597622224 -0.0071556736965882805 0.0 0.0
0.0 0.012530080637550583 -0.009867327840960994 0.00917973541047226 0.0006875924304887311 -0.009176640957090977 0.0 0.0
0.0 0.016407544285473554 -0.013070484655518244 0.012320846192625088 0.0007496384628931545 -0.01113803370781231 0.0 0.0
0.0 0.020789405850854842 -0.01668263764119291 0.01587690476016525 0.000805732881027655 -0.013122505697865154 0.0 0.0
0.0 0.025720312481150996 -0.02068732069253896 0.019824381432585463 0.0008629392599534967 -0.01530825152387173 0.0 0.0
0.0 0.030895550109705825 -0.024862331388560754 0.0239393932761664 0.0009229381123943394 -0.017947961315848006 0.0 0.0
0.0 0.035911691629143254 -0.02871489357131509 0.02773272990126504 0.0009821636700500396 -0.021229453406431214 0.0 0.0
0.0 0.03943080155977752 -0.03135275273042204 0.030294849339002082 0.001057903391419959 -0.0245725264018788 0.0 0.0
0.0 0.03967372039211297 -0.03110007132821207 0.029946692633733115 0.001153378694478956 -0.026238864138844083 0.0 0.0
0.0 0.032209929954385055 -0.02481148558132444 0.023458018345525636 0.0013534672357987973 -0.02256957419841119 0.0 0.0
0.0 0.03220992995439218 -0.02481148558132488 0.02345801834552609 0.0013534672357987786 0.02256957419844121 0.0 0.0
0.0 0.0396737203921177 -0.031100071328208835 0.02994669263373019 0.0011533786944786333 0.026238864138883215 0.0 0.0
0.0 0.039430801559770516 -0.03135275273041086 0.03029484933899118 0.001057903391419671 0.02457252640190513 0.0 0.0
0.0 0.03591169162912137 -0.028714893571294593 0.027732729901245284 0.0009821636700493223 0.02122945340643442 0.0 0.0
0.0 0.030895550109676317 -0.02486233138853602 0.023939393276141942 0.0009229381123940839 0.017947961315836092 0.0 0.0
0.0 0.02572031248112418 -0.02068732069251688 0.019824381432563556 0.0008629392599533191 0.015308251523859286 0.0 0.0
0.0 0.02078940585082897 -0.016682637641171588 0.01587690476014412 0.0008057328810274657 0.01312250569785255 0.0 0.0
0.0 0.016407544285445698 -0.013070484655494562 0.012320846192601629 0.000749638462892926 0.011138033707801679 0.0 0.0
0.0 0.012530080637521469 -0.009867327840937544 0.009179735410448971 0.0006875924304885707 0.009176640957073838 0.0 0.0
0.0 0.009073173480560096 -0.007005500824325598 0.006395797664563984 0.0006097031597616124 0.0071556736965688525 0.0 0.0
0.0 0.0058754233419596995 -0.004472069789183287 0.003972291665816176 0.0004997781233671108 0.005087158917793435 0.0 0.0
0.0 0.0033354765367062536 -0.002368753904136516 0.0020285951410086416 0.000340158763127874 0.0031508446101137623 0.0 0.0
0.0 0.0014156870799065038 -0.0009224512073493153 0.0007595302541506579 0.00016292095319865756 0.0015698952563787207 0.0 0.0
0.0 0.00042852418067687765 -0.00022438982521031465 0.00018071467225919664 4.3675152951118e-05 0.0005294353021335929 0.0 0.0
0.0 0.00010849861643941207 -4.0604395055469775e-05 3.268654165388634e-05 7.917853401583398e-06 0.0001255165543550239 0.0 0.0
0.0 2.8128063762192695e-05 -7.609044080736595e-06 6.176058827236014e-06 1.432985253500544e-06 2.7568390737877798e-05 0.0 0.0
0.0 8.128573907943823e-06 -1.4639697549146516e-07 1.1343645721802266e-07 3.296051827343238e-08 4.968752440717087e-07 0.0 0.0
0.0 3.146411783534601e-06 1.0107405076138118e-07 -8.018530427071556e-08 -2.0888746490659152e-08 -5.93376361875552e-07 0.0 0.0
0.0 9.659038644330307e-07 1.5364933911636078e-08 -9.441890025310556e-09 -5.923043886328447e-09 -1.969705449648645e-07 0.0 0.0
0.0 0.0 0.0 0.0 0.0 0.0 0.0 0.0
0.0 0.0 0.0 0.0 0.0 0.0 0.0 0.0
0.0 0.0 0.0 0.0 0.0 0.0 0.0 0.0
0.0 1.762862297087584e-06 7.425115861487428e-08 -6.029149643128876e-08 -1.3959662183589334e-08 3.448992119798501e-07 0.0 0.0
0.0 7.604426735599384e-06 -8.368623633904678e-07 7.033285374610244e-07 1.3353382592943955e-07 -2.873845873579532e-06 0.0 0.0
0.0 3.582409298664378e-05 -1.184829922551928e-05 9.639770418512521e-06 2.208528807006789e-06 -3.053087001667603e-05 0.0 0.0
0.0 0.0001829161225087465 -9.860368709355809e-05 7.919987338504095e-05 1.9403813708517122e-05 -0.00019741676794609938 0.0 0.0
0.0 0.0008700466787931749 -0.0005901476992056368 0.00048142754225336903 0.00010872015695226781 -0.0008629514640606965 0.0 0.0
0.0 0.002578023136924802 -0.0019394080268525867 0.0016430664718540657 0.00029634155499852076 -0.0021828373125008403 0.0 0.0
0.0 0.005367896933829513 -0.004223620882646218 0.003735006918127068 0.0004886139645191494 -0.004029932425894739 0.0 0.0
0.0 0.008981599728473007 -0.007255889745017747 0.006628795679949616 0.0006270940650681285 -0.006226979465335403 0.0 0.0
0.0 0.01324246712934819 -0.01081728389988592 0.010098037312929006 0.0007192465869569158 -0.008490840665917461 0.0 0.0
0.0 0.018043892396752925 -0.014832119085357288 0.014040565345605282 0.0007915537397520051 -0.010653484000148589 0.0 0.0
0.0 0.02343365502541368 -0.019340274119192015 0.01848625049364295 0.0008540236255490636 -0.012748364929459355 0.0 0.0
0.0 0.02946079078886265 -0.02443895066159748 0.023524844101424768 0.0009141065601727203 -0.014889506989222196 0.0 0.0
0.0 0.036265036862111154 -0.0301461810073943 0.02916944309292004 0.0009767379144742473 -0.017305889512293206 0.0 0.0
0.0 0.043619973228556416 -0.03624163320924783 0.03519433778044062 0.001047295428807196 -0.02039072376946012 0.0 0.0
0.0 0.050728851919479775 -0.04205854332324077 0.04092874086593547 0.0011298024573052862 -0.024352578831901783 0.0 0.0
0.0 0.05606400921280016 -0.04623874385064065 0.045010039719777864 0.001228704130862727 -0.028513084053668435 0.0 0.0
0.0 0.05663865806398361 -0.0464197360470929 0.04505507734682484 0.0013646587002680275 -0.030704192608956047 0.0 0.0
0.0 0.04736724259308664 -0.03851588830417177 0.0369412847837797 0.0015746035203920922 -0.027424983337407418 0.0 0.0
0.0 0.04736724259309057 -0.03851588830416976 0.03694128478377749 0.0015746035203922587 0.027424983337440964 0.0 0.0
0.0 0.05663865806397971 -0.046419736047082986 0.045055077346814854 0.0013646587002681325 0.030704192608998142 0.0 0.0
0.0 0.056064009212786356 -0.04623874385062318 0.04501003971976142 0.0012287041308617435 0.02851308405370069 0.0 0.0
0.0 0.05072885191945047 -0.04205854332321364 0.04092874086590874 0.001129802457304884 0.02435257883190787 0.0 0.0
0.0 0.043619973228523845 -0.036241633209219616 0.035194337780412976 0.0010472954288066351 0.02039072376945173 0.0 0.0
0.0 0.03626503686207764 -0.030146181007365568 0.02916944309289206 0.000976737914473496 0.01730588951228231 0.0 0.0
0.0 0.02946079078882767 -0.024438950661567854 0.023524844101395888 0.0009141065601719625 0.014889506989208245 0.0 0.0
0.0 0.023433655025381347 -0.01934027411916425 0.018486250493615755 0.0008540236255485023 0.012748364929448835 0.0 0.0
0.0 0.018043892396719538 -0.014832119085329006 0.014040565345577594 0.0007915537397514078 0.010653484000133464 0.0 0.0
0.0 0.013242467129314987 -0.010817283899858776 0.010098037312902586 0.0007192465869561879 0.008490840665897148 0.0 0.0
0.0 0.008981599728446182 -0.007255889744996344 0.006628795679928869 0.0006270940650674726 0.006226979465316475 0.0 0.0
0.0 0.005367896933809573 -0.004223620882630307 0.003735006918112258 0.0004886139645180494 0.0040299324258822895 0.0 0.0
0.0 0.002578023136912159 -0.0019394080268426875 0.001643066471845397 0.00029634155499728987 0.0021828373124919767 0.0 0.0
0.0 0.0008700466787862813 -0.0005901476992010511 0.00048142754224955763 0.00010872015695149325 0.0008629514640549931 0.0 0.0
0.0 0.000182916122506119 -9.860368709267391e-05 7.91998733843109e-05 1.940381370836306e-05 0.00019741676794435736 0.0 0.0
0.0 3.582409298558341e-05 -1.1848299225502673e-05 9.639770418496834e-06 2.208528807005792e-06 3.053087001663949e-05 0.0 0.0
0.0 7.604426734998136e-06 -8.368623635867564e-07 7.033285376208346e-07 1.3353382596591414e-07 2.8738458742132317e-06 0.0 0.0
0.0 1.7628622966370727e-06 7.425115859493936e-08 -6.029149641515662e-08 -1.3959662179784548e-08 -3.4489921188806817e-07 0.0 0.0
0.0 0.0 0.0 0.0 0.0 0.0 0.0 0.0
0.0 0.0 0.0 0.0 0.0 0.0 0.0 0.0
0.0 0.0 0.0 0.0 0.0 0.0 0.0 0.0
0.0 0.0 0.0 0.0 0.0 0.0 0.0 0.0
0.0 6.301117771691601e-07 3.177133557320747e-08 -2.5610055499987776e-08 -6.161280073216576e-09 1.139376708674144e-07 0.0 0.0
0.0 8.422536672652007e-06 3.198010968161062e-07 -2.564922057234787e-07 -6.330889109261639e-08 8.540256405179802e-07 0.0 0.0
0.0 5.526325513194668e-05 -1.7596480093648595e-05 1.4191523044935952e-05 3.404957048712642e-06 -3.173653402935828e-05 0.0 0.0
0.0 0.00036071148940260985 -0.0002444145969013457 0.0001971665413686965 4.7248055532649136e-05 -0.0003275516931874174 0.0 0.0
0.0 0.00155425562434007 -0.0011798414554487907 0.0009795646635921348 0.00020027679185665524 -0.001166446326776117 0.0 0.0
0.0 0.003968459319816873 -0.003200673822883417 0.0027825013516496375 0.00041817247123377907 -0.002605675075499204 0.0 0.0
0.0 0.0075619222027089525 -0.0062724030048256964 0.005678562363929048 0.0005938406408966485 -0.004575022223880792 0.0 0.0
0.0 0.012155691710407186 -0.010171589996613592 0.009460747895112217 0.0007108421015013728 -0.006818490550868751 0.0 0.0
0.0 0.017553689207026206 -0.014734376464218275 0.013937067193350767 0.0007973092708675074 -0.009083480496168089 0.0 0.0
0.0 0.023669951060376015 -0.01990555115103933 0.019034202101942968 0.0008713490490963628 -0.011271446299059566 0.0 0.0
0.0 0.03053173940354654 -0.025730237591532486 0.024790712143009323 0.00093952544852315 -0.013408206494028487 0.0 0.0
0.0 0.038278897582731855 -0.03231993973946713 0.03131465472399024 0.0010052850154768894 -0.015582720361611176 0.0 0.0
0.0 0.04704748445688083 -0.03973761956032147 0.03866304634800159 0.0010745732123198996 -0.018035370697877282 0.0 0.0
0.0 0.05638129218312263 -0.04775747569997991 0.046600234129137726 0.0011572415708421594 -0.021182103936224543 0.0 0.0
0.0 0.06576554781043174 -0.0555065629762102 0.05424546934178123 0.0012610936344289734 -0.025309011430652038 0.0 0.0
0.0 0.07272584632469534 -0.06113483928096204 0.059744612389413906 0.0013902268915481396 -0.02989428996948006 0.0 0.0
0.0 0.07349028409458683 -0.06151682529953573 0.05996500362597198 0.001551821673563718 -0.03291328332047121 0.0 0.0
0.0 0.0626045982550216 -0.051951419666947406 0.05020421031429377 0.0017472093526536376 -0.03177596677191329 0.0 0.0
0.0 0.0626045982550236 -0.05195141966694391 0.05020421031429007 0.0017472093526538241 0.03177596677194936 0.0 0.0
0.0 0.07349028409458058 -0.06151682529952425 0.059965003625960765 0.0015518216735634733 0.032913283320516545 0.0 0.0
0.0 0.0727258463246761 -0.061134839280940795 0.05974461238939319 0.0013902268915476118 0.029894289969514494 0.0 0.0
0.0 0.06576554781039676 -0.055506562976178175 0.054245469341749786 0.0012610936344283502 0.025309011430659292 0.0 0.0
0.0 0.056381292183075735 -0.04775747569993931 0.04660023412909702 0.0011572415708422734 0.021182103936217275 0.0 0.0
0.0 0.04704748445683617 -0.03973761956028314 0.03866304634796355 0.0010745732123196138 0.01803537069786498 0.0 0.0
0.0 0.038278897582691755 -0.03231993973943256 0.03131465472395635 0.0010052850154762118 0.015582720361598607 0.0 0.0
0.0 0.0305317394035022 -0.025730237591494176 0.02479071214297155 0.0009395254485226232 0.01340820649401603 0.0 0.0
0.0 0.023669951060332067 -0.01990555115100175 0.019034202101905817 0.0008713490490959276 0.011271446299043334 0.0 0.0
0.0 0.01755368920698485 -0.01473437646418383 0.013937067193316518 0.000797309270867311 0.009083480496146892 0.0 0.0
0.0 0.01215569171037221 -0.010171589996584383 0.009460747895083573 0.0007108421015008203 0.006818490550847876 0.0 0.0
0.0 0.007561922202681725 -0.006272403004803086 0.005678562363907001 0.0005938406408960888 0.0045750222238662205 0.0 0.0
0.0 0.003968459319800113 -0.0032006738228696325 0.0027825013516369354 0.00041817247123269785 0.002605675075489885 0.0 0.0
0.0 0.0015542556243310934 -0.0011798414554421656 0.0009795646635864968 0.00020027679185566867 0.0011664463267701116 0.0 0.0
0.0 0.000360711489398784 -0.0002444145968992854 0.00019716654136702809 4.7248055532257306e-05 0.0003275516931848826 0.0 0.0
0.0 5.526325513090645e-05 -1.7596480093716246e-05 1.4191523044983146e-05 3.404957048732995e-06 3.173653402947093e-05 0.0 0.0
0.0 8.422536671998826e-06 3.198010966947411e-07 -2.5649220562689405e-07 -6.330889106783648e-08 -8.54025640228413e-07 0.0 0.0
0.0 6.301117768796378e-07 3.177133555832444e-08 -2.5610055487985994e-08 -6.161280070339225e-09 -1.1393767081387647e-07 0.0 0.0
0.0 0.0 0.0 0.0 0.0 0.0 0.0 0.0
0.0 0.0 0.0 0.0 0.0 0.0 0.0 0.0
0.0 0.0 0.0 0.0 0.0 0.0 0.0 0.0
0.0 0.0 0.0 0.0 0.0 0.0 0.0 0.0
0.0 9.159772724021529e-07 5.630253744311479e-08 -4.536700834069255e-08 -1.0935529102421052e-08 1.5681455061216043e-07 0.0 0.0
0.0 5.055186361907018e-06 -6.922098795093479e-07 5.544539526407208e-07 1.3775592686866853e-07 -1.2436813475036604e-06 0.0 0.0
0.0 8.906958612639461e-05 -4.847780911386716e-05 3.8841731235337495e-05 9.63607787852968e-06 -6.320790728792457e-05 0.0 0.0
0.0 0.000690092646084328 -0.0005095123724538131 0.00041398336484490606 9.552900760890724e-05 -0.0004630711712068814 0.0 0.0
0.0 0.0024629133024978616 -0.0019533138962860687 0.0016541610564771419 0.0002991528398089268 -0.001355614511208222 0.0 0.0
0.0 0.005451856692033867 -0.004632696820151538 0.004115788678440882 0.0005169081417106562 -0.0028112792139713943 0.0 0.0
0.0 0.00984360473896865 -0.008420039864476456 0.007753026254987332 0.0006670136094891269 -0.00471235217870878 0.0 0.0
0.0 0.015403060214204149 -0.013152500149438794 0.01237949947358342 0.0007730006758553817 -0.006827605449080067 0.0 0.0
0.0 0.021938795171125302 -0.018712997589011036 0.017852914084762837 0.0008600835042481846 -0.008992018151142731 0.0 0.0
0.0 0.0293533763716073 -0.025048612135330193 0.024109181597004578 0.0009394305383255921 -0.0110858715522821 0.0 0.0
0.0 0.03776637608716132 -0.032201997920360194 0.03118692370089381 0.0010150742194663812 -0.013146063073113593 0.0 0.0
0.0 0.04711160994916754 -0.04028702726032228 0.03919901570862077 0.0010880115517015144 -0.015265696950548458 0.0 0.0
0.0 0.057717013452472724 -0.049379294363785804 0.048215594835394136 0.0011636995283916588 -0.017546024711435067 0.0 0.0
0.0 0.06934506030791025 -0.059255346782187024 0.05799797471315289 0.001257372069034143 -0.020315363441229136 0.0 0.0
0.0 0.08052351235207829 -0.06888281600866998 0.06750099869901947 0.0013818173096504633 -0.02409682838603639 0.0 0.0
0.0 0.08889889747852638 -0.07591178472884193 0.07437268846433265 0.0015390962645092645 -0.028834477987722314 0.0 0.0
0.0 0.09005533551220996 -0.07651444747826769 0.07479744507401671 0.0017170024042509379 -0.03329429380788302 0.0 0.0
0.0 0.07818845778954511 -0.06549228783018256 0.06358905255225378 0.0019032352779287747 -0.035910879782474474 0.0 0.0
0.0 0.07818845778954481 -0.06549228783017752 0.06358905255224873 0.0019032352779287678 0.035910879782510605 0.0 0.0
0.0 0.09005533551219783 -0.07651444747825212 0.07479744507400143 0.001717002404250627 0.03329429380792846 0.0 0.0
0.0 0.08889889747849765 -0.07591178472881352 0.07437268846430445 0.0015390962645090468 0.028834477987755833 0.0 0.0
0.0 0.08052351235203764 -0.06888281600863341 0.06750099869898343 0.0013818173096499535 0.024096828386044974 0.0 0.0
0.0 0.06934506030786486 -0.05925534678214682 0.057997974713114075 0.0012573720690327319 0.020315363441227093 0.0 0.0
0.0 0.05771701345242274 -0.04937929436374206 0.048215594835351205 0.001163699528390843 0.017546024711428687 0.0 0.0
0.0 0.04711160994911756 -0.04028702726027901 0.039199015708577985 0.001088011551701025 0.01526569695053722 0.0 0.0
0.0 0.037766376087112474 -0.03220199792031764 0.031186923700851826 0.0010150742194657985 0.013146063073102069 0.0 0.0
0.0 0.02935337637155685 -0.025048612135286436 0.02410918159696134 0.0009394305383250909 0.011085871552267864 0.0 0.0
0.0 0.021938795171076275 -0.01871299758896935 0.01785291408472163 0.0008600835042477247 0.008992018151122013 0.0 0.0
0.0 0.015403060214163529 -0.01315250014940436 0.012379499473549598 0.0007730006758547528 0.006827605449060562 0.0 0.0
0.0 0.009843604738937133 -0.008420039864449282 0.007753026254961017 0.0006670136094882631 0.004712352178695092 0.0 0.0
0.0 0.0054518566920129935 -0.004632696820133631 0.004115788678424016 0.0005169081417096118 0.002811279213961608 0.0 0.0
0.0 0.0024629133024855776 -0.001953313896276172 0.0016541610564684067 0.000299152839807766 0.0013556145112019078 0.0 0.0
0.0 0.0006900926460787415 -0.0005095123724500292 0.00041398336484177385 9.552900760825518e-05 0.00046307117120361987 0.0 0.0
0.0 8.906958612519471e-05 -4.8477809113824955e-05 3.88417312352911e-05 9.636077878533867e-06 6.320790728782117e-05 0.0 0.0
0.0 5.055186361701202e-06 -6.922098797739924e-07 5.544539528531883e-07 1.3775592692078157e-07 1.243681348005516e-06 0.0 0.0
0.0 9.159772720464821e-07 5.630253742091469e-08 -4.5367008322703315e-08 -1.0935529098212496e-08 -1.5681455054918204e-07 0.0 0.0
0.0 0.0 0.0 0.0 0.0 0.0 0.0 0.0
0.0 0.0 0.0 0.0 0.0 0.0 0.0 0.0
0.0 0.0 0.0 0.0 0.0 0.0 0.0 0.0
0.0 0.0 0.0 0.0 0.0 0.0 0.0 0.0
0.0 0.0 0.0 0.0 0.0 0.0 0.0 0.0
0.0 4.69457019674365e-06 -1.228430500489807e-06 9.676629792960907e-07 2.607675211937343e-07 -1.6311047458615207e-06 0.0 0.0
0.0 0.00017018889000083067 -0.00011073751632873985 8.88458566242845e-05 2.1891659704455422e-05 -0.00010163507747739613 0.0 0.0
0.0 0.0011781680310623936 -0.0009055368337751116 0.0007449291198234291 0.00016060771395168304 -0.0005571198203795752 0.0 0.0
0.0 0.003337651293026398 -0.0028954873406633296 0.002500716802745969 0.00039477053791736225 -0.0014310849183892561 0.0 0.0
0.0 0.007038271548533629 -0.006153673703863586 0.005564325028409013 0.0005893486754545736 -0.0027451883635956583 0.0 0.0
0.0 0.012229624952358574 -0.010609740436979763 0.009888365767584749 0.0007213746693950115 -0.004408258889899094 0.0 0.0
0.0 0.018704288979345927 -0.01616945493443236 0.015346360011086253 0.0008230949233461171 -0.006297908072725305 0.0 0.0
0.0 0.02635372517991695 -0.02272484476759087 0.02181128196671918 0.0009135628008716797 -0.008234059253689132 0.0 0.0
0.0 0.035105009481346844 -0.030232212265655017 0.02923222184450957 0.00099999042114544 -0.010113826201038265 0.0 0.0
0.0 0.04498138450652484 -0.038731211274251005 0.03764744388139023 0.001083767392860757 -0.011992286658895228 0.0 0.0
0.0 0.056125986713512564 -0.04830854798663685 0.04714231178059515 0.0011662362060416832 -0.013921333935015696 0.0 0.0
0.0 0.0685487783479202 -0.05900888990189625 0.057759251236591286 0.0012496386653049665 -0.01589040180851312 0.0 0.0
0.0 0.08178269208141678 -0.07060530256597694 0.06925638933869849 0.0013489132272784016 -0.01797709603940846 0.0 0.0
0.0 0.09501070463588247 -0.08200160740180076 0.08051182314694784 0.0014897842548529166 -0.020789492914642334 0.0 0.0
0.0 0.10502429444096573 -0.0904902266327604 0.08881855198541391 0.0016716746473464722 -0.025327197084268997 0.0 0.0
0.0 0.10683449770254248 -0.09159826759350678 0.08972873424378955 0.0018695333497172268 -0.031886152083557724 0.0 0.0
0.0 0.09418449739154498 -0.07947392977166079 0.07741746580295436 0.0020564639687064095 -0.03984095462790764 0.0 0.0
0.0 0.09418449739154282 -0.07947392977165428 0.07741746580294817 0.002056463968706134 0.03984095462794318 0.0 0.0
0.0 0.10683449770252174 -0.09159826759348502 0.08972873424376804 0.0018695333497169876 0.03188615208359841 0.0 0.0
0.0 0.1050242944409295 -0.09049022663272654 0.08881855198538068 0.0016716746473457904 0.025327197084298658 0.0 0.0
0.0 0.09501070463583378 -0.08200160740175755 0.08051182314690547 0.0014897842548520562 0.020789492914649384 0.0 0.0
0.0 0.08178269208136048 -0.07060530256592767 0.06925638933865008 0.0013489132272775759 0.01797709603940599 0.0 0.0
0.0 0.06854877834785772 -0.05900888990184193 0.05775925123653752 0.001249638665304407 0.015890401808507232 0.0 0.0
0.0 0.05612598671344897 -0.04830854798658193 0.04714231178054056 0.0011662362060413213 0.01392133393500582 0.0 0.0
0.0 0.04498138450646515 -0.03873121127419906 0.037647443881339226 0.0010837673928598562 0.011992286658884164 0.0 0.0
0.0 0.03510500948128786 -0.03023221226560359 0.029232221844458863 0.000999990421144743 0.010113826201025565 0.0 0.0
0.0 0.026353725179863462 -0.022724844767544595 0.021811281966673448 0.0009135628008711365 0.008234059253671053 0.0 0.0
0.0 0.01870428897930036 -0.01616945493439295 0.015346360011047437 0.0008230949233455092 0.006297908072708174 0.0 0.0
0.0 0.01222962495232329 -0.01060974043694886 0.009888365767554416 0.0007213746693944428 0.004408258889887854 0.0 0.0
0.0 0.007038271548507398 -0.006153673703840502 0.005564325028386772 0.0005893486754537271 0.002745188363586274 0.0 0.0
0.0 0.003337651293010966 -0.0028954873406499783 0.0025007168027337667 0.0003947705379162115 0.0014310849183829357 0.0 0.0
0.0 0.0011781680310541504 -0.0009055368337690089 0.0007449291198182835 0.0001606077139507253 0.0005571198203760705 0.0 0.0
0.0 0.00017018888999859597 -0.00011073751632788195 8.884585662357044e-05 2.1891659704311328e-05 0.00010163507747662056 0.0 0.0
0.0 4.694570196223005e-06 -1.228430500672502e-06 9.676629794393589e-07 2.607675212331562e-07 1.6311047461119367e-06 0.0 0.0
0.0 0.0 0.0 0.0 0.0 0.0 0.0 0.0
0.0 0.0 0.0 0.0 0.0 0.0 0.0 0.0
0.0 0.0 0.0 0.0 0.0 0.0 0.0 0.0
0.0 0.0 0.0 0.0 0.0 0.0 0.0 0.0
0.0 0.0 0.0 0.0 0.0 0.0 0.0 0.0
0.0 0.0 0.0 0.0 0.0 0.0 0.0 0.0
0.0 6.087340811275229e-06 -2.130347484855727e-06 1.6902871226008896e-06 4.400603622548275e-07 -2.067727989808328e-06 0.0 0.0
0.0 0.00033971843591883415 -0.00023769058790353996 0.00019076626365701867 4.692432424652123e-05 -0.00013870024338394539 0.0 0.0
0.0 0.0017625602043179766 -0.0014394289546985823 0.0012009027580013752 0.00023852619669720732 -0.0005813849418828835 0.0 0.0
0.0 0.004393640332833446 -0.003925603272518967 0.0034502750077144797 0.00047532826480448776 -0.0013035768180411538 0.0 0.0
0.0 0.008734594857845196 -0.00770886975975329 0.0070656039412561 0.0006432658184971896 -0.0023523208675880233 0.0 0.0
0.0 0.01465340993569585 -0.012820867239251266 0.012057034355847873 0.0007638328834033855 -0.003701140720649249 0.0 0.0
0.0 0.022043880917989887 -0.019196218133624827 0.018331131568489194 0.0008650865651356318 -0.0052440539905397624 0.0 0.0
0.0 0.030822055004814754 -0.02674486387526976 0.02578409167302773 0.0009607722022420309 -0.006832115918352745 0.0 0.0
0.0 0.0408561442489728 -0.035431944659585886 0.034377422069963096 0.0010545225896227803 -0.008371668926866676 0.0 0.0
0.0 0.05235297756524296 -0.04528813572220354 0.044140725494490426 0.0011474102277130925 -0.00991930698774206 0.0 0.0
0.0 0.06503425429611014 -0.05636334313152233 0.05512289441116423 0.0012404487203581177 -0.011559283525612075 0.0 0.0
0.0 0.0791093567168659 -0.06860453752803782 0.06726968938830016 0.0013348481397376663 -0.013154484817262606 0.0 0.0
0.0 0.09420303618466341 -0.08170309009402081 0.08026464718902504 0.0014384429049958034 -0.014392834100876922 0.0 0.0
0.0 0.10911136609207187 -0.09465116939598935 0.0930745262541571 0.001576643141832199 -0.015665978309019148 0.0 0.0
0.0 0.12087577028378399 -0.10476957937817102 0.10298540011459699 0.0017841792635739679 -0.019353562895436837 0.0 0.0
0.0 0.12392152669003538 -0.1069383633874921 0.10492540500863004 0.0020129583788620854 -0.028296340930611848 0.0 0.0
0.0 0.11124052906795916 -0.09427977897580764 0.09205974777565364 0.0022200312001539923 -0.043284238068598914 0.0 0.0
0.0 0.11124052906795369 -0.09427977897579953 0.09205974777564596 0.0022200312001536167 0.04328423806862636 0.0 0.0
0.0 0.1239215266900103 -0.10693836338746779 0.1049254050086062 0.00201295837886157 0.028296340930647236 0.0 0.0
0.0 0.12087577028374086 -0.10476957937813199 0.10298540011455867 0.001784179263573264 0.01935356289546406 0.0 0.0
0.0 0.10911136609201501 -0.09465116939593948 0.09307452625410804 0.001576643141831432 0.015665978309024945 0.0 0.0
0.0 0.09420303618459841 -0.0817030900939642 0.08026464718896915 0.0014384429049950596 0.014392834100875485 0.0 0.0
0.0 0.07910935671679944 -0.0686045375279796 0.06726968938824321 0.0013348481397364286 0.013154484817260746 0.0 0.0
0.0 0.06503425429604226 -0.05636334313146312 0.05512289441110613 0.001240448720356974 0.011559283525605608 0.0 0.0
0.0 0.052352977565171814 -0.045288135722141784 0.04414072549442917 0.0011474102277126282 0.00991930698773264 0.0 0.0
0.0 0.04085614424890492 -0.03543194465952706 0.034377422069904594 0.0010545225896224615 0.008371668926858642 0.0 0.0
0.0 0.030822055004754236 -0.026744863875216882 0.02578409167297553 0.0009607722022413495 0.0068321159183382125 0.0 0.0
0.0 0.022043880917939913 -0.01919621813358125 0.018331131568446103 0.0008650865651351556 0.005244053990525166 0.0 0.0
0.0 0.014653409935656177 -0.012820867239216324 0.012057034355813566 0.0007638328834027621 0.003701140720639745 0.0 0.0
0.0 0.008734594857814491 -0.007708869759725996 0.007065603941229667 0.0006432658184963298 0.002352320867579882 0.0 0.0
0.0 0.004393640332814346 -0.003925603272501754 0.003450275007698512 0.0004753282648032428 0.001303576818035519 0.0 0.0
0.0 0.0017625602043073096 -0.0014394289546897177 0.0012009027579936663 0.00023852619669605032 0.0005813849418792676 0.0 0.0
0.0 0.000339718435915042 -0.000237690587901154 0.0001907662636550566 4.692432424609759e-05 0.00013870024338260572 0.0 0.0
0.0 6.0873408107864825e-06 -2.1303474851438287e-06 1.6902871228277016e-06 4.400603623161351e-07 2.0677279900905345e-06 0.0 0.0
0.0 0.0 0.0 0.0 0.0 0.0 0.0 0.0
0.0 0.0 0.0 0.0 0.0 0.0 0.0 0.0
0.0 0.0 0.0 0.0 0.0 0.0 0.0 0.0
0.0 0.0 0.0 0.0 0.0 0.0 0.0 0.0
0.0 0.0 0.0 0.0 0.0 0.0 0.0 0.0
0.0 0.0 0.0 0.0 0.0 0.0 0.0 0.0
0.0 1.4509840551813646e-05 -5.379562960743747e-06 4.30953365582127e-06 1.0700293049225058e-06 -3.4608059398286142e-06 0.0 0.0
0.0 0.000633368931307914 -0.00045838440982548913 0.000370811302796801 8.757310702868817e-05 -0.000153175293282473 0.0 0.0
0.0 0.002297652786150002 -0.002098733215770795 0.0017766611662677258 0.00032207204950306844 -0.00048245403066169 0.0 0.0
0.0 0.005565453536889437 -0.004998073360050597 0.004461233423781407 0.0005368399362691911 -0.0009686925933402594 0.0 0.0
0.0 0.010467658920346554 -0.009282812159273332 0.00859759634804354 0.0006852158112297952 -0.0016734938386352505 0.0 0.0
0.0 0.017098009640882955 -0.015030000023945968 0.014232279741793637 0.0007977202821523307 -0.002598877166470113 0.0 0.0
0.0 0.02539431445046869 -0.022209650457682976 0.021308771006468753 0.000900879451214221 -0.003675452059412972 0.0 0.0
0.0 0.03528193137587293 -0.030751239654818532 0.029748391935086767 0.0010028477197317701 -0.004783661640908712 0.0 0.0
0.0 0.04676813000028253 -0.040623488386238756 0.03951902338421803 0.0011044650020207059 -0.005859352319455636 0.0 0.0
0.0 0.059585039497278294 -0.05184944467197088 0.05064278714688963 0.001206657525081253 -0.006974652147684342 0.0 0.0
0.0 0.07401353625016269 -0.06441407512215606 0.06310312180137731 0.0013109533207787366 -0.008147875840953956 0.0 0.0
0.0 0.08984467590290328 -0.07814442156964307 0.07672545140100695 0.001418970168636095 -0.009222226657966256 0.0 0.0
0.0 0.10644008355428791 -0.09256259341967643 0.09103120668197331 0.0015313867377031113 -0.00980554519498007 0.0 0.0
0.0 0.12265845187771379 -0.10667716593508025 0.10501979282414163 0.001657373110938694 -0.009629739901079196 0.0 0.0
0.0 0.13613240045248426 -0.11836296848125047 0.11652523945096133 0.001837729030289145 -0.010899179652480396 0.0 0.0
0.0 0.14150771954419536 -0.1226402394957963 0.12048384684102197 0.002156392654774239 -0.021168150130624886 0.0 0.0
0.0 0.1298508856137638 -0.11050180492813345 0.10808982937379881 0.0024119755543346322 -0.045505117262600495 0.0 0.0
0.0 0.12985088561375321 -0.1105018049281225 0.10808982937378747 0.0024119755543350317 0.045505117262619924 0.0 0.0
0.0 0.14150771954416416 -0.12264023949576794 0.12048384684099386 0.0021563926547740315 0.02116815013065302 0.0 0.0
0.0 0.13613240045243202 -0.11836296848120481 0.11652523945091563 0.0018377290302891637 0.010899179652499695 0.0 0.0
0.0 0.12265845187764826 -0.10667716593502326 0.10501979282408498 0.0016573731109382624 0.009629739901081609 0.0 0.0
0.0 0.10644008355420971 -0.09256259341960886 0.09103120668190569 0.0015313867377031393 0.009805545194977418 0.0 0.0
0.0 0.08984467590282165 -0.07814442156957271 0.07672545140093606 0.0014189701686366392 0.009222226657964887 0.0 0.0
0.0 0.07401353625008442 -0.06441407512208827 0.0631031218013099 0.001310953320778354 0.008147875840949156 0.0 0.0
0.0 0.059585039497200926 -0.05184944467190364 0.050642787146823146 0.0012066575250805102 0.006974652147677942 0.0 0.0
0.0 0.04676813000020821 -0.04062348838617386 0.03951902338415382 0.0011044650020200226 0.005859352319450594 0.0 0.0
0.0 0.035281931375805306 -0.030751239654759677 0.029748391935028602 0.0010028477197310598 0.004783661640898608 0.0 0.0
0.0 0.02539431445041204 -0.02220965045763347 0.021308771006419945 0.0009008794512135382 0.0036754520594023225 0.0 0.0
0.0 0.017098009640839004 -0.015030000023906878 0.014232279741755303 0.0007977202821515743 0.0025988771664642576 0.0 0.0
0.0 0.010467658920313282 -0.009282812159243668 0.008597596348014639 0.0006852158112290237 0.0016734938386298013 0.0 0.0
0.0 0.005565453536868566 -0.004998073360031575 0.004461233423763336 0.0005368399362682374 0.0009686925933363299 0.0 0.0
0.0 0.0022976527861392456 -0.0020987332157608746 0.001776661166258952 0.0003220720495019238 0.00048245403065956126 0.0 0.0
0.0 0.0006333689313028894 -0.0004583844098219196 0.0003708113027938339 8.757310702808547e-05 0.00015317529328137794 0.0 0.0
0.0 1.4509840551062899e-05 -5.379562960943544e-06 4.309533655975957e-06 1.0700293049675407e-06 3.4608059399486164e-06 0.0 0.0
0.0 0.0 0.0 0.0 0.0 0.0 0.0 0.0
0.0 0.0 0.0 0.0 0.0 0.0 0.0 0.0
0.0 0.0 0.0 0.0 0.0 0.0 0.0 0.0
0.0 0.0 0.0 0.0 0.0 0.0 0.0 0.0
0.0 0.0 0.0 0.0 0.0 0.0 0.0 0.0
0.0 0.0 0.0 0.0 0.0 0.0 0.0 0.0
0.0 5.188990521945038e-05 -3.4396427514484324e-05 2.715149229091421e-05 7.244935223570265e-06 -9.296635477005277e-06 0.0 0.0
0.0 0.0010633364040912605 -0.0007777586972259461 0.0006346981415128445 0.00014306055571310124 -0.00010245061810542154 0.0 0.0
0.0 0.0030695790640882055 -0.0028040919650004713 0.002408819377868192 0.0003952725871322791 -0.0002314555741661193 0.0 0.0
0.0 0.006780063663977719 -0.006095967905159878 0.005510676246008626 0.0005852916591512506 -0.0004290117718651908 0.0 0.0
0.0 0.012238612351664473 -0.0108538445312749 0.010136183732114425 0.0007176607991604706 -0.0007126824246949388 0.0 0.0
0.0 0.019568766520601168 -0.01721469139417975 0.016388895643423163 0.000825795750756585 -0.0011097671234778055 0.0 0.0
0.0 0.028785962003544302 -0.02518556322327949 0.024253734768990967 0.0009318284542885258 -0.0015913231865742417 0.0 0.0
0.0 0.03986024457427806 -0.034721947501186026 0.03368176657031648 0.0010401809308695424 -0.0020926204855107305 0.0 0.0
0.0 0.05247138853639548 -0.045794243847498424 0.04464370282051707 0.0011505410269813314 -0.0026008587068800564 0.0 0.0
0.0 0.06690159054019733 -0.05837943417983819 0.05711729630291916 0.0012621378769190205 -0.003123118191096521 0.0 0.0
0.0 0.08306905409682114 -0.072410229107331 0.07103282543363035 0.0013774036737006293 -0.003640784609181308 0.0 0.0
0.0 0.10057991085601767 -0.08760615876252872 0.08610715512450585 0.0014990036380228846 -0.004068822043406198 0.0 0.0
0.0 0.11865722079455607 -0.10327455280325225 0.1016486125985675 0.0016259402046847307 -0.004149942819827725 0.0 0.0
0.0 0.13588734269712904 -0.11821883120506987 0.11646640115649054 0.0017524300485792996 -0.0034748426670576176 0.0 0.0
0.0 0.15022726681759432 -0.13069395850256 0.128810652763704 0.0018833057388560116 -0.002243976116799267 0.0 0.0
0.0 0.15835589117391027 -0.13763059769852082 0.13553767124541546 0.0020929264531053013 -0.007491896380655611 0.0 0.0
0.0 0.15143279638205004 -0.12976260689211588 0.12698469424643632 0.0027779126456794873 -0.04204135843096145 0.0 0.0
0.0 0.15143279638203772 -0.1297626068921045 0.1269846942464251 0.0027779126456793446 0.042041358430968775 0.0 0.0
0.0 0.15835589117387253 -0.13763059769848773 0.1355376712453828 0.0020929264531049023 0.007491896380669251 0.0 0.0
0.0 0.15022726681753437 -0.13069395850250767 0.1288106527636527 0.0018833057388549282 0.0022439761168079114 0.0 0.0
0.0 0.1358873426970527 -0.11821883120500346 0.1164664011564249 0.0017524300485785359 0.003474842667057054 0.0 0.0
0.0 0.11865722079447388 -0.10327455280318085 0.10164861259849675 0.0016259402046840679 0.004149942819826079 0.0 0.0
0.0 0.10057991085593374 -0.08760615876245566 0.08610715512443369 0.0014990036380219058 0.004068822043406235 0.0 0.0
0.0 0.08306905409673578 -0.07241022910725695 0.0710328254335569 0.0013774036736999874 0.0036407846091797667 0.0 0.0
0.0 0.06690159054011155 -0.05837943417976364 0.057117296302845316 0.0012621378769183014 0.003123118191094974 0.0 0.0
0.0 0.05247138853631488 -0.045794243847428154 0.0446437028204479 0.0011505410269802355 0.002600858706878024 0.0 0.0
0.0 0.039860244574204326 -0.034721947501121696 0.03368176657025302 0.0010401809308686755 0.0020926204855049634 0.0 0.0
0.0 0.028785962003483035 -0.025185563223226244 0.024253734768938433 0.0009318284542878157 0.0015913231865691871 0.0 0.0
0.0 0.019568766520553255 -0.0172146913941375 0.016388895643381522 0.0008257957507559816 0.0011097671234757231 0.0 0.0
0.0 0.012238612351629563 -0.01085384453124364 0.010136183732083725 0.0007176607991599115 0.0007126824246924895 0.0 0.0
0.0 0.006780063663953082 -0.0060959679051376114 0.005510676245987136 0.0005852916591504748 0.00042901177186370997 0.0 0.0
0.0 0.003069579064074698 -0.0028040919649877406 0.0024088193778565277 0.0003952725871312122 0.00023145557416498936 0.0 0.0
0.0 0.001063336404084912 -0.0007777586972211833 0.0006346981415088281 0.00014306055571235583 0.00010245061810492301 0.0 0.0
0.0 5.188990521861437e-05 -3.439642751442071e-05 2.7151492290851514e-05 7.244935223569176e-06 9.296635476946545e-06 0.0 0.0
0.0 0.0 0.0 0.0 0.0 0.0 0.0 0.0
0.0 0.0 0.0 0.0 0.0 0.0 0.0 0.0
0.0 0.0 0.0 0.0 0.0 0.0 0.0 0.0