# vtk DataFile Version 3.0
Some data
ASCII
DATASET UNSTRUCTURED_GRID
POINTS 861 float
0.0 0.0 0.0
0.4 0.0 0.0
0.8 0.0 0.0
1.2000000000000002 0.0 0.0
1.6 0.0 0.0
2.0 0.0 0.0
2.4000000000000004 0.0 0.0
2.8000000000000003 0.0 0.0
3.2 0.0 0.0
3.6 0.0 0.0
4.0 0.0 0.0
4.4 0.0 0.0
4.800000000000001 0.0 0.0
5.2 0.0 0.0
5.6000000000000005 0.0 0.0
6.0 0.0 0.0
6.4 0.0 0.0
6.800000000000001 0.0 0.0
7.2 0.0 0.0
7.6000000000000005 0.0 0.0
8.0 0.0 0.0
8.4 0.0 0.0
8.8 0.0 0.0
9.200000000000001 0.0 0.0
9.600000000000001 0.0 0.0
10.0 0.0 0.0
10.4 0.0 0.0
10.8 0.0 0.0
11.200000000000001 0.0 0.0
11.600000000000001 0.0 0.0
12.0 0.0 0.0
12.4 0.0 0.0
12.8 0.0 0.0
13.200000000000001 0.0 0.0
13.600000000000001 0.0 0.0
14.0 0.0 0.0
14.4 0.0 0.0
14.8 0.0 0.0
15.200000000000001 0.0 0.0
15.600000000000001 0.0 0.0
16.0 0.0 0.0
0.0 0.1 0.0
0.4 0.1 0.0
0.8 0.1 0.0
1.2000000000000002 0.1 0.0
1.6 0.1 0.0
2.0 0.1 0.0
2.4000000000000004 0.1 0.0
2.8000000000000003 0.1 0.0
3.2 0.1 0.0
3.6 0.1 0.0
4.0 0.1 0.0
4.4 0.1 0.0
4.800000000000001 0.1 0.0
5.2 0.1 0.0
5.6000000000000005 0.1 0.0
6.0 0.1 0.0
6.4 0.1 0.0
6.800000000000001 0.1 0.0
7.2 0.1 0.0
7.6000000000000005 0.1 0.0
8.0 0.1 0.0
8.4 0.1 0.0
8.8 0.1 0.0
9.200000000000001 0.1 0.0
9.600000000000001 0.1 0.0
10.0 0.1 0.0
10.4 0.1 0.0
10.8 0.1 0.0
11.200000000000001 0.1 0.0
11.600000000000001 0.1 0.0
12.0 0.1 0.0
12.4 0.1 0.0
12.8 0.1 0.0
13.200000000000001 0.1 0.0
13.600000000000001 0.1 0.0
14.0 0.1 0.0
14.4 0.1 0.0
14.8 0.1 0.0
15.200000000000001 0.1 0.0
15.600000000000001 0.1 0.0
16.0 0.1 0.0
0.0 0.2 0.0
0.4 0.2 0.0
0.8 0.2 0.0
1.2000000000000002 0.2 0.0
1.6 0.2 0.0
2.0 0.2 0.0
2.4000000000000004 0.2 0.0
2.8000000000000003 0.2 0.0
3.2 0.2 0.0
3.6 0.2 0.0
4.0 0.2 0.0
4.4 0.2 0.0
4.800000000000001 0.2 0.0
5.2 0.2 0.0
5.6000000000000005 0.2 0.0
6.0 0.2 0.0
6.4 0.2 0.0
6.800000000000001 0.2 0.0
7.2 0.2 0.0
7.6000000000000005 0.2 0.0
8.0 0.2 0.0
8.4 0.2 0.0
8.8 0.2 0.0
9.200000000000001 0.2 0.0
9.600000000000001 0.2 0.0
10.0 0.2 0.0
10.4 0.2 0.0
10.8 0.2 0.0
11.200000000000001 0.2 0.0
11.600000000000001 0.2 0.0
12.0 0.2 0.0
12.4 0.2 0.0
12.8 0.2 0.0
13.200000000000001 0.2 0.0
13.600000000000001 0.2 0.0
14.0 0.2 0.0
14.4 0.2 0.0
14.8 0.2 0.0
15.200000000000001 0.2 0.0
15.600000000000001 0.2 0.0
16.0 0.2 0.0
0.0 0.30000000000000004 0.0
0.4 0.30000000000000004 0.0
0.8 0.30000000000000004 0.0
1.2000000000000002 0.30000000000000004 0.0
1.6 0.30000000000000004 0.0
2.0 0.30000000000000004 0.0
2.4000000000000004 0.30000000000000004 0.0
2.8000000000000003 0.30000000000000004 0.0
3.2 0.30000000000000004 0.0
3.6 0.30000000000000004 0.0
4.0 0.30000000000000004 0.0
4.4 0.30000000000000004 0.0
4.800000000000001 0.30000000000000004 0.0
5.2 0.30000000000000004 0.0
5.6000000000000005 0.30000000000000004 0.0
6.0 0.30000000000000004 0.0
6.4 0.30000000000000004 0.0
6.800000000000001 0.30000000000000004 0.0
7.2 0.30000000000000004 0.0
7.6000000000000005 0.30000000000000004 0.0
8.0 0.30000000000000004 0.0
8.4 0.30000000000000004 0.0
8.8 0.30000000000000004 0.0
9.200000000000001 0.30000000000000004 0.0
9.600000000000001 0.30000000000000004 0.0
10.0 0.30000000000000004 0.0
10.4 0.30000000000000004 0.0
10.8 0.30000000000000004 0.0
11.200000000000001 0.30000000000000004 0.0
11.600000000000001 0.30000000000000004 0.0
12.0 0.30000000000000004 0.0
12.4 0.30000000000000004 0.0
12.8 0.30000000000000004 0.0
13.200000000000001 0.30000000000000004 0.0
13.600000000000001 0.30000000000000004 0.0
14.0 0.30000000000000004 0.0
14.4 0.30000000000000004 0.0
14.8 0.30000000000000004 0.0
15.200000000000001 0.30000000000000004 0.0
15.600000000000001 0.30000000000000004 0.0
16.0 0.30000000000000004 0.0
0.0 0.4 0.0
0.4 0.4 0.0
0.8 0.4 0.0
1.2000000000000002 0.4 0.0
1.6 0.4 0.0
2.0 0.4 0.0
2.4000000000000004 0.4 0.0
2.8000000000000003 0.4 0.0
3.2 0.4 0.0
3.6 0.4 0.0
4.0 0.4 0.0
4.4 0.4 0.0
4.800000000000001 0.4 0.0
5.2 0.4 0.0
5.6000000000000005 0.4 0.0
6.0 0.4 0.0
6.4 0.4 0.0
6.800000000000001 0.4 0.0
7.2 0.4 0.0
7.6000000000000005 0.4 0.0
8.0 0.4 0.0
8.4 0.4 0.0
8.8 0.4 0.0
9.200000000000001 0.4 0.0
9.600000000000001 0.4 0.0
10.0 0.4 0.0
10.4 0.4 0.0
10.8 0.4 0.0
11.200000000000001 0.4 0.0
11.600000000000001 0.4 0.0
12.0 0.4 0.0
12.4 0.4 0.0
12.8 0.4 0.0
13.200000000000001 0.4 0.0
13.600000000000001 0.4 0.0
14.0 0.4 0.0
14.4 0.4 0.0
14.8 0.4 0.0
15.200000000000001 0.4 0.0
15.600000000000001 0.4 0.0
16.0 0.4 0.0
0.0 0.5 0.0
0.4 0.5 0.0
0.8 0.5 0.0
1.2000000000000002 0.5 0.0
1.6 0.5 0.0
2.0 0.5 0.0
2.4000000000000004 0.5 0.0
2.8000000000000003 0.5 0.0
3.2 0.5 0.0
3.6 0.5 0.0
4.0 0.5 0.0
4.4 0.5 0.0
4.800000000000001 0.5 0.0
5.2 0.5 0.0
5.6000000000000005 0.5 0.0
6.0 0.5 0.0
6.4 0.5 0.0
6.800000000000001 0.5 0.0
7.2 0.5 0.0
7.6000000000000005 0.5 0.0
8.0 0.5 0.0
8.4 0.5 0.0
8.8 0.5 0.0
9.200000000000001 0.5 0.0
9.600000000000001 0.5 0.0
10.0 0.5 0.0
10.4 0.5 0.0
10.8 0.5 0.0
11.200000000000001 0.5 0.0
11.600000000000001 0.5 0.0
12.0 0.5 0.0
12.4 0.5 0.0
12.8 0.5 0.0
13.200000000000001 0.5 0.0
13.600000000000001 0.5 0.0
14.0 0.5 0.0
14.4 0.5 0.0
14.8 0.5 0.0
15.200000000000001 0.5 0.0
15.600000000000001 0.5 0.0
16.0 0.5 0.0
0.0 0.6000000000000001 0.0
0.4 0.6000000000000001 0.0
0.8 0.6000000000000001 0.0
1.2000000000000002 0.6000000000000001 0.0
1.6 0.6000000000000001 0.0
2.0 0.6000000000000001 0.0
2.4000000000000004 0.6000000000000001 0.0
2.8000000000000003 0.6000000000000001 0.0
3.2 0.6000000000000001 0.0
3.6 0.6000000000000001 0.0
4.0 0.6000000000000001 0.0
4.4 0.6000000000000001 0.0
4.800000000000001 0.6000000000000001 0.0
5.2 0.6000000000000001 0.0
5.6000000000000005 0.6000000000000001 0.0
6.0 0.6000000000000001 0.0
6.4 0.6000000000000001 0.0
6.800000000000001 0.6000000000000001 0.0
7.2 0.6000000000000001 0.0
7.6000000000000005 0.6000000000000001 0.0
8.0 0.6000000000000001 0.0
8.4 0.6000000000000001 0.0
8.8 0.6000000000000001 0.0
9.200000000000001 0.6000000000000001 0.0
9.600000000000001 0.6000000000000001 0.0
10.0 0.6000000000000001 0.0
10.4 0.6000000000000001 0.0
10.8 0.6000000000000001 0.0
11.200000000000001 0.6000000000000001 0.0
11.600000000000001 0.6000000000000001 0.0
12.0 0.6000000000000001 0.0
12.4 0.6000000000000001 0.0
12.8 0.6000000000000001 0.0
13.200000000000001 0.6000000000000001 0.0
13.600000000000001 0.6000000000000001 0.0
14.0 0.6000000000000001 0.0
14.4 0.6000000000000001 0.0
14.8 0.6000000000000001 0.0
15.200000000000001 0.6000000000000001 0.0
15.600000000000001 0.6000000000000001 0.0
16.0 0.6000000000000001 0.0
0.0 0.7000000000000001 0.0
0.4 0.7000000000000001 0.0
0.8 0.7000000000000001 0.0
1.2000000000000002 0.7000000000000001 0.0
1.6 0.7000000000000001 0.0
2.0 0.7000000000000001 0.0
2.4000000000000004 0.7000000000000001 0.0
2.8000000000000003 0.7000000000000001 0.0
3.2 0.7000000000000001 0.0
3.6 0.7000000000000001 0.0
4.0 0.7000000000000001 0.0
4.4 0.7000000000000001 0.0
4.800000000000001 0.7000000000000001 0.0
5.2 0.7000000000000001 0.0
5.6000000000000005 0.7000000000000001 0.0
6.0 0.7000000000000001 0.0
6.4 0.7000000000000001 0.0
6.800000000000001 0.7000000000000001 0.0
7.2 0.7000000000000001 0.0
7.6000000000000005 0.7000000000000001 0.0
8.0 0.7000000000000001 0.0
8.4 0.7000000000000001 0.0
8.8 0.7000000000000001 0.0
9.200000000000001 0.7000000000000001 0.0
9.600000000000001 0.7000000000000001 0.0
10.0 0.7000000000000001 0.0
10.4 0.7000000000000001 0.0
10.8 0.7000000000000001 0.0
11.200000000000001 0.7000000000000001 0.0
11.600000000000001 0.7000000000000001 0.0
12.0 0.7000000000000001 0.0
12.4 0.7000000000000001 0.0
12.8 0.7000000000000001 0.0
13.200000000000001 0.7000000000000001 0.0
13.600000000000001 0.7000000000000001 0.0
14.0 0.7000000000000001 0.0
14.4 0.7000000000000001 0.0
14.8 0.7000000000000001 0.0
15.200000000000001 0.7000000000000001 0.0
15.600000000000001 0.7000000000000001 0.0
16.0 0.7000000000000001 0.0
0.0 0.8 0.0
0.4 0.8 0.0
0.8 0.8 0.0
1.2000000000000002 0.8 0.0
1.6 0.8 0.0
2.0 0.8 0.0
2.4000000000000004 0.8 0.0
2.8000000000000003 0.8 0.0
3.2 0.8 0.0
3.6 0.8 0.0
4.0 0.8 0.0
4.4 0.8 0.0
4.800000000000001 0.8 0.0
5.2 0.8 0.0
5.6000000000000005 0.8 0.0
6.0 0.8 0.0
6.4 0.8 0.0
6.800000000000001 0.8 0.0
7.2 0.8 0.0
7.6000000000000005 0.8 0.0
8.0 0.8 0.0
8.4 0.8 0.0
8.8 0.8 0.0
9.200000000000001 0.8 0.0
9.600000000000001 0.8 0.0
10.0 0.8 0.0
10.4 0.8 0.0
10.8 0.8 0.0
11.200000000000001 0.8 0.0
11.600000000000001 0.8 0.0
12.0 0.8 0.0
12.4 0.8 0.0
12.8 0.8 0.0
13.200000000000001 0.8 0.0
13.600000000000001 0.8 0.0
14.0 0.8 0.0
14.4 0.8 0.0
14.8 0.8 0.0
15.200000000000001 0.8 0.0
15.600000000000001 0.8 0.0
16.0 0.8 0.0
0.0 0.9 0.0
0.4 0.9 0.0
0.8 0.9 0.0
1.2000000000000002 0.9 0.0
1.6 0.9 0.0
2.0 0.9 0.0
2.4000000000000004 0.9 0.0
2.8000000000000003 0.9 0.0
3.2 0.9 0.0
3.6 0.9 0.0
4.0 0.9 0.0
4.4 0.9 0.0
4.800000000000001 0.9 0.0
5.2 0.9 0.0
5.6000000000000005 0.9 0.0
6.0 0.9 0.0
6.4 0.9 0.0
6.800000000000001 0.9 0.0
7.2 0.9 0.0
7.6000000000000005 0.9 0.0
8.0 0.9 0.0
8.4 0.9 0.0
8.8 0.9 0.0
9.200000000000001 0.9 0.0
9.600000000000001 0.9 0.0
10.0 0.9 0.0
10.4 0.9 0.0
10.8 0.9 0.0
11.200000000000001 0.9 0.0
11.600000000000001 0.9 0.0
12.0 0.9 0.0
12.4 0.9 0.0
12.8 0.9 0.0
13.200000000000001 0.9 0.0
13.600000000000001 0.9 0.0
14.0 0.9 0.0
14.4 0.9 0.0
14.8 0.9 0.0
15.200000000000001 0.9 0.0
15.600000000000001 0.9 0.0
16.0 0.9 0.0
0.0 1.0 0.0
0.4 1.0 0.0
0.8 1.0 0.0
1.2000000000000002 1.0 0.0
1.6 1.0 0.0
2.0 1.0 0.0
2.4000000000000004 1.0 0.0
2.8000000000000003 1.0 0.0
3.2 1.0 0.0
3.6 1.0 0.0
4.0 1.0 0.0
4.4 1.0 0.0
4.800000000000001 1.0 0.0
5.2 1.0 0.0
5.6000000000000005 1.0 0.0
6.0 1.0 0.0
6.4 1.0 0.0
6.800000000000001 1.0 0.0
7.2 1.0 0.0
7.6000000000000005 1.0 0.0
8.0 1.0 0.0
8.4 1.0 0.0
8.8 1.0 0.0
9.200000000000001 1.0 0.0
9.600000000000001 1.0 0.0
10.0 1.0 0.0
10.4 1.0 0.0
10.8 1.0 0.0
11.200000000000001 1.0 0.0
11.600000000000001 1.0 0.0
12.0 1.0 0.0
12.4 1.0 0.0
12.8 1.0 0.0
13.200000000000001 1.0 0.0
13.600000000000001 1.0 0.0
14.0 1.0 0.0
14.4 1.0 0.0
14.8 1.0 0.0
15.200000000000001 1.0 0.0
15.600000000000001 1.0 0.0
16.0 1.0 0.0
0.0 1.1 0.0
0.4 1.1 0.0
0.8 1.1 0.0
1.2000000000000002 1.1 0.0
1.6 1.1 0.0
2.0 1.1 0.0
2.4000000000000004 1.1 0.0
2.8000000000000003 1.1 0.0
3.2 1.1 0.0
3.6 1.1 0.0
4.0 1.1 0.0
4.4 1.1 0.0
4.800000000000001 1.1 0.0
5.2 1.1 0.0
5.6000000000000005 1.1 0.0
6.0 1.1 0.0
6.4 1.1 0.0
6.800000000000001 1.1 0.0
7.2 1.1 0.0
7.6000000000000005 1.1 0.0
8.0 1.1 0.0
8.4 1.1 0.0
8.8 1.1 0.0
9.200000000000001 1.1 0.0
9.600000000000001 1.1 0.0
10.0 1.1 0.0
10.4 1.1 0.0
10.8 1.1 0.0
11.200000000000001 1.1 0.0
11.600000000000001 1.1 0.0
12.0 1.1 0.0
12.4 1.1 0.0
12.8 1.1 0.0
13.200000000000001 1.1 0.0
13.600000000000001 1.1 0.0
14.0 1.1 0.0
14.4 1.1 0.0
14.8 1.1 0.0
15.200000000000001 1.1 0.0
15.600000000000001 1.1 0.0
16.0 1.1 0.0
0.0 1.2000000000000002 0.0
0.4 1.2000000000000002 0.0
0.8 1.2000000000000002 0.0
1.2000000000000002 1.2000000000000002 0.0
1.6 1.2000000000000002 0.0
2.0 1.2000000000000002 0.0
2.4000000000000004 1.2000000000000002 0.0
2.8000000000000003 1.2000000000000002 0.0
3.2 1.2000000000000002 0.0
3.6 1.2000000000000002 0.0
4.0 1.2000000000000002 0.0
4.4 1.2000000000000002 0.0
4.800000000000001 1.2000000000000002 0.0
5.2 1.2000000000000002 0.0
5.6000000000000005 1.2000000000000002 0.0
6.0 1.2000000000000002 0.0
6.4 1.2000000000000002 0.0
6.800000000000001 1.2000000000000002 0.0
7.2 1.2000000000000002 0.0
7.6000000000000005 1.2000000000000002 0.0
8.0 1.2000000000000002 0.0
8.4 1.2000000000000002 0.0
8.8 1.2000000000000002 0.0
9.200000000000001 1.2000000000000002 0.0
9.600000000000001 1.2000000000000002 0.0
10.0 1.2000000000000002 0.0
10.4 1.2000000000000002 0.0
10.8 1.2000000000000002 0.0
11.200000000000001 1.2000000000000002 0.0
11.600000000000001 1.2000000000000002 0.0
12.0 1.2000000000000002 0.0
12.4 1.2000000000000002 0.0
12.8 1.2000000000000002 0.0
13.200000000000001 1.2000000000000002 0.0
13.600000000000001 1.2000000000000002 0.0
14.0 1.2000000000000002 0.0
14.4 1.2000000000000002 0.0
14.8 1.2000000000000002 0.0
15.200000000000001 1.2000000000000002 0.0
15.600000000000001 1.2000000000000002 0.0
16.0 1.2000000000000002 0.0
0.0 1.3 0.0
0.4 1.3 0.0
0.8 1.3 0.0
1.2000000000000002 1.3 0.0
1.6 1.3 0.0
2.0 1.3 0.0
2.4000000000000004 1.3 0.0
2.8000000000000003 1.3 0.0
3.2 1.3 0.0
3.6 1.3 0.0
4.0 1.3 0.0
4.4 1.3 0.0
4.800000000000001 1.3 0.0
5.2 1.3 0.0
5.6000000000000005 1.3 0.0
6.0 1.3 0.0
6.4 1.3 0.0
6.800000000000001 1.3 0.0
7.2 1.3 0.0
7.6000000000000005 1.3 0.0
8.0 1.3 0.0
8.4 1.3 0.0
8.8 1.3 0.0
9.200000000000001 1.3 0.0
9.600000000000001 1.3 0.0
10.0 1.3 0.0
10.4 1.3 0.0
10.8 1.3 0.0
11.200000000000001 1.3 0.0
11.600000000000001 1.3 0.0
12.0 1.3 0.0
12.4 1.3 0.0
12.8 1.3 0.0
13.200000000000001 1.3 0.0
13.600000000000001 1.3 0.0
14.0 1.3 0.0
14.4 1.3 0.0
14.8 1.3 0.0
15.200000000000001 1.3 0.0
15.600000000000001 1.3 0.0
16.0 1.3 0.0
0.0 1.4000000000000001 0.0
0.4 1.4000000000000001 0.0
0.8 1.4000000000000001 0.0
1.2000000000000002 1.4000000000000001 0.0
1.6 1.4000000000000001 0.0
2.0 1.4000000000000001 0.0
2.4000000000000004 1.4000000000000001 0.0
2.8000000000000003 1.4000000000000001 0.0
3.2 1.4000000000000001 0.0
3.6 1.4000000000000001 0.0
4.0 1.4000000000000001 0.0
4.4 1.4000000000000001 0.0
4.800000000000001 1.4000000000000001 0.0
5.2 1.4000000000000001 0.0
5.6000000000000005 1.4000000000000001 0.0
6.0 1.4000000000000001 0.0
6.4 1.4000000000000001 0.0
6.800000000000001 1.4000000000000001 0.0
7.2 1.4000000000000001 0.0
7.6000000000000005 1.4000000000000001 0.0
8.0 1.4000000000000001 0.0
8.4 1.4000000000000001 0.0
8.8 1.4000000000000001 0.0
9.200000000000001 1.4000000000000001 0.0
9.600000000000001 1.4000000000000001 0.0
10.0 1.4000000000000001 0.0
10.4 1.4000000000000001 0.0
10.8 1.4000000000000001 0.0
11.200000000000001 1.4000000000000001 0.0
11.600000000000001 1.4000000000000001 0.0
12.0 1.4000000000000001 0.0
12.4 1.4000000000000001 0.0
12.8 1.4000000000000001 0.0
13.200000000000001 1.4000000000000001 0.0
13.600000000000001 1.4000000000000001 0.0
14.0 1.4000000000000001 0.0
14.4 1.4000000000000001 0.0
14.8 1.4000000000000001 0.0
15.200000000000001 1.4000000000000001 0.0
15.600000000000001 1.4000000000000001 0.0
16.0 1.4000000000000001 0.0
0.0 1.5 0.0
0.4 1.5 0.0
0.8 1.5 0.0
1.2000000000000002 1.5 0.0
1.6 1.5 0.0
2.0 1.5 0.0
2.4000000000000004 1.5 0.0
2.8000000000000003 1.5 0.0
3.2 1.5 0.0
3.6 1.5 0.0
4.0 1.5 0.0
4.4 1.5 0.0
4.800000000000001 1.5 0.0
5.2 1.5 0.0
5.6000000000000005 1.5 0.0
6.0 1.5 0.0
6.4 1.5 0.0
6.800000000000001 1.5 0.0
7.2 1.5 0.0
7.6000000000000005 1.5 0.0
8.0 1.5 0.0
8.4 1.5 0.0
8.8 1.5 0.0
9.200000000000001 1.5 0.0
9.600000000000001 1.5 0.0
10.0 1.5 0.0
10.4 1.5 0.0
10.8 1.5 0.0
11.200000000000001 1.5 0.0
11.600000000000001 1.5 0.0
12.0 1.5 0.0
12.4 1.5 0.0
12.8 1.5 0.0
13.200000000000001 1.5 0.0
13.600000000000001 1.5 0.0
14.0 1.5 0.0
14.4 1.5 0.0
14.8 1.5 0.0
15.200000000000001 1.5 0.0
15.600000000000001 1.5 0.0
16.0 1.5 0.0
0.0 1.6 0.0
0.4 1.6 0.0
0.8 1.6 0.0
1.2000000000000002 1.6 0.0
1.6 1.6 0.0
2.0 1.6 0.0
2.4000000000000004 1.6 0.0
2.8000000000000003 1.6 0.0
3.2 1.6 0.0
3.6 1.6 0.0
4.0 1.6 0.0
4.4 1.6 0.0
4.800000000000001 1.6 0.0
5.2 1.6 0.0
5.6000000000000005 1.6 0.0
6.0 1.6 0.0
6.4 1.6 0.0
6.800000000000001 1.6 0.0
7.2 1.6 0.0
7.6000000000000005 1.6 0.0
8.0 1.6 0.0
8.4 1.6 0.0
8.8 1.6 0.0
9.200000000000001 1.6 0.0
9.600000000000001 1.6 0.0
10.0 1.6 0.0
10.4 1.6 0.0
10.8 1.6 0.0
11.200000000000001 1.6 0.0
11.600000000000001 1.6 0.0
12.0 1.6 0.0
12.4 1.6 0.0
12.8 1.6 0.0
13.200000000000001 1.6 0.0
13.600000000000001 1.6 0.0
14.0 1.6 0.0
14.4 1.6 0.0
14.8 1.6 0.0
15.200000000000001 1.6 0.0
15.600000000000001 1.6 0.0
16.0 1.6 0.0
0.0 1.7000000000000002 0.0
0.4 1.7000000000000002 0.0
0.8 1.7000000000000002 0.0
1.2000000000000002 1.7000000000000002 0.0
1.6 1.7000000000000002 0.0
2.0 1.7000000000000002 0.0
2.4000000000000004 1.7000000000000002 0.0
2.8000000000000003 1.7000000000000002 0.0
3.2 1.7000000000000002 0.0
3.6 1.7000000000000002 0.0
4.0 1.7000000000000002 0.0
4.4 1.7000000000000002 0.0
4.800000000000001 1.7000000000000002 0.0
5.2 1.7000000000000002 0.0
5.6000000000000005 1.7000000000000002 0.0
6.0 1.7000000000000002 0.0
6.4 1.7000000000000002 0.0
6.800000000000001 1.7000000000000002 0.0
7.2 1.7000000000000002 0.0
7.6000000000000005 1.7000000000000002 0.0
8.0 1.7000000000000002 0.0
8.4 1.7000000000000002 0.0
8.8 1.7000000000000002 0.0
9.200000000000001 1.7000000000000002 0.0
9.600000000000001 1.7000000000000002 0.0
10.0 1.7000000000000002 0.0
10.4 1.7000000000000002 0.0
10.8 1.7000000000000002 0.0
11.200000000000001 1.7000000000000002 0.0
11.600000000000001 1.7000000000000002 0.0
12.0 1.7000000000000002 0.0
12.4 1.7000000000000002 0.0
12.8 1.7000000000000002 0.0
13.200000000000001 1.7000000000000002 0.0
13.600000000000001 1.7000000000000002 0.0
14.0 1.7000000000000002 0.0
14.4 1.7000000000000002 0.0
14.8 1.7000000000000002 0.0
15.200000000000001 1.7000000000000002 0.0
15.600000000000001 1.7000000000000002 0.0
16.0 1.7000000000000002 0.0
0.0 1.8 0.0
0.4 1.8 0.0
0.8 1.8 0.0
1.2000000000000002 1.8 0.0
1.6 1.8 0.0
2.0 1.8 0.0
2.4000000000000004 1.8 0.0
2.8000000000000003 1.8 0.0
3.2 1.8 0.0
3.6 1.8 0.0
4.0 1.8 0.0
4.4 1.8 0.0
4.800000000000001 1.8 0.0
5.2 1.8 0.0
5.6000000000000005 1.8 0.0
6.0 1.8 0.0
6.4 1.8 0.0
6.800000000000001 1.8 0.0
7.2 1.8 0.0
7.6000000000000005 1.8 0.0
8.0 1.8 0.0
8.4 1.8 0.0
8.8 1.8 0.0
9.200000000000001 1.8 0.0
9.600000000000001 1.8 0.0
10.0 1.8 0.0
10.4 1.8 0.0
10.8 1.8 0.0
11.200000000000001 1.8 0.0
11.600000000000001 1.8 0.0
12.0 1.8 0.0
12.4 1.8 0.0
12.8 1.8 0.0
13.200000000000001 1.8 0.0
13.600000000000001 1.8 0.0
14.0 1.8 0.0
14.4 1.8 0.0
14.8 1.8 0.0
15.200000000000001 1.8 0.0
15.600000000000001 1.8 0.0
16.0 1.8 0.0
0.0 1.9000000000000001 0.0
0.4 1.9000000000000001 0.0
0.8 1.9000000000000001 0.0
1.2000000000000002 1.9000000000000001 0.0
1.6 1.9000000000000001 0.0
2.0 1.9000000000000001 0.0
2.4000000000000004 1.9000000000000001 0.0
2.8000000000000003 1.9000000000000001 0.0
3.2 1.9000000000000001 0.0
3.6 1.9000000000000001 0.0
4.0 1.9000000000000001 0.0
4.4 1.9000000000000001 0.0
4.800000000000001 1.9000000000000001 0.0
5.2 1.9000000000000001 0.0
5.6000000000000005 1.9000000000000001 0.0
6.0 1.9000000000000001 0.0
6.4 1.9000000000000001 0.0
6.800000000000001 1.9000000000000001 0.0
7.2 1.9000000000000001 0.0
7.6000000000000005 1.9000000000000001 0.0
8.0 1.9000000000000001 0.0
8.4 1.9000000000000001 0.0
8.8 1.9000000000000001 0.0
9.200000000000001 1.9000000000000001 0.0
9.600000000000001 1.9000000000000001 0.0
10.0 1.9000000000000001 0.0
10.4 1.9000000000000001 0.0
10.8 1.9000000000000001 0.0
11.200000000000001 1.9000000000000001 0.0
11.600000000000001 1.9000000000000001 0.0
12.0 1.9000000000000001 0.0
12.4 1.9000000000000001 0.0
12.8 1.9000000000000001 0.0
13.200000000000001 1.9000000000000001 0.0
13.600000000000001 1.9000000000000001 0.0
14.0 1.9000000000000001 0.0
14.4 1.9000000000000001 0.0
14.8 1.9000000000000001 0.0
15.200000000000001 1.9000000000000001 0.0
15.600000000000001 1.9000000000000001 0.0
16.0 1.9000000000000001 0.0
0.0 2.0 0.0
0.4 2.0 0.0
0.8 2.0 0.0
1.2000000000000002 2.0 0.0
1.6 2.0 0.0
2.0 2.0 0.0
2.4000000000000004 2.0 0.0
2.8000000000000003 2.0 0.0
3.2 2.0 0.0
3.6 2.0 0.0
4.0 2.0 0.0
4.4 2.0 0.0
4.800000000000001 2.0 0.0
5.2 2.0 0.0
5.6000000000000005 2.0 0.0
6.0 2.0 0.0
6.4 2.0 0.0
6.800000000000001 2.0 0.0
7.2 2.0 0.0
7.6000000000000005 2.0 0.0
8.0 2.0 0.0
8.4 2.0 0.0
8.8 2.0 0.0
9.200000000000001 2.0 0.0
9.600000000000001 2.0 0.0
10.0 2.0 0.0
10.4 2.0 0.0
10.8 2.0 0.0
11.200000000000001 2.0 0.0
11.600000000000001 2.0 0.0
12.0 2.0 0.0
12.4 2.0 0.0
12.8 2.0 0.0
13.200000000000001 2.0 0.0
13.600000000000001 2.0 0.0
14.0 2.0 0.0
14.4 2.0 0.0
14.8 2.0 0.0
15.200000000000001 2.0 0.0
15.600000000000001 2.0 0.0
16.0 2.0 0.0
CELLS 800 4000
4 0 1 42 41
4 1 2 43 42
4 2 3 44 43
4 3 4 45 44
4 4 5 46 45
4 5 6 47 46
4 6 7 48 47
4 7 8 49 48
4 8 9 50 49
4 9 10 51 50
4 10 11 52 51
4 11 12 53 52
4 12 13 54 53
4 13 14 55 54
4 14 15 56 55
4 15 16 57 56
4 16 17 58 57
4 17 18 59 58
4 18 19 60 59
4 19 20 61 60
4 20 21 62 61
4 21 22 63 62
4 22 23 64 63
4 23 24 65 64
4 24 25 66 65
4 25 26 67 66
4 26 27 68 67
4 27 28 69 68
4 28 29 70 69
4 29 30 71 70
4 30 31 72 71
4 31 32 73 72
4 32 33 74 73
4 33 34 75 74
4 34 35 76 75
4 35 36 77 76
4 36 37 78 77
4 37 38 79 78
4 38 39 80 79
4 39 40 81 80
4 41 42 83 82
4 42 43 84 83
4 43 44 85 84
4 44 45 86 85
4 45 46 87 86
4 46 47 88 87
4 47 48 89 88
4 48 49 90 89
4 49 50 91 90
4 50 51 92 91
4 51 52 93 92
4 52 53 94 93
4 53 54 95 94
4 54 55 96 95
4 55 56 97 96
4 56 57 98 97
4 57 58 99 98
4 58 59 100 99
4 59 60 101 100
4 60 61 102 101
4 61 62 103 102
4 62 63 104 103
4 63 64 105 104
4 64 65 106 105
4 65 66 107 106
4 66 67 108 107
4 67 68 109 108
4 68 69 110 109
4 69 70 111 110
4 70 71 112 111
4 71 72 113 112
4 72 73 114 113
4 73 74 115 114
4 74 75 116 115
4 75 76 117 116
4 76 77 118 117
4 77 78 119 118
4 78 79 120 119
4 79 80 121 120
4 80 81 122 121
4 82 83 124 123
4 83 84 125 124
4 84 85 126 125
4 85 86 127 126
4 86 87 128 127
4 87 88 129 128
4 88 89 130 129
4 89 90 131 130
4 90 91 132 131
4 91 92 133 132
4 92 93 134 133
4 93 94 135 134
4 94 95 136 135
4 95 96 137 136
4 96 97 138 137
4 97 98 139 138
4 98 99 140 139
4 99 100 141 140
4 100 101 142 141
4 101 102 143 142
4 102 103 144 143
4 103 104 145 144
4 104 105 146 145
4 105 106 147 146
4 106 107 148 147
4 107 108 149 148
4 108 109 150 149
4 109 110 151 150
4 110 111 152 151
4 111 112 153 152
4 112 113 154 153
4 113 114 155 154
4 114 115 156 155
4 115 116 157 156
4 116 117 158 157
4 117 118 159 158
4 118 119 160 159
4 119 120 161 160
4 120 121 162 161
4 121 122 163 162
4 123 124 165 164
4 124 125 166 165
4 125 126 167 166
4 126 127 168 167
4 127 128 169 168
4 128 129 170 169
4 129 130 171 170
4 130 131 172 171
4 131 132 173 172
4 132 133 174 173
4 133 134 175 174
4 134 135 176 175
4 135 136 177 176
4 136 137 178 177
4 137 138 179 178
4 138 139 180 179
4 139 140 181 180
4 140 141 182 181
4 141 142 183 182
4 142 143 184 183
4 143 144 185 184
4 144 145 186 185
4 145 146 187 186
4 146 147 188 187
4 147 148 189 188
4 148 149 190 189
4 149 150 191 190
4 150 151 192 191
4 151 152 193 192
4 152 153 194 193
4 153 154 195 194
4 154 155 196 195
4 155 156 197 196
4 156 157 198 197
4 157 158 199 198
4 158 159 200 199
4 159 160 201 200
4 160 161 202 201
4 161 162 203 202
4 162 163 204 203
4 164 165 206 205
4 165 166 207 206
4 166 167 208 207
4 167 168 209 208
4 168 169 210 209
4 169 170 211 210
4 170 171 212 211
4 171 172 213 212
4 172 173 214 213
4 173 174 215 214
4 174 175 216 215
4 175 176 217 216
4 176 177 218 217
4 177 178 219 218
4 178 179 220 219
4 179 180 221 220
4 180 181 222 221
4 181 182 223 222
4 182 183 224 223
4 183 184 225 224
4 184 185 226 225
4 185 186 227 226
4 186 187 228 227
4 187 188 229 228
4 188 189 230 229
4 189 190 231 230
4 190 191 232 231
4 191 192 233 232
4 192 193 234 233
4 193 194 235 234
4 194 195 236 235
4 195 196 237 236
4 196 197 238 237
4 197 198 239 238
4 198 199 240 239
4 199 200 241 240
4 200 201 242 241
4 201 202 243 242
4 202 203 244 243
4 203 204 245 244
4 205 206 247 246
4 206 207 248 247
4 207 208 249 248
4 208 209 250 249
4 209 210 251 250
4 210 211 252 251
4 211 212 253 252
4 212 213 254 253
4 213 214 255 254
4 214 215 256 255
4 215 216 257 256
4 216 217 258 257
4 217 218 259 258
4 218 219 260 259
4 219 220 261 260
4 220 221 262 261
4 221 222 263 262
4 222 223 264 263
4 223 224 265 264
4 224 225 266 265
4 225 226 267 266
4 226 227 268 267
4 227 228 269 268
4 228 229 270 269
4 229 230 271 270
4 230 231 272 271
4 231 232 273 272
4 232 233 274 273
4 233 234 275 274
4 234 235 276 275
4 235 236 277 276
4 236 237 278 277
4 237 238 279 278
4 238 239 280 279
4 239 240 281 280
4 240 241 282 281
4 241 242 283 282
4 242 243 284 283
4 243 244 285 284
4 244 245 286 285
4 246 247 288 287
4 247 248 289 288
4 248 249 290 289
4 249 250 291 290
4 250 251 292 291
4 251 252 293 292
4 252 253 294 293
4 253 254 295 294
4 254 255 296 295
4 255 256 297 296
4 256 257 298 297
4 257 258 299 298
4 258 259 300 299
4 259 260 301 300
4 260 261 302 301
4 261 262 303 302
4 262 263 304 303
4 263 264 305 304
4 264 265 306 305
4 265 266 307 306
4 266 267 308 307
4 267 268 309 308
4 268 269 310 309
4 269 270 311 310
4 270 271 312 311
4 271 272 313 312
4 272 273 314 313
4 273 274 315 314
4 274 275 316 315
4 275 276 317 316
4 276 277 318 317
4 277 278 319 318
4 278 279 320 319
4 279 280 321 320
4 280 281 322 321
4 281 282 323 322
4 282 283 324 323
4 283 284 325 324
4 284 285 326 325
4 285 286 327 326
4 287 288 329 328
4 288 289 330 329
4 289 290 331 330
4 290 291 332 331
4 291 292 333 332
4 292 293 334 333
4 293 294 335 334
4 294 295 336 335
4 295 296 337 336
4 296 297 338 337
4 297 298 339 338
4 298 299 340 339
4 299 300 341 340
4 300 301 342 341
4 301 302 343 342
4 302 303 344 343
4 303 304 345 344
4 304 305 346 345
4 305 306 347 346
4 306 307 348 347
4 307 308 349 348
4 308 309 350 349
4 309 310 351 350
4 310 311 352 351
4 311 312 353 352
4 312 313 354 353
4 313 314 355 354
4 314 315 356 355
4 315 316 357 356
4 316 317 358 357
4 317 318 359 358
4 318 319 360 359
4 319 320 361 360
4 320 321 362 361
4 321 322 363 362
4 322 323 364 363
4 323 324 365 364
4 324 325 366 365
4 325 326 367 366
4 326 327 368 367
4 328 329 370 369
4 329 330 371 370
4 330 331 372 371
4 331 332 373 372
4 332 333 374 373
4 333 334 375 374
4 334 335 376 375
4 335 336 377 376
4 336 337 378 377
4 337 338 379 378
4 338 339 380 379
4 339 340 381 380
4 340 341 382 381
4 341 342 383 382
4 342 343 384 383
4 343 344 385 384
4 344 345 386 385
4 345 346 387 386
4 346 347 388 387
4 347 348 389 388
4 348 349 390 389
4 349 350 391 390
4 350 351 392 391
4 351 352 393 392
4 352 353 394 393
4 353 354 395 394
4 354 355 396 395
4 355 356 397 396
4 356 357 398 397
4 357 358 399 398
4 358 359 400 399
4 359 360 401 400
4 360 361 402 401
4 361 362 403 402
4 362 363 404 403
4 363 364 405 404
4 364 365 406 405
4 365 366 407 406
4 366 367 408 407
4 367 368 409 408
4 369 370 411 410
4 370 371 412 411
4 371 372 413 412
4 372 373 414 413
4 373 374 415 414
4 374 375 416 415
4 375 376 417 416
4 376 377 418 417
4 377 378 419 418
4 378 379 420 419
4 379 380 421 420
4 380 381 422 421
4 381 382 423 422
4 382 383 424 423
4 383 384 425 424
4 384 385 426 425
4 385 386 427 426
4 386 387 428 427
4 387 388 429 428
4 388 389 430 429
4 389 390 431 430
4 390 391 432 431
4 391 392 433 432
4 392 393 434 433
4 393 394 435 434
4 394 395 436 435
4 395 396 437 436
4 396 397 438 437
4 397 398 439 438
4 398 399 440 439
4 399 400 441 440
4 400 401 442 441
4 401 402 443 442
4 402 403 444 443
4 403 404 445 444
4 404 405 446 445
4 405 406 447 446
4 406 407 448 447
4 407 408 449 448
4 408 409 450 449
4 410 411 452 451
4 411 412 453 452
4 412 413 454 453
4 413 414 455 454
4 414 415 456 455
4 415 416 457 456
4 416 417 458 457
4 417 418 459 458
4 418 419 460 459
4 419 420 461 460
4 420 421 462 461
4 421 422 463 462
4 422 423 464 463
4 423 424 465 464
4 424 425 466 465
4 425 426 467 466
4 426 427 468 467
4 427 428 469 468
4 428 429 470 469
4 429 430 471 470
4 430 431 472 471
4 431 432 473 472
4 432 433 474 473
4 433 434 475 474
4 434 435 476 475
4 435 436 477 476
4 436 437 478 477
4 437 438 479 478
4 438 439 480 479
4 439 440 481 480
4 440 441 482 481
4 441 442 483 482
4 442 443 484 483
4 443 444 485 484
4 444 445 486 485
4 445 446 487 486
4 446 447 488 487
4 447 448 489 488
4 448 449 490 489
4 449 450 491 490
4 451 452 493 492
4 452 453 494 493
4 453 454 495 494
4 454 455 496 495
4 455 456 497 496
4 456 457 498 497
4 457 458 499 498
4 458 459 500 499
4 459 460 501 500
4 460 461 502 501
4 461 462 503 502
4 462 463 504 503
4 463 464 505 504
4 464 465 506 505
4 465 466 507 506
4 466 467 508 507
4 467 468 509 508
4 468 469 510 509
4 469 470 511 510
4 470 471 512 511
4 471 472 513 512
4 472 473 514 513
4 473 474 515 514
4 474 475 516 515
4 475 476 517 516
4 476 477 518 517
4 477 478 519 518
4 478 479 520 519
4 479 480 521 520
4 480 481 522 521
4 481 482 523 522
4 482 483 524 523
4 483 484 525 524
4 484 485 526 525
4 485 486 527 526
4 486 487 528 527
4 487 488 529 528
4 488 489 530 529
4 489 490 531 530
4 490 491 532 531
4 492 493 534 533
4 493 494 535 534
4 494 495 536 535
4 495 496 537 536
4 496 497 538 537
4 497 498 539 538
4 498 499 540 539
4 499 500 541 540
4 500 501 542 541
4 501 502 543 542
4 502 503 544 543
4 503 504 545 544
4 504 505 546 545
4 505 506 547 546
4 506 507 548 547
4 507 508 549 548
4 508 509 550 549
4 509 510 551 550
4 510 511 552 551
4 511 512 553 552
4 512 513 554 553
4 513 514 555 554
4 514 515 556 555
4 515 516 557 556
4 516 517 558 557
4 517 518 559 558
4 518 519 560 559
4 519 520 561 560
4 520 521 562 561
4 521 522 563 562
4 522 523 564 563
4 523 524 565 564
4 524 525 566 565
4 525 526 567 566
4 526 527 568 567
4 527 528 569 568
4 528 529 570 569
4 529 530 571 570
4 530 531 572 571
4 531 532 573 572
4 533 534 575 574
4 534 535 576 575
4 535 536 577 576
4 536 537 578 577
4 537 538 579 578
4 538 539 580 579
4 539 540 581 580
4 540 541 582 581
4 541 542 583 582
4 542 543 584 583
4 543 544 585 584
4 544 545 586 585
4 545 546 587 586
4 546 547 588 587
4 547 548 589 588
4 548 549 590 589
4 549 550 591 590
4 550 551 592 591
4 551 552 593 592
4 552 553 594 593
4 553 554 595 594
4 554 555 596 595
4 555 556 597 596
4 556 557 598 597
4 557 558 599 598
4 558 559 600 599
4 559 560 601 600
4 560 561 602 601
4 561 562 603 602
4 562 563 604 603
4 563 564 605 604
4 564 565 606 605
4 565 566 607 606
4 566 567 608 607
4 567 568 609 608
4 568 569 610 609
4 569 570 611 610
4 570 571 612 611
4 571 572 613 612
4 572 573 614 613
4 574 575 616 615
4 575 576 617 616
4 576 577 618 617
4 577 578 619 618
4 578 579 620 619
4 579 580 621 620
4 580 581 622 621
4 581 582 623 622
4 582 583 624 623
4 583 584 625 624
4 584 585 626 625
4 585 586 627 626
4 586 587 628 627
4 587 588 629 628
4 588 589 630 629
4 589 590 631 630
4 590 591 632 631
4 591 592 633 632
4 592 593 634 633
4 593 594 635 634
4 594 595 636 635
4 595 596 637 636
4 596 597 638 637
4 597 598 639 638
4 598 599 640 639
4 599 600 641 640
4 600 601 642 641
4 601 602 643 642
4 602 603 644 643
4 603 604 645 644
4 604 605 646 645
4 605 606 647 646
4 606 607 648 647
4 607 608 649 648
4 608 609 650 649
4 609 610 651 650
4 610 611 652 651
4 611 612 653 652
4 612 613 654 653
4 613 614 655 654
4 615 616 657 656
4 616 617 658 657
4 617 618 659 658
4 618 619 660 659
4 619 620 661 660
4 620 621 662 661
4 621 622 663 662
4 622 623 664 663
4 623 624 665 664
4 624 625 666 665
4 625 626 667 666
4 626 627 668 667
4 627 628 669 668
4 628 629 670 669
4 629 630 671 670
4 630 631 672 671
4 631 632 673 672
4 632 633 674 673
4 633 634 675 674
4 634 635 676 675
4 635 636 677 676
4 636 637 678 677
4 637 638 679 678
4 638 639 680 679
4 639 640 681 680
4 640 641 682 681
4 641 642 683 682
4 642 643 684 683
4 643 644 685 684
4 644 645 686 685
4 645 646 687 686
4 646 647 688 687
4 647 648 689 688
4 648 649 690 689
4 649 650 691 690
4 650 651 692 691
4 651 652 693 692
4 652 653 694 693
4 653 654 695 694
4 654 655 696 695
4 656 657 698 697
4 657 658 699 698
4 658 659 700 699
4 659 660 701 700
4 660 661 702 701
4 661 662 703 702
4 662 663 704 703
4 663 664 705 704
4 664 665 706 705
4 665 666 707 706
4 666 667 708 707
4 667 668 709 708
4 668 669 710 709
4 669 670 711 710
4 670 671 712 711
4 671 672 713 712
4 672 673 714 713
4 673 674 715 714
4 674 675 716 715
4 675 676 717 716
4 676 677 718 717
4 677 678 719 718
4 678 679 720 719
4 679 680 721 720
4 680 681 722 721
4 681 682 723 722
4 682 683 724 723
4 683 684 725 724
4 684 685 726 725
4 685 686 727 726
4 686 687 728 727
4 687 688 729 728
4 688 689 730 729
4 689 690 731 730
4 690 691 732 731
4 691 692 733 732
4 692 693 734 733
4 693 694 735 734
4 694 695 736 735
4 695 696 737 736
4 697 698 739 738
4 698 699 740 739
4 699 700 741 740
4 700 701 742 741
4 701 702 743 742
4 702 703 744 743
4 703 704 745 744
4 704 705 746 745
4 705 706 747 746
4 706 707 748 747
4 707 708 749 748
4 708 709 750 749
4 709 710 751 750
4 710 711 752 751
4 711 712 753 752
4 712 713 754 753
4 713 714 755 754
4 714 715 756 755
4 715 716 757 756
4 716 717 758 757
4 717 718 759 758
4 718 719 760 759
4 719 720 761 760
4 720 721 762 761
4 721 722 763 762
4 722 723 764 763
4 723 724 765 764
4 724 725 766 765
4 725 726 767 766
4 726 727 768 767
4 727 728 769 768
4 728 729 770 769
4 729 730 771 770
4 730 731 772 771
4 731 732 773 772
4 732 733 774 773
4 733 734 775 774
4 734 735 776 775
4 735 736 777 776
4 736 737 778 777
4 738 739 780 779
4 739 740 781 780
4 740 741 782 781
4 741 742 783 782
4 742 743 784 783
4 743 744 785 784
4 744 745 786 785
4 745 746 787 786
4 746 747 788 787
4 747 748 789 788
4 748 749 790 789
4 749 750 791 790
4 750 751 792 791
4 751 752 793 792
4 752 753 794 793
4 753 754 795 794
4 754 755 796 795
4 755 756 797 796
4 756 757 798 797
4 757 758 799 798
4 758 759 800 799
4 759 760 801 800
4 760 761 802 801
4 761 762 803 802
4 762 763 804 803
4 763 764 805 804
4 764 765 806 805
4 765 766 807 806
4 766 767 808 807
4 767 768 809 808
4 768 769 810 809
4 769 770 811 810
4 770 771 812 811
4 771 772 813 812
4 772 773 814 813
4 773 774 815 814
4 774 775 816 815
4 775 776 817 816
4 776 777 818 817
4 777 778 819 818
4 779 780 821 820
4 780 781 822 821
4 781 782 823 822
4 782 783 824 823
4 783 784 825 824
4 784 785 826 825
4 785 786 827 826
4 786 787 828 827
4 787 788 829 828
4 788 789 830 829
4 789 790 831 830
4 790 791 832 831
4 791 792 833 832
4 792 793 834 833
4 793 794 835 834
4 794 795 836 835
4 795 796 837 836
4 796 797 838 837
4 797 798 839 838
4 798 799 840 839
4 799 800 841 840
4 800 801 842 841
4 801 802 843 842
4 802 803 844 843
4 803 804 845 844
4 804 805 846 845
4 805 806 847 846
4 806 807 848 847
4 807 808 849 848
4 808 809 850 849
4 809 810 851 850
4 810 811 852 851
4 811 812 853 852
4 812 813 854 853
4 813 814 855 854
4 814 815 856 855
4 815 816 857 856
4 816 817 858 857
4 817 818 859 858
4 818 819 860 859
CELL_TYPES 800
9
9
9
9
9
9
9
9
9
9
9
9
9
9
9
9
9
9
9
9
9
9
9
9
9
9
9
9
9
9
9
9
9
9
9
9
9
9
9
9
9
9
9
9
9
9
9
9
9
9
9
9
9
9
9
9
9
9
9
9
9
9
9
9
9
9
9
9
9
9
9
9
9
9
9
9
9
9
9
9
9
9
9
9
9
9
9
9
9
9
9
9
9
9
9
9
9
9
9
9
9
9
9
9
9
9
9
9
9
9
9
9
9
9
9
9
9
9
9
9
9
9
9
9
9
9
9
9
9
9
9
9
9
9
9
9
9
9
9
9
9
9
9
9
9
9
9
9
9
9
9
9
9
9
9
9
9
9
9
9
9
9
9
9
9
9
9
9
9
9
9
9
9
9
9
9
9
9
9
9
9
9
9
9
9
9
9
9
9
9
9
9
9
9
9
9
9
9
9
9
9
9
9
9
9
9
9
9
9
9
9
9
9
9
9
9
9
9
9
9
9
9
9
9
9
9
9
9
9
9
9
9
9
9
9
9
9
9
9
9
9
9
9
9
9
9
9
9
9
9
9
9
9
9
9
9
9
9
9
9
9
9
9
9
9
9
9
9
9
9
9
9
9
9
9
9
9
9
9
9
9
9
9
9
9
9
9
9
9
9
9
9
9
9
9
9
9
9
9
9
9
9
9
9
9
9
9
9
9
9
9
9
9
9
9
9
9
9
9
9
9
9
9
9
9
9
9
9
9
9
9
9
9
9
9
9
9
9
9
9
9
9
9
9
9
9
9
9
9
9
9
9
9
9
9
9
9
9
9
9
9
9
9
9
9
9
9
9
9
9
9
9
9
9
9
9
9
9
9
9
9
9
9
9
9
9
9
9
9
9
9
9
9
9
9
9
9
9
9
9
9
9
9
9
9
9
9
9
9
9
9
9
9
9
9
9
9
9
9
9
9
9
9
9
9
9
9
9
9
9
9
9
9
9
9
9
9
9
9
9
9
9
9
9
9
9
9
9
9
9
9
9
9
9
9
9
9
9
9
9
9
9
9
9
9
9
9
9
9
9
9
9
9
9
9
9
9
9
9
9
9
9
9
9
9
9
9
9
9
9
9
9
9
9
9
9
9
9
9
9
9
9
9
9
9
9
9
9
9
9
9
9
9
9
9
9
9
9
9
9
9
9
9
9
9
9
9
9
9
9
9
9
9
9
9
9
9
9
9
9
9
9
9
9
9
9
9
9
9
9
9
9
9
9
9
9
9
9
9
9
9
9
9
9
9
9
9
9
9
9
9
9
9
9
9
9
9
9
9
9
9
9
9
9
9
9
9
9
9
9
9
9
9
9
9
9
9
9
9
9
9
9
9
9
9
9
9
9
9
9
9
9
9
9
9
9
9
9
9
9
9
9
9
9
9
9
9
9
9
9
9
9
9
9
9
9
9
9
9
9
9
9
9
9
9
9
9
9
9
9
9
9
9
9
9
9
9
9
9
9
9
9
9
9
9
9
9
9
9
9
9
9
9
9
9
9
9
9
9
9
9
9
9
9
9
9
9
9
9
9
9
9
9
9
9
9
9
9
9
9
9
9
9
9
9
9
9
9
9
9
9
9
9
9
9
9
9
9
9
9
9
9
9
9
9
9
9
9
9
9
9
9
9
9
9
9
9
9
9
9
9
9
9
9
9
9
9
9
9
9
9
9
9
9
9
9
9
9
9
9
9
9
9
9
9
9
9
9
9
9
9
9
9
9
9
9
9
9
9
9
9
9
9
9
9
9
9
9
9
9
9
9
9
9
9
9
9
9
9
9
POINT_DATA 861
SCALARS Disp float 2
LOOKUP_TABLE default
0.0 0.0
0.0033508472699948118 -0.09760868029699
0.004257321346058713 -0.18930969222325902
0.004949730088222695 -0.28049960780815686
0.005763399978638088 -0.3714058817040957
0.006827214960003515 -0.4618766297699189
0.008361463424234153 -0.5517127023824446
0.010531243257594265 -0.6407107911542859
0.013512251473805343 -0.7286160821340769
0.017501285776238915 -0.8150912589362883
0.022729510385733624 -0.8996814304356353
0.02951113925030164 -0.9817740178973812
0.038286997316118954 -1.060568315652751
0.049610452333041094 -1.1350814563071112
0.06412980214975988 -1.2041654741636663
0.08250127620267184 -1.2665216862337652
0.10524175956390693 -1.3207138426476412
0.13254616865967764 -1.3651996475064734
0.16412974526440796 -1.3984454939906559
0.19916715880431077 -1.4191474919685625
0.2362912759158207 -1.4264513715164284
0.2734153930273303 -1.4191474919685347
0.30845280656722995 -1.3984454939905986
0.34003638317195406 -1.36519964750639
0.3673407922677169 -1.3207138426475367
0.39008127562894396 -1.2665216862336472
0.40845274968184836 -1.2041654741635361
0.4229720994985587 -1.1350814563069729
0.43429555451547197 -1.060568315652608
0.4430714125812802 -0.9817740178972377
0.4498530414458396 -0.8996814304354953
0.455081266055327 -0.815091258936155
0.4590703003577545 -0.7286160821339519
0.4620513085739606 -0.6407107911541714
0.46422108840731685 -0.5517127023823419
0.46575533687154463 -0.4618766297698306
0.4668191518529088 -0.371405881704022
0.46763282174332377 -0.28049960780809924
0.4683252304854875 -0.1893096922232166
0.4692317045615509 -0.09760868029696435
0.4725825518315438 0.0
0.024371571753559206 -0.0015479126477519094
0.026569395769115656 -0.09767014762187419
0.02707441397534928 -0.1893805540475327
0.02770635760857341 -0.28057369410962
0.028436283438030625 -0.3714975291981231
0.02937054422683494 -0.46202859273283886
0.03072084650470011 -0.55197199453271
0.03264940262084382 -0.6411148548483323
0.03531647855283895 -0.7292083401581222
0.038892774826139696 -0.815919093117078
0.04357961552605108 -0.9008050351818616
0.0496478974236262 -0.9832798455015379
0.05748258163403229 -1.0625757277509529
0.06759823629554547 -1.1377374138431846
0.08059678801233401 -1.2076337765101133
0.09709535126794822 -1.2709534100473607
0.11758083696549061 -1.3262051242450719
0.1422435824666781 -1.3717491029506534
0.17084338887510875 -1.4059264931244015
0.20263460780832473 -1.4273025236986494
0.23629127591581733 -1.4348680424829987
0.26994794402330957 -1.4273025236986214
0.3017391629565226 -1.4059264931243434
0.33033896936494805 -1.3717491029505686
0.3550017148661289 -1.3262051242449657
0.3754872005636643 -1.270953410047241
0.3919857638192716 -1.2076337765099814
0.40498431553605263 -1.1377374138430443
0.4150999701975579 -1.0625757277508079
0.4229346544079559 -0.9832798455013927
0.4290029363055233 -0.90080503518172
0.43368977700542805 -0.8159190931169432
0.4372660732787232 -0.729208340157996
0.43993314921071386 -0.641114854848217
0.4418617053268541 -0.5519719945326065
0.44321200760471685 -0.46202859273275015
0.4441462683935201 -0.3714975291980493
0.44487619422297703 -0.2805736941095623
0.44550813785620097 -0.1893805540474903
0.44601315606243475 -0.09767014762184846
0.44821098007798826 -0.0015479126477501227
0.04808052348695124 -0.0027512527604212373
0.04963083999361043 -0.09769019906613972
0.049921972810786544 -0.1894237346745328
0.05043760452672406 -0.2806428081793735
0.051090245024432095 -0.3715766365709708
0.05190907523753455 -0.4621516504018874
0.053071126918774886 -0.5521877297532869
0.05475574837847731 -0.64145930293359
0.05710428046506951 -0.7297202969976354
0.06026505001795387 -0.8166398602337365
0.06440994428761168 -0.9017869735571795
0.06977072510942978 -0.9845969598377716
0.07667892101555353 -1.0643337400355875
0.08559149063556999 -1.140073260177687
0.09706923277678023 -1.210699529972952
0.11168047732237293 -1.2748903187829799
0.12988285705233446 -1.3311049206848948
0.15187675649084653 -1.3776164019108768
0.1774780397247122 -1.412652713824253
0.20601548473705283 -1.4346458215501012
0.23629127591581436 -1.4424562653642032
0.26656706709457534 -1.4346458215500728
0.29510451210691335 -1.4126527138241938
0.32070579534077454 -1.3776164019107908
0.34269969477928097 -1.3311049206847874
0.3609020745092364 -1.2748903187828584
0.37551331905482277 -1.210699529972819
0.38699106119602644 -1.140073260177545
0.39590363081603586 -1.0643337400354407
0.40281182672215254 -0.9845969598376247
0.4081726075439637 -0.9017869735570364
0.41231750181361565 -0.8166398602336005
0.41547827136649496 -0.7297202969975082
0.41782680345308315 -0.6414593029334738
0.4195114249127824 -0.552187729753183
0.4206734765940208 -0.4621516504017984
0.4214923068071226 -0.37157663657089696
0.42214494730483026 -0.2806428081793157
0.42266057902076776 -0.18942373467449045
0.42295171183794406 -0.09769019906611384
0.4245020283446004 -0.002751252760417687
0.07144189278493367 -0.0037089512944001087
0.07257941794204237 -0.09770587539936335
0.07275436675501742 -0.189446995865843
0.07315397700928254 -0.28070003201625005
0.07371922099167807 -0.3716479818393237
0.07443842582246037 -0.46225028526404255
0.07541966822400911 -0.552359508143846
0.07685583501035885 -0.6417452520449871
0.07888288941932292 -0.7301524889352877
0.08162620645827653 -0.8172546681361891
0.08523059942277889 -0.9026288534267984
0.08988915875927946 -0.985729273090699
0.0958832487392149 -1.0658476099425604
0.10361041038921395 -1.1420913674414244
0.11356950854264676 -1.213362694044373
0.12628611789026042 -1.2783290592197543
0.14218841765201098 -1.3354076456895785
0.16148868862148022 -1.382796662109984
0.18406495156239003 -1.4186202574863065
0.20934960042839995 -1.4411862666680284
0.2362912759158117 -1.4492389728512682
0.2632329514032225 -1.4411862666679995
0.2885176002692301 -1.4186202574862465
0.3110938632101361 -1.3827966621098968
0.33039413417960034 -1.3354076456894701
0.3462964339413456 -1.2783290592196317
0.3590130432889536 -1.2133626940442384
0.36897214144238066 -1.142091367441281
0.37669930309237376 -1.0658476099424126
0.38269339307230293 -0.9857292730905506
0.38735195240879755 -0.902628853426654
0.39095634537329466 -0.817254668136052
0.3936996624122438 -0.7301524889351596
0.39572671682120436 -0.6417452520448702
0.39716288360755136 -0.5523595081437416
0.39814412600909865 -0.4622502852639534
0.3988633308398804 -0.3716479818392498
0.3994285748222757 -0.2807000320161922
0.3998281850765408 -0.1894469958658007
0.4000031338895159 -0.09770587539933728
0.4011406590466221 -0.0037089512943949896
0.0945990653226739 -0.0044748390085328155
0.09544434714479293 -0.09772679690223277
0.09555515596286154 -0.18945872099185054
0.09585397928238011 -0.2807438093933181
0.09632537509465762 -0.37171061680936307
0.09694664412764156 -0.4623330936043639
0.09777198598940301 -0.5524911418241314
0.0989561908379541 -0.6419731345337251
0.100659865760962 -0.7305064664729367
0.10298510197896572 -0.8177651056754017
0.10605084865674001 -0.9033334938148954
0.11001473761149681 -0.986680274536518
0.1151070223222447 -1.0671224633302512
0.12166376606158501 -1.143797260303871
0.1301227161556987 -1.2156250855152753
0.1409470313901633 -1.2812685197051632
0.15453758987662708 -1.3391097120874276
0.17112251258195535 -1.387284090257923
0.1906456129377524 -1.4238250445749692
0.2126656278446849 -1.4469287359683527
0.23629127591580906 -1.4552285610567897
0.2599169239869322 -1.4469287359683236
0.2819369388938626 -1.4238250445749085
0.30146003924965625 -1.387284090257835
0.3180449619549802 -1.339109712087318
0.3316355204414394 -1.2812685197050395
0.3424598356758991 -1.2156250855151396
0.35091878577000785 -1.1437972603037263
0.357475529509343 -1.067122463330102
0.36256781422008555 -0.9866802745363682
0.36653170317483735 -0.9033334938147498
0.3695974498526071 -0.8177651056752636
0.371922686070607 -0.7305064664728078
0.3736263609936118 -0.6419731345336076
0.3748105658421608 -0.5524911418240266
0.3756359077039212 -0.4623330936042747
0.3762571767369047 -0.37171061680928913
0.37672857254918196 -0.28074380939326027
0.3770273958687005 -0.18945872099180822
0.3771382046867692 -0.09772679690220655
0.3779834865088861 -0.004474839008526349
0.11762017890836267 -0.005084119915026697
0.1182487421268086 -0.09775428828230057
0.11832087634110738 -0.18946457696009833
0.1185350088526483 -0.28077504464811004
0.11891104835023722 -0.37176287709846056
0.1194309916415044 -0.46240292770769575
0.12011706024595246 -0.5525922155225116
0.12107141559822465 -0.6421431614442914
0.12244389897886002 -0.7307840618938867
0.12435123808871129 -0.8181737176312249
0.1268813185834504 -0.9039037225353508
0.1301576037925126 -0.9874545892811023
0.1343625679744683 -1.0681641314120072
0.13976992829919158 -1.145196743470978
0.14674381171677686 -1.2174924120473651
0.15569295162429617 -1.283710994136497
0.1669764183844638 -1.3422091202497906
0.18082525092402849 -1.391073059257867
0.19726213296312053 -1.4282614590484692
0.21598963184126405 -1.4518728426391747
0.2362912759158064 -1.4604305805104913
0.2565929199903479 -1.4518728426391452
0.27532041886848935 -1.4282614590484077
0.2917573009075784 -1.3910730592577782
0.3056061334471395 -1.34220912024968
0.3168896002073031 -1.2837109941363725
0.3258387401148183 -1.2174924120472284
0.3328126235323994 -1.1451967434708321
0.33821998385711854 -1.0681641314118566
0.3424249480390698 -0.9874545892809514
0.3457012332481278 -0.9039037225352043
0.34823131374286315 -0.818173717631086
0.3501386528527113 -0.7307840618937571
0.35151113623334407 -0.6421431614441735
0.3524654915856147 -0.5525922155224066
0.35315156019006205 -0.4624029277076065
0.35367150348132886 -0.37176287709838657
0.35404754297891755 -0.28077504464805214
0.3542616754904584 -0.18946457696005603
0.3543338097047572 -0.09775428828227424
0.3549623729232015 -0.005084119915019117
0.14054276690515094 -0.005564851504803844
0.14100917696433363 -0.097787241850179
0.14105387755061 -0.18946757381046764
0.14119588879123166 -0.2807953764071509
0.14147862543811898 -0.3718035108706714
0.1418919967827965 -0.46246117913936086
0.14244333885011726 -0.5526715155152654
0.14319340576423964 -0.6422656566146151
0.14425137581592648 -0.73098641575582
0.1457355275653003 -0.8184835457360269
0.14773400873344406 -0.9043436800319116
0.15033039114648078 -0.9880573497739923
0.1536625931421771 -1.0689794015374077
0.15794153269212877 -1.1462979502988369
0.16345949171519236 -1.2189710136731928
0.17055174300302245 -1.2856620914397883
0.17953902880857395 -1.3447078991897712
0.1906490026434406 -1.3941590486835072
0.20396441567273993 -1.4319213816753886
0.21934957891472012 -1.4560123844195652
0.23629127591580362 -1.4648445021034662
0.2532329729168864 -1.4560123844195352
0.2686181361588648 -1.4319213816753267
0.2819335491881615 -1.3941590486834177
0.2930435230230252 -1.3447078991896602
0.30203080882857336 -1.2856620914396624
0.30912306011640006 -1.2189710136730554
0.31464101913946046 -1.1462979502986903
0.3189199586894087 -1.0689794015372562
0.3222521606851016 -0.9880573497738407
0.32484854309813505 -0.9043436800317642
0.3268470242662757 -0.8184835457358873
0.3283311760156471 -0.7309864157556899
0.32938914606733205 -0.6422656566144969
0.33013921298145343 -0.5526715155151605
0.33069055504877365 -0.46246117913927154
0.3311039263934509 -0.3718035108705973
0.3313866630403379 -0.28079537640709296
0.33152867428095956 -0.1894675738104253
0.33157337486723587 -0.09778724185015258
0.33203978492641745 -0.005564851504795379
0.16339335889944692 -0.005938301789304314
0.16373554933723286 -0.09782568643330963
0.16375879753321068 -0.18946862862517724
0.16383725550328299 -0.2808063206544702
0.16403012856105106 -0.37183239232208276
0.16433413434513888 -0.46250644470100394
0.16475059664904407 -0.5527320671445214
0.1653097786770662 -0.6423525299530567
0.1660824580459387 -0.7311227706967769
0.16715680073464015 -0.8186980796757333
0.1686228835912052 -0.9046584415747525
0.17054652473679555 -0.988494969221138
0.17302088812803673 -1.0695764949171085
0.17619553181008815 -1.147110524388048
0.18028654913323103 -1.2200716428426808
0.18555530824081812 -1.2871296299057087
0.19226643911145258 -1.3466103757904413
0.200636053275315 -1.396541367740383
0.2108022609220729 -1.434795465612047
0.22277821658849853 -1.4593345665717368
0.2362912759158007 -1.4684631788201061
0.2498043352431024 -1.4593345665717066
0.2617802909095266 -1.4347954656119843
0.2719464985562821 -1.396541367740293
0.28031611272014223 -1.3466103757903298
0.2870272435907742 -1.287129629905582
0.2922960026983586 -1.2200716428425427
0.29638702002149914 -1.147110524387901
0.2995616637035482 -1.0695764949169564
0.3020360270947869 -0.9884949692209858
0.30395966824037485 -0.9046584415746045
0.30542575109693754 -0.8186980796755933
0.3065000937856374 -0.7311227706966464
0.3072727731545086 -0.6423525299529385
0.30783195518253004 -0.5527320671444163
0.3082484174864349 -0.4625064447009147
0.3085524232705225 -0.37183239232200854
0.3087452963282904 -0.2808063206544122
0.3088237542983626 -0.18946862862513486
0.3088470024943404 -0.09782568643328318
0.3091891929321256 -0.005938301789295189
0.1861867171662014 -0.006226206108987905
0.18643803349756166 -0.0978685568937742
0.18643965181286268 -0.1894678569854841
0.18646140642438377 -0.28080910025869604
0.18656814758901127 -0.37184974042555335
0.1867614100179782 -0.46253759422892826
0.18703796524732813 -0.552776080720581
0.18741177520409982 -0.6424120012684857
0.18792373708905458 -0.7312078311002901
0.18861960064230263 -0.8188286031656563
0.1895667385439729 -0.9048551098241968
0.19082519698871486 -0.9887763555941386
0.19245405973133367 -1.0699662592874701
0.19454782772938603 -1.147647454483884
0.19724604286808603 -1.2208081282599303
0.20072978396600888 -1.2881264063706939
0.20519444195062655 -1.34792539677583
0.21083880500504074 -1.3982221692384358
0.21783109950916746 -1.4368750804953918
0.22631340479714607 -1.461820969493163
0.2362912759157976 -1.4712731535936474
0.24626914703444863 -1.4618209694931323
0.2547514523224263 -1.4368750804953287
0.2617437468265513 -1.3982221692383452
0.26738810988096384 -1.347925396775718
0.2718527678655798 -1.2881264063705669
0.2753365089635009 -1.2208081282597918
0.2780347241021995 -1.1476474544837365
0.28012849210025037 -1.0699662592873178
0.2817573548428677 -0.988776355593986
0.2830158132876081 -0.9048551098240486
0.28396295118927695 -0.818828603165516
0.2846588147425241 -0.7312078311001596
0.2851707766274781 -0.6424120012683673
0.28554458658424936 -0.552776080720476
0.28582114181359913 -0.462537594228839
0.28601440424256597 -0.37184974042547914
0.28612114540719336 -0.28080910025863803
0.28614290001871445 -0.18946785698544175
0.28614451833401544 -0.09786855689374775
0.2863958346653752 -0.0062262061089783235
0.20893125090344966 -0.0064533500820449135
0.2091201181521445 -0.09791358762451781
0.2091013720153085 -0.1894651978662695
0.20907143462465463 -0.28080466694753553
0.20909571911040972 -0.3718558203394719
0.20917825467479004 -0.46255431591835466
0.20931222581288447 -0.5528020923654807
0.20949905860129586 -0.6424476051297915
0.20975258885730413 -0.7312568335085807
0.21010186618042798 -0.8188971081420692
0.21056607434811178 -0.9049523811423359
0.21118317586674523 -0.9889174278628435
0.21198248956877377 -1.0701654600164912
0.21301451655097808 -1.1479281099096574
0.21435242797907741 -1.2212020662743996
0.2160903396872398 -1.2886737167748963
0.2183455388320169 -1.3486692059263425
0.22127726165429967 -1.399212940229996
0.225100069087656 -1.438158536434824
0.2300139542844769 -1.4634480275057278
0.23629127591579419 -1.473251449442576
0.2425685975471114 -1.4634480275056967
0.24748248274393178 -1.4381585364347609
0.2513052901772872 -1.399212940229905
0.25423701299956886 -1.3486692059262304
0.25649221214434526 -1.288673716774769
0.2582301238525069 -1.221202066274261
0.25956803528060574 -1.1479281099095098
0.2606000622628095 -1.0701654600163388
0.26139937596483753 -0.9889174278626907
0.2620164774834704 -0.9049523811421875
0.2624806856511537 -0.8188971081419288
0.2628299629742772 -0.7312568335084502
0.2630834932302852 -0.6424476051296728
0.26327032601869643 -0.5528020923653757
0.26340429715679087 -0.46255431591826535
0.2634868327211711 -0.3718558203393977
0.26351111720692627 -0.2808046669474775
0.2634811798162724 -0.1894651978662271
0.2634624336794364 -0.09791358762449136
0.263651300928131 -0.006453350082035051
0.23164097507849543 -0.006635185430286933
0.23178645354406605 -0.09795825068996215
0.2317485079131151 -0.18946067783575707
0.23167107492677222 -0.2807936797518647
0.2316163865257953 -0.3718510518454807
0.23158940908029463 -0.46255648800980076
0.2315795001070095 -0.5528096613193693
0.23157739403036662 -0.6424593756479984
0.23157765888710988 -0.7312728377366876
0.231578167894138 -0.8189196526345425
0.23157852693854433 -0.9049823600244072
0.23157877528092688 -0.9889586875283933
0.231578659660267 -1.0702198981899895
0.23157700544932713 -1.1480017697152327
0.23157372337921295 -1.2213059751757547
0.23157831977988103 -1.2888205680720637
0.23163128991471849 -1.348885463983979
0.2318599656899324 -1.3995490178670982
0.2325154790420383 -1.438678689158824
0.23389945512318416 -1.4642101377114818
0.2362912759157906 -1.474374618834973
0.23868309670839746 -1.4642101377114507
0.24006707278954317 -1.4386786891587608
0.24072258614164874 -1.3995490178670067
0.24095126191686267 -1.3488854639838666
0.24100423205170046 -1.2888205680719362
0.2410088284523688 -1.2213059751756157
0.24100554638225488 -1.148001769715085
0.24100389217131557 -1.0702198981898368
0.24100377655065616 -0.9889586875282407
0.24100402489303915 -0.9049823600242589
0.2410043839374458 -0.8189196526344023
0.24100489294447416 -0.7312728377365572
0.24100515780121756 -0.6424593756478798
0.24100305172457478 -0.5528096613192642
0.24099314275128977 -0.4625564880097115
0.24096616530578926 -0.37185105184540646
0.24091147690481243 -0.2807936797518067
0.2408340439184696 -0.18946067783571463
0.2407960982875187 -0.09795825068993569
0.24094157675308916 -0.00663518543027686
0.25433080954269993 -0.006779544924170995
0.25444173262257624 -0.09800042316860372
0.25438592195022924 -0.18945423523759755
0.25426436729740387 -0.2807766584336289
0.2541340754355886 -0.3718359353092968
0.25399968455383287 -0.46254425074343875
0.25384683106620226 -0.5527986987662437
0.25365585104093713 -0.6424470744422349
0.25340279549720446 -0.731257043020431
0.2530545254560096 -0.8188972766722901
0.25259100187669076 -0.9049525029714298
0.25197441697067724 -0.9889174368089558
0.25117496417174145 -1.0701651323054486
0.25013993231233755 -1.147926956368168
0.24879509075435743 -1.2212014174039603
0.24706329815699762 -1.2886801582137275
0.24490785410110288 -1.348715185144178
0.24239471302730192 -1.3993760081407762
0.23976098282976585 -1.4385722300492538
0.23744399097138275 -1.4642100386986525
0.2362912759157874 -1.4747500508978015
0.23513856086019203 -1.4642100386986217
0.23282156900180878 -1.4385722300491905
0.23018783880427324 -1.399376008140685
0.22767469773047358 -1.3487151851440662
0.2255192536745803 -1.2886801582136003
0.2237874610772217 -1.2212014174038213
0.2224426195192427 -1.1479269563680206
0.2214075876598403 -1.0701651323052963
0.22060813486090614 -0.9889174368088031
0.21999154995489395 -0.9049525029712816
0.2195280263755763 -0.81889727667215
0.21917975633438228 -0.7312570430203006
0.21892670079065019 -0.6424470744421165
0.21873572076538542 -0.5527986987661387
0.21858286727775508 -0.4625442507433494
0.21844847639599968 -0.37183593530922276
0.21831818453418456 -0.28077665843357097
0.21819662988135927 -0.18945423523755509
0.21814081920901232 -0.09800042316857722
0.21825174228888858 -0.00677954492416077
0.27701160045479767 -0.0068913128972635735
0.27709183667867265 -0.0980384072302532
0.2770184788629354 -0.18944568663151373
0.2768555598696135 -0.28075403685925776
0.2766530016606889 -0.37181102733238736
0.27641399411237627 -0.4625179820853997
0.276120815495445 -0.5527695011239154
0.2757434525490948 -0.6424109873557787
0.27523183244894034 -0.7312082410561989
0.2745369372903458 -0.8188289531534343
0.27359040040984034 -0.9048553332184031
0.2723323310521703 -0.9887764205111556
0.2707036920421666 -1.0699656522935954
0.26860823207780754 -1.1476450137805403
0.26590263125315095 -1.220805687771325
0.262417822492983 -1.288140288869479
0.25803241261038834 -1.348020201826851
0.25275775228748804 -1.3985556470551663
0.24683194642963635 -1.4377131970077874
0.2409199395492984 -1.463520357910376
0.23629127591578414 -1.4745069409063176
0.2316626122822696 -1.4635203579103446
0.225750605401932 -1.4377131970077244
0.21982479954408163 -1.3985556470550753
0.21455013922118338 -1.348020201826739
0.21016472933859134 -1.2881402888693523
0.20667992057842544 -1.2208056877711861
0.2039743197537708 -1.1476450137803933
0.20187885978941428 -1.0699656522934433
0.20025022077941315 -0.9887764205110032
0.19899215142174553 -0.9048553332182552
0.19804561454124214 -0.8188289531532943
0.19735071938264906 -0.7312082410560686
0.1968390992824956 -0.6424109873556602
0.19646173633614614 -0.5527695011238106
0.19616855771921526 -0.4625179820853104
0.195929550170903 -0.37181102733231336
0.19572699196197862 -0.28075403685919975
0.19556407296865697 -0.1894456866314713
0.19549071515291971 -0.09803840723022669
0.19557095137679462 -0.006891312897253229
0.29969044546208257 -0.006974858703464124
0.29974259994610275 -0.09807085088175929
0.29965121305085407 -0.1894347231460209
0.29944907084902644 -0.28072619325809256
0.29917746767234826 -0.37177691152303277
0.29883743491031856 -0.4624783599658088
0.2984082197189553 -0.5527226828941655
0.29784567801108913 -0.6423510559345412
0.29707354294693233 -0.7311234330059202
0.2960000466122339 -0.8186986462072952
0.2945343569344528 -0.9046587581609479
0.29261083393777354 -0.988495100474319
0.2901372252677562 -1.0695759069834354
0.2869634488039535 -1.147107265319633
0.28286827479106214 -1.2200670610424926
0.2775929502852806 -1.287147232932552
0.2709254185449859 -1.3467430305417945
0.2628186298262587 -1.3970165499071039
0.2535702265772017 -1.436036143479733
0.24410647065478477 -1.4619911875130818
0.23629127591578086 -1.4736441844444943
0.2284760811767768 -1.4619911875130507
0.21901232525436065 -1.4360361434796702
0.20976392200530558 -1.397016549907013
0.20165713328658122 -1.3467430305416832
0.1949896015462901 -1.2871472329324258
0.18971427704051144 -1.2200670610423543
0.18561910302762288 -1.1471072653194865
0.18244532656382362 -1.0695759069832842
0.17997171789380983 -0.9884951004741672
0.17804819489713403 -0.9046587581608007
0.17658250521935584 -0.8186986462071556
0.1755090088846597 -0.7311234330057902
0.17473687382050448 -0.6423510559344229
0.17417433211263922 -0.5527226828940607
0.17374511692127656 -0.4624783599657196
0.17340508415924735 -0.3717769115229587
0.17313348098256948 -0.28072619325803466
0.17293133878074202 -0.18943472314597842
0.17283995188549348 -0.09807085088173276
0.1728921063695136 -0.006974858703453692
0.322372678901544 -0.007034238756579492
0.3223992032176566 -0.09809686836251459
0.3222891010335962 -0.1894209514706237
0.3220493681256238 -0.28069343343880404
0.321711680236952 -0.371734294652898
0.3212750267760768 -0.46242595469537734
0.3207139628869983 -0.5526594906914135
0.31996287209289626 -0.6422639622888523
0.31890523698600387 -0.7309873361205199
0.3174216752766572 -0.8184843146818892
0.31542319820020476 -0.9043439987601248
0.31282674480586314 -0.9880575321596629
0.30949568230101404 -1.068979195557729
0.3052211843328954 -1.1462951050594572
0.29970732300806757 -1.218965362593678
0.2926085462829707 -1.2856793022514263
0.2836163376553905 -1.3448583232205675
0.27263417178957755 -1.3947361845641217
0.2600470350704436 -1.4335257230585126
0.24709393583186373 -1.4596453541022594
0.2362912759157777 -1.4721851234850625
0.22548861599969192 -1.4596453541022285
0.21253551676111326 -1.4335257230584497
0.19994838004198176 -1.3947361845640318
0.18896621417617243 -1.3448583232204572
0.17997400554859627 -1.2856793022513007
0.17287522882350317 -1.2189653625935404
0.16736136749867908 -1.1462951050593115
0.1630868695305648 -1.0689791955575787
0.1597558070257201 -0.988057532159512
0.15715935363138286 -0.9043439987599784
0.15516087655493419 -0.8184843146817503
0.1536773148455906 -0.7309873361203902
0.15261967973870047 -0.6422639622887342
0.1518685889445997 -0.5526594906913087
0.151307525055522 -0.46242595469528813
0.15087087159464732 -0.37173429465282404
0.15053318370597588 -0.28069343343874614
0.15029345079800369 -0.18942095147058127
0.15018334861394347 -0.09809686836248802
0.15020987293005603 -0.007034238756569001
0.3450624425899978 -0.0070733755621787825
0.3450661321779638 -0.09811601242103907
0.34493698146188156 -0.18940398002465278
0.34466102282919553 -0.2806560672190268
0.34426015357278494 -0.37168370383912197
0.34373160465943087 -0.46236239715886696
0.3430408251207827 -0.5525782978358439
0.3420856645216682 -0.6421413319440569
0.3407136071460795 -0.7307852231298206
0.3388062459200676 -0.8181745830722404
0.3362758958486733 -0.903903991326177
0.332999317053881 -0.9874547798003934
0.3287958335901865 -1.0681646564387441
0.32339672302518463 -1.145196069515719
0.316438460853516 -1.2174884088374323
0.3074892861526052 -1.2837242505310154
0.2961582303389463 -1.3423551190031016
0.28230308634136 -1.3917065430297213
0.26639286581825594 -1.4301817362535307
0.25001061771583255 -1.456502711887321
0.2362912759157747 -1.4701488519194026
0.22257193411571724 -1.4565027118872902
0.2061896860132955 -1.4301817362534683
0.1902794654901945 -1.391706543029632
0.17642432149261242 -1.342355119002992
0.16509326567895824 -1.2837242505308908
0.1561440909780519 -1.2174884088372957
0.1491858288063879 -1.145196069515574
0.14378671824139144 -1.068164656438595
0.13958323477770213 -0.9874547798002437
0.13630665598291503 -0.9039039913260317
0.13377630591152534 -0.8181745830721023
0.13186894468551724 -0.7307852231296915
0.1304968873099314 -0.6421413319439391
0.12954172671081876 -0.5525782978357391
0.12885094717217163 -0.4623623971587779
0.1283223982588181 -0.37168370383904803
0.12792152900240794 -0.2806560672189689
0.12764557036972218 -0.1894039800246103
0.12751641965364008 -0.0981160124210125
0.12752010924160612 -0.007073375562168253
0.36776285070583525 -0.0070961936492391605
0.3677471795451032 -0.09812822114804573
0.3675995716265654 -0.18938354029649454
0.3672886955066744 -0.28061432943436515
0.3668269538006257 -0.3716258150481559
0.36621104802216314 -0.4622882820647227
0.36538619935789063 -0.5524757534403105
0.36420264388870766 -0.6419713264640476
0.3624985206804953 -0.7305077165842306
0.36017258408601976 -0.81776593690861
0.3571062971768674 -0.9033336615496725
0.35314209620424314 -0.986680465112021
0.3480519125147468 -1.0671240596380214
0.34150671738164423 -1.1438005079734606
0.33307358191054787 -1.215626197867605
0.3222626758915822 -1.2812771528938907
0.30860845528497327 -1.3392340087519938
0.29192081167438577 -1.3879316296370796
0.2727460313519012 -1.4260114534463253
0.25296050270110415 -1.4525661407491304
0.23629127591577176 -1.4675316985798925
0.21962204913043998 -1.4525661407490997
0.19983652047964506 -1.4260114534462636
0.1806617401571641 -1.3879316296369915
0.16397409654658135 -1.3392340087518855
0.1503198759399777 -1.2812771528937672
0.13950896992101752 -1.2156261978674692
0.13107583444992651 -1.143800507973317
0.12453063931683005 -1.0671240596378735
0.11944045562733996 -0.9866804651118725
0.11547625465472164 -0.9033336615495283
0.11240996774557466 -0.8177659369084729
0.11008403115110353 -0.7305077165841022
0.10837990794289472 -0.6419713264639303
0.10719635247371419 -0.5524757534402059
0.10637150380944306 -0.4622882820646338
0.10575559803098117 -0.371625815048082
0.10529385632493285 -0.28061432943430725
0.10498298020504215 -0.1893835402964521
0.10483537228650452 -0.09812822114801913
0.10481970112577248 -0.007096193649228615
0.3904759056195724 -0.0071067147371072364
0.3904454283628314 -0.09813379576280319
0.3902815330406972 -0.18935959671244235
0.3899371892068007 -0.2805683150420053
0.3894162253187069 -0.37156154834179667
0.38871578954068675 -0.46220352254860997
0.3877410688052757 -0.5523435929004331
0.38630520118845235 -0.6417434200588642
0.3842762758148344 -0.7301535411055119
0.38153158402769055 -0.8172553528861185
0.37792644286798593 -0.9026288885707625
0.37326780437668083 -0.9857295538366533
0.3672770087406264 -1.0658506810211046
0.3595637797110432 -1.1420997113876485
0.34963553279461296 -1.2133717601207619
0.33694809528963143 -1.278336769059623
0.3210096961947199 -1.3355059104503955
0.30159511851748194 -1.383431198333515
0.2792516607997091 -1.4210250644764302
0.2560436850869733 -1.4478190750469704
0.23629127591576887 -1.4643067904059877
0.21653886674456513 -1.4478190750469402
0.19333089103183188 -1.4210250644763693
0.1709874333140633 -1.3834311983334278
0.15157285563683065 -1.3355059104502884
0.13563445654192507 -1.2783367690595009
0.12294701903694975 -1.2133717601206273
0.11301877212052591 -1.1420997113875062
0.10530554309094957 -1.0658506810209585
0.09931474745490222 -0.9857295538365063
0.09465610896360396 -0.9026288885706196
0.09105096780390533 -0.8172553528859824
0.08830627601676655 -0.7301535411053846
0.08627735064315277 -0.6417434200587475
0.08484148302633239 -0.552343592900329
0.08386676229092313 -0.4622035225485211
0.08316632651290376 -0.3715615483417228
0.0826453626248104 -0.2805683150419474
0.08230101879091428 -0.1893595967123999
0.08213712346878016 -0.09813379576277659
0.08210664621203922 -0.007106714737096687
0.41320218507875184 -0.007109099333688577
0.4131631801161492 -0.09813345230432544
0.41298771431785647 -0.18933244957564482
0.4126115814142887 -0.28051799002951966
0.41203200708100346 -0.3714917646941595
0.41124451199947926 -0.46210526275325076
0.4100937835540405 -0.5521722553592888
0.40840755960845254 -0.641456945031613
0.4060554566493699 -0.7297208824262724
0.40289280845034037 -0.8166402998403205
0.39874699434849986 -0.9017868729494433
0.39338667779607195 -0.9845975450753299
0.3864834841306555 -1.0643387721880426
0.37758631144921534 -1.140087131574117
0.3661390656901854 -1.21071773026722
0.3515682598728669 -1.2749036320948715
0.33339444597521467 -1.3311925316740387
0.3114135131619023 -1.3782422304933024
0.28606175263223077 -1.4152377868706782
0.25939360811489015 -1.4422247048529502
0.23629127591576585 -1.4604170411666122
0.21318894371664232 -1.4422247048529202
0.18652079919930475 -1.4152377868706183
0.16116903866963822 -1.3782422304932163
0.13918810585633176 -1.331192531673933
0.12101429195868642 -1.2749036320947507
0.10644348614137475 -1.210717730267087
0.09499624038235205 -1.1400871315739762
0.0860990677009196 -1.0643387721878979
0.07919587403551122 -0.9845975450751845
0.07383555748309087 -0.9017868729493018
0.0696897433812571 -0.8166402998401858
0.06652709518223326 -0.7297208824261461
0.06417499222315524 -0.6414569450314971
0.062488768277570744 -0.5521722553591852
0.06133803983213427 -0.4621052627531621
0.06055054475061104 -0.3714917646940857
0.05997097041732625 -0.2805179900294618
0.059594837513758846 -0.18933244957560247
0.05941937171546625 -0.09813345230429885
0.05938036675286371 -0.0071090993336780225
0.4359401653734833 -0.007107618884146355
0.43590190012951585 -0.09812849831136396
0.4357235407753445 -0.1893028848983453
0.43531758393086134 -0.28046308746830323
0.43467737783166605 -0.3714169652488868
0.43378729803670263 -0.4619855963997757
0.43244903152433367 -0.5519570701043975
0.4305157068575877 -0.6411112947781694
0.42784381161130475 -0.7292082446509955
0.42426511923417776 -0.8159191982927326
0.4195772861067375 -0.9008048337794838
0.4135102924953352 -0.9832810599746208
0.4056825570244783 -1.062583232478202
0.395583003343685 -1.1377566965146468
0.3826116274733495 -1.2076607341145174
0.3661601341290048 -1.2709791576544864
0.34577892172239677 -1.3263123608762135
0.32137499893858845 -1.3724242604429733
0.2933739401994129 -1.408692235494429
0.2632423798105614 -1.4357210101264979
0.23629127591576268 -1.4557510497625952
0.20934017202096483 -1.4357210101264684
0.17920861163211693 -1.4086922354943698
0.15120755289294702 -1.3724242604428882
0.1268036301091457 -1.3263123608761094
0.10642241770254518 -1.270979157654367
0.0899709243582082 -1.2076607341143861
0.07699954848788078 -1.1377566965145076
0.06689999480709619 -1.0625832324780595
0.059072259336248115 -0.9832810599744771
0.05300526572485429 -0.9008048337793442
0.04831743259742137 -0.8159191982925993
0.04473874022030055 -0.7292082446508704
0.04206684497402274 -0.6411112947780545
0.040133520307280755 -0.5519570701042945
0.038795253794914504 -0.4619855963996873
0.037905173999952295 -0.371416965248813
0.03726496790075754 -0.28046308746824544
0.036859011056274794 -0.18930288489830294
0.03668065170210356 -0.09812849831133737
0.036642386458136195 -0.007107618884135812
0.45868488410369157 -0.007106489228310512
0.458662254189735 -0.09812133027216131
0.4584958722850792 -0.18927213362806217
0.45806170758392717 -0.28040363244780686
0.45735182779524636 -0.37133330350415417
0.4563393342086601 -0.46184046668307893
0.45481242617792295 -0.551696894115241
0.45263548894374367 -0.6407057970798825
0.4496486757895367 -0.7286150761077679
0.4456566038370983 -0.8150909477792659
0.44042750124493285 -0.8996812175290511
0.4336481562689076 -0.981776239076189
0.42488106596395625 -1.0605787647289007
0.4135740680462137 -1.1351057940142997
0.39907876779889734 -1.2042003430093142
0.38076157736261784 -1.2665661322867316
0.3582007015035573 -1.320875998540078
0.3314236550562252 -1.3660192355274179
0.30110257087044784 -1.4015330040280043
0.26837974338237347 -1.4282603000557224
0.23629127591575935 -1.4500000000000002
0.20420280844914593 -1.4282603000556933
0.1714799809610755 -1.4015330040279461
0.14115889677530494 -1.3660192355273346
0.11438185032798087 -1.3208759985399754
0.09182097446892871 -1.2665661322866137
0.07350378403265789 -1.204200343009185
0.059008483785350625 -1.135105794014162
0.047701485867617716 -1.0605787647287601
0.038934395562675875 -0.9817762390760475
0.03215505058665999 -0.8996812175289132
0.026925947994502458 -0.8150909477791342
0.02293387604207084 -0.728615076107644
0.019947062887869522 -0.6407057970797687
0.017770125653694607 -0.5516968941151388
0.016243217622960576 -0.4618404666829909
0.015230724036375782 -0.37133330350408045
0.014520844247695675 -0.2804036324477491
0.014086679546544049 -0.1892721336280198
0.01392029764188835 -0.09812133027213474
0.013897667727931835 -0.007106489228299972
SCALARS Stress float 6
LOOKUP_TABLE default
-831.8193066855779 -1593.680639458453 -1125.5042051219984 4.215733140608201 0.0 0.0
1047.2780390938963 607.6800968699108 698.5310809019636 -21.359472194741844 0.0 0.0
459.19807167422323 38.03943296590609 147.75513538393048 -31.106508163547034 0.0 0.0
423.06546888609194 16.498722133607195 131.30344702669964 -4.13376257629359 0.0 0.0
515.3159369599747 31.492073931381253 168.38256383474874 -2.3749874421379746 0.0 0.0
576.4200349473895 58.41602250370922 229.13878144650522 -1.4260429799990382 0.0 0.0
654.2631196658136 69.58256454253241 294.7112504596093 -2.3104199005160484 0.0 0.0
729.4015073784053 100.8053040187329 368.71724935218515 -2.7657010098909796 0.0 0.0
808.4468224608406 142.42480343927593 444.1148280260833 -3.005499900826229 0.0 0.0
897.9629206200059 198.0114158946868 525.6415794921162 -3.4210739030158974 0.0 0.0
1001.4969638875868 268.9680591088781 617.6696671619892 -3.967521762820172 0.0 0.0
1118.2142395411138 354.8750385502331 721.2020326155348 -4.659886099694397 0.0 0.0
1244.5460670378318 448.7430072133609 831.7211114519167 -5.096841004750221 0.0 0.0
1377.0995084154354 547.7333664036024 947.1324658397145 -5.465872546986852 0.0 0.0
1508.724334082484 645.4570921542734 1061.0717600474572 -5.822520003652389 0.0 0.0
1632.5225903769247 736.2192876983512 1167.6124377892806 -6.200267144229386 0.0 0.0
1743.0198588996964 816.2657307047336 1262.3642088721672 -6.363217659981514 0.0 0.0
1834.8803935317414 881.9099861161799 1340.9234622644133 -5.915584038921208 0.0 0.0
1903.614939109123 930.0823599407225 1399.4258726172438 -4.707489351856628 0.0 0.0
1941.1460826542057 954.2127718257726 1430.4391522184726 -3.6050081244454226 0.0 0.0
1941.481231982133 950.9859064101906 1429.3244181442997 1.589661735579284e-11 0.0 0.0
1941.1460826538287 954.2127718254011 1430.439152218115 3.605008124382797 0.0 0.0
1903.6149391087893 930.0823599404171 1399.4258726169232 4.707489351873715 0.0 0.0
1834.8803935310202 881.9099861154839 1340.9234622637623 5.915584038933041 0.0 0.0
1743.0198588986118 816.2657307036824 1262.3642088711736 6.363217659979089 0.0 0.0
1632.5225903765695 736.2192876980611 1167.6124377888566 6.200267144243838 0.0 0.0
1508.7243340818147 645.4570921536654 1061.0717600468204 5.822520003588622 0.0 0.0
1377.0995084152428 547.733366403513 947.1324658394075 5.465872547012065 0.0 0.0
1244.5460670371267 448.74300721276967 831.7211114512512 5.096841004723968 0.0 0.0
1118.2142395405026 354.8750385497569 721.2020326149955 4.659886099671374 0.0 0.0
1001.4969638867858 268.9680591082331 617.6696671612689 3.9675217628009083 0.0 0.0
897.9629206196008 198.01141589446206 525.6415794917358 3.42107390301501 0.0 0.0
808.446822460588 142.4248034392174 444.1148280257368 3.005499900811527 0.0 0.0
729.4015073782965 100.80530401886071 368.7172493519838 2.7657010099186046 0.0 0.0
654.2631196654544 69.58256454241645 294.7112504592284 2.310419900498905 0.0 0.0
576.4200349472044 58.41602250382664 229.138781446296 1.4260429800486847 0.0 0.0
515.3159369596162 31.49207393126345 168.38256383456144 2.3749874421100996 0.0 0.0
423.06546888600815 16.498722133842783 131.30344702675225 4.133762576352149 0.0 0.0
459.1980716739332 38.039432965786986 147.7551353838233 31.106508163530084 0.0 0.0
1047.2780390935868 607.6800968695356 698.5310809015107 21.359472194774497 0.0 0.0
-831.8193066833907 -1593.680639456237 -1125.5042051198125 -4.215733141104366 0.0 0.0
-1057.6208353181619 -1784.1333734101972 -1289.0976728791668 7.203494955533392 0.0 0.0
701.9351459881956 350.3523835515671 433.191936204755 -40.4747396768127 0.0 0.0
316.99651512563366 10.223260843058924 98.2752455079713 -23.919047870833218 0.0 0.0
375.83127247091664 3.569056245404042 113.76715741801438 -15.924075411156407 0.0 0.0
457.92740879130724 12.639093729921711 142.66296670457922 -15.209327685439455 0.0 0.0
535.6083853796201 16.074192299509534 188.61775906809447 -17.24906885871441 0.0 0.0
593.3875020249493 23.358210347056907 244.9723567779568 -19.383462009077842 0.0 0.0
656.1572526604504 39.51036707843004 305.32296208730065 -19.98063345263096 0.0 0.0
716.8612307884772 61.889876982467996 362.819361642499 -19.834155659222226 0.0 0.0
780.7470606691929 92.16891069713854 420.0413932706921 -19.5306491399579 0.0 0.0
849.7159684070125 129.39947280868654 478.9783783529581 -18.95034226573346 0.0 0.0
922.8452905681303 170.1749861716182 538.978689772705 -18.422549018441845 0.0 0.0
995.5914472186175 212.1760416658598 597.6333489734913 -17.82940730990899 0.0 0.0
1066.0733791698683 249.1576597014742 651.6382711278753 -17.235625410697544 0.0 0.0
1127.5076704297448 276.9000757051608 696.1495884032313 -16.899601534996776 0.0 0.0
1174.8911966568955 291.53110616817753 727.0269198610475 -16.672923925768323 0.0 0.0
1205.5486536854385 291.8924522556492 742.5083001314117 -16.116645878414026 0.0 0.0
1221.0397800821838 281.13762822247895 745.031524198128 -14.632712224827326 0.0 0.0
1224.2945305507853 263.73558273544154 738.3111412494035 -12.017350625034005 0.0 0.0
1208.4788773625473 234.2895656119899 716.337003622108 -8.857017613139732 0.0 0.0
1176.5131496446086 198.67813552740333 683.4092297567098 1.3468337556332699e-11 0.0 0.0
1208.4788773620357 234.28956561148857 716.3370036216436 8.857017613091354 0.0 0.0
1224.2945305508931 263.73558273558183 738.3111412494757 12.0173506251097 0.0 0.0
1221.0397800817382 281.13762822206365 745.0315241977698 14.632712224877508 0.0 0.0
1205.5486536847375 291.8924522549775 742.5083001308134 16.11664587842426 0.0 0.0
1174.8911966572432 291.5311061686033 727.0269198611766 16.672923925791345 0.0 0.0
1127.507670428646 276.9000757041044 696.1495884023384 16.899601534942757 0.0 0.0
1066.0733791699254 249.15765970163355 651.6382711278358 17.235625410744273 0.0 0.0
995.5914472184688 212.17604166583038 597.6333489732668 17.82940730988491 0.0 0.0
922.8452905675111 170.17498617112457 538.9786897722511 18.422549018440485 0.0 0.0
849.7159684065491 129.39947280837418 478.97837835255774 18.9503422657162 0.0 0.0
780.7470606688224 92.1689106969429 420.041393270357 19.53064913997249 0.0 0.0
716.861230788217 61.8898769823894 362.81936164220406 19.834155659223452 0.0 0.0
656.1572526604199 39.510367078651676 305.3229620871617 19.980633452669785 0.0 0.0
593.3875020245677 23.35821034689141 244.97235677759528 19.383462009000382 0.0 0.0
535.6083853794155 16.074192299613735 188.61775906792064 17.24906885870001 0.0 0.0
457.9274087909371 12.6390937297655 142.66296670440047 15.209327685457772 0.0 0.0
375.83127247084053 3.5690562456021007 113.76715741805519 15.924075411152085 0.0 0.0
316.99651512557216 10.223260842978723 98.27524550792793 23.919047870801975 0.0 0.0
701.9351459877862 350.3523835512098 433.19193620430997 40.47473967686253 0.0 0.0
-1057.620835316525 -1784.133373408447 -1289.0976728773871 -7.203494955985073 0.0 0.0
-856.9525093759078 -1548.6088621222718 -1059.139611798337 -35.33165210582996 0.0 0.0
507.1771817694141 250.74622328457852 303.6629786202438 -101.15753742964094 0.0 0.0
233.17568697507835 26.91920001314136 78.02840043198904 -22.384460059270097 0.0 0.0
320.30645572676906 -1.58762153195448 95.60653275869494 -34.834966549018745 0.0 0.0
409.6986093161093 8.642047603920417 125.19693433501025 -36.6440088936417 0.0 0.0
504.3895374396391 12.787848055000014 166.6424704604091 -34.408432881443275 0.0 0.0
564.7158784814662 23.013126825141455 222.65767994249046 -36.96064409803542 0.0 0.0
629.798046136081 33.69335091849011 281.236577742404 -38.24089166207711 0.0 0.0
689.8929719753929 53.99198005253776 339.05662973121497 -38.271381745492064 0.0 0.0
751.4893400248219 80.6245404478609 394.9884608379894 -37.728057144394974 0.0 0.0
816.4968098783257 113.65748582357912 451.3470241282421 -36.77980548962305 0.0 0.0
884.7032984288737 151.32992022747607 508.50826340493563 -35.544667744842464 0.0 0.0
955.107639315662 188.761102393645 564.4042331091363 -34.376608195916745 0.0 0.0
1020.9871143008975 222.95146376547467 615.1222771011223 -33.31013715932461 0.0 0.0
1079.1654649092761 247.59626928121727 656.5611094123685 -32.62355634004511 0.0 0.0
1124.146289967046 260.0669786471971 685.1789726229852 -32.06168418357395 0.0 0.0
1154.8776933836816 260.6701422336466 700.8230334125318 -30.842615464287455 0.0 0.0
1171.8437245598554 251.36481816096418 704.8827291885314 -28.075299725513982 0.0 0.0
1173.5472040318223 232.13918725166377 696.6078578324585 -23.469607090344308 0.0 0.0
1162.4944777455598 207.2721549804118 679.1485632665315 -16.94609071122454 0.0 0.0
1120.0476155785075 161.28334092401798 636.0820962751449 5.561329174952334e-11 0.0 0.0
1162.4944777449525 207.2721549798054 679.1485632660455 16.94609071120673 0.0 0.0
1173.5472040320421 232.13918725192292 696.6078578326085 23.469607090430728 0.0 0.0
1171.8437245598982 251.36481816104566 704.8827291885193 28.07529972559051 0.0 0.0
1154.877693382671 260.6701422326668 700.8230334117623 30.842615464304345 0.0 0.0
1124.1462899671774 260.06697864738004 685.1789726229906 32.06168418361122 0.0 0.0
1079.1654649087702 247.59626928078484 656.561109411907 32.623556340026184 0.0 0.0
1020.9871143006073 222.95146376527225 615.122277100867 33.310137159353225 0.0 0.0
955.1076393148555 188.7611023929207 564.4042331084755 34.37660819589718 0.0 0.0
884.7032984283368 151.32992022708257 508.50826340452977 35.54466774482479 0.0 0.0
816.4968098780462 113.65748582344341 451.3470241279855 36.77980548960937 0.0 0.0
751.4893400244941 80.62454044772075 394.9884608376727 37.72805714442802 0.0 0.0
689.8929719750197 53.99198005234231 339.0566297308514 38.27138174548382 0.0 0.0
629.7980461359141 33.693350918575554 281.2365777421843 38.240891662073246 0.0 0.0
564.7158784811111 23.013126825026504 222.65767994216384 36.960644097960966 0.0 0.0
504.3895374394173 12.78784805506756 166.64247046025184 34.40843288135451 0.0 0.0
409.6986093157639 8.64204760386681 125.1969343348977 36.6440088936172 0.0 0.0
320.3064557266675 -1.5876215319401472 95.6065327586707 34.834966548971124 0.0 0.0
233.1756869750985 26.919200013094127 78.02840043198096 22.38446005923769 0.0 0.0
507.17718176909096 250.74622328436436 303.6629786198911 101.15753742951526 0.0 0.0
-856.9525093744019 -1548.6088621206645 -1059.1396117966633 35.331652105530175 0.0 0.0
-684.1024319210409 -1342.554800769546 -860.4019412025067 -52.09679646624653 0.0 0.0
368.58596092412756 155.5178108135682 204.6978693320612 -139.05668848585321 0.0 0.0
173.17681071480413 35.772130616479444 62.68468239938507 -44.367693133339664 0.0 0.0
266.4233613041372 3.211521472360922 80.89598027499328 -51.48350559740975 0.0 0.0
355.95339306475046 4.146717078086806 107.72980211255552 -58.836881141550016 0.0 0.0
457.4042075218691 8.27987592000695 143.4874305736064 -54.788613331972414 0.0 0.0
537.4154496449473 18.349663818944407 196.58545186159495 -56.22331877630295 0.0 0.0
597.9721498255317 28.23062176577387 253.73147514188778 -56.91261557023999 0.0 0.0
658.6765180768243 45.846521524007905 311.53542709479336 -56.568212956605194 0.0 0.0
718.240176130179 69.2222597037506 366.742712162743 -55.67023508781244 0.0 0.0
779.079044065188 98.16983766068147 420.7956621113532 -54.15004894962996 0.0 0.0
843.5993598411661 130.99324447358626 475.02647159193026 -52.36420939940548 0.0 0.0
909.3518408903544 166.08690718791038 528.5352839723175 -50.485557846078535 0.0 0.0
972.6047773821631 195.3238397272583 575.983444575497 -49.09329002048355 0.0 0.0
1026.9778615701516 217.12697496104698 614.3234958142996 -48.09914988307072 0.0 0.0
1070.4147300664292 228.98953303084278 641.9116247971864 -47.16364453202844 0.0 0.0
1101.7188730643902 229.91624222242203 657.9930853945671 -45.48130141039952 0.0 0.0
1119.564707745165 221.18593395081984 662.8621846747765 -41.783129983472634 0.0 0.0
1122.9852647154335 203.15995865005004 656.0977791690001 -35.230166466780375 0.0 0.0
1114.0773929933443 179.72589742380305 640.3633848429527 -24.66228776060121 0.0 0.0
1052.7513738090674 114.65872790981145 578.9450260794149 2.7201352281736035e-11 0.0 0.0
1114.0773929930378 179.7258974235148 640.3633848427542 24.662287760597508 0.0 0.0
1122.985264715528 203.15995865019147 656.0977791690016 35.23016646690861 0.0 0.0
1119.5647077453564 221.1859339510362 662.862184674907 41.78312998353066 0.0 0.0
1101.7188730636149 229.91624222168193 657.993085393928 45.48130141037921 0.0 0.0
1070.4147300657703 228.98953303022387 641.9116247966538 47.16364453202225 0.0 0.0
1026.97786157011 217.1269749610924 614.323495814206 48.09914988311389 0.0 0.0
972.6047773819141 195.32383972709812 575.9834445752157 49.09329002051014 0.0 0.0
909.3518408890907 166.08690718674276 528.5352839713852 50.485557846116535 0.0 0.0
843.5993598410294 130.99324447357662 475.02647159175 52.364209399401304 0.0 0.0
779.0790440649827 98.16983766063551 420.7956621111342 54.150048949621 0.0 0.0
718.2401761297783 69.22225970352216 366.7427121623724 55.67023508778698 0.0 0.0
658.676518076392 45.84652152375333 311.53542709440325 56.56821295657508 0.0 0.0
597.9721498252105 28.230621765658896 253.7314751415783 56.912615570190944 0.0 0.0
537.4154496446508 18.349663818961172 196.58545186134293 56.22331877627702 0.0 0.0
457.4042075214673 8.27987591999235 143.48743057343685 54.788613331890716 0.0 0.0
355.9533930644957 4.146717078068368 107.72980211247912 58.836881141452594 0.0 0.0
266.42336130403817 3.2115214722709995 80.89598027493535 51.483505597339104 0.0 0.0
173.17681071482988 35.77213061649401 62.68468239939717 44.36769313322431 0.0 0.0
368.5859609238275 155.51781081344294 204.6978693317859 139.0566884856889 0.0 0.0
-684.1024319197276 -1342.5548007681132 -860.401941201025 52.096796466046975 0.0 0.0
-535.1185341684834 -1158.7308191150587 -687.4699206341451 -56.804099893050505 0.0 0.0
270.16493709397724 74.59829458468403 131.76121109554663 -165.78420605674123 0.0 0.0
127.71403038684336 35.41470065442957 48.938619312381874 -72.20905256975229 0.0 0.0
215.934210314749 10.108943218092968 67.81222418976137 -69.9789358910007 0.0 0.0
301.26121898872407 3.0691971538041307 91.34696430373133 -78.91050062529837 0.0 0.0
401.0536512423308 1.2871992300111155 120.18484961037655 -79.86999905844004 0.0 0.0
496.1515803986521 11.279454901090048 166.76721198163193 -75.79980231529221 0.0 0.0
560.5617028359001 25.54307796006631 224.04657816752427 -75.18829686487314 0.0 0.0
621.5932688861891 37.84443275848866 279.6993649902419 -74.81354105253938 0.0 0.0
679.597812249356 57.911970762673 334.23078925994736 -73.31084502551946 0.0 0.0
737.5488693729177 82.33771698819437 386.46291258997906 -71.2456566601579 0.0 0.0
797.85238381672 110.77934194256655 438.18633917289816 -68.79148524004883 0.0 0.0
860.0346116919054 140.66125963290227 488.6432363641668 -66.47618370425859 0.0 0.0
918.8675742175687 168.36908353028 534.1319142770759 -64.57649012742021 0.0 0.0
970.8461186906713 186.89452010131302 570.0051840885505 -63.2819206069574 0.0 0.0
1012.5874865759971 196.28412830923213 595.5871688389572 -62.11545154799278 0.0 0.0
1044.5102227609307 198.73473784378285 612.7443837351049 -60.08129250253278 0.0 0.0
1064.6628648437484 192.02756984281368 619.8311088092308 -55.720734929635405 0.0 0.0
1070.6311324264834 175.60403687506997 615.2079644975823 -47.24940622778969 0.0 0.0
1062.037390689419 151.00160903307432 599.0604336969512 -32.7136121372795 0.0 0.0
976.8328397119328 61.70098903920212 514.5071120955379 3.781153168347373e-11 0.0 0.0
1062.0373906894185 151.0016090331047 599.0604336970162 32.713612137363654 0.0 0.0
1070.6311324269811 175.60403687563746 615.2079644978799 47.24940622794307 0.0 0.0
1064.6628648434605 192.02756984255822 619.8311088090417 55.72073492971595 0.0 0.0
1044.5102227610228 198.7347378439478 612.7443837350736 60.08129250263163 0.0 0.0
1012.5874865753428 196.2841283086156 595.5871688384635 62.1154515480028 0.0 0.0
970.8461186905377 186.89452010128065 570.0051840883896 63.2819206070473 0.0 0.0
918.8675742173323 168.36908353008437 534.1319142768103 64.57649012736819 0.0 0.0
860.0346116914834 140.66125963260217 488.6432363637961 66.47618370425039 0.0 0.0
797.8523838166325 110.779341942604 438.1863391727724 68.79148524005026 0.0 0.0
737.5488693727413 82.33771698817185 386.4629125897535 71.24565666012792 0.0 0.0
679.5978122487479 57.91197076220536 334.23078925944344 73.31084502543587 0.0 0.0
621.5932688858462 37.84443275836172 279.699364989925 74.81354105254216 0.0 0.0
560.5617028355034 25.54307795990512 224.0465781671856 75.18829686483429 0.0 0.0
496.1515803984584 11.279454901223268 166.76721198148584 75.79980231523683 0.0 0.0
401.0536512419061 1.2871992299574293 120.18484961022826 79.86999905836969 0.0 0.0
301.26121898848686 3.0691971537209835 91.34696430363705 78.91050062522102 0.0 0.0
215.93421031467824 10.108943218139117 67.81222418975409 69.97893589086837 0.0 0.0
127.71403038683458 35.41470065442556 48.93861931237804 72.20905256957398 0.0 0.0
270.1649370936662 74.59829458458017 131.76121109531866 165.78420605658562 0.0 0.0
-535.1185341674569 -1158.7308191138345 -687.4699206329052 56.80409989296256 0.0 0.0
-405.2930283054584 -995.8170523435574 -538.2171369711683 -63.01426887494938 0.0 0.0
193.24435272921758 15.049935064975616 78.529237805676 -176.6612943751687 0.0 0.0
91.23236814771667 29.371214242305633 36.181074717006695 -98.64134757843794 0.0 0.0
168.86537970749933 15.70382884965191 55.37076256714536 -89.48674066885343 0.0 0.0
247.90793488599326 4.202718188713427 75.64343668940352 -97.55466703076561 0.0 0.0
333.7449210509249 0.11911811114240031 99.67955816758217 -101.91488245627885 0.0 0.0
431.3212179257799 6.184260291899766 136.82526689750298 -98.17948250605487 0.0 0.0
519.0107944025691 16.05514960461092 187.90306183512126 -95.96902593857591 0.0 0.0
574.2034047288507 32.26491109721551 243.54753351965473 -91.72751827383014 0.0 0.0
634.709911421613 46.3589902281239 296.218199656144 -90.84605379742774 0.0 0.0
689.9749519877035 66.50283067551652 347.0352396721203 -88.0814474829186 0.0 0.0
746.2903060983714 90.30853817246758 396.4939314295982 -84.98291084255672 0.0 0.0
804.311330046832 116.25270406674662 444.7932646698123 -82.06497167962333 0.0 0.0
859.9536275747839 139.00352875591213 487.5951951978583 -79.84894122115645 0.0 0.0
909.1341396757015 155.90159391564296 522.0334498047293 -78.28890942122534 0.0 0.0
949.4122450298446 164.99707376236475 547.0405119498968 -76.66373302577529 0.0 0.0
981.9375989049917 166.35797616112706 563.9237314070963 -74.5738722943406 0.0 0.0
1004.90912585774 162.4145570521369 573.8518647906557 -69.8258064161979 0.0 0.0
1014.7800733469595 149.20204803762996 572.9132008389502 -59.68792232070464 0.0 0.0
1006.1763138083081 122.25062413597806 555.6662794532654 -41.53582005256833 0.0 0.0
891.4532333828575 3.019533601194283 442.7297095015717 7.328893047997553e-11 0.0 0.0
1006.1763138083287 122.25062413606078 555.6662794533765 41.535820052749635 0.0 0.0
1014.780073347243 149.20204803796327 572.9132008391005 59.68792232086928 0.0 0.0
1004.9091258573125 162.41455705176753 573.8518647903223 69.82580641629185 0.0 0.0
981.9375989048626 166.35797616103702 563.9237314069366 74.57387229444757 0.0 0.0
949.4122450297667 164.99707376237086 547.0405119498164 76.66373302577806 0.0 0.0
909.1341396757002 155.9015939157651 522.0334498046738 78.28890942135567 0.0 0.0
859.9536275743128 139.00352875551783 487.5951951974932 79.84894122121395 0.0 0.0
804.3113300466886 116.25270406668824 444.79326466963386 82.06497167959675 0.0 0.0
746.2903060978795 90.30853817204883 396.49393142921025 84.98291084248251 0.0 0.0
689.9749519876742 66.50283067568124 347.03523967198646 88.08144748290503 0.0 0.0
634.7099114213665 46.358990228055944 296.2181996558874 90.84605379737262 0.0 0.0
574.2034047287019 32.264911097324344 243.54753351946056 91.72751827380394 0.0 0.0
519.0107944020315 16.055149604338588 187.90306183473325 95.96902593857978 0.0 0.0
431.32121792525635 6.1842602916132865 136.8252668972054 98.1794825059747 0.0 0.0
333.7449210505602 0.11911811113696835 99.67955816748578 101.91488245613702 0.0 0.0
247.90793488590586 4.202718188860136 75.64343668942004 97.55466703067495 0.0 0.0
168.86537970746195 15.703828849714302 55.37076256715287 89.4867406686651 0.0 0.0
91.23236814772416 29.37121424235085 36.1810747170225 98.64134757824365 0.0 0.0
193.24435272895025 15.049935064907945 78.5292378055081 176.6612943749588 0.0 0.0
-405.2930283046144 -995.8170523424441 -538.2171369701387 63.01426887499516 0.0 0.0
-296.84421948732694 -843.8544036002104 -411.74348862813935 -69.58876544732476 0.0 0.0
134.13027904928822 -32.40346480255239 39.22196164253504 -181.34004600034984 0.0 0.0
60.498211891292385 21.475425888635883 24.592091333978477 -120.81247966912153 0.0 0.0
124.90015078088925 19.159398290678354 43.21786472147028 -108.36062092933135 0.0 0.0
194.13760272887822 6.841348681944801 60.30048426160011 -114.3421470094773 0.0 0.0
265.4277947511721 -0.6061977046565772 79.33180218202261 -121.14276854292379 0.0 0.0
360.23387837717434 -2.8274807391016448 106.34516073942785 -124.73928946083564 0.0 0.0
446.0534591075259 10.822677194801006 149.72569541525294 -116.02891345305687 0.0 0.0
524.5011909566945 18.630838694089395 198.92208878650223 -113.71425172568262 0.0 0.0
577.6659672085809 36.41465878195562 251.65983618666476 -107.1151342683414 0.0 0.0
634.2637403606869 50.44476768640042 300.2836316865343 -104.61902093752168 0.0 0.0
687.2858851334006 69.34410705261503 347.78541318283595 -101.14508920018898 0.0 0.0
741.243756475132 90.64910082983774 394.16184597195786 -97.64659506349447 0.0 0.0
793.0729492532832 109.98446436529652 435.5519018411938 -94.98644091341306 0.0 0.0
839.7437672213017 124.49438934119719 469.06629945749614 -92.95611233427633 0.0 0.0
879.2145995691205 130.97213925989655 492.93452150488804 -91.40710392660303 0.0 0.0
911.4480719691526 134.98641844999474 511.2139332151759 -88.79507761382084 0.0 0.0
938.0962794024156 132.9704657611358 524.0288386499028 -83.85550558336921 0.0 0.0
953.2012012967632 122.44390373072736 527.1986555776414 -72.8286722550689 0.0 0.0
945.747222778941 94.16782949537925 510.06276823540384 -51.64256690484245 0.0 0.0
794.6473920775984 -61.68175000219583 362.6598352416125 7.735145857168391e-11 0.0 0.0
945.747222778842 94.16782949537307 510.06276823535103 51.64256690503177 0.0 0.0
953.201201296844 122.44390373087782 527.1986555776832 72.82867225531913 0.0 0.0
938.0962794022471 132.97046576104123 524.0288386497566 83.8555055835007 0.0 0.0
911.4480719685899 134.9864184494859 511.2139332147318 88.79507761392502 0.0 0.0
879.2145995692617 130.97213926015135 492.9345215049421 91.40710392670692 0.0 0.0
839.7437672210591 124.49438934101302 469.06629945728145 92.9561123343112 0.0 0.0
793.0729492525946 109.98446436469769 435.5519018407098 94.98644091346574 0.0 0.0
741.2437564749775 90.64910082975939 394.16184597176124 97.64659506349264 0.0 0.0
687.2858851331323 69.34410705247552 347.78541318261495 101.1450892001454 0.0 0.0
634.2637403605305 50.444767686450916 300.2836316863241 104.61902093757209 0.0 0.0
577.6659672084904 36.41465878209867 251.65983618653098 107.11513426827412 0.0 0.0
524.5011909564629 18.630838694160673 198.92208878628855 113.71425172569154 0.0 0.0
446.0534591069877 10.82267719450083 149.7256954149209 116.02891345305275 0.0 0.0
360.233878376643 -2.8274807392208774 106.34516073924242 124.73928946071541 0.0 0.0
265.4277947508642 -0.6061977047778262 79.3318021818974 121.14276854281155 0.0 0.0
194.1376027288449 6.841348682234703 60.30048426167651 114.34214700934615 0.0 0.0
124.90015078075818 19.15939829059016 43.217864721404496 108.36062092917088 0.0 0.0
60.498211891324445 21.475425888788376 24.59209133403384 120.81247966890473 0.0 0.0
134.13027904903836 -32.403464802587216 39.22196164240892 181.34004600014865 0.0 0.0
-296.84421948664556 -843.8544035992579 -411.74348862732455 69.58876544739142 0.0 0.0
-199.00735419752914 -722.418384104247 -304.2227249259772 -88.44575151981284 0.0 0.0
80.98168419625684 -64.35252026906379 8.482373187108724 -176.29918595313126 0.0 0.0
34.06466644965567 14.287961427319152 14.505788363092444 -138.2247280913368 0.0 0.0
83.3957200164404 20.659867320173824 31.216676200984256 -125.16280425932712 0.0 0.0
140.5443106563537 9.435769535624424 44.99530876313801 -129.03228777264076 0.0 0.0
198.36918590834605 1.056269819576417 59.82937534912368 -136.7449287818961 0.0 0.0
270.2616863462391 -1.8343828321979192 79.93739065141413 -143.8205661826879 0.0 0.0
356.9581823470048 0.39553824887984956 109.19801778661332 -140.6096053977237 0.0 0.0
439.91963225947234 10.645547296807635 150.2852452522136 -132.49354647861153 0.0 0.0
510.2013942063134 19.30329488605871 195.61770262558554 -128.24959066846088 0.0 0.0
564.0311328846731 33.484735903521525 242.48715184582767 -121.02601861644841 0.0 0.0
614.9352066258732 48.3203266295604 287.9827518981992 -116.67824292956224 0.0 0.0
666.2843358751958 64.531324993218 332.66938478361544 -113.14373760830098 0.0 0.0
714.4146247581319 79.69467714265222 373.16836372792943 -110.05986458201322 0.0 0.0
759.1410137037448 91.14173427999619 406.7910543789793 -107.70553033391138 0.0 0.0
797.0528968425814 97.84061707600766 431.75039520590747 -105.61641345604306 0.0 0.0
830.469056793295 100.60644554757211 450.6461790728338 -103.31206643138806 0.0 0.0
859.3846079495651 101.38001986756147 466.3226164984599 -97.86189098888083 0.0 0.0
881.2042333356098 97.06093012624396 476.33985726967967 -86.27239501728685 0.0 0.0
878.2358943362281 68.98423252768647 461.9515602217663 -63.65339688170175 0.0 0.0
680.7430626967056 -132.76447822956263 271.71684920677757 6.333245039513713e-11 0.0 0.0
878.2358943363922 68.98423252797349 461.9515602219157 63.65339688190288 0.0 0.0
881.2042333357984 97.06093012655663 476.3398572698474 86.27239501759651 0.0 0.0
859.3846079494627 101.38001986754719 466.32261649836425 97.86189098907316 0.0 0.0
830.4690567929134 100.60644554725526 450.6461790724865 103.31206643146211 0.0 0.0
797.052896842454 97.84061707594263 431.7503952057766 105.61641345611203 0.0 0.0
759.1410137034983 91.1417342797968 406.7910543787947 107.70553033388632 0.0 0.0
714.4146247576956 79.69467714236862 373.16836372761 110.05986458207852 0.0 0.0
666.2843358748743 64.53132499293037 332.6693847833365 113.14373760835534 0.0 0.0
614.9352066258288 48.32032662968699 287.9827518981445 116.67824292958369 0.0 0.0
564.0311328843252 33.48473590329692 242.4871518454936 121.02601861642178 0.0 0.0
510.20139420609064 19.303294886079147 195.617702625394 128.24959066838963 0.0 0.0
439.9196322590678 10.645547296637154 150.28524525194717 132.49354647863186 0.0 0.0
356.958182346551 0.39553824880945543 109.19801778642972 140.60960539769854 0.0 0.0
270.2616863459398 -1.83438283213677 79.9373906513561 143.82056618254103 0.0 0.0
198.36918590817623 1.0562698194838007 59.82937534904574 136.74492878173825 0.0 0.0
140.54431065630556 9.435769535747463 44.995308763160025 129.0322877724723 0.0 0.0
83.39572001633526 20.659867320103313 31.216676200931555 125.16280425914348 0.0 0.0
34.0646664496537 14.287961427411464 14.505788363119548 138.22472809115385 0.0 0.0
80.98168419599946 -64.3525202690798 8.482373187001619 176.29918595288825 0.0 0.0
-199.0073541970031 -722.4183841034592 -304.22272492537894 88.4457515198711 0.0 0.0
-142.3357576967118 -599.8086308461055 -231.33092910833264 -99.29731799456114 0.0 0.0
36.575283876968086 -84.91986458558016 -13.324243148563646 -165.4164952098028 0.0 0.0
9.84595787352947 7.987450680296159 5.351567979185049 -151.0296816186135 0.0 0.0
44.19783251233642 20.759188587379803 19.487106329914862 -138.95836101755577 0.0 0.0
87.44516203745187 11.733123354767672 29.753917131534024 -140.9702682234206 0.0 0.0
130.4157667313323 3.3806048725608466 40.16162146713883 -148.8557709933828 0.0 0.0
179.0031077411284 -0.8868707940185869 53.298951980842276 -157.72530661351183 0.0 0.0
246.35601233491968 -2.637150646585746 72.20059755372652 -164.43187238719457 0.0 0.0
324.7530736281872 -2.651979222588452 97.63277496172014 -158.7559836812536 0.0 0.0
399.58680255170486 0.3841457032637079 129.3337952293713 -150.13128409495735 0.0 0.0
460.5032249868744 14.07124262056732 169.07432994149536 -138.42350706206966 0.0 0.0
515.9604379113583 23.946573360932078 208.5221265641319 -132.13220495490597 0.0 0.0
566.6077866921199 37.12896137454127 250.49471639670003 -127.71392864672531 0.0 0.0
612.6106408842768 48.20274387661635 290.21227168537797 -124.9294660995597 0.0 0.0
655.32087621014 56.96825224112381 325.3749401409432 -122.4712081075724 0.0 0.0
692.8665262911375 61.878422127185964 352.7873052007957 -119.97538640457121 0.0 0.0
728.1857826729535 66.8658504257108 376.0111765432215 -117.79407479907765 0.0 0.0
757.5355279495733 67.66000051290001 393.78422159311503 -112.17395347367356 0.0 0.0
786.7505161064141 66.94363351537037 410.25366350148533 -100.1605843315892 0.0 0.0
798.1795712372723 47.516385452032 408.2619624775772 -78.44057751769218 0.0 0.0
541.7919660122091 -208.00128545722794 167.8716615838614 2.3032242779663648e-11 0.0 0.0
798.1795712376218 47.51638545259419 408.2619624779196 78.44057751791567 0.0 0.0
786.7505161063044 66.9436335153956 410.25366350141667 100.16058433189616 0.0 0.0
757.5355279494131 67.66000051287133 393.7842215929732 112.1739534739689 0.0 0.0
728.185782672781 66.8658504255494 376.0111765430302 117.7940747991361 0.0 0.0
692.8665262909888 61.878422127041546 352.7873052006657 119.97538640458352 0.0 0.0
655.3208762094455 56.968252240412305 325.3749401404907 122.47120810751552 0.0 0.0
612.6106408841085 48.202743876564774 290.2122716852269 124.92946609966128 0.0 0.0
566.607786691303 37.12896137356758 250.4947163961136 127.71392864665135 0.0 0.0
515.960437911183 23.946573360932362 208.52212656398024 132.1322049549253 0.0 0.0
460.50322498671056 14.071242620530235 169.07432994132174 138.42350706203288 0.0 0.0
399.58680255140115 0.38414570324950637 129.33379522921695 150.1312840949144 0.0 0.0
324.7530736277584 -2.6519792227769488 97.63277496151676 158.7559836812152 0.0 0.0
246.3560123347604 -2.637150646189541 72.20059755380242 164.4318723870737 0.0 0.0
179.00310774079537 -0.8868707943992629 53.298951980631756 157.72530661335182 0.0 0.0
130.41576673131632 3.38060487271157 40.16162146718 148.85577099322623 0.0 0.0
87.44516203737165 11.733123354729592 29.753917131498163 140.97026822323264 0.0 0.0
44.19783251228552 20.759188587288495 19.48710632987221 138.95836101737908 0.0 0.0
9.845957873619863 7.9874506804500465 5.351567979258053 151.02968161843782 0.0 0.0
36.5752838767542 -84.91986458556273 -13.324243148639173 165.41649520956778 0.0 0.0
-142.33575769648328 -599.808630845475 -231.33092910799485 99.29731799459974 0.0 0.0
-106.88142311113924 -498.8604277718407 -180.62239149603582 -107.82685423671884 0.0 0.0
5.237282048408769 -95.82269404149955 -27.32338356499383 -155.35728481792162 0.0 0.0
-12.242194325262886 2.642692434880605 -2.8798284732555985 -159.19937603204122 0.0 0.0
6.993024289491286 19.94396332956132 8.081213897608711 -149.2338325558822 0.0 0.0
35.187837808614205 13.64509835918031 14.65104534873005 -149.666354767194 0.0 0.0
61.966449384762555 5.791036748253 20.324750732101492 -157.17857230956938 0.0 0.0
88.7954940758542 0.9042632583908422 26.85119976160071 -166.98210720255295 0.0 0.0
121.22425467150944 -0.5753467757840611 36.14204608482661 -173.04797464993334 0.0 0.0
164.38989663872334 0.2785487032676439 49.569700622159836 -171.87871075890877 0.0 0.0
219.20746094687058 -3.5378564946147657 65.13515508719377 -167.11748322555715 0.0 0.0
283.57678410426826 -9.04643251393719 83.16270183182961 -166.70877409118302 0.0 0.0
337.73654250934374 -11.528287344765602 103.22142211230975 -157.10431592674524 0.0 0.0
395.1380157306413 -11.01280380050385 126.36545941683704 -151.35464589124896 0.0 0.0
445.7748654766736 -4.904390032103237 154.55295262309488 -143.99319211148153 0.0 0.0
485.7818322164952 6.033396769436976 185.9569416170313 -138.19137701996925 0.0 0.0
521.8404626392279 20.743980211821224 217.70558681140585 -138.20576011722457 0.0 0.0
560.3012853335316 30.574968520160652 250.78195518652964 -139.5836391123232 0.0 0.0
594.6415003551306 31.094685178109035 278.72365258471666 -134.13488509094657 0.0 0.0
627.8087712293618 23.575683013579035 300.02678103726026 -119.62605869626691 0.0 0.0
671.0135049785998 24.03425028253816 326.53596652862126 -97.51576626402256 0.0 0.0
346.02125514264304 -289.91554340179255 36.88322409179002 2.8528290840768022e-11 0.0 0.0
671.0135049786139 24.03425028273505 326.535966528706 97.51576626431597 0.0 0.0
627.8087712291854 23.575683013541305 300.0267810371616 119.62605869657474 0.0 0.0
594.641500355551 31.094685178828946 278.7236525850193 134.13488509131685 0.0 0.0
560.3012853336368 30.574968520312993 250.78195518655193 139.58363911240392 0.0 0.0
521.8404626392162 20.74398021191027 217.7055868113842 138.20576011721795 0.0 0.0
485.7818322163757 6.033396769368062 185.9569416169091 138.19137701993014 0.0 0.0
445.7748654765481 -4.904390032115071 154.55295262301425 143.99319211155972 0.0 0.0
395.1380157303409 -11.012803800635298 126.36545941666756 151.35464589132408 0.0 0.0
337.73654250923215 -11.528287344794279 103.22142211224649 157.10431592680544 0.0 0.0
283.5767841040675 -9.046432514037424 83.16270183172594 166.70877409115602 0.0 0.0
219.20746094658656 -3.5378564946731528 65.13515508709594 167.11748322543392 0.0 0.0
164.3898966384196 0.27854870292624545 49.5697006219635 171.87871075891914 0.0 0.0
121.22425467145835 -0.5753467756338502 36.142046084855764 173.04797464984728 0.0 0.0
88.79549407566708 0.9042632580787853 26.85119976145227 166.98210720237606 0.0 0.0
61.966449384895206 5.791036748632006 20.324750732255346 157.1785723093872 0.0 0.0
35.18783780859593 13.645098359151943 14.651045348716133 149.6663547670143 0.0 0.0
6.993024289498751 19.943963329537777 8.08121389760386 149.23383255570272 0.0 0.0
-12.242194325183926 2.6426924350215266 -2.879828473189623 159.1993760318621 0.0 0.0
5.237282048372144 -95.82269404149518 -27.323383565003 155.3572848177869 0.0 0.0
-106.8814231110154 -498.86042777122395 -180.62239149582 107.82685423662345 0.0 0.0
-90.3415155632475 -397.04209073201594 -146.25541705669008 -100.68888476365105 0.0 0.0
-13.898522777315316 -101.39745949874518 -34.584856301431294 -147.9724724148031 0.0 0.0
-32.50627670534705 -1.8850719441652717 -10.313715479127685 -163.25665675623077 0.0 0.0
-28.308703193419923 18.650774532707192 -2.8966536476728564 -155.65834062836274 0.0 0.0
-16.014573757864092 14.992261027862853 -0.30626588066800453 -154.74787783336072 0.0 0.0
-6.607178929062119 8.229394022454997 0.48671045509324307 -160.86933306384253 0.0 0.0
-2.0930179893780263 2.844074476047207 0.2235354011844124 -170.61733336057557 0.0 0.0
-0.30385788253787815 0.43974978084135063 0.040064555984217876 -176.00527943715034 0.0 0.0
0.1398776676704898 -0.17094663125485443 -0.009045805172045007 -177.12619913265212 0.0 0.0
0.1849241664221033 -0.0925435372368204 0.02882596533048698 -171.58871751717137 0.0 0.0
0.11638576992264404 -0.05936197055146941 0.018020208676110983 -169.23705807405435 0.0 0.0
0.049489776357134474 0.00322219108097066 0.00787382871659048 -163.00712232445534 0.0 0.0
-0.4603758778201552 0.2316768924572976 -0.058168158521485935 -160.9839408254473 0.0 0.0
-1.0678632381481066 0.8303317269642232 0.036209575731920296 -159.67377656204295 0.0 0.0
1.8250326437732838 0.07630304120494458 0.542297010670282 -156.79997199012385 0.0 0.0
19.780249241403084 -3.415666225387856 3.5109045961857674 -147.56613900198718 0.0 0.0
50.381602837431444 2.0073481367102275 8.691698219642326 -139.12042721767807 0.0 0.0
131.2467000191154 -8.420884892548202 22.122612497295954 -137.4270902102366 0.0 0.0
265.19710427467544 -60.689199766063886 35.938955198975286 -133.40854006107767 0.0 0.0
393.5575968016214 -55.6008018467996 116.88826882872262 -126.04557525553818 0.0 0.0
-120.85599164691823 -425.3577310292081 -210.5139246296269 -3.0027536013221834e-11 0.0 0.0
393.55759680146843 -55.60080184722385 116.88826882853985 126.045575255768 0.0 0.0
265.19710427468453 -60.68919976581809 35.93895519904139 133.40854006154362 0.0 0.0
131.24670001952376 -8.420884892018542 22.12261249763521 137.4270902107019 0.0 0.0
50.38160283749154 2.0073481363396297 8.691698219556436 139.12042721785713 0.0 0.0
19.78024924172999 -3.4156662253213597 3.510904596308144 147.56613900194196 0.0 0.0
1.8250326439305553 0.0763030413185426 0.5422970107527796 156.7999719901436 0.0 0.0
-1.067863237980795 0.8303317268606278 0.0362095757519576 159.6737765620673 0.0 0.0
-0.46037587753926346 0.23167689250604973 -0.05816815841741274 160.98394082561532 0.0 0.0
0.04948977667833887 0.003222191279684594 0.00787382887622634 163.0071223244047 0.0 0.0
0.11638577010394258 -0.05936197058525838 0.018020208721313935 169.23705807403175 0.0 0.0
0.1849241664880914 -0.09254353743916433 0.02882596528950465 171.58871751707557 0.0 0.0
0.13987766777677813 -0.1709466312312573 -0.009045805133550466 177.12619913263958 0.0 0.0
-0.30385788264659297 0.4397497804477073 0.040064555833802196 176.0052794370737 0.0 0.0
-2.09301798944864 2.8440744757316483 0.22353540106855085 170.61733336039242 0.0 0.0
-6.607178928906367 8.229394022653377 0.4867104551994659 160.8693330636462 0.0 0.0
-16.014573757902866 14.992261027631205 -0.30626588074924666 154.7478778332069 0.0 0.0
-28.308703193377035 18.65077453274405 -2.896653647649222 155.65834062816666 0.0 0.0
-32.50627670534621 -1.885071944177044 -10.313715479131476 163.25665675606825 0.0 0.0
-13.898522777338489 -101.39745949870914 -34.58485630142673 147.97247241466155 0.0 0.0
-90.3415155631495 -397.0420907315662 -146.25541705652856 100.68888476359143 0.0 0.0
-73.10608103131054 -312.7899325042267 -115.76880406066118 -92.23605612080009 0.0 0.0
-27.69672396261124 -99.95418360268327 -38.295188456526844 -139.7284803628226 0.0 0.0
-51.039639169398356 -5.40237446228546 -16.933303992660562 -163.09696023639432 0.0 0.0
-61.891665018157326 17.046754766960095 -13.451929881891164 -158.07790230707243 0.0 0.0
-65.98088412210076 15.701061676470157 -15.085609552943618 -155.85790266556012 0.0 0.0
-74.41743744349755 10.37609867424803 -19.221581094473827 -159.95429864847344 0.0 0.0
-92.89729122065583 4.751981669784334 -26.350147374270325 -168.39953361709325 0.0 0.0
-121.88036119759172 1.410995423049913 -36.08213429977895 -173.2993807401735 0.0 0.0
-164.1312664602064 -0.6155514716419148 -49.58997142634766 -171.85497803956628 0.0 0.0
-218.86295738671168 3.3314204477444775 -65.09077311109155 -167.07613357934136 0.0 0.0
-283.32911577209796 8.947694710126662 -83.11936726047166 -166.62467011053195 0.0 0.0
-337.7550324288735 11.589635980997539 -103.19062605098424 -157.38485063849973 0.0 0.0
-395.75230513965323 11.300209393397829 -126.48607473075225 -151.07734986118456 0.0 0.0
-446.47630045686896 5.595338856139769 -154.65008753323318 -143.52116283492126 0.0 0.0
-484.3473086403787 -3.7888745150430054 -184.0416528566515 -138.6524614687783 0.0 0.0
-513.4559041021828 -9.194798490368555 -206.17419923056627 -140.6971579052267 0.0 0.0
-531.7850224069373 -7.0351186341801935 -215.89017219837615 -146.4053775022695 0.0 0.0
-536.1991455676234 8.692596345761963 -205.86096553429627 -155.95712115940205 0.0 0.0
-525.6509259320363 23.431372160239356 -178.25135358664207 -156.57173473822976 0.0 0.0
-335.8749534378736 9.867546827027759 -118.10991186061052 -100.4670981362936 0.0 0.0
-597.0005778333742 -606.8541019884576 -567.8443180343861 -7.988631978150806e-11 0.0 0.0
-335.87495343792796 9.867546826678051 -118.10991186071352 100.46709813665268 0.0 0.0
-525.6509259319369 23.431372160219702 -178.2513535866233 156.57173473865225 0.0 0.0
-536.1991455674149 8.692596345843043 -205.8609655341474 155.95712115963397 0.0 0.0
-531.785022406825 -7.0351186342395025 -215.89017219827605 146.40537750230655 0.0 0.0
-513.4559041021533 -9.194798490411987 -206.1741992305085 140.69715790530003 0.0 0.0
-484.3473086402873 -3.7888745150774987 -184.04165285654813 138.6524614687988 0.0 0.0
-446.4763004568014 5.595338855899145 -154.650087533219 143.5211628349868 0.0 0.0
-395.75230513923646 11.30020939325045 -126.48607473061953 151.07734986131504 0.0 0.0
-337.75503242827773 11.58963598134845 -103.19062605065974 157.38485063852224 0.0 0.0
-283.32911577164384 8.947694710048532 -83.11936726033213 166.62467011051385 0.0 0.0
-218.8629573862485 3.3314204474929383 -65.09077311103798 167.07613357923532 0.0 0.0
-164.13126645973713 -0.6155514714032808 -49.58997142613136 171.85497803955374 0.0 0.0
-121.88036119732267 1.4109954230544526 -36.08213429969675 173.2993807401059 0.0 0.0
-92.89729122066807 4.751981669348771 -26.35014737440543 168.39953361695052 0.0 0.0
-74.41743744332496 10.376098674269453 -19.221581094416347 159.9542986482679 0.0 0.0
-65.98088412209015 15.701061676145766 -15.085609553038081 155.85790266536608 0.0 0.0
-61.891665018021094 17.04675476706311 -13.451929881819888 158.07790230689665 0.0 0.0
-51.03963916936807 -5.402374462330805 -16.933303992665476 163.0969602362594 0.0 0.0
-27.696723962567138 -99.95418360259636 -38.29518845648739 139.72848036265373 0.0 0.0
-73.1060810311767 -312.78993250388095 -115.76880406051728 92.23605612070776 0.0 0.0
-58.675875830174846 -239.77733062296076 -89.53596193594066 -82.27355658157695 0.0 0.0
-38.31655145575718 -93.81444700932046 -39.63927933777635 -129.89498177099222 0.0 0.0
-68.25594403810683 -7.814816671073589 -22.822016011180498 -159.07213400486694 0.0 0.0
-93.873863770985 15.213515905710787 -23.599964697803244 -156.378743600054 0.0 0.0
-114.5911674944755 15.801225008241323 -29.629190126910295 -153.0365568682687 0.0 0.0
-141.2494863758432 12.072132506984746 -38.71205533367727 -154.95163356685526 0.0 0.0
-181.97943167008762 5.768034326239074 -52.8373995116068 -158.75216444601998 0.0 0.0
-246.80033084519482 3.3682792855682706 -72.13608327162777 -164.7618944411503 0.0 0.0
-324.5882175929096 2.2435885715584334 -97.70237142004555 -158.65135687417984 0.0 0.0
-399.47783727168 -0.5306040262733607 -129.31042065232666 -150.0932929454954 0.0 0.0
-460.4205883797048 -14.067021029362035 -169.02926324538143 -138.41950359062227 0.0 0.0
-515.9123326587479 -23.9339241148166 -208.50563643066653 -132.11227366168873 0.0 0.0
-566.7869961929268 -37.10117524021355 -250.61038251072574 -127.40368356151578 0.0 0.0
-613.1025298319114 -47.97643786959291 -290.35640409594475 -124.33655741821524 0.0 0.0
-654.1369986702995 -55.06828713320107 -323.9098010425935 -122.49431375173305 0.0 0.0
-685.2108958175799 -55.4385679347418 -345.92398503530194 -122.92054610999959 0.0 0.0
-703.0786039074471 -48.68937138195464 -355.38939718579934 -126.9193083155578 0.0 0.0
-706.9605438738424 -39.773278465378425 -354.911956450184 -135.31971135294074 0.0 0.0
-692.655269934991 -25.180978645894214 -340.5802889855258 -144.42776233308612 0.0 0.0
-680.3716134278795 -29.137331277538948 -331.28216252519474 -141.5908709453272 0.0 0.0
-1228.303359750006 -829.4577605362545 -963.4022883389272 5.6989080121638835e-11 0.0 0.0
-680.3716134279894 -29.13733127778707 -331.28216252532576 141.59087094563682 0.0 0.0
-692.6552699349014 -25.18097864605577 -340.5802889855036 144.42776233338438 0.0 0.0
-706.9605438734534 -39.77327846509207 -354.9119564498975 135.31971135317644 0.0 0.0
-703.0786039069915 -48.68937138151134 -355.3893971854857 126.91930831559618 0.0 0.0
-685.2108958177455 -55.4385679350342 -345.92398503543734 122.9205461100425 0.0 0.0
-654.1369986697988 -55.068287132726326 -323.90980104217954 122.4943137517188 0.0 0.0
-613.1025298314677 -47.97643786934065 -290.35640409563985 124.33655741822895 0.0 0.0
-566.7869961925379 -37.10117523997809 -250.61038251045733 127.40368356162057 0.0 0.0
-515.9123326583203 -23.933924114609397 -208.50563643033092 132.1122736616789 0.0 0.0
-460.4205883797387 -14.067021029889903 -169.0292632454073 138.41950359072126 0.0 0.0
-399.477837271118 -0.530604026140816 -129.31042065203084 150.09329294545563 0.0 0.0
-324.5882175922427 2.2435885716247492 -97.70237141980897 158.65135687421946 0.0 0.0
-246.80033084470472 3.368279285650166 -72.13608327145532 164.76189444112467 0.0 0.0
-181.97943166976862 5.768034326218672 -52.83739951152426 158.75216444586354 0.0 0.0
-141.24948637571404 12.0721325067891 -38.71205533369745 154.95163356666635 0.0 0.0
-114.59116749431246 15.801225008250727 -29.629190126859307 153.03655686811402 0.0 0.0
-93.87386377085627 15.21351590571371 -23.599964697764307 156.3787435998637 0.0 0.0
-68.25594403801834 -7.814816670996182 -22.822016011130426 159.0721340047117 0.0 0.0
-38.316551455754166 -93.81444700927024 -39.63927933776039 129.89498177085142 0.0 0.0
-58.6758758301029 -239.77733062271227 -89.53596193584457 82.27355658149742 0.0 0.0
-47.3532468994322 -177.3556325348327 -67.41266383027946 -71.89140092354779 0.0 0.0
-46.930791621916086 -84.35619889443016 -39.38609715490388 -118.30752755969827 0.0 0.0
-84.50946531795326 -9.041903113154165 -28.066415016627587 -151.22582872897925 0.0 0.0
-124.48124817920407 13.262059593495104 -33.36312184603381 -150.6975217125587 0.0 0.0
-161.58793710241613 15.091186776225761 -43.94401264277272 -145.94608163666484 0.0 0.0
-205.4485115027802 12.66803940699638 -57.93102371877274 -143.96732956192932 0.0 0.0
-274.01728984526267 8.001077181102707 -78.80576809951768 -148.61769545762442 0.0 0.0
-357.2941043651388 -0.08615494328820361 -109.2300558897004 -140.94617191221926 0.0 0.0
-439.95509125165466 -10.959427039375717 -150.3427667963198 -132.39864501508166 0.0 0.0
-510.28488941901816 -19.44906903329869 -195.66112048486463 -128.18992773735323 0.0 0.0
-563.9546608763851 -33.49279764605107 -242.47431731931263 -120.97931507528492 0.0 0.0
-614.8389102602396 -48.23878645067254 -287.9087162429287 -116.66080173908843 0.0 0.0
-666.3167166131867 -64.50858682380237 -332.6485655343852 -112.88260693991656 0.0 0.0
-714.992920859407 -79.86542330643334 -373.46390106040064 -109.36985190910796 0.0 0.0
-759.0079563918142 -90.3768546311245 -406.3638190308231 -107.22999535080747 0.0 0.0
-791.8095736366089 -93.02517989298666 -426.98385513595036 -107.82320422374411 0.0 0.0
-810.4467743755747 -84.7945087970551 -434.0124880073833 -112.0412489971029 0.0 0.0
-808.6577744356803 -64.85115696539276 -424.82982085275626 -119.86993671600702 0.0 0.0
-787.0899163121306 -37.924716212939046 -401.3999764588517 -128.3658749076744 0.0 0.0
-741.3015435691983 -6.3311498097080445 -364.2019497177231 -132.41538837950938 0.0 0.0
-1636.5748145982986 -1046.1540827233102 -1281.720973295193 8.738609835745592e-11 0.0 0.0
-741.301543569512 -6.331149810203456 -364.2019497179904 132.41538837977652 0.0 0.0
-787.0899163116464 -37.92471621259638 -401.3999764585193 128.36587490791226 0.0 0.0
-808.6577744355407 -64.8511569653902 -424.8298208526405 119.86993671624887 0.0 0.0
-810.4467743754503 -84.79450879702472 -434.01248800728615 112.04124899720904 0.0 0.0
-791.8095736364579 -93.02517989287107 -426.98385513579973 107.8232042237149 0.0 0.0
-759.0079563912986 -90.37685463067378 -406.36381903039086 107.22999535079757 0.0 0.0
-714.9929208589202 -79.86542330601333 -373.4639010600437 109.36985190908844 0.0 0.0
-666.3167166131761 -64.50858682404535 -332.6485655343586 112.88260694002015 0.0 0.0
-614.8389102598143 -48.23878645041077 -287.90871624256044 116.66080173908031 0.0 0.0
-563.9546608764381 -33.492797646458186 -242.47431731929393 120.97931507530812 0.0 0.0
-510.2848894185743 -19.449069033143317 -195.6611204845139 128.18992773732495 0.0 0.0
-439.95509125094543 -10.959427039024057 -150.34276679588865 132.3986450151359 0.0 0.0
-357.29410436477957 -0.0861549435873864 -109.23005588964047 140.9461719122338 0.0 0.0
-274.01728984457435 8.001077181558555 -78.80576809918705 148.6176954575319 0.0 0.0
-205.44851150250838 12.668039406902448 -57.93102371872147 143.96732956181123 0.0 0.0
-161.58793710216824 15.091186776282502 -43.94401264268228 145.94608163654033 0.0 0.0
-124.48124817915655 13.262059593304725 -33.363121846077426 150.69752171237744 0.0 0.0
-84.5094653178119 -9.04190311301191 -28.0664150165422 151.22582872880187 0.0 0.0
-46.93079162187352 -84.35619889435795 -39.386097154869425 118.3075275595906 0.0 0.0
-47.35324689940779 -177.35563253466057 -67.4126638302205 71.89140092349581 0.0 0.0
-38.983744182635434 -124.96760323724278 -49.18540422596346 -61.27602886625041 0.0 0.0
-54.18190129766017 -72.84887998446396 -38.10923438463723 -105.05613332691432 0.0 0.0
-99.99515633712993 -9.07310116453694 -32.72087159863123 -139.755923949097 0.0 0.0
-153.83924919302387 11.095990153172053 -42.82964119837207 -140.87806828149454 0.0 0.0
-206.8663754344386 13.824834831736567 -57.90259308726626 -134.8734702771024 0.0 0.0
-270.5026995462368 13.497578044501028 -76.66120486464706 -131.23188272677754 0.0 0.0
-358.7338755886625 5.430689821780248 -105.83084541684093 -125.61979763060184 0.0 0.0
-445.7441389224839 -10.753614951670544 -149.64595803625784 -116.30157316158666 0.0 0.0
-524.721429997839 -18.947561698977644 -199.05432820370146 -113.56756468527522 0.0 0.0
-577.7966994450078 -36.558051802026434 -251.76165224054438 -107.03340317533417 0.0 0.0
-634.2513435106144 -50.39252683618632 -300.27058697229415 -104.6149817581908 0.0 0.0
-687.1017972209604 -69.16919578602953 -347.62475917333865 -101.1305481837555 0.0 0.0
-741.0031932460616 -90.44620028938589 -393.8995403406943 -97.45767802773727 0.0 0.0
-793.550030334548 -110.3196265226805 -435.86539144941764 -94.32471113765408 0.0 0.0
-840.967366035847 -125.2484062830914 -470.0524962335096 -92.15847896830039 0.0 0.0
-877.9617148181774 -129.6343301485794 -491.8137966145375 -92.85924308978969 0.0 0.0
-895.624832674569 -121.17302752343055 -497.40735144073363 -96.10434839309357 0.0 0.0
-886.7833340724904 -90.12310727706533 -478.8904807859029 -102.5208377511292 0.0 0.0
-847.7234944670188 -42.0824328128905 -436.823480785533 -111.178911484523 0.0 0.0
-773.5524036082423 19.03778931402417 -371.6457929700876 -119.41191008970245 0.0 0.0
-1948.8185378200315 -1263.1548936783402 -1553.0201508797436 6.627942639170215e-11 0.0 0.0
-773.552403608068 19.037789314055516 -371.64579297000904 119.41191008992698 0.0 0.0
-847.7234944664176 -42.082432812362136 -436.82348078509915 111.17891148472738 0.0 0.0
-886.7833340722106 -90.12310727689109 -478.89048078564787 102.52083775125757 0.0 0.0
-895.6248326744108 -121.17302752339268 -497.4073514406109 96.10434839326757 0.0 0.0
-877.9617148179029 -129.63433014834115 -491.81379661428684 92.85924308979084 0.0 0.0
-840.9673660356445 -125.24840628293461 -470.0524962332811 92.15847896828059 0.0 0.0
-793.5500303339319 -110.3196265221625 -435.8653914489594 94.32471113763201 0.0 0.0
-741.0031932461687 -90.446200289741 -393.8995403407439 97.45767802787232 0.0 0.0
-687.1017972206171 -69.169195785849 -347.62475917300947 101.13054818377556 0.0 0.0
-634.2513435105517 -50.39252683631405 -300.2705869721583 104.61498175812851 0.0 0.0
-577.7966994448079 -36.558051802137605 -251.76165224032403 107.03340317531112 0.0 0.0
-524.721429997278 -18.94756169874722 -199.05432820327533 113.56756468531847 0.0 0.0
-445.74413892203694 -10.753614951654942 -149.64595803600136 116.3015731616014 0.0 0.0
-358.7338755880065 5.430689821941524 -105.83084541659942 125.6197976305084 0.0 0.0
-270.5026995458346 13.497578044556438 -76.66120486451318 131.23188272666803 0.0 0.0
-206.86637543416575 13.824834831780706 -57.90259308717213 134.87347027697294 0.0 0.0
-153.83924919287304 11.095990153158539 -42.829641198330926 140.87806828133307 0.0 0.0
-99.99515633698034 -9.073101164420208 -32.72087159855117 139.75592394897174 0.0 0.0
-54.18190129762291 -72.84887998442376 -38.109234384614 105.05613332678855 0.0 0.0
-38.9837441826402 -124.96760323713377 -49.18540422593218 61.276028866211476 0.0 0.0
-33.259830788090994 -82.33651282091301 -34.67890308270119 -50.44100966877534 0.0 0.0
-60.310640537850006 -60.30102784713908 -36.18350051549673 -90.25953391228526 0.0 0.0
-114.751507299448 -8.068037052356333 -36.84586330554131 -124.82427174141722 0.0 0.0
-182.1224323946735 8.851448231595581 -51.98643542519307 -127.13274955211236 0.0 0.0
-249.9997413704508 11.82134697892448 -71.50894985636899 -119.58718024557714 0.0 0.0
-334.94126653856677 12.618864433708072 -95.57630376009419 -113.0624713671237 0.0 0.0
-429.86351369510106 -3.6106819474846112 -135.89526270125037 -100.72924964432838 0.0 0.0
-518.8662712952787 -16.160321640629064 -187.89507924217432 -96.1524163289325 0.0 0.0
-574.4326662407899 -32.47856252477875 -243.6765565116212 -91.57637172943339 0.0 0.0
-634.8428017368631 -46.45433720717777 -296.32798873672346 -90.78416898254227 0.0 0.0
-689.9711195566297 -66.47296975856544 -347.04342592029377 -88.07097558837494 0.0 0.0
-746.0431259671842 -90.06345756194332 -396.26470892062036 -84.96212620847771 0.0 0.0
-803.7514129762069 -115.78256119447354 -444.24749449467174 -81.92882048149852 0.0 0.0
-860.0318372904219 -139.18320165025403 -487.6502064870665 -79.33100699867734 0.0 0.0
-911.6114174119732 -158.20358417389792 -524.4212285933547 -77.45465616567816 0.0 0.0
-952.3370953724534 -167.52597683737426 -549.9076055565326 -77.34103786552275 0.0 0.0
-971.0249652276757 -155.7186480512392 -553.84509731551 -79.78666892018623 0.0 0.0
-952.5549454334383 -114.25481550720801 -525.1557468852219 -84.44473121727508 0.0 0.0
-891.8496040126917 -43.72629306210301 -461.5429634111648 -92.85873219608021 0.0 0.0
-790.7397810855449 45.04742399311937 -369.76794913581216 -106.45396740614676 0.0 0.0
-2227.8785231768784 -1481.2457710103783 -1806.4906929601177 9.470824124946375e-11 0.0 0.0
-790.739781085247 45.047423993335116 -369.76794913561605 106.4539674063314 0.0 0.0
-891.8496040124658 -43.72629306195483 -461.54296341100064 92.85873219627288 0.0 0.0
-952.5549454336126 -114.2548155074227 -525.1557468853011 84.44473121735885 0.0 0.0
-971.0249652275535 -155.71864805120248 -553.8450973154016 79.78666892027834 0.0 0.0
-952.3370953723665 -167.52597683735672 -549.9076055564184 77.3410378655673 0.0 0.0
-911.6114174117413 -158.20358417378029 -524.4212285931297 77.45465616572737 0.0 0.0
-860.0318372900696 -139.18320165002223 -487.6502064867484 79.3310069987902 0.0 0.0
-803.7514129764252 -115.78256119485594 -444.24749449481425 81.92882048152963 0.0 0.0
-746.0431259666325 -90.06345756156311 -396.2647089201764 84.96212620850702 0.0 0.0
-689.9711195565319 -66.47296975867329 -347.043425920144 88.07097558834029 0.0 0.0
-634.8428017368213 -46.454337207442904 -296.3279887366027 90.78416898256187 0.0 0.0
-574.4326662402704 -32.4785625244752 -243.67655651115837 91.57637172940137 0.0 0.0
-518.8662712947194 -16.160321640364998 -187.89507924176093 96.15241632891761 0.0 0.0
-429.8635136946681 -3.6106819474411824 -135.8952627010219 100.7292496442964 0.0 0.0
-334.9412665380475 12.618864433590637 -95.57630376000353 113.0624713669952 0.0 0.0
-249.99974137010645 11.8213469790288 -71.50894985623852 119.587180245476 0.0 0.0
-182.12243239437493 8.851448231792107 -51.98643542504402 127.13274955194116 0.0 0.0
-114.75150729927803 -8.06803705226481 -36.845863305462835 124.82427174131301 0.0 0.0
-60.31064053778732 -60.30102784709197 -36.18350051546378 90.25953391216441 0.0 0.0
-33.25983078803559 -82.33651282082413 -34.678903082657904 50.44100966875253 0.0 0.0
-29.782036028385562 -49.40018569178595 -23.754666516051454 -39.44258454953154 0.0 0.0
-65.20931038743223 -47.48898111563006 -33.809487450918674 -74.05402959472708 0.0 0.0
-128.69175588830285 -6.380739105530231 -40.52174849814991 -106.52903567859836 0.0 0.0
-209.36693273182402 6.674766950596662 -60.813532877293724 -109.36663152826972 0.0 0.0
-292.7288651861793 9.42899854835509 -84.8410678685465 -101.24846251332905 0.0 0.0
-389.67612304794164 3.5200413292794606 -117.12891934831136 -87.38920306670369 0.0 0.0
-494.573670834233 -8.602667534300767 -165.31390651407608 -78.24752835555776 0.0 0.0
-560.4159154319401 -25.60966558978091 -223.99387936908857 -75.14513472847857 0.0 0.0
-621.8031917400132 -37.94859552323467 -279.83052864487297 -74.68331648390514 0.0 0.0
-679.7299365912277 -57.988679044079966 -334.3456088270811 -73.271395275181 0.0 0.0
-737.5368284293322 -82.30269634376833 -386.4585128006164 -71.24044216183113 0.0 0.0
-797.5500457848127 -110.47928747511361 -437.89617121535775 -68.75859869675293 0.0 0.0
-859.2615805869689 -140.00067423156037 -487.91096520657345 -66.3632439831218 0.0 0.0
-918.4762016552488 -168.24804258136777 -533.8370632107691 -64.27194266430112 0.0 0.0
-973.4864183687012 -189.67506907361553 -572.7426521706974 -62.68907641370356 0.0 0.0
-1018.5913509909067 -201.88603070303918 -601.5230808085729 -62.09343284098322 0.0 0.0
-1039.624661547529 -193.10217054850423 -607.9169218872722 -62.88360731225899 0.0 0.0
-1013.3360457564447 -142.00217501631874 -570.3149968812138 -65.73641644918135 0.0 0.0
-929.5829398957468 -46.14975274504256 -482.7809729079724 -74.48706962793777 0.0 0.0
-793.995638171363 76.46081104694052 -357.5952195802202 -94.6049481861629 0.0 0.0
-2486.769975040192 -1696.723937297907 -2047.885785789489 7.384315381386841e-11 0.0 0.0
-793.9956381713052 76.46081104693208 -357.5952195801825 94.604948186292 0.0 0.0
-929.5829398960161 -46.149752745365284 -482.78097290812065 74.48706962807861 0.0 0.0
-1013.3360457567499 -142.00217501671517 -570.31499688141 65.73641644930821 0.0 0.0
-1039.6246615472194 -193.10217054824216 -607.9169218869783 62.88360731233319 0.0 0.0
-1018.5913509909468 -201.88603070316242 -601.5230808085215 62.09343284100926 0.0 0.0
-973.4864183681353 -189.675069073104 -572.7426521702682 62.68907641373645 0.0 0.0
-918.4762016555858 -168.24804258185367 -533.837063210886 64.27194266436706 0.0 0.0
-859.2615805872017 -140.00067423195216 -487.9109652066943 66.36324398315226 0.0 0.0
-797.5500457843092 -110.47928747475859 -437.89617121493734 68.75859869678148 0.0 0.0
-737.5368284290275 -82.30269634362392 -386.4585128003326 71.24044216177013 0.0 0.0
-679.7299365909843 -57.988679044085316 -334.34560882682115 73.2713952751616 0.0 0.0
-621.8031917396877 -37.94859552313825 -279.8305286445308 74.68331648388255 0.0 0.0
-560.4159154315084 -25.609665589660608 -223.99387936871813 75.14513472848971 0.0 0.0
-494.5736708338237 -8.602667534253337 -165.3139065137879 78.24752835551494 0.0 0.0
-389.67612304732097 3.5200413293569346 -117.12891934809994 87.3892030666084 0.0 0.0
-292.7288651858651 9.428998548368323 -84.84106786845145 101.24846251328795 0.0 0.0
-209.36693273153753 6.67476695079346 -60.81353287714817 109.36663152815383 0.0 0.0
-128.69175588814832 -6.38073910548575 -40.521748498090226 106.52903567848246 0.0 0.0
-65.20931038734722 -47.48898111556243 -33.80948745087289 74.05402959465438 0.0 0.0
-29.782036028357297 -49.40018569174686 -23.754666516031243 39.442584549463085 0.0 0.0
-27.959125373375848 -26.164553126411114 -16.237103549936087 -28.54082305057757 0.0 0.0
-68.43182343665723 -35.07644771428081 -31.05248134528141 -56.623047226063896 0.0 0.0
-141.56660778935472 -4.5277540529296125 -43.8283085526853 -84.80274173444334 0.0 0.0
-235.6208865348738 4.877297850762193 -69.22522544604784 -87.5349410991251 0.0 0.0
-334.5706337315975 4.942555661399346 -98.62082826012713 -78.58428848577634 0.0 0.0
-448.8860986811089 -1.8336428036018422 -138.704800729899 -63.20744443129486 0.0 0.0
-535.2058364568522 -17.207963757512303 -195.45871737776056 -57.402634991280934 0.0 0.0
-597.8536526431701 -28.04995747824483 -253.63842781790333 -56.80100804085959 0.0 0.0
-658.8655986698041 -45.88686382916818 -311.67286808142563 -56.47426423545283 0.0 0.0
-718.3809887699933 -69.30592588677365 -366.8660063998791 -55.64879748731575 0.0 0.0
-779.0333564060171 -98.10514065341012 -420.75228424872915 -54.14703468280025 0.0 0.0
-843.2500844231712 -130.65900104537758 -474.6871524034714 -52.318792246675045 0.0 0.0
-908.5611105061363 -165.42815013551402 -527.8075304349475 -50.386058338023695 0.0 0.0
-971.9606908521894 -195.0097126929914 -575.5110643539012 -48.98440168738184 0.0 0.0
-1028.511341179056 -219.01202378360142 -616.1103974572767 -47.86860629300809 0.0 0.0
-1075.7748342797445 -234.21040101976575 -647.3606420847686 -46.783261609875595 0.0 0.0
-1102.8343050526294 -230.18287277773416 -658.9006098759401 -46.06604845339856 0.0 0.0
-1076.6232986116331 -178.09524811024886 -620.5557157165567 -46.87859530002192 0.0 0.0
-969.5251841398742 -57.03294708203089 -508.921323727845 -55.72880458458634 0.0 0.0
-782.5574899168112 118.2806628249485 -332.3739849207547 -82.61603115102311 0.0 0.0
-2727.830240503179 -1901.304079869928 -2274.7336104309024 5.243450118541659e-11 0.0 0.0
-782.5574899169209 118.28066282479563 -332.37398492084924 82.61603115112477 0.0 0.0
-969.5251841399821 -57.03294708219938 -508.9213237279347 55.728804584701784 0.0 0.0
-1076.6232986114499 -178.0952481101042 -620.5557157163719 46.878595300127955 0.0 0.0
-1102.8343050520612 -230.18287277720768 -658.90060987552 46.066048453393414 0.0 0.0
-1075.7748342799757 -234.21040102007734 -647.3606420849014 46.78326160993569 0.0 0.0
-1028.511341178894 -219.01202378352392 -616.1103974571023 47.86860629306272 0.0 0.0
-971.9606908521491 -195.00971269306274 -575.5110643538035 48.984401687413396 0.0 0.0
-908.5611105058643 -165.42815013537097 -527.8075304346894 50.38605833800227 0.0 0.0
-843.2500844228748 -130.6590010452368 -474.6871524031897 52.31879224669326 0.0 0.0
-779.033356405413 -98.10514065295568 -420.7522842482618 54.147034682758225 0.0 0.0
-718.3809887695726 -69.3059258865484 -366.866006399516 55.64879748727944 0.0 0.0
-658.8655986696377 -45.88686382925775 -311.67286808117683 56.4742642354384 0.0 0.0
-597.853652642817 -28.04995747814618 -253.63842781754488 56.80100804082867 0.0 0.0
-535.2058364566188 -17.207963757658142 -195.45871737754558 57.402634991276344 0.0 0.0
-448.8860986805999 -1.8336428035407333 -138.70480072967155 63.20744443126568 0.0 0.0
-334.570633731213 4.94255566145674 -98.62082826000048 78.58428848572733 0.0 0.0
-235.62088653461035 4.877297850889649 -69.22522544592994 87.53494109909506 0.0 0.0
-141.566607789225 -4.527754052906603 -43.82830855263949 84.80274173433313 0.0 0.0
-68.43182343664482 -35.076447714306184 -31.052481345285294 56.623047226018365 0.0 0.0
-27.959125373369208 -26.16455312639866 -16.23710354993036 28.5408230505263 0.0 0.0
-26.774963505070588 -12.468552534170245 -11.77305481177225 -18.429512079864885 0.0 0.0
-69.12143793253014 -23.8020981917071 -27.877060837271173 -38.217613001762935 0.0 0.0
-152.91582422401535 -3.2146784069592016 -46.83915078929235 -59.27949871205611 0.0 0.0
-260.9096242973901 3.7992038542116138 -77.13766833475738 -61.31620778475981 0.0 0.0
-377.5118252966996 -1.8348865976145974 -113.61394008708663 -52.40869961526181 0.0 0.0
-495.34098202106 -9.228265866223358 -162.00508437892796 -39.58063100231345 0.0 0.0
-562.9206758430445 -22.211728578753355 -221.65584988103993 -37.428094616797274 0.0 0.0
-629.5819164304887 -33.074432405849194 -280.9847648455432 -38.162693251804015 0.0 0.0
-690.1301722596734 -54.09017619689035 -339.2579890721566 -38.20721793204909 0.0 0.0
-751.6153250460153 -80.69170966856063 -395.0954198644273 -37.7188327273684 0.0 0.0
-816.4002020902026 -113.54714761619863 -451.2473310149759 -36.77650938655011 0.0 0.0
-884.3257850251739 -150.99021619365897 -508.14322985272605 -35.49416960417712 0.0 0.0
-954.4764652774772 -188.2781081216061 -563.8530361303725 -34.30079604581865 0.0 0.0
-1020.3665360351824 -222.64564189350443 -614.7121648611214 -33.32677331387407 0.0 0.0
-1079.050589008596 -247.88366340981855 -656.7829671875095 -32.67107906500458 0.0 0.0
-1124.611000090131 -260.7660386147675 -685.9817703102561 -31.706642630304444 0.0 0.0
-1153.7035782144321 -259.40617658223584 -699.7330041015149 -30.08660396235355 0.0 0.0
-1150.8888049491181 -230.56626039132766 -684.1335476701413 -28.838977784764868 0.0 0.0
-1029.8895447389027 -93.05969235080521 -557.4189622893448 -35.403000077419335 0.0 0.0
-751.1160541447418 177.5781329836508 -287.84772544852166 -68.59668239510876 0.0 0.0
-2937.7306179257475 -2078.1215257005206 -2472.711496796595 1.957900508386956e-11 0.0 0.0
-751.11605414481 177.5781329835483 -287.84772544852063 68.59668239519263 0.0 0.0
-1029.8895447385626 -93.05969235049352 -557.4189622891656 35.40300007747817 0.0 0.0
-1150.888804948696 -230.5662603909488 -684.1335476697365 28.838977784845724 0.0 0.0
-1153.7035782139908 -259.4061765818251 -699.733004101193 30.086603962374312 0.0 0.0
-1124.6110000896956 -260.76603861440014 -685.9817703098673 31.706642630326616 0.0 0.0
-1079.0505890085146 -247.88366340980943 -656.7829671873328 32.67107906501383 0.0 0.0
-1020.3665360345674 -222.64564189298605 -614.7121648605801 33.326773313859604 0.0 0.0
-954.476465277065 -188.27810812130326 -563.8530361300584 34.30079604581471 0.0 0.0
-884.3257850246263 -150.99021619326723 -508.14322985227386 35.49416960416899 0.0 0.0
-816.4002020897943 -113.54714761595179 -451.247331014628 36.77650938655121 0.0 0.0
-751.6153250455741 -80.69170966831248 -395.09541986402365 37.71883272735738 0.0 0.0
-690.130172259425 -54.09017619687339 -339.2579890718687 38.20721793206944 0.0 0.0
-629.5819164303514 -33.07443240596135 -280.98476484529687 38.162693251743235 0.0 0.0
-562.920675842601 -22.211728578643214 -221.6558498806692 37.42809461680141 0.0 0.0
-495.3409820206696 -9.228265866191297 -162.00508437868407 39.580631002348234 0.0 0.0
-377.51182529619496 -1.8348865975449995 -113.61394008693048 52.40869961524696 0.0 0.0
-260.90962429716524 3.799203854187788 -77.13766833469572 61.31620778473986 0.0 0.0
-152.91582422385724 -3.2146784069468786 -46.83915078924124 59.27949871197456 0.0 0.0
-69.12143793247087 -23.802098191711757 -27.877060837254792 38.21761300176559 0.0 0.0
-26.774963505044227 -12.468552534167724 -11.773054811763584 18.429512079824367 0.0 0.0
-24.249622644560866 -7.524447750889569 -9.532221118635126 -10.669495641963616 0.0 0.0
-65.90902889434544 -14.92581220295736 -24.250452329190836 -19.13170383226689 0.0 0.0
-161.84721248026955 -3.0818299831291194 -49.478712739019585 -29.034354620015424 0.0 0.0
-286.08953394178843 3.0463938276212237 -84.91474540273126 -30.146874781861886 0.0 0.0
-423.3219695480826 -7.37297033360722 -129.5807689541905 -24.13166066265863 0.0 0.0
-528.2264038765987 -16.93070314547252 -185.5691596312597 -18.87978533127731 0.0 0.0
-591.1434216603478 -21.619184686669854 -243.5787704801724 -19.74650035106033 0.0 0.0
-655.9370295887708 -39.15453981528552 -305.30099691264155 -19.969363248093416 0.0 0.0
-717.1605120269506 -61.93490529095871 -363.0060510517625 -19.788725106898887 0.0 0.0
-780.8549529342491 -92.21649342448202 -420.1268413592538 -19.528001821518927 0.0 0.0
-849.5646877028039 -129.24267833853207 -478.820794754661 -18.9439224837057 0.0 0.0
-922.4655806939564 -169.8582493166026 -538.616848549367 -18.381411895359886 0.0 0.0
-995.2156843178898 -211.9665372919357 -597.3548503168767 -17.789907494901566 0.0 0.0
-1065.614932513117 -248.96534467361812 -651.4067927253584 -17.300470871906523 0.0 0.0
-1125.6890636218318 -275.438186002787 -694.697864785558 -17.033102757685327 0.0 0.0
-1168.9473162437112 -286.11907838335867 -721.6251793688925 -16.477802955848702 0.0 0.0
-1191.4158005742902 -278.8220876136907 -729.1387709203877 -15.139010017765566 0.0 0.0
-1202.8260610852449 -265.1243319625853 -727.6756441057204 -13.329827666320972 0.0 0.0
-1169.8230462311403 -213.96156063213013 -687.145241468504 -15.071774874976889 0.0 0.0
-732.8782940306253 222.98414934469548 -255.75903952646442 -44.89988501283518 0.0 0.0
-3005.136350396878 -2111.1444750192727 -2529.9961265508227 3.133138193334162e-11 0.0 0.0
-732.8782940301476 222.9841493451446 -255.7590395260162 44.899885012901755 0.0 0.0
-1169.8230462303777 -213.96156063137752 -687.145241467915 15.071774875020996 0.0 0.0
-1202.8260610852071 -265.12433196259025 -727.6756441056237 13.329827666341098 0.0 0.0
-1191.4158005737459 -278.82208761318816 -729.1387709199159 15.139010017784628 0.0 0.0
-1168.9473162429188 -286.1190783826241 -721.6251793682179 16.47780295585995 0.0 0.0
-1125.6890636217524 -275.43818600278513 -694.697864785426 17.033102757686514 0.0 0.0
-1065.6149325121382 -248.96534467272642 -651.4067927245277 17.300470871912772 0.0 0.0
-995.2156843176937 -211.9665372918845 -597.3548503167007 17.789907494982828 0.0 0.0
-922.4655806933188 -169.85824931609767 -538.6168485488561 18.381411895372267 0.0 0.0
-849.5646877026666 -129.24267833858502 -478.8207947545001 18.943922483705897 0.0 0.0
-780.854952933771 -92.2164934241793 -420.126841358812 19.52800182147579 0.0 0.0
-717.1605120265389 -61.93490529075437 -363.00605105137976 19.78872510690921 0.0 0.0
-655.9370295886902 -39.15453981547149 -305.30099691243936 19.969363248073833 0.0 0.0
-591.1434216598927 -21.619184686465747 -243.57877047976314 19.74650035102781 0.0 0.0
-528.2264038761704 -16.93070314536937 -185.56915963094968 18.879785331251508 0.0 0.0
-423.321969547585 -7.372970333436527 -129.5807689539739 24.131660662655793 0.0 0.0
-286.0895339415226 3.046393827646077 -84.91474540264748 30.146874781854315 0.0 0.0
-161.84721248010828 -3.081829983088735 -49.478712738959096 29.03435462001173 0.0 0.0
-65.90902889428307 -14.925812202940467 -24.250452329167054 19.131703832257465 0.0 0.0
-24.249622644541024 -7.524447750897269 -9.532221118631485 10.669495641919296 0.0 0.0
-13.928223814041374 -3.486478698670712 -5.2244107538136255 -6.916562118747088 0.0 0.0
-55.33893218379254 -7.962752908133142 -18.990505527577703 -7.962684422910325 0.0 0.0
-166.6247958586175 -3.825417383090411 -51.13506397251237 -9.96635555451438 0.0 0.0
-316.42372334590914 -4.935569791955157 -96.39341052588873 -10.37589707201288 0.0 0.0
-474.7761884925992 -28.86199148510466 -154.5364559009987 -5.785612365895858 0.0 0.0
-583.1235688786288 -53.39698539908379 -224.9568730659192 -2.317222507462837 0.0 0.0
-652.4141499268788 -67.91732362651305 -293.69187123620344 -2.404560719954315 0.0 0.0
-729.8914570829542 -100.82644395523018 -369.137600268968 -2.788215368736587 0.0 0.0
-808.8462724445799 -142.64959091451044 -444.46461215589716 -2.997841207455661 0.0 0.0
-898.1127588217739 -198.09998692681796 -525.7687772954471 -3.429519014856483 0.0 0.0
-1001.1846677847108 -268.65969383854554 -617.354116331843 -3.962758772789398 0.0 0.0
-1117.5553500003707 -354.30057771952664 -720.5616307319646 -4.620724864418461 0.0 0.0
-1244.1121594713384 -448.4797737583475 -831.374459446401 -5.061347754018891 0.0 0.0
-1376.9363116276647 -547.7937859282949 -947.1937538701571 -5.538516221998343 0.0 0.0
-1505.3327830096355 -642.3847717480432 -1058.1335964734085 -6.018192202675628 0.0 0.0
-1614.4225604161393 -718.8319575248461 -1150.4100778721515 -6.260954986040286 0.0 0.0
-1686.0701896250891 -761.1495463154948 -1207.1700248772588 -5.90698289889751 0.0 0.0
-1700.299031469999 -751.4833320147704 -1209.4247044309204 -4.833027394279625 0.0 0.0
-1690.4001672643035 -723.9255404367971 -1191.9617563330366 -4.582606273231081 0.0 0.0
-1559.7512979704063 -586.160066268354 -1057.5976285642832 -30.40413115829569 0.0 0.0
-4260.9625002964285 -3338.5996724173656 -3755.77334757768 6.649258921243018e-11 0.0 0.0
-1559.7512979695725 -586.1600662675233 -1057.5976285635593 30.40413115831776 0.0 0.0
-1690.4001672630422 -723.9255404355472 -1191.961756331982 4.582606273214701 0.0 0.0
-1700.2990314704252 -751.4833320152519 -1209.4247044311558 4.833027394267013 0.0 0.0
-1686.0701896240616 -761.1495463145111 -1207.1700248763846 5.906982898883896 0.0 0.0
-1614.4225604152575 -718.8319575240162 -1150.4100778714296 6.260954986079039 0.0 0.0
-1505.3327830096773 -642.3847717481708 -1058.1335964733564 6.018192202635323 0.0 0.0
-1376.9363116263285 -547.7937859270384 -947.1937538690702 5.538516221990349 0.0 0.0
-1244.1121594707397 -448.4797737578705 -831.3744594458639 5.061347754042064 0.0 0.0
-1117.555349999693 -354.30057771899834 -720.5616307313836 4.620724864377625 0.0 0.0
-1001.184667784377 -268.6596938383842 -617.3541163315297 3.9627587727222853 0.0 0.0
-898.112758821208 -198.09998692645962 -525.7687772949229 3.4295190147628496 0.0 0.0
-808.8462724439147 -142.6495909140383 -444.4646121553152 2.9978412075253544 0.0 0.0
-729.8914570825341 -100.82644395504317 -369.13760026856846 2.78821536875736 0.0 0.0
-652.4141499266036 -67.91732362651388 -293.69187123587113 2.4045607199200774 0.0 0.0
-583.1235688781757 -53.396985398907084 -224.956873065538 2.31722250744885 0.0 0.0
-474.77618849199825 -28.861991484842573 -154.53645590069897 5.785612365894089 0.0 0.0
-316.42372334548253 -4.935569791674695 -96.39341052567832 10.375897072023328 0.0 0.0
-166.62479585849877 -3.8254173830845986 -51.135063972474995 9.96635555453837 0.0 0.0
-55.338932183765785 -7.962752908136241 -18.990505527570612 7.962684422862721 0.0 0.0
-13.92822381399312 -3.4864786986563585 -5.224410753794842 6.916562118715632 0.0 0.0
SCALARS Strain float 6
LOOKUP_TABLE default
0.008377118174987035 -0.015479126477519081 0.0 -0.00030598320688295913 0.0 0.0
0.005321651682573395 -0.0006146732488418523 0.0 -0.004451630287865338 0.0 0.0
0.0019986035227848565 -0.0007086182427367377 0.0 -0.0004427330960528719 0.0 0.0
0.0018825982907242204 -0.0007408630146314228 0.0 -5.396164753865134e-05 0.0 0.0
0.002346856089726026 -0.0009164749402738163 0.0 7.557141722791904e-06 0.0 0.0
0.0032475793069950826 -0.0015196296291998743 0.0 4.97668203782004e-05 0.0 0.0
0.00463003537198844 -0.002592921502652528 0.0 5.112907420090129e-05 0.0 0.0
0.006438485061963994 -0.004040636940465348 0.0 5.236894295505503e-05 0.0 0.0
0.008712553148305817 -0.005922580240453416 0.0 6.668606283298016e-05 0.0 0.0
0.011521573639910361 -0.008278341807896748 0.0 8.320512205985621e-05 0.0 0.0
0.015012316842578415 -0.01123604746226151 0.0 0.00014760270180854453 0.0 0.0
0.01944685866298168 -0.015058276041567904 0.0 0.00025897521185105167 0.0 0.0
0.02512414135342434 -0.020074120982018117 0.0 0.0003215451669705702 0.0 0.0
0.032303506042051205 -0.026559575360733702 0.0 0.000381391486399585 0.0 0.0
0.041113529837038504 -0.034683023464470046 0.0 0.0003695712174236523 0.0 0.0
0.051389946767683825 -0.04431723813595477 0.0 0.0002552900477946888 0.0 0.0
0.06255611557125719 -0.05491281597430403 0.0 4.3322424952033783e-05 0.0 0.0
0.0736099821256263 -0.06549455444180152 0.0 -0.00019042610876330375 0.0 0.0
0.08327623768079141 -0.07480999133745725 0.0 -0.000298369470603249 0.0 0.0
0.0902019133142661 -0.08155031730086933 0.0 -0.00033285686707618914 0.0 0.0
0.0928102927787746 -0.08416670966570146 0.0 1.0386656812411132e-15 0.0 0.0
0.09020191331426154 -0.08155031730086673 0.0 0.0003328568670793804 0.0 0.0
0.08327623768077974 -0.0748099913374475 0.0 0.0002983694706075262 0.0 0.0
0.07360998212560867 -0.0654945544417881 0.0 0.00019042610876714768 0.0 0.0
0.06255611557123741 -0.05491281597429051 0.0 -4.3322424951264e-05 0.0 0.0
0.05138994676766442 -0.0443172381359374 0.0 -0.0002552900477951481 0.0 0.0
0.04111352983701841 -0.034683023464453816 0.0 -0.0003695712174252206 0.0 0.0
0.032303506042029556 -0.026559575360713218 0.0 -0.00038139148639983623 0.0 0.0
0.02512414135340186 -0.020074120981999545 0.0 -0.00032154516697110384 0.0 0.0
0.019446858662959518 -0.015058276041549013 0.0 -0.0002589752118517877 0.0 0.0
0.015012316842558555 -0.011236047462245987 0.0 -0.00014760270180972626 0.0 0.0
0.011521573639893583 -0.008278341807881989 0.0 -8.320512206031827e-05 0.0 0.0
0.008712553148291998 -0.005922580240440911 0.0 -6.668606283339104e-05 0.0 0.0
0.006438485061953032 -0.004040636940454748 0.0 -5.236894295481553e-05 0.0 0.0
0.004630035371980054 -0.002592921502645853 0.0 -5.1129074201341e-05 0.0 0.0
0.003247579306989866 -0.0015196296291952107 0.0 -4.9766820377276105e-05 0.0 0.0
0.00234685608972394 -0.0009164749402730567 0.0 -7.557141722877095e-06 0.0 0.0
0.0018825982907235057 -0.0007408630146302987 0.0 5.396164753941145e-05 0.0 0.0
0.001998603522783921 -0.0007086182427368337 0.0 0.0004427330960523238 0.0 0.0
0.005321651682570382 -0.0006146732488411134 0.0 0.004451630287859408 0.0 0.0
0.008377118174982365 -0.015479126477501251 0.0 0.00030598320685669303 0.0 0.0
0.005494560038891127 -0.013756263802106188 0.0 9.702999945053893e-05 0.0 0.0
0.0033785527772375893 -0.00040759384574855115 0.0 -0.0033908381316478946 0.0 0.0
0.0014212022993221908 -0.0005702122563688629 0.0 -0.00030617578604309027 0.0 0.0
0.0017023368283516835 -0.0007160018560830134 0.0 -0.00020684674573113486 0.0 0.0
0.0020802332728269137 -0.0008537743343752978 0.0 -0.00018439805005347228 0.0 0.0
0.0028557038333368533 -0.0013751031598424044 0.0 -0.00018378028057822648 0.0 0.0
0.004098572992511097 -0.002375136854211169 0.0 -0.00030951017166294675 0.0 0.0
0.005744540060173546 -0.0037425588965211845 0.0 -0.0004229064273499686 0.0 0.0
0.007804215256619845 -0.0055210743177929525 0.0 -0.0005451528796112185 0.0 0.0
0.010328921216515161 -0.007743006487241109 0.0 -0.0006770475710995414 0.0 0.0
0.013443903246858116 -0.010527715607720802 0.0 -0.000798770971184715 0.0 0.0
0.0173787076349765 -0.01411470970195159 0.0 -0.0009154364157233011 0.0 0.0
0.022437923589899086 -0.01882712191418315 0.0 -0.001112341929885526 0.0 0.0
0.028892757972877187 -0.024959019352878732 0.0 -0.001417369436306488 0.0 0.0
0.036871393715503485 -0.03267027904642723 0.0 -0.0018228421201186061 0.0 0.0
0.046230061191445765 -0.04184316274607351 0.0 -0.0023181790701927462 0.0 0.0
0.056435288998412256 -0.05195539018626721 0.0 -0.002789128686978119 0.0 0.0
0.06657818988702258 -0.06208377202201705 0.0 -0.0029987719433172775 0.0 0.0
0.07548878167705828 -0.07103609916798695 0.0 -0.0027003036334733604 0.0 0.0
0.08180985880088586 -0.07749164790769256 0.0 -0.0019353070345365518 0.0 0.0
0.08414167026873114 -0.0800244692388737 0.0 3.3174418073711465e-15 0.0 0.0
0.0818098588008815 -0.07749164790769114 0.0 0.0019353070345441222 0.0 0.0
0.07548878167704812 -0.07103609916797618 0.0 0.00270030363348308 0.0 0.0
0.06657818988700794 -0.062083772022004755 0.0 0.002998771943324444 0.0 0.0
0.056435288998395304 -0.05195539018625423 0.0 0.002789128686979924 0.0 0.0
0.046230061191428355 -0.041843162746054284 0.0 0.0023181790701924726 0.0 0.0
0.03687139371548543 -0.03267027904641526 0.0 0.0018228421201172556 0.0 0.0
0.028892757972858056 -0.024959019352859258 0.0 0.0014173694363062617 0.0 0.0
0.022437923589879272 -0.018827121914164135 0.0 0.0011123419298840467 0.0 0.0
0.017378707634956816 -0.014114709701935034 0.0 0.0009154364157220217 0.0 0.0
0.013443903246840245 -0.010527715607705287 0.0 0.0007987709711825421 0.0 0.0
0.010328921216499894 -0.007743006487227646 0.0 0.000677047571098285 0.0 0.0
0.007804215256607206 -0.005521074317781583 0.0 0.0005451528796101028 0.0 0.0
0.005744540060163563 -0.0037425588965110963 0.0 0.00042290642734948736 0.0 0.0
0.00409857299250368 -0.00237513685420557 0.0 0.0003095101716613499 0.0 0.0
0.0028557038333325412 -0.0013751031598386418 0.0 0.0001837802805779908 0.0 0.0
0.0020802332728252393 -0.0008537743343750333 0.0 0.00018439805005388932 0.0 0.0
0.001702336828351029 -0.0007160018560820328 0.0 0.00020684674573108095 0.0 0.0
0.0014212022993220959 -0.000570212256369138 0.0 0.0003061757860426978 0.0 0.0
0.0033785527772340453 -0.00040759384574743225 0.0 0.0033908381316414956 0.0 0.0
0.005494560038883733 -0.013756263802088463 0.0 -9.702999947022685e-05 0.0 0.0
0.003875791266647979 -0.010805193233241014 0.0 -0.0019957606074239697 0.0 0.0
0.002301811654794126 -0.0001786388874456536 0.0 -0.003290491528005928 0.0 0.0
0.0010084556663920276 -0.0003322090915516099 0.0 -0.00029099749320152745 0.0 0.0
0.0014603402670569424 -0.0006316895331499239 0.0 -0.0004530303670018908 0.0 0.0
0.0018393383885131173 -0.000752263206003037 0.0 -0.00047136500990529063 0.0 0.0
0.002476102367928492 -0.001108462656018395 0.0 -0.00042445849976803984 0.0 0.0
0.003558341426178455 -0.0019375680556802583 0.0 -0.0006404570680831457 0.0 0.0
0.005041441932868274 -0.0031519859832743213 0.0 -0.0008835471078604096 0.0 0.0
0.006886627049345692 -0.004720743885827398 0.0 -0.0011436422927630565 0.0 0.0
0.009132079778177723 -0.006677875095556378 0.0 -0.0014161875387457455 0.0 0.0
0.011882093864344898 -0.009119091224684597 0.0 -0.0016914550214048253 0.0 0.0
0.015336220909927319 -0.012247137945804745 0.0 -0.0019771514197436187 0.0 0.0
0.019775956907675286 -0.0163594109580384 0.0 -0.002342039898981354 0.0 0.0
0.025487889701533397 -0.0217697679911984 0.0 -0.00289636695336335 0.0 0.0
0.03261123335850371 -0.028644587671298016 0.0 -0.003657720605052773 0.0 0.0
0.041017030344442776 -0.036878245861968285 0.0 -0.004552905278367689 0.0 0.0
0.050245348960591914 -0.0460126072225322 0.0 -0.0053697004772689984 0.0 0.0
0.05949397834047213 -0.05523779579665344 0.0 -0.005709210650187137 0.0 0.0
0.06767341030775788 -0.06346882180952595 0.0 -0.005178961112624286 0.0 0.0
0.07351654523887782 -0.06941871484689281 0.0 -0.0036794763245617743 0.0 0.0
0.07568947794690328 -0.0718546518413479 0.0 7.510485289241586e-15 0.0 0.0
0.07351654523887369 -0.06941871484689204 0.0 0.003679476324576237 0.0 0.0
0.06767341030774907 -0.06346882180951594 0.0 0.005178961112640554 0.0 0.0
0.059493978340459594 -0.055237795796640635 0.0 0.005709210650198204 0.0 0.0
0.0502453489605773 -0.04601260722252308 0.0 0.00536970047727227 0.0 0.0
0.041017030344427316 -0.03687824586195225 0.0 0.004552905278367254 0.0 0.0
0.03261123335848753 -0.028644587671284603 0.0 0.003657720605051825 0.0 0.0
0.02548788970151623 -0.021769767991182732 0.0 0.002896366953363182 0.0 0.0
0.019775956907657627 -0.01635941095802513 0.0 0.0023420398989791582 0.0 0.0
0.015336220909909774 -0.012247137945789865 0.0 0.001977151419740912 0.0 0.0
0.011882093864328893 -0.009119091224669938 0.0 0.0016914550214015868 0.0 0.0
0.009132079778164163 -0.006677875095544386 0.0 0.0014161875387437082 0.0 0.0
0.006886627049334397 -0.004720743885817972 0.0 0.001143642292761033 0.0 0.0
0.005041441932859343 -0.0031519859832659924 0.0 0.0008835471078585263 0.0 0.0
0.0035583414261721423 -0.0019375680556755386 0.0 0.0006404570680811766 0.0 0.0
0.0024761023679252293 -0.0011084626560157556 0.0 0.00042445849976669456 0.0 0.0
0.001839338388511821 -0.0007522632060027635 0.0 0.00047136500990510393 0.0 0.0
0.0014603402670564855 -0.0006316895331496888 0.0 0.00045303036700127626 0.0 0.0
0.0010084556663922124 -0.00033220909155186497 0.0 0.00029099749320110645 0.0 0.0
0.002301811654790791 -0.0001786388874440971 0.0 0.0032904915279969964 0.0 0.0
0.003875791266640868 -0.010805193233224326 0.0 0.0019957606074105833 0.0 0.0
0.002843812892771721 -0.00861793124055791 0.0 -0.0023996010837948716 0.0 0.0
0.0016405924626046785 -0.00018298918046516456 0.0 -0.003105019958391192 0.0 0.0
0.0007181988340502239 -0.0001749315865888866 0.0 -0.0005767800107334155 0.0 0.0
0.0012060677958258305 -0.0005050060697228476 0.0 -0.0006693586885705309 0.0 0.0
0.001605561016472291 -0.0006699011919615045 0.0 -0.0007621662086130501 0.0 0.0
0.0021255590404138016 -0.0009072160123828356 0.0 -0.0007015634301177886 0.0 0.0
0.00302176148487311 -0.0015170603542221362 0.0 -0.0008644131230400178 0.0 0.0
0.004329026494142254 -0.002569158000675867 0.0 -0.0012390136919183054 0.0 0.0
0.005962964309897102 -0.003930847376505851 0.0 -0.001608843634540153 0.0 0.0
0.007934637504319973 -0.005626227208326624 0.0 -0.0019951958093293474 0.0 0.0
0.010328690376253648 -0.007732601288579199 0.0 -0.00238873434749594 0.0 0.0
0.013315811645545007 -0.010416573493731639 0.0 -0.002803383134367265 0.0 0.0
0.01715156453741812 -0.013943616473316957 0.0 -0.003312111404950734 0.0 0.0
0.022107824754289854 -0.018620000630920015 0.0 -0.004032477997190355 0.0 0.0
0.028344634376308145 -0.024627777711617133 0.0 -0.005029697828320261 0.0 0.0
0.035773636386705304 -0.03189100461091638 0.0 -0.006223419217555464 0.0 0.0
0.04400321341402469 -0.04002395701266195 0.0 -0.007310839491323994 0.0 0.0
0.05234566738797378 -0.048338441735232246 0.0 -0.007786984290365973 0.0 0.0
0.05982613975864966 -0.05586165375358064 0.0 -0.00714913963235476 0.0 0.0
0.06528290544177719 -0.061414572091257016 0.0 -0.00502267866804202 0.0 0.0
0.06735418871852827 -0.06386147846293168 0.0 9.294214703414738e-15 0.0 0.0
0.06528290544177302 -0.06141457209125441 0.0 0.005022678668061121 0.0 0.0
0.059826139758642025 -0.05586165375357254 0.0 0.00714913963237508 0.0 0.0
0.052345667387962765 -0.048338441735220145 0.0 0.007786984290378635 0.0 0.0
0.04400321341401188 -0.040023957012653454 0.0 0.007310839491327246 0.0 0.0
0.03577363638669149 -0.03189100461090618 0.0 0.00622341921755438 0.0 0.0
0.028344634376293743 -0.02462777771160293 0.0 0.005029697828319744 0.0 0.0
0.02210782475427522 -0.018620000630906762 0.0 0.004032477997189459 0.0 0.0
0.017151564537402783 -0.013943616473308338 0.0 0.0033121114049491744 0.0 0.0
0.013315811645529738 -0.010416573493717027 0.0 0.002803383134363402 0.0 0.0
0.010328690376239739 -0.007732601288566234 0.0 0.002388734347491633 0.0 0.0
0.007934637504307769 -0.005626227208316421 0.0 0.001995195809325377 0.0 0.0
0.005962964309887075 -0.003930847376497975 0.0 0.0016088436345373255 0.0 0.0
0.0043290264941345195 -0.002569158000669624 0.0 0.001239013691915355 0.0 0.0
0.0030217614848678455 -0.0015170603542179347 0.0 0.0008644131230384198 0.0 0.0
0.00212555904041123 -0.0009072160123814363 0.0 0.0007015634301168778 0.0 0.0
0.0016055610164712783 -0.0006699011919611916 0.0 0.000762166208611846 0.0 0.0
0.0012060677958255317 -0.0005050060697230425 0.0 0.0006693586885695965 0.0 0.0
0.0007181988340503125 -0.00017493158658887038 0.0 0.0005767800107319159 0.0 0.0
0.0016405924626016698 -0.00018298918046355685 0.0 0.0031050199583829066 0.0 0.0
0.002843812892765567 -0.008617931240543298 0.0 0.0023996010837849966 0.0 0.0
0.002113204555297582 -0.006875843103132957 0.0 -0.002238464117104762 0.0 0.0
0.001195113300234567 -0.0002420644146861506 0.0 -0.002883231555316097 0.0 0.0
0.0005120401719839996 -8.790547127668999e-05 0.0 -0.0009387176834067803 0.0 0.0
0.0009627739147450999 -0.00037506315929989307 0.0 -0.0009097105550618381 0.0 0.0
0.0013658310565768093 -0.0005744762956842904 0.0 -0.0010274684710115463 0.0 0.0
0.0018082636184317364 -0.0007632122182662991 0.0 -0.0010128271732401353 0.0 0.0
0.0025119333878906606 -0.001163536893327912 0.0 -0.0010630910519846403 0.0 0.0
0.003609849714448744 -0.001989546996521762 0.0 -0.0014412528716775536 0.0 0.0
0.005036138926264539 -0.0031578647929946966 0.0 -0.0019349161294102534 0.0 0.0
0.006738728619722511 -0.004595247475178558 0.0 -0.0024086260252746392 0.0 0.0
0.008787044540663853 -0.006374345542761669 0.0 -0.0028903652730375754 0.0 0.0
0.011320217081880864 -0.008626580952016493 0.0 -0.003393986728028881 0.0 0.0
0.01456128556261025 -0.011582607347232292 0.0 -0.003999636032924546 0.0 0.0
0.018769617291817538 -0.015526880147767683 0.0 -0.004830688181392575 0.0 0.0
0.0241040816607229 -0.020648590014961832 0.0 -0.005967558380964746 0.0 0.0
0.030518592151160456 -0.02690967458371208 0.0 -0.007321614545011179 0.0 0.0
0.037719351489740024 -0.034007372801060365 0.0 -0.008579459528685489 0.0 0.0
0.04513502882640662 -0.04138198573941506 0.0 -0.009211354096685272 0.0 0.0
0.05192889407841192 -0.048206007810813675 0.0 -0.008569900134384481 0.0 0.0
0.05705707872257093 -0.053432879855732 0.0 -0.006054238537955264 0.0 0.0
0.059064120177809265 -0.055958038296115946 0.0 9.777335191474279e-15 0.0 0.0
0.057057078722566934 -0.05343287985572785 0.0 0.006054238537977676 0.0 0.0
0.051928894078405057 -0.048206007810804044 0.0 0.008569900134406745 0.0 0.0
0.045135028826397014 -0.04138198573940687 0.0 0.00921135409669926 0.0 0.0
0.03771935148972898 -0.034007372801048874 0.0 0.008579459528690186 0.0 0.0
0.030518592151148653 -0.026909674583703785 0.0 0.007321614545010258 0.0 0.0
0.024104081660710545 -0.02064859001495013 0.0 0.00596755838096425 0.0 0.0
0.018769617291805003 -0.015526880147756546 0.0 0.0048306881813902315 0.0 0.0
0.014561285562597198 -0.011582607347221436 0.0 0.003999636032921599 0.0 0.0
0.011320217081867876 -0.008626580952003861 0.0 0.003393986728024493 0.0 0.0
0.00878704454065193 -0.006374345542750593 0.0 0.002890365273032165 0.0 0.0
0.0067387286197120875 -0.004595247475171294 0.0 0.0024086260252694264 0.0 0.0
0.005036138926255844 -0.0031578647929875747 0.0 0.0019349161294072324 0.0 0.0
0.0036098497144422927 -0.0019895469965171045 0.0 0.0014412528716747513 0.0 0.0
0.0025119333878868646 -0.0011635368933245295 0.0 0.0010630910519826718 0.0 0.0
0.0018082636184298872 -0.0007632122182657027 0.0 0.0010128271732394133 0.0 0.0
0.0013658310565759224 -0.0005744762956842328 0.0 0.0010274684710105545 0.0 0.0
0.0009627739147446903 -0.00037506315929954716 0.0 0.0009097105550601203 0.0 0.0
0.0005120401719839676 -8.79054712766911e-05 0.0 0.0009387176834044619 0.0 0.0
0.0011951133002319624 -0.00024206441468483173 0.0 0.0028832315553092903 0.0 0.0
0.002113204555292264 -0.006875843103120659 0.0 0.0022384641170982234 0.0 0.0
0.0015714080461147785 -0.005450062481355147 0.0 -0.001956913005799414 0.0 0.0
0.0008758717909308697 -0.0003022247397311315 0.0 -0.00265142220863622 0.0 0.0
0.00035783340729961504 -4.426409308555691e-05 0.0 -0.0012823375185196935 0.0 0.0
0.0007377150114123008 -0.00025783506916370746 0.0 -0.0011633276286950945 0.0 0.0
0.0011199784860701435 -0.00046447030654192295 0.0 -0.0012686021071754642 0.0 0.0
0.0015075148696440408 -0.0006404276749847422 0.0 -0.0013099097542893046 0.0 0.0
0.0020505299459002936 -0.0009018684556699279 0.0 -0.001318527867173407 0.0 0.0
0.0029085484161344268 -0.0014626104044498244 0.0 -0.001553733332791064 0.0 0.0
0.004099778113108281 -0.002399746414416837 0.0 -0.002080644958844551 0.0 0.0
0.005546774505737955 -0.00359220030312619 0.0 -0.002647447870157419 0.0 0.0
0.00725795712975162 -0.005050931085080936 0.0 -0.0031852891788264758 0.0 0.0
0.0093515617387724 -0.006885376187371521 0.0 -0.003747243420900861 0.0 0.0
0.012015405633348747 -0.00928469103578197 0.0 -0.004399838637682819 0.0 0.0
0.015476554677885723 -0.012503449974828598 0.0 -0.005271517641478801 0.0 0.0
0.01990377915638076 -0.016729640789588614 0.0 -0.006458935534430916 0.0 0.0
0.025290758334608653 -0.02196785867312443 0.0 -0.00787232718873615 0.0 0.0
0.03141537412466537 -0.02799093551171894 0.0 -0.009195386741978383 0.0 0.0
0.03785714322332093 -0.03437479212791985 0.0 -0.00993297319092213 0.0 0.0
0.04395547614654444 -0.04048168550209735 0.0 -0.00940571555169697 0.0 0.0
0.04878642869085739 -0.045418242256062294 0.0 -0.006791646477351322 0.0 0.0
0.050754110186354916 -0.04807970523338365 0.0 1.0330061459007389e-14 0.0 0.0
0.04878642869085366 -0.045418242256058144 0.0 0.0067916464773753165 0.0 0.0
0.043955476146538094 -0.04048168550208946 0.0 0.009405715551719292 0.0 0.0
0.03785714322331264 -0.03437479212791382 0.0 0.009932973190935643 0.0 0.0
0.03141537412465592 -0.027990935511710266 0.0 0.00919538674198273 0.0 0.0
0.025290758334598575 -0.021967858673114654 0.0 0.007872327188734336 0.0 0.0
0.01990377915637039 -0.016729640789578098 0.0 0.00645893553443018 0.0 0.0
0.015476554677875315 -0.01250344997482066 0.0 0.0052715176414779765 0.0 0.0
0.012015405633337996 -0.009284691035771975 0.0 0.004399838637678983 0.0 0.0
0.009351561738761638 -0.006885376187363361 0.0 0.003747243420895713 0.0 0.0
0.007257957129741742 -0.005050931085071058 0.0 0.003185289178820336 0.0 0.0
0.005546774505729387 -0.003592200303118769 0.0 0.0026474478701519247 0.0 0.0
0.004099778113101172 -0.002399746414410199 0.0 0.00208064495884052 0.0 0.0
0.0029085484161291606 -0.001462610404446954 0.0 0.0015537333327892422 0.0 0.0
0.002050529945897396 -0.0009018684556692455 0.0 0.0013185278671718403 0.0 0.0
0.0015075148696426994 -0.0006404276749843337 0.0 0.0013099097542878023 0.0 0.0
0.0011199784860694362 -0.0004644703065410645 0.0 0.0012686021071742536 0.0 0.0
0.000737715011412009 -0.0002578350691633508 0.0 0.0011633276286926464 0.0 0.0
0.0003578334072995607 -4.426409308536569e-05 0.0 0.001282337518517167 0.0 0.0
0.0008758717909288759 -0.0003022247397301425 0.0 0.0026514222086302065 0.0 0.0
0.0015714080461107763 -0.005450062481345173 0.0 0.001956913005796046 0.0 0.0
0.001166025147956722 -0.004270909371388077 0.0 -0.001690075908016757 0.0 0.0
0.0006388883068238298 -0.0003569907550452881 0.0 -0.002444366829958497 0.0 0.0
0.00023338978362254042 -2.0258325394726854e-05 0.0 -0.0015705622356985795 0.0 0.0
0.0005309348593862234 -0.00015638003180014752 0.0 -0.0014086880720813075 0.0 0.0
0.0008701349894560359 -0.0003475761181111894 0.0 -0.001486852361193202 0.0 0.0
0.0012058917649978508 -0.0005175849665407745 0.0 -0.0015692922875701644 0.0 0.0
0.001626761226803929 -0.0006992581100489272 0.0 -0.0015879148286097595 0.0 0.0
0.0022600462072615186 -0.0010468425438263584 0.0 -0.0017018099064856028 0.0 0.0
0.003177652251325846 -0.0016935440144512728 0.0 -0.0020795660663712923 0.0 0.0
0.0043532911468969985 -0.002621810222542597 0.0 -0.002668767115470416 0.0 0.0
0.005743579476475585 -0.0037735951970083404 0.0 -0.003259430008682365 0.0 0.0
0.007410730510916237 -0.005201899700178534 0.0 -0.003850047160455527 0.0 0.0
0.009513926932059952 -0.007061817525506097 0.0 -0.004509149888213748 0.0 0.0
0.012246123216269089 -0.009568904585349538 0.0 -0.005361497615248809 0.0 0.0
0.015762762888617127 -0.01289615397657713 0.0 -0.006491489343918868 0.0 0.0
0.02009942136672697 -0.017093178846059154 0.0 -0.007859323813112978 0.0 0.0
0.025121574550522607 -0.022006277703253967 0.0 -0.009171092919704367 0.0 0.0
0.03053173358020743 -0.027341542412580525 0.0 -0.009962841350589138 0.0 0.0
0.03587572033909937 -0.03267003281788911 0.0 -0.009616029875310404 0.0 0.0
0.040408575303829644 -0.03730861966281021 0.0 -0.007210976798924589 0.0 0.0
0.04235424250270788 -0.040162991548073866 0.0 9.376830908958134e-15 0.0 0.0
0.040408575303826404 -0.03730861966280724 0.0 0.007210976798946674 0.0 0.0
0.035875720339093815 -0.03267003281788304 0.0 0.00961602987533288 0.0 0.0
0.03053173358020051 -0.02734154241257438 0.0 0.009962841350601494 0.0 0.0
0.02512157455051484 -0.022006277703249214 0.0 0.009171092919707888 0.0 0.0
0.020099421366718554 -0.017093178846049845 0.0 0.007859323813111723 0.0 0.0
0.015762762888608846 -0.01289615397657013 0.0 0.006491489343916969 0.0 0.0
0.012246123216260797 -0.009568904585344791 0.0 0.00536149761524839 0.0 0.0
0.00951392693205147 -0.007061817525498474 0.0 0.004509149888210558 0.0 0.0
0.007410730510907975 -0.0052018997001715295 0.0 0.00385004716045089 0.0 0.0
0.0057435794764676695 -0.003773595197001059 0.0 0.00325943000867715 0.0 0.0
0.0043532911468900344 -0.0026218102225357928 0.0 0.002668767115464738 0.0 0.0
0.003177652251320403 -0.0016935440144465784 0.0 0.0020795660663682877 0.0 0.0
0.0022600462072579993 -0.0010468425438251794 0.0 0.0017018099064844373 0.0 0.0
0.0016267612268020223 -0.0006992581100486929 0.0 0.001587914828608703 0.0 0.0
0.0012058917649967486 -0.0005175849665407805 0.0 0.0015692922875688142 0.0 0.0
0.000870134989455307 -0.0003475761181097947 0.0 0.0014868523611914679 0.0 0.0
0.0005309348593857988 -0.00015638003180029318 0.0 0.0014086880720792215 0.0 0.0
0.00023338978362238885 -2.0258325394095547e-05 0.0 0.0015705622356957613 0.0 0.0
0.0006388883068223382 -0.00035699075504461804 0.0 0.0024443668299540433 0.0 0.0
0.0011660251479539106 -0.004270909371380367 0.0 0.0016900759080145083 0.0 0.0
0.0008554760944647878 -0.003306773020920295 0.0 -0.0014987103047611793 0.0 0.0
0.0004567982922046791 -0.00040657521797607545 0.0 -0.002268625878700952 0.0 0.0
0.00012713270756266093 -1.4158750825263686e-06 0.0 -0.0017969214651873781 0.0 0.0
0.0003391637848004649 -6.861925772526789e-05 0.0 -0.0016271164553712527 0.0 0.0
0.0006210985523198518 -0.0002311477744096194 0.0 -0.0016775443037057042 0.0 0.0
0.0009005851099912238 -0.00038207544783713115 0.0 -0.0017775273521397185 0.0 0.0
0.0012195554149091136 -0.000522826026578203 0.0 -0.001834474579011463 0.0 0.0
0.001664826746118295 -0.0007317232693532987 0.0 -0.0018965322410183722 0.0 0.0
0.0023087775719674297 -0.0011070767223504416 0.0 -0.002070130787705229 0.0 0.0
0.003175531931583085 -0.0017252871481471693 0.0 -0.0024992232124581687 0.0 0.0
0.004237155002694241 -0.002557148961426196 0.0 -0.003082462879111556 0.0 0.0
0.005497505671039449 -0.003595029100732185 0.0 -0.0036735374667745306 0.0 0.0
0.007061258841615792 -0.004934288750311731 0.0 -0.004312111012854313 0.0 0.0
0.009082076256492858 -0.006747520925235435 0.0 -0.005087459720678928 0.0 0.0
0.011699720538412442 -0.009185572933686997 0.0 -0.006091126132608071 0.0 0.0
0.014974862472776976 -0.01232157465452798 0.0 -0.007283211369768554 0.0 0.0
0.01885093129312112 -0.016087487930293718 0.0 -0.008487606583079958 0.0 0.0
0.023169777263275425 -0.020315602774644243 0.0 -0.00928235046900637 0.0 0.0
0.027677704141479454 -0.024768494100016386 0.0 -0.009158079357054733 0.0 0.0
0.031861268742159804 -0.029042925367988442 0.0 -0.007265512097944439 0.0 0.0
0.03378264831825484 -0.032143257450907 0.0 7.742504554153484e-15 0.0 0.0
0.03186126874215732 -0.029042925367984765 0.0 0.007265512097963375 0.0 0.0
0.027677704141474628 -0.024768494100010193 0.0 0.00915807935707501 0.0 0.0
0.023169777263269475 -0.020315602774638748 0.0 0.009282350469017285 0.0 0.0
0.01885093129311504 -0.016087487930289728 0.0 0.00848760658308172 0.0 0.0
0.014974862472770481 -0.012321574654522143 0.0 0.007283211369766557 0.0 0.0
0.011699720538406146 -0.009185572933681961 0.0 0.006091126132605451 0.0 0.0
0.00908207625648704 -0.0067475209252316915 0.0 0.005087459720678536 0.0 0.0
0.0070612588416097775 -0.0049342887503074934 0.0 0.004312111012852426 0.0 0.0
0.005497505671033309 -0.003595029100725988 0.0 0.0036735374667707906 0.0 0.0
0.004237155002688341 -0.0025571489614221086 0.0 0.003082462879106033 0.0 0.0
0.0031755319315782274 -0.0017252871481431007 0.0 0.0024992232124535856 0.0 0.0
0.0023087775719638865 -0.0011070767223485818 0.0 0.002070130787703571 0.0 0.0
0.0016648267461158394 -0.0007317232693522588 0.0 0.0018965322410174844 0.0 0.0
0.0012195554149079025 -0.0005228260265775842 0.0 0.0018344745790100114 0.0 0.0
0.0009005851099906498 -0.0003820754478372381 0.0 0.0017775273521377587 0.0 0.0
0.0006210985523193834 -0.00023114777440895717 0.0 0.0016775443037034803 0.0 0.0
0.0003391637848001241 -6.861925772538369e-05 0.0 0.0016271164553688649 0.0 0.0
0.000127132707562472 -1.4158750821025557e-06 0.0 0.0017969214651849994 0.0 0.0
0.0004567982922036968 -0.00040657521797585433 0.0 0.002268625878697664 0.0 0.0
0.000855476094463016 -0.003306773020914698 0.0 0.0014987103047593988 0.0 0.0
0.0006282908284006968 -0.002575241463702997 0.0 -0.001416416941952136 0.0 0.0
0.00031616830832658613 -0.0004395059560409377 0.0 -0.0021292195210619726 0.0 0.0
2.9216158527599867e-05 1.7153794538421506e-05 0.0 -0.0019628067956633695 0.0 0.0
0.00016061972018574012 8.268534673522102e-06 0.0 -0.0018064586932282243 0.0 0.0
0.0003750044919930381 -0.00011714008694553094 0.0 -0.0018326647159969708 0.0 0.0
0.0005872720728960613 -0.00023935608675399725 0.0 -0.0019373237205286497 0.0 0.0
0.0008129564826520346 -0.00035012610479613035 0.0 -0.002034862980244693 0.0 0.0
0.0011072148021580505 -0.0004753758836739298 0.0 -0.0020932883534881706 0.0 0.0
0.0015097817977534967 -0.0006703140590188586 0.0 -0.0021700983146362117 0.0 0.0
0.002053751818647957 -0.0009951423316792768 0.0 -0.0023337711759441877 0.0 0.0
0.0027569954330153154 -0.0014696978379174408 0.0 -0.0027187367510700376 0.0 0.0
0.0036091514842009212 -0.0021122932085280753 0.0 -0.0032056811793430983 0.0 0.0
0.004653288425838956 -0.002944825496912231 0.0 -0.003780866408496672 0.0 0.0
0.005989978920940504 -0.004087927608047958 0.0 -0.004457412511125839 0.0 0.0
0.007727445295778566 -0.0056521171585941525 0.0 -0.005269295629280659 0.0 0.0
0.009935498853175627 -0.007720434345937386 0.0 -0.00622142841276614 0.0 0.0
0.012636276298789788 -0.010294150679506005 0.0 -0.00722420498185608 0.0 0.0
0.015795821948176098 -0.013357862448064927 0.0 -0.007981062754528801 0.0 0.0
0.019343249740131626 -0.01681535411388508 0.0 -0.008009459490493465 0.0 0.0
0.02307522050828766 -0.02056730466995387 0.0 -0.0068189028929273735 0.0 0.0
0.02494467779662821 -0.023941353112350534 0.0 5.3724386051001716e-15 0.0 0.0
0.02307522050828583 -0.02056730466994956 0.0 0.006818902892943301 0.0 0.0
0.019343249740128358 -0.016815354113882124 0.0 0.008009459490510115 0.0 0.0
0.015795821948171893 -0.013357862448061362 0.0 0.007981062754538746 0.0 0.0
0.012636276298785592 -0.010294150679502869 0.0 0.007224204981855945 0.0 0.0
0.009935498853171378 -0.007720434345933981 0.0 0.006221428412763511 0.0 0.0
0.007727445295774571 -0.005652117158593873 0.0 0.005269295629278904 0.0 0.0
0.005989978920936778 -0.004087927608044977 0.0 0.00445741251112542 0.0 0.0
0.004653288425835259 -0.002944825496913288 0.0 0.0037808664084943598 0.0 0.0
0.0036091514841971603 -0.0021122932085249693 0.0 0.0032056811793400065 0.0 0.0
0.002756995433011561 -0.0014696978379144365 0.0 0.002718736751065238 0.0 0.0
0.0020537518186450037 -0.0009951423316772675 0.0 0.0023337711759416208 0.0 0.0
0.001509781797751429 -0.0006703140590184323 0.0 0.0021700983146345997 0.0 0.0
0.0011072148021566345 -0.0004753758836718877 0.0 0.002093288353486547 0.0 0.0
0.0008129564826513455 -0.0003501261047972896 0.0 0.002034862980242991 0.0 0.0
0.0005872720728957096 -0.0002393560867532937 0.0 0.0019373237205267241 0.0 0.0
0.00037500449199274 -0.00011714008694554112 0.0 0.0018326647159944806 0.0 0.0
0.00016061972018568661 8.268534673205886e-06 0.0 0.0018064586932259284 0.0 0.0
2.9216158527712438e-05 1.7153794538943515e-05 0.0 0.001962806795661193 0.0 0.0
0.0003161683083259671 -0.00043950595604086244 0.0 0.002129219521059691 0.0 0.0
0.0006282908283994058 -0.0025752414636993123 0.0 0.0014164169419512824 0.0 0.0
0.00047216812173715196 -0.0020448966064951835 0.0 -0.0013793042947121382 0.0 0.0
0.00021265138982358097 -0.00044846898093975037 0.0 -0.0020227094977585815 0.0 0.0
-6.0854409362338295e-05 3.589574863506251e-05 0.0 -0.0020695686525099375 0.0 0.0
-7.066131123491222e-06 7.710253415681387e-05 0.0 -0.0019399355795606658 0.0 0.0
0.00013352506266924849 -6.557099636199287e-06 0.0 -0.0019458665296035785 0.0 0.0
0.00027063337809347173 -9.446890436323762e-05 0.0 -0.0020428447209285914 0.0 0.0
0.0004010049081322998 -0.00016790299394060825 0.0 -0.0021589372158889618 0.0 0.0
0.0005504538055245912 -0.00023687189756348707 0.0 -0.002240332297541239 0.0 0.0
0.0007535094739151903 -0.0003250331819868885 0.0 -0.0022922697750706843 0.0 0.0
0.0010168568635095898 -0.0004552473444306903 0.0 -0.002326598283017061 0.0 0.0
0.0013516371078965785 -0.000636251001052257 0.0 -0.0024664576781108067 0.0 0.0
0.001770519025827498 -0.0009116596712737216 0.0 -0.0027484571316340207 0.0 0.0
0.00228917585529107 -0.0012681945125971197 0.0 -0.0031403529138507085 0.0 0.0
0.002962423012879569 -0.001771576156744239 0.0 -0.003649869222680147 0.0 0.0
0.00384477892032718 -0.0024892345791212504 0.0 -0.0042936060259141625 0.0 0.0
0.004991388566174333 -0.003470808506849423 0.0 -0.005091245495567775 0.0 0.0
0.006483652458824773 -0.004800336040744328 0.0 -0.005989789498414833 0.0 0.0
0.008443162819548836 -0.00663424314331292 0.0 -0.006755859711143555 0.0 0.0
0.010920865787721532 -0.009018043317161136 0.0 -0.006871961430310955 0.0 0.0
0.013989008535172749 -0.011945841091593223 0.0 -0.005935889629499266 0.0 0.0
0.01569330407829316 -0.01550732620662788 0.0 3.692792599485628e-15 0.0 0.0
0.013989008535171992 -0.011945841091591877 0.0 0.0059358896295130924 0.0 0.0
0.010920865787719756 -0.009018043317159977 0.0 0.006871961430324185 0.0 0.0
0.008443162819546355 -0.0066342431433075565 0.0 0.00675585971115023 0.0 0.0
0.006483652458822574 -0.004800336040741574 0.0 0.005989789498413972 0.0 0.0
0.004991388566172527 -0.003470808506847506 0.0 0.005091245495565026 0.0 0.0
0.003844778920325597 -0.002489234579120292 0.0 0.004293606025913605 0.0 0.0
0.002962423012878305 -0.0017715761567434103 0.0 0.003649869222680001 0.0 0.0
0.002289175855289747 -0.0012681945125970011 0.0 0.0031403529138503074 0.0 0.0
0.0017705190258261619 -0.000911659671272793 0.0 0.002748457131632322 0.0 0.0
0.0013516371078952443 -0.0006362510010517318 0.0 0.002466457678107804 0.0 0.0
0.0010168568635085318 -0.00045524734443051296 0.0 0.0023265982830153937 0.0 0.0
0.0007535094739144227 -0.0003250331819878038 0.0 0.0022922697750704024 0.0 0.0
0.0005504538055240433 -0.00023687189756268275 0.0 0.002240332297539906 0.0 0.0
0.0004010049081320852 -0.0001679029939416889 0.0 0.0021589372158869443 0.0 0.0
0.000270633378093341 -9.446890436177582e-05 0.0 0.002042844720926329 0.0 0.0
0.00013352506266921873 -6.5570996362907265e-06 0.0 0.0019458665296012562 0.0 0.0
-7.066131123413878e-06 7.71025341566947e-05 0.0 0.0019399355795583816 0.0 0.0
-6.085440936225401e-05 3.5895748635549976e-05 0.0 0.0020695686525076195 0.0 0.0
0.00021265138982338772 -0.0004484689809396398 0.0 0.0020227094977568255 0.0 0.0
0.00047216812173660725 -0.0020448966064927267 0.0 0.0013793042947110809 0.0 0.0
0.0003636961639265278 -0.0016309742106304353 0.0 -0.0013098699529365712 0.0 0.0
0.00013441604327457744 -0.000434177720429561 0.0 -0.001923793154678988 0.0 0.0
-0.00014422327161724244 5.481314335996243e-05 0.0 -0.0021215366527744276 0.0 0.0
-0.00016515173414969613 0.00014004256953292494 0.0 -0.00202330414840845 0.0 0.0
-0.00010208230809695857 9.942515087562011e-05 0.0 -0.0020117286965255802 0.0 0.0
-4.610802348223518e-05 5.0325874579207425e-05 0.0 -0.0020911124471464032 0.0 0.0
-1.5018812410000124e-05 1.696799618570728e-05 0.0 -0.002205583281158 0.0 0.0
-2.3015248744991736e-06 2.653437783074562e-06 0.0 -0.002295008323441687 0.0 0.0
9.673297142256818e-07 -1.0475592517384506e-06 0.0 -0.0023243130336787076 0.0 0.0
1.0850642930882218e-06 -8.426511040566293e-07 0.0 -0.002373606481741391 0.0 0.0
7.592334861265349e-07 -6.091454700319558e-07 0.0 -0.0024241559744187626 0.0 0.0
1.6590215333738174e-07 -4.47305610279546e-08 0.0 -0.0025907171873177474 0.0 0.0
-2.2122894996794086e-06 1.6385552119107621e-06 0.0 -0.0028414797187109016 0.0 0.0
-6.170351317562393e-06 5.767707446658642e-06 0.0 -0.0032305174254093137 0.0 0.0
1.642913192358641e-06 3.24435219893813e-06 0.0 -0.0038101840696391285 0.0 0.0
7.195816938190862e-05 -3.220719415750645e-05 0.0 -0.004609568661491386 0.0 0.0
0.00035205738756419934 -0.00022989608917663162 0.0 -0.005598985898363255 0.0 0.0
0.001105236409149768 -0.0008153395539020414 0.0 -0.00665427460354499 0.0 0.0
0.002549361791564766 -0.0020684680721495922 0.0 -0.007521831094930456 0.0 0.0
0.004719746092190434 -0.0038100559646233444 0.0 -0.0074697286606570336 0.0 0.0
0.005979551981516641 -0.007493007276128149 0.0 5.0758008907081376e-15 0.0 0.0
0.004719746092190705 -0.0038100559646251342 0.0 0.0074697286606681765 0.0 0.0
0.002549361791564093 -0.002068468072148279 0.0 0.00752183109494004 0.0 0.0
0.0011052364091493814 -0.0008153395538991004 0.0 0.006654274603548069 0.0 0.0
0.00035205738756464153 -0.00022989608917786634 0.0 0.005598985898361811 0.0 0.0
7.195816938263726e-05 -3.220719415720336e-05 0.0 0.004609568661488721 0.0 0.0
1.6429131930357252e-06 3.244352198968108e-06 0.0 0.0038101840696381766 0.0 0.0
-6.170351316506651e-06 5.76770744577026e-06 0.0 0.0032305174254086107 0.0 0.0
-2.212289498367795e-06 1.6385552114665645e-06 0.0 0.0028414797187098417 0.0 0.0
1.659021544986707e-07 -4.473056083023001e-08 0.0 0.0025907171873156424 0.0 0.0
7.592334870670802e-07 -6.091454705870741e-07 0.0 0.0024241559744161644 0.0 0.0
1.0850642937842525e-06 -8.426511051073872e-07 0.0 0.002373606481739974 0.0 0.0
9.673297146665184e-07 -1.047559251842561e-06 0.0 0.0023243130336783615 0.0 0.0
-2.301524874228638e-06 2.6534377814984844e-06 0.0 0.0022950083234406977 0.0 0.0
-1.5018812409708351e-05 1.6967996184411463e-05 0.0 0.0022055832811558296 0.0 0.0
-4.610802348191782e-05 5.03258745798108e-05 0.0 0.0020911124471439807 0.0 0.0
-0.00010208230809668898 9.942515087464718e-05 0.0 0.0020117286965236785 0.0 0.0
-0.0001651517341495822 0.00014004256953301772 0.0 0.002023304148406014 0.0 0.0
-0.00014422327161721393 5.481314335990451e-05 0.0 0.0021215366527724076 0.0 0.0
0.00013441604327439722 -0.00043417772042934617 0.0 0.0019237931546770928 0.0 0.0
0.0003636961639261276 -0.0016309742106286162 0.0 0.001309869952935842 0.0 0.0
0.0002773076996907791 -0.0012806373348831761 0.0 -0.0011990687295704008 0.0 0.0
6.88905094116398e-05 -0.0004007827014552825 0.0 -0.001816447218750491 0.0 0.0
-0.00022170665646554008 7.495602121685123e-05 0.0 -0.0021204393321800573 0.0 0.0
-0.00031480814330094416 0.00019821446303476726 0.0 -0.002054700375417673 0.0 0.0
-0.0003308534294637982 0.0002001225654666496 0.0 -0.0020264147127939678 0.0 0.0
-0.0003590554617328956 0.0001925296220054489 0.0 -0.0020805291607755867 0.0 0.0
-0.00042979189111968965 0.00020080097726940586 0.0 -0.0021719526813178025 0.0 0.0
-0.0005550444612472435 0.00024194146109860187 0.0 -0.0022426377240928126 0.0 0.0
-0.0007516569811593862 0.000322983402442994 0.0 -0.002291884978416928 0.0 0.0
-0.0010147420256421244 0.000453497405542006 0.0 -0.0023254779577093878 0.0 0.0
-0.0013501356066654476 0.0006351340300205616 0.0 -0.0024658328143519646 0.0 0.0
-0.0017700471311866096 0.000911335086188889 0.0 -0.0027480078113064237 0.0 0.0
-0.0022931058229245928 0.0012712294819705774 0.0 -0.00313673753951722 0.0 0.0
-0.002974841771730045 0.0017837796734621212 0.0 -0.003639223230737526 0.0 0.0
-0.003845792694174924 0.002501437022150776 0.0 -0.004296962937260164 0.0 0.0
-0.004859045816568199 0.0034013960129219622 0.0 -0.005194696109762159 0.0 0.0
-0.0058357314121196616 0.004326310785640675 0.0 -0.006364198930461591 0.0 0.0
-0.006433589089171354 0.004966854059659034 0.0 -0.007832373143566704 0.0 0.0
-0.006188402569899014 0.00482746075518214 0.0 -0.009460201259355207 0.0 0.0
-0.004337133642473064 0.0034488990055301493 0.0 -0.010119853930113474 0.0 0.0
-0.0028817876389884206 -0.0006616103567240175 0.0 6.40850220112732e-15 0.0 0.0
-0.004337133642473307 0.003448899005529381 0.0 0.010119853930124243 0.0 0.0
-0.0061884025698984955 0.004827460755181818 0.0 0.009460201259365107 0.0 0.0
-0.006433589089169002 0.0049668540596575625 0.0 0.007832373143569958 0.0 0.0
-0.005835731412116164 0.004326310785637485 0.0 0.006364198930459624 0.0 0.0
-0.00485904581656485 0.003401396012918702 0.0 0.005194696109760808 0.0 0.0
-0.0038457926941720087 0.002501437022148182 0.0 0.00429696293725812 0.0 0.0
-0.002974841771726759 0.0017837796734585165 0.0 0.0036392232307360757 0.0 0.0
-0.002293105822920761 0.0012712294819675497 0.0 0.0031367375395158076 0.0 0.0
-0.0017700471311829545 0.000911335086187776 0.0 0.002748007811303404 0.0 0.0
-0.0013501356066622598 0.0006351340300184044 0.0 0.0024658328143485793 0.0 0.0
-0.0010147420256396288 0.0004534974055400414 0.0 0.0023254779577077654 0.0 0.0
-0.0007516569811576516 0.0003229834024431079 0.0 0.0022918849784162917 0.0 0.0
-0.0005550444612460432 0.00024194146109811322 0.0 0.0022426377240918997 0.0 0.0
-0.0004297918911189122 0.00020080097726746287 0.0 0.0021719526813161563 0.0 0.0
-0.0003590554617321699 0.0001925296220052263 0.0 0.002080529160773067 0.0 0.0
-0.0003308534294631292 0.00020012256546516423 0.0 0.0020264147127915465 0.0 0.0
-0.0003148081433005378 0.00019821446303498196 0.0 0.0020547003754155064 0.0 0.0
-0.00022170665646531278 7.495602121658408e-05 0.0 0.0021204393321783725 0.0 0.0
6.889050941167189e-05 -0.00040078270145497367 0.0 0.0018164472187482653 0.0 0.0
0.00027730769969071375 -0.0012806373348818636 0.0 0.0011990687295692008 0.0 0.0
0.00020059055968747776 -0.0009765688964656304 0.0 -0.0010695562355605005 0.0 0.0
8.598010172170867e-06 -0.0003521385657778789 0.0 -0.001688630550180341 0.0 0.0
-0.000295346011323927 9.756045788320509e-05 0.0 -0.0020680815331314195 0.0 0.0
-0.0004568465028081173 0.0002523258776819625 0.0 -0.002033158117979272 0.0 0.0
-0.0005519571965465014 0.0002951189313202123 0.0 -0.001987970348878691 0.0 0.0
-0.0006652327065549027 0.00032945388814983103 0.0 -0.002009340456981686 0.0 0.0
-0.000838176954101771 0.00038007936039086035 0.0 -0.002059313324208056 0.0 0.0
-0.0011112288081307898 0.0004800925384682809 0.0 -0.002099290064594228 0.0 0.0
-0.001508144073436433 0.0006680500725536393 0.0 -0.0021687199984299407 0.0 0.0
-0.002051790048875081 0.00099315232497452 0.0 -0.0023312594216336395 0.0 0.0
-0.0027557577977193907 0.0014687240524104942 0.0 -0.0027175589083410613 0.0 0.0
-0.0036083854595921876 0.0021116816731837256 0.0 -0.0032058140085087835 0.0 0.0
-0.004655123717953467 0.002946126610065733 0.0 -0.003774436106657059 0.0 0.0
-0.006001325986269567 0.004098455242674672 0.0 -0.0044324618890818224 0.0 0.0
-0.007738011981030617 0.005671781807338426 0.0 -0.00525317367765041 0.0 0.0
-0.009837773303453246 0.007664626405877999 0.0 -0.006369881927993002 0.0 0.0
-0.012075087756868715 0.009860773011918308 0.0 -0.007931375512693704 0.0 0.0
-0.014000582725939969 0.011797291168361163 0.0 -0.009996659981386748 0.0 0.0
-0.014797265922737033 0.01268043284760421 0.0 -0.012159669831833206 0.0 0.0
-0.013175838142315285 0.01109425592785406 0.0 -0.012679781456152672 0.0 0.0
-0.011571659083786042 0.005529332266535664 0.0 6.602791230436722e-15 0.0 0.0
-0.013175838142315172 0.011094255927852978 0.0 0.01267978145616568 0.0 0.0
-0.014797265922734948 0.012680432847602011 0.0 0.012159669831846359 0.0 0.0
-0.014000582725935767 0.01179729116835888 0.0 0.00999665998139326 0.0 0.0
-0.012075087756862836 0.00986077301191486 0.0 0.007931375512691996 0.0 0.0
-0.009837773303447424 0.007664626405870989 0.0 0.006369881927990487 0.0 0.0
-0.007738011981025672 0.00567178180733626 0.0 0.005253173677647326 0.0 0.0
-0.006001325986263957 0.004098455242671059 0.0 0.004432461889079764 0.0 0.0
-0.004655123717947058 0.002946126610061111 0.0 0.003774436106654641 0.0 0.0
-0.0036083854595859 0.0021116816731793775 0.0 0.003205814008504029 0.0 0.0
-0.0027557577977137837 0.0014687240524037105 0.0 0.0027175589083367506 0.0 0.0
-0.0020517900488706145 0.0009931523249720345 0.0 0.0023312594216306605 0.0 0.0
-0.0015081440734331722 0.0006680500725523183 0.0 0.002168719998429739 0.0 0.0
-0.0011112288081286605 0.0004800925384676406 0.0 0.00209929006459335 0.0 0.0
-0.000838176954100439 0.0003800793603902904 0.0 0.002059313324206757 0.0 0.0
-0.0006652327065539421 0.00032945388814869706 0.0 0.0020093404569792744 0.0 0.0
-0.0005519571965458008 0.0002951189313199584 0.0 0.0019879703488768093 0.0 0.0
-0.00045684650280755157 0.00025232587768173775 0.0 0.002033158117976908 0.0 0.0
-0.0002953460113236687 9.75604578833787e-05 0.0 0.0020680815331293417 0.0 0.0
8.598010172086526e-06 -0.0003521385657776562 0.0 0.001688630550178514 0.0 0.0
0.00020059055968732066 -0.0009765688964646405 0.0 0.0010695562355594666 0.0 0.0
0.0001303862100505072 -0.000714629296579596 0.0 -0.0009345882120061213 0.0 0.0
-4.9040514035579345e-05 -0.00029230566130692104 0.0 -0.001537997858276078 0.0 0.0
-0.00036691137134536183 0.00012367580444989172 0.0 -0.0019660671171125308 0.0 0.0
-0.0005921817231322338 0.0003030171022687482 0.0 -0.001958694191213575 0.0 0.0
-0.0007645449233848582 0.0003836633974469319 0.0 -0.0018968155033294086 0.0 0.0
-0.0009615599417412445 0.0004601369501121314 0.0 -0.001877050895412831 0.0 0.0
-0.0012396961240368856 0.0005500521625095301 0.0 -0.0018751330031481456 0.0 0.0
-0.0016683459650287434 0.0007351253346324887 0.0 -0.0019038399206865743 0.0 0.0
-0.0023070392485690277 0.0011045246783943274 0.0 -0.00206746515562434 0.0 0.0
-0.0031739825155994066 0.0017231923577250442 0.0 -0.002495466512227407 0.0 0.0
-0.004236515843075414 0.0025566722913919152 0.0 -0.003081578881957399 0.0 0.0
-0.005496414583370787 0.0035944417574631047 0.0 -0.0036743672596450463 0.0 0.0
-0.007059231417275042 0.004932283679332291 0.0 -0.004305254762404875 0.0 0.0
-0.009086188095867576 0.006749543605415095 0.0 -0.005049181298382007 0.0 0.0
-0.011713123148341168 0.009201625888233643 0.0 -0.006026500741565552 0.0 0.0
-0.014928570307595236 0.012304933090264142 0.0 -0.0073913429241891085 0.0 0.0
-0.01846790057377732 0.015809393031417297 0.0 -0.009417020993178458 0.0 0.0
-0.021693989959730306 0.01909731245522264 0.0 -0.012234293661975348 0.0 0.0
-0.023390198964342395 0.020937369746374557 0.0 -0.015142853803435902 0.0 0.0
-0.021598688326776045 0.01937501904058278 0.0 -0.016140069793124864 0.0 0.0
-0.019537986847509972 0.011609087106276368 0.0 6.832642091003649e-15 0.0 0.0
-0.021598688326775237 0.019375019040579814 0.0 0.01614006979314135 0.0 0.0
-0.023390198964339033 0.020937369746373505 0.0 0.015142853803452955 0.0 0.0
-0.02169398995972429 0.019097312455217154 0.0 0.012234293661984403 0.0 0.0
-0.018467900573769326 0.015809393031409803 0.0 0.009417020993179355 0.0 0.0
-0.014928570307587187 0.012304933090256924 0.0 0.007391342924185664 0.0 0.0
-0.011713123148334014 0.009201625888229287 0.0 0.006026500741562295 0.0 0.0
-0.009086188095859806 0.006749543605409847 0.0 0.005049181298378828 0.0 0.0
-0.007059231417266321 0.004932283679323161 0.0 0.00430525476240175 0.0 0.0
-0.005496414583361982 0.0035944417574564104 0.0 0.0036743672596394284 0.0 0.0
-0.0042365158430675166 0.0025566722913831345 0.0 0.003081578881951439 0.0 0.0
-0.0031739825155928914 0.0017231923577204272 0.0 0.0024954665122228128 0.0 0.0
-0.002307039248564164 0.0011045246783924466 0.0 0.0020674651556230783 0.0 0.0
-0.0016683459650255828 0.0007351253346295681 0.0 0.0019038399206855005 0.0 0.0
-0.0012396961240349193 0.0005500521625105134 0.0 0.0018751330031475367 0.0 0.0
-0.0009615599417398763 0.00046013695011122146 0.0 0.001877050895411429 0.0 0.0
-0.0007645449233838648 0.0003836633974467289 0.0 0.0018968155033278963 0.0 0.0
-0.0005921817231316644 0.00030301710226780576 0.0 0.0019586941912113293 0.0 0.0
-0.00036691137134498865 0.0001236758044502567 0.0 0.001966067117110185 0.0 0.0
-4.90405140355266e-05 -0.00029230566130667525 0.0 0.0015379978582746778 0.0 0.0
0.0001303862100502826 -0.0007146292965788604 0.0 0.0009345882120054453 0.0 0.0
6.631079028163215e-05 -0.0004925842935733156 0.0 -0.0007965883752612552 0.0 0.0
-0.00010447233493464909 -0.00022580769639887375 0.0 -0.0013657297332498866 0.0 0.0
-0.00043729386504096275 0.00015371560684036638 0.0 -0.001816864290224097 0.0 0.0
-0.0007217759958052732 0.0003506301953288255 0.0 -0.0018319190769972545 0.0 0.0
-0.000967926686933812 0.00046603841955387504 0.0 -0.001752222068532725 0.0 0.0
-0.0012471466874421383 0.0005798140347093726 0.0 -0.0016856463025825266 0.0 0.0
-0.0016401933539756865 0.0007219252916082402 0.0 -0.0016344824827063532 0.0 0.0
-0.002260907376243061 0.001048619952422236 0.0 -0.0017098742334874374 0.0 0.0
-0.0031764960202987727 0.0016910493804977353 0.0 -0.0020751194955599865 0.0 0.0
-0.004352548482248831 0.002620315675273674 0.0 -0.0026648317603376512 0.0 0.0
-0.005743663088492503 0.0037738341738543114 0.0 -0.0032588272761143256 0.0 0.0
-0.007409394873988373 0.005201603369627714 0.0 -0.0038515804164674225 0.0 0.0
-0.00950695059120973 0.007056252723457451 0.0 -0.004503924512591421 0.0 0.0
-0.012235449116183128 0.00955597901956983 0.0 -0.005316337688780615 0.0 0.0
-0.0157657975624059 0.012893261025300999 0.0 -0.006379316177692159 0.0 0.0
-0.020113731690846376 0.017114912007683784 0.0 -0.00788452144698898 0.0 0.0
-0.024967968116741537 0.02193955769346405 0.0 -0.01015704392106672 0.0 0.0
-0.02946162823118372 0.026550034386912807 0.0 -0.013411967221924918 0.0 0.0
-0.03192529494714227 0.029272036131011363 0.0 -0.017023265717400624 0.0 0.0
-0.029694698943332383 0.02744237812880377 0.0 -0.018803515227948264 0.0 0.0
-0.027006649790214814 0.01747666262545856 0.0 7.820133429703446e-15 0.0 0.0
-0.029694698943330523 0.027442378128802493 0.0 0.018803515227967933 0.0 0.0
-0.03192529494713769 0.029272036131009947 0.0 0.017023265717420032 0.0 0.0
-0.029461628231176068 0.02655003438690655 0.0 0.013411967221935373 0.0 0.0
-0.02496796811673188 0.02193955769345505 0.0 0.010157043921069914 0.0 0.0
-0.02011373169083659 0.01711491200767553 0.0 0.007884521446986465 0.0 0.0
-0.01576579756239651 0.012893261025292788 0.0 0.006379316177688374 0.0 0.0
-0.012235449116172943 0.009555979019562831 0.0 0.005316337688776893 0.0 0.0
-0.009506950591198736 0.007056252723445422 0.0 0.004503924512588893 0.0 0.0
-0.007409394873977458 0.005201603369618508 0.0 0.003851580416462017 0.0 0.0
-0.005743663088482412 0.003773834173844362 0.0 0.003258827276106811 0.0 0.0
-0.004352548482240335 0.002620315675265794 0.0 0.0026648317603321196 0.0 0.0
-0.003176496020292154 0.001691049380493553 0.0 0.0020751194955574695 0.0 0.0
-0.002260907376238629 0.0010486199524192422 0.0 0.0017098742334857153 0.0 0.0
-0.0016401933539730738 0.0007219252916077448 0.0 0.0016344824827054568 0.0 0.0
-0.001247146687440504 0.0005798140347089212 0.0 0.0016856463025813045 0.0 0.0
-0.0009679266869326822 0.00046603841955356767 0.0 0.0017522220685311464 0.0 0.0
-0.0007217759958045603 0.0003506301953284694 0.0 0.0018319190769951715 0.0 0.0
-0.00043729386504050635 0.0001537156068406027 0.0 0.0018168642902224525 0.0 0.0
-0.00010447233493455787 -0.00022580769639876349 0.0 0.0013657297332482512 0.0 0.0
6.631079028139788e-05 -0.0004925842935728103 0.0 0.0007965883752607491 0.0 0.0
9.22396991496633e-06 -0.00030977446329837684 0.0 -0.0006557331256940794 0.0 0.0
-0.0001568264101452964 -0.00015676392765567534 0.0 -0.0011733739408597082 0.0 0.0
-0.0005063866859603937 0.0001870558706457023 0.0 -0.0016227155326384239 0.0 0.0
-0.0008460348613708393 0.0003955200221942973 0.0 -0.001653017862833962 0.0 0.0
-0.0011617727122058689 0.0005423980237100781 0.0 -0.0015565446064317993 0.0 0.0
-0.0015241605650027803 0.0006883631532728746 0.0 -0.0014381362654705368 0.0 0.0
-0.002057425172203304 0.0009186862555156318 0.0 -0.0013624861270259232 0.0 0.0
-0.002909022468378985 0.0014631791240228215 0.0 -0.0015597976384139174 0.0 0.0
-0.004099273252000733 0.0023980976814463525 0.0 -0.0020751454377724364 0.0 0.0
-0.005547139121757775 0.0035918888663962452 0.0 -0.0026439161986327397 0.0 0.0
-0.007258661082733226 0.0050516860522622446 0.0 -0.003184751026877734 0.0 0.0
-0.009350077823108503 0.0068853352382090074 0.0 -0.0037490743988083646 0.0 0.0
-0.012003242535870474 0.009275679598539765 0.0 -0.004395461075493478 0.0 0.0
-0.015446715920838152 0.01247298542998267 0.0 -0.005227025254615457 0.0 0.0
-0.019884296090724323 0.016695823630365866 0.0 -0.006328931756719342 0.0 0.0
-0.025350288143212125 0.022010746787679406 0.0 -0.007812739664028982 0.0 0.0
-0.031482749764056434 0.02812157234286758 0.0 -0.01001727747546836 0.0 0.0
-0.037206705650862905 0.03402277463521115 0.0 -0.013350072138995677 0.0 0.0
-0.0403655857819093 0.037571348060937426 0.0 -0.01750022966471153 0.0 0.0
-0.03762698737810161 0.03539606676564512 0.0 -0.020626060236137507 0.0 0.0
-0.03429835450014418 0.023267124525849402 0.0 8.998878031629687e-15 0.0 0.0
-0.037626987378098976 0.03539606676564392 0.0 0.020626060236157998 0.0 0.0
-0.040365585781903475 0.03757134806093263 0.0 0.01750022966473193 0.0 0.0
-0.037206705650853863 0.03402277463520121 0.0 0.013350072139006984 0.0 0.0
-0.03148274976404535 0.028121572342857018 0.0 0.010017277475471233 0.0 0.0
-0.025350288143200676 0.0220107467876684 0.0 0.00781273966402813 0.0 0.0
-0.019884296090712943 0.01669582363035563 0.0 0.006328931756717894 0.0 0.0
-0.015446715920825641 0.012472985429971963 0.0 0.005227025254613541 0.0 0.0
-0.012003242535857215 0.009275679598525025 0.0 0.004395461075489731 0.0 0.0
-0.009350077823095469 0.006885335238198716 0.0 0.0037490743988035013 0.0 0.0
-0.007258661082720951 0.005051686052250252 0.0 0.0031847510268707274 0.0 0.0
-0.005547139121747217 0.003591888866385482 0.0 0.0026439161986274743 0.0 0.0
-0.004099273251992436 0.0023980976814406267 0.0 0.002075145437768396 0.0 0.0
-0.002909022468373082 0.001463179124019391 0.0 0.0015597976384115278 0.0 0.0
-0.0020574251721996706 0.0009186862555134081 0.0 0.0013624861270243246 0.0 0.0
-0.0015241605650008125 0.0006883631532718913 0.0 0.0014381362654695773 0.0 0.0
-0.0011617727122045945 0.0005423980237099624 0.0 0.0015565446064306455 0.0 0.0
-0.0008460348613698517 0.00039552002219459784 0.0 0.0016530178628317077 0.0 0.0
-0.0005063866859597987 0.0001870558706457872 0.0 0.0016227155326370688 0.0 0.0
-0.000156826410145103 -0.00015676392765558327 0.0 0.0011733739408581374 0.0 0.0
9.223969915045033e-06 -0.0003097744632980803 0.0 0.0006557331256937828 0.0 0.0
-3.917790183017172e-05 -0.00016669587464227426 0.0 -0.0005127535991439101 0.0 0.0
-0.0002040988490873382 -8.891670882062391e-05 0.0 -0.0009627023847314522 0.0 0.0
-0.000573105048035994 0.00022191656105202792 0.0 -0.0013848774638217788 0.0 0.0
-0.0009657722824246873 0.0004387608851076449 0.0 -0.0014220115515512965 0.0 0.0
-0.0013470593556391185 0.000610777486626377 0.0 -0.0013120820583372573 0.0 0.0
-0.001800943053418897 0.0007943730512849493 0.0 -0.0011414985839139976 0.0 0.0
-0.0025105051668195075 0.0011735246770542879 0.0 -0.0011025870766919216 0.0 0.0
-0.003609598346744218 0.001989559425962599 0.0 -0.0014422705959795676 0.0 0.0
-0.005037574753359855 0.003158410121543614 0.0 -0.001929919711928779 0.0 0.0
-0.006740279379534817 0.004596150930610039 0.0 -0.0024057406686878377 0.0 0.0
-0.008788109852220751 0.006375513777073311 0.0 -0.0028904251577012608 0.0 0.0
-0.011317980827650762 0.00862612981870019 0.0 -0.003395560996436749 0.0 0.0
-0.014544223528248627 0.011569877088198424 0.0 -0.003994177824600462 0.0 0.0
-0.01872291325524874 0.01548179064035397 0.0 -0.004792389357687359 0.0 0.0
-0.024055051862577597 0.020583243583351576 0.0 -0.0058604464450534195 0.0 0.0
-0.030581408281968238 0.026937407356963188 0.0 -0.007215717920354785 0.0 0.0
-0.03792733027149557 0.03424604276352895 0.0 -0.009060766650118172 0.0 0.0
-0.04482802991634014 0.04137672348103221 0.0 -0.012011644987304433 0.0 0.0
-0.04870038621660196 0.04578335888550441 0.0 -0.01649916398279835 0.0 0.0
-0.04556844429516176 0.043418184201752474 0.0 -0.021734969561255462 0.0 0.0
-0.04167306696333026 0.029210307567075072 0.0 9.094287822808411e-15 0.0 0.0
-0.04556844429515834 0.04341818420174922 0.0 0.021734969561275623 0.0 0.0
-0.04870038621659488 0.045783358885495846 0.0 0.016499163982817623 0.0 0.0
-0.0448280299163297 0.041376723481019936 0.0 0.012011644987316744 0.0 0.0
-0.03792733027148304 0.03424604276351816 0.0 0.009060766650121732 0.0 0.0
-0.030581408281954773 0.026937407356949484 0.0 0.007215717920354596 0.0 0.0
-0.02405505186256391 0.02058324358334089 0.0 0.005860446445052125 0.0 0.0
-0.01872291325523435 0.015481790640337681 0.0 0.00479238935768495 0.0 0.0
-0.014544223528233226 0.011569877088181522 0.0 0.003994177824596718 0.0 0.0
-0.011317980827635531 0.008626129818687525 0.0 0.0033955609964326002 0.0 0.0
-0.008788109852206641 0.00637551377706067 0.0 0.0028904251576946736 0.0 0.0
-0.006740279379522626 0.004596150930598845 0.0 0.0024057406686828252 0.0 0.0
-0.005037574753349932 0.003158410121535218 0.0 0.0019299197119248771 0.0 0.0
-0.003609598346736696 0.0019895594259569218 0.0 0.0014422705959771624 0.0 0.0
-0.0025105051668145944 0.0011735246770508637 0.0 0.0011025870766898215 0.0 0.0
-0.0018009430534162967 0.0007943730512841688 0.0 0.0011414985839132508 0.0 0.0
-0.0013470593556377732 0.0006107774866258767 0.0 0.001312082058336787 0.0 0.0
-0.0009657722824237542 0.00043876088510797005 0.0 0.0014220115515497659 0.0 0.0
-0.0005731050480353777 0.00022191656105192907 0.0 0.0013848774638202715 0.0 0.0
-0.0002040988490870831 -8.891670882048202e-05 0.0 0.000962702384730507 0.0 0.0
-3.917790183011933e-05 -0.00016669587464215155 0.0 0.0005127535991430199 0.0 0.0
-7.619314185235845e-05 -6.452842224708767e-05 0.0 -0.0003710306996575083 0.0 0.0
-0.0002429657235939429 -2.6155781398496095e-05 0.0 -0.0007360996139388306 0.0 0.0
-0.0006352989450383514 0.00025545360424841204 0.0 -0.0011024356425477634 0.0 0.0
-0.0010816346524877983 0.0004816970242274792 0.0 -0.0011380099986209175 0.0 0.0
-0.001526749582642387 0.0006702517699817366 0.0 -0.001018742981367265 0.0 0.0
-0.00209394564178896 0.0009150965573597404 0.0 -0.000810235811714942 0.0 0.0
-0.0030132354402929045 0.001517490405108653 0.0 -0.0008869509070683975 0.0 0.0
-0.004330991238051581 0.0025719071621729435 0.0 -0.0012378566576245957 0.0 0.0
-0.005967021450952308 0.003934170789791512 0.0 -0.0016052361896955504 0.0 0.0
-0.00793729118356062 0.005628185341447331 0.0 -0.001993062509960554 0.0 0.0
-0.01032972456376213 0.007733943001145818 0.0 -0.0023892653300065423 0.0 0.0
-0.013311792659199373 0.010414600183455329 0.0 -0.0028043326037836005 0.0 0.0
-0.017130030832047057 0.013926437249893859 0.0 -0.003304838859201176 0.0 0.0
-0.022051844932516853 0.018566881996718694 0.0 -0.004003378536715664 0.0 0.0
-0.02826960552676474 0.024542338001924863 0.0 -0.004968903191780702 0.0 0.0
-0.03578229574986628 0.03186760399509775 0.0 -0.006139768005618857 0.0 0.0
-0.044191220965186705 0.04020738538977406 0.0 -0.00743808314115766 0.0 0.0
-0.05219754424376341 0.04844699571888654 0.0 -0.009435435094960299 0.0 0.0
-0.056939291788135823 0.05386833287823634 0.0 -0.01390623949017148 0.0 0.0
-0.05370048110492541 0.05170717948090018 0.0 -0.02193663034301664 0.0 0.0
-0.0493810229280103 0.03557328706640228 0.0 8.186160083134553e-15 0.0 0.0
-0.05370048110492119 0.051707179480895225 0.0 0.02193663034303461 0.0 0.0
-0.0569392917881273 0.05386833287822704 0.0 0.013906239490189296 0.0 0.0
-0.052197544243751524 0.04844699571887569 0.0 0.00943543509497202 0.0 0.0
-0.044191220965172785 0.04020738538976316 0.0 0.007438083141161081 0.0 0.0
-0.035782295749851145 0.03186760399508124 0.0 0.006139768005620106 0.0 0.0
-0.028269605526748932 0.02454233800190989 0.0 0.00496890319177982 0.0 0.0
-0.022051844932500266 0.01856688199670224 0.0 0.004003378536714177 0.0 0.0
-0.017130030832029637 0.013926437249877788 0.0 0.0033048388591976124 0.0 0.0
-0.013311792659182002 0.010414600183439397 0.0 0.002804332603780153 0.0 0.0
-0.010329724563746116 0.007733943001132849 0.0 0.0023892653300013693 0.0 0.0
-0.007937291183546764 0.005628185341435492 0.0 0.0019930625099559597 0.0 0.0
-0.005967021450940695 0.003934170789780549 0.0 0.0016052361896921454 0.0 0.0
-0.004330991238042699 0.0025719071621656824 0.0 0.0012378566576218028 0.0 0.0
-0.003013235440287067 0.0015174904051034218 0.0 0.0008869509070667317 0.0 0.0
-0.00209394564178578 0.0009150965573581551 0.0 0.0008102358117145452 0.0 0.0
-0.0015267495826408847 0.0006702517699813709 0.0 0.001018742981366755 0.0 0.0
-0.0010816346524868342 0.00048169702422753264 0.0 0.0011380099986205076 0.0 0.0
-0.000635298945037806 0.0002554536042482637 0.0 0.0011024356425463303 0.0 0.0
-0.00024296572359383686 -2.6155781398635727e-05 0.0 0.0007360996139382387 0.0 0.0
-7.619314185235252e-05 -6.452842224704395e-05 0.0 0.0003710306996568419 0.0 0.0
-9.75124065064392e-05 -4.520735195586977e-06 0.0 -0.00023958365703824355 0.0 0.0
-0.00026808845111918334 2.6487257196166446e-05 0.0 -0.0004968289690229182 0.0 0.0
-0.0006894983773256993 0.0002835590704851655 0.0 -0.0007706334832567296 0.0 0.0
-0.0011946340460663532 0.0005261378685104814 0.0 -0.0007971702778399602 0.0 0.0
-0.001708836768511845 0.0007229154645490429 0.0 -0.000678328339868212 0.0 0.0
-0.0024227794087036208 0.0010896307441711983 0.0 -0.0004930708513318172 0.0 0.0
-0.003546190488783442 0.0019326139801777655 0.0 -0.0006497892526624616 0.0 0.0
-0.00504790863083834 0.003160626403474577 0.0 -0.0008832554880534755 0.0 0.0
-0.006893438947640152 0.0047264822725827105 0.0 -0.001141514528532883 0.0 0.0
-0.009135577876087538 0.006680772966929529 0.0 -0.001414812121527763 0.0 0.0
-0.01188266331783557 0.009120273956392812 0.0 -0.001692340350003938 0.0 0.0
-0.015329387772305518 0.0122424693101624 0.0 -0.0019774334549771547 0.0 0.0
-0.0197504579335708 0.016337242714511875 0.0 -0.0023342417042248507 0.0 0.0
-0.02543052305058767 0.021715074365008045 0.0 -0.002877579435762908 0.0 0.0
-0.03252256447043563 0.028555130031223792 0.0 -0.0036401522572609628 0.0 0.0
-0.04093077464371338 0.036788057025683024 0.0 -0.00453330756165683 0.0 0.0
-0.05019343338870571 0.04596774787090937 0.0 -0.0053271203596538435 0.0 0.0
-0.05916586667872985 0.05503468945270868 0.0 -0.006157166890266263 0.0 0.0
-0.06502488130876512 0.06166414491000702 0.0 -0.009366695951040805 0.0 0.0
-0.06221309589558117 0.06049032460236185 0.0 -0.020480594251976493 0.0 0.0
-0.05775583049780982 0.04277870321696404 0.0 6.174748212739445e-15 0.0 0.0
-0.06221309589557633 0.0604903246023568 0.0 0.020480594251990617 0.0 0.0
-0.06502488130875515 0.06166414490999876 0.0 0.00936669595105493 0.0 0.0
-0.05916586667871627 0.05503468945269746 0.0 0.0061571668902752645 0.0 0.0
-0.05019343338868976 0.045967747870895775 0.0 0.0053271203596572435 0.0 0.0
-0.040930774643696315 0.03678805702566838 0.0 0.004533307561657773 0.0 0.0
-0.03252256447041795 0.02855513003120664 0.0 0.003640152257260126 0.0 0.0
-0.02543052305056894 0.021715074364992655 0.0 0.0028775794357613045 0.0 0.0
-0.019750457933551055 0.0163372427144942 0.0 0.0023342417042230626 0.0 0.0
-0.015329387772285943 0.012242469310145597 0.0 0.0019774334549746836 0.0 0.0
-0.011882663317817682 0.009120273956376932 0.0 0.001692340350000402 0.0 0.0
-0.009135577876071999 0.006680772966916176 0.0 0.001414812121524792 0.0 0.0
-0.006893438947627303 0.0047264822725709725 0.0 0.0011415145285309412 0.0 0.0
-0.005047908630828131 0.0031606264034649114 0.0 0.0008832554880505526 0.0 0.0
-0.0035461904887762246 0.0019326139801723965 0.0 0.0006497892526612755 0.0 0.0
-0.00242277940869964 0.0010896307441685493 0.0 0.0004930708513320289 0.0 0.0
-0.0017088367685100271 0.0007229154645486861 0.0 0.0006783283398682388 0.0 0.0
-0.001194634046065257 0.0005261378685099106 0.0 0.0007971702778396821 0.0 0.0
-0.000689498377325004 0.00028355907048491333 0.0 0.0007706334832556693 0.0 0.0
-0.00026808845111890453 2.648725719602967e-05 0.0 0.0004968289690229527 0.0 0.0
-9.75124065063242e-05 -4.520735195626913e-06 0.0 0.0002395836570377168 0.0 0.0
-9.566310991851728e-05 1.3050526890346139e-05 0.0 -0.00013870344334552701 0.0 0.0
-0.00027078074767350496 6.061016082051762e-05 0.0 -0.0002487121498194696 0.0 0.0
-0.0007303952483181246 0.0003015797379132881 0.0 -0.0003774466100602006 0.0 0.0
-0.0013077036795979783 0.000571787908564181 0.0 -0.0003919695899843342 0.0 0.0
-0.001912857367698341 0.0007923059500265796 0.0 -0.000304032593125592 0.0 0.0
-0.002785432884165475 0.0013239803508588131 0.0 -0.00020102002348395713 0.0 0.0
-0.004089488973893704 0.002376806220239323 0.0 -0.0003139098535796497 0.0 0.0
-0.005756524891286156 0.003755739758652759 0.0 -0.0004243215067918608 0.0 0.0
-0.007813234529262464 0.00552903159252312 0.0 -0.000543783692369454 0.0 0.0
-0.010333156880709043 0.007746760305273069 0.0 -0.0006767594768207075 0.0 0.0
-0.01344353342355308 0.010528277101961084 0.0 -0.0007997926201949923 0.0 0.0
-0.017368411352823906 0.014106529995704054 0.0 -0.0009156060092187954 0.0 0.0
-0.02240911143956277 0.018800037295709365 0.0 -0.0011066365085282664 0.0 0.0
-0.028838661938911138 0.024906687799086943 0.0 -0.0014080940604022096 0.0 0.0
-0.03677858651835038 0.03258693628953005 0.0 -0.00182956588124008 0.0 0.0
-0.04604088218869092 0.04168749904069903 0.0 -0.0023479460033647478 0.0 0.0
-0.05598141898802031 0.05158266566980358 0.0 -0.0027751008438947813 0.0 0.0
-0.06550622690372981 0.06111497482942277 0.0 -0.0029241338011543857 0.0 0.0
-0.07266577391003373 0.06852391421337016 0.0 -0.003916845913320619 0.0 0.0
-0.07135333035456279 0.06982202398613795 0.0 -0.013892841497791266 0.0 0.0
-0.06737775973699581 0.05208520583306183 0.0 4.076600168545497e-15 0.0 0.0
-0.0713533303545571 0.06982202398613507 0.0 0.013892841497799714 0.0 0.0
-0.07266577391002227 0.06852391421336285 0.0 0.00391684591332903 0.0 0.0
-0.06550622690371408 0.061114974829407254 0.0 0.0029241338011592637 0.0 0.0
-0.05598141898800232 0.05158266566978863 0.0 0.0027751008438967857 0.0 0.0
-0.04604088218867188 0.041687499040684355 0.0 0.0023479460033653168 0.0 0.0
-0.03677858651833048 0.03258693628951055 0.0 0.0018295658812396295 0.0 0.0
-0.028838661938890058 0.02490668779907126 0.0 0.0014080940604013037 0.0 0.0
-0.02240911143954088 0.01880003729568832 0.0 0.00110663650852895 0.0 0.0
-0.0173684113528024 0.014106529995685856 0.0 0.0009156060092178427 0.0 0.0
-0.013443533423533457 0.010528277101941952 0.0 0.0007997926201930477 0.0 0.0
-0.010333156880692173 0.007746760305258645 0.0 0.0006767594768185021 0.0 0.0
-0.007813234529248281 0.005529031592510933 0.0 0.0005437836923683591 0.0 0.0
-0.00575652489127473 0.0037557397586415273 0.0 0.0004243215067905406 0.0 0.0
-0.004089488973885298 0.002376806220233054 0.0 0.0003139098535785133 0.0 0.0
-0.002785432884160574 0.0013239803508555935 0.0 0.00020102002348360037 0.0 0.0
-0.0019128573676962012 0.0007923059500262107 0.0 0.0003040325931256904 0.0 0.0
-0.0013077036795968754 0.0005717879085638277 0.0 0.00039196958998424564 0.0 0.0
-0.0007303952483174699 0.00030157973791315745 0.0 0.00037744661006015244 0.0 0.0
-0.000270780747673254 6.06101608204728e-05 0.0 0.00024871214981934714 0.0 0.0
-9.566310991841197e-05 1.3050526890272411e-05 0.0 0.00013870344334495084 0.0 0.0
-5.657478489148039e-05 1.1296558358428939e-05 0.0 -8.991530754371214e-05 0.0 0.0
-0.00023626477326539646 7.168039202638964e-05 0.0 -0.00010351489749783422 0.0 0.0
-0.0007506832572596832 0.0003075127028312427 0.0 -0.00012956262220868695 0.0 0.0
-0.0014300556122910358 0.0005945502049635296 0.0 -0.00013522581445598174 0.0 0.0
-0.0021529667190839244 0.0008366174473265195 0.0 -5.154315828612461e-05 0.0 0.0
-0.003174252021654268 0.001451297166967003 0.0 6.587345571655329e-05 0.0 0.0
-0.004629806581145447 0.0026017598915662548 0.0 5.228353988877564e-05 0.0 0.0
-0.0064546879854827655 0.004054976982868457 0.0 5.009337090196211e-05 0.0 0.0
-0.008723606383306583 0.0059316854322766085 0.0 6.720340809185951e-05 0.0 0.0
-0.011526468180754852 0.00828250513466677 0.0 8.21692526018717e-05 0.0 0.0
-0.015010559460238462 0.011236162504328254 0.0 0.00014553726080057368 0.0 0.0
-0.019433044101220754 0.015048208984317031 0.0 0.0002567037359126414 0.0 0.0
-0.025092610278367393 0.020044677493015195 0.0 0.00032314572214209736 0.0 0.0
-0.032252872706323696 0.02650902500347148 0.0 0.0003836741747705666 0.0 0.0
-0.04101561335449495 0.03460391105203272 0.0 0.0003459804149380584 0.0 0.0
-0.05109758286917502 0.04413025367754872 0.0 0.00016986292267702052 0.0 0.0
-0.06167240288299071 0.054363623361355 0.0 -9.858123925185827e-05 0.0 0.0
-0.0713726632913868 0.06405024915555534 0.0 -0.0003346956835400556 0.0 0.0
-0.07880488959231464 0.07159231466424627 0.0 -0.0005150239500303234 0.0 0.0
-0.08101411869336068 0.07460710070775467 0.0 -0.009210109246874093 0.0 0.0
-0.08022116866653449 0.05751049762595144 0.0 3.12944115066216e-15 0.0 0.0
-0.08101411869335476 0.07460710070775342 0.0 0.00921010924687808 0.0 0.0
-0.07880488959230128 0.0715923146642401 0.0 0.0005150239500335448 0.0 0.0
-0.0713726632913683 0.06405024915553473 0.0 0.00033469568354223354 0.0 0.0
-0.06167240288297027 0.05436362336134028 0.0 9.858123925222256e-05 0.0 0.0
-0.05109758286915374 0.04413025367753239 0.0 -0.00016986292267695893 0.0 0.0
-0.04101561335447256 0.03460391105201016 0.0 -0.0003459804149393208 0.0 0.0
-0.032252872706300256 0.026509025003455377 0.0 -0.00038367417477076 0.0 0.0
-0.02509261027834347 0.020044677492994524 0.0 -0.0003231457221416975 0.0 0.0
-0.019433044101197162 0.015048208984296998 0.0 -0.00025670373591400904 0.0 0.0
-0.01501055946021679 0.011236162504308202 0.0 -0.00014553726080210154 0.0 0.0
-0.011526468180736434 0.008282505134651256 0.0 -8.216925260352446e-05 0.0 0.0
-0.008723606383291165 0.005931685432264629 0.0 -6.720340809116356e-05 0.0 0.0
-0.006454687985470275 0.004054976982857981 0.0 -5.0093370901870926e-05 0.0 0.0
-0.004629806581136188 0.00260175989155821 0.0 -5.228353988931682e-05 0.0 0.0
-0.0031742520216485456 0.0014512971669633041 0.0 -6.587345571653025e-05 0.0 0.0
-0.002152966719081126 0.0008366174473260473 0.0 5.154315828636853e-05 0.0 0.0
-0.001430055612289667 0.0005945502049639954 0.0 0.00013522581445611355 0.0 0.0
-0.0007506832572591543 0.0003075127028310376 0.0 0.00012956262220899885 0.0 0.0
-0.00023626477326526874 7.16803920263234e-05 0.0 0.00010351489749721535 0.0 0.0
-5.6574784891288795e-05 1.1296558358400146e-05 0.0 8.991530754330322e-05 0.0 0.0
SCALARS Statev float 8
LOOKUP_TABLE default
0.0 0.010904419452506448 0.008457437441544249 -0.010446708547938183 0.0019892711063939457 -0.0003607877377108656 0.0 0.0
0.0 0.0029768616072448732 0.002044578253761722 -0.0010343600531976162 -0.0010102182005641079 -0.0041739571493336946 0.0 0.0
0.0 -4.5772440145695086e-05 -1.8694983061504123e-05 1.1614403020962553e-05 7.080580040541399e-06 -3.834848992676043e-05 0.0 0.0
0.0 7.149623777450383e-05 -1.1025799965779054e-05 8.196748569728723e-06 2.829051396050246e-06 -2.2273404683471438e-07 0.0 0.0
0.0 0.00036260699760577665 7.008836157534671e-05 -4.8387558738637276e-05 -2.1700802836709665e-05 3.843197847058557e-05 0.0 0.0
0.0 0.0007114682080392512 0.0007968113381834582 -0.0006033715171275793 -0.0001934398210558784 6.8305379118188e-05 0.0 0.0
0.0 0.0020467493975539833 0.0019051604961625838 -0.0015173727701770553 -0.0003877877259855271 8.116453290760991e-05 0.0 0.0
0.0 0.0037659382483069773 0.0034957613551283434 -0.002897485325463126 -0.0005982760296652185 8.832305608363784e-05 0.0 0.0
0.0 0.00603672231544867 0.005550128483199653 -0.004755861781919412 -0.0007942667012802416 0.00010575756154372126 0.0 0.0
0.0 0.008966471534900829 0.00811723852989054 -0.0071329921372019975 -0.0009842463926885423 0.00012767908279906278 0.0 0.0
0.0 0.012708214418465744 0.011334788612546776 -0.010152137811231537 -0.001182650801315248 0.00019918048472520686 0.0 0.0
0.0 0.017237306694792093 0.015469903072024754 -0.014073526826084096 -0.0013963762459406543 0.0003195537311470788 0.0 0.0
0.0 0.023259219562038563 0.02082210719623309 -0.019203435250350294 -0.0016186719458827943 0.0003878041000323227 0.0 0.0
0.0 0.031018628196464736 0.027660307248339004 -0.025811894231369 -0.001848413016970015 0.0004524478295104149 0.0 0.0
0.0 0.040685588559425445 0.036129701444928684 -0.0340556147840465 -0.002074086660882151 0.00044526397747113354 0.0 0.0
0.0 0.052131674892068054 0.04608308140403064 -0.04379813203219721 -0.002284949371833491 0.00033589352066967174 0.0 0.0
0.0 0.06467049049767165 0.05695896118612406 -0.0544860685261699 -0.0024728926599541907 0.00012604425453179328 0.0 0.0
0.0 0.0771481693409394 0.06776983033053849 -0.06514039858868818 -0.0026294317418501852 -0.00011352351625732804 0.0 0.0
0.0 0.08810090019810149 0.07725242533408276 -0.07450584191957133 -0.0027465834145114524 -0.00023717210902911225 0.0 0.0
0.0 0.09577798593653063 0.08407316078706144 -0.08126400330768915 -0.002809157479372395 -0.0002859917614583985 0.0 0.0
0.0 0.09864073695476536 0.08667335210569568 -0.08386543072256275 -0.002807921383133013 8.326672684688674e-16 0.0 0.0
0.0 0.09577798593652649 0.08407316078705769 -0.08126400330768585 -0.0028091574793717307 0.0002859917614624042 0.0 0.0
0.0 0.08810090019808918 0.07725242533407183 -0.07450584191956106 -0.0027465834145108075 0.00023717210903316651 0.0 0.0
0.0 0.07714816934092152 0.06776983033052246 -0.06514039858867335 -0.0026294317418490555 0.00011352351626101737 0.0 0.0
0.0 0.06467049049765233 0.056958961186106646 -0.05448606852615425 -0.002472892659952426 -0.00012604425453099184 0.0 0.0
0.0 0.05213167489204715 0.04608308140401193 -0.04379813203217958 -0.002284949371832337 -0.0003358935206703173 0.0 0.0
0.0 0.04068558855940465 0.03612970144491007 -0.0340556147840292 -0.002074086660880881 -0.00044526397747187275 0.0 0.0
0.0 0.031018628196440703 0.027660307248317712 -0.0258118942313488 -0.0018484130169689036 -0.0004524478295109926 0.0 0.0
0.0 0.02325921956201515 0.020822107196212254 -0.01920343525033083 -0.0016186719458814113 -0.0003878041000325154 0.0 0.0
0.0 0.01723730669476897 0.015469903072004135 -0.01407352682606455 -0.0013963762459395887 -0.0003195537311475154 0.0 0.0
0.0 0.012708214418445947 0.011334788612528882 -0.01015213781121507 -0.0011826508013138165 -0.00019918048472613805 0.0 0.0
0.0 0.008966471534883022 0.008117238529874875 -0.007132992137187294 -0.0009842463926875847 -0.00012767908279951308 0.0 0.0
0.0 0.0060367223154344915 0.005550128483186489 -0.004755861781907513 -0.0007942667012789761 -0.00010575756154394085 0.0 0.0
0.0 0.003765938248296023 0.003495761355117816 -0.0028974853254536324 -0.0005982760296641828 -8.832305608375731e-05 0.0 0.0
0.0 0.0020467493975470574 0.001905160496155249 -0.0015173727701709111 -0.0003877877259843356 -8.116453290782667e-05 0.0 0.0
0.0 0.0007114682080354532 0.0007968113381790265 -0.0006033715171240928 -0.0001934398210549336 -6.830537911790899e-05 0.0 0.0
0.0 0.0003626069976038314 7.008836157459594e-05 -4.838755873810764e-05 -2.170080283648777e-05 -3.8431978470308424e-05 0.0 0.0
0.0 7.149623777378244e-05 -1.102579996564269e-05 8.196748569627814e-06 2.829051396015348e-06 2.2273404683344423e-07 0.0 0.0
0.0 -4.577244014586403e-05 -1.869498306132936e-05 1.1614403020866131e-05 7.080580040463751e-06 3.8348489926432735e-05 0.0 0.0
0.0 0.002976861607239505 0.0020445782537590195 -0.0010343600531961456 -0.0010102182005628708 0.004173957149327342 0.0 0.0
0.0 0.010904419452492984 0.008457437441535242 -0.01044670854792487 0.0019892711063896223 0.00036078773769104974 0.0 0.0
0.0 0.008619111452056839 0.006172817646047891 -0.008355674697351193 0.002182857051303296 3.3845650286048437e-06 0.0 0.0
0.0 0.0014780890658391895 0.0010441935269310937 -0.0004566651402169604 -0.0005875283867141311 -0.0028646665158493295 0.0 0.0
0.0 1.6204319966732145e-05 -1.0325167794319413e-06 1.579080366249675e-06 -5.465635868177458e-07 4.771836277741558e-06 0.0 0.0
0.0 7.643959692026565e-06 -8.152135077721677e-07 5.505075233630313e-07 2.6470598440908683e-07 1.662346138983206e-07 0.0 0.0
0.0 0.00012121968710908916 2.354931952212927e-05 -1.608423978107666e-05 -7.4650797410527e-06 1.3323209857240646e-05 0.0 0.0
0.0 0.0006772128973597814 0.00048469983349015797 -0.00036913490466838054 -0.00011556492882177816 4.045761458506065e-05 0.0 0.0
0.0 0.001640481321024698 0.0015341313330738708 -0.0012343881177420948 -0.00029974321533177503 -5.752516554493485e-05 0.0 0.0
0.0 0.0032375435811941564 0.0029810037906198915 -0.0024978904097917093 -0.00048311338082818287 -0.00016315819246576603 0.0 0.0
0.0 0.005343114547924189 0.004856972960614907 -0.004211002814058828 -0.0006459701465560772 -0.00028730885604132946 0.0 0.0
0.0 0.007981250331433848 0.007193501369120941 -0.006402668359816973 -0.0007908330093039628 -0.0004231491322800885 0.0 0.0
0.0 0.011323114415978696 0.010107890181565521 -0.009181671451624279 -0.0009262187299412422 -0.0005524165217301798 0.0 0.0
0.0 0.01573515792124173 0.013828211696052332 -0.012772848662298431 -0.0010553630337539024 -0.0006759432784835573 0.0 0.0
0.0 0.02100147994478651 0.018674680439765022 -0.017498164928224286 -0.0011765155115407411 -0.0008805596348567089 0.0 0.0
0.0 0.028170469115656217 0.02491358497327186 -0.02362824017593949 -0.0012853447973323621 -0.0011933063059674203 0.0 0.0
0.0 0.03711277381607592 0.032693429859517356 -0.03131929353670357 -0.001374136322813798 -0.0016031473001636486 0.0 0.0
0.0 0.04771195802916488 0.041883442247205124 -0.04044794110213749 -0.0014355011450676283 -0.0021014310591577585 0.0 0.0
0.0 0.059391102373726655 0.05195914685856564 -0.050492767016820185 -0.0014663798417454271 -0.002579612290558736 0.0 0.0
0.0 0.07109448378051755 0.06201224471524257 -0.060540353206708974 -0.0014718915085336454 -0.002808546684394521 0.0 0.0
0.0 0.08140817588823103 0.07087037911028163 -0.06941086857396386 -0.0014595105363176767 -0.0025440780753479206 0.0 0.0
0.0 0.08881469626957607 0.07719340426792427 -0.07577587191427551 -0.0014175323536487331 -0.001820165805565735 0.0 0.0
0.0 0.09172537640620178 0.07958223556843426 -0.07822797634740872 -0.0013542592210255319 3.1428852576009803e-15 0.0 0.0
0.0 0.08881469626957299 0.07719340426792101 -0.0757758719142731 -0.0014175323536479321 0.001820165805573935 0.0 0.0
0.0 0.08140817588821914 0.07087037911027123 -0.06941086857395354 -0.0014595105363176659 0.0025440780753566553 0.0 0.0
0.0 0.07109448378050215 0.06201224471522899 -0.06054035320669582 -0.001471891508533148 0.002808546684401037 0.0 0.0
0.0 0.05939110237370922 0.05195914685855032 -0.05049276701680581 -0.001466379841744494 0.0025796122905604084 0.0 0.0
0.0 0.04771195802914404 0.041883442247186806 -0.04044794110211967 -0.001435501145067114 0.002101431059157185 0.0 0.0
0.0 0.03711277381605864 0.03269342985950186 -0.0313192935366893 -0.0013741363228125677 0.0016031473001629991 0.0 0.0
0.0 0.028170469115634287 0.02491358497325264 -0.023628240175920783 -0.0012853447973318387 0.0011933063059665861 0.0 0.0
0.0 0.0210014799447644 0.018674680439745586 -0.017498164928205693 -0.0011765155115398866 0.0008805596348555424 0.0 0.0
0.0 0.015735157921221654 0.013828211696034324 -0.012772848662281015 -0.0010553630337533024 0.0006759432784822954 0.0 0.0
0.0 0.011323114415959944 0.010107890181548902 -0.009181671451608496 -0.0009262187299404045 0.0005524165217282314 0.0 0.0
0.0 0.007981250331418506 0.007193501369106731 -0.006402668359803593 -0.0007908330093031365 0.0004231491322786426 0.0 0.0
0.0 0.005343114547911872 0.004856972960603013 -0.0042110028140478995 -0.000645970146555111 0.00028730885604019794 0.0 0.0
0.0 0.0032375435811841744 0.0029810037906101835 -0.002497890409782982 -0.00048311338082720134 0.00016315819246478028 0.0 0.0
0.0 0.0016404813210185347 0.0015341313330675705 -0.0012343881177367822 -0.00029974321533078846 5.752516554434486e-05 0.0 0.0
0.0 0.0006772128973557086 0.00048469983348676523 -0.00036913490466570554 -0.00011556492882105936 -4.045761458510931e-05 0.0 0.0
0.0 0.00012121968710781115 2.3549319521802972e-05 -1.608423978085452e-05 -7.465079740948705e-06 -1.332320985706177e-05 0.0 0.0
0.0 7.643959691407455e-06 -8.152135076880254e-07 5.5050752330024e-07 2.6470598438794695e-07 -1.6623461389620144e-07 0.0 0.0
0.0 1.620431996670559e-05 -1.0325167794051234e-06 1.5790803662185434e-06 -5.465635868135674e-07 -4.771836277727916e-06 0.0 0.0
0.0 0.0014780890658341538 0.001044193526928393 -0.0004566651402153366 -0.0005875283867130555 0.002864666515842282 0.0 0.0
0.0 0.008619111452042978 0.006172817646037612 -0.008355674697337098 0.002182857051299478 -3.3845650424206965e-06 0.0 0.0
0.0 0.006079077541898778 0.004248931102646606 -0.005936287104391022 0.001687356001744415 -0.001536449130048179 0.0 0.0
0.0 0.000987841069912681 0.0005975395488042894 -0.00021610976328405906 -0.0003814297855202304 -0.0019754435414205945 0.0 0.0
0.0 1.2634912319597936e-08 -1.3678156687548327e-09 1.0394932843731892e-09 3.2832238438154863e-10 4.875689838480855e-10 0.0 0.0
0.0 2.003938728175475e-06 -1.6364473679160637e-07 1.1805723804428624e-07 4.558749874719577e-08 -1.758018646469859e-07 0.0 0.0
0.0 2.4195179057786872e-05 -8.396185159033463e-06 6.869871454040243e-06 1.5263137049930088e-06 5.007105712051304e-06 0.0 0.0
0.0 0.00041931425417099025 0.00022330015850340987 -0.00016585388444332282 -5.744627406008702e-05 2.2851127690722764e-05 0.0 0.0
0.0 0.001121441532996556 0.0011032682439225715 -0.0008715733521700308 -0.0002316948917525408 -0.00015996869480868522 0.0 0.0
0.0 0.002566715516793247 0.002364846595179209 -0.0019539008020490445 -0.0004109457931301636 -0.00038641551625340703 0.0 0.0
0.0 0.004394389783217178 0.004026735104144356 -0.003447279383530176 -0.0005794557206141792 -0.0006461143300716596 0.0 0.0
0.0 0.006761499486725358 0.00608805257998239 -0.005361281096501466 -0.0007267714834809227 -0.0009257227958686104 0.0 0.0
0.0 0.009712743680938921 0.008647116579881 -0.00778561290279264 -0.0008615036770883536 -0.0012133175500397251 0.0 0.0
0.0 0.01336790198902557 0.011902461693231565 -0.010913970204191412 -0.0009884914890401528 -0.0015150707390606665 0.0 0.0
0.0 0.018401034713981034 0.016130166714351146 -0.01502394866136943 -0.0011062180529817214 -0.0018951439924344365 0.0 0.0
0.0 0.024466097537277937 0.02164006474132881 -0.020430361222922744 -0.001209703518406054 -0.0024633351702921303 0.0 0.0
0.0 0.032460441001123795 0.028571642101997696 -0.027278979156221635 -0.0012926629457761017 -0.0032336143726321865 0.0 0.0
0.0 0.041974558393035835 0.03681416782151282 -0.035464592861319234 -0.0013495749601935606 -0.0041361033839812265 0.0 0.0
0.0 0.0525019147109152 0.04591320025714278 -0.04453240684350611 -0.0013807934136366665 -0.004968746476233259 0.0 0.0
0.0 0.06310568684817891 0.05506913103869709 -0.05367953020683569 -0.0013896008318614267 -0.005344231753755455 0.0 0.0
0.0 0.0725520155912946 0.06319879485522492 -0.061824285152987844 -0.0013745097022370646 -0.00487385622044981 0.0 0.0
0.0 0.07936294844973962 0.06903370392752042 -0.06769261106027671 -0.0013410928672436995 -0.0034591771453158573 0.0 0.0
0.0 0.08210048504622378 0.0712852880248095 -0.07002687397818752 -0.0012584140466219355 6.7886234828007375e-15 0.0 0.0
0.0 0.07936294844973735 0.0690337039275177 -0.06769261106027458 -0.0013410928672430915 0.003459177145330548 0.0 0.0
0.0 0.07255201559128396 0.06319879485521565 -0.06182428515297859 -0.0013745097022370945 0.004873856220464955 0.0 0.0
0.0 0.0631056868481646 0.05506913103868445 -0.053679530206823235 -0.001389600831861181 0.005344231753765526 0.0 0.0
0.0 0.05250191471090132 0.045913200257130596 -0.04453240684349477 -0.0013807934136358042 0.004968746476236312 0.0 0.0
0.0 0.04197455839301784 0.03681416782149699 -0.0354645928613039 -0.0013495749601931178 0.004136103383980309 0.0 0.0
0.0 0.03246044100110692 0.028571642101982715 -0.02727897915620751 -0.0012926629457752027 0.0032336143726314844 0.0 0.0
0.0 0.024466097537259264 0.021640064741312415 -0.02043036122290688 -0.0012097035184055157 0.0024633351702915895 0.0 0.0
0.0 0.01840103471396354 0.01613016671433545 -0.015023948661354739 -0.0011062180529807142 0.0018951439924324944 0.0 0.0
0.0 0.013367901989007275 0.011902461693215505 -0.01091397020417598 -0.000988491489039519 0.0015150707390581897 0.0 0.0
0.0 0.009712743680922497 0.008647116579865808 -0.007785612902778108 -0.0008615036770876928 0.0012133175500366649 0.0 0.0
0.0 0.0067614994867120715 0.006088052579969784 -0.0053612810964897405 -0.0007267714834800418 0.000925722795866144 0.0 0.0
0.0 0.004394389783206398 0.004026735104134092 -0.003447279383520877 -0.000579455720613214 0.000646114330069743 0.0 0.0
0.0 0.0025667155167843282 0.0023648465951709124 -0.0019539008020417236 -0.0004109457931291866 0.00038641551625157386 0.0 0.0
0.0 0.0011214415329915805 0.0011032682439173728 -0.0008715733521657593 -0.00023169489175161348 0.00015996869480768407 0.0 0.0
0.0 0.00041931425416785934 0.00022330015850112212 -0.0001658538844415896 -5.744627405953228e-05 -2.2851127690913993e-05 0.0 0.0
0.0 2.4195179057125007e-05 -8.39618515885243e-06 6.869871453894894e-06 1.526313704957579e-06 -5.0071057119197e-06 0.0 0.0
0.0 2.0039387278844858e-06 -1.6364473675640326e-07 1.1805723801885952e-07 4.558749873756787e-08 1.758018646516653e-07 0.0 0.0
0.0 1.2634912310065045e-08 -1.367815667713223e-09 1.0394932835817643e-09 3.283223841315191e-10 -4.875689834762404e-10 0.0 0.0
0.0 0.0009878410699084388 0.0005975395488017194 -0.0002161097632824462 -0.00038142978551927264 0.0019754435414132986 0.0 0.0
0.0 0.006079077541885279 0.004248931102636887 -0.005936287104377601 0.001687356001740716 0.0015364491300386917 0.0 0.0
0.0 0.004376931644250758 0.0029598899394188464 -0.004221913796395499 0.0012620238569766525 -0.0017223427297336663 0.0 0.0
0.0 0.0005945336752251687 0.000337986178202485 -0.0001006524891487225 -0.00023733368905376245 -0.0012972830080750994 0.0 0.0
0.0 0.0 0.0 0.0 0.0 0.0 0.0 0.0
0.0 -1.0390837439607566e-06 1.1224192617575011e-07 -8.466471595657498e-08 -2.7577210219183563e-08 -7.31158042041032e-08 0.0 0.0
0.0 1.9395109563966613e-05 -6.39117006549855e-06 4.890015414020531e-06 1.5011546514782634e-06 2.713246227100077e-06 0.0 0.0
0.0 0.0001365753528531798 6.61889625448753e-05 -4.727793483965707e-05 -1.8911027705217876e-05 1.0688543197853072e-05 0.0 0.0
0.0 0.0008375649632448868 0.0006570869101691822 -0.000507807321057045 -0.00014927958911213683 -0.00013350997894807972 0.0 0.0
0.0 0.0019188218512745047 0.0017621088903760874 -0.001432755672053607 -0.00032935321832248043 -0.0004991496895051852 0.0 0.0
0.0 0.0035192753189518975 0.003205654642441183 -0.0027047620663684653 -0.0005008925760727189 -0.0008734568661042856 0.0 0.0
0.0 0.005564268776161707 0.004997384081468817 -0.004344864174405995 -0.0006525199070628205 -0.0012714827531877862 0.0 0.0
0.0 0.008056890612219808 0.007211743405585757 -0.006423638417617797 -0.0007881049879679618 -0.0016847837111507499 0.0 0.0
0.0 0.011323945755807802 0.01000684442043745 -0.009093600968949922 -0.0009132434514875223 -0.0021226484121749933 0.0 0.0
0.0 0.015366000463385448 0.013646738619706694 -0.0126172203219625 -0.001029518297744191 -0.002655799152951713 0.0 0.0
0.0 0.02107886743015835 0.01840176179383317 -0.017273737496619816 -0.0011280242972133523 -0.0033942652269240677 0.0 0.0
0.0 0.027966758382448907 0.024456920774620403 -0.02325146055034569 -0.0012054602242747006 -0.0044044088798403415 0.0 0.0
0.0 0.03618795515172096 0.0317279144731152 -0.030467462743775174 -0.001260451729340024 -0.005610291838639096 0.0 0.0
0.0 0.04564010318371504 0.03982648304012823 -0.03853397028608562 -0.0012925127540426168 -0.006719582572988801 0.0 0.0
0.0 0.05519988220230747 0.04807391602718634 -0.046770731066356444 -0.0013031849608299059 -0.007243803600580831 0.0 0.0
0.0 0.06378823056272187 0.05550010004180106 -0.05420882898100422 -0.0012912710607967757 -0.006691147468286612 0.0 0.0
0.0 0.07006255404182392 0.060942652400210594 -0.059681540411621575 -0.0012611119885890427 -0.004702068927154207 0.0 0.0
0.0 0.07273505561233011 0.0631308374804668 -0.06198722750264801 -0.001143609977818758 8.939463752577481e-15 0.0 0.0
0.0 0.07006255404182081 0.06094265240020723 -0.059681540411618286 -0.001261111988588943 0.004702068927173352 0.0 0.0
0.0 0.06378823056271345 0.05550010004179316 -0.054208828980996715 -0.0012912710607964285 0.006691147468305266 0.0 0.0
0.0 0.05519988220229454 0.048073916027174896 -0.04677073106634494 -0.0013031849608299466 0.007243803600592739 0.0 0.0
0.0 0.04564010318370259 0.039826483040117225 -0.03853397028607555 -0.0012925127540416952 0.006719582572992317 0.0 0.0
0.0 0.03618795515170726 0.03172791447310294 -0.030467462743763666 -0.0012604517293392783 0.00561029183863809 0.0 0.0
0.0 0.027966758382432656 0.02445692077460614 -0.023251460550331914 -0.0012054602242742266 0.004404408879839263 0.0 0.0
0.0 0.021078867430142728 0.01840176179381912 -0.017273737496606552 -0.0011280242972125602 0.003394265226922827 0.0 0.0
0.0 0.015366000463371776 0.013646738619694522 -0.012617220321951339 -0.0010295182977431757 0.00265579915294966 0.0 0.0
0.0 0.011323945755791627 0.010006844420422583 -0.009093600968935741 -0.0009132434514868411 0.002122648412171184 0.0 0.0
0.0 0.00805689061220538 0.007211743405572483 -0.006423638417605237 -0.0007881049879672443 0.0016847837111465594 0.0 0.0
0.0 0.005564268776149708 0.004997384081457718 -0.0043448641743958055 -0.0006525199070619111 0.0012714827531841463 0.0 0.0
0.0 0.0035192753189424173 0.0032056546424323496 -0.002704762066360548 -0.0005008925760717982 0.000873456866101849 0.0 0.0
0.0 0.001918821851268021 0.0017621088903693224 -0.0014327556720477354 -0.00032935321832158764 0.0004991496895028728 0.0 0.0
0.0 0.0008375649632395879 0.000657086910165047 -0.0005078073210537502 -0.00014927958911129668 0.00013350997894681865 0.0 0.0
0.0 0.00013657535285130948 6.618896254403676e-05 -4.727793483904198e-05 -1.891102770499487e-05 -1.0688543197701627e-05 0.0 0.0
0.0 1.9395109563074528e-05 -6.3911700653789516e-06 4.890015413928579e-06 1.5011546514503482e-06 -2.713246227037765e-06 0.0 0.0
0.0 -1.0390837437358132e-06 1.1224192615061098e-07 -8.466471593745809e-08 -2.7577210213149207e-08 7.311580418800225e-08 0.0 0.0
0.0 0.0 0.0 0.0 0.0 0.0 0.0 0.0
0.0 0.0005945336752213896 0.0003379861782003751 -0.00010065248914735151 -0.00023733368905302398 0.0012972830080689498 0.0 0.0
0.0 0.004376931644240013 0.0029598899394104976 -0.004221913796383862 0.0012620238569733642 0.0017223427297263856 0.0 0.0
0.0 0.0029692948473662487 0.002019496116516194 -0.002916071689761605 0.0008965755732454114 -0.0015000108184951052 0.0 0.0
0.0 0.000501103994202185 0.00015382787328502615 -1.2166665325284793e-05 -0.00014166120795974124 -0.0007280368765784616 0.0 0.0
0.0 0.0 0.0 0.0 0.0 0.0 0.0 0.0
0.0 1.5028312787509444e-07 -1.5385716863678778e-08 1.1776366407597212e-08 3.6093504560833587e-09 1.561152117108147e-08 0.0 0.0
0.0 -6.257420177873815e-06 1.1492038194926294e-06 -9.100065146281228e-07 -2.391973048645003e-07 -1.6319628826674173e-06 0.0 0.0
0.0 5.422043617802782e-05 -1.4796564519336359e-05 1.2209536862706412e-05 2.5870276566300705e-06 2.5482814519584963e-05 0.0 0.0
0.0 0.0005486869796566568 0.0002982454862214826 -0.00022555597926293632 -7.268950695854648e-05 -7.769362188584122e-05 0.0 0.0
0.0 0.0013136698992182551 0.001181425684460629 -0.000940349964816957 -0.0002410757196436715 -0.00046380501243420245 0.0 0.0
0.0 0.0026751094809032757 0.002404488278456688 -0.001995148005972494 -0.00040934027248419315 -0.0009623400957272411 0.0 0.0
0.0 0.004380042666909155 0.003928953698509661 -0.0033640644267279676 -0.0005648892717816939 -0.0014555850399428864 0.0 0.0
0.0 0.006518585579800864 0.005802501138166526 -0.005100016454758296 -0.0007024846834082284 -0.0019641717364555222 0.0 0.0
0.0 0.009245477556136797 0.008154403684470457 -0.0073264195772448975 -0.0008279841072255609 -0.0024996974199082457 0.0 0.0
0.0 0.012871563344839045 0.011205069248146328 -0.010262896873312697 -0.000942172374833623 -0.003135445644769184 0.0 0.0
0.0 0.017316763963790213 0.015229030917440727 -0.014189226332677116 -0.0010398045847636076 -0.003991193809736113 0.0 0.0
0.0 0.023403314029170553 0.02038520062355434 -0.019271785661299563 -0.0011134149622547757 -0.0051448934130743015 0.0 0.0
0.0 0.03076072881714225 0.026643461664002756 -0.02547883324213581 -0.0011646284218669422 -0.006514113674887276 0.0 0.0
0.0 0.03881129710775347 0.03371401905830369 -0.032515164580535216 -0.001198854477768455 -0.007798402726152563 0.0 0.0
0.0 0.04726675771514828 0.04102950252016594 -0.039815382628149654 -0.001214119892016311 -0.008486984542600013 0.0 0.0
0.0 0.055040053012918484 0.04776195641833849 -0.046555269349802926 -0.001206687068535583 -0.007955657853423212 0.0 0.0
0.0 0.060916444032173306 0.05287198483321887 -0.05169624116431782 -0.0011757436689010163 -0.005628961580170634 0.0 0.0
0.0 0.06359439044798545 0.0550442681309517 -0.054029533313600754 -0.0010147348173509861 9.284890564731363e-15 0.0 0.0
0.0 0.06091644403216981 0.05287198483321502 -0.05169624116431371 -0.0011757436689012947 0.005628961580191949 0.0 0.0
0.0 0.055040053012910005 0.04776195641833043 -0.04655526934979496 -0.0012066870685354708 0.007955657853443482 0.0 0.0
0.0 0.047266757715138615 0.04102950252015711 -0.039815382628140925 -0.0012141198920161802 0.008486984542612954 0.0 0.0
0.0 0.03881129710774049 0.0337140190582924 -0.03251516458052447 -0.0011988544777679123 0.007798402726155976 0.0 0.0
0.0 0.03076072881713087 0.02664346166399255 -0.02547883324212616 -0.001164628421866381 0.006514113674886218 0.0 0.0
0.0 0.02340331402915702 0.02038520062354236 -0.01927178566128814 -0.0011134149622542204 0.0051448934130726345 0.0 0.0
0.0 0.017316763963776773 0.015229030917428681 -0.014189226332665755 -0.001039804584762927 0.003991193809734446 0.0 0.0
0.0 0.01287156334482612 0.011205069248134381 -0.010262896873301529 -0.0009421723748328531 0.003135445644766343 0.0 0.0
0.0 0.009245477556122882 0.00815440368445778 -0.007326419577232776 -0.0008279841072250079 0.0024996974199038395 0.0 0.0
0.0 0.006518585579788325 0.0058025011381551105 -0.005100016454747712 -0.000702484683407398 0.001964171736450502 0.0 0.0
0.0 0.004380042666899459 0.003928953698500822 -0.0033640644267200343 -0.0005648892717807878 0.0014555850399387603 0.0 0.0
0.0 0.0026751094808952574 0.002404488278449041 -0.001995148005965727 -0.00040934027248331316 0.0009623400957241843 0.0 0.0
0.0 0.00131366989921276 0.001181425684455412 -0.0009403499648125969 -0.00024107571964281552 0.00046380501243190557 0.0 0.0
0.0 0.0005486869796523848 0.00029824548621863647 -0.00022555597926073024 -7.268950695790702e-05 7.769362188459305e-05 0.0 0.0
0.0 5.422043617698608e-05 -1.4796564519365305e-05 1.2209536862711687e-05 2.587027656653957e-06 -2.548281451939269e-05 0.0 0.0
0.0 -6.257420178076551e-06 1.1492038195256457e-06 -9.100065146521024e-07 -2.391973048736288e-07 1.6319628826811448e-06 0.0 0.0
0.0 1.5028312785351273e-07 -1.538571686135809e-08 1.1776366405820481e-08 3.6093504555372983e-09 -1.561152116871207e-08 0.0 0.0
0.0 0.0 0.0 0.0 0.0 0.0 0.0 0.0
0.0 0.0005011039941983127 0.0001538278732834797 -1.2166665324255384e-05 -0.00014166120795922394 0.0007280368765736771 0.0 0.0
0.0 0.0029692948473575547 0.002019496116509439 -0.00291607168975203 0.0008965755732425897 0.0015000108184897107 0.0 0.0
0.0 0.002008046242972224 0.0012968219036699818 -0.0018862424675522994 0.000589420563882318 -0.0011377275104250714 0.0 0.0
0.0 0.0001721323895397008 5.00187865907592e-05 3.0185970746331033e-05 -8.020475733709024e-05 -0.0003548253817590271 0.0 0.0
0.0 0.0 0.0 0.0 0.0 0.0 0.0 0.0
0.0 0.0 0.0 0.0 0.0 0.0 0.0 0.0
0.0 -2.396427250707027e-06 2.0804395735217143e-07 -1.5684012239482166e-07 -5.12038349573753e-08 -3.9143577551142567e-07 0.0 0.0
0.0 -8.592312416926732e-06 -1.1511721192496687e-05 9.113453287306584e-06 2.3982679051900237e-06 1.4983717642320126e-05 0.0 0.0
0.0 0.00013952952036652623 0.00010843814705549783 -8.057002989450236e-05 -2.786811716099543e-05 -4.219459459469383e-05 0.0 0.0
0.0 0.0010080434045985278 0.0006194317612811789 -0.0004825153681163436 -0.0001369163931648362 -0.00030613599558957695 0.0 0.0
0.0 0.0017515048173429575 0.0016424797563893317 -0.0013344445625301565 -0.0003080351938591743 -0.0008881872212847584 0.0 0.0
0.0 0.0032798236984156763 0.0028870907334562924 -0.0024276030876501744 -0.00045948764580611514 -0.0014664491707908583 0.0 0.0
0.0 0.005016490514015805 0.004428389475334554 -0.0038279299509687836 -0.0006004595243657715 -0.002040230361548534 0.0 0.0
0.0 0.007216715341496075 0.006350313912683639 -0.0056227425219419055 -0.0007275713907417326 -0.002642465579947624 0.0 0.0
0.0 0.010098579905370272 0.008835417936219427 -0.007992297664040736 -0.0008431202721786934 -0.0033329940058477174 0.0 0.0
0.0 0.01400690698183563 0.012116684625942455 -0.011177144384449196 -0.000939540241493248 -0.004233481405603767 0.0 0.0
0.0 0.018925263730121586 0.016375011023582808 -0.01536239737494618 -0.0010126136486366302 -0.005441179711954988 0.0 0.0
0.0 0.02490065640281716 0.021611753488027824 -0.020548164906466642 -0.0010635885815611689 -0.006875698659401072 0.0 0.0
0.0 0.03216854889712633 0.027601108691492744 -0.02650393339705644 -0.0010971752944363034 -0.008225926402151956 0.0 0.0
0.0 0.03942153422474939 0.03393699722679642 -0.03281872342720793 -0.0011182737995884648 -0.009025237707511555 0.0 0.0
0.0 0.04617939969710848 0.03996474865312451 -0.03884615583100666 -0.0011185928221178671 -0.008629772561527811 0.0 0.0
0.0 0.051749695586352895 0.04477242247719972 -0.043686731486849824 -0.0010856909903498974 -0.006251680816667934 0.0 0.0
0.0 0.05450042330172043 0.046965467884094766 -0.04609352848706298 -0.0008719393970317812 9.378131951565116e-15 0.0 0.0
0.0 0.05174969558634996 0.044772422477196164 -0.04368673148684588 -0.0010856909903502981 0.006251680816689571 0.0 0.0
0.0 0.046179399697101504 0.03996474865311747 -0.03884615583099977 -0.0011185928221176923 0.008629772561547991 0.0 0.0
0.0 0.03942153422474188 0.03393699722678921 -0.032818723427201206 -0.0011182737995879917 0.009025237707523849 0.0 0.0
0.0 0.03216854889711568 0.02760110869148357 -0.026503933397047753 -0.0010971752944358337 0.008225926402154912 0.0 0.0
0.0 0.024900656402805983 0.021611753488018023 -0.020548164906457136 -0.0010635885815608764 0.0068756986593992205 0.0 0.0
0.0 0.018925263730109984 0.016375011023572545 -0.015362397374936367 -0.0010126136486361716 0.005441179711952555 0.0 0.0
0.0 0.014006906981825724 0.012116684625933268 -0.01117714438444054 -0.0009395402414927202 0.004233481405602196 0.0 0.0
0.0 0.010098579905358446 0.008835417936209039 -0.007992297664030932 -0.0008431202721781052 0.003332994005844225 0.0 0.0
0.0 0.00721671534148546 0.0063503139126741305 -0.0056227425219329726 -0.0007275713907411591 0.0026424655799434406 0.0 0.0
0.0 0.0050164905140047435 0.004428389475324874 -0.003827929950959973 -0.0006004595243648993 0.00204023036154257 0.0 0.0
0.0 0.0032798236984073036 0.002887090733448471 -0.002427603087643167 -0.00045948764580530394 0.0014664491707860807 0.0 0.0
0.0 0.0017515048173365165 0.0016424797563828395 -0.001334444562524577 -0.0003080351938582633 0.0008881872212810684 0.0 0.0
0.0 0.001008043404593491 0.0006194317612776118 -0.0004825153681135003 -0.00013691639316411127 0.0003061359955877048 0.0 0.0
0.0 0.00013952952036444733 0.00010843814705434217 -8.057002989361941e-05 -2.786811716072269e-05 4.2194594594168826e-05 0.0 0.0
0.0 -8.592312417554785e-06 -1.151172119216746e-05 9.113453287050392e-06 2.398267905117036e-06 -1.4983717641979413e-05 0.0 0.0
0.0 -2.3964272504754646e-06 2.080439573280844e-07 -1.5684012237658353e-07 -5.120383495149823e-08 3.914357754795417e-07 0.0 0.0
0.0 0.0 0.0 0.0 0.0 0.0 0.0 0.0
0.0 0.0 0.0 0.0 0.0 0.0 0.0 0.0
0.0 0.00017213238953679157 5.0018786589748585e-05 3.01859707470052e-05 -8.020475733675328e-05 0.0003548253817557419 0.0 0.0
0.0 0.002008046242965835 0.0012968219036649745 -0.0018862424675450816 0.0005894205638801059 0.00113772751042111 0.0 0.0
0.0 0.0011282247085482179 0.0007668494070508321 -0.001114518915560224 0.0003476695085093912 -0.0007854219572015352 0.0 0.0
0.0 4.6969532094515046e-05 -2.15353431626373e-05 6.505493000520873e-05 -4.3519586842571494e-05 -8.69462319539484e-05 0.0 0.0
0.0 0.0 0.0 0.0 0.0 0.0 0.0 0.0
0.0 0.0 0.0 0.0 0.0 0.0 0.0 0.0
0.0 -2.24616510734497e-06 1.5972522696188962e-07 -1.2573103519584418e-07 -3.3994191766034275e-08 -4.044500699970223e-07 0.0 0.0
0.0 1.7439347991669414e-06 -3.158802041960437e-06 2.5854173823003685e-06 5.733846596601543e-07 5.563703487844729e-06 0.0 0.0
0.0 1.9733695521232786e-05 -1.9131645081454386e-05 1.4747852321484488e-05 4.383792759969793e-06 3.369593438110438e-05 0.0 0.0
0.0 0.0003395332141620869 0.0002706014706389703 -0.0002072871980161955 -6.331427262277452e-05 -0.00019343403159586338 0.0 0.0
0.0 0.0013836493392969844 0.0008814756877632598 -0.0007015632883069248 -0.00017991239945633526 -0.000601280793937419 0.0 0.0
0.0 0.002106056373641415 0.0018970730533070252 -0.0015598948113595065 -0.00033717824194751935 -0.0012762703699819775 0.0 0.0
0.0 0.003597039230077399 0.003098353373731552 -0.002623997977369511 -0.0004743553963620408 -0.0018993827364945834 0.0 0.0
0.0 0.005324366817287367 0.00459999536560241 -0.003996013287967255 -0.0006039820776351567 -0.00253516100085307 0.0 0.0
0.0 0.007554440979630887 0.0065349245698869875 -0.0058119546259846515 -0.0007229699439023354 -0.0032397441523883195 0.0 0.0
0.0 0.01055129616658298 0.009099063019312409 -0.008275889630534307 -0.0008231733887780996 -0.0041266738833744395 0.0 0.0
0.0 0.014445999364729008 0.012454385085708657 -0.01155541082326492 -0.0008989742624437328 -0.005283059883573273 0.0 0.0
0.0 0.019614027664663834 0.01663920836002854 -0.015689815860747622 -0.0009493924992809151 -0.006671031462067136 0.0 0.0
0.0 0.024997545781351906 0.0215336347181746 -0.020547216787727446 -0.0009864179304471595 -0.008016756910724699 0.0 0.0
0.0 0.03135968565668425 0.026826751139811908 -0.025813207064307724 -0.0010135440755041861 -0.008872719778005338 0.0 0.0
0.0 0.03756584423807778 0.032084178171578104 -0.031061652551231132 -0.001022525620346971 -0.008669257135994512 0.0 0.0
0.0 0.04265612768567585 0.036586185086531116 -0.03559574382376558 -0.0009904412627655384 -0.006539623429161639 0.0 0.0
0.0 0.04556468452897925 0.038832472670179016 -0.03811862195708408 -0.0007138507130949585 8.370908133326083e-15 0.0 0.0
0.0 0.0426561276856741 0.03658618508652829 -0.03559574382376281 -0.000990441262765433 0.00653962342918126 0.0 0.0
0.0 0.03756584423807264 0.032084178171572435 -0.031061652551225633 -0.0010225256203468325 0.00866925713601373 0.0 0.0
0.0 0.03135968565667752 0.02682675113980547 -0.025813207064301586 -0.0010135440755038513 0.008872719778015986 0.0 0.0
0.0 0.024997545781344558 0.02153363471816822 -0.020547216787721662 -0.0009864179304465463 0.00801675691072686 0.0 0.0
0.0 0.01961402766465384 0.01663920836001989 -0.01568981586073929 -0.0009493924992805913 0.006671031462064533 0.0 0.0
0.0 0.014445999364720782 0.012454385085700988 -0.011555410823257688 -0.0008989742624432991 0.0052830598835709236 0.0 0.0
0.0 0.010551296166576084 0.009099063019305935 -0.008275889630528326 -0.0008231733887776108 0.004126673883373336 0.0 0.0
0.0 0.00755444097962156 0.006534924569878863 -0.005811954625977164 -0.0007229699439017007 0.003239744152385155 0.0 0.0
0.0 0.0053243668172787174 0.004599995365594952 -0.003996013287960288 -0.0006039820776346634 0.002535161000849 0.0 0.0
0.0 0.003597039230068963 0.0030983533737241804 -0.002623997977363031 -0.00047435539636114907 0.0018993827364887127 0.0 0.0
0.0 0.0021060563736340385 0.0018970730533005263 -0.0015598948113537542 -0.00033717824194677104 0.001276270369977175 0.0 0.0
0.0 0.0013836493392905466 0.0008814756877587621 -0.000701563288303255 -0.00017991239945550747 0.0006012807939342983 0.0 0.0
0.0 0.00033953321415951216 0.000270601470637193 -0.00020728719801482075 -6.331427262237171e-05 0.00019343403159475202 0.0 0.0
0.0 1.9733695520544555e-05 -1.9131645081160262e-05 1.474785232123934e-05 4.383792759920881e-06 -3.369593438059783e-05 0.0 0.0
0.0 1.7439347981776886e-06 -3.1588020418934442e-06 2.5854173822508285e-06 5.73384659642539e-07 -5.563703487736307e-06 0.0 0.0
0.0 -2.246165107199524e-06 1.5972522694916917e-07 -1.257310351860552e-07 -3.3994191763110714e-08 4.0445006996736767e-07 0.0 0.0
0.0 0.0 0.0 0.0 0.0 0.0 0.0 0.0
0.0 0.0 0.0 0.0 0.0 0.0 0.0 0.0
0.0 4.6969532092603116e-05 -2.1535343163121356e-05 6.505493000548894e-05 -4.351958684236781e-05 8.694623195211087e-05 0.0 0.0
0.0 0.0011282247085436317 0.0007668494070472654 -0.001114518915555033 0.0003476695085077678 0.0007854219571984199 0.0 0.0
0.0 0.000877428347954429 0.0003105512019070973 -0.0004495262190843192 0.0001389750171772218 -0.000348915535003612 0.0 0.0
0.0 -8.407782569460617e-05 -3.191534939953769e-05 4.938346944429177e-05 -1.7468120044754074e-05 2.3263538689755018e-05 0.0 0.0
0.0 0.0 0.0 0.0 0.0 0.0 0.0 0.0
0.0 0.0 0.0 0.0 0.0 0.0 0.0 0.0
0.0 -6.002912790152338e-07 2.361648622678751e-08 -1.719295850391252e-08 -6.423527722869078e-09 -1.2456266137436325e-07 0.0 0.0
0.0 -2.410801059798561e-06 6.764820254327509e-08 -5.895504880862399e-08 -8.693153734671356e-09 1.5672202493021113e-07 0.0 0.0
0.0 -8.896217021716884e-06 -1.4598505093257524e-05 1.1644503079266368e-05 2.954002013991053e-06 3.519278136348044e-05 0.0 0.0
0.0 5.250578334745125e-05 4.442616843651015e-05 -3.446666039727066e-05 -9.959508039239564e-06 -6.860737084796365e-05 0.0 0.0
0.0 0.00048522798554960343 0.0003505755994935998 -0.0002749971425669514 -7.557845692664817e-05 -0.0003477146834832791 0.0 0.0
0.0 0.001462191158175809 0.0009469064568189844 -0.0007630749773296144 -0.00018383147948936946 -0.0008319785337681776 0.0 0.0
0.0 0.0022723242983660485 0.0018309571698949 -0.001514795213848053 -0.00031616195604684686 -0.0015091246370977263 0.0 0.0
0.0 0.0034817579579325946 0.0029272842557017224 -0.002482253796093879 -0.00044503045960784556 -0.002156720308690221 0.0 0.0
0.0 0.005142000976058353 0.004325638226905066 -0.0037585147942896056 -0.0005671234326154573 -0.0028412424239463996 0.0 0.0
0.0 0.007316933365192236 0.006189297694008068 -0.005514619828219603 -0.0006746778657884708 -0.0036566814811127553 0.0 0.0
0.0 0.010308595374594061 0.00865091465288218 -0.007892383502962893 -0.0007585311499192853 -0.0046909542382672234 0.0 0.0
0.0 0.013984182213665527 0.011783984506986941 -0.010967572801835282 -0.0008164117051516545 -0.005910197994839993 0.0 0.0
0.0 0.018595235343702016 0.015525464946085255 -0.014668847304232388 -0.0008566176418528689 -0.0071445497194719135 0.0 0.0
0.0 0.023459772713403264 0.01972440817807663 -0.01883394203731001 -0.0008904661407666095 -0.008010145886150916 0.0 0.0
0.0 0.02837358748806124 0.024131784155895283 -0.023217482614739673 -0.0009143015411556181 -0.008036538221830003 0.0 0.0
0.0 0.0332201898283619 0.028266492959602842 -0.027377565348789882 -0.0008889276108129597 -0.006438017938482314 0.0 0.0
0.0 0.03639183651839932 0.030587361561237127 -0.03005074519190397 -0.0005366163693331727 6.918510903064501e-15 0.0 0.0
0.0 0.0332201898283605 0.02826649295960019 -0.027377565348787172 -0.0008889276108130297 0.0064380179384986354 0.0 0.0
0.0 0.028373587488056778 0.024131784155890238 -0.02321748261473451 -0.0009143015411557052 0.008036538221846256 0.0 0.0
0.0 0.02345977271339727 0.019724408178071022 -0.018833942037304742 -0.0008904661407663061 0.008010145886159335 0.0 0.0
0.0 0.018595235343696198 0.015525464946080089 -0.0146688473042279 -0.0008566176418521805 0.007144549719472711 0.0 0.0
0.0 0.013984182213658134 0.011783984506980792 -0.01096757280182951 -0.0008164117051512877 0.005910197994837101 0.0 0.0
0.0 0.010308595374587663 0.008650914652876538 -0.007892383502957507 -0.0007585311499190305 0.004690954238264929 0.0 0.0
0.0 0.007316933365187163 0.006189297694003527 -0.005514619828215575 -0.0006746778657879539 0.003656681481111516 0.0 0.0
0.0 0.005142000976052247 0.004325638226899807 -0.003758514794284829 -0.0005671234326149761 0.002841242423943805 0.0 0.0
0.0 0.0034817579579260595 0.0029272842556959137 -0.0024822537960884636 -0.000445030459607449 0.0021567203086862025 0.0 0.0
0.0 0.0022723242983600164 0.0018309571698899014 -0.001514795213843865 -0.00031616195604603495 0.0015091246370925499 0.0 0.0
0.0 0.001462191158170461 0.0009469064568149836 -0.0007630749773262694 -0.0001838314794887152 0.0008319785337645198 0.0 0.0
0.0 0.00048522798554639305 0.00035057559949142427 -0.00027499714256524533 -7.557845692617852e-05 0.00034771468348135696 0.0 0.0
0.0 5.250578334631814e-05 4.4426168435942844e-05 -3.446666039683509e-05 -9.959508039107884e-06 6.860737084740312e-05 0.0 0.0
0.0 -8.896217022111015e-06 -1.4598505092967654e-05 1.1644503079043473e-05 2.9540020139240994e-06 -3.51927813630216e-05 0.0 0.0
0.0 -2.410801060282343e-06 6.764820256298308e-08 -5.895504882425269e-08 -8.693153738693737e-09 -1.5672202483887255e-07 0.0 0.0
0.0 -6.002912788349186e-07 2.3616486216782317e-08 -1.719295849616168e-08 -6.423527720625745e-09 1.2456266134057105e-07 0.0 0.0
0.0 0.0 0.0 0.0 0.0 0.0 0.0 0.0
0.0 0.0 0.0 0.0 0.0 0.0 0.0 0.0
0.0 -8.407782569504363e-05 -3.191534939941784e-05 4.9383469444046324e-05 -1.7468120044628602e-05 -2.326353868988306e-05 0.0 0.0
0.0 0.0008774283479495883 0.0003105512019047747 -0.00044952621908097575 0.0001389750171762019 0.0003489155350010747 0.0 0.0
0.0 0.00023215646328632528 9.326027695259871e-05 -0.00013669833968003547 4.3438062727437475e-05 -0.00012555180802284105 0.0 0.0
0.0 -3.2630830989760596e-05 -1.407427265946998e-05 1.996992797956978e-05 -5.89565532009985e-06 2.119491666546423e-05 0.0 0.0
0.0 2.687247509941338e-06 -5.102850825681175e-09 1.2829916012482974e-08 -7.727065186800707e-09 5.790653786062157e-07 0.0 0.0
0.0 0.0 0.0 0.0 0.0 0.0 0.0 0.0
0.0 -2.859128898207967e-07 9.242535231306326e-09 -7.084965890506323e-09 -2.157569340802201e-09 -5.122909250329696e-08 0.0 0.0
0.0 -7.917051164726007e-06 5.065787489492043e-07 -3.930288190947405e-07 -1.1354992985445604e-07 -2.198697614672992e-06 0.0 0.0
0.0 8.80743769519333e-06 -3.4409342733718425e-06 2.761338756918545e-06 6.795955164532865e-07 1.556600573096123e-05 0.0 0.0
0.0 3.640383214051655e-05 -2.0220089155836444e-05 1.5644784391968192e-05 4.575304763868255e-06 4.432598754535908e-05 0.0 0.0
0.0 0.0001002252134247387 2.848762322125794e-05 -2.34753900210552e-05 -5.012233200202756e-06 -0.0001062705267799152 0.0 0.0
0.0 0.0004928536176310633 0.00025039471728838535 -0.00020368216352398123 -4.671255376440379e-05 -0.00038206448270974104 0.0 0.0
0.0 0.0009818419756542217 0.0007291976669240374 -0.0005956877186277228 -0.0001335099482963144 -0.0009192311592631324 0.0 0.0
0.0 0.0018166033002262592 0.001378052344531725 -0.0011453022286195007 -0.000232750115912224 -0.0014879625149293201 0.0 0.0
0.0 0.002872452266937267 0.002251685009035218 -0.0019048165491517078 -0.00034686845988350857 -0.002120585336089242 0.0 0.0
0.0 0.004285315998826362 0.0034345482398621115 -0.002974706958576558 -0.00045984128128555036 -0.0028333294518315616 0.0 0.0
0.0 0.0062443796285681 0.005024355703300965 -0.004465914695273146 -0.00055844100802782 -0.003677169923882216 0.0 0.0
0.0 0.00882828359583105 0.007093164812711911 -0.006461345709335415 -0.0006318191033764935 -0.004661748389506715 0.0 0.0
0.0 0.011993159878277425 0.009659662925878418 -0.008972184492810299 -0.0006874784330681108 -0.00569288200946807 0.0 0.0
0.0 0.015516333200655288 0.012700310641587253 -0.011969182826315395 -0.0007311278152718652 -0.006522801359371045 0.0 0.0
0.0 0.01948017848949249 0.01612529310512484 -0.015354566012050081 -0.0007707270930747496 -0.006707371894182804 0.0 0.0
0.0 0.023893141749032003 0.01976799017399571 -0.01899522429664176 -0.0007727658773539294 -0.005799175385197374 0.0 0.0
0.0 0.027069774003867526 0.022175523530757118 -0.021836851243670286 -0.00033867228708683514 5.072114603321687e-15 0.0 0.0
0.0 0.023893141749031253 0.019767990173993492 -0.018995224296639218 -0.000772765877354274 0.005799175385210397 0.0 0.0
0.0 0.01948017848949069 0.016125293105122052 -0.015354566012047524 -0.0007707270930745337 0.006707371894195468 0.0 0.0
0.0 0.015516333200651227 0.012700310641583596 -0.011969182826312144 -0.0007311278152714395 0.006522801359377151 0.0 0.0
0.0 0.011993159878272559 0.009659662925874559 -0.008972184492806899 -0.000687478433067655 0.005692882009467173 0.0 0.0
0.0 0.008828283595826157 0.0070931648127079945 -0.006461345709331707 -0.0006318191033762834 0.004661748389503923 0.0 0.0
0.0 0.0062443796285654345 0.005024355703298698 -0.004465914695271032 -0.000558441008027667 0.003677169923881203 0.0 0.0
0.0 0.004285315998822481 0.0034345482398589226 -0.0029747069585737973 -0.0004598412812851247 0.0028333294518298226 0.0 0.0
0.0 0.0028724522669353555 0.002251685009033265 -0.0019048165491500017 -0.0003468684598832621 0.002120585336087892 0.0 0.0
0.0 0.0018166033002217556 0.0013780523445286142 -0.0011453022286168862 -0.00023275011591172812 0.0014879625149259775 0.0 0.0
0.0 0.0009818419756502871 0.0007291976669207862 -0.0005956877186250389 -0.00013350994829574764 0.0009192311592588105 0.0 0.0
0.0 0.0004928536176280466 0.00025039471728669735 -0.0002036821635225881 -4.6712553764109e-05 0.0003820644827077335 0.0 0.0
0.0 0.00010022521342331072 2.8487623220746108e-05 -2.347539002063467e-05 -5.012233200111633e-06 0.000106270526778802 0.0 0.0
0.0 3.640383213962763e-05 -2.0220089155747817e-05 1.5644784391903902e-05 4.575304763843988e-06 -4.432598754541107e-05 0.0 0.0
0.0 8.807437694688767e-06 -3.4409342732826702e-06 2.761338756847447e-06 6.795955164353043e-07 -1.5566005730582912e-05 0.0 0.0
0.0 -7.917051165350554e-06 5.065787489652055e-07 -3.9302881910709935e-07 -1.1354992985814308e-07 2.1986976147832474e-06 0.0 0.0
0.0 -2.8591288959316563e-07 9.24253522329496e-09 -7.084965884329158e-09 -2.15756933896141e-09 5.122909245679573e-08 0.0 0.0
0.0 0.0 0.0 0.0 0.0 0.0 0.0 0.0
0.0 2.6872475094720084e-06 -5.102850824751229e-09 1.2829916010140326e-08 -7.727065185388107e-09 -5.790653784988758e-07 0.0 0.0
0.0 -3.263083098970761e-05 -1.4074272659106848e-05 1.9969927979123782e-05 -5.89565532001694e-06 -2.1194916664690257e-05 0.0 0.0
0.0 0.00023215646328368633 9.326027695161774e-05 -0.00013669833967865476 4.343806272703705e-05 0.0001255518080214862 0.0 0.0
0.0 5.6381539920749e-05 -1.2648991608966444e-05 1.814981045325725e-05 -5.500818844290668e-06 2.2444810365206566e-05 0.0 0.0
0.0 -7.947315690538002e-06 1.7458631717971713e-06 -2.484663007130149e-06 7.38799835332951e-07 -3.0647951255998245e-06 0.0 0.0
0.0 1.1618096924243602e-07 8.582064136727955e-10 -7.477371182372535e-10 -1.1046929543455221e-10 2.323590659808538e-08 0.0 0.0
0.0 5.102853194010992e-07 6.51326980736861e-09 -5.92521034271967e-09 -5.880594646505873e-10 1.0424366580308873e-07 0.0 0.0
0.0 -8.593099250458052e-07 3.008918804294092e-08 -2.426669608445876e-08 -5.822491958475931e-09 -2.039176300560015e-07 0.0 0.0
0.0 2.5641008229970374e-06 -2.518760980933328e-08 1.27120707934381e-08 1.24755390158696e-08 4.767190958111e-07 0.0 0.0
0.0 4.697153389238002e-06 -1.3393677169838527e-06 1.045730523619896e-06 2.936371933639757e-07 1.183017774422628e-05 0.0 0.0
0.0 9.5931899030228e-06 -2.317418869392313e-06 2.054287449937292e-06 2.6313141945500097e-07 9.29137290789445e-06 0.0 0.0
0.0 5.489999837955806e-05 6.332364709714695e-06 -5.486529611901941e-06 -8.458350978126409e-07 -5.784653520487003e-05 0.0 0.0
0.0 0.0001146685849432438 1.3215506664104905e-05 -1.1044137906520006e-05 -2.1713687575850454e-06 -0.0001540710010848191 0.0 0.0
0.0 0.00034210437191942763 4.492759135207586e-05 -4.090960957842443e-05 -4.017981773651441e-06 -0.00029924361492542664 0.0 0.0
0.0 0.0005206721473499199 0.00021937601543209532 -0.0001925812876174135 -2.679472781468166e-05 -0.0007061010245863317 0.0 0.0
0.0 0.0009417696659364266 0.0004865147600623628 -0.0004308752808733832 -5.563947918897916e-05 -0.001172742517264472 0.0 0.0
0.0 0.0016517208780670585 0.0009580215293826882 -0.00084656247943407 -0.0001114590499486188 -0.001777957725230886 0.0 0.0
0.0 0.0026697688489335297 0.001703855266824406 -0.0015117934022181455 -0.00019206186460625865 -0.00249711812465456 0.0 0.0
0.0 0.004063831720976451 0.0027398606035130336 -0.0024652093337325784 -0.0002746512697804558 -0.003294570614043856 0.0 0.0
0.0 0.005913582799925857 0.004104181417717148 -0.003736586022565039 -0.00036759539515210946 -0.004175202189954632 0.0 0.0
0.0 0.008378189150434326 0.005934682824417421 -0.005479668839793695 -0.0004550139846237241 -0.005012106204961251 0.0 0.0
0.0 0.011226024376576296 0.008267225627650978 -0.007744168403829098 -0.0005230572238218907 -0.005316822667259486 0.0 0.0
0.0 0.014422740525957396 0.011159796335496486 -0.01056968813574508 -0.0005901081997513999 -0.00466818466806697 0.0 0.0
0.0 0.018363439759431357 0.01358364932361494 -0.013483391770767269 -0.00010025755284767442 3.321128094757597e-15 0.0 0.0
0.0 0.014422740525959182 0.011159796335496084 -0.010569688135744574 -0.0005901081997515061 0.004668184668076983 0.0 0.0
0.0 0.011226024376576086 0.008267225627649883 -0.007744168403828162 -0.0005230572238217177 0.005316822667268713 0.0 0.0
0.0 0.008378189150430286 0.005934682824414374 -0.005479668839790846 -0.000455013984623527 0.0050121062049631095 0.0 0.0
0.0 0.00591358279992169 0.004104181417714686 -0.0037365860225628553 -0.0003675953951518348 0.0041752021899527205 0.0 0.0
0.0 0.004063831720973986 0.002739860603511388 -0.002465209333731157 -0.0002746512697802313 0.003294570614041193 0.0 0.0
0.0 0.0026697688489326944 0.0017038552668231352 -0.0015117934022172055 -0.0001920618646059301 0.002497118124654513 0.0 0.0
0.0 0.0016517208780653313 0.0009580215293819131 -0.0008465624794334916 -0.00011145904994842164 0.0017779577252297245 0.0 0.0
0.0 0.0009417696659357822 0.0004865147600620916 -0.00043087528087331213 -5.563947918877969e-05 0.0011727425172630946 0.0 0.0
0.0 0.0005206721473480377 0.00021937601543117928 -0.0001925812876166035 -2.6794727814575776e-05 0.0007061010245838514 0.0 0.0
0.0 0.000342104371916988 4.492759135143932e-05 -4.090960957785457e-05 -4.017981773584578e-06 0.00029924361492277593 0.0 0.0
0.0 0.00011466858494279198 1.321550666423311e-05 -1.1044137906623412e-05 -2.1713687576096415e-06 0.0001540710010847525 0.0 0.0
0.0 5.48999983791304e-05 6.332364709659018e-06 -5.486529611860419e-06 -8.458350977986063e-07 5.784653520445378e-05 0.0 0.0
0.0 9.59318990256635e-06 -2.3174188694155876e-06 2.0542874499576682e-06 2.6313141945789935e-07 -9.29137290810901e-06 0.0 0.0
0.0 4.697153388779252e-06 -1.3393677169535916e-06 1.0457305235961552e-06 2.936371933574379e-07 -1.183017774394476e-05 0.0 0.0
0.0 2.5641008225426575e-06 -2.5187609804060635e-08 1.2712070789955e-08 1.2475539014106878e-08 -4.7671909570504365e-07 0.0 0.0
0.0 -8.593099251298585e-07 3.0089188041248155e-08 -2.4266696082362417e-08 -5.822491958886435e-09 2.039176300699479e-07 0.0 0.0
0.0 5.10285319165181e-07 6.513269804796147e-09 -5.925210340276538e-09 -5.880594645190752e-10 -1.0424366575315331e-07 0.0 0.0
0.0 1.1618096919774148e-07 8.582064134650877e-10 -7.477371179866634e-10 -1.10469295481854e-10 -2.3235906587843288e-08 0.0 0.0
0.0 -7.947315690451314e-06 1.7458631717798059e-06 -2.4846630071103005e-06 7.387998353305164e-07 3.0647951255960447e-06 0.0 0.0
0.0 5.63815399194022e-05 -1.2648991608881505e-05 1.81498104531403e-05 -5.500818844258925e-06 -2.244481036502374e-05 0.0 0.0
0.0 -5.770224573576598e-06 4.5748005970636533e-07 -6.591559002618483e-07 2.0167584055543904e-07 -9.144510091070884e-07 0.0 0.0
0.0 -5.128933488498502e-07 -6.481653911065706e-08 8.450844604490936e-08 -1.9691906934246475e-08 -1.5101328654696775e-07 0.0 0.0
0.0 3.709976115374427e-06 9.930774553371727e-09 8.51480407667355e-09 -1.844557863004745e-08 7.998850565718866e-07 0.0 0.0
0.0 1.2405663355666563e-06 2.296314495505155e-08 -1.9338392250235115e-08 -3.624752704813151e-09 2.542797602654144e-07 0.0 0.0
0.0 7.821947515459587e-08 1.9553413154148733e-08 -1.741372149231297e-08 -2.139691661835925e-09 -6.284691891100786e-09 0.0 0.0
0.0 1.3548064263496657e-06 2.027879397800174e-09 -1.7982440208853433e-09 -2.29635376911699e-10 1.8888268355036466e-07 0.0 0.0
0.0 6.763426572610224e-06 4.7692352737435706e-08 -5.660007681915184e-08 8.907724081705368e-09 1.2442052529481826e-05 0.0 0.0
0.0 4.995747121079334e-06 -6.251395657142309e-08 5.8998889037317286e-08 3.5150675341174502e-09 -6.939690758731864e-06 0.0 0.0
0.0 6.276851451292838e-05 -2.0472787671949248e-09 3.421698283499577e-09 -1.3744195162914174e-09 -2.1672444954229527e-05 0.0 0.0
0.0 9.397053084881502e-05 6.48671031181575e-08 -5.930822024361829e-08 -5.558882874534968e-09 -0.00014295315401816294 0.0 0.0
0.0 0.00023047657170981143 1.1529199370015706e-07 -1.1072664937638338e-07 -4.565344323769442e-09 -0.00022407421945605622 0.0 0.0
0.0 0.00027096011567050003 -6.490269875204254e-08 2.5203891177857272e-08 3.9698807574208444e-08 -0.0004716245970998282 0.0 0.0
0.0 0.00042547595958054347 3.4985299032510625e-07 -2.9764530488825797e-07 -5.220768543682477e-08 -0.0007486884879800884 0.0 0.0
0.0 0.0006033678272240276 4.6877682722256677e-07 6.856831821309075e-08 -5.373451454355593e-07 -0.0011547583301027551 0.0 0.0
0.0 0.0008813854175373636 -6.554349948695027e-06 6.413831474578853e-06 1.4051847411596438e-07 -0.0017717844337675189 0.0 0.0
0.0 0.0012375035859135235 -2.6800219268909806e-05 1.9807867725816136e-05 6.992351543093867e-06 -0.002691208854465552 0.0 0.0
0.0 0.0019840090329852583 0.00011619794291157026 -0.00015132287827457152 3.5124935363000885e-05 -0.0037904203445334383 0.0 0.0
0.0 0.0031110846410429644 0.00046955550046131277 -0.0005431811606646837 7.362566020337103e-05 -0.004867722430811918 0.0 0.0
0.0 0.004708490398042666 0.001186250903340755 -0.0013133179841087965 0.00012706708076804104 -0.005787520074136448 0.0 0.0
0.0 0.0069835445453524944 0.0028438893086552104 -0.00276638315694383 -7.750615171138053e-05 -0.005831136182335036 0.0 0.0
0.0 0.012123681509357467 0.0056300244562629805 -0.005863273495396925 0.0002332490391339455 5.465896832368422e-15 0.0 0.0
0.0 0.006983544545355822 0.002843889308655336 -0.0027663831569440037 -7.750615171133231e-05 0.00583113618234319 0.0 0.0
0.0 0.004708490398043156 0.0011862509033405042 -0.001313317984108599 0.00012706708076809268 0.005787520074139973 0.0 0.0
0.0 0.0031110846410392088 0.0004695555004601875 -0.0005431811606632695 7.362566020308171e-05 0.0048677224308089455 0.0 0.0
0.0 0.0019840090329821015 0.00011619794291102762 -0.00015132287827399245 3.5124935362964625e-05 0.003790420344529667 0.0 0.0
0.0 0.0012375035859126767 -2.6800219269532355e-05 1.980786772646072e-05 6.992351543072135e-06 0.0026912088544634753 0.0 0.0
0.0 0.0008813854175369422 -6.554349948510008e-06 6.413831474400312e-06 1.4051847410977765e-07 0.0017717844337663087 0.0 0.0
0.0 0.0006033678272239487 4.6877682731606566e-07 6.856831812391173e-08 -5.373451454400316e-07 0.001154758330101735 0.0 0.0
0.0 0.00042547595957872337 3.498529904613447e-07 -2.9764530499861916e-07 -5.220768546270862e-08 0.0007486884879768423 0.0 0.0
0.0 0.0002709601156698696 -6.490269865907236e-08 2.5203891103166092e-08 3.96988075558978e-08 0.000471624597098381 0.0 0.0
0.0 0.00023047657170806164 1.1529199375140764e-07 -1.1072664942283044e-07 -4.565344328548402e-09 0.00022407421945375196 0.0 0.0
0.0 9.397053084858259e-05 6.486710311929336e-08 -5.930822024515269e-08 -5.558882874133474e-09 0.00014295315401799137 0.0 0.0
0.0 6.276851451259063e-05 -2.0472787645763224e-09 3.4216982785529047e-09 -1.3744195139792292e-09 2.167244495404689e-05 0.0 0.0
0.0 4.99574712068134e-06 -6.251395657342092e-08 5.899888904077641e-08 3.5150675326586213e-09 6.9396907587393915e-06 0.0 0.0
0.0 6.7634265721087825e-06 4.769235273515655e-08 -5.66000768169076e-08 8.907724081759155e-09 -1.2442052529272331e-05 0.0 0.0
0.0 1.3548064257701182e-06 2.027879393269517e-09 -1.7982440164533427e-09 -2.2963537682250245e-10 -1.8888268341974747e-07 0.0 0.0
0.0 7.821947466927294e-08 1.955341314824257e-08 -1.741372148698716e-08 -2.13969166125215e-09 6.284691988554587e-09 0.0 0.0
0.0 1.2405663350389034e-06 2.2963144945294832e-08 -1.9338392241929008e-08 -3.624752703366745e-09 -2.542797601527055e-07 0.0 0.0
0.0 3.709976114990924e-06 9.930774554279981e-09 8.514804073223992e-09 -1.844557862749463e-08 -7.998850564801681e-07 0.0 0.0
0.0 -5.128933485621724e-07 -6.481653911412669e-08 8.450844605188447e-08 -1.969190693777261e-08 1.5101328649136882e-07 0.0 0.0
0.0 -5.77022457406976e-06 4.574800597330516e-07 -6.591559003024465e-07 2.0167584056947556e-07 9.144510091531005e-07 0.0 0.0
0.0 0.0 0.0 0.0 0.0 0.0 0.0 0.0
0.0 9.81032028272451e-08 7.113588084771785e-11 3.4792942669783316e-10 -4.190653075455392e-10 2.3025966203362916e-08 0.0 0.0
0.0 -8.218189414007199e-07 -1.1978300967229744e-08 8.478785190135025e-09 3.499515777094716e-09 -1.7884910693170967e-07 0.0 0.0
0.0 1.490317100255079e-06 4.241911744592017e-08 -3.470315010590186e-08 -7.71596734001991e-09 3.1235457426870176e-07 0.0 0.0
0.0 -9.046999604837317e-07 -2.5830668004379132e-08 1.7516571732222505e-08 8.314096272158702e-09 -2.619781416867651e-07 0.0 0.0
0.0 -2.317119553585244e-06 -2.3649814574654395e-07 1.90600827251678e-07 4.589731849489867e-08 -1.1232783454318814e-06 0.0 0.0
0.0 1.9814739206038323e-05 2.2973164268606372e-06 -1.8300889719050477e-06 -4.672274549556652e-07 1.72412557044092e-05 0.0 0.0
0.0 1.2581756779261714e-05 2.3506364256216602e-06 -2.0572592627036985e-06 -2.933771629179441e-07 1.0254225529443508e-05 0.0 0.0
0.0 5.5616574145782435e-05 -6.308933205338248e-06 5.479302971372411e-06 8.296302339657654e-07 -5.7770263902565956e-05 0.0 0.0
0.0 0.00011342169929928414 -1.3066267703585851e-05 1.0909707556578752e-05 2.15656014700698e-06 -0.00015348822117795008 0.0 0.0
0.0 0.00033823601618166875 -4.4747536630475086e-05 4.07228319210738e-05 4.024704709401433e-06 -0.0002997121029150485 0.0 0.0
0.0 0.0005306250997627209 -0.00021867345414722174 0.00019196841856411462 2.6705035583107196e-05 -0.0007020047530059278 0.0 0.0
0.0 0.0009452949257872771 -0.00048712309523235857 0.0004313708651979797 5.575223003437837e-05 -0.0011727319913218206 0.0 0.0
0.0 0.0016656592360922786 -0.0009660423924613415 0.0008541133971962691 0.00011192899526507237 -0.0017734481138835497 0.0 0.0
0.0 0.0026636691820464877 -0.0017058019420305714 0.0015177979524804456 0.0001880039895501246 -0.0024944809381660465 0.0 0.0
0.0 0.003932658068040217 -0.0026148197926386873 0.0023679248503746817 0.00024689494226400505 -0.0033656330569942134 0.0 0.0
0.0 0.005259457772184101 -0.0035111942363338098 0.0032399735869036057 0.0002712206494302048 -0.004460929022932089 0.0 0.0
0.0 0.00648889446704681 -0.004048345915116039 0.0038103009112773452 0.0002380450038386892 -0.005804930568494475 0.0 0.0
0.0 0.006782396245563085 -0.0037923779123784354 0.0036544504751029262 0.0001379274372755148 -0.0074247687077582175 0.0 0.0
0.0 0.005974176279958936 -0.00282012242283407 0.002718583973447283 0.00010153844938678362 -0.008813781654341655 0.0 0.0
0.0 0.011377553963916463 -0.0016588323798558144 0.0006253928094166298 0.0010334395704391839 7.448035244106421e-15 0.0 0.0
0.0 0.005974176279962628 -0.002820122422834722 0.002718583973448028 0.00010153844938669247 0.008813781654347758 0.0 0.0
0.0 0.006782396245563578 -0.003792377912378418 0.0036544504751028807 0.00013792743727554114 0.007424768707762629 0.0 0.0
0.0 0.00648889446704403 -0.004048345915114387 0.0038103009112760034 0.00023804500383837923 0.005804930568494717 0.0 0.0
0.0 0.005259457772180299 -0.0035111942363308117 0.0032399735869010314 0.0002712206494297839 0.004460929022929638 0.0 0.0
0.0 0.0039326580680362445 -0.002614819792635463 0.002367924850371768 0.00024689494226369486 0.003365633056991907 0.0 0.0
0.0 0.0026636691820440565 -0.0017058019420280095 0.0015177979524783158 0.00018800398954969355 0.0024944809381637362 0.0 0.0
0.0 0.0016656592360887055 -0.0009660423924587315 0.0008541133971939905 0.00011192899526474179 0.0017734481138812488 0.0 0.0
0.0 0.0009452949257843987 -0.0004871230952306327 0.0004313708651965137 5.575223003411879e-05 0.0011727319913187114 0.0 0.0
0.0 0.0005306250997592374 -0.0002186734541455324 0.00019196841856262772 2.670503558290482e-05 0.0007020047530026152 0.0 0.0
0.0 0.0003382360161783266 -4.474753662946546e-05 4.072283192019781e-05 4.024704709267526e-06 0.0002997121029118993 0.0 0.0
0.0 0.00011342169929880449 -1.3066267703703707e-05 1.0909707556647028e-05 2.1565601470566447e-06 0.00015348822117770665 0.0 0.0
0.0 5.561657414521011e-05 -6.308933205267771e-06 5.479302971321574e-06 8.296302339461857e-07 5.7770263902093216e-05 0.0 0.0
0.0 1.2581756778875775e-05 2.350636425606758e-06 -2.057259262688179e-06 -2.9337716291857893e-07 -1.0254225529476285e-05 0.0 0.0
0.0 1.9814739205398546e-05 2.2973164268430033e-06 -1.8300889718913e-06 -4.6722745495169595e-07 -1.7241255704200625e-05 0.0 0.0
0.0 -2.317119554172646e-06 -2.3649814576559933e-07 1.9060082726708061e-07 4.589731849852093e-08 1.1232783455838175e-06 0.0 0.0
0.0 -9.046999610048385e-07 -2.5830668016928637e-08 1.7516571743071845e-08 8.314096273852852e-09 2.619781417877792e-07 0.0 0.0
0.0 1.4903170996868914e-06 4.241911743258753e-08 -3.470315009501489e-08 -7.715967337572316e-09 -3.123545741501756e-07 0.0 0.0
0.0 -8.218189417629492e-07 -1.1978300966845621e-08 8.478785187802506e-09 3.499515779040467e-09 1.788491070000406e-07 0.0 0.0
0.0 9.810320297927764e-08 7.113588205546141e-11 3.479294262413223e-10 -4.190653082960448e-10 -2.3025966233100307e-08 0.0 0.0
0.0 0.0 0.0 0.0 0.0 0.0 0.0 0.0
0.0 0.0 0.0 0.0 0.0 0.0 0.0 0.0
0.0 2.1048115274896888e-08 1.779303116025321e-10 -7.692157692559785e-11 -1.0100873467691951e-10 4.212842558405787e-09 0.0 0.0
0.0 -6.96977332642471e-07 -2.1540156773917086e-08 1.7601164642050715e-08 3.938992131864946e-09 -1.437910681489006e-07 0.0 0.0
0.0 -9.073015980962664e-07 -5.68571413310864e-08 4.755545022616241e-08 9.301691104915119e-09 -2.3445117856962518e-07 0.0 0.0
0.0 6.939413693383549e-06 2.566932478728383e-07 -2.1773015307303336e-07 -3.8963094799756134e-08 1.504890408802535e-06 0.0 0.0
0.0 1.623493905128341e-05 1.0548410842745289e-06 -8.490869493732934e-07 -2.0575413490122274e-07 5.030779387432946e-06 0.0 0.0
0.0 -1.611284177994422e-05 1.1161564706154188e-06 -9.860580128765585e-07 -1.3009845773883568e-07 4.464813590204065e-06 0.0 0.0
0.0 4.359147279154238e-05 1.9621140116094844e-05 -1.5153479134794108e-05 -4.467660981300863e-06 4.261456314072584e-05 0.0 0.0
0.0 9.909887066263321e-05 -2.8391159744615715e-05 2.339624617641465e-05 4.994913568201028e-06 -0.0001062523590656027 0.0 0.0
0.0 0.0004898983148501932 -0.0002491623995345806 0.00020262295821987694 4.653944131470331e-05 -0.0003800466133421997 0.0 0.0
0.0 0.0009798558589141791 -0.000728299282232982 0.0005948843801196747 0.00013341490211330712 -0.0009181053616629718 0.0 0.0
0.0 0.0018163748747958529 -0.0013774831371166725 0.0011447243401236863 0.000232758796992986 -0.00148835445090683 0.0 0.0
0.0 0.002874808136425192 -0.002252756073615242 0.0019055364182113223 0.0003472196554039185 -0.0021181882203573548 0.0 0.0
0.0 0.004294091283352282 -0.0034433126000583177 0.0029831490311308523 0.0004601635689274675 -0.0028160866426450246 0.0 0.0
0.0 0.006252648338433021 -0.005035794119942811 0.004480053043435092 0.0005557410765077169 -0.00366074759887788 0.0 0.0
0.0 0.008736742422116299 -0.00701376265382041 0.006395116924272384 0.0006186457295480276 -0.004771914828563007 0.0 0.0
0.0 0.011457366235914434 -0.00916581289018311 0.00851651786718821 0.0006492950229948947 -0.00628142450459145 0.0 0.0
0.0 0.013743295798678128 -0.0110578078589441 0.010403348810202015 0.0006544590487420885 -0.008237503733798517 0.0 0.0
0.0 0.015200522929822309 -0.01188263147450921 0.011256484402452903 0.0006261470720563011 -0.010282108921503086 0.0 0.0
0.0 0.014217906659648356 -0.010314609315879988 0.009722461920312144 0.0005921473955678461 -0.010839100133863416 0.0 0.0
0.0 0.014348292383108141 -0.008119432358348786 0.006389062597083538 0.0017303697612652464 5.859895901849654e-15 0.0 0.0
0.0 0.014217906659650878 -0.0103146093158799 0.00972246192031194 0.000592147395567965 0.010839100133872404 0.0 0.0
0.0 0.015200522929822335 -0.011882631474507781 0.011256484402451677 0.0006261470720560825 0.010282108921512361 0.0 0.0
0.0 0.013743295798674619 -0.01105780785894098 0.010403348810199314 0.0006544590487416692 0.008237503733801964 0.0 0.0
0.0 0.011457366235908371 -0.009165812890178374 0.008516517867183701 0.0006492950229946741 0.006281424504589247 0.0 0.0
0.0 0.008736742422109124 -0.0070137626538144026 0.006395116924266385 0.0006186457295480173 0.004771914828559936 0.0 0.0
0.0 0.006252648338428515 -0.005035794119939036 0.004480053043431924 0.0005557410765071108 0.003660747598874981 0.0 0.0
0.0 0.004294091283348055 -0.0034433126000540893 0.0029831490311271005 0.00046016356892698655 0.002816086642642787 0.0 0.0
0.0 0.0028748081364187274 -0.0022527560736100207 0.0019055364182065087 0.00034721965540351283 0.0021181882203535735 0.0 0.0
0.0 0.0018163748747894318 -0.0013774831371117073 0.0011447243401194469 0.00023275879699225988 0.001488354450902203 0.0 0.0
0.0 0.0009798558589079673 -0.000728299282228035 0.0005948843801154408 0.00013341490211259387 0.0009181053616573743 0.0 0.0
0.0 0.0004898983148462681 -0.00024916239953228143 0.00020262295821801536 4.6539441314266065e-05 0.0003800466133397374 0.0 0.0
0.0 9.909887066131319e-05 -2.8391159744234757e-05 2.3396246176116863e-05 4.99491356811781e-06 0.00010625235906488611 0.0 0.0
0.0 4.359147279035781e-05 1.9621140116155204e-05 -1.5153479134850162e-05 -4.4676609813050964e-06 -4.2614563141270454e-05 0.0 0.0
0.0 -1.6112841780030362e-05 1.1161564704459513e-06 -9.860580127422744e-07 -1.3009845770370176e-07 -4.464813589468394e-06 0.0 0.0
0.0 1.6234939050766292e-05 1.0548410842656179e-06 -8.490869493655953e-07 -2.0575413490010098e-07 -5.030779387388633e-06 0.0 0.0
0.0 6.93941369285266e-06 2.566932478488849e-07 -2.1773015305282098e-07 -3.896309479606582e-08 -1.5048904086734851e-06 0.0 0.0
0.0 -9.073015986570772e-07 -5.6857141346010775e-08 4.755545023829637e-08 9.301691107725905e-09 2.3445117868003778e-07 0.0 0.0
0.0 -6.969773323641747e-07 -2.1540156766816746e-08 1.7601164636488607e-08 3.938992130327122e-09 1.4379106809095408e-07 0.0 0.0
0.0 2.104811525417068e-08 1.779303114248141e-10 -7.692157684864826e-11 -1.0100873457621018e-10 -4.2128425542012475e-09 0.0 0.0
0.0 0.0 0.0 0.0 0.0 0.0 0.0 0.0
0.0 0.0 0.0 0.0 0.0 0.0 0.0 0.0
0.0 0.0 0.0 0.0 0.0 0.0 0.0 0.0
0.0 -6.673786689358188e-07 -2.6521950268112564e-08 2.1499513791296284e-08 5.022436476819881e-09 -1.3134363579990852e-07 0.0 0.0
0.0 1.8682322036662964e-06 7.292438497842065e-08 -5.975073658410082e-08 -1.3173648394326133e-08 3.735910496881116e-07 0.0 0.0
0.0 2.3140902413618293e-06 1.1552332740199962e-07 -9.046105198017637e-08 -2.5062275421858163e-08 4.835579472346787e-07 0.0 0.0
0.0 -1.1015174562045083e-05 -2.2118606950080004e-06 1.727450244820092e-06 4.844104501879658e-07 -5.475611107749248e-06 0.0 0.0
0.0 2.067329199723445e-05 2.4183288811805165e-05 -1.9187810313153854e-05 -4.995478498651506e-06 5.68970378009716e-05 0.0 0.0
0.0 6.205773991922395e-05 -4.58497594525325e-05 3.5769868966670934e-05 1.0079890485861637e-05 -7.153968582772345e-05 0.0 0.0
0.0 0.0004832538557743559 -0.0003492170830642979 0.00027387502651924413 7.53420565450538e-05 -0.00034628277042827776 0.0 0.0
0.0 0.0014600544029281207 -0.0009452233527815612 0.0007615186880357136 0.0001837046647458478 -0.0008289974516418147 0.0 0.0
0.0 0.0022670941543599062 -0.001830693211141533 0.0015144928123286237 0.0003162003988129086 -0.0015088477859786955 0.0 0.0
0.0 0.0034815338924933117 -0.0029264412861099904 0.002481514249961714 0.0004449270361482751 -0.0021577768370368987 0.0 0.0
0.0 0.005140088500692907 -0.004323383562746389 0.0037563786902299447 0.0005670048725164429 -0.002837780872185959 0.0 0.0
0.0 0.0073164951024231335 -0.006191217478120792 0.005516185489067549 0.0006750319890532427 -0.003627373223563604 0.0 0.0
0.0 0.010310711383470488 -0.008663194376875018 0.007905452498255309 0.0007577418786197071 -0.0046325108020050555 0.0 0.0
0.0 0.013932519204213697 -0.011749535991955593 0.010941868846570234 0.0008076671453853585 -0.005989641269280433 0.0 0.0
0.0 0.018261665546738526 -0.015193877197106102 0.014366676681828134 0.0008272005152779724 -0.00796048475621612 0.0 0.0
0.0 0.0221759848365256 -0.018385222554279126 0.01757133684711695 0.0008138857071621716 -0.010675984484667259 0.0 0.0
0.0 0.024556019433727407 -0.02011373642178943 0.019344258488282785 0.0007694779335066543 -0.01347409742963613 0.0 0.0
0.0 0.0230206045541551 -0.018447980258221197 0.017748419549700932 0.0006995607085202555 -0.014418669744191247 0.0 0.0
0.0 0.020789072306219708 -0.014846925358546237 0.012462413838052685 0.0023845115204935534 5.6994339803218e-15 0.0 0.0
0.0 0.02302060455415657 -0.018447980258219965 0.017748419549699572 0.0006995607085203785 0.014418669744204252 0.0 0.0
0.0 0.02455601943372768 -0.02011373642178748 0.01934425848828124 0.000769477933506232 0.01347409742965009 0.0 0.0
0.0 0.02217598483651995 -0.01838522255427364 0.017571336847111825 0.0008138857071618066 0.010675984484673167 0.0 0.0
0.0 0.01826166554672956 -0.015193877197098544 0.014366676681820826 0.0008272005152777185 0.007960484756215636 0.0 0.0
0.0 0.013932519204204926 -0.011749535991947904 0.010941868846562891 0.0008076671453850054 0.005989641269277367 0.0 0.0
0.0 0.010310711383463554 -0.008663194376869118 0.007905452498250117 0.0007577418786189957 0.0046325108020019235 0.0 0.0
0.0 0.007316495102415638 -0.0061912174781142875 0.005516185489061469 0.0006750319890528186 0.003627373223560678 0.0 0.0
0.0 0.00514008850068301 -0.004323383562738047 0.0037563786902220864 0.0005670048725159605 0.002837780872181487 0.0 0.0
0.0 0.003481533892484025 -0.002926441286102367 0.0024815142499549033 0.0004449270361474644 0.0021577768370313844 0.0 0.0
0.0 0.0022670941543506355 -0.001830693211133954 0.0015144928123218273 0.0003162003988121255 0.0015088477859724332 0.0 0.0
0.0 0.0014600544029215131 -0.0009452233527765051 0.0007615186880315118 0.00018370466474499318 0.0008289974516375882 0.0 0.0
0.0 0.0004832538557705086 -0.00034921708306180524 0.00027387502651731566 7.534205654448911e-05 0.00034628277042631145 0.0 0.0
0.0 6.205773991743774e-05 -4.584975945152725e-05 3.576986896587505e-05 1.0079890485652123e-05 7.15396858264609e-05 0.0 0.0
0.0 2.067329199631351e-05 2.4183288811509893e-05 -1.9187810312921435e-05 -4.995478498588322e-06 -5.6897037800378354e-05 0.0 0.0
0.0 -1.101517456284694e-05 -2.211860695062974e-06 1.7274502448644606e-06 4.84410450198527e-07 5.475611107883341e-06 0.0 0.0
0.0 2.3140902408395513e-06 1.1552332737642831e-07 -9.046105195933258e-08 -2.5062275417086502e-08 -4.835579471281663e-07 0.0 0.0
0.0 1.8682322031391885e-06 7.292438495947189e-08 -5.975073656882235e-08 -1.3173648390657147e-08 -3.73591049577993e-07 0.0 0.0
0.0 -6.673786687448563e-07 -2.6521950260483167e-08 2.1499513785132376e-08 5.022436475351499e-09 1.3134363576041204e-07 0.0 0.0
0.0 0.0 0.0 0.0 0.0 0.0 0.0 0.0
0.0 0.0 0.0 0.0 0.0 0.0 0.0 0.0
0.0 0.0 0.0 0.0 0.0 0.0 0.0 0.0
0.0 0.0 0.0 0.0 0.0 0.0 0.0 0.0
0.0 -1.9885686319327028e-07 -9.042500065212355e-09 7.070759409378278e-09 1.9717406558339976e-09 -3.727888583608044e-08 0.0 0.0
0.0 -2.4744223030299965e-06 -1.8022640795415001e-07 1.4690897587138403e-07 3.331743208276705e-08 -5.041893378248485e-07 0.0 0.0
0.0 5.7199536172791194e-06 2.885528550869788e-07 -2.392073873651783e-07 -4.934546772182811e-08 1.133045069606803e-06 0.0 0.0
0.0 2.6580118030305798e-05 1.0621370058826315e-05 -8.419712129458206e-06 -2.201657929368174e-06 2.036817286558126e-05 0.0 0.0
0.0 2.4048855193642706e-05 2.8757905750348214e-06 -2.075239008916045e-06 -8.005515661185425e-07 -1.4251135085292707e-06 0.0 0.0
0.0 0.00034840158536284075 -0.00027278604111253386 0.0002093028817424758 6.348315937005784e-05 -0.00019795378238681056 0.0 0.0
0.0 0.001381259264948801 -0.0008798917051635964 0.0007001235516903132 0.00017976815347328285 -0.0005987411546514094 0.0 0.0
0.0 0.0021034783006852378 -0.0018960445410876477 0.0015587684067554783 0.000337276134332171 -0.0012733975190583069 0.0 0.0
0.0 0.0035976820307908218 -0.003098401041652151 0.0026240139123108793 0.0004743871293412692 -0.0018988325132578447 0.0 0.0
0.0 0.005323765955538792 -0.004599076820322624 0.003995359513966413 0.0006037173063562086 -0.0025368832900786002 0.0 0.0
0.0 0.007548319808666491 -0.0065284532359245456 0.005806129624524247 0.0007223236114002998 -0.003236974698230836 0.0 0.0
0.0 0.010536124937449582 -0.00908697649146854 0.008263454019507285 0.0008235224719612458 -0.004090116443991112 0.0 0.0
0.0 0.014431261976203785 -0.012453912086001566 0.011552973263312423 0.0009009388226891407 -0.005181255951104254 0.0 0.0
0.0 0.01960751287681883 -0.01665609530690016 0.015708420391277608 0.0009476749156225525 -0.006677351286821717 0.0 0.0
0.0 0.02489724045421556 -0.021417714521814936 0.020455874554908243 0.000961839966906669 -0.0089076873919565 0.0 0.0
0.0 0.03052398753003502 -0.025881231942915715 0.02495213920101054 0.000929092741905181 -0.01207919633116024 0.0 0.0
0.0 0.034031677988355075 -0.02840503634520481 0.02755562783219699 0.0008494085130078012 -0.015577939868101824 0.0 0.0
0.0 0.03206988244076588 -0.026355848930775264 0.02562939188736615 0.0007264570434091108 -0.017251160396782136 0.0 0.0
0.0 0.027682768114072855 -0.021486819667951775 0.018539679060800597 0.0029471406071511596 6.957542181273979e-15 0.0 0.0
0.0 0.032069882440767805 -0.02635584893077411 0.025629391887365106 0.000726457043409027 0.017251160396798883 0.0 0.0
0.0 0.03403167798835401 -0.028405036345201792 0.02755562783219447 0.0008494085130073267 0.015577939868118576 0.0 0.0
0.0 0.03052398753002808 -0.025881231942908818 0.02495213920100422 0.0009290927419045874 0.012079196331169025 0.0 0.0
0.0 0.024897240454205286 -0.02141771452180583 0.020455874554899483 0.0009618399669063492 0.008907687391957434 0.0 0.0
0.0 0.019607512876808356 -0.01665609530689102 0.01570842039126895 0.0009476749156220681 0.006677351286819187 0.0 0.0
0.0 0.014431261976193816 -0.012453912085992606 0.011552973263304067 0.0009009388226885364 0.005181255951100726 0.0 0.0
0.0 0.010536124937439956 -0.009086976491459965 0.008263454019499305 0.0008235224719606561 0.004090116443987677 0.0 0.0
0.0 0.007548319808653845 -0.0065284532359136185 0.0058061296245137594 0.000722323611399855 0.0032369746982265518 0.0 0.0
0.0 0.0053237659555276495 -0.004599076820312659 0.003995359513957313 0.000603717306355348 0.002536883290072935 0.0 0.0
0.0 0.0035976820307798683 -0.003098401041642362 0.0026240139123018674 0.0004743871293404929 0.00189883251325114 0.0 0.0
0.0 0.0021034783006768213 -0.0018960445410799865 0.001558768406748784 0.0003372761343312021 0.0012733975190530747 0.0 0.0
0.0 0.0013812592649419554 -0.0008798917051587976 0.0007001235516864592 0.000179768153472339 0.0005987411546483289 0.0 0.0
0.0 0.0003484015853589497 -0.00027278604110992857 0.00020930288174045945 6.348315936946915e-05 0.00019795378238489679 0.0 0.0
0.0 2.4048855192577e-05 2.8757905749721664e-06 -2.0752390088717596e-06 -8.005515661004728e-07 1.4251135088474925e-06 0.0 0.0
0.0 2.658011802907829e-05 1.0621370058734157e-05 -8.419712129382886e-06 -2.201657929351317e-06 -2.0368172865379992e-05 0.0 0.0
0.0 5.719953616844401e-06 2.8855285505960386e-07 -2.3920738734262195e-07 -4.9345467716970975e-08 -1.1330450695020188e-06 0.0 0.0
0.0 -2.474422303145439e-06 -1.8022640795372814e-07 1.4690897587081943e-07 3.331743208291588e-08 5.041893378418852e-07 0.0 0.0
0.0 -1.988568631114358e-07 -9.042500061442109e-09 7.070759406402369e-09 1.9717406550387577e-09 3.72788858200418e-08 0.0 0.0
0.0 0.0 0.0 0.0 0.0 0.0 0.0 0.0
0.0 0.0 0.0 0.0 0.0 0.0 0.0 0.0
0.0 0.0 0.0 0.0 0.0 0.0 0.0 0.0
0.0 0.0 0.0 0.0 0.0 0.0 0.0 0.0
0.0 0.0 0.0 0.0 0.0 0.0 0.0 0.0
0.0 -1.6494797236909553e-06 -1.25180187868091e-07 9.94793065195467e-08 2.570088134854425e-08 -2.9211865650176426e-07 0.0 0.0
0.0 -6.846682805622881e-06 -1.3054096697814758e-06 1.0282519752260523e-06 2.7715769455542293e-07 -1.911263239296512e-06 0.0 0.0
0.0 3.55260439992015e-05 2.6109608700474018e-05 -2.0507524343656847e-05 -5.6020843568169486e-06 3.167586230207134e-05 0.0 0.0
0.0 0.00017136667203370413 -0.00011736652070090132 8.810150065852767e-05 2.926502004237365e-05 -5.300588164965444e-05 0.0 0.0
0.0 0.001013767080952569 -0.0006207742132267978 0.0004838387064197877 0.00013693550680701023 -0.00030981622613779466 0.0 0.0
0.0 0.00175071437354317 -0.0016413425993513833 0.0013333266599416297 0.00030801593940975314 -0.0008846526052898022 0.0 0.0
0.0 0.003278879373970605 -0.0028870986019893102 0.002427404366721754 0.0004596942352675557 -0.0014637220018596903 0.0 0.0
0.0 0.005016903180786491 -0.004429080078468366 0.0038285290828396863 0.0006005509956286764 -0.0020398283442288594 0.0 0.0
0.0 0.0072159506451826404 -0.006349354442996427 0.0056221907736870155 0.0007271636693094104 -0.0026445667580981547 0.0 0.0
0.0 0.010087404220592627 -0.008824530554523159 0.007982594043305816 0.0008419365112173384 -0.003330386409233998 0.0 0.0
0.0 0.01397207200474155 -0.01208680684659202 0.011147378372567704 0.0009394284740243185 -0.0041957221636326515 0.0 0.0
0.0 0.018883907579490024 -0.01635017622281534 0.015332792582227365 0.0010173836405879676 -0.0053220212265655265 0.0 0.0
0.0 0.02493445949037458 -0.021664753039940712 0.0205950096204728 0.0010697434194679224 -0.006807306171777185 0.0 0.0
0.0 0.032279898625195036 -0.02769197055596818 0.026612860489308995 0.0010791100666591783 -0.008980050779505935 0.0 0.0
0.0 0.03900356552298612 -0.03340304676728435 0.032377482674269195 0.00102556409301514 -0.012252290633171098 0.0 0.0
0.0 0.042973786102817275 -0.03666424164655574 0.03575989067511215 0.000904350971443633 -0.016293066146162487 0.0 0.0
0.0 0.040810391922996174 -0.034160369260387936 0.0334300680503475 0.000730301210040423 -0.019242158659857598 0.0 0.0
0.0 0.03519764545394871 -0.028090566580215526 0.0246217995566958 0.0034687670235197055 7.770260129769113e-15 0.0 0.0
0.0 0.040810391922997305 -0.03416036926038615 0.03343006805034596 0.0007303012100402123 0.01924215865987569 0.0 0.0
0.0 0.04297378610281357 -0.03666424164655057 0.0357598906751072 0.0009043509714433723 0.01629306614618038 0.0 0.0
0.0 0.03900356552297604 -0.03340304676727489 0.03237748267425994 0.0010255640930149537 0.012252290633181319 0.0 0.0
0.0 0.032279898625182886 -0.02769197055595749 0.026612860489298597 0.0010791100666588756 0.008980050779507611 0.0 0.0
0.0 0.024934459490361834 -0.021664753039929513 0.02059500962046202 0.0010697434194675071 0.006807306171775751 0.0 0.0
0.0 0.01888390757947784 -0.016350176222804602 0.015332792582217229 0.0010173836405873659 0.005322021226563439 0.0 0.0
0.0 0.013972072004728968 -0.012086806846580447 0.011147378372556846 0.0009394284740236043 0.004195722163629268 0.0 0.0
0.0 0.010087404220577197 -0.008824530554509595 0.007982594043292445 0.0008419365112171499 0.0033303864092298465 0.0 0.0
0.0 0.007215950645169716 -0.006349354442984914 0.005622190773676319 0.0007271636693085892 0.00264456675809291 0.0 0.0
0.0 0.005016903180773093 -0.004429080078456518 0.003828529082828605 0.0006005509956279125 0.0020398283442223026 0.0 0.0
0.0 0.003278879373959103 -0.0028870986019791786 0.0024274043667125603 0.00045969423526661714 0.0014637220018541702 0.0 0.0
0.0 0.0017507143735368642 -0.0016413425993445348 0.00133332665993586 0.00030801593940867403 0.0008846526052861778 0.0 0.0
0.0 0.001013767080946704 -0.0006207742132226743 0.0004838387064164956 0.00013693550680617805 0.00030981622613559905 0.0 0.0
0.0 0.0001713666720307512 -0.00011736652069902466 8.810150065707945e-05 2.926502004194568e-05 5.300588164847162e-05 0.0 0.0
0.0 3.552604399866845e-05 2.610960869980588e-05 -2.0507524343138548e-05 -5.60208435666755e-06 -3.1675862301359654e-05 0.0 0.0
0.0 -6.84668280666744e-06 -1.305409669877238e-06 1.0282519753009908e-06 2.7715769457622527e-07 1.9112632394573046e-06 0.0 0.0
0.0 -1.6494797235304166e-06 -1.2518018785490416e-07 9.94793065089779e-08 2.570088134592939e-08 2.921186564721411e-07 0.0 0.0
0.0 0.0 0.0 0.0 0.0 0.0 0.0 0.0
0.0 0.0 0.0 0.0 0.0 0.0 0.0 0.0
0.0 0.0 0.0 0.0 0.0 0.0 0.0 0.0
0.0 0.0 0.0 0.0 0.0 0.0 0.0 0.0
0.0 0.0 0.0 0.0 0.0 0.0 0.0 0.0
0.0 0.0 0.0 0.0 0.0 0.0 0.0 0.0
0.0 -1.6427912562006257e-06 -1.4576765561260727e-07 1.1635194098500306e-07 2.9415714627583024e-08 -2.453416837903687e-07 0.0 0.0
0.0 1.4577101857701404e-05 3.4668663114908425e-06 -2.722405697487056e-06 -7.444606140037377e-07 4.147954336020551e-06 0.0 0.0
0.0 8.740693342368817e-06 -2.297575520773633e-05 1.6565281044172338e-05 6.410474163563629e-06 -5.43894404684943e-06 0.0 0.0
0.0 0.0005741656185509887 -0.0002985116737209076 0.00022670664870332814 7.180502501757968e-05 -8.53692080696704e-05 0.0 0.0
0.0 0.001314978053663936 -0.0011819240870228217 0.0009409930617099598 0.00024093102531286148 -0.00046538384450934623 0.0 0.0
0.0 0.0026765042563719125 -0.0024052274809119507 0.001995702518582459 0.00040952496232949265 -0.0009590365976380121 0.0 0.0
0.0 0.00438101727270183 -0.00393013112838542 0.0033649810077029754 0.0005651501206824443 -0.0014532125301104845 0.0 0.0
0.0 0.006519657597980514 -0.005803567523790663 0.005101034246947231 0.0007025332768434311 -0.0019642994095974567 0.0 0.0
0.0 0.009244082339418817 -0.0081527937867624 0.007325356930575504 0.0008274368561868995 -0.0025016992133789612 0.0 0.0
0.0 0.012855043332598555 -0.011189783084470984 0.010249121640665911 0.0009406614438050734 -0.0031314556528198785 0.0 0.0
0.0 0.017264413365874944 -0.015183659905660701 0.014144560955961779 0.0010390989496989207 -0.003956854103051445 0.0 0.0
0.0 0.023333594966122233 -0.020331246352600557 0.019212275322910564 0.0011189710296900127 -0.0050454884516752735 0.0 0.0
0.0 0.030794625538175413 -0.02669356519428112 0.025516665862779165 0.0011768993315019456 -0.006408503293422002 0.0 0.0
0.0 0.039045347506240655 -0.033930735602411596 0.032740241241119274 0.0011904943612923123 -0.008243279755058803 0.0 0.0
0.0 0.04714135628422646 -0.040829825445404214 0.0397112577921573 0.0011185676532469234 -0.011157071573465073 0.0 0.0
0.0 0.05213396363258336 -0.04484586760560274 0.04389556178002406 0.0009503058255786782 -0.015530832077635155 0.0 0.0
0.0 0.04952477889411685 -0.042020167717104866 0.04130849385989039 0.0007116738572144674 -0.020505105234835345 0.0 0.0
0.0 0.04260830580990924 -0.0348561316727604 0.030891943612320092 0.003964188060440299 8.132383655379272e-15 0.0 0.0
0.0 0.04952477889411592 -0.042020167717101695 0.04130849385988732 0.0007116738572143529 0.02050510523485382 0.0 0.0
0.0 0.052133963632576205 -0.04484586760559504 0.04389556178001646 0.000950305825578531 0.015530832077652606 0.0 0.0
0.0 0.04714135628421426 -0.040829825445393146 0.03971125779214627 0.001118567653246854 0.011157071573475733 0.0 0.0
0.0 0.039045347506227415 -0.033930735602399766 0.032740241241108074 0.0011904943612916995 0.008243279755061398 0.0 0.0
0.0 0.030794625538160165 -0.026693565194267556 0.025516665862766096 0.0011768993315014445 0.006408503293421474 0.0 0.0
0.0 0.023333594966108297 -0.020331246352588296 0.019212275322898806 0.0011189710296894823 0.005045488451673551 0.0 0.0
0.0 0.017264413365857725 -0.015183659905645526 0.014144560955947244 0.001039098949698271 0.003956854103048179 0.0 0.0
0.0 0.012855043332580973 -0.01118978308445519 0.010249121640650439 0.0009406614438047413 0.0031314556528157377 0.0 0.0
0.0 0.00924408233940354 -0.008152793786748536 0.0073253569305624456 0.0008274368561860853 0.002501699213374441 0.0 0.0
0.0 0.006519657597965886 -0.0058035675237774345 0.00510103424693475 0.0007025332768426862 0.001964299409591662 0.0 0.0
0.0 0.004381017272689572 -0.003930131128374065 0.003364981007692563 0.0005651501206815017 0.0014532125301057247 0.0 0.0
0.0 0.0026765042563627007 -0.0024052274809029956 0.0019957025185745807 0.0004095249623284144 0.0009590365976344034 0.0 0.0
0.0 0.0013149780536573083 -0.001181924087016722 0.0009409930617048851 0.0002409310253118374 0.0004653838445067959 0.0 0.0
0.0 0.0005741656185458718 -0.00029851167371753825 0.0002267066487007132 7.180502501682442e-05 8.536920806812686e-05 0.0 0.0
0.0 8.740693341453137e-06 -2.29757552078071e-05 1.6565281044252894e-05 6.410474163553873e-06 5.438944047341282e-06 0.0 0.0
0.0 1.4577101856502356e-05 3.466866311427741e-06 -2.7224056974396522e-06 -7.44460613987966e-07 -4.1479543359562206e-06 0.0 0.0
0.0 -1.642791256056295e-06 -1.457676555988268e-07 1.1635194097405649e-07 2.9415714624769247e-08 2.4534168376624963e-07 0.0 0.0
0.0 0.0 0.0 0.0 0.0 0.0 0.0 0.0
0.0 0.0 0.0 0.0 0.0 0.0 0.0 0.0
0.0 0.0 0.0 0.0 0.0 0.0 0.0 0.0
0.0 0.0 0.0 0.0 0.0 0.0 0.0 0.0
0.0 0.0 0.0 0.0 0.0 0.0 0.0 0.0
0.0 0.0 0.0 0.0 0.0 0.0 0.0 0.0
0.0 -5.301947323951955e-07 -5.211120635768816e-08 4.136700228583785e-08 1.074420407185488e-08 -5.5764332291065365e-08 0.0 0.0
0.0 2.2502361092044444e-05 5.586177117508929e-06 -4.248201312847166e-06 -1.3379758046615493e-06 2.852768947827512e-06 0.0 0.0
0.0 0.00014957263157985569 -6.0322813683666895e-05 4.287842226123806e-05 1.7444391422429006e-05 1.1460965891891313e-05 0.0 0.0
0.0 0.0008404853559702277 -0.0006562062797115511 0.000507533393144295 0.000148672886567256 -0.00014071665218174517 0.0 0.0
0.0 0.0019229710764504828 -0.0017642555527799524 0.0014349188288725575 0.0003293367239073946 -0.0004994435530934212 0.0 0.0
0.0 0.0035236224394466636 -0.0032090330554691796 0.0027077974088105094 0.0005012356466586705 -0.0008710707546346631 0.0 0.0
0.0 0.0055668590603481 -0.004999644138140632 0.00434684447812639 0.0006527996600142455 -0.0012696281426254489 0.0 0.0
0.0 0.008058290179270691 -0.007212843919085254 0.006424790243430749 0.0007880536756545048 -0.0016853538791301388 0.0 0.0
0.0 0.011320685536425883 -0.010003561467256792 0.009090989333442257 0.0009125721338145338 -0.0021241883045768246 0.0 0.0
0.0 0.015343956522530029 -0.013627078800372065 0.0125990250391598 0.0010280537612122622 -0.002649820100806867 0.0 0.0
0.0 0.0210165741436773 -0.018347822643826246 0.01722072292737451 0.001127099716451735 -0.0033665813147797 0.0 0.0
0.0 0.02787499559879136 -0.024379732452730778 0.023170465512888365 0.0012092669398423965 -0.004346611309971597 0.0 0.0
0.0 0.036175771847550976 -0.031725778143124356 0.030453952785649805 0.0012718253574745782 -0.005531585604690474 0.0 0.0
0.0 0.04582956901781392 -0.040010674663904074 0.03871569738126987 0.0012949772826341553 -0.006839224511263478 0.0 0.0
0.0 0.055143709979281905 -0.04801240419644545 0.046791703437945496 0.0012207007584999609 -0.008826013356060015 0.0 0.0
0.0 0.061094773765354785 -0.05294059727365125 0.05193582785184492 0.0010047694218063676 -0.013181765030571859 0.0 0.0
0.0 0.05859155288381618 -0.05010883363848506 0.049443378954519085 0.0006654546839659788 -0.02086262193805334 0.0 0.0
0.0 0.05089799345186882 -0.042005928260945645 0.03757596168935079 0.004429966571594856 7.496607501433772e-15 0.0 0.0
0.0 0.0585915528838132 -0.05010883363848067 0.04944337895451459 0.0006654546839660578 0.020862621938069984 0.0 0.0
0.0 0.06109477376534577 -0.052940597273642594 0.05193582785183616 0.0010047694218064014 0.013181765030588176 0.0 0.0
0.0 0.05514370997926922 -0.04801240419643399 0.046791703437934484 0.0012207007584995285 0.008826013356070358 0.0 0.0
0.0 0.04582956901779985 -0.04001067466389156 0.03871569738125783 0.0012949772826336963 0.006839224511266967 0.0 0.0
0.0 0.03617577184753299 -0.03172577814310873 0.030453952785634307 0.001271825357474427 0.005531585604690942 0.0 0.0
0.0 0.027874995598773766 -0.024379732452715398 0.023170465512873516 0.0012092669398418847 0.004346611309970005 0.0 0.0
0.0 0.021016574143658786 -0.01834782264380981 0.01722072292735862 0.0011270997164511995 0.003366581314777801 0.0 0.0
0.0 0.015343956522511035 -0.013627078800355403 0.012599025039143818 0.0010280537612115943 0.002649820100803583 0.0 0.0
0.0 0.01132068553640797 -0.010003561467240267 0.009090989333426482 0.0009125721338137812 0.002124188304573141 0.0 0.0
0.0 0.008058290179254949 -0.007212843919070877 0.006424790243417117 0.0007880536756537559 0.0016853538791255123 0.0 0.0
0.0 0.00556685906033418 -0.004999644138127997 0.004346844478114601 0.0006527996600133981 0.001269628142621327 0.0 0.0
0.0 0.003523622439435137 -0.003209033055458158 0.0027077974088006163 0.0005012356466575411 0.0008710707546314461 0.0 0.0
0.0 0.001922971076442794 -0.0017642555527721505 0.0014349188288658706 0.00032933672390628014 0.0004994435530910299 0.0 0.0
0.0 0.0008404853559643409 -0.0006562062797067781 0.0005075333931404659 0.0001486728865663125 0.00014071665218013947 0.0 0.0
0.0 0.0001495726315775624 -6.032281368259824e-05 4.287842226045175e-05 1.7444391422146734e-05 -1.1460965891908538e-05 0.0 0.0
0.0 2.2502361091085325e-05 5.586177117364543e-06 -4.248201312732833e-06 -1.3379758046318563e-06 -2.8527689477001457e-06 0.0 0.0
0.0 -5.301947322418017e-07 -5.211120634290696e-08 4.136700227412343e-08 1.0744204068790724e-08 5.5764332271987006e-08 0.0 0.0
0.0 0.0 0.0 0.0 0.0 0.0 0.0 0.0
0.0 0.0 0.0 0.0 0.0 0.0 0.0 0.0
0.0 0.0 0.0 0.0 0.0 0.0 0.0 0.0
0.0 0.0 0.0 0.0 0.0 0.0 0.0 0.0
0.0 0.0 0.0 0.0 0.0 0.0 0.0 0.0
0.0 0.0 0.0 0.0 0.0 0.0 0.0 0.0
0.0 -9.358286179290562e-07 -9.36213002212803e-08 7.091029120208625e-08 2.2711009019184512e-08 -5.957663808258335e-08 0.0 0.0
0.0 -5.10244028366819e-06 5.549117944601899e-06 -4.598750538563648e-06 -9.503674060382676e-07 2.9847551301914873e-06 0.0 0.0
0.0 0.0003903147885942318 -0.00020292452396604755 0.00014975297390233303 5.3171550063714666e-05 2.147735169825768e-05 0.0 0.0
0.0 0.001114425534984977 -0.0010973884772579095 0.0008668078344854059 0.0002305806427725034 -0.00016322402264409697 0.0 0.0
0.0 0.00258282763819643 -0.002371087844562985 0.0019601485435897757 0.0004109393009732096 -0.0003871404757800231 0.0 0.0
0.0 0.004400560120773498 -0.004032810334245354 0.003452850911569417 0.0005799594226759369 -0.0006448206954162446 0.0 0.0
0.0 0.006765549534573466 -0.006091181945156943 0.005364165397906667 0.0007270165472502733 -0.0009244672960719739 0.0 0.0
0.0 0.009714000330727137 -0.008647854025331317 0.007786538394816038 0.0008613156305152786 -0.0012142457279787865 0.0 0.0
0.0 0.013361525589741248 -0.011896459016249222 0.010908716868813841 0.0009877421474353812 -0.001516009250122853 0.0 0.0
0.0 0.018373891334156702 -0.016106272323561377 0.01500113900300813 0.001105133320553239 -0.001888331355629209 0.0 0.0
0.0 0.024402379077158996 -0.02158472708054369 0.020375684523131113 0.0012090425574125768 -0.0024443313826825455 0.0 0.0
0.0 0.03236074320093651 -0.028484311471288645 0.027190798013978727 0.0012935134573099256 -0.003215428229415902 0.0 0.0
0.0 0.041876217694034365 -0.03672784135665027 0.03537599806315628 0.0013518432934939342 -0.0041211212074628726 0.0 0.0
0.0 0.052436036657215 -0.04586362426865918 0.04448462388034663 0.001379000388312573 -0.004935994508143245 0.0 0.0
0.0 0.06273510856441732 -0.05478347236607645 0.05343498722573643 0.0013484851403400388 -0.005782260179064319 0.0 0.0
0.0 0.06990439692358642 -0.060851151567030845 0.05974848061121867 0.0011026709558121627 -0.008906456950034355 0.0 0.0
0.0 0.06810907769287755 -0.05862292001355476 0.058043988268053695 0.0005789317455009713 -0.01958883738084008 0.0 0.0
0.0 0.06006533560904229 -0.04989342694192677 0.045053647673383136 0.004839779268543571 5.921478585246831e-15 0.0 0.0
0.0 0.06810907769287333 -0.058622920013549726 0.058043988268049046 0.0005789317455007115 0.019588837380853114 0.0 0.0
0.0 0.0699043969235766 -0.060851151567021845 0.05974848061120965 0.0011026709558122445 0.008906456950047716 0.0 0.0
0.0 0.06273510856440313 -0.0547834723660638 0.05343498722572456 0.0013484851403392155 0.005782260179072268 0.0 0.0
0.0 0.052436036657198065 -0.045863624268644335 0.04448462388033213 0.001379000388312242 0.004935994508146377 0.0 0.0
0.0 0.04187621769401626 -0.03672784135663423 0.03537599806314103 0.0013518432934931928 0.0041211212074635266 0.0 0.0
0.0 0.03236074320091653 -0.02848431147127108 0.02719079801396192 0.001293513457309179 0.003215428229414947 0.0 0.0
0.0 0.02440237907713958 -0.021584727080526455 0.02037568452311487 0.0012090425574115713 0.002444331382681129 0.0 0.0
0.0 0.018373891334135736 -0.016106272323542777 0.015001139002990035 0.0011051333205527394 0.0018883313556274715 0.0 0.0
0.0 0.013361525589720718 -0.011896459016231119 0.010908716868796586 0.0009877421474345286 0.0015160092501204864 0.0 0.0
0.0 0.00971400033070914 -0.00864785402531458 0.00778653839480006 0.0008613156305145206 0.0012142457279752366 0.0 0.0
0.0 0.006765549534558368 -0.006091181945142633 0.005364165397893342 0.0007270165472492887 0.000924467296069146 0.0 0.0
0.0 0.004400560120761035 -0.004032810334233292 0.0034528509115583986 0.0005799594226748964 0.0006448206954140379 0.0 0.0
0.0 0.00258282763818656 -0.002371087844553261 0.001960148543581245 0.00041093930097201535 0.0003871404757778904 0.0 0.0
0.0 0.0011144255349792886 -0.001097388477252188 0.000866807834480708 0.00023058064277147995 0.00016322402264285692 0.0 0.0
0.0 0.00039031478859085744 -0.000202924523963605 0.00014975297390047533 5.317155006312908e-05 -2.1477351698498156e-05 0.0 0.0
0.0 -5.102440284526356e-06 5.549117944233894e-06 -4.598750538276786e-06 -9.503674059572129e-07 -2.9847551299720706e-06 0.0 0.0
0.0 -9.358286176765532e-07 -9.36213001927943e-08 7.09102911802755e-08 2.2711009012500863e-08 5.957663806372381e-08 0.0 0.0
0.0 0.0 0.0 0.0 0.0 0.0 0.0 0.0
0.0 0.0 0.0 0.0 0.0 0.0 0.0 0.0
0.0 0.0 0.0 0.0 0.0 0.0 0.0 0.0
0.0 0.0 0.0 0.0 0.0 0.0 0.0 0.0
0.0 0.0 0.0 0.0 0.0 0.0 0.0 0.0
0.0 0.0 0.0 0.0 0.0 0.0 0.0 0.0
0.0 -4.6039742046719905e-07 -5.853725170073649e-08 4.9520409295273314e-08 9.016842405465027e-09 -6.021782012969738e-08 0.0 0.0
0.0 7.308575667695693e-05 -1.6781288896242236e-06 -1.8330605879403765e-07 1.8614349484180682e-06 9.678995488970068e-06 0.0 0.0
0.0 0.0005867509897709177 -0.00044805065894757995 0.0003379405213243884 0.00011011013762319202 4.441718582264784e-05 0.0 0.0
0.0 0.0016291472432976002 -0.001531568798342228 0.001232818855461892 0.00029874994288033523 -5.720534901586534e-05 0.0 0.0
0.0 0.0032396086266187696 -0.002993523048434192 0.0025096554179770674 0.00048386763045712376 -0.00016471978456664632 0.0 0.0
0.0 0.005358238510405572 -0.0048648434036417925 0.004218456274359844 0.0006463871292819489 -0.0002865302659797686 0.0 0.0
0.0 0.007986432024835635 -0.007197397118213401 0.006406370080955223 0.0007910270372581726 -0.00042289545314096134 0.0 0.0
0.0 0.011323574952597231 -0.010107805194678847 0.009181912269967545 0.0009258929247113012 -0.0005535216279068184 0.0 0.0
0.0 0.01572489567917812 -0.013818796096153075 0.012764197598422079 0.0010545984977309965 -0.0006766476545791171 0.0 0.0
0.0 0.020969540615955604 -0.018647015099386537 0.017471014180216887 0.0011760009191696449 -0.0008753677110945459 0.0 0.0
0.0 0.028110036478744237 -0.024861145482444013 0.023575981934597316 0.0012851635478466892 -0.001183187939067425 0.0 0.0
0.0 0.03701428895368578 -0.032605345276423746 0.031233546826932898 0.0013717984494908619 -0.0016081355453901706 0.0 0.0
0.0 0.047516034005539574 -0.04170776199410074 0.04028223568919692 0.001425526304903859 -0.0021337345649387147 0.0 0.0
0.0 0.05889989436644785 -0.05153628127294997 0.05009594425063001 0.0014403370223199684 -0.0025782937136638287 0.0 0.0
0.0 0.06985160720169314 -0.06098129656240606 0.05954484393144926 0.0014364526309568568 -0.0027508460414922154 0.0 0.0
0.0 0.0781615243307631 -0.06816831888202897 0.06680826958498136 0.0013600492970476143 -0.0037209128399459204 0.0 0.0
0.0 0.07826715677432985 -0.0677381012196823 0.06722414723907882 0.0005139539806034272 -0.013309142992624408 0.0 0.0
0.0 0.07099138321631021 -0.059313788887366534 0.05433822949273665 0.004975559394629889 3.675879045594854e-15 0.0 0.0
0.0 0.07826715677432558 -0.06773810121967766 0.06722414723907509 0.0005139539806025769 0.013309142992631992 0.0 0.0
0.0 0.07816152433075241 -0.06816831888201932 0.0668082695849723 0.0013600492970469438 0.003720912839953756 0.0 0.0
0.0 0.06985160720167514 -0.06098129656239036 0.059544843931433944 0.001436452630956423 0.002750846041496828 0.0 0.0
0.0 0.05889989436642901 -0.05153628127293323 0.050095944250614075 0.0014403370223191783 0.002578293713665585 0.0 0.0
0.0 0.04751603400552027 -0.04170776199408354 0.04028223568918076 0.0014255263049027772 0.0021337345649391384 0.0 0.0
0.0 0.03701428895366323 -0.032605345276404026 0.031233546826913722 0.0013717984494903232 0.0016081355453897044 0.0 0.0
0.0 0.028110036478723212 -0.024861145482425243 0.0235759819345799 0.001285163547845342 0.001183187939066438 0.0 0.0
0.0 0.020969540615931388 -0.01864701509936529 0.017471014180196153 0.0011760009191691368 0.0008753677110941731 0.0 0.0
0.0 0.015724895679155974 -0.013818796096133235 0.012764197598403084 0.0010545984977301558 0.0006766476545780034 0.0 0.0
0.0 0.01132357495257555 -0.010107805194659751 0.00918191226994913 0.000925892924710624 0.000553521627904871 0.0 0.0
0.0 0.007986432024818803 -0.007197397118197805 0.006406370080940669 0.000791027037257135 0.0004228954531393168 0.0 0.0
0.0 0.005358238510392108 -0.004864843403628788 0.004218456274347827 0.000646387129280959 0.0002865302659785392 0.0 0.0
0.0 0.0032396086266075147 -0.002993523048423146 0.002509655417967191 0.00048386763045595466 0.00016471978456558076 0.0 0.0
0.0 0.001629147243290701 -0.0015315687983351773 0.0012328188554558992 0.0002987499428792783 5.720534901515181e-05 0.0 0.0
0.0 0.0005867509897667856 -0.00044805065894419974 0.0003379405213217605 0.00011011013762243896 -4.441718582266924e-05 0.0 0.0
0.0 7.308575667568107e-05 -1.6781288893921197e-06 -1.833060589448937e-07 1.8614349483370963e-06 -9.678995488834948e-06 0.0 0.0
0.0 -4.603974210373721e-07 -5.8537251764729536e-08 4.9520409342134194e-08 9.01684242265159e-09 6.021782013958798e-08 0.0 0.0
0.0 0.0 0.0 0.0 0.0 0.0 0.0 0.0
0.0 0.0 0.0 0.0 0.0 0.0 0.0 0.0
0.0 0.0 0.0 0.0 0.0 0.0 0.0 0.0
0.0 0.0 0.0 0.0 0.0 0.0 0.0 0.0
0.0 0.0 0.0 0.0 0.0 0.0 0.0 0.0
0.0 0.0 0.0 0.0 0.0 0.0 0.0 0.0
0.0 1.6004297709530511e-06 6.953396174423087e-08 2.3531156086074017e-09 -7.18870773527135e-08 -3.3915251981440465e-07 0.0 0.0
0.0 0.00020631852631222927 -5.4183447700083053e-05 3.695843816164605e-05 1.7225009538437848e-05 2.3669802470521578e-05 0.0 0.0
0.0 0.0008576241620414926 -0.0006761649649586285 0.0005061614310455998 0.00017000353391302746 9.599734831357023e-05 0.0 0.0
0.0 0.002032659072562685 -0.0019101496238051266 0.001522187477954197 0.00038796214585092953 8.354282924818169e-05 0.0 0.0
0.0 0.0037882068104448264 -0.0035101767664042914 0.0029105656166167246 0.0005996111497875635 8.63401706955378e-05 0.0 0.0
0.0 0.0060494574570045985 -0.005560046325689295 0.004764967059948446 0.0007950792657408506 0.00010617534378878305 0.0 0.0
0.0 0.008972398473850321 -0.008121707532979378 0.007137182765125027 0.0009845247678543479 0.00012675299979500606 0.0 0.0
0.0 0.012707607873512217 -0.011333656836570491 0.01015165279734615 0.001182004039224331 0.00019705312484683576 0.0 0.0
0.0 0.017223650649894662 -0.015457560663896138 0.01406253640181616 0.0013950242620799774 0.00031677315915008093 0.0 0.0
0.0 0.02322449479386202 -0.02079183083081782 0.019173846433430324 0.0016179843973874765 0.00038894324294434313 0.0 0.0
0.0 0.030961339558379174 -0.027610672457883047 0.02576179883486622 0.0018488736230168465 0.0004556748856565456 0.0 0.0
0.0 0.04058314136873714 -0.036039726991778945 0.033970635341548365 0.0020690916502305234 0.00042421691357284177 0.0 0.0
0.0 0.05184915952550808 -0.045829333120189816 0.04357716450774051 0.0022521686124492802 0.00025125533749554424 0.0 0.0
0.0 0.06382318784276465 -0.05619453129165439 0.053829510771178965 0.002365020520475418 -2.1790461566191348e-05 0.0 0.0
0.0 0.07497569123539359 -0.06581253018870536 0.06344308021177782 0.0023694499769274496 -0.0002718663274144202 0.0 0.0
0.0 0.08349288617368784 -0.07322671970114789 0.07088839948103426 0.0023383202201135316 -0.0004554500684783207 0.0 0.0
0.0 0.08592173361271291 -0.07568099874575761 0.07361187764929442 0.002069121096463276 -0.008814855541816251 0.0 0.0
0.0 0.08220045216717768 -0.06955791569504491 0.06217839221622711 0.007379523478817708 2.2620794126737565e-15 0.0 0.0
0.0 0.08592173361270884 -0.07568099874575351 0.07361187764929134 0.0020691210964621553 0.008814855541819945 0.0 0.0
0.0 0.08349288617367637 -0.07322671970113735 0.0708883994810253 0.002338320220112026 0.000455450068481752 0.0 0.0
0.0 0.07497569123537111 -0.0658125301886858 0.06344308021175861 0.0023694499769272635 0.0002718663274167612 0.0 0.0
0.0 0.0638231878427446 -0.056194531291636304 0.053829510771162166 0.002365020520474063 2.1790461566731714e-05 0.0 0.0
0.0 0.05184915952548646 -0.04582933312017061 0.043577164507722435 0.0022521686124482372 -0.00025125533749598746 0.0 0.0
0.0 0.040583141368711516 -0.03603972699175647 0.033970635341526466 0.0020690916502300112 -0.00042421691357358033 0.0 0.0
0.0 0.03096133955835651 -0.02761067245786277 0.02576179883484747 0.0018488736230152995 -0.00045567488565663363 0.0 0.0
0.0 0.023224494793836738 -0.020791830830795378 0.019173846433408977 0.0016179843973864036 -0.0003889432429442447 0.0 0.0
0.0 0.017223650649869915 -0.015457560663874274 0.014062536401795375 0.001395024262078882 -0.0003167731591509188 0.0 0.0
0.0 0.012707607873488885 -0.011333656836549773 0.010151652797326266 0.0011820040392235068 -0.0001970531248474915 0.0 0.0
0.0 0.008972398473831158 -0.008121707532962468 0.007137182765109358 0.0009845247678531139 -0.00012675299979544147 0.0 0.0
0.0 0.0060494574569897866 -0.005560046325675622 0.0047649670599359765 0.0007950792657396465 -0.00010617534378899317 0.0 0.0
0.0 0.0037882068104331383 -0.003510176766393022 0.002910565616606543 0.0005996111497864766 -8.634017069571664e-05 0.0 0.0
0.0 0.0020326590725544195 -0.001910149623796748 0.0015221874779470677 0.00038796214584968004 -8.354282924827788e-05 0.0 0.0
0.0 0.0008576241620372612 -0.0006761649649543344 0.0005061614310422688 0.00017000353391206544 -9.599734831336538e-05 0.0 0.0
0.0 0.00020631852631058998 -5.418344769944763e-05 3.6958438161214445e-05 1.722500953823413e-05 -2.3669802470254543e-05 0.0 0.0
0.0 1.6004297707632548e-06 6.953396171649139e-08 2.353115627768134e-09 -7.188707734427424e-08 3.3915251981027997e-07 0.0 0.0
0.0 0.0 0.0 0.0 0.0 0.0 0.0 0.0
0.0 0.0 0.0 0.0 0.0 0.0 0.0 0.0
0.0 0.0 0.0 0.0 0.0 0.0 0.0 0.0
SCALARS Wm float 4
LOOKUP_TABLE default
7.77770546270188 1.8640533002177344 2.756615878887902 3.1570362835962387
3.041581674562922 1.61334547487671 0.5855943731897939 0.8426418264964182
0.411099890442755 0.42266718222004496 -0.003820322365764444 -0.007746969411525484
0.39423381586179634 0.3976203760983518 -0.0004873687015187258 -0.0028991915350368423
0.6197099552283539 0.5837271102681826 0.014213949535586346 0.021768895424584666
1.0773923307997322 0.7229756671562394 0.10440338743447543 0.25001327620901737
1.8900241817718244 0.9403222823653551 0.3455182827274418 0.6041836166790278
3.039100696557133 1.1681939477311447 0.7451169758532098 1.125789772972777
4.584679524173238 1.4315325921390072 1.345414872106192 1.8077320599280373
6.628516899045769 1.7569122478978547 2.2029457482286587 2.668658902919258
9.330386101228289 2.181000304775039 3.3965339115331252 3.7528518849201267
12.874969166369953 2.7364990128999302 4.98814533630889 5.15032481716114
17.66094371852245 3.4346686034603886 7.2586486076269745 6.9676265074350905
23.98763947347735 4.28720480043754 10.39978109313683 9.300653579902983
32.03041813630681 5.238329979567942 14.599758060976866 12.192330095761989
41.667463854900404 6.167644863511533 19.910330506486236 15.589488484902654
52.28147710464249 6.9011773496147315 26.055138817108183 19.325160937919566
62.80495483024606 7.2850351604038766 32.47499788064303 23.04492178919916
71.95246832496578 7.310844760610226 38.329335262525554 26.312288301829984
78.27587052288268 7.051033232707947 42.544988048452815 28.67984924172192
80.44617123351435 6.6912990614033685 44.14247310419657 29.612399067914392
78.27587052287704 7.0510332327054535 42.544988048450584 28.67984924172101
71.95246832495441 7.310844760609251 38.32933526251882 26.312288301826324
62.804954830227274 7.285035160399994 32.47499788063359 23.044921789193683
52.28147710461894 6.901177349606748 26.055138817098435 19.32516093791375
41.66746385488121 6.167644863508585 19.910330506476235 15.58948848489639
32.03041813628781 5.238329979564594 14.599758060967549 12.192330095755665
23.98763947345943 4.287204800436904 10.399781093126737 9.300653579895792
17.660943718503088 3.434668603457219 7.258648607617816 6.967626507428057
12.8749691663517 2.7364990128970823 4.988145336300488 5.150324817154132
9.330386101212643 2.1810003047720707 3.3965339115264483 3.752851884914125
6.628516899033193 1.7569122478959895 2.202945748223213 2.6686589029139896
4.584679524163711 1.4315325921378135 1.3454148721022277 1.8077320599236704
3.039100696550209 1.1681939477304275 0.7451169758504914 1.12578977296929
1.8900241817669778 0.9403222823643633 0.345518282725937 0.6041836166766774
1.0773923307969153 0.7229756671555069 0.10440338743402866 0.25001327620737973
0.6197099552272469 0.5837271102674274 0.014213949535463488 0.021768895424356227
0.39423381586150097 0.3976203760980121 -0.0004873687015104854 -0.0028991915350004616
0.4110998904423974 0.4226671822195866 -0.003820322365731873 -0.007746969411457273
3.0415816745605655 1.6133454748772782 0.5855943731885239 0.8426418264947636
7.777705462684467 1.8640533002086932 2.7566158788835597 3.1570362835922134
8.734100630085448 4.151092459716051 2.0578227474338338 2.5251854229355657
0.9570555633519071 0.2604929371285567 0.2518617868292302 0.4447008393941202
0.20401577775092994 0.20378738098519922 0.00025542680941454375 -2.7030043683868308e-05
0.3207001690688371 0.3209450569812184 -9.465170453538682e-06 -0.0002354227419278026
0.48545901305065225 0.475023662555745 0.0028142990469133496 0.007621051447994159
0.877944479414225 0.6581275498413801 0.06880566855127543 0.1510112610215696
1.5639869493004335 0.8144537170502774 0.26127027735034203 0.48826295489981386
2.5776726449790295 0.9984252176528244 0.614683098821603 0.9645643285046022
3.934936456281155 1.1917701370922869 1.1526318393706443 1.5905344798182224
5.69296230041079 1.4100475982692178 1.9042488082566837 2.3786658938848895
7.987137573637851 1.6699783777332393 2.9480424487905763 3.3691167471140373
11.062804099609583 1.9908663431071352 4.4345149082669 4.637422848235543
15.06984877771084 2.379522574977485 6.39224016461888 6.298086038114477
20.501923039093 2.8367463788237908 9.22238269748745 8.442793962781755
27.471691553389324 3.3325779072242483 13.010346756687854 11.128766889477218
35.89682478403759 3.7848659090830354 17.806267742927844 14.305691132026709
45.28482691766457 4.083053220739323 23.42299432682687 17.778779370098377
54.73200304900027 4.149364250054208 29.328452367086385 21.254186431859676
63.03844853440931 3.9786001572156144 34.73292384481911 24.326924532374587
68.87405160016972 3.6281389490204594 38.72216873454586 26.52374391660342
70.99563538279396 3.3019135135898368 40.312820968367106 27.380900900837023
68.87405160016444 3.628138949017794 38.72216873454416 26.523743916602477
63.038448534401574 3.978600157217924 34.73292384481276 24.32692453237091
54.732003048986776 4.149364250053198 29.328452367078395 21.254186431855185
45.28482691764752 4.083053220736167 23.422994326818277 17.77877937009309
35.8968247840237 3.7848659090851093 17.80626774291812 14.305691132020478
27.471691553371485 3.3325779072191906 13.010346756680251 11.128766889472042
20.501923039076935 2.836746378823312 9.222382697478453 8.442793962775172
15.06984877769532 2.379522574977032 6.392240164610463 6.298086038107825
11.06280409959404 1.990866343104909 4.434514908259742 4.637422848229384
7.9871375736244525 1.669978377731625 2.948042448784453 3.369116747108375
5.692962300399937 1.4100475982677865 1.9042488082520503 2.3786658938800995
3.9349364562726588 1.19177013709116 1.1526318393672594 1.5905344798142382
2.577672644972943 0.9984252176523373 0.6146830988192183 0.9645643285013865
1.5639869492962064 0.8144537170492943 0.2612702773491442 0.48826295489776766
0.8779444794118425 0.6581275498406369 0.06880566855067807 0.15101126102052762
0.4854590130498625 0.475023662555098 0.0028142990468684103 0.007621051447896204
0.32070016906858984 0.32094505698094566 -9.46517045074064e-06 -0.00023542274190512186
0.20401577775092072 0.203787380985181 0.0002554268094156493 -2.703004367595855e-05
0.957055563349471 0.2604929371286512 0.25186178682812604 0.4447008393926933
8.73410063006852 4.151092459707549 2.0578227474296162 2.5251854229313557
6.379272132040132 3.2461675093755877 1.3324660135246438 1.8006386091399005
0.5335629269662914 0.0869501854530684 0.1499934608365509 0.2966192806766719
0.12619858942672352 0.12619902588438187 -1.80369121587346e-08 -4.1842074621861334e-07
0.24261032397688598 0.24265373042930205 5.039972237387857e-06 -4.844642465346767e-05
0.3865263692763567 0.38999652670029467 -0.000984104409275984 -0.0024860530146619867
0.6901133307919246 0.5901529432905845 0.030992602024370767 0.06896778547696943
1.2605358543832152 0.742390503563728 0.16798264361682977 0.35016270720265735
2.1472594618077085 0.9247456587245607 0.4579581779578087 0.7645556251253394
3.3290978525858677 1.1075281638106889 0.9032863564670005 1.318283332308177
4.8681454314227315 1.308840353360671 1.5464254228570873 2.012879655204973
6.853240008382527 1.5420184556696341 2.4300565273259647 2.881165025386925
9.444994344975267 1.8209327350603273 3.631597948279403 3.992463661635538
13.003573844176003 2.1666777314621366 5.398166895529518 5.438729217184353
17.64219154587074 2.57135939142841 7.734184782778412 7.336647371663919
23.744774186088044 3.0072326329619203 11.008564382173901 9.728977170952218
31.17204932523364 3.414386632892633 15.174387055040079 12.583275637300947
39.51291200470514 3.707789823001396 20.057980746828537 15.747141434875216
47.973764443176606 3.8087427735799237 25.250749907813276 18.914271761783418
55.467185866598214 3.677553097105971 30.06965987219019 21.719972897302032
60.77301003724652 3.3949947819811515 33.650723262445986 23.727291992819396
62.67641312257721 3.0279449680842125 35.103241593678185 24.545226560814825
60.77301003724275 3.394994781979294 33.650723262444764 23.72729199281868
55.46718586659 3.677553097106436 30.069659872184644 21.7199728972989
47.97376444316761 3.808742773582349 25.250749907806224 18.914271761779045
39.51291200468919 3.707789822996241 20.05798074682184 15.747141434871097
31.172049325218733 3.414386632891266 15.174387055031927 12.583275637295538
23.744774186075954 3.007232632962006 11.008564382166758 9.728977170947196
17.642191545855823 2.5713593914264847 7.734184782771031 7.336647371658307
13.003573844160035 2.166677731457977 5.3981668955230475 5.438729217179011
9.444994344962106 1.8209327350588635 3.6315979482731975 3.992463661630045
6.853240008370793 1.5420184556683625 2.430056527320725 2.881165025381707
4.868145431413669 1.3088403533597137 1.5464254228532304 2.012879655200726
3.329097852578411 1.107528163809463 0.9032863564642111 1.3182833323047367
2.147259461802244 0.9247456587238132 0.45795817795584176 0.7645556251225896
1.2605358543797034 0.7423905035628182 0.16798264361600304 0.35016270720088233
0.6901133307901565 0.5901529432898852 0.0309926020240172 0.06896778547625387
0.38652636927581363 0.38999652669968043 -0.0009841044092578051 -0.002486053014609132
0.24261032397670038 0.24265373042910574 5.039972238262872e-06 -4.844642464358052e-05
0.12619858942669715 0.1261990258843552 -1.8036912141597065e-08 -4.184207459031903e-07
0.5335629269643973 0.0869501854534543 0.1499934608356595 0.29661928067528304
6.379272132025035 3.2461675093684796 1.3324660135208355 1.8006386091357214
4.703884254614311 2.5219899608457137 0.8816783088821727 1.3002159848864268
0.32724976047660476 0.06464060759334431 0.07738227749346453 0.1852268753897953
0.08881587606160452 0.08881587606160452 0.0 0.0
0.17994056366214928 0.1799024215922484 2.762707400739038e-06 3.5379362500165364e-05
0.3106600999255545 0.3130987145432537 -0.00042096113735254164 -0.0020176534803466673
0.5271121099923237 0.5003129891187398 0.006429750507202932 0.020369370366380934
0.9914019952300696 0.6862393414664386 0.09596830068488535 0.20919435307874565
1.732571495052775 0.8454818806024789 0.31625814240202876 0.5708314720482679
2.7538465103432754 1.0191601278304778 0.6816121722420353 1.0530742102707626
4.071322702647595 1.2040101302705655 1.21073423463563 1.6565783377413996
5.744456685084494 1.4096209600905367 1.926853212279765 2.407982512714191
7.962579363754063 1.6567339440452313 2.9437966869672585 3.3620487327415733
10.890509113140357 1.9532694132718278 4.326998071334034 4.610241628534494
14.95350227146338 2.30652827564074 6.401771193787745 6.245202802034893
20.159771354175042 2.6904876815974057 9.127404473503859 8.341879199073777
26.539256741568387 3.055675644458537 12.615123243830805 10.868457853279041
33.86933926793427 3.3425318377278623 16.84646535525799 13.68034207494843
41.3804799722254 3.476065091974447 21.358929661310913 16.545485218940033
48.10739088494602 3.402517236282055 25.57841741688162 19.12645623178236
52.94169099738535 3.1717385176774306 28.756079253319392 21.013873226388533
54.685274114253495 2.738618667668972 30.14857361426529 21.79808183231923
52.94169099738281 3.1717385176773636 28.756079253317818 21.013873226387616
48.10739088493967 3.402517236282483 25.57841741687739 19.126456231779795
41.38047997221575 3.47606509197494 21.35892966130464 16.545485218936165
33.86933926792378 3.342531837726846 16.84646535525226 13.680342074944678
26.539256741556105 3.05567564445638 12.615123243824813 10.868457853274919
20.159771354161325 2.6904876815952306 9.127404473497194 8.341879199068888
14.953502271452283 2.3065282756403716 6.401771193781788 6.245202802030125
10.890509113128063 1.9532694132684236 4.326998071329255 4.610241628530386
7.962579363742688 1.6567339440443276 2.943796686961898 3.3620487327364628
5.744456685074649 1.4096209600896386 1.9268532122753972 2.407982512709615
4.0713227026393 1.2040101302693276 1.2107342346323227 1.6565783377376497
2.7538465103368015 1.0191601278292632 0.6816121722397401 1.0530742102677981
1.7325714950482656 0.8454818806015654 0.31625814240075023 0.5708314720459495
0.9914019952270414 0.6862393414655337 0.09596830068407208 0.20919435307743542
0.5271121099910188 0.5003129891178129 0.006429750507078658 0.020369370366127366
0.3106600999251097 0.3130987145427645 -0.0004209611373460137 -0.0020176534803087575
0.179940563662 0.17990242159210762 2.762707400018399e-06 3.5379362492379505e-05
0.08881587606151321 0.08881587606151321 0.0 0.0
0.3272497604750184 0.06464060759360203 0.07738227749274229 0.18522687538867372
4.703884254602253 2.52198996084013 0.8816783088793392 1.3002159848827841
3.4049700994468477 1.9359246603314921 0.5534781904956481 0.915567248619708
0.25021666240261664 0.11046605307107851 0.04739127451307237 0.09235933481846549
0.08001511035493798 0.08001511035493798 0.0 0.0
0.1388173529903918 0.1388228956121371 -4.2444358086294644e-07 -5.118178164441581e-06
0.24990659495836887 0.2494099029509505 8.873969285881148e-05 0.0004079523145594827
0.4081139558027203 0.4163943578345004 -0.0025809810428640612 -0.005699420988915951
0.7500003866262028 0.6082053727733265 0.046715291678825425 0.09507972217405107
1.3402082033526992 0.7618581434811628 0.19314831753994055 0.3852017423315959
2.199922757510819 0.9240609774498686 0.48000318282494475 0.7958585972360059
3.301175258090952 1.092626016719329 0.8973246593283397 1.311224582043283
4.701673589739917 1.2766600328243891 1.4771329279838412 1.947880628931687
6.525791242633931 1.49014828715012 2.2846092182640034 2.7510337372198084
8.993677962002865 1.747507819091482 3.447725561764349 3.798444581147035
12.252993125792562 2.047504040345831 5.017864897607073 5.187624187839661
16.655652263644953 2.3757407320402932 7.305133532484723 6.974777999119946
22.13143786034733 2.7047407362827474 10.27341062336017 9.153286500704409
28.361877667792456 2.9864864888395495 13.753447521818922 11.621943657133984
34.913438864360934 3.1516200887113346 17.59805454060847 14.163764235041135
40.91733412500981 3.1401920747962317 21.283296326711092 16.49384572350249
45.36567028906294 2.9546131262435025 24.156419000340012 18.25463816247943
46.99235582063262 2.444979350195554 25.489539917875334 19.057836552561742
45.365670289060205 2.954613126243576 24.15641900033829 18.254638162478344
40.917334125006406 3.140192074799452 21.283296326706967 16.49384572349998
34.91343886435242 3.1516200887102404 17.598054540603954 14.163764235038238
28.36187766778322 2.9864864888399287 13.753447521813165 11.621943657130117
22.131437860337257 2.704740736280882 10.27341062335539 9.153286500700988
16.655652263635897 2.3757407320405988 7.305133532479433 6.974777999115864
12.252993125782162 2.0475040403444096 5.017864897602184 5.187624187835569
8.99367796199356 1.7475078190907052 3.4477255617599143 3.798444581142942
6.525791242624539 1.4901482871495049 2.284609218259629 2.7510337372154057
4.701673589731566 1.2766600328235973 1.4771329279802483 1.947880628927721
3.3011752580838802 1.092626016717729 0.8973246593258598 1.311224582040292
2.1999227575055333 0.9240609774489933 0.48000318282317267 0.7958585972333673
1.340208203348928 0.7618581434801561 0.1931483175389105 0.38520174232986115
0.7500003866240192 0.6082053727725865 0.04671529167831363 0.09507972217311933
0.40811395580189036 0.4163943578336629 -0.0025809810428561986 -0.005699420988916477
0.24990659495801354 0.24940990295058518 8.873969285957786e-05 0.0004079523145688449
0.13881735299016937 0.13882289561191383 -4.244435807835282e-07 -5.118178163679836e-06
0.08001511035474844 0.08001511035474844 0.0 0.0
0.2502166624011656 0.11046605307105332 0.047391274512493003 0.09235933481761933
3.4049700994377283 1.9359246603274762 0.5534781904935333 0.9155672486167189
2.4169083391134483 1.4848230244169751 0.33016041481881675 0.6019248998776564
0.18840225127573515 0.14291563297913693 0.00850627047399373 0.03698034782260444
0.08964868949215025 0.08964868949215025 0.0 0.0
0.11795381024126805 0.11795381024126805 0.0 0.0
0.20361700737094557 0.20352251762628415 8.906198487470713e-06 8.558354617396109e-05
0.3220983252352039 0.3280154110564778 -0.0014073480447094743 -0.004509737776564528
0.540581476957715 0.4975122690652828 0.008312831659950825 0.0347563762324813
1.0030258865062638 0.6861312016103082 0.1117624869897564 0.20513219790619902
1.6575228851578816 0.813712701751355 0.2942083652422944 0.5496018181642318
2.5726333484607258 0.975877277254444 0.6199584600626071 0.9767976111436742
3.703364255314934 1.1378577374416623 1.0633577143872253 1.502148803486047
5.158956597187014 1.3211150494046289 1.6775673694365645 2.16027417834582
7.105741388274522 1.5387531595375863 2.552227024810974 3.0147612039259624
9.780451440089012 1.7921481958866081 3.836742577005126 4.151560667197275
13.302419561780244 2.0754477184871316 5.591711352899391 5.635260490393724
17.72980307515565 2.358963282162264 7.905580403087077 7.46525938990631
23.044234171413954 2.6262392753018937 10.863254404789869 9.554740491322198
28.613859287477165 2.8288592877624827 14.014759544046504 11.770240455668175
33.84438303606143 2.8831353606385006 17.09827278527365 13.862974890149273
37.960913996719455 2.743527371847142 19.70940265758655 15.50798396728577
39.509963089010384 2.150902613079215 21.027681340078747 16.331379135852444
37.96091399671734 2.743527371847324 19.709402657585134 15.507983967284861
33.844383036055454 2.883135360637854 17.098272785270396 13.862974890147196
28.613859287470532 2.8288592877614254 14.014759544043143 11.77024045566596
23.04423417140422 2.6262392752998127 10.86325440478537 9.55474049131903
17.729803075148954 2.3589632821633852 7.9055804030826415 7.465259389902935
13.302419561771465 2.075447718486176 5.591711352895063 5.635260490390225
9.780451440081073 1.7921481958852468 3.836742577001671 4.151560667194157
7.105741388266687 1.5387531595371209 2.5522270248072187 3.0147612039223475
5.158956597178719 1.3211150494027837 1.6775673694334483 2.160274178342487
3.703364255308179 1.1378577374412837 1.063357714384276 1.5021488034826187
2.572633348455454 0.9758772772538747 0.6199584600606269 0.9767976111409525
1.6575228851537207 0.8137127017507871 0.29420836524091853 0.5496018181620157
1.0030258865032016 0.6861312016092092 0.11176248698898866 0.20513219790500353
0.5405814769560837 0.4975122690642015 0.008312831659788062 0.034756376232094356
0.3220983252345737 0.32801541105569715 -0.0014073480446754802 -0.004509737776447977
0.2036170073706527 0.20352251762600074 8.906198486462025e-06 8.558354616548087e-05
0.1179538102409862 0.1179538102409862 0.0 0.0
0.08964868949189451 0.08964868949189451 0.0 0.0
0.1884022512745696 0.14291563297891305 0.008506270473642682 0.03698034782201393
2.4169083391068185 1.4848230244139848 0.3301604148174123 0.601924899875422
1.6525320443694729 1.1206311619923204 0.1684276780874168 0.36347320428973584
0.16533757722601047 0.1761089526359007 -0.006198155605182747 -0.004573219804707514
0.10836577156951308 0.10836577156951308 0.0 0.0
0.1132225220870421 0.1132225220870421 0.0 0.0
0.1714126433106727 0.17132650046096257 7.828390201779132e-06 7.831445950834427e-05
0.25914364553768093 0.26075119570742306 -0.00021910933519751698 -0.0013884408345445477
0.39860894719828016 0.4111355248473437 -0.004355621833808664 -0.008170955815254977
0.6782988426272436 0.5544659144105932 0.03057565636830061 0.09325727184834945
1.2055223097223062 0.7265956785697918 0.1747226269509636 0.30420400420155086
1.8630371151700378 0.8422030166291855 0.36592840562837964 0.6549056929124728
2.7609897237220733 0.9918370390388793 0.6965331080936689 1.0726195765895261
3.881513469984398 1.148166024891963 1.143641438544281 1.589706006548154
5.36017441272098 1.329165429444199 1.7729007531822063 2.2581082300945745
7.382212771701498 1.5389544850335233 2.6936062642852625 3.1496520223827136
10.095687637167828 1.772515114408763 3.996260702327203 4.326911820431862
13.657240986130196 2.025762240098293 5.832541361231983 5.798937384799914
17.73581730051096 2.269146407010155 7.942535063494269 7.5241358300065375
22.387733087183662 2.488850201208047 10.534378403426347 9.36450448254927
26.99984341626733 2.619006794722768 13.191035782490959 11.189800839053596
30.750079201864917 2.540506315425998 15.469552924099789 12.74001996233913
32.26992680795287 1.8622921033269555 16.800369237779428 13.607265466846489
30.750079201863137 2.5405063154255045 15.46955292409898 12.740019962338653
26.99984341626559 2.6190067947248528 13.191035782488692 11.18980083905205
22.387733087179065 2.488850201208286 10.534378403423494 9.364504482547279
17.73581730050392 2.269146407008199 7.9425350634913485 7.524135830004371
13.657240986122813 2.0257622400976856 5.832541361228219 5.798937384796908
10.095687637162017 1.7725151144084386 3.9962607023243217 4.326911820429256
7.382212771695049 1.5389544850314827 2.693606264283024 3.1496520223805446
5.360174412714926 1.329165429443773 1.7729007531794343 2.258108230091717
3.8815134699790956 1.148166024891635 1.143641438541943 1.589706006545518
2.760989723716534 0.9918370390381038 0.6965331080915995 1.072619576586831
1.8630371151655356 0.8422030166285656 0.3659284056267694 0.6549056929102015
1.2055223097189611 0.7265956785691092 0.17472262694986523 0.30420400419998644
0.6782988426254082 0.5544659144096613 0.03057565636799477 0.09325727184775234
0.39860894719743284 0.41113552484634835 -0.004355621833780879 -0.00817095581513472
0.25914364553719604 0.2607511957069057 -0.0002191093351905584 -0.0013884408345190022
0.17141264331033085 0.17132650046062736 7.828390200932262e-06 7.831445950258222e-05
0.11322252208674656 0.11322252208674656 0.0 0.0
0.108365771569172 0.108365771569172 0.0 0.0
0.1653375772252171 0.17610895263555212 -0.006198155605330814 -0.004573219805004176
1.6525320443647717 1.120631161990154 0.16842767808654155 0.3634732042880763
1.1273071956607568 0.8976472812682996 0.07828093536221077 0.15137897903024694
0.15135825103022002 0.17567837204479916 -0.009510119374777108 -0.01481000163980201
0.12960693665258333 0.12960693665258333 0.0 0.0
0.11954842185479764 0.11954842185479764 0.0 0.0
0.1531349906839788 0.15311257857279806 1.8172994548958084e-06 2.0594811725824774e-05
0.21364685642198813 0.21369127156213005 -1.4404941646323642e-05 -3.0010198495645545e-05
0.2993809721135576 0.30925851177411035 -0.0023154253816256966 -0.007562114278927098
0.455916857271333 0.435374647084705 0.0013856059921598441 0.019156604194468296
0.7532633723484153 0.5746822855876762 0.048456685726760595 0.13012440103397843
1.2579162398578019 0.719986765246799 0.194695939731265 0.3432335348797381
1.8742713022234716 0.8327195640388115 0.3828329688250507 0.6587187693596098
2.6776902742818196 0.960950743764391 0.6717297779703054 1.0450097525471227
3.736869904366903 1.1110412724349292 1.0923891009795645 1.5334395309524094
5.168947227288307 1.2796214011429579 1.7020126065527035 2.1873132195926464
7.141851606447724 1.4737766964270476 2.6094290141362166 3.0586458958844607
9.685935018988483 1.6846431878790658 3.827419077621635 4.173872753487783
12.8719299658527 1.9114846939604604 5.462130414194295 5.498314857697948
16.425346111469217 2.137393773445652 7.303545834332454 6.984406503691112
20.134568128367604 2.3233332206214135 9.29736624190593 8.513868665840263
23.587146088297953 2.332422711497552 11.320726797587337 9.933996579213055
25.13411570679449 1.5762363315407677 12.696799345181116 10.861080030072614
23.587146088299075 2.3324227114996563 11.320726797586746 9.933996579212671
20.13456812836479 2.3233332206218074 9.29736624190406 8.513868665838931
16.425346111464265 2.1373937734448343 7.303545834330112 6.984406503689321
12.871929965848148 1.9114846939598567 5.462130414192125 5.498314857696168
9.685935018983535 1.6846431878788282 3.8274190776191097 4.173872753485599
7.141851606442627 1.4737766964259613 2.60942901413416 3.0586458958825054
5.168947227284953 1.2796214011426026 1.7020126065512269 2.1873132195911222
3.7368699043623677 1.1110412724339274 1.0923891009779123 1.5334395309505289
2.67769027427755 0.960950743763895 0.6717297779686763 1.0450097525449786
1.8742713022194752 0.8327195640380378 0.3828329688237535 0.658718769357684
1.2579162398547323 0.7199867652461369 0.19469593973027846 0.34323353487831676
0.7532633723464949 0.5746822855869694 0.048456685726336185 0.13012440103318942
0.45591685727028847 0.43537464708394047 0.0013856059920948171 0.019156604194253017
0.29938097211289305 0.30925851177329744 -0.0023154253815967944 -0.007562114278807677
0.213646856421616 0.21369127156174114 -1.4404941645341769e-05 -3.0010198479854038e-05
0.1531349906836084 0.15311257857243432 1.8172994544034804e-06 2.0594811719682714e-05
0.11954842185446685 0.11954842185446685 0.0 0.0
0.1296069366522613 0.1296069366522613 0.0 0.0
0.15135825102975692 0.17567837204425493 -0.009510119374731812 -0.014810001639766228
1.1273071956575185 0.8976472812667947 0.07828093536156827 0.1513789790291556
0.7377075793530827 0.6732989808871289 0.01634125739303381 0.04806734107291991
0.15362831015043626 0.16346636995074568 -0.002463373698270462 -0.0073746861020389945
0.1491264064978309 0.14922710579512374 -8.195463381177545e-06 -9.25038339116555e-05
0.13234305087383505 0.13234305087383505 0.0 0.0
0.14654970518233662 0.14654067684499128 2.5498622371285784e-07 8.773351121642145e-06
0.1837037647411431 0.18327015345008763 6.340212705939533e-05 0.00037020916399606156
0.23528880413765363 0.23894309741286252 -0.0008347074244458472 -0.0028195858507630497
0.3141499237252777 0.32693742187895364 -0.0030394984783312555 -0.009747999675344659
0.4499199632009713 0.4253784001244695 0.003905733303765141 0.0206358297727368
0.6971551538135943 0.5425498796278551 0.04556212628302715 0.10904314790271198
1.067106329033694 0.6371049862686526 0.13538782807849478 0.29461351468654656
1.5752239392537082 0.7487817837436694 0.29039113253414184 0.5360510229758967
2.2445823914772154 0.8672484776045036 0.5231168155562156 0.8542170983164966
3.1477801238461716 0.9981822992324351 0.8676027275892152 1.281995097024521
4.398672974974802 1.1504844487615686 1.390139347294007 1.8580491789192268
6.075793294747302 1.3232923382947046 2.1426524829867404 2.6098484734658562
8.215820645030282 1.5299103202672761 3.1442483666755856 3.5416619580874227
10.735385679885235 1.738669455126689 4.3644497815240015 4.632266443234547
13.605020547608282 1.9648065613279997 5.8051725985086815 5.8350413877716
16.68031118722334 2.108296769931461 7.477210648825874 7.094803768466003
18.229354809315986 1.3085428589270713 8.76918991069302 8.151622039695887
16.680311187223555 2.1082967699322284 7.477210648825551 7.094803768465779
13.605020547606347 1.9648065613273424 5.8051725985079745 5.835041387771025
10.735385679882217 1.7386694551262587 4.36444978152257 4.632266443233389
8.215820645026563 1.5299103202666617 3.1442483666739616 3.54166195808594
6.075793294743534 1.3232923382938895 2.142652482985242 2.6098484734644014
4.398672974971346 1.1504844487596215 1.3901393472932684 1.858049178918455
3.147780123843353 0.9981822992317542 0.8676027275882152 1.2819950970233853
2.244582391474238 0.8672484776028067 0.523116815555718 0.8542170983157137
1.5752239392513052 0.7487817837434065 0.2903911325332384 0.5360510229746601
1.0671063290312215 0.6371049862682879 0.1353878280777347 0.29461351468519903
0.6971551538118844 0.5425498796271679 0.045562126282664664 0.10904314790205193
0.44991996319995414 0.42537840012382355 0.0039057333036608332 0.020635829772469555
0.3141499237246491 0.326937421878313 -0.0030394984783288065 -0.009747999675335099
0.23528880413723097 0.238943097412352 -0.0008347074244255489 -0.002819585850695532
0.18370376474082956 0.18327015344975545 6.340212705995697e-05 0.0003702091640141436
0.14654970518194757 0.14654067684461064 2.549862230170516e-07 8.7733511139407e-06
0.13234305087350284 0.13234305087350284 0.0 0.0
0.14912640649750306 0.14922710579477708 -8.195463379299513e-06 -9.250383389474406e-05
0.1536283101501587 0.16346636995022112 -0.0024633736982231443 -0.007374686101839251
0.7377075793512061 0.6732989808859853 0.016341257392804842 0.048067341072416
0.5021704449500404 0.5100748664633645 -0.0014440488737129226 -0.006460372639611285
0.15554373531821672 0.15446827596584883 0.0001955622495122494 0.000879897102855667
0.16428337877413351 0.1642869907736324 -1.9801900304647406e-07 -3.4139804958538477e-06
0.14773126334003217 0.14774940908314826 -1.1251006770666433e-06 -1.7020642439032754e-05
0.14910049433134068 0.14906434717487582 4.197779080709848e-06 3.194937738412248e-05
0.16920145307223194 0.16928583009682596 -3.604873582223196e-06 -8.077215101174288e-05
0.19866630351378575 0.20121497308872258 -0.0005037042329458998 -0.0020449653419909513
0.2324902517242095 0.2348902824360446 -0.000762657702751515 -0.0016373730090835147
0.27919250872774704 0.2667454439542388 0.002265139268820109 0.010181925504688093
0.34576432364093485 0.31238005706973365 0.007906059318236758 0.02547820725296436
0.4796164647439468 0.4008979677871548 0.026897582132522156 0.051820914824269815
0.6700229182254215 0.46216381354209457 0.06126628434406931 0.14659282033925763
0.9646567403653851 0.5560044377950917 0.13368249458783182 0.2749698079824614
1.398128759878124 0.6547615935010493 0.26313418124094373 0.48023298513613094
2.0132868675144286 0.7477895924362862 0.4780544952240255 0.7874427798541159
2.882889688866977 0.8653770913651204 0.8078301189095076 1.2096824785923481
4.082924086539306 1.031787114599649 1.2931220822211265 1.7580148897185317
5.702487332321379 1.236097670732878 2.002816787398428 2.4635728741900746
7.628082400757584 1.4352009138437878 2.8896977406341273 3.303183746279667
10.000018871217033 1.7349208806106937 3.973074171955011 4.2920238186513275
11.936783881892962 1.0680622685529833 5.391563722502413 5.4771578908375655
10.000018871217527 1.7349208806100733 3.9730741719556195 4.2920238186518365
7.628082400757611 1.43520091384391 2.8896977406340625 3.3031837462796383
5.702487332321308 1.2360976707352465 2.0028167873971965 2.4635728741888667
4.082924086537672 1.0317871146003046 1.2931220822199916 1.7580148897173773
2.8828896888660496 0.865377091365622 0.8078301189088798 1.209682478591547
2.013286867514896 0.7477895924372537 0.47805449522389654 0.7874427798537456
1.3981287598774401 0.6547615935010426 0.2631341812406384 0.48023298513575924
0.9646567403652444 0.5560044377953515 0.13368249458769593 0.274969807982197
0.6700229182242271 0.46216381354177277 0.06126628434375972 0.14659282033869475
0.4796164647426481 0.4008979677866671 0.026897582132225734 0.05182091482375519
0.345764323640509 0.3123800570692741 0.007906059318253647 0.025478207252981153
0.27919250872744533 0.2667454439540451 0.0022651392687859113 0.010181925504614322
0.2324902517237895 0.23489028243567717 -0.0007626577027636917 -0.0016373730091239365
0.198666303513418 0.20121497308829606 -0.0005037042329339021 -0.0020449653419441615
0.1692014530718735 0.16928583009644887 -3.604873580265281e-06 -8.077215099507151e-05
0.1491004943309836 0.1490643471745165 4.197779080708162e-06 3.194937738642501e-05
0.1477312633396971 0.14774940908280457 -1.125100676383091e-06 -1.702064243101171e-05
0.1642833787737571 0.16428699077325432 -1.9801900287102002e-07 -3.4139804943623095e-06
0.15554373531800492 0.1544682759656415 0.00019556224951061232 0.0008798971028528089
0.5021704449489167 0.5100748664621869 -0.0014440488737008294 -0.006460372639569439
0.34389995309596794 0.34363766225607295 3.299210283862855e-05 0.0002292987370563569
0.1524031383526417 0.1523906276548674 -7.492606070267292e-07 1.3259958381297367e-05
0.17378989207876064 0.1739289579767617 -1.1298045831810909e-05 -0.00012776785216922468
0.1626651403874933 0.16270974525875231 -3.0090264717618683e-06 -4.159584478721377e-05
0.1582028148870471 0.15820235859152051 1.2746668436716983e-06 -8.183713171120655e-07
0.16889832447653289 0.16893058325579433 2.194431352722773e-06 -3.445321061420714e-05
0.18831680070295773 0.19089207273388747 -0.0004819165670311632 -0.002093355463898586
0.20756285048914214 0.20644852419488396 -0.0001026554381179692 0.001216981732376071
0.22173590612864685 0.2163389882558573 0.001425539545258016 0.003971378327531472
0.24046256912218544 0.20792863454677796 0.007735777518048685 0.024798157057358886
0.26674312845864134 0.20915946533428428 0.01840796950081584 0.03917569362354112
0.3050597292672096 0.19191118437200802 0.03230103941592971 0.08084750547927172
0.362891271677452 0.17934300341985576 0.05637845215987192 0.1271698160977242
0.45383409724247686 0.1775294755743348 0.09338868984514062 0.18291593182300145
0.6142703318747225 0.205593242724121 0.1520473066177949 0.2566297825328066
0.8624325224745505 0.25952041446649354 0.23310848542302018 0.3698036225850367
1.251518556173625 0.27210117702254627 0.39015403939833876 0.5892633397527397
1.849600995182211 0.2672169240996147 0.6533005504431341 0.9290835206394625
2.829261527459816 0.391952331636264 1.055176126158122 1.382133069665429
4.621735561257546 0.9438084153641801 1.6141062106443644 2.0638209352490025
7.551984851909925 0.8352140204060432 3.121978326839798 3.594792504664084
4.621735561259162 0.9438084153637856 1.6141062106454058 2.063820935249973
2.8292615274601802 0.3919523316363268 1.0551761261582617 1.3821330696655918
1.8496009951783785 0.26721692409783127 0.6533005504421722 0.9290835206383754
1.2515185561706135 0.2721011770209444 0.3901540393977168 0.5892633397519514
0.862432522473406 0.25952041446595164 0.23310848542279305 0.3698036225846612
0.6142703318734339 0.20559324272294938 0.152047306617707 0.2566297825327776
0.45383409724214463 0.17752947557413812 0.09338868984510085 0.1829159318229056
0.3628912716761843 0.17934300341946233 0.05637845215953452 0.12716981609718736
0.30505972926703395 0.19191118437219284 0.03230103941584668 0.08084750547899458
0.2667431284580315 0.2091594653342951 0.01840796950059078 0.03917569362314548
0.24046256912200165 0.20792863454663296 0.007735777518038846 0.024798157057329878
0.22173590612864252 0.21633898825589987 0.0014255395452445181 0.003971378327498129
0.2075628504888761 0.2064485241946244 -0.00010265543812304864 0.0012169817323748062
0.18831680070252765 0.1908920727334154 -0.00048191656702279876 -0.0020933554638650357
0.16889832447615316 0.16893058325539204 2.194431354928429e-06 -3.445321059380875e-05
0.15820281488671278 0.1582023585911693 1.2746668447383521e-06 -8.183713012188865e-07
0.1626651403871141 0.1627097452583533 -3.009026470089872e-06 -4.1595844769073125e-05
0.17378989207843087 0.17392895797641583 -1.1298045829985204e-05 -0.00012776785215497615
0.15240313835238034 0.1523906276546166 -7.492606078632508e-07 1.3259958371584908e-05
0.34389995309529564 0.3436376622553866 3.2992102838717406e-05 0.00022929873707024426
0.2301272243312018 0.2301272243312018 0.0 0.0
0.14297731162339444 0.14298133206151975 -4.763192574838608e-07 -3.544118867873812e-06
0.1767721327591839 0.17674067031435864 2.93507319707615e-06 2.8527371628245575e-05
0.17506388391358274 0.1751197003397693 -4.477284794431172e-06 -5.13391413922115e-05
0.17161074384831004 0.17156320952102405 7.5083836910334716e-06 4.002594359496312e-05
0.18169325254491497 0.18146451950425407 4.1587729815220234e-05 0.00018714531084569396
0.2039085100309278 0.20753708311531702 -0.000678323677049495 -0.002950249407339765
0.23366648572553922 0.2361998947946929 -0.000753620340334708 -0.0017797887288189544
0.278908431788038 0.26644931444442416 0.002287125496628796 0.010171991846984852
0.3450890969097853 0.3118753550687178 0.00784205199536752 0.025371689845700113
0.47866907666128616 0.4002738986525152 0.026399124552771297 0.05199605345599985
0.6714138554721489 0.4632837035461142 0.06274096051959958 0.14538919140643533
0.9668916300157746 0.5575295153336892 0.13404437425867785 0.27531774042340784
1.4035850545544566 0.6565658252833233 0.26482974831281764 0.48218948095831604
2.0080040239523114 0.7451444898598197 0.4772810461731522 0.785578487919339
2.786453491289303 0.8421417344312281 0.7781348072464582 1.166176949611616
3.636347446074902 0.9399198528073671 1.127239525906158 1.569188067361376
4.368976047304409 1.0076550069035957 1.480401779658194 1.8809192607426195
4.657619994039278 1.027393342035865 1.63550755005604 1.9947191019473711
3.8521402513537994 0.5192775722272004 1.5340293481259177 1.798833331000681
7.614171880047886 1.4997110766065036 2.7763652151050175 3.338095588336364
3.8521402513570453 0.5192775722281429 1.5340293481271141 1.798833331001787
4.657619994038885 1.027393342035116 1.6355075500561989 1.994719101947573
4.368976047303303 1.0076550069041166 1.480401779657373 1.8809192607418133
3.6363474460740384 0.9399198528088228 1.1272395259050934 1.5691880673601237
2.7864534912869017 0.8421417344310583 0.7781348072454883 1.1661769496103551
2.008004023951258 0.7451444898603253 0.4772810461725584 0.7855784879183736
1.4035850545527104 0.6565658252832365 0.2648297483121307 0.4821894809573428
0.9668916300140395 0.5575295153333125 0.1340443742581569 0.2753177404225704
0.6714138554698815 0.46328370354516735 0.06274096051911868 0.14538919140559553
0.47866907665934666 0.400273898651594 0.026399124552411266 0.05199605345534149
0.34508909690909617 0.31187535506802516 0.007842051995376974 0.025371689845693848
0.2789084317874774 0.26644931444398956 0.0022871254965882884 0.010171991846899545
0.2336664857252366 0.23619989479439768 -0.0007536203403357925 -0.0017797887288253276
0.20390851003054042 0.20753708311488653 -0.0006783236770398593 -0.00295024940730621
0.1816932525444342 0.18146451950374615 4.158772981790338e-05 0.00018714531087015828
0.17161074384786856 0.17156320952056486 7.508383692143861e-06 4.00259436115903e-05
0.1750638839132272 0.17511970033939286 -4.477284792821856e-06 -5.1339141372841755e-05
0.1767721327589015 0.17674067031406449 2.9350731972650346e-06 2.852737163970177e-05
0.14297731162307226 0.14298133206120275 -4.7631925769044824e-07 -3.5441188728086123e-06
0.23012722433072302 0.23012722433072302 0.0 0.0
0.14800299677012846 0.14800299677012846 0.0 0.0
0.12778679828843495 0.12778752841066637 -3.4333122731160884e-08 -6.957891086760974e-07
0.17314561134614243 0.173119673033501 2.016410127340017e-06 2.39219025141398e-05
0.18368780377306565 0.18364227013464857 6.741537791692081e-06 3.8792100625377955e-05
0.18777670427710152 0.18805361877334648 -2.6581448198847284e-05 -0.00025033304804607937
0.20637800770622378 0.20737106492118712 -0.0001333490727805454 -0.0008597081421828205
0.24413922532570814 0.24551978270201658 -0.0004953978718322651 -0.0008851595044762259
0.31647428281774215 0.32871923150236015 -0.002857834883411901 -0.009387113801206009
0.4492753431006501 0.4247380346820602 0.003930324642764682 0.02060698377582535
0.6959005409682986 0.5421988558086349 0.04519221034762668 0.10850947481203657
1.066235124804933 0.6369256506541823 0.13507750711128158 0.294231967039469
1.5750493627836188 0.7487509756024382 0.29033405369217663 0.5359643334890043
2.245845517979679 0.8675509330416287 0.5236170580164486 0.8546775269216018
3.152775540669613 0.9991372532555223 0.8696910473885103 1.2839472400255814
4.398616156230185 1.1477552191975349 1.3920703718594394 1.8587905651732086
5.995757445850963 1.3008642443309442 2.114485031451476 2.580408170068545
7.802926427253375 1.445464054366236 2.9715720072389935 3.3858903656481445
9.48130636912848 1.5795561697505154 3.7654201627531783 4.136330036624793
10.476183569793779 1.6306158031086104 4.280199203887852 4.565368562797319
9.796575124111104 1.6599010261887717 3.972427364586105 4.164246733336226
11.599436369413937 3.337427189577082 3.9475968061974016 4.314412373639449
9.796575124111358 1.6599010261874008 3.972427364587009 4.164246733336946
10.476183569794168 1.630615803108949 4.2801992038878645 4.565368562797351
9.481306369125146 1.579556169749409 3.7654201627519517 4.136330036623783
7.802926427247517 1.4454640543641806 2.9715720072369827 3.385890365646354
5.995757445846274 1.3008642443306218 2.114485031449279 2.580408170066372
4.398616156226281 1.14775521919628 1.3920703718581695 1.858790565171833
3.152775540666696 0.9991372532551417 0.8696910473873941 1.2839472400241605
2.24584551797502 0.8675509330404518 0.523617058014928 0.8546775269196396
1.5750493627797062 0.7487509756016973 0.29033405369087284 0.5359643334871361
1.0662351248015036 0.6369256506538439 0.1350775071101426 0.29423196703751764
0.6959005409660141 0.5421988558076982 0.04519221034715498 0.10850947481116083
0.44927534309950606 0.4247380346811681 0.003930324642696778 0.020606983775641033
0.31647428281687356 0.3287192315016103 -0.002857834883442453 -0.009387113801294276
0.24413922532529392 0.24551978270143476 -0.0004953978717978341 -0.0008851595043430239
0.2063780077056531 0.20737106492060964 -0.00013334907277966635 -0.0008597081421768126
0.18777670427674734 0.18805361877296792 -2.6581448195848994e-05 -0.0002503330480247657
0.183687803772625 0.18364227013418846 6.74153779291067e-06 3.879210064361902e-05
0.1731456113457925 0.1731196730331614 2.0164101265430307e-06 2.3921902504595976e-05
0.127786798288182 0.1277875284104127 -3.433312268844444e-08 -6.957891079894279e-07
0.14800299676983522 0.14800299676983522 0.0 0.0
0.09103808856805995 0.09103808856805995 0.0 0.0
0.10875592787805768 0.10875592787805768 0.0 0.0
0.1635057891609788 0.1634815265894871 1.7498561801295798e-06 2.2512715311568723e-05
0.1882356763377048 0.1883052071219022 -5.218320297586886e-06 -6.431246389986003e-05
0.20594660317812113 0.20603815134693954 -8.726735945047036e-06 -8.282143287338212e-05
0.2412012504923835 0.23986001749864744 0.00024367237645976173 0.0010975606172763158
0.3122437951320131 0.3278932457128865 -0.0034296238326807834 -0.012219826748192513
0.45894644386138117 0.4370372948680057 0.0019992715897251797 0.019909877403650356
0.7522871879440136 0.5744909034171848 0.04816862507774527 0.12962765944908344
1.2568261761925261 0.7199793722536275 0.1945228786493159 0.3423239252895825
1.8730892059015265 0.8324508451054445 0.381365557223482 0.6592728035726
2.6772496012342875 0.9607551873371094 0.6716546258159632 1.0448397880812152
3.735694205745489 1.1109055438325697 1.0919172183559949 1.5328714435569244
5.169628038836967 1.2806362455156446 1.7019198745642719 2.1870719187570526
7.141688306641363 1.4728379688442064 2.610005673882201 3.0588446639149556
9.631769161160618 1.665275950184344 3.8092658549847616 4.157227355991513
12.580214996084937 1.8438486372141556 5.339156520136706 5.397209838734077
15.37156854217831 1.9583483046024512 6.810267096653542 6.602953140922313
17.041314701124097 1.9416055670209786 7.764225786768717 7.335483347334394
15.888150942312725 1.785612859255456 7.205212693604452 6.897325389452819
17.79733791648865 5.2990398272515185 6.294071866433484 6.204226222803654
15.88815094231513 1.7856128592567937 7.205212693605062 6.897325389453279
17.0413147011244 1.9416055670210823 7.764225786768834 7.3354833473344785
15.371568542173183 1.9583483046012264 6.810267096651346 6.602953140920613
12.580214996078748 1.8438486372138871 5.339156520133426 5.397209838731433
9.631769161155455 1.6652759501848577 3.809265854981751 4.157227355988846
7.141688306635517 1.4728379688426416 2.6100056738799946 3.0588446639128835
5.1696280388311475 1.2806362455142546 1.7019198745620716 2.1870719187548207
3.735694205739671 1.1109055438323978 1.091917218353334 1.5328714435539392
2.6772496012281484 0.9607551873359875 0.6716546258137132 1.0448397880784475
1.8730892058965807 0.8324508451052588 0.3813655572214788 0.6592728035698425
1.2568261761885837 0.7199793722526853 0.19452287864809747 0.3423239252878008
0.7522871879415243 0.5744909034160653 0.04816862507725715 0.1296276594482022
0.45894644385994626 0.4370372948671192 0.001999271589580019 0.019909877403246925
0.3122437951313727 0.3278932457120584 -0.0034296238326289746 -0.01221982674805691
0.24120125049187835 0.23986001749811606 0.00024367237646048134 0.0010975606173017419
0.20594660317770572 0.2060381513465039 -8.72673594317163e-06 -8.282143285506392e-05
0.1882356763372831 0.18830520712146043 -5.218320295818337e-06 -6.431246388149186e-05
0.16350578916058936 0.16348152658910492 1.749856179479478e-06 2.2512715304933934e-05
0.10875592787785368 0.10875592787785368 0.0 0.0
0.09103808856789852 0.09103808856789852 0.0 0.0
0.05313791737935712 0.05313791737935712 0.0 0.0
0.08820858895287054 0.08820858895287054 0.0 0.0
0.14918954750483063 0.1491825041366354 4.3574774429583853e-07 6.607620450981613e-06
0.18921688856892807 0.18911168822702037 1.21103505880072e-05 9.30899913196835e-05
0.22576856480344065 0.22599056389733763 -1.8858699178506553e-05 -0.00020314039471843693
0.2869748275290169 0.29271863788992764 -0.001025980469255554 -0.004717829891655258
0.41006287548928033 0.41251392015366156 -0.00217314983155928 -0.00027789483282197706
0.6807307091331 0.5549435129164364 0.031457487272848264 0.09432970894381554
1.2045786086713468 0.726714521024476 0.17427802044881213 0.3035860671980588
1.8621330737664723 0.8423237494034812 0.3653445963020288 0.6544647280609625
2.7609870463152872 0.9918178289960666 0.69675782157019 1.0724113957490298
3.880730708112418 1.1477300851809789 1.1434850427202232 1.5895155802112146
5.355439536802592 1.32811636747924 1.7711255908827523 2.256197578440598
7.372800680058722 1.5390891875312553 2.6887977630771176 3.1449137294503515
10.088435914954541 1.7748472111571147 3.9911721152142596 4.3224165885831685
13.651040164273615 2.0232902321861475 5.830220661990325 5.797529270097143
17.616839060282548 2.220961650663406 7.9018108687232775 7.4940665408958695
21.584608079304274 2.2855785845346688 10.18404914462081 9.11498035014879
23.918026243509374 2.1273960901975246 11.667285127311033 10.123345026000807
22.292890498762098 1.8593661446647438 10.862283734949623 9.571240619147744
24.510025358281172 7.195845569415336 9.016150816404764 8.298028972461069
22.292890498763967 1.8593661446651781 10.86228373495048 9.571240619148313
23.91802624350627 2.1273960901951856 11.66728512731057 10.123345026000525
21.584608079299795 2.285578584535131 10.184049144617907 9.114980350146762
17.61683906027528 2.220961650663342 7.90181086871918 7.494066540892752
13.651040164264298 2.0232902321839035 5.830220661986393 5.797529270094003
10.088435914946514 1.7748472111557054 3.9911721152107678 4.322416588580043
7.3728006800516805 1.5390891875302333 2.688797763074026 3.144913729447424
5.355439536794883 1.328116367479101 1.7711255908790142 2.2561975784367676
3.8807307081049665 1.1477300851801049 1.1434850427171772 1.589515580207686
2.7609870463086454 0.9918178289956351 0.6967578215674944 1.0724113957455161
1.8621330737612443 0.8423237494027626 0.36534459630018323 0.6544647280582988
1.2045786086674108 0.7267145210233267 0.17427802044765375 0.30358606719643016
0.6807307091307874 0.5549435129155009 0.03145748727237878 0.09432970894290824
0.4100628754881134 0.4125139201524519 -0.002173149831555643 -0.00027789483278304163
0.28697482752837594 0.2927186378892336 -0.0010259804692418777 -0.004717829891615741
0.2257685648029874 0.22599056389686406 -1.8858699175890908e-05 -0.00020314039470066753
0.18921688856851876 0.18911168822660876 1.211035058774905e-05 9.308999132227693e-05
0.1491895475045531 0.14918250413636086 4.3574774405297814e-07 6.607620448196673e-06
0.08820858895266742 0.08820858895266742 0.0 0.0
0.05313791737927506 0.05313791737927506 0.0 0.0
0.02920752620791197 0.02920752620791197 0.0 0.0
0.06813389519157531 0.06813389519157531 0.0 0.0
0.131954575373828 0.131954575373828 0.0 0.0
0.18776926828808996 0.1877051815595462 6.040838194838018e-06 5.804589034893029e-05
0.24778212999817373 0.24720356527129608 0.00010462436831479784 0.0004739403585628469
0.3442809775335064 0.3567920846725118 -0.0027510673311801808 -0.009760039807825072
0.5502288478218811 0.5015400468214968 0.01030673821184274 0.03838206278854153
1.0045976753284402 0.6864865177220719 0.11226639476405637 0.20584476284231124
1.657189475403707 0.8140697511095814 0.294046413179888 0.5490733111142375
2.5724741495155774 0.9760709312101786 0.6197494823345115 0.9766537359708878
3.7036548329357206 1.13786490658917 1.0634762344825728 1.5023136918639788
5.157850641557932 1.3204337351151447 1.6773534288721217 2.1600634775706657
7.096362514525561 1.5363305467707051 2.5486915150996676 3.011340452655192
9.75545347999902 1.7896556368418264 3.8247949054088926 4.141002937748299
13.28207792652648 2.082410715804993 5.57665222625647 5.623014984465015
17.775859938285528 2.3810461387728696 7.918931869796241 7.475881929716423
23.105189437746077 2.6063735989819534 10.909998488396184 9.588817350367925
28.066010476478347 2.595450988014111 13.826786047459073 11.643773441005164
30.778173516172817 2.238973269369393 15.629942046020922 12.909258200782507
28.79385404916366 1.924538343088968 14.671547898388159 12.19776780768652
31.84053878837218 9.202520733781094 12.165848711769724 10.472169342821362
28.79385404916306 1.9245383430875385 14.67154789838867 12.197767807686846
30.778173516168557 2.2389732693679054 15.629942046019243 12.909258200781416
28.06601047646887 2.5954509880121686 13.826786047454561 11.643773441002145
23.10518943773694 2.606373598981623 10.909998488391027 9.58881735036429
17.775859938276252 2.3810461387724837 7.91893186979118 7.4758819297125925
13.282077926518259 2.082410715804984 5.576652226251944 5.623014984461329
9.75545347998873 1.7896556368398542 3.8247949054045023 4.141002937744375
7.096362514516135 1.5363305467709583 2.548691515094756 3.011340452650418
5.157850641548716 1.3204337351137183 1.6773534288683412 2.1600634775666565
3.7036548329274206 1.1378649065886288 1.063476234478986 1.5023136918598063
2.5724741495088552 0.9760709312096705 0.6197494823317942 0.9766537359673905
1.6571894753988738 0.8140697511084225 0.29404641317852737 0.5490733111119244
1.0045976753250268 0.6864865177209352 0.11226639476314827 0.20584476284094338
0.550228847819983 0.5015400468205159 0.010306738211576294 0.03838206278789115
0.34428097753270404 0.3567920846713963 -0.0027510673311084773 -0.009760039807583743
0.24778212999769628 0.2472035652707777 0.00010462436831773499 0.0004739403586008351
0.18776926828762147 0.18770518155908436 6.040838194107054e-06 5.8045890342973e-05
0.13195457537357583 0.13195457537357583 0.0 0.0
0.06813389519140403 0.06813389519140403 0.0 0.0
0.029207526207875954 0.029207526207875954 0.0 0.0
0.015087142120411144 0.015087142120411144 0.0 0.0
0.05008360563567085 0.05008360563567085 0.0 0.0
0.11376058871279426 0.11376058871279426 0.0 0.0
0.18576332119996597 0.18570049152808266 5.622717784786087e-06 5.720695409850619e-05
0.27372762758171376 0.27521076185361115 -0.00021731954932149505 -0.0012658147225758161
0.4176104931736497 0.41027385007344697 0.0002851424716747942 0.007051500628527861
0.7546456599232901 0.6110038749710989 0.047987058890694385 0.0956547260614972
1.3410550935683236 0.7621066530894645 0.19321547403068134 0.385732966448178
2.2007212611751283 0.9244691474213261 0.48037947501472683 0.7958726387390755
3.3019144650691175 1.0928607161437538 0.897575552079743 1.31147819684562
4.702305799845582 1.276653782594817 1.4774433234559825 1.9482086937947827
6.52395279223241 1.489179372535884 2.2841780653658468 2.750595354330678
8.979312471681487 1.7437266522044197 3.442150880833564 3.793434938643503
12.212643463965337 2.0418450389538654 4.998926486258492 5.17187193875298
16.616075032780223 2.3840109493179416 7.278038037672465 6.954026045789819
22.201510130781198 2.748936476363928 10.288148798682204 9.16442485573507
28.552096085109216 3.001739941593926 13.857330321882454 11.693025821632839
34.552692995424884 2.8896206400093454 17.537396369502275 14.125675985913261
37.83355607226273 2.3263060948539285 19.88613158058907 15.62111839681974
35.4838939335558 1.9594332148949827 18.675435843671963 14.849024874988862
39.58787536152048 11.337726912548382 15.464134349160437 12.786014099811645
35.48389393355389 1.9594332148937492 18.67543584367155 14.84902487498858
37.83355607225704 2.326306094853832 19.886131580585634 15.621118396817582
34.55269299541884 2.889620640012589 17.537396369496594 14.125675985909647
28.552096085099063 3.0017399415936397 13.857330321876564 11.693025821628865
22.201510130769197 2.748936476362942 10.288148798675781 9.16442485573047
16.61607503276858 2.384010949315992 7.278038037666997 6.954026045785598
12.21264346395463 2.041845038954604 4.998926486252252 5.171871938747775
8.97931247167014 1.7437266522045292 3.442150880827579 3.7934349386380304
6.523952792221148 1.4891793725342057 2.2841780653610626 2.750595354325877
4.702305799835932 1.2766537825939464 1.4774433234517916 1.9482086937901932
3.301914465061322 1.092860716142983 0.8975755520765776 1.3114781968417608
2.2007212611689133 0.9244691474202371 0.48037947501269185 0.795872638735984
1.3410550935639642 0.762106653088374 0.19321547402939598 0.3857329664461942
0.754645659920534 0.6110038749700538 0.047987058890078926 0.09565472606040129
0.41761049317249754 0.4102738500722546 0.00028514247167403994 0.007051500628568955
0.2737276275812638 0.27521076185314014 -0.00021731954931977182 -0.0012658147225566134
0.18576332119958622 0.18570049152770907 5.6227177840943e-06 5.7206954093084954e-05
0.11376058871254596 0.11376058871254596 0.0 0.0
0.050083605635559886 0.050083605635559886 0.0 0.0
0.015087142120365498 0.015087142120365498 0.0 0.0
0.007444569701040566 0.007444569701040566 0.0 0.0
0.03515215427914328 0.03515215427914328 0.0 0.0
0.09661352682732001 0.09661352682732001 0.0 0.0
0.18571372005143189 0.18569473659563457 1.300615864217136e-06 1.768283993303967e-05
0.3057954745218879 0.30787832139033217 -0.00033978346845290176 -0.0017430633999915416
0.5226383470527156 0.4981324469944042 0.006015308432811707 0.018490591625499805
0.9904416922450276 0.6850342063180366 0.0960389924430222 0.20936849348396896
1.734686534919198 0.8458555135048089 0.31720258447465216 0.5716284369397361
2.7562990189448318 1.0195389383341826 0.6826282796540305 1.0541318009566185
4.072941679824588 1.2042807713027988 1.2114184658166136 1.6572424427051753
5.745120130431256 1.4094998678220794 1.9272650508095936 2.4083552117995826
7.95911686574651 1.655361650813034 2.942723377997859 3.3610318369356165
10.871541334747658 1.9486991967973093 4.319236998361789 4.603605139588557
14.903851481036565 2.2992147254902977 6.378061625226716 6.226575130319557
20.098940009123012 2.6942702502546885 9.090099053717577 8.314570705150748
26.57465717649297 3.099447963627176 12.61035739804917 10.864851814816623
34.058857713837654 3.386290609903579 16.935059135755267 13.737507968178804
41.07065214357996 3.212513984494619 21.33030291959103 16.52783523949431
44.974907785805485 2.429003796761468 24.22440956599669 18.321494423047326
42.513011659335845 1.92999358420433 23.023031937423124 17.55998613770841
48.14343671564378 13.583634098099719 19.309855872597996 15.249946744946064
42.51301165933299 1.9299935842037872 23.023031937421667 17.55998613770753
44.97490778580016 2.4290037967632525 24.224409565992232 18.32149442304468
41.07065214356977 3.2125139844943797 21.33030291958487 16.527835239490514
34.05885771382452 3.386290609901222 16.935059135748727 13.737507968174567
26.574657176481196 3.0994479636285983 12.610357398041328 10.864851814811265
20.098940009108997 2.694270250253155 9.09009905371038 8.314570705145462
14.903851481024413 2.2992147254908524 6.37806162521964 6.226575130313922
10.87154133473478 1.9486991967968041 4.31923699835513 4.603605139582845
7.959116865733723 1.6553616508118711 2.942723377991923 3.3610318369299295
5.745120130419829 1.4094998678203394 1.9272650508048434 2.408355211794646
4.072941679815039 1.204280771301371 1.2114184658127918 1.6572424427008783
2.75629901893761 1.0195389383334696 0.6826282796511955 1.0541318009529446
1.7346865349140033 0.8458555135038008 0.3172025844732165 0.5716284369369858
0.9904416922417272 0.68503420631718 0.09603899244210659 0.20936849348244072
0.5226383470511741 0.49813244699334025 0.006015308432665408 0.018490591625168473
0.30579547452132155 0.3078783213897076 -0.000339783468443718 -0.0017430633999422586
0.18571372005115772 0.18569473659536617 1.3006158637357774e-06 1.768283992781072e-05
0.09661352682709953 0.09661352682709953 0.0 0.0
0.03515215427909819 0.03515215427909819 0.0 0.0
0.007444569701019635 0.007444569701019635 0.0 0.0
0.003672356696890063 0.003672356696890063 0.0 0.0
0.02387878271696107 0.02387878271696107 0.0 0.0
0.08262041007977765 0.08262041007977765 0.0 0.0
0.1908538219167921 0.19082281379401292 1.5386726525572254e-06 2.9469450126598963e-05
0.349549991595991 0.3521430565363988 -0.0008094048921764496 -0.0017836600482313272
0.6696650813693413 0.5792801866512697 0.02796549540585241 0.062419399312219015
1.2568019466080733 0.7411657670800981 0.16631878628694688 0.34931739324102845
2.1530061787027446 0.9250791379936179 0.4614784846090079 0.7664485561001187
3.333165280856731 1.1079277569552615 0.9049492044694757 1.3202883194319945
4.8705263462479795 1.309102359410457 1.5475330146370425 2.0138909722004805
6.853518085697164 1.5416587602528162 2.4304208322240983 2.8814384932202484
9.43898330898962 1.8190782218307195 3.629413268217527 3.9904918189413756
12.980802747193703 2.162138014802369 5.3881362413339104 5.430528491057425
17.591129967317073 2.5646183629461587 7.708992419256133 7.317519185114776
23.669616745417198 3.0041014026095034 10.966423242202112 9.699092100605574
31.108143685333363 3.4237335417981796 15.130666686597936 12.553743456937253
39.47029243152117 3.715523637099113 20.031121495642072 15.723647298779985
47.48404608835824 3.6155426545676645 25.057028700325233 18.811474733465353
52.23035469384364 2.61056946545039 28.699063345533066 20.920721882860175
49.943168563983846 1.7695541698792097 27.796809380124206 20.376805013980427
57.565218861652674 15.82485987939787 23.73101769057864 18.009341291676176
49.94316856398033 1.7695541698791852 27.79680938012206 20.376805013979084
52.23035469383513 2.610569465449954 28.699063345527996 20.92072188285717
47.484046088347 3.6155426545677165 25.057028700318142 18.81147473346114
39.47029243150581 3.7155236370969464 20.031121495633975 15.723647298774889
31.108143685319234 3.423733541797692 15.130666686589738 12.553743456931809
23.669616745402585 3.0041014026093675 10.966423242193638 9.69909210059958
17.591129967301686 2.5646183629442842 7.708992419248459 7.31751918510895
12.980802747177611 2.1621380148004143 5.388136241326157 5.430528491051034
9.438983308974844 1.8190782218291108 3.6294132682105484 3.9904918189351877
6.853518085684087 1.5416587602512166 2.4304208322183483 2.881438493214519
4.870526346237386 1.3091023594090734 1.5475330146326496 2.013890972195661
3.3331652808484895 1.1079277569543033 0.9049492044662436 1.3202883194279431
2.1530061786964474 0.9250791379927915 0.4614784846067712 0.7664485560968853
1.2568019466041376 0.7411657670790499 0.166318786286107 0.3493173932389806
0.6696650813672934 0.579280186650356 0.027965495405485652 0.0624193993114517
0.34954999159526146 0.35214305653552574 -0.0008094048921448809 -0.0017836600481192682
0.1908538219164745 0.19082281379370494 1.5386726516919999e-06 2.9469450117884424e-05
0.08262041007958748 0.08262041007958748 0.0 0.0
0.023878782716939256 0.023878782716939256 0.0 0.0
0.0036723566968778314 0.0036723566968778314 0.0 0.0
0.0017437028761418782 0.0017437028761418782 0.0 0.0
0.016092533050515414 0.016092533050515414 0.0 0.0
0.07445571005210375 0.07445571005210375 0.0 0.0
0.20601630719698746 0.20599437882273558 3.493613385583662e-06 1.843476086630826e-05
0.4200139327959239 0.4191120947864495 0.00017022576511187097 0.0007316122443622643
0.8440080269447942 0.6440255729118138 0.06060284751955004 0.1393796065134304
1.5594119414509022 0.8124538977715265 0.25940371123012235 0.4875543324492533
2.5825949349692072 0.9981069337032242 0.6156170456711092 0.9688709555948734
3.941870666465849 1.1923989122058796 1.156250624963533 1.5932211292964356
5.695958884620293 1.4102489323166636 1.905734504634162 2.379975447669467
7.9865660267498395 1.669285000533268 2.9481523199195205 3.369128706297051
11.053619014857002 1.9885414859441113 4.4308303906071265 4.634247138305767
15.044272768425916 2.375711845690224 6.380066293306955 6.2884946294287385
20.454451442324064 2.8321468160029912 9.197648158866647 8.424656467454438
27.388182510119428 3.321763407603634 12.967531638013746 11.09888746450205
35.70594864047838 3.7431953362003845 17.71516136705507 14.247591937222927
44.772369934268966 3.9547433212555623 23.179774407490164 17.63785220552324
53.49524539689094 3.9143943517122537 28.6909995076528 20.88985153752588
59.57032195092389 3.2046644356597644 33.0067428401869 23.358914675077212
57.80735967643965 1.3892074193569466 33.06215127430434 23.356000982778383
67.73956152932905 17.221323048474332 29.281320644343484 21.23691783651125
57.80735967643487 1.3892074193557251 33.06215127430207 23.356000982777083
59.570321950913566 3.2046644356582497 33.00674284018129 23.358914675074054
53.4952453968747 3.914394351710658 28.690999507643543 20.889851537520503
44.772369934252374 3.954743321253904 23.179774407480906 17.637852205517575
35.70594864046019 3.7431953361970165 17.71516136704605 14.247591937217136
27.388182510101384 3.321763407602249 12.967531638003843 11.098887464495292
20.454451442305768 2.8321468159996 9.197648158858033 8.424656467448123
15.044272768408423 2.3757118456892163 6.3800662932977374 6.288494629421469
11.053619014840384 1.9885414859421913 4.430830390599219 4.634247138298975
7.986566026735435 1.6692850005324764 2.948152319912438 3.369128706290522
5.695958884608333 1.4102489323150311 1.9057345046290803 2.379975447664222
3.9418706664565 1.1923989122046033 1.1562506249598232 1.5932211292920724
2.5825949349622115 0.9981069337025651 0.615617045668438 0.9688709555912082
1.5594119414461107 0.8124538977703767 0.25940371122880107 0.48755433244693325
0.8440080269421282 0.6440255729107487 0.060602847518975746 0.139379606512404
0.4200139327949707 0.4191120947855985 0.0001702257650812859 0.0007316122442908487
0.20601630719665937 0.20599437882238755 3.49361338678022e-06 1.843476088501837e-05
0.07445571005197354 0.07445571005197354 0.0 0.0
0.016092533050493088 0.016092533050493088 0.0 0.0
0.0017437028761336949 0.0017437028761336949 0.0 0.0
0.0004109990340971321 0.0004109990340971321 0.0 0.0
0.011293297757565294 0.011293297757565294 0.0 0.0
0.07576114495127861 0.07576114495127861 0.0 0.0
0.24007800816763578 0.24008406878674396 1.2501714781432103e-05 -1.856233388959665e-05
0.5284125013395932 0.5037268329638076 0.00781483585323025 0.016870832522555307
1.0590072716082475 0.7484003162795578 0.10044034151225813 0.21016661381643137
1.8867953772538528 0.93746110286461 0.343008459538234 0.6063258148510089
3.050421804539809 1.169518691918843 0.7502592078119654 1.1306439048090005
4.592267054427035 1.4323347439040788 1.3488591653020516 1.8110731452209055
6.631914733466462 1.7570572413505476 2.2046876800140836 2.6701698121018325
9.32810243742492 2.1793077128005867 3.396265977245003 3.7525287473793294
12.86165550668796 2.732289862740019 4.983166951691651 5.146198692256291
17.633080666552313 3.4308140613369 7.245063816044215 6.957202789171199
23.944182038013576 4.284949004074453 10.37577818627307 9.283454847666047
31.92169226437836 5.20540869648517 14.552905345032862 12.163378222860324
41.26725116384489 5.984046617653037 19.775511745717154 15.50769280047471
51.03796766464852 6.332361273138108 25.6296520231269 19.075954368383517
59.785155389325936 6.047434775741538 31.336988133412 22.400732480172405
66.40944604193353 5.622896123167589 35.84292007998818 24.94362983877776
64.36746321263384 1.4773586717345877 37.14384828724303 25.74625625365621
97.74193870112072 38.14314224664118 35.135568879368094 24.46322757511145
64.36746321262379 1.4773586717278944 37.14384828724082 25.74625625365505
66.40944604191604 5.622896123159686 35.842920079982036 24.943629838774317
59.785155389310916 6.047434775745193 31.336988133400226 22.400732480165495
51.037967664626734 6.33236127313245 25.629652023116808 19.07595436837748
41.267251163822436 5.984046617647417 19.775511745706844 15.50769280046818
31.921692264359226 5.205408696485295 14.552905345021365 12.163378222852561
23.944182037990785 4.284949004067992 10.375778186263549 9.283454847659252
17.633080666531317 3.4308140613333866 7.245063816034333 6.957202789163592
12.861655506669255 2.7322898627377246 4.9831669516826596 5.146198692248866
9.328102437408585 2.1793077127991545 3.396265977237147 3.7525287473722857
6.631914733452822 1.7570572413484344 2.2046876800082233 2.670169812096166
4.592267054416212 1.4323347439019578 1.348859165297904 1.8110731452163504
3.050421804531648 1.1695186919173244 0.7502592078090609 1.1306439048052632
1.8867953772485124 0.9374611028636928 0.34300845953652553 0.6063258148482937
1.0590072716050758 0.7484003162784019 0.1004403415116752 0.21016661381499888
0.528412501338198 0.5037268329626966 0.007814835853136918 0.016870832522364442
0.24007800816717295 0.2400840687862728 1.250171478254335e-05 -1.8562333882412077e-05
0.07576114495115777 0.07576114495115777 0.0 0.0
0.011293297757551031 0.011293297757551031 0.0 0.0
0.00041099903409228683 0.00041099903409228683 0.0 0.0
CELL_DATA 800
SCALARS Stress float 6
LOOKUP_TABLE default
124.34280490328138 -493.4766264619231 -186.39655656206713 -101.27133096250263 0.0 0.0
394.2578285020318 28.469586984196145 128.63238805508306 67.45658991371795 0.0 0.0
362.802988416058 -4.6905989696007175 107.23753082903244 -8.521603364504864 0.0 0.0
425.2290813130717 -1.5110134347465647 126.69476831578501 -10.859684322194584 0.0 0.0
493.0905197134378 -9.158709337355006 155.83940361160026 -10.692878380499515 0.0 0.0
557.7289061580512 4.540468781796635 212.43705590701694 -8.834709387076984 0.0 0.0
618.6271024072289 15.35366463425959 269.0895906186579 -8.855685990264941 0.0 0.0
678.7231094974658 34.739149610954044 325.7860382908266 -9.532987310169261 0.0 0.0
738.9519824717381 59.448866247611846 379.700249027129 -10.16345579916121 0.0 0.0
799.771525805325 87.54398290860682 431.0029921255088 -10.496460608317104 0.0 0.0
861.0192980298857 116.71219883094389 479.88185352101283 -10.562311136417073 0.0 0.0
922.9861812670263 147.4700235434036 528.033461932821 -10.500564129834213 0.0 0.0
986.6748400439093 178.3130994421179 576.0315238482002 -10.45113321137179 0.0 0.0
1052.532881083072 210.29119568513963 625.2146753729763 -10.41816334402684 0.0 0.0
1121.188461041123 245.35808364135914 677.1613730402389 -10.347329200033904 0.0 0.0
1192.1470870850326 284.3659872783435 732.2040598078133 -10.02424052317962 0.0 0.0
1262.7076199022363 326.35093715454445 788.5704620154124 -9.222118388634053 0.0 0.0
1328.0966259796778 368.14180985212016 842.2395025791352 -7.815732177618874 0.0 0.0
1383.1701949488993 405.9653097107182 888.682631458135 -6.182132251013352 0.0 0.0
1431.5013440555372 445.1503567088305 932.0823194698306 -5.7723561387390365 0.0 0.0
1431.5013440554303 445.15035670872896 932.08231946971 5.772356138716916 0.0 0.0
1383.1701949486046 405.9653097104351 888.682631457884 6.182132251007964 0.0 0.0
1328.0966259792176 368.14180985168923 842.2395025787213 7.815732177677121 0.0 0.0
1262.7076199014757 326.3509371538199 788.5704620147479 9.222118388646312 0.0 0.0
1192.1470870844942 284.3659872778518 732.2040598072819 10.024240523128052 0.0 0.0
1121.1884610409052 245.35808364120618 677.1613730399619 10.347329200039576 0.0 0.0
1052.5328810828437 210.29119568498731 625.2146753727001 10.418163343976792 0.0 0.0
986.6748400435572 178.3130994418704 576.0315238478289 10.451133211380874 0.0 0.0
922.9861812665014 147.47002354300406 528.033461932343 10.50056412982906 0.0 0.0
861.0192980294314 116.71219883063765 479.881853520595 10.562311136393351 0.0 0.0
799.7715258047152 87.5439829081561 431.0029921249981 10.496460608299419 0.0 0.0
738.9519824715351 59.4488662475963 379.70024902688857 10.163455799189203 0.0 0.0
678.7231094973712 34.73914961106348 325.7860382906489 9.532987310160484 0.0 0.0
618.6271024071489 15.35366463442718 269.08959061849055 8.855685990292603 0.0 0.0
557.7289061577899 4.540468781799518 212.43705590675503 8.834709387104164 0.0 0.0
493.09051971328154 -9.15870933722963 155.839403611509 10.692878380492411 0.0 0.0
425.2290813129074 -1.5110134346214865 126.69476831577951 10.859684322178868 0.0 0.0
362.80298841599506 -4.6905989694481525 107.23753082906246 8.52160336453616 0.0 0.0
394.25782850195634 28.469586984178342 128.6323880550376 -67.45658991362934 0.0 0.0
124.34280490383375 -493.4766264613732 -186.39655656153138 101.27133096218336 0.0 0.0
35.94437970556956 -519.968912356009 -231.86653330193224 -139.3927481317634 0.0 0.0
231.45539945580703 29.709378595772186 78.34943341547374 18.46828900736196 0.0 0.0
321.4194112277415 14.348543747957708 100.72989636638184 -9.32629461421368 0.0 0.0
380.3736424239927 -0.5787181572693251 113.75542370874685 -30.548051121652218 0.0 0.0
462.05850645458673 -10.377737998428588 138.58850299502544 -30.581859253832896 0.0 0.0
530.439166023726 1.911729387300138 190.888104966319 -26.884638360538435 0.0 0.0
596.515607361351 12.523171119995897 248.7389418358062 -27.095699651129163 0.0 0.0
657.3086300672153 30.273313270153512 306.16075635222415 -27.865958823302496 0.0 0.0
716.0146891123441 52.80331438041035 360.0382474435469 -28.568642448736597 0.0 0.0
774.2764800376294 78.3986425359115 410.3955034658294 -28.726631838797445 0.0 0.0
832.5367832535727 105.19347507210828 457.8021624160216 -28.3156427645793 0.0 0.0
891.4008235439122 131.92032851258293 503.16236860356327 -27.656419568903154 0.0 0.0
950.8210523562153 159.39855247029448 547.7740232869604 -27.01950625789537 0.0 0.0
1012.5174244989062 187.8488737087024 593.3178696896366 -26.59445990450395 0.0 0.0
1076.8862457140665 218.8666802633187 641.2214536325694 -26.200100949583934 0.0 0.0
1143.0923287690032 253.3652959301396 691.6953288853049 -25.30690040726941 0.0 0.0
1208.829448567258 290.5699421508744 743.2651964782059 -23.397573121837368 0.0 0.0
1270.4481573581297 328.3855789377198 793.0481399520681 -20.285306019351783 0.0 0.0
1325.7792573677984 366.25481214313254 839.5845182036967 -16.380470828359456 0.0 0.0
1363.1453385226089 393.8736772681099 871.9662064775944 -10.599297827520516 0.0 0.0
1363.1453385225182 393.87367726802717 871.9662064774626 10.599297827524536 0.0 0.0
1325.779257367781 366.2548121431294 839.5845182036459 16.38047082839772 0.0 0.0
1270.448157357996 328.38557893762186 793.048139951967 20.28530601945237 0.0 0.0
1208.8294485666293 290.5699421502833 743.2651964776908 23.397573121881997 0.0 0.0
1143.092328768985 253.36529593017576 691.6953288852205 25.30690040728038 0.0 0.0
1076.8862457136845 218.86668026299932 641.2214536321808 26.20010094962032 0.0 0.0
1012.517424498031 187.84887370789318 593.3178696889088 26.594459904516558 0.0 0.0
950.8210523562148 159.39855247040555 547.7740232868608 27.019506257894633 0.0 0.0
891.4008235436388 131.92032851242698 503.1623686033172 27.65641956887167 0.0 0.0
832.5367832528217 105.19347507149632 457.80216241546856 28.315642764567848 0.0 0.0
774.2764800373192 78.39864253575672 410.39550346553847 28.726631838763325 0.0 0.0
716.0146891118885 52.80331438013318 360.0382474431648 28.568642448761654 0.0 0.0
657.30863006713 30.273313270289922 306.16075635204425 27.865958823284895 0.0 0.0
596.5156073610787 12.523171119966634 248.73894183551442 27.095699651128072 0.0 0.0
530.4391660232725 1.9117293870806975 190.88810496597105 26.884638360454083 0.0 0.0
462.0585064543599 -10.37773799834936 138.5885029949389 30.581859253833986 0.0 0.0
380.37364242378646 -0.5787181572799924 113.75542370868601 30.54805112163186 0.0 0.0
321.41941122768424 14.348543747977294 100.72989636637092 9.326294614242292 0.0 0.0
231.45539945594808 29.709378595918036 78.34943341555982 -18.468289007421742 0.0 0.0
35.944379705913775 -519.9689123556026 -231.8665333015223 139.39274813155683 0.0 0.0
-2.3658721043530164 -514.929362720254 -236.24089332666978 -153.21656441806178 0.0 0.0
134.3904383005977 14.807413630134361 44.759355579219616 -33.72774079053624 0.0 0.0
261.5804544796923 23.660823143232236 85.57238328687735 -26.638841162528287 0.0 0.0
335.7322689319636 2.551025666768291 101.47174239230333 -48.12478169936888 0.0 0.0
418.53566549878656 -6.176332272110397 123.96224293115797 -52.02523712905854 0.0 0.0
501.82790674950706 -4.588990590747526 166.28675379865248 -47.762741987853595 0.0 0.0
569.538020943383 10.793024146755572 225.84285380189 -45.589273213501485 0.0 0.0
630.9550720695139 25.568340571135643 282.86552445847815 -46.19895430290032 0.0 0.0
689.2585260462497 46.0762105825895 337.2197830076421 -46.704796231590656 0.0 0.0
745.4146121177248 69.09616031597388 387.0743187373089 -46.52430186436611 0.0 0.0
800.7632933183577 92.86381232518605 432.97768693981516 -45.65629629653085 0.0 0.0
855.7434318446747 116.70821658800125 476.01913060328434 -44.39134044335524 0.0 0.0
912.0325300720913 140.1811953441822 517.6753915681185 -43.30681837954 0.0 0.0
969.7056895629805 165.27599794497888 559.86515874772 -42.49820432092645 0.0 0.0
1029.4498407778394 192.1583891897995 603.5391827979415 -41.81391150244735 0.0 0.0
1090.7480969221442 221.80451850973282 649.2084632432743 -40.46650564325618 0.0 0.0
1151.6024869993826 253.9760796409013 695.8149288708497 -37.705596789995404 0.0 0.0
1210.3567334162633 288.57424179532325 742.5257311206228 -33.151516415944144 0.0 0.0
1261.877837088568 321.97558466520314 784.9833022642098 -26.333360830048736 0.0 0.0
1295.2874749857497 344.7068188565592 813.04086003602 -15.11896882906408 0.0 0.0
1295.2874749856337 344.7068188564544 813.0408600359393 15.11896882909587 0.0 0.0
1261.877837088271 321.9755846649192 784.9833022639539 26.333360830091806 0.0 0.0
1210.3567334163636 288.57424179546575 742.5257311206398 33.15151641604925 0.0 0.0
1151.6024869989164 253.97607964047407 695.8149288704583 37.705596790017516 0.0 0.0
1090.7480969212786 221.80451850889932 649.2084632425618 40.466505643241774 0.0 0.0
1029.449840777475 192.15838918948714 603.5391827976246 41.81391150241202 0.0 0.0
969.7056895629792 165.27599794506855 559.8651587476694 42.49820432097469 0.0 0.0
912.0325300709699 140.18119534314087 517.6753915672672 43.30681837958773 0.0 0.0
855.7434318438712 116.70821658731967 476.0191306026177 44.391340443379384 0.0 0.0
800.7632933181238 92.86381232510877 432.97768693956004 45.65629629654528 0.0 0.0
745.414612117539 69.09616031595235 387.0743187370984 46.52430186434463 0.0 0.0
689.2585260458266 46.07621058235436 337.2197830072607 46.704796231603055 0.0 0.0
630.9550720691401 25.568340570949303 282.86552445811435 46.1989543028577 0.0 0.0
569.5380209431107 10.793024146748234 225.84285380161623 45.58927321348925 0.0 0.0
501.8279067493378 -4.58899059057774 166.2867537985219 47.762741987796254 0.0 0.0
418.5356654985521 -6.176332271994561 123.9622429311118 52.02523712891953 0.0 0.0
335.7322689317879 2.5510256667763755 101.47174239225572 48.12478169931106 0.0 0.0
261.5804544796644 23.660823143165377 85.57238328684892 26.638841162472776 0.0 0.0
134.39043830075116 14.807413630346536 44.7593555793293 33.72774079032487 0.0 0.0
-2.3658721040658435 -514.929362719903 -236.24089332629757 153.21656441787636 0.0 0.0
-13.899535350880086 -494.1868509822451 -219.68229415488793 -156.14788761950877 0.0 0.0
77.33383994144899 -2.7323420876915945 22.38044935612722 -77.90104939603202 0.0 0.0
203.02908555665547 26.020703617004244 68.71493675209791 -51.43832962574104 0.0 0.0
287.49509073054503 6.2544415877725 88.11947158378148 -66.36778419177833 0.0 0.0
367.5136161168155 -2.6847209528100495 109.35899378810345 -73.9239277459762 0.0 0.0
457.89964586158663 -7.357469672362453 142.4679368627321 -71.0206327836683 0.0 0.0
534.4138887737577 6.616140067426393 197.91182041346997 -65.0413649606764 0.0 0.0
599.3408211915234 21.511484075705834 256.203461247799 -64.88813977275952 0.0 0.0
657.4380874044281 39.07869343538127 310.2913126046612 -64.63412397709644 0.0 0.0
711.9189513774602 59.359540853559984 359.8639659178985 -63.988052167172356 0.0 0.0
764.7183069162073 80.30496531493782 404.90232501542516 -62.625766520856764 0.0 0.0
816.9249528122891 101.03302715314786 446.3891179380132 -60.825829068782745 0.0 0.0
869.1283794955154 121.18589778937573 485.26096570915166 -59.2884858756908 0.0 0.0
923.5135825416658 142.58517797748885 524.4705608250121 -58.22193648989785 0.0 0.0
979.0636352993924 165.21410175925163 564.1702359626112 -57.23919371082917 0.0 0.0
1034.6623570407337 189.9351185651819 604.621721383066 -55.50174765384684 0.0 0.0
1090.8819858027555 217.18052993580045 646.4471665397132 -52.207343012983856 0.0 0.0
1145.6896679647323 247.0581010531575 688.8161999196852 -46.30296835128636 0.0 0.0
1193.937044284763 275.91542076137154 727.421420575534 -36.41811063733516 0.0 0.0
1225.751136980204 295.49237159418476 753.1899508966943 -19.92600072824189 0.0 0.0
1225.7511369797885 295.49237159377697 753.189950896415 19.926000728272463 0.0 0.0
1193.937044284793 275.91542076142605 727.4214205754981 36.41811063743265 0.0 0.0
1145.6896679648187 247.0581010533067 688.8161999197085 46.30296835144979 0.0 0.0
1090.8819858024567 217.18052993554153 646.4471665394658 52.20734301301967 0.0 0.0
1034.6623570404845 189.93511856499057 604.6217213828204 55.50174765389661 0.0 0.0
979.0636352987422 165.2141017586581 564.1702359620847 57.23919371085742 0.0 0.0
923.5135825412526 142.58517797716044 524.4705608246068 58.22193648994774 0.0 0.0
869.1283794951164 121.18589778905357 485.26096570875256 59.28848587565365 0.0 0.0
816.9249528118281 101.03302715280202 446.38911793763305 60.82582906877467 0.0 0.0
764.7183069158737 80.30496531472583 404.9023250150973 62.62576652080445 0.0 0.0
711.9189513771437 59.35954085340135 359.86396591759285 63.98805216712286 0.0 0.0
657.4380874040241 39.07869343516465 310.2913126043048 64.63412397710249 0.0 0.0
599.3408211910917 21.51148407546878 256.20346124743196 64.88813977270615 0.0 0.0
534.4138887733601 6.6161400672922035 197.91182041315346 65.04136496066937 0.0 0.0
457.8996458612517 -7.357469672313343 142.46793686257902 71.02063278365128 0.0 0.0
367.5136161164285 -2.6847209529757077 109.35899378794664 73.92392774588674 0.0 0.0
287.49509073038155 6.254441587717831 88.11947158371686 66.36778419168408 0.0 0.0
203.0290855566519 26.0207036170332 68.71493675210552 51.43832962562041 0.0 0.0
77.33383994156655 -2.732342087479558 22.3804493562261 77.90104939585268 0.0 0.0
-13.89953535069698 -494.18685098186626 -219.682294154539 156.14788761939948 0.0 0.0
-13.065276518551983 -464.4421024607831 -193.27018707177444 -154.76093020081376 0.0 0.0
42.32851186465402 -18.50464691029962 7.147159486306319 -111.70685830476367 0.0 0.0
151.2305836990205 24.05352154163369 52.58523157219625 -77.74579763683137 0.0 0.0
237.02406934576783 9.828399071897753 74.05574052529967 -85.36813105811646 0.0 0.0
313.8557568854734 0.062157126364086324 94.10380757165831 -94.61611201789187 0.0 0.0
403.3730566583569 -6.784366807288324 120.77334724957373 -95.4574721854663 0.0 0.0
491.1355149307683 0.7439004170267052 166.96918780048267 -87.87654114562862 0.0 0.0
561.2308248244516 17.292251819876686 225.02003434186082 -83.46795307623594 0.0 0.0
619.2385413800707 32.03555744575329 278.5670391506916 -82.65162996616267 0.0 0.0
672.9458939129929 49.349625978844635 327.99477223269383 -81.27657072357522 0.0 0.0
723.7950791549297 67.35440073567906 372.6007098968 -79.36139430877256 0.0 0.0
773.0080963108928 84.96087112001031 412.85452465810533 -77.01330955636665 0.0 0.0
822.4090676643079 102.06997402412144 450.20787619426585 -75.12180356051498 0.0 0.0
872.3471665470138 119.89736141128292 486.25216886160257 -73.7020158114335 0.0 0.0
923.4873243990407 138.36148133645202 522.0582494452929 -72.49131694063973 0.0 0.0
975.1619129403358 158.13934274747393 558.2580392147665 -70.55047716656411 0.0 0.0
1025.6779986318975 179.92576101826143 594.5503626403261 -66.84848156513564 0.0 0.0
1075.6854121347421 204.1504604958916 631.6944405647395 -59.77646720426248 0.0 0.0
1121.1104023849373 228.22692671601848 666.5559257663213 -46.99296405076116 0.0 0.0
1152.815687641842 245.3086156223893 691.1179764681921 -25.375072823878448 0.0 0.0
1152.8156876415899 245.30861562215208 691.1179764680513 25.375072823987182 0.0 0.0
1121.1104023853754 228.22692671651788 666.555925766658 46.99296405093642 0.0 0.0
1075.6854121348406 204.15046049605422 631.694440564792 59.77646720439397 0.0 0.0
1025.6779986317476 179.92576101817647 594.5503626401731 66.84848156524968 0.0 0.0
975.1619129402612 158.13934274745623 558.2580392146709 70.55047716657891 0.0 0.0
923.487324398799 138.36148133627427 522.0582494450776 72.49131694068252 0.0 0.0
872.3471665469568 119.89736141134173 486.25216886153254 73.70201581150664 0.0 0.0
822.4090676642744 102.06997402416619 450.2078761941547 75.12180356048589 0.0 0.0
773.0080963105639 84.96087111981996 412.8545246577952 77.01330955640485 0.0 0.0
723.7950791547953 67.35440073568321 372.60070989661534 79.36139430873021 0.0 0.0
672.9458939125577 49.34962597854616 327.99477223229974 81.27657072349416 0.0 0.0
619.2385413796683 32.03555744552365 278.5670391503283 82.65162996612466 0.0 0.0
561.2308248240606 17.29225181975284 225.02003434152206 83.46795307624016 0.0 0.0
491.1355149304201 0.7439004170091366 166.96918780024504 87.87654114562844 0.0 0.0
403.3730566581512 -6.784366807056957 120.77334724954804 95.45747218533396 0.0 0.0
313.8557568852505 0.06215712641384297 94.10380757160934 94.61611201776131 0.0 0.0
237.0240693456816 9.828399071970605 74.05574052529565 85.36813105798944 0.0 0.0
151.2305836990165 24.053521541699077 52.58523157221467 77.7457976366563 0.0 0.0
42.32851186471633 -18.50464691018446 7.147159486359563 111.70685830453095 0.0 0.0
-13.065276518449508 -464.4421024604536 -193.27018707147988 154.76093020072517 0.0 0.0
-7.368875569932982 -428.9631204428259 -163.52259960829028 -151.50343020072802 0.0 0.0
18.578778127561183 -31.543620635152575 -3.889452752277417 -136.23812019000758 0.0 0.0
106.3972573180905 19.962990048253275 37.90807420990313 -102.18708580299649 0.0 0.0
186.53108828429674 12.946805691401991 59.84336819270961 -104.0518084625707 0.0 0.0
257.19064984856993 1.3871931920774994 77.53079473484976 -113.92297886345371 0.0 0.0
334.07350244379194 -4.322621746236161 99.7522281109527 -117.89799586973069 0.0 0.0
426.9558380751099 -2.0867209356452707 135.9068916634959 -113.33471814010389 0.0 0.0
509.03972246840294 10.572646706038176 187.29844538449112 -104.8310030682625 0.0 0.0
573.1392627460823 24.93189598372857 241.1557114473398 -100.85888567293401 0.0 0.0
626.6041704219883 39.210527052888416 290.0723384196175 -98.62806502577263 0.0 0.0
675.6694508181967 53.84224391340229 334.110595453291 -95.97565604893393 0.0 0.0
722.9322318455645 68.57188148281818 374.14820197834194 -93.1627840635578 0.0 0.0
769.3116200122234 82.8429220927348 410.590496418478 -90.80867905961853 0.0 0.0
816.030468410044 97.14414964276801 444.70577313647954 -89.15232160696803 0.0 0.0
863.0268030397154 111.4594232407431 477.1359480153735 -87.73363111503527 0.0 0.0
909.0718968762958 126.80517481147093 508.65267370645034 -85.486131433324 0.0 0.0
954.8754257738776 142.6768333028116 539.7808108915086 -81.64874994995047 0.0 0.0
999.5553962214531 159.98143882671522 570.8674512981959 -73.68251302252412 0.0 0.0
1041.6800683265938 178.63824642584396 601.4344920501557 -58.35567132918266 0.0 0.0
1074.519643959202 193.39482894936535 625.5152659440548 -31.85160662512384 0.0 0.0
1074.5196439592332 193.39482894942404 625.5152659441121 31.851606625250025 0.0 0.0
1041.6800683265444 178.63824642587264 601.4344920501237 58.3556713294303 0.0 0.0
999.555396221089 159.98143882641872 570.8674512978763 73.68251302266734 0.0 0.0
954.8754257733074 142.6768333023113 539.7808108910683 81.64874995009177 0.0 0.0
909.0718968762902 126.80517481152756 508.65267370638423 85.48613143335488 0.0 0.0
863.0268030397597 111.45942324090834 477.1359480153453 87.73363111515468 0.0 0.0
816.0304684096183 97.14414964243734 444.7057731361506 89.15232160705659 0.0 0.0
769.3116200118894 82.84292209251836 410.590496418215 90.80867905965675 0.0 0.0
722.9322318448787 68.57188148216221 374.14820197779306 93.16278406343426 0.0 0.0
675.6694508178324 53.84224391314389 334.1105954529417 95.97565604887683 0.0 0.0
626.6041704221432 39.210527053279066 290.0723384196234 98.62806502574549 0.0 0.0
573.139262746021 24.931895983927912 241.15571144722273 100.85888567292564 0.0 0.0
509.0397224680118 10.572646705925056 187.29844538419718 104.8310030682533 0.0 0.0
426.9558380744821 -2.0867209360297885 135.90689166314485 113.33471814009623 0.0 0.0
334.07350244323163 -4.322621746672407 99.75222811065866 117.89799586962152 0.0 0.0
257.19064984842106 1.3871931921795744 77.53079473483753 113.92297886331971 0.0 0.0
186.53108828423024 12.946805691556513 59.84336819273602 104.0518084624191 0.0 0.0
106.39725731808623 19.962990048300245 37.90807420991593 102.18708580280222 0.0 0.0
18.578778127610285 -31.543620634988173 -3.889452752213365 136.23812018979729 0.0 0.0
-7.368875569860137 -428.96312044245343 -163.52259960802277 151.50343020068226 0.0 0.0
-1.9766378286839483 -388.47814251696536 -133.90707812672798 -146.76598113927733 0.0 0.0
0.0792645046388678 -43.37196119057996 -12.987809005782328 -153.66391636121708 0.0 0.0
67.27383319766328 15.645860349706563 24.875908064210947 -123.1103699392491 0.0 0.0
137.084593645232 14.986036034134752 45.621188903810015 -121.41603761533524 0.0 0.0
198.68252488297873 3.6282856882739987 60.6823622709734 -130.5413247049895 0.0 0.0
265.0588033439545 -3.169315293354036 78.44526671790874 -138.7583600463074 0.0 0.0
346.3620474315327 -2.3697788953571726 105.72590105997229 -137.81485371449207 0.0 0.0
434.9973739256195 4.745362791581621 146.34245263605743 -129.88276440098272 0.0 0.0
510.1009913320821 16.36905052336183 195.36678028322203 -121.08434337488654 0.0 0.0
568.9261186708337 29.061489564493478 244.12620083954087 -116.34919072988936 0.0 0.0
617.1390820387815 39.93097883729692 286.99218829927077 -112.86239585681318 0.0 0.0
663.2661335718609 51.838838435709654 327.216327712212 -109.46178406167577 0.0 0.0
707.5105648238394 63.091708861543765 363.71857403700164 -106.6467077019944 0.0 0.0
751.0207997968448 74.4323943542842 397.1488754808772 -104.63246864000445 0.0 0.0
793.5358130108546 84.74559911307854 426.9309964908258 -102.99315718494044 0.0 0.0
835.7857240731928 95.56411007915376 455.1229219870256 -100.62736712208594 0.0 0.0
875.8659735561266 105.87648740186408 481.01089438237 -96.46819915895198 0.0 0.0
914.1897639860447 115.48994978081838 505.3257249329667 -87.94831482127734 0.0 0.0
952.9776388885557 126.52838225269635 530.5280745371604 -70.90790704578599 0.0 0.0
988.503886687366 138.74846978478567 554.8231767400194 -39.96653747550391 0.0 0.0
988.5038866874344 138.74846978488625 554.8231767400193 39.966537475645005 0.0 0.0
952.9776388887097 126.52838225297054 530.5280745372629 70.90790704613549 0.0 0.0
914.1897639858418 115.48994978072211 505.32572493287773 87.94831482147877 0.0 0.0
875.8659735558807 105.87648740169718 481.0108943821717 96.4681991590567 0.0 0.0
835.7857240729458 95.56411007898369 455.1229219867954 100.6273671221644 0.0 0.0
793.5358130105877 84.74559911288048 426.93099649060537 102.99315718495853 0.0 0.0
751.0207997964425 74.4323943539334 397.14887548058607 104.6324686399953 0.0 0.0
707.5105648235465 63.091708861390984 363.718574036761 106.64670770211077 0.0 0.0
663.2661335717946 51.83883843577874 327.21632771206987 109.46178406168592 0.0 0.0
617.1390820386105 39.93097883733785 286.9921882991023 112.86239585687255 0.0 0.0
568.9261186704014 29.061489564209356 244.12620083915388 116.34919072979022 0.0 0.0
510.10099133190704 16.36905052351036 195.36678028306795 121.08434337494052 0.0 0.0
434.99737392505807 4.745362791375623 146.34245263573948 129.88276440103294 0.0 0.0
346.36204743112876 -2.3697788953577987 105.72590105983899 137.81485371446178 0.0 0.0
265.05880334378065 -3.1693152931611155 78.44526671791735 138.75836004611494 0.0 0.0
198.68252488289787 3.6282856884043753 60.6823622709898 130.5413247048336 0.0 0.0
137.08459364513618 14.986036034227894 45.621188903809205 121.41603761515378 0.0 0.0
67.27383319768089 15.645860349811711 24.875908064247774 123.11036993905694 0.0 0.0
0.0792645046538123 -43.37196119046681 -12.987809005743895 153.66391636101318 0.0 0.0
-1.976637828640456 -388.47814251661566 -133.90707812651323 146.7659811391453 0.0 0.0
-1.597252118163425 -344.9901793754508 -109.40778816044183 -141.0737648148808 0.0 0.0
-15.919243764705985 -53.08497345022452 -20.70126516447915 -164.31620419752835 0.0 0.0
32.5669469596799 11.750708551179272 13.29529665325775 -140.28024033592328 0.0 0.0
89.21957040441109 16.118598638771886 31.60145071295489 -136.34923444479298 0.0 0.0
139.39194184069328 6.419807255063706 43.73680557624694 -144.34598153385198 0.0 0.0
189.97936933945599 -1.318693040821103 56.567522025885175 -154.60635307320524 0.0 0.0
251.12300130111964 -2.2836301087390045 75.56839058227881 -159.10532293200967 0.0 0.0
333.3192112504509 2.9421484615693356 105.31012657435025 -155.2469252706009 0.0 0.0
417.7927269296834 7.374975829062587 142.25146486893937 -146.1354436353098 0.0 0.0
486.0078650004935 18.089735929282785 186.1860245489373 -135.95325300147988 0.0 0.0
540.6159357929131 25.698532455664527 227.36121959663032 -131.22057383006225 0.0 0.0
585.9556611816827 34.32898305828767 266.3548310169271 -126.4373965840301 0.0 0.0
629.2536689484333 43.136742305931726 303.6307233164018 -122.9950176016296 0.0 0.0
670.7401245757231 51.262526712901945 337.72885464924366 -120.53362307552054 0.0 0.0
710.7746693138547 58.54722093558728 367.83603260733526 -118.58801889179672 0.0 0.0
747.9384301455905 64.33068694827733 393.1052915045036 -115.95719855990812 0.0 0.0
784.0862737718328 69.48066587660503 415.6126131708237 -111.62766960581024 0.0 0.0
816.9211570933976 71.7689926582526 434.3327410571044 -102.34866703462986 0.0 0.0
848.5258195122022 71.9232643245162 450.91950073880736 -84.5742899354555 0.0 0.0
886.9007191037481 79.51128560248313 474.4752865960357 -50.52223423979549 0.0 0.0
886.9007191038742 79.51128560263807 474.4752865961803 50.52223423990327 0.0 0.0
848.5258195123578 71.92326432480897 450.91950073898767 84.57428993577052 0.0 0.0
816.9211570932969 71.7689926583221 434.33274105702816 102.34866703491608 0.0 0.0
784.0862737717396 69.48066587664535 415.61261317069756 111.62766960597502 0.0 0.0
747.9384301454008 64.33068694815155 393.10529150431347 115.9571985599543 0.0 0.0
710.774669313611 58.54722093539034 367.83603260714364 118.5880188917817 0.0 0.0
670.7401245756304 51.26252671291607 337.72885464914907 120.53362307559935 0.0 0.0
629.253668948119 43.136742305747795 303.630723316183 122.99501760170176 0.0 0.0
585.9556611812798 34.328983057884 266.3548310165958 126.4373965839501 0.0 0.0
540.6159357925413 25.698532455395544 227.3612195963101 131.22057383000407 0.0 0.0
486.0078650000532 18.089735928978214 186.18602454858944 135.9532530013764 0.0 0.0
417.7927269294599 7.374975829214399 142.2514648688483 146.13544363534479 0.0 0.0
333.31921125001645 2.9421484614852442 105.31012657416437 155.24692527050405 0.0 0.0
251.12300130077043 -2.283630108947481 75.56839058210443 159.10532293191903 0.0 0.0
189.97936933925635 -1.3186930409987356 56.56752202577323 154.60635307301732 0.0 0.0
139.391941840541 6.419807254929621 43.73680557616208 144.34598153370288 0.0 0.0
89.21957040431927 16.118598638756943 31.601450712922865 136.34923444458695 0.0 0.0
32.56694695965641 11.750708551138706 13.295296653238532 140.2802403357386 0.0 0.0
-15.919243764704383 -53.084973450199435 -20.701265164471142 164.31620419740133 0.0 0.0
-1.5972521182269759 -344.99017937510826 -109.40778816031447 141.0737648147411 0.0 0.0
-10.298911490335154 -300.8817554035139 -94.14135507323141 -133.0648946620219 0.0 0.0
-30.208910497253576 -59.51012447682095 -26.91488230787169 -170.76338091422693 0.0 0.0
1.3379668544245389 8.36729389928289 2.9115782261122285 -153.242186885695 0.0 0.0
43.145207672215996 16.68134970787426 17.947967214027074 -148.21102616505263 0.0 0.0
79.6724854535983 9.075828742106317 26.621423283869877 -154.7318393968255 0.0 0.0
113.607975260495 1.605971621530887 34.531696955585524 -165.87918737115982 0.0 0.0
152.355791056663 -1.4738980843007785 45.48105725355505 -174.6359526145981 0.0 0.0
203.1265335660075 0.9599257495932663 62.83045479543503 -174.99748063504092 0.0 0.0
270.3802235175086 3.2173899918265523 85.84697246473648 -171.22422827277194 0.0 0.0
345.366194654367 7.071199598556639 115.21316271358737 -161.3473094056492 0.0 0.0
414.65725020675296 12.387364454494666 149.32139533826205 -152.8042889831214 0.0 0.0
467.700350231489 16.4134808972061 182.8139524609227 -146.48441529738358 0.0 0.0
513.5082126057167 22.56524616932279 217.90801689932894 -141.46674327060634 0.0 0.0
555.5154123532676 27.981320465374452 252.5987708242094 -137.78750054057278 0.0 0.0
593.9992400032442 32.092023543251926 284.3206935777131 -134.86409856107892 0.0 0.0
627.9232396874207 33.7170061444697 310.4715732522415 -131.70137283388317 0.0 0.0
659.9206202122557 32.39817900081213 331.2845185405657 -127.28782797117849 0.0 0.0
693.7196952915074 29.693620446029698 350.45806770866466 -117.02115643011153 0.0 0.0
719.6704152289329 16.92868981081135 359.7350679677176 -98.8344687249765 0.0 0.0
757.4367039182342 11.628833442451509 377.0452776364862 -64.51502503317974 0.0 0.0
757.4367039185718 11.628833442829091 377.0452776367197 64.51502503334697 0.0 0.0
719.6704152288772 16.928689810946707 359.73506796771557 98.8344687253429 0.0 0.0
693.719695291055 29.693620445730502 350.45806770836117 117.02115643043692 0.0 0.0
659.9206202120043 32.398179000715714 331.284518540399 127.28782797132308 0.0 0.0
627.9232396872455 33.71700614431812 310.4715732520887 131.70137283389315 0.0 0.0
593.9992400025577 32.092023542504705 284.3206935772422 134.86409856102387 0.0 0.0
555.5154123526391 27.98132046468148 252.59877082376133 137.78750054059358 0.0 0.0
513.5082126050828 22.565246168688237 217.90801689889045 141.46674327064792 0.0 0.0
467.70035023115975 16.413480896914585 182.81395246064469 146.4844152973976 0.0 0.0
414.6572502066142 12.387364454621563 149.32139533818375 152.8042889831245 0.0 0.0
345.36619465403334 7.071199598501295 115.21316271342468 161.34730940555727 0.0 0.0
270.38022351716984 3.217389991663042 85.84697246456918 171.22422827276782 0.0 0.0
203.12653356585213 0.9599257498039862 62.83045479544208 174.99748063499686 0.0 0.0
152.3557910566239 -1.4738980840886544 45.481057253604035 174.63595261448373 0.0 0.0
113.60797526043403 1.6059716215083082 34.53169695556152 165.87918737096163 0.0 0.0
79.6724854536032 9.075828742245013 26.621423283913625 154.7318393966288 0.0 0.0
43.14520767216075 16.681349707777382 17.94796721398144 148.21102616485086 0.0 0.0
1.3379668544664391 8.367293899355749 2.9115782261466565 153.24218688551989 0.0 0.0
-30.2089104971824 -59.51012447668652 -26.914882307810156 170.76338091405813 0.0 0.0
-10.298911490411886 -300.88175540325017 -94.14135507316989 133.0648946618961 0.0 0.0
-18.070300159148093 -256.7970184148279 -82.41264422601154 -123.06767758281183 0.0 0.0
-42.2385861363064 -62.21707254055899 -31.33428351973037 -173.1268536101715 0.0 0.0
-27.189132125409106 5.390229979460925 -6.539518018877632 -162.0674212508248 0.0 0.0
-1.142801742660823 16.8251147022564 4.704464182009668 -156.487016698336 0.0 0.0
20.198256582368565 11.50690128919072 9.509672791032731 -161.3107230382011 0.0 0.0
36.15352028816306 4.764999627766688 12.267719753177916 -172.08985825835748 0.0 0.0
50.76864462804802 0.7987091598125904 15.538160828896157 -182.08201584952462 0.0 0.0
68.42227554808647 -0.03265394409973954 20.79545808142633 -187.3782366472967 0.0 0.0
92.28609281661583 1.0507539398321128 28.907808138145974 -184.04415928265877 0.0 0.0
119.65346499556547 1.298233269772771 38.0943729295237 -180.48551080888052 0.0 0.0
153.84001180597775 3.254740757893261 50.6525415181597 -172.26996934015176 0.0 0.0
191.85779543225067 3.8695851744979777 64.52682262775137 -167.31071271721956 0.0 0.0
235.787828120756 5.900509803673248 82.04969643138801 -163.287822995241 0.0 0.0
279.9038051726176 7.2418723697904 103.07590387266728 -158.75603569047007 0.0 0.0
323.9445593128237 9.504681544383523 128.71783085540693 -153.94095027500393 0.0 0.0
373.1279361327854 5.0357719127224385 156.66870470403725 -149.26311781817262 0.0 0.0
417.62893526147667 -4.133021300970313 180.91397262783136 -143.3601712375 0.0 0.0
466.7115398866578 -15.726286710072884 207.3893349816828 -134.1031400338114 0.0 0.0
522.6292282265061 -28.5158501589423 236.39259627696765 -112.95109046820035 0.0 0.0
548.5956718025416 -75.96216840254363 232.38151617474773 -80.26875554381346 0.0 0.0
548.595671802567 -75.9621684025449 232.38151617472516 80.26875554406429 0.0 0.0
522.6292282262962 -28.515850159059767 236.39259627683953 112.95109046858724 0.0 0.0
466.7115398870511 -15.72628670943034 207.3893349819928 134.10314003415928 0.0 0.0
417.62893526215845 -4.133021299871658 180.91397262838592 143.3601712376744 0.0 0.0
373.12793613318587 5.035771913280463 156.66870470431732 149.26311781815917 0.0 0.0
323.94455931330737 9.50468154530526 128.71783085577795 153.9409502750288 0.0 0.0
279.90380517280175 7.241872370197459 103.07590387283594 158.75603569055752 0.0 0.0
235.78782812103654 5.900509804184484 82.04969643161276 163.28782299537835 0.0 0.0
191.85779543247722 3.869585174932027 64.52682262794431 167.31071271724784 0.0 0.0
153.84001180578045 3.254740757442063 50.65254151795468 172.26996934013894 0.0 0.0
119.65346499541779 1.2982332694792262 38.09437292938552 180.48551080877127 0.0 0.0
92.2860928164612 1.0507539395111358 28.90780813800051 184.04415928266954 0.0 0.0
68.42227554787871 -0.03265394448504111 20.795458081245698 187.37823664724678 0.0 0.0
50.76864462793972 0.7987091595692055 15.538160828789875 182.08201584938587 0.0 0.0
36.15352028821136 4.764999627824929 12.26771975321016 172.08985825814284 0.0 0.0
20.198256582406163 11.5069012892437 9.509672791060106 161.3107230380412 0.0 0.0
-1.14280174260172 16.82511470229334 4.704464182038523 156.48701669813644 0.0 0.0
-27.18913212535469 5.390229979574723 -6.539518018827277 162.06742125065318 0.0 0.0
-42.23858613626426 -62.21707254050983 -31.334283519703714 173.12685361001357 0.0 0.0
-18.070300159154243 -256.79701841458194 -82.4126442259425 123.06767758268974 0.0 0.0
-21.325617893223665 -214.11974011426292 -70.63360740224597 -111.87397435089328 0.0 0.0
-52.1671186929577 -61.62046222575103 -34.13480984755953 -171.7059965693053 0.0 0.0
-53.43301142082964 2.888387339658021 -15.162859410746663 -166.61191776146592 0.0 0.0
-43.71582004960132 16.58612325742032 -8.138331403936064 -160.86065059249597 0.0 0.0
-38.54422429572831 13.563467754279017 -7.48994162901631 -163.75526065082872 0.0 0.0
-41.43629772546738 7.791380900170435 -10.08207252783806 -173.13270365311777 0.0 0.0
-51.31004775091337 3.2689766040895822 -14.47834532292077 -182.32318008924847 0.0 0.0
-67.90491424467903 0.6147711037365111 -20.464231177372287 -187.38434471977564 0.0 0.0
-91.85060964922718 -1.2431123749449497 -28.83022805755934 -184.01916782431402 0.0 0.0
-119.37827914698335 -1.4593419107228005 -38.0576751879599 -180.47119086943061 0.0 0.0
-153.63396152064448 -3.2393418183336795 -50.567617893073916 -172.27542692233317 0.0 0.0
-191.80118841909308 -3.515782612132984 -64.37178127010714 -167.23969051594597 0.0 0.0
-236.75828584499862 -5.158406418745276 -82.06402268663415 -163.06237251779797 0.0 0.0
-282.3993810712709 -7.566494471914584 -104.18359486726438 -158.5544141123909 0.0 0.0
-324.23053844641845 -12.397435655302367 -130.45057350400623 -154.64124799434225 0.0 0.0
-360.18460969282927 -19.738863484662502 -157.40098214049127 -153.28041517434048 0.0 0.0
-367.7910215724164 -28.13461382045655 -173.64376091715195 -153.88648850918787 0.0 0.0
-322.5905103156145 -45.13858223186668 -169.9843461160915 -157.6035513164611 0.0 0.0
-172.63825738335586 -40.359660169318914 -103.741637221881 -154.44821099603672 0.0 0.0
40.7419435524471 -155.97868084049452 -48.65480207865952 -107.66011060749625 0.0 0.0
40.74194355242051 -155.97868084061537 -48.65480207872673 107.66011060785533 0.0 0.0
-172.63825738348973 -40.35966016950816 -103.74163722199505 154.44821099646865 0.0 0.0
-322.5905103156472 -45.13858223190559 -169.98434611610654 157.60355131673077 0.0 0.0
-367.7910215726322 -28.134613821086816 -173.64376091735753 153.8864885092749 0.0 0.0
-360.18460969302726 -19.738863485412416 -157.40098214073709 153.28041517439954 0.0 0.0
-324.23053844634205 -12.397435655485992 -130.45057350399298 154.6412479943669 0.0 0.0
-282.3993810713089 -7.566494472424424 -104.18359486739662 158.55441411248344 0.0 0.0
-236.7582858448898 -5.158406419499148 -82.06402268680445 163.06237251798422 0.0 0.0
-191.80118841865044 -3.5157826121171816 -64.37178126995153 167.2396905159777 0.0 0.0
-153.63396152002687 -3.239341817875827 -50.567617892730425 172.2754269223085 0.0 0.0
-119.37827914657393 -1.4593419105524426 -38.0576751877729 180.47119086932656 0.0 0.0
-91.85060964892587 -1.2431123748659827 -28.830228057440024 184.01916782432224 0.0 0.0
-67.90491424448922 0.6147711037528572 -20.464231177307838 187.38434471975037 0.0 0.0
-51.31004775092498 3.2689766037693935 -14.478345323019175 182.32318008912657 0.0 0.0
-41.436297725455844 7.7913808999536975 -10.082072527900017 173.13270365290276 0.0 0.0
-38.544224295693155 13.563467754060003 -7.489941629071834 163.75526065063548 0.0 0.0
-43.71582004961529 16.586123257204974 -8.138331404005118 160.8606505922799 0.0 0.0
-53.43301142079468 2.8883873396340247 -15.162859410743753 166.61191776131636 0.0 0.0
-52.167118692918635 -61.62046222570703 -34.13480984753503 171.70599656912546 0.0 0.0
-21.325617893179228 -214.1197401140525 -70.6336074021695 111.87397435079507 0.0 0.0
-22.062946665648138 -174.01822411171062 -58.82435123320762 -100.42237544671497 0.0 0.0
-60.452362176231134 -58.25463378895466 -35.611948001663805 -166.39161068384766 0.0 0.0
-77.7580189635969 0.933761574392439 -23.046320315355217 -166.91926605690907 0.0 0.0
-84.62059538018504 15.995096117743186 -20.58191674828487 -161.20783787474727 0.0 0.0
-96.1725484962407 15.063516661951354 -24.323399586959113 -161.85839112108036 0.0 0.0
-118.13155152717833 10.358595494170252 -32.3313584001123 -168.65857766345397 0.0 0.0
-152.81824594497604 5.291026049928329 -44.47531540343499 -175.43346295722523 0.0 0.0
-202.70553992137314 -0.448808591423437 -62.545302195809555 -175.03155018228682 0.0 0.0
-269.99219295514604 -3.3972782287665364 -85.77507096422832 -171.1517922427946 0.0 0.0
-345.16184915514 -7.208785813722605 -115.18397271493147 -161.29565409667575 0.0 0.0
-414.5269718026072 -12.39345680818279 -149.27335912401344 -152.78793510480898 0.0 0.0
-467.5679962504929 -16.102725689451734 -182.6458845133316 -146.35985481974222 0.0 0.0
-513.5432580201204 -21.842377857927016 -217.61525527129766 -140.97604793771293 0.0 0.0
-556.3213832096802 -28.020822233154604 -253.00373304771014 -137.37392441751945 0.0 0.0
-597.1673965382813 -36.353367831479545 -287.8576418755042 -135.88945894629168 0.0 0.0
-633.7911855852483 -47.31689188773274 -319.7939801441006 -137.1512870108449 0.0 0.0
-665.5363662247762 -64.29539196246856 -349.18310740879076 -143.2175482067221 0.0 0.0
-688.1843442777081 -88.55052132471108 -374.48985132397956 -154.93928950089708 0.0 0.0
-717.6997086337362 -141.32707978422496 -412.31284892502464 -165.1099846247838 0.0 0.0
-680.8552544416261 -190.654443452853 -409.8750333980153 -162.36768497394817 0.0 0.0
-680.8552544414938 -190.65444345285857 -409.8750333980106 162.3676849742486 0.0 0.0
-717.699708633484 -141.32707978412998 -412.3128489249065 165.1099846250792 0.0 0.0
-688.1843442775631 -88.55052132487722 -374.4898513239092 154.93928950122017 0.0 0.0
-665.5363662240137 -64.29539196176789 -349.183107408258 143.2175482067779 0.0 0.0
-633.7911855849014 -47.316891887436256 -319.79398014382457 137.15128701085422 0.0 0.0
-597.1673965379971 -36.35336783130719 -287.85764187529594 135.88945894631965 0.0 0.0
-556.3213832093812 -28.02082223289011 -253.0037330474517 137.3739244174748 0.0 0.0
-513.5432580196893 -21.842377857774473 -217.61525527103112 140.97604793785598 0.0 0.0
-467.5679962501375 -16.1027256894312 -182.6458845130901 146.35985481978207 0.0 0.0
-414.5269718021553 -12.393456808181448 -149.27335912376935 152.78793510481398 0.0 0.0
-345.16184915457484 -7.2087858137206435 -115.183972714697 161.29565409659872 0.0 0.0
-269.99219295472824 -3.3972782290132075 -85.77507096415658 171.15179224286277 0.0 0.0
-202.705539920933 -0.4488085913335951 -62.54530219563876 175.03155018228784 0.0 0.0
-152.81824594471965 5.2910260499040564 -44.47531540336176 175.43346295707767 0.0 0.0
-118.13155152701512 10.35859549407043 -32.33135840009593 168.6585776632814 0.0 0.0
-96.17254849613423 15.063516661773422 -24.323399586981314 161.8583911208541 0.0 0.0
-84.62059538009358 15.995096117681538 -20.581916748276505 161.2078378745598 0.0 0.0
-77.75801896345953 0.9337615745036341 -23.04632031528113 166.9192660567379 0.0 0.0
-60.45236217620984 -58.25463378893047 -35.61194800165031 166.39161068370115 0.0 0.0
-22.062946665610546 -174.01822411155172 -58.824351233148676 100.42237544656018 0.0 0.0
-22.362429673719262 -137.04484096636506 -47.82218119202529 -88.90898196391161 0.0 0.0
-67.83533505098914 -52.676864486967474 -36.15365986138698 -157.41940808913245 0.0 0.0
-100.48089610657622 -0.40255040424641386 -30.262083812628326 -163.00243824365074 0.0 0.0
-123.87555739996745 15.057779487243677 -32.63456178961214 -157.39694990984552 0.0 0.0
-152.39120043745203 15.79898476286942 -40.96315592555276 -155.5874698108112 0.0 0.0
-193.46329268999685 12.342241222976371 -54.27420536508998 -159.25473966678692 0.0 0.0
-251.43565227276923 5.572125730565672 -74.70275487445151 -160.15233726663033 0.0 0.0
-332.9561771962053 -2.4930494920354116 -105.04907221622724 -155.37607017906885 0.0 0.0
-417.67132478414976 -7.5594139551079405 -142.2264535248013 -146.00063209038484 0.0 0.0
-486.0271384051272 -18.200740548689815 -186.20871098929368 -135.8698963417218 0.0 0.0
-540.6306341408368 -25.73951949218515 -227.38733210599514 -131.20392056845424 0.0 0.0
-585.8728622179071 -34.13444781781392 -266.234122486355 -126.31716373417535 0.0 0.0
-628.9779205246574 -42.42343371971004 -303.136985688676 -122.47491961362782 0.0 0.0
-671.0026699096445 -50.942154709584074 -337.6014744992664 -119.86337960085848 0.0 0.0
-713.5151036532336 -61.67422734639036 -370.6872958202821 -119.05662428997921 0.0 0.0
-754.6806376811489 -75.54046250977416 -402.2993591557221 -120.83045278068452 0.0 0.0
-794.0530143725379 -94.98611844812712 -433.69543539893476 -127.2090140669659 0.0 0.0
-838.3650759276554 -131.4097021865586 -473.7292234118411 -137.53933882927353 0.0 0.0
-885.3191788106628 -186.50455661762052 -522.4682029221599 -147.62054400047208 0.0 0.0
-934.117499913488 -278.9625474696168 -584.5142876470653 -152.13376840146032 0.0 0.0
-934.1174999138209 -278.9625474701813 -584.5142876473753 152.13376840173643 0.0 0.0
-885.319178810847 -186.50455661801158 -522.4682029223479 147.6205440007449 0.0 0.0
-838.3650759272698 -131.4097021863381 -473.72922341162496 137.53933882951665 0.0 0.0
-794.053014372437 -94.98611844813857 -433.6954353988434 127.20901406705285 0.0 0.0
-754.6806376810907 -75.54046250978135 -402.29935915568615 120.83045278068326 0.0 0.0
-713.5151036529808 -61.67422734620477 -370.6872958201084 119.05662428997815 0.0 0.0
-671.002669909377 -50.94215470940669 -337.60147449903116 119.86337960085913 0.0 0.0
-628.9779205243055 -42.423433719498476 -303.13698568841403 122.47491961367004 0.0 0.0
-585.8728622174851 -34.13444781757117 -266.2341224860383 126.31716373417807 0.0 0.0
-540.6306341405416 -25.739519492158195 -227.3873321057381 131.20392056845384 0.0 0.0
-486.02713840495596 -18.200740548965058 -186.20871098917235 135.86989634171618 0.0 0.0
-417.671324783461 -7.559413954858984 -142.22645352443115 146.0006320904616 0.0 0.0
-332.9561771955483 -2.493049491889394 -105.04907221596173 155.37607017912822 0.0 0.0
-251.43565227236996 5.572125730597915 -74.70275487431057 160.15233726655552 0.0 0.0
-193.463292689694 12.342241223013719 -54.27420536498954 159.2547396666521 0.0 0.0
-152.3912004372682 15.798984762747777 -40.96315592553519 155.58746981063956 0.0 0.0
-123.87555739980363 15.057779487259463 -32.634561789559285 157.3969499096754 0.0 0.0
-100.48089610646264 -0.40255040424461175 -30.262083812594533 163.0024382434348 0.0 0.0
-67.83533505090533 -52.67686448686446 -36.15365986133094 157.41940808896805 0.0 0.0
-22.36242967370205 -137.04484096622883 -47.822181191979254 88.9089819638593 0.0 0.0
-22.78936564989879 -103.61031480673165 -37.91990413698913 -77.23797501625286 0.0 0.0
-74.87371247409453 -45.54566288246519 -36.12581260696791 -145.19138030642702 0.0 0.0
-121.87429981150632 -1.0841608371005131 -36.88474626214533 -154.95066944839704 0.0 0.0
-161.6066591333349 13.624805811263494 -44.383338963130115 -149.4493275065313 0.0 0.0
-206.69087554084734 15.99204377912442 -57.17470613800442 -144.96622238286514 0.0 0.0
-265.6868593239676 12.098453052539103 -76.34233604601417 -143.76093371285057 0.0 0.0
-346.19122360349775 5.571550965643091 -104.68601998978806 -139.73384968841975 0.0 0.0
-434.85274854265543 -4.570641860712863 -146.20663877932617 -129.874061280703 0.0 0.0
-510.1761098969939 -16.518986704400184 -195.39515391109325 -120.92113958713371 0.0 0.0
-568.9966140570898 -29.17999515360129 -244.20029661276521 -116.2520655136787 0.0 0.0
-617.1723846437594 -39.962787162231294 -287.0307838840466 -112.86256032911771 0.0 0.0
-663.2462237675079 -51.78665534907483 -327.1872542680429 -109.38313428038774 0.0 0.0
-707.1868886211416 -62.53345711627766 -363.27195950820044 -106.16230606184973 0.0 0.0
-750.7411989439584 -73.70182943213646 -396.5572852226146 -103.74664433338616 0.0 0.0
-795.0426979297398 -86.28849561921214 -428.40925089947837 -102.95734248037826 0.0 0.0
-840.8822410355461 -103.14130613196356 -461.7191768728497 -104.73421304607953 0.0 0.0
-889.6168560362801 -128.7618420713984 -499.53625670726973 -109.94140950406253 0.0 0.0
-947.062067253324 -173.31008334866289 -549.8759190110598 -119.06487879653149 0.0 0.0
-1012.7770096005688 -242.14131925820388 -614.9815666566778 -128.5292904642814 0.0 0.0
-1081.710940668869 -346.91649027542735 -695.2958028511902 -135.656212118913 0.0 0.0
-1081.7109406689556 -346.9164902756616 -695.2958028513042 135.65621211915126 0.0 0.0
-1012.777009600213 -242.14131925801414 -614.9815666564604 128.52929046455293 0.0 0.0
-947.0620672529635 -173.31008334842625 -549.875919010776 119.06487879673219 0.0 0.0
-889.6168560363005 -128.76184207158067 -499.53625670722647 109.94140950426518 0.0 0.0
-840.8822410350045 -103.1413061315375 -461.7191768724048 104.73421304615403 0.0 0.0
-795.0426979292465 -86.28849561873866 -428.40925089905676 102.95734248033922 0.0 0.0
-750.7411989437837 -73.7018294320294 -396.55728522245386 103.7466443333677 0.0 0.0
-707.1868886208174 -62.5334571161219 -363.27195950792276 106.1623060619406 0.0 0.0
-663.246223767477 -51.78665534932578 -327.1872542679543 109.38313428049774 0.0 0.0
-617.1723846435776 -39.96278716226097 -287.03078388382755 112.86256032908011 0.0 0.0
-568.9966140567769 -29.17999515352869 -244.20029661246025 116.2520655136221 0.0 0.0
-510.17610989640013 -16.51898670415336 -195.3951539106675 120.92113958717857 0.0 0.0
-434.85274854207194 -4.5706418605819685 -146.20663877899625 129.87406128076316 0.0 0.0
-346.1912236029974 5.571550965658472 -104.68601998960636 139.73384968839787 0.0 0.0
-265.68685932343305 12.0984530528546 -76.34233604576443 143.76093371275314 0.0 0.0
-206.69087554055292 15.992043779122026 -57.174706137918236 144.96622238275748 0.0 0.0
-161.60665913324448 13.62480581104051 -44.38333896317102 149.44932750638597 0.0 0.0
-121.87429981141787 -1.0841608371457059 -36.88474626213311 154.95066944823625 0.0 0.0
-74.87371247395443 -45.54566288234109 -36.12581260688865 145.1913803062701 0.0 0.0
-22.7893656499113 -103.61031480663274 -37.919904136963204 77.23797501616426 0.0 0.0
-23.45543466033144 -74.09723477066069 -29.265800829297635 -65.23998747606785 0.0 0.0
-81.77123325195004 -37.43230057342101 -35.76106014761131 -130.07818820698242 0.0 0.0
-142.20138440538028 -1.2317298571106727 -43.029934278747284 -142.92583030055047 0.0 0.0
-197.88601749926374 11.943573362964436 -55.76318765735452 -137.40718693867382 0.0 0.0
-259.3443228918562 14.742242713050398 -73.2785279986673 -130.19593640440812 0.0 0.0
-334.5567718065614 11.744728514295673 -97.7141188367641 -124.01259099926975 0.0 0.0
-425.99410962992465 4.184530396666698 -135.03954061450375 -114.59448266711031 0.0 0.0
-508.9881185203545 -10.496151595001267 -187.215192698478 -104.80853440674144 0.0 0.0
-573.3398900740012 -25.105993627169717 -241.26945002778788 -100.65345007696409 0.0 0.0
-626.7130101483978 -39.2924187335537 -290.16392953110335 -98.5636171593638 0.0 0.0
-675.7121829541968 -53.875847087867854 -334.15760512345713 -95.97520255240477 0.0 0.0
-722.9957558455031 -68.64881815937163 -374.2179606989373 -93.12074387104033 0.0 0.0
-769.1085109449405 -82.58896285881697 -410.3712025884718 -90.4127748652668 0.0 0.0
-815.2212628565385 -96.11587104866652 -443.76680144549607 -88.22016222010305 0.0 0.0
-862.5309017942498 -110.8545316695697 -476.5705161486825 -87.32197614980375 0.0 0.0
-912.5283252056352 -131.15982221345746 -512.712283662728 -88.37386780100495 0.0 0.0
-970.4833036844368 -162.9447688016711 -557.776212472739 -92.22231957815224 0.0 0.0
-1040.5950163282173 -217.02565423731727 -619.1567573778974 -99.81808532750514 0.0 0.0
-1120.8265427694596 -298.74867711906546 -698.4443184380127 -109.91389416769766 0.0 0.0
-1191.2414786543186 -405.63992842508634 -782.0852140152884 -123.69529809338464 0.0 0.0
-1191.2414786541221 -405.6399284249958 -782.0852140152094 123.69529809357581 0.0 0.0
-1120.826542769008 -298.74867711871593 -698.4443184377187 109.91389416791446 0.0 0.0
-1040.5950163278792 -217.02565423703925 -619.1567573776321 99.81808532759678 0.0 0.0
-970.4833036839715 -162.94476880125364 -557.7762124723649 92.22231957821037 0.0 0.0
-912.5283252053068 -131.15982221321715 -512.7122836624774 88.37386780108054 0.0 0.0
-862.5309017943916 -110.85453166979062 -476.5705161487133 87.32197614980777 0.0 0.0
-815.2212628562326 -96.1158710484381 -443.7668014452406 88.22016222010643 0.0 0.0
-769.1085109446547 -82.58896285866206 -410.3712025882496 90.4127748653024 0.0 0.0
-722.9957558452832 -68.64881815934214 -374.2179606987321 93.1207438711043 0.0 0.0
-675.7121829540345 -53.87584708791829 -334.1576051232527 95.97520255238258 0.0 0.0
-626.7130101481569 -39.29241873351864 -290.1639295308316 98.56361715930774 0.0 0.0
-573.3398900736893 -25.105993627177458 -241.26945002750548 100.65345007700336 0.0 0.0
-508.988118519868 -10.496151594856322 -187.21519269812072 104.8085344067621 0.0 0.0
-425.99410962935156 4.184530396819677 -135.03954061420632 114.59448266709956 0.0 0.0
-334.5567718061433 11.744728514177664 -97.71411883667217 124.01259099917189 0.0 0.0
-259.34432289152613 14.74224271306714 -73.27852799856656 130.19593640426402 0.0 0.0
-197.88601749895204 11.943573363139574 -55.76318765720994 137.40718693850818 0.0 0.0
-142.20138440514998 -1.2317298569326613 -43.029934278624786 142.92583030042556 0.0 0.0
-81.77123325185343 -37.43230057335215 -35.76106014756167 130.07818820683616 0.0 0.0
-23.45543466033494 -74.09723477063685 -29.265800829291535 65.23998747601021 0.0 0.0
-24.240037411879303 -48.87959193150334 -21.93588880301479 -52.773310169181556 0.0 0.0
-88.3912706019838 -28.836916904600344 -35.16845625197524 -112.37852161247282 0.0 0.0
-161.62082279812887 -0.9391297488014434 -48.7679857640791 -127.09855419174555 0.0 0.0
-232.8644459164611 9.729266992292672 -66.93023354366127 -121.31150037632872 0.0 0.0
-309.05764804844944 12.681711853494773 -88.8985334147277 -111.24113735242291 0.0 0.0
-398.86247198654667 11.899397706924464 -118.65582835164545 -101.45606570419879 0.0 0.0
-489.88158246542685 0.7318248162977312 -166.17309618045394 -89.04718722779943 0.0 0.0
-561.3985129584274 -17.36698074023983 -225.06730717902064 -83.21054258458463 0.0 0.0
-619.4788213973603 -32.212000351896336 -278.7385430041056 -82.477794201765 0.0 0.0
-673.0124971388742 -49.38645524763382 -328.05931011732736 -81.2391914197692 0.0 0.0
-723.8419055523382 -67.38725231351438 -372.6470345766951 -79.35962795283537 0.0 0.0
-773.1376568930509 -85.12710605460744 -412.9984850582626 -76.98380958346289 0.0 0.0
-822.3863310880713 -102.14869944101984 -450.2601733328745 -74.85271799473522 0.0 0.0
-871.200418949546 -118.80944044778133 -485.18238711658444 -72.94349457657464 0.0 0.0
-921.1703983320763 -135.92129218753524 -519.6872420225818 -71.80827576328275 0.0 0.0
-976.4467151766621 -159.29167966440463 -559.5396472454688 -71.95383323982828 0.0 0.0
-1041.2409604628108 -197.0731961042669 -610.8689891676593 -73.99238476343466 0.0 0.0
-1122.291909216451 -260.47005349249855 -682.3730661653608 -80.26720124845374 0.0 0.0
-1213.261363004831 -352.0280461450019 -772.4361981221423 -92.50118221214095 0.0 0.0
-1286.0860429923653 -462.3177414348275 -860.1403871896665 -115.2758049345764 0.0 0.0
-1286.086042992264 -462.3177414348121 -860.1403871896198 115.27580493473485 0.0 0.0
-1213.2613630047704 -352.0280461450316 -772.4361981220686 92.50118221234368 0.0 0.0
-1122.2919092167897 -260.4700534929213 -682.3730661655557 80.26720124860262 0.0 0.0
-1041.240960463178 -197.0731961047365 -610.8689891678875 73.99238476359189 0.0 0.0
-976.4467151764161 -159.29167966423086 -559.539647245226 71.95383323987461 0.0 0.0
-921.1703983318491 -135.92129218739115 -519.6872420223568 71.80827576334428 0.0 0.0
-871.2004189493488 -118.80944044768927 -485.1823871163604 72.94349457663868 0.0 0.0
-822.3863310880121 -102.14869944111325 -450.26017333277775 74.85271799478609 0.0 0.0
-773.1376568928645 -85.12710605457998 -412.9984850580918 76.98380958348899 0.0 0.0
-723.841905552103 -67.38725231346984 -372.64703457645584 79.3596279528266 0.0 0.0
-673.0124971388047 -49.38645524778818 -328.05931011717604 81.23919141972766 0.0 0.0
-619.478821397011 -32.212000351808726 -278.738543003778 82.47779420177865 0.0 0.0
-561.398512957897 -17.366980739956364 -225.06730717857639 83.2105425845563 0.0 0.0
-489.88158246486154 0.7318248165292682 -166.17309618007118 89.0471872277912 0.0 0.0
-398.8624719861054 11.899397706836211 -118.6558283515022 101.45606570410919 0.0 0.0
-309.05764804808575 12.681711853482735 -88.8985334146301 111.2411373523284 0.0 0.0
-232.8644459161755 9.729266992395267 -66.93023354354641 121.311500376219 0.0 0.0
-161.62082279789632 -0.9391297486590653 -48.76798576396661 127.09855419158436 0.0 0.0
-88.39127060187587 -28.83691690456018 -35.168456251930806 112.37852161235325 0.0 0.0
-24.24003741182446 -48.87959193142341 -21.935888802974358 52.77331016911963 0.0 0.0
-24.81669970276009 -28.32331374683777 -15.942004034879357 -39.79746140783668 0.0 0.0
-94.23533909459447 -20.200893354042574 -34.33086973459111 -92.33453563927598 0.0 0.0
-180.14634420996515 -0.32867893385011815 -54.14250694314457 -107.46990484631006 0.0 0.0
-267.1313438755567 6.748471026734478 -78.10537669260479 -101.34129156851503 0.0 0.0
-357.2117330716396 10.888923068261036 -103.82510661839785 -89.34632149920895 0.0 0.0
-453.61719148361016 11.224731500029586 -140.0382748431833 -76.42955086200759 0.0 0.0
-533.6912469306333 -5.885999295605149 -197.39481987557542 -65.41795602221117 0.0 0.0
-599.7474302382418 -21.744320955654192 -256.4589026947367 -64.55489691021333 0.0 0.0
-657.623767401621 -39.17877038997364 -310.44144769506784 -64.51334997118154 0.0 0.0
-711.9650646473214 -59.37497094644555 -359.91000393835384 -63.97304719745658 0.0 0.0
-764.7696568427183 -80.34396785770465 -404.95040456108836 -62.61622972302655 0.0 0.0
-817.0779879804032 -101.24070328755263 -446.5686564900286 -60.79167939375918 0.0 0.0
-869.1846890483524 -121.44120275642071 -485.4512030512979 -59.148693901581446 0.0 0.0
-922.4231412867498 -141.76043409800417 -523.5945851812714 -57.771877141720736 0.0 0.0
-976.0399457649864 -162.189779710832 -561.1810242137403 -56.48986005024224 0.0 0.0
-1033.2585693038277 -187.97740536694533 -602.9459991145395 -55.43925052926582 0.0 0.0
-1103.671766239989 -229.81284055115924 -659.0796851927654 -55.62151572866896 0.0 0.0
-1193.3302371066823 -300.1362009460206 -738.3816534588165 -60.72854383690301 0.0 0.0
-1295.690014771126 -402.0287478196 -839.5847844795992 -75.84476974698076 0.0 0.0
-1376.0662448898768 -521.0803936507486 -936.4411441328235 -108.58830967763154 0.0 0.0
-1376.0662448901605 -521.0803936511082 -936.4411441330501 108.58830967776358 0.0 0.0
-1295.6900147714737 -402.028747820007 -839.5847844798357 75.84476974711032 0.0 0.0
-1193.330237106629 -300.1362009460278 -738.3816534587355 60.72854383703051 0.0 0.0
-1103.6717662395652 -229.8128405507927 -659.0796851923932 55.62151572874283 0.0 0.0
-1033.2585693037836 -187.97740536696585 -602.9459991143949 55.43925052929953 0.0 0.0
-976.0399457648812 -162.1897797108098 -561.18102421363 56.48986005030465 0.0 0.0
-922.4231412867582 -141.7604340981099 -523.5945851811997 57.77187714175273 0.0 0.0
-869.1846890483793 -121.44120275658983 -485.4512030512272 59.148693901641806 0.0 0.0
-817.0779879804113 -101.24070328773433 -446.56865648995046 60.79167939382182 0.0 0.0
-764.7696568423429 -80.34396785749736 -404.95040456075293 62.616229723015906 0.0 0.0
-711.9650646466848 -59.374970945957465 -359.9100039378347 63.97304719736569 0.0 0.0
-657.6237674013867 -39.1787703899743 -310.44144769480494 64.51334997117368 0.0 0.0
-599.7474302380361 -21.744320955745458 -256.4589026944801 64.5548969102405 0.0 0.0
-533.6912469303164 -5.885999295649788 -197.3948198752975 65.41795602224131 0.0 0.0
-453.6171914831914 11.22473150000042 -140.03827484297935 76.42955086197692 0.0 0.0
-357.21173307115805 10.888923068367141 -103.82510661823076 89.3463214991095 0.0 0.0
-267.1313438752686 6.7484710268506145 -78.10537669248514 101.34129156844546 0.0 0.0
-180.1463442097355 -0.3286789337395053 -54.142506943042505 107.46990484622252 0.0 0.0
-94.23533909449654 -20.20089335398839 -34.33086973454547 92.33453563919166 0.0 0.0
-24.816699702760154 -28.323313746834366 -15.942004034878355 39.79746140778758 0.0 0.0
-24.561018877291154 -12.769159852441724 -11.199053618919862 -26.4720333023039 0.0 0.0
-98.3481105618126 -11.939744883349242 -33.08635663354855 -70.10250952404826 0.0 0.0
-197.7726620602078 0.37451766994495284 -59.219443317078856 -83.84277354309774 0.0 0.0
-301.1189325025499 2.9841059426459795 -89.42991149512974 -77.55080357396838 0.0 0.0
-403.2582932975551 11.159621569279928 -117.74950799612694 -64.99159229383213 0.0 0.0
-497.65122773817683 7.0151998798166275 -163.77636891395622 -51.56238229146427 0.0 0.0
-569.764858490537 -11.012398706508169 -225.99854832124822 -45.442063253345 0.0 0.0
-631.3687211613974 -25.74821810565119 -283.19150244393927 -45.90379952374074 0.0 0.0
-689.3766012325325 -46.10535762654308 -337.3262199055738 -46.641207561585325 0.0 0.0
-745.4573527516378 -69.10605062629176 -387.1119672947626 -46.51872040836057 0.0 0.0
-800.8247783826725 -92.92295005374916 -433.0382172903568 -45.64055649575284 0.0 0.0
-855.8610971525043 -116.90468976315653 -476.18354054027304 -44.35472671751985 0.0 0.0
-912.0319080021362 -140.41488859888202 -517.8326563049714 -43.261244827999604 0.0 0.0
-968.9427775697241 -164.85937455416823 -559.3566023552185 -42.33715361792118 0.0 0.0
-1027.123694631911 -190.0056337090648 -601.3557023626024 -41.23122595577326 0.0 0.0
-1088.2812726063246 -219.01372106558827 -646.5487739094281 -39.43505500108298 0.0 0.0
-1156.8432047209722 -258.73140821696717 -700.7529022324868 -37.55629125151069 0.0 0.0
-1251.6077597777166 -332.77782147460476 -784.5122084886135 -40.95098390163576 0.0 0.0
-1369.7946302639905 -448.25086599846964 -900.4101481044947 -58.7684134890753 0.0 0.0
-1469.9026864911334 -586.3751335138224 -1017.6369529610672 -102.03929206306259 0.0 0.0
-1469.902686491157 -586.3751335138726 -1017.6369529610939 102.03929206312607 0.0 0.0
-1369.7946302639073 -448.25086599842143 -900.4101481044482 58.768413489156885 0.0 0.0
-1251.6077597776696 -332.77782147460186 -784.5122084885875 40.950983901742944 0.0 0.0
-1156.8432047205135 -258.73140821654954 -700.7529022321396 37.556291251529615 0.0 0.0
-1088.2812726060379 -219.0137210653423 -646.5487739092338 39.43505500105903 0.0 0.0
-1027.1236946317913 -190.00563370902674 -601.3557023624865 41.23122595584158 0.0 0.0
-968.9427775697337 -164.85937455426648 -559.3566023551865 42.33715361790527 0.0 0.0
-912.0319080015062 -140.41488859835107 -517.8326563044828 43.26124482798099 0.0 0.0
-855.8610971518037 -116.90468976257911 -476.18354053969915 44.354726717486365 0.0 0.0
-800.8247783821531 -92.92295005338167 -433.0382172899365 45.640556495730095 0.0 0.0
-745.4573527512164 -69.10605062604124 -387.1119672943979 46.51872040830065 0.0 0.0
-689.3766012322377 -46.10535762646992 -337.32621990527286 46.641207561597966 0.0 0.0
-631.3687211609964 -25.748218105485925 -283.1915024435601 45.90379952372197 0.0 0.0
-569.7648584901847 -11.012398706428314 -225.9985483209067 45.442063253297945 0.0 0.0
-497.6512277379289 7.015199879650691 -163.77636891378458 51.56238229149628 0.0 0.0
-403.2582932971505 11.159621569182393 -117.74950799602993 64.99159229382118 0.0 0.0
-301.1189325022683 2.984105942697993 -89.42991149503139 77.55080357395119 0.0 0.0
-197.7726620599931 0.37451766996377334 -59.219443317008796 83.84277354302728 0.0 0.0
-98.34811056176856 -11.939744883406622 -33.086356633552555 70.10250952397352 0.0 0.0
-24.561018877279544 -12.769159852452 -11.199053618919462 26.472033302270805 0.0 0.0
-22.292218074306618 -2.4829918079965383 -7.432562964690947 -13.310688986777171 0.0 0.0
-99.16115500561662 -4.565033177105464 -31.11785645481662 -45.6921129694628 0.0 0.0
-214.47218145021088 0.9044920334084505 -64.07030682504072 -55.61799303752433 0.0 0.0
-335.8085154965919 -1.2277290955124576 -101.07150948543908 -50.2490516008632 0.0 0.0
-445.25447805842305 14.11858483878689 -131.18390771573598 -39.871385049834586 0.0 0.0
-528.115600384206 -1.278864012623476 -189.09836331722843 -28.36901678441342 0.0 0.0
-597.3866347609267 -13.273878696182805 -249.4685984142231 -26.782680179078294 0.0 0.0
-657.4914588901804 -30.353297583936076 -306.43405007773737 -27.71254826258962 0.0 0.0
-716.0943285817561 -52.785190222833826 -360.11003413108324 -28.52763320492357 0.0 0.0
-774.326360092592 -78.41559649519976 -410.4357678444615 -28.72557155336745 0.0 0.0
-832.6047712998015 -105.27627619832941 -457.8771282245255 -28.300159101969015 0.0 0.0
-891.4380640961867 -132.0625125864365 -503.2681071142745 -27.630019468727173 0.0 0.0
-950.6980178812353 -159.5078414624191 -547.8111937759113 -27.02517739615331 0.0 0.0
-1012.1270158628716 -187.77868779644425 -593.1547842619407 -26.584115945400992 0.0 0.0
-1076.142516059776 -218.42994265634994 -640.6880346041911 -25.843261058289656 0.0 0.0
-1142.0151149006906 -252.56087221910371 -690.7023575172461 -24.1050160895028 0.0 0.0
-1209.412478908483 -291.7187554072607 -744.0513934992182 -21.081218319665453 0.0 0.0
-1284.2336341480104 -344.7744973010208 -807.7003451344469 -20.796508442556163 0.0 0.0
-1434.7904694351785 -488.52965199806215 -953.3801881828565 -39.08112674515779 0.0 0.0
-1578.5291527415752 -667.0121847030589 -1113.6408950841703 -93.58256672525371 0.0 0.0
-1578.529152741553 -667.0121847030582 -1113.6408950841428 93.58256672531212 0.0 0.0
-1434.79046943486 -488.5296519977762 -953.3801881825757 39.08112674526234 0.0 0.0
-1284.2336341473094 -344.7744973003486 -807.7003451338512 20.796508442590635 0.0 0.0
-1209.4124789076732 -291.71875540649245 -744.0513934985081 21.081218319748174 0.0 0.0
-1142.0151149002534 -252.5608722187218 -690.7023575168104 24.105016089509 0.0 0.0
-1076.1425160590552 -218.4299426556921 -640.6880346035216 25.84326105831409 0.0 0.0
-1012.1270158621996 -187.77868779584958 -593.154784261311 26.58411594539331 0.0 0.0
-950.69801788086 -159.50784146215773 -547.8111937755375 27.02517739619438 0.0 0.0
-891.4380640958987 -132.0625125862982 -503.2681071140162 27.630019468789058 0.0 0.0
-832.6047712992344 -105.2762761979282 -457.87712822401716 28.30015910198434 0.0 0.0
-774.326360092119 -78.41559649491288 -410.43576784402677 28.725571553383233 0.0 0.0
-716.0943285813794 -52.785190222653654 -360.1100341307211 28.5276332048941 0.0 0.0
-657.4914588900965 -30.353297584112475 -306.434050077538 27.71254826258233 0.0 0.0
-597.3866347606751 -13.273878696195702 -249.4685984139177 26.782680179042156 0.0 0.0
-528.115600383667 -1.2788640123783548 -189.0983633168268 28.36901678445588 0.0 0.0
-445.2544780580158 14.118584838788568 -131.18390771557665 39.871385049849806 0.0 0.0
-335.8085154963037 -1.2277290955376423 -101.0715094853638 50.249051600828736 0.0 0.0
-214.47218145000585 0.9044920334109197 -64.07030682497846 55.61799303750405 0.0 0.0
-99.16115500552769 -4.565033177106999 -31.117856454790402 45.69211296944252 0.0 0.0
-22.292218074283202 -2.482991808008614 -7.432562964687543 13.31068898676436 0.0 0.0
-15.706431009911466 2.3870186204567356 -3.9958237168364192 -1.4835874382986325 0.0 0.0
-94.1421681712035 1.322927361506153 -27.8457722429092 -18.696890679459344 0.0 0.0
-230.69112163905112 0.260168505759367 -69.12928593998751 -21.719301778822192 0.0 0.0
-372.06399243130215 -1.8548859565948286 -112.09288846204218 -20.155863163210434 0.0 0.0
-482.5092618588473 13.13995998949823 -147.7604080257182 -14.284553533839173 0.0 0.0
-558.2418335411355 -6.652959336364457 -212.5750319306272 -8.523530133114132 0.0 0.0
-619.1944439335073 -15.777973926269656 -269.757051609748 -8.78471266583401 0.0 0.0
-679.0752634108945 -34.8239633743364 -326.12791973470235 -9.471777580821039 0.0 0.0
-739.0162730780986 -59.40674653856117 -379.75704462598617 -10.139614160069197 0.0 0.0
-799.8185109724951 -87.56092145606634 -431.03848257635764 -10.49385455325077 0.0 0.0
-861.0871430606492 -116.81432359185322 -479.9672783283844 -10.556288497501718 0.0 0.0
-922.9331041605506 -147.54516636481156 -528.0662200215545 -10.497072886967368 0.0 0.0
-986.436924556663 -178.28773383679754 -575.9444665696868 -10.467638828792307 0.0 0.0
-1052.5180440848103 -210.535074397657 -625.3854411739585 -10.410545207873533 0.0 0.0
-1122.0387970445304 -246.5981831316577 -678.2492003187426 -10.083214863211705 0.0 0.0
-1193.909153011105 -287.05464434496474 -734.372108960824 -9.113851887412956 0.0 0.0
-1263.9843489460363 -329.8849367682658 -790.7683545206469 -7.023377884894679 0.0 0.0
-1326.455642610855 -371.3455120731788 -842.8972184614314 -3.6940246711219995 0.0 0.0
-1397.1440612994393 -430.51448225632214 -906.4800365223383 -12.800607769724998 0.0 0.0
-1764.3388377399815 -821.5589169790452 -1284.4347627370175 -75.32027306735617 0.0 0.0
-1764.3388377400056 -821.5589169791052 -1284.434762737014 75.32027306743056 0.0 0.0
-1397.144061298615 -430.5144822555128 -906.4800365216514 12.800607769780829 0.0 0.0
-1326.4556426104539 -371.3455120728091 -842.8972184610305 3.69402467107688 0.0 0.0
-1263.9843489458592 -329.8849367681352 -790.7683545204593 7.023377884910078 0.0 0.0
-1193.9091530103483 -287.0546443442539 -734.3721089602159 9.113851887409925 0.0 0.0
-1122.0387970441623 -246.5981831313586 -678.2492003184285 10.083214863205768 0.0 0.0
-1052.5180440844144 -210.53507439734378 -625.3854411736168 10.410545207889747 0.0 0.0
-986.4369245558341 -178.28773383607071 -575.9444665690294 10.4676388287801 0.0 0.0
-922.9331041603089 -147.54516636471683 -528.0662200212922 10.497072886995971 0.0 0.0
-861.0871430601444 -116.8143235915108 -479.9672783279757 10.556288497445568 0.0 0.0
-799.818510972052 -87.56092145580394 -431.03848257599805 10.493854553168587 0.0 0.0
-739.0162730775945 -59.40674653824052 -379.75704462555456 10.13961416007994 0.0 0.0
-679.0752634103685 -34.82396337401684 -326.12791973425306 9.47177758084548 0.0 0.0
-619.1944439333407 -15.777973926376442 -269.75705160952083 8.784712665847309 0.0 0.0
-558.2418335407406 -6.652959336229284 -212.5750319302786 8.523530133061975 0.0 0.0
-482.5092618584603 13.139959989570448 -147.76040802550565 14.284553533816139 0.0 0.0
-372.0639924309185 -1.8548859565195825 -112.09288846190877 20.155863163202774 0.0 0.0
-230.69112163878077 0.2601685058996459 -69.12928593986432 21.71930177882112 0.0 0.0
-94.14216817113217 1.3229273615489205 -27.845772242874975 18.696890679425184 0.0 0.0
-15.706431009886145 2.387018620443759 -3.995823716832716 1.4835874382708765 0.0 0.0
SCALARS Strain float 6
LOOKUP_TABLE default
0.0069358391069390775 -0.008046899863180496 0.0 -0.004213042825490107 0.0 0.0
0.0017643653528719022 -0.0006616457457892799 0.0 0.000913932702147624 0.0 0.0
0.0016554404692351414 -0.0007247406286841618 0.0 -0.00011021881052494797 0.0 0.0
0.0019294946498407605 -0.0008286689774525402 0.0 -0.000140081331836156 0.0 0.0
0.0024975947127121806 -0.0012180522847368147 0.0 -0.00017120086955388358 0.0 0.0
0.003605688427619755 -0.0020562755659260246 0.0 -0.0002107812790088509 0.0 0.0
0.005122919936879779 -0.003316779221559485 0.0 -0.0002884741407519348 0.0 0.0
0.007060105185257756 -0.004981608590459263 0.0 -0.0003865381505603893 0.0 0.0
0.009456663219667902 -0.007100461024174942 0.0 -0.0005038315567869323 0.0 0.0
0.012393831636757618 -0.009757194635078736 0.0 -0.0006371710040722345 0.0 0.0
0.0160623884526789 -0.013147161751915215 0.0 -0.0007749306585674853 0.0 0.0
0.020763177845279257 -0.017566198511792752 0.0 -0.0009510125497915606 0.0 0.0
0.02679888709804415 -0.023316848171375693 0.0 -0.0011766920311516021 0.0 0.0
0.034397376916884215 -0.030621299412601832 0.0 -0.001451626528962413 0.0 0.0
0.04358754663565775 -0.03950013080021231 0.0 -0.0017895023699306678 0.0 0.0
0.05403246132347181 -0.049615027055129435 0.0 -0.002139075930183712 0.0 0.0
0.0649589432461976 -0.06020368520805319 0.0 -0.002354773412596156 0.0 0.0
0.07522922876645122 -0.07015227288962933 0.0 -0.0022237587339067333 0.0 0.0
0.08353579059139843 -0.07818015431916292 0.0 -0.0016920726166192723 0.0 0.0
0.08847598152375348 -0.0828585134832851 0.0 -0.0012495028952161924 0.0 0.0
0.0884759815237522 -0.08285851348328443 0.0 0.0012495028952180798 0.0 0.0
0.08353579059139078 -0.07818015431915692 0.0 0.001692072616626794 0.0 0.0
0.07522922876643706 -0.07015227288961778 0.0 0.0022237587339126175 0.0 0.0
0.06495894324617953 -0.060203685208039426 0.0 0.002354773412600264 0.0 0.0
0.05403246132345314 -0.04961502705511389 0.0 0.002139075930179868 0.0 0.0
0.04358754663563959 -0.03950013080019543 0.0 0.0017895023699309731 0.0 0.0
0.034397376916864245 -0.03062129941258318 0.0 0.0014516265289607477 0.0 0.0
0.026798887098023333 -0.02331684817135682 0.0 0.0011766920311521156 0.0 0.0
0.020763177845257802 -0.0175661985117741 0.0 0.0009510125497900757 0.0 0.0
0.01606238845265856 -0.01314716175189723 0.0 0.0007749306585663196 0.0 0.0
0.012393831636740266 -0.009757194635064526 0.0 0.0006371710040699308 0.0 0.0
0.009456663219653216 -0.007100461024161175 0.0 0.0005038315567868212 0.0 0.0
0.007060105185245996 -0.004981608590447828 0.0 0.0003865381505593901 0.0 0.0
0.005122919936870626 -0.003316779221550492 0.0 0.00028847414075175437 0.0 0.0
0.0036056884276131074 -0.002056275565920418 0.0 0.00021078127900865662 0.0 0.0
0.0024975947127092724 -0.0012180522847341502 0.0 0.00017120086955352276 0.0 0.0
0.001929494649839894 -0.000828668977451763 0.0 0.00014008133183596172 0.0 0.0
0.0016554404692346314 -0.0007247406286834124 0.0 0.00011021881052536431 0.0 0.0
0.0017643653528713887 -0.000661645745789044 0.0 -0.0009139327021460836 0.0 0.0
0.006935839106933045 -0.008046899863171189 0.0 0.004213042825470886 0.0 0.0
0.0046851756527695465 -0.00611695778467429 0.0 -0.004974496810366838 0.0 0.0
0.0009951887792621662 -0.00031616035632806017 0.0 0.0002400877570957055 0.0 0.0
0.001434469186452056 -0.0005614734837678936 0.0 -0.00012123819072033803 0.0 0.0
0.0017282079089565722 -0.0007411072130056318 0.0 -0.0003960368273649567 0.0 0.0
0.0021913637523834593 -0.0010108252094810921 0.0 -0.000420133721535057 0.0 0.0
0.003140442448881885 -0.0016939644481271943 0.0 -0.0005302943152161593 0.0 0.0
0.004516471969807666 -0.0028009165291733584 0.0 -0.0007349110113653023 0.0 0.0
0.00626951002323415 -0.004282024623854963 0.0 -0.0009723608679738649 0.0 0.0
0.00842133228273138 -0.006163619780858776 0.0 -0.0012375097235970828 0.0 0.0
0.011039668711961506 -0.008513527459882764 0.0 -0.0015282994684096135 0.0 0.0
0.014286328399241505 -0.011495263557758095 0.0 -0.0018402135135143216 0.0 0.0
0.018428600145662315 -0.015375633104342201 0.0 -0.0021949927224145377 0.0 0.0
0.02378528035191206 -0.020469293095685126 0.0 -0.002678539185185444 0.0 0.0
0.030595367322498523 -0.02700799898670403 0.0 -0.003324795055388602 0.0 0.0
0.03888725975150868 -0.03501331099228877 0.0 -0.004100173839739693 0.0 0.0
0.04835983178437986 -0.04418352587721097 0.0 -0.004897164418189631 0.0 0.0
0.058320806174624304 -0.05383547700023161 0.0 -0.005393354359392616 0.0 0.0
0.06775136205287041 -0.06296759830037457 0.0 -0.005178003240045775 0.0 0.0
0.07541082993194573 -0.07034759275651647 0.0 -0.004133783983462341 0.0 0.0
0.07991557410781797 -0.07465760366328134 0.0 -0.002315568604438656 0.0 0.0
0.07991557410781647 -0.07465760366328045 0.0 0.0023155686044485924 0.0 0.0
0.0754108299319387 -0.07034759275650959 0.0 0.0041337839834791335 0.0 0.0
0.06775136205285844 -0.06296759830036325 0.0 0.005178003240058626 0.0 0.0
0.058320806174609066 -0.053835477000219845 0.0 0.00539335435940036 0.0 0.0
0.04835983178436354 -0.04418352587719476 0.0 0.004897164418187661 0.0 0.0
0.03888725975149207 -0.03501331099227434 0.0 0.0041001738397402065 0.0 0.0
0.030595367322480832 -0.02700799898669115 0.0 0.0033247950553886296 0.0 0.0
0.023785280351893437 -0.020469293095666474 0.0 0.0026785391851847917 0.0 0.0
0.01842860014564343 -0.01537563310432466 0.0 0.0021949927224112487 0.0 0.0
0.014286328399223128 -0.011495263557743551 0.0 0.0018402135135125453 0.0 0.0
0.011039668711946005 -0.008513527459868775 0.0 0.0015282994684058526 0.0 0.0
0.008421332282718047 -0.006163619780847673 0.0 0.0012375097235958754 0.0 0.0
0.006269510023223568 -0.004282024623844638 0.0 0.0009723608679718387 0.0 0.0
0.004516471969799374 -0.002800916529166253 0.0 0.0007349110113639146 0.0 0.0
0.003140442448876457 -0.001693964448123808 0.0 0.0005302943152141054 0.0 0.0
0.0021913637523813256 -0.0010108252094794268 0.0 0.0004201337215347517 0.0 0.0
0.0017282079089557395 -0.0007411072130053542 0.0 0.0003960368273647208 0.0 0.0
0.0014344691864517645 -0.0005614734837676993 0.0 0.00012123819072071274 0.0 0.0
0.0009951887792625236 -0.0003161603563276716 0.0 -0.00024008775709648267 0.0 0.0
0.00468517565276233 -0.006116957784664753 0.0 0.004974496810351323 0.0 0.0
0.003359802079709852 -0.004866874336012406 0.0 -0.004620101781280514 0.0 0.0
0.0005826020376889576 -0.00019468762266905415 0.0 -0.00043846063027697113 0.0 0.0
0.001144052462753297 -0.0004024251409336932 0.0 -0.00034630493511286775 0.0 0.0
0.001522355600129477 -0.0006428455261474064 0.0 -0.0006254805193164764 0.0 0.0
0.0019225438048559272 -0.0008499006525402586 0.0 -0.0006800138086854729 0.0 0.0
0.0026791176034863633 -0.0013520662635715386 0.0 -0.0007921683382034611 0.0 0.0
0.0039009853075652016 -0.002288637509781144 0.0 -0.001078506666226331 0.0 0.0
0.005469483119445329 -0.0035907052452470722 0.0 -0.0014418107622580084 0.0 0.0
0.007380108239797466 -0.005234999200524504 0.0 -0.0018283510733725084 0.0 0.0
0.00968660904270022 -0.0072834388603582045 0.0 -0.002242565390116427 0.0 0.0
0.012524175197898318 -0.009870965612731597 0.0 -0.002692563505531348 0.0 0.0
0.016127857357574004 -0.013230915799502085 0.0 -0.0032050894445414396 0.0 0.0
0.020799664087519397 -0.017659885853550605 0.0 -0.0038628596646776703 0.0 0.0
0.026796050368303855 -0.023406356675792495 0.0 -0.004776017900214438 0.0 0.0
0.034159817366508 -0.03050952254097683 0.0 -0.005916860812992031 0.0 0.0
0.042630849364640074 -0.038707327207289755 0.0 -0.007060479626853827 0.0 0.0
0.05161771300997652 -0.04741492601895425 0.0 -0.007788158406433293 0.0 0.0
0.06022193271846937 -0.05573901930580494 0.0 -0.007580664270566223 0.0 0.0
0.06727761734793813 -0.06253994389990214 0.0 -0.006093758489337908 0.0 0.0
0.07152183333271686 -0.0666157630249602 0.0 -0.0031583590399551775 0.0 0.0
0.07152183333271468 -0.06661576302495864 0.0 0.0031583590399711925 0.0 0.0
0.06727761734793201 -0.0625399438998977 0.0 0.006093758489359724 0.0 0.0
0.060221932718459034 -0.05573901930579406 0.0 0.007580664270582571 0.0 0.0
0.051617713009963304 -0.04741492601894359 0.0 0.007788158406441759 0.0 0.0
0.04263084936462591 -0.03870732720728043 0.0 0.00706047962685219 0.0 0.0
0.0341598173664929 -0.03050952254096373 0.0 0.005916860812991198 0.0 0.0
0.026796050368288388 -0.02340635667577695 0.0 0.004776017900214202 0.0 0.0
0.020799664087503153 -0.01765988585354039 0.0 0.0038628596646774205 0.0 0.0
0.01612785735755727 -0.013230915799489651 0.0 0.003205089444538789 0.0 0.0
0.012524175197882195 -0.009870965612716609 0.0 0.0026925635055278507 0.0 0.0
0.009686609042686395 -0.007283438860345215 0.0 0.0022425653901116394 0.0 0.0
0.007380108239785507 -0.005234999200514623 0.0 0.0018283510733701491 0.0 0.0
0.005469483119435931 -0.0035907052452395227 0.0 0.0014418107622550247 0.0 0.0
0.0039009853075578776 -0.0022886375097749267 0.0 0.0010785066662243048 0.0 0.0
0.0026791176034821063 -0.0013520662635675418 0.0 0.0007921683382013656 0.0 0.0
0.0019225438048543764 -0.0008499006525390373 0.0 0.0006800138086834884 0.0 0.0
0.0015223556001287136 -0.0006428455261470734 0.0 0.0006254805193157548 0.0 0.0
0.0011440524627533005 -0.000402425140933943 0.0 0.0003463049351121461 0.0 0.0
0.0005826020376892421 -0.00019468762266838802 0.0 0.00043846063027422333 0.0 0.0
0.0033598020797031974 -0.00486687433600373 0.0 0.004620101781266664 0.0 0.0
0.002478508724034649 -0.003934046085010676 0.0 -0.003950593795874979 0.0 0.0
0.00035719703880459155 -0.00016323314438482228 0.0 -0.0010127136421484162 0.0 0.0
0.0008730419672296243 -0.00027751251537810884 0.0 -0.0006686982851346335 0.0 0.0
0.001295799743341302 -0.0005320617355371038 0.0 -0.0008626646685127304 0.0 0.0
0.0016755923297077958 -0.0007272165518035778 0.0 -0.0009591132338458846 0.0 0.0
0.0022582303291377344 -0.0010722101030338216 0.0 -0.0010314085215881313 0.0 0.0
0.0032754645436260284 -0.0017975808451167197 0.0 -0.001321302798472701 0.0 0.0
0.004663411664964968 -0.002909300131934911 0.0 -0.001789050190718719 0.0 0.0
0.006335691571196674 -0.004322075384307733 0.0 -0.0022716636925666223 0.0 0.0
0.008337674552845807 -0.006075389636547968 0.0 -0.0027824930143773158 0.0 0.0
0.010778060364071699 -0.008278209169578554 0.0 -0.0033298600510112963 0.0 0.0
0.013857968363354178 -0.011129274167547276 0.0 -0.003953894880757425 0.0 0.0
0.017854881736674204 -0.014903731250686114 0.0 -0.004762546813600693 0.0 0.0
0.023022560309433185 -0.019841421666744852 0.0 -0.005841123340826121 0.0 0.0
0.029426155727597846 -0.026009259781555327 0.0 -0.007191643641812795 0.0 0.0
0.03686607281026791 -0.03320763441628993 0.0 -0.008599294942515712 0.0 0.0
0.04485649209349681 -0.04094747272894028 0.0 -0.009539262313170038 0.0 0.0
0.05262420412088358 -0.048461076183008434 0.0 -0.009383260437522939 0.0 0.0
0.05913082971617798 -0.05473628194493463 0.0 -0.007603681760645298 0.0 0.0
0.06320915444817012 -0.05866028752922792 0.0 -0.003860527008184539 0.0 0.0
0.06320915444816744 -0.05866028752922747 0.0 0.003860527008203385 0.0 0.0
0.05913082971617252 -0.05473628194492908 0.0 0.007603681760670777 0.0 0.0
0.05262420412087457 -0.048461076182998886 0.0 0.009383260437542396 0.0 0.0
0.04485649209348523 -0.04094747272893029 0.0 0.00953926231317953 0.0 0.0
0.03686607281025564 -0.03320763441627905 0.0 0.008599294942514601 0.0 0.0
0.02942615572758453 -0.026009259781545557 0.0 0.007191643641812462 0.0 0.0
0.02302256030941978 -0.01984142166673375 0.0 0.005841123340826149 0.0 0.0
0.017854881736660416 -0.014903731250674568 0.0 0.0047625468135985005 0.0 0.0
0.013857968363339593 -0.011129274167535064 0.0 0.0039538948807537055 0.0 0.0
0.010778060364058067 -0.008278209169566675 0.0 0.003329860051006356 0.0 0.0
0.008337674552833588 -0.0060753896365373095 0.0 0.00278249301437139 0.0 0.0
0.006335691571186283 -0.004322075384299295 0.0 0.002271663692563569 0.0 0.0
0.004663411664956679 -0.0029093001319286937 0.0 0.0017890501907149858 0.0 0.0
0.003275464543620113 -0.0017975808451125008 0.0 0.0013213027984705084 0.0 0.0
0.0022582303291345807 -0.0010722101030315456 0.0 0.0010314085215868268 0.0 0.0
0.0016755923297065434 -0.0007272165518037443 0.0 0.0009591132338448854 0.0 0.0
0.001295799743340681 -0.0005320617355370483 0.0 0.000862664668511523 0.0 0.0
0.0008730419672295514 -0.00027751251537797006 0.0 0.0006686982851330653 0.0 0.0
0.000357197038804713 -0.00016323314438408676 0.0 0.0010127136421460847 0.0 0.0
0.0024785087240289244 -0.00393404608500313 0.0 0.003950593795865043 0.0 0.0
0.0018423063007061771 -0.0031838614328083964 0.0 -0.0032751149876951158 0.0 0.0
0.00022867879045926007 -0.0001667367415779386 0.0 -0.0014521891579619278 0.0 0.0
0.0006411947888243577 -0.00018545611519865668 0.0 -0.0010106953692788079 0.0 0.0
0.001059294137333043 -0.00041747771944711243 0.0 -0.0011097857037555142 0.0 0.0
0.0014265154053139106 -0.000610471962146919 0.0 -0.0012280554080828232 0.0 0.0
0.001889263082761869 -0.0008545390085605842 0.0 -0.0012870611911674212 0.0 0.0
0.002673200251029087 -0.0013555030447325311 0.0 -0.0014896782051168067 0.0 0.0
0.003845197879554077 -0.0022381116575816984 0.0 -0.0019715005951656817 0.0 0.0
0.005290719159818734 -0.0034310368838657013 0.0 -0.0025595220365360882 0.0 0.0
0.006994783965641745 -0.004894203381392681 0.0 -0.003139961122244822 0.0 0.0
0.009050217704773732 -0.0067227173251989125 0.0 -0.0037553787955866003 0.0 0.0
0.011621561115879524 -0.009079914131701505 0.0 -0.004447604489600909 0.0 0.0
0.014955130080079475 -0.012205756244314081 0.0 -0.0053257218415878604 0.0 0.0
0.019291041889623765 -0.016334048495983966 0.0 -0.006518078241315978 0.0 0.0
0.024716818927479872 -0.0215490048171183 0.0 -0.007992441372719594 0.0 0.0
0.031092531558289227 -0.02770941296848406 0.0 -0.00950040440959915 0.0 0.0
0.03804219405611615 -0.03444188581153518 0.0 -0.010590062223665486 0.0 0.0
0.04494997799361138 -0.04112691736722063 0.0 -0.010565400797353963 0.0 0.0
0.050934392231344966 -0.046902605721610424 0.0 -0.008691223620374722 0.0 0.0
0.05490911518208335 -0.05073063062261851 0.0 -0.0044519337168096584 0.0 0.0
0.0549091151820808 -0.05073063062261718 0.0 0.004451933716830392 0.0 0.0
0.05093439223133976 -0.04690260572160265 0.0 0.008691223620402089 0.0 0.0
0.044949977993603354 -0.04112691736721197 0.0 0.010565400797373059 0.0 0.0
0.038042194056106274 -0.034441885811526074 0.0 0.010590062223675922 0.0 0.0
0.031092531558278624 -0.027709412968473845 0.0 0.009500404409597762 0.0 0.0
0.024716818927468617 -0.021549004817108308 0.0 0.007992441372718817 0.0 0.0
0.01929104188961231 -0.016334048495972642 0.0 0.006518078241315062 0.0 0.0
0.01495513008006795 -0.012205756244302757 0.0 0.0053257218415853624 0.0 0.0
0.011621561115867207 -0.009079914131690847 0.0 0.00444760448959719 0.0 0.0
0.009050217704762331 -0.006722717325188143 0.0 0.0037553787955807993 0.0 0.0
0.006994783965631385 -0.0048942033813845764 0.0 0.003139961122237467 0.0 0.0
0.005290719159810081 -0.00343103688385904 0.0 0.0025595220365319804 0.0 0.0
0.00384519787954693 -0.0022381116575762583 0.0 0.001971500595162351 0.0 0.0
0.002673200251024549 -0.0013555030447292005 0.0 0.0014896782051147806 0.0 0.0
0.001889263082759704 -0.0008545390085584192 0.0 0.0012870611911648538 0.0 0.0
0.001426515405312856 -0.0006104719621463084 0.0 0.0012280554080811995 0.0 0.0
0.0010592941373325088 -0.00041747771944661283 0.0 0.0011097857037538628 0.0 0.0
0.000641194788824212 -0.00018545611519835137 0.0 0.001010695369276532 0.0 0.0
0.00022867879045931905 -0.00016673674157753615 0.0 0.0014521891579589025 0.0 0.0
0.0018423063007015072 -0.0031838614328022737 0.0 0.003275114987687386 0.0 0.0
0.00136871659703576 -0.002568425788277859 0.0 -0.002700584219244892 0.0 0.0
0.0001460435007189509 -0.00017975209123868852 0.0 -0.0017710955624700986 0.0 0.0
0.0004451796902032179 -0.00011664304705072404 0.0 -0.0013284321154389545 0.0 0.0
0.0008234701805953162 -0.0003048276562584995 0.0 -0.001352673510013419 0.0 0.0
0.0011666432949308733 -0.0004944260193798788 0.0 -0.0014792374515367607 0.0 0.0
0.0015467633397110297 -0.0006877571220940126 0.0 -0.0015631115111161276 0.0 0.0
0.0021305278329932023 -0.0010089758153872808 0.0 -0.0016900149255132668 0.0 0.0
0.003038066790402763 -0.0016242451612848985 0.0 -0.0020547394730930924 0.0 0.0
0.004239363574031374 -0.002560909833677072 0.0 -0.0026496505786541003 0.0 0.0
0.005660702078603579 -0.003748928006814589 0.0 -0.0033027758671001217 0.0 0.0
0.00734083452762363 -0.005213589947253849 0.0 -0.003953283089980886 0.0 0.0
0.009421457722065006 -0.0070901530914515565 0.0 -0.0046754297595157646 0.0 0.0
0.012107874843343677 -0.009582384766296803 0.0 -0.005580803222270031 0.0 0.0
0.015614803050811116 -0.012899042268432526 0.0 -0.006774492981666241 0.0 0.0
0.02005173899418676 -0.01714849464559509 0.0 -0.00826471793395056 0.0 0.0
0.025338440707148878 -0.022249381216360442 0.0 -0.009822908314913475 0.0 0.0
0.0311985079680391 -0.027923841828102702 0.0 -0.010962049909654187 0.0 0.0
0.03719036883548924 -0.0337295602627965 0.0 -0.011058243832946985 0.0 0.0
0.04264082765015458 -0.038997322036549376 0.0 -0.009316834003224916 0.0 0.0
0.04655417634453247 -0.04276731686682722 0.0 -0.004937584076755541 0.0 0.0
0.04655417634453031 -0.04276731686682478 0.0 0.004937584076775303 0.0 0.0
0.04264082765014979 -0.03899732203654471 0.0 0.009316834003252006 0.0 0.0
0.03719036883548216 -0.03372956026279139 0.0 0.01105824383296583 0.0 0.0
0.03119850796803099 -0.027923841828097595 0.0 0.010962049909663707 0.0 0.0
0.025338440707139753 -0.022249381216351338 0.0 0.009822908314912004 0.0 0.0
0.02005173899417735 -0.01714849464558532 0.0 0.008264717933949284 0.0 0.0
0.015614803050801832 -0.01289904226842542 0.0 0.006774492981666158 0.0 0.0
0.012107874843334282 -0.009582384766289032 0.0 0.0055808032222688375 0.0 0.0
0.00942145772205523 -0.007090153091445561 0.0 0.00467542975951013 0.0 0.0
0.007340834527614359 -0.005213589947246522 0.0 0.003953283089975446 0.0 0.0
0.005660702078595023 -0.00374892800680493 0.0 0.0033027758670929053 0.0 0.0
0.004239363574024421 -0.0025609098336700775 0.0 0.0026496505786497426 0.0 0.0
0.0030380667903971703 -0.0016242451612809017 0.0 0.002054739473089484 0.0 0.0
0.0021305278329900312 -0.0010089758153868367 0.0 0.0016900149255119623 0.0 0.0
0.0015467633397094477 -0.0006877571220950118 0.0 0.0015631115111148924 0.0 0.0
0.0011666432949300337 -0.0004944260193791572 0.0 0.0014792374515350953 0.0 0.0
0.0008234701805947126 -0.00030482765625766683 0.0 0.0013526735100114484 0.0 0.0
0.0004451796902031069 -0.00011664304705050199 0.0 0.0013284321154364287 0.0 0.0
0.00014604350071885375 -0.00017975209123803626 0.0 0.0017710955624673647 0.0 0.0
0.0013687165970323184 -0.002568425788272991 0.0 0.0027005842192399515 0.0 0.0
0.0010107506212107542 -0.002059474338155509 0.0 -0.0022523969007495898 0.0 0.0
8.493597781773776e-05 -0.00019749698920118464 0.0 -0.001997630912695822 0.0 0.0
0.0002755865133674401 -5.99953101442785e-05 0.0 -0.0016004348092102383 0.0 0.0
0.0005945121308192428 -0.0001991284936528892 0.0 -0.0015784084889993583 0.0 0.0
0.0008967214109566399 -0.00037073506527218747 0.0 -0.0016964473831409532 0.0 0.0
0.0012097554640324304 -0.0005290859544954118 0.0 -0.0017979717179313348 0.0 0.0
0.001636561177680608 -0.0007371248384883122 0.0 -0.0019001013260894484 0.0 0.0
0.0022883117756991936 -0.001116141396992676 0.0 -0.0021264741419622923 0.0 0.0
0.0031981180475940674 -0.001754444403316735 0.0 -0.002578771702193783 0.0 0.0
0.004330705030886006 -0.00264647741273627 0.0 -0.0032248801081251888 0.0 0.0
0.005650029448283814 -0.0037619049499331148 0.0 -0.003912704495202923 0.0 0.0
0.007258206733671876 -0.005173564134232311 0.0 -0.00463232894336052 0.0 0.0
0.009316979040003892 -0.007048337344559119 0.0 -0.005504252271365195 0.0 0.0
0.01201122043275809 -0.009566016293494073 0.0 -0.006637444606246212 0.0 0.0
0.015451262994271478 -0.012840838177041958 0.0 -0.008033217757857647 0.0 0.0
0.019623020845232438 -0.016850075332953685 0.0 -0.00950331434002255 0.0 0.0
0.02434948499841129 -0.021423978287730572 0.0 -0.010655372130832091 0.0 0.0
0.029352025845071558 -0.026282014967671907 0.0 -0.010896059173394784 0.0 0.0
0.03420139863550725 -0.030981330444150412 0.0 -0.009455215014275958 0.0 0.0
0.0380684454104822 -0.03470429434405786 0.0 -0.0053077240464604325 0.0 0.0
0.03806844541048054 -0.034704294344055864 0.0 0.005307724046478501 0.0 0.0
0.0342013986355032 -0.030981330444145305 0.0 0.009455215014302243 0.0 0.0
0.029352025845065244 -0.026282014967666356 0.0 0.010896059173412687 0.0 0.0
0.02434948499840474 -0.021423978287725243 0.0 0.010655372130838614 0.0 0.0
0.019623020845225145 -0.01685007533294769 0.0 0.009503314340021607 0.0 0.0
0.015451262994263887 -0.01284083817703574 0.0 0.008033217757854927 0.0 0.0
0.012011220432751116 -0.009566016293489188 0.0 0.00663744460624438 0.0 0.0
0.009316979039996745 -0.007048337344553346 0.0 0.005504252271365473 0.0 0.0
0.007258206733664493 -0.005173564134225206 0.0 0.004632328943356523 0.0 0.0
0.005650029448276778 -0.0037619049499266755 0.0 0.003912704495198677 0.0 0.0
0.004330705030879248 -0.002646477412731718 0.0 0.0032248801081180556 0.0 0.0
0.0031981180475890436 -0.001754444403312072 0.0 0.0025787717021909795 0.0 0.0
0.0022883117756952454 -0.0011161413969908995 0.0 0.002126474141960849 0.0 0.0
0.0016365611776785333 -0.000737124838487313 0.0 0.0019001013260886435 0.0 0.0
0.0012097554640313202 -0.0005290859544942461 0.0 0.0017979717179289617 0.0 0.0
0.0008967214109560501 -0.0003707350652714658 0.0 0.0016964473831390242 0.0 0.0
0.0005945121308186252 -0.00019912849365227858 0.0 0.001578408488996999 0.0 0.0
0.0002755865133673152 -5.999531014383441e-05 0.0 0.0016004348092077403 0.0 0.0
8.49359778175851e-05 -0.00019749698920069891 0.0 0.0019976309126931713 0.0 0.0
0.0010107506212084783 -0.002059474338152017 0.0 0.002252396900745371 0.0 0.0
0.0007418834614327449 -0.001653873900740857 0.0 -0.0019329571505732335 0.0 0.0
3.108313909852556e-05 -0.0002104941038573449 0.0 -0.0021361106545678687 0.0 0.0
0.00012526572699174399 -1.0039822663510112e-05 0.0 -0.0018236431243670026 0.0 0.0
0.0003745177779944653 -0.00010063853848218951 0.0 -0.001772540047782309 0.0 0.0
0.0006215852663184265 -0.0002424881569744186 0.0 -0.0018759092238723324 0.0 0.0
0.0008662719165688712 -0.000375815519919831 0.0 -0.0020069148133455006 0.0 0.0
0.00116623998099228 -0.000517424457442961 0.0 -0.002123653568961603 0.0 0.0
0.001605801567284064 -0.0007226585947113229 0.0 -0.0022412103686582363 0.0 0.0
0.0022127578024368696 -0.0010779194671814984 0.0 -0.002474706551511302 0.0 0.0
0.0030165259477941755 -0.0016359586968367479 0.0 -0.002950311394798788 0.0 0.0
0.003977624487915367 -0.00239027311222495 0.0 -0.0035845807469736535 0.0 0.0
0.005129032667324979 -0.003355753716811183 0.0 -0.004280067460546211 0.0 0.0
0.006585514600129745 -0.004633472330988209 0.0 -0.00509169322121758 0.0 0.0
0.008486540577303608 -0.00636707756542787 0.0 -0.006093292017584739 0.0 0.0
0.01094062525688741 -0.008666309411173856 0.0 -0.007300484167010707 0.0 0.0
0.01396973606906518 -0.011558987251868436 0.0 -0.008587277540512223 0.0 0.0
0.017517471522845697 -0.014979112417207174 0.0 -0.009630932671186143 0.0 0.0
0.0214481276886058 -0.01880208190698829 0.0 -0.009975809826673537 0.0 0.0
0.025572826193005258 -0.022830089023854194 0.0 -0.009036103468115814 0.0 0.0
0.029363663057442216 -0.026481888474837678 0.0 -0.005550054392845005 0.0 0.0
0.02936366305744085 -0.026481888474835458 0.0 0.0055500543928587165 0.0 0.0
0.025572826193002288 -0.022830089023849975 0.0 0.009036103468136991 0.0 0.0
0.0214481276886007 -0.018802081906983403 0.0 0.009975809826688886 0.0 0.0
0.01751747152284068 -0.014979112417202511 0.0 0.009630932671191805 0.0 0.0
0.013969736069059949 -0.011558987251864217 0.0 0.008587277540510418 0.0 0.0
0.010940625256881928 -0.008666309411169637 0.0 0.007300484167007515 0.0 0.0
0.00848654057729882 -0.006367077565423429 0.0 0.006093292017584351 0.0 0.0
0.006585514600124978 -0.004633472330984878 0.0 0.005091693221216942 0.0 0.0
0.005129032667320038 -0.0033557537168085183 0.0 0.004280067460542103 0.0 0.0
0.003977624487910447 -0.0023902731122219523 0.0 0.0035845807469688795 0.0 0.0
0.0030165259477894363 -0.0016359586968341944 0.0 0.0029503113947928483 0.0 0.0
0.002212757802433768 -0.0010779194671787229 0.0 0.002474706551509276 0.0 0.0
0.001605801567281545 -0.0007226585947102127 0.0 0.0022412103686555718 0.0 0.0
0.0011662399809909268 -0.000517424457443072 0.0 0.002123653568959938 0.0 0.0
0.0008662719165683369 -0.00037581551992027507 0.0 0.002006914813343169 0.0 0.0
0.0006215852663180171 -0.00024248815697475168 0.0 0.0018759092238705005 0.0 0.0
0.0003745177779940767 -0.00010063853848207849 0.0 0.0017725400477796305 0.0 0.0
0.00012526572699171623 -1.003982266364889e-05 0.0 0.0018236431243646017 0.0 0.0
3.1083139098483925e-05 -0.00021049410385723388 0.0 0.0021361106545662173 0.0 0.0
0.0007418834614312253 -0.0016538739007385247 0.0 0.0019329571505708881 0.0 0.0
0.0005502294750689279 -0.001360873519003089 0.0 -0.0017451434499184126 0.0 0.0
-2.1409776918744627e-05 -0.00021185805764514787 0.0 -0.0022196136316838255 0.0 0.0
-1.0228473915969982e-05 3.5462151875609305e-05 0.0 -0.0019921484295140346 0.0 0.0
0.000163782062978228 -8.233013789993304e-06 0.0 -0.001926743340145684 0.0 0.0
0.00034474749168404706 -0.00011400801672489802 0.0 -0.0020108558367706447 0.0 0.0
0.0005131579593054755 -0.00021366667163025266 0.0 -0.0021523025616323743 0.0 0.0
0.0007008034314788525 -0.00030807753102701785 0.0 -0.0022940718265075932 0.0 0.0
0.0009568651762037889 -0.00042303134798171715 0.0 -0.0024256469360143806 0.0 0.0
0.0013064260954649062 -0.0005875369235167627 0.0 -0.002520721841693885 0.0 0.0
0.001764182586692635 -0.0008288814727596128 0.0 -0.002694217862188153 0.0 0.0
0.0023444499542192576 -0.0011917179342202378 0.0 -0.003071292202215581 0.0 0.0
0.0030352205558091747 -0.0017013649886299387 0.0 -0.0036153762313718696 0.0 0.0
0.00390724372532085 -0.0023992807739721123 0.0 -0.004329213066814497 0.0 0.0
0.005045158208499198 -0.003372967201213495 0.0 -0.005177918013068938 0.0 0.0
0.006527066007606545 -0.004706242093358126 0.0 -0.00615270660296377 0.0 0.0
0.008399821411743447 -0.0064555977735751835 0.0 -0.007184836432621661 0.0 0.0
0.01072010734587113 -0.008672900710363862 0.0 -0.008102865804577447 0.0 0.0
0.013518877421853821 -0.011371134654961423 0.0 -0.008461003188492633 0.0 0.0
0.016745238105999344 -0.014552569759984424 0.0 -0.007946629756746842 0.0 0.0
0.020318990937461062 -0.018026769307466717 0.0 -0.005566760110028518 0.0 0.0
0.020318990937460292 -0.018026769307464052 0.0 0.005566760110039315 0.0 0.0
0.016745238105997512 -0.014552569759982426 0.0 0.007946629756765577 0.0 0.0
0.013518877421850609 -0.011371134654960313 0.0 0.008461003188506622 0.0 0.0
0.01072010734586766 -0.00867290071036142 0.0 0.008102865804580972 0.0 0.0
0.00839982141174049 -0.006455597773573185 0.0 0.00718483643261858 0.0 0.0
0.006527066007603402 -0.004706242093358792 0.0 0.006152706602960745 0.0 0.0
0.0050451582084967694 -0.003372967201214605 0.0 0.005177918013069105 0.0 0.0
0.003907243725318324 -0.0023992807739730004 0.0 0.004329213066814497 0.0 0.0
0.0030352205558067114 -0.0017013649886292725 0.0 0.0036153762313702043 0.0 0.0
0.0023444499542166347 -0.0011917179342177953 0.0 0.0030712922022125555 0.0 0.0
0.0017641825866901995 -0.0008288814727582805 0.0 0.0026942178621839896 0.0 0.0
0.001306426095463345 -0.0005875369235165406 0.0 0.002520721841692719 0.0 0.0
0.0009568651762024705 -0.00042303134798027386 0.0 0.0024256469360130206 0.0 0.0
0.0007008034314781864 -0.0003080775310259076 0.0 0.0022940718265057336 0.0 0.0
0.0005131579593052604 -0.00021366667163025266 0.0 0.002152302561629932 0.0 0.0
0.00034474749168381114 -0.0001140080167242874 0.0 0.0020108558367682022 0.0 0.0
0.00016378206297816555 -8.233013790326371e-06 0.0 0.0019267433401430611 0.0 0.0
-1.022847391592141e-05 3.5462151875859105e-05 0.0 0.0019921484295117586 0.0 0.0
-2.1409776918682177e-05 -0.00021185805764467602 0.0 0.0022196136316816883 0.0 0.0
0.0005502294750679981 -0.0013608735190016623 0.0 0.0017451434499167195 0.0 0.0
0.00041793214283183944 -0.0011324920684318146 0.0 -0.001598830667848411 0.0 0.0
-7.08647097336923e-05 -0.00020071517465949928 0.0 -0.0022501902857923056 0.0 0.0
-0.00013421297124591863 7.753613091626699e-05 0.0 -0.002106707747095732 0.0 0.0
-3.80048940272909e-05 7.87784483105014e-05 0.0 -0.002034118269424401 0.0 0.0
6.944764859959096e-05 1.2982012725593073e-05 0.0 -0.0020958055745523563 0.0 0.0
0.00015507770601165538 -4.8705226673440016e-05 0.0 -0.002234043697719637 0.0 0.0
0.00023090838971064065 -9.669736047712707e-05 0.0 -0.002390985250195765 0.0 0.0
0.000317243890939449 -0.00013887373156862282 0.0 -0.0025113357899657907 0.0 0.0
0.00043723291268996795 -0.00019274360290078008 0.0 -0.0026020031966001167 0.0 0.0
0.0005807090151127223 -0.0002626168727229983 0.0 -0.002703703966951604 0.0 0.0
0.0007716873262700041 -0.00035619273810594265 0.0 -0.002886457757545674 0.0 0.0
0.0009989976017108493 -0.0004784891952418491 0.0 -0.0031777059906804017 0.0 0.0
0.0012879659640805466 -0.000640489895368912 0.0 -0.0036373568238002585 0.0 0.0
0.0016682866974814733 -0.0008878435346513225 0.0 -0.004303780789157691 0.0 0.0
0.0021781351360380813 -0.0012538009926128524 0.0 -0.005186426782123527 0.0 0.0
0.002885211599518163 -0.0018155467740190723 0.0 -0.006206825452487796 0.0 0.0
0.003950498246870805 -0.002761678473694129 0.0 -0.007166834641794045 0.0 0.0
0.005597900981827789 -0.004281151805511252 0.0 -0.007603514420617324 0.0 0.0
0.007872326597458491 -0.006411314648769428 0.0 -0.0070216205640044604 0.0 0.0
0.010836428029904671 -0.009426397990755175 0.0 -0.005532374631905812 0.0 0.0
0.010836428029905115 -0.00942639799075562 0.0 0.00553237463191425 0.0 0.0
0.007872326597457582 -0.006411314648769428 0.0 0.007021620564019282 0.0 0.0
0.005597900981826262 -0.004281151805507033 0.0 0.0076035144206274 0.0 0.0
0.00395049824686948 -0.002761678473688134 0.0 0.007166834641795017 0.0 0.0
0.0028852115995177535 -0.0018155467740161857 0.0 0.006206825452484799 0.0 0.0
0.002178135136037415 -0.0012538009926086335 0.0 0.005186426782121001 0.0 0.0
0.0016682866974812166 -0.0008878435346495461 0.0 0.0043037807891577184 0.0 0.0
0.0012879659640805813 -0.0006404898953669136 0.0 0.0036373568238007303 0.0 0.0
0.00099899760171078 -0.0004784891952400727 0.0 0.0031777059906784033 0.0 0.0
0.0007716873262698515 -0.00035619273810749696 0.0 0.0028864577575437866 0.0 0.0
0.0005807090151124517 -0.00026261687272388645 0.0 0.00270370396694819 0.0 0.0
0.0004372329126898361 -0.0001927436029018903 0.0 0.0026020031965995893 0.0 0.0
0.0003172438909392339 -0.00013887373156995508 0.0 0.002511335789964736 0.0 0.0
0.0002309083897106129 -9.669736047801525e-05 0.0 0.0023909852501937945 0.0 0.0
0.0001550777060117664 -4.870522667327348e-05 0.0 0.0022340436977169725 0.0 0.0
6.944764859966035e-05 1.2982012725759606e-05 0.0 0.0020958055745503995 0.0 0.0
-3.8004894027096614e-05 7.877844831055691e-05 0.0 0.0020341182694219168 0.0 0.0
-0.00013421297124589782 7.753613091668332e-05 0.0 0.0021067077470935947 0.0 0.0
-7.086470973359515e-05 -0.0002007151746593605 0.0 0.0022501902857903766 0.0 0.0
0.0004179321428313676 -0.0011324920684307252 0.0 0.0015988306678468844 0.0 0.0
0.00032050193180864495 -0.0009326598626281102 0.0 -0.0014543616665616127 0.0 0.0
-0.00011719537912242839 -0.00017864940241010818 0.0 -0.002231833440364539 0.0 0.0
-0.00024873454896036373 0.00011731958197652714 0.0 -0.002165749351444826 0.0 0.0
-0.0002312253284902921 0.00016068927209805794 0.0 -0.002090904809480626 0.0 0.0
-0.0002017104090704519 0.0001367690127295207 0.0 -0.0021273675814199172 0.0 0.0
-0.000203453076144694 0.00011599909743842396 0.0 -0.00224649450181183 0.0 0.0
-0.00024135762738500266 0.00011631879444551352 0.0 -0.0023936726569591116 0.0 0.0
-0.0003159883587367379 0.00014047961010010823 0.0 -0.0025113202302813054 0.0 0.0
-0.00043470129270845037 0.00019085339254498734 0.0 -0.002601339827311505 0.0 0.0
-0.0005789556686405933 0.0002611650761492612 0.0 -0.002703254611165773 0.0 0.0
-0.0007704207045387268 0.0003555388620746225 0.0 -0.0028859935374061507 0.0 0.0
-0.0009994605244945526 0.00048008301989188595 0.0 -0.0031764016914875848 0.0 0.0
-0.0012958575879297163 0.0006478961580289599 0.0 -0.003633462612528615 0.0 0.0
-0.0016851545351178748 0.0008968555942969747 0.0 -0.004301861929618678 0.0 0.0
-0.0021589952458646727 0.001224838150653218 0.0 -0.005209938371290246 0.0 0.0
-0.0026280924013216134 0.0015534434906856465 0.0 -0.006317190735452394 0.0 0.0
-0.0028555816232338355 0.0017164428306137847 0.0 -0.007598913480876934 0.0 0.0
-0.002472771056787726 0.00139734417946058 0.0 -0.009006110874769102 0.0 0.0
-0.0011662697215465145 0.0005327906119974024 0.0 -0.010011373322939998 0.0 0.0
0.0015488821712638864 -0.0018766652499973002 0.0 -0.008157937412323318 0.0 0.0
0.0015488821712643444 -0.0018766652499981884 0.0 0.008157937412334448 0.0 0.0
-0.0011662697215469447 0.0005327906119969583 0.0 0.010011373322952044 0.0 0.0
-0.0024727710567874553 0.001397344179460136 0.0 0.00900611087477543 0.0 0.0
-0.002855581623232163 0.00171644283061001 0.0 0.007598913480875852 0.0 0.0
-0.0026280924013193374 0.0015534434906809835 0.0 0.006317190735449479 0.0 0.0
-0.0021589952458628617 0.0012248381506512196 0.0 0.005209938371288303 0.0 0.0
-0.0016851545351161262 0.0008968555942938661 0.0 0.004301861929617956 0.0 0.0
-0.001295857587927128 0.0006478961580247411 0.0 0.003633462612529531 0.0 0.0
-0.0009994605244919921 0.0004800830198905537 0.0 0.003176401691485198 0.0 0.0
-0.0007704207045364439 0.0003555388620751776 0.0 0.0028859935374037082 0.0 0.0
-0.0005789556686387268 0.00026116507614892814 0.0 0.0027032546111619704 0.0 0.0
-0.0004347012927071181 0.00019085339254465428 0.0 0.002601339827310839 0.0 0.0
-0.0003159883587358636 0.00014047961009977517 0.0 0.0025113202302805837 0.0 0.0
-0.0002413576273844198 0.00011631879444407023 0.0 0.002393672656957363 0.0 0.0
-0.00020345307614422908 0.00011599909743742476 0.0 0.002246494501809193 0.0 0.0
-0.00020171040906987597 0.00013676901272846598 0.0 0.002127367581417558 0.0 0.0
-0.00023122532848994515 0.00016068927209711426 0.0 0.00209090480947792 0.0 0.0
-0.00024873454896016944 0.00011731958197636061 0.0 0.002165749351443008 0.0 0.0
-0.00011719537912233818 -0.00017864940240998328 0.0 0.002231833440362291 0.0 0.0
0.0003205019318084368 -0.0009326598626272393 0.0 0.001454361666560336 0.0 0.0
0.00023894912968913662 -0.0007487601737102695 0.0 -0.0013054908808072946 0.0 0.0
-0.00016146061010530177 -0.0001471772778283975 0.0 -0.002163059493805075 0.0 0.0
-0.0003555920576841093 0.00015585090227498988 0.0 -0.002169719355140043 0.0 0.0
-0.00041606258842490085 0.00023764775640344737 0.0 -0.0020947401994468318 0.0 0.0
-0.00046674803758539607 0.0002558831747428991 0.0 -0.0021029088157241277 0.0 0.0
-0.0005575401307024164 0.0002773315018361755 0.0 -0.0021909888877199163 0.0 0.0
-0.000710428714519068 0.00032642364392210244 0.0 -0.0023043976978159852 0.0 0.0
-0.0009558445548589756 0.0004244452534417631 0.0 -0.0024258355488024352 0.0 0.0
-0.0013039564997368303 0.0005856274154405483 0.0 -0.0025189382560075746 0.0 0.0
-0.0017625755747803645 0.0008274663594127762 0.0 -0.002692956117706896 0.0 0.0
-0.002343317829604466 0.0011909302541348588 0.0 -0.0030709633396343305 0.0 0.0
-0.003035114761174351 0.001702481548267798 0.0 -0.0036129493390747447 0.0 0.0
-0.0039131147797037275 0.0024071129974050365 0.0 -0.004316343757604424 0.0 0.0
-0.005063052978295887 0.0033883611013147963 0.0 -0.005164717461904 0.0 0.0
-0.006520751696909646 0.004677994884419112 0.0 -0.006206353211007654 0.0 0.0
-0.00817606742311179 0.0061742633078776255 0.0 -0.00749826063342357 0.0 0.0
-0.009734751745876583 0.0075767220146845116 0.0 -0.009057346433783586 0.0 0.0
-0.010699420069234716 0.008396970635381917 0.0 -0.010772200526090625 0.0 0.0
-0.010286248423401298 0.0077435691487153235 0.0 -0.011571651051053233 0.0 0.0
-0.007226723361387022 0.004663953898802031 0.0 -0.009528501104301201 0.0 0.0
-0.007226723361387424 0.004663953898802697 0.0 0.00952850110431272 0.0 0.0
-0.010286248423401034 0.00774356914871599 0.0 0.011571651051068194 0.0 0.0
-0.010699420069232399 0.008396970635379697 0.0 0.010772200526101311 0.0 0.0
-0.00973475174587237 0.0075767220146842895 0.0 0.009057346433784419 0.0 0.0
-0.008176067423106621 0.006174263307874295 0.0 0.007498260633420295 0.0 0.0
-0.0065207516969056495 0.004677994884416448 0.0 0.006206353211005322 0.0 0.0
-0.005063052978292022 0.003388361101312576 0.0 0.005164717461900864 0.0 0.0
-0.003913114779698697 0.002407112997401706 0.0 0.004316343757603869 0.0 0.0
-0.0030351147611691193 0.0017024815482638012 0.0 0.0036129493390713585 0.0 0.0
-0.0023433178295997406 0.001190930254131528 0.0 0.003070963339630417 0.0 0.0
-0.0017625755747763192 0.0008274663594103338 0.0 0.0026929561177024552 0.0 0.0
-0.001303956499733902 0.0005856274154381058 0.0 0.002518938256006964 0.0 0.0
-0.0009558445548569078 0.00042444525344109696 0.0 0.0024258355488016026 0.0 0.0
-0.0007104287145177912 0.0003264236439214363 0.0 0.002304397697813765 0.0 0.0
-0.0005575401307015351 0.00027733150183545385 0.0 0.0021909888877179873 0.0 0.0
-0.0004667480375845842 0.0002558831747418999 0.0 0.0021029088157213105 0.0 0.0
-0.00041606258842438043 0.00023764775640300329 0.0 0.0020947401994445003 0.0 0.0
-0.00035559205768371377 0.00015585090227523968 0.0 0.0021697193551379196 0.0 0.0
-0.0001614606101052532 -0.00014717727782832812 0.0 0.0021630594938032016 0.0 0.0
0.00023894912968899784 -0.0007487601737096198 0.0 0.0013054908808052823 0.0 0.0
0.0001654883848689892 -0.0005799472885332085 0.0 -0.001155816765530851 0.0 0.0
-0.00020593088873241405 -0.00010740083006627321 0.0 -0.002046452305158722 0.0 0.0
-0.0004563264939368983 0.00019403543328999628 0.0 -0.002118549588111751 0.0 0.0
-0.0005927017320034866 0.00030979705259881474 0.0 -0.002044750967225978 0.0 0.0
-0.0007238003879279087 0.00036868964472763777 0.0 -0.002020969946727097 0.0 0.0
-0.0009029922603682183 0.00043220174670399736 0.0 -0.002065577351327008 0.0 0.0
-0.0011748808177704378 0.0005337482549371275 0.0 -0.0021391756627755776 0.0 0.0
-0.0016046939553890915 0.0007236973575801553 0.0 -0.0022423586648172844 0.0 0.0
-0.0022104893666163306 0.0010755749820882121 0.0 -0.002470807523861973 0.0 0.0
-0.003015283197858154 0.0016344100179719323 0.0 -0.0029477857907741767 0.0 0.0
-0.003976990442936659 0.002389475471458624 0.0 -0.003584489956575787 0.0 0.0
-0.005127809600026331 0.003355326734982178 0.0 -0.0042773673084812724 0.0 0.0
-0.006586545535202201 0.004637468855336113 0.0 -0.005069650020250005 0.0 0.0
-0.008500968546934981 0.00638187594869799 0.0 -0.006046285821769415 0.0 0.0
-0.010950166582436832 0.008658413328797021 0.0 -0.007314609584223641 0.0 0.0
-0.013816177028611626 0.011351136109918336 0.0 -0.009003969573792125 0.0 0.0
-0.016726811302034406 0.014081342165595201 0.0 -0.011241788375189632 0.0 0.0
-0.0189677613836359 0.01608075338058379 0.0 -0.01372564097488288 0.0 0.0
-0.019219703503443528 0.01603111962674264 0.0 -0.015078699904662984 0.0 0.0
-0.015554822965647787 0.01195963429558744 0.0 -0.01236681938177761 0.0 0.0
-0.015554822965648203 0.011959634295585442 0.0 0.012366819381790572 0.0 0.0
-0.019219703503442175 0.016031119626739754 0.0 0.015078699904680137 0.0 0.0
-0.018967761383631813 0.016080753380581347 0.0 0.013725640974895897 0.0 0.0
-0.016726811302028265 0.014081342165589428 0.0 0.01124178837519152 0.0 0.0
-0.013816177028603903 0.011351136109910787 0.0 0.00900396957378835 0.0 0.0
-0.010950166582430726 0.008658413328792136 0.0 0.007314609584220755 0.0 0.0
-0.008500968546928958 0.006381875948693327 0.0 0.006046285821765862 0.0 0.0
-0.006586545535194777 0.00463746885533034 0.0 0.005069650020248145 0.0 0.0
-0.005127809600018594 0.003355326734976405 0.0 0.0042773673084763875 0.0 0.0
-0.003976990442929283 0.002389475471452407 0.0 0.0035844899565699584 0.0 0.0
-0.003015283197852013 0.001634410017965826 0.0 0.0029477857907681815 0.0 0.0
-0.002210489366611494 0.0010755749820859917 0.0 0.0024708075238601412 0.0 0.0
-0.0016046939553858441 0.0007236973575790451 0.0 0.0022423586648170624 0.0 0.0
-0.0011748808177684048 0.0005337482549362393 0.0 0.0021391756627738012 0.0 0.0
-0.0009029922603669485 0.0004322017467036088 0.0 0.0020655773513253844 0.0 0.0
-0.0007238003879268609 0.0003686896447267496 0.0 0.0020209699467249737 0.0 0.0
-0.0005927017320027997 0.0003097970525985927 0.0 0.002044750967223896 0.0 0.0
-0.0004563264939364056 0.000194035433289802 0.0 0.0021185495881090727 0.0 0.0
-0.00020593088873223364 -0.0001074008300659679 0.0 0.0020464523051565847 0.0 0.0
0.00016548838486880185 -0.0005799472885326222 0.0 0.001155816765530171 0.0 0.0
9.83485001660872e-05 -0.00042698766935332644 0.0 -0.0010040936752112872 0.0 0.0
-0.0002518613491363231 -6.122902679073228e-05 0.0 -0.0018874879439835512 0.0 0.0
-0.000552343887250048 0.0002326574734285436 0.0 -0.0020140138036171817 0.0 0.0
-0.0007616138316874632 0.0003768834471170601 0.0 -0.0019419251427866546 0.0 0.0
-0.0009708577786311928 0.00047511070283173806 0.0 -0.0018823634547587287 0.0 0.0
-0.001237848850552184 0.0005779873659172985 0.0 -0.0018806484864841017 0.0 0.0
-0.001642040627460345 0.0007514292422050595 0.0 -0.001926369548017337 0.0 0.0
-0.002287212713811451 0.001115952655446062 0.0 -0.0021252480244149385 0.0 0.0
-0.0031963225550563773 0.0017521420540314026 0.0 -0.0025736261859557463 0.0 0.0
-0.004330208442791875 0.002645454631144961 0.0 -0.003222395388983862 0.0 0.0
-0.005649970488776052 0.003761638577395976 0.0 -0.003913583971928147 0.0 0.0
-0.007255838968583075 0.005171398701813823 0.0 -0.0046312478772406185 0.0 0.0
-0.009310343039901664 0.0070443584294104244 0.0 -0.00547812198640818 0.0 0.0
-0.012011294172149037 0.009569293544951618 0.0 -0.006553647841613941 0.0 0.0
-0.015467626538598025 0.01284814564970116 0.0 -0.007969418361282066 0.0 0.0
-0.019574675459843566 0.016763190011762852 0.0 -0.009935947682505386 0.0 0.0
-0.023861193230675246 0.020825363321045343 0.0 -0.012656920517461812 0.0 0.0
-0.02729442496023876 0.02395392882101266 0.0 -0.015799662800971337 0.0 0.0
-0.02802106895124591 0.024281269160215002 0.0 -0.017771975494764836 0.0 0.0
-0.023272318318862513 0.01902447185127154 0.0 -0.015303632007390378 0.0 0.0
-0.02327231831886227 0.01902447185127043 0.0 0.015303632007406809 0.0 0.0
-0.028021068951243483 0.024281269160214114 0.0 0.017771975494787318 0.0 0.0
-0.02729442496023323 0.023953928821008885 0.0 0.015799662800987574 0.0 0.0
-0.023861193230667127 0.020825363321036905 0.0 0.012656920517467501 0.0 0.0
-0.019574675459834087 0.01676319001175619 0.0 0.009935947682504193 0.0 0.0
-0.015467626538589699 0.012848145649695608 0.0 0.007969418361279068 0.0 0.0
-0.012011294172140828 0.00956929354494429 0.0 0.006553647841609805 0.0 0.0
-0.009310343039891936 0.007044358429402209 0.0 0.005478121986406209 0.0 0.0
-0.007255838968573125 0.005171398701803609 0.0 0.004631247877236733 0.0 0.0
-0.005649970488766316 0.003761638577386983 0.0 0.003913583971921042 0.0 0.0
-0.0043302084427836104 0.0026454546311380778 0.0 0.0032223953889767842 0.0 0.0
-0.0031963225550496258 0.0017521420540271837 0.0 0.0025736261859524157 0.0 0.0
-0.002287212713806698 0.0011159526554433974 0.0 0.002125248024413162 0.0 0.0
-0.001642040627457507 0.0007514292422036162 0.0 0.0019263695480159493 0.0 0.0
-0.001237848850550484 0.0005779873659177981 0.0 0.0018806484864830886 0.0 0.0
-0.0009708577786298814 0.00047511070283118295 0.0 0.0018823634547574242 0.0 0.0
-0.0007616138316866444 0.0003768834471158944 0.0 0.0019419251427848644 0.0 0.0
-0.0005523438872495762 0.00023265747342818277 0.0 0.0020140138036151833 0.0 0.0
-0.00025186134913592756 -6.122902679044084e-05 0.0 0.0018874879439815112 0.0 0.0
9.83485001658374e-05 -0.000426987669352852 0.0 0.0010040936752101354 0.0 0.0
3.776738009828029e-05 -0.0002914043206188599 0.0 -0.0008481198371888821 0.0 0.0
-0.00029906612517820175 -1.0863062767763054e-05 0.0 -0.0016910164466907712 0.0 0.0
-0.0006446144258231146 0.000271688328740638 0.0 -0.0018580357939071562 0.0 0.0
-0.0009231964313530239 0.0004397851677657161 0.0 -0.0017849820957131501 0.0 0.0
-0.0012065029677866823 0.0005707417514317359 0.0 -0.00168768560684536 0.0 0.0
-0.0015648042846582583 0.0007237519604001985 0.0 -0.0016445952555735749 0.0 0.0
-0.0021328142415207724 0.0010191160018252488 0.0 -0.0017111088192827972 0.0 0.0
-0.003037115603101298 0.00162371667747363 0.0 -0.002053268327551122 0.0 0.0
-0.004238653669198192 0.002559223001740274 0.0 -0.0026432191123061666 0.0 0.0
-0.005661033934808379 0.0037486952179822675 0.0 -0.0033000239558205746 0.0 0.0
-0.007341290236417358 0.005213798966086314 0.0 -0.003954052859760471 0.0 0.0
-0.00941818246067952 0.007086457391271894 0.0 -0.004675807359569462 0.0 0.0
-0.012092010666400657 0.009567873313616193 0.0 -0.005555703316070193 0.0 0.0
-0.015590154370620599 0.012879946499919193 0.0 -0.006669863381229435 0.0 0.0
-0.020059939282509598 0.017160027383284593 0.0 -0.008127838113749841 0.0 0.0
-0.025404080551548913 0.02229127968938527 0.0 -0.010149199035582368 0.0 0.0
-0.031046637329249088 0.02766422875933139 0.0 -0.012982570536026361 0.0 0.0
-0.03562169655279751 0.03186814169691066 0.0 -0.016507188149776364 0.0 0.0
-0.03666918417625402 0.032433145099600935 0.0 -0.019238195188015117 0.0 0.0
-0.03065250214517997 0.025894568902990578 0.0 -0.018148977348776518 0.0 0.0
-0.030652502145179013 0.025894568902990356 0.0 0.018148977348794476 0.0 0.0
-0.03666918417625049 0.0324331450995996 0.0 0.01923819518803846 0.0 0.0
-0.035621696552790655 0.03186814169690555 0.0 0.016507188149792795 0.0 0.0
-0.031046637329239256 0.02766422875932406 0.0 0.012982570536031773 0.0 0.0
-0.025404080551537957 0.022291279689375942 0.0 0.010149199035582201 0.0 0.0
-0.02005993928249928 0.01716002738327349 0.0 0.008127838113747593 0.0 0.0
-0.015590154370610135 0.01287994649991031 0.0 0.006669863381225355 0.0 0.0
-0.012092010666388445 0.009567873313605313 0.0 0.0055557033160677505 0.0 0.0
-0.009418182460667508 0.007086457391260792 0.0 0.004675807359565576 0.0 0.0
-0.0073412902364054025 0.0052137989660749895 0.0 0.003954052859753393 0.0 0.0
-0.005661033934797957 0.0037486952179729416 0.0 0.003300023955813025 0.0 0.0
-0.004238653669189581 0.0025592230017328355 0.0 0.0026432191123019477 0.0 0.0
-0.0030371156030949906 0.0016237166774693002 0.0 0.002053268327548069 0.0 0.0
-0.002132814241516727 0.0010191160018232504 0.0 0.0017111088192808266 0.0 0.0
-0.0015648042846560309 0.0007237519603987552 0.0 0.001644595255572076 0.0 0.0
-0.0012065029677852876 0.0005707417514312363 0.0 0.001687685606843639 0.0 0.0
-0.000923196431351983 0.0004397851677659381 0.0 0.0017849820957110962 0.0 0.0
-0.0006446144258224137 0.0002716883287409988 0.0 0.0018580357939055325 0.0 0.0
-0.00029906612517789644 -1.0863062767638154e-05 0.0 0.00169101644668887 0.0 0.0
3.776738009821784e-05 -0.00029140432061874454 0.0 0.0008481198371881327 0.0 0.0
-1.4976965957619326e-05 -0.00017513407033517558 0.0 -0.0006860530321993602 0.0 0.0
-0.0003459482932750557 4.115500575793685e-05 0.0 -0.0014609207809621466 0.0 0.0
-0.0007335434407213237 0.00031088756409930474 0.0 -0.0016522812044926921 0.0 0.0
-0.0010782637030741504 0.0004981328781384908 0.0 -0.0015765382657595695 0.0 0.0
-0.001430568364770804 0.0006600194255514391 0.0 -0.0014452324675247735 0.0 0.0
-0.001894535253650867 0.0008832974483883316 0.0 -0.0013801270665050186 0.0 0.0
-0.002673395085371913 0.0013627493777127464 0.0 -0.001511490894201245 0.0 0.0
-0.003845225729751295 0.002237560127995919 0.0 -0.001965887125157384 0.0 0.0
-0.005291622275609337 0.003430763546102611 0.0 -0.0025532168316592385 0.0 0.0
-0.006995796225683262 0.004894879700675592 0.0 -0.0031377186480176233 0.0 0.0
-0.009050974709270701 0.006723222324385603 0.0 -0.0037560876529246223 0.0 0.0
-0.01161708394148854 0.009074557445476694 0.0 -0.004447548580826799 0.0 0.0
-0.014930382122630537 0.012180791714906603 0.0 -0.005304460360418095 0.0 0.0
-0.019239247053456324 0.016288862560428496 0.0 -0.0064219594523655665 0.0 0.0
-0.024700100899845603 0.021546543034761223 0.0 -0.007815941919791736 0.0 0.0
-0.03123159552533475 0.027841039441161675 0.0 -0.009616581987716477 0.0 0.0
-0.03817848451021723 0.034480118218747746 0.0 -0.012221554744367924 0.0 0.0
-0.043856251056985804 0.03972598099923719 0.0 -0.015839316957963978 0.0 0.0
-0.04520972094152545 0.04053426972698149 0.0 -0.019579326076160253 0.0 0.0
-0.03798571073173795 0.0327686223885042 0.0 -0.021015197402211278 0.0 0.0
-0.037985710731736504 0.03276862238850309 0.0 0.021015197402230318 0.0 0.0
-0.0452097209415208 0.040534269726977046 0.0 0.019579326076184456 0.0 0.0
-0.04385625105697752 0.03972598099922697 0.0 0.01583931695798177 0.0 0.0
-0.03817848451020602 0.034480118218734424 0.0 0.01222155474437514 0.0 0.0
-0.031231595525322335 0.027841039441150572 0.0 0.0096165819877167 0.0 0.0
-0.024700100899833093 0.0215465430347499 0.0 0.007815941919792041 0.0 0.0
-0.01923924705344375 0.01628886256041695 0.0 0.006421959452363485 0.0 0.0
-0.014930382122616201 0.012180791714892392 0.0 0.005304460360415236 0.0 0.0
-0.011617083941474225 0.00907455744546315 0.0 0.00444754858082258 0.0 0.0
-0.009050974709256782 0.006723222324372724 0.0 0.0037560876529182524 0.0 0.0
-0.006995796225670807 0.004894879700663268 0.0 0.003137718648010712 0.0 0.0
-0.005291622275599036 0.00343076354609384 0.0 0.002553216831655006 0.0 0.0
-0.0038452257297433394 0.002237560127990479 0.0 0.0019658871251536647 0.0 0.0
-0.002673395085366445 0.0013627493777096378 0.0 0.001511490894198747 0.0 0.0
-0.0018945352536478208 0.0008832974483862777 0.0 0.0013801270665029092 0.0 0.0
-0.0014305683647692947 0.0006600194255508285 0.0 0.0014452324675237882 0.0 0.0
-0.0010782637030730888 0.0004981328781384353 0.0 0.0015765382657582233 0.0 0.0
-0.0007335434407205431 0.000310887564099499 0.0 0.0016522812044905966 0.0 0.0
-0.00034594829327464285 4.115500575790909e-05 0.0 0.0014609207809605923 0.0 0.0
-1.4976965957525651e-05 -0.00017513407033491885 0.0 0.0006860530321985553 0.0 0.0
-5.7685521841224774e-05 -8.047851312772969e-05 0.0 -0.0005173669983018769 0.0 0.0
-0.0003893790508400219 9.18448464735655e-05 0.0 -0.001200348963310588 0.0 0.0
-0.0008190249422343338 0.00034978988206041395 0.0 -0.0013971087630020307 0.0 0.0
-0.0012283819926781347 0.0005514054935952806 0.0 -0.0013170725509404069 0.0 0.0
-0.001645426945603351 0.0007451311123597981 0.0 -0.00116048634620175 0.0 0.0
-0.00224946174960447 0.0010846002799509424 0.0 -0.0011113723297205835 0.0 0.0
-0.0032742788575079035 0.0018003347253042756 0.0 -0.0013321164920619133 0.0 0.0
-0.004666310727287862 0.0029104094195105956 0.0 -0.001781576788119854 0.0 0.0
-0.006338285477024266 0.0043237975060509415 0.0 -0.0022662647511833833 0.0 0.0
-0.008339285086071166 0.006076785007006924 0.0 -0.002780847243187501 0.0 0.0
-0.010778549329911694 0.00827842127138867 0.0 -0.0033300667175185372 0.0 0.0
-0.01385122415693843 0.011121449461422461 0.0 -0.003951880146478459 0.0 0.0
-0.017823030203357265 0.014870876013645118 0.0 -0.004746055601086485 0.0 0.0
-0.022951727984408324 0.019776171663276276 0.0 -0.005777107216752064 0.0 0.0
-0.029372929404933995 0.025974107905554877 0.0 -0.007033103545862229 0.0 0.0
-0.036990774626900494 0.03334241067932986 0.0 -0.008474195022114994 0.0 0.0
-0.04512777660978173 0.04114264802581391 0.0 -0.010400897196042425 0.0 0.0
-0.0518977975503218 0.04743410136729875 0.0 -0.013692430985680792 0.0 0.0
-0.05374188045441597 0.04866727336027532 0.0 -0.01874181317329654 0.0 0.0
-0.045527044945671176 0.039859869380324264 0.0 -0.023900679557893212 0.0 0.0
-0.04552704494566935 0.03985986938032071 0.0 0.023900679557911586 0.0 0.0
-0.05374188045441017 0.04866727336026755 0.0 0.01874181317331866 0.0 0.0
-0.05189779755031202 0.047434101367289205 0.0 0.013692430985697362 0.0 0.0
-0.04512777660976921 0.041142648025803696 0.0 0.010400897196049419 0.0 0.0
-0.03699077462688661 0.033342410679316314 0.0 0.008474195022116188 0.0 0.0
-0.02937292940491932 0.025974107905540667 0.0 0.007033103545862868 0.0 0.0
-0.022951727984393547 0.0197761716632614 0.0 0.005777107216750038 0.0 0.0
-0.017823030203341084 0.014870876013628687 0.0 0.0047460556010842925 0.0 0.0
-0.01385122415692178 0.011121449461405586 0.0 0.003951880146475489 0.0 0.0
-0.010778549329895758 0.00827842127137457 0.0 0.0033300667175126114 0.0 0.0
-0.008339285086057 0.006076785006996044 0.0 0.0027808472431809783 0.0 0.0
-0.006338285477012394 0.004323797506040061 0.0 0.0022662647511793865 0.0 0.0
-0.0046663107272782375 0.002910409419501714 0.0 0.0017815767881167455 0.0 0.0
-0.0032742788575011415 0.0018003347252986135 0.0 0.0013321164920596928 0.0 0.0
-0.002249461749600508 0.0010846002799481669 0.0 0.0011113723297187933 0.0 0.0
-0.0016454269456015642 0.0007451311123595206 0.0 0.0011604863462006676 0.0 0.0
-0.001228381992677087 0.0005514054935952806 0.0 0.0013170725509395603 0.0 0.0
-0.0008190249422335046 0.00034978988206046946 0.0 0.0013971087630008927 0.0 0.0
-0.0003893790508396819 9.184484647362101e-05 0.0 0.0012003489633094916 0.0 0.0
-5.768552184123171e-05 -8.047851312771408e-05 0.0 0.0005173669983012386 0.0 0.0
-8.68527741794134e-05 -1.0205690517892108e-05 0.0 -0.00034413643292995066 0.0 0.0
-0.00042420140053371636 0.0001374529763762955 0.0 -0.0009113326238126274 0.0 0.0
-0.0009005959218303383 0.00038736074641565477 0.0 -0.0010899560560602706 0.0 0.0
-0.0013756727767238325 0.000600543300613765 0.0 -0.0010078901066157553 0.0 0.0
-0.0018599135744304246 0.00084021721498162 0.0 -0.0008468192269350944 0.0 0.0
-0.0026568114760621986 0.0013479866825175657 0.0 -0.0008516426595394228 0.0 0.0
-0.0039026144530141943 0.002289062841977607 0.0 -0.0010802801946192264 0.0 0.0
-0.00547628541587572 0.003595668532453744 0.0 -0.0014348767789561234 0.0 0.0
-0.007384174982716707 0.005238558625187406 0.0 -0.001824510207391855 0.0 0.0
-0.009688694076931445 0.007285343335586059 0.0 -0.0022412564763899245 0.0 0.0
-0.012523693804666239 0.009870121913212682 0.0 -0.0026920472401966156 0.0 0.0
-0.016117486626838665 0.013219587971926794 0.0 -0.003201198824354101 0.0 0.0
-0.020763002138779227 0.017622443232967244 0.0 -0.003851701549766773 0.0 0.0
-0.026719365844325313 0.02333304833536709 0.0 -0.004747986114047753 0.0 0.0
-0.034072804152875044 0.030435834091467884 0.0 -0.0058201510641017196 0.0 0.0
-0.042640266240704605 0.03873257870554192 0.0 -0.006797979393773523 0.0 0.0
-0.05174438811318782 0.04751173308284695 0.0 -0.007703011253402836 0.0 0.0
-0.05961902280930545 0.05488122722982358 0.0 -0.01009434576565349 0.0 0.0
-0.06234515028759546 0.05690823899886155 0.0 -0.016426086388822037 0.0 0.0
-0.05356842671291105 0.047420597166978995 0.0 -0.026600449451280067 0.0 0.0
-0.053568426712909026 0.047420597166976775 0.0 0.02660044945129489 0.0 0.0
-0.06234515028758846 0.05690823899885489 0.0 0.016426086388841132 0.0 0.0
-0.05961902280929398 0.05488122722981226 0.0 0.010094345765668838 0.0 0.0
-0.05174438811317381 0.047511733082835406 0.0 0.007703011253408387 0.0 0.0
-0.042640266240688715 0.03873257870552749 0.0 0.006797979393774717 0.0 0.0
-0.03407280415285872 0.03043583409145212 0.0 0.0058201510641029824 0.0 0.0
-0.026719365844308146 0.02333304833534977 0.0 0.004747986114045616 0.0 0.0
-0.020763002138761054 0.017622443232952367 0.0 0.0038517015497641915 0.0 0.0
-0.016117486626819635 0.013219587971911473 0.0 0.003201198824351631 0.0 0.0
-0.012523693804648305 0.00987012191319736 0.0 0.0026920472401918832 0.0 0.0
-0.009688694076915493 0.007285343335572181 0.0 0.0022412564763846093 0.0 0.0
-0.007384174982703266 0.005238558625175305 0.0 0.0018245102073891906 0.0 0.0
-0.0054762854158647255 0.0035956685324446402 0.0 0.0014348767789533062 0.0 0.0
-0.0039026144530060966 0.002289062841971057 0.0 0.0010802801946163676 0.0 0.0
-0.0026568114760571956 0.0013479866825130693 0.0 0.0008516426595381876 0.0 0.0
-0.0018599135744282284 0.0008402172149802323 0.0 0.0008468192269348029 0.0 0.0
-0.001375672776722691 0.0006005433006134875 0.0 0.0010078901066155749 0.0 0.0
-0.0009005959218293981 0.0003873607464153217 0.0 0.0010899560560593546 0.0 0.0
-0.0004242014005334041 0.00013745297637594855 0.0 0.0009113326238116559 0.0 0.0
-8.685277417934054e-05 -1.0205690517961497e-05 0.0 0.00034413643292952045 0.0 0.0
-9.658775821250187e-05 3.2172212518513654e-05 0.0 -0.00017303895682810322 0.0 0.0
-0.0004422814405802 0.00017259335130512254 0.0 -0.0005939974686030164 0.0 0.0
-0.000977612185063606 0.0004223361925799196 0.0 -0.0007230339094878163 0.0 0.0
-0.0015247255406007354 0.0006485100324456483 0.0 -0.0006526992203534365 0.0 0.0
-0.002096968595609469 0.0009723289937387247 0.0 -0.000536877573045394 0.0 0.0
-0.0031112436972596386 0.0016742580418315223 0.0 -0.0005579128507417347 0.0 0.0
-0.0045244357654175005 0.002804177541674835 0.0 -0.0007316668354790667 0.0 0.0
-0.006279997756706984 0.004291440143603276 0.0 -0.0009685980290070617 0.0 0.0
-0.008426675720195634 0.006168696614324287 0.0 -0.0012346350908708503 0.0 0.0
-0.011042059036600965 0.008515703587736456 0.0 -0.0015272480344675488 0.0 0.0
-0.014284137704787703 0.011492621353342392 0.0 -0.0018390906137747687 0.0 0.0
-0.01841366142034169 0.015360124052747892 0.0 -0.002190811554937 0.0 0.0
-0.023745907952791842 0.020429873846552704 0.0 -0.0026734553366869473 0.0 0.0
-0.03052327703670696 0.026937156060864442 0.0 -0.0033220269780486755 0.0 0.0
-0.03877787395207909 0.034907352965438454 0.0 -0.00405822651301585 0.0 0.0
-0.048193782880325234 0.044023226191051146 0.0 -0.004645878484517807 0.0 0.0
-0.05798106949640075 0.05349070424077085 0.0 -0.0047221903631871065 0.0 0.0
-0.0666910240860589 0.06181760713289197 0.0 -0.005211047566698324 0.0 0.0
-0.07099963113273998 0.06524623051350775 0.0 -0.011714819453658987 0.0 0.0
-0.06256679511740396 0.05584843065234635 0.0 -0.028534111458859035 0.0 0.0
-0.06256679511740165 0.05584843065234413 0.0 0.02853411145887011 0.0 0.0
-0.07099963113273176 0.06524623051350131 0.0 0.011714819453674086 0.0 0.0
-0.06669102408604567 0.061817607132882646 0.0 0.005211047566709509 0.0 0.0
-0.05798106949638465 0.0534907042407593 0.0 0.004722190363191353 0.0 0.0
-0.048193782880307394 0.044023226191035825 0.0 0.0046458784845195 0.0 0.0
-0.03877787395206078 0.03490735296542424 0.0 0.0040582265130165995 0.0 0.0
-0.030523277036687623 0.0269371560608489 0.0 0.0033220269780476624 0.0 0.0
-0.02374590795277138 0.020429873846534274 0.0 0.0026734553366855596 0.0 0.0
-0.01841366142032056 0.01536012405272813 0.0 0.0021908115549371943 0.0 0.0
-0.014284137704767769 0.011492621353325405 0.0 0.0018390906137721041 0.0 0.0
-0.011042059036583365 0.008515703587721246 0.0 0.0015272480344646483 0.0 0.0
-0.008426675720180807 0.0061686966143112976 0.0 0.0012346350908685466 0.0 0.0
-0.0062799977566947805 0.004291440143591285 0.0 0.0009685980290050356 0.0 0.0
-0.004524435765408086 0.0028041775416665082 0.0 0.0007316668354767353 0.0 0.0
-0.003111243697253437 0.001674258041827692 0.0 0.0005579128507411796 0.0 0.0
-0.0020969685956067786 0.0009723289937371704 0.0 0.0005368775730452691 0.0 0.0
-0.0015247255405994482 0.0006485100324450377 0.0 0.0006526992203530341 0.0 0.0
-0.000977612185062678 0.00042233619257953103 0.0 0.0007230339094875526 0.0 0.0
-0.00044228144057979236 0.00017259335130494213 0.0 0.0005939974686027527 0.0 0.0
-9.658775821237177e-05 3.217221251841304e-05 0.0 0.00017303895682793669 0.0 0.0
-7.611894740498781e-05 4.1488475192405505e-05 0.0 -1.928663669788222e-05 0.0 0.0
-0.00043092657353391295 0.0001895965474286998 0.0 -0.00024305957883297147 0.0 0.0
-0.0010501519320439134 0.00045103145389735477 0.0 -0.00028235092312468846 0.0 0.0
-0.0016876073598451058 0.0007155838261452274 0.0 -0.00026156796293186346 0.0 0.0
-0.002378216726937138 0.0011439573071470033 0.0 -0.00021231223457776616 0.0 0.0
-0.0035814681788825797 0.002026528529266325 0.0 -0.00020772229324582392 0.0 0.0
-0.005137827376156562 0.0033283684372175104 0.0 -0.0002880258492897192 0.0 0.0
-0.0070733855006123725 0.0049933312075725045 0.0 -0.00038455480394852803 0.0 0.0
-0.009463455411956714 0.007107095283471421 0.0 -0.0005017877357803013 0.0 0.0
-0.012396169649507183 0.00975933381949734 0.0 -0.0006363828400903215 0.0 0.0
-0.016057923234284358 0.013142185744322576 0.0 -0.0007736651190040633 0.0 0.0
-0.02074353221976033 0.017546443238666498 0.0 -0.0009490091301135317 0.0 0.0
-0.026758189498169827 0.023276851248243524 0.0 -0.0011777484422709206 0.0 0.0
-0.034333345147065 0.030556468027752137 0.0 -0.001457208103223362 0.0 0.0
-0.04346085472578033 0.03936708236479047 0.0 -0.0017623482259280787 0.0 0.0
-0.05367761033208561 0.04924693851945183 0.0 -0.0019377217699730886 0.0 0.0
-0.06397621153892544 0.05920693625845552 0.0 -0.0017167411986375725 0.0 0.0
-0.07290267865619118 0.06782128190990022 0.0 -0.0008407454966938843 0.0 0.0
-0.07856798484615718 0.07309970768600094 0.0 -0.002865117110498472 0.0 0.0
-0.07379946420176631 0.0660587991668542 0.0 -0.026525356616425022 0.0 0.0
-0.07379946420176403 0.06605879916685176 0.0 0.026525356616430545 0.0 0.0
-0.07856798484614783 0.07309970768599627 0.0 0.0028651171105051887 0.0 0.0
-0.07290267865617572 0.06782128190988712 0.0 0.0008407454966986028 0.0 0.0
-0.06397621153890667 0.05920693625843776 0.0 0.0017167411986376835 0.0 0.0
-0.05367761033206592 0.04924693851943629 0.0 0.001937721769973172 0.0 0.0
-0.04346085472575972 0.03936708236477182 0.0 0.0017623482259274403 0.0 0.0
-0.03433334514704334 0.030556468027732597 0.0 0.0014572081032237783 0.0 0.0
-0.026758189498146977 0.023276851248225094 0.0 0.0011777484422695883 0.0 0.0
-0.020743532219737376 0.017546443238644738 0.0 0.0009490091301146281 0.0 0.0
-0.016057923234262195 0.013142185744302926 0.0 0.0007736651190014543 0.0 0.0
-0.012396169649488064 0.009759333819480354 0.0 0.0006363828400877819 0.0 0.0
-0.009463455411940545 0.007107095283457765 0.0 0.0005017877357798711 0.0 0.0
-0.0070733855005989015 0.004993331207561624 0.0 0.000384554803948306 0.0 0.0
-0.005137827376146106 0.0033283684372076294 0.0 0.00028802584928923347 0.0 0.0
-0.0035814681788753824 0.0020265285292608848 0.0 0.00020772229324450553 0.0 0.0
-0.0023782167269337405 0.0011439573071449494 0.0 0.0002123122345771833 0.0 0.0
-0.0016876073598435883 0.0007155838261448944 0.0 0.0002615679629317802 0.0 0.0
-0.0010501519320429567 0.0004510314538974658 0.0 0.0002823509231246746 0.0 0.0
-0.0004309265735336718 0.0001895965474287553 0.0 0.00024305957883252738 0.0 0.0
-7.61189474048473e-05 4.1488475192297085e-05 0.0 1.9286636697521398e-05 0.0 0.0
SCALARS Statev float 8
LOOKUP_TABLE default
0.0 0.0070766739476289895 0.005294315307886686 -0.005672597358359059 0.00037828205047237316 -0.002896515522977573 0.0 0.0
0.0 0.00011470517855320927 2.872917292066173e-05 -1.965835587458835e-05 -9.07081704607337e-06 3.69970332692906e-05 0.0 0.0
0.0 3.342380937738801e-05 -4.754075056001044e-06 3.773145031477424e-06 9.809300245235895e-07 5.62033213615258e-07 0.0 0.0
0.0 5.964197818961551e-05 -8.875124403040253e-06 6.771864164477586e-06 2.1032602385625686e-06 1.0945643523735783e-06 0.0 0.0
0.0 0.00046101331549437696 0.0002521631555563592 -0.0001988638530624826 -5.329930249387718e-05 -3.219345060738992e-05 0.0 0.0
0.0 0.0012290251573252808 0.0011425101838627185 -0.0009237289667374054 -0.00021878121712531288 -9.593005697685012e-05 0.0 0.0
0.0 0.0026679912077925932 0.00245644930772301 -0.0020619725051919525 -0.00039447680253105663 -0.00017335022287849052 0.0 0.0
0.0 0.0046201620074154065 0.004207277419623098 -0.0036485406168315954 -0.0005587368027915033 -0.0002626093155281889 0.0 0.0
0.0 0.007134573559108156 0.006420626980221323 -0.005719727008164701 -0.0007008999720566201 -0.0003717066313978365 0.0 0.0
0.0 0.010305847052382864 0.009172794470282165 -0.00834875277272552 -0.0008240416975566467 -0.0005007170161641121 0.0 0.0
0.0 0.01437349697318192 0.012652183041057408 -0.011719371018743588 -0.0009328120223138199 -0.0006376206137940634 0.0 0.0
0.0 0.019398298997975717 0.017161502167158463 -0.01612701916471 -0.0010344830024484602 -0.0008145052161037158 0.0 0.0
0.0 0.02602809445735626 0.022997029832760082 -0.021864354122748116 -0.0011326757100119608 -0.0010408272994037687 0.0 0.0
0.0 0.03452371988613532 0.030387971318056026 -0.029156134056343458 -0.0012318372617125645 -0.001316190405490064 0.0 0.0
0.0 0.04485683141930418 0.03936538351547454 -0.03802939646729706 -0.0013359870481774718 -0.001654987090330227 0.0 0.0
0.0 0.05667921870122901 0.04959658095867588 -0.04815033027118189 -0.0014462506874940028 -0.002008760803382377 0.0 0.0
0.0 0.0690773708498246 0.060317787245441346 -0.058758522770949444 -0.0015592644744918916 -0.0022348858735439132 0.0 0.0
0.0 0.08073541137300916 0.0704043176051997 -0.06873747774605171 -0.0016668398591479794 -0.0021221542155976875 0.0 0.0
0.0 0.09015792966732752 0.07856191152840722 -0.07680220162810597 -0.00175970990030125 -0.0016117048973560988 0.0 0.0
0.0 0.09557059609364059 0.08338432381774379 -0.0815388897715412 -0.0018454340462026025 -0.001174462265412585 0.0 0.0
0.0 0.09557059609363945 0.08338432381774272 -0.08153888977154036 -0.001845434046202312 0.0011744622654147599 0.0 0.0
0.0 0.09015792966731968 0.07856191152840024 -0.07680220162809936 -0.0017597099003008613 0.0016117048973636906 0.0 0.0
0.0 0.08073541137299434 0.07040431760518659 -0.06873747774603932 -0.0016668398591472469 0.002122154215602815 0.0 0.0
0.0 0.06907737084980635 0.060317787245425 -0.058758522770934185 -0.0015592644744907966 0.002234885873547862 0.0 0.0
0.0 0.05667921870120943 0.049596580958658376 -0.048150330271165484 -0.0014462506874928904 0.002008760803379203 0.0 0.0
0.0 0.04485683141928417 0.03936538351545681 -0.038029396467280166 -0.0013359870481766424 0.0016549870903304585 0.0 0.0
0.0 0.034523719886113226 0.03038797131803656 -0.0291561340563248 -0.0012318372617117538 0.0013161904054890495 0.0 0.0
0.0 0.026028094457333648 0.022997029832740094 -0.021864354122729093 -0.0011326757100110032 0.0010408272994041642 0.0 0.0
0.0 0.01939829899795304 0.017161502167138316 -0.016127019164690854 -0.001034483002447457 0.0008145052161022978 0.0 0.0
0.0 0.014373496973160663 0.012652183041038252 -0.011719371018725378 -0.0009328120223128716 0.000637620613793206 0.0 0.0
0.0 0.010305847052365157 0.009172794470266421 -0.008348752772710737 -0.0008240416975556838 0.0005007170161620383 0.0 0.0
0.0 0.00713457355909296 0.006420626980207268 -0.005719727008151522 -0.0007008999720557463 0.0003717066313973616 0.0 0.0
0.0 0.004620162007403593 0.004207277419611709 -0.0036485406168211155 -0.0005587368027905926 0.0002626093155273038 0.0 0.0
0.0 0.0026679912077837483 0.0024564493077142585 -0.002061972505184169 -0.00039447680253008893 0.00017335022287795054 0.0 0.0
0.0 0.001229025157319792 0.0011425101838569898 -0.0009237289667325983 -0.00021878121712439117 9.593005697630249e-05 0.0 0.0
0.0 0.000461013315491493 0.00025216315555428345 -0.00019886385306081624 -5.329930249346719e-05 3.219345060712141e-05 0.0 0.0
0.0 5.9641978188708806e-05 -8.875124402905848e-06 6.771864164374632e-06 2.1032602385312055e-06 -1.0945643523635715e-06 0.0 0.0
0.0 3.342380937687491e-05 -4.754075055922566e-06 3.7731450314146314e-06 9.80930024507978e-07 -5.620332136057866e-07 0.0 0.0
0.0 0.00011470517855239904 2.872917292043065e-05 -1.965835587444485e-05 -9.070817045985996e-06 -3.6997033268902077e-05 0.0 0.0
0.0 0.007076673947618294 0.00529431530787952 -0.0056725973583508695 0.00037828205047134766 0.002896515522962503 0.0 0.0
0.0 0.00482079269172735 0.003377700585754787 -0.003810996453288789 0.0004332958675340022 -0.0031623910846539137 0.0 0.0
0.0 0.0 0.0 0.0 0.0 0.0 0.0 0.0
0.0 9.430826945183483e-08 -1.020951514236367e-08 7.758883502814768e-09 2.450631639548195e-09 3.6392644398315674e-09 0.0 0.0
0.0 2.818381018079643e-05 -3.8952448361751605e-06 2.9799769798241583e-06 9.152678563507688e-07 1.0878372165221707e-06 0.0 0.0
0.0 0.00024811820636710686 7.33873676054211e-05 -5.796600531453103e-05 -1.5421362290890105e-05 -2.2569551235229385e-05 0.0 0.0
0.0 0.000834426782445256 0.0007774463702936834 -0.0006215321885786275 -0.00015591418171505584 -0.00018079401652915968 0.0 0.0
0.0 0.0020940712369987534 0.0019257871024346133 -0.0015956505609776022 -0.0003301365414570109 -0.0003826669159006233 0.0 0.0
0.0 0.0038308810297551428 0.00348761797733164 -0.002988187110576572 -0.0004994308667550677 -0.0006101034032709325 0.0 0.0
0.0 0.006052321494145109 0.005460521179905596 -0.004813556947926991 -0.000646964231978603 -0.0008661173717635071 0.0 0.0
0.0 0.008837580098109827 0.00790147753077597 -0.007128512697307134 -0.0007729648334688357 -0.0011548532545052467 0.0 0.0
0.0 0.012372683158391644 0.010968137939205837 -0.010085722514614245 -0.0008824154245915865 -0.0014721101575747907 0.0 0.0
0.0 0.01700568325479035 0.014924220073616974 -0.013943389958683904 -0.0009808301149330742 -0.0018354592680187966 0.0 0.0
0.0 0.022811050583113966 0.020091933953766863 -0.019018393244571833 -0.001073540709195038 -0.0023272856038328038 0.0 0.0
0.0 0.03035400585360182 0.0267045303151015 -0.025538490413964728 -0.0011660399011367705 -0.0029790670766300506 0.0 0.0
0.0 0.0396683646117717 0.03479296072378218 -0.03353048284458541 -0.0012624778791967696 -0.003759572527395102 0.0 0.0
0.0 0.050341716875355616 0.044061961077758005 -0.042698170870380206 -0.0013637902073778104 -0.00456817471289513 0.0 0.0
0.0 0.061597793808087366 0.053827411639731634 -0.05236018474341779 -0.0014672268963138312 -0.00508918590880873 0.0 0.0
0.0 0.07227986956561383 0.06308127184441445 -0.06151428174909788 -0.0015669900953165677 -0.004914294261794202 0.0 0.0
0.0 0.08093678124157203 0.07059069264062698 -0.06893082115387489 -0.0016598714867520873 -0.003920837862693668 0.0 0.0
0.0 0.08600600571526737 0.07499860724082347 -0.07327430473212158 -0.001724302508701894 -0.0021777777326808896 0.0 0.0
0.0 0.0860060057152661 0.07499860724082211 -0.07327430473212061 -0.0017243025087014955 0.002177777732690773 0.0 0.0
0.0 0.08093678124156424 0.07059069264061996 -0.06893082115386809 -0.0016598714867518643 0.003920837862709963 0.0 0.0
0.0 0.07227986956560073 0.06308127184440283 -0.06151428174908641 -0.0015669900953164085 0.004914294261805745 0.0 0.0
0.0 0.06159779380807211 0.05382741163971788 -0.05236018474340478 -0.0014672268963130848 0.005089185908815894 0.0 0.0
0.0 0.0503417168753369 0.044061961077741706 -0.04269817087036434 -0.0013637902073773617 0.004568174712893016 0.0 0.0
0.0 0.03966836461175397 0.03479296072376642 -0.03353048284457054 -0.0012624778791958786 0.0037595725273951424 0.0 0.0
0.0 0.030354005853584366 0.026704530315085878 -0.025538490413950204 -0.0011660399011356579 0.0029790670766299144 0.0 0.0
0.0 0.022811050583092844 0.020091933953748264 -0.01901839324455389 -0.0010735407091943738 0.0023272856038321615 0.0 0.0
0.0 0.017005683254769907 0.014924220073598855 -0.013943389958666362 -0.0009808301149324874 0.001835459268015917 0.0 0.0
0.0 0.012372683158373306 0.010968137939189465 -0.010085722514598596 -0.0008824154245908657 0.0014721101575731633 0.0 0.0
0.0 0.008837580098093763 0.007901477530761352 -0.007128512697293272 -0.0007729648334680784 0.0011548532545019295 0.0 0.0
0.0 0.006052321494132458 0.005460521179893552 -0.00481355694791576 -0.0006469642319777914 0.0008661173717619739 0.0 0.0
0.0 0.0038308810297444087 0.0034876179773214184 -0.0029881871105673263 -0.0004994308667540914 0.0006101034032691351 0.0 0.0
0.0 0.002094071236991378 0.0019257871024272017 -0.0015956505609711967 -0.00033013654145600424 0.0003826669158992496 0.0 0.0
0.0 0.0008344267824409457 0.0007774463702896721 -0.0006215321885753464 -0.00015591418171432566 0.00018079401652820233 0.0 0.0
0.0 0.0002481182063650224 7.338736760441077e-05 -5.796600531373202e-05 -1.5421362290678855e-05 2.2569551234909894e-05 0.0 0.0
0.0 2.8183810180192382e-05 -3.895244836083742e-06 2.9799769797543107e-06 9.152678563295707e-07 -1.0878372164934148e-06 0.0 0.0
0.0 9.430826938068039e-08 -1.0209515134588993e-08 7.758883496907494e-09 2.4506316376819497e-09 -3.6392644370560787e-09 0.0 0.0
0.0 0.0 0.0 0.0 0.0 0.0 0.0 0.0
0.0 0.004820792691715573 0.003377700585747074 -0.0038109964532801527 0.0004332958675330787 0.003162391084641084 0.0 0.0
0.0 0.0034199261040902193 0.0022448760561612313 -0.00265013767055767 0.0004052616143964386 -0.002628286443845711 0.0 0.0
0.0 0.0 0.0 0.0 0.0 0.0 0.0 0.0
0.0 0.0 0.0 0.0 0.0 0.0 0.0 0.0
0.0 2.4307082921929654e-06 -2.7159244173351415e-07 2.053625051523891e-07 6.622993658110159e-08 1.4164277531911574e-07 0.0 0.0
0.0 8.79378266209336e-05 6.54434335056567e-06 -5.272128534789874e-06 -1.272214815775708e-06 -3.685726007711845e-06 0.0 0.0
0.0 0.0006207093848128632 0.00041252471455068533 -0.0003269493197955617 -8.557539475512318e-05 -0.00017125269236136441 0.0 0.0
0.0 0.0015433632245778527 0.0014082490197712548 -0.0011495313183970124 -0.0002587177013742421 -0.0004858461144508115 0.0 0.0
0.0 0.0030599839826789305 0.00277735855664218 -0.0023478160533107625 -0.0004295425033314167 -0.0008412243563203043 0.0 0.0
0.0 0.005012450363694145 0.004508759599951565 -0.003925662789856614 -0.0005830968100949519 -0.0012211887223618299 0.0 0.0
0.0 0.007438962813600076 0.006643791700691522 -0.005930186265655524 -0.000713605435035997 -0.001637749465879668 0.0 0.0
0.0 0.010522102288323508 0.00930912098020403 -0.008484673203970268 -0.0008244477762337602 -0.002099031653676447 0.0 0.0
0.0 0.014444019944061125 0.012738231219137558 -0.011816813038770153 -0.0009214181803674081 -0.0026280020187778213 0.0 0.0
0.0 0.019712377552209434 0.01722628631752739 -0.0162162299478112 -0.0010100563697161824 -0.00329987102574365 0.0 0.0
0.0 0.02629126549902288 0.023035233655528 -0.02193838039305134 -0.001096853262476661 -0.004223541244042395 0.0 0.0
0.0 0.034506710343910285 0.03020611452060041 -0.02902083095156216 -0.001185283569038249 -0.005373279963460215 0.0 0.0
0.0 0.04405606818697332 0.03848362835265886 -0.03720641495959029 -0.0012772133930685564 -0.006534415053491497 0.0 0.0
0.0 0.05418627570346543 0.04728438708774724 -0.04591368029335341 -0.001370706794393823 -0.007297985648163353 0.0 0.0
0.0 0.06385330078957131 0.05571679901076198 -0.05425256681797623 -0.0014642321927857342 -0.007149694557158949 0.0 0.0
0.0 0.07175406153512721 0.06262866649288942 -0.06107953011419899 -0.0015491363786903924 -0.005751424798547275 0.0 0.0
0.0 0.07647812226822075 0.06678201747612698 -0.06517680461671034 -0.0016052128594166372 -0.0029618124451773445 0.0 0.0
0.0 0.07647812226821894 0.06678201747612511 -0.06517680461670855 -0.0016052128594165646 0.002961812445192946 0.0 0.0
0.0 0.07175406153512173 0.06262866649288397 -0.06107953011419395 -0.0015491363786899848 0.0057514247985685305 0.0 0.0
0.0 0.06385330078955975 0.05571679901075137 -0.05425256681796588 -0.001464232192785455 0.007149694557173931 0.0 0.0
0.0 0.05418627570345211 0.047284387087735115 -0.0459136802933419 -0.0013707067943932053 0.007297985648171531 0.0 0.0
0.0 0.04405606818695978 0.03848362835264671 -0.037206414959579166 -0.0012772133930675426 0.0065344150534900475 0.0 0.0
0.0 0.03450671034389421 0.03020611452058619 -0.029020830951548515 -0.0011852835690376797 0.005373279963459842 0.0 0.0
0.0 0.026291265499005324 0.023035233655512598 -0.02193838039303632 -0.0010968532624762756 0.004223541244041531 0.0 0.0
0.0 0.019712377552194592 0.01722628631751391 -0.01621622994779874 -0.0010100563697151698 0.00329987102574278 0.0 0.0
0.0 0.014444019944044702 0.01273823121912282 -0.011816813038756516 -0.0009214181803663025 0.002628002018774857 0.0 0.0
0.0 0.010522102288306646 0.00930912098018858 -0.008484673203955628 -0.0008244477762329513 0.002099031653672762 0.0 0.0
0.0 0.007438962813585739 0.006643791700678276 -0.005930186265643021 -0.0007136054350352552 0.0016377494658751592 0.0 0.0
0.0 0.005012450363682672 0.004508759599940796 -0.003925662789846764 -0.000583096810094032 0.0012211887223593093 0.0 0.0
0.0 0.0030599839826703015 0.0027773585566338256 -0.0023478160533033877 -0.0004295425033304378 0.0008412243563178745 0.0 0.0
0.0 0.0015433632245713206 0.0014082490197648706 -0.0011495313183915775 -0.0002587177013732928 0.0004858461144489445 0.0 0.0
0.0 0.0006207093848085352 0.00041252471454733373 -0.00032694931979286384 -8.557539475446949e-05 0.00017125269236001428 0.0 0.0
0.0 8.793782661983745e-05 6.544343350291694e-06 -5.272128534568771e-06 -1.272214815722809e-06 3.685726007534456e-06 0.0 0.0
0.0 2.430708291709614e-06 -2.715924416780426e-07 2.0536250511018518e-07 6.622993656783338e-08 -1.4164277528895462e-07 0.0 0.0
0.0 0.0 0.0 0.0 0.0 0.0 0.0 0.0
0.0 0.0 0.0 0.0 0.0 0.0 0.0 0.0
0.0 0.003419926104079968 0.002244876056154226 -0.0026501376705497606 0.0004052616143955346 0.002628286443834271 0.0 0.0
0.0 0.0023801730217816496 0.0014772026830833498 -0.0018134845743581019 0.00033628189127475193 -0.001920671256821365 0.0 0.0
0.0 0.0 0.0 0.0 0.0 0.0 0.0 0.0
0.0 0.0 0.0 0.0 0.0 0.0 0.0 0.0
0.0 1.1217285375004458e-06 -1.148405540922369e-07 8.789999552340031e-08 2.6940558568849977e-08 1.165259803878264e-07 0.0 0.0
0.0 3.3235897924672987e-05 -1.964341623341612e-06 1.5159678178507895e-06 4.4837380549092364e-07 1.8978268518059937e-06 0.0 0.0
0.0 0.0003337206313755424 0.00017139780061535548 -0.00013487138058553125 -3.652642002982433e-05 -0.0001081402954004434 0.0 0.0
0.0 0.0010692720251918478 0.0009101870404785843 -0.0007321729816730101 -0.00017801405880557382 -0.00047576505398390785 0.0 0.0
0.0 0.0023212019041366945 0.002083279976992608 -0.0017335411286544568 -0.0003497388483381512 -0.0009455043736728451 0.0 0.0
0.0 0.004001236211443897 0.0035725561432345975 -0.0030658747514710058 -0.000506681391763592 -0.0014314200808643687 0.0 0.0
0.0 0.006074923679022983 0.005406915056115694 -0.00476451296487273 -0.0006424020912429625 -0.0019506483362040751 0.0 0.0
0.0 0.008695073759238838 0.0076822797649862065 -0.006925303048255794 -0.0007569767167304087 -0.002515725086240158 0.0 0.0
0.0 0.012075408835626439 0.010594476816929474 -0.009739468197187563 -0.0008550086197419108 -0.003163159102863249 0.0 0.0
0.0 0.01650865827334736 0.014418910134444417 -0.013478076721825992 -0.0009408334126184215 -0.003991796497216713 0.0 0.0
0.0 0.022322541095176413 0.01940557600492861 -0.01838237134158228 -0.0010232046633463288 -0.005084238166457449 0.0 0.0
0.0 0.02955944274166419 0.025624914057683676 -0.024520479483458577 -0.0011044345742250898 -0.006447534123572016 0.0 0.0
0.0 0.0377736155887457 0.032884596284986606 -0.03169838389148014 -0.0011862123935064562 -0.007877772223015703 0.0 0.0
0.0 0.04677607642454025 0.040697523709196305 -0.039427381650105585 -0.0012701420590907325 -0.008860566854001248 0.0 0.0
0.0 0.05547481206338057 0.048299567232519186 -0.046944607886447595 -0.0013549593460715917 -0.008781321848956216 0.0 0.0
0.0 0.0626924953480345 0.05466614975675952 -0.05323382135145104 -0.0014323284053084685 -0.007130246322359941 0.0 0.0
0.0 0.06715827551242987 0.05865342224700542 -0.05716933775538349 -0.0014840844916218885 -0.0036014889987173943 0.0 0.0
0.0 0.0671582755124284 0.058653422247003775 -0.05716933775538205 -0.0014840844916217271 0.003601488998735843 0.0 0.0
0.0 0.06269249534802909 0.05466614975675394 -0.05323382135144577 -0.0014323284053081623 0.007130246322384153 0.0 0.0
0.0 0.05547481206337096 0.04829956723251 -0.04694460788643863 -0.0013549593460713551 0.00878132184897355 0.0 0.0
0.0 0.04677607642452851 0.04069752370918546 -0.039427381650095114 -0.0012701420590903313 0.008860566854010276 0.0 0.0
0.0 0.03777361558873243 0.032884596284974935 -0.03169838389146905 -0.0011862123935058894 0.007877772223013946 0.0 0.0
0.0 0.029559442741651034 0.025624914057671935 -0.024520479483447606 -0.0011044345742243233 0.006447534123571316 0.0 0.0
0.0 0.02232254109516268 0.019405576004916165 -0.018382371341570763 -0.0010232046633454146 0.005084238166456829 0.0 0.0
0.0 0.016508658273333247 0.014418910134431544 -0.013478076721814032 -0.0009408334126175081 0.003991796497215002 0.0 0.0
0.0 0.012075408835611798 0.010594476816916104 -0.009739468197174882 -0.0008550086197412201 0.003163159102859635 0.0 0.0
0.0 0.008695073759225066 0.007682279764973433 -0.006925303048243847 -0.0007569767167295876 0.0025157250862358977 0.0 0.0
0.0 0.006074923679010544 0.005406915056104361 -0.004764512964862211 -0.0006424020912421469 0.001950648336198793 0.0 0.0
0.0 0.0040012362114340404 0.0035725561432253666 -0.0030658747514626257 -0.000506681391762741 0.0014314200808612366 0.0 0.0
0.0 0.002321201904129266 0.002083279976985572 -0.0017335411286482525 -0.0003497388483373191 0.0009455043736698058 0.0 0.0
0.0 0.0010692720251866475 0.000910187040473981 -0.0007321729816691916 -0.0001780140588047892 0.0004757650539818067 0.0 0.0
0.0 0.00033372063137246285 0.00017139780061372042 -0.0001348713805842329 -3.652642002948766e-05 0.00010814029539936009 0.0 0.0
0.0 3.323589792387738e-05 -1.964341623142849e-06 1.5159678176968506e-06 4.4837380544590056e-07 -1.8978268516423016e-06 0.0 0.0
0.0 1.1217285373393579e-06 -1.1484055407491507e-07 8.789999551013864e-08 2.6940558564774134e-08 -1.1652598037014098e-07 0.0 0.0
0.0 0.0 0.0 0.0 0.0 0.0 0.0 0.0
0.0 0.0 0.0 0.0 0.0 0.0 0.0 0.0
0.0 0.002380173021772884 0.0014772026830778013 -0.001813484574351652 0.00033628189127385026 0.0019206712568128493 0.0 0.0
0.0 0.001568640656719813 0.0009210642490001008 -0.0011711541158899706 0.00025008986688987 -0.0012632228950845371 0.0 0.0
0.0 0.0 0.0 0.0 0.0 0.0 0.0 0.0
0.0 0.0 0.0 0.0 0.0 0.0 0.0 0.0
0.0 0.0 0.0 0.0 0.0 0.0 0.0 0.0
0.0 1.307042252733348e-05 -1.5144320664227403e-06 1.1565989069580425e-06 3.5783315946465527e-07 1.954048149771195e-06 0.0 0.0
0.0 0.00013540052230112142 4.338127013351216e-05 -3.439756866224651e-05 -8.983701471265833e-06 -4.611405275635943e-05 0.0 0.0
0.0 0.0007282741464962641 0.00046909230870150934 -0.00037206549272078825 -9.702681598072083e-05 -0.00034728317022363455 0.0 0.0
0.0 0.001661122855656367 0.0014025121846744251 -0.0011451966279316134 -0.00025731555674281183 -0.0008864172051746144 0.0 0.0
0.0 0.0030273446248247323 0.0026604303478130475 -0.0022445063002983242 -0.00041592404751472195 -0.0014850508469759736 0.0 0.0
0.0 0.004765350073516833 0.004196071093394088 -0.0036395405120683744 -0.000556530581325713 -0.002083365702838344 0.0 0.0
0.0 0.006949061480185357 0.006091174974947802 -0.005414895645299714 -0.0006762793296480869 -0.002723680669572557 0.0 0.0
0.0 0.009741291009961 0.008503243727992233 -0.00772592455584806 -0.0007773191721441721 -0.0034464314653681427 0.0 0.0
0.0 0.01348833936986888 0.011671501517085516 -0.01080718069864683 -0.0008643208184386852 -0.004349138395301166 0.0 0.0
0.0 0.01827050863296052 0.015838530352298024 -0.014895636299927456 -0.0009428940523705681 -0.005559952035767342 0.0 0.0
0.0 0.024411284687538004 0.021090011901657286 -0.020072493863034058 -0.001017518038623225 -0.007050054252491277 0.0 0.0
0.0 0.031725747503311905 0.027291318066530908 -0.026199979753988776 -0.0010913383125421183 -0.008583248206433816 0.0 0.0
0.0 0.0394093447572022 0.03407551824844454 -0.03291117207471815 -0.0011643461737263926 -0.009721031963318723 0.0 0.0
0.0 0.04705382297382646 0.040825318284528615 -0.039586599890650866 -0.001238718393877747 -0.00978830672369855 0.0 0.0
0.0 0.05363404632236288 0.04667101449814379 -0.04536224086296363 -0.0013087736351801722 -0.008080315087714826 0.0 0.0
0.0 0.05792002909088062 0.050549676632010015 -0.04919127320456541 -0.0013584034274446138 -0.004122057770099239 0.0 0.0
0.0 0.05792002909087893 0.05054967663200816 -0.04919127320456348 -0.0013584034274446441 0.0041220577701185585 0.0 0.0
0.0 0.05363404632235694 0.046671014498137646 -0.04536224086295719 -0.0013087736351804504 0.008080315087739915 0.0 0.0
0.0 0.0470538229738183 0.04082531828452042 -0.03958659989064279 -0.001238718393877618 0.009788306723715938 0.0 0.0
0.0 0.039409344757192225 0.03407551824843506 -0.032911172074709075 -0.0011643461737259795 0.009721031963327676 0.0 0.0
0.0 0.03172574750330009 0.027291318066520506 -0.02619997975397873 -0.0010913383125417794 0.008583248206432238 0.0 0.0
0.0 0.02441128468752608 0.02109001190164665 -0.020072493863023864 -0.0010175180386227784 0.007050054252489944 0.0 0.0
0.0 0.018270508632947848 0.015838530352286835 -0.014895636299916616 -0.0009428940523702154 0.005559952035765476 0.0 0.0
0.0 0.013488339369856363 0.011671501517074058 -0.010807180698635944 -0.0008643208184381127 0.004349138395299046 0.0 0.0
0.0 0.009741291009948505 0.00850324372798081 -0.0077259245558374086 -0.0007773191721434004 0.003446431465363927 0.0 0.0
0.0 0.006949061480173199 0.006091174974936802 -0.005414895645289444 -0.000676279329647359 0.002723680669567307 0.0 0.0
0.0 0.004765350073506296 0.004196071093384865 -0.0036395405120600213 -0.000556530581324843 0.0020833657028320428 0.0 0.0
0.0 0.003027344624816613 0.0026604303478055175 -0.0022445063002916638 -0.0004159240475138537 0.0014850508469723598 0.0 0.0
0.0 0.0016611228556496173 0.0014025121846685392 -0.0011451966279266486 -0.0002573155567418904 0.0008864172051712289 0.0 0.0
0.0 0.000728274146491939 0.00046909230869833003 -0.00037206549271824867 -9.702681598008153e-05 0.00034728317022161083 0.0 0.0
0.0 0.0001354005222991378 4.3381270132684495e-05 -3.439756866158561e-05 -8.983701471098896e-06 4.611405275551236e-05 0.0 0.0
0.0 1.3070422526793627e-05 -1.5144320663617855e-06 1.156598906912083e-06 3.57833159449782e-07 -1.9540481496976023e-06 0.0 0.0
0.0 0.0 0.0 0.0 0.0 0.0 0.0 0.0
0.0 0.0 0.0 0.0 0.0 0.0 0.0 0.0
0.0 0.0 0.0 0.0 0.0 0.0 0.0 0.0
0.0 0.0015686406567126713 0.0009210642489958546 -0.0011711541158848998 0.0002500898668890447 0.0012632228950779588 0.0 0.0
0.0 0.0009205722208013432 0.0005168323948087509 -0.0006799473988310641 0.00016311500402231314 -0.0007310396266354275 0.0 0.0
0.0 0.0 0.0 0.0 0.0 0.0 0.0 0.0
0.0 0.0 0.0 0.0 0.0 0.0 0.0 0.0
0.0 0.0 0.0 0.0 0.0 0.0 0.0 0.0
0.0 1.0042081989473157e-05 -9.329724215854319e-07 7.201815348631364e-07 2.1279088672229382e-07 1.7612736881375419e-06 0.0 0.0
0.0 4.6405733246360846e-05 1.9540237039144866e-05 -1.5405417530714954e-05 -4.134819508429885e-06 -3.0437564809628592e-05 0.0 0.0
0.0 0.00034219887265876366 0.0001964788987094287 -0.00015424811610114574 -4.223078260828275e-05 -0.0002166635896919161 0.0 0.0
0.0 0.0010679768399210862 0.0007896748161965419 -0.0006326011430357483 -0.0001570736731607939 -0.0006919364332056799 0.0 0.0
0.0 0.0021387951121192438 0.001772798671447565 -0.0014641268523055816 -0.0003086718191419828 -0.001338485064905958 0.0 0.0
0.0 0.0035191790134273676 0.0030216055247023962 -0.0025699658788166228 -0.00045163964588577286 -0.002020611021765078 0.0 0.0
0.0 0.005257915097555414 0.004544416532582687 -0.00396813109741363 -0.0005762854351690571 -0.002705599561344745 0.0 0.0
0.0 0.0075068973508160145 0.006470876688028923 -0.005787391848129788 -0.000683484839899136 -0.003464313566689513 0.0 0.0
0.0 0.010479376507798042 0.00900146687104938 -0.008226746202114426 -0.0007747206689349529 -0.00440029039449499 0.0 0.0
0.0 0.014426065538652534 0.012347425592929766 -0.01149365865432658 -0.0008537669386031797 -0.005615512800775657 0.0 0.0
0.0 0.019505243683420215 0.016619498035872357 -0.015695547635216175 -0.0009239504006561799 -0.007124180729455102 0.0 0.0
0.0 0.02535597770087829 0.02174626799554428 -0.02075682023454368 -0.000989447761000602 -0.008711588606280265 0.0 0.0
0.0 0.03205290111101104 0.02744781730546119 -0.026395241639618677 -0.0010525756658425096 -0.009900616160304831 0.0 0.0
0.0 0.038749404222074714 0.03328886518956935 -0.032173833185650605 -0.0011150320039187273 -0.01010037116365417 0.0 0.0
0.0 0.04451699556703477 0.03860253641623561 -0.03742584142811347 -0.0011766949881221217 -0.008558210275945543 0.0 0.0
0.0 0.048664534957344616 0.04240994326707659 -0.04118423864671916 -0.0012257046203574234 -0.004523513190628931 0.0 0.0
0.0 0.0486645349573426 0.042409943267074444 -0.04118423864671688 -0.0012257046203575748 0.004523513190647053 0.0 0.0
0.0 0.04451699556703121 0.038602536416231056 -0.03742584142810908 -0.0011766949881219931 0.00855821027596941 0.0 0.0
0.0 0.038749404222069406 0.03328886518956316 -0.03217383318564504 -0.0011150320039181201 0.010100371163671157 0.0 0.0
0.0 0.03205290111100438 0.027447817305454522 -0.02639524163961259 -0.0010525756658419138 0.009900616160312514 0.0 0.0
0.0 0.025355977700867834 0.02174626799553517 -0.020756820234534963 -0.0009894477610001944 0.008711588606278391 0.0 0.0
0.0 0.01950524368340957 0.01661949803586293 -0.015695547635207207 -0.0009239504006557248 0.007124180729452274 0.0 0.0
0.0 0.014426065538643718 0.012347425592921622 -0.011493658654318954 -0.0008537669386026697 0.005615512800774422 0.0 0.0
0.0 0.010479376507788749 0.009001466871040935 -0.008226746202106467 -0.0007747206689344641 0.004400290394493299 0.0 0.0
0.0 0.007506897350806795 0.0064708766880207675 -0.005787391848122365 -0.000683484839898404 0.003464313566685485 0.0 0.0
0.0 0.0052579150975460365 0.004544416532574326 -0.00396813109740608 -0.0005762854351682445 0.002705599561340047 0.0 0.0
0.0 0.003519179013417348 0.00302160552469366 -0.0025699658788086756 -0.00045163964588498383 0.0020206110217582136 0.0 0.0
0.0 0.0021387951121119974 0.001772798671441042 -0.0014641268522998516 -0.0003086718191411902 0.0013384850649017094 0.0 0.0
0.0 0.0010679768399157606 0.0007896748161922943 -0.0006326011430322135 -0.0001570736731600806 0.0006919364332021911 0.0 0.0
0.0 0.0003421988726566111 0.00019647889870829342 -0.00015424811610024742 -4.223078260804604e-05 0.00021666358969071127 0.0 0.0
0.0 4.64057332455833e-05 1.9540237039269045e-05 -1.5405417530814453e-05 -4.134819508454643e-06 3.043756480981269e-05 0.0 0.0
0.0 1.0042081989081814e-05 -9.329724215460563e-07 7.201815348328094e-07 2.127908867132563e-07 -1.7612736880608109e-06 0.0 0.0
0.0 0.0 0.0 0.0 0.0 0.0 0.0 0.0
0.0 0.0 0.0 0.0 0.0 0.0 0.0 0.0
0.0 0.0 0.0 0.0 0.0 0.0 0.0 0.0
0.0 0.0009205722207962188 0.000516832394805905 -0.0006799473988275487 0.00016311500402164353 0.0007310396266310818 0.0 0.0
0.0 0.0004751367123496995 0.00023705597938863398 -0.00032090919950380006 8.385322011516604e-05 -0.00034443914593898457 0.0 0.0
0.0 0.0 0.0 0.0 0.0 0.0 0.0 0.0
0.0 0.0 0.0 0.0 0.0 0.0 0.0 0.0
0.0 0.0 0.0 0.0 0.0 0.0 0.0 0.0
0.0 3.1613189767086014e-06 -2.2524151938286448e-07 1.7083701737073144e-07 5.440450201212877e-08 5.898380239102724e-07 0.0 0.0
0.0 2.8312268446344963e-05 -2.624625550510101e-06 2.0167270641531398e-06 6.07898486356934e-07 5.886962670661147e-06 0.0 0.0
0.0 0.00013672958826905457 5.978512376986719e-05 -4.714402127426893e-05 -1.2641102495598261e-05 -0.00010850822780105117 0.0 0.0
0.0 0.0005455913703306098 0.0003399566292125546 -0.0002678584711080687 -7.209815810448559e-05 -0.00043799820474951724 0.0 0.0
0.0 0.0013131095302934789 0.000965216837143533 -0.0007780879985105882 -0.00018712883863294445 -0.0010046752383202576 0.0 0.0
0.0 0.002345362074510994 0.001895855973137889 -0.0015722063812931757 -0.00032364959184471377 -0.0017123406286366273 0.0 0.0
0.0 0.0036599669104567956 0.0030547187887947583 -0.002605362938612521 -0.0004493558501822367 -0.002445493349064352 0.0 0.0
0.0 0.005360140856295922 0.004510458815034454 -0.003947034634484751 -0.0005634241805497043 -0.003209325750558735 0.0 0.0
0.0 0.007637396858746297 0.006419641640232513 -0.005756952180575576 -0.0006626894596569339 -0.004117845071239268 0.0 0.0
0.0 0.010633947151628999 0.008963488338526606 -0.00821592375234891 -0.0007475645861776927 -0.005277222513926155 0.0 0.0
0.0 0.01455237841377145 0.012251098822623062 -0.011433865958354831 -0.0008172328642682295 -0.006694306714453421 0.0 0.0
0.0 0.019306521470857346 0.01627012277296574 -0.015391532914259126 -0.0008785898587066084 -0.008195158567435433 0.0 0.0
0.0 0.024588945083904214 0.020850486203307005 -0.019918045422832147 -0.0009324407804748642 -0.009401285541765716 0.0 0.0
0.0 0.03012664587243767 0.02571230053721201 -0.024730191483197484 -0.0009821090540145393 -0.00975273108071818 0.0 0.0
0.0 0.03544630911425607 0.030422095126249257 -0.02938871378527532 -0.0010333813409739243 -0.008533412222680743 0.0 0.0
0.0 0.039534369068989744 0.03416628344683258 -0.03308304609784071 -0.0010832373489918698 -0.004788159059278882 0.0 0.0
0.0 0.039534369068988294 0.034166283446830724 -0.03308304609783912 -0.0010832373489916155 0.004788159059295116 0.0 0.0
0.0 0.03544630911425294 0.030422095126245004 -0.0293887137852712 -0.0010333813409737942 0.008533412222702482 0.0 0.0
0.0 0.03012664587243298 0.025712300537206436 -0.024730191483191888 -0.0009821090540145434 0.009752731080733462 0.0 0.0
0.0 0.024588945083898466 0.020850486203301138 -0.01991804542282665 -0.0009324407804744918 0.009401285541770877 0.0 0.0
0.0 0.019306521470849897 0.016270122772959084 -0.015391532914252996 -0.0008785898587060834 0.00819515856743347 0.0 0.0
0.0 0.014552378413763565 0.012251098822616177 -0.011433865958348353 -0.0008172328642678247 0.006694306714450466 0.0 0.0
0.0 0.010633947151622424 0.008963488338520684 -0.008215923752343313 -0.0007475645861773669 0.005277222513924441 0.0 0.0
0.0 0.007637396858739541 0.00641964164022624 -0.00575695218056984 -0.0006626894596563991 0.004117845071238033 0.0 0.0
0.0 0.005360140856287884 0.004510458815027293 -0.0039470346344783035 -0.0005634241805489896 0.003209325750554606 0.0 0.0
0.0 0.0036599669104492895 0.003054718788788385 -0.0026053629386067955 -0.000449355850181589 0.0024454933490593335 0.0 0.0
0.0 0.0023453620745041196 0.0018958559731322858 -0.001572206381288432 -0.00032364959184385346 0.0017123406286307828 0.0 0.0
0.0 0.001313109530288051 0.0009652168371393757 -0.0007780879985071615 -0.00018712883863221383 0.0010046752383167526 0.0 0.0
0.0 0.000545591370327568 0.00033995662921062786 -0.0002678584711065814 -7.2098158104047e-05 0.00043799820474742067 0.0 0.0
0.0 0.00013672958826800767 5.978512376961118e-05 -4.714402127407249e-05 -1.2641102495538566e-05 0.00010850822780064017 0.0 0.0
0.0 2.831226844571923e-05 -2.624625550448839e-06 2.016727064106426e-06 6.078984863424712e-07 -5.886962670532502e-06 0.0 0.0
0.0 3.161318976189613e-06 -2.2524151934812776e-07 1.7083701734378719e-07 5.4404502004334224e-08 -5.898380238126453e-07 0.0 0.0
0.0 0.0 0.0 0.0 0.0 0.0 0.0 0.0
0.0 0.0 0.0 0.0 0.0 0.0 0.0 0.0
0.0 0.0 0.0 0.0 0.0 0.0 0.0 0.0
0.0 0.0004751367123461596 0.00023705597938698724 -0.00032090919950166933 8.385322011468207e-05 0.0003444391459364819 0.0 0.0
0.0 0.00019571954426332228 6.827277071972318e-05 -9.543056428151077e-05 2.7157793561787823e-05 -9.899820797978317e-05 0.0 0.0
0.0 0.0 0.0 0.0 0.0 0.0 0.0 0.0
0.0 0.0 0.0 0.0 0.0 0.0 0.0 0.0
0.0 0.0 0.0 0.0 0.0 0.0 0.0 0.0
0.0 2.941446764786285e-06 -1.3952363807393717e-07 1.0592787567314353e-07 3.3595762400780106e-08 5.885360677433528e-07 0.0 0.0
0.0 1.7669296667986072e-05 -7.516866508126496e-07 5.982823322862681e-07 1.5340431852638127e-07 2.9677766061675946e-06 0.0 0.0
0.0 7.043982809917115e-05 2.0552115196991424e-05 -1.5969219074168314e-05 -4.582896122823129e-06 -5.5284370845477246e-05 0.0 0.0
0.0 0.00022388476654782165 0.00010158392358568893 -7.942533028196795e-05 -2.215859330372101e-05 -0.0002230003401404243 0.0 0.0
0.0 0.0006324792123153409 0.00034823382883545555 -0.0002747280586288773 -7.350577020657806e-05 -0.0005749457842522747 0.0 0.0
0.0 0.001229369582489674 0.0008929002635090379 -0.0007181165421590157 -0.00017478372135002214 -0.0011829191057795493 0.0 0.0
0.0 0.0022107617890938813 0.0016541344370292438 -0.0013668000414189575 -0.00028733439561028535 -0.0018787132871828443 0.0 0.0
0.0 0.003350238530120339 0.0026502800825293875 -0.0022489328938047064 -0.00040134718872468023 -0.0026363813049538193 0.0 0.0
0.0 0.004901238742340161 0.003959397453821079 -0.0034498294541206146 -0.0005095679997004617 -0.0034927579923963955 0.0 0.0
0.0 0.0070230592413464245 0.0057163270264682115 -0.005110686730154929 -0.0006056402963132808 -0.004526354917602972 0.0 0.0
0.0 0.009862142648573956 0.00802632679063252 -0.007341129462970008 -0.0006851973276625132 -0.0057588399214173495 0.0 0.0
0.0 0.013318743130617924 0.0109161978860164 -0.010169075104134681 -0.0007471227818817169 -0.007079833959233417 0.0 0.0
0.0 0.017379429369597046 0.014324680072557676 -0.013526967416176216 -0.0007977126563814619 -0.00817977296631061 0.0 0.0
0.0 0.021649579145505957 0.01812267450371185 -0.0172840460230538 -0.0008386284806580471 -0.008645277155223348 0.0 0.0
0.0 0.02600370339480681 0.02211446124303923 -0.02124053736510026 -0.0008739238779389592 -0.007936637698954892 0.0 0.0
0.0 0.029883675551633414 0.025760139320221254 -0.024837380894300418 -0.0009227584259208322 -0.004893265347727664 0.0 0.0
0.0 0.029883675551632176 0.025760139320219706 -0.024837380894298565 -0.0009227584259211335 0.004893265347739974 0.0 0.0
0.0 0.02600370339480497 0.022114461243036194 -0.021240537365097005 -0.0008739238779391886 0.007936637698971974 0.0 0.0
0.0 0.021649579145502376 0.01812267450370724 -0.01728404602304953 -0.0008386284806577123 0.008645277155234977 0.0 0.0
0.0 0.017379429369592494 0.014324680072552998 -0.013526967416172084 -0.0007977126563809108 0.008179772966314131 0.0 0.0
0.0 0.013318743130612341 0.010916197886011642 -0.010169075104130402 -0.0007471227818812387 0.007079833959231013 0.0 0.0
0.0 0.009862142648568117 0.008026326790627675 -0.007341129462965457 -0.0006851973276622162 0.005758839921414353 0.0 0.0
0.0 0.00702305924134135 0.005716327026463767 -0.00511068673015084 -0.0006056402963129261 0.004526354917601559 0.0 0.0
0.0 0.004901238742335943 0.003959397453817279 -0.003449829454117164 -0.0005095679997001146 0.003492757992394819 0.0 0.0
0.0 0.0033502385301155757 0.0026502800825253586 -0.002248932893801125 -0.00040134718872423365 0.0026363813049507514 0.0 0.0
0.0 0.002210761789088992 0.0016541344370252988 -0.001366800041415653 -0.00028733439560964507 0.001878713287178827 0.0 0.0
0.0 0.0012293695824846453 0.0008929002635055217 -0.0007181165421561216 -0.00017478372134940016 0.0011829191057749551 0.0 0.0
0.0 0.0006324792123123608 0.00034823382883356264 -0.0002747280586273327 -7.350577020623013e-05 0.0005749457842497937 0.0 0.0
0.0 0.0002238847665462312 0.00010158392358493712 -7.942533028136765e-05 -2.2158593303569404e-05 0.00022300034013901873 0.0 0.0
0.0 7.043982809832772e-05 2.055211519681009e-05 -1.5969219074022336e-05 -4.582896122787786e-06 5.5284370844990324e-05 0.0 0.0
0.0 1.7669296667551683e-05 -7.516866507832302e-07 5.982823322629761e-07 1.5340431852027625e-07 -2.9677766060560353e-06 0.0 0.0
0.0 2.9414467642801842e-06 -1.3952363805020315e-07 1.0592787565476392e-07 3.359576239544616e-08 -5.885360676368125e-07 0.0 0.0
0.0 0.0 0.0 0.0 0.0 0.0 0.0 0.0
0.0 0.0 0.0 0.0 0.0 0.0 0.0 0.0
0.0 0.0 0.0 0.0 0.0 0.0 0.0 0.0
0.0 0.0001957195442614113 6.82727707192261e-05 -9.543056428079543e-05 2.7157793561569536e-05 9.899820797925341e-05 0.0 0.0
0.0 3.849306805609163e-05 9.189366805485755e-06 -1.3125141830869224e-05 3.935775025383505e-06 -1.5299819312127654e-05 0.0 0.0
0.0 1.4400916003026536e-06 -2.7346095156755166e-09 6.875531269007884e-09 -4.140921753331782e-09 3.1032020112471557e-07 0.0 0.0
0.0 0.0 0.0 0.0 0.0 0.0 0.0 0.0
0.0 0.0 0.0 0.0 0.0 0.0 0.0 0.0
0.0 3.0628381032312882e-06 -6.90575449801798e-08 5.370267077264668e-08 1.5354874207528902e-08 6.580753880870616e-07 0.0 0.0
0.0 1.669848219022137e-05 -6.754141313248215e-07 5.129785862136518e-07 1.624355451111653e-07 4.126874192703304e-06 0.0 0.0
0.0 4.4414743557217234e-05 5.035214949418828e-06 -3.952768140186888e-06 -1.0824468092319046e-06 -2.3804442517818237e-05 0.0 0.0
0.0 0.00010933910473599782 3.6918079191293735e-05 -2.889549418751975e-05 -8.022585003774002e-06 -0.0001506796877588488 0.0 0.0
0.0 0.00025796220219543523 8.812152156220761e-05 -6.928307950252782e-05 -1.8838442059679777e-05 -0.00029480687414784953 0.0 0.0
0.0 0.000491265976269742 0.0002207781568890159 -0.00017336843470046445 -4.7409722188551385e-05 -0.0005967028399147129 0.0 0.0
0.0 0.0008785601365149645 0.0005137268428746278 -0.0004076867881751886 -0.00010604005469943893 -0.001084836445435002 0.0 0.0
0.0 0.001563919298765758 0.000995559954688923 -0.0008076609390773519 -0.00018789901561157106 -0.0017110788325058828 0.0 0.0
0.0 0.0024809750997399353 0.0017004125568952436 -0.0014149826605611578 -0.0002854298963340855 -0.0024901454042966144 0.0 0.0
0.0 0.003752961013564034 0.0026884512836672352 -0.0023007025287741516 -0.0003877487548930839 -0.0033866805060414925 0.0 0.0
0.0 0.005455471939018729 0.004031688883271772 -0.0035492223107029507 -0.00048246657256882154 -0.004399473321669744 0.0 0.0
0.0 0.0076246683875725455 0.005776488082401409 -0.005216590584888039 -0.0005598974975133719 -0.00547271858578118 0.0 0.0
0.0 0.010324294295419445 0.007966028291121918 -0.0073480838972386905 -0.0006179443938832273 -0.006448124040952127 0.0 0.0
0.0 0.01342194208370209 0.010620506477628326 -0.009953336112691315 -0.000667170364937018 -0.006939728154901184 0.0 0.0
0.0 0.016863719724533918 0.013711881666522471 -0.013018104984243505 -0.0006937766822789715 -0.006661781663322148 0.0 0.0
0.0 0.020391659145464296 0.0171148185844883 -0.016383190502346892 -0.0007316280821414024 -0.004728064784597181 0.0 0.0
0.0 0.020391659145463193 0.017114818584486755 -0.01638319050234526 -0.0007316280821414971 0.0047280647846058045 0.0 0.0
0.0 0.016863719724534244 0.01371188166652112 -0.01301810498424227 -0.0006937766822788423 0.00666178166333612 0.0 0.0
0.0 0.013421942083701807 0.010620506477626471 -0.00995333611268984 -0.0006671703649366278 0.006939728154910942 0.0 0.0
0.0 0.01032429429541697 0.007966028291119311 -0.007348083897236395 -0.0006179443938829152 0.006448124040953772 0.0 0.0
0.0 0.0076246683875688965 0.005776488082398873 -0.0052165905848857745 -0.0005598974975130981 0.005472718585777969 0.0 0.0
0.0 0.005455471939016481 0.004031688883270233 -0.0035492223107016162 -0.00048246657256861727 0.004399473321667435 0.0 0.0
0.0 0.0037529610135631233 0.0026884512836662378 -0.0023007025287734117 -0.00038774875489282575 0.003386680506041388 0.0 0.0
0.0 0.0024809750997390675 0.0017004125568942782 -0.0014149826605604817 -0.00028542989633379594 0.0024901454042960736 0.0 0.0
0.0 0.0015639192987634105 0.000995559954687251 -0.0008076609390761388 -0.0001878990156111118 0.0017110788325040353 0.0 0.0
0.0 0.0008785601365119701 0.0005137268428727713 -0.00040768678817370614 -0.00010604005469906511 0.0010848364454319366 0.0 0.0
0.0 0.0004912659762671259 0.00022077815688792163 -0.0001733684346996 -4.740972218832161e-05 0.0005967028399117449 0.0 0.0
0.0 0.00025796220219446135 8.812152156184388e-05 -6.928307950224732e-05 -1.8838442059596537e-05 0.0002948068741467375 0.0 0.0
0.0 0.00010933910473518119 3.691807919107876e-05 -2.8895494187352485e-05 -8.022585003726265e-06 0.00015067968775806157 0.0 0.0
0.0 4.441474355665098e-05 5.035214949339865e-06 -3.952768140122475e-06 -1.0824468092173602e-06 2.3804442517445197e-05 0.0 0.0
0.0 1.6698482189740015e-05 -6.75414131304937e-07 5.129785861990805e-07 1.624355451058679e-07 -4.126874192569552e-06 0.0 0.0
0.0 3.062838102718457e-06 -6.905754496692381e-08 5.3702670762761436e-08 1.535487420416051e-08 -6.580753879724068e-07 0.0 0.0
0.0 0.0 0.0 0.0 0.0 0.0 0.0 0.0
0.0 0.0 0.0 0.0 0.0 0.0 0.0 0.0
0.0 1.4400916000511405e-06 -2.73460951517716e-09 6.875531267752462e-09 -4.140921752574773e-09 -3.103202010671923e-07 0.0 0.0
0.0 3.84930680552081e-05 9.189366805427491e-06 -1.312514183078385e-05 3.935775025356365e-06 1.5299819312070354e-05 0.0 0.0
0.0 6.935391212696482e-06 -5.308503336792089e-07 7.686070645854844e-07 -2.3775673090626943e-07 1.0491407281428561e-06 0.0 0.0
0.0 2.1979396482406107e-06 1.1868574056845524e-09 1.0883559240507842e-08 -1.207041664619258e-08 4.588111399241068e-07 0.0 0.0
0.0 8.28283976103979e-07 8.757322001854407e-09 -7.994197467743662e-09 -7.631245341108108e-10 1.6872916499049268e-07 0.0 0.0
0.0 1.0341171999299922e-06 3.4830124123105497e-09 -4.631541757330647e-09 1.1485293450206947e-09 2.129476539670559e-07 0.0 0.0
0.0 5.455561020512527e-06 -1.877319191668789e-08 9.400339741409076e-09 9.372852175272426e-09 1.2338249442580408e-06 0.0 0.0
0.0 1.2649162497038722e-05 -1.4081635774303978e-07 1.0163524973800948e-07 3.918110800504046e-08 3.1244596390103373e-06 0.0 0.0
0.0 3.016563323866015e-05 1.5704715534636176e-06 -1.2306980907737542e-06 -3.397734626898647e-07 -2.391904415194531e-05 0.0 0.0
0.0 9.450714835217354e-05 6.276719405006533e-06 -4.883861403854926e-06 -1.3928580011515705e-06 -7.541871355093367e-05 0.0 0.0
0.0 0.00015896849325524595 2.07402917238559e-05 -1.620652116779795e-05 -4.533770556057966e-06 -0.00020942912592555253 0.0 0.0
0.0 0.0002958612743337791 4.153059943383954e-05 -3.2486282184228384e-05 -9.044317249611132e-06 -0.0003573923264361573 0.0 0.0
0.0 0.000390053845896747 8.334819065419491e-05 -6.572761190920282e-05 -1.762057874499208e-05 -0.0006469481561237008 0.0 0.0
0.0 0.0006087438670564042 0.00014230323625296986 -0.00011326019402433591 -2.9043042228633902e-05 -0.0010026667253565475 0.0 0.0
0.0 0.0009264107848175219 0.00024095213282935858 -0.00019323615755906226 -4.771597527029632e-05 -0.0015146151248621258 0.0 0.0
0.0 0.001436928509847856 0.000434244335982072 -0.00034958333293234726 -8.466100304972458e-05 -0.00223995232518158 0.0 0.0
0.0 0.002154013791741112 0.0007657461080736484 -0.0006223308150824241 -0.00014341529299122393 -0.0031851944285484755 0.0 0.0
0.0 0.003110252669523328 0.0012621286337793753 -0.0010460306723274508 -0.00021609796145192432 -0.004266404920851553 0.0 0.0
0.0 0.004415190152781594 0.002127524997553713 -0.0018431990053553154 -0.0002843259921983974 -0.005303152415706545 0.0 0.0
0.0 0.006148853363939588 0.0035518378548019145 -0.0031913690596583767 -0.0003604687951435368 -0.005860173600177776 0.0 0.0
0.0 0.008310405125950836 0.005570995575502998 -0.005130202661219506 -0.00044079291428349274 -0.005553256387917855 0.0 0.0
0.0 0.011092536780633475 0.00832807869255027 -0.007875121366776523 -0.00045295732577374184 -0.004488880809836237 0.0 0.0
0.0 0.011092536780634382 0.00832807869255055 -0.007875121366776957 -0.0004529573257735928 0.004488880809841413 0.0 0.0
0.0 0.0083104051259525 0.005570995575502772 -0.005130202661219426 -0.0004407929142833432 0.005553256387927648 0.0 0.0
0.0 0.0061488533639385175 0.0035518378547998502 -0.0031913690596563154 -0.00036046879514353296 0.005860173600183329 0.0 0.0
0.0 0.00441519015277843 0.002127524997551459 -0.0018431990053529592 -0.0002843259921984994 0.00530315241570525 0.0 0.0
0.0 0.0031102526695211677 0.0012621286337782208 -0.0010460306723263334 -0.00021609796145188724 0.004266404920848729 0.0 0.0
0.0 0.0021540137917386744 0.0007657461080725033 -0.000622330815081532 -0.0001434152929909711 0.003185194428545626 0.0 0.0
0.0 0.0014369285098469 0.00043424433598175763 -0.00034958333293207686 -8.466100304968088e-05 0.0022399523251804706 0.0 0.0
0.0 0.0009264107848167081 0.00024095213282909457 -0.0001932361575588622 -4.7715975270232337e-05 0.0015146151248608118 0.0 0.0
0.0 0.0006087438670550056 0.00014230323625270824 -0.00011326019402410064 -2.904304222860766e-05 0.0010026667253541816 0.0 0.0
0.0 0.000390053845895778 8.334819065404433e-05 -6.57276119091046e-05 -1.7620578744939692e-05 0.0006469481561219804 0.0 0.0
0.0 0.0002958612743323135 4.153059943365975e-05 -3.248628218407763e-05 -9.044317249582077e-06 0.0003573923264341632 0.0 0.0
0.0 0.0001589684932546967 2.0740291723797477e-05 -1.62065211677534e-05 -4.533770556044043e-06 0.00020942912592488534 0.0 0.0
0.0 9.450714835177376e-05 6.276719404981256e-06 -4.883861403843277e-06 -1.3928580011379752e-06 7.541871355052783e-05 0.0 0.0
0.0 3.0165633238217322e-05 1.570471553452903e-06 -1.23069809076689e-06 -3.397734626860031e-07 2.3919044151778397e-05 0.0 0.0
0.0 1.264916249658675e-05 -1.4081635773777134e-07 1.0163524973414598e-07 3.918110800362112e-08 -3.1244596388847664e-06 0.0 0.0
0.0 5.4555610200182124e-06 -1.87731919147807e-08 9.400339740515117e-09 9.372852174262189e-09 -1.2338249441362645e-06 0.0 0.0
0.0 1.0341171994111593e-06 3.4830124097744975e-09 -4.63154175459075e-09 1.1485293448161685e-09 -2.1294765385734702e-07 0.0 0.0
0.0 8.282839756553083e-07 8.757321996808003e-09 -7.99419746324245e-09 -7.631245335657651e-10 -1.687291648967851e-07 0.0 0.0
0.0 2.1979396476663126e-06 1.1868574058352821e-09 1.0883559236708018e-08 -1.2070416642541689e-08 -4.588111397997392e-07 0.0 0.0
0.0 6.935391212284314e-06 -5.308503336477984e-07 7.686070645394778e-07 -2.377567308917246e-07 -1.0491407280822435e-06 0.0 0.0
0.0 0.0 0.0 0.0 0.0 0.0 0.0 0.0
0.0 1.5971963968563867e-06 7.306232394266291e-09 1.5907871128751353e-11 -7.3221402653941854e-09 3.445150364301259e-07 0.0 0.0
0.0 1.006612653282911e-06 1.8800037151531995e-08 -1.6160969127413305e-08 -2.6390680241173787e-09 2.0557945423080885e-07 0.0 0.0
0.0 1.3830639415008088e-06 2.5459537940910303e-08 -2.257136934973081e-08 -2.8881685911793595e-09 2.8364822182210734e-07 0.0 0.0
0.0 6.329568723119171e-06 1.2100159608371412e-07 -9.95749289913299e-08 -2.1426667092374816e-08 1.450807040856032e-06 0.0 0.0
0.0 1.6603222805893222e-05 2.923750411414829e-07 -2.3536244238636934e-07 -5.701259875511966e-08 4.230645678701024e-06 0.0 0.0
0.0 3.1293161851465796e-05 -1.6214417086826115e-06 1.2913218143144184e-06 3.3011989436818186e-07 -2.3471315798881748e-05 0.0 0.0
0.0 9.455147404066856e-05 -6.237977623796411e-06 4.8520364483487035e-06 1.3859411754476693e-06 -7.532374892422198e-05 0.0 0.0
0.0 0.00015858557855879662 -2.0558255111070888e-05 1.6047697859532345e-05 4.510557251538513e-06 -0.00020909064559542265 0.0 0.0
0.0 0.00029553692328891006 -4.1339798553700547e-05 3.2307854200460346e-05 9.031944353240284e-06 -0.0003571291298631749 0.0 0.0
0.0 0.00039095303104002833 -8.296133650261571e-05 6.543320204571331e-05 1.7528134456902334e-05 -0.000646412987415819 0.0 0.0
0.0 0.0006086878732436555 -0.0001422859282224472 0.00011340247841875053 2.8883449803696634e-05 -0.0010022857147802874 0.0 0.0
0.0 0.000927062942262974 -0.00024289980236279207 0.0001954547273252372 4.744507503755491e-05 -0.0015136517697972418 0.0 0.0
0.0 0.0014426544105106793 -0.0004407827637702888 0.00035481360274874484 8.596916102154376e-05 -0.002240654546157596 0.0 0.0
0.0 0.0021528850344452377 -0.0007521145673715431 0.0006048036610040927 0.00014731090636744998 -0.0031996021473637967 0.0 0.0
0.0 0.0030332021772497544 -0.0010928791212951976 0.0008757594203589784 0.00021711970093621873 -0.004324545338185968 0.0 0.0
0.0 0.003934720352690979 -0.001319294077478166 0.001044963725981715 0.0002743303514964504 -0.005598389130257492 0.0 0.0
0.0 0.004714534804758955 -0.0011825028977315904 0.0008841748059723543 0.0002983280917592359 -0.006957264707655108 0.0 0.0
0.0 0.005007162370384082 -0.000519230380716535 0.0003200190709361416 0.00019921130978039285 -0.00800354657999152 0.0 0.0
0.0 0.004611768519822042 0.00103822222912292 -0.001108641133584146 7.04189044612265e-05 -0.006758355974425867 0.0 0.0
0.0 0.004611768519825236 0.001038222229123229 -0.001108641133584571 7.041890446134134e-05 0.006758355974432329 0.0 0.0
0.0 0.0050071623703872485 -0.000519230380716751 0.00032001907093627205 0.0001992113097804784 0.008003546579997953 0.0 0.0
0.0 0.004714534804759743 -0.0011825028977312376 0.0008841748059720334 0.00029832809175920374 0.00695726470765793 0.0 0.0
0.0 0.003934720352688324 -0.0013192940774766687 0.0010449637259804597 0.00027433035149620924 0.0055983891302552775 0.0 0.0
0.0 0.003033202177246593 -0.0010928791212934253 0.0008757594203573992 0.000217119700936026 0.004324545338182285 0.0 0.0
0.0 0.002152885034443379 -0.0007521145673703699 0.0006048036610031471 0.00014731090636722286 0.003199602147361533 0.0 0.0
0.0 0.0014426544105089216 -0.00044078276376931333 0.00035481360274792996 8.596916102138326e-05 0.0022406545461556714 0.0 0.0
0.0 0.0009270629422617115 -0.00024289980236213445 0.00019545472732469552 4.7445075037438886e-05 0.0015136517697957362 0.0 0.0
0.0 0.000608687873241641 -0.00014228592822184295 0.00011340247841823669 2.888344980360621e-05 0.0010022857147774873 0.0 0.0
0.0 0.00039095303103877917 -8.296133650221889e-05 6.543320204542081e-05 1.7528134456798094e-05 0.0006464129874136975 0.0 0.0
0.0 0.0002955369232871774 -4.1339798553345125e-05 3.230785420017016e-05 9.031944353174981e-06 0.0003571291298607252 0.0 0.0
0.0 0.00015858557855816518 -2.055825511094771e-05 1.604769785943535e-05 4.510557251512352e-06 0.00020909064559465 0.0 0.0
0.0 9.45514740401314e-05 -6.237977623749986e-06 4.852036448315309e-06 1.3859411754346671e-06 7.53237489238289e-05 0.0 0.0
0.0 3.129316185102166e-05 -1.6214417086695386e-06 1.2913218143070329e-06 3.30119894362499e-07 2.347131579871765e-05 0.0 0.0
0.0 1.6603222805341956e-05 2.923750411306663e-07 -2.3536244237751912e-07 -5.701259875313553e-08 -4.2306456785429164e-06 0.0 0.0
0.0 6.329568722502479e-06 1.210015960720766e-07 -9.957492898152986e-08 -2.142666709055061e-08 -1.4508070407032778e-06 0.0 0.0
0.0 1.38306394101384e-06 2.5459537931086613e-08 -2.257136934122153e-08 -2.8881685898646692e-09 -2.8364822171881803e-07 0.0 0.0
0.0 1.0066126526757192e-06 1.8800037139368483e-08 -1.616096911716342e-08 -2.639068022204588e-09 -2.0557945410441137e-07 0.0 0.0
0.0 1.5971963964369413e-06 7.30623239191162e-09 1.5907871413117332e-11 -7.32214026331919e-09 -3.4451503633983053e-07 0.0 0.0
0.0 0.0 0.0 0.0 0.0 0.0 0.0 0.0
0.0 0.0 0.0 0.0 0.0 0.0 0.0 0.0
0.0 1.5710527121896345e-07 1.3280899262144232e-09 -5.741504665692977e-10 -7.539394596450155e-10 3.144508494451769e-08 0.0 0.0
0.0 1.1358547083526696e-06 2.9199022431040485e-08 -2.4414515400477513e-08 -4.784507030563987e-09 2.311035997749412e-07 0.0 0.0
0.0 4.433390297608247e-06 1.6015753021184142e-07 -1.3149237797340506e-07 -2.8665152238422848e-08 9.6169292488308e-07 0.0 0.0
0.0 5.593573495776328e-06 2.248805082958022e-07 -1.7833069165734527e-07 -4.654981663844911e-08 1.2502688499167775e-06 0.0 0.0
0.0 1.653719093716094e-05 1.5848257456223574e-07 -1.55840525611682e-07 -2.642048950590342e-09 1.5726219049854562e-06 0.0 0.0
0.0 4.818341333780719e-05 -5.1139188244477e-06 4.028171649844245e-06 1.085747174603432e-06 -2.376267937205743e-05 0.0 0.0
0.0 0.00010967508343655257 -3.680802143295915e-05 2.8813033223106243e-05 7.994988209852885e-06 -0.00015042539643270652 0.0 0.0
0.0 0.0002563969160951853 -8.775405875059235e-05 6.896291070531951e-05 1.8791148045272805e-05 -0.00029396495685124447 0.0 0.0
0.0 0.0004896805350106903 -0.00022035546679764585 0.0001729915556762822 4.736391112136356e-05 -0.0005961126144501112 0.0 0.0
0.0 0.0008775408550069498 -0.0005131831944897243 0.0004071970417858418 0.00010598615270388239 -0.0010847201832718137 0.0 0.0
0.0 0.0015633013576133584 -0.0009953976952260615 0.0008076743555693198 0.00018772333965674115 -0.0017102712264180954 0.0 0.0
0.0 0.0024837976572802817 -0.0017045849392969623 0.0014195871167575448 0.0002849978225394172 -0.0024836551344141556 0.0 0.0
0.0 0.0037677076291740517 -0.002702982895168783 0.002314477538094484 0.00038850535707429855 -0.003378856444476248 0.0 0.0
0.0 0.005461576399717063 -0.004021231228778715 0.0035322241659558316 0.00048900706282288 -0.004439790244705861 0.0 0.0
0.0 0.007466738930598967 -0.005557777803233299 0.004980470018722266 0.0005773077845110317 -0.005715293902282586 0.0 0.0
0.0 0.0095157454366061 -0.007027287663809591 0.006376119764046504 0.000651167899763087 -0.007195518307096199 0.0 0.0
0.0 0.011046544056360234 -0.007953058906819212 0.007245711948602941 0.0007073469582162695 -0.008757989762578963 0.0 0.0
0.0 0.010936294287316264 -0.007528209773296491 0.006755185711298307 0.0007730240619981817 -0.009425221250931044 0.0 0.0
0.0 0.00792145870784538 -0.004723241304455193 0.0039811306843068345 0.0007421106201483583 -0.0074177211996398745 0.0 0.0
0.0 0.007921458707848893 -0.004723241304456259 0.003981130684307734 0.0007421106201485248 0.007417721199647488 0.0 0.0
0.0 0.010936294287319872 -0.007528209773297169 0.006755185711299054 0.0007730240619981117 0.009425221250942164 0.0 0.0
0.0 0.011046544056360111 -0.007953058906817762 0.007245711948601874 0.0007073469582158856 0.008757989762585447 0.0 0.0
0.0 0.009515745436603747 -0.007027287663807341 0.006376119764044721 0.0006511678997626178 0.007195518307096306 0.0 0.0
0.0 0.007466738930593774 -0.005557777803229006 0.004980470018718388 0.0005773077845106166 0.00571529390227919 0.0 0.0
0.0 0.005461576399713246 -0.004021231228775568 0.003532224165953044 0.0004890070628225233 0.0044397902447031665 0.0 0.0
0.0 0.0037677076291700714 -0.002702982895165629 0.002314477538091777 0.00038850535707385175 0.0033788564444736918 0.0 0.0
0.0 0.0024837976572762857 -0.001704584939293458 0.0014195871167544975 0.00028499782253895985 0.002483655134411741 0.0 0.0
0.0 0.0015633013576079467 -0.0009953976952222136 0.0008076743555661158 0.0001877233396560975 0.0017102712264141912 0.0 0.0
0.0 0.0008775408550023324 -0.0005131831944868905 0.0004071970417835485 0.00010598615270334193 0.001084720183267835 0.0 0.0
0.0 0.0004896805350073355 -0.00022035546679607154 0.00017299155567502932 4.7363911121042044e-05 0.0005961126144466716 0.0 0.0
0.0 0.0002563969160938517 -8.775405875001538e-05 6.896291070484463e-05 1.879114804517075e-05 0.00029396495684974816 0.0 0.0
0.0 0.00010967508343570653 -3.680802143270134e-05 2.8813033222907352e-05 7.994988209793984e-06 0.0001504253964318604 0.0 0.0
0.0 4.818341333716422e-05 -5.113918824379377e-06 4.028171649793908e-06 1.0857471745854233e-06 2.3762679371755013e-05 0.0 0.0
0.0 1.653719093674156e-05 1.5848257450222462e-07 -1.558405255648587e-07 -2.6420489373645048e-09 -1.5726219046708804e-06 0.0 0.0
0.0 5.59357349524175e-06 2.2488050827509277e-07 -1.7833069164048388e-07 -4.6549816634625795e-08 -1.250268849792875e-06 0.0 0.0
0.0 4.433390297146278e-06 1.6015753019507324e-07 -1.3149237795953612e-07 -2.8665152235533242e-08 -9.61692924777465e-07 0.0 0.0
0.0 1.1358547078605477e-06 2.919902241766033e-08 -2.441451538947173e-08 -4.7845070281886985e-09 -2.3110359967327132e-07 0.0 0.0
0.0 1.5710527106426096e-07 1.3280899248879184e-09 -5.741504659949382e-10 -7.53939458893311e-10 -3.144508491313459e-08 0.0 0.0
0.0 0.0 0.0 0.0 0.0 0.0 0.0 0.0
0.0 0.0 0.0 0.0 0.0 0.0 0.0 0.0
0.0 0.0 0.0 0.0 0.0 0.0 0.0 0.0
0.0 2.3595770756542535e-06 8.103527067074457e-08 -6.628456757845172e-08 -1.4750703092293867e-08 4.821090557083344e-07 0.0 0.0
0.0 6.5906872819304125e-06 3.108815427979235e-07 -2.5702362177301864e-07 -5.385792102489637e-08 1.4093816020137892e-06 0.0 0.0
0.0 7.627299154486348e-06 4.0935751532665645e-07 -3.368136312165304e-07 -7.254388411011632e-08 1.6671608134487838e-06 0.0 0.0
0.0 2.03864929393001e-05 1.4262568685954028e-06 -1.1157064935146863e-06 -3.1055037508073687e-07 4.734264341221998e-06 0.0 0.0
0.0 7.521297908412917e-05 -2.13985001224203e-05 1.6680015563468042e-05 4.718484558952248e-06 -5.719527830938356e-05 0.0 0.0
0.0 0.00022431441060567013 -0.00010122625197045886 7.915473092168358e-05 2.207152104877522e-05 -0.00022246975248938958 0.0 0.0
0.0 0.0006290491425884335 -0.00034681154391544516 0.0002735253844003252 7.328615951511996e-05 -0.0005727993066869702 0.0 0.0
0.0 0.001226823296562155 -0.0008917616831394931 0.0007170599466237501 0.0001747017365157431 -0.0011814771383317933 0.0 0.0
0.0 0.0022098237537363265 -0.001653527549629745 0.001366146119549302 0.0002873814300804428 -0.0018788389891858822 0.0 0.0
0.0 0.003349057178498986 -0.0026489981443930484 0.002247838497014855 0.00040115964737819326 -0.0026352441799369925 0.0 0.0
0.0 0.004898419844672117 -0.003959996561691493 0.0034514136646146636 0.0005085828970768291 -0.0034774760652728433 0.0 0.0
0.0 0.0070278233469123 -0.005728770641200033 0.005123680505632544 0.0006050901355674891 -0.004488061886958255 0.0 0.0
0.0 0.009869370721128347 -0.008031133348920671 0.0073404808663187 0.0006906524826019744 -0.0057668734684539116 0.0 0.0
0.0 0.013219836992399212 -0.010759533572704125 0.0099933684272119 0.000766165145492226 -0.007433173687643227 0.0 0.0
0.0 0.01679788854915191 -0.013549568560942308 0.012714650083178628 0.0008349184777636765 -0.009588071192319074 0.0 0.0
0.0 0.019523871003555533 -0.015683644392395224 0.014769660442507338 0.0009139839498878845 -0.011937629570102325 0.0 0.0
0.0 0.020085357274106357 -0.015856566748699882 0.014851961337231509 0.0010046054114683746 -0.013159632832656847 0.0 0.0
0.0 0.015558451606718393 -0.012179450718755369 0.011076499351594694 0.0011029513671606697 -0.010389080392558625 0.0 0.0
0.0 0.01555845160672039 -0.012179450718755435 0.011076499351594556 0.0011029513671608738 0.010389080392567997 0.0 0.0
0.0 0.02008535727410761 -0.015856566748698477 0.014851961337230019 0.0010046054114684522 0.013159632832670454 0.0 0.0
0.0 0.0195238710035544 -0.015683644392392407 0.014769660442504695 0.0009139839498877131 0.011937629570112181 0.0 0.0
0.0 0.01679788854914567 -0.013549568560936552 0.0127146500831732 0.0008349184777633539 0.009588071192319834 0.0 0.0
0.0 0.013219836992390242 -0.01075953357269665 0.009993368427204528 0.0007661651454921225 0.007433173687639469 0.0 0.0
0.0 0.009869370721122015 -0.008031133348915292 0.007340480866313527 0.0006906524826017639 0.005766873468451039 0.0 0.0
0.0 0.007027823346906081 -0.005728770641194729 0.005123680505627749 0.0006050901355669805 0.0044880618869546935 0.0 0.0
0.0 0.0048984198446650395 -0.003959996561685118 0.0034514136646087534 0.0005085828970763643 0.003477476065270435 0.0 0.0
0.0 0.0033490571784911115 -0.002648998144386583 0.002247838497008976 0.00040115964737760714 0.002635244179932073 0.0 0.0
0.0 0.0022098237537284803 -0.0016535275496234198 0.0013661461195437785 0.00028738143007964103 0.0018788389891800583 0.0 0.0
0.0 0.0012268232965551304 -0.000891761683134439 0.000717059946619459 0.00017470173651498006 0.001181477138325871 0.0 0.0
0.0 0.0006290491425850457 -0.00034681154391312443 0.00027352538439844845 7.328615951467602e-05 0.0005727993066841401 0.0 0.0
0.0 0.00022431441060421085 -0.00010122625196987915 7.915473092122701e-05 2.207152104865212e-05 0.00022246975248839537 0.0 0.0
0.0 7.521297908286782e-05 -2.139850012212381e-05 1.6680015563228992e-05 4.7184845588948055e-06 5.719527830857938e-05 0.0 0.0
0.0 2.0386492938795208e-05 1.4262568685576327e-06 -1.115706493485047e-06 -3.1055037507263214e-07 -4.734264341093035e-06 0.0 0.0
0.0 7.627299154014659e-06 4.093575152988811e-07 -3.3681363119432556e-07 -7.254388410459864e-08 -1.6671608133407274e-06 0.0 0.0
0.0 6.590687281374371e-06 3.1088154276881837e-07 -2.570236217490074e-07 -5.385792101982278e-08 -1.4093816018841068e-06 0.0 0.0
0.0 2.3595770750547986e-06 8.103527064889636e-08 -6.628456756069521e-08 -1.4750703088195763e-08 -4.821090555798598e-07 0.0 0.0
0.0 0.0 0.0 0.0 0.0 0.0 0.0 0.0
0.0 0.0 0.0 0.0 0.0 0.0 0.0 0.0
0.0 0.0 0.0 0.0 0.0 0.0 0.0 0.0
0.0 0.0 0.0 0.0 0.0 0.0 0.0 0.0
0.0 1.762862297087584e-06 7.425115861487428e-08 -6.029149643128876e-08 -1.3959662183589334e-08 3.448992119798501e-07 0.0 0.0
0.0 4.567888438468323e-06 2.816642514112822e-07 -2.2557908395482e-07 -5.6085167456466286e-08 9.161147982519621e-07 0.0 0.0
0.0 1.0652708672196913e-05 8.226055347238993e-07 -6.478885821616355e-07 -1.747169525622491e-07 2.1974362185183357e-06 0.0 0.0
0.0 3.6931999687429425e-05 -5.780378422558499e-06 4.45130759963037e-06 1.3290708229281215e-06 -1.1756348217044215e-05 0.0 0.0
0.0 0.00014985250103282424 -5.97562129790737e-05 4.7255621986915356e-05 1.2500590992158481e-05 -0.0001098295020678801 0.0 0.0
0.0 0.0005457357020531339 -0.00033911489205823257 0.000267216783766654 7.189810829157855e-05 -0.0004368852277657995 0.0 0.0
0.0 0.0013094473693046342 -0.000963313216494648 0.000776380091841273 0.0001869331246533751 -0.0010016513713230078 0.0 0.0
0.0 0.0023414237536486765 -0.0018952958101559748 0.001571559240908185 0.0003237365692477896 -0.0017111185373060388 0.0 0.0
0.0 0.0036600074834317806 -0.003054598922126671 0.0026051477604154233 0.0004494511617112469 -0.0024463706876496167 0.0 0.0
0.0 0.005357735955385856 -0.004508068714171212 0.003944681761505871 0.0005633869526653406 -0.003209267131595578 0.0 0.0
0.0 0.007626961443649948 -0.006413116721732672 0.005751337442797799 0.0006617792789348732 -0.004098012007604133 0.0 0.0
0.0 0.010620612554462717 -0.00896297684941137 0.008216854965862441 0.000746121883548931 -0.005204941465279922 0.0 0.0
0.0 0.014555118205251478 -0.012264459668727364 0.011444410204553394 0.0008200494641739645 -0.006630972909037148 0.0 0.0
0.0 0.019307694356521327 -0.016217554979173054 0.015324994415560077 0.0008925605636129843 -0.008574402912906353 0.0 0.0
0.0 0.024307443169059206 -0.020355556098661846 0.01938544286228701 0.0009701132363748312 -0.011227682193909 0.0 0.0
0.0 0.028437164347403624 -0.02364389362751173 0.022575072258359398 0.0010688213691523191 -0.014251819376616428 0.0 0.0
0.0 0.0294055573946509 -0.02424286823211539 0.023050337892120153 0.0011925303399952308 -0.01610109471872918 0.0 0.0
0.0 0.023636055131791456 -0.019427082055208093 0.01809354418736859 0.001333537867839507 -0.01354010124984451 0.0 0.0
0.0 0.023636055131793753 -0.01942708205520794 0.018093544187368346 0.0013335378678395958 0.013540101249857842 0.0 0.0
0.0 0.029405557394652948 -0.02424286823211413 0.023050337892119174 0.0011925303399949615 0.01610109471874813 0.0 0.0
0.0 0.028437164347400977 -0.023643893627507215 0.022575072258355408 0.0010688213691517961 0.014251819376630056 0.0 0.0
0.0 0.02430744316905087 -0.020355556098653832 0.019385442862279518 0.0009701132363743106 0.011227682193912056 0.0 0.0
0.0 0.019307694356512382 -0.016217554979164977 0.015324994415552764 0.0008925605636122111 0.00857440291290419 0.0 0.0
0.0 0.014555118205243424 -0.012264459668720157 0.011444410204546847 0.0008200494641733061 0.006630972909034659 0.0 0.0
0.0 0.01062061255445372 -0.008962976849403633 0.00821685496585508 0.0007461218835485498 0.005204941465276025 0.0 0.0
0.0 0.007626961443640024 -0.006413116721723915 0.005751337442789707 0.000661779278934205 0.004098012007600981 0.0 0.0
0.0 0.005357735955375028 -0.00450806871416166 0.003944681761497091 0.0005633869526645674 0.003209267131590262 0.0 0.0
0.0 0.0036600074834210656 -0.0030545989221175606 0.0026051477604071803 0.00044945116171038013 0.0024463706876430005 0.0 0.0
0.0 0.0023414237536399057 -0.0018952958101487096 0.0015715592409018657 0.00032373656924684316 0.001711118537299697 0.0 0.0
0.0 0.0013094473692983792 -0.0009633132164898562 0.0007763800918373493 0.00018693312465250717 0.001001651371319094 0.0 0.0
0.0 0.0005457357020495088 -0.0003391148920557056 0.00026721678376470507 7.189810829100038e-05 0.0004368852277632409 0.0 0.0
0.0 0.00014985250103098597 -5.975621297844159e-05 4.7255621986418175e-05 1.2500590992023483e-05 0.00010982950206677675 0.0 0.0
0.0 3.693199968638279e-05 -5.780378422683324e-06 4.451307599728873e-06 1.3290708229545036e-06 1.175634821729774e-05 0.0 0.0
0.0 1.0652708671765672e-05 8.226055346890362e-07 -6.478885821339158e-07 -1.7471695255515656e-07 -2.1974362184231995e-06 0.0 0.0
0.0 4.567888437996252e-06 2.8166425138205025e-07 -2.255790839313278e-07 -5.6085167450732297e-08 -9.161147981532237e-07 0.0 0.0
0.0 1.7628622966370727e-06 7.425115859493936e-08 -6.029149641515662e-08 -1.3959662179784548e-08 -3.4489921188806817e-07 0.0 0.0
0.0 0.0 0.0 0.0 0.0 0.0 0.0 0.0
0.0 0.0 0.0 0.0 0.0 0.0 0.0 0.0
0.0 0.0 0.0 0.0 0.0 0.0 0.0 0.0
0.0 0.0 0.0 0.0 0.0 0.0 0.0 0.0
0.0 0.0 0.0 0.0 0.0 0.0 0.0 0.0
0.0 6.9346823109825144e-06 5.042347017098303e-07 -4.065067840334973e-07 -9.772791767633461e-08 1.3113344896096305e-06 0.0 0.0
0.0 2.452262333879433e-05 2.414218744173683e-06 -1.9037384693013965e-06 -5.104802748722838e-07 4.861566411945546e-06 0.0 0.0
0.0 6.70354042896361e-05 -2.0974511109153826e-05 1.6621981863731913e-05 4.35252924542195e-06 -3.24315725830681e-05 0.0 0.0
0.0 0.0003557821092931391 -0.00019912620869790465 0.00015664287447527273 4.2483334222632005e-05 -0.00022138054461036304 0.0 0.0
0.0 0.0010680493355065901 -0.0007887420269397445 0.0006318924686203877 0.00015684955831935665 -0.0006907573802634833 0.0 0.0
0.0 0.0021361648807276417 -0.0017715173843106224 0.001462838959723439 0.00030867842458718334 -0.0013347242613056334 0.0 0.0
0.0 0.003518679072875622 -0.003021653406463376 0.0025698419021307844 0.00045181150433258984 -0.002018696932748845 0.0 0.0
0.0 0.005258325143168116 -0.004544779499963361 0.003968373519409172 0.0005764059805541887 -0.002706375226579209 0.0 0.0
0.0 0.0075033301492631625 -0.006467503849739467 0.005783880907252093 0.0006836229424873744 -0.003465237689245937 0.0 0.0
0.0 0.010459351440155112 -0.008985908359846887 0.00821159855761016 0.0007743098022367232 -0.004380337242821724 0.0 0.0
0.0 0.014387309731483316 -0.01232387206507915 0.011472043758709475 0.000851828306369673 -0.005523001272368095 0.0 0.0
0.0 0.019497250802899182 -0.016628422345265726 0.015705647914718044 0.0009227744305476838 -0.006992652423802393 0.0 0.0
0.0 0.025458801077042705 -0.021807247084335016 0.02080921788715001 0.0009980291971850015 -0.009000338754169303 0.0 0.0
0.0 0.03207886573621445 -0.027275302282738518 0.026186563329103983 0.001088738953634533 -0.011783680381510382 0.0 0.0
0.0 0.03748588281158522 -0.03167299508857925 0.030463642307538074 0.0012093527810411856 -0.015209553040518797 0.0 0.0
0.0 0.03875390808982821 -0.03256084095574234 0.03119798219338505 0.0013628587623572765 -0.017809314563835048 0.0 0.0
0.0 0.03170883409776288 -0.02647788246556894 0.024962778506111602 0.001515103959457335 -0.016540938473562517 0.0 0.0
0.0 0.03170883409776533 -0.02647788246556871 0.024962778506111335 0.0015151039594573706 0.016540938473577987 0.0 0.0
0.0 0.03875390808982891 -0.0325608409557401 0.031197982193383093 0.001362858762357008 0.017809314563855573 0.0 0.0
0.0 0.03748588281158061 -0.03167299508857327 0.03046364230753248 0.001209352781040783 0.015209553040534037 0.0 0.0
0.0 0.03207886573620546 -0.027275302282729827 0.026186563329095823 0.0010887389536339874 0.01178368038151504 0.0 0.0
0.0 0.02545880107703139 -0.021807247084324962 0.020809217887140352 0.000998029197184601 0.009000338754168155 0.0 0.0
0.0 0.019497250802887174 -0.016628422345255075 0.015705647914707785 0.0009227744305472936 0.0069926524238000925 0.0 0.0
0.0 0.014387309731472417 -0.012323872065069491 0.011472043758700293 0.0008518283063691972 0.005523001272363971 0.0 0.0
0.0 0.010459351440142414 -0.008985908359835539 0.008211598557599266 0.0007743098022362732 0.0043803372428188195 0.0 0.0
0.0 0.007503330149250574 -0.006467503849728204 0.00578388090724148 0.0006836229424867229 0.00346523768924122 0.0 0.0
0.0 0.005258325143155115 -0.004544779499951987 0.003968373519398651 0.0005764059805533346 0.0027063752265724193 0.0 0.0
0.0 0.0035186790728648637 -0.003021653406453698 0.002569841902122052 0.0004518115043316447 0.002018696932742024 0.0 0.0
0.0 0.0021361648807190544 -0.0017715173843031585 0.001462838959716931 0.00030867842458622745 0.0013347242613009041 0.0 0.0
0.0 0.0010680493355008768 -0.0007887420269351163 0.0006318924686165989 0.00015684955831851726 0.0006907573802601616 0.0 0.0
0.0 0.00035578210928995416 -0.0001991262086960492 0.00015664287447381527 4.2483334222233825e-05 0.00022138054460853212 0.0 0.0
0.0 6.703540428830119e-05 -2.0974511109056197e-05 1.662198186364375e-05 4.3525292454124995e-06 3.243157258284135e-05 0.0 0.0
0.0 2.4522623338024138e-05 2.4142187440938884e-06 -1.903738469238392e-06 -5.10480274855607e-07 -4.861566411793165e-06 0.0 0.0
0.0 6.934682310505462e-06 5.042347016716486e-07 -4.0650678400268413e-07 -9.772791766897146e-08 -1.3113344895102354e-06 0.0 0.0
0.0 0.0 0.0 0.0 0.0 0.0 0.0 0.0
0.0 0.0 0.0 0.0 0.0 0.0 0.0 0.0
0.0 0.0 0.0 0.0 0.0 0.0 0.0 0.0
0.0 0.0 0.0 0.0 0.0 0.0 0.0 0.0
0.0 0.0 0.0 0.0 0.0 0.0 0.0 0.0
0.0 0.0 0.0 0.0 0.0 0.0 0.0 0.0
0.0 3.2006597007079794e-06 2.5707668110242285e-07 -2.054760131561159e-07 -5.160066794626825e-08 5.112391327039601e-07 0.0 0.0
0.0 2.532742614189905e-05 3.946431295939747e-07 -3.234059108004476e-07 -7.123721879350763e-08 9.023180567243132e-07 0.0 0.0
0.0 0.00015504373678168506 -6.0357539685215013e-05 4.752300934642113e-05 1.2834530338794093e-05 -6.119821235043433e-05 0.0 0.0
0.0 0.0007386045408107731 -0.00047214908009101314 0.00037500823566243664 9.714084442857617e-05 -0.0003538774602398525 0.0 0.0
0.0 0.0016608596201661188 -0.001401884596838049 0.0011446963014909463 0.0002571882953471027 -0.0008841500715577837 0.0 0.0
0.0 0.003026844814197412 -0.0026606539836565375 0.0022444975012598936 0.0004161564823966431 -0.0014810055070362937 0.0 0.0
0.0 0.0047659435658381 -0.004196902388036333 0.003640204266029458 0.0005566981220068749 -0.0020816091595606237 0.0 0.0
0.0 0.006949803432622045 -0.006091816611844323 0.0054154251757596245 0.0006763914360846969 -0.0027244124895377626 0.0 0.0
0.0 0.009735932280240809 -0.00849858404369259 0.007720988762822761 0.0007775952808698257 -0.0034467590562417814 0.0 0.0
0.0 0.013458577186507675 -0.011647063776351023 0.010782565455480285 0.000864498320870736 -0.004331375026486537 0.0 0.0
0.0 0.018205826878067204 -0.015789232700055143 0.014848335553568208 0.0009408971464869317 -0.005473694022870097 0.0 0.0
0.0 0.024381369136323792 -0.021077661709500397 0.020064863035166913 0.0010127986743334926 -0.00688243433486906 0.0 0.0
0.0 0.031885799878668984 -0.02742760893981625 0.026333518295850504 0.0010940906439657447 -0.008681182155598708 0.0 0.0
0.0 0.0396666664682901 -0.03418419298581106 0.03298731927482337 0.00119687371098768 -0.011259653742443273 0.0 0.0
0.0 0.04614197462057033 -0.03965905619039034 0.03832133380362696 0.0013377223867633808 -0.01479584334173408 0.0 0.0
0.0 0.04783277843770037 -0.040830110492902014 0.039315863616016036 0.0015142468768859624 -0.01837681070740242 0.0 0.0
0.0 0.039946758521898273 -0.03353896770971286 0.03186087145040529 0.0016780962593075442 -0.019516611938061784 0.0 0.0
0.0 0.039946758521899876 -0.033538967709711834 0.031860871450404324 0.0016780962593074852 0.019516611938078764 0.0 0.0
0.0 0.04783277843769823 -0.0408301104928976 0.03931586361601194 0.0015142468768856402 0.018376810707423988 0.0 0.0
0.0 0.046141974620561695 -0.039659056190381285 0.03832133380361806 0.0013377223867632117 0.014795843341749937 0.0 0.0
0.0 0.03966666646827695 -0.03418419298579906 0.03298731927481151 0.0011968737109875663 0.011259653742448446 0.0 0.0
0.0 0.03188579987865574 -0.02742760893980444 0.026333518295839263 0.00109409064396516 0.008681182155598328 0.0 0.0
0.0 0.02438136913631052 -0.02107766170948847 0.020064863035155547 0.0010127986743329238 0.006882434334868566 0.0 0.0
0.0 0.018205826878053742 -0.01578923270004308 0.014848335553556833 0.0009408971464862452 0.0054736940228671815 0.0 0.0
0.0 0.013458577186492153 -0.011647063776336977 0.010782565455466775 0.0008644983208702013 0.004331375026483017 0.0 0.0
0.0 0.009735932280225599 -0.008498584043678911 0.007720988762809616 0.0007775952808692925 0.003446759056237223 0.0 0.0
0.0 0.006949803432607278 -0.006091816611831155 0.005415425175747235 0.0006763914360839202 0.0027244124895315068 0.0 0.0
0.0 0.004765943565824564 -0.004196902388024229 0.003640204266018238 0.000556698122005991 0.0020816091595542525 0.0 0.0
0.0 0.003026844814187481 -0.0026606539836473613 0.0022444975012517005 0.0004161564823956606 0.0014810055070318831 0.0 0.0
0.0 0.0016608596201590743 -0.001401884596831653 0.0011446963014855507 0.0002571882953461019 0.0008841500715544327 0.0 0.0
0.0 0.0007386045408059733 -0.0004721490800874502 0.00037500823565959245 9.714084442785759e-05 0.0003538774602374616 0.0 0.0
0.0 0.00015504373677947884 -6.035753968429268e-05 4.752300934568525e-05 1.2834530338607295e-05 6.119821234948966e-05 0.0 0.0
0.0 2.532742614100995e-05 3.9464312941287336e-07 -3.234059106588938e-07 -7.123721875395865e-08 -9.023180564811118e-07 0.0 0.0
0.0 3.200659700236418e-06 2.5707668106207243e-07 -2.0547601312382118e-07 -5.1600667938269986e-08 -5.112391326237518e-07 0.0 0.0
0.0 0.0 0.0 0.0 0.0 0.0 0.0 0.0
0.0 0.0 0.0 0.0 0.0 0.0 0.0 0.0
0.0 0.0 0.0 0.0 0.0 0.0 0.0 0.0
0.0 0.0 0.0 0.0 0.0 0.0 0.0 0.0
0.0 0.0 0.0 0.0 0.0 0.0 0.0 0.0
0.0 0.0 0.0 0.0 0.0 0.0 0.0 0.0
0.0 2.6184053184797525e-06 2.3936820084323267e-07 -1.9194239063393857e-07 -4.7425810209277095e-08 3.642394502886807e-07 0.0 0.0
0.0 3.725572679413642e-05 1.2274444296418473e-06 -8.687625165631823e-07 -3.5868191307851867e-07 1.0158332879663841e-06 0.0 0.0
0.0 0.0003494265899380312 -0.0001745961072011497 0.0001379934229606044 3.6602684240545726e-05 -0.00011778816851448494 0.0 0.0
0.0 0.0010723420580002678 -0.0009107438516115079 0.0007331356215729885 0.00017760823003851964 -0.000481683063773168 0.0 0.0
0.0 0.002323813439604653 -0.002084878411572239 0.0017348215248893988 0.00035005688668283985 -0.0009423631282870809 0.0 0.0
0.0 0.004003500873914189 -0.0035745969671437247 0.0030675935353557766 0.0005070034317879475 -0.0014275912015580233 0.0 0.0
0.0 0.006076539121495746 -0.005408387225161758 0.00476584725886064 0.000642539966301119 -0.0019491976296205655 0.0 0.0
0.0 0.008695533067349272 -0.00768264260432629 0.006925561018571483 0.0007570815857548077 -0.002516055731119192 0.0 0.0
0.0 0.012067151147919055 -0.010587548256702786 0.009732183011154576 0.0008553652455482092 -0.0031615883143595895 0.0 0.0
0.0 0.016471131142375927 -0.014387445366827081 0.013446128189277746 0.0009413171775493297 -0.003977122580365926 0.0 0.0
0.0 0.022240746834545314 -0.01933764480689349 0.018315947244064264 0.0010216975628292268 -0.005026072813909694 0.0 0.0
0.0 0.029495584218898474 -0.02557778588199592 0.024479225349140946 0.0010985605328549743 -0.006298735365209081 0.0 0.0
0.0 0.03790851536867398 -0.03301086688710358 0.03182799085353703 0.0011828760335665382 -0.007753484765234539 0.0 0.0
0.0 0.04709941395258508 -0.040942756567197675 0.039647585051420575 0.001295171515777105 -0.00967781749156973 0.0 0.0
0.0 0.05478137638853425 -0.04748892314639564 0.046037214536180614 0.0014517086102150282 -0.012902959915801053 0.0 0.0
0.0 0.057027876751862064 -0.04912585067900913 0.04747450490049723 0.0016513457785119077 -0.01775583116658579 0.0 0.0
0.0 0.048328640677230195 -0.040832996027897146 0.03899651026504396 0.00183648576285318 -0.022489031532084 0.0 0.0
0.0 0.0483286406772301 -0.04083299602789478 0.03899651026504144 0.0018364857628533483 0.02248903153210066 0.0 0.0
0.0 0.057027876751856645 -0.04912585067900256 0.04747450490049062 0.0016513457785119578 0.01775583116660623 0.0 0.0
0.0 0.054781376388524504 -0.04748892314638602 0.046037214536171295 0.0014517086102146923 0.012902959915815967 0.0 0.0
0.0 0.047099413952572604 -0.04094275656718616 0.03964758505140972 0.0012951715157764293 0.009677817491575763 0.0 0.0
0.0 0.037908515368658496 -0.033010866887089735 0.03182799085352388 0.001182876033565851 0.007753484765235293 0.0 0.0
0.0 0.029495584218882202 -0.025577785881981573 0.02447922534912695 0.0010985605328546141 0.006298735365208907 0.0 0.0
0.0 0.02224074683452846 -0.019337644806878718 0.018315947244050012 0.0010216975628286966 0.005026072813907252 0.0 0.0
0.0 0.016471131142357712 -0.014387445366810914 0.013446128189262227 0.0009413171775486825 0.003977122580362949 0.0 0.0
0.0 0.012067151147900747 -0.01058754825668625 0.009732183011138715 0.0008553652455475341 0.0031615883143558056 0.0 0.0
0.0 0.008695533067332966 -0.007682642604311419 0.006925561018557413 0.0007570815857540044 0.0025160557311134047 0.0 0.0
0.0 0.006076539121482218 -0.005408387225149264 0.004765847258849052 0.0006425399663002103 0.0019491976296152243 0.0 0.0
0.0 0.004003500873902426 -0.003574596967132629 0.0030675935353456454 0.0005070034317869832 0.0014275912015541286 0.0 0.0
0.0 0.002323813439595393 -0.002084878411563395 0.0017348215248816669 0.0003500568866817283 0.0009423631282836189 0.0 0.0
0.0 0.0010723420579940727 -0.0009107438516059801 0.0007331356215684417 0.0001776082300375382 0.0004816830637705557 0.0 0.0
0.0 0.0003494265899343142 -0.00017459610719901923 0.00013799342295890877 3.6602684240110405e-05 0.00011778816851309328 0.0 0.0
0.0 3.7255726793180145e-05 1.2274444294307252e-06 -8.687625163983478e-07 -3.5868191303246395e-07 -1.015833287755877e-06 0.0 0.0
0.0 2.618405318069889e-06 2.393682008043899e-07 -1.9194239060307888e-07 -4.7425810201298124e-08 -3.6423945023065724e-07 0.0 0.0
0.0 0.0 0.0 0.0 0.0 0.0 0.0 0.0
0.0 0.0 0.0 0.0 0.0 0.0 0.0 0.0
0.0 0.0 0.0 0.0 0.0 0.0 0.0 0.0
0.0 0.0 0.0 0.0 0.0 0.0 0.0 0.0
0.0 0.0 0.0 0.0 0.0 0.0 0.0 0.0
0.0 0.0 0.0 0.0 0.0 0.0 0.0 0.0
0.0 2.5053288124497985e-06 2.531774601912513e-07 -2.004950959842307e-07 -5.268236420702641e-08 2.7033984583380355e-07 0.0 0.0
0.0 7.829360348900327e-05 -3.5069375829195568e-06 2.907405194697441e-06 5.995323882220424e-07 -1.9285271152766626e-06 0.0 0.0
0.0 0.0006123126682330325 -0.00040369709092252413 0.00032076928814028316 8.292780278224094e-05 -0.00018133168975038725 0.0 0.0
0.0 0.001544427942072851 -0.0014093065811031443 0.0011504797252924704 0.00025882685581067355 -0.0004895333723257415 0.0 0.0
0.0 0.0030674105315927477 -0.0027828513908931185 0.002352569287573995 0.0004302821033191237 -0.0008381273851474939 0.0 0.0
0.0 0.005016877512040105 -0.00451243934285222 0.003929031181612962 0.000583408161239256 -0.0012181745090912458 0.0 0.0
0.0 0.007441432426837903 -0.006645734340054837 0.005932019608647917 0.0007137147314069187 -0.0016365131110812371 0.0 0.0
0.0 0.010521478680417518 -0.009308511663769035 0.008483942169971883 0.0008245694937971516 -0.0020987200057518284 0.0 0.0
0.0 0.01443161846636949 -0.012727813486531287 0.01180604446420341 0.0009217690223278744 -0.0026245873770263436 0.0 0.0
0.0 0.0196700981040819 -0.017190213916124325 0.016179720829500994 0.00101049308662333 -0.0032893053670027777 0.0 0.0
0.0 0.026205318973107877 -0.022960975921840772 0.021864896138250517 0.001096079783590254 -0.0041976031170147775 0.0 0.0
0.0 0.0344096604071705 -0.030124227683822988 0.02894314316452144 0.0011810845193015486 -0.005284145126676666 0.0 0.0
0.0 0.044055866936649084 -0.038497203620135506 0.03722540224109623 0.0012718013790392715 -0.006285323678759444 0.0 0.0
0.0 0.054295769709350516 -0.04739939855525714 0.046018995963501605 0.0013804025917555254 -0.007214779467133198 0.0 0.0
0.0 0.06313366658039948 -0.05503691905536169 0.05349093638479711 0.0015459826705645856 -0.009561982974932225 0.0 0.0
0.0 0.06633175444551387 -0.05751916865742995 0.055744186161301175 0.001774982496128784 -0.015662097013464056 0.0 0.0
0.0 0.05739176382281077 -0.048624931410167715 0.046621163375369805 0.002003768034797903 -0.025273938654460253 0.0 0.0
0.0 0.05739176382281051 -0.04862493141016569 0.04662116337536776 0.0020037680347979253 0.02527393865447425 0.0 0.0
0.0 0.06633175444550754 -0.05751916865742323 0.055744186161294465 0.0017749824961287488 0.015662097013482094 0.0 0.0
0.0 0.06313366658038717 -0.055036919055350415 0.05349093638478587 0.0015459826705645303 0.00956198297494618 0.0 0.0
0.0 0.05429576970933613 -0.047399398555244276 0.04601899596348917 0.0013804025917551034 0.0072147794671385025 0.0 0.0
0.0 0.044055866936631806 -0.038497203620120386 0.03722540224108129 0.001271801379039099 0.006285323678760949 0.0 0.0
0.0 0.03440966040715231 -0.03012422768380703 0.028943143164505834 0.0011810845193012053 0.005284145126677043 0.0 0.0
0.0 0.026205318973088258 -0.022960975921823657 0.021864896138233725 0.0010960797835899325 0.004197603117012848 0.0 0.0
0.0 0.01967009810406335 -0.017190213916107776 0.016179720829485142 0.0010104930866226287 0.003289305367000439 0.0 0.0
0.0 0.01443161846635015 -0.012727813486514031 0.011806044464187114 0.0009217690223269218 0.0026245873770243083 0.0 0.0
0.0 0.010521478680399512 -0.009308511663752517 0.008483942169956134 0.0008245694937963809 0.0020987200057473922 0.0 0.0
0.0 0.007441432426821914 -0.006645734340040069 0.005932019608633966 0.0007137147314061035 0.0016365131110767008 0.0 0.0
0.0 0.005016877512026811 -0.0045124393428396916 0.003929031181601388 0.000583408161238303 0.001218174509088417 0.0 0.0
0.0 0.0030674105315826473 -0.002782851390883312 0.002352569287565235 0.00043028210331807733 0.0008381273851449205 0.0 0.0
0.0 0.0015444279420656873 -0.0014093065810961752 0.0011504797252865613 0.000258826855809614 0.0004895333723234943 0.0 0.0
0.0 0.0006123126682281803 -0.00040369709091875197 0.00032076928813724577 8.292780278150566e-05 0.000181331689748736 0.0 0.0
0.0 7.829360348768303e-05 -3.506937582747258e-06 2.9074051945497687e-06 5.995323881976198e-07 1.9285271151276466e-06 0.0 0.0
0.0 2.505328812068445e-06 2.5317746015048106e-07 -2.004950959519918e-07 -5.2682364198484455e-08 -2.703398457904753e-07 0.0 0.0
0.0 0.0 0.0 0.0 0.0 0.0 0.0 0.0
0.0 0.0 0.0 0.0 0.0 0.0 0.0 0.0
0.0 0.0 0.0 0.0 0.0 0.0 0.0 0.0
0.0 0.0 0.0 0.0 0.0 0.0 0.0 0.0
0.0 0.0 0.0 0.0 0.0 0.0 0.0 0.0
0.0 0.0 0.0 0.0 0.0 0.0 0.0 0.0
0.0 7.217443276911551e-06 8.68179010796905e-07 -6.71359549835835e-07 -1.9681946096104174e-07 5.384504577851146e-07 0.0 0.0
0.0 0.00018625143094651265 -4.6294189632777276e-05 3.707849088355175e-05 9.215698749225726e-06 -1.8549567397544318e-05 0.0 0.0
0.0 0.0008143236094667653 -0.0007562315363333861 0.0006048314163424881 0.0001514001199908981 -0.00018911563254436021 0.0 0.0
0.0 0.002099275772109661 -0.0019316163072784763 0.0016002640853930244 0.0003313522218854514 -0.0003834919931510489 0.0 0.0
0.0 0.0038345547179465325 -0.0034977214837485916 0.0029973183680710794 0.0005004031156775121 -0.0006083349015933966 0.0 0.0
0.0 0.0060588879100602075 -0.005465546913817728 0.004818316021369198 0.0006472308924485315 -0.0008637758592068438 0.0 0.0
0.0 0.008840568042627532 -0.007903704282647497 0.0071306383783068744 0.00077306590434062 -0.001153815604273772 0.0 0.0
0.0 0.01237012264939173 -0.010965843954922977 0.010083279885047548 0.0008825640698754314 -0.0014711885454491713 0.0 0.0
0.0 0.016988388813894046 -0.014909467029411823 0.013928377358864383 0.0009810896705474384 -0.0018316213018435468 0.0 0.0
0.0 0.02276634345770458 -0.02005339641624316 0.018979649236379077 0.001073747179864075 -0.002322128030536954 0.0 0.0
0.0 0.03027341713656789 -0.026634042165480175 0.025468126799659443 0.0011659153658207294 -0.0029764334707584623 0.0 0.0
0.0 0.03954409349295898 -0.03468583833767102 0.03342425685272425 0.001261581484946767 -0.0037222641192580846 0.0 0.0
0.0 0.05014034262225862 -0.043898602150426305 0.04253695434351976 0.001361647806906539 -0.00433251327535427 0.0 0.0
0.0 0.061154685886029556 -0.05348766232521805 0.0520191022091956 0.0014685601160224757 -0.004448134525031455 0.0 0.0
0.0 0.07095113394060204 -0.06199856817897205 0.0604035786504734 0.0015949895284986882 -0.0049406929569450935 0.0 0.0
0.0 0.07580513482735157 -0.06598854354583546 0.06410662278707102 0.0018819207587644218 -0.011206764805971936 0.0 0.0
0.0 0.06746208309501699 -0.05734512897337693 0.05514523650412302 0.0021998924692539007 -0.027317538091430737 0.0 0.0
0.0 0.06746208309501585 -0.05734512897337468 0.05514523650412087 0.0021998924692537983 0.02731753809144105 0.0 0.0
0.0 0.07580513482734384 -0.06598854354582799 0.06410662278706403 0.0018819207587639246 0.011206764805985675 0.0 0.0
0.0 0.07095113394058934 -0.06199856817896042 0.06040357865046265 0.00159498952849777 0.0049406929569558306 0.0 0.0
0.0 0.06115468588601379 -0.05348766232520378 0.05201910220918249 0.0014685601160212918 0.004448134525034626 0.0 0.0
0.0 0.050140342622239674 -0.04389860215040943 0.04253695434350384 0.0013616478069055891 0.004332513275355883 0.0 0.0
0.0 0.0395440934929404 -0.034685838337654325 0.03342425685270884 0.0012615814849454873 0.0037222641192585166 0.0 0.0
0.0 0.030273417136547957 -0.026634042165462366 0.02546812679964288 0.0011659153658194817 0.0029764334707575494 0.0 0.0
0.0 0.022766343457682504 -0.020053396416223623 0.018979649236360467 0.0010737471798631607 0.0023221280305350325 0.0 0.0
0.0 0.01698838881387138 -0.014909467029391537 0.01392837735884475 0.0009810896705467862 0.0018316213018429364 0.0 0.0
0.0 0.01237012264937123 -0.010965843954904516 0.01008327988503017 0.0008825640698743423 0.0014711885454463077 0.0 0.0
0.0 0.008840568042609673 -0.00790370428263118 0.0071306383782915915 0.0007730659043395863 0.0011538156042706664 0.0 0.0
0.0 0.006058887910045777 -0.005465546913803972 0.004818316021356415 0.0006472308924475561 0.0008637758592049232 0.0 0.0
0.0 0.003834554717934204 -0.0034977214837367734 0.0029973183680603956 0.0005004031156763769 0.0006083349015914652 0.0 0.0
0.0 0.002099275772101028 -0.0019316163072698805 0.0016002640853855976 0.0003313522218842824 0.00038349199314918726 0.0 0.0
0.0 0.000814323609462183 -0.0007562315363289095 0.0006048314163388431 0.0001514001199900661 0.00018911563254325314 0.0 0.0
0.0 0.00018625143094442158 -4.629418963188158e-05 3.7078490882839e-05 9.215698749042425e-06 1.854956739722152e-05 0.0 0.0
0.0 7.217443276285659e-06 8.681790107182434e-07 -6.713595497753641e-07 -1.9681946094292053e-07 -5.384504577394223e-07 0.0 0.0
0.0 0.0 0.0 0.0 0.0 0.0 0.0 0.0
0.0 0.0 0.0 0.0 0.0 0.0 0.0 0.0
0.0 0.0 0.0 0.0 0.0 0.0 0.0 0.0
0.0 0.0 0.0 0.0 0.0 0.0 0.0 0.0
0.0 0.0 0.0 0.0 0.0 0.0 0.0 0.0
0.0 0.0 0.0 0.0 0.0 0.0 0.0 0.0
0.0 1.3220964968873506e-05 1.7909406834492612e-06 -1.3770654118147467e-06 -4.138752716343679e-07 4.5825818987221563e-07 0.0 0.0
0.0 0.00040619133520994213 -0.00016760108969723165 0.00013285300237266405 3.4748087324567546e-05 -2.661303863785695e-05 0.0 0.0
0.0 0.0012039230913944456 -0.0011191009980773894 0.0009035680277405031 0.0002155329703368862 -9.691640151534019e-05 0.0 0.0
0.0 0.0026742118747907825 -0.002470157694793052 0.0020738310635339758 0.0003963266312590747 -0.00017382458463387706 0.0 0.0
0.0 0.00463562255057686 -0.004219437008221458 0.003659646249725791 0.0005597907584956654 -0.0002614216953978545 0.0 0.0
0.0 0.0071431758899712355 -0.0064271197333130425 0.0057259690396081 0.0007011506937049411 -0.0003699727516994018 0.0 0.0
0.0 0.010308934656891255 -0.009174976200693342 0.008350852936454394 0.0008241232642389462 -0.0004999627308980615 0.0 0.0
0.0 0.014368364714686587 -0.012647659921861468 0.011714675730198292 0.0009329841916631686 -0.000636433368536541 0.0 0.0
0.0 0.019375844019078665 -0.017142283778537125 0.016107670084217398 0.0010346136943197295 -0.0008125471825829558 0.0 0.0
0.0 0.02598232421111616 -0.022957353175996238 0.02182471783073799 0.0011326353452582438 -0.0010416691374966207 0.0 0.0
0.0 0.034450975054128245 -0.03032463569999837 0.02909228817185227 0.001232347528146092 -0.0013218710155210058 0.0 0.0
0.0 0.0447059201074888 -0.03923793181573328 0.03789964128440385 0.0013382905313294312 -0.0016312664327063264 0.0 0.0
0.0 0.056245123553383326 -0.04924020469698877 0.047789789848218765 0.0014504148487700158 -0.00181924169543672 0.0 0.0
0.0 0.06789187620933476 -0.05933726973112862 0.05777423188709683 0.0015630378440317817 -0.0016254372861339418 0.0 0.0
0.0 0.07795148904437318 -0.06809176453893882 0.0664239801786577 0.0016677843602811067 -0.0007927231759692985 0.0 0.0
0.0 0.084362769868957 -0.07358775631782798 0.07179684395054989 0.0017909123672780495 -0.0026987092094920466 0.0 0.0
0.0 0.07949459866315273 -0.06813676053264049 0.06559343335103393 0.002543327181606549 -0.025546193066549393 0.0 0.0
0.0 0.07949459866315071 -0.06813676053263817 0.06559343335103175 0.0025433271816064033 0.025546193066553948 0.0 0.0
0.0 0.08436276986894896 -0.07358775631782051 0.07179684395054343 0.001790912367277066 0.002698709209498038 0.0 0.0
0.0 0.07795148904435677 -0.06809176453892421 0.06642398017864394 0.0016677843602802586 0.0007927231759746033 0.0 0.0
0.0 0.06789187620931385 -0.05933726973111027 0.057774231887078954 0.0015630378440313045 0.0016254372861338525 0.0 0.0
0.0 0.05624512355336321 -0.04924020469697088 0.04778978984820171 0.0014504148487691764 0.0018192416954368427 0.0 0.0
0.0 0.04470592010746634 -0.03923793181571359 0.03789964128438473 0.0013382905313288618 0.0016312664327057655 0.0 0.0
0.0 0.034450975054104674 -0.030324635699977707 0.02909228817183227 0.0012323475281454464 0.0013218710155212116 0.0 0.0
0.0 0.025982324211092638 -0.022957353175975456 0.02182471783071815 0.0011326353452572897 0.0010416691374954472 0.0 0.0
0.0 0.019375844019053432 -0.017142283778514844 0.01610767008419592 0.0010346136943189229 0.0008125471825836804 0.0 0.0
0.0 0.014368364714663236 -0.0126476599218407 0.011714675730178299 0.0009329841916623957 0.0006364333685346619 0.0 0.0
0.0 0.010308934656870992 -0.009174976200675505 0.008350852936437298 0.0008241232642382067 0.0004999627308965903 0.0 0.0
0.0 0.007143175889955265 -0.006427119733298264 0.005725969039594245 0.0007011506937040204 0.00036997275169883186 0.0 0.0
0.0 0.004635622550564497 -0.004219437008209464 0.003659646249714776 0.0005597907584946874 0.0002614216953973148 0.0 0.0
0.0 0.00267421187478071 -0.002470157694783248 0.0020738310635252193 0.0003963266312580284 0.00017382458463321846 0.0 0.0
0.0 0.001203923091388742 -0.0011191009980714415 0.0009035680277355025 0.0002155329703359385 9.691640151469986e-05 0.0 0.0
0.0 0.00040619133520674775 -0.0001676010896953413 0.00013285300237114822 3.474808732419348e-05 2.6613038637573502e-05 0.0 0.0
0.0 1.3220964968205055e-05 1.790940683362012e-06 -1.377065411748653e-06 -4.1387527161337006e-07 -4.582581898558443e-07 0.0 0.0
0.0 0.0 0.0 0.0 0.0 0.0 0.0 0.0
0.0 0.0 0.0 0.0 0.0 0.0 0.0 0.0
0.0 0.0 0.0 0.0 0.0 0.0 0.0 0.0