# vtk DataFile Version 3.0
Some data
ASCII
DATASET UNSTRUCTURED_GRID
POINTS 861 float
0.0 0.0 0.0
0.4 0.0 0.0
0.8 0.0 0.0
1.2000000000000002 0.0 0.0
1.6 0.0 0.0
2.0 0.0 0.0
2.4000000000000004 0.0 0.0
2.8000000000000003 0.0 0.0
3.2 0.0 0.0
3.6 0.0 0.0
4.0 0.0 0.0
4.4 0.0 0.0
4.800000000000001 0.0 0.0
5.2 0.0 0.0
5.6000000000000005 0.0 0.0
6.0 0.0 0.0
6.4 0.0 0.0
6.800000000000001 0.0 0.0
7.2 0.0 0.0
7.6000000000000005 0.0 0.0
8.0 0.0 0.0
8.4 0.0 0.0
8.8 0.0 0.0
9.200000000000001 0.0 0.0
9.600000000000001 0.0 0.0
10.0 0.0 0.0
10.4 0.0 0.0
10.8 0.0 0.0
11.200000000000001 0.0 0.0
11.600000000000001 0.0 0.0
12.0 0.0 0.0
12.4 0.0 0.0
12.8 0.0 0.0
13.200000000000001 0.0 0.0
13.600000000000001 0.0 0.0
14.0 0.0 0.0
14.4 0.0 0.0
14.8 0.0 0.0
15.200000000000001 0.0 0.0
15.600000000000001 0.0 0.0
16.0 0.0 0.0
0.0 0.1 0.0
0.4 0.1 0.0
0.8 0.1 0.0
1.2000000000000002 0.1 0.0
1.6 0.1 0.0
2.0 0.1 0.0
2.4000000000000004 0.1 0.0
2.8000000000000003 0.1 0.0
3.2 0.1 0.0
3.6 0.1 0.0
4.0 0.1 0.0
4.4 0.1 0.0
4.800000000000001 0.1 0.0
5.2 0.1 0.0
5.6000000000000005 0.1 0.0
6.0 0.1 0.0
6.4 0.1 0.0
6.800000000000001 0.1 0.0
7.2 0.1 0.0
7.6000000000000005 0.1 0.0
8.0 0.1 0.0
8.4 0.1 0.0
8.8 0.1 0.0
9.200000000000001 0.1 0.0
9.600000000000001 0.1 0.0
10.0 0.1 0.0
10.4 0.1 0.0
10.8 0.1 0.0
11.200000000000001 0.1 0.0
11.600000000000001 0.1 0.0
12.0 0.1 0.0
12.4 0.1 0.0
12.8 0.1 0.0
13.200000000000001 0.1 0.0
13.600000000000001 0.1 0.0
14.0 0.1 0.0
14.4 0.1 0.0
14.8 0.1 0.0
15.200000000000001 0.1 0.0
15.600000000000001 0.1 0.0
16.0 0.1 0.0
0.0 0.2 0.0
0.4 0.2 0.0
0.8 0.2 0.0
1.2000000000000002 0.2 0.0
1.6 0.2 0.0
2.0 0.2 0.0
2.4000000000000004 0.2 0.0
2.8000000000000003 0.2 0.0
3.2 0.2 0.0
3.6 0.2 0.0
4.0 0.2 0.0
4.4 0.2 0.0
4.800000000000001 0.2 0.0
5.2 0.2 0.0
5.6000000000000005 0.2 0.0
6.0 0.2 0.0
6.4 0.2 0.0
6.800000000000001 0.2 0.0
7.2 0.2 0.0
7.6000000000000005 0.2 0.0
8.0 0.2 0.0
8.4 0.2 0.0
8.8 0.2 0.0
9.200000000000001 0.2 0.0
9.600000000000001 0.2 0.0
10.0 0.2 0.0
10.4 0.2 0.0
10.8 0.2 0.0
11.200000000000001 0.2 0.0
11.600000000000001 0.2 0.0
12.0 0.2 0.0
12.4 0.2 0.0
12.8 0.2 0.0
13.200000000000001 0.2 0.0
13.600000000000001 0.2 0.0
14.0 0.2 0.0
14.4 0.2 0.0
14.8 0.2 0.0
15.200000000000001 0.2 0.0
15.600000000000001 0.2 0.0
16.0 0.2 0.0
0.0 0.30000000000000004 0.0
0.4 0.30000000000000004 0.0
0.8 0.30000000000000004 0.0
1.2000000000000002 0.30000000000000004 0.0
1.6 0.30000000000000004 0.0
2.0 0.30000000000000004 0.0
2.4000000000000004 0.30000000000000004 0.0
2.8000000000000003 0.30000000000000004 0.0
3.2 0.30000000000000004 0.0
3.6 0.30000000000000004 0.0
4.0 0.30000000000000004 0.0
4.4 0.30000000000000004 0.0
4.800000000000001 0.30000000000000004 0.0
5.2 0.30000000000000004 0.0
5.6000000000000005 0.30000000000000004 0.0
6.0 0.30000000000000004 0.0
6.4 0.30000000000000004 0.0
6.800000000000001 0.30000000000000004 0.0
7.2 0.30000000000000004 0.0
7.6000000000000005 0.30000000000000004 0.0
8.0 0.30000000000000004 0.0
8.4 0.30000000000000004 0.0
8.8 0.30000000000000004 0.0
9.200000000000001 0.30000000000000004 0.0
9.600000000000001 0.30000000000000004 0.0
10.0 0.30000000000000004 0.0
10.4 0.30000000000000004 0.0
10.8 0.30000000000000004 0.0
11.200000000000001 0.30000000000000004 0.0
11.600000000000001 0.30000000000000004 0.0
12.0 0.30000000000000004 0.0
12.4 0.30000000000000004 0.0
12.8 0.30000000000000004 0.0
13.200000000000001 0.30000000000000004 0.0
13.600000000000001 0.30000000000000004 0.0
14.0 0.30000000000000004 0.0
14.4 0.30000000000000004 0.0
14.8 0.30000000000000004 0.0
15.200000000000001 0.30000000000000004 0.0
15.600000000000001 0.30000000000000004 0.0
16.0 0.30000000000000004 0.0
0.0 0.4 0.0
0.4 0.4 0.0
0.8 0.4 0.0
1.2000000000000002 0.4 0.0
1.6 0.4 0.0
2.0 0.4 0.0
2.4000000000000004 0.4 0.0
2.8000000000000003 0.4 0.0
3.2 0.4 0.0
3.6 0.4 0.0
4.0 0.4 0.0
4.4 0.4 0.0
4.800000000000001 0.4 0.0
5.2 0.4 0.0
5.6000000000000005 0.4 0.0
6.0 0.4 0.0
6.4 0.4 0.0
6.800000000000001 0.4 0.0
7.2 0.4 0.0
7.6000000000000005 0.4 0.0
8.0 0.4 0.0
8.4 0.4 0.0
8.8 0.4 0.0
9.200000000000001 0.4 0.0
9.600000000000001 0.4 0.0
10.0 0.4 0.0
10.4 0.4 0.0
10.8 0.4 0.0
11.200000000000001 0.4 0.0
11.600000000000001 0.4 0.0
12.0 0.4 0.0
12.4 0.4 0.0
12.8 0.4 0.0
13.200000000000001 0.4 0.0
13.600000000000001 0.4 0.0
14.0 0.4 0.0
14.4 0.4 0.0
14.8 0.4 0.0
15.200000000000001 0.4 0.0
15.600000000000001 0.4 0.0
16.0 0.4 0.0
0.0 0.5 0.0
0.4 0.5 0.0
0.8 0.5 0.0
1.2000000000000002 0.5 0.0
1.6 0.5 0.0
2.0 0.5 0.0
2.4000000000000004 0.5 0.0
2.8000000000000003 0.5 0.0
3.2 0.5 0.0
3.6 0.5 0.0
4.0 0.5 0.0
4.4 0.5 0.0
4.800000000000001 0.5 0.0
5.2 0.5 0.0
5.6000000000000005 0.5 0.0
6.0 0.5 0.0
6.4 0.5 0.0
6.800000000000001 0.5 0.0
7.2 0.5 0.0
7.6000000000000005 0.5 0.0
8.0 0.5 0.0
8.4 0.5 0.0
8.8 0.5 0.0
9.200000000000001 0.5 0.0
9.600000000000001 0.5 0.0
10.0 0.5 0.0
10.4 0.5 0.0
10.8 0.5 0.0
11.200000000000001 0.5 0.0
11.600000000000001 0.5 0.0
12.0 0.5 0.0
12.4 0.5 0.0
12.8 0.5 0.0
13.200000000000001 0.5 0.0
13.600000000000001 0.5 0.0
14.0 0.5 0.0
14.4 0.5 0.0
14.8 0.5 0.0
15.200000000000001 0.5 0.0
15.600000000000001 0.5 0.0
16.0 0.5 0.0
0.0 0.6000000000000001 0.0
0.4 0.6000000000000001 0.0
0.8 0.6000000000000001 0.0
1.2000000000000002 0.6000000000000001 0.0
1.6 0.6000000000000001 0.0
2.0 0.6000000000000001 0.0
2.4000000000000004 0.6000000000000001 0.0
2.8000000000000003 0.6000000000000001 0.0
3.2 0.6000000000000001 0.0
3.6 0.6000000000000001 0.0
4.0 0.6000000000000001 0.0
4.4 0.6000000000000001 0.0
4.800000000000001 0.6000000000000001 0.0
5.2 0.6000000000000001 0.0
5.6000000000000005 0.6000000000000001 0.0
6.0 0.6000000000000001 0.0
6.4 0.6000000000000001 0.0
6.800000000000001 0.6000000000000001 0.0
7.2 0.6000000000000001 0.0
7.6000000000000005 0.6000000000000001 0.0
8.0 0.6000000000000001 0.0
8.4 0.6000000000000001 0.0
8.8 0.6000000000000001 0.0
9.200000000000001 0.6000000000000001 0.0
9.600000000000001 0.6000000000000001 0.0
10.0 0.6000000000000001 0.0
10.4 0.6000000000000001 0.0
10.8 0.6000000000000001 0.0
11.200000000000001 0.6000000000000001 0.0
11.600000000000001 0.6000000000000001 0.0
12.0 0.6000000000000001 0.0
12.4 0.6000000000000001 0.0
12.8 0.6000000000000001 0.0
13.200000000000001 0.6000000000000001 0.0
13.600000000000001 0.6000000000000001 0.0
14.0 0.6000000000000001 0.0
14.4 0.6000000000000001 0.0
14.8 0.6000000000000001 0.0
15.200000000000001 0.6000000000000001 0.0
15.600000000000001 0.6000000000000001 0.0
16.0 0.6000000000000001 0.0
0.0 0.7000000000000001 0.0
0.4 0.7000000000000001 0.0
0.8 0.7000000000000001 0.0
1.2000000000000002 0.7000000000000001 0.0
1.6 0.7000000000000001 0.0
2.0 0.7000000000000001 0.0
2.4000000000000004 0.7000000000000001 0.0
2.8000000000000003 0.7000000000000001 0.0
3.2 0.7000000000000001 0.0
3.6 0.7000000000000001 0.0
4.0 0.7000000000000001 0.0
4.4 0.7000000000000001 0.0
4.800000000000001 0.7000000000000001 0.0
5.2 0.7000000000000001 0.0
5.6000000000000005 0.7000000000000001 0.0
6.0 0.7000000000000001 0.0
6.4 0.7000000000000001 0.0
6.800000000000001 0.7000000000000001 0.0
7.2 0.7000000000000001 0.0
7.6000000000000005 0.7000000000000001 0.0
8.0 0.7000000000000001 0.0
8.4 0.7000000000000001 0.0
8.8 0.7000000000000001 0.0
9.200000000000001 0.7000000000000001 0.0
9.600000000000001 0.7000000000000001 0.0
10.0 0.7000000000000001 0.0
10.4 0.7000000000000001 0.0
10.8 0.7000000000000001 0.0
11.200000000000001 0.7000000000000001 0.0
11.600000000000001 0.7000000000000001 0.0
12.0 0.7000000000000001 0.0
12.4 0.7000000000000001 0.0
12.8 0.7000000000000001 0.0
13.200000000000001 0.7000000000000001 0.0
13.600000000000001 0.7000000000000001 0.0
14.0 0.7000000000000001 0.0
14.4 0.7000000000000001 0.0
14.8 0.7000000000000001 0.0
15.200000000000001 0.7000000000000001 0.0
15.600000000000001 0.7000000000000001 0.0
16.0 0.7000000000000001 0.0
0.0 0.8 0.0
0.4 0.8 0.0
0.8 0.8 0.0
1.2000000000000002 0.8 0.0
1.6 0.8 0.0
2.0 0.8 0.0
2.4000000000000004 0.8 0.0
2.8000000000000003 0.8 0.0
3.2 0.8 0.0
3.6 0.8 0.0
4.0 0.8 0.0
4.4 0.8 0.0
4.800000000000001 0.8 0.0
5.2 0.8 0.0
5.6000000000000005 0.8 0.0
6.0 0.8 0.0
6.4 0.8 0.0
6.800000000000001 0.8 0.0
7.2 0.8 0.0
7.6000000000000005 0.8 0.0
8.0 0.8 0.0
8.4 0.8 0.0
8.8 0.8 0.0
9.200000000000001 0.8 0.0
9.600000000000001 0.8 0.0
10.0 0.8 0.0
10.4 0.8 0.0
10.8 0.8 0.0
11.200000000000001 0.8 0.0
11.600000000000001 0.8 0.0
12.0 0.8 0.0
12.4 0.8 0.0
12.8 0.8 0.0
13.200000000000001 0.8 0.0
13.600000000000001 0.8 0.0
14.0 0.8 0.0
14.4 0.8 0.0
14.8 0.8 0.0
15.200000000000001 0.8 0.0
15.600000000000001 0.8 0.0
16.0 0.8 0.0
0.0 0.9 0.0
0.4 0.9 0.0
0.8 0.9 0.0
1.2000000000000002 0.9 0.0
1.6 0.9 0.0
2.0 0.9 0.0
2.4000000000000004 0.9 0.0
2.8000000000000003 0.9 0.0
3.2 0.9 0.0
3.6 0.9 0.0
4.0 0.9 0.0
4.4 0.9 0.0
4.800000000000001 0.9 0.0
5.2 0.9 0.0
5.6000000000000005 0.9 0.0
6.0 0.9 0.0
6.4 0.9 0.0
6.800000000000001 0.9 0.0
7.2 0.9 0.0
7.6000000000000005 0.9 0.0
8.0 0.9 0.0
8.4 0.9 0.0
8.8 0.9 0.0
9.200000000000001 0.9 0.0
9.600000000000001 0.9 0.0
10.0 0.9 0.0
10.4 0.9 0.0
10.8 0.9 0.0
11.200000000000001 0.9 0.0
11.600000000000001 0.9 0.0
12.0 0.9 0.0
12.4 0.9 0.0
12.8 0.9 0.0
13.200000000000001 0.9 0.0
13.600000000000001 0.9 0.0
14.0 0.9 0.0
14.4 0.9 0.0
14.8 0.9 0.0
15.200000000000001 0.9 0.0
15.600000000000001 0.9 0.0
16.0 0.9 0.0
0.0 1.0 0.0
0.4 1.0 0.0
0.8 1.0 0.0
1.2000000000000002 1.0 0.0
1.6 1.0 0.0
2.0 1.0 0.0
2.4000000000000004 1.0 0.0
2.8000000000000003 1.0 0.0
3.2 1.0 0.0
3.6 1.0 0.0
4.0 1.0 0.0
4.4 1.0 0.0
4.800000000000001 1.0 0.0
5.2 1.0 0.0
5.6000000000000005 1.0 0.0
6.0 1.0 0.0
6.4 1.0 0.0
6.800000000000001 1.0 0.0
7.2 1.0 0.0
7.6000000000000005 1.0 0.0
8.0 1.0 0.0
8.4 1.0 0.0
8.8 1.0 0.0
9.200000000000001 1.0 0.0
9.600000000000001 1.0 0.0
10.0 1.0 0.0
10.4 1.0 0.0
10.8 1.0 0.0
11.200000000000001 1.0 0.0
11.600000000000001 1.0 0.0
12.0 1.0 0.0
12.4 1.0 0.0
12.8 1.0 0.0
13.200000000000001 1.0 0.0
13.600000000000001 1.0 0.0
14.0 1.0 0.0
14.4 1.0 0.0
14.8 1.0 0.0
15.200000000000001 1.0 0.0
15.600000000000001 1.0 0.0
16.0 1.0 0.0
0.0 1.1 0.0
0.4 1.1 0.0
0.8 1.1 0.0
1.2000000000000002 1.1 0.0
1.6 1.1 0.0
2.0 1.1 0.0
2.4000000000000004 1.1 0.0
2.8000000000000003 1.1 0.0
3.2 1.1 0.0
3.6 1.1 0.0
4.0 1.1 0.0
4.4 1.1 0.0
4.800000000000001 1.1 0.0
5.2 1.1 0.0
5.6000000000000005 1.1 0.0
6.0 1.1 0.0
6.4 1.1 0.0
6.800000000000001 1.1 0.0
7.2 1.1 0.0
7.6000000000000005 1.1 0.0
8.0 1.1 0.0
8.4 1.1 0.0
8.8 1.1 0.0
9.200000000000001 1.1 0.0
9.600000000000001 1.1 0.0
10.0 1.1 0.0
10.4 1.1 0.0
10.8 1.1 0.0
11.200000000000001 1.1 0.0
11.600000000000001 1.1 0.0
12.0 1.1 0.0
12.4 1.1 0.0
12.8 1.1 0.0
13.200000000000001 1.1 0.0
13.600000000000001 1.1 0.0
14.0 1.1 0.0
14.4 1.1 0.0
14.8 1.1 0.0
15.200000000000001 1.1 0.0
15.600000000000001 1.1 0.0
16.0 1.1 0.0
0.0 1.2000000000000002 0.0
0.4 1.2000000000000002 0.0
0.8 1.2000000000000002 0.0
1.2000000000000002 1.2000000000000002 0.0
1.6 1.2000000000000002 0.0
2.0 1.2000000000000002 0.0
2.4000000000000004 1.2000000000000002 0.0
2.8000000000000003 1.2000000000000002 0.0
3.2 1.2000000000000002 0.0
3.6 1.2000000000000002 0.0
4.0 1.2000000000000002 0.0
4.4 1.2000000000000002 0.0
4.800000000000001 1.2000000000000002 0.0
5.2 1.2000000000000002 0.0
5.6000000000000005 1.2000000000000002 0.0
6.0 1.2000000000000002 0.0
6.4 1.2000000000000002 0.0
6.800000000000001 1.2000000000000002 0.0
7.2 1.2000000000000002 0.0
7.6000000000000005 1.2000000000000002 0.0
8.0 1.2000000000000002 0.0
8.4 1.2000000000000002 0.0
8.8 1.2000000000000002 0.0
9.200000000000001 1.2000000000000002 0.0
9.600000000000001 1.2000000000000002 0.0
10.0 1.2000000000000002 0.0
10.4 1.2000000000000002 0.0
10.8 1.2000000000000002 0.0
11.200000000000001 1.2000000000000002 0.0
11.600000000000001 1.2000000000000002 0.0
12.0 1.2000000000000002 0.0
12.4 1.2000000000000002 0.0
12.8 1.2000000000000002 0.0
13.200000000000001 1.2000000000000002 0.0
13.600000000000001 1.2000000000000002 0.0
14.0 1.2000000000000002 0.0
14.4 1.2000000000000002 0.0
14.8 1.2000000000000002 0.0
15.200000000000001 1.2000000000000002 0.0
15.600000000000001 1.2000000000000002 0.0
16.0 1.2000000000000002 0.0
0.0 1.3 0.0
0.4 1.3 0.0
0.8 1.3 0.0
1.2000000000000002 1.3 0.0
1.6 1.3 0.0
2.0 1.3 0.0
2.4000000000000004 1.3 0.0
2.8000000000000003 1.3 0.0
3.2 1.3 0.0
3.6 1.3 0.0
4.0 1.3 0.0
4.4 1.3 0.0
4.800000000000001 1.3 0.0
5.2 1.3 0.0
5.6000000000000005 1.3 0.0
6.0 1.3 0.0
6.4 1.3 0.0
6.800000000000001 1.3 0.0
7.2 1.3 0.0
7.6000000000000005 1.3 0.0
8.0 1.3 0.0
8.4 1.3 0.0
8.8 1.3 0.0
9.200000000000001 1.3 0.0
9.600000000000001 1.3 0.0
10.0 1.3 0.0
10.4 1.3 0.0
10.8 1.3 0.0
11.200000000000001 1.3 0.0
11.600000000000001 1.3 0.0
12.0 1.3 0.0
12.4 1.3 0.0
12.8 1.3 0.0
13.200000000000001 1.3 0.0
13.600000000000001 1.3 0.0
14.0 1.3 0.0
14.4 1.3 0.0
14.8 1.3 0.0
15.200000000000001 1.3 0.0
15.600000000000001 1.3 0.0
16.0 1.3 0.0
0.0 1.4000000000000001 0.0
0.4 1.4000000000000001 0.0
0.8 1.4000000000000001 0.0
1.2000000000000002 1.4000000000000001 0.0
1.6 1.4000000000000001 0.0
2.0 1.4000000000000001 0.0
2.4000000000000004 1.4000000000000001 0.0
2.8000000000000003 1.4000000000000001 0.0
3.2 1.4000000000000001 0.0
3.6 1.4000000000000001 0.0
4.0 1.4000000000000001 0.0
4.4 1.4000000000000001 0.0
4.800000000000001 1.4000000000000001 0.0
5.2 1.4000000000000001 0.0
5.6000000000000005 1.4000000000000001 0.0
6.0 1.4000000000000001 0.0
6.4 1.4000000000000001 0.0
6.800000000000001 1.4000000000000001 0.0
7.2 1.4000000000000001 0.0
7.6000000000000005 1.4000000000000001 0.0
8.0 1.4000000000000001 0.0
8.4 1.4000000000000001 0.0
8.8 1.4000000000000001 0.0
9.200000000000001 1.4000000000000001 0.0
9.600000000000001 1.4000000000000001 0.0
10.0 1.4000000000000001 0.0
10.4 1.4000000000000001 0.0
10.8 1.4000000000000001 0.0
11.200000000000001 1.4000000000000001 0.0
11.600000000000001 1.4000000000000001 0.0
12.0 1.4000000000000001 0.0
12.4 1.4000000000000001 0.0
12.8 1.4000000000000001 0.0
13.200000000000001 1.4000000000000001 0.0
13.600000000000001 1.4000000000000001 0.0
14.0 1.4000000000000001 0.0
14.4 1.4000000000000001 0.0
14.8 1.4000000000000001 0.0
15.200000000000001 1.4000000000000001 0.0
15.600000000000001 1.4000000000000001 0.0
16.0 1.4000000000000001 0.0
0.0 1.5 0.0
0.4 1.5 0.0
0.8 1.5 0.0
1.2000000000000002 1.5 0.0
1.6 1.5 0.0
2.0 1.5 0.0
2.4000000000000004 1.5 0.0
2.8000000000000003 1.5 0.0
3.2 1.5 0.0
3.6 1.5 0.0
4.0 1.5 0.0
4.4 1.5 0.0
4.800000000000001 1.5 0.0
5.2 1.5 0.0
5.6000000000000005 1.5 0.0
6.0 1.5 0.0
6.4 1.5 0.0
6.800000000000001 1.5 0.0
7.2 1.5 0.0
7.6000000000000005 1.5 0.0
8.0 1.5 0.0
8.4 1.5 0.0
8.8 1.5 0.0
9.200000000000001 1.5 0.0
9.600000000000001 1.5 0.0
10.0 1.5 0.0
10.4 1.5 0.0
10.8 1.5 0.0
11.200000000000001 1.5 0.0
11.600000000000001 1.5 0.0
12.0 1.5 0.0
12.4 1.5 0.0
12.8 1.5 0.0
13.200000000000001 1.5 0.0
13.600000000000001 1.5 0.0
14.0 1.5 0.0
14.4 1.5 0.0
14.8 1.5 0.0
15.200000000000001 1.5 0.0
15.600000000000001 1.5 0.0
16.0 1.5 0.0
0.0 1.6 0.0
0.4 1.6 0.0
0.8 1.6 0.0
1.2000000000000002 1.6 0.0
1.6 1.6 0.0
2.0 1.6 0.0
2.4000000000000004 1.6 0.0
2.8000000000000003 1.6 0.0
3.2 1.6 0.0
3.6 1.6 0.0
4.0 1.6 0.0
4.4 1.6 0.0
4.800000000000001 1.6 0.0
5.2 1.6 0.0
5.6000000000000005 1.6 0.0
6.0 1.6 0.0
6.4 1.6 0.0
6.800000000000001 1.6 0.0
7.2 1.6 0.0
7.6000000000000005 1.6 0.0
8.0 1.6 0.0
8.4 1.6 0.0
8.8 1.6 0.0
9.200000000000001 1.6 0.0
9.600000000000001 1.6 0.0
10.0 1.6 0.0
10.4 1.6 0.0
10.8 1.6 0.0
11.200000000000001 1.6 0.0
11.600000000000001 1.6 0.0
12.0 1.6 0.0
12.4 1.6 0.0
12.8 1.6 0.0
13.200000000000001 1.6 0.0
13.600000000000001 1.6 0.0
14.0 1.6 0.0
14.4 1.6 0.0
14.8 1.6 0.0
15.200000000000001 1.6 0.0
15.600000000000001 1.6 0.0
16.0 1.6 0.0
0.0 1.7000000000000002 0.0
0.4 1.7000000000000002 0.0
0.8 1.7000000000000002 0.0
1.2000000000000002 1.7000000000000002 0.0
1.6 1.7000000000000002 0.0
2.0 1.7000000000000002 0.0
2.4000000000000004 1.7000000000000002 0.0
2.8000000000000003 1.7000000000000002 0.0
3.2 1.7000000000000002 0.0
3.6 1.7000000000000002 0.0
4.0 1.7000000000000002 0.0
4.4 1.7000000000000002 0.0
4.800000000000001 1.7000000000000002 0.0
5.2 1.7000000000000002 0.0
5.6000000000000005 1.7000000000000002 0.0
6.0 1.7000000000000002 0.0
6.4 1.7000000000000002 0.0
6.800000000000001 1.7000000000000002 0.0
7.2 1.7000000000000002 0.0
7.6000000000000005 1.7000000000000002 0.0
8.0 1.7000000000000002 0.0
8.4 1.7000000000000002 0.0
8.8 1.7000000000000002 0.0
9.200000000000001 1.7000000000000002 0.0
9.600000000000001 1.7000000000000002 0.0
10.0 1.7000000000000002 0.0
10.4 1.7000000000000002 0.0
10.8 1.7000000000000002 0.0
11.200000000000001 1.7000000000000002 0.0
11.600000000000001 1.7000000000000002 0.0
12.0 1.7000000000000002 0.0
12.4 1.7000000000000002 0.0
12.8 1.7000000000000002 0.0
13.200000000000001 1.7000000000000002 0.0
13.600000000000001 1.7000000000000002 0.0
14.0 1.7000000000000002 0.0
14.4 1.7000000000000002 0.0
14.8 1.7000000000000002 0.0
15.200000000000001 1.7000000000000002 0.0
15.600000000000001 1.7000000000000002 0.0
16.0 1.7000000000000002 0.0
0.0 1.8 0.0
0.4 1.8 0.0
0.8 1.8 0.0
1.2000000000000002 1.8 0.0
1.6 1.8 0.0
2.0 1.8 0.0
2.4000000000000004 1.8 0.0
2.8000000000000003 1.8 0.0
3.2 1.8 0.0
3.6 1.8 0.0
4.0 1.8 0.0
4.4 1.8 0.0
4.800000000000001 1.8 0.0
5.2 1.8 0.0
5.6000000000000005 1.8 0.0
6.0 1.8 0.0
6.4 1.8 0.0
6.800000000000001 1.8 0.0
7.2 1.8 0.0
7.6000000000000005 1.8 0.0
8.0 1.8 0.0
8.4 1.8 0.0
8.8 1.8 0.0
9.200000000000001 1.8 0.0
9.600000000000001 1.8 0.0
10.0 1.8 0.0
10.4 1.8 0.0
10.8 1.8 0.0
11.200000000000001 1.8 0.0
11.600000000000001 1.8 0.0
12.0 1.8 0.0
12.4 1.8 0.0
12.8 1.8 0.0
13.200000000000001 1.8 0.0
13.600000000000001 1.8 0.0
14.0 1.8 0.0
14.4 1.8 0.0
14.8 1.8 0.0
15.200000000000001 1.8 0.0
15.600000000000001 1.8 0.0
16.0 1.8 0.0
0.0 1.9000000000000001 0.0
0.4 1.9000000000000001 0.0
0.8 1.9000000000000001 0.0
1.2000000000000002 1.9000000000000001 0.0
1.6 1.9000000000000001 0.0
2.0 1.9000000000000001 0.0
2.4000000000000004 1.9000000000000001 0.0
2.8000000000000003 1.9000000000000001 0.0
3.2 1.9000000000000001 0.0
3.6 1.9000000000000001 0.0
4.0 1.9000000000000001 0.0
4.4 1.9000000000000001 0.0
4.800000000000001 1.9000000000000001 0.0
5.2 1.9000000000000001 0.0
5.6000000000000005 1.9000000000000001 0.0
6.0 1.9000000000000001 0.0
6.4 1.9000000000000001 0.0
6.800000000000001 1.9000000000000001 0.0
7.2 1.9000000000000001 0.0
7.6000000000000005 1.9000000000000001 0.0
8.0 1.9000000000000001 0.0
8.4 1.9000000000000001 0.0
8.8 1.9000000000000001 0.0
9.200000000000001 1.9000000000000001 0.0
9.600000000000001 1.9000000000000001 0.0
10.0 1.9000000000000001 0.0
10.4 1.9000000000000001 0.0
10.8 1.9000000000000001 0.0
11.200000000000001 1.9000000000000001 0.0
11.600000000000001 1.9000000000000001 0.0
12.0 1.9000000000000001 0.0
12.4 1.9000000000000001 0.0
12.8 1.9000000000000001 0.0
13.200000000000001 1.9000000000000001 0.0
13.600000000000001 1.9000000000000001 0.0
14.0 1.9000000000000001 0.0
14.4 1.9000000000000001 0.0
14.8 1.9000000000000001 0.0
15.200000000000001 1.9000000000000001 0.0
15.600000000000001 1.9000000000000001 0.0
16.0 1.9000000000000001 0.0
0.0 2.0 0.0
0.4 2.0 0.0
0.8 2.0 0.0
1.2000000000000002 2.0 0.0
1.6 2.0 0.0
2.0 2.0 0.0
2.4000000000000004 2.0 0.0
2.8000000000000003 2.0 0.0
3.2 2.0 0.0
3.6 2.0 0.0
4.0 2.0 0.0
4.4 2.0 0.0
4.800000000000001 2.0 0.0
5.2 2.0 0.0
5.6000000000000005 2.0 0.0
6.0 2.0 0.0
6.4 2.0 0.0
6.800000000000001 2.0 0.0
7.2 2.0 0.0
7.6000000000000005 2.0 0.0
8.0 2.0 0.0
8.4 2.0 0.0
8.8 2.0 0.0
9.200000000000001 2.0 0.0
9.600000000000001 2.0 0.0
10.0 2.0 0.0
10.4 2.0 0.0
10.8 2.0 0.0
11.200000000000001 2.0 0.0
11.600000000000001 2.0 0.0
12.0 2.0 0.0
12.4 2.0 0.0
12.8 2.0 0.0
13.200000000000001 2.0 0.0
13.600000000000001 2.0 0.0
14.0 2.0 0.0
14.4 2.0 0.0
14.8 2.0 0.0
15.200000000000001 2.0 0.0
15.600000000000001 2.0 0.0
16.0 2.0 0.0
CELLS 800 4000
4 0 1 42 41
4 1 2 43 42
4 2 3 44 43
4 3 4 45 44
4 4 5 46 45
4 5 6 47 46
4 6 7 48 47
4 7 8 49 48
4 8 9 50 49
4 9 10 51 50
4 10 11 52 51
4 11 12 53 52
4 12 13 54 53
4 13 14 55 54
4 14 15 56 55
4 15 16 57 56
4 16 17 58 57
4 17 18 59 58
4 18 19 60 59
4 19 20 61 60
4 20 21 62 61
4 21 22 63 62
4 22 23 64 63
4 23 24 65 64
4 24 25 66 65
4 25 26 67 66
4 26 27 68 67
4 27 28 69 68
4 28 29 70 69
4 29 30 71 70
4 30 31 72 71
4 31 32 73 72
4 32 33 74 73
4 33 34 75 74
4 34 35 76 75
4 35 36 77 76
4 36 37 78 77
4 37 38 79 78
4 38 39 80 79
4 39 40 81 80
4 41 42 83 82
4 42 43 84 83
4 43 44 85 84
4 44 45 86 85
4 45 46 87 86
4 46 47 88 87
4 47 48 89 88
4 48 49 90 89
4 49 50 91 90
4 50 51 92 91
4 51 52 93 92
4 52 53 94 93
4 53 54 95 94
4 54 55 96 95
4 55 56 97 96
4 56 57 98 97
4 57 58 99 98
4 58 59 100 99
4 59 60 101 100
4 60 61 102 101
4 61 62 103 102
4 62 63 104 103
4 63 64 105 104
4 64 65 106 105
4 65 66 107 106
4 66 67 108 107
4 67 68 109 108
4 68 69 110 109
4 69 70 111 110
4 70 71 112 111
4 71 72 113 112
4 72 73 114 113
4 73 74 115 114
4 74 75 116 115
4 75 76 117 116
4 76 77 118 117
4 77 78 119 118
4 78 79 120 119
4 79 80 121 120
4 80 81 122 121
4 82 83 124 123
4 83 84 125 124
4 84 85 126 125
4 85 86 127 126
4 86 87 128 127
4 87 88 129 128
4 88 89 130 129
4 89 90 131 130
4 90 91 132 131
4 91 92 133 132
4 92 93 134 133
4 93 94 135 134
4 94 95 136 135
4 95 96 137 136
4 96 97 138 137
4 97 98 139 138
4 98 99 140 139
4 99 100 141 140
4 100 101 142 141
4 101 102 143 142
4 102 103 144 143
4 103 104 145 144
4 104 105 146 145
4 105 106 147 146
4 106 107 148 147
4 107 108 149 148
4 108 109 150 149
4 109 110 151 150
4 110 111 152 151
4 111 112 153 152
4 112 113 154 153
4 113 114 155 154
4 114 115 156 155
4 115 116 157 156
4 116 117 158 157
4 117 118 159 158
4 118 119 160 159
4 119 120 161 160
4 120 121 162 161
4 121 122 163 162
4 123 124 165 164
4 124 125 166 165
4 125 126 167 166
4 126 127 168 167
4 127 128 169 168
4 128 129 170 169
4 129 130 171 170
4 130 131 172 171
4 131 132 173 172
4 132 133 174 173
4 133 134 175 174
4 134 135 176 175
4 135 136 177 176
4 136 137 178 177
4 137 138 179 178
4 138 139 180 179
4 139 140 181 180
4 140 141 182 181
4 141 142 183 182
4 142 143 184 183
4 143 144 185 184
4 144 145 186 185
4 145 146 187 186
4 146 147 188 187
4 147 148 189 188
4 148 149 190 189
4 149 150 191 190
4 150 151 192 191
4 151 152 193 192
4 152 153 194 193
4 153 154 195 194
4 154 155 196 195
4 155 156 197 196
4 156 157 198 197
4 157 158 199 198
4 158 159 200 199
4 159 160 201 200
4 160 161 202 201
4 161 162 203 202
4 162 163 204 203
4 164 165 206 205
4 165 166 207 206
4 166 167 208 207
4 167 168 209 208
4 168 169 210 209
4 169 170 211 210
4 170 171 212 211
4 171 172 213 212
4 172 173 214 213
4 173 174 215 214
4 174 175 216 215
4 175 176 217 216
4 176 177 218 217
4 177 178 219 218
4 178 179 220 219
4 179 180 221 220
4 180 181 222 221
4 181 182 223 222
4 182 183 224 223
4 183 184 225 224
4 184 185 226 225
4 185 186 227 226
4 186 187 228 227
4 187 188 229 228
4 188 189 230 229
4 189 190 231 230
4 190 191 232 231
4 191 192 233 232
4 192 193 234 233
4 193 194 235 234
4 194 195 236 235
4 195 196 237 236
4 196 197 238 237
4 197 198 239 238
4 198 199 240 239
4 199 200 241 240
4 200 201 242 241
4 201 202 243 242
4 202 203 244 243
4 203 204 245 244
4 205 206 247 246
4 206 207 248 247
4 207 208 249 248
4 208 209 250 249
4 209 210 251 250
4 210 211 252 251
4 211 212 253 252
4 212 213 254 253
4 213 214 255 254
4 214 215 256 255
4 215 216 257 256
4 216 217 258 257
4 217 218 259 258
4 218 219 260 259
4 219 220 261 260
4 220 221 262 261
4 221 222 263 262
4 222 223 264 263
4 223 224 265 264
4 224 225 266 265
4 225 226 267 266
4 226 227 268 267
4 227 228 269 268
4 228 229 270 269
4 229 230 271 270
4 230 231 272 271
4 231 232 273 272
4 232 233 274 273
4 233 234 275 274
4 234 235 276 275
4 235 236 277 276
4 236 237 278 277
4 237 238 279 278
4 238 239 280 279
4 239 240 281 280
4 240 241 282 281
4 241 242 283 282
4 242 243 284 283
4 243 244 285 284
4 244 245 286 285
4 246 247 288 287
4 247 248 289 288
4 248 249 290 289
4 249 250 291 290
4 250 251 292 291
4 251 252 293 292
4 252 253 294 293
4 253 254 295 294
4 254 255 296 295
4 255 256 297 296
4 256 257 298 297
4 257 258 299 298
4 258 259 300 299
4 259 260 301 300
4 260 261 302 301
4 261 262 303 302
4 262 263 304 303
4 263 264 305 304
4 264 265 306 305
4 265 266 307 306
4 266 267 308 307
4 267 268 309 308
4 268 269 310 309
4 269 270 311 310
4 270 271 312 311
4 271 272 313 312
4 272 273 314 313
4 273 274 315 314
4 274 275 316 315
4 275 276 317 316
4 276 277 318 317
4 277 278 319 318
4 278 279 320 319
4 279 280 321 320
4 280 281 322 321
4 281 282 323 322
4 282 283 324 323
4 283 284 325 324
4 284 285 326 325
4 285 286 327 326
4 287 288 329 328
4 288 289 330 329
4 289 290 331 330
4 290 291 332 331
4 291 292 333 332
4 292 293 334 333
4 293 294 335 334
4 294 295 336 335
4 295 296 337 336
4 296 297 338 337
4 297 298 339 338
4 298 299 340 339
4 299 300 341 340
4 300 301 342 341
4 301 302 343 342
4 302 303 344 343
4 303 304 345 344
4 304 305 346 345
4 305 306 347 346
4 306 307 348 347
4 307 308 349 348
4 308 309 350 349
4 309 310 351 350
4 310 311 352 351
4 311 312 353 352
4 312 313 354 353
4 313 314 355 354
4 314 315 356 355
4 315 316 357 356
4 316 317 358 357
4 317 318 359 358
4 318 319 360 359
4 319 320 361 360
4 320 321 362 361
4 321 322 363 362
4 322 323 364 363
4 323 324 365 364
4 324 325 366 365
4 325 326 367 366
4 326 327 368 367
4 328 329 370 369
4 329 330 371 370
4 330 331 372 371
4 331 332 373 372
4 332 333 374 373
4 333 334 375 374
4 334 335 376 375
4 335 336 377 376
4 336 337 378 377
4 337 338 379 378
4 338 339 380 379
4 339 340 381 380
4 340 341 382 381
4 341 342 383 382
4 342 343 384 383
4 343 344 385 384
4 344 345 386 385
4 345 346 387 386
4 346 347 388 387
4 347 348 389 388
4 348 349 390 389
4 349 350 391 390
4 350 351 392 391
4 351 352 393 392
4 352 353 394 393
4 353 354 395 394
4 354 355 396 395
4 355 356 397 396
4 356 357 398 397
4 357 358 399 398
4 358 359 400 399
4 359 360 401 400
4 360 361 402 401
4 361 362 403 402
4 362 363 404 403
4 363 364 405 404
4 364 365 406 405
4 365 366 407 406
4 366 367 408 407
4 367 368 409 408
4 369 370 411 410
4 370 371 412 411
4 371 372 413 412
4 372 373 414 413
4 373 374 415 414
4 374 375 416 415
4 375 376 417 416
4 376 377 418 417
4 377 378 419 418
4 378 379 420 419
4 379 380 421 420
4 380 381 422 421
4 381 382 423 422
4 382 383 424 423
4 383 384 425 424
4 384 385 426 425
4 385 386 427 426
4 386 387 428 427
4 387 388 429 428
4 388 389 430 429
4 389 390 431 430
4 390 391 432 431
4 391 392 433 432
4 392 393 434 433
4 393 394 435 434
4 394 395 436 435
4 395 396 437 436
4 396 397 438 437
4 397 398 439 438
4 398 399 440 439
4 399 400 441 440
4 400 401 442 441
4 401 402 443 442
4 402 403 444 443
4 403 404 445 444
4 404 405 446 445
4 405 406 447 446
4 406 407 448 447
4 407 408 449 448
4 408 409 450 449
4 410 411 452 451
4 411 412 453 452
4 412 413 454 453
4 413 414 455 454
4 414 415 456 455
4 415 416 457 456
4 416 417 458 457
4 417 418 459 458
4 418 419 460 459
4 419 420 461 460
4 420 421 462 461
4 421 422 463 462
4 422 423 464 463
4 423 424 465 464
4 424 425 466 465
4 425 426 467 466
4 426 427 468 467
4 427 428 469 468
4 428 429 470 469
4 429 430 471 470
4 430 431 472 471
4 431 432 473 472
4 432 433 474 473
4 433 434 475 474
4 434 435 476 475
4 435 436 477 476
4 436 437 478 477
4 437 438 479 478
4 438 439 480 479
4 439 440 481 480
4 440 441 482 481
4 441 442 483 482
4 442 443 484 483
4 443 444 485 484
4 444 445 486 485
4 445 446 487 486
4 446 447 488 487
4 447 448 489 488
4 448 449 490 489
4 449 450 491 490
4 451 452 493 492
4 452 453 494 493
4 453 454 495 494
4 454 455 496 495
4 455 456 497 496
4 456 457 498 497
4 457 458 499 498
4 458 459 500 499
4 459 460 501 500
4 460 461 502 501
4 461 462 503 502
4 462 463 504 503
4 463 464 505 504
4 464 465 506 505
4 465 466 507 506
4 466 467 508 507
4 467 468 509 508
4 468 469 510 509
4 469 470 511 510
4 470 471 512 511
4 471 472 513 512
4 472 473 514 513
4 473 474 515 514
4 474 475 516 515
4 475 476 517 516
4 476 477 518 517
4 477 478 519 518
4 478 479 520 519
4 479 480 521 520
4 480 481 522 521
4 481 482 523 522
4 482 483 524 523
4 483 484 525 524
4 484 485 526 525
4 485 486 527 526
4 486 487 528 527
4 487 488 529 528
4 488 489 530 529
4 489 490 531 530
4 490 491 532 531
4 492 493 534 533
4 493 494 535 534
4 494 495 536 535
4 495 496 537 536
4 496 497 538 537
4 497 498 539 538
4 498 499 540 539
4 499 500 541 540
4 500 501 542 541
4 501 502 543 542
4 502 503 544 543
4 503 504 545 544
4 504 505 546 545
4 505 506 547 546
4 506 507 548 547
4 507 508 549 548
4 508 509 550 549
4 509 510 551 550
4 510 511 552 551
4 511 512 553 552
4 512 513 554 553
4 513 514 555 554
4 514 515 556 555
4 515 516 557 556
4 516 517 558 557
4 517 518 559 558
4 518 519 560 559
4 519 520 561 560
4 520 521 562 561
4 521 522 563 562
4 522 523 564 563
4 523 524 565 564
4 524 525 566 565
4 525 526 567 566
4 526 527 568 567
4 527 528 569 568
4 528 529 570 569
4 529 530 571 570
4 530 531 572 571
4 531 532 573 572
4 533 534 575 574
4 534 535 576 575
4 535 536 577 576
4 536 537 578 577
4 537 538 579 578
4 538 539 580 579
4 539 540 581 580
4 540 541 582 581
4 541 542 583 582
4 542 543 584 583
4 543 544 585 584
4 544 545 586 585
4 545 546 587 586
4 546 547 588 587
4 547 548 589 588
4 548 549 590 589
4 549 550 591 590
4 550 551 592 591
4 551 552 593 592
4 552 553 594 593
4 553 554 595 594
4 554 555 596 595
4 555 556 597 596
4 556 557 598 597
4 557 558 599 598
4 558 559 600 599
4 559 560 601 600
4 560 561 602 601
4 561 562 603 602
4 562 563 604 603
4 563 564 605 604
4 564 565 606 605
4 565 566 607 606
4 566 567 608 607
4 567 568 609 608
4 568 569 610 609
4 569 570 611 610
4 570 571 612 611
4 571 572 613 612
4 572 573 614 613
4 574 575 616 615
4 575 576 617 616
4 576 577 618 617
4 577 578 619 618
4 578 579 620 619
4 579 580 621 620
4 580 581 622 621
4 581 582 623 622
4 582 583 624 623
4 583 584 625 624
4 584 585 626 625
4 585 586 627 626
4 586 587 628 627
4 587 588 629 628
4 588 589 630 629
4 589 590 631 630
4 590 591 632 631
4 591 592 633 632
4 592 593 634 633
4 593 594 635 634
4 594 595 636 635
4 595 596 637 636
4 596 597 638 637
4 597 598 639 638
4 598 599 640 639
4 599 600 641 640
4 600 601 642 641
4 601 602 643 642
4 602 603 644 643
4 603 604 645 644
4 604 605 646 645
4 605 606 647 646
4 606 607 648 647
4 607 608 649 648
4 608 609 650 649
4 609 610 651 650
4 610 611 652 651
4 611 612 653 652
4 612 613 654 653
4 613 614 655 654
4 615 616 657 656
4 616 617 658 657
4 617 618 659 658
4 618 619 660 659
4 619 620 661 660
4 620 621 662 661
4 621 622 663 662
4 622 623 664 663
4 623 624 665 664
4 624 625 666 665
4 625 626 667 666
4 626 627 668 667
4 627 628 669 668
4 628 629 670 669
4 629 630 671 670
4 630 631 672 671
4 631 632 673 672
4 632 633 674 673
4 633 634 675 674
4 634 635 676 675
4 635 636 677 676
4 636 637 678 677
4 637 638 679 678
4 638 639 680 679
4 639 640 681 680
4 640 641 682 681
4 641 642 683 682
4 642 643 684 683
4 643 644 685 684
4 644 645 686 685
4 645 646 687 686
4 646 647 688 687
4 647 648 689 688
4 648 649 690 689
4 649 650 691 690
4 650 651 692 691
4 651 652 693 692
4 652 653 694 693
4 653 654 695 694
4 654 655 696 695
4 656 657 698 697
4 657 658 699 698
4 658 659 700 699
4 659 660 701 700
4 660 661 702 701
4 661 662 703 702
4 662 663 704 703
4 663 664 705 704
4 664 665 706 705
4 665 666 707 706
4 666 667 708 707
4 667 668 709 708
4 668 669 710 709
4 669 670 711 710
4 670 671 712 711
4 671 672 713 712
4 672 673 714 713
4 673 674 715 714
4 674 675 716 715
4 675 676 717 716
4 676 677 718 717
4 677 678 719 718
4 678 679 720 719
4 679 680 721 720
4 680 681 722 721
4 681 682 723 722
4 682 683 724 723
4 683 684 725 724
4 684 685 726 725
4 685 686 727 726
4 686 687 728 727
4 687 688 729 728
4 688 689 730 729
4 689 690 731 730
4 690 691 732 731
4 691 692 733 732
4 692 693 734 733
4 693 694 735 734
4 694 695 736 735
4 695 696 737 736
4 697 698 739 738
4 698 699 740 739
4 699 700 741 740
4 700 701 742 741
4 701 702 743 742
4 702 703 744 743
4 703 704 745 744
4 704 705 746 745
4 705 706 747 746
4 706 707 748 747
4 707 708 749 748
4 708 709 750 749
4 709 710 751 750
4 710 711 752 751
4 711 712 753 752
4 712 713 754 753
4 713 714 755 754
4 714 715 756 755
4 715 716 757 756
4 716 717 758 757
4 717 718 759 758
4 718 719 760 759
4 719 720 761 760
4 720 721 762 761
4 721 722 763 762
4 722 723 764 763
4 723 724 765 764
4 724 725 766 765
4 725 726 767 766
4 726 727 768 767
4 727 728 769 768
4 728 729 770 769
4 729 730 771 770
4 730 731 772 771
4 731 732 773 772
4 732 733 774 773
4 733 734 775 774
4 734 735 776 775
4 735 736 777 776
4 736 737 778 777
4 738 739 780 779
4 739 740 781 780
4 740 741 782 781
4 741 742 783 782
4 742 743 784 783
4 743 744 785 784
4 744 745 786 785
4 745 746 787 786
4 746 747 788 787
4 747 748 789 788
4 748 749 790 789
4 749 750 791 790
4 750 751 792 791
4 751 752 793 792
4 752 753 794 793
4 753 754 795 794
4 754 755 796 795
4 755 756 797 796
4 756 757 798 797
4 757 758 799 798
4 758 759 800 799
4 759 760 801 800
4 760 761 802 801
4 761 762 803 802
4 762 763 804 803
4 763 764 805 804
4 764 765 806 805
4 765 766 807 806
4 766 767 808 807
4 767 768 809 808
4 768 769 810 809
4 769 770 811 810
4 770 771 812 811
4 771 772 813 812
4 772 773 814 813
4 773 774 815 814
4 774 775 816 815
4 775 776 817 816
4 776 777 818 817
4 777 778 819 818
4 779 780 821 820
4 780 781 822 821
4 781 782 823 822
4 782 783 824 823
4 783 784 825 824
4 784 785 826 825
4 785 786 827 826
4 786 787 828 827
4 787 788 829 828
4 788 789 830 829
4 789 790 831 830
4 790 791 832 831
4 791 792 833 832
4 792 793 834 833
4 793 794 835 834
4 794 795 836 835
4 795 796 837 836
4 796 797 838 837
4 797 798 839 838
4 798 799 840 839
4 799 800 841 840
4 800 801 842 841
4 801 802 843 842
4 802 803 844 843
4 803 804 845 844
4 804 805 846 845
4 805 806 847 846
4 806 807 848 847
4 807 808 849 848
4 808 809 850 849
4 809 810 851 850
4 810 811 852 851
4 811 812 853 852
4 812 813 854 853
4 813 814 855 854
4 814 815 856 855
4 815 816 857 856
4 816 817 858 857
4 817 818 859 858
4 818 819 860 859
CELL_TYPES 800
9
9
9
9
9
9
9
9
9
9
9
9
9
9
9
9
9
9
9
9
9
9
9
9
9
9
9
9
9
9
9
9
9
9
9
9
9
9
9
9
9
9
9
9
9
9
9
9
9
9
9
9
9
9
9
9
9
9
9
9
9
9
9
9
9
9
9
9
9
9
9
9
9
9
9
9
9
9
9
9
9
9
9
9
9
9
9
9
9
9
9
9
9
9
9
9
9
9
9
9
9
9
9
9
9
9
9
9
9
9
9
9
9
9
9
9
9
9
9
9
9
9
9
9
9
9
9
9
9
9
9
9
9
9
9
9
9
9
9
9
9
9
9
9
9
9
9
9
9
9
9
9
9
9
9
9
9
9
9
9
9
9
9
9
9
9
9
9
9
9
9
9
9
9
9
9
9
9
9
9
9
9
9
9
9
9
9
9
9
9
9
9
9
9
9
9
9
9
9
9
9
9
9
9
9
9
9
9
9
9
9
9
9
9
9
9
9
9
9
9
9
9
9
9
9
9
9
9
9
9
9
9
9
9
9
9
9
9
9
9
9
9
9
9
9
9
9
9
9
9
9
9
9
9
9
9
9
9
9
9
9
9
9
9
9
9
9
9
9
9
9
9
9
9
9
9
9
9
9
9
9
9
9
9
9
9
9
9
9
9
9
9
9
9
9
9
9
9
9
9
9
9
9
9
9
9
9
9
9
9
9
9
9
9
9
9
9
9
9
9
9
9
9
9
9
9
9
9
9
9
9
9
9
9
9
9
9
9
9
9
9
9
9
9
9
9
9
9
9
9
9
9
9
9
9
9
9
9
9
9
9
9
9
9
9
9
9
9
9
9
9
9
9
9
9
9
9
9
9
9
9
9
9
9
9
9
9
9
9
9
9
9
9
9
9
9
9
9
9
9
9
9
9
9
9
9
9
9
9
9
9
9
9
9
9
9
9
9
9
9
9
9
9
9
9
9
9
9
9
9
9
9
9
9
9
9
9
9
9
9
9
9
9
9
9
9
9
9
9
9
9
9
9
9
9
9
9
9
9
9
9
9
9
9
9
9
9
9
9
9
9
9
9
9
9
9
9
9
9
9
9
9
9
9
9
9
9
9
9
9
9
9
9
9
9
9
9
9
9
9
9
9
9
9
9
9
9
9
9
9
9
9
9
9
9
9
9
9
9
9
9
9
9
9
9
9
9
9
9
9
9
9
9
9
9
9
9
9
9
9
9
9
9
9
9
9
9
9
9
9
9
9
9
9
9
9
9
9
9
9
9
9
9
9
9
9
9
9
9
9
9
9
9
9
9
9
9
9
9
9
9
9
9
9
9
9
9
9
9
9
9
9
9
9
9
9
9
9
9
9
9
9
9
9
9
9
9
9
9
9
9
9
9
9
9
9
9
9
9
9
9
9
9
9
9
9
9
9
9
9
9
9
9
9
9
9
9
9
9
9
9
9
9
9
9
9
9
9
9
9
9
9
9
9
9
9
9
9
9
9
9
9
9
9
9
9
9
9
9
9
9
9
9
9
9
9
9
9
9
9
9
9
9
9
9
9
9
9
9
9
9
9
9
9
9
9
9
9
9
9
9
9
9
9
9
9
9
9
9
9
9
9
9
9
9
9
9
9
9
9
9
9
9
9
9
9
9
9
9
9
9
9
9
9
9
9
9
9
9
9
9
9
9
9
9
9
9
9
9
9
9
9
9
9
9
9
9
9
9
9
9
9
9
9
9
9
9
9
9
9
9
9
9
9
9
9
9
9
9
9
9
9
9
9
9
9
9
9
9
9
9
9
9
9
9
9
9
9
9
9
POINT_DATA 861
SCALARS Disp float 2
LOOKUP_TABLE default
0.0 0.0
0.005891438416994824 -0.25897263993433556
0.007240709914568073 -0.5086165455598514
0.008030459901415949 -0.7571882078882309
0.00905731586144067 -1.0053868940863016
0.010735285016905996 -1.2527888520689412
0.013706482954139312 -1.4988286824956616
0.018757897091876995 -1.7427937704753085
0.026816856848046765 -1.983792283955682
0.03889443764567243 -2.2206608640579053
0.055998825110050485 -2.4518286459921868
0.07907721377206946 -2.675237220163837
0.10898874446559521 -2.8883709798310147
0.14649550151402946 -3.0883756017023285
0.19225867694764648 -3.2721435089060757
0.24677064152083958 -3.436382186883416
0.31023286010221246 -3.577702363399208
0.38240992360905857 -3.6927599412033603
0.46250560626077647 -3.7784851581987238
0.549112931655914 -3.832330672608387
0.6399983176073811 -3.852568550673001
0.7308837035588437 -3.8323306726082658
0.8174910289539624 -3.778485158198478
0.8975867116056492 -3.6927599412030045
0.969763775112455 -3.577702363398762
1.033225993693784 -3.4363821868829065
1.0877379582669329 -3.2721435089055175
1.133501133700506 -3.0883756017017374
1.1710078907488972 -2.88837097983041
1.2009194214423806 -2.675237220163236
1.2239978101043623 -2.4518286459916077
1.2411021975687098 -2.22066086405736
1.253179778366311 -1.9837922839551785
1.2612387381224632 -1.7427937704748542
1.2662901522601888 -1.4988286824952612
1.2692613501974148 -1.2527888520686024
1.270939319352877 -1.005386894086024
1.2719661753129006 -0.7571882078880183
1.2727559252997482 -0.5086165455597025
1.27410519679732 -0.2589726399342534
1.2799966352143115 0.0
0.06459673462960337 -0.0024459248152452827
0.06872658958141886 -0.2592457154587533
0.06942859187217658 -0.5086788990260284
0.07012802962515777 -0.7572785048921471
0.07102721187159376 -1.0055357794113708
0.07245170737513942 -1.2531217714532623
0.07500506412305243 -1.4995228610100269
0.07943036460415183 -1.7440611630016973
0.08659842964583638 -1.9858698458350226
0.09743245502414857 -2.223790046358621
0.112832020423863 -2.456239410875824
0.1336270675237668 -2.6811406482292717
0.16057526025151223 -2.895958564977566
0.19436930837701544 -3.0978185136762084
0.2356129132982364 -3.283584902332427
0.28476535138155384 -3.449914218160269
0.3420323811924596 -3.5933328449435176
0.4072365427505129 -3.7103785715411886
0.47969710099836177 -3.79783636952046
0.5580769742282679 -3.8529875641818454
0.6399983176073664 -3.8737658247069864
0.7219196609864599 -3.852987564181721
0.8002995342163488 -3.7978363695202084
0.8727600924641702 -3.7103785715408244
0.9379642540221886 -3.593332844943062
0.9952312838330554 -3.4499142181597495
1.0443837219163328 -3.2835849023318584
1.085627326837514 -3.0978185136756067
1.1194213749629784 -2.895958564976951
1.146369567690686 -2.6811406482286615
1.167164614790556 -2.456239410875237
1.1825641801902427 -2.22379004635807
1.1933982055685328 -1.9858698458345143
1.2005662706102014 -1.7440611630012395
1.20499157109129 -1.4995228610096243
1.2075449278391965 -1.2531217714529221
1.2089694233427397 -1.005535779411093
1.2098686055891748 -0.7572785048919344
1.210568043342156 -0.5086788990258795
1.2112700456329135 -0.25924571545867076
1.2153999005847236 -0.0024459248152427964
0.1282010068786744 -0.004390373397403444
0.13123469995196696 -0.25938153399670544
0.13163625775141594 -0.5087113853529269
0.1322065995590653 -0.7573579622230181
0.13298825129216718 -1.0056541700755994
0.1341849635091867 -1.2533851578130377
0.13633079835900214 -1.500097961706673
0.14013291475330006 -1.7451487635023095
0.14639457991108645 -1.987689974639402
0.15595395423176162 -2.2265605888470774
0.16960714648089914 -2.4601629262355624
0.1880768817650996 -2.686401034032854
0.21202152877843275 -2.9027251693737943
0.2420522842467441 -3.1062468354528896
0.2787197580375367 -3.2938064498750768
0.32245140480865664 -3.462017392283041
0.37346785618199135 -3.6073344734419304
0.4316660317079439 -3.72619130590146
0.4964701466131547 -3.8152333888077874
0.5666099106365502 -3.871535444916054
0.6399983176073518 -3.8928000873543964
0.7133867245781487 -3.871535444915927
0.7835264886015287 -3.81523338880753
0.8483306035067153 -3.7261913059010885
0.9065287790326375 -3.607334473441466
0.9575452304059378 -3.462017392282513
1.0012768771770222 -3.2938064498744994
1.037944350967779 -3.1062468354522794
1.0679751064360559 -2.9027251693731704
1.0919197534493559 -2.6864010340322353
1.1103894887335262 -2.460162926234968
1.1240426809826387 -2.22656058884652
1.1336020553032942 -1.987689974638889
1.1398637204610662 -1.7451487635018488
1.1436658368553545 -1.5000979617062686
1.1458116717051647 -1.2533851578126964
1.1470083839221823 -1.0056541700753214
1.1477900356552835 -0.7573579622228056
1.148360377462933 -0.508711385352778
1.148761935262382 -0.25938153399662256
1.151795628335669 -0.0043903733973981625
0.19128104706113327 -0.005954269684468961
0.1935771093336134 -0.25947417953231716
0.19382174422554976 -0.5087292454619265
0.19426779723885854 -0.7574220454619899
0.1949354916871907 -1.0057502781442769
0.19593176831835155 -1.2535872179262657
0.19769378785565417 -1.500558089825432
0.20088029764523102 -1.7460576291539749
0.2062303614823608 -1.9892492469568699
0.2144969858899826 -2.2289661190293444
0.2263776352521625 -2.463591337928638
0.2424921162435396 -2.6910109263078095
0.2634037772996807 -2.90866312859262
0.2896410871844346 -3.113650468005713
0.32169036787749616 -3.3027962968117457
0.35995438530401214 -3.4726794713532936
0.4046727445373559 -3.6196966738517293
0.4558154294643395 -3.7401906809516645
0.5129196103374873 -3.8306687441708447
0.574902532820051 -3.888021243306101
0.6399983176073378 -3.9097770277473316
0.7050941023946202 -3.888021243305972
0.76707702487717 -3.8306687441705827
0.8241812057502962 -3.7401906809512866
0.8753238906772535 -3.6196966738512573
0.9200422499105675 -3.472679471352757
0.9583062673370522 -3.30279629681116
0.9903555480300821 -3.113650468005094
1.0165928579148058 -2.908663128591989
1.037504518970918 -2.691010926307184
1.0536189999622687 -2.463591337928037
1.0654996493244266 -2.228966119028782
1.073766273732031 -1.9892492469563532
1.0791163375691482 -1.7460576291535115
1.082302847358717 -1.5005580898250261
1.0840648668960151 -1.2535872179259242
1.0850611435271746 -1.0057502781439986
1.0857288379755066 -0.7574220454617774
1.0861748909888154 -0.5087292454617779
1.0864195258807516 -0.25947417953223395
1.0887155881532269 -0.00595426968446116
0.2540622679619977 -0.007218895421501543
0.25580630093842976 -0.25954614934653963
0.25596580003752123 -0.508739494202593
0.2563072744104872 -0.7574717066560638
0.25686519051037665 -1.0058283400057153
0.25768438325492987 -1.253739959799426
0.2591009173077698 -1.5009114200399545
0.26168632549025167 -1.7467907158908023
0.2661310727461964 -1.9905477570450154
0.27309966294087973 -2.231003854604851
0.28319532385707574 -2.466520755399617
0.2969395899923243 -2.694965764743079
0.3148003362633981 -2.913767798502995
0.33722456486258795 -3.1200243281643765
0.36463808127403746 -3.3105472945262275
0.3974055883006312 -3.481891392731658
0.43578176567567956 -3.630408477587739
0.4798118000205781 -3.7523638993953203
0.5291808746864981 -3.8441436936738995
0.5830529943454326 -3.902480286148269
0.6399983176073242 -3.9247545146340865
0.6969436408692116 -3.902480286148137
0.7508157605281335 -3.8441436936736335
0.8001848351940344 -3.7523638993949366
0.8442148695389103 -3.630408477587261
0.882591046913933 -3.4818913927311144
0.9153585539404997 -3.3105472945256347
0.942772070351922 -3.120024328163751
0.965196298951086 -2.9137677985023562
0.9830570452221349 -2.6949657647424474
0.9968013113573614 -2.466520755399011
1.0068969722735386 -2.2310038546042845
1.0138655624682067 -1.9905477570444954
1.0183103097241406 -1.7467907158903366
1.020895717906616 -1.5009114200395475
1.0223122519594525 -1.253739959799084
1.0231314447040047 -1.005828340005437
1.0236893608038942 -0.7574717066558512
1.02403083517686 -0.5087394942024445
1.0241903342759515 -0.25954614934645615
1.0259343672523793 -0.007218895421491515
0.3166462518087358 -0.008235506321388968
0.3179565157156632 -0.2596051482567938
0.3180666083215202 -0.5087468575944916
0.3183219467131331 -0.7575085227580599
0.31877303410957786 -1.005891617496591
0.3194367106603789 -1.2538541575677853
0.3205450131891257 -1.5011714715389184
0.32257129741361296 -1.747354146148683
0.32612210697941674 -1.9915885241001725
0.3318001675537437 -2.232674814330613
0.3401120675439102 -2.4689507442923913
0.3514839964398648 -2.698264823647206
0.3662917770595676 -2.918038083752865
0.38489968101898253 -3.1253668890860498
0.40766888275776203 -3.3170577479151135
0.43493203123386126 -3.4896486024693987
0.46693988313047896 -3.639459537916516
0.503802338148137 -3.7626981595887257
0.5453841188542341 -3.8556553161720735
0.5911409029429456 -3.9149303948261602
0.6399983176073104 -3.9377668667981873
0.6888557322716711 -3.914930394826027
0.7346125163603716 -3.8556553161718035
0.7761942970664527 -3.7626981595883366
0.8130567520840914 -3.639459537916033
0.8450646039806875 -3.489648602468849
0.8723277524567639 -3.3170577479145145
0.8950969541955209 -3.1253668890854183
0.9137048581549141 -2.9180380837522213
0.9285126387745964 -2.698264823646569
0.9398845676705326 -2.468950744291781
0.9481964676606833 -2.232674814330043
0.9538745282349977 -1.9915885240996498
0.9574253378007928 -1.7473541461482154
0.9594516220252748 -1.5011714715385103
0.9605599245540192 -1.253854157567443
0.9612236011048195 -1.0058916174963126
0.9616746885012644 -0.7575085227578474
0.9619300268928771 -0.5087468575943429
0.9620401194987341 -0.25960514825671005
0.963350383405658 -0.00823550632137705
0.379086208817983 -0.009043300525710805
0.38005123011008 -0.25965416365675803
0.38012940817985186 -0.5087537213299401
0.3803115985415974 -0.7575339559347067
0.38065767940366135 -1.0059418937788456
0.3811811346013438 -1.253938892702536
0.3820170299744744 -1.5013544373434793
0.38353346482940887 -1.7477626285396402
0.3862327315801718 -1.99237815551917
0.39063752553718895 -2.233983540929485
0.39718060708633424 -2.47088485176401
0.4061922772426932 -2.700911121491679
0.41795840664629413 -2.9214770654628652
0.4327619482710638 -3.1296811209051305
0.4508992413213711 -3.322329570929513
0.4726604517951658 -3.4959513271599816
0.4982903425221512 -3.6468442820636677
0.5279481097948063 -3.771180684898449
0.5616709148812842 -3.865191766928926
0.599245710614835 -3.9253717113432476
0.6399983176072962 -3.9488289562413486
0.6807509245997541 -3.925371711343112
0.7183257203332957 -3.8651917669286533
0.7520485254197601 -3.7711806848980562
0.7817062926923994 -3.6468442820631797
0.8073361834193674 -3.495951327159427
0.8290973938931434 -3.322329570928909
0.8472346869434327 -3.1296811209044946
0.8620382285681852 -2.9214770654622164
0.8738043579717704 -2.700911121491038
0.8828160281281142 -2.4708848517633957
0.8893591096772471 -2.2339835409289117
0.8937639036342543 -1.992378155518645
0.8964631703850104 -1.7477626285391712
0.897979605239941 -1.5013544373430707
0.8988155006130701 -1.2539388927021937
0.8993389558107521 -1.0059418937785671
0.899685036672816 -0.7575339559344941
0.8998672270345615 -0.5087537213297915
0.8999454051043333 -0.25965416365667404
0.9009104263964278 -0.009043300525697339
0.441417637891541 -0.009673815299885136
0.4421079749798202 -0.2596954776945994
0.4421617661532147 -0.5087605880688775
0.44227811054045824 -0.7575492993818727
0.44252070586516684 -1.0059792013087818
0.4429099204374529 -1.254001204957901
0.4435113514878518 -1.501475841811393
0.44456859776434854 -1.7480361052865467
0.4464765423634815 -1.9929320801315777
0.449654453148127 -2.234939161848637
0.45445598034524065 -2.472330554063623
0.4611316364198363 -2.702911840241797
0.46988312500349066 -2.9240923959448577
0.48091093137750685 -3.132974735761876
0.49444158151307477 -3.326369818342519
0.5107225194984956 -3.5008044152279676
0.5299854323082429 -3.6525627364598794
0.5524151627786957 -3.7778010346310884
0.5781952135129829 -3.872731903497974
0.6074572608780254 -3.9337849825234588
0.6399983176072815 -3.9579359205120523
0.6725393743365355 -3.9337849825233215
0.7018014217015709 -3.8727319034976992
0.7275814724358475 -3.7778010346306927
0.7500112029062881 -3.652562736459388
0.7692741157160219 -3.500804415227408
0.7855550537014281 -3.3263698183419117
0.799085703836983 -3.1329747357612363
0.8101135102109867 -2.9240923959442053
0.8188649987946296 -2.702911840241152
0.8255406548692139 -2.4723305540630056
0.8303421820663182 -2.234939161848061
0.8335200928509569 -1.992932080131051
0.8354280374500848 -1.748036105286077
0.8364852837265787 -1.501475841810984
0.8370867147769769 -1.2540012049575586
0.8374759293492626 -1.0059792013085034
0.8377185246739712 -0.75754929938166
0.8378348690612147 -0.5087605880687288
0.8378886602346092 -0.25969547769451534
0.8385789973228865 -0.00967381529987039
0.5036623174536143 -0.010156657951233964
0.5041430077238764 -0.2597311290658497
0.5041706598893595 -0.5087666346763886
0.504224733045111 -0.7575555789909857
0.5043663268924117 -1.006002872072592
0.5046192043015401 -1.254044792701121
0.50501267958154 -1.5015519372733799
0.5056710814298354 -1.748198411247982
0.5068581817334167 -1.9932746497659157
0.5088804386978327 -2.235560191930324
0.5119946165370696 -2.473301220551667
0.5163763476825917 -2.704279445003499
0.5221520946206742 -2.925897062619315
0.5294474572712818 -3.135261308106167
0.5384158694830811 -3.3291909613767383
0.5492503283067953 -3.5042182627232004
0.5621704377284996 -3.656622839906944
0.577386678040472 -3.7825547042131284
0.5951448717587459 -3.8782471857299217
0.6158885322600139 -3.940128959269476
0.6399983176072666 -3.9650607446392296
0.6641081029545176 -3.940128959269338
0.6848517634557812 -3.878247185729645
0.7026099571740475 -3.78255470421273
0.7178261974860112 -3.6566228399064507
0.7307463069077059 -3.504218262722638
0.7415807657314105 -3.3291909613761277
0.7505491779432015 -3.1352613081055254
0.7578445405938016 -2.92589706261866
0.7636202875318765 -2.7042794450028524
0.7680020186773915 -2.473301220551048
0.7711161965166221 -2.2355601919297468
0.773138453481034 -1.9932746497653877
0.7743255537846123 -1.7481984112475115
0.7749839556329062 -1.5015519372729706
0.7753774309129057 -1.2540447927007785
0.7756303083220338 -1.0060028720723133
0.7757719021693346 -0.7575555789907731
0.7758259753250859 -0.50876663467624
0.775853627490569 -0.2597311290657657
0.7763343177608298 -0.010156657951218255
0.5658357086150636 -0.010521535095458954
0.5661659917144733 -0.259763699736957
0.56616253846248 -0.5087700671496893
0.566155594928592 -0.7575535533815693
0.5661990366194933 -1.0060126773297189
0.5663119555312912 -1.2540695641129125
0.5665056448798778 -1.5015949396825696
0.5668228351168979 -1.748278204146786
0.5673739346158541 -1.9934411420663893
0.568333210648408 -2.235878796008947
0.5698415822126924 -2.473823009794663
0.571996101531588 -2.705036280683817
0.574851006671375 -2.926912356263039
0.5784673157061326 -3.1365630316538335
0.5829298777026701 -3.3308147310527203
0.5883658090485266 -3.5062108283616498
0.5949670776157551 -3.6590396505853815
0.6029891092381365 -3.7854536472117513
0.6127293964009293 -3.8817148848179834
0.6247128891446135 -3.9443365036936275
0.6399983176072512 -3.970144832345807
0.6552837460698882 -3.9443365036934885
0.6672672388135704 -3.881714884817705
0.6770075259763585 -3.785453647211351
0.6850295575987345 -3.659039650584887
0.6916308261659583 -3.506210828361086
0.6970667575118106 -3.3308147310521083
0.7015293195083447 -3.13656303165319
0.7051456285430994 -2.926912356262382
0.7080005336828831 -2.705036280683169
0.7101550530017755 -2.473823009794043
0.7116634245660572 -2.235878796008368
0.7126227005986094 -1.993441142065861
0.7131738000975645 -1.748278204146315
0.7134909903345839 -1.5015949396821604
0.7136846796831704 -1.25406956411257
0.7137975985949683 -1.0060126773294404
0.7138410402858696 -0.7575535533813565
0.7138340967519815 -0.5087700671495407
0.713830643499988 -0.25976369973687297
0.7141609265993971 -0.010521535095442541
0.6279550081409754 -0.010794200390535169
0.6281793126287911 -0.25979612761207443
0.6281424798415919 -0.5087690210091413
0.6280752276387358 -0.7575437042714578
0.6280230505396864 -1.0060087394622723
0.6279963309844984 -1.2540746813684263
0.6279860760193211 -1.5016084627927073
0.6279824734484311 -1.7483022624094784
0.6279812452874406 -1.9934849325483077
0.627981185782442 -2.2359592518407965
0.6279813231874429 -2.473956221868306
0.6279800973531023 -2.705236015192968
0.6279717079310433 -2.927189319202842
0.6279532770764825 -3.1369290526083966
0.6279390042936879 -3.331288384109304
0.6279934959066025 -3.506824385679581
0.6282774595259502 -3.6598480979525587
0.6290972174819586 -3.7865363445982654
0.6308820798727849 -3.8831660350212034
0.6341101188083218 -3.946344166105049
0.6399983176072351 -3.973089587130864
0.645886516406149 -3.94634416610491
0.6491145553416853 -3.8831660350209245
0.6508994177325105 -3.7865363445978644
0.6517191756885182 -3.659848097952063
0.6520031393078666 -3.5068243856790176
0.6520576309207822 -3.3312883841086918
0.6520433581379886 -3.1369290526077527
0.6520249272834295 -2.927189319202186
0.6520165378613721 -2.7052360151923196
0.6520153120270327 -2.4739562218676854
0.6520154494320345 -2.235959251840218
0.6520153899270362 -1.9934849325477793
0.6520141617660462 -1.7483022624090074
0.6520105591951563 -1.501608462792298
0.6520003042299791 -1.2540746813680836
0.6519735846747912 -1.0060087394619937
0.6519214075757418 -0.7575437042712452
0.6518541553728857 -0.5087690210089926
0.6518173225856865 -0.25979612761199045
0.652041627073502 -0.010794200390518288
0.6900313356449517 -0.010999777791843905
0.6901823234438741 -0.259828777405533
0.690114752830652 -0.5087629043251113
0.6899887040973136 -0.7575261972882769
0.6898436330733335 -1.0059914619720078
0.6896794467155514 -1.2540599283349319
0.6894657911382168 -1.501592392407719
0.689141313066782 -1.7482774888512171
0.6885881104067283 -1.9934409819652492
0.687629086479183 -2.2358788094417377
0.6861213418460147 -2.473822951441253
0.6839629571809662 -2.705034094019825
0.6810905037902988 -2.9269059552273573
0.6774383030681994 -3.136553773217914
0.6729513096339557 -3.3308183496019605
0.667630011761038 -3.506275642267953
0.6615894470062901 -3.6592685695775735
0.6551238285603583 -3.7860172526319777
0.6487013534669787 -3.88280458737098
0.6429978906115551 -3.9462670444556798
0.639998317607219 -3.973993155457147
0.6369987446028823 -3.9462670444555408
0.631295281747459 -3.8828045873707016
0.6248728066540831 -3.7860172526315767
0.6184071882081565 -3.6592685695770792
0.6123666234534152 -3.50627564226739
0.6070453255805036 -3.330818349601349
0.6025583321462653 -3.136553773217271
0.598906131424172 -2.9269059552267023
0.5960336780335111 -2.7050340940191777
0.5938752933684682 -2.4738229514406327
0.5923675487353045 -2.2358788094411586
0.5914085248077618 -1.9934409819647207
0.5908553221477101 -1.7482774888507464
0.590530844076276 -1.5015923924073098
0.590317188498942 -1.254059928334589
0.5901530021411601 -1.0059914619717294
0.5900079311171802 -0.7575261972880641
0.5898818823838416 -0.5087629043249625
0.5898143117706197 -0.25982877740544913
0.589965299569542 -0.010999777791826763
0.7520766599315079 -0.011156771528092267
0.752178184216279 -0.25985984391597466
0.752083167742939 -0.5087521078532763
0.7519013203570974 -0.7575012032982195
0.7516667382740116 -1.005961453044636
0.7513687403914392 -1.2540257556402232
0.750955980276321 -1.501546710725027
0.7502908673494809 -1.7481968036460847
0.7491030148702421 -1.9932744070751123
0.747082092166549 -2.2355603933954393
0.7439679256402202 -2.4733007231753485
0.7395814705755497 -2.7042747055692313
0.7337901881400287 -2.9258840876616117
0.726465097413716 -3.1352432205787886
0.7174805619387327 -3.329199822746546
0.7067628784036523 -3.504351102175163
0.6943754148787014 -3.6570800861230857
0.6805880823154127 -3.783658437176413
0.6659446602808807 -3.880426205433113
0.6516132006725579 -3.944219267451194
0.6399983176072034 -3.973030021373762
0.6283834345418486 -3.9442192674510546
0.6140519749335278 -3.8804262054328356
0.5994085528990026 -3.7836584371760136
0.5856212203357238 -3.657080086122593
0.5732337568107845 -3.5043511021746023
0.5625160732757153 -3.329199822745936
0.5535315378007419 -3.1352432205781477
0.54620644707444 -2.925884087660959
0.5404151646389296 -2.7042747055685856
0.5360287095742691 -2.4733007231747295
0.5329145430479487 -2.2355603933948616
0.530893620344261 -1.9932744070745843
0.5297057678650255 -1.748196803645614
0.5290406549381874 -1.5015467107246179
0.52862789482307 -1.2540257556398804
0.5283298969404979 -1.0059614530443575
0.5280953148574123 -0.7575012032980066
0.5279134674715709 -0.5087521078531274
0.527818450998231 -0.25985984391589095
0.527919975283002 -0.011156771528074882
0.8141084999241766 -0.011273921996557301
0.8141718826967312 -0.2598876956660492
0.8140525301857281 -0.5087371010467795
0.8138184192819347 -0.7574691042520088
0.8134981254503478 -1.0059195110643206
0.8130717801345898 -1.253973174172257
0.8124526983254005 -1.5014673928455258
0.8113908173481583 -1.748033839611315
0.8094848037150637 -1.9929321912055187
0.8063083580842454 -2.2349395049924414
0.8015056863889756 -2.4723293343418744
0.7948253027355613 -2.7029048263420217
0.7860642018134532 -2.9240746025647297
0.7750219347346529 -3.132950907641691
0.76149219191335 -3.326385748647694
0.7453164431646849 -3.500998773272674
0.7264836670761562 -3.653219902660889
0.7052563503792685 -3.77939111751294
0.6823910983810137 -3.8759854542393786
0.6595062156879532 -3.9400807546595016
0.6399983176071883 -3.9702536562825625
0.6204904195264238 -3.9400807546593626
0.5976055368333676 -3.8759854542391015
0.5747402848351221 -3.779391117512543
0.5535129681382484 -3.6532199026603998
0.5346801920497353 -3.500998773272116
0.5185044433010861 -3.3263857486470876
0.5049747004797983 -3.132950907641053
0.4939324334010132 -2.9240746025640796
0.48517133247891997 -2.7029048263413786
0.4784909488255195 -2.4723293343412585
0.4736882771302617 -2.234939504991866
0.47051183149945175 -1.992932191204992
0.4686058178663625 -1.748033839610845
0.4675439368891234 -1.5014673928451165
0.4669248550799354 -1.2539731741719145
0.4664985097641778 -1.0059195110640422
0.46617821593259123 -0.757469104251796
0.465944105028798 -0.5087371010466307
0.465824752517795 -0.25988769566596553
0.46588813529034967 -0.011273921996539782
0.8761387766393737 -0.01135748420186256
0.8761697240058385 -0.25991085271285325
0.8760275946885114 -0.5087181846544016
0.8757446384967155 -0.7574304415687111
0.8753428685889753 -1.0058666569119765
0.8747923894167079 -1.2539021342689123
0.8739417398019791 -1.5013427461906397
0.87242552565715 -1.7477606489043929
0.8697294190652921 -1.9923788720624775
0.865325309646058 -2.2339837643322538
0.8587797969436445 -2.470882677471951
0.8497644610722357 -2.7009026258704236
0.8379981339535757 -2.9214578165376417
0.8232039390494881 -3.1296574527552976
0.8050938968351312 -3.3223550551660073
0.7834147648888006 -3.496191515292826
0.7580715489532363 -3.647653054420378
0.7293582367175696 -3.7731925123164802
0.6982824944312439 -3.869477136812348
0.6670752344194144 -3.933930456314733
0.6399983176071732 -3.965754760755129
0.6129214007949337 -3.933930456314595
0.5817141407831107 -3.869477136812073
0.5506383984967976 -3.773192512316087
0.5219250862611479 -3.6476530544198926
0.49658187032560336 -3.4961915152922725
0.4749027383792931 -3.3223550551654046
0.4567926961649561 -3.129657452754665
0.4419985012608882 -2.921457816536996
0.4302321741422474 -2.7009026258697846
0.4212168382708562 -2.470882677471339
0.41467132556845765 -2.233983764331681
0.410267216149235 -1.9923788720619529
0.4075711095573846 -1.7477606489039241
0.40605489541256 -1.5013427461902311
0.40520424579783315 -1.25390213426857
0.40465376662556646 -1.005866656911698
0.40425199671782663 -0.7574304415684984
0.40396904052603083 -0.5087181846542527
0.4038269112087039 -0.25991085271276954
0.4038578585751688 -0.011357484201844908
0.9381751221685848 -0.011413157383609837
0.9381779067267124 -0.25992814948361315
0.9380136208606394 -0.5086954746550834
0.9376849719327025 -0.7573857986416281
0.9372070379365879 -1.0058041875280466
0.9365284933321989 -1.2538097473936782
0.9354124425839573 -1.501157708840505
0.93338870987191 -1.7473531999596619
0.9298410246855436 -1.9915897387469335
0.9241623439748146 -2.2326745917131063
0.9158471975574094 -2.468947544640446
0.9044738072761475 -2.6982560626057706
0.8896773712917843 -2.918021825021315
0.8711067121027785 -3.1253513337585828
0.848397239367771 -3.3170963863078846
0.8211998601480475 -3.4899163002391598
0.7893480844276134 -3.6403684166230015
0.7531745003259549 -3.7650588885269642
0.7139759219009141 -3.8609252884996854
0.6745892291342603 -3.9258163461547992
0.6399983176071586 -3.9595515543305853
0.6054074060800587 -3.9258163461546625
0.5660207133134146 -3.8609252884994136
0.526822134888389 -3.765058888526575
0.490648550786751 -3.6403684166225214
0.4587967750663403 -3.489916300238612
0.4315993958466415 -3.3170963863072873
0.40888992311165867 -3.1253513337579553
0.39031926392267685 -2.9180218250206744
0.37552282793833724 -2.6982560626051364
0.3641494376570966 -2.468947544639838
0.35583429123970983 -2.232674591712537
0.3501556105289947 -1.991589738746411
0.34660792534263807 -1.7473531999591945
0.34458419263059675 -1.5011577088400971
0.34346814188235797 -1.253809747393336
0.3427895972779699 -1.0058041875277681
0.3423116632818557 -0.7573857986414155
0.341983014353919 -0.5086954746549345
0.3418187284878461 -0.2599281494835295
0.3418215130459738 -0.011413157383592103
1.000222805715763 -0.011446411214599328
1.0002017827548384 -0.2599389092252489
1.0000160699899387 -0.5086689369084935
0.9996443353106723 -0.7573358895883813
0.9990933111307848 -1.0057323950144623
0.9982743408167218 -1.2536899080151598
0.9968579254649984 -1.5008970634652918
0.9942760388388954 -1.7467908616224748
0.9898327461072509 -1.9905491473964758
0.9828621878657531 -2.231002905697306
0.972763195408699 -2.4665167049988157
0.9590211369499633 -2.694958305763673
0.9411836541154884 -2.9137591552168796
0.9188218995960191 -3.1200251467881115
0.8915032607570258 -3.3106051808574013
0.8588158392290067 -3.4821756263309176
0.8205248065604276 -3.6313751444172517
0.7769915416000691 -3.7550069616286903
0.7297751401709426 -3.8503520635514747
0.6822310099212913 -3.9157423192240737
0.6399983176071438 -3.9516131649821027
0.5977656252929997 -3.9157423192239382
0.5502214950433602 -3.8503520635512056
0.5030050936142519 -3.7550069616283057
0.4594718286539173 -3.631375144416778
0.4211807959853653 -3.4821756263303763
0.3884933744573756 -3.31060518085681
0.3611747356184108 -3.12002514678749
0.3388129810989702 -2.9137591552162463
0.3209754982645228 -2.6949583057630444
0.3072334398058123 -2.4665167049982135
0.2971344473487795 -2.2310029056967413
0.29016388910729846 -1.990549147395957
0.2857205963756659 -1.7467908616220094
0.28313870974957034 -1.5008970634648848
0.28172229439785074 -1.253689908014818
0.2809033240837892 -1.005732395014184
0.2803522999039019 -0.7573358895881687
0.2799805652246358 -0.5086689369083447
0.27979485245973634 -0.25993890922516527
0.2797738294988118 -0.011446411214581537
1.0622852363332167 -0.011462677717573113
1.0622457638696026 -0.2599429693176794
1.0620404979302567 -0.5086385722383894
1.06162793137027 -0.7572813505692504
1.0610039244716214 -1.0056507282168397
1.0600252507516026 -1.2535349330031256
1.0582695000159443 -1.5005442987395607
1.055084832871721 -1.7460583245440013
1.0497337789740036 -1.9892503677528783
1.0414639479626646 -2.228964282652533
1.0295808976344762 -2.4635869252780433
1.0134735652749065 -2.6910065833692536
0.9925958995997405 -2.908666026706285
0.9664391537626666 -3.1136744564850654
0.9345174956290727 -3.3028827833378136
0.8963886908640093 -3.472984950167189
0.8517972365359788 -3.6207039083172745
0.8010911077046499 -3.7430697291006645
0.745964844655413 -3.8377669358207425
0.6901683110569125 -3.9036727902010147
0.6399983176071291 -3.9418686051071856
0.5898283241573503 -3.903672790200882
0.5340317905588634 -3.8377669358204773
0.4789055275096482 -3.7430697291002857
0.4281993986783467 -3.6207039083168078
0.38360794435034745 -3.4729849501666554
0.34547913958531723 -3.30288278333723
0.31355748145175677 -3.113674456484451
0.2874007356147154 -2.9086660267056588
0.26652306993958136 -2.6910065833686323
0.2504157375800406 -2.463586925277447
0.23853268725187649 -2.2289642826519733
0.23026285624055662 -1.9892503677523634
0.2249118023428529 -1.746058324543538
0.22172713519863896 -1.5005442987391553
0.21997138446298567 -1.2535349330027843
0.2189927107429686 -1.0056507282165617
0.21836870384432042 -0.7572813505690378
0.21795613728433402 -0.5086385722382406
0.21775087134498824 -0.2599429693175958
0.21771139888137425 -0.011462677717555313
1.1243638634553825 -0.011467451215292484
1.1243132434934653 -0.2599407611968318
1.1240928662716072 -0.508604538355204
1.1236411552192442 -0.7572227601767078
1.1229389684393407 -1.0055565870459087
1.1217750683972305 -1.2533345682969106
1.1196382912405278 -1.5000848255606583
1.1158349838607866 -1.7451491836366482
1.109569438641401 -1.9876903353792261
1.1000060541185586 -2.226557868199246
1.0863523113021116 -2.460158930050127
1.067895327401997 -2.6864016721528183
1.0439934152575878 -2.9027424697453927
1.0140543899941463 -3.10629857097566
0.9775409204898335 -3.2939325867201115
0.9340289481150683 -3.4623676048975853
0.8833189289184677 -3.608408056843985
0.8257337556350292 -3.7292994827468693
0.7628455045592822 -3.823170233982762
0.6986161972060179 -3.889533291152058
0.6399983176071141 -3.9301978418236883
0.5813804380082164 -3.889533291151928
0.5171511306549679 -3.8231702339825016
0.4542628795792457 -3.729299482746497
0.39667770629583876 -3.6084080568435253
0.34596768709927367 -3.46236760489706
0.30245571472454574 -3.2939325867195364
0.2659422452202707 -3.106298570975054
0.23600321995686602 -2.9027424697447755
0.21210130781249265 -2.6864016721522055
0.1936443239124107 -2.4601589300495372
0.1799905810959909 -2.2265578681986917
0.17042719657316988 -1.9876903353787152
0.16416165135380043 -1.745149183636188
0.16035834397406987 -1.5000848255602544
0.1582215668173732 -1.25333456829657
0.15705766677526525 -1.005556587045631
0.1563554799953626 -0.7572227601764953
0.1559037689429998 -0.5086045383550553
0.1556833917211419 -0.2599407611967481
0.15563277175922466 -0.01146745121527467
1.1864575452423909 -0.011466297741393138
1.186406511462544 -0.2599335060782129
1.1861801077685104 -0.5085674339766272
1.1856896457373718 -0.7571599094768583
1.1848960963303037 -1.0054458605367513
1.1835147394209633 -1.2530755673913796
1.1809704106732402 -1.4995098231911743
1.176539661026216 -1.744060346831124
1.169365243531568 -1.9858690232157015
1.1585269075496567 -2.2237865990974517
1.1431291337541334 -2.4562367723517182
1.122352334454378 -2.6811479953837933
1.095453766140492 -2.895992229444218
1.0617588980842143 -3.097900940425676
1.0206922069638134 -3.283761708627536
0.971853568176477 -3.4503455846198645
0.9151639060090757 -3.594547166809729
0.8510581135143274 -3.713790509741837
0.7808553279481024 -3.8065812835758237
0.7079235600373281 -3.873195418635864
0.639998317607099 -3.916403835956688
0.5720730751768771 -3.8731954186357362
0.49914130726612094 -3.8065812835755697
0.42893852169992397 -3.713790509741473
0.3648327292052117 -3.5945471668092783
0.3081430670378503 -3.450345584619349
0.25930442825055555 -3.28376170862697
0.21823773713019673 -3.0979009404250797
0.18454286907396014 -2.89599222944361
0.15764430076011396 -2.681147995383189
0.13686750146039478 -2.4562367723511365
0.12146972766490115 -2.2237865990969037
0.11063139168301393 -1.9858690232151952
0.10345697418838366 -1.7440603468306668
0.09902622454137164 -1.4995098231907724
0.09648189579365589 -1.2530755673910396
0.09510053888431859 -1.0054458605364736
0.09430698947725097 -0.7571599094766458
0.0938165274461127 -0.5085674339764785
0.09359012375207942 -0.25993350607812915
0.09353908997223256 -0.011466297741375331
1.2485612167289641 -0.011464672075895832
1.2485266320196982 -0.25992375852659755
1.2483113998086466 -0.5085285334862714
1.2477785476060235 -0.757090911018992
1.246869685844563 -1.0053106121913686
1.2452409046109207 -1.2527484807288753
1.2422742708138776 -1.4988144974342463
1.2372135613682629 -1.742790969503302
1.2291465695792134 -1.983789984092623
1.2170647263729502 -2.220656933574083
1.1999644772361624 -2.4518282961678857
1.1769090380247538 -2.6752527590417903
1.1470529986213942 -2.888422542040264
1.109653404955669 -3.088491400643395
1.064093646529074 -3.272382401518994
1.009994432363016 -3.436935313094543
0.9473977047286152 -3.5791607251359516
0.8769792168199337 -3.6966517096046947
0.8001906190029824 -3.7881681759068653
0.7193575444684599 -3.854506949349997
0.6399983176070836 -3.899999999999994
0.560639090745715 -3.8545069493498727
0.47980601621121294 -3.7881681759066166
0.4030174183942937 -3.696651709604339
0.3325989304856532 -3.579160725135511
0.27000220285129695 -3.4369353130940383
0.21590298868528457 -3.2723824015184393
0.17034323025873666 -3.0884914006428095
0.13294363659305616 -2.8884225420396668
0.10308759718974078 -2.6752527590411956
0.0800321579783719 -2.4518282961673123
0.0629319088416166 -2.220656933573542
0.050850065635379464 -1.983789984092122
0.042783073846349676 -1.7427909695028487
0.03772236440074853 -1.4988144974338469
0.03475573060371361 -1.2527484807285365
0.03312694937007516 -1.0053106121910913
0.03221808760861542 -0.7570909110187796
0.03168523540599283 -0.5085285334861226
0.03147000319494158 -0.25992375852651384
0.03143541848567566 -0.011464672075878018
SCALARS Stress float 6
LOOKUP_TABLE default
-1246.3857411957392 -2047.9266223111154 -1571.013691475965 -26.546858090160434 0.0 0.0
1354.0386473831675 795.247493907168 1010.7799332258996 -20.890796422703804 0.0 0.0
613.6944784511704 161.48845679491268 249.93816163232106 -41.27004249991282 0.0 0.0
492.91094923297044 29.106831305979657 161.87591667596402 -1.3229227587907877 0.0 0.0
616.5341325689066 78.88667212759216 250.66826713846163 2.652082953377527 0.0 0.0
735.9154929625109 129.59107625550996 375.62594211377194 1.8074621131056041 0.0 0.0
863.8861811939464 182.74379840193308 496.6099954351434 0.5634267996395255 0.0 0.0
994.9351739442291 252.85228447435037 609.2335933284102 -0.8694507393824984 0.0 0.0
1135.1417345818886 337.70978977119546 724.6769250668792 -2.52580197544313 0.0 0.0
1292.0975681564814 443.93509031857076 856.7860016977575 -4.321983545445538 0.0 0.0
1471.2585174979477 576.6058653642029 1012.5462779499853 -6.038147151966996 0.0 0.0
1672.735459291652 736.1454512449526 1192.678359504945 -7.382818349802836 0.0 0.0
1891.251498247958 915.8850865297513 1391.3675211915609 -8.206837562248705 0.0 0.0
2119.508743527701 1108.3393005980408 1601.299887756647 -8.83487512057116 0.0 0.0
2348.0986769947667 1303.927861907356 1812.9688335971318 -9.240623247374444 0.0 0.0
2566.2022957613526 1491.8912049451446 2015.6145866313857 -9.348710225347059 0.0 0.0
2762.5471743138964 1661.3751256229239 2198.2212836508934 -8.992752050347226 0.0 0.0
2925.855370492368 1801.6503863647506 2349.808903103528 -8.111599559125304 0.0 0.0
3053.8993005978755 1911.0883532189584 2468.335766787084 -7.013712997706104 0.0 0.0
3132.355493713392 1976.2195827493636 2539.911647871305 -8.906322280317855 0.0 0.0
3123.482248890784 1966.2012118167038 2530.6788086954252 9.769962616701378e-14 0.0 0.0
3132.3554937152267 1976.2195827512537 2539.9116478725737 8.906322280235798 0.0 0.0
3053.8993005969005 1911.088353218054 2468.3357667862115 7.013712997803024 0.0 0.0
2925.8553704914693 1801.6503863639393 2349.808903102666 8.111599559123151 0.0 0.0
2762.547174313296 1661.3751256224318 2198.2212836503018 8.992752050388873 0.0 0.0
2566.202295759958 1491.8912049438864 2015.6145866301126 9.34871022537166 0.0 0.0
2348.098676993607 1303.9278619063577 1812.9688335960786 9.240623247276547 0.0 0.0
2119.5087435279 1108.3393005984408 1601.2998877564366 8.834875120673988 0.0 0.0
1891.251498247989 915.8850865300094 1391.3675211913408 8.206837562036768 0.0 0.0
1672.7354592897386 736.1454512432254 1192.6783595035429 7.382818349654357 0.0 0.0
1471.2585174972373 576.6058653637906 1012.5462779492258 6.0381471518299055 0.0 0.0
1292.0975681549983 443.93509031732185 856.786001696675 4.321983545320888 0.0 0.0
1135.1417345809036 337.70978977048645 724.6769250660676 2.52580197547241 0.0 0.0
994.9351739438735 252.85228447427806 609.2335933280569 0.8694507392668473 0.0 0.0
863.8861811931928 182.74379840145156 496.6099954344512 -0.5634267997290188 0.0 0.0
735.91549296248 129.5910762558382 375.6259421135217 -1.807462113123755 0.0 0.0
616.5341325683071 78.88667212722169 250.6682671379752 -2.652082953449172 0.0 0.0
492.9109492327593 29.10683130608315 161.87591667589544 1.3229227585949763 0.0 0.0
613.6944784506768 161.48845679442192 249.93816163196465 41.270042499750446 0.0 0.0
1354.038647382823 795.2474939068929 1010.7799332254519 20.89079642271789 0.0 0.0
-1246.3857411930883 -2047.9266223084303 -1571.0136914732839 26.546858089847582 0.0 0.0
-1587.2755317160354 -2360.1432629280093 -1866.196009095147 -28.35428461642929 0.0 0.0
923.9834448044838 439.13028724617146 634.5618886327902 -28.873650190133432 0.0 0.0
428.4700043115127 63.833592908099476 146.4969474283651 -35.684084159721316 0.0 0.0
434.16989647575593 6.304538632993756 134.27722755946337 -15.70529793070591 0.0 0.0
546.9186403265226 35.280831734255486 201.90914843308875 -16.45503300822789 0.0 0.0
648.3718996750827 50.63391179292231 296.3874854527113 -22.022130900742738 0.0 0.0
735.268327190066 69.14580020411704 384.04861321020815 -23.721402658507923 0.0 0.0
818.6886351823524 89.97360485297709 449.7086442021531 -24.116937463420715 0.0 0.0
895.2402132020004 110.54726042201521 501.29232957509953 -24.709046656448432 0.0 0.0
966.7863698618598 131.61645480809983 548.279438665174 -25.475206994848183 0.0 0.0
1036.0482021317384 155.06041352929026 594.8235881615243 -25.897360592200897 0.0 0.0
1105.0856873427006 182.03056945193316 642.8739629443273 -25.88453494615204 0.0 0.0
1173.4260897538668 212.63747047482005 692.3631161032897 -25.477559614029552 0.0 0.0
1238.4437641660033 242.29785488087305 739.7071587539998 -24.88036762892992 0.0 0.0
1294.621275929574 265.9361220421429 779.617057359621 -24.119559770672513 0.0 0.0
1337.4773699117827 279.0641737029337 807.6123912121163 -22.977193074617222 0.0 0.0
1364.1460732504431 279.1042655601144 820.969159982532 -21.20393931600429 0.0 0.0
1374.9228855608046 266.8757413118391 820.2395065655601 -18.819399003972357 0.0 0.0
1365.0636370460152 238.43764115675236 801.1918727352092 -16.49540116572476 0.0 0.0
1295.1458064951883 155.6451206563068 725.538684306319 -16.822824920136124 0.0 0.0
1177.1304773157872 37.24594397119786 608.4610990950551 2.5485391574875393e-11 0.0 0.0
1295.145806496076 155.64512065721777 725.538684306884 16.822824920088905 0.0 0.0
1365.0636370462817 238.43764115709757 801.1918727353886 16.495401165791993 0.0 0.0
1374.9228855616802 266.87574131281934 820.2395065661938 18.81939900399051 0.0 0.0
1364.1460732510757 279.10426556085827 820.9691599830321 21.203939316020936 0.0 0.0
1337.477369910434 279.06417370170163 807.6123912112679 22.977193074648177 0.0 0.0
1294.6212759294187 265.9361220421623 779.6170573595368 24.11955977066512 0.0 0.0
1238.44376416543 242.29785488044584 739.7071587535246 24.880367629029113 0.0 0.0
1173.4260897537827 212.63747047494985 692.3631161032821 25.47755961386124 0.0 0.0
1105.0856873420696 182.0305694515132 642.8739629439348 25.88453494615675 0.0 0.0
1036.0482021314915 155.06041352928062 594.8235881613673 25.897360592142476 0.0 0.0
966.7863698618604 131.61645480836117 548.2794386651525 25.475206994703267 0.0 0.0
895.2402132016831 110.54726042201042 501.2923295748448 24.709046656519952 0.0 0.0
818.6886351815892 89.97360485245206 449.7086442016273 24.11693746336796 0.0 0.0
735.2683271897167 69.14580020405825 384.04861320986925 23.721402658460086 0.0 0.0
648.3718996748344 50.63391179297962 296.38748545237087 22.022130900664344 0.0 0.0
546.9186403260596 35.280831734087116 201.9091484327651 16.455033008100877 0.0 0.0
434.16989647528254 6.304538632582922 134.27722755919996 15.705297930618414 0.0 0.0
428.47000431138764 63.833592908048786 146.4969474283111 35.68408415957963 0.0 0.0
923.9834448039621 439.1302872457557 634.5618886321915 28.87365019006718 0.0 0.0
-1587.275531713792 -2360.1432629257547 -1866.196009092934 28.354284615992835 0.0 0.0
-1329.6303358654181 -2067.7069674450254 -1581.4085281330565 -66.6613838740767 0.0 0.0
737.269576293401 348.03356593012865 490.5684693302228 -97.1615912930883 0.0 0.0
297.85712420533434 72.56095579960305 111.1530846858513 -38.884462733716575 0.0 0.0
372.5037697547324 1.4571520159261975 112.18361659229707 -37.319202976264926 0.0 0.0
501.79374500764266 25.645544728871567 172.79134682399652 -38.87768186256766 0.0 0.0
614.9258226104223 45.23273538473238 265.3171762686124 -41.85480776837254 0.0 0.0
705.4911811280642 64.21426635605644 359.69204157391147 -44.0453970641471 0.0 0.0
789.0459485342318 81.36555874289022 428.28658208220617 -44.974932502043096 0.0 0.0
862.7654445631619 98.46137244862423 478.420052408691 -46.258858064322695 0.0 0.0
930.42718968469 115.52094882811353 521.7242908101151 -47.40865699739607 0.0 0.0
996.1546359108568 135.87660330209945 564.980837089005 -47.69254564688478 0.0 0.0
1062.0086985739772 160.8458367118452 610.4392043299339 -47.16005740889285 0.0 0.0
1127.6402740415272 188.47234080545044 657.1048985455823 -46.24015229266475 0.0 0.0
1189.1500889635072 215.80437051161138 701.5530037029109 -45.03707689498411 0.0 0.0
1243.3240213415086 237.93612448217036 739.7040070739336 -43.5324698933187 0.0 0.0
1285.8268967868928 251.0832992989063 767.5181616372245 -41.450604219546896 0.0 0.0
1314.1114568903627 252.8895350162712 782.5685496206802 -38.439308760906584 0.0 0.0
1324.4752596345122 240.20387469557565 781.4788589559689 -34.65671519414316 0.0 0.0
1304.6205111053077 201.76426945513293 752.602923857747 -31.01049801460529 0.0 0.0
1264.7892046064965 149.30468415835105 706.8151719661399 -28.463407167424858 0.0 0.0
1126.407851270905 11.193335506008623 569.8999258616377 7.94742049947672e-12 0.0 0.0
1264.789204606554 149.30468415845982 706.8151719660738 28.463407167495472 0.0 0.0
1304.6205111052634 201.76426945514365 752.6029238577389 31.010498014715164 0.0 0.0
1324.4752596356147 240.20387469676902 781.4788589567165 34.65671519420321 0.0 0.0
1314.1114568900898 252.88953501607426 782.5685496204145 38.43930876080873 0.0 0.0
1285.8268967860786 251.0832992982565 767.5181616367402 41.45060421956861 0.0 0.0
1243.3240213408524 237.9361244816736 739.704007073396 43.532469893387976 0.0 0.0
1189.1500889630113 215.80437051130713 701.5530037025561 45.03707689505898 0.0 0.0
1127.6402740406154 188.47234080474385 657.1048985449999 46.24015229265309 0.0 0.0
1062.0086985727246 160.84583671077738 610.4392043291642 47.16005740893648 0.0 0.0
996.1546359106417 135.87660330210963 564.980837088891 47.6925456467973 0.0 0.0
930.4271896847838 115.52094882847842 521.7242908101439 47.4086569974159 0.0 0.0
862.7654445631333 98.46137244884547 478.4200524086255 46.258858064247384 0.0 0.0
789.0459485333952 81.36555874228593 428.2865820816206 44.974932501816575 0.0 0.0
705.4911811279516 64.21426635629993 359.6920415737099 44.0453970642216 0.0 0.0
614.9258226094338 45.23273538390646 265.31717626783626 41.85480776825885 0.0 0.0
501.79374500746167 25.64554472913942 172.79134682391032 38.8776818624025 0.0 0.0
372.50376975426263 1.4571520153537314 112.1836165920022 37.3192029762608 0.0 0.0
297.85712420530723 72.56095579948813 111.15308468580906 38.884462733688835 0.0 0.0
737.2695762926862 348.033565929729 490.5684693295503 97.16159129292866 0.0 0.0
-1329.630335863364 -2067.7069674429263 -1581.4085281309028 66.66138387372268 0.0 0.0
-1087.821432277027 -1795.2303662696527 -1318.1754210983313 -80.30433349552534 0.0 0.0
563.0098394516355 252.20845076916157 361.17906295397665 -145.5345149931764 0.0 0.0
216.22640099621646 61.77961178276041 83.40180383369307 -60.547767812657256 0.0 0.0
309.72472847826157 7.103664552695007 94.9026878809884 -59.64961405426215 0.0 0.0
446.35423494088576 14.596374652542778 143.60648979981707 -63.752057995441874 0.0 0.0
568.9885443300541 38.38906743249212 229.55252755689992 -63.01409614205583 0.0 0.0
672.4030158595497 57.31432162208627 329.4676586143672 -65.70296773304747 0.0 0.0
754.5102689672974 72.92915434529678 403.03812214695597 -66.06291143677508 0.0 0.0
826.2003643450663 86.60675479740493 453.1670197932782 -67.46209742137255 0.0 0.0
890.3634825084928 100.03920480859017 493.47902437321574 -68.60382226838952 0.0 0.0
952.2133281495344 116.99953741241669 533.170695275426 -68.56022107562752 0.0 0.0
1014.9610335161274 138.9728230109548 575.5781476109162 -67.61677956487716 0.0 0.0
1077.2830297957648 164.6184893150812 619.6324959450891 -66.1836218881976 0.0 0.0
1135.8345855507919 188.6062414894564 660.9465053775835 -64.49398037035701 0.0 0.0
1187.6088181161047 209.04439102995056 697.0464877142573 -62.317674620751646 0.0 0.0
1230.4438106599787 223.07487205232306 725.4656081582006 -59.40135561140893 0.0 0.0
1260.1207223910292 226.15456053276037 741.8669527598572 -55.54272074360422 0.0 0.0
1269.9271992839022 212.69816826131313 740.1820228854393 -50.84972109637212 0.0 0.0
1256.243558060311 180.13768591131762 717.2961880685567 -45.49915386096265 0.0 0.0
1232.2949332261653 142.89736831910895 686.8966615739474 -38.61987663396113 0.0 0.0
1038.465134004618 -50.262602165226 495.46025304212174 1.0391509874807525e-10 0.0 0.0
1232.2949332261994 142.8973683191961 686.896661573887 38.619876634170964 0.0 0.0
1256.2435580596202 180.1376859106687 717.29618806814 45.499153861014435 0.0 0.0
1269.927199285 212.69816826252176 740.1820228862902 50.84972109643765 0.0 0.0
1260.1207223901238 226.1545605319588 741.8669527591383 55.542720743638576 0.0 0.0
1230.4438106605976 223.07487205311423 725.4656081586425 59.40135561150659 0.0 0.0
1187.608818115221 209.04439102923365 697.0464877136567 62.31767462089145 0.0 0.0
1135.83458555006 188.60624148880115 660.9465053770969 64.49398037024322 0.0 0.0
1077.283029796767 164.61848931636834 619.6324959456891 66.18362188819509 0.0 0.0
1014.961033514805 138.97282300979063 575.5781476101355 67.61677956481324 0.0 0.0
952.2133281490982 116.99953741217935 533.170695275172 68.56022107550497 0.0 0.0
890.3634825080351 100.03920480841678 493.4790243729217 68.60382226845805 0.0 0.0
826.2003643449851 86.60675479756559 453.1670197932081 67.4620974212777 0.0 0.0
754.5102689670816 72.9291543453247 403.0381221467211 66.06291143662544 0.0 0.0
672.403015859161 57.31432162205202 329.4676586139563 65.70296773302574 0.0 0.0
568.9885443291219 38.38906743178646 229.55252755619347 63.01409614195315 0.0 0.0
446.3542349405741 14.596374652714717 143.60648979973917 63.752057995308945 0.0 0.0
309.7247284779871 7.103664552518265 94.90268788085454 59.649614054251806 0.0 0.0
216.22640099603422 61.77961178248791 83.40180383355663 60.54776781257995 0.0 0.0
563.0098394510815 252.20845076893872 361.17906295345665 145.5345149929894 0.0 0.0
-1087.8214322751364 -1795.230366267698 -1318.1754210963497 80.30433349529409 0.0 0.0
-877.5239469454922 -1558.6848280561017 -1086.8415967582846 -78.99816224973297 0.0 0.0
434.4454816708335 167.78991378150468 260.0503405580918 -177.7550052086973 0.0 0.0
158.43599584709818 48.547149247500066 62.09494352837946 -90.97124285025163 0.0 0.0
252.7907144676043 13.305991604766774 79.8290992872706 -83.87865226235621 0.0 0.0
381.3261159264953 8.371631108379875 117.6468999559182 -89.6120662743312 0.0 0.0
514.1386898803419 25.91239536423462 189.92905932751427 -88.3574266873723 0.0 0.0
627.6965842456716 49.062169864030764 291.000859250158 -87.58028859497529 0.0 0.0
714.1527853482987 65.18385968155991 373.2180172167392 -87.56943610748553 0.0 0.0
784.8572736290467 75.33342192269353 424.95235283433107 -88.26409801669823 0.0 0.0
845.6707099426723 84.92696766786806 462.8210135165599 -89.01958735867008 0.0 0.0
904.0400844634067 98.25636170189262 499.1420516049973 -88.53489462044358 0.0 0.0
963.1518737845802 117.063845093696 538.173686582542 -87.15954537919653 0.0 0.0
1022.2455060315312 139.4596107463426 579.0162765225907 -85.38905902283204 0.0 0.0
1077.6825038358204 161.8447866972368 618.0106402761553 -83.19546514250904 0.0 0.0
1127.3515762401153 180.152628395745 652.007685722368 -80.40760085361724 0.0 0.0
1169.3584063371143 193.1393237316941 679.4772306959377 -76.88456737944422 0.0 0.0
1200.7183474049718 198.2550881157327 697.7487274797061 -72.50270300902481 0.0 0.0
1215.4475839936051 189.44427493556972 700.8546801780205 -67.1384776270456 0.0 0.0
1209.743454159388 164.0531447619514 685.5198510409257 -59.883837380063326 0.0 0.0
1193.3325070425253 132.84418216514675 661.8463361612695 -49.03414325816492 0.0 0.0
931.3952532775434 -127.9093731339797 403.5705700774359 2.367563922689442e-10 0.0 0.0
1193.3325070419917 132.84418216460767 661.8463361610089 49.034143258302855 0.0 0.0
1209.743454160003 164.05314476265417 685.5198510414746 59.88383738010764 0.0 0.0
1215.4475839957356 189.44427493782172 700.8546801796302 67.13847762716341 0.0 0.0
1200.7183474035314 198.25508811434835 697.7487274786449 72.50270300894618 0.0 0.0
1169.3584063372084 193.1393237318772 679.477230695988 76.8845673794077 0.0 0.0
1127.3515762391744 180.15262839496359 652.0076857218301 80.40760085362372 0.0 0.0
1077.6825038346062 161.8447866962571 618.0106402753183 83.19546514268006 0.0 0.0
1022.2455060319897 139.45961074695444 579.0162765228486 85.38905902284614 0.0 0.0
963.1518737845219 117.06384509385094 538.173686582513 87.1595453791063 0.0 0.0
904.0400844626149 98.25636170132628 499.1420516044486 88.53489462044068 0.0 0.0
845.6707099424426 84.92696766793719 462.82101351646605 89.01958735872658 0.0 0.0
784.8572736288484 75.33342192283115 424.9523528342097 88.26409801677782 0.0 0.0
714.1527853480118 65.18385968153237 373.2180172164406 87.5694361074603 0.0 0.0
627.6965842454591 49.062169864227585 291.000859249849 87.58028859492667 0.0 0.0
514.1386898798272 25.91239536403551 189.92905932711616 88.35742668736088 0.0 0.0
381.32611592633407 8.371631108776024 117.64689995598535 89.61206627410797 0.0 0.0
252.79071446759372 13.305991604561102 79.82909928720119 83.87865226235138 0.0 0.0
158.4359958472447 48.547149247627445 62.09494352846165 90.97124285007975 0.0 0.0
434.445481670388 167.7899137813595 260.05034055766635 177.7550052085576 0.0 0.0
-877.5239469439778 -1558.6848280544968 -1086.8415967565759 78.99816224950348 0.0 0.0
-692.5305228774764 -1349.6340191145248 -881.0183348718176 -75.0378681075984 0.0 0.0
333.3652790976073 102.15511901443949 182.16664683223118 -196.6606644743316 0.0 0.0
114.77362760205388 33.554491667703985 44.49843578092735 -120.09057037919477 0.0 0.0
201.81501181944458 18.09993858875935 65.97797052050892 -108.40012398590619 0.0 0.0
312.211863914475 5.824380877626627 94.80678941037877 -115.04277435088662 0.0 0.0
444.5027148354916 14.669482597380366 150.98246951006328 -114.80456334395255 0.0 0.0
566.5277032096603 40.03260950242095 245.01314924705514 -110.78465650460822 0.0 0.0
666.2792972496992 54.90100017729718 334.72169941044024 -110.12406028236786 0.0 0.0
735.8221766148133 64.50722364413635 391.7182519370044 -108.63363260585201 0.0 0.0
795.5523975702499 69.99983459281242 428.9573090599558 -108.66049923764004 0.0 0.0
850.3936470318822 79.61899982538418 462.13949598701504 -107.59288184148156 0.0 0.0
905.9043268385269 95.20005328746569 497.82219565970263 -105.7485615664091 0.0 0.0
961.3967626460168 114.75534839958412 535.4833512282377 -103.62400332724889 0.0 0.0
1013.6083306302672 133.84663259058814 571.2542462655125 -101.14433820420781 0.0 0.0
1060.8384720836557 150.46786500504544 603.2215389966034 -97.87766878189792 0.0 0.0
1101.728436590219 162.92170262451518 629.8890229252427 -93.72576525923718 0.0 0.0
1135.1884478220256 169.3942974361603 649.8478863431151 -89.08020907715233 0.0 0.0
1157.4624597932839 167.88108182380813 660.3400279076379 -83.36826525226878 0.0 0.0
1161.2719545443042 151.07581473088138 654.0720899146522 -74.64782472272172 0.0 0.0
1149.4314529875671 122.08213889818447 633.7976413399529 -60.45608579802124 0.0 0.0
806.9862690260808 -218.22149867592796 296.8995419470628 9.393552602432464e-11 0.0 0.0
1149.43145298721 122.0821388979132 633.7976413398518 60.456085798169525 0.0 0.0
1161.2719545447292 151.0758147313615 654.0720899150581 74.64782472289036 0.0 0.0
1157.462459793987 167.88108182462474 660.3400279081872 83.36826525236738 0.0 0.0
1135.1884478211234 169.39429743533248 649.8478863424457 89.08020907712641 0.0 0.0
1101.7284365898026 162.92170262425145 629.8890229249834 93.72576525935969 0.0 0.0
1060.8384720832528 150.46786500482128 603.221538996259 97.87766878193365 0.0 0.0
1013.6083306295322 133.84663258998646 571.2542462650413 101.1443382042925 0.0 0.0
961.39676264517 114.75534839886377 535.4833512276118 103.62400332706164 0.0 0.0
905.9043268380887 95.2000532872534 497.8221956594379 105.74856156653209 0.0 0.0
850.3936470311795 79.61899982479211 462.13949598646957 107.59288184125856 0.0 0.0
795.5523975701133 69.99983459294998 428.9573090598683 108.66049923760983 0.0 0.0
735.8221766142456 64.50722364387168 391.71825193665126 108.6336326059482 0.0 0.0
666.2792972493061 54.90100017720368 334.72169941009497 110.12406028232476 0.0 0.0
566.5277032093263 40.032609502452516 245.01314924669225 110.78465650455675 0.0 0.0
444.5027148346429 14.669482596648376 150.98246950950022 114.80456334384088 0.0 0.0
312.21186391444974 5.824380878173622 94.80678941055454 115.04277435056227 0.0 0.0
201.8150118193309 18.099938588549062 65.97797052041176 108.4001239857345 0.0 0.0
114.77362760208632 33.55449166786637 44.49843578098581 120.09057037900578 0.0 0.0
333.36527909716864 102.15511901428559 182.16664683186488 196.66066447416807 0.0 0.0
-692.5305228762503 -1349.6340191130676 -881.0183348703375 75.03786810753587 0.0 0.0
-532.4939688429607 -1159.0022061086022 -697.9996561674586 -71.46349640966822 0.0 0.0
253.3738677923997 50.36853995031278 122.43359891137818 -208.43120927680744 0.0 0.0
79.70309444259338 19.069395896936328 29.631593393987472 -144.1546026818846 0.0 0.0
154.25506952639125 21.30407369923217 52.66881212364994 -131.10194438666556 0.0 0.0
243.35747557444063 6.510538443106581 74.6324928470939 -137.31047300120753 0.0 0.0
364.2909400578244 3.7375189245530174 113.94717248630465 -143.80980266849656 0.0 0.0
491.067370245183 25.934682803404712 192.27865830584702 -137.34970074828277 0.0 0.0
599.5789447960697 45.475888870324525 284.86082523575925 -132.44929288282407 0.0 0.0
679.9491778829774 50.92601298409672 350.272672982852 -130.37378729101061 0.0 0.0
736.7019609229937 55.263138667887 389.58829670036465 -127.39944101099991 0.0 0.0
789.8832199289017 61.17480504875294 421.13736288397286 -125.6395027484976 0.0 0.0
841.7643968172215 73.30479615712163 453.51404552398765 -123.33944618493013 0.0 0.0
893.1966589739479 89.50634257146248 487.56091120595374 -120.87834556459147 0.0 0.0
941.9403191488823 106.08233856780794 520.3823246414835 -118.16656692649082 0.0 0.0
986.2367662765208 120.36993343342509 549.781934337611 -114.66480553960488 0.0 0.0
1025.2457802346853 130.35554941383572 574.3050244184159 -110.18970540014323 0.0 0.0
1060.4813866903085 139.74356687038141 596.5649378052229 -104.94201786563976 0.0 0.0
1092.4863530026673 146.97379365394184 616.2099718946153 -99.2795076021912 0.0 0.0
1108.2943849638698 140.2461758858895 620.9916369159868 -90.1899725581981 0.0 0.0
1101.0967027699662 113.03141337856894 604.029344363914 -73.69274095756596 0.0 0.0
663.4702434727419 -320.38209396232514 175.0363064018439 1.9536372519723955e-11 0.0 0.0
1101.096702769933 113.03141337860721 604.0293443638786 73.69274095779299 0.0 0.0
1108.294384962931 140.24617588500024 620.9916369154582 90.18997255829709 0.0 0.0
1092.4863530022303 146.97379365360285 616.2099718942741 99.2795076022159 0.0 0.0
1060.4813866908296 139.74356687102375 596.5649378055738 104.9420178657934 0.0 0.0
1025.245780234972 130.35554941429197 574.3050244186879 110.18970540022116 0.0 0.0
986.2367662764048 120.36993343336826 549.7819343374065 114.66480553951057 0.0 0.0
941.940319147777 106.08233856679158 520.3823246407246 118.16656692640606 0.0 0.0
893.1966589743573 89.50634257201921 487.5609112061446 120.87834556450707 0.0 0.0
841.7643968167793 73.30479615694566 453.5140455237266 123.33944618501633 0.0 0.0
789.8832199283844 61.17480504839627 421.13736288357353 125.639502748395 0.0 0.0
736.7019609232187 55.26313866839675 389.5882967005209 127.39944101100961 0.0 0.0
679.9491778823718 50.92601298397692 350.27267298244226 130.37378729120172 0.0 0.0
599.5789447956968 45.47588887025306 284.86082523540324 132.4492928827915 0.0 0.0
491.06737024465315 25.934682803088158 192.27865830537144 137.3497007481115 0.0 0.0
364.2909400573888 3.7375189245770284 113.94717248613972 143.8098026683643 0.0 0.0
243.35747557418705 6.510538442829094 74.6324928469343 137.31047300113053 0.0 0.0
154.25506952638437 21.30407369924637 52.66881212365176 131.10194438648807 0.0 0.0
79.70309444267244 19.06939589709631 29.631593394059358 144.15460268176454 0.0 0.0
253.37386779205855 50.3685399501757 122.43359891110451 208.43120927663765 0.0 0.0
-532.4939688418311 -1159.002206107246 -697.9996561661382 71.463496409636 0.0 0.0
-391.44292590632745 -992.8671771032286 -536.1621004492708 -75.99149899476974 0.0 0.0
185.54639447373097 11.194398344507954 75.92584799847546 -212.02548034970891 0.0 0.0
49.80154574784246 7.161127869738997 17.088685659959022 -162.33011407265985 0.0 0.0
108.31684618772742 22.666327765985937 39.296505319297744 -150.56712134889085 0.0 0.0
178.1066247866961 8.519017052004473 55.80980941677298 -156.61408176917107 0.0 0.0
273.67984221063267 -1.0164004656188508 81.74007597067543 -169.57342005007294 0.0 0.0
394.9293678431892 10.639543822744018 137.35459289238042 -166.18789238708268 0.0 0.0
512.2185808012122 30.6873527273568 220.88159288613377 -156.3621727304217 0.0 0.0
603.5501447037603 39.02805489288711 294.8457984000689 -150.74894208660587 0.0 0.0
667.2518897889379 38.056511116251556 340.2128355970433 -146.65882774961082 0.0 0.0
718.0081472125446 41.999788894558634 372.30963956824445 -142.55936009290318 0.0 0.0
766.9208753953492 51.51894896487669 402.7168074963012 -139.67448793910404 0.0 0.0
814.4351643034787 64.28588111408149 433.34541200278306 -136.87893702290344 0.0 0.0
858.7176858784724 77.50525757355497 462.3443724468292 -134.04727914973802 0.0 0.0
900.0905201143732 89.4909527876634 489.1849846510594 -130.66544575617323 0.0 0.0
936.9051771286524 98.44649775204111 512.2161640521009 -126.05340056719737 0.0 0.0
971.8041289360697 106.1734100127711 533.5299029863896 -120.30333320563051 0.0 0.0
1012.5518178099015 121.91646860978925 561.5966798435948 -114.44656861998017 0.0 0.0
1046.392723767967 132.3951017884586 583.9764840362122 -106.37118069366022 0.0 0.0
1048.6284182406948 110.50853265041276 574.6832924751619 -89.74774587525607 0.0 0.0
495.19969933873693 -433.90641860058395 35.55663612734829 5.4502180546478485e-11 0.0 0.0
1048.628418240702 110.50853265042969 574.6832924751875 89.74774587534004 0.0 0.0
1046.392723766575 132.39510178715298 583.9764840353209 106.37118069373139 0.0 0.0
1012.5518178100572 121.91646861011627 561.5966798436739 114.44656862021374 0.0 0.0
971.8041289348785 106.17341001167651 533.5299029855995 120.30333320581104 0.0 0.0
936.9051771292071 98.44649775265461 512.2161640524813 126.0534005672696 0.0 0.0
900.0905201143781 89.49095278776772 489.1849846510215 130.66544575597865 0.0 0.0
858.7176858780933 77.50525757343061 462.3443724465992 134.04727914982215 0.0 0.0
814.4351643032222 64.28588111399911 433.34541200256683 136.87893702306718 0.0 0.0
766.9208753952599 51.51894896489496 402.71680749624636 139.67448793904254 0.0 0.0
718.008147212391 41.999788894744654 372.30963956811866 142.55936009297903 0.0 0.0
667.2518897885204 38.05651111601436 340.2128355968217 146.65882774953815 0.0 0.0
603.5501447038098 39.02805489352947 294.8457984000679 150.74894208681016 0.0 0.0
512.2185808007289 30.687352727299462 220.88159288575363 156.36217273040728 0.0 0.0
394.9293678428523 10.639543822788976 137.35459289217278 166.1878923871124 0.0 0.0
273.6798422103837 -1.0164004654438412 81.74007597066438 169.5734200498674 0.0 0.0
178.1066247867347 8.519017052372401 55.80980941689844 156.61408176910123 0.0 0.0
108.31684618762539 22.666327765826907 39.29650531922007 150.56712134873695 0.0 0.0
49.80154574782642 7.161127869804165 17.088685659973677 162.33011407250504 0.0 0.0
185.54639447332073 11.194398344233912 75.92584799818675 212.02548034959437 0.0 0.0
-391.4429259053903 -992.8671771019668 -536.1621004481567 75.99149899480048 0.0 0.0
-281.8880368637834 -833.3848142291563 -403.16380001396544 -81.67400934828405 0.0 0.0
127.41084401169398 -20.596877144060826 40.34494957904238 -209.27677915418786 0.0 0.0
22.034997141342227 -0.9745224969066569 6.320149097735387 -175.1718908410165 0.0 0.0
63.4098676534114 22.48449549999927 25.762514513049144 -166.08684670933985 0.0 0.0
113.77841621076784 11.56527976455629 37.51078694997286 -171.64817939858384 0.0 0.0
179.53552080169888 -0.01880731953710102 53.55582969475019 -188.3214599107857 0.0 0.0
276.12478966894463 -1.7912569024091352 85.34499447652425 -197.1073741849031 0.0 0.0
394.12356522126765 9.744170394691436 144.32395870916832 -185.5512473331963 0.0 0.0
497.45609786578603 20.467292385651326 215.27006521778878 -171.27159736814474 0.0 0.0
571.0096247585169 20.80405818998618 269.37266856073336 -163.44295853423594 0.0 0.0
624.7117133515878 22.354033831062143 306.7380406900243 -157.70754706592814 0.0 0.0
671.7402274437422 28.622213050256214 336.96025671007027 -154.25294632702602 0.0 0.0
715.3595775014803 38.7302100059683 365.4529099710082 -151.18202544954266 0.0 0.0
754.7781162194493 48.57857158266522 390.7628713079423 -148.34052345836827 0.0 0.0
791.9526685562079 58.082254851046585 414.4776982857156 -145.39651141258568 0.0 0.0
827.4243325947596 66.41862837789026 436.7293582066919 -141.3972617607988 0.0 0.0
861.7023283189998 73.43780630794359 457.793135166945 -135.47157131605812 0.0 0.0
903.2136074668153 88.34560309797652 485.9306066825308 -128.53560540615328 0.0 0.0
959.1756128197194 118.31187054663845 528.7181038264414 -122.40173991548252 0.0 0.0
989.4164171887229 119.56863762040393 545.6156750934393 -110.2998511938331 0.0 0.0
293.03866713517664 -554.5142052458066 -123.57236221085154 6.020783871463209e-11 0.0 0.0
989.4164171893295 119.56863762111652 545.6156750939952 110.2998511940089 0.0 0.0
959.1756128188463 118.31187054601978 528.7181038258656 122.40173991578787 0.0 0.0
903.2136074667942 88.34560309813492 485.93060668257215 128.5356054065968 0.0 0.0
861.7023283170125 73.43780630590719 457.79313516560836 135.47157131603643 0.0 0.0
827.4243325943735 66.41862837740678 436.7293582064873 141.39726176073145 0.0 0.0
791.9526685561459 58.08225485122094 414.4776982857653 145.39651141262644 0.0 0.0
754.7781162196533 48.57857158325197 390.7628713080731 148.3405234585056 0.0 0.0
715.3595775012682 38.73021000599266 365.4529099708032 151.18202544973698 0.0 0.0
671.7402274431512 28.622213049480116 336.96025670963076 154.25294632678066 0.0 0.0
624.7117133520101 22.354033831833423 306.73804069029893 157.70754706598112 0.0 0.0
571.0096247577559 20.80405818941368 269.3726685601994 163.4429585340716 0.0 0.0
497.45609786551773 20.467292385644505 215.2700652175464 171.27159736816162 0.0 0.0
394.12356522109434 9.74417039514357 144.3239587090954 185.5512473332736 0.0 0.0
276.1247896685433 -1.7912569023702458 85.34499447637876 197.10737418480932 0.0 0.0
179.53552080117873 -0.018807320024462282 53.55582969447233 188.32145991047898 0.0 0.0
113.77841621074124 11.565279764712662 37.51078695001878 171.648179398413 0.0 0.0
63.40986765337427 22.484495499907727 25.76251451300836 166.08684670922491 0.0 0.0
22.034997141290802 -0.9745224969498478 6.3201490977062855 175.17189084076526 0.0 0.0
127.41084401135913 -20.59687714429679 40.344949578819794 209.27677915399502 0.0 0.0
-281.8880368630674 -833.384814228056 -403.1638000130974 81.67400934836509 0.0 0.0
-193.77497870699887 -692.200210800486 -295.0270344834664 -95.39656433048911 0.0 0.0
75.08821229116025 -45.59057788508736 12.274654667369735 -200.51063265534884 0.0 0.0
-4.880048277459822 -4.700880193543786 -2.882894586233375 -182.76763997800066 0.0 0.0
19.14497751620475 21.239542034501532 12.113627402335517 -176.89088573716168 0.0 0.0
49.37505779311265 14.538760286718258 19.143084406299398 -182.2978466505385 0.0 0.0
86.56045101053687 3.4632798567622816 26.884763609804622 -200.6335725808357 0.0 0.0
139.0997859566885 -2.289975342869437 41.17613207227108 -216.82641463278662 0.0 0.0
222.2312404454943 -6.099975045772666 66.92191584511924 -218.02693623267237 0.0 0.0
327.3185512680728 -12.803967007782322 103.76316695359056 -201.89476175544095 0.0 0.0
415.1226813027137 -15.424672468688257 144.93196300935637 -179.86005658300655 0.0 0.0
474.29945289233274 -6.6849248064410745 184.18898230361816 -168.3014357363109 0.0 0.0
519.2990183184357 2.9542618090084645 217.21153287817228 -164.57107368065348 0.0 0.0
557.1599108842331 11.386273273719901 245.3212161137857 -163.39232463776395 0.0 0.0
590.8415411991507 19.37378057695642 269.717817208746 -162.546953974989 0.0 0.0
622.8295375728466 27.38508795106734 292.7868820577807 -161.52927690826547 0.0 0.0
656.0264475922145 35.42671465895282 316.48939247516057 -159.62145090571394 0.0 0.0
692.117241333527 42.71391200764248 341.58635112876203 -154.8299293045694 0.0 0.0
731.13532292502 48.776170639841155 367.43678432874674 -146.73564406502643 0.0 0.0
793.0049543856461 75.3490283695038 411.8852305887167 -139.49392476600363 0.0 0.0
886.5550073079185 129.9729794333403 488.5306782751936 -137.7306694449702 0.0 0.0
23.768716625769585 -675.5999663395082 -313.4894010739112 -8.447642585451831e-11 0.0 0.0
886.5550073086815 129.97297943437388 488.53067827590235 137.73066944527116 0.0 0.0
793.004954385596 75.34902836965301 411.88523058872335 139.49392476638093 0.0 0.0
731.1353229244412 48.77617063916351 367.43678432834145 146.7356440652427 0.0 0.0
692.1172413331299 42.71391200745922 341.58635112839426 154.82992930455978 0.0 0.0
656.0264475911457 35.426714657379215 316.48939247441376 159.62145090555066 0.0 0.0
622.8295375724958 27.385087950972775 292.78688205768856 161.52927690826033 0.0 0.0
590.8415411997868 19.37378057809923 269.71781720925713 162.54695397525288 0.0 0.0
557.1599108840614 11.386273273379704 245.32121611362868 163.39232463788676 0.0 0.0
519.2990183180831 2.9542618087548966 217.2115328779516 164.57107368061466 0.0 0.0
474.2994528926328 -6.684924805766805 184.18898230385238 168.30143573640805 0.0 0.0
415.1226813024257 -15.42467246868504 144.93196300923378 179.86005658303185 0.0 0.0
327.31855126791663 -12.803967007502951 103.76316695356032 201.89476175544053 0.0 0.0
222.23124044530155 -6.099975045353483 66.92191584517397 218.0269362327598 0.0 0.0
139.09978595631034 -2.2899753432887544 41.17613207203604 216.8264146325851 0.0 0.0
86.56045101054222 3.463279856962286 26.88476360987919 200.63357258047526 0.0 0.0
49.375057793067256 14.538760286680253 19.14308440627636 182.29784665037252 0.0 0.0
19.144977516084147 21.23954203427373 12.113627402231293 176.89088573688048 0.0 0.0
-4.880048277515295 -4.700880193508962 -2.8828945862421613 182.76763997777442 0.0 0.0
75.08821229093081 -45.59057788520759 12.27465466724351 200.5106326550794 0.0 0.0
-193.7749787063983 -692.2002107994787 -295.0270344828053 95.39656433058215 0.0 0.0
-136.31283597412352 -562.08340481402 -216.82989040468556 -108.31262219416027 0.0 0.0
27.370476339684696 -63.14038980523291 -9.75444508912992 -185.28835096236287 0.0 0.0
-30.919478372787005 -5.354158048171436 -10.872420918336818 -186.71028491007212 0.0 0.0
-24.381130460227947 19.57648193957531 -1.448431939302543 -183.2129379048576 0.0 0.0
-14.2703144630622 17.13881474585206 0.8594850965354701 -187.95572932789236 0.0 0.0
-6.723179642636776 7.471561689517997 0.23198767621361327 -205.1266771438311 0.0 0.0
-2.93183113918656 1.1681193005341748 -0.5290610762199695 -222.82366752759717 0.0 0.0
-1.0193837569124824 0.0782513898931878 -0.28983613673099917 -225.94414351197537 0.0 0.0
-0.2992962907918013 -0.008340057361159836 -0.09690204494243915 -217.967431807233 0.0 0.0
0.012360720298460137 -0.004604528477351266 0.0073493325794729 -212.82336879514824 0.0 0.0
-0.40938645109898175 0.015369696613745987 -0.14036805646381367 -209.98776686506724 0.0 0.0
-0.9107976464723322 0.15586517229706942 0.21205720307256826 -197.87234964174948 0.0 0.0
-1.9575199510046275 0.7900225723479508 0.4074136962319983 -188.35806110557 0.0 0.0
-0.5928311323617379 2.36063985929826 0.9385077248002318 -181.21983110754542 0.0 0.0
7.692052952339708 6.168269677393937 2.2300730935691035 -176.15939153866032 0.0 0.0
30.259733778407934 13.33804056921879 5.901980058920628 -171.83004390741473 0.0 0.0
77.23330409028469 25.86069903236026 14.434500994862873 -166.52179330864863 0.0 0.0
163.79613467285694 35.30445545440057 19.773576078856138 -157.36251630831774 0.0 0.0
382.1530382023096 -8.353637647324362 35.007545929302 -151.79644525101338 0.0 0.0
604.4277766502852 27.625601067240346 239.2433011830349 -197.79001597396433 0.0 0.0
-642.6401317309809 -916.7575196907736 -701.1616282858407 -9.972467296393006e-11 0.0 0.0
604.4277766501692 27.625601066814085 239.24330118305505 197.79001597396885 0.0 0.0
382.1530382024994 -8.353637647015603 35.00754592932947 151.79644525163155 0.0 0.0
163.79613467280598 35.30445545458923 19.773576078841444 157.36251630875003 0.0 0.0
77.23330408997029 25.860699031927 14.434500994548742 166.52179330886463 0.0 0.0
30.259733778566797 13.338040569093408 5.90198005898533 171.83004390732714 0.0 0.0
7.692052952465772 6.168269677389674 2.2300730936105992 176.15939153876252 0.0 0.0
-0.5928311322094828 2.360639859317523 0.9385077248358868 181.2198311077097 0.0 0.0
-1.9575199514493278 0.7900225707854531 0.4074136955497778 188.35806110574364 0.0 0.0
-0.9107976461783096 0.15586517242959985 0.21205720314363674 197.87234964186837 0.0 0.0
-0.4093864509025167 0.015369696181618764 -0.1403680565802503 209.98776686503018 0.0 0.0
0.012360721171440048 -0.004604527171812478 0.0073493332460365934 212.8233687948417 0.0 0.0
-0.2992962901625731 -0.008340056315391031 -0.09690204443089812 217.9674318073194 0.0 0.0
-1.0193837569102904 0.07825138961404043 -0.28983613681004705 225.94414351205234 0.0 0.0
-2.931831139292635 1.1681193002429942 -0.5290610763417538 222.82366752731144 0.0 0.0
-6.723179642296968 7.471561690154605 0.23198767650630092 205.1266771436517 0.0 0.0
-14.27031446299723 17.138814745913404 0.8594850965731238 187.95572932767192 0.0 0.0
-24.381130460327533 19.576481939381114 -1.448431939391996 183.2129379046455 0.0 0.0
-30.919478372783814 -5.354158048104468 -10.872420918318788 186.71028490993316 0.0 0.0
27.370476339444107 -63.14038980544217 -9.754445089276809 185.28835096211355 0.0 0.0
-136.31283597375725 -562.0834048131933 -216.82989040428203 108.31262219418996 0.0 0.0
-107.5056000050497 -444.5321544962099 -165.65534073839518 -112.73691627012468 0.0 0.0
-8.686135682187542 -73.749191022565 -24.719691983028564 -170.05281857233976 0.0 0.0
-55.41917365720012 -5.134483686990048 -18.175544593450248 -185.90677368699167 0.0 0.0
-66.69222550929447 18.08634461690653 -14.591534335994979 -184.7790150603768 0.0 0.0
-76.73551342746103 18.992446451034592 -17.326752533951662 -188.09616108291897 0.0 0.0
-98.87314067889349 11.271333905366362 -26.235082166400147 -202.3453113706527 0.0 0.0
-144.55373362560772 4.729387816402144 -42.1290154709703 -218.0290430590352 0.0 0.0
-223.6305906918144 6.1676477657983835 -67.44060577110865 -218.37117942679544 0.0 0.0
-327.52100386326174 12.630257721388702 -103.9371881189569 -201.92157232182285 0.0 0.0
-415.09137524626243 15.419763075770337 -144.9126248827307 -179.82588848397492 0.0 0.0
-474.7807555028106 6.592715625118153 -184.39603911332807 -168.31630649461792 0.0 0.0
-519.998843161533 -2.9381152707510765 -218.06276704834482 -164.44346013670628 0.0 0.0
-558.3243624882427 -10.263069043744721 -246.2425358705853 -162.77058493944966 0.0 0.0
-589.8367605823945 -14.88167917943872 -267.6978339331998 -161.7237188098137 0.0 0.0
-612.2211404455825 -15.861879145717111 -280.69564048855085 -161.82849919315336 0.0 0.0
-623.3292952788414 -11.825173216572779 -282.8009127521439 -163.86578228377604 0.0 0.0
-621.4873067301885 -2.8631424013576634 -271.9844776096875 -168.38682298490858 0.0 0.0
-614.4130791973834 4.2979149266216865 -250.17474316851573 -177.8930295275715 0.0 0.0
-593.4840153557566 53.6060559068502 -189.25928832863255 -191.82978891183774 0.0 0.0
-322.0893113204251 164.45534966440988 30.483183946471257 -154.00897422959034 0.0 0.0
-1205.0225825503521 -1177.5128503243882 -1218.01642979199 -1.2284573358556372e-10 0.0 0.0
-322.08931132074815 164.45534966345787 30.483183946036178 154.00897423021112 0.0 0.0
-593.484015355107 53.60605590738541 -189.25928832822794 191.82978891206585 0.0 0.0
-614.4130791969069 4.297914927388575 -250.17474316804208 177.89302952773716 0.0 0.0
-621.4873067303779 -2.8631424018568907 -271.98447760987665 168.38682298475123 0.0 0.0
-623.3292952777376 -11.825173215357069 -282.8009127513996 163.86578228380603 0.0 0.0
-612.2211404453543 -15.861879145717865 -280.69564048836605 161.82849919311747 0.0 0.0
-589.8367605820513 -14.881679179226168 -267.6978339329554 161.72371880978102 0.0 0.0
-558.3243624881807 -10.26306904409629 -246.2425358705371 162.77058493948516 0.0 0.0
-519.9988431612937 -2.9381152707270033 -218.06276704807385 164.44346013657145 0.0 0.0
-474.78075550244495 6.592715625470596 -184.39603911287787 168.31630649450858 0.0 0.0
-415.09137524488125 15.419763077260653 -144.91262488180325 179.82588848388002 0.0 0.0
-327.52100386228886 12.630257721903838 -103.93718811845946 201.92157232189885 0.0 0.0
-223.63059069102906 6.16764776622551 -67.44060577071042 218.37117942671537 0.0 0.0
-144.55373362511259 4.729387816701613 -42.129015470732654 218.02904305882387 0.0 0.0
-98.87314067840029 11.271333905896899 -26.23508216610452 202.34531137031712 0.0 0.0
-76.73551342739098 18.992446450790883 -17.326752534006904 188.09616108267505 0.0 0.0
-66.69222550914138 18.086344617043114 -14.591534335911945 184.7790150602281 0.0 0.0
-55.419173657103585 -5.134483686823582 -18.175544593373207 185.90677368684504 0.0 0.0
-8.686135682352148 -73.74919102300386 -24.719691983207774 170.05281857226458 0.0 0.0
-107.50560000490532 -444.53215449543563 -165.65534073816033 112.73691626979888 0.0 0.0
-89.83151897397562 -339.7469411811108 -128.87669566449426 -105.52125588217935 0.0 0.0
-31.802304150410535 -78.37690565162787 -33.04905934380385 -157.43977262672178 0.0 0.0
-78.34566999945461 -5.149930350197692 -25.036115809258682 -181.94576380813447 0.0 0.0
-107.12653782418025 16.73219855490788 -27.141488140282338 -181.4063624037368 0.0 0.0
-138.0125978714277 20.276918809350644 -35.249530256463494 -183.83264366964184 0.0 0.0
-189.4817849487288 14.517537564151162 -52.37409448445587 -193.62699185080075 0.0 0.0
-278.1516849394482 3.1781523134014638 -86.19821311455486 -196.63763502764854 0.0 0.0
-394.36173508418506 -9.957940239565907 -144.66060372108117 -186.0986734738889 0.0 0.0
-497.4632372069519 -20.675171872435335 -215.36918092673636 -171.38088258430403 0.0 0.0
-570.9503623316407 -20.843063928731468 -269.3762192639814 -163.42911000641476 0.0 0.0
-624.7396090975617 -22.3249944177797 -306.78114241192486 -157.64068463979393 0.0 0.0
-672.1715555949979 -28.523106609098676 -337.2220809071267 -153.80084828000432 0.0 0.0
-715.9250355463164 -37.911479710237856 -365.5150543214387 -150.06567008747538 0.0 0.0
-753.0194511241339 -44.945573211045215 -388.3874109173976 -147.07211335427237 0.0 0.0
-781.2130435384278 -47.153070897823525 -404.0183811862489 -145.94184360177937 0.0 0.0
-797.0668588945733 -41.98322216283469 -409.4943432672414 -147.18939549113875 0.0 0.0
-800.861488551563 -31.09848506607227 -405.6202898190288 -151.0828867139871 0.0 0.0
-792.9117568298352 -16.974647421377938 -393.997421792584 -157.56504738245943 0.0 0.0
-744.1804742498427 29.36039577696785 -346.64811930883207 -165.13404999226088 0.0 0.0
-631.6067628101332 125.66399177508015 -244.7969095665868 -172.79041916807296 0.0 0.0
-1993.9042158899874 -1475.2692134948343 -1700.682465847915 3.356603883730713e-11 0.0 0.0
-631.606762810155 125.66399177496812 -244.79690956652058 172.79041916838375 0.0 0.0
-744.1804742481706 29.360395778503914 -346.6481193077837 165.13404999248368 0.0 0.0
-792.9117568301729 -16.97464742181681 -393.9974217927289 157.56504738266813 0.0 0.0
-800.8614885513794 -31.098485066082517 -405.62028981903757 151.08288671399117 0.0 0.0
-797.066858893208 -41.98322216148258 -409.49434326632434 147.18939549111593 0.0 0.0
-781.2130435378591 -47.15307089735874 -404.0183811858033 145.9418436016953 0.0 0.0
-753.019451124442 -44.945573211634716 -388.38741091763336 147.07211335442963 0.0 0.0
-715.9250355456022 -37.911479709630115 -365.51505432097224 150.0656700874474 0.0 0.0
-672.1715555940449 -28.5231066083088 -337.22208090642636 153.80084827991652 0.0 0.0
-624.7396090976769 -22.32499441820457 -306.78114241209806 157.64068463981465 0.0 0.0
-570.9503623311855 -20.843063928608835 -269.376219263665 163.4291100063761 0.0 0.0
-497.46323720628624 -20.675171872171898 -215.36918092625433 171.3808825844101 0.0 0.0
-394.36173508324566 -9.957940238850918 -144.66060372041954 186.0986734738692 0.0 0.0
-278.15168493874154 3.178152313754818 -86.19821311419788 196.63763502756683 0.0 0.0
-189.48178494841716 14.517537564068713 -52.37409448440151 193.62699185056783 0.0 0.0
-138.0125978711575 20.276918809559156 -35.249530256327226 183.83264366944178 0.0 0.0
-107.12653782412094 16.73219855472409 -27.141488140323425 181.40636240352842 0.0 0.0
-78.3456699992991 -5.14993035003507 -25.036115809165775 181.94576380800606 0.0 0.0
-31.802304150576578 -78.37690565202689 -33.04905934397264 157.439772626621 0.0 0.0
-89.83151897380037 -339.74694118059494 -128.8766956642849 105.52125588207548 0.0 0.0
-73.13429180177465 -251.90664568461136 -97.51228124591577 -94.14235649231979 0.0 0.0
-48.26413510514232 -76.73886631586281 -37.5000773056199 -143.946126389194 0.0 0.0
-99.43367287688238 -5.274400578787384 -31.39856360529234 -173.5736754535549 0.0 0.0
-145.93296856175874 15.444201838242016 -39.109869118482585 -174.17285860850106 0.0 0.0
-196.90726651778587 20.174679785069102 -52.92654870923894 -173.09594022440623 0.0 0.0
-276.4933865465797 12.59188843230785 -80.43702670027656 -173.57192160153934 0.0 0.0
-395.12023399962163 -8.410442034318283 -137.15972951703807 -168.87460637144775 0.0 0.0
-512.3445495719861 -31.134475436161754 -221.06825222346205 -156.99396531537207 0.0 0.0
-603.5156885162273 -39.25026057849751 -294.9335592630838 -150.8067980488535 0.0 0.0
-667.1656150677882 -38.01977061481939 -340.1902851587634 -146.67930978538286 0.0 0.0
-717.8416717651098 -41.79479347946702 -372.15886918811117 -142.48397124988193 0.0 0.0
-766.9491285753634 -51.173691874095425 -402.60579223325055 -139.1595332425045 0.0 0.0
-814.6801845263287 -63.55850385453675 -433.1885022612762 -135.5358901878189 0.0 0.0
-857.5211283093042 -74.9251714219695 -460.64032910504636 -132.34104166723696 0.0 0.0
-891.8617252048643 -81.01988244887846 -481.13167223009145 -130.93119928936306 0.0 0.0
-912.6538947906017 -78.35337422135404 -490.3535483915332 -132.48083343546492 0.0 0.0
-918.0581943732614 -65.31527102561364 -486.60526871662364 -137.1305950155989 0.0 0.0
-898.1695385944961 -33.88917137342142 -460.98457466419643 -143.070555841848 0.0 0.0
-842.1856130837585 25.13213686776325 -404.10915394319045 -147.74089552936272 0.0 0.0
-686.2306338195315 169.90966874593556 -257.1391774139313 -149.53512408365464 0.0 0.0
-2438.1199859057247 -1709.7991672065127 -2048.801901260614 8.282086128019728e-11 0.0 0.0
-686.2306338203925 169.9096687447976 -257.13917741443674 149.53512408403492 0.0 0.0
-842.1856130828205 25.132136868594557 -404.10915394262406 147.74089552954072 0.0 0.0
-898.1695385956357 -33.88917137476379 -460.9845746648656 143.07055584222155 0.0 0.0
-918.0581943729765 -65.31527102551614 -486.6052687165579 137.1305950156306 0.0 0.0
-912.653894789554 -78.35337422027351 -490.35354839083163 132.48083343540904 0.0 0.0
-891.8617252042621 -81.01988244848714 -481.13167222971555 130.93119928926936 0.0 0.0
-857.5211283103168 -74.92517142347975 -460.6403291056794 132.34104166763683 0.0 0.0
-814.6801845265209 -63.55850385504399 -433.1885022614846 135.53589018800355 0.0 0.0
-766.9491285747614 -51.17369187378738 -402.6057922328729 139.15953324261778 0.0 0.0
-717.8416717660677 -41.79479348084033 -372.1588691887831 142.48397125003888 0.0 0.0
-667.1656150678924 -38.01977061516425 -340.19028515879984 146.67930978522764 0.0 0.0
-603.5156885162515 -39.250260578997576 -294.9335592630272 150.8067980489475 0.0 0.0
-512.344549571525 -31.134475436221404 -221.06825222307114 156.99396531544477 0.0 0.0
-395.12023399917626 -8.410442034390584 -137.15972951678086 168.8746063714928 0.0 0.0
-276.4933865462162 12.591888432096201 -80.4370267002239 173.57192160141526 0.0 0.0
-196.90726651751748 20.17467978509938 -52.92654870916318 173.09594022424946 0.0 0.0
-145.93296856160111 15.444201838245412 -39.10986911843871 174.1728586083584 0.0 0.0
-99.43367287674737 -5.27440057863091 -31.39856360520392 173.57367545348376 0.0 0.0
-48.264135105123486 -76.73886631583244 -37.500077305606055 143.94612638909325 0.0 0.0
-73.1342918016469 -251.90664568425495 -97.51228124577054 94.14235649231136 0.0 0.0
-59.49814971748279 -178.50512685971447 -71.40098297315916 -80.79308118730445 0.0 0.0
-60.75531110630356 -70.4932173872037 -39.37473470540752 -128.51781050222866 0.0 0.0
-119.076084481075 -5.248198627853478 -37.28818085261305 -161.15090152299354 0.0 0.0
-182.4744557217548 13.464999433085232 -50.680329969894146 -161.83128403199004 0.0 0.0
-254.8222593025873 18.646608010841756 -70.67118302759569 -158.12370684845772 0.0 0.0
-361.9959582310979 6.56511215744132 -111.70769935228046 -150.47936008811288 0.0 0.0
-488.73418057780253 -24.7891240129557 -191.5565325813358 -138.33233017024142 0.0 0.0
-599.7834709329118 -46.207024569008716 -285.1108357942455 -132.77772177774352 0.0 0.0
-679.9748421187124 -51.11349954987125 -350.41551879990413 -130.41929331557157 0.0 0.0
-736.5728772274092 -55.14886488842997 -389.50888557622443 -127.4254990158543 0.0 0.0
-789.5260773216351 -60.747240666469 -420.78278708019377 -125.56586598905365 0.0 0.0
-841.2229882159911 -72.51805126013764 -452.88898868901043 -122.81838890758229 0.0 0.0
-892.862839002391 -88.56159654745886 -486.95797013082665 -119.51008087756804 0.0 0.0
-941.6447920470652 -104.8648870756493 -519.7038121348437 -116.29353273825377 0.0 0.0
-982.447120777357 -116.33353787063044 -546.0473422570072 -114.5885906993283 0.0 0.0
-1008.092410017514 -115.86090787672703 -558.8315245057457 -116.05094331807544 0.0 0.0
-1009.2521083385363 -97.12544803200171 -550.2374559290593 -120.30024536477272 0.0 0.0
-976.8641203109325 -50.00790013991886 -510.7145908555318 -125.50719084535602 0.0 0.0
-892.5971235466174 40.38063443911334 -424.2455980048801 -128.20906349748435 0.0 0.0
-717.5915358393165 206.63575183211708 -255.63346928099213 -127.35403844472482 0.0 0.0
-2788.891331767124 -1951.248775381674 -2350.7510282078706 1.6752110809648002e-10 0.0 0.0
-717.5915358393466 206.6357518318858 -255.6334692809272 127.35403844491378 0.0 0.0
-892.5971235472107 40.38063443828429 -424.24559800544375 128.2090634978694 0.0 0.0
-976.8641203113152 -50.007900140518814 -510.7145908557574 125.50719084561533 0.0 0.0
-1009.2521083386495 -97.12544803221297 -550.23745592936 120.3002453649021 0.0 0.0
-1008.0924100167879 -115.86090787611126 -558.8315245052376 116.05094331806994 0.0 0.0
-982.447120777623 -116.33353787108175 -546.0473422571552 114.58859069936781 0.0 0.0
-941.6447920471091 -104.86488707596618 -519.7038121348179 116.2935327383472 0.0 0.0
-892.8628390023798 -88.56159654776062 -486.9579701308964 119.51008087769853 0.0 0.0
-841.2229882156741 -72.5180512600579 -452.88898868879625 122.81838890760571 0.0 0.0
-789.5260773208935 -60.747240665981344 -420.7827870797349 125.56586598902459 0.0 0.0
-736.5728772266768 -55.14886488796625 -389.50888557573086 127.42549901585569 0.0 0.0
-679.9748421186489 -51.113499550114845 -350.4155187997599 130.41929331548158 0.0 0.0
-599.7834709325498 -46.20702456911522 -285.1108357938862 132.77772177775134 0.0 0.0
-488.734180577372 -24.789124013048948 -191.55653258098332 138.33233017025663 0.0 0.0
-361.99595823063606 6.565112157511201 -111.70769935204963 150.47936008800997 0.0 0.0
-254.82225930218812 18.646608010769683 -70.67118302752154 158.12370684832703 0.0 0.0
-182.47445572148408 13.464999433165087 -50.680329969804276 161.8312840318233 0.0 0.0
-119.07608448096312 -5.248198627733179 -37.288180852542155 161.15090152283517 0.0 0.0
-60.75531110616917 -70.49321738700984 -39.37473470530902 128.51781050219097 0.0 0.0
-59.498149717296776 -178.50512685942036 -71.40098297301513 80.79308118716685 0.0 0.0
-49.42982399300462 -118.90620230114112 -50.500807888243706 -66.71806677398354 0.0 0.0
-70.53785117139974 -61.061839947796585 -39.4799073357589 -110.96944956470274 0.0 0.0
-137.48438639853885 -4.797479565653639 -42.68301552197728 -144.5993048192645 0.0 0.0
-217.2242527000218 11.21178523892127 -61.721909246517185 -145.52931828617886 0.0 0.0
-310.8637122404066 13.413708889590747 -89.6943781785418 -136.4530634097887 0.0 0.0
-438.8165183073693 -5.04968356321486 -147.1902591428841 -122.83311959008088 0.0 0.0
-565.2398425111575 -38.984701739594634 -243.9333050606895 -112.03063685835954 0.0 0.0
-666.7558983470955 -55.717038678382536 -335.1950446874429 -110.26332764205559 0.0 0.0
-735.8113654951138 -64.56067871885301 -391.79497646621707 -108.67670586877719 0.0 0.0
-795.3733454867252 -69.80958696080432 -428.8124352687913 -108.68829348124949 0.0 0.0
-849.8294256176152 -78.99092623359601 -461.5839019776985 -107.49484133545839 0.0 0.0
-904.765533623266 -93.92304618198402 -496.6525693337005 -105.24240970949084 0.0 0.0
-960.2389706175122 -113.33708443754725 -534.2051263962434 -102.41731851881661 0.0 0.0
-1014.0064718629205 -133.85641126140138 -571.4546514186819 -99.47663722811052 0.0 0.0
-1061.7328521195018 -151.21976700090485 -604.1440810705208 -97.48390375865763 0.0 0.0
-1091.4335723386869 -153.9512414339816 -620.6146190574129 -98.04094823964252 0.0 0.0
-1087.9272595366415 -127.32355828319407 -605.8240631720007 -101.67839046118188 0.0 0.0
-1036.720384029064 -60.052403335342945 -546.952072348845 -106.0765072641447 0.0 0.0
-926.3361273025951 57.10149476013699 -433.8767100827365 -108.18096544941636 0.0 0.0
-742.5982669262766 232.36738059165253 -255.429070615263 -109.23462456075295 0.0 0.0
-3087.919761281078 -2178.743683476779 -2617.9865315521583 -2.4268587139886222e-11 0.0 0.0
-742.5982669250293 232.36738059288774 -255.42907061431453 109.23462456067772 0.0 0.0
-926.3361273015609 57.10149476105374 -433.876710082112 108.18096544959151 0.0 0.0
-1036.7203840282266 -60.05240333458252 -546.9520723482342 106.07650726417019 0.0 0.0
-1087.9272595370312 -127.32355828371674 -605.8240631723776 101.67839046130409 0.0 0.0
-1091.4335723376955 -153.9512414330287 -620.6146190566772 98.04094823948216 0.0 0.0
-1061.7328521188147 -151.21976700044564 -604.1440810699986 97.48390375870751 0.0 0.0
-1014.0064718623578 -133.8564112610679 -571.4546514182738 99.47663722818012 0.0 0.0
-960.2389706177846 -113.3370844380426 -534.2051263965785 102.41731851897238 0.0 0.0
-904.765533622535 -93.92304618139895 -496.6525693331949 105.24240970933994 0.0 0.0
-849.829425616685 -78.99092623283056 -461.5839019771148 107.49484133531149 0.0 0.0
-795.3733454859665 -69.80958696030487 -428.8124352683634 108.68829348122966 0.0 0.0
-735.811365494872 -64.56067871882891 -391.7949764659857 108.67670586865921 0.0 0.0
-666.7558983467693 -55.71703867847019 -335.1950446871219 110.26332764202947 0.0 0.0
-565.2398425102617 -38.98470173898425 -243.93330505992503 112.03063685826424 0.0 0.0
-438.81651830705596 -5.049683563369403 -147.19025914268994 122.8331195899884 0.0 0.0
-310.8637122399346 13.413708889672085 -89.69437817839477 136.4530634097331 0.0 0.0
-217.22425269985192 11.21178523892312 -61.72190924646726 145.5293182860054 0.0 0.0
-137.4843863984911 -4.797479565746504 -42.68301552198951 144.59930481912906 0.0 0.0
-70.53785117135173 -61.06183994777711 -39.479907335738645 110.96944956469808 0.0 0.0
-49.42982399288095 -118.90620230093799 -50.50080788814567 66.71806677384555 0.0 0.0
-42.719493293461866 -72.72630367884015 -34.6337390916906 -52.35955411281775 0.0 0.0
-78.1244273829045 -49.767429390741896 -38.36755703209391 -91.45164637825238 0.0 0.0
-154.77227435487575 -3.8031897761818456 -47.57314673779082 -123.98523244845065 0.0 0.0
-250.59441801063835 7.763308288667801 -72.7729963050108 -124.46122319881636 0.0 0.0
-369.07323072976055 6.768500140596474 -110.29355011278138 -111.91823315023416 0.0 0.0
-502.4465389472267 -21.465750991897345 -186.16777479561574 -92.71235609747484 0.0 0.0
-626.9227602988253 -48.44321378100751 -290.04750970162826 -88.26919916497722 0.0 0.0
-714.4332895194016 -65.60319777564092 -373.51207214593694 -87.57151264320399 0.0 0.0
-784.8692431516232 -75.34887138986743 -425.0112585336841 -88.29976114263162 0.0 0.0
-845.4309746085861 -84.659860126619 -462.6057004266861 -89.04653110606986 0.0 0.0
-903.2760620979883 -97.44049158525972 -498.3918626787914 -88.40802721503498 0.0 0.0
-961.5359718971242 -115.40682254172181 -536.5724225251381 -86.69060182535185 0.0 0.0
-1020.3317219330676 -137.57758186907776 -577.1182548382308 -84.4738826609643 0.0 0.0
-1077.8154572022067 -162.0781668993055 -618.1590411451734 -82.01204441722743 0.0 0.0
-1130.7160508269244 -183.6069298065557 -655.4573235710611 -79.80991086337818 0.0 0.0
-1166.0785634021631 -190.3371236084637 -676.7430059373178 -79.18429750600191 0.0 0.0
-1159.8951578139015 -160.10140685749923 -658.9186890985176 -81.39216216030816 0.0 0.0
-1090.818127289116 -73.38623241460937 -581.4385679748441 -85.39763131619496 0.0 0.0
-955.7064472045058 69.27715998061839 -443.0213146563856 -89.08692656927171 0.0 0.0
-758.3872918420348 257.487034132831 -250.723960204131 -94.04087734713447 0.0 0.0
-3346.246824196273 -2384.3604592725865 -2852.8850507157626 -3.823430461125099e-11 0.0 0.0
-758.3872918420966 257.4870341326572 -250.72396020415476 94.04087734736908 0.0 0.0
-955.7064472024613 69.27715998268312 -443.02131465500213 89.08692656922761 0.0 0.0
-1090.8181272887123 -73.38623241433322 -581.4385679745168 85.39763131629861 0.0 0.0
-1159.8951578138722 -160.10140685762678 -658.9186890985102 81.39216216040221 0.0 0.0
-1166.0785634015126 -190.33712360791986 -676.7430059368186 79.18429750605745 0.0 0.0
-1130.716050826338 -183.6069298060949 -655.4573235707131 79.80991086332607 0.0 0.0
-1077.81545720105 -162.07816689833388 -618.1590411443806 82.01204441725321 0.0 0.0
-1020.331721933549 -137.57758186983054 -577.1182548386591 84.47388266103678 0.0 0.0
-961.5359718969432 -115.40682254178554 -536.5724225249891 86.69060182541376 0.0 0.0
-903.276062097053 -97.44049158453284 -498.39186267822197 88.40802721494767 0.0 0.0
-845.430974608818 -84.659860127182 -462.60570042689704 89.04653110608143 0.0 0.0
-784.8692431518723 -75.34887139048205 -425.01125853379864 88.29976114270232 0.0 0.0
-714.4332895184307 -65.60319777490807 -373.5120721451949 87.57151264302676 0.0 0.0
-626.9227602981138 -48.44321378061325 -290.0475097009933 88.26919916489308 0.0 0.0
-502.44653894704857 -21.465750992273172 -186.1677747954398 92.71235609741444 0.0 0.0
-369.07323072933724 6.768500140482239 -110.29355011267488 111.9182331501165 0.0 0.0
-250.59441801036158 7.763308288837857 -72.77299630488693 124.46122319869781 0.0 0.0
-154.77227435485463 -3.803189776371232 -47.5731467378412 123.98523244837676 0.0 0.0
-78.12442738287808 -49.767429390781125 -38.36755703209776 91.45164637820865 0.0 0.0
-42.71949329337892 -72.72630367871501 -34.633739091628165 52.359554112649 0.0 0.0
-38.70646629412466 -39.709365437215716 -23.52474951940211 -38.11079247450732 0.0 0.0
-83.43233075556866 -37.79184678853398 -36.36725326323079 -70.1972659913003 0.0 0.0
-170.77056849845238 -2.420745641188932 -51.95761471959666 -99.15265162994076 0.0 0.0
-284.06648593157985 3.1818936213252074 -84.15029015325077 -98.86449154511001 0.0 0.0
-424.4486270881796 -3.8748075314416086 -133.8320306631908 -82.52302465984317 0.0 0.0
-561.9679101711359 -33.6317467986914 -225.0663322046163 -67.35047257112262 0.0 0.0
-671.4982432798143 -56.926788178542985 -328.7413818844402 -65.8763193596239 0.0 0.0
-754.5818248180141 -72.96769668948667 -403.08116513899034 -65.99795862895112 0.0 0.0
-826.2233611662215 -86.59173571261141 -453.20792815651964 -67.49104201245731 0.0 0.0
-890.0606693555677 -99.70220416491598 -493.1942185332884 -68.624718131585 0.0 0.0
-951.2698979851053 -116.03198569233169 -532.2499244496378 -68.4142326080138 0.0 0.0
-1013.1017760292614 -137.16522883908303 -573.7727397049591 -67.22096871769944 0.0 0.0
-1074.9196105798878 -162.48643130358434 -617.387474549899 -65.59448149286635 0.0 0.0
-1134.688352027532 -187.88251916125503 -659.9920793502679 -63.84705150378949 0.0 0.0
-1189.510611694012 -211.36732449733884 -699.1760322437933 -61.77955872905996 0.0 0.0
-1230.59257857067 -223.5367145761728 -725.979056706125 -59.880579409051215 0.0 0.0
-1231.0170071674625 -198.28447613744956 -713.9690581283553 -60.06118854242205 0.0 0.0
-1151.4487635613773 -99.72207577330767 -625.3768814665119 -63.83316999831756 0.0 0.0
-987.3474171009482 72.65633140538677 -457.4828973587531 -70.37143097229324 0.0 0.0
-761.0395605748897 290.1920982172452 -235.66176278068173 -80.30730951926357 0.0 0.0
-3564.134221824635 -2558.7395192560534 -3051.3101751111835 -5.03330710444061e-11 0.0 0.0
-761.0395605758645 290.1920982161018 -235.66176278140716 80.30730951955573 0.0 0.0
-987.3474171001494 72.65633140615702 -457.4828973583143 70.37143097240946 0.0 0.0
-1151.4487635613366 -99.72207577333171 -625.3768814664371 63.83316999827696 0.0 0.0
-1231.0170071670964 -198.28447613719618 -713.9690581281418 60.061188542379206 0.0 0.0
-1230.5925785699828 -223.53671457564369 -725.9790567054965 59.8805794091623 0.0 0.0
-1189.5106116939164 -211.367324497426 -699.17603224377 61.779558729098156 0.0 0.0
-1134.6883520262072 -187.88251916012797 -659.9920793493326 63.84705150389826 0.0 0.0
-1074.9196105796786 -162.48643130354762 -617.3874745498471 65.5944814927982 0.0 0.0
-1013.1017760293742 -137.16522883943412 -573.7727397049943 67.22096871767536 0.0 0.0
-951.2698979839854 -116.0319856914605 -532.2499244490001 68.41423260796219 0.0 0.0
-890.0606693551144 -99.702204164764 -493.1942185329591 68.62471813164916 0.0 0.0
-826.2233611660934 -86.59173571283631 -453.20792815642676 67.4910420125398 0.0 0.0
-754.5818248175311 -72.9676966892938 -403.0811651386279 65.99795862893365 0.0 0.0
-671.4982432789163 -56.926788177953675 -328.7413818836792 65.87631935947775 0.0 0.0
-561.9679101710958 -33.63174679911582 -225.06633220443146 67.35047257105049 0.0 0.0
-424.4486270879327 -3.874807531643062 -133.83203066311026 82.52302465965819 0.0 0.0
-284.0664859312614 3.18189362137269 -84.15029015316819 98.86449154516175 0.0 0.0
-170.77056849834025 -2.4207456413050847 -51.957614719597586 99.15265162985268 0.0 0.0
-83.43233075538974 -37.79184678836941 -36.36725326312773 70.19726599123524 0.0 0.0
-38.70646629391579 -39.70936543709605 -23.524749519303548 38.11079247445481 0.0 0.0
-36.15960349426358 -19.475021079996882 -16.69038737227814 -24.748492921227545 0.0 0.0
-85.74141407827548 -26.347156070332076 -33.62657104458226 -47.50930462950798 0.0 0.0
-185.14224896153507 -1.172764102031708 -55.89450391907002 -69.57304104443273 0.0 0.0
-319.2372371354129 -2.1523692817394617 -96.19380776929279 -68.2364368370829 0.0 0.0
-475.5687419289447 -17.708485562810726 -160.8578360457035 -51.81046640640395 0.0 0.0
-609.4976802586704 -43.041777769421515 -261.969761864745 -44.21319673351463 0.0 0.0
-704.334790376914 -63.299027437703806 -358.7301464973649 -44.00156979702009 0.0 0.0
-788.9298505793768 -81.08505013127967 -428.07369154931297 -44.89233507454505 0.0 0.0
-862.8084976298153 -98.44431147172605 -478.4669368494215 -46.286819499700826 0.0 0.0
-930.0419100445527 -115.10165190724507 -521.3521374010936 -47.417231318763186 0.0 0.0
-995.0744462891856 -134.81198959423767 -563.9354461533986 -47.55477780440161 0.0 0.0
-1060.1175886625047 -159.0873386777912 -608.6351368357549 -46.87465974940907 0.0 0.0
-1125.0935266087536 -186.2614199014182 -654.7377782282439 -45.92927983050727 0.0 0.0
-1186.3643972224595 -213.5880226351947 -699.0666615156211 -44.78901212806531 0.0 0.0
-1240.366544567334 -235.69503515067603 -737.1528190124623 -43.21861467883162 0.0 0.0
-1280.709955854829 -246.70986639024989 -762.9110415466694 -40.93192576591462 0.0 0.0
-1294.4299971227829 -234.37198045902758 -763.8395535788807 -39.00346369766153 0.0 0.0
-1239.5091041128992 -159.08962527575315 -699.243098035657 -41.07603115102569 0.0 0.0
-1039.8882873482496 50.59878157459161 -495.05390006192147 -50.50885997966756 0.0 0.0
-736.8157272454123 346.31424787872334 -195.56145286057227 -66.87420307513756 0.0 0.0
-3727.978199068515 -2684.4646525222206 -3197.9837707912357 -5.8131277569373196e-11 0.0 0.0
-736.8157272448192 346.3142478791964 -195.56145286021962 66.87420307532952 0.0 0.0
-1039.8882873490384 50.59878157375073 -495.05390006250275 50.50885997983378 0.0 0.0
-1239.5091041127916 -159.08962527575758 -699.2430980355505 41.076031150989095 0.0 0.0
-1294.4299971225464 -234.3719804588636 -763.8395535788023 39.003463697677475 0.0 0.0
-1280.7099558547136 -246.7098663902824 -762.9110415464964 40.93192576587075 0.0 0.0
-1240.3665445655436 -235.69503514905654 -737.1528190112325 43.21861467883159 0.0 0.0
-1186.3643972214802 -213.58802263441265 -699.066661514871 44.789012128149864 0.0 0.0
-1125.0935266091724 -186.261419902065 -654.7377782285748 45.929279830586026 0.0 0.0
-1060.117588662285 -159.08733867781382 -608.6351368355356 46.87465974936923 0.0 0.0
-995.0744462891853 -134.81198959450364 -563.9354461534542 47.554777804448236 0.0 0.0
-930.0419100438147 -115.10165190674124 -521.3521374005466 47.41723131863388 0.0 0.0
-862.8084976289593 -98.44431147114429 -478.4669368488577 46.28681949964247 0.0 0.0
-788.9298505793801 -81.08505013165819 -428.0736915492483 44.892335074618124 0.0 0.0
-704.3347903758486 -63.29902743689123 -358.7301464965152 44.001569796882514 0.0 0.0
-609.4976802582236 -43.04177776935441 -261.96976186427577 44.213196733472174 0.0 0.0
-475.56874192836887 -17.708485562675804 -160.85783604541118 51.8104664064264 0.0 0.0
-319.23723713511936 -2.1523692816928137 -96.19380776921132 68.23643683720277 0.0 0.0
-185.14224896154607 -1.172764102135843 -55.89450391910457 69.5730410442785 0.0 0.0
-85.74141407816515 -26.347156070092787 -33.62657104447739 47.509304629454746 0.0 0.0
-36.15960349432786 -19.475021080010656 -16.690387372301547 24.74849292132952 0.0 0.0
-32.746309860465175 -10.980133460375285 -13.117932996252136 -13.942651856947819 0.0 0.0
-83.55914780533308 -17.126810340442905 -30.205787443732785 -23.80597406749179 0.0 0.0
-197.40392543338567 -1.0798483368188956 -59.54513213106135 -33.872043316085794 0.0 0.0
-356.28110778684857 -7.339219506638475 -109.26392729594083 -32.11057724486115 0.0 0.0
-525.4079052598605 -29.26422165220491 -189.70718449315848 -23.339507121846797 0.0 0.0
-644.1197589957596 -49.916799271584 -294.29805730938324 -22.86000953411476 0.0 0.0
-733.5591234475258 -67.53609780685001 -382.50845943294144 -23.650118939699862 0.0 0.0
-818.4971806084498 -89.71122331768478 -449.4857262530553 -24.08163082158515 0.0 0.0
-895.2983899751848 -110.48235302165284 -501.31196334566584 -24.72983306658171 0.0 0.0
-966.307952186251 -131.11084458380014 -547.8132512187042 -25.46983069192934 0.0 0.0
-1034.8774649719292 -153.9457380439093 -593.70027592951 -25.80415422096773 0.0 0.0
-1103.2627262697542 -180.39745582038626 -641.161798865493 -25.729821859974606 0.0 0.0
-1170.779128391817 -210.37016743367693 -689.9291727039368 -25.35925322884303 0.0 0.0
-1233.9887511308139 -238.45416007268102 -735.6057435583276 -24.825243776614975 0.0 0.0
-1285.866439462647 -258.090088337701 -771.4116617418331 -23.94433172518246 0.0 0.0
-1320.1735816819876 -263.1316197233172 -791.1533876998948 -22.251084362753744 0.0 0.0
-1334.4956621314607 -251.69724029052577 -792.6369913378018 -19.721444965305963 0.0 0.0
-1326.4717961678534 -222.69347798637298 -774.2631585177558 -18.819646901911547 0.0 0.0
-1209.5642469044867 -92.84135408208127 -651.545132397977 -26.77751081478876 0.0 0.0
-713.0755251137842 400.32127246780317 -157.02270532820577 -50.360975745875784 0.0 0.0
-3679.2106885009644 -2599.613420374134 -3133.1243696715787 2.0108359422010835e-11 0.0 0.0
-713.0755251131056 400.32127246846335 -157.02270532764527 50.36097574592918 0.0 0.0
-1209.5642469042969 -92.84135408198317 -651.545132397834 26.77751081480938 0.0 0.0
-1326.4717961680126 -222.69347798661752 -774.2631585178824 18.819646901941297 0.0 0.0
-1334.495662131692 -251.69724029086814 -792.6369913381494 19.721444965234458 0.0 0.0
-1320.173581682255 -263.1316197237428 -791.1533876999964 22.25108436280041 0.0 0.0
-1285.8664394622508 -258.0900883374452 -771.4116617416058 23.944331724988245 0.0 0.0
-1233.9887511303164 -238.4541600723647 -735.6057435578977 24.825243776690563 0.0 0.0
-1170.7791283920717 -210.37016743417138 -689.9291727041318 25.35925322880933 0.0 0.0
-1103.2627262691697 -180.39745582004727 -641.1617988651117 25.729821859984355 0.0 0.0
-1034.8774649720117 -153.9457380442522 -593.70027592951 25.804154220950004 0.0 0.0
-966.3079521858047 -131.11084458363615 -547.8132512183672 25.469830691782846 0.0 0.0
-895.2983899741253 -110.48235302086965 -501.31196334498463 24.729833066502096 0.0 0.0
-818.4971806080509 -89.71122331759666 -449.48572625276694 24.081630821661758 0.0 0.0
-733.5591234468243 -67.53609780651789 -382.50845943239347 23.650118939686656 0.0 0.0
-644.1197589948457 -49.91679927095795 -294.29805730861904 22.860009534108087 0.0 0.0
-525.4079052593399 -29.264221652067928 -189.70718449281327 23.33950712192448 0.0 0.0
-356.2811077866081 -7.339219506887822 -109.2639272959565 32.1105772447578 0.0 0.0
-197.40392543315485 -1.0798483366369531 -59.54513213093753 33.87204331602403 0.0 0.0
-83.55914780526021 -17.12681034039977 -30.205787443697997 23.805974067505023 0.0 0.0
-32.746309860394454 -10.980133460345012 -13.117932996221837 13.942651857001154 0.0 0.0
-21.40240181684014 -5.599566718632335 -8.100590560641743 -8.538558539977519 0.0 0.0
-72.82582708919176 -9.78787838907141 -24.784111643478944 -9.893937801889676 0.0 0.0
-206.87399649926553 -3.1647010146084362 -63.01160925416218 -11.232324163684494 0.0 0.0
-401.1291477079578 -25.045789881906348 -129.9040006296757 -7.78413498068953 0.0 0.0
-595.6696150648313 -75.35411378491044 -238.76141617623634 0.1489371143707423 0.0 0.0
-737.7513758634611 -125.68293474728047 -373.2667710458752 1.394267627488908 0.0 0.0
-862.8888150103396 -181.8554761114668 -495.7164508997535 0.6236311401756716 0.0 0.0
-995.3538049212968 -253.048133934385 -609.5246936997509 -0.8711926550775821 0.0 0.0
-1135.2800622649695 -337.74871800909284 -724.7974764047187 -2.5503934139158666 0.0 0.0
-1291.3134667207366 -443.1310406148218 -856.0355902266267 -4.335465292751792 0.0 0.0
-1469.3794959260042 -574.8066739190315 -1010.7381286159508 -6.010371808721921 0.0 0.0
-1669.9317091643452 -733.5582300444837 -1190.0024850070895 -7.3366115074726235 0.0 0.0
-1886.98743883292 -912.0090605722472 -1387.3371490030047 -8.219351977148063 0.0 0.0
-2110.0704274675154 -1099.5223120521773 -1592.3034067745373 -8.92512817917032 0.0 0.0
-2322.5875998766537 -1279.4396273277289 -1788.2951004921892 -9.25821779775314 0.0 0.0
-2501.7219537440665 -1429.2153789495876 -1952.6686659867314 -8.925046712998821 0.0 0.0
-2620.6434690619117 -1522.7411637723287 -2058.916712702703 -7.52970027222149 0.0 0.0
-2667.095621899361 -1548.5854217085994 -2094.7468491973805 -6.009727064928768 0.0 0.0
-2720.666389559612 -1587.662992972157 -2139.6774923487546 -12.542429479897416 0.0 0.0
-2798.8089236571413 -1664.4000147846923 -2214.63300466012 -40.0929709591677 0.0 0.0
-6288.383019626135 -5180.885994897199 -5710.5847787233415 -4.9112713895738125e-11 0.0 0.0
-2798.808923657094 -1664.4000147847237 -2214.633004659802 40.092970959244255 0.0 0.0
-2720.6663895568836 -1587.6629929694445 -2139.677492346735 12.542429479953377 0.0 0.0
-2667.0956218989213 -1548.5854217082865 -2094.7468491967047 6.009727065090569 0.0 0.0
-2620.643469061543 -1522.741163772055 -2058.916712702439 7.529700272093031 0.0 0.0
-2501.7219537425685 -1429.2153789482397 -1952.6686659852735 8.925046713070547 0.0 0.0
-2322.5875998773076 -1279.439627328579 -1788.2951004925114 9.258217797555098 0.0 0.0
-2110.0704274665964 -1099.5223120514584 -1592.3034067735246 8.92512817942546 0.0 0.0
-1886.987438832012 -912.0090605715689 -1387.337149002149 8.219351977102754 0.0 0.0
-1669.9317091628986 -733.5582300432653 -1190.0024850060233 7.3366115075101845 0.0 0.0
-1469.3794959247641 -574.8066739180616 -1010.73812861486 6.010371808589877 0.0 0.0
-1291.3134667196944 -443.1310406140705 -856.0355902257701 4.3354652927618815 0.0 0.0
-1135.2800622634527 -337.7487180078594 -724.79747640361 2.550393413816458 0.0 0.0
-995.353804920956 -253.04813393436618 -609.5246936993962 0.8711926553135498 0.0 0.0
-862.8888150095182 -181.85547611099517 -495.71645089906406 -0.6236311400800005 0.0 0.0
-737.7513758627565 -125.68293474687601 -373.26677104517535 -1.394267627572944 0.0 0.0
-595.6696150644185 -75.3541137848748 -238.7614161758813 -0.14893711426888956 0.0 0.0
-401.12914770793543 -25.045789882436843 -129.90400062980123 7.784134980572816 0.0 0.0
-206.87399649888323 -3.164701014162997 -63.011609253913846 11.232324163785218 0.0 0.0
-72.82582708904735 -9.787878389078273 -24.784111643437676 9.89393780199414 0.0 0.0
-21.40240181670584 -5.5995667185672025 -8.100590560581914 8.53855854003105 0.0 0.0
SCALARS Strain float 6
LOOKUP_TABLE default
0.014728596042487073 -0.024459248152452727 0.0 -0.001464253539805038 0.0 0.0
0.009050887393210093 -0.0027307552441776187 0.0 -0.007419170305573903 0.0 0.0
0.0026737768555264063 -0.0006235346617695977 0.0 -0.0008906403662840958 0.0 0.0
0.002270757433590749 -0.0009029700391609201 0.0 1.2761579355544511e-05 0.0 0.0
0.003381031394362562 -0.0014888532506926416 0.0 0.0001981548756431135 0.0 0.0
0.005811458865873295 -0.0033291938432097132 0.0 0.00036198807063442446 0.0 0.0
0.01002826509371374 -0.006941785143651683 0.0 0.000479663681172029 0.0 0.0
0.016387967367384328 -0.012673925263890357 0.0 0.0005201732977223497 0.0 0.0
0.025170675692244314 -0.020775618793404373 0.0 0.0004818609996502707 0.0 0.0
0.036477460327504686 -0.03129182300715907 0.0 0.00033472123913091777 0.0 0.0
0.050228470157996294 -0.04410764883637201 0.0 0.00011150800571058485 0.0 0.0
0.0662373991944309 -0.05903428065434775 0.0 -0.00017937978156183404 0.0 0.0
0.08427285967745006 -0.07587585146551153 0.0 -0.0005578190639444347 0.0 0.0
0.10408741560256424 -0.09442911973879917 0.0 -0.0009775927139660788 0.0 0.0
0.12534392500851294 -0.11441393426351432 0.0 -0.0014658679704602998 0.0 0.0
0.14746772894320767 -0.13532031276853196 0.0 -0.002001469509272698 0.0 0.0
0.16954910261027356 -0.15630481544309824 0.0 -0.0024769819974587524 0.0 0.0
0.1903409326982049 -0.17618630337828362 0.0 -0.002712302084851004 0.0 0.0
0.2083787600585693 -0.19351211321736123 0.0 -0.0025484668804306547 0.0 0.0
0.22186588918325634 -0.2065689157345884 0.0 -0.002963814869308563 0.0 0.0
0.2272134648786625 -0.21197274033985658 0.0 3.0270924655795284e-15 0.0 0.0
0.22186588918322647 -0.2065689157345485 0.0 0.0029638148693155644 0.0 0.0
0.20837876005850708 -0.19351211321730444 0.0 0.0025484668804400396 0.0 0.0
0.190340932698116 -0.1761863033781999 0.0 0.0027123020848557385 0.0 0.0
0.1695491026101687 -0.15630481544299674 0.0 0.0024769819974581695 0.0 0.0
0.14746772894309756 -0.1353203127684295 0.0 0.0020014695092693564 0.0 0.0
0.12534392500840255 -0.11441393426341029 0.0 0.0014658679704570984 0.0 0.0
0.1040874156024556 -0.09442911973869016 0.0 0.0009775927139671643 0.0 0.0
0.08427285967734353 -0.07587585146540479 0.0 0.0005578190639371388 0.0 0.0
0.06623739919433158 -0.05903428065425845 0.0 0.00017937978155571936 0.0 0.0
0.050228470157911896 -0.04410764883629138 0.0 -0.00011150800571633514 0.0 0.0
0.03647746032743604 -0.0312918230070981 0.0 -0.0003347212391353034 0.0 0.0
0.025170675692191804 -0.020775618793356848 0.0 -0.00048186099964954627 0.0 0.0
0.01638796736734742 -0.012673925263855003 0.0 -0.0005201732977243856 0.0 0.0
0.01002826509368982 -0.006941785143631623 0.0 -0.00047966368117284054 0.0 0.0
0.005811458865860492 -0.003329193843196813 0.0 -0.00036198807063374 0.0 0.0
0.0033810313943572253 -0.0014888532506902152 0.0 -0.00019815487564323883 0.0 0.0
0.0022707574335890535 -0.0009029700391595767 0.0 -1.2761579357886788e-05 0.0 0.0
0.0026737768555243763 -0.0006235346617702478 0.0 0.0008906403662806456 0.0 0.0
0.009050887393203996 -0.00273075524417366 0.0 0.007419170305564509 0.0 0.0
0.01472859604247831 -0.02445924815242793 0.0 0.0014642535397597044 0.0 0.0
0.010324637379538738 -0.021951866987017128 0.0 -0.0009944422153980493 0.0 0.0
0.0060398215532165124 -0.002044470311849616 0.0 -0.006074910088618295 0.0 0.0
0.0017518000546736347 -0.0004741989653776796 0.0 -0.0005632476075028925 0.0 0.0
0.001998274999271496 -0.0008487716739350695 0.0 -0.00019040219343118082 0.0 0.0
0.002904597187477074 -0.0013363799464893398 0.0 -0.0001494060477614753 0.0 0.0
0.004972315314323329 -0.0029815287204818996 0.0 -0.0002354595369162295 0.0 0.0
0.008723321536265528 -0.0063463960550567385 0.0 -0.0005526624112294457 0.0 0.0
0.014491706903479933 -0.01177496513500497 0.0 -0.001058642724129159 0.0 0.0
0.02250261302499591 -0.019488453418597673 0.0 -0.0017724888809562004 0.0 0.0
0.03279198847253329 -0.02949862394586302 0.0 -0.0026643733705566087 0.0 0.0
0.04524326562452276 -0.04167140121687768 0.0 -0.003646645484069945 0.0 0.0
0.05967904978456149 -0.05581906934508357 0.0 -0.004650602662026322 0.0 0.0
0.07592780106656082 -0.07177094771389676 0.0 -0.005683410244482955 0.0 0.0
0.09379706630840533 -0.08935616875280358 0.0 -0.00674900803000264 0.0 0.0
0.11299505375567317 -0.10831470484501034 0.0 -0.00781422515562573 0.0 0.0
0.13302433486777895 -0.12817602699812536 0.0 -0.008781111824779154 0.0 0.0
0.1530889892111986 -0.1481605502136123 0.0 -0.009405461327254136 0.0 0.0
0.17208089975737764 -0.16715682349050134 0.0 -0.009348865226750862 0.0 0.0
0.1885505393471936 -0.18374115304531763 0.0 -0.008438539038929625 0.0 0.0
0.20037652076125587 -0.1960238615383403 0.0 -0.007426924079976803 0.0 0.0
0.2048033584477401 -0.20115768340697623 0.0 8.397796347203723e-15 0.0 0.0
0.20037652076122792 -0.19602386153830753 0.0 0.007426924079997426 0.0 0.0
0.18855053934713797 -0.18374115304526023 0.0 0.008438539038952343 0.0 0.0
0.17208089975729968 -0.16715682349041824 0.0 0.009348865226763332 0.0 0.0
0.15308898921110647 -0.14816055021351654 0.0 0.009405461327255425 0.0 0.0
0.13302433486768026 -0.1281760269980332 0.0 0.008781111824774694 0.0 0.0
0.11299505375557345 -0.10831470484491128 0.0 0.007814225155622564 0.0 0.0
0.09379706630830746 -0.08935616875270858 0.0 0.006749008030001311 0.0 0.0
0.07592780106646511 -0.07177094771380103 0.0 0.005683410244473143 0.0 0.0
0.05967904978447207 -0.05581906934499706 0.0 0.004650602662019169 0.0 0.0
0.04524326562444568 -0.04167140121680142 0.0 0.0036466454840597766 0.0 0.0
0.03279198847247085 -0.029498623945800058 0.0 0.0026643733705476605 0.0 0.0
0.022502613024948187 -0.01948845341855112 0.0 0.0017724888809535443 0.0 0.0
0.014491706903446106 -0.011774965134974788 0.0 0.0010586427241248606 0.0 0.0
0.008723321536243748 -0.006346396055036451 0.0 0.000552662411226476 0.0 0.0
0.004972315314312162 -0.002981528720471788 0.0 0.00023545953691486804 0.0 0.0
0.0029045971874728806 -0.0013363799464870575 0.0 0.0001494060477601493 0.0 0.0
0.001998274999270238 -0.0008487716739361067 0.0 0.00019040219343018918 0.0 0.0
0.0017518000546733277 -0.0004741989653778327 0.0 0.0005632476075006754 0.0 0.0
0.0060398215532097635 -0.0020444703118459424 0.0 0.0060749100886063655 0.0 0.0
0.010324637379525827 -0.0219518669869908 0.0 0.0009944422153609868 0.0 0.0
0.007584232683231348 -0.01754172434611835 0.0 -0.004056339340605645 0.0 0.0
0.004294063590926889 -0.0011423203678193872 0.0 -0.0061486661834316385 0.0 0.0
0.001214874508872889 -0.00025173217949131136 0.0 -0.0005047735160248978 0.0 0.0
0.0016899919259389926 -0.0007177028492130818 0.0 -0.00047964283483679677 0.0 0.0
0.002472954937651742 -0.0010724936645307207 0.0 -0.0004925954095399632 0.0 0.0
0.004178183833543719 -0.002327232365016182 0.0 -0.0006544348227809761 0.0 0.0
0.007434939055141672 -0.005176144077025606 0.0 -0.0012608884485809618 0.0 0.0
0.01257972694010537 -0.009982330761386708 0.0 -0.0022403509605154904 0.0 0.0
0.01977629934807695 -0.016897005609235974 0.0 -0.0036051224983376182 0.0 0.0
0.02901570821226586 -0.02588036335362004 0.0 -0.0052685351660304 0.0 0.0
0.04015365941667249 -0.03675963526406852 0.0 -0.007072482340722962 0.0 0.0
0.053017977871917046 -0.04935139039268553 0.0 -0.008877560323926092 0.0 0.0
0.06746925310205568 -0.06352281807527056 0.0 -0.010664666534202819 0.0 0.0
0.08337278657388003 -0.07915977164752395 0.0 -0.012492706589507274 0.0 0.0
0.10049890070239083 -0.09605697239659573 0.0 -0.014325923141391191 0.0 0.0
0.11843512268056836 -0.11382626596512219 0.0 -0.015964859846276255 0.0 0.0
0.1365182836241088 -0.13181914454105442 0.0 -0.017015575298542158 0.0 0.0
0.15375286303895405 -0.14906054705238206 0.0 -0.0169792106381877 0.0 0.0
0.16867984866075783 -0.16416187325192122 0.0 -0.015567627072614148 0.0 0.0
0.17941021374274668 -0.17516839562128433 0.0 -0.012830580224345219 0.0 0.0
0.18347101742699842 -0.1800560152017213 0.0 1.5953384446820706e-14 0.0 0.0
0.179410213742721 -0.1751683956212588 0.0 0.012830580224385272 0.0 0.0
0.1686798486607083 -0.16416187325187212 0.0 0.015567627072654112 0.0 0.0
0.15375286303888608 -0.14906054705230776 0.0 0.0169792106382093 0.0 0.0
0.1365182836240282 -0.13181914454097515 0.0 0.01701557529854307 0.0 0.0
0.1184351226804809 -0.11382626596503875 0.0 0.015964859846269042 0.0 0.0
0.1004989007023014 -0.09605697239650952 0.0 0.014325923141386507 0.0 0.0
0.08337278657379182 -0.07915977164743809 0.0 0.01249270658950281 0.0 0.0
0.06746925310197077 -0.06352281807519007 0.0 0.010664666534191514 0.0 0.0
0.053017977871837485 -0.04935139039261208 0.0 0.00887756032391489 0.0 0.0
0.040153659416603364 -0.036759635264000064 0.0 0.007072482340708057 0.0 0.0
0.02901570821220991 -0.025880363353563075 0.0 0.005268535166018617 0.0 0.0
0.01977629934803437 -0.016897005609193168 0.0 0.003605122498328329 0.0 0.0
0.01257972694007559 -0.00998233076136097 0.0 0.002240350960506137 0.0 0.0
0.007434939055123213 -0.005176144077007292 0.0 0.0012608884485779581 0.0 0.0
0.004178183833534711 -0.0023272323650123565 0.0 0.0006544348227786104 0.0 0.0
0.0024729549376484514 -0.0010724936645274284 0.0 0.0004925954095377249 0.0 0.0
0.001689991925938327 -0.00071770284921509 0.0 0.00047964283483687873 0.0 0.0
0.0012148745088729888 -0.0002517321794917799 0.0 0.00050477351602454 0.0 0.0
0.004294063590919894 -0.0011423203678159553 0.0 0.006148666183416381 0.0 0.0
0.007584232683217423 -0.017541724346091823 0.0 0.004056339340580223 0.0 0.0
0.005740155681200391 -0.014142610120490427 0.0 -0.0044934692030041004 0.0 0.0
0.0031758714555206427 -0.0008230767491710915 0.0 -0.005610714789507922 0.0 0.0
0.0008633598815564023 -0.00014054424833106224 0.0 -0.0007871209815645444 0.0 0.0
0.001392184327051205 -0.0005687221652273148 0.0 -0.000772916595828384 0.0 0.0
0.0020799638493662854 -0.0008708496505797935 0.0 -0.000821769489297537 0.0 0.0
0.0034478702105792914 -0.0017740099319403986 0.0 -0.0010126658727276055 0.0 0.0
0.00618566165859933 -0.004067291666407325 0.0 -0.001737419290798257 0.0 0.0
0.010670717033383301 -0.008209761942464184 0.0 -0.003096892729539507 0.0 0.0
0.017020860305939477 -0.014288912028067972 0.0 -0.004953148168662546 0.0 0.0
0.02518409221225213 -0.022216328788871517 0.0 -0.0071990701691197825 0.0 0.0
0.03499391294194626 -0.03178914582027146 0.0 -0.00961512221719821 0.0 0.0
0.04628267755939772 -0.04282365355112173 0.0 -0.012026197193853215 0.0 0.0
0.05893621367611876 -0.055213145646006885 0.0 -0.014405389697553424 0.0 0.0
0.07285823822226949 -0.0688874635574338 0.0 -0.016805057194689093 0.0 0.0
0.08789162264947208 -0.08370422325575134 0.0 -0.019194638001972318 0.0 0.0
0.10372797082482464 -0.09937000224308361 0.0 -0.021354553840105716 0.0 0.0
0.119826305200409 -0.11537002072904165 0.0 -0.022819464529521737 0.0 0.0
0.1353085822501642 -0.13086296746930282 0.0 -0.02298624633572272 0.0 0.0
0.14885887919463944 -0.1445515243305591 0.0 -0.021234562576329306 0.0 0.0
0.15884838408731333 -0.15472420616107538 0.0 -0.016669935926196117 0.0 0.0
0.16273946196821173 -0.15977213639844853 0.0 2.312820074346078e-14 0.0 0.0
0.15884838408729 -0.15472420616105165 0.0 0.01666993592625009 0.0 0.0
0.1488588791945948 -0.14455152433051793 0.0 0.02123456257638036 0.0 0.0
0.13530858225010423 -0.13086296746923654 0.0 0.02298624633575179 0.0 0.0
0.11982630520033904 -0.11537002072897656 0.0 0.022819464529526597 0.0 0.0
0.10372797082474833 -0.09937000224300356 0.0 0.021354553840097962 0.0 0.0
0.08789162264939318 -0.08370422325567708 0.0 0.01919463800196637 0.0 0.0
0.07285823822219212 -0.06888746355736022 0.0 0.016805057194679392 0.0 0.0
0.05893621367604479 -0.05521314564592702 0.0 0.014405389697539014 0.0 0.0
0.046282677559328744 -0.04282365355105936 0.0 0.012026197193835086 0.0 0.0
0.034993912941886085 -0.031789145820213166 0.0 0.009615122217179216 0.0 0.0
0.025184092212203024 -0.022216328788824284 0.0 0.007199070169104467 0.0 0.0
0.017020860305902094 -0.014288912028030565 0.0 0.004953148168649757 0.0 0.0
0.010670717033357528 -0.008209761942439267 0.0 0.0030968927295287126 0.0 0.0
0.006185661658583706 -0.004067291666393366 0.0 0.0017374192907930958 0.0 0.0
0.0034478702105719137 -0.0017740099319377097 0.0 0.0010126658727251643 0.0 0.0
0.0020799638493639518 -0.0008708496505778954 0.0 0.0008217694892958957 0.0 0.0
0.0013921843270503392 -0.0005687221652276196 0.0 0.0007729165958282725 0.0 0.0
0.0008633598815561043 -0.00014054424833194663 0.0 0.0007871209815635395 0.0 0.0
0.003175871455514633 -0.0008230767491676816 0.0 0.005610714789494043 0.0 0.0
0.005740155681188361 -0.014142610120466732 0.0 0.00449346920298622 0.0 0.0
0.0043600824410800895 -0.011406183184599846 0.0 -0.003992111074582833 0.0 0.0
0.0023794150944043257 -0.0006548436223834644 0.0 -0.005003716566115289 0.0 0.0
0.0006262168400716716 -8.806066282571605e-05 0.0 -0.001182626157053271 0.0 0.0
0.0011242380910691844 -0.0004323864803499008 0.0 -0.001090309882529866 0.0 0.0
0.0017213860555533352 -0.0007066967615717485 0.0 -0.0011476043172670087 0.0 0.0
0.0027946584967414472 -0.0013346982075972662 0.0 -0.001329138332662061 0.0 0.0
0.005002427794152271 -0.0030669085674325455 0.0 -0.0020573184468626257 0.0 0.0
0.008787694298033288 -0.006482584973540097 0.0 -0.0035904224144166037 0.0 0.0
0.014266671813285097 -0.011696385716512964 0.0 -0.005807695907280944 0.0 0.0
0.021330313888599184 -0.018543476506344976 0.0 -0.008450339624446223 0.0 0.0
0.02979990881430561 -0.026797031818765013 0.0 -0.011280226214045772 0.0 0.0
0.039506265507902844 -0.03626948669698118 0.0 -0.014099402897596168 0.0 0.0
0.0503562185878296 -0.04687477580122867 0.0 -0.016883205477187427 0.0 0.0
0.06229718126329928 -0.05858210540168089 0.0 -0.019681400856300747 0.0 0.0
0.07522627929755418 -0.07130725551683764 0.0 -0.02244125630777322 0.0 0.0
0.08892960550205263 -0.08484565558052314 0.0 -0.024938249177643992 0.0 0.0
0.10300776464993346 -0.09881432032393266 0.0 -0.02675494036396215 0.0 0.0
0.11674888626352303 -0.11253739318530864 0.0 -0.027234476688713097 0.0 0.0
0.12905149290606802 -0.12493286000614337 0.0 -0.025322940857452927 0.0 0.0
0.13852180365103284 -0.13454575760029494 0.0 -0.01957167558576033 0.0 0.0
0.14236330815472398 -0.13994919525428193 0.0 2.8383545513932518e-14 0.0 0.0
0.13852180365101147 -0.1345457576002761 0.0 0.01957167558582021 0.0 0.0
0.12905149290602855 -0.12493286000610018 0.0 0.025322940857508726 0.0 0.0
0.11674888626347121 -0.11253739318524489 0.0 0.027234476688747705 0.0 0.0
0.10300776464987328 -0.09881432032388014 0.0 0.02675494036396757 0.0 0.0
0.08892960550198686 -0.0848456555804567 0.0 0.024938249177632724 0.0 0.0
0.07522627929748624 -0.07130725551677432 0.0 0.02244125630776273 0.0 0.0
0.06229718126323294 -0.05858210540162054 0.0 0.019681400856293888 0.0 0.0
0.05035621858776613 -0.046874775801162505 0.0 0.016883205477171752 0.0 0.0
0.03950626550784417 -0.03626948669692239 0.0 0.014099402897574338 0.0 0.0
0.029799908814254747 -0.026797031818717967 0.0 0.011280226214024509 0.0 0.0
0.021330313888556576 -0.018543476506302888 0.0 0.008450339624427556 0.0 0.0
0.014266671813252278 -0.0116963857164805 0.0 0.005807695907268218 0.0 0.0
0.00878769429801145 -0.00648258497351948 0.0 0.0035904224144063393 0.0 0.0
0.005002427794139861 -0.0030669085674207876 0.0 0.002057318446856858 0.0 0.0
0.002794658496735755 -0.001334698207593798 0.0 0.001329138332660136 0.0 0.0
0.0017213860555519598 -0.0007066967615697688 0.0 0.001147604317264619 0.0 0.0
0.0011242380910694446 -0.0004323864803507324 0.0 0.0010903098825296798 0.0 0.0
0.0006262168400720903 -8.806066282542232e-05 0.0 0.001182626157051037 0.0 0.0
0.0023794150943991484 -0.0006548436223803189 0.0 0.00500371656610325 0.0 0.0
0.004360082441069343 -0.011406183184579458 0.0 0.003992111074569405 0.0 0.0
0.0032756597673185128 -0.009122025521046153 0.0 -0.003304400558586035 0.0 0.0
0.0017754456409804895 -0.0005400715510919338 0.0 -0.004414543233127156 0.0 0.0
0.0004567887468373224 -7.113563673595186e-05 0.0 -0.0015611774149295319 0.0 0.0
0.0008830322350720961 -0.00031124639321467 0.0 -0.0014093292220733944 0.0 0.0
0.0013934549340572566 -0.0005677688656522955 0.0 -0.0014695990457335303 0.0 0.0
0.002214973849434854 -0.0009946645155489828 0.0 -0.001616060820839617 0.0 0.0
0.003918233441542695 -0.0022150865176244227 0.0 -0.0022944223925992152 0.0 0.0
0.006971367237863797 -0.004859563244188918 0.0 -0.0037856190057820515 0.0 0.0
0.011536087675163419 -0.009151992370771514 0.0 -0.006142541057535653 0.0 0.0
0.0174874507056169 -0.014898431623170855 0.0 -0.009013462258727477 0.0 0.0
0.024604786107651405 -0.021820481821962837 0.0 -0.012061095499449254 0.0 0.0
0.03272463689457181 -0.02972678374300039 0.0 -0.015095738073747946 0.0 0.0
0.04176960572389723 -0.03854633479934956 0.0 -0.018087229884074824 0.0 0.0
0.05172138212274309 -0.04828396370377037 0.0 -0.02108766316043156 0.0 0.0
0.06254043776859852 -0.05891138201642798 0.0 -0.02404634149251839 0.0 0.0
0.07408875046589622 -0.0702996721416162 0.0 -0.026727920029080116 0.0 0.0
0.0860878836428446 -0.08217902237964192 0.0 -0.02876906216679993 0.0 0.0
0.09805529465469381 -0.09408392751564444 0.0 -0.029563173948304825 0.0 0.0
0.1091732059935106 -0.10524036627513099 0.0 -0.027840093072863496 0.0 0.0
0.11826774844134538 -0.11445712597489388 0.0 -0.021675856935629994 0.0 0.0
0.12214353666090688 -0.12037220803631235 0.0 2.6357388493991607e-14 0.0 0.0
0.11826774844132643 -0.11445712597487653 0.0 0.021675856935692434 0.0 0.0
0.10917320599347706 -0.10524036627509485 0.0 0.027840093072923726 0.0 0.0
0.09805529465464975 -0.09408392751559604 0.0 0.029563173948342014 0.0 0.0
0.0860878836427935 -0.08217902237959572 0.0 0.028769062166805005 0.0 0.0
0.07408875046584049 -0.07029967214156248 0.0 0.026727920029071345 0.0 0.0
0.06254043776854179 -0.05891138201637308 0.0 0.024046341492506364 0.0 0.0
0.051721382122687946 -0.048283963703718846 0.0 0.021087663160421877 0.0 0.0
0.0417696057238444 -0.03854633479930108 0.0 0.018087229884057855 0.0 0.0
0.032724636894523096 -0.02972678374295353 0.0 0.015095738073728993 0.0 0.0
0.02460478610760854 -0.021820481821923674 0.0 0.012061095499421725 0.0 0.0
0.01748745070558136 -0.014898431623135484 0.0 0.009013462258706171 0.0 0.0
0.01153608767513692 -0.00915199237074739 0.0 0.00614254105752288 0.0 0.0
0.006971367237846515 -0.004859563244173305 0.0 0.0037856190057720335 0.0 0.0
0.003918233441533139 -0.002215086517616196 0.0 0.0022944223925931728 0.0 0.0
0.0022149738494309274 -0.0009946645155493434 0.0 0.0016160608208374097 0.0 0.0
0.0013934549340564521 -0.0005677688656500965 0.0 0.0014695990457298034 0.0 0.0
0.000883032235071989 -0.0003112463932154056 0.0 0.0014093292220711574 0.0 0.0
0.0004567887468371533 -7.113563673527628e-05 0.0 0.0015611774149270749 0.0 0.0
0.0017754456409760943 -0.0005400715510894551 0.0 0.004414543233116662 0.0 0.0
0.003275659767309821 -0.009122025521029137 0.0 0.003304400558578253 0.0 0.0
0.002412553230242692 -0.00719154489248074 0.0 -0.0026702274135927337 0.0 0.0
0.001303999202336157 -0.00045164718902797525 0.0 -0.0038807296845017308 0.0 0.0
0.00032546053939671286 -6.865237192967843e-05 0.0 -0.0018739511889630934 0.0 0.0
0.0006603390297617563 -0.00020388311906320943 0.0 -0.0017043964245063877 0.0 0.0
0.0010869200746828382 -0.0004379190609535557 0.0 -0.0017678121818416781 0.0 0.0
0.0016991882135162254 -0.0007352369505788611 0.0 -0.0018996305704216637 0.0 0.0
0.0029404127850813765 -0.0015218513623725062 0.0 -0.0024479783027499115 0.0 0.0
0.005269627007121775 -0.003409795689317467 0.0 -0.0037931459659356036 0.0 0.0
0.00888007588472506 -0.006717780157025209 0.0 -0.006003963566982149 0.0 0.0
0.013684844382703058 -0.011321737590120565 0.0 -0.008861942334133939 0.0 0.0
0.019443439631880298 -0.01689904885615706 0.0 -0.01193991169609019 0.0 0.0
0.025972249449949865 -0.02323508297295321 0.0 -0.0150020672237107 0.0 0.0
0.03321208878546328 -0.03027156095996051 0.0 -0.01800575954719937 0.0 0.0
0.041176043343846246 -0.03803923337912992 0.0 -0.021009380040688187 0.0 0.0
0.04987312940512758 -0.04656035213703243 0.0 -0.02397426404200072 0.0 0.0
0.0592388765009752 -0.05577906379284137 0.0 -0.02669094759452264 0.0 0.0
0.06910957249955063 -0.06551599271681886 0.0 -0.02880895128426386 0.0 0.0
0.0792257154489161 -0.07551437521181353 0.0 -0.029870232928778558 0.0 0.0
0.0891220010250358 -0.08538293662950437 0.0 -0.028683309762254923 0.0 0.0
0.09790925340751523 -0.09427293848649035 0.0 -0.022964696965128473 0.0 0.0
0.10188151748114899 -0.10084526856932456 0.0 2.4597511527613136e-14 0.0 0.0
0.09790925340749926 -0.09427293848647444 0.0 0.022964696965191947 0.0 0.0
0.08912200102500749 -0.08538293662948075 0.0 0.0286833097623155 0.0 0.0
0.07922571544887971 -0.0755143752117795 0.0 0.029870232928815313 0.0 0.0
0.06910957249950918 -0.06551599271677427 0.0 0.028808951284269663 0.0 0.0
0.059238876500929974 -0.05577906379279409 0.0 0.026690947594510725 0.0 0.0
0.04987312940508161 -0.04656035213698724 0.0 0.023974264041985528 0.0 0.0
0.04117604334380235 -0.038039233379091764 0.0 0.02100938004067607 0.0 0.0
0.03321208878542215 -0.030271560959917128 0.0 0.018005759547183073 0.0 0.0
0.025972249449911323 -0.023235082972916432 0.0 0.015002067223691892 0.0 0.0
0.019443439631846086 -0.016899048856125365 0.0 0.011939911696064653 0.0 0.0
0.013684844382675138 -0.011321737590090865 0.0 0.008861942334112438 0.0 0.0
0.008880075884704177 -0.006717780157006588 0.0 0.006003963566971897 0.0 0.0
0.005269627007108439 -0.0034097956893057286 0.0 0.003793145965926421 0.0 0.0
0.002940412785074547 -0.0015218513623683199 0.0 0.0024479783027430467 0.0 0.0
0.0016991882135136997 -0.000735236950577488 0.0 0.0018996305704196874 0.0 0.0
0.0010869200746822314 -0.0004379190609543304 0.0 0.0017678121818407691 0.0 0.0
0.0006603390297616894 -0.0002038831190631242 0.0 0.0017043964245040534 0.0 0.0
0.0003254605393967648 -6.865237192910845e-05 0.0 0.0018739511889616037 0.0 0.0
0.0013039992023330814 -0.0004516471890264032 0.0 0.0038807296844933416 0.0 0.0
0.0024125532302362927 -0.007191544892466727 0.0 0.0026702274135871175 0.0 0.0
0.0017258427206980472 -0.005566787127615703 0.0 -0.0021736128086288537 0.0 0.0
0.0009301603270921096 -0.0003848270454586807 0.0 -0.0033995778922578474 0.0 0.0
0.0002126694507975862 -6.456673224250521e-05 0.0 -0.0021110185615528907 0.0 0.0
0.0004486746399402589 -0.00010811528139423658 0.0 -0.001957594032312497 0.0 0.0
0.0007897623712433433 -0.0003048914687323962 0.0 -0.002021644526283413 0.0 0.0
0.0012383070283562359 -0.0005294999929248574 0.0 -0.0021804521272818927 0.0 0.0
0.002073346658619494 -0.0009874996495028657 0.0 -0.002565377375478654 0.0 0.0
0.003706488594537094 -0.002178913541707687 0.0 -0.0036322148980988695 0.0 0.0
0.006357319229723168 -0.004482471233729737 0.0 -0.00550156993638795 0.0 0.0
0.009974297477199022 -0.007883255004194548 0.0 -0.008033526611837025 0.0 0.0
0.01434647908963662 -0.012081843938285913 0.0 -0.010895800737773458 0.0 0.0
0.019283930822812517 -0.01684161755909948 0.0 -0.013781950152050892 0.0 0.0
0.02472411869708823 -0.022099985782247533 0.0 -0.016610179528198682 0.0 0.0
0.030698070636980185 -0.027900936005182446 0.0 -0.019419232995986947 0.0 0.0
0.03726448515123591 -0.03430695223612973 0.0 -0.02220395852406584 0.0 0.0
0.044429813493960045 -0.041334677816094414 0.0 -0.0247917650885522 0.0 0.0
0.052115804100250136 -0.048892789216379656 0.0 -0.026845298222157706 0.0 0.0
0.06026222650592496 -0.056870096573398365 0.0 -0.028018617569290933 0.0 0.0
0.06880262262416205 -0.06527709400497672 0.0 -0.02761015047815545 0.0 0.0
0.07725388011787337 -0.07378623963114082 0.0 -0.02329091304170253 0.0 0.0
0.08135264182313781 -0.08115894198940687 0.0 2.3067485421801592e-14 0.0 0.0
0.07725388011786172 -0.07378623963112903 0.0 0.023290913041759204 0.0 0.0
0.06880262262413983 -0.06527709400496173 0.0 0.02761015047821344 0.0 0.0
0.06026222650589637 -0.056870096573368695 0.0 0.028018617569326318 0.0 0.0
0.05211580410021798 -0.04889278921635366 0.0 0.026845298222164388 0.0 0.0
0.04442981349392505 -0.04133467781605641 0.0 0.02479176508853689 0.0 0.0
0.037264485151201295 -0.03430695223609494 0.0 0.02220395852404887 0.0 0.0
0.030698070636948294 -0.027900936005152067 0.0 0.019419232995978253 0.0 0.0
0.024724118697058345 -0.02209998578221875 0.0 0.01661017952818784 0.0 0.0
0.019283930822784127 -0.01684161755907132 0.0 0.013781950152030958 0.0 0.0
0.014346479089610776 -0.01208184393826025 0.0 0.010895800737751784 0.0 0.0
0.009974297477178817 -0.007883255004176101 0.0 0.008033526611818055 0.0 0.0
0.0063573192297082725 -0.004482471233713463 0.0 0.005501569936378374 0.0 0.0
0.0037064885945272087 -0.002178913541699645 0.0 0.0036322148980910502 0.0 0.0
0.002073346658615307 -0.0009874996494996788 0.0 0.0025653773754755636 0.0 0.0
0.0012383070283549778 -0.000529499992923769 0.0 0.002180452127279955 0.0 0.0
0.0007897623712428665 -0.0003048914687308554 0.0 0.002021644526282564 0.0 0.0
0.0004486746399401136 -0.00010811528139476885 0.0 0.0019575940323106247 0.0 0.0
0.00021266945079741314 -6.456673224220462e-05 0.0 0.0021110185615514604 0.0 0.0
0.0009301603270897695 -0.0003848270454582869 0.0 0.0033995778922520574 0.0 0.0
0.001725842720693498 -0.005566787127604526 0.0 0.0021736128086254766 0.0 0.0
0.001201725675655316 -0.004238598977869127 0.0 -0.001845824168926211 0.0 0.0
0.0006354280446814951 -0.000341110211788144 0.0 -0.0029723872331778507 0.0 0.0
0.00010215665154309087 -4.739540405874896e-05 0.0 -0.002276700860093253 0.0 0.0
0.0002445837538151693 -2.126999848224957e-05 0.0 -0.0021578748045851873 0.0 0.0
0.0004930890705363989 -0.0001673801046858049 0.0 -0.002219863366036271 0.0 0.0
0.0008079408614102897 -0.00034179577505646556 0.0 -0.0024261560317932872 0.0 0.0
0.0013148464103690698 -0.0005954893558829506 0.0 -0.002720556223446672 0.0 0.0
0.002306877689845865 -0.0012104943011956102 0.0 -0.0033822038529233746 0.0 0.0
0.004011696584996675 -0.00254530967405822 0.0 -0.004715264591064901 0.0 0.0
0.006420543504566026 -0.004698170801547551 0.0 -0.006639425980784507 0.0 0.0
0.009369886230948562 -0.007462278655203214 0.0 -0.008971057004210739 0.0 0.0
0.012696847604505792 -0.010622202210097645 0.0 -0.0114224770258016 0.0 0.0
0.016338886985862684 -0.014099801590905769 0.0 -0.013887920538913495 0.0 0.0
0.020329718578008592 -0.017941479459788492 0.0 -0.016335451803650668 0.0 0.0
0.02475358879439195 -0.022224563551006004 0.0 -0.01875471232331531 0.0 0.0
0.029693210306773236 -0.027032065668414557 0.0 -0.021073400412602403 0.0 0.0
0.03517043716709586 -0.032384570627508075 0.0 -0.023012325324849106 0.0 0.0
0.04121804253780778 -0.03826306290331319 0.0 -0.024160699981517705 0.0 0.0
0.04812731777442732 -0.04491490660004167 0.0 -0.024296904380701305 0.0 0.0
0.05606680731065092 -0.0527576058508458 0.0 -0.022238807303693674 0.0 0.0
0.06027446336812964 -0.06104455916877262 0.0 2.0763772645704393e-14 0.0 0.0
0.05606680731064323 -0.05275760585083436 0.0 0.022238807303743308 0.0 0.0
0.04812731777441245 -0.04491490660003094 0.0 0.024296904380757732 0.0 0.0
0.041218042537787554 -0.03826306290329255 0.0 0.024160699981549686 0.0 0.0
0.03517043716707302 -0.03238457062749598 0.0 0.023012325324848485 0.0 0.0
0.029693210306749304 -0.02703206566839274 0.0 0.02107340041258613 0.0 0.0
0.024753588794369515 -0.02222456355098325 0.0 0.018754712323302735 0.0 0.0
0.020329718577988674 -0.017941479459766735 0.0 0.016335451803644718 0.0 0.0
0.016338886985843657 -0.014099801590887516 0.0 0.013887920538905172 0.0 0.0
0.01269684760448745 -0.010622202210082915 0.0 0.011422477025782852 0.0 0.0
0.009369886230932151 -0.007462278655183865 0.0 0.008971057004191445 0.0 0.0
0.0064205435045531535 -0.004698170801538415 0.0 0.006639425980769832 0.0 0.0
0.004011696584987725 -0.002545309674050308 0.0 0.004715264591056275 0.0 0.0
0.002306877689840157 -0.00121049430118949 0.0 0.003382203852917977 0.0 0.0
0.0013148464103665113 -0.0005954893558814073 0.0 0.0027205562234434754 0.0 0.0
0.0008079408614093684 -0.00034179577505811485 0.0 0.0024261560317913253 0.0 0.0
0.0004930890705360922 -0.00016738010468514677 0.0 0.002219863366035268 0.0 0.0
0.0002445837538151391 -2.1269998482558342e-05 0.0 0.0021578748045832596 0.0 0.0
0.00010215665154295989 -4.739540405886539e-05 0.0 0.0022767008600906003 0.0 0.0
0.0006354280446799007 -0.0003411102117881361 0.0 0.00297238723317266 0.0 0.0
0.0012017256756522905 -0.004238598977860733 0.0 0.0018458241689244795 0.0 0.0
0.0008257077485242449 -0.003187712196506148 0.0 -0.0016419581669399655 0.0 0.0
0.0004085373092704508 -0.00032499273112356585 0.0 -0.0026291405432148397 0.0 0.0
-1.2995982351569888e-05 -1.1931663762904078e-05 0.0 -0.0023782172946031632 0.0 0.0
4.5622696266696484e-05 5.9373597639387146e-05 0.0 -0.0023007897569127193 0.0 0.0
0.0001954507533739751 -2.9336948401714406e-05 0.0 -0.0023613951778049033 0.0 0.0
0.0003832603254806254 -0.00014944333652641792 0.0 -0.0025921945262715623 0.0 0.0
0.0006385994820083645 -0.00028262759663618406 0.0 -0.0028938178534355726 0.0 0.0
0.001085362169970426 -0.0005192558074807442 0.0 -0.003250792886796267 0.0 0.0
0.0018879694143878075 -0.001051413911960045 0.0 -0.0038854220575816134 0.0 0.0
0.0030845594960481424 -0.001995299552361379 0.0 -0.0049735992372956644 0.0 0.0
0.004578613603974994 -0.0032750065831959724 0.0 -0.006513322591721145 0.0 0.0
0.0062617805733532015 -0.004782850947341974 0.0 -0.00834293473291591 0.0 0.0
0.008089017718180764 -0.006461282917637281 0.0 -0.01031037216067598 0.0 0.0
0.010098588789118793 -0.008338722511149086 0.0 -0.012348869461099166 0.0 0.0
0.01237311667799257 -0.010487113662829185 0.0 -0.014444071831736549 0.0 0.0
0.015046499891356169 -0.013030614781903512 0.0 -0.016565311416790365 0.0 0.0
0.0182791252370122 -0.016126290228072337 0.0 -0.018518414575372715 0.0 0.0
0.02220289848146767 -0.01990820192568045 0.0 -0.019791345583319547 0.0 0.0
0.027154724883096254 -0.02459424645640854 0.0 -0.01991753003214936 0.0 0.0
0.03408615150790249 -0.031076034177869548 0.0 -0.01942950166824007 0.0 0.0
0.03821357115659337 -0.04014421245816865 0.0 1.5872719805187785e-14 0.0 0.0
0.03408615150789894 -0.031076034177861055 0.0 0.019429501668283784 0.0 0.0
0.02715472488308785 -0.024594246456399935 0.0 0.019917530032192758 0.0 0.0
0.02220289848145508 -0.019908201925671172 0.0 0.019791345583337547 0.0 0.0
0.01827912523699963 -0.016126290228061696 0.0 0.01851841457536638 0.0 0.0
0.015046499891344878 -0.013030614781898998 0.0 0.016565311416775814 0.0 0.0
0.012373116677982951 -0.010487113662820643 0.0 0.014444071831727509 0.0 0.0
0.01009858878911107 -0.008338722511136785 0.0 0.012348869461095481 0.0 0.0
0.008089017718172982 -0.0064612829176308485 0.0 0.010310372160667656 0.0 0.0
0.006261780573345159 -0.004782850947335577 0.0 0.008342934732903274 0.0 0.0
0.004578613603967612 -0.0032750065831861756 0.0 0.0065133225917084914 0.0 0.0
0.003084559496042486 -0.0019952995523565375 0.0 0.0049735992372878625 0.0 0.0
0.0018879694143840895 -0.0010514139119561403 0.0 0.003885422057575717 0.0 0.0
0.0010853621699679066 -0.0005192558074776625 0.0 0.003250792886793915 0.0 0.0
0.0006385994820074641 -0.0002826275966373487 0.0 0.0028938178534324214 0.0 0.0
0.0003832603254805272 -0.00014944333652575976 0.0 0.002592194526268784 0.0 0.0
0.00019545075337386772 -2.9336948401819987e-05 0.0 0.002361395177803616 0.0 0.0
4.5622696266575284e-05 5.937359763860308e-05 0.0 0.0023007897569099255 0.0 0.0
-1.2995982351879297e-05 -1.1931663762653548e-05 0.0 0.002378217294601062 0.0 0.0
0.0004085373092695641 -0.00032499273112363057 0.0 0.00262914054321026 0.0 0.0
0.0008257077485228575 -0.0031877121965002224 0.0 0.0016419581669393222 0.0 0.0
0.0005607612195392183 -0.0023912134819248764 0.0 -0.0015266829044081457 0.0 0.0
0.00023433962577061671 -0.00032538834287997297 0.0 -0.002386867126253892 0.0 0.0
-0.00013010623756900283 3.581412289041225e-05 0.0 -0.002423398983368885 0.0 0.0
-0.00014928662738162212 0.0001367804664617118 0.0 -0.0023841022228055556 0.0 0.0
-9.862081779667351e-05 0.0001060767885553242 0.0 -0.0024407391020097556 0.0 0.0
-4.621815045664378e-05 4.8178889902833496e-05 0.0 -0.0026621982417425853 0.0 0.0
-1.7321920083992155e-05 1.273637425424745e-05 0.0 -0.0029837450096202025 0.0 0.0
-6.038414850552848e-06 3.5764778430522575e-06 0.0 -0.003253197445080009 0.0 0.0
-1.6095824863833908e-06 8.005057001924477e-07 0.0 -0.003500357834776479 0.0 0.0
9.737500289593286e-08 -6.716395409484596e-08 0.0 -0.0041097324961227606 0.0 0.0
-1.36053667459089e-06 2.9176705269257715e-07 0.0 -0.005197156023602075 0.0 0.0
-1.2019070499566303e-05 1.0933319957361033e-05 0.0 -0.006707093421277126 0.0 0.0
-3.3525345774818786e-05 3.200517840996957e-05 0.0 -0.008418811174666736 0.0 0.0
-4.0879546694259916e-05 4.629217959773466e-05 0.0 -0.010268894322743763 0.0 0.0
5.02735376499907e-05 -1.80927462033858e-05 0.0 -0.012262006682553258 0.0 0.0
0.00042306904032790365 -0.00032406953151481026 0.0 -0.01437862874151123 0.0 0.0
0.0013796519691950616 -0.0011445949609600419 0.0 -0.016528101695679538 0.0 0.0
0.003255775433543359 -0.0028180271011311398 0.0 -0.018473824724697555 0.0 0.0
0.006266126657954201 -0.005448512764985618 0.0 -0.019899991553232358 0.0 0.0
0.011395297168062958 -0.009652703810261834 0.0 -0.020979432802368653 0.0 0.0
0.014720496997284088 -0.019241615556699287 0.0 1.2826545381372512e-14 0.0 0.0
0.011395297168062646 -0.009652703810262562 0.0 0.020979432802394116 0.0 0.0
0.006266126657951766 -0.005448512764982144 0.0 0.019899991553250035 0.0 0.0
0.00325577543354123 -0.0028180271011287576 0.0 0.018473824724699103 0.0 0.0
0.0013796519691950601 -0.001144594960962165 0.0 0.01652810169566949 0.0 0.0
0.00042306904032991496 -0.0003240695315166249 0.0 0.014378628741499849 0.0 0.0
5.027353765267779e-05 -1.8092746205745675e-05 0.0 0.012262006682545644 0.0 0.0
-4.0879546690759895e-05 4.62921795946475e-05 0.0 0.01026889432273564 0.0 0.0
-3.352534577059983e-05 3.200517840037232e-05 0.0 0.008418811174655729 0.0 0.0
-1.201907049609859e-05 1.093331995488672e-05 0.0 0.006707093421266434 0.0 0.0
-1.3605366721804917e-06 2.917670495782064e-07 0.0 0.00519715602359071 0.0 0.0
9.737500430235992e-08 -6.716394981093278e-08 0.0 0.004109732496118235 0.0 0.0
-1.6095824854550156e-06 8.005057036370461e-07 0.0 0.0035003578347745238 0.0 0.0
-6.038414850000054e-06 3.5764778417875085e-06 0.0 0.0032531974450787093 0.0 0.0
-1.7321920083876417e-05 1.2736374253093676e-05 0.0 0.00298374500961637 0.0 0.0
-4.621815045633988e-05 4.817888990506774e-05 0.0 0.002662198241740655 0.0 0.0
-9.862081779653245e-05 0.00010607678855551104 0.0 0.0024407391020077013 0.0 0.0
-0.00014928662738175619 0.00013678046646107937 0.0 0.0023841022228036674 0.0 0.0
-0.0001301062375691203 3.581412289070617e-05 0.0 0.0024233989833678327 0.0 0.0
0.00023433962577030783 -0.00032538834288085757 0.0 0.002386867126251619 0.0 0.0
0.0005607612195386129 -0.0023912134819210787 0.0 0.0015266829044074985 0.0 0.0
0.0003774694973062874 -0.0018128556877855975 0.0 -0.0014642400815613236 0.0 0.0
0.00010427148212555724 -0.00031858151950111944 0.0 -0.0022095502291446687 0.0 0.0
-0.00024202418320068604 8.456577932540506e-05 0.0 -0.0024183353466943375 0.0 0.0
-0.00033889969664832213 0.00021250486619155628 0.0 -0.00240523346681234 0.0 0.0
-0.0003865717272028876 0.00023643208818213137 0.0 -0.002448725136692428 0.0 0.0
-0.00047230241889585016 0.0002446286410159957 0.0 -0.002639116009935117 0.0 0.0
-0.0006726670609617826 0.0003087603384014307 0.0 -0.002922429360357655 0.0 0.0
-0.0010971009143607264 0.0005272938169664769 0.0 -0.0032687674416638215 0.0 0.0
-0.0018902832344986765 0.0010526273659770167 0.0 -0.003892802824143088 0.0 0.0
-0.003083460700891884 0.0019942922267854385 0.0 -0.004972929924470423 0.0 0.0
-0.004582661622770904 0.0032774934647888604 0.0 -0.006511093458723192 0.0 0.0
-0.006288547569644863 0.004806548118683601 0.0 -0.008346888620393397 0.0 0.0
-0.008155817640958515 0.006526157706153366 0.0 -0.010307197952683192 0.0 0.0
-0.010173992695428923 0.008429160148038859 0.0 -0.012331391282087288 0.0 0.0
-0.012260364133951793 0.010442806813792092 0.0 -0.014444548087326196 0.0 0.0
-0.0142023282845819 0.01236641752208678 0.0 -0.016715862484266646 0.0 0.0
-0.015632729000849575 0.01384005914736711 0.0 -0.01918723619127424 0.0 0.0
-0.01611011692413936 0.014389537109260817 0.0 -0.021965698074487366 0.0 0.0
-0.01515742243600407 0.013699147940448984 0.0 -0.02499933773914727 0.0 0.0
-0.010878794824699566 0.010624493269280477 0.0 -0.026470300786528848 0.0 0.0
-0.0074989325108410386 0.00029782878550757173 0.0 1.4824079463959805e-14 0.0 0.0
-0.0108787948247 0.010624493269277491 0.0 0.026470300786554435 0.0 0.0
-0.015157422435998907 0.013699147940446996 0.0 0.02499933773916896 0.0 0.0
-0.01611011692412797 0.01438953710925285 0.0 0.021965698074488452 0.0 0.0
-0.01563272900083489 0.013840059147350692 0.0 0.019187236191261503 0.0 0.0
-0.014202328284566267 0.012366417522077278 0.0 0.016715862484252234 0.0 0.0
-0.01226036413393736 0.01044280681377848 0.0 0.014444548087313918 0.0 0.0
-0.010173992695414498 0.008429160148026025 0.0 0.012331391282074444 0.0 0.0
-0.00815581764094276 0.006526157706137134 0.0 0.010307197952669083 0.0 0.0
-0.006288547569629806 0.004806548118669612 0.0 0.008346888620375095 0.0 0.0
-0.0045826616227583675 0.003277493464778662 0.0 0.006511093458706752 0.0 0.0
-0.003083460700883018 0.0019942922267841704 0.0 0.00497292992446125 0.0 0.0
-0.001890283234493059 0.0010526273659753702 0.0 0.0038928028241391605 0.0 0.0
-0.001097100914357334 0.0005272938169663061 0.0 0.0032687674416598967 0.0 0.0
-0.0006726670609600808 0.00030876033840179345 0.0 0.0029224293603539253 0.0 0.0
-0.0004723024188948799 0.000244628641017664 0.0 0.002639116009932359 0.0 0.0
-0.00038657172720219706 0.00023643208818098304 0.0 0.0024487251366901485 0.0 0.0
-0.00033889969664799654 0.00021250486619197608 0.0 0.0024052334668113796 0.0 0.0
-0.00024202418320058006 8.456577932597921e-05 0.0 0.002418335346692919 0.0 0.0
0.00010427148212557388 -0.0003185815195027015 0.0 0.0022095502291436648 0.0 0.0
0.00037746949730591624 -0.0018128556877829189 0.0 0.0014642400815579894 0.0 0.0
0.00025381071192792203 -0.0013707210235670837 0.0 -0.0013718595735815711 0.0 0.0
8.134764288984132e-06 -0.0002945913025806686 0.0 -0.0020463741421944287 0.0 0.0
-0.00034607982397696034 0.00012901639165913828 0.0 -0.0023628124524253565 0.0 0.0
-0.0005205368361591792 0.00028546518134006963 0.0 -0.00236310556609428 0.0 0.0
-0.0006657249570727871 0.000359754538435706 0.0 -0.002383228542432667 0.0 0.0
-0.0008884474971132847 0.00043377081337521743 0.0 -0.002519905005296724 0.0 0.0
-0.001347341302447765 0.0006249978109665614 0.0 -0.0027792740714081615 0.0 0.0
-0.0023162067575985402 0.0012182461995088754 0.0 -0.003412099030724685 0.0 0.0
-0.004010968978664963 0.0025439537986527145 0.0 -0.004721020645016099 0.0 0.0
-0.006418861537527409 0.004696522246478698 0.0 -0.006636537099982916 0.0 0.0
-0.009375776988749163 0.007468085496894631 0.0 -0.008971167502434907 0.0 0.0
-0.012722171875239479 0.010646338389017036 0.0 -0.011417477834853645 0.0 0.0
-0.01639546645229214 0.014156763313136141 0.0 -0.013842153646174539 0.0 0.0
-0.02038703275161999 0.018014327881114824 0.0 -0.01622651052390065 0.0 0.0
-0.024627773762579748 0.02216300477133475 0.0 -0.01868044059849752 0.0 0.0
-0.028881433825039347 0.026384344976390025 0.0 -0.021418172202439426 0.0 0.0
-0.032718495110299395 0.030243334583426075 0.0 -0.02466306840223128 0.0 0.0
-0.035538443247275696 0.033130675595188105 0.0 -0.02852004004298332 0.0 0.0
-0.0362186020535686 0.03409566565800517 0.0 -0.03225231327330071 0.0 0.0
-0.03243292834209686 0.030931448980893568 0.0 -0.0332131445438203 0.0 0.0
-0.02903720766338666 0.018697495872921164 0.0 2.1187912535580722e-14 0.0 0.0
-0.032432928342094554 0.030931448980891146 0.0 0.03321314454386564 0.0 0.0
-0.036218602053557584 0.03409566565800267 0.0 0.03225231327334494 0.0 0.0
-0.03553844324725492 0.03313067559516551 0.0 0.028520040042997685 0.0 0.0
-0.03271849511027257 0.03024333458339956 0.0 0.024663068402223397 0.0 0.0
-0.028881433825010495 0.026384344976368462 0.0 0.02141817220242279 0.0 0.0
-0.02462777376255317 0.02216300477131115 0.0 0.018680440598481028 0.0 0.0
-0.020387032751594255 0.018014327881086818 0.0 0.016226510523886628 0.0 0.0
-0.016395466452265528 0.014156763313113115 0.0 0.013842153646159677 0.0 0.0
-0.012722171875213729 0.010646338388996172 0.0 0.01141747783483169 0.0 0.0
-0.009375776988726029 0.007468085496870074 0.0 0.008971167502412012 0.0 0.0
-0.00641886153750999 0.0046965222464630755 0.0 0.006636537099967022 0.0 0.0
-0.004010968978653934 0.002543953798644509 0.0 0.00472102064500883 0.0 0.0
-0.0023162067575919535 0.0012182461995069202 0.0 0.0034120990307189587 0.0 0.0
-0.0013473413024443865 0.0006249978109660172 0.0 0.002779274071404986 0.0 0.0
-0.0008884474971119999 0.0004337708133744998 0.0 0.002519905005294496 0.0 0.0
-0.0006657249570721748 0.0003597545384363235 0.0 0.0023832285424311263 0.0 0.0
-0.0005205368361586505 0.00028546518133920975 0.0 0.0023631055660922806 0.0 0.0
-0.00034607982397657724 0.00012901639165957717 0.0 0.002362812452424053 0.0 0.0
8.134764289016986e-06 -0.00029459130258216925 0.0 0.002046374142192964 0.0 0.0
0.00025381071192768974 -0.0013707210235650504 0.0 0.0013718595735801684 0.0 0.0
0.0001584569313869174 -0.0010035633688515212 0.0 -0.0012238506344001573 0.0 0.0
-6.996217306039904e-05 -0.00025504398439285113 0.0 -0.0018712748649800303 0.0 0.0
-0.0004418292684956759 0.0001696159943737516 0.0 -0.002254626004586569 0.0 0.0
-0.0006930059192253383 0.00035380864754133956 0.0 -0.0022614218238356724 0.0 0.0
-0.0009332989341810649 0.00047398066329715346 0.0 -0.0022494358254918673 0.0 0.0
-0.0013067839061842077 0.0006181068565551106 0.0 -0.0023166071001615124 0.0 0.0
-0.0021012034830393054 0.0010198226719373485 0.0 -0.0026470341705313568 0.0 0.0
-0.003709868262920875 0.0021807737084576537 0.0 -0.0036577064116450645 0.0 0.0
-0.006353074079891043 0.004477675063175421 0.0 -0.005500060751157565 0.0 0.0
-0.009973896657610129 0.007883145315927393 0.0 -0.008030341522898915 0.0 0.0
-0.014353819185855057 0.012090228516989668 0.0 -0.010897295169852219 0.0 0.0
-0.019301855719402895 0.016860398494037476 0.0 -0.01376663279513763 0.0 0.0
-0.024754210001135417 0.02213135561985115 0.0 -0.016517872556850707 0.0 0.0
-0.030715012375128782 0.027928839117456125 0.0 -0.019194724424844357 0.0 0.0
-0.03713186446245997 0.03422383790269233 0.0 -0.02199315755673721 0.0 0.0
-0.04376065604649228 0.04079793441168528 0.0 -0.025283260090751453 0.0 0.0
-0.050075115981770446 0.0471351585135394 0.0 -0.029509759927657454 0.0 0.0
-0.055115710868928 0.052329624299663785 0.0 -0.03460616746232667 0.0 0.0
-0.05718766836414409 0.054745343103825644 0.0 -0.03917287568138614 0.0 0.0
-0.052990975967281945 0.05144405568230685 0.0 -0.040525083819697896 0.0 0.0
-0.04876974520191188 0.03637630309316621 0.0 2.264508025540124e-14 0.0 0.0
-0.05299097596727584 0.051444055682295785 0.0 0.04052508381975181 0.0 0.0
-0.057187668364127225 0.054745343103813474 0.0 0.03917287568143786 0.0 0.0
-0.05511571086889917 0.052329624299628626 0.0 0.03460616746235218 0.0 0.0
-0.050075115981733656 0.047135158513503576 0.0 0.029509759927653673 0.0 0.0
-0.04376065604645291 0.04079793441165158 0.0 0.02528326009073376 0.0 0.0
-0.037131864462421206 0.03422383790265626 0.0 0.02199315755671712 0.0 0.0
-0.030715012375091215 0.027928839117412244 0.0 0.019194724424831732 0.0 0.0
-0.024754210001097975 0.022131355619811874 0.0 0.016517872556834467 0.0 0.0
-0.019301855719367166 0.016860398494004315 0.0 0.01376663279511613 0.0 0.0
-0.014353819185822913 0.012090228516951525 0.0 0.010897295169826657 0.0 0.0
-0.009973896657584766 0.007883145315901053 0.0 0.008030341522875793 0.0 0.0
-0.0063530740798739905 0.004477675063157436 0.0 0.005500060751145247 0.0 0.0
-0.003709868262910451 0.002180773708448815 0.0 0.003657706411638458 0.0 0.0
-0.002101203483033918 0.0010198226719332216 0.0 0.002647034170527409 0.0 0.0
-0.0013067839061820332 0.0006181068565533452 0.0 0.0023166071001599897 0.0 0.0
-0.0009332989341802565 0.00047398066329709383 0.0 0.002249435825490929 0.0 0.0
-0.0006930059192247508 0.00035380864754116213 0.0 0.0022614218238345965 0.0 0.0
-0.0004418292684953357 0.00016961599437417138 0.0 0.002254626004585485 0.0 0.0
-6.996217306037399e-05 -0.0002550439843927501 0.0 0.0018712748649787774 0.0 0.0
0.0001584569313868036 -0.0010035633688501486 0.0 0.0012238506344000473 0.0 0.0
7.736841616189643e-05 -0.0006961769352626094 0.0 -0.0010503100554349579 0.0 0.0
-0.00013897743857782166 -0.000202269087820008 0.0 -0.0016707554157657858 0.0 0.0
-0.0005313568864037561 0.00020813195848067305 0.0 -0.002094032695265262 0.0 0.0
-0.0008559076244202602 0.00041652805190313266 0.0 -0.002102827068128631 0.0 0.0
-0.0011903113500094978 0.0005766176813708153 0.0 -0.00204505344404996 0.0 0.0
-0.0017514109837452395 0.0008171338928933655 0.0 -0.002061545610283013 0.0 0.0
-0.00295857969944735 0.0015484200251031624 0.0 -0.0025244220015649484 0.0 0.0
-0.0052654009208586445 0.0034031982582663125 0.0 -0.003805694721037543 0.0 0.0
-0.008875270013864948 0.00671226229292797 0.0 -0.0059977894324256395 0.0 0.0
-0.013687027652059487 0.011324566396675369 0.0 -0.008859827308994138 0.0 0.0
-0.01945106071727789 0.016908948507141305 0.0 -0.011941021080542518 0.0 0.0
-0.025977078737586062 0.023243818681255763 0.0 -0.01497640112918169 0.0 0.0
-0.03320065252843461 0.030263887717073286 0.0 -0.01787768621443583 0.0 0.0
-0.04113029639805576 0.03799786941554062 0.0 -0.020697661444829502 0.0 0.0
-0.049736467700859405 0.04644681169904939 0.0 -0.023642340899805298 0.0 0.0
-0.058777934852368624 0.05541236516756867 0.0 -0.02720541415115014 0.0 0.0
-0.06757066021403849 0.06425743018943926 0.0 -0.031929159522281564 0.0 0.0
-0.07473631815249013 0.0716611449298774 0.0 -0.03768935325652979 0.0 0.0
-0.07785375287269376 0.07530082869846899 0.0 -0.042998312398314274 0.0 0.0
-0.07285522103008837 0.07132204252351203 0.0 -0.044931962696940525 0.0 0.0
-0.06769229203060084 0.053510509759887366 0.0 2.4232352235920018e-14 0.0 0.0
-0.07285522103007804 0.0713220425235013 0.0 0.04493196269699498 0.0 0.0
-0.07785375287267 0.07530082869844118 0.0 0.042998312398370854 0.0 0.0
-0.07473631815245352 0.07166114492983819 0.0 0.03768935325656171 0.0 0.0
-0.06757066021399306 0.06425743018939264 0.0 0.031929159522281626 0.0 0.0
-0.05877793485231854 0.05541236516752221 0.0 0.027205414151134533 0.0 0.0
-0.04973646770080904 0.04644681169899735 0.0 0.02364234089978542 0.0 0.0
-0.04113029639800619 0.037997869415490396 0.0 0.020697661444813043 0.0 0.0
-0.0332006525283859 0.03026388771702381 0.0 0.01787768621441777 0.0 0.0
-0.02597707873754002 0.023243818681210948 0.0 0.014976401129158174 0.0 0.0
-0.019451060717237283 0.01690894850710408 0.0 0.011941021080515837 0.0 0.0
-0.013687027652026465 0.011324566396645723 0.0 0.00885982730897213 0.0 0.0
-0.008875270013841204 0.006712262292904153 0.0 0.005997789432408717 0.0 0.0
-0.005265400920843713 0.003403198258252608 0.0 0.0038056947210279336 0.0 0.0
-0.0029585796994393014 0.0015484200250964928 0.0 0.0025244220015597394 0.0 0.0
-0.001751410983741941 0.0008171338928915917 0.0 0.0020615456102802796 0.0 0.0
-0.0011903113500080994 0.0005766176813702195 0.0 0.0020450534440494745 0.0 0.0
-0.0008559076244195104 0.00041652805190326396 0.0 0.002102827068127615 0.0 0.0
-0.0005313568864034452 0.00020813195848096825 0.0 0.002094032695263045 0.0 0.0
-0.00013897743857758807 -0.00020226908781938806 0.0 0.0016707554157652956 0.0 0.0
7.736841616216924e-05 -0.000696176935261634 0.0 0.0010503100554331687 0.0 0.0
6.9613953190541115e-06 -0.00044463506368383314 0.0 -0.0008673348680617865 0.0 0.0
-0.0002018766349316656 -0.000140282561978245 0.0 -0.0014426028443411355 0.0 0.0
-0.000616168492512365 0.0002462387295400253 0.0 -0.0018796849403825292 0.0 0.0
-0.0010082286550644232 0.0004727599016491874 0.0 -0.0018874070214196115 0.0 0.0
-0.0014455982506294037 0.000671309487570688 0.0 -0.0017777232310138362 0.0 0.0
-0.0022432441907882846 0.001061131268761347 0.0 -0.001782144640504189 0.0 0.0
-0.00392472932536121 0.0022284136267383247 0.0 -0.002348387392382309 0.0 0.0
-0.006964272373017163 0.004848936409591323 0.0 -0.003787471474308234 0.0 0.0
-0.01153295737136946 0.009148623330009096 0.0 -0.006135104482012057 0.0 0.0
-0.01749228391016781 0.014904293174735173 0.0 -0.00901286626841435 0.0 0.0
-0.024610670873333854 0.02182986236567602 0.0 -0.012059846290558547 0.0 0.0
-0.03271228283203131 0.02972160053375343 0.0 -0.015059471087448578 0.0 0.0
-0.04170886896671119 0.0384933066038085 0.0 -0.017941488131450644 0.0 0.0
-0.05160016490501665 0.0481615298359307 0.0 -0.020753398875557022 0.0 0.0
-0.06238356494341378 0.058749371543031906 0.0 -0.023659388491248073 0.0 0.0
-0.07381144367519703 0.07007944480953683 0.0 -0.027084666192866806 0.0 0.0
-0.08503169977761563 0.08138955001563197 0.0 -0.03166194732379921 0.0 0.0
-0.09421520315837408 0.09092775343894736 0.0 -0.03752956543335751 0.0 0.0
-0.09823158898961817 0.09562536630436777 0.0 -0.04348359333630085 0.0 0.0
-0.09247200536719441 0.09094068545329466 0.0 -0.04750395477924137 0.0 0.0
-0.0864772788177521 0.07070797886513207 0.0 2.2972942992360856e-14 0.0 0.0
-0.0924720053671799 0.09094068545328705 0.0 0.047503954779293624 0.0 0.0
-0.09823158898958712 0.09562536630434185 0.0 0.04348359333635633 0.0 0.0
-0.0942152031583295 0.09092775343890734 0.0 0.03752956543338619 0.0 0.0
-0.0850316997775609 0.08138955001557459 0.0 0.0316619473238004 0.0 0.0
-0.07381144367513698 0.0700794448094822 0.0 0.02708466619285286 0.0 0.0
-0.062383564943352066 0.058749371542973536 0.0 0.023659388491233526 0.0 0.0
-0.05160016490495587 0.04816152983587244 0.0 0.020753398875541083 0.0 0.0
-0.041708868966651796 0.03849330660374697 0.0 0.017941488131433803 0.0 0.0
-0.0327122828319753 0.02972160053370102 0.0 0.015059471087422997 0.0 0.0
-0.024610670873284276 0.021829862365631007 0.0 0.012059846290530144 0.0 0.0
-0.017492283910127443 0.014904293174698172 0.0 0.009012866268392473 0.0 0.0
-0.01153295737133971 0.00914862332998034 0.0 0.006135104481994417 0.0 0.0
-0.006964272372997412 0.004848936409572689 0.0 0.0037874714742973164 0.0 0.0
-0.003924729325350187 0.0022284136267318425 0.0 0.0023483873923757855 0.0 0.0
-0.00224324419078356 0.0010611312687573288 0.0 0.0017821446405006502 0.0 0.0
-0.0014455982506279298 0.000671309487570615 0.0 0.00177772323101404 0.0 0.0
-0.0010082286550636924 0.0004727599016489005 0.0 0.0018874070214175863 0.0 0.0
-0.0006161684925119367 0.0002462387295394824 0.0 0.0018796849403806665 0.0 0.0
-0.00020187663493148508 -0.00014028256197824997 0.0 0.001442602844341075 0.0 0.0
6.96139531922064e-06 -0.00044463506368314993 0.0 0.0008673348680599919 0.0 0.0
-5.25574023115132e-05 -0.00024760166981647216 0.0 -0.0006806742034666307 0.0 0.0
-0.00025841965728026886 -7.409917033121183e-05 0.0 -0.001188871402917281 0.0 0.0
-0.0006968093052075394 0.0002845120834698426 0.0 -0.0016118401058296983 0.0 0.0
-0.001153448573942491 0.0005222403618885281 0.0 -0.001614525444624676 0.0 0.0
-0.0017124931174382226 0.0007672965560343319 0.0 -0.0014580903583074135 0.0 0.0
-0.0027942320822331246 0.0013740719527636446 0.0 -0.0014720484665204574 0.0 0.0
-0.0049978774722831505 0.0030670505047202265 0.0 -0.0020909048492093667 0.0 0.0
-0.008781474197184358 0.006474377078302399 0.0 -0.00358448991492597 0.0 0.0
-0.014267313716427862 0.011696854970277507 0.0 -0.005801283651239522 0.0 0.0
-0.0213369383731899 0.018551545302866134 0.0 -0.008451427063675349 0.0 0.0
-0.029801313644737218 0.026803096812013115 0.0 -0.01127574969762563 0.0 0.0
-0.03947442661651318 0.03624739618258522 0.0 -0.014054272778784942 0.0 0.0
-0.050249046692430084 0.046778991575149274 0.0 -0.016740909740767695 0.0 0.0
-0.06210049169807823 0.05838438636758486 0.0 -0.019395323751212296 0.0 0.0
-0.0750075754587656 0.07106801485035663 0.0 -0.022086818122000203 0.0 0.0
-0.08872306774574773 0.08465675035985173 0.0 -0.025018300870003504 0.0 0.0
-0.1022803720361718 0.09832254152863186 0.0 -0.028793408580388695 0.0 0.0
-0.11343708298685609 0.10994579713149899 0.0 -0.03413811202430498 0.0 0.0
-0.11845066459847231 0.11579176339471153 0.0 -0.040974583221735 0.0 0.0
-0.11222102820474869 0.11071777976892197 0.0 -0.0486809671750246 0.0 0.0
-0.10558173078536463 0.08841474611699543 0.0 2.1945986694582587e-14 0.0 0.0
-0.1122210282047294 0.11071777976890215 0.0 0.04868096717507968 0.0 0.0
-0.11845066459843473 0.11579176339468508 0.0 0.040974583221784974 0.0 0.0
-0.11343708298680373 0.10994579713144861 0.0 0.03413811202433158 0.0 0.0
-0.10228037203610846 0.0983225415285684 0.0 0.02879340858039159 0.0 0.0
-0.08872306774567722 0.08465675035978465 0.0 0.025018300869996353 0.0 0.0
-0.07500757545869305 0.07106801485028676 0.0 0.022086818121986252 0.0 0.0
-0.062100491698006785 0.058384386367519234 0.0 0.019395323751196472 0.0 0.0
-0.0502490466923601 0.046778991575076014 0.0 0.01674090974075135 0.0 0.0
-0.03947442661644744 0.036247396182519986 0.0 0.014054272778763519 0.0 0.0
-0.029801313644679195 0.026803096811959585 0.0 0.011275749697600132 0.0 0.0
-0.021336938373142243 0.01855154530281643 0.0 0.008451427063653899 0.0 0.0
-0.014267313716391995 0.011696854970239695 0.0 0.005801283651225376 0.0 0.0
-0.008781474197160202 0.006474377078283131 0.0 0.0035844899149140765 0.0 0.0
-0.004997877472268952 0.003067050504709511 0.0 0.0020909048492025704 0.0 0.0
-0.0027942320822264043 0.00137407195275688 0.0 0.0014720484665167884 0.0 0.0
-0.0017124931174359813 0.0007672965560329211 0.0 0.0014580903583061723 0.0 0.0
-0.0011534485739417618 0.0005222403618889401 0.0 0.0016145254446234126 0.0 0.0
-0.0006968093052070723 0.00028451208346893804 0.0 0.0016118401058287338 0.0 0.0
-0.00025841965728007224 -7.409917033144183e-05 0.0 0.0011888714029167121 0.0 0.0
-5.255740231137984e-05 -0.0002476016698160644 0.0 0.0006806742034644368 0.0 0.0
-9.868115903569657e-05 -0.00010520000346578846 0.0 -0.0004954403021685951 0.0 0.0
-0.00030592300370019623 -9.259857914470756e-06 0.0 -0.0009125644578869038 0.0 0.0
-0.0007722906241659333 0.0003219927664474572 0.0 -0.0012889951561220023 0.0 0.0
-0.001295716823294043 0.0005656470583670322 0.0 -0.0012810954302034546 0.0 0.0
-0.002003350773333991 0.0008790398427683665 0.0 -0.0010886914995665716 0.0 0.0
-0.0034180305695962676 0.001776698591247379 0.0 -0.0011133252508597992 0.0 0.0
-0.006175522349851919 0.004061189523166319 0.0 -0.0017524105484485824 0.0 0.0
-0.010669651302425875 0.008208389929132889 0.0 -0.003087861157191671 0.0 0.0
-0.01702610613632027 0.014294060086249557 0.0 -0.004948984964913205 0.0 0.0
-0.025191101674409053 0.0222251874903015 0.0 -0.007201365642429223 0.0 0.0
-0.034987978359697545 0.031788874743443364 0.0 -0.009607296428838804 0.0 0.0
-0.04623124754341967 0.04278316805427307 0.0 -0.011977924525134064 0.0 0.0
-0.058793014390299936 0.055083427357433296 0.0 -0.014286035684267923 0.0 0.0
-0.0725980049633348 0.06863287906225657 0.0 -0.01660849379877564 0.0 0.0
-0.08756307862332181 0.08336297068645152 0.0 -0.01894981843861671 0.0 0.0
-0.10340032386636726 0.0990401071666614 0.0 -0.021210861794017884 0.0 0.0
-0.11912197894919899 0.11483543786633243 0.0 -0.023635361876643946 0.0 0.0
-0.13229048985070713 0.1285373944091046 0.0 -0.027617714204535543 0.0 0.0
-0.13865349580967168 0.13590914784356303 0.0 -0.03540200443373916 0.0 0.0
-0.13245815881035505 0.13104514036007855 0.0 -0.048201150184419735 0.0 0.0
-0.1254249836244529 0.10707661579206906 0.0 1.8079288066630284e-14 0.0 0.0
-0.13245815881033213 0.1310451403600498 0.0 0.04820115018446932 0.0 0.0
-0.1386534958096277 0.13590914784352298 0.0 0.03540200443378416 0.0 0.0
-0.13229048985064593 0.12853739440904366 0.0 0.027617714204555527 0.0 0.0
-0.11912197894912592 0.1148354378662611 0.0 0.02363536187664536 0.0 0.0
-0.10340032386628693 0.09904010716658466 0.0 0.02121086179401472 0.0 0.0
-0.08756307862323834 0.0833629706863681 0.0 0.01894981843860652 0.0 0.0
-0.07259800496325242 0.06863287906218105 0.0 0.016608493798764355 0.0 0.0
-0.058793014390219424 0.05508342735735336 0.0 0.014286035684252938 0.0 0.0
-0.046231247543343575 0.04278316805419599 0.0 0.011977924525114403 0.0 0.0
-0.03498797835963113 0.03178887474338221 0.0 0.009607296428817129 0.0 0.0
-0.025191101674354954 0.022225187490249276 0.0 0.007201365642412028 0.0 0.0
-0.017026106136279476 0.01429406008620875 0.0 0.00494898496490187 0.0 0.0
-0.010669651302397052 0.008208389929106155 0.0 0.003087861157181993 0.0 0.0
-0.006175522349834045 0.0040611895231529435 0.0 0.0017524105484414852 0.0 0.0
-0.003418030569587903 0.001776698591238616 0.0 0.0011133252508564546 0.0 0.0
-0.002003350773331505 0.0008790398427661324 0.0 0.001088691499564083 0.0 0.0
-0.001295716823293199 0.0005656470583670852 0.0 0.0012810954302046272 0.0 0.0
-0.0007722906241651904 0.00032199276644670423 0.0 0.0012889951561208433 0.0 0.0
-0.00030592300369970297 -9.259857914070868e-06 0.0 0.0009125644578860581 0.0 0.0
-9.868115903497956e-05 -0.00010520000346565125 0.0 0.0004954403021679125 0.0 0.0
-0.0001265499047929054 -1.8100119100171843e-05 0.0 -0.0003217304079759581 0.0 0.0
-0.00033874647971900607 4.7316197332626265e-05 0.0 -0.0006176209601836038 0.0 0.0
-0.0008401103427760229 0.00035569130881074905 0.0 -0.0009044495335776255 0.0 0.0
-0.0014423722903326797 0.000607205461959789 0.0 -0.0008814890278701383 0.0 0.0
-0.0023326085275168916 0.0010243384004419728 0.0 -0.0006789008568431515 0.0 0.0
-0.004125846498515911 0.0022968280587302354 0.0 -0.0007128547966338414 0.0 0.0
-0.007425105670554868 0.005172377741930898 0.0 -0.0012637158881936706 0.0 0.0
-0.01258606574890843 0.009989888564388505 0.0 -0.0022327465007351993 0.0 0.0
-0.019786162177784845 0.01690672268588291 0.0 -0.0036035329154254486 0.0 0.0
-0.029021409174111598 0.025888417775405848 0.0 -0.005270945403665346 0.0 0.0
-0.040138408395701895 0.03675076463162824 0.0 -0.0070635743436799295 0.0 0.0
-0.05294862005565497 0.04929293992730282 0.0 -0.008835578721725485 0.0 0.0
-0.06730117175981344 0.06336898631033665 0.0 -0.01058179082479403 0.0 0.0
-0.08306561845969297 0.07886758029694642 0.0 -0.012388924610660098 0.0 0.0
-0.10003180234884775 0.09560537355138679 0.0 -0.014212735728704207 0.0 0.0
-0.11777748946420735 0.1131968277366239 0.0 -0.01576995109250381 0.0 0.0
-0.1353689906000487 0.13078370753772744 0.0 -0.016831499946119623 0.0 0.0
-0.15059178044898144 0.14639609679413287 0.0 -0.018617692375082654 0.0 0.0
-0.15889694803626403 0.15592826122459258 0.0 -0.025839844043038542 0.0 0.0
-0.1535589836902103 0.15238685782575556 0.0 -0.04500826489907939 0.0 0.0
-0.146544698997252 0.12732384575248806 0.0 1.1960918366860085e-14 0.0 0.0
-0.15355898369018275 0.15238685782573091 0.0 0.045008264899117474 0.0 0.0
-0.15889694803621332 0.15592826122453798 0.0 0.025839844043076265 0.0 0.0
-0.15059178044891147 0.14639609679406326 0.0 0.01861769237509878 0.0 0.0
-0.13536899059996516 0.1307837075376449 0.0 0.016831499946121223 0.0 0.0
-0.11777748946411633 0.11319682773653336 0.0 0.015769951092500057 0.0 0.0
-0.1000318023487536 0.09560537355130201 0.0 0.01421273572869872 0.0 0.0
-0.08306561845959974 0.07886758029685827 0.0 0.012388924610652604 0.0 0.0
-0.06730117175972265 0.06336898631024294 0.0 0.010581790824785851 0.0 0.0
-0.052948620055569155 0.04929293992721784 0.0 0.008835578721711486 0.0 0.0
-0.040138408395627254 0.03675076463155297 0.0 0.007063574343663958 0.0 0.0
-0.02902140917405103 0.025888417775348824 0.0 0.005270945403650192 0.0 0.0
-0.019786162177738084 0.016906722685840182 0.0 0.00360353291541554 0.0 0.0
-0.012586065748875013 0.009989888564354434 0.0 0.0022327465007288922 0.0 0.0
-0.007425105670534048 0.005172377741915545 0.0 0.0012637158881878652 0.0 0.0
-0.0041258464985058415 0.0022968280587221303 0.0 0.0007128547966320809 0.0 0.0
-0.0023326085275133237 0.0010243384004404107 0.0 0.0006789008568435655 0.0 0.0
-0.0014423722903318282 0.0006072054619597807 0.0 0.0008814890278718915 0.0 0.0
-0.00084011034277587 0.0003556913088102969 0.0 0.0009044495335756204 0.0 0.0
-0.00033874647971897056 4.731619733349982e-05 0.0 0.0006176209601829118 0.0 0.0
-0.00012654990479317097 -1.810011910010917e-05 0.0 0.0003217304079772838 0.0 0.0
-0.00012758444961738472 1.3895696983199525e-05 0.0 -0.00018125447414032162 0.0 0.0
-0.00034679684235040185 8.501335117138427e-05 0.0 -0.0003094776628773933 0.0 0.0
-0.0008960821564651079 0.00038002434466257606 0.0 -0.0004403365631091153 0.0 0.0
-0.0016050142977586351 0.0006592457885797794 0.0 -0.00041107126625783343 0.0 0.0
-0.0027186328955108143 0.0012298742727003666 0.0 -0.00024098536703962947 0.0 0.0
-0.004907107071329553 0.0029304378401760985 0.0 -0.00025077224957679794 0.0 0.0
-0.008718847993434222 0.006351640632059592 0.0 -0.0005510764329307753 0.0 0.0
-0.014506458927090453 0.011791070666732061 0.0 -0.0010561124932754835 0.0 0.0
-0.022515941845699324 0.01950175643301433 0.0 -0.0017721606438486123 0.0 0.0
-0.03279513722179334 0.029504673125815804 0.0 -0.0026663251480634497 0.0 0.0
-0.04521821636909853 0.041653169411207835 0.0 -0.0036409156876727254 0.0 0.0
-0.05959420951705181 0.05574456555514058 0.0 -0.004625768251841022 0.0 0.0
-0.07574179546270465 0.07159963852564569 0.0 -0.005643264483320235 0.0 0.0
-0.09345194897084838 0.08903585166132467 0.0 -0.006716774171533302 0.0 0.0
-0.1123816623846719 0.10775092600558758 0.0 -0.007792175046534769 0.0 0.0
-0.1319103761934222 0.1271614590152116 0.0 -0.008654401488002976 0.0 0.0
-0.15099431832768695 0.1462366585401675 0.0 -0.008912277351727903 0.0 0.0
-0.1678857225762166 0.16323886571087273 0.0 -0.008815340033093973 0.0 0.0
-0.17891819184624894 0.1750102903794796 0.0 -0.012530563899032579 0.0 0.0
-0.17607126292625447 0.17513170901030606 0.0 -0.033571454163869835 0.0 0.0
-0.16981310607556419 0.15098920911847064 0.0 7.039507865513883e-15 0.0 0.0
-0.1760712629262225 0.17513170901027794 0.0 0.033571454163890894 0.0 0.0
-0.17891819184619143 0.17501029037942314 0.0 0.012530563899053276 0.0 0.0
-0.16788572257613651 0.16323886571079146 0.0 0.008815340033103148 0.0 0.0
-0.15099431832759203 0.14623665854007056 0.0 0.008912277351726984 0.0 0.0
-0.1319103761933202 0.12716145901510817 0.0 0.008654401488001619 0.0 0.0
-0.11238166238456693 0.1077509260054844 0.0 0.007792175046529303 0.0 0.0
-0.09345194897074445 0.08903585166122313 0.0 0.006716774171529823 0.0 0.0
-0.07574179546260362 0.07159963852554282 0.0 0.005643264483314704 0.0 0.0
-0.059594209516956764 0.05574456555504813 0.0 0.004625768251833472 0.0 0.0
-0.0452182163690161 0.04165316941112456 0.0 0.003640915687662681 0.0 0.0
-0.03279513722172605 0.02950467312575046 0.0 0.002666325148053968 0.0 0.0
-0.022515941845646852 0.01950175643296688 0.0 0.0017721606438432153 0.0 0.0
-0.014506458927052851 0.011791070666696015 0.0 0.0010561124932729146 0.0 0.0
-0.008718847993409731 0.006351640632038256 0.0 0.0005510764329281581 0.0 0.0
-0.004907107071316338 0.0029304378401674926 0.0 0.0002507722495763934 0.0 0.0
-0.0027186328955061422 0.0012298742726976994 0.0 0.00024098536704103736 0.0 0.0
-0.0016050142977573423 0.0006592457885784376 0.0 0.00041107126625660606 0.0 0.0
-0.0008960821564644125 0.0003800243446629539 0.0 0.0004403365631083125 0.0 0.0
-0.0003467968423501546 8.501335117143848e-05 0.0 0.0003094776628775654 0.0 0.0
-0.00012758444961712202 1.3895696983199384e-05 0.0 0.000181254474141015 0.0 0.0
-8.64617731652896e-05 1.6256654973061147e-05 0.0 -0.00011100126101970778 0.0 0.0
-0.0003122711503971333 9.747551615364898e-05 0.0 -0.00012862119142456586 0.0 0.0
-0.0009351055170931719 0.00038900490355709934 0.0 -0.00014602021412789842 0.0 0.0
-0.0018021424551044017 0.0006899845786653218 0.0 -8.857969485406496e-05 0.0 0.0
-0.003172053743878288 0.001352483453826331 0.0 0.00016393300524233955 0.0 0.0
-0.005744268788356652 0.0032708666250434153 0.0 0.0003817953459794069 0.0 0.0
-0.01003417905332277 0.006953257569279652 0.0 0.00048549043834348303 0.0 0.0
-0.01640962654333048 0.012693773278219607 0.0 0.00051964509750286 0.0 0.0
-0.025186043744141025 0.02079039123078344 0.0 0.0004808053879787988 0.0 0.0
-0.03647761542881376 0.031296655233689345 0.0 0.00033029813885775833 0.0 0.0
-0.05019461043524539 0.044084761838323404 0.0 0.00010865298565793189 0.0 0.0
-0.0661393482684603 0.05895236342002845 0.0 -0.00017577163671302163 0.0 0.0
-0.08406954133635598 0.07569687403953967 0.0 -0.0005559771929797667 0.0 0.0
-0.10369919011540038 0.09409539782281201 0.0 -0.0010047556338622227 0.0 0.0
-0.12457371574081642 0.11379307108542314 0.0 -0.0015404949113285264 0.0 0.0
-0.14586992725057327 0.13410271525321263 0.0 -0.002064262655805999 0.0 0.0
-0.1662690194288522 0.15386441673777806 0.0 -0.002307508442295103 0.0 0.0
-0.18400885715704052 0.17138800137142957 0.0 -0.0020482804075756013 0.0 0.0
-0.19702709043934188 0.18413107668958106 0.0 -0.003966139132827954 0.0 0.0
-0.20024037674487355 0.1868846928586696 0.0 -0.02544993580509279 0.0 0.0
-0.19839806715343117 0.16403835956693752 0.0 -4.163336342344337e-17 0.0 0.0
-0.20024037674483788 0.18688469285863446 0.0 0.025449935805100677 0.0 0.0
-0.1970270904392765 0.1841310766895303 0.0 0.003966139132836673 0.0 0.0
-0.18400885715694965 0.17138800137134202 0.0 0.0020482804075789285 0.0 0.0
-0.16626901942874597 0.15386441673767362 0.0 0.002307508442289854 0.0 0.0
-0.14586992725046083 0.13410271525310852 0.0 0.0020642626558052025 0.0 0.0
-0.12457371574070021 0.11379307108530326 0.0 0.0015404949113243978 0.0 0.0
-0.10369919011528553 0.09409539782270232 0.0 0.0010047556338642818 0.0 0.0
-0.08406954133624492 0.0756968740394335 0.0 0.0005559771929766477 0.0 0.0
-0.06613934826835535 0.05895236341993086 0.0 0.00017577163671043776 0.0 0.0
-0.050194610435155274 0.04408476183823992 0.0 -0.00010865298566205446 0.0 0.0
-0.0364776154287405 0.03129665523362141 0.0 -0.0003302981388597741 0.0 0.0
-0.02518604374408363 0.02079039123073379 0.0 -0.000480805387980965 0.0 0.0
-0.01640962654328863 0.012693773278179188 0.0 -0.0005196450974993523 0.0 0.0
-0.010034179053295095 0.006953257569255937 0.0 -0.0004854904383416244 0.0 0.0
-0.00574426878834175 0.0032708666250321353 0.0 -0.00038179534597925326 0.0 0.0
-0.003172053743872737 0.0013524834538223892 0.0 -0.00016393300524007498 0.0 0.0
-0.0018021424551029129 0.0006899845786625653 0.0 8.85796948527002e-05 0.0 0.0
-0.0009351055170923005 0.0003890049035583805 0.0 0.0001460202141292079 0.0 0.0
-0.0003122711503964628 9.747551615333615e-05 0.0 0.0001286211914259238 0.0 0.0
-8.646177316480556e-05 1.625665497309561e-05 0.0 0.00011100126102040362 0.0 0.0
SCALARS Statev float 8
LOOKUP_TABLE default
0.0 0.019337497721731597 0.015532114277785145 -0.018445714189904705 0.002913599912119545 -0.0011191443846329523 0.0 0.0
0.0 0.006742571613111515 0.004989735296993856 -0.0031597648427998584 -0.0018299704541939962 -0.007147589952078753 0.0 0.0
0.0 0.0001694006131622438 0.0002224443909114036 -0.00013552798561892367 -8.691640529247999e-05 -0.00035412981378522905 0.0 0.0
0.0 0.00017789041747050803 9.267680939881208e-05 -6.632389682741693e-05 -2.6352912571395422e-05 2.995957521982467e-05 0.0 0.0
0.0 0.001114477425676275 0.0007926931404171092 -0.0005824830117695496 -0.00021021012864755952 0.0001636777972492057 0.0 0.0
0.0 0.0029479209177945033 0.0028897069286146627 -0.0023098370718728388 -0.0005798698567418281 0.00033849106316405163 0.0 0.0
0.0 0.007355267467803531 0.006727864878499623 -0.005814759870717714 -0.0009131050077818982 0.0004723391327767151 0.0 0.0
0.0 0.014108829239829321 0.012706420314367318 -0.011531933535353148 -0.0011744867790141823 0.0005314761573343221 0.0 0.0
0.0 0.023663561753576662 0.02108854709159197 -0.0196744397527872 -0.0014141073388047713 0.0005146964253310319 0.0 0.0
0.0 0.03615698816376679 0.031968054124746764 -0.030288173103970542 -0.0016798810207762094 0.00039090702522170983 0.0 0.0
0.0 0.05147730872465456 0.045255905785477835 -0.04326497097002114 -0.0019909348154567 0.00019000391868615612 0.0 0.0
0.0 0.06907914867389038 0.06076695761409749 -0.058416887182377614 -0.002350070431719819 -8.340314301439483e-05 0.0 0.0
0.0 0.08906351063251572 0.07827748109779223 -0.07553134836900098 -0.0027461327287912423 -0.00045113017563520007 0.0 0.0
0.0 0.11110228397113446 0.09755433066745774 -0.09438960329486283 -0.0031647273725946227 -0.0008627393373986544 0.0 0.0
0.0 0.13483442914797839 0.11827877666679584 -0.11469197230716324 -0.0035868043596324743 -0.0013457398682444315 0.0 0.0
0.0 0.15966861824547157 0.1398979761517657 -0.13590704346966856 -0.003990932682097187 -0.0018799362763431888 0.0 0.0
0.0 0.18454872592897856 0.16152576135261482 -0.15717053838426565 -0.004355222968349235 -0.0023600762208042417 0.0 0.0
0.0 0.20805145335161498 0.18193884477994543 -0.17728105889971346 -0.004657785880231963 -0.002606851290582377 0.0 0.0
0.0 0.22847749707916895 0.1996783997355891 -0.19478420238237854 -0.0048941973532101776 -0.0024572886114604744 0.0 0.0
0.0 0.24356011496594487 0.21297830856062036 -0.2079416129359582 -0.0050366956246623955 -0.0028480326796644305 0.0 0.0
0.0 0.24999320661144997 0.21834137366497683 -0.21332250481256082 -0.005018868852415901 3.021888295151598e-15 0.0 0.0
0.0 0.24356011496590485 0.2129783085605862 -0.2079416129359231 -0.005036695624663148 0.0028480326796725 0.0 0.0
0.0 0.22847749707910087 0.19967839973552898 -0.19478420238232008 -0.004894197353208626 0.0024572886114686008 0.0 0.0
0.0 0.20805145335151562 0.18193884477985856 -0.1772810588996283 -0.004657785880230214 0.002606851290587145 0.0 0.0
0.0 0.1845487259288591 0.16152576135251126 -0.15717053838416353 -0.0043552229683479155 0.0023600762208031163 0.0 0.0
0.0 0.1596686182453498 0.13989797615165875 -0.13590704346956384 -0.003990932682094797 0.0018799362763395246 0.0 0.0
0.0 0.13483442914785498 0.11827877666668817 -0.11469197230705754 -0.0035868043596304472 0.0013457398682425051 0.0 0.0
0.0 0.1111022839710091 0.09755433066734842 -0.09438960329475585 -0.003164727372592672 0.0008627393373984004 0.0 0.0
0.0 0.08906351063239308 0.07827748109768562 -0.07553134836889583 -0.002746132728789707 0.00045113017563066116 0.0 0.0
0.0 0.06907914867378209 0.060766957614003025 -0.05841688718228466 -0.0023500704317182706 8.340314301021274e-05 0.0 0.0
0.0 0.051477308724560175 0.045255905785395234 -0.04326497096994064 -0.001990934815454588 -0.00019000391869012376 0.0 0.0
0.0 0.03615698816369267 0.03196805412468204 -0.030288173103907214 -0.001679881020774895 -0.00039090702522447487 0.0 0.0
0.0 0.023663561753520163 0.021088547091542113 -0.019674439752738828 -0.0014141073388032534 -0.0005146964253306883 0.0 0.0
0.0 0.014108829239789327 0.012706420314331555 -0.011531933535318497 -0.0011744867790130578 -0.0005314761573348545 0.0 0.0
0.0 0.007355267467780013 0.006727864878477712 -0.005814759870697417 -0.0009131050077802895 -0.00047233913277636315 0.0 0.0
0.0 0.002947920917781771 0.00288970692860213 -0.0023098370718620006 -0.0005798698567401317 -0.00033849106316313115 0.0 0.0
0.0 0.0011144774256713341 0.0007926931404134848 -0.0005824830117669007 -0.00021021012864658292 -0.00016367779724839958 0.0 0.0
0.0 0.0001778904174690492 9.267680939822479e-05 -6.632389682701065e-05 -2.6352912571213574e-05 -2.9959575219621466e-05 0.0 0.0
0.0 0.00016940061316120272 0.00022244439091057136 -0.00013552798561839536 -8.69164052921751e-05 0.0003541298137838896 0.0 0.0
0.0 0.006742571613100856 0.004989735296988398 -0.0031597648427957145 -0.0018299704541926867 0.007147589952069176 0.0 0.0
0.0 0.019337497721710575 0.015532114277771184 -0.01844571418988533 0.0029135999121141423 0.0011191443845916865 0.0 0.0
0.0 0.01584107981658212 0.01192150613008418 -0.01533135798359386 0.0034098518535096707 -0.0006258365153844684 0.0 0.0
0.0 0.004216126006242352 0.0030304425930125344 -0.0019023037479245612 -0.0011281388450879687 -0.005699552636146561 0.0 0.0
0.0 -8.507654219330166e-05 -7.505415637923213e-05 6.908349769163963e-05 5.9706586875925055e-06 -9.935451342651555e-05 0.0 0.0
0.0 4.691818759853162e-05 3.8298166181401544e-05 -2.7623681047209252e-05 -1.0674485134192306e-05 1.3766679667995987e-05 0.0 0.0
0.0 0.0006405108800550717 0.0005257889560954781 -0.0003895424220212007 -0.00013624653407427701 6.450938134548742e-05 0.0 0.0
0.0 0.002564276847323093 0.0022509879118163666 -0.0018175592017548204 -0.000433428710061549 5.082816479342608e-05 0.0 0.0
0.0 0.006278020474560776 0.005726771520436683 -0.005013149645476915 -0.0007136218749597661 -0.00024428417666884296 0.0 0.0
0.0 0.012546482446762375 0.011207787101150866 -0.010322237240193096 -0.0008855498609577712 -0.0007451225371046897 0.0 0.0
0.0 0.021462630677008404 0.018944171343981582 -0.0179463909065421 -0.0009977804374394735 -0.00145127127442237 0.0 0.0
0.0 0.033040473943778736 0.028977900463433903 -0.02788410750711297 -0.0010937929563209325 -0.0023331956796235833 0.0 0.0
0.0 0.04717154557816953 0.04118785061640028 -0.040000395599084235 -0.001187455017316079 -0.0033099797963713332 0.0 0.0
0.0 0.06374315016665939 0.05539097814644238 -0.05410728271691269 -0.0012836954295296858 -0.004314103707726345 0.0 0.0
0.0 0.08196813830750876 0.07141817149765864 -0.07003545125748514 -0.0013827202401734179 -0.00535220196950057 0.0 0.0
0.0 0.10236771792651497 0.0890778550080276 -0.08760043164282794 -0.001477423365199685 -0.006425563250826553 0.0 0.0
0.0 0.12432041945725661 0.10809027714512794 -0.10653302795528727 -0.0015572491898405306 -0.007500670878606988 0.0 0.0
0.0 0.1472961749087714 0.12796696286559264 -0.1263537132249542 -0.0016132496406385073 -0.008482408314809136 0.0 0.0
0.0 0.17040833150001122 0.14791836898326038 -0.14627839869156342 -0.0016399702916968253 -0.00912981011614608 0.0 0.0
0.0 0.1923670699174945 0.1668369582013897 -0.16519845860887103 -0.0016384995925188368 -0.009104213039699221 0.0 0.0
0.0 0.2114573768288668 0.18328466543280145 -0.1816839579864296 -0.0016007074463718954 -0.008224098823775203 0.0 0.0
0.0 0.22540139192421044 0.1952225674362239 -0.19377106040541958 -0.0014515070308043537 -0.007208227356015025 0.0 0.0
0.0 0.23145085681814762 0.19988626662576062 -0.19866552576221594 -0.0012207408635448004 8.066464163292153e-15 0.0 0.0
0.0 0.22540139192417613 0.19522256743619368 -0.19377106040538916 -0.0014515070308044797 0.00720822735603627 0.0 0.0
0.0 0.21145737682880186 0.18328466543274527 -0.1816839579863732 -0.0016007074463718733 0.008224098823797047 0.0 0.0
0.0 0.19236706991740155 0.16683695820130978 -0.1651984586087905 -0.0016384995925192193 0.009104213039711454 0.0 0.0
0.0 0.17040833149990237 0.14791836898316693 -0.14627839869146966 -0.0016399702916972594 0.009129810116147155 0.0 0.0
0.0 0.1472961749086615 0.12796696286549755 -0.1263537132248591 -0.001613249640638136 0.008482408314804268 0.0 0.0
0.0 0.12432041945714259 0.1080902771450289 -0.10653302795518868 -0.0015572491898403135 0.007500670878603916 0.0 0.0
0.0 0.10236771792640385 0.08907785500793126 -0.08760043164273237 -0.0014774233651988088 0.0064255632508239315 0.0 0.0
0.0 0.08196813830739855 0.07141817149756352 -0.07003545125739019 -0.001382720240173311 0.005352201969492943 0.0 0.0
0.0 0.06374315016655868 0.05539097814635489 -0.05410728271682559 -0.0012836954295292993 0.004314103707719131 0.0 0.0
0.0 0.047171545578081515 0.04118785061632419 -0.04000039559900853 -0.0011874550173156784 0.0033099797963619254 0.0 0.0
0.0 0.03304047394370778 0.028977900463371814 -0.02788410750705135 -0.0010937929563204305 0.002333195679616518 0.0 0.0
0.0 0.02146263067695591 0.018944171343935057 -0.01794639090649638 -0.0009977804374386842 0.001451271274418785 0.0 0.0
0.0 0.012546482446726922 0.011207787101119283 -0.010322237240162221 -0.0008855498609570755 0.0007451225371010773 0.0 0.0
0.0 0.006278020474538075 0.005726771520416057 -0.005013149645457365 -0.000713621874958684 0.00024428417666649485 0.0 0.0
0.0 0.002564276847311343 0.0022509879118060147 -0.001817559201745879 -0.00043342871006013365 -5.08281647937685e-05 0.0 0.0
0.0 0.0006405108800514195 0.0005257889560928615 -0.0003895424220192559 -0.00013624653407360562 -6.450938134516212e-05 0.0 0.0
0.0 4.691818759790254e-05 3.829816618149945e-05 -2.762368104729776e-05 -1.067448513420156e-05 -1.3766679667850345e-05 0.0 0.0
0.0 -8.507654219346194e-05 -7.505415637907098e-05 6.908349769147145e-05 5.9706586875993216e-06 9.935451342614014e-05 0.0 0.0
0.0 0.00421612600623184 0.003030442593006873 -0.00190230374792049 -0.001128138845086382 0.005699552636135493 0.0 0.0
0.0 0.015841079816559245 0.011921506130066756 -0.015331357983572118 0.003409851853505353 0.0006258365153530803 0.0 0.0
0.0 0.011889085959716345 0.008758711119191315 -0.011569747804890935 0.0028110366856996184 -0.0031897413502426485 0.0 0.0
0.0 0.0029217602631032556 0.0018656187623504114 -0.0010407311290345951 -0.0008248876333158192 -0.00488556549662149 0.0 0.0
0.0 3.10001833912106e-07 1.1599485743986348e-06 -1.021645152548171e-06 -1.383034218504598e-07 7.244995134177779e-07 0.0 0.0
0.0 -2.952066364614065e-07 -2.065769922333911e-06 2.042470227831398e-06 2.329969450238526e-08 5.506803854647288e-06 0.0 0.0
0.0 0.0002991938941186971 0.0002616415499428318 -0.00018884375042762028 -7.279779951521162e-05 1.2814454673416121e-05 0.0 0.0
0.0 0.0018455478008351095 0.001569379587971623 -0.0012330315436212915 -0.00033634804435033003 -0.00011032232179213308 0.0 0.0
0.0 0.004906824597204406 0.0045433426113963005 -0.0038994405747529238 -0.0006439020366433766 -0.0006882982867470493 0.0 0.0
0.0 0.01051797643587151 0.009398975408671857 -0.008563159759176502 -0.0008358156494953481 -0.0016556768379889298 0.0 0.0
0.0 0.01849718581716195 0.016327794262547112 -0.015377534226021318 -0.0009502600365257755 -0.0030037573435014236 0.0 0.0
0.0 0.028954670964365395 0.02531944012329975 -0.0242797408770184 -0.00103969924628137 -0.00465222262506425 0.0 0.0
0.0 0.04163411651317485 0.03622417239770487 -0.03509731507107923 -0.0011268573266255922 -0.006452479247313459 0.0 0.0
0.0 0.056211870087762725 0.048864861940609836 -0.047646947721888905 -0.0012179142187209368 -0.008264479577610482 0.0 0.0
0.0 0.07287254028104385 0.06309941759087462 -0.061788062020417145 -0.0013113555704574442 -0.010063544554398179 0.0 0.0
0.0 0.09076947122300696 0.07880307219038428 -0.0774027388610824 -0.0014003333293018767 -0.011907224589872482 0.0 0.0
0.0 0.11037895870739706 0.09574874079301744 -0.09427211097638344 -0.0014766298166341491 -0.013760001032778043 0.0 0.0
0.0 0.13095225106559405 0.11353389038803807 -0.11200166487398054 -0.0015322255140574222 -0.015426001991422142 0.0 0.0
0.0 0.15174222473677004 0.13150091346661244 -0.12993857220636917 -0.0015623412602434516 -0.016515864284650367 0.0 0.0
0.0 0.17159428214918954 0.1486630108412588 -0.14710263524797426 -0.0015603755932847142 -0.016528673340663828 0.0 0.0
0.0 0.18889375542387957 0.16358829689520063 -0.16208485944675233 -0.0015034374484480739 -0.01516449059842428 0.0 0.0
0.0 0.2014430096253924 0.1743704475039009 -0.17295751247721716 -0.0014129350266834288 -0.012460555931168687 0.0 0.0
0.0 0.20714406165016114 0.17871061806269536 -0.17756752021355254 -0.001143097849142819 1.5845831591310144e-14 0.0 0.0
0.0 0.20144300962536463 0.17437044750387504 -0.17295751247719215 -0.0014129350266828488 0.012460555931207833 0.0 0.0
0.0 0.18889375542382314 0.1635882968951513 -0.16208485944670328 -0.001503437448448084 0.015164490598462817 0.0 0.0
0.0 0.171594282149108 0.1486630108411883 -0.14710263524790312 -0.0015603755932850076 0.016528673340684658 0.0 0.0
0.0 0.15174222473667692 0.1315009134665325 -0.12993857220628977 -0.001562341260242827 0.016515864284652553 0.0 0.0
0.0 0.13095225106549588 0.11353389038795303 -0.11200166487389582 -0.0015322255140571995 0.015426001991414653 0.0 0.0
0.0 0.11037895870729611 0.09574874079292973 -0.09427211097629655 -0.0014766298166331918 0.01376000103277246 0.0 0.0
0.0 0.09076947122290702 0.07880307219029756 -0.07740273886099627 -0.0014003333293013038 0.011907224589867042 0.0 0.0
0.0 0.07287254028094856 0.06309941759079231 -0.061788062020335384 -0.001311355570456961 0.01006354455438702 0.0 0.0
0.0 0.05621187008767457 0.04886486194053378 -0.04764694772181314 -0.0012179142187205682 0.008264479577598714 0.0 0.0
0.0 0.041634116513096335 0.03622417239763666 -0.03509731507101132 -0.0011268573266253286 0.006452479247299696 0.0 0.0
0.0 0.028954670964301772 0.025319440123243928 -0.02427974087696308 -0.0010396992462808265 0.004652222625052211 0.0 0.0
0.0 0.018497185817113834 0.01632779426250491 -0.015377534225979756 -0.0009502600365251598 0.003003757343493113 0.0 0.0
0.0 0.010517976435840293 0.009398975408644473 -0.008563159759149874 -0.0008358156494945819 0.001655676837982521 0.0 0.0
0.0 0.0049068245971848595 0.004543342611378468 -0.0038994405747362986 -0.0006439020366421723 0.0006882982867430773 0.0 0.0
0.0 0.0018455478008274416 0.0015693795879651545 -0.0012330315436159833 -0.00033634804434917097 0.00011032232179124544 0.0 0.0
0.0 0.00029919389411564844 0.00026164154994071754 -0.00018884375042606746 -7.279779951465015e-05 -1.2814454673507702e-05 0.0 0.0
0.0 -2.9520663621663554e-07 -2.065769921952232e-06 2.0424702275386905e-06 2.3299694413567812e-08 -5.506803854511584e-06 0.0 0.0
0.0 3.100018339834694e-07 1.1599485743989222e-06 -1.021645152546412e-06 -1.3830342185251114e-07 -7.244995134147093e-07 0.0 0.0
0.0 0.002921760263094609 0.001865618762345379 -0.0010407311290312454 -0.0008248876333141287 0.004885565496608308 0.0 0.0
0.0 0.01188908595969232 0.008758711119173502 -0.011569747804868594 0.0028110366856950787 0.0031897413502218275 0.0 0.0
0.0 0.009065168196247237 0.006509154161533549 -0.008775453569205203 0.002266299407671639 -0.0034495128675622704 0.0 0.0
0.0 0.00213427412106925 0.0012809035288471734 -0.0006978356494084814 -0.0005830678794386879 -0.00371876609459663 0.0 0.0
0.0 0.0 0.0 0.0 0.0 0.0 0.0 0.0
0.0 -3.3891835684309756e-06 -3.429786689577954e-06 2.7006365480850726e-06 7.291501414928794e-07 2.5283868770240963e-06 0.0 0.0
0.0 0.0001083545655979806 8.5496971340397e-05 -5.889043673145358e-05 -2.66065346089429e-05 7.007264643207352e-06 0.0 0.0
0.0 0.001127776633276583 0.0010048398814131092 -0.0007681436612724284 -0.00023669622014068012 -0.00019348262288087964 0.0 0.0
0.0 0.003853179489910218 0.003403819549656262 -0.002851057262806881 -0.0005527622868493825 -0.0008832807102686395 0.0 0.0
0.0 0.008541069053535834 0.007612116603285192 -0.006838085127519288 -0.0007740314757658886 -0.0022380748808614303 0.0 0.0
0.0 0.01560480404067592 0.013699519146100163 -0.01280289472584748 -0.0008966244202526842 -0.004076140902184701 0.0 0.0
0.0 0.02486396297502655 0.021622552143482382 -0.020640761052591904 -0.000981791090890455 -0.006307220479630716 0.0 0.0
0.0 0.03600617410951931 0.031208101650230347 -0.03014606747219611 -0.0010620341780342036 -0.00872383934321505 0.0 0.0
0.0 0.04895479805401989 0.04227969884774989 -0.041132708894485955 -0.001146989953263958 -0.011147179059509812 0.0 0.0
0.0 0.06327098991352581 0.05472617500503017 -0.05349086480397102 -0.0012353102010591761 -0.01354500261300685 0.0 0.0
0.0 0.07943057364562482 0.06845339441481609 -0.06713532312848852 -0.001318071286327545 -0.015966635449874447 0.0 0.0
0.0 0.09655235352407682 0.08331271487700787 -0.08192246225215558 -0.0013902526248522036 -0.01838450823190254 0.0 0.0
0.0 0.11453490559555161 0.09899856249184055 -0.09755151247511795 -0.0014470500167225496 -0.020582336217157396 0.0 0.0
0.0 0.1331025160774806 0.11497773385839279 -0.11349781201897913 -0.0014799218394136015 -0.02209740915985487 0.0 0.0
0.0 0.15092360599103014 0.13038826654046487 -0.1289112944773554 -0.0014769720631093734 -0.022325199961469883 0.0 0.0
0.0 0.16654618797992743 0.1439238122153077 -0.14249190314092242 -0.0014319090743853413 -0.02064307357613679 0.0 0.0
0.0 0.17805862604964137 0.15393160046602214 -0.15255990561047073 -0.0013716948555518268 -0.016167877529954622 0.0 0.0
0.0 0.18376714724409762 0.15821493277450402 -0.15721993530705233 -0.0009949974674515198 2.177511643219887e-14 0.0 0.0
0.0 0.1780586260496167 0.15393160046599863 -0.1525599056104475 -0.0013716948555513415 0.016167877530005866 0.0 0.0
0.0 0.16654618797987977 0.14392381221526493 -0.14249190314087964 -0.0014319090743852687 0.02064307357618717 0.0 0.0
0.0 0.15092360599095841 0.13038826654040245 -0.1289112944772922 -0.001476972063110167 0.022325199961498104 0.0 0.0
0.0 0.13310251607740223 0.11497773385832505 -0.11349781201891246 -0.0014799218394125674 0.02209740915985929 0.0 0.0
0.0 0.11453490559546177 0.09899856249176299 -0.09755151247504026 -0.0014470500167226442 0.020582336217148375 0.0 0.0
0.0 0.09655235352398905 0.08331271487693143 -0.08192246225207991 -0.0013902526248516021 0.018384508231894782 0.0 0.0
0.0 0.07943057364553796 0.06845339441474066 -0.06713532312841348 -0.0013180712863271925 0.015966635449866234 0.0 0.0
0.0 0.06327098991343702 0.05472617500495403 -0.053490864803895186 -0.001235310201058743 0.013545002612992473 0.0 0.0
0.0 0.048954798053944454 0.04227969884768461 -0.041132708894420895 -0.0011469899532637838 0.011147179059492512 0.0 0.0
0.0 0.03600617410945127 0.031208101650171616 -0.030146067472137644 -0.0010620341780339438 0.008723839343197651 0.0 0.0
0.0 0.024863962974971718 0.021622552143434854 -0.020640761052544924 -0.0009817910908899315 0.0063072204796145144 0.0 0.0
0.0 0.015604804040633292 0.013699519146063327 -0.012802894725811108 -0.0008966244202522144 0.004076140902173147 0.0 0.0
0.0 0.00854106905350795 0.007612116603260191 -0.006838085127495187 -0.0007740314757649967 0.002238074880852582 0.0 0.0
0.0 0.003853179489893184 0.003403819549641914 -0.00285105726279395 -0.000552762286847962 0.000883280710263761 0.0 0.0
0.0 0.0011277766332704212 0.0010048398814082745 -0.0007681436612686694 -0.00023669622013960473 0.0001934826228797735 0.0 0.0
0.0 0.00010835456559657322 8.549697133976194e-05 -5.889043673099922e-05 -2.6606534608762576e-05 -7.0072646431208745e-06 0.0 0.0
0.0 -3.3891835687535885e-06 -3.429786689536822e-06 2.700636548051608e-06 7.291501414852336e-07 -2.528386877001072e-06 0.0 0.0
0.0 0.0 0.0 0.0 0.0 0.0 0.0 0.0
0.0 0.0021342741210617234 0.0012809035288428184 -0.0006978356494055678 -0.0005830678794372531 0.00371876609458518 0.0 0.0
0.0 0.009065168196227174 0.006509154161517971 -0.008775453569185474 0.002266299407667498 0.0034495128675473955 0.0 0.0
0.0 0.0066944229254860205 0.004779412538585973 -0.006559307359875003 0.0017798948212890328 -0.0029651349653363043 0.0 0.0
0.0 0.0017063560257963735 0.0008489480675595531 -0.00045204945794759987 -0.0003968986096119517 -0.002692901498402226 0.0 0.0
0.0 0.0 0.0 0.0 0.0 0.0 0.0 0.0
0.0 -4.807423947083084e-07 -1.2844930781167749e-08 1.3282258577622287e-08 -4.373277964532519e-10 1.1259688076527991e-07 0.0 0.0
0.0 -8.200307738349378e-06 3.7832725173058246e-06 -9.539329002767572e-08 -3.6878792272781216e-06 1.7352544299297107e-05 0.0 0.0
0.0 0.0006510329520755608 0.0005477272293773612 -0.0004081585606066551 -0.00013956866877070666 -0.00018049178572622084 0.0 0.0
0.0 0.002834941502509881 0.0023740394165951964 -0.0019341732515089543 -0.00043986616508623653 -0.0009187746951279463 0.0 0.0
0.0 0.0066526146248204986 0.00587453318663924 -0.00517744806810034 -0.000697085118538908 -0.002452019745019291 0.0 0.0
0.0 0.012756153732617034 0.0110928141072754 -0.010258338386431363 -0.0008344757208440445 -0.004660262633063867 0.0 0.0
0.0 0.020771407429800076 0.01792358231066246 -0.017005373759495467 -0.0009182085511669888 -0.00729308498878351 0.0 0.0
0.0 0.03046415285647118 0.026175806011948907 -0.02518354042317187 -0.0009922655887770377 -0.010129272583980003 0.0 0.0
0.0 0.04161198355353065 0.035673362436494285 -0.03460281758189898 -0.0010705448545952955 -0.012966328807666613 0.0 0.0
0.0 0.054155297295005046 0.04632270488857534 -0.045170181181129206 -0.0011525237074461432 -0.01577314770989061 0.0 0.0
0.0 0.06764711182575157 0.05807855188458026 -0.056847789618999126 -0.001230762265581191 -0.01859985980944813 0.0 0.0
0.0 0.08260158116159497 0.07083776188753077 -0.06953897976587266 -0.00129878212165805 -0.0213959574966762 0.0 0.0
0.0 0.09843565037322473 0.08439173830200851 -0.08303809874363202 -0.0013536395583764768 -0.023938749801711214 0.0 0.0
0.0 0.11445178310625431 0.09834817863630177 -0.09695789515218431 -0.0013902834841174744 -0.025812405224844823 0.0 0.0
0.0 0.13021110934871638 0.11200709677622539 -0.11061016116372908 -0.001396935612496339 -0.026361676479561495 0.0 0.0
0.0 0.14432406777636766 0.12427713512897541 -0.12291023077215266 -0.0013669043568226204 -0.0245444509715121 0.0 0.0
0.0 0.1551309869335282 0.13374717689330984 -0.13242721024631496 -0.001319966646994839 -0.018934231723404183 0.0 0.0
0.0 0.16105902096775876 0.13811982368375145 -0.13730719965357954 -0.0008126240301718343 2.5306146067549662e-14 0.0 0.0
0.0 0.15513098693350819 0.1337471768932899 -0.13242721024629467 -0.0013199666469951453 0.01893423172346227 0.0 0.0
0.0 0.1443240677763231 0.12427713512893475 -0.12291023077211125 -0.0013669043568233883 0.024544450971567322 0.0 0.0
0.0 0.13021110934865163 0.1120070967761687 -0.11061016116367092 -0.0013969356124978157 0.026361676479594576 0.0 0.0
0.0 0.11445178310618892 0.09834817863624513 -0.09695789515212863 -0.001390283484116406 0.025812405224851263 0.0 0.0
0.0 0.0984356503731486 0.08439173830194265 -0.08303809874356631 -0.0013536395583763124 0.02393874980170042 0.0 0.0
0.0 0.08260158116151954 0.07083776188746559 -0.06953897976580761 -0.0012987821216579433 0.021395957496665622 0.0 0.0
0.0 0.06764711182567915 0.058078551884517264 -0.05684778961893693 -0.0012307622655802985 0.018599859809439047 0.0 0.0
0.0 0.05415529729493023 0.04632270488851088 -0.04517018118106502 -0.001152523707445826 0.015773147709874754 0.0 0.0
0.0 0.041611983553462815 0.0356733624364361 -0.03460281758184108 -0.001070544854595007 0.012966328807645956 0.0 0.0
0.0 0.030464152856414305 0.02617580601190033 -0.025183540423124002 -0.0009922655887763315 0.010129272583958779 0.0 0.0
0.0 0.020771407429751323 0.017923582310620974 -0.017005373759454205 -0.0009182085511667611 0.00729308498876411 0.0 0.0
0.0 0.012756153732580136 0.0110928141072436 -0.010258338386400067 -0.0008344757208435293 0.004660262633050107 0.0 0.0
0.0 0.00665261462479645 0.005874533186618348 -0.0051774480680804634 -0.0006970851185378866 0.002452019745009357 0.0 0.0
0.0 0.0028349415024956906 0.002374039416583678 -0.0019341732514989636 -0.0004398661650847149 0.0009187746951228109 0.0 0.0
0.0 0.0006510329520701186 0.0005477272293733473 -0.0004081585606035604 -0.00013956866876978696 0.00018049178572444454 0.0 0.0
0.0 -8.200307738762395e-06 3.783272517431589e-06 -9.539329017007653e-08 -3.6878792272615947e-06 -1.735254429878492e-05 0.0 0.0
0.0 -4.807423945850621e-07 -1.2844930880637278e-08 1.3282258654393942e-08 -4.373277737630854e-10 -1.1259688088797834e-07 0.0 0.0
0.0 0.0 0.0 0.0 0.0 0.0 0.0 0.0
0.0 0.001706356025788761 0.0008489480675557479 -0.0004520494579450354 -0.0003968986096107107 0.002692901498392 0.0 0.0
0.0 0.00669442292546902 0.004779412538572623 -0.006559307359857801 0.0017798948212851666 0.0029651349653258587 0.0 0.0
0.0 0.004906869170565344 0.0033923338507263795 -0.004734178712097468 0.0013418448613710871 -0.002328908273187256 0.0 0.0
0.0 0.0010627775663778526 0.0005351018942624595 -0.00027754925726937386 -0.00025755263699308597 -0.001857954594960844 0.0 0.0
0.0 0.0 0.0 0.0 0.0 0.0 0.0 0.0
0.0 -3.7223800030807255e-07 7.403963877525608e-08 -5.661264853655365e-08 -1.7426990238702445e-08 -1.2761025661379027e-07 0.0 0.0
0.0 -2.228739395356845e-05 -1.66576300831106e-05 1.363720994685207e-05 3.0204201362585357e-06 2.595702082799582e-05 0.0 0.0
0.0 0.00026248286608355803 0.00024093820341856075 -0.0001747841520175522 -6.615405140100866e-05 -0.00012360149736823398 0.0 0.0
0.0 0.0017127541535547908 0.0015131635636186067 -0.001197938286451454 -0.00031522527716715374 -0.0008542218580393074 0.0 0.0
0.0 0.00515210286652446 0.004224404800996909 -0.0036325667500851947 -0.0005918380509117067 -0.002354006222111268 0.0 0.0
0.0 0.009848899299112663 0.008541315005461061 -0.007783217846164467 -0.0007580971592965976 -0.004730303833659576 0.0 0.0
0.0 0.016764213940118882 0.014258124433244805 -0.013411666236189609 -0.0008464581970551859 -0.007600875768638155 0.0 0.0
0.0 0.024935056688303526 0.02116545561621059 -0.020249777106561416 -0.0009156785096491756 -0.010662388035509993 0.0 0.0
0.0 0.03427584343208034 0.02908464863379993 -0.02809719422569038 -0.0009874544081095247 -0.013721006773384626 0.0 0.0
0.0 0.044695835195176926 0.037937979960108885 -0.036874791370536106 -0.0010631885895727871 -0.01674011784082059 0.0 0.0
0.0 0.056255550842574505 0.047710991787875905 -0.04657590300137964 -0.0011350887864962792 -0.019772786763776858 0.0 0.0
0.0 0.06867781716541646 0.05836677951418272 -0.057167631324832824 -0.0011991481893499636 -0.022773931798353714 0.0 0.0
0.0 0.08184005556316867 0.06976932437126974 -0.06851685446546561 -0.0012524699058041127 -0.025509485080710038 0.0 0.0
0.0 0.09591841749144363 0.08164080467940336 -0.08034843936557501 -0.001292365313828297 -0.027611019448796948 0.0 0.0
0.0 0.10953607789253957 0.09351031402032457 -0.0921966291932121 -0.0013136848271125539 -0.028479386500025333 0.0 0.0
0.0 0.12202896203536923 0.10457456807775739 -0.10327272928209696 -0.001301838795660483 -0.026869671351468106 0.0 0.0
0.0 0.1323614405015233 0.1136544108467648 -0.11239269302789354 -0.0012617178188711377 -0.020889927820255717 0.0 0.0
0.0 0.13870960540188415 0.1182266223806832 -0.11762527182647299 -0.0006013505542100839 2.5130938996476004e-14 0.0 0.0
0.0 0.1323614405015075 0.11365441084674698 -0.11239269302787547 -0.0012617178188715744 0.02088992782031623 0.0 0.0
0.0 0.12202896203533307 0.10457456807772303 -0.10327272928206198 -0.0013018387956611548 0.026869671351526143 0.0 0.0
0.0 0.10953607789248873 0.09351031402027903 -0.0921966291931659 -0.001313684827113017 0.028479386500061234 0.0 0.0
0.0 0.09591841749138709 0.08164080467935456 -0.08034843936552702 -0.0012923653138275453 0.027611019448802357 0.0 0.0
0.0 0.0818400555631057 0.06976932437121536 -0.06851685446541156 -0.001252469905803836 0.025509485080699664 0.0 0.0
0.0 0.06867781716535223 0.05836677951412714 -0.05716763132477791 -0.0011991481893491843 0.022773931798341224 0.0 0.0
0.0 0.05625555084251359 0.047710991787822815 -0.04657590300132692 -0.0011350887864959279 0.019772786763766075 0.0 0.0
0.0 0.044695835195117786 0.03793797996005827 -0.036874791370486236 -0.001063188589572009 0.01674011784080606 0.0 0.0
0.0 0.03427584343202454 0.029084648633752687 -0.028097194225643513 -0.0009874544081091765 0.013721006773364075 0.0 0.0
0.0 0.024935056688254197 0.02116545561616954 -0.020249777106521167 -0.0009156785096483908 0.010662388035485366 0.0 0.0
0.0 0.016764213940077835 0.014258124433210026 -0.013411666236155261 -0.0008464581970547472 0.007600875768617243 0.0 0.0
0.0 0.009848899299084168 0.00854131500543648 -0.007783217846140406 -0.0007580971592960809 0.004730303833645553 0.0 0.0
0.0 0.00515210286650453 0.004224404800980933 -0.0036325667500702206 -0.0005918380509107102 0.0023540062221018114 0.0 0.0
0.0 0.0017127541535442675 0.001513163563610224 -0.0011979382864444313 -0.00031522527716579295 0.0008542218580339353 0.0 0.0
0.0 0.0002624828660810013 0.00024093820341693467 -0.0001747841520163703 -6.615405140056413e-05 0.00012360149736747857 0.0 0.0
0.0 -2.2287393954073816e-05 -1.6657630082703982e-05 1.3637209946541878e-05 3.0204201361620744e-06 -2.5957020827506145e-05 0.0 0.0
0.0 -3.7223800014552386e-07 7.403963877576741e-08 -5.661264853686419e-08 -1.7426990238900085e-08 1.2761025660836637e-07 0.0 0.0
0.0 0.0 0.0 0.0 0.0 0.0 0.0 0.0
0.0 0.0010627775663715712 0.0005351018942594764 -0.0002775492572673327 -0.00025755263699214336 0.0018579545949524777 0.0 0.0
0.0 0.004906869170552161 0.003392333850715966 -0.00473417871208368 0.0013418448613677107 0.002328908273180287 0.0 0.0
0.0 0.0032956365934965442 0.002289520281043405 -0.003242274299453357 0.000952754018409949 -0.0017412019602670464 0.0 0.0
0.0 0.0006696764359262773 0.0002963330716666953 -0.00013977868872387244 -0.0001565543829428225 -0.0011711239639032333 0.0 0.0
0.0 2.9041076945466384e-07 -3.4488798683329004e-09 2.6803405111441826e-09 7.685393571887485e-10 5.864590140692222e-08 0.0 0.0
0.0 -3.9933846218285653e-07 2.3010864123224606e-08 -1.7665084308602554e-08 -5.345779814626124e-09 -7.114747973550936e-08 0.0 0.0
0.0 -1.232422408209474e-05 -8.152756254064511e-06 6.513199463213123e-06 1.639556790851434e-06 1.722396717401991e-05 0.0 0.0
0.0 6.046931042259785e-05 5.426055034339019e-05 -3.656737638543287e-05 -1.7693173957957304e-05 -3.0103135731208624e-05 0.0 0.0
0.0 0.0009925596649209229 0.0008123959455193381 -0.0006265057335629847 -0.0001858902119563534 -0.0006624321930222351 0.0 0.0
0.0 0.003281723868962442 0.002767237354300552 -0.002310515478621347 -0.0004567218756792056 -0.0020713051584588917 0.0 0.0
0.0 0.007602100511397276 0.006082128024260596 -0.005427077445646949 -0.0006550505786136491 -0.004309104332199011 0.0 0.0
0.0 0.012691340276449328 0.010668611731140467 -0.009908617897024963 -0.0007599938341155024 -0.007205749600990941 0.0 0.0
0.0 0.019476477625778938 0.01621749178413488 -0.015388392007181506 -0.0008290997769533825 -0.010306598160359719 0.0 0.0
0.0 0.027044861226679325 0.02255365572838542 -0.021658689290227014 -0.0008949664381584244 -0.013398654423306611 0.0 0.0
0.0 0.03541789499689328 0.029611706371259667 -0.028647956317547962 -0.0009637500537116536 -0.016434341054859684 0.0 0.0
0.0 0.0446496481760925 0.03740603874291577 -0.03637616110628342 -0.0010298776366323827 -0.019473214670643803 0.0 0.0
0.0 0.054686854773971505 0.04594717337540152 -0.044858173753278364 -0.0010889996221231362 -0.022483621569985852 0.0 0.0
0.0 0.06576604429556533 0.05516963846055016 -0.05403151533293089 -0.0011381231276192988 -0.025258481424320783 0.0 0.0
0.0 0.07677612448091331 0.06491162832311248 -0.06372914106442747 -0.0011824872586850802 -0.027444705052010535 0.0 0.0
0.0 0.08854677088000923 0.07490805933222562 -0.07368619969273732 -0.0012218596394881628 -0.028579599329950064 0.0 0.0
0.0 0.09993129079145745 0.08472238581941927 -0.08349023847611405 -0.001232147343305296 -0.027510840118998355 0.0 0.0
0.0 0.10972250252848273 0.09347936103027912 -0.09228040648268238 -0.0011989545475967673 -0.022006691332680104 0.0 0.0
0.0 0.11673353162763268 0.09834614758244457 -0.09798559827470106 -0.00036054930774359487 2.434510926185851e-14 0.0 0.0
0.0 0.10972250252847023 0.09347936103026333 -0.09228040648266675 -0.0011989545475965832 0.02200669133274064 0.0 0.0
0.0 0.09993129079143244 0.08472238581939352 -0.08349023847608818 -0.0012321473433053926 0.02751084011905763 0.0 0.0
0.0 0.08854677087997168 0.07490805933219039 -0.07368619969270279 -0.0012218596394876196 0.028579599329986508 0.0 0.0
0.0 0.07677612448086318 0.06491162832306993 -0.0637291410643848 -0.00118248725868509 0.027444705052014337 0.0 0.0
0.0 0.06576604429551174 0.05516963846050458 -0.054031515332885055 -0.0011381231276195451 0.025258481424307856 0.0 0.0
0.0 0.05468685477391893 0.045947173375355754 -0.04485817375323336 -0.001088999622122373 0.02248362156997189 0.0 0.0
0.0 0.04464964817604525 0.03740603874287474 -0.03637616110624296 -0.00102987763663177 0.019473214670632802 0.0 0.0
0.0 0.03541789499684353 0.029611706371217614 -0.02864795631750647 -0.0009637500537111589 0.016434341054844474 0.0 0.0
0.0 0.02704486122663472 0.022553655728348436 -0.0216586892901904 -0.0008949664381580464 0.013398654423286685 0.0 0.0
0.0 0.019476477625738637 0.016217491784102107 -0.015388392007149415 -0.0008290997769526966 0.010306598160335516 0.0 0.0
0.0 0.012691340276415138 0.01066861173111242 -0.009908617896997238 -0.000759993834115182 0.007205749600969312 0.0 0.0
0.0 0.007602100511373496 0.006082128024241948 -0.005427077445629254 -0.0006550505786126885 0.0043091043321862735 0.0 0.0
0.0 0.0032817238689473675 0.002767237354288437 -0.002310515478610343 -0.00045672187567809123 0.0020713051584501313 0.0 0.0
0.0 0.0009925596649133504 0.0008123959455139703 -0.0006265057335587239 -0.00018589021195524553 0.000662432193017597 0.0 0.0
0.0 6.0469310421148665e-05 5.426055034283025e-05 -3.656737638508056e-05 -1.7693173957749886e-05 3.010313573095138e-05 0.0 0.0
0.0 -1.232422408272819e-05 -8.152756254058634e-06 6.5131994632060255e-06 1.639556790852613e-06 -1.7223967173927373e-05 0.0 0.0
0.0 -3.9933846203843063e-07 2.3010864114477826e-08 -1.766508430182229e-08 -5.345779812654833e-09 7.114747970917023e-08 0.0 0.0
0.0 2.9041076910978675e-07 -3.44887986405181e-09 2.6803405077244864e-09 7.685393563274542e-10 -5.8645901335916544e-08 0.0 0.0
0.0 0.000669676435921474 0.00029633307166470897 -0.0001397786887225372 -0.00015655438294217124 0.001171123963897052 0.0 0.0
0.0 0.003295636593486249 0.0022895202810353727 -0.0032422742994424494 0.0009527540184070753 0.0017412019602618494 0.0 0.0
0.0 0.002480423248571157 0.0013895134339009356 -0.001993858781632958 0.0006043453477320208 -0.0011857233216968463 0.0 0.0
0.0 0.00027488375021343707 0.00013310872423792994 -4.859067347291099e-05 -8.4518050765019e-05 -0.0006432466477116319 0.0 0.0
0.0 6.822284121840383e-07 3.644235292088973e-08 -3.702447949796056e-08 5.821265770714878e-10 -7.270786083129384e-07 0.0 0.0
0.0 -6.960298916153431e-07 3.465862954722512e-08 -2.6892963628521124e-08 -7.76566591870429e-09 -2.2145477691640688e-07 0.0 0.0
0.0 -5.973766615329561e-06 -4.27751298697089e-06 3.388097312784897e-06 8.894156741859901e-07 1.4338536715811144e-05 0.0 0.0
0.0 -1.6059458055223983e-05 -9.006669439342757e-06 8.711886675199128e-06 2.9478276414360477e-07 2.400233336905564e-05 0.0 0.0
0.0 0.0004305239490283512 0.0003206910244762343 -0.0002422714275132314 -7.841959696300233e-05 -0.00040493477444657997 0.0 0.0
0.0 0.0018958646023677554 0.001522749108951268 -0.0012327000448134518 -0.0002900490641378154 -0.0015995066526033872 0.0 0.0
0.0 0.004809045522139964 0.0038403792861438006 -0.003330017593538429 -0.0005103616926053733 -0.0035418336892620757 0.0 0.0
0.0 0.009228994503123023 0.007205442048324272 -0.006562340471696832 -0.0006431015766274332 -0.006126961851092085 0.0 0.0
0.0 0.014117973221844476 0.011377902496268098 -0.010656366202587524 -0.0007215362936805675 -0.009042529056565718 0.0 0.0
0.0 0.019839784235982018 0.016130680080527534 -0.01534475577958639 -0.0007859243009411677 -0.011966181808842541 0.0 0.0
0.0 0.026235036544718725 0.021398389815246124 -0.020549744323358543 -0.0008486454918875752 -0.014830753346900935 0.0 0.0
0.0 0.03321446255606308 0.027214256652618396 -0.026306869205562272 -0.000907387447056106 -0.017676618367040355 0.0 0.0
0.0 0.04097480516642348 0.03363204645682213 -0.0326704937429199 -0.0009615527139022424 -0.020505307729235586 0.0 0.0
0.0 0.04929170447838685 0.040661281601022996 -0.039653228293083494 -0.0010080533079394641 -0.023153070881178635 0.0 0.0
0.0 0.058364292875445895 0.04821633842506854 -0.04716565521855982 -0.001050683206508687 -0.025281354890484505 0.0 0.0
0.0 0.0676078227015992 0.05622473713955552 -0.05511845616996705 -0.0011062809695884376 -0.026530812177231192 0.0 0.0
0.0 0.07709459339415209 0.06464521638405922 -0.06349351570221273 -0.0011517006818464223 -0.02622732512913786 0.0 0.0
0.0 0.0866605335486404 0.07303852576435825 -0.07190381472831911 -0.0011347110360391476 -0.0221241923453242 0.0 0.0
0.0 0.09466762295623343 0.07827911865273428 -0.07819327539320482 -8.584325952951188e-05 2.2355381434913113e-14 0.0 0.0
0.0 0.08666053354863376 0.07303852576434663 -0.07190381472830736 -0.0011347110360392398 0.02212419234537978 0.0 0.0
0.0 0.07709459339413681 0.06464521638404068 -0.06349351570219466 -0.0011517006818460116 0.02622732512919494 0.0 0.0
0.0 0.06760782270156891 0.05622473713952677 -0.05511845616993868 -0.0011062809695881093 0.026530812177263545 0.0 0.0
0.0 0.058364292875411665 0.04821633842503952 -0.047165655218531326 -0.0010506832065081656 0.02528135489048884 0.0 0.0
0.0 0.04929170447834302 0.04066128160098672 -0.039653228293047155 -0.0010080533079396136 0.023153070881162384 0.0 0.0
0.0 0.04097480516638281 0.03363204645678758 -0.03267049374288568 -0.0009615527139018888 0.02050530772922115 0.0 0.0
0.0 0.03321446255602739 0.02721425665258788 -0.02630686920553218 -0.0009073874470557098 0.017676618367030564 0.0 0.0
0.0 0.026235036544683635 0.021398389815217078 -0.020549744323330062 -0.000848645491887002 0.014830753346887968 0.0 0.0
0.0 0.019839784235947587 0.01613068008049954 -0.015344755779558534 -0.0007859243009409999 0.011966181808823407 0.0 0.0
0.0 0.014117973221812572 0.011377902496243117 -0.010656366202563208 -0.0007215362936798894 0.009042529056543055 0.0 0.0
0.0 0.009228994503098446 0.007205442048305467 -0.006562340471678159 -0.0006431015766273064 0.00612696185107406 0.0 0.0
0.0 0.004809045522121696 0.0038403792861296205 -0.003330017593525294 -0.0005103616926043312 0.0035418336892498402 0.0 0.0
0.0 0.0018958646023571678 0.0015227491089431441 -0.0012327000448064183 -0.00029004906413672557 0.0015995066525957562 0.0 0.0
0.0 0.00043052394902429885 0.00032069102447348884 -0.00024227142751108644 -7.841959696240241e-05 0.0004049347744431023 0.0 0.0
0.0 -1.6059458055736932e-05 -9.006669439110172e-06 8.711886675022349e-06 2.9478276408788906e-07 -2.4002333368321126e-05 0.0 0.0
0.0 -5.973766617038199e-06 -4.277512986900758e-06 3.388097312732311e-06 8.894156741684307e-07 -1.4338536715751028e-05 0.0 0.0
0.0 -6.960298919481074e-07 3.465862955708506e-08 -2.6892963635257657e-08 -7.765665921827302e-09 2.2145477704423442e-07 0.0 0.0
0.0 6.822284119957999e-07 3.644235294779222e-08 -3.702447952529895e-08 5.821265775071689e-10 7.270786088953153e-07 0.0 0.0
0.0 0.00027488375021062574 0.00013310872423679657 -4.859067347219499e-05 -8.451805076460182e-05 0.0006432466477073308 0.0 0.0
0.0 0.0024804232485619287 0.0013895134338952643 -0.0019938587816250106 0.0006043453477297471 0.0011857233216930707 0.0 0.0
0.0 0.001268887162910243 0.0007563429386095508 -0.0010992526620399684 0.0003429097234304179 -0.0007840620473985185 0.0 0.0
0.0 8.681112290794511e-05 2.7995933275497464e-05 1.3507864318264818e-05 -4.150379759376215e-05 -0.00025178910417340784 0.0 0.0
0.0 1.9730157292729443e-06 1.057376228303568e-10 9.927784400753716e-09 -1.0033522023583151e-08 5.337208399617691e-07 0.0 0.0
0.0 1.2269389112310503e-06 -9.506943231517825e-08 6.609726744491236e-08 2.8972164870265753e-08 1.2542026362317004e-06 0.0 0.0
0.0 -6.9144676670653115e-06 -2.188910445646506e-06 1.727301232524635e-06 4.616092131218722e-07 1.1562966145318563e-05 0.0 0.0
0.0 -2.2669651847056044e-05 -9.431209035385215e-06 7.935287285893508e-06 1.495921749491732e-06 2.202294704692658e-05 0.0 0.0
0.0 0.00013420941705436334 5.955306838551959e-05 -4.4328395152701724e-05 -1.522467323281811e-05 -0.00015816035904293112 0.0 0.0
0.0 0.0009145644647787137 0.0005673620573953157 -0.00045154386727341335 -0.00011581819012190266 -0.0009700376375918229 0.0 0.0
0.0 0.0026068074443010374 0.0018780221320729043 -0.0015785568913611145 -0.00029946524071178824 -0.0024887338252790187 0.0 0.0
0.0 0.0054310313397499775 0.00400076047089952 -0.0035416176525186064 -0.0004591428183809122 -0.004514667519839437 0.0 0.0
0.0 0.008798952177780393 0.0067399657759722505 -0.006176874193296106 -0.0005630915826761469 -0.006920858892353671 0.0 0.0
0.0 0.012819963688329224 0.009886520171927572 -0.009252262549118208 -0.0006342576228093536 -0.009417188723550261 0.0 0.0
0.0 0.017193073945011083 0.013368363778320746 -0.012672233909726875 -0.0006961298685938681 -0.011922554208069442 0.0 0.0
0.0 0.021975083317417394 0.01721484016124726 -0.01646606083641073 -0.00074877932483654 -0.014407024998691882 0.0 0.0
0.0 0.02731381555775361 0.021502665381316052 -0.020705329274998345 -0.0007973361063176963 -0.016864557674951687 0.0 0.0
0.0 0.033275739188697785 0.026310810623676316 -0.025467928274101832 -0.0008428823495744848 -0.019235236009712022 0.0 0.0
0.0 0.03978309720658403 0.03165877193771319 -0.03077251646381888 -0.000886255473894311 -0.021251194897740352 0.0 0.0
0.0 0.046614724030927514 0.037563388815144476 -0.036621074597579045 -0.0009423142175654665 -0.02248973711123772 0.0 0.0
0.0 0.05434833310802522 0.04430198467188833 -0.04327462537780563 -0.0010273592940826723 -0.02270568176180003 0.0 0.0
0.0 0.06346985572597577 0.05211750169377807 -0.05105290090052457 -0.001064600793253507 -0.02080490923817384 0.0 0.0
0.0 0.07260274294739193 0.05779214018126878 -0.05801778868515712 0.0002256485038883136 1.9974473464134945e-14 0.0 0.0
0.0 0.06346985572597318 0.05211750169376925 -0.05105290090051495 -0.0010646007932543075 0.02080490923822119 0.0 0.0
0.0 0.054348333108017705 0.04430198467187602 -0.04327462537779398 -0.0010273592940820285 0.022705681761852496 0.0 0.0
0.0 0.04661472403090595 0.037563388815124645 -0.03662107459755917 -0.0009423142175654667 0.02248973711126392 0.0 0.0
0.0 0.039783097206561285 0.031658771937695236 -0.030772516463801584 -0.0008862554738936633 0.021251194897740012 0.0 0.0
0.0 0.033275739188668725 0.026310810623653272 -0.025467928274078486 -0.0008428823495747666 0.019235236009696625 0.0 0.0
0.0 0.027313815557726617 0.021502665381294254 -0.020705329274976494 -0.0007973361063177767 0.01686455767493859 0.0 0.0
0.0 0.021975083317393753 0.017214840161227398 -0.016466060836391405 -0.000748779324836008 0.014407024998684142 0.0 0.0
0.0 0.01719307394498839 0.013368363778302509 -0.012672233909709375 -0.0006961298685931243 0.01192255420805859 0.0 0.0
0.0 0.012819963688305975 0.009886520171910359 -0.009252262549101142 -0.0006342576228092069 0.009417188723534703 0.0 0.0
0.0 0.008798952177757382 0.0067399657759553006 -0.006176874193279568 -0.0005630915826757295 0.0069208588923336915 0.0 0.0
0.0 0.005431031339734942 0.004000760470888793 -0.003541617652508552 -0.00045914281838024243 0.004514667519826901 0.0 0.0
0.0 0.0026068074442899226 0.0018780221320649235 -0.0015785568913539343 -0.000299465240710989 0.0024887338252701746 0.0 0.0
0.0 0.0009145644647720821 0.0005673620573910431 -0.00045154386726992335 -0.00011581819012112014 0.0009700376375854199 0.0 0.0
0.0 0.0001342094170513145 5.9553068384807024e-05 -4.432839515217277e-05 -1.5224673232634138e-05 0.00015816035904095305 0.0 0.0
0.0 -2.2669651847053523e-05 -9.431209034853539e-06 7.93528728548384e-06 1.495921749369659e-06 -2.2022947044901824e-05 0.0 0.0
0.0 -6.914467666814795e-06 -2.1889104455168383e-06 1.727301232429954e-06 4.6160921308689586e-07 -1.1562966144100799e-05 0.0 0.0
0.0 1.2269389105472027e-06 -9.50694323581781e-08 6.60972674769501e-08 2.8972164881228854e-08 -1.2542026366638767e-06 0.0 0.0
0.0 1.97301572920699e-06 1.0573764054115182e-10 9.927784379463926e-09 -1.0033522020004689e-08 -5.33720839347968e-07 0.0 0.0
0.0 8.681112290520403e-05 2.799593327488956e-05 1.3507864318616154e-05 -4.150379759350548e-05 0.0002517891041707253 0.0 0.0
0.0 0.0012688871629037866 0.0007563429386058976 -0.0010992526620347 0.0003429097234288015 0.0007840620473957331 0.0 0.0
0.0 0.0005970153264772567 0.00031374177413331033 -0.0004599141622894152 0.00014617238815610518 -0.0004018028306436069 0.0 0.0
0.0 -2.0683805652590948e-05 -1.6877637011926583e-05 3.400445873966601e-05 -1.712682172773947e-05 -2.2502318695304676e-05 0.0 0.0
0.0 2.4725925409103566e-06 2.8596866063473517e-08 -7.167709072493553e-08 4.30802246614625e-08 -2.2379748891546355e-06 0.0 0.0
0.0 9.507241628493506e-07 -7.24371590716904e-08 6.379484468985353e-08 8.642314381834917e-09 -1.208242329618044e-06 0.0 0.0
0.0 -4.819870493333839e-06 -9.017685520617274e-07 7.464634638123545e-07 1.5530508824938117e-07 8.476828652096646e-06 0.0 0.0
0.0 -7.096565930164939e-06 -4.019864372208491e-06 3.4080861202828862e-06 6.117782519255719e-07 1.6041917279302697e-05 0.0 0.0
0.0 5.5687497554931315e-05 1.4297873190244531e-06 -7.63842878397578e-07 -6.659444406268159e-07 -7.507446320934636e-05 0.0 0.0
0.0 0.0002743670019353766 6.543887894197434e-05 -5.502619781596056e-05 -1.0412681126013841e-05 -0.0004164427157715259 0.0 0.0
0.0 0.0009039145514457133 0.00038781545796615644 -0.00034077149958863855 -4.704395837751737e-05 -0.0012607901547608805 0.0 0.0
0.0 0.0021863387561082107 0.0012032070253455757 -0.0010780942235498329 -0.00012511280179574357 -0.002635418501716578 0.0 0.0
0.0 0.004171709738640599 0.0024733724257590952 -0.0022538493063698414 -0.00021952311938925353 -0.0043254039271491025 0.0 0.0
0.0 0.0062422805287317305 0.0039955341737917946 -0.003692856429592105 -0.00030267774419969525 -0.006203510775067414 0.0 0.0
0.0 0.008688713179098565 0.005688279397840857 -0.005314492593508854 -0.00037378680433199893 -0.008186271940385046 0.0 0.0
0.0 0.011428310789581628 0.007578018479801593 -0.007144752376422023 -0.00043326610337956947 -0.010235759059424308 0.0 0.0
0.0 0.014480067084764073 0.009739226945141607 -0.009250614473138578 -0.0004886124720030332 -0.012344191231929095 0.0 0.0
0.0 0.01799118609973631 0.012294241814096267 -0.011748974595097215 -0.0005452672189990524 -0.014490232555016084 0.0 0.0
0.0 0.022129121278085945 0.01539498942504917 -0.014789304399417117 -0.0006056850256320555 -0.01650562549441331 0.0 0.0
0.0 0.0269309779742435 0.019171541299295453 -0.018504224617999006 -0.0006673166812964424 -0.0178837822104742 0.0 0.0
0.0 0.03244787931147596 0.023920551499605352 -0.023163656320794514 -0.0007568951788108593 -0.018104109010191313 0.0 0.0
0.0 0.039870980617565104 0.0305811319579257 -0.02966327054666158 -0.0009178614112640797 -0.017639002965455466 0.0 0.0
0.0 0.05159551705075815 0.036611093522344394 -0.03720079365314333 0.0005897001307989477 1.696125878636323e-14 0.0 0.0
0.0 0.03987098061756841 0.03058113195792095 -0.029663270546656052 -0.0009178614112649289 0.017639002965495258 0.0 0.0
0.0 0.032447879311471486 0.02392055149959744 -0.02316365632078672 -0.0007568951788107436 0.018104109010229807 0.0 0.0
0.0 0.026930977974229095 0.01917154129928413 -0.018504224617987813 -0.0006673166812963007 0.017883782210489394 0.0 0.0
0.0 0.02212912127806729 0.015394989425037763 -0.014789304399406704 -0.0006056850256310882 0.0165056254944071 0.0 0.0
0.0 0.017991186099721976 0.01229424181408684 -0.011748974595087554 -0.0005452672189992809 0.014490232555003655 0.0 0.0
0.0 0.014480067084752666 0.009739226945133463 -0.00925061447313023 -0.0004886124720032396 0.012344191231920126 0.0 0.0
0.0 0.011428310789568791 0.0075780184797931685 -0.007144752376413719 -0.0004332661033794568 0.010235759059417194 0.0 0.0
0.0 0.008688713179085738 0.005688279397833186 -0.0053144925935012105 -0.0003737868043319816 0.008186271940375125 0.0 0.0
0.0 0.0062422805287195866 0.0039955341737848045 -0.003692856429585301 -0.0003026777441995014 0.006203510775055284 0.0 0.0
0.0 0.0041717097386275775 0.002473372425751577 -0.0022538493063626133 -0.00021952311938896327 0.004325403927135186 0.0 0.0
0.0 0.0021863387561001004 0.0012032070253411807 -0.0010780942235456233 -0.0001251128017955579 0.002635418501708447 0.0 0.0
0.0 0.0009039145514409734 0.00038781545796359225 -0.0003407714995864103 -4.704395837718113e-05 0.001260790154754991 0.0 0.0
0.0 0.00027436700193267675 6.54388789411296e-05 -5.5026197815181795e-05 -1.0412681125947859e-05 0.00041644271576803766 0.0 0.0
0.0 5.568749755365109e-05 1.429787319033349e-06 -7.638428783854331e-07 -6.659444406479058e-07 7.507446320881442e-05 0.0 0.0
0.0 -7.096565930330061e-06 -4.019864371921775e-06 3.4080861200609505e-06 6.117782518608256e-07 -1.6041917277393945e-05 0.0 0.0
0.0 -4.819870493291696e-06 -9.017685520336411e-07 7.464634637941754e-07 1.55305088239462e-07 -8.476828651226389e-06 0.0 0.0
0.0 9.507241628868414e-07 -7.243715908792726e-08 6.37948447075881e-08 8.642314380339862e-09 1.2082423304795326e-06 0.0 0.0
0.0 2.4725925408598997e-06 2.8596866070499768e-08 -7.167709074492246e-08 4.3080224674419204e-08 2.237974889993811e-06 0.0 0.0
0.0 -2.0683805653863872e-05 -1.6877637012036023e-05 3.400445873966885e-05 -1.7126821727632755e-05 2.2502318694227433e-05 0.0 0.0
0.0 0.0005970153264732435 0.0003137417741314236 -0.0004599141622866356 0.00014617238815521117 0.0004018028306417548 0.0 0.0
0.0 0.00012898308359088285 7.395545658177778e-05 -0.00011051054742299045 3.6555090841212575e-05 -0.00011861881588406275 0.0 0.0
0.0 -2.0959802570785668e-05 -1.1855008269351083e-05 1.6737653022023753e-05 -4.882644752672649e-06 2.1881436256825887e-05 0.0 0.0
0.0 2.9115027224353316e-06 1.5128584516986734e-07 -1.0293580541629709e-07 -4.8350039753574126e-08 3.834720462053995e-06 0.0 0.0
0.0 2.3425169840805704e-06 -1.889000800732422e-07 1.5371316453948445e-07 3.518691553376036e-08 -2.3340300424064584e-06 0.0 0.0
0.0 -8.105976114441125e-07 -2.7179571778123073e-07 2.664707762738047e-07 5.324941507423393e-09 2.685379252845239e-06 0.0 0.0
0.0 1.8930756712139811e-06 -1.046928194862508e-06 1.0842935056087386e-06 -3.736531074622956e-08 4.448561127218611e-06 0.0 0.0
0.0 6.395926831473529e-05 -1.7041770515880746e-06 1.7044394284667753e-06 -2.6237687871641983e-10 -8.703733176144026e-05 0.0 0.0
0.0 0.00018369808279582243 -1.2588731862471901e-06 1.2213910531211659e-06 3.748213312608853e-08 -0.00031592357942432906 0.0 0.0
0.0 0.00042615507444284474 -2.7096418587958064e-07 2.4790848339686136e-07 2.3055702482672695e-08 -0.0006667812212824495 0.0 0.0
0.0 0.0007068382353781432 3.9688607556668024e-08 -1.4576232391186078e-08 -2.5112375165603918e-08 -0.0013430287017858328 0.0 0.0
0.0 0.0012986786910766882 4.988980411287731e-07 -6.09713191719881e-07 1.1081515059112817e-07 -0.0024673150543562004 0.0 0.0
0.0 0.0021407942557124028 -6.913198704149807e-06 9.105883430775855e-06 -2.1926847266256957e-06 -0.004134752875934383 0.0 0.0
0.0 0.00332745928369861 -2.1941591616925953e-05 2.5729906166070563e-05 -3.7883145491448807e-06 -0.005970156380294328 0.0 0.0
0.0 0.004693414091999119 -3.296666965630333e-05 3.500749518990133e-05 -2.0408255335964257e-06 -0.007913036518345672 0.0 0.0
0.0 0.00621582136933561 2.4410787044736666e-05 -3.4050905521491e-05 9.640118476754824e-06 -0.009971934592550672 0.0 0.0
0.0 0.00785607546393686 0.000300630402378073 -0.00033651716360491086 3.588676122683737e-05 -0.012144838170714836 0.0 0.0
0.0 0.00965928211779827 0.0010539282487844728 -0.0011363967484941228 8.246849970965276e-05 -0.014363318382667105 0.0 0.0
0.0 0.011554996717373443 0.0025194118074789583 -0.0027191948122755726 0.00019978300479660553 -0.01642811201268943 0.0 0.0
0.0 0.014167541824151697 0.004395342329365621 -0.004781003700551583 0.0003856613711859683 -0.017926637764969194 0.0 0.0
0.0 0.020546198285247636 0.008773461638186947 -0.008525325198848056 -0.00024813643933888595 -0.018408162594707116 0.0 0.0
0.0 0.036510305554011774 0.015506818933974072 -0.016673530598270647 0.0011667116642965708 1.4123251179665175e-14 0.0 0.0
0.0 0.020546198285255047 0.008773461638186606 -0.008525325198846795 -0.00024813643933980036 0.018408162594732522 0.0 0.0
0.0 0.014167541824145868 0.004395342329362739 -0.004781003700549322 0.0003856613711865786 0.017926637764978826 0.0 0.0
0.0 0.011554996717361727 0.0025194118074773463 -0.0027191948122742317 0.00019978300479688515 0.016428112012685354 0.0 0.0
0.0 0.009659282117784305 0.0010539282487849223 -0.0011363967484950225 8.246849971010244e-05 0.014363318382654248 0.0 0.0
0.0 0.007856075463931536 0.0003006304023791997 -0.00033651716360576353 3.588676122656383e-05 0.012144838170704593 0.0 0.0
0.0 0.006215821369328015 2.4410787046849668e-05 -3.4050905523579826e-05 9.640118476729833e-06 0.009971934592541734 0.0 0.0
0.0 0.00469341409199104 -3.296666965348159e-05 3.5007495187000114e-05 -2.040825533517496e-06 0.007913036518335411 0.0 0.0
0.0 0.0033274592836892132 -2.19415916138498e-05 2.572990616259537e-05 -3.788314548744959e-06 0.005970156380281057 0.0 0.0
0.0 0.002140794255702901 -6.913198701846582e-06 9.10588342818659e-06 -2.1926847263412552e-06 0.004134752875922144 0.0 0.0
0.0 0.0012986786910697537 4.988980417341645e-07 -6.097131925537002e-07 1.1081515081984061e-07 0.0024673150543453167 0.0 0.0
0.0 0.0007068382353762545 3.9688607556396974e-08 -1.457623232558507e-08 -2.5112375230767857e-08 0.0013430287017852914 0.0 0.0
0.0 0.0004261550744409274 -2.7096418576155507e-07 2.4790848332384373e-07 2.3055702437543626e-08 0.000666781221279372 0.0 0.0
0.0 0.00018369808279451678 -1.2588731862426858e-06 1.2213910531368283e-06 3.748213310585577e-08 0.0003159235794220289 0.0 0.0
0.0 6.395926831368842e-05 -1.704177051561374e-06 1.7044394284270952e-06 -2.6237686569426765e-10 8.703733176132139e-05 0.0 0.0
0.0 1.8930756703166097e-06 -1.0469281948636611e-06 1.0842935056087168e-06 -3.736531074506421e-08 -4.4485611268180575e-06 0.0 0.0
0.0 -8.105976121168191e-07 -2.717957178165062e-07 2.664707763078692e-07 5.324941508639778e-09 -2.6853792520327483e-06 0.0 0.0
0.0 2.34251698414816e-06 -1.889000801348727e-07 1.5371316459450797e-07 3.518691554036491e-08 2.3340300432763524e-06 0.0 0.0
0.0 2.9115027217044557e-06 1.5128584516387527e-07 -1.0293580542539941e-07 -4.8350039738467095e-08 -3.834720461298411e-06 0.0 0.0
0.0 -2.0959802570891554e-05 -1.1855008268991126e-05 1.673765302160413e-05 -4.882644752613031e-06 -2.1881436255857563e-05 0.0 0.0
0.0 0.000128983083588852 7.39554565811863e-05 -0.00011051054742217025 3.6555090840984154e-05 0.00011861881588302902 0.0 0.0
0.0 2.805794667223326e-06 -2.83745520371758e-07 6.367358028521484e-08 2.2007194008653e-07 1.339829950298069e-06 0.0 0.0
0.0 -3.4626727493309854e-07 -1.163971895405546e-09 5.5694113881348385e-08 -5.4530141985945816e-08 1.136412295748054e-06 0.0 0.0
0.0 8.444041518939461e-07 1.0664266465431332e-07 -1.5387961562027614e-07 4.7236950965962433e-08 -1.5472887634453096e-06 0.0 0.0
0.0 4.37802921258321e-06 -1.9635368048242676e-07 1.4750333908944044e-07 4.885034139298666e-08 -3.106271027440374e-06 0.0 0.0
0.0 2.054034850030352e-06 -3.9561918995813917e-07 3.764569848394332e-07 1.916220511870601e-08 -3.475042614481844e-06 0.0 0.0
0.0 2.0740248314845096e-06 -3.8233789293350606e-07 6.096372212234652e-07 -2.272993282899112e-07 -8.62696211663218e-06 0.0 0.0
0.0 8.349545063602214e-05 -5.997834315596016e-06 5.08927567455279e-06 9.085586410431363e-07 -8.805180059019768e-05 0.0 0.0
0.0 0.0002887941897899413 -7.085739790961944e-05 5.9848783443100176e-05 1.100861446651929e-05 -0.0004299421091154806 0.0 0.0
0.0 0.000908012257924144 -0.0003896386107787201 0.0003422887893967454 4.7349821381975094e-05 -0.001267822383959391 0.0 0.0
0.0 0.002184428609360924 -0.0012022431173710118 0.0010771874112130964 0.00012505570615791518 -0.002635193374178747 0.0 0.0
0.0 0.004185165771526978 -0.002475462830489166 0.0022557646947390614 0.00021969813575010197 -0.004322981474293159 0.0 0.0
0.0 0.006280482661353993 -0.004020054677315843 0.0037141462797225396 0.00030590839759329805 -0.006209123638616216 0.0 0.0
0.0 0.008755958581766594 -0.005748954235888794 0.005370622703833847 0.0003783315320549456 -0.008191180348470347 0.0 0.0
0.0 0.011497084550111183 -0.007648678162185906 0.0072172666521626615 0.00043141151002324925 -0.010228982937559706 0.0 0.0
0.0 0.014336700103905317 -0.009644094711175291 0.009182741038119478 0.00046135367305580457 -0.012340777597815208 0.0 0.0
0.0 0.0171246382949535 -0.011527620937140765 0.011066348076123167 0.00046127286101759764 -0.014585607314577557 0.0 0.0
0.0 0.019464263234422664 -0.012937563897215194 0.012514167182864085 0.00042339671435111844 -0.016998207492470423 0.0 0.0
0.0 0.02113788087741465 -0.013406866770515282 0.013071165801078859 0.00033570096943643556 -0.019653088690628946 0.0 0.0
0.0 0.021232768972582146 -0.012393482207857959 0.01225700270538815 0.00013647950246980297 -0.022505550483293384 0.0 0.0
0.0 0.017297155167177645 -0.008975940467681114 0.009364807329897498 -0.00038886686221637943 -0.024468184121544168 0.0 0.0
0.0 0.0352308174036119 -0.005067113518263841 0.002550834518616002 0.0025162789996478405 1.642349450881042e-14 0.0 0.0
0.0 0.0172971551671843 -0.008975940467682016 0.009364807329898132 -0.0003888668622161169 0.024468184121561688 0.0 0.0
0.0 0.021232768972581344 -0.012393482207854627 0.01225700270538507 0.00013647950246955777 0.022505550483312105 0.0 0.0
0.0 0.021137880877399054 -0.01340686677050441 0.013071165801068476 0.0003357009694359334 0.019653088690627867 0.0 0.0
0.0 0.019464263234402368 -0.012937563897200601 0.012514167182849586 0.00042339671435103116 0.01699820749245973 0.0 0.0
0.0 0.017124638294934862 -0.011527620937127711 0.011066348076110361 0.000461272861017356 0.01458560731456275 0.0 0.0
0.0 0.014336700103888598 -0.009644094711161715 0.00918274103810649 0.0004613536730552226 0.012340777597803393 0.0 0.0
0.0 0.011497084550093618 -0.007648678162172512 0.007217266652149643 0.00043141151002286106 0.010228982937547293 0.0 0.0
0.0 0.00875595858174592 -0.005748954235873804 0.005370622703819539 0.0003783315320542702 0.008191180348455774 0.0 0.0
0.0 0.006280482661333784 -0.004020054677301537 0.003714146279709195 0.0003059083975923385 0.006209123638599667 0.0 0.0
0.0 0.004185165771508941 -0.0024754628304772524 0.0022557646947283247 0.0002196981357489276 0.00432298147427814 0.0 0.0
0.0 0.002184428609351716 -0.0012022431173654253 0.0010771874112078406 0.00012505570615758572 0.00263519337417081 0.0 0.0
0.0 0.0009080122579196826 -0.0003896386107764482 0.0003422887893947284 4.734982138171982e-05 0.0012678223839544755 0.0 0.0
0.0 0.00028879418978741716 -7.08573979089162e-05 5.9848783442569466e-05 1.10086144663468e-05 0.0004299421091125977 0.0 0.0
0.0 8.34954506341745e-05 -5.9978343155644065e-06 5.089275674517532e-06 9.085586410468908e-07 8.805180058921591e-05 0.0 0.0
0.0 2.074024831139158e-06 -3.823378931898047e-07 6.096372214222593e-07 -2.2729932823245636e-07 8.626962118236702e-06 0.0 0.0
0.0 2.0540348495775154e-06 -3.9561919006628193e-07 3.764569849318175e-07 1.9162205134453165e-08 3.4750426153732348e-06 0.0 0.0
0.0 4.3780292121038165e-06 -1.963536805927736e-07 1.4750333918046964e-07 4.885034141230275e-08 3.106271028413872e-06 0.0 0.0
0.0 8.444041514143479e-07 1.0664266464274776e-07 -1.5387961561806838e-07 4.723695097531611e-08 1.547288763932826e-06 0.0 0.0
0.0 -3.4626727501464886e-07 -1.163971982945738e-09 5.5694113978092034e-08 -5.453014199514949e-08 -1.1364122957753312e-06 0.0 0.0
0.0 2.805794665799389e-06 -2.8374551995093253e-07 6.367357966039889e-08 2.2007194029055221e-07 -1.3398299493960696e-06 0.0 0.0
0.0 -5.791226492451871e-07 3.285152939261595e-08 -4.863961923435168e-08 1.5788089841737027e-08 -8.324711323925468e-08 0.0 0.0
0.0 1.0834551726115534e-06 7.337547889231889e-09 1.618043614914542e-08 -2.3517984038382104e-08 3.429019529548803e-07 0.0 0.0
0.0 -7.936349077372532e-07 3.6945678112813035e-07 -3.066353029431501e-07 -6.282147818498923e-08 2.4824770803920295e-06 0.0 0.0
0.0 2.197908826558966e-06 -5.180814163395076e-07 4.021496188363679e-07 1.1593179750312827e-07 -4.822854845701356e-06 0.0 0.0
0.0 4.9409589589707304e-06 1.8791151136820847e-06 -1.5232478028839704e-06 -3.558673107980503e-07 6.59582527267739e-06 0.0 0.0
0.0 2.173582080969625e-05 2.176592249902537e-06 -1.6006935953153444e-06 -5.758986545872156e-07 -2.7541112363143925e-06 0.0 0.0
0.0 0.00015368696859413832 -8.111296895225385e-05 6.258220231854955e-05 1.8530766633704283e-05 -0.00022298481604873124 0.0 0.0
0.0 0.0009347991140357913 -0.0005763258981185855 0.0004595023924988058 0.00011682350561977958 -0.000992816275564129 0.0 0.0
0.0 0.0026073542510065342 -0.0018777193218289586 0.0015780810308143587 0.0002996382910146008 -0.002493069171420145 0.0 0.0
0.0 0.005428070715870892 -0.003999438650658276 0.0035402476937289235 0.0004591909569293491 -0.004511958669899523 0.0 0.0
0.0 0.00880526081813689 -0.006745738148505912 0.0061824293417192975 0.0005633088067866126 -0.006921838602117585 0.0 0.0
0.0 0.012847246954105794 -0.009909931878538825 0.009274863467309347 0.0006350684112294887 -0.009418066807213589 0.0 0.0
0.0 0.017246408484548503 -0.013420981075608072 0.012724160576885697 0.0006968204987223628 -0.011891299935037356 0.0 0.0
0.0 0.02201500577339065 -0.017271934972191982 0.016526945454107753 0.0007449895180842193 -0.014314573050295114 0.0 0.0
0.0 0.02715800045466999 -0.021398465723013717 0.02062092298873685 0.0007775427342768674 -0.016783196631674387 0.0 0.0
0.0 0.03243980081149606 -0.0255733158787116 0.024784419283961485 0.0007888965947500956 -0.01950471006105462 0.0 0.0
0.0 0.03735633590730821 -0.029369265829869238 0.02858910434120055 0.000780161488668692 -0.02269899087494944 0.0 0.0
0.0 0.041101433090824514 -0.032190342566947465 0.03143518506436137 0.0007551575025861002 -0.026471694427011347 0.0 0.0
0.0 0.04296386351228605 -0.03297363126761717 0.03231262078878231 0.0006610104788348475 -0.03010557062340134 0.0 0.0
0.0 0.040012605999365757 -0.029453593904733455 0.028988523513453088 0.0004650703912803543 -0.03096686909463534 0.0 0.0
0.0 0.04322717041007391 -0.023831614102950843 0.020531961917788482 0.003299652185162343 2.0761170560490427e-14 0.0 0.0
0.0 0.04001260599937427 -0.029453593904731092 0.028988523513451284 0.0004650703912798225 0.03096686909467665 0.0 0.0
0.0 0.04296386351228671 -0.03297363126761064 0.032312620788776225 0.0006610104788344181 0.030105570623442646 0.0 0.0
0.0 0.04110143309080017 -0.032190342566925885 0.03143518506434024 0.0007551575025856612 0.026471694427023 0.0 0.0
0.0 0.03735633590727606 -0.02936926582984335 0.02858910434117435 0.0007801614886689952 0.022698990874941517 0.0 0.0
0.0 0.032439800811464796 -0.025573315878686165 0.024784419283936578 0.0007888965947495865 0.019504710061038277 0.0 0.0
0.0 0.027158000454639196 -0.02139846572298862 0.020620922988712445 0.0007775427342761898 0.01678319663165899 0.0 0.0
0.0 0.02201500577335969 -0.017271934972165948 0.016526945454081874 0.0007449895180840519 0.014314573050279042 0.0 0.0
0.0 0.017246408484518003 -0.013420981075583416 0.012724160576861404 0.000696820498722013 0.011891299935022864 0.0 0.0
0.0 0.012847246954075589 -0.00990993187851561 0.009274863467287009 0.0006350684112286018 0.009418066807192775 0.0 0.0
0.0 0.008805260818106831 -0.006745738148483102 0.006182429341696436 0.0005633088067866686 0.00692183860209442 0.0 0.0
0.0 0.005428070715849798 -0.003999438650642475 0.003540247693713843 0.00045919095692863345 0.004511958669884134 0.0 0.0
0.0 0.0026073542509946167 -0.0018777193218201418 0.001578081030806558 0.0002996382910135845 0.0024930691714114966 0.0 0.0
0.0 0.000934799114029804 -0.0005763258981146312 0.00045950239249567716 0.00011682350561895318 0.0009928162755586589 0.0 0.0
0.0 0.0001536869685910863 -8.111296895134308e-05 6.258220231783395e-05 1.8530766633509263e-05 0.000222984816046618 0.0 0.0
0.0 2.17358208090569e-05 2.176592249586853e-06 -1.6006935950718296e-06 -5.758986545151176e-07 2.7541112371143897e-06 0.0 0.0
0.0 4.940958958244496e-06 1.8791151134607533e-06 -1.523247802699369e-06 -3.5586731076137807e-07 -6.595825271616738e-06 0.0 0.0
0.0 2.197908826215526e-06 -5.180814164446183e-07 4.0214961892276143e-07 1.1593179752186235e-07 4.822854846410084e-06 0.0 0.0
0.0 -7.936349084122711e-07 3.694567811172363e-07 -3.066353029448642e-07 -6.282147817236715e-08 -2.4824770800264687e-06 0.0 0.0
0.0 1.0834551722620833e-06 7.337547900556194e-09 1.6180436141425898e-08 -2.3517984041983698e-08 -3.429019531086293e-07 0.0 0.0
0.0 -5.791226488939735e-07 3.285152937202806e-08 -4.863961920387383e-08 1.57880898318369e-08 8.324711318699175e-08 0.0 0.0
0.0 0.0 0.0 0.0 0.0 0.0 0.0 0.0
0.0 1.2793262250216665e-07 8.703308849541075e-11 4.028570319636627e-09 -4.115603408136257e-09 2.4778079492361678e-08 0.0 0.0
0.0 3.8087994031393884e-07 3.296496126164506e-07 -2.6035745557353127e-07 -6.929215704291217e-08 1.8317763096443086e-06 0.0 0.0
0.0 1.058446782965942e-06 1.1604226630946132e-06 -9.766181702324895e-07 -1.8380449286212443e-07 2.8253380748422634e-06 0.0 0.0
0.0 2.8480097189714854e-06 2.1095950216096856e-06 -1.6434584687293315e-06 -4.661365528803947e-07 8.113974254135693e-07 0.0 0.0
0.0 2.9623362528055245e-05 -2.6084680853261878e-05 1.9751794523286905e-05 6.3328863299750525e-06 -6.01721193415009e-05 0.0 0.0
0.0 0.0005128623671772172 -0.00034395757036823104 0.00026345493683395025 8.050263353428052e-05 -0.00045166428770253503 0.0 0.0
0.0 0.0019126402842084451 -0.0015264496065503803 0.0012363268829452896 0.0002901227236050885 -0.0016167848625452282 0.0 0.0
0.0 0.004804938542814319 -0.003836771367072278 0.0033262524943989433 0.0005105188726733321 -0.0035395723765224703 0.0 0.0
0.0 0.00922868382725723 -0.007205383665931563 0.006562210318661664 0.0006431733472699054 -0.006123510495688935 0.0 0.0
0.0 0.014122651018669996 -0.011385541321030871 0.01066420167295717 0.000721339648073691 -0.009045003543603752 0.0 0.0
0.0 0.019859477332638605 -0.0161477793026871 0.01536193457219503 0.0007858447304920646 -0.01195755886298507 0.0 0.0
0.0 0.02625579246727506 -0.021425929587677497 0.020577345108942432 0.0008485844787350823 -0.01475590598440906 0.0 0.0
0.0 0.033197223049480896 -0.027230754984372784 0.026326222788444438 0.0009045321959283207 -0.017474290883170276 0.0 0.0
0.0 0.04078606869846005 -0.0335157831684541 0.03256944721878429 0.0009463359496698436 -0.0202910519659755 0.0 0.0
0.0 0.04859629055484067 -0.04005044695645861 0.03908519011801884 0.0009652568384397333 -0.023561009256090414 0.0 0.0
0.0 0.056454327962972256 -0.0463127058195175 0.04535473967403264 0.0009579661454848059 -0.027727062192454664 0.0 0.0
0.0 0.06288500118094224 -0.05136717379501193 0.05046033898664286 0.000906834808369106 -0.03274625023638265 0.0 0.0
0.0 0.06615480399696311 -0.053545205824338415 0.05275024026894641 0.0007949655553919589 -0.03725224403950442 0.0 0.0
0.0 0.062373740671577055 -0.04969066706118628 0.049179452621727 0.0005112144394592632 -0.03858112720661038 0.0 0.0
0.0 0.05997951298656134 -0.04221704687508396 0.03819491609844926 0.004022130776634716 2.1565214891605677e-14 0.0 0.0
0.0 0.062373740671579095 -0.049690667061178334 0.04917945262171956 0.0005112144394587915 0.03858112720665936 0.0 0.0
0.0 0.06615480399695509 -0.05354520582432418 0.05275024026893234 0.0007949655553917811 0.03725224403955384 0.0 0.0
0.0 0.06288500118090848 -0.05136717379498043 0.0504603389866117 0.0009068348083687284 0.03274625023640329 0.0 0.0
0.0 0.05645432796293006 -0.04631270581948188 0.04535473967399685 0.0009579661454850504 0.027727062192450466 0.0 0.0
0.0 0.04859629055479659 -0.0400504469564218 0.039085190117982366 0.0009652568384394163 0.02356100925607344 0.0 0.0
0.0 0.04078606869841559 -0.03351578316841719 0.03256944721874772 0.0009463359496694549 0.020291051965956614 0.0 0.0
0.0 0.033197223049434496 -0.027230754984333364 0.026326222788405653 0.0009045321959277022 0.01747429088315245 0.0 0.0
0.0 0.0262557924672298 -0.021425929587640162 0.020577345108905087 0.0008485844787350751 0.01475590598439042 0.0 0.0
0.0 0.019859477332596607 -0.016147779302653348 0.015361934572161803 0.0007858447304915414 0.011957558862962098 0.0 0.0
0.0 0.014122651018627343 -0.011385541320997014 0.010664201672923448 0.0007213396480735533 0.009045003543576152 0.0 0.0
0.0 0.009228683827225113 -0.00720538366590625 0.006562210318636835 0.0006431733472694144 0.006123510495667834 0.0 0.0
0.0 0.004804938542792973 -0.0038367713670557704 0.0033262524943835077 0.0005105188726722623 0.0035395723765089273 0.0 0.0
0.0 0.0019126402841974017 -0.001526449606541763 0.0012363268829380279 0.000290122723603736 0.0016167848625376758 0.0 0.0
0.0 0.0005128623671715921 -0.00034395757036479336 0.0002634549368312391 8.050263353355417e-05 0.0004516642876980014 0.0 0.0
0.0 2.962336252674951e-05 -2.6084680853143338e-05 1.9751794523203862e-05 6.33288632993944e-06 6.017211934159124e-05 0.0 0.0
0.0 2.8480097188291643e-06 2.109595021235073e-06 -1.6434584684238768e-06 -4.661365528111917e-07 -8.113974243139201e-07 0.0 0.0
0.0 1.058446782259993e-06 1.160422662964595e-06 -9.766181701246453e-07 -1.8380449283994824e-07 -2.8253380740631354e-06 0.0 0.0
0.0 3.808799398138825e-07 3.2964961264873434e-07 -2.6035745560094e-07 -6.929215704780112e-08 -1.8317763098040313e-06 0.0 0.0
0.0 1.2793262222365965e-07 8.703308583074716e-11 4.028570317766604e-09 -4.115603403594462e-09 -2.4778079435018216e-08 0.0 0.0
0.0 0.0 0.0 0.0 0.0 0.0 0.0 0.0
0.0 0.0 0.0 0.0 0.0 0.0 0.0 0.0
0.0 -1.2025212151614905e-07 -2.8111852206668733e-09 1.9303984439410896e-09 8.807867767261456e-10 -2.3879236813071873e-08 0.0 0.0
0.0 3.1047328768532e-08 2.1896678091912847e-07 -1.7344638059165779e-07 -4.552040032747315e-08 9.290245336541694e-07 0.0 0.0
0.0 -2.706856372603587e-06 6.416583833002672e-07 -5.291237997668426e-07 -1.1253458353341329e-07 9.796242872393724e-07 0.0 0.0
0.0 1.37882520026596e-06 5.76308397830798e-06 -4.855522178668096e-06 -9.075617996398812e-07 1.0554744979990773e-05 0.0 0.0
0.0 0.00016259115794011462 -9.914507338200842e-05 7.375284573109112e-05 2.539222765091728e-05 -0.00010531392913754551 0.0 0.0
0.0 0.0010159609303686825 -0.0008394272814497748 0.0006519295754292334 0.00018749770602054168 -0.0007261017093518095 0.0 0.0
0.0 0.0032861415908440493 -0.002763460356738968 0.0023068919210206215 0.0004565684357183468 -0.002079584337926877 0.0 0.0
0.0 0.0075960013391215666 -0.006077689330796046 0.005422244249299398 0.0006554450814966449 -0.004302338619323208 0.0 0.0
0.0 0.012692892439009913 -0.010671149891619425 0.009911188076912072 0.0007599618147073638 -0.007203295821788033 0.0 0.0
0.0 0.019487505477583728 -0.016225725372289716 0.015397221413870904 0.0008285039584188132 -0.010308664822684816 0.0 0.0
0.0 0.02705039279220337 -0.022559074356429825 0.021665240972198952 0.0008938333842308586 -0.013379762073383119 0.0 0.0
0.0 0.035392540656824456 -0.029599617683440084 0.028636964486110736 0.0009626531973293587 -0.01632405516302745 0.0 0.0
0.0 0.04455711048442396 -0.03735892548663617 0.03633017094464601 0.0010287545419901474 -0.0191858455192322 0.0 0.0
0.0 0.05447504790173451 -0.04581780341716407 0.04473573769385099 0.001082065723313055 -0.02215268922071403 0.0 0.0
0.0 0.06527563545917917 -0.054749511450854785 0.05364128380516742 0.0011082276456873673 -0.025696751888015165 0.0 0.0
0.0 0.07540693621149322 -0.06349544402828738 0.062403823083197876 0.0010916209450894888 -0.030365256332539513 0.0 0.0
0.0 0.08451187952444587 -0.07069308128742864 0.06967981636382725 0.0010132649236013834 -0.036057759775540155 0.0 0.0
0.0 0.08920881862741578 -0.07396656470030935 0.07312366144394618 0.0008429032563631452 -0.04133159457284698 0.0 0.0
0.0 0.0844654418549691 -0.06934075992706508 0.06882902625667098 0.0005117336703941616 -0.043276360197159094 0.0 0.0
0.0 0.07838419390609498 -0.06020083507714955 0.055557290096833245 0.004643544980316154 2.2055274273569125e-14 0.0 0.0
0.0 0.08446544185496754 -0.06934075992705487 0.06882902625666144 0.0005117336703934442 0.0432763601972111 0.0 0.0
0.0 0.08920881862739456 -0.0739665647002847 0.07312366144392078 0.0008429032563638297 0.041331594572898554 0.0 0.0
0.0 0.08451187952440613 -0.07069308128739135 0.06967981636379017 0.0010132649236010366 0.036057759775568715 0.0 0.0
0.0 0.07540693621144019 -0.06349544402824214 0.0624038230831517 0.0010916209450905065 0.030365256332537893 0.0 0.0
0.0 0.06527563545912271 -0.054749511450806615 0.05364128380511974 0.0011082276456868395 0.025696751887999636 0.0 0.0
0.0 0.054475047901674734 -0.04581780341711328 0.044735737693800584 0.0010820657233127186 0.02215268922069364 0.0 0.0
0.0 0.044557110484366586 -0.03735892548658682 0.03633017094459734 0.0010287545419894767 0.019185845519214532 0.0 0.0
0.0 0.035392540656767286 -0.029599617683391994 0.028636964486062715 0.0009626531973292719 0.016324055163007688 0.0 0.0
0.0 0.02705039279214977 -0.022559074356384923 0.021665240972154536 0.0008938333842303823 0.013379762073359298 0.0 0.0
0.0 0.019487505477537432 -0.01622572537225139 0.015397221413833042 0.0008285039584183628 0.010308664822658515 0.0 0.0
0.0 0.012692892438972992 -0.010671149891588624 0.00991118807688194 0.0007599618147066903 0.007203295821766004 0.0 0.0
0.0 0.007596001339092048 -0.006077689330772771 0.005422244249277116 0.0006554450814956538 0.004302338619307458 0.0 0.0
0.0 0.00328614159082702 -0.002763460356725465 0.00230689192100853 0.00045656843571693375 0.002079584337917165 0.0 0.0
0.0 0.0010159609303599718 -0.0008394272814434899 0.0006519295754242047 0.00018749770601928525 0.000726101709346404 0.0 0.0
0.0 0.00016259115793727677 -9.914507338056795e-05 7.375284573000725e-05 2.539222765056077e-05 0.0001053139291361501 0.0 0.0
0.0 1.3788251999236308e-06 5.7630839777132625e-06 -4.855522178193352e-06 -9.07561799519887e-07 -1.0554744978776282e-05 0.0 0.0
0.0 -2.7068563725123194e-06 6.416583829508776e-07 -5.29123799493872e-07 -1.125345834569891e-07 -9.796242860880149e-07 0.0 0.0
0.0 3.104732852837923e-08 2.189667809575332e-07 -1.7344638062383445e-07 -4.552040033369868e-08 -9.290245338122051e-07 0.0 0.0
0.0 -1.2025212151506954e-07 -2.8111852205958148e-09 1.930398443898689e-09 8.807867766964716e-10 2.387923681280424e-08 0.0 0.0
0.0 0.0 0.0 0.0 0.0 0.0 0.0 0.0
0.0 0.0 0.0 0.0 0.0 0.0 0.0 0.0
0.0 0.0 0.0 0.0 0.0 0.0 0.0 0.0
0.0 -2.608682537837171e-07 3.269684888292997e-08 -2.497551248066365e-08 -7.72133640226762e-09 1.0602226790847985e-07 0.0 0.0
0.0 -2.525763070373802e-06 2.1274224242923096e-06 -1.7182674652273968e-06 -4.091549590648889e-07 4.474116300713201e-06 0.0 0.0
0.0 -3.2909563825086855e-06 -5.700693360796884e-06 3.403807494311552e-06 2.2968858664853085e-06 -3.83340668658269e-06 0.0 0.0
0.0 0.00037787239291132724 -0.00027752151331058574 0.00020736952040204147 7.015199290854434e-05 -0.00018531408583313707 0.0 0.0
0.0 0.0017536276241848989 -0.0015229071230058486 0.0012095774140785276 0.0003133297089273199 -0.0008919891132236346 0.0 0.0
0.0 0.005148307361114988 -0.004216861006330424 0.003624595188431427 0.0005922658178989979 -0.0023540482149615113 0.0 0.0
0.0 0.009845477443735571 -0.008538434026671498 0.007780017210661365 0.0007584168160101355 -0.004722307305717955 0.0 0.0
0.0 0.016769559590092818 -0.014263350216078581 0.013417062438405923 0.000846287777672663 -0.007599918453158102 0.0 0.0
0.0 0.024943586533623063 -0.02117238598756272 0.02025769700545103 0.0009146889821116754 -0.010662413353197587 0.0 0.0
0.0 0.034262812365404405 -0.029074318587188508 0.028089088610227894 0.0009852299769606283 -0.013691319761225196 0.0 0.0
0.0 0.04461774964568519 -0.037878987429874326 0.0368183258804756 0.001060661549398627 -0.01661006299070603 0.0 0.0
0.0 0.05608144724155012 -0.04758809913972217 0.04645262020731532 0.0011354789324069274 -0.019460202591591584 0.0 0.0
0.0 0.06843779622978692 -0.05820794645492341 0.057006654978251387 0.0012012914766719935 -0.022392097742385535 0.0 0.0
0.0 0.08152672932180614 -0.0695161246042407 0.0682811287296126 0.001234995874628062 -0.025810133865751456 0.0 0.0
0.0 0.09500202036871108 -0.08069178491211522 0.07948554082298498 0.0012062440891302492 -0.030340128247803848 0.0 0.0
0.0 0.10607892418314102 -0.08994210795175503 0.08885250677105722 0.0010896011806976144 -0.03615057083892362 0.0 0.0
0.0 0.1114340094975846 -0.09416507117608909 0.09329953957448908 0.0008655316015999952 -0.04207724078545843 0.0 0.0
0.0 0.10617457578721892 -0.08879360656759845 0.08828180754402408 0.0005117990235743795 -0.04608390465995156 0.0 0.0
0.0 0.09814993312270855 -0.07823277533389011 0.07304283784326611 0.005189937490624008 2.3290397388464612e-14 0.0 0.0
0.0 0.10617457578721468 -0.0887936065675869 0.08828180754401362 0.0005117990235733607 0.0460839046600048 0.0 0.0
0.0 0.1114340094975587 -0.09416507117606085 0.09329953957446108 0.0008655316015997995 0.042077240785511644 0.0 0.0
0.0 0.10607892418309497 -0.08994210795171256 0.08885250677101558 0.0010896011806969567 0.03615057083895197 0.0 0.0
0.0 0.09500202036864691 -0.0806917849120599 0.07948554082292904 0.0012062440891307655 0.03034012824780345 0.0 0.0
0.0 0.08152672932173943 -0.06951612460418305 0.0682811287295558 0.0012349958746273003 0.02581013386573959 0.0 0.0
0.0 0.06843779622971766 -0.058207946454863664 0.057006654978192545 0.0012012914766711025 0.022392097742370325 0.0 0.0
0.0 0.05608144724148188 -0.047588099139663075 0.04645262020725684 0.0011354789324062307 0.019460202591574743 0.0 0.0
0.0 0.04461774964561532 -0.03787898742981481 0.036818325880415635 0.001060661549399152 0.016610062990687163 0.0 0.0
0.0 0.034262812365340636 -0.02907431858713451 0.028089088610174423 0.0009852299769600745 0.013691319761201578 0.0 0.0
0.0 0.024943586533567038 -0.021172385987515766 0.02025769700540446 0.0009146889821113013 0.010662413353171092 0.0 0.0
0.0 0.016769559590047514 -0.014263350216040612 0.0134170624383682 0.0008462877776724109 0.007599918453136487 0.0 0.0
0.0 0.0098454774437025 -0.008538434026642571 0.0077800172106331986 0.0007584168160093771 0.004722307305701845 0.0 0.0
0.0 0.00514830736109198 -0.004216861006311953 0.003624595188414204 0.0005922658178977504 0.0023540482149509334 0.0 0.0
0.0 0.001753627624174228 -0.0015229071229972404 0.001209577414071484 0.0003133297089257564 0.0008919891132183496 0.0 0.0
0.0 0.0003778723929062843 -0.0002775215133073689 0.00020736952039955673 7.015199290781172e-05 0.00018531408583080124 0.0 0.0
0.0 -3.290956382720181e-06 -5.700693361340796e-06 3.40380749476062e-06 2.2968858665801445e-06 3.83340668751049e-06 0.0 0.0
0.0 -2.525763071017006e-06 2.1274224242508164e-06 -1.7182674651939519e-06 -4.091549590568587e-07 -4.47411630048491e-06 0.0 0.0
0.0 -2.6086825361204435e-07 3.269684891485234e-08 -2.4975512506034785e-08 -7.721336408816165e-09 -1.0602226801069711e-07 0.0 0.0
0.0 0.0 0.0 0.0 0.0 0.0 0.0 0.0
0.0 0.0 0.0 0.0 0.0 0.0 0.0 0.0
0.0 0.0 0.0 0.0 0.0 0.0 0.0 0.0
0.0 0.0 0.0 0.0 0.0 0.0 0.0 0.0
0.0 -1.9259891853480113e-07 -1.2438204119640457e-08 9.900711751953166e-09 2.537492367688598e-09 -3.208399983975565e-08 0.0 0.0
0.0 -3.973980919478531e-06 2.008984086186023e-06 -1.6273010282844025e-06 -3.816830579016501e-07 3.4704569599360408e-06 0.0 0.0
0.0 4.00136232671533e-05 -2.2414538747697373e-05 1.4403884067536738e-05 8.010654680160753e-06 -3.1533273543690826e-06 0.0 0.0
0.0 0.000626442848483999 -0.0005934496761782602 0.0004484792371088674 0.00014497043906939262 -0.00026678783725328416 0.0 0.0
0.0 0.0028621298131881094 -0.0023709997560129757 0.0019338111686245836 0.0004371885873883919 -0.0009434052600646624 0.0 0.0
0.0 0.0066456298381309346 -0.005867980654469716 0.005170475024682596 0.0006975056297871211 -0.002446060250564318 0.0 0.0
0.0 0.012756904723887547 -0.011093507695555073 0.010258778574698882 0.0008347291208561849 -0.004653386756385311 0.0 0.0
0.0 0.02077976865329723 -0.017930681840976927 0.01701278959094632 0.0009178922500306226 -0.0072938221592964425 0.0 0.0
0.0 0.030468136020264852 -0.026178681865643347 0.025187797382774244 0.0009908844828690855 -0.010126445343830172 0.0 0.0
0.0 0.04157790673961177 -0.03564471562462786 0.03457726770366043 0.0010674479209674206 -0.012927294955055364 0.0 0.0
0.0 0.054028890380213884 -0.0462194318378257 0.045070704519337715 0.0011487273184879355 -0.015642749266175163 0.0 0.0
0.0 0.06739923303247237 -0.05788177022413392 0.0566508154545603 0.0012309547695735987 -0.018329167173788338 0.0 0.0
0.0 0.08230276961429403 -0.07061259158469742 0.06930678943779243 0.001305802146905086 -0.021049289280776286 0.0 0.0
0.0 0.09817058983556803 -0.08419329512305557 0.08284420362388482 0.001349091499170649 -0.023988905002425478 0.0 0.0
0.0 0.11378874544522291 -0.09770942639103632 0.09639482779255072 0.0013145985984854877 -0.027735310472304694 0.0 0.0
0.0 0.12711543734577485 -0.10896522955099468 0.10780434325067612 0.0011608863003186329 -0.03302794281719444 0.0 0.0
0.0 0.13380654182150187 -0.11423274859446342 0.11334728595201712 0.0008854626424460959 -0.03981645317633447 0.0 0.0
0.0 0.12804153991605913 -0.10841894713464549 0.10791667772018858 0.0005022694144568487 -0.04745843576951186 0.0 0.0
0.0 0.11845440129274928 -0.09670636492936578 0.09103785060099032 0.005668514328375524 2.2440382885235977e-14 0.0 0.0
0.0 0.12804153991604417 -0.10841894713462616 0.1079166777201695 0.0005022694144566142 0.04745843576956388 0.0 0.0
0.0 0.13380654182146984 -0.11423274859443089 0.11334728595198544 0.0008854626424453429 0.03981645317638501 0.0 0.0
0.0 0.1271154373457173 -0.10896522955094344 0.10780434325062542 0.001160886300318016 0.033027942817219685 0.0 0.0
0.0 0.11378874544515047 -0.0977094263909733 0.09639482779248795 0.0013145985984853027 0.027735310472306367 0.0 0.0
0.0 0.09817058983548901 -0.08419329512298679 0.08284420362381677 0.0013490914991699438 0.023988905002417606 0.0 0.0
0.0 0.08230276961421153 -0.07061259158462654 0.06930678943772166 0.0013058021469049155 0.02104928928076301 0.0 0.0
0.0 0.0673992330323933 -0.057881770224065605 0.05665081545449276 0.0012309547695728276 0.01832916717377218 0.0 0.0
0.0 0.05402889038013214 -0.04621943183775507 0.04507070451926685 0.0011487273184882262 0.015642749266157874 0.0 0.0
0.0 0.04157790673953589 -0.03564471562456289 0.03457726770359602 0.0010674479209668523 0.012927294955033135 0.0 0.0
0.0 0.030468136020200112 -0.02617868186558805 0.025187797382719333 0.0009908844828687314 0.010126445343805811 0.0 0.0
0.0 0.020779768653241482 -0.017930681840929264 0.017012789590898768 0.0009178922500304846 0.007293822159274837 0.0 0.0
0.0 0.012756904723846081 -0.011093507695519051 0.0102587785746636 0.0008347291208554618 0.004653386756370245 0.0 0.0
0.0 0.0066456298381060855 -0.005867980654448203 0.005170475024662233 0.0006975056297859662 0.002446060250554727 0.0 0.0
0.0 0.0028621298131728287 -0.0023709997560007945 0.0019338111686139164 0.00043718858738687615 0.0009434052600589609 0.0 0.0
0.0 0.0006264428484767786 -0.0005934496761727308 0.00044847923710451354 0.00014497043906821694 0.0002667878372504008 0.0 0.0
0.0 4.001362326595512e-05 -2.2414538747583206e-05 1.4403884067491654e-05 8.010654680091627e-06 3.1533273546578107e-06 0.0 0.0
0.0 -3.973980919481501e-06 2.008984085972959e-06 -1.6273010281219643e-06 -3.8168305785099466e-07 -3.470456959658528e-06 0.0 0.0
0.0 -1.9259891850927365e-07 -1.243820411784055e-08 9.900711750511593e-09 2.5374923673294314e-09 3.208399983580417e-08 0.0 0.0
0.0 0.0 0.0 0.0 0.0 0.0 0.0 0.0
0.0 0.0 0.0 0.0 0.0 0.0 0.0 0.0
0.0 0.0 0.0 0.0 0.0 0.0 0.0 0.0
0.0 0.0 0.0 0.0 0.0 0.0 0.0 0.0
0.0 -7.18462332870173e-08 -5.322214849680892e-09 4.219826328331633e-09 1.102388521349622e-09 -1.0684932772376604e-08 0.0 0.0
0.0 -4.629612921750397e-06 3.1630115659677135e-06 -2.5875738668396585e-06 -5.754376991280477e-07 4.1429598829758e-06 0.0 0.0
0.0 0.00011682204143946524 -8.7667895185041e-05 6.0992893798518814e-05 2.667500138652243e-05 -1.5892178988610035e-05 0.0 0.0
0.0 0.001145706774290908 -0.000996238137245548 0.0007643059616772077 0.0002319321755683406 -0.0002377691074352047 0.0 0.0
0.0 0.003852329918979269 -0.0033965333885473217 0.002845464026312653 0.0005510693622346655 -0.0008960183967734712 0.0 0.0
0.0 0.008540832565454806 -0.007610815471078516 0.006836733927644815 0.0007740815434337008 -0.0022298876950153064 0.0 0.0
0.0 0.015610876611084927 -0.013704688826292858 0.012807871830828502 0.0008968169954643485 -0.0040716014187512604 0.0 0.0
0.0 0.02487340629562553 -0.021630142961678523 0.020648816179292793 0.0009813267823857166 -0.006309244306718618 0.0 0.0
0.0 0.03600238372849492 -0.03120405173498496 0.030143754938252894 0.0010602967967320322 -0.008717911404934624 0.0 0.0
0.0 0.048899386790371105 -0.04223214561608943 0.04108868242486716 0.0011434631912222788 -0.011104051931803971 0.0 0.0
0.0 0.06310785292129716 -0.05458822719618072 0.05335739888625653 0.0012308283099242872 -0.013433307424860663 0.0 0.0
0.0 0.07912481373777702 -0.06819637510096441 0.06688027101099613 0.001316104089968161 -0.01577848212922637 0.0 0.0
0.0 0.0961521249656736 -0.08298134059996345 0.0815867773430315 0.0013945632569319407 -0.01814668417513893 0.0 0.0
0.0 0.11412908938003129 -0.09867163463043734 0.09722293328662707 0.0014487013438103614 -0.02043241426170022 0.0 0.0
0.0 0.13235270314240388 -0.11433527421476038 0.11290938114907598 0.0014258930656844086 -0.02285456642559245 0.0 0.0
0.0 0.14789403414733296 -0.12762089446875996 0.12637076632042932 0.0012501281483305341 -0.02678788299455741 0.0 0.0
0.0 0.1560970001561336 -0.13429399857309696 0.13337862071484655 0.000915377858250424 -0.034487175831099365 0.0 0.0
0.0 0.15062736360514997 -0.1285711655043257 0.12809912788395894 0.0004720376203669425 -0.04715715516066929 0.0 0.0
0.0 0.1403365791382128 -0.1160193870568806 0.1099471467929456 0.00607224026393489 1.8731544093597563e-14 0.0 0.0
0.0 0.15062736360512646 -0.12857116550430076 0.12809912788393338 0.00047203762036739224 0.047157155160715086 0.0 0.0
0.0 0.1560970001560883 -0.1342939985730552 0.1333786207148045 0.0009153778582505829 0.03448717583114284 0.0 0.0
0.0 0.14789403414726324 -0.12762089446869887 0.12637076632036867 0.0012501281483301822 0.026787882994577922 0.0 0.0
0.0 0.13235270314232087 -0.11433527421468845 0.11290938114900423 0.0014258930656842706 0.02285456642559443 0.0 0.0
0.0 0.11412908937994116 -0.09867163463035872 0.0972229332865497 0.0014487013438090448 0.020432414261695613 0.0 0.0
0.0 0.09615212496557733 -0.08298134059988055 0.08158677734294867 0.0013945632569318366 0.01814668417512824 0.0 0.0
0.0 0.07912481373768639 -0.0681963751008856 0.06688027101091835 0.00131610408996716 0.01577848212921368 0.0 0.0
0.0 0.06310785292120462 -0.05458822719610112 0.05335739888617681 0.001230828309924396 0.013433307424846561 0.0 0.0
0.0 0.04889938679028329 -0.042232145616013336 0.041088682424791606 0.0011434631912217593 0.01110405193178462 0.0 0.0
0.0 0.03600238372842163 -0.031204051734921887 0.030143754938190048 0.001060296796731833 0.00871791140491362 0.0 0.0
0.0 0.024873406295564813 -0.021630142961625964 0.020648816179240984 0.0009813267823849795 0.006309244306700588 0.0 0.0
0.0 0.015610876611039168 -0.013704688826252897 0.012807871830789151 0.0008968169954637397 0.004071601418738853 0.0 0.0
0.0 0.008540832565424098 -0.0076108154710512795 0.006836733927618384 0.0007740815434329019 0.0022298876950058557 0.0 0.0
0.0 0.003852329918961258 -0.003396533388531913 0.002845464026298819 0.0005510693622330913 0.0008960183967682744 0.0 0.0
0.0 0.0011457067742812362 -0.0009962381372377446 0.000764305961670904 0.00023193217556684013 0.00023776910743279823 0.0 0.0
0.0 0.0001168220414374711 -8.766789518397118e-05 6.099289379778329e-05 2.6675001386187844e-05 1.589217898852639e-05 0.0 0.0
0.0 -4.629612921976027e-06 3.1630115654145603e-06 -2.5875738664225054e-06 -5.754376989920458e-07 -4.142959882475815e-06 0.0 0.0
0.0 -7.184623319621463e-08 -5.322214842869262e-09 4.219826322927047e-09 1.1023885199412321e-09 1.0684932758656047e-08 0.0 0.0
0.0 0.0 0.0 0.0 0.0 0.0 0.0 0.0
0.0 0.0 0.0 0.0 0.0 0.0 0.0 0.0
0.0 0.0 0.0 0.0 0.0 0.0 0.0 0.0
0.0 0.0 0.0 0.0 0.0 0.0 0.0 0.0
0.0 0.0 0.0 0.0 0.0 0.0 0.0 0.0
0.0 -6.6478112564433915e-06 6.294629767836764e-06 -5.1792589885722305e-06 -1.1153707792645546e-06 5.584651011939376e-06 0.0 0.0
0.0 0.00022594092668209688 -0.0002226143002849389 0.00015824096129405434 6.437333899088444e-05 -5.3647935599003095e-06 0.0 0.0
0.0 0.0018057512533314944 -0.0015358754066738078 0.0012048357843922205 0.0003310396222815873 -0.00013808323909815108 0.0 0.0
0.0 0.004900625339447339 -0.004536475479572897 0.0038942754738079993 0.0006422000057648981 -0.0006916954808324092 0.0 0.0
0.0 0.010533931336977836 -0.009405154608532435 0.008569808501851867 0.0008353461066805804 -0.001649146144766114 0.0 0.0
0.0 0.018507458097025156 -0.01633748656211749 0.015387031091522686 0.0009504554705947957 -0.003001804261929336 0.0 0.0
0.0 0.028963228746774605 -0.025325880307851347 0.024286834963773603 0.0010390453440777712 -0.004654521396521424 0.0 0.0
0.0 0.04162029621185319 -0.036211157317877433 0.03508630974093556 0.0011248475769418582 -0.006445362232222708 0.0 0.0
0.0 0.05613692418344879 -0.048799615825612756 0.04758524753244439 0.0012143682931683314 -0.008226208144983165 0.0 0.0
0.0 0.07268468055434962 -0.06293720292396418 0.06163054645258824 0.0013066564713759621 -0.009984710186997434 0.0 0.0
0.0 0.09042230476435868 -0.07850277849980693 0.07710737382201525 0.0013954046777916247 -0.011806667452995249 0.0 0.0
0.0 0.10984856256611016 -0.09528924140725581 0.09381756968177049 0.001471671725485298 -0.013650893737879394 0.0 0.0
0.0 0.13019953308298313 -0.1128883710468386 0.11136494557247288 0.0015234254743657282 -0.015237836057546918 0.0 0.0
0.0 0.1504346281670691 -0.1303941579154916 0.1288681631139701 0.001525994801521688 -0.01632445491805002 0.0 0.0
0.0 0.1681298775435618 -0.14568173401338408 0.14428341661728883 0.001398317396095306 -0.018083703970119314 0.0 0.0
0.0 0.17849461198098437 -0.1543641892772538 0.15337285403560433 0.000991335241649121 -0.025183228863302872 0.0 0.0
0.0 0.17423828062937813 -0.149648775861456 0.149256720816203 0.000392055045252829 -0.044138900259102595 0.0 0.0
0.0 0.1639460773517609 -0.13672848063687962 0.13035722606030953 0.006371254576570077 1.2725931419765857e-14 0.0 0.0
0.0 0.1742382806293518 -0.1496487758614302 0.1492567208161774 0.00039205504525266326 0.04413890025913817 0.0 0.0
0.0 0.1784946119809255 -0.15436418927720127 0.1533728540355519 0.0009913352416495826 0.02518322886333842 0.0 0.0
0.0 0.16812987754348124 -0.1456817340133145 0.14428341661721955 0.0013983173960949293 0.01808370397013592 0.0 0.0
0.0 0.15043462816697328 -0.13039415791540893 0.1288681631138872 0.001525994801521897 0.016324454918051415 0.0 0.0
0.0 0.1301995330828785 -0.11288837104674793 0.11136494557238294 0.0015234254743649897 0.015237836057543733 0.0 0.0
0.0 0.10984856256600728 -0.09528924140716633 0.09381756968168212 0.0014716717254842626 0.013650893737873905 0.0 0.0
0.0 0.09042230476425428 -0.07850277849971628 0.07710737382192578 0.0013954046777905158 0.011806667452986655 0.0 0.0
0.0 0.07268468055424379 -0.06293720292387275 0.06163054645249666 0.0013066564713760198 0.00998471018698823 0.0 0.0
0.0 0.05613692418335049 -0.04879961582552776 0.047585247532360174 0.00121436829316753 0.008226208144969686 0.0 0.0
0.0 0.041620296211767924 -0.03621115731780328 0.035086309740861514 0.0011248475769417377 0.006445362232206129 0.0 0.0
0.0 0.028963228746708092 -0.025325880307792887 0.024286834963715986 0.0010390453440768989 0.0046545213965079515 0.0 0.0
0.0 0.018507458096975106 -0.016337486562073292 0.01538703109147918 0.0009504554705941335 0.003001804261920187 0.0 0.0
0.0 0.010533931336940756 -0.009405154608499475 0.008569808501819782 0.0008353461066796841 0.0016491461447588561 0.0 0.0
0.0 0.004900625339427623 -0.004536475479554915 0.0038942754737914553 0.0006422000057634663 0.0006916954808283922 0.0 0.0
0.0 0.0018057512533214111 -0.0015358754066651683 0.0012048357843851536 0.0003310396222800117 0.0001380832390969429 0.0 0.0
0.0 0.00022594092667968302 -0.00022261430028360903 0.0001582409612931197 6.437333899048896e-05 5.364793560022352e-06 0.0 0.0
0.0 -6.647811256343352e-06 6.2946297674127565e-06 -5.179258988251089e-06 -1.1153707791616985e-06 -5.584651011744488e-06 0.0 0.0
0.0 0.0 0.0 0.0 0.0 0.0 0.0 0.0
0.0 0.0 0.0 0.0 0.0 0.0 0.0 0.0
0.0 0.0 0.0 0.0 0.0 0.0 0.0 0.0
0.0 0.0 0.0 0.0 0.0 0.0 0.0 0.0
0.0 0.0 0.0 0.0 0.0 0.0 0.0 0.0
0.0 0.0 0.0 0.0 0.0 0.0 0.0 0.0
0.0 -3.2839808678188373e-06 1.486520971738406e-06 -2.375666511212104e-06 8.891455394737013e-07 6.366237925361488e-06 0.0 0.0
0.0 0.0005014742453700873 -0.0004200504784295571 0.0003035227463318627 0.00011652773209769462 6.2428225544379e-05 0.0 0.0
0.0 0.002461487677378832 -0.002202830561222206 0.0017723951120763037 0.00043043544914590076 4.640787436669406e-05 0.0 0.0
0.0 0.006270429545598581 -0.005726119212056279 0.0050152197467731394 0.0007108994652831441 -0.00024362488671467728 0.0 0.0
0.0 0.01255199370654577 -0.011222768448404318 0.010337652423028226 0.0008851160253760743 -0.0007430512925948769 0.0 0.0
0.0 0.02148370522390538 -0.01895714137037438 0.01795925266814131 0.0009978887022330728 -0.0014506728139830507 0.0 0.0
0.0 0.03304646966908557 -0.028981983604565827 0.027889045543627373 0.0010929380609384439 -0.002335217349068369 0.0 0.0
0.0 0.04714696656750655 -0.04116529806519901 0.03998003149007522 0.0011852665751237923 -0.0033054616828001454 0.0 0.0
0.0 0.06365129874867023 -0.055310234767731836 0.054029916046539624 0.0012803187211922547 -0.004291280567661352 0.0 0.0
0.0 0.08176204340706922 -0.07123834883095195 0.06986042691117045 0.0013779219197814433 -0.005313594191345275 0.0 0.0
0.0 0.10198543342003685 -0.08874309507064082 0.08727373071965436 0.001469364350986397 -0.006394046002437309 0.0 0.0
0.0 0.12364522623866525 -0.10749658281247798 0.10595545929546936 0.001541123517008643 -0.007480898734107396 0.0 0.0
0.0 0.14606690609419243 -0.12689093579614708 0.12531012665975536 0.0015808091363915177 -0.008365137391287178 0.0 0.0
0.0 0.16805262161536583 -0.14588834136447212 0.14430444576141618 0.0015838956030560297 -0.008655898567178926 0.0 0.0
0.0 0.18755393603896234 -0.16274879855013352 0.16120123066877615 0.00154756788135744 -0.008570684623369122 0.0 0.0
0.0 0.2005846369408884 -0.17398695034144662 0.1726828330809363 0.001304117260510032 -0.012182456258440322 0.0 0.0
0.0 0.1993378152604243 -0.1721409374499761 0.17182495530230404 0.0003159821476720563 -0.03291676147917346 0.0 0.0
0.0 0.1905648843066134 -0.16001615931812796 0.15376877363308247 0.006247385685045251 6.7914424084492e-15 0.0 0.0
0.0 0.19933781526039157 -0.1721409374499457 0.1718249553022745 0.00031598214767126326 0.03291676147919381 0.0 0.0
0.0 0.2005846369408233 -0.17398695034138964 0.1726828330808798 0.0013041172605097516 0.01218245625846076 0.0 0.0
0.0 0.1875539360388694 -0.16274879855005325 0.1612012306686957 0.0015475678813574685 0.008570684623377914 0.0 0.0
0.0 0.1680526216152551 -0.1458883413643771 0.1443044457613201 0.001583895603056908 0.008655898567178936 0.0 0.0
0.0 0.14606690609407458 -0.12689093579604457 0.12531012665965355 0.0015808091363909856 0.008365137391285214 0.0 0.0
0.0 0.12364522623854524 -0.10749658281237424 0.10595545929536584 0.001541123517008485 0.007480898734104459 0.0 0.0
0.0 0.10198543341991866 -0.08874309507053825 0.08727373071955266 0.0014693643509854674 0.006394046002432847 0.0 0.0
0.0 0.0817620434069522 -0.07123834883085073 0.06986042691106938 0.001377921919781296 0.005313594191340184 0.0 0.0
0.0 0.06365129874856272 -0.05531023476763866 0.054029916046446955 0.001280318721191733 0.0042912805676536755 0.0 0.0
0.0 0.04714696656741158 -0.04116529806511669 0.039980031489993545 0.001185266575123155 0.00330546168279033 0.0 0.0
0.0 0.033046469669010585 -0.028981983604500036 0.027889045543562384 0.0010929380609376734 0.0023352173490607917 0.0 0.0
0.0 0.02148370522384957 -0.018957141370325004 0.017959252668092562 0.0009978887022324312 0.001450672813978688 0.0 0.0
0.0 0.01255199370650518 -0.011222768448368135 0.010337652422992772 0.0008851160253753633 0.0007430512925913123 0.0 0.0
0.0 0.006270429545574113 -0.005726119212033977 0.0050152197467520174 0.0007108994652819545 0.00024362488671223148 0.0 0.0
0.0 0.0024614876773666164 -0.002202830561211476 0.001772395112067086 0.00043043544914439 -4.6407874367011735e-05 0.0 0.0
0.0 0.0005014742453661318 -0.00042005047842676456 0.00030352274632980967 0.0001165277320969549 -6.242822554398099e-05 0.0 0.0
0.0 -3.2839808679934904e-06 1.4865209714313253e-06 -2.3756665109700855e-06 8.891455395388449e-07 -6.366237925245293e-06 0.0 0.0
0.0 0.0 0.0 0.0 0.0 0.0 0.0 0.0
0.0 0.0 0.0 0.0 0.0 0.0 0.0 0.0
0.0 0.0 0.0 0.0 0.0 0.0 0.0 0.0
0.0 0.0 0.0 0.0 0.0 0.0 0.0 0.0
0.0 0.0 0.0 0.0 0.0 0.0 0.0 0.0
0.0 0.0 0.0 0.0 0.0 0.0 0.0 0.0
0.0 3.0216671064477624e-05 -2.8921402331985507e-05 1.8663805568403353e-05 1.0257596763582237e-05 1.2614059894898862e-05 0.0 0.0
0.0 0.0008376276521472585 -0.0006648789634958512 0.00047760747588928226 0.0001872714876065689 0.00016199682275551985 0.0 0.0
0.0 0.0031290408270669636 -0.0028039364677290802 0.0022327540784158138 0.0005711823893132642 0.00036366986682205104 0.0 0.0
0.0 0.007345667621011888 -0.0067360928687879 0.005824627050971845 0.0009114658178160586 0.0004773832335211996 0.0 0.0
0.0 0.01413835031711647 -0.012726716760175198 0.011551696199959962 0.001175020560215232 0.0005309706020188683 0.0 0.0
0.0 0.02368225119936172 -0.021103462724436896 0.01968901851282437 0.0014144442116125011 0.0005139605023597052 0.0 0.0
0.0 0.036160566760335085 -0.03196979804147226 0.030291286851342414 0.0016785111901297953 0.00038665918766353155 0.0 0.0
0.0 0.05144499626837651 -0.04522603015941785 0.04323861877110563 0.0019874113883122015 0.0001867878191713166 0.0 0.0
0.0 0.06897556831971624 -0.06067503079521594 0.05833025327899372 0.002344777516222205 -8.039568711587855e-05 0.0 0.0
0.0 0.0888436667078001 -0.07808362345655426 0.07534543246064702 0.002738190995907273 -0.00044912561727684236 0.0 0.0
0.0 0.11068753445372562 -0.09718657655630289 0.09403944863170982 0.003147127924593147 -0.0008887289675330069 0.0 0.0
0.0 0.13403213681622592 -0.11756237983316303 0.11402394517150852 0.0035384346616543737 -0.0014201380799577362 0.0 0.0
0.0 0.15803612924243576 -0.13843414354925743 0.13456720621836438 0.0038669373308931757 -0.001948237048537015 0.0 0.0
0.0 0.18121677732259658 -0.15853828889825516 0.15445878228399282 0.004079506614262153 -0.0022096223387562224 0.0 0.0
0.0 0.20153311346934608 -0.17613837745390268 0.17198816477332746 0.00415021268057496 -0.001970153955731529 0.0 0.0
0.0 0.21616153540557106 -0.18901476921952517 0.1847788758315793 0.004235893387946121 -0.003803087549589284 0.0 0.0
0.0 0.21907147350523948 -0.19206488165575508 0.1876865300401172 0.004378351615637851 -0.02492872718262361 0.0 0.0
0.0 0.2149884291395406 -0.18329335821573128 0.1719443378438993 0.011349020371831709 5.967448757360216e-16 0.0 0.0
0.0 0.21907147350519915 -0.1920648816557192 0.18768653004008276 0.00437835161563628 0.0249287271826305 0.0 0.0
0.0 0.21616153540550373 -0.18901476921946636 0.18477887583152208 0.004235893387944186 0.003803087549597274 0.0 0.0
0.0 0.2015331134692428 -0.17613837745381253 0.17198816477324003 0.004150212680572714 0.001970153955732752 0.0 0.0
0.0 0.18121677732247526 -0.15853828889815 0.15445878228388793 0.004079506614261796 0.002209622338752642 0.0 0.0
0.0 0.15803612924231109 -0.13843414354914826 0.13456720621825796 0.0038669373308901564 0.0019482370485352854 0.0 0.0
0.0 0.1340321368160905 -0.11756237983304531 0.11402394517139144 0.00353843466165373 0.0014201380799561836 0.0 0.0
0.0 0.11068753445359653 -0.09718657655619001 0.09403944863159944 0.0031471279245905413 0.0008887289675317527 0.0 0.0
0.0 0.0888436667076753 -0.07808362345644543 0.0753454324605401 0.0027381909959053766 0.00044912561727430966 0.0 0.0
0.0 0.06897556831959978 -0.0606750307951148 0.05833025327889381 0.0023447775162208704 8.039568711280809e-05 0.0 0.0
0.0 0.051444996268277254 -0.04522603015933085 0.04323861877102079 0.0019874113883100617 -0.00018678781917372354 0.0 0.0
0.0 0.036160566760254295 -0.03196979804140179 0.030291286851273563 0.0016785111901282046 -0.00038665918766567914 0.0 0.0
0.0 0.023682251199301195 -0.021103462724383577 0.019689018512772494 0.0014144442116110828 -0.0005139605023605789 0.0 0.0
0.0 0.014138350317070895 -0.012726716760134493 0.011551696199920494 0.0011750205602139975 -0.0005309706020184286 0.0 0.0
0.0 0.007345667620984228 -0.006736092868762594 0.00582462705094804 0.0009114658178145504 -0.00047738323352058444 0.0 0.0
0.0 0.0031290408270531174 -0.002803936467716045 0.0022327540784046174 0.0005711823893114282 -0.0003636698668208051 0.0 0.0
0.0 0.0008376276521420294 -0.0006648789634917792 0.00047760747588631333 0.000187271487605467 -0.00016199682275457934 0.0 0.0
0.0 3.0216671063865605e-05 -2.8921402331592233e-05 1.866380556814443e-05 1.0257596763447769e-05 -1.2614059894746458e-05 0.0 0.0
0.0 0.0 0.0 0.0 0.0 0.0 0.0 0.0
0.0 0.0 0.0 0.0 0.0 0.0 0.0 0.0
0.0 0.0 0.0 0.0 0.0 0.0 0.0 0.0
SCALARS Wm float 4
LOOKUP_TABLE default
13.433652824329403 2.047780726869165 5.698913094652806 5.6869590028074315
6.869480943656582 3.269707376793749 1.6276184369699402 1.9721551298928923
0.7797027266636299 0.709160549350967 0.013023208847733 0.057518968464929994
0.5708700328028602 0.5306576632742632 0.011193810886421088 0.029018558642176
1.2097690411558402 0.8221347646607365 0.14030518300371117 0.24732909349139195
2.704220415305371 1.2176643215629475 0.5656075390352455 0.9209485547071775
5.695628520947146 1.7741134315043259 1.7247783161738446 2.196736773268973
10.614027995616167 2.4913638451133164 3.8940111962708075 4.22865295423204
17.950265964401975 3.4247431946683435 7.429743543670483 7.095779226063144
28.043585901311882 4.602688938054282 12.615087104635318 10.825809858622291
41.02247488616894 6.034227370808054 19.604670370312522 15.38357714504836
56.74015764122254 7.7097854893411855 28.327496911621616 20.702875240259775
75.2269426229035 9.59928528845045 38.91874531489606 26.708912019556962
96.2961645876805 11.66844228162988 51.301973787102085 33.32574851894858
119.54026502426261 13.757895405258028 65.3453893317008 40.43698028730375
144.17903029916454 15.603985772007796 80.724475240804 47.85056928635268
168.92277644720502 16.905527428641573 96.72861974889354 55.288629269670004
192.1204031195939 17.452041556167412 112.3524568200283 62.31590474339799
212.05244727483037 17.331980408006636 126.29520177220303 68.42526509462093
226.0576608286574 16.248228879517406 136.7949475117817 73.01448443735808
230.5187116086089 14.17353965106386 141.3270375578434 75.01813439970162
226.05766082865244 16.248228879552034 136.79494751175358 73.01448443734677
212.05244727476367 17.331980408008075 126.29520177215552 68.42526509459996
192.1204031194954 17.452041556165952 112.3524568199612 62.31590474336821
168.92277644709165 16.905527428642117 96.72861974881542 55.28862926963409
144.1790302990352 15.603985771991756 80.72447524072696 47.85056928631649
119.54026502414025 13.757895405247474 65.34538933162618 40.436980287266614
96.296164587571 11.668442281630595 51.30197378702971 33.3257485189107
75.22694262280538 9.599285288456155 38.918745314829124 26.708912019520117
56.74015764112079 7.709785489327399 28.327496911566048 20.702875240227385
41.02247488608958 6.034227370801952 19.604670370267485 15.38357714502013
28.043585901248992 4.60268893804593 12.61508710460302 10.825809858600064
17.950265964354806 3.4247431946604534 7.429743543648281 7.095779226046065
10.614027995587215 2.49136384511038 3.894011196257005 4.228652954219829
5.695628520929016 1.7741134315004523 1.7247783161669203 2.196736773261643
2.70422041529708 1.217664321561782 0.5656075390324418 0.9209485547028547
1.2097690411525837 0.8221347646593671 0.14030518300295033 0.24732909349026638
0.5708700328019958 0.5306576632736886 0.01119381088631674 0.02901855864199069
0.7797027266623002 0.7091605493499403 0.013023208847645741 0.057518968464713376
6.86948094365143 3.2697073767949774 1.6276184369667988 1.9721551298896527
13.433652824300946 2.0477807268548838 5.698913094644953 5.686959002801121
16.123525011685253 6.9859620113839975 4.445793357251095 4.69176964305016
2.825571666187369 0.6210281626049025 0.9378777666680447 1.2666657369144205
0.2834286889077553 0.3320823882390697 -0.016720445591429073 -0.03193325373988536
0.44072766729158086 0.4262258138753332 0.0028989343437607062 0.011602919072486811
0.9088070511819277 0.6699996740187852 0.0753991005723452 0.16340827659079793
2.156122197204575 0.9952324506065868 0.44375975886198815 0.7171299877360001
4.6721836689138225 1.3797103859123374 1.4129508427652524 1.8795224402362327
8.978495435511213 1.8627251689473605 3.358528944089305 3.7572413224745427
15.436955625782874 2.4390037445025143 6.5715682425939965 6.426383638686369
24.2650937000791 3.1012100644235208 11.26745569828514 9.896427937370431
35.53960516472299 3.8337828116145993 17.582179978485915 14.123642374622486
49.28530391562835 4.644402680248904 25.601083400411913 19.03981783496753
65.21027649092389 5.5378579345698045 35.084337214011946 24.58808134234212
83.49065972279519 6.476013882683836 46.31267942655042 30.701966413560957
103.71816676244538 7.39174278487642 59.03536568931497 37.29105828825401
125.29760099263714 8.148656998053534 72.96799013194114 44.18095386264242
147.2274973514197 8.586102098808283 87.5574494434065 51.08394580920486
168.1092223791222 8.59439427668992 101.87886808306085 57.6359600193715
186.07584352636616 8.073220477734345 114.66094067226611 63.34168237636566
198.77872045327098 7.095988523498295 124.18298367277639 67.4997482569963
203.6382903235838 5.97885955816586 128.36089177824647 69.29853898717158
198.7787204532334 7.095988523494555 124.18298367275284 67.49974825698605
186.07584352631494 8.07322047774664 114.66094067222205 63.34168237634626
168.10922237904802 8.594394276704973 101.8788680829992 57.63596001934389
147.22749735132183 8.586102098812958 87.55744944333657 51.08394580917221
125.2976009925238 8.148656998041186 72.96799013187298 44.18095386260964
103.71816676233983 7.391742784873042 59.03536568924718 37.29105828821962
83.4906597226875 6.476013882672289 46.31267942648752 30.70196641352769
65.21027649082707 5.537857934565139 35.08433721395296 24.58808134230894
49.28530391554247 4.644402680244026 25.601083400361254 19.03981783493718
35.539605164651704 3.8337828116108077 17.582179978444874 14.12364237459602
24.265093700025467 3.1012100644215685 11.267455698254862 9.89642793734904
15.436955625744178 2.439003744500002 6.5715682425738455 6.426383638670326
8.978495435484348 1.8627251689432447 3.3585289440774186 3.7572413224636865
4.672183668898329 1.3797103859101805 1.4129508427589164 1.8795224402292294
2.1561221971969915 0.995232450604937 0.4437597588593989 0.7171299877326573
0.9088070511796718 0.6699996740178281 0.07539910057185649 0.16340827658998747
0.440727667290925 0.4262258138746623 0.002898934343744192 0.011602919072518475
0.28342868890775125 0.33208238823891156 -0.016720445591362397 -0.03193325373979769
2.8255716661806867 0.6210281626042168 0.9378777666651101 1.2666657369113605
16.123525011656604 6.985962011370339 4.445793357242999 4.69176964304325
12.232426820691956 5.578277687118451 3.110513146567042 3.543635987006459
1.7653702475913573 0.26217380699500015 0.627232454202398 0.8759639863939592
0.17645940988149678 0.17597979280335024 7.896378173003748e-05 0.0004006532964164683
0.3253112748023491 0.32679197945300253 -0.0005919684488610401 -0.0008887362017922697
0.6844078874098812 0.5750908890785001 0.029319016893665024 0.07999798143771619
1.6772181267691362 0.8907678817796021 0.28961267919220757 0.4968375657973272
3.7879798782467744 1.2581554884729986 1.0440486352499803 1.485775754523794
7.543857879521205 1.7029741431042296 2.6909546190028535 3.149929117414123
13.21925680656404 2.2148039545030276 5.4553374042865705 5.549115447774441
21.006324198433383 2.7858924200400605 9.549607167572981 8.67082461082034
30.905526624822166 3.413518880008076 15.03443581667797 12.45757192813613
42.84305928481838 4.108024186462722 21.889384458874353 16.8456506394813
56.93012470559642 4.886882067376778 30.26306445202137 21.780178186198302
72.80653168600793 5.731371173131439 39.84750355394123 27.227656958935253
90.55678714087935 6.572540201544705 50.879716959186894 33.10452998014772
109.58569383882809 7.317304784067745 62.991808027203504 39.276581027556844
129.0617592276475 7.8269772815530825 75.71554986849914 45.5192320775953
147.69428320207615 7.93532029832188 88.29811496994563 51.46084793380865
163.70379146737076 7.511833518098542 99.56946597194711 56.62249197732511
175.0406987086047 6.771897455143883 107.91749648886011 60.351304764600705
179.17370436574055 5.371124726721417 111.74428655172949 62.05829308728969
175.0406987085825 6.7718974551489755 107.91749648884144 60.35130476459202
163.70379146730698 7.511833518089333 99.56946597190984 56.6224919773078
147.69428320200097 7.935320298323473 88.29811496989315 51.4608479337843
129.06175922755503 7.826977281546602 75.71554986844102 45.51923207756742
109.5856938387449 7.317304784072976 62.991808027144494 39.27658102752748
90.55678714078466 6.5725402015383585 50.87971695912871 33.10452998011764
72.80653168592751 5.731371173135878 39.84750355388637 27.227656958905214
56.93012470551386 4.886882067372349 30.26306445197184 21.780178186169678
42.84305928473832 4.108024186451994 21.88938445883146 16.845650639454888
30.90552662475885 3.413518880004155 15.034435816642416 12.457571928112278
21.006324198383005 2.785892420035332 9.54960716754667 8.670824610800997
13.219256806529327 2.214803954500716 5.455337404268828 5.5491154477597835
7.543857879498707 1.7029741431011127 2.6909546189929174 3.149929117404679
3.7879798782337826 1.2581554884712352 1.0440486352448988 1.4857757545176484
1.6772181267630462 0.8907678817770741 0.2896126791907225 0.49683756579524924
0.6844078874081043 0.5750908890777204 0.029319016893329598 0.07999798143705451
0.3253112748021009 0.32679197945260074 -0.0005919684488295735 -0.0008887362016700869
0.17645940988141237 0.1759797928032669 7.896378172912823e-05 0.000400653296416394
1.7653702475855333 0.26217380699417003 0.6272324542000602 0.8759639863913015
12.232426820665484 5.578277687107304 3.110513146559062 3.543635986999125
9.270714448894902 4.348633783920936 2.215397792153697 2.7066828728202723
1.1916742959133155 0.12068948427542156 0.42383583115181855 0.6471489804860737
0.12335311439263012 0.12335311439263012 0.0 0.0
0.2423877010879875 0.24377409846670536 -0.0002086053268677342 -0.0011777920518500989
0.5123450882868221 0.48081050669294295 0.006627868770043085 0.024906712823836167
1.2485677689090566 0.7712989173999046 0.159538863829873 0.31772998767927896
2.9996893586748326 1.1376707767735494 0.748141334170301 1.1138772477309824
6.167817816418818 1.539696173328927 2.0706206278762087 2.5575010152136803
11.075984194365045 1.9917853419429938 4.405473657984723 4.678725194437328
17.817851695996506 2.4817613927454936 7.889611860544543 7.44647844270647
26.343486370101044 3.0126195498015753 12.538105714356654 10.792761105942816
36.66400946029408 3.608475795422566 18.40423370983148 14.65129995504004
48.64080745543454 4.2808198668109885 25.378252324880826 18.981735263742728
62.47732448514205 5.023059456547804 33.703553162819084 23.750711865775134
77.74771584580806 5.802934812384702 43.027225910463876 28.91755512295949
94.1961975785629 6.537908475352251 53.28574854284156 34.37254056036906
111.30562952435913 7.105388922034999 64.28117707665699 39.91906352566716
127.79713186339771 7.32932423625846 75.20520784287443 45.262599784264786
142.0814024342353 7.081370508524904 85.04619166079604 49.95384026491432
152.35348938486692 6.488654414678634 92.45214642062545 53.41268854956284
156.11017573443553 4.8153460186173636 96.18712724139743 55.10770247442062
152.35348938484495 6.488654414679605 92.45214642060958 53.41268854955571
142.08140243419467 7.081370508529317 85.04619166076547 49.953840264899924
127.79713186334277 7.329324236269743 75.20520784282967 45.26259978424337
111.30562952428423 7.105388922031026 64.28117707660974 39.91906352564347
94.19619757848757 6.537908475356104 53.28574854278927 34.3725405603422
77.7477158457282 5.80293481238046 43.02722591041493 28.917555122932757
62.47732448505194 5.0230594565301345 33.70355316277288 23.75071186574893
48.64080745537116 4.2808198668185655 25.378252324836374 18.981735263716196
36.664009460231725 3.608475795418701 18.404233709795946 14.65129995501709
26.34348637004625 3.0126195497971384 12.538105714326955 10.792761105922164
17.817851695954886 2.4817613927422797 7.889611860522751 7.446478442689853
11.075984194334437 1.991785341940327 4.405473657969686 4.6787251944244215
6.167817816399808 1.5396961733270462 2.0706206278678225 2.5575010152049362
2.999689358664322 1.1376707767720045 0.7481413341661611 1.1138772477261558
1.248567768904478 0.7712989173978924 0.15953886382884785 0.31772998767773797
0.5123450882855027 0.4808105066919155 0.006627868769935386 0.024906712823651464
0.2423877010877529 0.24377409846645345 -0.00020860532686331284 -0.0011777920518372957
0.12335311439246867 0.12335311439246867 0.0 0.0
1.1916742959088924 0.12068948427517924 0.4238358311498856 0.6471489804838277
9.270714448872734 4.3486337839114615 2.215397792147449 2.7066828728138277
6.927172670883733 3.366341936370907 1.5277278109620651 2.033102923550766
0.8727486836500775 0.11501889231761143 0.3037949710146726 0.4539348203177926
0.1122766166042981 0.1122766166042981 0.0 0.0
0.19400824666933705 0.19402057638130313 2.6333761260809747e-06 -1.4963088092175634e-05
0.3844904409067254 0.38746696005583725 -0.00249282745799797 -0.00048369169111365596
0.9104382452391373 0.6623707483180061 0.07475576232217164 0.17331173459895896
2.2793931157910174 0.9970325663295204 0.5014053588235958 0.7809551906379024
4.871394130802075 1.375147644850272 1.509365499346737 1.986880986605068
9.008257850198355 1.7702478807192314 3.4178463114301367 3.820163658048988
14.713746163044279 2.1875801802537045 6.297541863169914 6.228624119620666
21.935984717983573 2.6356660671267607 10.168776246459784 9.131542404397022
30.615643529274013 3.1378513895079196 15.016812444030366 12.460979695735734
40.7704170994243 3.717848516213603 20.869007715244773 16.183560867965916
52.240657773823905 4.372439744939804 27.581492459815777 20.2867255690683
65.20532124488945 5.07301290429748 35.398052838432825 24.734255502159165
79.31177658255841 5.788514233341298 44.06750177269978 29.455760576517356
93.95096294298911 6.416549110016647 53.22032680702001 34.31408702595242
108.36547483497976 6.782766622577193 62.535641158112966 39.047067054289585
121.11701286137864 6.72081386628254 71.11715221927847 43.27904677581767
130.6073772734291 6.256140939985976 77.83224218526526 46.518994148177846
134.15458533940108 4.290445741272984 81.56692106681267 48.29721853131551
130.6073772734049 6.2561409399802095 77.83224218525281 46.51899414817187
121.11701286134688 6.720813866291901 71.1171522192509 43.27904677580408
108.36547483493516 6.782766622591309 62.535641158074064 39.04706705426978
93.95096294291932 6.416549110004393 53.22032680698191 34.31408702593305
79.3117765824871 5.788514233335672 44.067501772656996 29.45576057649438
65.20532124482041 5.073012904291529 35.3980528383924 24.734255502136524
52.24065777376489 4.3724397449394 27.581492459778858 20.286725569046627
40.7704170993567 3.717848516204859 20.869007715208557 16.183560867943275
30.61564352922072 3.137851389505831 15.016812443999711 12.46097969571517
21.93598471793901 2.6356660671232786 10.168776246435995 9.131542404379745
14.713746163009235 2.1875801802518766 6.297541863151411 6.228624119605946
9.008257850172654 1.7702478807171609 3.4178463114178004 3.8201636580376914
4.87139413078557 1.3751476448479023 1.5093654993398986 1.9868809865977712
2.2793931157830034 0.9970325663285472 0.5014053588204651 0.7809551906339925
0.9104382452357306 0.6623707483166767 0.07475576232140682 0.1733117345976468
0.38449044090597845 0.38746696005500114 -0.00249282745798758 -0.00048369169103507293
0.19400824666933364 0.19402057638134063 2.6333761227924307e-06 -1.4963088129741247e-05
0.11227661660422554 0.11227661660422554 0.0 0.0
0.8727486836461062 0.11501889231734033 0.3037949710129456 0.45393482031582205
6.9271726708663985 3.3663419363639884 1.5277278109571175 2.0331029235452904
5.08203233030102 2.583514226792872 1.026947952017174 1.471570151490973
0.6193392743470574 0.14381773862603411 0.17134780175545566 0.30417373396556774
0.12687017129118147 0.12687017129118147 0.0 0.0
0.17207447580086616 0.17204049319355336 2.8046372313539237e-06 3.117797008141875e-05
0.3029205514733232 0.31225109881301416 -0.0023545442429674596 -0.006976003096723362
0.6468417572231056 0.5475351610359063 0.022344180892843634 0.0769624152943556
1.6196232567016815 0.8418571617853912 0.27104251319822886 0.5067235817180612
3.71686638837184 1.2004756538597614 1.0680440511466989 1.44834668336538
7.0116198360613575 1.5495501092447752 2.483257601023483 2.9788121257931004
11.734718301781683 1.9042504610256796 4.808364655860079 5.0221031848959194
17.666896642261907 2.2781178009815344 7.9110710133700355 7.477707827910329
24.758983853855337 2.6999549281065294 11.781024172651033 10.278004753097786
33.006249806961996 3.19327810802729 16.419038835983557 13.39393286295115
42.47686165050833 3.763981031393817 21.886730066063013 16.826150553051512
53.053804461363555 4.403426198142903 28.08935431761624 20.561023945604415
64.61837925864506 5.071796874838069 34.99950553215005 24.547076851656982
77.0724300971487 5.734157927796925 42.65857350117467 28.67969866817708
89.43432977495891 6.2632610897090215 50.36646783497577 32.80460085027412
100.69609380541965 6.411115219520226 57.66713846273577 36.61784012316362
109.59865653295334 6.075254408641538 63.831902194276466 39.69149993003531
113.08028515506861 3.80343423774597 67.68272452280341 41.59412639451929
109.59865653294405 6.075254408646894 63.831902194266775 39.69149993003033
100.69609380538046 6.4111152195134755 57.66713846271436 36.617840123152675
89.43432977490573 6.26326108970007 50.366467834946405 32.804600850259234
77.07243009710825 5.734157927804815 42.65857350114319 28.679698668160203
64.61837925858971 5.071796874835419 34.99950553211643 24.54707685163791
53.05380446131311 4.403426198144483 28.08935431758334 20.56102394558527
42.47686165044928 3.763981031382975 21.886730066033284 16.826150553033017
33.006249806917545 3.193278108027793 16.41903883595639 13.393932862933369
24.758983853807585 2.699954928099693 11.781024172627012 10.278004753080884
17.666896642224057 2.2781178009782015 7.911071013350464 7.477707827895402
11.734718301752945 1.9042504610241966 4.80836465584534 5.022103184883408
7.011619836040339 1.5495501092416228 2.4832576010144494 2.9788121257842657
3.7168663883589703 1.200475653857761 1.0680440511414977 1.4483466833597114
1.6196232566952156 0.8418571617839012 0.2710425131961723 0.5067235817151414
0.6468417572208777 0.5475351610344469 0.022344180892590312 0.07696241529384049
0.3029205514725358 0.31225109881204 -0.0023545442429331034 -0.006976003096571045
0.17207447580061497 0.17204049319330245 2.8046372312056218e-06 3.117797008131229e-05
0.1268701712908921 0.1268701712908921 0.0 0.0
0.6193392743439247 0.14381773862579425 0.17134780175416636 0.3041737339639643
5.082032330287922 2.583514226787582 1.026947952013635 1.4715701514867048
3.5999227453423717 1.9530342165257775 0.633192653009072 1.0136958758075238
0.4617879557706581 0.18778865657471883 0.09180896337685368 0.18219033581908556
0.1525390645325653 0.1525492623848044 -5.595583971474408e-07 -9.638293841952227e-06
0.16832231497585232 0.16830802895973526 9.176681420014073e-07 1.3368347975063384e-05
0.2548884818481846 0.25987913669615464 -0.0010316203644974008 -0.003959034483472751
0.465260466144835 0.4490236608409431 -0.0003917288316525371 0.016628534135544673
1.1104118087767068 0.6970897233297179 0.12971639369672397 0.28360569175026484
2.5915085864811958 1.0009582703581723 0.6146376967026753 0.9759126194203479
5.248011100015328 1.3301085126203236 1.7481704394377935 2.1697321479572107
8.859447038419816 1.6272496387799513 3.4017185952196565 3.8304788044202063
13.574843355864544 1.9392551217462002 5.799150649240537 5.836437584877806
19.149191480944165 2.290548546823266 8.752799541545418 8.105843392575478
25.592087207063013 2.706450373166255 12.268499328646174 10.617137505250588
32.97416457519582 3.2012416762722267 16.393769247918716 13.379153651004877
41.302502394046925 3.770417441456819 21.132919136732202 16.399165815857906
50.63424802834245 4.397801187920761 26.5919066496058 19.64454019081589
60.432646849960925 5.063007225288871 32.31193249436969 23.057707130302397
70.85412841543845 5.723145578706686 38.61035547049601 26.520627366235747
80.92347786836692 6.120516221838212 44.90353033528817 29.899431311240534
89.29354253991472 5.955353622300999 50.47826476470039 32.859924152913344
92.87109755327876 3.368791807817339 54.54439345417178 34.95791229128958
89.29354253990289 5.955353622300105 50.47826476469314 32.85992415290961
80.92347786833949 6.1205162218323945 44.903530335274056 29.89943131123307
70.85412841540739 5.723145578707445 38.610355470475504 26.520627366224456
60.4326468499209 5.063007225290324 32.31193249434327 23.05770713028732
50.634248028302295 4.39780118792373 26.591906649578608 19.64454019079994
41.30250239400182 3.770417441453162 21.132919136706718 16.39916581584196
32.97416457515897 3.201241676271357 16.393769247896987 13.379153650990625
25.59208720702623 2.706450373166106 12.268499328624577 10.617137505235554
19.149191480912197 2.2905485468227917 8.75279954152736 8.105843392562054
13.574843355834426 1.9392551217433693 5.799150649225498 5.83643758486556
8.8594470383982 1.6272496387801372 3.4017185952081728 3.830478804409887
5.248011100000245 1.330108512618866 1.7481704394309365 2.1697321479504446
2.591508586471939 1.0009582703568294 0.6146376966991074 0.9759126194160027
1.1104118087720602 0.6970897233282602 0.1297163936954735 0.2836056917483265
0.4652604661437522 0.4490236608400829 -0.00039172883170944593 0.016628534135379187
0.2548884818478523 0.2598791366958026 -0.0010316203644893677 -0.003959034483461026
0.16832231497553754 0.1683080289594258 9.176681415783688e-07 1.336834797013782e-05
0.15253906453238827 0.152549262384615 -5.595583963068968e-07 -9.638293830423766e-06
0.4617879557685224 0.18778865657453506 0.09180896337602165 0.18219033581796537
3.5999227453321843 1.9530342165214598 0.6331926530065736 1.0136958758041528
2.5200101082640116 1.4884262077908361 0.3993071542987969 0.6322767461743789
0.33803242604413847 0.21538523029499784 0.029958518913313848 0.09268867683582684
0.17933673891642007 0.17919606752193165 1.3770987484333799e-05 0.00012690040700401236
0.176033191624389 0.1759917904214683 3.286089719347991e-06 3.8115113201311664e-05
0.2292440029803393 0.23269951572634046 -0.0006315940149058111 -0.0028239187310953287
0.3553622088415235 0.3654673481034166 -0.005076316635169103 -0.005028822626724246
0.7203165816724214 0.5554072664413828 0.04032231904592339 0.12458699618511505
1.678819405396932 0.801886015633459 0.3047824032504928 0.572150986512981
3.5002273466977427 1.0812673781010744 0.991695168305308 1.42726480029136
6.266202825037241 1.3519983248736154 2.2409411345653263 2.6732633655983
9.687173091209743 1.6099832961748664 3.8647914457861097 4.21239834924877
13.791566740972629 1.9018232411505227 5.937340589778941 5.95240291004317
18.533895067151327 2.249277219799572 8.423278268955318 7.861339578396443
23.94616868944906 2.6693724400852608 11.320230261844 9.956565987519806
30.15374124337866 3.177663115941932 14.717572569811917 12.25850555762481
37.07238561078427 3.7563638517057645 18.54989455630922 14.766127202769301
44.72750296063085 4.388606214360839 22.909866908607892 17.429029837662107
52.88682180754963 5.128487149097934 27.529515810788414 20.22881884766328
61.40402755157135 5.7999614599291975 32.473899144805266 23.130166946836916
69.45115621742688 5.89890694626334 37.58615881212553 25.966090459038035
73.3316956083305 3.0015751354898064 41.986311284052356 28.343809188788367
69.4511562174252 5.8989069462670445 37.58615881212191 25.966090459036238
61.40402755155092 5.799961459921627 32.473899144797066 23.130166946832247
52.88682180752634 5.128487149099273 27.529515810772946 20.22881884765413
44.7275029605861 4.3886062143433415 22.909866908590956 17.429029837651793
37.07238561074807 3.7563638517033953 18.549894556288532 14.766127202756133
30.1537412433486 3.1776631159424027 14.717572569793623 12.258505557612583
23.94616868941955 2.6693724400817245 11.32023026182876 9.956565987509062
18.533895067121655 2.249277219794598 8.423278268941154 7.861339578385891
13.791566740946699 1.9018232411480405 5.937340589765987 5.952402910032668
9.687173091188376 1.6099832961741338 3.8647914457751553 4.212398349239082
6.266202825018873 1.3519983248700052 2.240941134557764 2.6732633655911058
3.500227346687423 1.0812673781008004 0.9916951683005651 1.4272648002860568
1.6788194053902568 0.8018860156319831 0.3047824032483309 0.572150986509942
0.7203165816699445 0.5554072664405291 0.040322319045387855 0.12458699618402795
0.35536220884071135 0.3654673481024431 -0.0050763166351503715 -0.005028822626581573
0.22924400298018607 0.2326995157261617 -0.0006315940148950495 -0.0028239187310804856
0.17603319162408743 0.17599179042114388 3.28608972023537e-06 3.811511322330217e-05
0.1793367389161753 0.17919606752157827 1.3770987492565427e-05 0.000126900407104469
0.3380324260428938 0.21538523029491738 0.029958518912884514 0.09268867683509177
2.5200101082564297 1.4884262077875448 0.39930715429691616 0.6322767461719693
1.6436983567540588 1.1021821991348668 0.1826506452423525 0.3588655123768392
0.2623412429876738 0.22975777725704036 0.0038043617291777317 0.02877910400145568
0.2018143377084793 0.20191092299450206 -1.0586311551036498e-05 -8.59989744716542e-05
0.19008282498728257 0.19032297013511254 -2.418428905696208e-05 -0.00021596085877303038
0.21803242282459276 0.22067679992251618 -0.000531179392401181 -0.002113197705522259
0.29761949008056776 0.30570899129938833 -0.0033524990458579764 -0.004737002172962707
0.475423095247682 0.4380495320103004 0.0033461959759342776 0.034027367261447276
0.9752859330417329 0.610858576397848 0.1100477263372867 0.2543796303065988
2.045995063806733 0.8211322403649035 0.4517721358028155 0.7730906876390131
3.7831937825479836 1.0430300386883842 1.1498322140115282 1.5903315298480722
6.040350139514361 1.2617856977846567 2.138832309260422 2.6397321324692835
8.772339354624311 1.5065350921634468 3.4287613111275395 3.837042951333324
11.907515031437423 1.7962455338454306 4.960880855283371 5.15038864230862
15.485277843901782 2.145888503079416 6.750474360717321 6.58891498010505
19.624415848574387 2.583091475078775 8.862450169414581 8.178874204081026
24.405527070052354 3.1189276872138123 11.342517392764213 9.944081990074338
29.777983904982687 3.720502414876839 14.178841026058606 11.878640464047235
35.66671470292296 4.397715428208598 17.30721858970827 13.961780685006108
42.5754087372607 5.309516164684588 20.97040837306575 16.295484199510355
50.31944251319392 5.911259146525414 25.440376299426724 18.96780706724177
54.694184133874245 2.7575338747046234 30.125143008549077 21.811507250620558
50.3194425131984 5.911259146531938 25.440376299425413 18.96780706724106
42.575408737256474 5.309516164686288 20.970408373062075 16.295484199508074
35.66671470290089 4.397715428202986 17.30721858969819 13.961780684999715
29.777983904966053 3.7205024148772123 14.17884102604845 11.878640464040384
24.405527070022835 3.1189276872054514 11.342517392751736 9.944081990065653
19.62441584854851 2.58309147507195 8.862450169403598 8.178874204072956
15.485277843888372 2.1458885030821486 6.750474360708248 6.588914980097975
11.90751503142354 1.796245533846804 4.960880855275119 5.150388642301616
8.772339354607217 1.5065350921610312 3.4287613111197346 3.8370429513264535
6.040350139499898 1.2617856977843698 2.1388323092533166 2.639732132462213
3.7831937825384854 1.0430300386871048 1.1498322140075716 1.5903315298438088
2.04599506379998 0.8211322403637901 0.4517721358003478 0.7730906876358432
0.9752859330383729 0.6108585763973854 0.11004772633621511 0.2543796303047723
0.47542309524608856 0.4380495320093573 0.0033461959757127135 0.034027367261018716
0.29761949008010247 0.3057089912984578 -0.0033524990457797334 -0.004737002172575544
0.21803242282429117 0.22067679992197747 -0.0005311793923781743 -0.0021131977053081776
0.19008282498696027 0.1903229701348751 -2.4184289063896762e-05 -0.00021596085885092786
0.2018143377080297 0.20191092299394103 -1.0586311544968654e-05 -8.599897436637586e-05
0.2623412429867275 0.22975777725676066 0.0038043617289438237 0.028779104001022925
1.6436983567489467 1.1021821991325058 0.18265064524122868 0.35886551237521247
1.0489234319418697 0.824972172548264 0.06720892483755667 0.15674233455604902
0.21442231150322247 0.22450396584872198 -0.005166612257738639 -0.004915042087760836
0.21775737357114242 0.21730905580911267 5.7852527600603696e-05 0.00039046523442914775
0.2065871071198233 0.2063535929672509 2.391041989647408e-05 0.00020960373267589315
0.21905586365476987 0.22101368995794898 -0.00046956031499791355 -0.0014882659881812644
0.27176437928604497 0.27672688530895395 -0.0020081751400455442 -0.0029543308828633022
0.36165918802489155 0.3484502091786237 0.0005395599908746462 0.012669418855393147
0.5247463242499922 0.42740340766695956 0.02169564028499463 0.07564727629803807
0.9204564267431337 0.5418597508102253 0.11529330594839837 0.2633033699845098
1.691874262339814 0.6817650631055863 0.3644528052399147 0.645656393994313
2.8618610587543465 0.8366528369953066 0.8237228571664033 1.2014853645926356
4.267956611655089 1.0125446090025176 1.391859894189871 1.8635521084626998
5.944141809376101 1.229302471925075 2.1154124720722502 2.599426865378776
7.901489187787427 1.5021179436794503 2.9849084290251766 3.4144628150828034
10.201180414675527 1.8531518402385085 4.017426859225791 4.330601715211226
12.975967660934941 2.316777027290589 5.271429138259702 5.387761495384649
16.33917498774606 2.893997492662423 6.82250663727135 6.622670857812291
20.232288447380785 3.489386924907611 8.713498212987686 8.029403309485492
24.90868438717664 4.256955939947518 10.981993107933869 9.669735339295249
31.80334996456917 5.662391989188982 14.21447528049725 11.926482694882948
37.870283844507505 2.79774564202204 19.625760349754106 15.44677785273136
31.80334996457025 5.662391989187712 14.214475280498672 11.926482694883864
24.908684387174326 4.2569559399484325 10.981993107931945 9.669735339293945
20.232288447366862 3.489386924903923 8.71349821298177 8.029403309481168
16.339174987735692 2.8939974926647265 6.8225066372641585 6.622670857806807
12.975967660919357 2.316777027284673 5.271429138254401 5.387761495380284
10.201180414666938 1.8531518402374263 4.017426859221812 4.330601715207701
7.901489187777434 1.5021179436773127 2.9849084290210124 3.4144628150791076
5.944141809363733 1.2293024719206065 2.115412472068228 2.599426865374895
4.2679566116480725 1.012544609002598 1.3918598941864142 1.863552108459061
2.8618610587468414 0.836652836995046 0.8237228571630512 1.2014853645887458
1.6918742623351735 0.6817650631047445 0.3644528052382661 0.6456563939921633
0.9204564267409607 0.5418597508102364 0.1152933059476076 0.2633033699831162
0.5247463242485865 0.42740340766655976 0.021695640284668687 0.07564727629735828
0.3616591880239825 0.3484502091778554 0.0005395599908273726 0.012669418855299616
0.27176437928553016 0.2767268853080572 -0.0020081751400047067 -0.0029543308825223215
0.21905586365459598 0.2210136899576014 -0.00046956031497376305 -0.0014882659880316846
0.20658710711926281 0.20635359296652783 2.3910419910740338e-05 0.0002096037328242065
0.21775737357078437 0.21730905580859355 5.785252761766739e-05 0.0003904652345731646
0.2144223115025342 0.2245039658482234 -0.005166612257776668 -0.004915042087912447
1.0489234319386709 0.8249721725464885 0.06720892483702368 0.15674233455515804
0.6531593850066882 0.6032053918889986 0.010267298479319656 0.03968669463837027
0.19203911876572388 0.2003775544220343 -0.001799364770887447 -0.006539070885423015
0.22712005055972717 0.22786198850397266 -8.803457381868643e-05 -0.0006539033704268727
0.2228337522067764 0.22236904706574756 5.4262958840660776e-05 0.00041044218218818545
0.23013696309928622 0.23091882816342083 -0.0003249463031252808 -0.0004569187610092865
0.2686851351933943 0.27083251060576324 -0.0013986668674484289 -0.0007487085449204854
0.33447233607450816 0.31651398660209634 0.002843105865354683 0.015115243607057332
0.38963436246754396 0.3173202384137316 0.01787347479325443 0.054440649260558124
0.44039312646909556 0.2750380136972556 0.052939747523597036 0.11241536524824292
0.5737118063489755 0.2543084337181383 0.11147793028537481 0.2079254423454624
0.8899927438704904 0.2953293747343697 0.23599918124293529 0.35866418789318577
1.3720599290486526 0.30751394421902634 0.42464734275664634 0.6398986420729798
2.0207114532226704 0.31277537066397615 0.7120445311323854 0.9958915514263096
2.8183065513895293 0.34177433051926537 1.0744005210542398 1.4021316998160254
3.7853403788188555 0.41446117101432817 1.5136167628109058 1.8572624449936213
4.92424535014071 0.5521014078156045 2.0162565531785863 2.3558873891465204
6.285498858967271 0.7793057721209266 2.6143617288092953 2.89183135803705
7.846548142065752 1.0765829458138412 3.3094355379880467 3.4605296582638605
10.0252983324235 1.554494443843855 4.251132713810615 4.219671174769032
15.782440977117767 3.469355295385799 6.180113240411902 6.1329724413200655
26.40562975493888 3.0338616448009015 12.46109561954443 10.910672490593555
15.782440977114053 3.4693552953774596 6.180113240414541 6.132972441322051
10.025298332419238 1.554494443842766 4.251132713808917 4.2196711747675595
7.846548142061907 1.0765829458170724 3.3094355379841387 3.460529658260695
6.285498858952037 0.7793057721141962 2.6143617288048135 2.891831358033023
4.924245350143932 0.5521014078224665 2.01625655317674 2.3558873891447267
3.7853403788133706 0.41446117101300195 1.513616762808752 1.8572624449916153
2.8183065513833547 0.34177433051761796 1.0744005210520717 1.402131699813665
2.0207114532175203 0.3127753706639925 0.7120445311299108 0.9958915514236163
1.372059929043734 0.3075139442182919 0.4246473427547296 0.6398986420707132
0.8899927438653378 0.2953293747320576 0.2359991812416034 0.3586641878916764
0.5737118063498566 0.2543084337189167 0.111477930285434 0.20792544234550653
0.44039312646846374 0.275038013697451 0.052939747523266606 0.11241536524774598
0.3896343624671822 0.317320238413956 0.01787347479306515 0.05444064926016106
0.33447233607370114 0.3165139866013911 0.002843105865276953 0.015115243607033098
0.2686851351930382 0.2708325106053236 -0.0013986668674282865 -0.0007487085448571345
0.2301369630988411 0.23091882816282247 -0.0003249463031108121 -0.0004569187608706067
0.22283375220645107 0.2223690470652513 5.426295886071212e-05 0.00041044218233896864
0.22712005055953235 0.22786198850362843 -8.803457379659673e-05 -0.0006539033702995272
0.19203911876555793 0.200377554421611 -0.001799364770842981 -0.0065390708852101605
0.65315938500484 0.6032053918876469 0.010267298479149287 0.039686694638044105
0.41874892208913944 0.41909351378086135 -0.00018553036804731457 -0.00015906132367454187
0.17998433071994044 0.18020199829525288 -4.169100187420241e-06 -0.00021349847512503042
0.23031282484882426 0.2300433611899913 9.363807315315662e-06 0.00026009985151765637
0.2366179569635875 0.23600683491410365 6.59830319602969e-05 0.0005451390175235738
0.24742944769732386 0.246974304871429 -0.000159547251341802 0.0006146900772367496
0.28939506773554746 0.2890401946470352 -0.0011136175731954723 0.001468490661707647
0.3737499188709275 0.3560375055418209 0.0024526481173533267 0.015259765211753495
0.5314744645656406 0.4294665243939325 0.023520890248906624 0.07848704992280128
0.9225774033819765 0.5417915357850955 0.11614980349553664 0.2646360641013445
1.6909876871478802 0.6813778292980399 0.36416902426710196 0.6454408335827374
2.866284382898207 0.8385505658592536 0.8253360242807206 1.2023977927582348
4.289823139494967 1.0161827881162533 1.4021760378788675 1.8714643134998454
5.988893657749137 1.2352206411594568 2.1350534406584893 2.6186195759311945
7.9409668236285365 1.5017641126969157 3.0067737635617284 3.4324289473698917
10.07654450579076 1.8163587594646087 3.972864626094429 4.287321120231717
12.275995771217575 2.1801722290834524 4.972073891609262 5.123749650524864
14.259753136837285 2.5735202163016044 5.8556034540707635 5.830629466464912
15.840213883914569 3.0383874710800787 6.525751328726572 6.2760750841079265
16.392044717088126 3.3659998475816955 6.696169557175632 6.32987531233079
13.289832152089872 2.341055104755066 5.753869154704063 5.194907892630738
26.745759157524713 4.724013566293507 11.52727214381647 10.494473447414729
13.289832152102123 2.341055104761538 5.753869154707341 5.194907892633243
16.392044717086055 3.3659998475803503 6.696169557175158 6.329875312330554
15.840213883895766 3.038387471072271 6.525751328720293 6.276075084103186
14.259753136825694 2.5735202163039816 5.855603454063 5.830629466458723
12.275995771197831 2.180172229076132 4.972073891602459 5.123749650519227
10.0765445057785 1.8163587594635753 3.9728646260885343 4.287321120226394
7.940966823617791 1.5017641126971966 3.0067737635559113 3.4324289473646834
5.988893657737689 1.2352206411606756 2.135053440652075 2.6186195759249387
4.289823139481898 1.0161827881150107 1.4021760378730992 1.8714643134937885
2.8662843828896314 0.8385505658601153 0.8253360242763491 1.202397792753165
1.6909876871404443 0.6813778292948478 0.3641690242652458 0.6454408335803509
0.922577403378945 0.5417915357840142 0.11614980349477871 0.26463606410015184
0.5314744645641155 0.4294665243932446 0.02352089024863192 0.07848704992223901
0.3737499188698288 0.35603750554099045 0.00245264811725371 0.015259765211584364
0.28939506773484047 0.28904019464602065 -0.001113617573173753 0.0014684906619937678
0.24742944769686198 0.24697430487079197 -0.00015954725132228347 0.0006146900773923641
0.23661795696337556 0.23600683491370375 6.598303197834057e-05 0.0005451390176935406
0.23031282484853569 0.2300433611896175 9.36380731741405e-06 0.0002600998516006528
0.17998433071998712 0.18020199829532463 -4.1691001928708366e-06 -0.00021349847514449602
0.41874892208786474 0.419093513779315 -0.00018553036801856383 -0.0001590613234316541
0.2706193714504678 0.27059863232034564 1.3476233019465938e-06 1.9391506820260498e-05
0.16611511667028847 0.1661771324614207 -3.7966847285357302e-06 -5.82191064036548e-05
0.22709628514126648 0.2276166694782568 -7.541385091133123e-05 -0.00044497048607893615
0.24632017381073726 0.24540253684726165 7.494696645988477e-05 0.0008426899970157168
0.2691275332418032 0.27090647410685564 -0.0005262609092036445 -0.0012526799558487385
0.33249070230566297 0.33351177220473016 -0.0012514400513866457 0.0002303701523190967
0.4943308182051852 0.43953513715438586 0.007556921295424513 0.04723875975537451
0.9844914258014675 0.6117426663121188 0.11350590145998662 0.25924285802936253
2.04631276794159 0.8208250409458501 0.45199991424049113 0.7734878127552487
3.781892970374567 1.0429994785953376 1.1490799424871079 1.589813549292121
6.045374349523083 1.2627792904969137 2.140756020801996 2.6418390382241728
8.792405642023052 1.509338975494226 3.437857017590143 3.8452096489386807
11.9452410216439 1.7989947822817747 4.980103896354084 5.1661423430080475
15.503386679488685 2.1371158190421746 6.766060045717854 6.60021081472865
19.460697350975202 2.5296847900106503 8.800622510560963 8.130390050403594
23.64952163730789 2.966298629057205 10.991900537519715 9.691322470730952
27.72685459469161 3.4515402586851134 13.119734661257308 11.155579674749186
31.182850075390974 4.009002464274978 14.83007774600185 12.343769865114137
32.867225584120334 4.265399015766349 15.707456905090105 12.894369663263872
30.542223739050613 4.168234738509209 14.471342603826622 11.902646396714783
37.643933072693315 8.969339415732659 15.696530910232582 12.978062746728071
30.542223739053092 4.16823473850522 14.471342603830593 11.902646396717286
32.8672255841238 4.265399015769303 15.7074569050904 12.894369663264088
31.182850075367938 4.009002464270316 14.830077745990742 12.343769865106879
27.726854594663155 3.4515402586804846 13.119734661243102 11.155579674739567
23.649521637283026 2.9662986290550517 10.991900537506442 9.69132247072154
19.460697350950117 2.5296847900073316 8.800622510548447 8.130390050394336
15.503386679460341 2.13711581903531 6.766060045705819 6.600210814719212
11.945241021621493 1.7989947822796077 4.980103896343022 5.166142342998863
8.792405642002596 1.5093389754929198 3.437857017579999 3.8452096489296763
6.0453743495000545 1.2627792904922976 2.140756020792687 2.64183903821507
3.7818929703609534 1.0429994785933743 1.1490799424814855 1.589813549286096
2.0463127679340674 0.8208250409443184 0.45199991423787117 0.7734878127518774
0.9844914257973078 0.6117426663105744 0.11350590145900807 0.2592428580277253
0.49433081820337715 0.4395351371533174 0.00755692129516927 0.04723875975489081
0.3324907023049021 0.3335117722037759 -0.0012514400513586078 0.00023037015248472507
0.26912753324148414 0.27090647410630103 -0.0005262609091611457 -0.0012526799556557848
0.24632017381025909 0.24540253684665025 7.49469664675995e-05 0.0008426899971411867
0.22709628514098296 0.22761666947790718 -7.541385090635076e-05 -0.0004449704860177854
0.16611511667022835 0.1661771324613891 -3.796684730042446e-06 -5.821910643070624e-05
0.2706193714498131 0.2705986323197039 1.3476233008971399e-06 1.9391506808273514e-05
0.16776425964979105 0.16776425964979105 0.0 0.0
0.14720232760366553 0.14720663183541607 -1.4328105404036436e-07 -4.160950696500454e-06
0.2170399232599834 0.21742286963645532 -5.108609099209762e-05 -0.0003318602854798808
0.2522294202556956 0.2529795716203983 -0.00015919924924133694 -0.0005909521154613737
0.2944949684840641 0.29541641944782027 -0.0004901019650592119 -0.0004313489986970354
0.3975188083981077 0.38489271703588596 -0.0008260796683218908 0.013452171030543868
0.7485331260904634 0.5628859015537806 0.04969613578187551 0.13595108875480705
1.6850844379381034 0.8022623244879095 0.307875697458044 0.5749464159921508
3.4979819374748575 1.0812738052728377 0.990579904952175 1.426128227249842
6.26638679308001 1.3524053100248103 2.2410799344255787 2.672901548629621
9.692685137059492 1.6106819580131366 3.866078407150587 4.215924771895771
13.80598127172968 1.9030013689500311 5.944771847496118 5.958208055283534
18.547952666356522 2.24852697707889 8.431853856589369 7.867571832688261
23.918916835323795 2.6543690582384216 11.313263712551077 9.951284064534303
29.95194274692062 3.1171712713453443 14.633323095410649 12.201448380164619
36.400262545965134 3.6196370302173566 18.224269182079162 14.55635633366862
42.989503221442305 4.154121029008909 21.980375495756608 16.85500669667678
48.547036553988455 4.5690238000480505 25.162356421129278 18.815656332811123
51.34046300716743 4.673041622978955 26.85230390848936 19.815117475699093
47.87973989839978 4.144899392737351 25.031581580212922 18.70325892544949
53.652796136348925 11.978126134209209 23.71333202996281 17.961337972176903
47.87973989839551 4.144899392731389 25.03158158021399 18.703258925450115
51.340463007141764 4.673041622959913 26.852303908485176 19.815117475696688
48.54703655396081 4.569023800047456 25.16235642111232 18.815656332801037
42.989503221409166 4.154121029009029 21.980375495736016 16.855006696664102
36.40026254592107 3.619637030207202 18.22426918205843 14.556356333655437
29.951942746880988 3.1171712713390862 14.63332309539065 12.201448380151241
23.91891683529258 2.6543690582408987 11.313263712531276 9.9512840645204
18.54795266631999 2.2485269770741785 8.431853856571122 7.867571832674688
13.805981271696036 1.9030013689447434 5.94477184748033 5.958208055270954
9.69268513703567 1.6106819580167466 3.8660784071359227 4.215924771882999
6.266386793058931 1.3524053100230242 2.2410799344157133 2.6729015486201924
3.497981937461876 1.081273805271517 0.9905799049466493 1.4261282272437097
1.6850844379315257 0.8022623244867406 0.30787569745579774 0.5749464159889874
0.7485331260873067 0.5628859015527461 0.049696135781132335 0.13595108875342804
0.3975188083971405 0.38489271703497635 -0.0008260796683633824 0.013452171030527524
0.2944949684837121 0.295416419447213 -0.000490101965027414 -0.0004313489984734594
0.25222942025542167 0.252979571619967 -0.00015919924922111733 -0.0005909521153240745
0.21703992325976182 0.2174228696362688 -5.1086090996817766e-05 -0.00033186028551017205
0.14720232760349905 0.14720663183523958 -1.432810533475878e-07 -4.1609506871892085e-06
0.16776425964949426 0.16776425964949426 0.0 0.0
0.09834714797465686 0.09834714797465686 0.0 0.0
0.12370276327733777 0.12369853720361036 2.3276924337965782e-07 3.99330448403657e-06
0.20111802442354837 0.20131657773495912 -2.3896281615893375e-05 -0.00017465702979481504
0.25465752953996823 0.2550448914364281 -0.00013055065102966743 -0.0002568112454302527
0.32317529345238344 0.3270747241616092 -0.0013514422653030207 -0.0025479884439228127
0.5120342775100086 0.4669685953210444 0.008687608996678396 0.036378073192285865
1.1278525037207618 0.6939434273183873 0.1366127181354836 0.2972963582668908
2.5923890152096294 1.0014655880461631 0.6152736381232422 0.9756497890402241
5.2450818824351195 1.3307282994572367 1.7463521206203056 2.168001462357576
8.86136118750288 1.6278891632833534 3.4021951397403587 3.8312768844791707
13.58189127203411 1.9391919156499295 5.803354428962243 5.839344927421939
19.150785612950273 2.288124626228245 8.75516828204319 8.107492704678839
25.56575002569437 2.6984851185851864 12.25780804709439 10.609456860014816
32.88410259486272 3.1812450680351407 16.351652154746205 13.351205372081353
41.093423129672466 3.7270534950670102 21.03081999401835 16.335549640587104
50.15042500687122 4.308175889670288 26.344285689093233 19.49796342810772
59.04771158862124 4.806733086766792 31.59400588540786 22.646972616446604
66.78102257285535 5.039772120862933 36.42990507361118 25.311345378381237
70.41056465232313 4.742732158056385 38.99134677271891 26.676485721547866
65.99113790186702 4.2258798050467465 36.47535696368057 25.289901133139715
71.6031023905061 14.934601573663372 33.160074603983105 23.50842621285961
65.99113790187728 4.22587980505826 36.475356963679815 25.289901133139193
70.4105646523042 4.742732158055398 38.99134677270725 26.67648572154156
66.7810225728336 5.039772120874528 36.4299050735897 25.311345378369367
59.047711588571936 4.806733086761274 31.594005885380046 22.646972616430617
50.15042500682314 4.308175889667705 26.344285689064673 19.49796342809078
41.09342312961862 3.727053495060173 21.030819993989432 16.33554964056901
32.88410259481921 3.1812450680352797 16.351652154719844 13.351205372064081
25.565750025655525 2.698485118588308 12.257808047069606 10.609456859997609
19.15078561291267 2.2881246262286514 8.75516828202146 8.107492704662567
13.581891272000648 1.9391919156478448 5.803354428944983 5.83934492740782
8.861361187478114 1.627889163282196 3.402195139727958 3.8312768844679588
5.245081882416898 1.3307282994559766 1.7463521206117736 2.1680014623491477
2.5923890151993216 1.0014655880447025 0.6152736381192458 0.9756497890353737
1.1278525037158191 0.6939434273171623 0.13661271813402046 0.2972963582646358
0.5120342775083189 0.4669685953200858 0.008687608996462502 0.0363780731917708
0.3231752934519352 0.32707472416081934 -0.0013514422652418717 -0.0025479884436422286
0.2546575295396394 0.25504489143585213 -0.00013055065101045388 -0.0002568112452023115
0.20111802442315144 0.2013165777345961 -2.3896281619785532e-05 -0.0001746570298248624
0.12370276327721076 0.12369853720348338 2.3276924336996675e-07 3.9933044839934034e-06
0.09834714797431614 0.09834714797431614 0.0 0.0
0.05422087867754887 0.05422087867754887 0.0 0.0
0.09823461388766648 0.09823461388766648 0.0 0.0
0.1807531008322666 0.18077750014985783 -2.9178186643176473e-06 -2.1481498926933374e-05
0.25455191009488143 0.25580666518405115 -0.0002249743151742777 -0.0010297807739954455
0.3599614386415503 0.3597528254569425 -0.0015711589081493587 0.00177977209275709
0.6852760058172284 0.5590320457012352 0.033333519837782453 0.09291044027821055
1.6322697907239174 0.841594498097564 0.27761478348043744 0.5130605091459158
3.7144057678328437 1.2017322045309604 1.066470043980736 1.4462035193211455
7.0102519379337505 1.550594410538296 2.4821633623977246 2.977494164997731
11.738995093954195 1.9048439319600061 4.8103048743942916 5.023846287599891
17.67151614384623 2.2767040693116996 7.914504189251068 7.480307885283464
24.74161950239513 2.691951725767593 11.775553598691365 10.274114177936177
32.92829422318578 3.1744332429061553 16.383421770212074 13.370439210067543
42.317580382836944 3.7414152721689633 21.802352773333336 16.773812337334654
52.84926606996437 4.3931233146968305 27.966963780281997 20.48917897498555
64.31603455458114 5.030736715016514 34.831737780679056 24.45356005888559
76.01873109924159 5.464149203270134 42.14913134102432 28.405450554947144
85.55048139029942 5.39663127137002 48.38747263816961 31.7663774807598
89.66064300652764 4.721144781201907 51.49217489000159 33.44732333532411
84.76162881369453 4.4415645767168614 48.513048832181305 31.807015404796374
91.1858656115991 17.90844989719369 43.919604576983524 29.35781113742188
84.76162881368137 4.4415645767074965 48.51304883217885 31.807015404795024
89.66064300651666 4.721144781213603 51.49217488998666 33.447323335316405
85.55048139025685 5.396631271367714 48.387472638143265 31.76637748074588
76.01873109918954 5.464149203273056 42.149131340988625 28.405450554927896
64.31603455452273 5.030736715013694 34.83173778064343 24.453560058865595
52.84926606991048 4.393123314699263 27.96696378024656 20.48917897496465
42.31758038277904 3.74141527216492 21.802352773300083 16.77381233731406
32.92829422312699 3.1744332429006112 16.38342177017993 13.370439210046454
24.741619502345074 2.6919517257642545 11.7755535986639 10.274114177916916
17.671516143800975 2.2767040693056573 7.914504189228806 7.480307885266517
11.73899509391892 1.9048439319546526 4.810304874378021 5.023846287586242
7.01025193791028 1.5505944105356504 2.482163362387236 2.9774941649873905
3.7144057678182545 1.2017322045288843 1.0664700439747368 1.4462035193146336
1.632269790716868 0.8415944980955717 0.27761478347834645 0.5130605091429506
0.6852760058143955 0.5590320457000854 0.03333351983720149 0.09291044027710846
0.35996143864105734 0.3597528254561703 -0.0015711589081051562 0.0017797720929924057
0.2545519100944225 0.25580666518354966 -0.00022497431516964845 -0.001029780773957471
0.18075310083193122 0.1807775001495443 -2.9178186662997383e-06 -2.1481498946790303e-05
0.09823461388765144 0.09823461388765144 0.0 0.0
0.05422087867734275 0.05422087867734275 0.0 0.0
0.02802410475360243 0.02802410475360243 0.0 0.0
0.07374946832063316 0.07374946832063316 0.0 0.0
0.15836951789428594 0.158362701130618 3.960330448053176e-07 6.420730623111643e-06
0.2542638598936431 0.25535453441230227 -0.0002070596447459998 -0.0008836148739130253
0.4182896213108495 0.4118046208882547 0.00011946783806115633 0.006365532584533632
0.9189719391740396 0.6489161304085207 0.07769301393972003 0.1923627948257985
2.2840225583485103 0.9972658134012327 0.504713759017196 0.7820429859300818
4.868740023686498 1.3766529093593594 1.5071627833244055 1.9849243310027327
9.00955862409367 1.771422178294394 3.4181518943026656 3.8199845514966073
14.719662839464 2.187845495336945 6.300723630848083 6.231093713278975
21.935309054615114 2.6320812681342383 10.170483957243295 9.13274382923758
30.575692931064047 3.123428845422947 15.001527203551177 12.450736882089918
40.64188665456927 3.688066470616305 20.80823492985696 16.145585254096012
52.01313114515297 4.345339359517438 27.455476767288285 20.212315018347265
64.96810918634058 5.084993346613733 35.238339991336915 24.644775848389926
79.09087511801499 5.794130179504629 43.91953360216338 29.377211336346967
93.07648941472473 6.125706990733372 52.834740759867344 34.11604166412399
104.49940307780757 5.700326597523928 60.681180585628034 38.11789589465561
109.54281711623867 4.715884020291192 64.70404393844528 40.122889157502264
104.39406228596754 4.708836284775165 61.28118077489201 38.404045226300354
111.98209502438769 20.86841169466999 55.57390424064436 35.53977908907337
104.39406228593708 4.708836284758098 61.281180774883 38.40404522629594
109.54281711619612 4.715884020277866 64.7040439384258 40.12288915749246
104.49940307774712 5.700326597515075 60.68118058559362 38.11789589463837
93.0764894146625 6.125706990734912 52.83474075982525 34.11604166410232
79.0908751179423 5.794130179500136 43.919533602118975 29.3772113363232
64.96810918625769 5.08499334659971 35.23833999129271 24.64477584836525
52.01313114508509 4.345339359513571 27.455476767248 20.21231501832351
40.6418866545082 3.6880664706194644 20.808234929817452 16.14558525407125
30.5756929310047 3.123428845420859 15.001527203516895 12.450736882066941
21.93530905456549 2.632081268131379 10.170483957216197 9.132743829217908
14.719662839423249 2.1878454953342423 6.300723630826917 6.231093713262098
9.009558624065352 1.7714221782926927 3.418151894288833 3.8199845514838264
4.86874002366934 1.3766529093567268 1.5071627833173284 1.9849243309952858
2.284022558338515 0.9972658133987513 0.5047137590138249 0.7820429859259377
0.9189719391699982 0.6489161304074178 0.07769301393863248 0.1923627948239482
0.4182896213097605 0.41180462088718295 0.00011946783805043487 0.006365532584526951
0.2542638598932893 0.2553545344118601 -0.00020705964473995652 -0.0008836148738307912
0.15836951789408693 0.15836270113041995 3.960330447626668e-07 6.4207306222634735e-06
0.07374946832055644 0.07374946832055644 0.0 0.0
0.028024104753450872 0.028024104753450872 0.0 0.0
0.013728803092278566 0.013728803092278566 0.0 0.0
0.05261970653190025 0.05261970653190025 0.0 0.0
0.13678269239811647 0.13678019007344472 1.22441077168008e-07 2.379883594554421e-06
0.2578094537054585 0.2593406310763742 -0.00029099485706649285 -0.0012401825138493704
0.5056180072444983 0.4719629269752424 0.007119059706625749 0.026536020562630453
1.2448657808042567 0.7669039401541452 0.16063098090643343 0.3173308597436784
2.998150108787036 1.137784809677146 0.7474448777142715 1.1129204213956183
6.16845651731908 1.5408538960285 2.0706203501730087 2.5569822711175685
11.080771193187054 1.9928869039281787 4.407583860255445 4.680300429003431
17.823702095288024 2.481154622045155 7.893349020843772 7.449198452399089
26.334230645956637 3.0061775867600957 12.536476221173821 10.791576838022744
36.60128256395819 3.5884204576587813 18.378224314540535 14.63463779175888
48.472942424399385 4.243597964991094 25.296573514316524 18.93277094509177
62.18615502847228 4.985574793754013 33.541535887818824 23.659044346899446
77.40453003168233 5.802071347677524 42.804751684982975 28.79770699902184
93.84867030916195 6.547333766706973 53.050492064314085 34.25084447814092
110.32151377739888 6.797725093954541 63.829343718335245 39.69444496510911
123.72265654692879 6.049206020012379 73.32052286797249 44.35292765894394
129.9935250423457 4.75013718814637 78.42122987376771 46.82215798043162
125.18441394291298 4.9653206906745195 75.04837241836995 45.170720833868515
134.53852042468333 23.76916882179566 68.68791751278388 42.08143409010376
125.18441394289356 4.965320690676867 75.0483724183553 45.17072083386148
129.99352504229336 4.7501371881362395 78.4212298737391 46.82215798041796
123.7226565468657 6.049206020013389 73.32052286792916 44.35292765892313
110.32151377732662 6.797725093957224 63.82934371828523 39.694444965084124
93.84867030908416 6.5473337667083955 53.050492064261746 34.25084447811395
77.40453003160323 5.802071347680887 42.80475168492937 28.79770699899296
62.186155028386494 4.985574793743665 33.54153588777068 23.659044346872168
48.4729424243202 4.243597964986059 25.29657351427014 18.93277094506399
36.601282563887274 3.5884204576559093 18.378224314499164 14.6346377917322
26.334230645897243 3.006177586754855 12.536476221141871 10.791576838000521
17.82370209524228 2.481154622041859 7.893349020819658 7.449198452380758
11.080771193154753 1.9928869039260144 4.407583860239258 4.680300428989485
6.1684565172970425 1.5408538960252869 2.070620350163848 2.556982271107908
2.9981501087749 1.1377848096745797 0.747444877709871 1.1129204213904496
1.244865780799028 0.7669039401531473 0.16063098090474753 0.31733085974113284
0.505618007243106 0.47196292697430947 0.007119059706481205 0.02653602056231523
0.2578094537053152 0.2593406310760234 -0.00029099485705188854 -0.0012401825136560951
0.13678269239785382 0.13678019007318531 1.2244107697319608e-07 2.3798835915387224e-06
0.05261970653177897 0.05261970653177897 0.0 0.0
0.013728803092198767 0.013728803092198767 0.0 0.0
0.006634792180107202 0.006634792180107202 0.0 0.0
0.036325046061590954 0.036325046061590954 0.0 0.0
0.11915216792432037 0.11915216792432037 0.0 0.0
0.27185173934866647 0.27467100651126913 -0.0005878150186365218 -0.0022314521439659946
0.6320089578943677 0.5420883661549734 0.02224454250511064 0.06767604923428387
1.6551678972179378 0.8857703468006723 0.28234746309868497 0.48705008731858057
3.7855081751567665 1.2583483054611952 1.0419844099838997 1.48517545971167
7.551601931033851 1.7038343444307942 2.6959926652823083 3.151774921320749
13.226929704660854 2.215353053246694 5.459225626430209 5.552351024983952
21.010184528492456 2.7839075420998967 9.553088739228155 8.673188247164408
30.88541659089929 3.403921797104093 15.028172469260344 12.45332232453484
42.760105912458165 4.08409805129396 21.85289988662334 16.823107974540875
56.7352906719326 4.846033592350422 30.165494477424243 21.723762602157905
72.46054578612758 5.679911664916622 39.65713965796987 27.123494463241077
90.03676842909928 6.5167644480192255 50.57456845278291 32.945435528297104
108.81418551822885 7.223003292178404 62.54044652303718 39.050735703013245
127.49452396848557 7.466211167069256 74.90509071552151 45.12322208589482
143.0799551815363 6.584672702105725 86.06538111235122 50.429901367079324
151.05909612044346 4.8009298702149525 92.76038675573864 53.49777949448987
147.39498029743496 5.148866649397321 90.03055639547554 52.215557252562064
159.07192461267337 26.49459661444095 83.40387916497954 49.173448833252834
147.39498029741543 5.14886664940226 90.03055639545859 52.21555725255452
151.05909612038212 4.800929870210319 92.76038675570007 53.497779494471814
143.07995518146163 6.5846727021065 86.06538111229986 50.42990136705526
127.49452396839568 7.466211167067733 74.90509071546182 45.12322208586614
108.81418551812483 7.223003292168456 62.54044652297438 39.050735702981996
90.03676842900178 6.516764448011974 50.57456845272366 32.94543552826614
72.46054578603085 5.679911664908513 39.6571396579126 27.123494463209745
56.73529067184462 4.846033592349103 30.165494477369325 21.7237626021262
42.760105912379004 4.084098051292257 21.85289988657545 16.823107974511295
30.885416590829127 3.403921797098468 15.028172469221733 12.453322324508935
21.01018452843999 2.7839075420951684 9.553088739200655 8.673188247144157
13.226929704622249 2.2153530532419086 5.459225626411723 5.552351024968617
7.551601931009478 1.7038343444296813 2.6959926652704276 3.1517749213093667
3.7855081751418713 1.2583483054575866 1.0419844099788744 1.485175459705411
1.6551678972117585 0.8857703467992499 0.2823474630967064 0.4870500873158025
0.6320089578924926 0.5420883661537392 0.02224454250487593 0.06767604923387753
0.2718517393484758 0.2746710065109178 -0.0005878150186126401 -0.0022314521438294645
0.11915216792418887 0.11915216792418887 0.0 0.0
0.036325046061538656 0.036325046061538656 0.0 0.0
0.006634792180149783 0.006634792180149783 0.0 0.0
0.003149371900999014 0.003149371900999014 0.0 0.0
0.025161027740967276 0.025161027740967276 0.0 0.0
0.10977823170903732 0.10977823170903732 0.0 0.0
0.3071611560659095 0.3087427880800304 -0.0007969081505396205 -0.0007847238635815563
0.8222173079334997 0.6357899036486401 0.05719113644630976 0.1292362678385499
2.1197989519635443 0.9908082865444178 0.42719054846635807 0.7018001169527694
4.670676103815155 1.3795939914935689 1.4111453042786353 1.8799368080429508
8.985863421624858 1.8625866078903601 3.36069495226337 3.7625818614711273
15.448809597744168 2.4388410525208455 6.579113072939418 6.430855472283907
24.265487606946664 3.0975617432240674 11.269944160877609 9.897981702844998
35.50793278213521 3.821119250656126 17.570671056311298 14.11614247516777
49.18517201289334 4.618136952982248 25.554869682921172 19.012165376989902
64.99537000544262 5.495062313999047 34.97406442055275 24.526243270890888
83.0910703275867 6.407235973189432 46.096560945371756 30.587273409025514
102.97988890572603 7.256569323741736 58.635153107169145 37.08816647481516
123.86598073588397 7.845340223158521 72.20778913411807 43.81285137860729
144.3809145458825 7.951515002544953 86.04573139642014 50.38366814691743
162.1989313583117 7.294539605290178 98.70384415453559 56.2005475984859
172.5124806075907 5.092402859172443 107.33423495949634 60.085842788921894
171.24122129703304 5.056197468618319 106.50783425650204 59.677189571912706
185.9710773089691 28.165270675240606 100.69696773753827 57.10883889619019
171.24122129698355 5.056197468600744 106.50783425648 59.677189571902744
172.5124806075408 5.092402859186205 107.33423495945283 60.08584278890173
162.19893135822275 7.294539605290455 98.70384415447431 56.200547598458016
144.3809145457765 7.9515150025426875 86.04573139634924 50.383668146884474
123.8659807357807 7.845340223163911 72.20778913404516 43.81285137857168
102.97988890560508 7.256569323728022 58.63515310709797 37.088166474779094
83.09107032747768 6.407235973182531 46.096560945304965 30.58727340899017
64.99537000534431 5.495062313998443 34.974064420490116 24.526243270855726
49.18517201280213 4.618136952977343 25.554869682867192 19.012165376957604
35.507932782058234 3.8211192506519565 17.570671056267056 14.116142475139224
24.265487606888847 3.0975617432210028 11.269944160845583 9.897981702822257
15.448809597700292 2.4388410525154565 6.579113072917986 6.43085547226685
8.98586342159527 1.8625866078868394 3.360694952249779 3.762581861458651
4.670676103797973 1.3795939914907946 1.4111453042718127 1.879936808035366
2.1197989519547416 0.9908082865417319 0.4271905484636938 0.7018001169493169
0.8222173079306477 0.635789903647164 0.05719113644579926 0.12923626783768422
0.3071611560653954 0.30874278807940614 -0.0007969081505274316 -0.0007847238634832296
0.1097782317088184 0.1097782317088184 0.0 0.0
0.025161027740946782 0.025161027740946782 0.0 0.0
0.003149371900999343 0.003149371900999343 0.0 0.0
0.0009915994573893717 0.0009915994573893717 0.0 0.0
0.01846932391032091 0.01846932391032091 0.0 0.0
0.11550085756146689 0.11550085756146689 0.0 0.0
0.3827832817512109 0.37264972914753425 0.0015672706918061783 0.008566281911870584
1.093894731879723 0.7814827826988308 0.10614867856863767 0.20626327061225497
2.704245960043524 1.2349184293262008 0.5777365525680389 0.8915909781492821
5.696618328910745 1.7739851158928435 1.7224070628130668 2.2002261502048346
10.631024099432185 2.4915871204975497 3.903754109424782 4.235682869509856
17.961232762843984 3.423368338349431 7.436957800903425 7.100906623591139
28.037587932050926 4.5944288731907035 12.616542793000958 10.82661626585925
40.97491158009608 6.01199547524288 19.589173872563702 15.373742232289509
56.61537875433277 7.669284182093673 28.27432276270212 20.671771809536963
74.97013063611692 9.528603440292718 38.79857466472984 26.642952531094355
95.76875360151058 11.504932520319013 51.062509552312015 33.20131152887956
118.37542286052341 13.31883596048562 64.85851195098743 40.19807494905028
141.5825409113624 14.524941911527959 79.69381733725623 47.36378166257824
163.51107051722573 14.666002623865129 94.55103882682296 54.29402906653763
182.06296985043193 13.72393610092448 107.97107691825616 60.36795683125132
194.89458342409372 12.305194492722253 117.84516605396743 64.74422287740411
190.69846232926463 5.184661838036746 119.82263009884471 65.69117039238311
263.19653967823507 81.86954993594333 117.02750893978342 64.29948080250837
190.6984623292318 5.184661838043152 119.82263009881733 65.69117039237125
194.8945834240035 12.305194492697392 117.84516605392149 64.74422287738459
182.0629698503325 13.723936100925755 107.97107691818721 60.36795683121968
163.5110705171091 14.66600262386418 94.55103882674388 54.29402906650113
141.5825409112343 14.524941911515342 79.69381733717759 47.36378166254123
118.3754228604151 13.31883596050034 64.8585119509053 40.198074949009495
95.76875360138705 11.504932520308603 51.06250955223752 33.20131152884095
74.97013063600463 9.52860344028578 38.798574664661835 26.64295253105705
56.61537875422672 7.669284182082114 28.2743227626425 20.671771809502083
40.97491158000557 6.011995475229492 19.589173872516408 15.373742232259687
28.037587931984042 4.594428873183162 12.616542792965785 10.826616265835098
17.96123276279325 3.4233683383407514 7.43695780087965 7.100906623572859
10.631024099398607 2.4915871204936013 3.9037541094090544 4.235682869495951
5.6966183288904695 1.7739851158891469 1.7224070628050159 2.2002261501963076
2.704245960033175 1.234918429323315 0.5777365525648968 0.8915909781449634
1.093894731876227 0.7814827826973927 0.10614867856784815 0.20626327061098648
0.3827832817505923 0.37264972914707 0.0015672706917700847 0.00856628191175186
0.1155008575613273 0.1155008575613273 0.0 0.0
0.018469323910273068 0.018469323910273068 0.0 0.0
0.0009915994573858988 0.0009915994573858988 0.0 0.0
CELL_DATA 800
SCALARS Stress float 6
LOOKUP_TABLE default
168.15098789838322 -520.4953705966504 -181.84811095293202 -110.02687694876451 0.0 0.0
402.90398787934726 -75.28078467558464 115.85043801636793 55.21993297761682 0.0 0.0
413.83276816667365 8.715191960714765 126.56820203331179 -2.8760668911298914 0.0 0.0
472.83991032443976 -14.642832908894864 147.6209791588244 -15.244704127034998 0.0 0.0
550.0797603054658 -20.83913831849806 205.2880164194275 -11.666237866321573 0.0 0.0
624.419281036525 -16.608687686596156 277.29133815101557 -10.275396248654125 0.0 0.0
696.3844564943629 -10.531989360205486 333.1665677539528 -10.949744126349222 0.0 0.0
769.1576364349728 3.5551675461522763 381.7916803535505 -12.711864880845496 0.0 0.0
844.7560760401865 25.95713132183326 432.18020245852006 -14.474704213148804 0.0 0.0
922.8543682465681 55.60122009854268 486.6469908300823 -15.642319145600274 0.0 0.0
1001.6429102722379 90.08283037901182 543.6892378709175 -16.115815750442852 0.0 0.0
1079.712546472506 128.0630830136672 602.0184788429636 -16.067292867471235 0.0 0.0
1157.1618643283769 168.44996224061921 661.1486060633515 -15.871164730941695 0.0 0.0
1234.8357193052134 211.82183002228837 721.8166718687551 -15.5599883308531 0.0 0.0
1313.2889792975675 258.77535041333056 784.6255725959663 -14.995993967741652 0.0 0.0
1391.7921564954868 308.75602182586306 848.9500139458156 -13.985055044808702 0.0 0.0
1467.9465706535052 359.8795902564346 912.6597993066997 -12.397623317715313 0.0 0.0
1539.2174595908086 410.28420435785534 973.5447493693762 -10.515254652553018 0.0 0.0
1605.0283401361228 460.2943046295028 1031.4192578985064 -9.909355253122378 0.0 0.0
1700.2258196456053 546.8078645155699 1121.7581288325957 -15.867559110859311 0.0 0.0
1700.2258196466692 546.8078645166561 1121.758128833316 15.867559110835625 0.0 0.0
1605.0283401368304 460.29430463025733 1031.4192578990048 9.909355253143861 0.0 0.0
1539.2174595900947 410.2842043572249 973.5447493688212 10.515254652639857 0.0 0.0
1467.9465706532758 359.87959025630755 912.6597993065654 12.397623317787872 0.0 0.0
1391.7921564949913 308.75602182549403 848.9500139454409 13.985055044825113 0.0 0.0
1313.2889792973954 258.77535041331186 784.6255725957824 14.995993967683585 0.0 0.0
1234.835719305663 211.82183002291356 721.8166718689969 15.559988330890695 0.0 0.0
1157.1618643294382 168.44996224188685 661.1486060640198 15.871164730803484 0.0 0.0
1079.7125464720914 128.06308301346792 602.0184788426828 16.067292867466882 0.0 0.0
1001.6429102716908 90.08283037869938 543.6892378705377 16.115815750197708 0.0 0.0
922.8543682458768 55.60122009810058 486.64699082962403 15.642319145542098 0.0 0.0
844.7560760392571 25.95713132115125 432.18020245794634 14.474704212997523 0.0 0.0
769.1576364347152 3.555167546187775 381.7916803533627 12.71186488089274 0.0 0.0
696.38445649398 -10.53198936031238 333.16656775368205 10.949744126257979 0.0 0.0
624.4192810363861 -16.60868768642986 277.29133815083594 10.27539624857189 0.0 0.0
550.0797603055379 -20.839138318127098 205.28801641940044 11.666237866243028 0.0 0.0
472.8399103241797 -14.642832908854453 147.62097915870575 15.244704126861377 0.0 0.0
413.8327681666218 8.715191960756172 126.56820203331179 2.8760668910053275 0.0 0.0
402.90398787921083 -75.28078467563022 115.85043801627438 -55.21993297768725 0.0 0.0
168.15098789900932 -520.4953705960188 -181.84811095235145 110.02687694850911 0.0 0.0
67.53734078226373 -547.9105720127986 -243.0770533527239 -159.06291712132023 0.0 0.0
273.1125324495438 -66.35884720570783 62.20920900845881 9.23888412243112 0.0 0.0
362.7333190570635 32.45793776076161 118.56182415251162 -9.732498734602991 0.0 0.0
437.4499859850158 -12.859449236290189 131.31071271352823 -35.50572993014301 0.0 0.0
522.2425235966651 -21.072227096862456 182.6419688436796 -33.33398275349345 0.0 0.0
600.946128701127 -17.41544124151442 257.24642006649395 -30.424155672803074 0.0 0.0
676.5630598612881 -10.903403263851871 319.7228973803314 -31.476835438659716 0.0 0.0
750.3127572024459 2.9793878049001137 370.96596718412064 -34.14010588179804 0.0 0.0
824.557126728748 24.003555093377713 420.6358979553248 -36.80092343752924 0.0 0.0
899.4868068505552 50.959143906453576 472.38295928904665 -38.211535794315516 0.0 0.0
973.727699036549 81.65786411633705 525.3505186108232 -38.312771375123674 0.0 0.0
1046.82167329434 114.88139216668968 578.8462731877016 -37.69894213294711 0.0 0.0
1119.0569740479225 150.91476229539438 633.2150775185071 -36.8430717342511 0.0 0.0
1191.3021976037307 189.5969611750357 688.8517379011331 -35.81400910316417 0.0 0.0
1263.7653779584248 231.0455964505481 745.9378960586181 -34.366490684439384 0.0 0.0
1335.969257098641 275.0562182036157 804.1437118856504 -32.106844739373436 0.0 0.0
1406.8750337125864 321.0308156396641 862.6476814410456 -28.92284810821857 0.0 0.0
1475.8029318222552 369.0897054209542 921.1439644203003 -25.648875980490978 0.0 0.0
1549.1215661168292 426.8612963807036 986.5403669749955 -23.936870322487167 0.0 0.0
1603.8338711472823 472.7077757104121 1036.6938677822022 -23.70430993177158 0.0 0.0
1603.8338711473468 472.7077757104871 1036.6938677822864 23.70430993169672 0.0 0.0
1549.1215661171923 426.8612963811086 986.5403669752279 23.936870322484562 0.0 0.0
1475.8029318236072 369.08970542240013 921.1439644211546 25.64887598057715 0.0 0.0
1406.8750337128931 321.0308156400819 862.647681441072 28.922848108237055 0.0 0.0
1335.9692570977584 275.0562182028353 804.143711885042 32.10684473929476 0.0 0.0
1263.7653779572074 231.045596449473 745.9378960578297 34.366490684471366 0.0 0.0
1191.3021976023642 189.5969611738409 688.8517379001548 35.81400910334182 0.0 0.0
1119.0569740461367 150.91476229378452 633.2150775171681 36.84307173419721 0.0 0.0
1046.8216732932676 114.88139216583758 578.846273186891 37.698942133003996 0.0 0.0
973.727699036252 81.65786411627047 525.3505186105651 38.31277137511316 0.0 0.0
899.4868068507284 50.959143906886595 472.3829592891218 38.21153579425814 0.0 0.0
824.5571267292918 24.00355509419805 420.6358979556437 36.800923437504224 0.0 0.0
750.3127572018329 2.979387804555458 370.96596718372115 34.1401058818204 0.0 0.0
676.5630598606161 -10.903403264268249 319.72289737985574 31.476835438559295 0.0 0.0
600.9461287009356 -17.415441241391548 257.24642006629205 30.42415567279103 0.0 0.0
522.2425235964741 -21.072227096771094 182.64196884352236 33.33398275341467 0.0 0.0
437.44998598449087 -12.859449236632523 131.3107127132575 35.505729930132155 0.0 0.0
362.733319056842 32.45793776024102 118.56182415229264 9.732498734652285 0.0 0.0
273.1125324497252 -66.35884720516525 62.20920900867847 -9.238884122618215 0.0 0.0
67.53734078261618 -547.9105720124712 -243.0770533523799 159.0629171210311 0.0 0.0
14.234790901462276 -556.7264155058555 -267.76584098076626 -174.20117965055266 0.0 0.0
153.7154377096183 -55.556729565587844 29.447612443209145 -45.512871414423216 0.0 0.0
294.7809409158845 36.287053830589755 99.32039842394227 -33.90771677367856 0.0 0.0
391.81911793519157 -3.84812595752113 117.39210229546559 -55.647356685289424 0.0 0.0
485.51251104638624 -19.850357504988107 159.53542180799568 -57.13709690942501 0.0 0.0
573.9214292909929 -19.56644737243875 232.58343006304443 -52.259153975410975 0.0 0.0
652.6615585298994 -10.436741845065264 303.1821221758143 -52.35764007590987 0.0 0.0
727.0654590954056 2.494648318270798 357.4255915755176 -55.44846574386388 0.0 0.0
800.2400003728508 22.09462297336104 406.9083325010912 -58.59530743003367 0.0 0.0
871.9195746000848 46.047003069305035 455.8297410479731 -59.99082107381084 0.0 0.0
941.8030491431215 72.81475500274938 504.75744801282406 -59.694560837592114 0.0 0.0
1009.9180451277898 101.9023535592794 553.7434102810671 -58.53970500878802 0.0 0.0
1077.180035657383 133.1286262136775 603.2527546705256 -57.168048452746305 0.0 0.0
1143.802363539287 166.84310236608735 653.627362772904 -55.46711429310977 0.0 0.0
1210.0896050723995 202.58324265510953 704.8022584931357 -53.183332256792156 0.0 0.0
1276.1157449306968 240.53763371799835 756.9045503972578 -49.932854718111464 0.0 0.0
1342.1218716603753 281.52739985174776 810.4498615654791 -45.68073634893051 0.0 0.0
1409.8971406624191 328.28258622093523 867.6791014377167 -41.231599357499135 0.0 0.0
1473.866559198782 376.31503396810893 923.6130902971905 -36.59910972941319 0.0 0.0
1519.4561643959407 412.09863493171815 964.2180920226372 -30.338609877617 0.0 0.0
1519.4561643955199 412.098634931323 964.2180920222402 30.33860987776175 0.0 0.0
1473.8665591976205 376.3150339670071 923.6130902962427 36.599109729571936 0.0 0.0
1409.8971406616542 328.2825862202332 867.6791014370625 41.231599357494105 0.0 0.0
1342.1218716600476 281.5273998515247 810.4498615651509 45.68073634900412 0.0 0.0
1276.1157449303364 240.53763371775415 756.9045503968667 49.932854718111045 0.0 0.0
1210.089605071871 202.58324265476136 704.8022584925868 53.18333225695463 0.0 0.0
1143.8023635390348 166.84310236601914 653.6273627726969 55.46711429314787 0.0 0.0
1077.180035657629 133.12862621409806 603.2527546707053 57.16804845270987 0.0 0.0
1009.9180451263182 101.90235355804384 553.7434102801617 58.53970500898848 0.0 0.0
941.8030491421367 72.81475500196271 504.75744801217525 59.694560837442026 0.0 0.0
871.9195745993183 46.04700306872789 455.82974104745693 59.990821073642316 0.0 0.0
800.2400003724 22.0946229731737 406.90833250078845 58.59530743000104 0.0 0.0
727.0654590952308 2.4946483183249484 357.42559157540364 55.448465743650274 0.0 0.0
652.6615585297299 -10.436741844954838 303.1821221756402 52.35764007587284 0.0 0.0
573.9214292901225 -19.566447373058196 232.58343006242856 52.25915397536333 0.0 0.0
485.5125110459986 -19.850357505153802 159.53542180772337 57.137096909209376 0.0 0.0
391.81911793506436 -3.848125957164731 117.39210229553132 55.64735668520452 0.0 0.0
294.7809409157372 36.287053830331416 99.32039842382058 33.907716773635855 0.0 0.0
153.71543770979875 -55.55672956518112 29.447612443385275 45.51287141416701 0.0 0.0
14.234790901632579 -556.7264155055965 -267.76584098050955 174.20117965040095 0.0 0.0
-6.055372555841473 -545.4038896216566 -264.97008539008715 -176.25572585086377 0.0 0.0
88.57284992917768 -52.39026749075755 10.854774731526039 -91.86741524148411 0.0 0.0
230.46983110759695 32.9376916390937 79.02225682400719 -66.43081914743985 0.0 0.0
338.4741555720286 5.072468139326481 103.1523301465287 -77.5527584623416 0.0 0.0
439.06789483543616 -17.757050498675667 136.34817898811806 -83.34365024296062 0.0 0.0
536.9746715503159 -19.913581163369663 204.3546842451721 -75.95140240414716 0.0 0.0
622.0715489592702 -11.190695651685783 280.5255008539324 -73.94479220209855 0.0 0.0
699.2162775706184 2.6048992251250596 340.94369394347405 -76.7289852713431 0.0 0.0
771.024375487101 20.01838612881818 390.3522056938872 -79.82544783430207 0.0 0.0
839.674955773915 40.91525811073416 436.72109388581964 -80.99060898324292 0.0 0.0
905.4010360974798 63.85820338947532 481.8179490331669 -80.26951801039135 0.0 0.0
968.8862138897051 88.67778860468202 526.4197129032634 -78.66373519802843 0.0 0.0
1030.8255922387384 115.30343296647979 571.0073546643122 -76.76680485721803 0.0 0.0
1092.0875372633745 143.85617913364496 616.1597910601047 -74.49060609645437 0.0 0.0
1152.3127138099494 173.70116375241741 661.3911735170743 -71.50441679981972 0.0 0.0
1211.91305007895 205.5931364972139 707.2664077325725 -67.51590748768969 0.0 0.0
1273.049684704352 241.51076106739708 755.8336499904112 -62.569621379166136 0.0 0.0
1335.509144077043 282.38039216070786 807.4753089014889 -56.75358934460348 0.0 0.0
1393.7244619079615 323.5658950219028 857.1301184492272 -48.95768826150662 0.0 0.0
1436.1431759502445 354.49264411492277 893.7323883653439 -37.32805672918024 0.0 0.0
1436.1431759504067 354.4926441151405 893.7323883654587 37.32805672946181 0.0 0.0
1393.7244619085343 323.5658950225552 857.130118449608 48.95768826166589 0.0 0.0
1335.509144077593 282.38039216134126 807.4753089019371 56.753589344671944 0.0 0.0
1273.0496847042064 241.5107610673619 755.8336499903008 62.569621379241696 0.0 0.0
1211.9130500793879 205.59313649777602 707.2664077327989 67.51590748768518 0.0 0.0
1152.3127138093082 173.7011637518866 661.3911735166843 71.5044167997862 0.0 0.0
1092.0875372618702 143.85617913231567 616.1597910591188 74.49060609653193 0.0 0.0
1030.8255922387157 115.30343296659203 571.007354664139 76.76680485705218 0.0 0.0
968.8862138904535 88.67778860566713 526.4197129037113 78.66373519801596 0.0 0.0
905.4010360970392 63.85820338920283 481.8179490328672 80.26951801027204 0.0 0.0
839.6749557734113 40.915258110496325 436.7210938855199 80.99060898330538 0.0 0.0
771.0243754866467 20.018386128685705 390.352205693596 79.82544783438274 0.0 0.0
699.2162775705996 2.604899225423253 340.943693943402 76.72898527135311 0.0 0.0
622.0715489591444 -11.190695651540139 280.5255008537457 73.94479220196133 0.0 0.0
536.9746715497956 -19.913581163514934 204.35468424477622 75.95140240420973 0.0 0.0
439.0678948350036 -17.757050498819794 136.34817898789692 83.3436502429119 0.0 0.0
338.4741555718691 5.07246813934521 103.15233014649594 77.5527584622661 0.0 0.0
230.4698311076466 32.93769163918818 79.02225682405043 66.43081914738434 0.0 0.0
88.5728499293154 -52.390267490478934 10.854774731650938 91.86741524135175 0.0 0.0
-6.055372555704253 -545.4038896213999 -264.97008538983187 176.2557258507071 0.0 0.0
-10.798420052377153 -522.2927187304342 -246.9978344715529 -173.65128432357767 0.0 0.0
52.44203407717354 -50.45044929967328 0.597475433250076 -127.97711046363105 0.0 0.0
175.3622800631825 26.606368494340323 60.59059456725684 -99.22646831342149 0.0 0.0
281.7785343779212 10.821289356299616 87.79337929430342 -100.8973213036106 0.0 0.0
381.8028322155103 -13.161649328695544 114.46397862187806 -109.90818769727647 0.0 0.0
489.0219751757818 -19.736053589293928 173.11377359740368 -102.80974657482969 0.0 0.0
584.1704478008089 -12.271089572402968 251.70400401589683 -97.1234918088546 0.0 0.0
665.0502106982876 2.2447259855707813 319.4347943147902 -98.0249919742778 0.0 0.0
736.3081882729952 18.029977089705902 370.5016129706941 -100.51740381282173 0.0 0.0
802.0986974515539 35.59717378065356 414.6581489040959 -101.26472991633949 0.0 0.0
863.9904165016126 54.789724804585525 456.2222609427224 -100.05738544889894 0.0 0.0
922.7178318830759 75.33758172621998 496.4135081333601 -98.01137590314093 0.0 0.0
979.5417869815433 97.26422867744166 536.1614046095984 -95.73278491504853 0.0 0.0
1035.0478987359431 120.70069819712212 575.9144705630151 -92.87761386940288 0.0 0.0
1089.472057048819 145.0141963876264 615.5156191806934 -89.27189707231179 0.0 0.0
1143.238348438877 170.69798004666055 655.4068000137798 -84.84452955141101 0.0 0.0
1197.5606351694978 199.77402278671877 697.1698881868139 -79.38285786535768 0.0 0.0
1253.7901897807128 233.60293889820628 742.1847498826498 -72.36108316114121 0.0 0.0
1307.9418201890091 268.92182240527893 786.8732595195639 -61.73386610202767 0.0 0.0
1350.5987171882582 297.5390232935843 822.4213584471488 -45.274850291565315 0.0 0.0
1350.5987171879692 297.53902329338257 822.4213584470217 45.274850291892676 0.0 0.0
1307.9418201894548 268.9218224057837 786.8732595199631 61.73386610212361 0.0 0.0
1253.7901897824474 233.60293890005732 742.1847498838706 72.36108316127718 0.0 0.0
1197.5606351692384 199.77402278659343 697.169888186595 79.38285786546624 0.0 0.0
1143.2383484370969 170.69798004494498 655.4068000124705 84.84452955138207 0.0 0.0
1089.4720570480001 145.01419638692835 615.5156191800943 89.27189707230144 0.0 0.0
1035.0478987351744 120.70069819652352 575.914470562537 92.8776138695008 0.0 0.0
979.5417869811528 97.26422867728147 536.161404609366 95.73278491514304 0.0 0.0
922.717831881828 75.33758172513487 496.4135081324875 98.0113759031099 0.0 0.0
863.990416501594 54.78972480482784 456.2222609426197 100.05738544894774 0.0 0.0
802.0986974511176 35.59717378042771 414.65814890375276 101.26472991624422 0.0 0.0
736.3081882726949 18.029977089664314 370.50161297052404 100.51740381280511 0.0 0.0
665.0502106978084 2.2447259854107102 319.4347943144787 98.02499197431277 0.0 0.0
584.1704478009455 -12.271089571890833 251.70400401587943 97.12349180885374 0.0 0.0
489.0219751755362 -19.73605358910251 173.11377359721453 102.80974657483411 0.0 0.0
381.8028322153928 -13.161649328346932 114.46397862191057 109.90818769701201 0.0 0.0
281.7785343780939 10.82128935673652 87.79337929449171 100.89732130343921 0.0 0.0
175.36228006319854 26.606368494420387 60.59059456728567 99.22646831326777 0.0 0.0
52.442034077416935 -50.450449299190765 0.5974754334678516 127.97711046339617 0.0 0.0
-10.798420052261449 -522.292718730173 -246.9978344713006 173.65128432342465 0.0 0.0
-8.51720220091562 -491.25347892369496 -220.20008020019807 -169.8304933282946 0.0 0.0
31.122360790763597 -48.0674886861876 -5.083538368627199 -154.92403845058107 0.0 0.0
128.61241963293486 19.62849622148019 44.47227475632451 -128.08586741835936 0.0 0.0
224.61264713283643 13.049268846730644 71.29459833528655 -124.42380284609318 0.0 0.0
316.6491218393588 -6.557796059273702 94.33747450924102 -134.43498816811473 0.0 0.0
424.8928038882723 -18.724208270757483 139.70274477693698 -132.55177935404035 0.0 0.0
532.2554555074557 -12.327208943115963 215.65068927916758 -122.88713013068714 0.0 0.0
620.8042702402795 0.6212343023854636 289.58766842555315 -120.12210882480679 0.0 0.0
694.4791501882418 15.704127570633009 345.7057596579747 -120.93320870909 0.0 0.0
758.0847903224001 30.26181896638844 388.9316765538626 -120.81970106116597 0.0 0.0
816.0917333309925 45.53630547665581 427.10807865971134 -119.08034625556914 0.0 0.0
870.3421312010967 61.958388152802144 463.1943590299818 -116.61663655808222 0.0 0.0
921.8234184502379 79.24136949078701 498.05487947331693 -113.94890086732852 0.0 0.0
971.6874908819498 97.3552996349638 532.3793689613415 -110.75703663091866 0.0 0.0
1020.7307034274312 116.42568834711659 566.6986894520628 -106.64350692316519 0.0 0.0
1068.12314450105 136.25880781545587 600.5350930989704 -101.6639502722346 0.0 0.0
1115.036522261254 157.2939212402314 634.634845757275 -95.95030489910498 0.0 0.0
1163.8522604895757 182.45170407075562 671.6219893593972 -88.26792866101201 0.0 0.0
1214.3780643215086 211.90404396815484 711.5370957743653 -75.48371256998796 0.0 0.0
1259.9086304131774 239.75449833964404 748.0855061417232 -54.831836999525734 0.0 0.0
1259.9086304136124 239.75449834009817 748.085506142101 54.831836999613756 0.0 0.0
1214.3780643210944 211.90404396783367 711.537095774088 75.48371257018206 0.0 0.0
1163.8522604887685 182.45170407000154 671.62198935881 88.26792866100402 0.0 0.0
1115.0365222609312 157.2939212400093 634.6348457570638 95.95030489918437 0.0 0.0
1068.123144500934 136.2588078154668 600.535093098852 101.66395027230828 0.0 0.0
1020.7307034275374 116.42568834740388 566.6986894520517 106.64350692325357 0.0 0.0
971.687490880897 97.35529963406472 532.3793689606105 110.75703663093648 0.0 0.0
921.8234184494871 79.24136949007604 498.0548794727432 113.94890086710654 0.0 0.0
870.3421312001226 61.95838815195657 463.1943590292542 116.61663655804006 0.0 0.0
816.0917333301242 45.53630547590885 427.1080786591179 119.08034625539275 0.0 0.0
758.0847903222883 30.261818966464475 388.93167655372537 120.81970106110295 0.0 0.0
694.4791501874633 15.704127570113883 345.7057596574396 120.93320870910566 0.0 0.0
620.804270239652 0.6212343020566351 289.5876684250874 120.12210882478745 0.0 0.0
532.2554555067485 -12.327208943579485 215.65068927862404 122.88713013058052 0.0 0.0
424.89280388747903 -18.724208271414312 139.70274477641647 132.55177935387536 0.0 0.0
316.64912183877476 -6.557796059781332 94.33747450892409 134.43498816797634 0.0 0.0
224.61264713287753 13.049268846827268 71.29459833532928 124.42380284585688 0.0 0.0
128.61241963292684 19.628496221525563 44.47227475633572 128.0858674181245 0.0 0.0
31.122360790953614 -48.06748868580116 -5.08353836845426 154.92403845041878 0.0 0.0
-8.517202200871026 -491.2534789234093 -220.20008019995097 169.8304933282467 0.0 0.0
-2.998158310431947 -453.8924502106627 -188.0824337830861 -166.24318608295334 0.0 0.0
16.61736056402083 -45.82599543445524 -8.762530097491553 -173.87942259976393 0.0 0.0
87.65485623487363 13.159569042198804 30.244327583121727 -151.29481046797318 0.0 0.0
167.74699214425996 14.020929051875047 54.52725278115332 -146.14293032193248 0.0 0.0
247.3777080738032 -0.6473951528519706 74.6388300560142 -155.85188287296802 0.0 0.0
346.5480617856321 -14.770567692755524 107.25971241624194 -162.51916139504476 0.0 0.0
461.7459025006593 -12.598983034873193 172.20075062900725 -152.51495360465861 0.0 0.0
562.2610223828269 -0.7595017561216473 249.50217477255046 -144.0696173665779 0.0 0.0
641.0244466042532 12.34521828382944 311.9569697519795 -141.5716723451409 0.0 0.0
704.9081263833061 24.735397138086434 357.42889597827855 -139.87495316863684 0.0 0.0
759.3730477495857 36.10612278243399 393.04709948837683 -137.36431678880933 0.0 0.0
809.3041712554168 48.62702927503666 425.45696122850296 -134.47188982623132 0.0 0.0
855.4579713776773 61.240801923173365 455.53037909567473 -131.4727514487913 0.0 0.0
899.2991863713777 74.14990026692271 484.35973015488355 -128.06288750692664 0.0 0.0
942.3539863832907 87.69808805115895 512.9520100945798 -123.66780054666813 0.0 0.0
984.9547982222214 102.34088590185561 541.8503658412568 -118.14685564938985 0.0 0.0
1024.009709800732 115.47235195333162 568.1937055598121 -111.98208283181037 0.0 0.0
1063.1324769833348 129.91150520753058 595.0251515666994 -104.35103887945479 0.0 0.0
1109.3040968640742 151.45595882383427 628.7475077842792 -90.7681393966699 0.0 0.0
1160.351549852705 179.54217315153858 668.0574757840058 -66.96712900314695 0.0 0.0
1160.3515498522302 179.54217315110242 668.0574757836138 66.96712900333492 0.0 0.0
1109.3040968632151 151.4559588230441 628.7475077836957 90.76813939679607 0.0 0.0
1063.1324769830244 129.91150520732754 595.0251515664696 104.35103887958206 0.0 0.0
1024.0097098010483 115.47235195379034 568.1937055599622 111.98208283201606 0.0 0.0
984.9547982225694 102.34088590238912 541.8503658414534 118.14685564953832 0.0 0.0
942.3539863831177 87.69808805105453 512.9520100944289 123.66780054651309 0.0 0.0
899.2991863709233 74.14990026648769 484.35973015453317 128.06288750679704 0.0 0.0
855.4579713776631 61.24080192340159 455.5303790956816 131.47275144892555 0.0 0.0
809.3041712556692 48.62702927554713 425.4569612286384 134.4718898263387 0.0 0.0
759.3730477497387 36.1061227829329 393.0470994884471 137.36431678894715 0.0 0.0
704.9081263831737 24.735397138230383 357.4288959781754 139.87495316863703 0.0 0.0
641.0244466043573 12.345218284335104 311.95696975205226 141.57167234528626 0.0 0.0
562.261022382609 -0.7595017557812227 249.50217477238667 144.06961736672426 0.0 0.0
461.7459025002665 -12.59898303486166 172.20075062872206 152.51495360463412 0.0 0.0
346.5480617856854 -14.770567692184907 107.25971241635345 162.5191613948914 0.0 0.0
247.3777080736452 -0.647395152683 74.6388300560171 155.85188287287684 0.0 0.0
167.74699214429302 14.020929051990706 54.527252781198925 146.1429303218069 0.0 0.0
87.65485623484909 13.15956904221268 30.244327583118526 151.29481046786216 0.0 0.0
16.617360564128294 -45.82599543419969 -8.762530097382706 173.87942259965564 0.0 0.0
-2.998158310316164 -453.89245021029615 -188.08243378279025 166.243186082861 0.0 0.0
2.2748881352477213 -411.6314752786394 -154.98637026617183 -163.72949456348425 0.0 0.0
3.3488876203508013 -44.38220062720301 -12.309547098257806 -185.0441351301167 0.0 0.0
50.24186966971914 7.985688701631771 17.467864440157726 -168.81669827217976 0.0 0.0
112.00831261781815 15.100027983457647 38.13395959664223 -164.22309748148996 0.0 0.0
175.94639065190415 3.1264610279409677 54.08836912873019 -174.6215769283268 0.0 0.0
253.57761074930474 -7.808033773145934 76.83886650610796 -187.04192689122854 0.0 0.0
363.6269947215491 -10.973299451855443 123.62282416964261 -185.53472429592006 0.0 0.0
479.0704013233233 -2.3104524515631857 195.45412589157823 -172.25461209030328 0.0 0.0
568.9341770321381 8.482396293575702 263.6889797744424 -163.61422316099504 0.0 0.0
635.364129379198 18.48469586441807 314.2253981473691 -158.81033140216246 0.0 0.0
688.4508721637371 26.432164272073262 350.30585177212095 -155.18686030562165 0.0 0.0
733.8863052014183 35.15158280404092 379.80572268184 -151.6562728246813 0.0 0.0
774.6838989660055 43.530364318068536 405.66883023507324 -148.24729205640767 0.0 0.0
812.3023823605183 51.243534666632556 429.0796038009289 -144.75686523196413 0.0 0.0
848.9411046984312 59.002011795352814 451.7035655844276 -140.46228409342075 0.0 0.0
886.2264351278759 68.10911788517782 475.1759858999917 -134.50028321542737 0.0 0.0
921.1919110264779 76.08369124593501 497.0235639827137 -127.42957197506584 0.0 0.0
948.8233222206577 78.07963841250279 512.1202872498775 -120.06072360947817 0.0 0.0
985.0141714399522 86.31194376922608 534.0938563240296 -107.7496531110721 0.0 0.0
1043.5252717373087 114.38766441007797 576.8611786829928 -83.09457254281565 0.0 0.0
1043.52527173751 114.38766441034073 576.8611786831832 83.09457254292224 0.0 0.0
985.0141714390652 86.3119437683643 534.0938563234398 107.74965311114481 0.0 0.0
948.8233222200038 78.07963841201695 512.1202872494539 120.06072360983093 0.0 0.0
921.1919110252521 76.08369124492538 497.0235639818785 127.42957197531331 0.0 0.0
886.2264351264189 68.10911788379602 475.1759858989162 134.50028321546168 0.0 0.0
848.9411046984125 59.002011795386665 451.70356558438664 140.46228409329493 0.0 0.0
812.3023823610284 51.2435346674317 429.0796038012926 144.75686523211195 0.0 0.0
774.6838989654078 43.53036431772583 405.66883023469416 148.24729205660321 0.0 0.0
733.886305200754 35.15158280343215 379.8057226813249 151.65627282456185 0.0 0.0
688.4508721629362 26.432164271178735 350.30585177150897 155.1868603053831 0.0 0.0
635.3641293787872 18.484695864252217 314.2253981470834 158.8103314021081 0.0 0.0
568.9341770319229 8.482396293627346 263.68897977423217 163.61422316097122 0.0 0.0
479.07040132278826 -2.3104524516666416 195.45412589120346 172.2546120903407 0.0 0.0
363.62699472116145 -10.973299451558404 123.62282416952513 185.53472429603002 0.0 0.0
253.57761074898804 -7.808033773292774 76.83886650596085 187.04192689105656 0.0 0.0
175.94639065181929 3.1264610281711382 54.088369128779206 174.6215769282062 0.0 0.0
112.00831261792193 15.100027983735686 38.13395959676002 164.22309748131633 0.0 0.0
50.241869669639975 7.985688701550414 17.467864440110084 168.81669827198684 0.0 0.0
3.348887620286788 -44.382200627244686 -12.309547098290889 185.04413512996203 0.0 0.0
2.2748881352345975 -411.6314752783724 -154.9863702659792 163.72949456344313 0.0 0.0
3.607545483546751 -365.2215031735139 -125.14722459580481 -160.65124863242283 0.0 0.0
-12.627561067460018 -44.97526391132331 -17.28071510997985 -190.5999353740095 0.0 0.0
15.049319362306694 4.9037258468141545 5.985808745220073 -180.8986361996661 0.0 0.0
57.761225625543574 16.230750609788217 22.206115864959582 -177.9328206015544 0.0 0.0
102.33586156978289 6.850864737072155 32.99430197631751 -188.87792290746376 0.0 0.0
153.14840542352496 -2.247969841815769 46.64290483214901 -205.10227654142926 0.0 0.0
233.14459537981006 -4.896225088046082 74.50841304646481 -214.05565650873035 0.0 0.0
347.4643383021291 -2.279983215394118 125.47752330582908 -206.2055504711123 0.0 0.0
455.7725475825176 4.887129056598651 190.0574987271558 -190.42023183842684 0.0 0.0
531.6454553477663 11.099815730887403 245.36480207508734 -179.1673870940223 0.0 0.0
585.5615808805745 16.949858864032308 286.08279223200356 -172.82573910187392 0.0 0.0
627.2193849156233 21.388983549536405 315.22587009939247 -168.38813380399932 0.0 0.0
662.6556052857142 25.889659024262627 338.7065605670305 -164.4081034663197 0.0 0.0
693.7957018607367 29.006390813593256 357.8237284152647 -160.70567413917843 0.0 0.0
722.9645870642548 30.810839293549563 374.38014354547346 -156.62775164478074 0.0 0.0
753.3675906515299 32.924550025188836 391.12831018879353 -151.09226268018335 0.0 0.0
787.2738297358462 36.913837260459985 410.34809932430045 -142.91942476737933 0.0 0.0
813.4203112403252 33.91564763226032 422.60937508506515 -134.17729070754612 0.0 0.0
828.3823701702333 16.545227745964354 421.43439964620325 -125.35597857529352 0.0 0.0
892.0814619689811 38.126751965822365 462.7200904258248 -105.66756194845941 0.0 0.0
892.081461968688 38.12675196556643 462.7200904257048 105.66756194867499 0.0 0.0
828.3823701701167 16.54522774603521 421.4343996461814 125.35597857567353 0.0 0.0
813.4203112398144 33.9156476320548 422.6093750847782 134.17729070799675 0.0 0.0
787.2738297353355 36.91383726004028 410.3480993240124 142.9194247673983 0.0 0.0
753.3675906505001 32.92455002409105 391.12831018823886 151.09226268008712 0.0 0.0
722.964587063099 30.810839292119425 374.38014354467646 156.62775164451818 0.0 0.0
693.7957018611095 29.006390814142776 357.8237284155149 160.70567413929177 0.0 0.0
662.6556052863714 25.889659025468518 338.7065605675552 164.4081034666877 0.0 0.0
627.2193849159661 21.388983550285232 315.2258700996477 168.38813380412654 0.0 0.0
585.5615808804006 16.94985886387292 286.0827922318233 172.82573910176578 0.0 0.0
531.6454553475704 11.099815730951946 245.3648020749266 179.1673870939535 0.0 0.0
455.7725475824084 4.887129056892427 190.05749872708216 190.42023183848593 0.0 0.0
347.4643383016654 -2.2799832154685475 125.47752330554843 206.2055504711011 0.0 0.0
233.14459537946897 -4.896225087929555 74.50841304635632 214.0556565085994 0.0 0.0
153.14840542339164 -2.2479698418941556 46.642904832083154 205.10227654109434 0.0 0.0
102.33586156947037 6.850864736551088 32.99430197606863 188.8779229073127 0.0 0.0
57.76122562545291 16.2307506095881 22.20611586487567 177.93282060141846 0.0 0.0
15.049319362267113 4.903725846821467 5.9858087452107025 180.89863619937591 0.0 0.0
-12.627561067504653 -44.975263911266865 -17.280715109977773 190.59993537381015 0.0 0.0
3.6075454836413847 -365.2215031731564 -125.14722459558025 160.6512486322635 0.0 0.0
-0.4025247750867642 -315.4363102864837 -100.2768484067339 -154.63293442428719 0.0 0.0
-31.66267125054226 -48.055241021690414 -23.91519864663048 -192.8565057633913 0.0 0.0
-18.665457842138796 3.9477845962971534 -4.416535570404413 -188.18696223351415 0.0 0.0
5.0297137885214065 17.278448883905014 6.699651129735679 -186.78436717553 0.0 0.0
28.139105970727126 10.973499139626995 11.813522602812052 -197.33267397839555 0.0 0.0
49.36447794976934 2.6411615216317625 16.03993603096955 -215.33401120359395 0.0 0.0
78.04457713677974 -0.6705023968055217 24.664784516315624 -230.5177144294771 0.0 0.0
130.10566197165303 0.8075681796191887 43.1344945502731 -233.89736947219342 0.0 0.0
210.09702629477152 4.505357614029261 74.29216139294508 -221.78216116012354 0.0 0.0
289.94932374521034 6.859951953175184 111.83906637364915 -205.4745094057045 0.0 0.0
354.7923354056708 8.508957874342784 150.14067758189412 -193.01430874753146 0.0 0.0
398.13170830135556 8.73376626510057 180.46322662771365 -185.1051870445947 0.0 0.0
428.06736445350043 9.219091191266301 203.92767106142026 -179.4530832140814 0.0 0.0
451.86313602411644 7.496506996992991 221.6360877001978 -174.98396636759858 0.0 0.0
474.5061692590815 3.453482382475329 235.52876130307675 -170.90133166740674 0.0 0.0
501.8715386465419 -2.2709118758214686 248.657777068617 -166.41476926052698 0.0 0.0
538.8996280111112 -6.273090361430292 265.6300646173418 -159.42903590492236 0.0 0.0
585.701617456984 -6.196349648729239 289.09422886802486 -148.17014763232382 0.0 0.0
607.6030522229242 -34.66181427568341 287.2345249613158 -137.6169887999518 0.0 0.0
641.3413931521058 -71.46916005724964 282.60181417777915 -134.38569952388403 0.0 0.0
641.3413931517825 -71.4691600577363 282.6018141775349 134.3856995240011 0.0 0.0
607.6030522230521 -34.66181427543478 287.23452496141806 137.61698880031742 0.0 0.0
585.7016174569371 -6.196349648708349 289.0942288680096 148.17014763260664 0.0 0.0
538.899628010933 -6.273090361702572 265.6300646171394 159.4290359050118 0.0 0.0
501.87153864597974 -2.2709118761025024 248.6577770682259 166.41476926063405 0.0 0.0
474.5061692585349 3.453482381484804 235.52876130257454 170.90133166733028 0.0 0.0
451.863136024239 7.496506997162328 221.63608770028065 174.9839663677205 0.0 0.0
428.0673644534827 9.219091191409035 203.92767106142094 179.45308321425057 0.0 0.0
398.1317083009024 8.733766264107416 180.46322662721724 185.10518704453193 0.0 0.0
354.7923354057998 8.50895787485937 150.14067758199792 193.01430874758842 0.0 0.0
289.9493237450606 6.859951953291095 111.83906637357217 205.474509405668 0.0 0.0
210.09702629482868 4.505357614676047 74.29216139311549 221.7821611602073 0.0 0.0
130.1056619717582 0.8075681801674417 43.134494550452295 233.89736947225015 0.0 0.0
78.04457713637139 -0.6705023972845083 24.664784516051103 230.51771442932494 0.0 0.0
49.36447794982849 2.6411615217098756 16.039936031012694 215.33401120341367 0.0 0.0
28.139105970862058 10.973499139929789 11.813522602943316 197.3326739782214 0.0 0.0
5.029713788574404 17.278448884022545 6.699651129787197 186.78436717524863 0.0 0.0
-18.66545784221953 3.9477845962076246 -4.41653557045619 188.18696223323164 0.0 0.0
-31.662671250596123 -48.05524102177313 -23.915198646674323 192.8565057632657 0.0 0.0
-0.4025247750513614 -315.43631028609605 -100.2768484065774 154.63293442417273 0.0 0.0
-12.169854147444804 -265.07080996689626 -83.7696435925554 -144.49174657952955 0.0 0.0
-50.43677968029742 -50.77944568060773 -30.3686734737861 -192.80233076449832 0.0 0.0
-51.33628115150028 3.8463188453225574 -14.263954787859582 -191.29211064899752 0.0 0.0
-46.115224010440116 18.201297980803535 -8.404967250182047 -190.5383939854932 0.0 0.0
-45.17003657184743 15.067430368689733 -9.137280005778333 -199.50652345282333 0.0 0.0
-55.46315350427528 7.460201917219209 -14.882591276030348 -216.32356214470096 0.0 0.0
-80.65940697966617 2.6387010838569864 -24.919837433568063 -230.65049917118102 0.0 0.0
-130.990087530491 -0.40466853447698625 -43.31415378905302 -234.05785278985823 0.0 0.0
-209.96758684798434 -4.2898469540062685 -74.18725624433372 -221.88379581021167 0.0 0.0
-289.7117241559689 -6.594212025855924 -111.66651614267877 -205.4516932535319 0.0 0.0
-354.9981740856646 -7.14485695211949 -149.63453058974272 -192.87187480748517 0.0 0.0
-399.7762270004026 -7.059281709002647 -180.47837767438602 -184.63453850503566 0.0 0.0
-432.49288458153393 -9.244369595853343 -205.79906631562216 -178.98692374797483 0.0 0.0
-458.06653186367623 -14.360548517377225 -227.57956070218964 -175.4956660045109 0.0 0.0
-475.48765104393635 -23.016386160479726 -246.30507786886665 -174.02269571404173 0.0 0.0
-481.7488893281146 -34.34394502351813 -261.10340874080737 -174.1026174139999 0.0 0.0
-467.8227464108211 -45.833087652135475 -268.45611895820736 -174.39827807598076 0.0 0.0
-404.4901858104235 -40.14856274100549 -252.52014926683682 -174.247131111144 0.0 0.0
-222.028051529042 -37.41867641871056 -191.26997299928647 -177.17276176092366 0.0 0.0
-15.7265482876021 -175.7189725244336 -69.28004986067022 -166.0208694457959 0.0 0.0
-15.72654828813512 -175.71897252531403 -69.2800498611191 166.02086944612114 0.0 0.0
-222.0280515295462 -37.418676419749545 -191.26997299982492 177.1727617614452 0.0 0.0
-404.490185810115 -40.1485627407213 -252.52014926665237 174.24713111146156 0.0 0.0
-467.8227464105772 -45.8330876514855 -268.456118957907 174.39827807587923 0.0 0.0
-481.7488893278903 -34.34394502365831 -261.10340874069857 174.10261741408564 0.0 0.0
-475.4876510432872 -23.01638615980886 -246.305077868368 174.02269571405282 0.0 0.0
-458.0665318636014 -14.360548517612415 -227.5795607021553 175.49566600461998 0.0 0.0
-432.4928845816685 -9.244369596490685 -205.79906631576745 178.98692374809184 0.0 0.0
-399.7762270005836 -7.05928171026784 -180.47837767468872 184.6345385051186 0.0 0.0
-354.9981740856358 -7.144856953174795 -149.63453058986832 192.871874807513 0.0 0.0
-289.71172415459637 -6.594212024555496 -111.66651614179884 205.45169325336863 0.0 0.0
-209.96758684671227 -4.2898469523542495 -74.18725624341373 221.8837958102208 0.0 0.0
-130.9900875298681 -0.40466853423074234 -43.3141537887704 234.05785278983348 0.0 0.0
-80.65940697955521 2.6387010836823945 -24.91983743357384 230.65049917095578 0.0 0.0
-55.46315350381185 7.460201917916553 -14.882591275678477 216.32356214446492 0.0 0.0
-45.170036571742386 15.067430368734115 -9.137280005733462 199.50652345259493 0.0 0.0
-46.11522401044437 18.201297980573784 -8.40496725025335 190.5383939853644 0.0 0.0
-51.33628115148202 3.846318845434613 -14.263954787823366 191.29211064888767 0.0 0.0
-50.436779680297505 -50.77944568074357 -30.36867347383058 192.8023307643344 0.0 0.0
-12.169854147519644 -265.07080996673494 -83.76964359254215 144.49174657931817 0.0 0.0
-23.511213919722294 -216.74549533752835 -72.07385515920684 -131.48061186708125 0.0 0.0
-66.39786640549522 -50.744112492998845 -35.15004671927601 -189.22916896543853 0.0 0.0
-82.80651835653092 3.635252440529371 -23.78765384063061 -190.536329628968 0.0 0.0
-95.64332556895405 18.950644425090733 -23.08321719890821 -189.32799378678536 0.0 0.0
-116.79701268879545 18.30705508530472 -29.92113741667649 -195.1386381680975 0.0 0.0
-158.23277424555917 11.85991442147808 -45.50100445717172 -207.46293385092844 0.0 0.0
-234.6987343493194 6.76021794556401 -74.63863795759987 -215.00210054185507 0.0 0.0
-347.1836005628388 2.6017215282861272 -125.42734484976833 -206.67638988172405 0.0 0.0
-455.3923987261637 -4.7267449562054225 -189.87015975411828 -190.58770043412338 0.0 0.0
-531.299832476524 -10.715286510268328 -245.0685751920959 -179.1316052441674 0.0 0.0
-585.1191023346328 -15.91021427799501 -285.4537232161856 -172.54742268113722 0.0 0.0
-627.2439531599932 -19.899865918335266 -314.5510314411157 -167.60486784136614 0.0 0.0
-664.4818036469394 -25.840168587355322 -339.4346708462433 -163.3535769153729 0.0 0.0
-699.2155037515331 -34.75924257704747 -363.03208558856494 -160.84826894094473 0.0 0.0
-732.1415549912945 -47.54851857074922 -387.00593592628735 -160.7120832734302 0.0 0.0
-761.3277868340383 -63.231593955319994 -410.3994258276591 -162.91611422917637 0.0 0.0
-781.790242592147 -78.63598869930064 -429.4208743381833 -167.8648606313453 0.0 0.0
-790.2742681909322 -91.69876332545027 -441.2191898506603 -175.67482609361588 0.0 0.0
-824.3117718398119 -145.67907925637252 -486.43833286305187 -184.8568825778676 0.0 0.0
-833.8510366121834 -235.13847554215096 -537.7678117247775 -203.9923783370473 0.0 0.0
-833.8510366122284 -235.1384755424346 -537.7678117249677 203.99237833735316 0.0 0.0
-824.3117718395187 -145.6790792562058 -486.4383328629731 184.8568825780966 0.0 0.0
-790.2742681900943 -91.69876332476525 -441.2191898501717 175.67482609379783 0.0 0.0
-781.7902425922823 -78.63598869951295 -429.42087433821007 167.86486063124994 0.0 0.0
-761.3277868334258 -63.23159395476824 -410.39942582731265 162.91611422921702 0.0 0.0
-732.1415549905097 -47.54851857000051 -387.0059359257874 160.71208327331678 0.0 0.0
-699.2155037509058 -34.7592425765213 -363.0320855881615 160.8482689408925 0.0 0.0
-664.481803646722 -25.84016858725073 -339.4346708460356 163.35357691534887 0.0 0.0
-627.2439531592403 -19.899865917649294 -314.55103144055573 167.60486784121886 0.0 0.0
-585.1191023336678 -15.910214277072164 -285.4537232154925 172.54742268090942 0.0 0.0
-531.2998324753991 -10.715286509225422 -245.06857519125305 179.13160524404375 0.0 0.0
-455.39239872529436 -4.726744955711467 -189.87015975355337 190.58770043420606 0.0 0.0
-347.1836005618111 2.6017215290006863 -125.42734484912381 206.67638988168846 0.0 0.0
-234.69873434839354 6.760217946430888 -74.63863795701953 215.00210054169864 0.0 0.0
-158.2327742451516 11.859914421623543 -45.501004457003106 207.46293385066986 0.0 0.0
-116.797012688579 18.30705508550313 -29.9211374165501 195.13863816784806 0.0 0.0
-95.6433255687467 18.95064442516292 -23.083217198826933 189.32799378664959 0.0 0.0
-82.80651835636755 3.635252440752879 -23.787653840517894 190.53632962874852 0.0 0.0
-66.39786640548128 -50.744112493093525 -35.15004671930628 189.22916896526462 0.0 0.0
-23.5112139197679 -216.74549533749462 -72.07385515921237 131.4806118668936 0.0 0.0
-28.157558711201027 -171.4106224581246 -59.87045435079768 -116.79732354718658 0.0 0.0
-79.5571779324603 -48.20878101336801 -38.32701521283472 -181.6996805703836 0.0 0.0
-112.68152271086213 3.3126145981471344 -32.84039114035597 -185.71543873886057 0.0 0.0
-143.4491084750032 19.166670347038327 -37.41244222752197 -183.05141291034022 0.0 0.0
-186.1949434387861 20.27991576416725 -50.4908505784792 -184.83634970291777 0.0 0.0
-255.875118707636 16.344818923994026 -75.62253423959636 -190.5211931285515 0.0 0.0
-362.90423453011636 12.55897365762769 -123.32114350151534 -186.90150208342186 0.0 0.0
-478.2729432584948 2.6472723483101106 -195.09088839103325 -172.84486244589914 0.0 0.0
-568.6816946363923 -8.378887148447276 -263.53394580647756 -163.67885745914032 0.0 0.0
-635.118771725028 -18.20368776093744 -314.0083378330657 -158.78862116696735 0.0 0.0
-688.1087878313961 -25.681957567109862 -349.8133016947676 -154.91118789857484 0.0 0.0
-733.7523467638911 -33.933401596761854 -379.14303992875625 -150.72140097862342 0.0 0.0
-775.8636808503552 -43.23859858128739 -406.00126381424195 -146.72021540414707 0.0 0.0
-816.7449708052527 -55.526885978527815 -433.1844885218106 -144.13457279858991 0.0 0.0
-857.6379848468355 -72.31347830691479 -462.4362108345266 -144.09182815700154 0.0 0.0
-896.4220164046098 -92.55047971172871 -492.39635059415536 -147.10593381072678 0.0 0.0
-930.5814031843397 -114.11775788747869 -520.6988123651032 -152.84073611446254 0.0 0.0
-968.8355422245265 -147.16629028781 -556.7422949607624 -159.15066170968538 0.0 0.0
-1012.1668913787754 -196.53420077657586 -603.3528826429446 -164.77037556936395 0.0 0.0
-1111.5253010605904 -332.63613567749445 -720.3820723567117 -171.42250019889835 0.0 0.0
-1111.5253010606234 -332.6361356776457 -720.3820723567353 171.42250019916224 0.0 0.0
-1012.1668913774336 -196.53420077535998 -603.3528826420029 164.77037556961807 0.0 0.0
-968.8355422238203 -147.16629028731967 -556.7422949602263 159.1506617100078 0.0 0.0
-930.5814031837733 -114.11775788699745 -520.6988123646481 152.84073611446047 0.0 0.0
-896.4220164039871 -92.55047971137392 -492.3963505937423 147.10593381084402 0.0 0.0
-857.6379848461103 -72.31347830617356 -462.43621083400717 144.09182815681638 0.0 0.0
-816.7449708053512 -55.52688597883818 -433.1844885218082 144.1345727987513 0.0 0.0
-775.8636808504059 -43.23859858172992 -406.0012638142989 146.72021540434426 0.0 0.0
-733.7523467631619 -33.93340159626914 -379.1430399282694 150.72140097866375 0.0 0.0
-688.1087878317041 -25.68195756778929 -349.81330169494134 154.91118789869623 0.0 0.0
-635.1187717253038 -18.20368776163209 -314.0083378332907 158.78862116695342 0.0 0.0
-568.6816946363042 -8.37888714872968 -263.5339458063941 163.67885745917397 0.0 0.0
-478.27294325794895 2.6472723484588396 -195.09088839061087 172.84486244592364 0.0 0.0
-362.9042345293618 12.558973657831476 -123.32114350110658 186.9015020834445 0.0 0.0
-255.8751187071287 16.344818924081167 -75.62253423939279 190.52119312840392 0.0 0.0
-186.19494343862965 20.279915764138767 -50.4908505784406 184.83634970277956 0.0 0.0
-143.44910847483723 19.16667034703114 -37.412442227479474 183.05141291020755 0.0 0.0
-112.68152271086088 3.312614597877577 -32.84039114044156 185.71543873868887 0.0 0.0
-79.55717793248053 -48.20878101356045 -38.32701521289962 181.69968057028083 0.0 0.0
-28.157558711214435 -171.4106224580705 -59.870454350785465 116.79732354713963 0.0 0.0
-29.823079431521577 -130.05522317324022 -47.963490781428526 -101.41058492925296 0.0 0.0
-90.44653506771469 -43.42139247301988 -40.15985123094469 -169.72837332234968 0.0 0.0
-140.7171420199726 2.8704932600354667 -41.37259679438405 -176.66975607216818 0.0 0.0
-189.35002812469656 18.348541024104815 -51.496260874494894 -171.95347120960193 0.0 0.0
-252.10998917588205 21.69772221609817 -70.36789883383156 -169.2545892239417 0.0 0.0
-344.7307066463605 21.340746553114748 -105.97578427827793 -166.58563239005395 0.0 0.0
-459.85596505392925 14.298119943099529 -171.15820166310533 -154.2086808961057 0.0 0.0
-561.7814370287226 0.9187761645300867 -249.1878548224043 -144.35301530496946 0.0 0.0
-640.9415762865106 -12.3360147918617 -311.9198071309414 -141.58366684713255 0.0 0.0
-704.7654894093196 -24.56064093778295 -357.29529292687806 -139.86444312025395 0.0 0.0
-759.2346763896296 -35.66923787303972 -392.7774349476683 -137.09594493899206 0.0 0.0
-809.2895657203653 -47.83063349322518 -425.0560795497206 -133.4827044219502 0.0 0.0
-856.0303102062305 -60.673886395380606 -455.4822589995417 -129.66929323453405 0.0 0.0
-901.7201922544588 -76.28223932928452 -486.4922955032072 -126.90928749788834 0.0 0.0
-948.0183765790333 -96.44542256552319 -519.9579813911407 -126.81605695783789 0.0 0.0
-995.4726150592519 -122.36842270941398 -556.8884263919188 -130.01342716977302 0.0 0.0
-1044.9789486837592 -155.71856845647426 -598.5619732792222 -135.37184948248498 0.0 0.0
-1098.6430532274835 -199.64193505548621 -647.5298808516602 -140.23828093094824 0.0 0.0
-1170.377234299789 -271.50130306925087 -719.1712236875914 -141.25405012357467 0.0 0.0
-1267.3861584495103 -395.5256563692942 -829.6128128039737 -142.24148128567379 0.0 0.0
-1267.3861584503466 -395.52565637031563 -829.6128128045656 142.24148128594834 0.0 0.0
-1170.3772343012538 -271.501303071074 -719.1712236886685 141.25405012398886 0.0 0.0
-1098.6430532291877 -199.64193505745789 -647.5298808528308 140.23828093135137 0.0 0.0
-1044.978948683423 -155.7185684563712 -598.5619732789509 135.37184948266454 0.0 0.0
-995.4726150583707 -122.36842270863775 -556.8884263913228 130.01342716978644 0.0 0.0
-948.0183765781314 -96.44542256470653 -519.9579813905582 126.81605695772525 0.0 0.0
-901.7201922549044 -76.28223932998056 -486.4922955035596 126.90928749802407 0.0 0.0
-856.0303102072318 -60.67388639680897 -455.48225900022265 129.66929323484484 0.0 0.0
-809.2895657211774 -47.83063349451411 -425.05607955027375 133.48270442225896 0.0 0.0
-759.2346763897106 -35.66923787351103 -392.77743494774165 137.09594493913966 0.0 0.0
-704.7654894092329 -24.560640937990847 -357.29529292679723 139.86444312021837 0.0 0.0
-640.9415762868279 -12.336014792530296 -311.9198071310876 141.58366684711694 0.0 0.0
-561.7814370290537 0.918776163639345 -249.18785482254177 144.3530153050781 0.0 0.0
-459.85596505362594 14.29811994274252 -171.15820166292656 154.2086808962402 0.0 0.0
-344.730706646184 21.34074655258384 -105.97578427830516 166.58563239000642 0.0 0.0
-252.10998917571527 21.697722215764806 -70.3678988338869 169.25458922384718 0.0 0.0
-189.35002812434755 18.348541024351242 -51.49626087432708 171.95347120951593 0.0 0.0
-140.71714201968703 2.8704932603688595 -41.37259679420505 176.6697560720102 0.0 0.0
-90.44653506752744 -43.42139247268391 -40.15985123078789 169.72837332225794 0.0 0.0
-29.823079431357044 -130.055223172899 -47.9634907812768 101.41058492920172 0.0 0.0
-30.74595951632618 -93.36360078962973 -37.23286809178676 -85.60073179352511 0.0 0.0
-99.99747793748996 -36.907459161850106 -41.07148112980201 -153.63668663556436 0.0 0.0
-166.9444563166616 2.43314085789477 -49.35956837138598 -163.1397579865011 0.0 0.0
-233.57520545531582 16.75404564392685 -65.21300256520968 -156.5418987437286 0.0 0.0
-314.7538541511848 23.490486131527057 -89.7358444812826 -149.29569205024805 0.0 0.0
-421.4376210512206 23.793851695193013 -137.98339407902625 -137.2608313710637 0.0 0.0
-530.5910914672543 13.744799463750809 -214.40475637956018 -123.8338329487353 0.0 0.0
-620.7094098199163 -0.6943789050754674 -289.51042197739196 -120.17248586671171 0.0 0.0
-694.4905537518503 -15.743810749381339 -345.7446299978759 -120.94454696296376 0.0 0.0
-758.0698757528678 -30.185101921860962 -388.8933455810435 -120.80666416130782 0.0 0.0
-816.1925443085404 -45.42298494353852 -427.0980757732558 -118.81026366874326 0.0 0.0
-870.5328860275345 -61.66309590247545 -463.1440050113233 -115.6771740851439 0.0 0.0
-921.7150721315279 -78.43917550586693 -497.60327794274053 -112.17841647257461 0.0 0.0
-971.3987680529522 -96.8818156991403 -531.9466225051244 -109.38408378621281 0.0 0.0
-1022.9517398776829 -120.49407970085053 -569.6638797343162 -108.92124127608716 0.0 0.0
-1079.3468588181295 -153.4450305771357 -614.4457679968475 -111.59290720283764 0.0 0.0
-1142.5466034421652 -197.77531612981372 -668.334324025655 -116.35390846049157 0.0 0.0
-1215.0134821948936 -258.0310827394533 -734.7256242225023 -119.77417995821196 0.0 0.0
-1298.2642924260272 -340.5031153890408 -817.5568972470612 -119.68779543969501 0.0 0.0
-1383.417413228999 -450.4675232818356 -915.2163143843634 -121.65147379147054 0.0 0.0
-1383.417413228722 -450.4675232816197 -915.2163143841917 121.65147379151736 0.0 0.0
-1298.2642924253803 -340.50311538848314 -817.5568972466679 119.68779543995302 0.0 0.0
-1215.0134821951237 -258.031082739904 -734.725624222812 119.77417995846437 0.0 0.0
-1142.5466034418955 -197.77531612967547 -668.3343240255006 116.35390846064948 0.0 0.0
-1079.3468588178391 -153.44503057698202 -614.445767996627 111.59290720287159 0.0 0.0
-1022.9517398773544 -120.49407970060521 -569.6638797340214 108.92124127598827 0.0 0.0
-971.3987680531127 -96.88181569952107 -531.9466225051669 109.38408378629566 0.0 0.0
-921.7150721308659 -78.43917550543878 -497.60327794232205 112.17841647268968 0.0 0.0
-870.5328860262671 -61.66309590135188 -463.1440050104865 115.67717408502467 0.0 0.0
-816.1925443068664 -45.42298494201598 -427.0980757721479 118.81026366862281 0.0 0.0
-758.0698757516473 -30.185101920845547 -388.8933455802432 120.80666416124816 0.0 0.0
-694.4905537505673 -15.743810748293075 -345.7446299970144 120.94454696281947 0.0 0.0
-620.709409819253 -0.6943789045374302 -289.51042197684524 120.17248586644578 0.0 0.0
-530.5910914668177 13.744799463756284 -214.40475637917626 123.83383294873161 0.0 0.0
-421.4376210507477 23.793851695238818 -137.98339407872612 137.2608313709687 0.0 0.0
-314.7538541507339 23.49048613171677 -89.7358444810835 149.29569205009207 0.0 0.0
-233.57520545513205 16.754045643828047 -65.21300256519059 156.54189874357326 0.0 0.0
-166.94445631659485 2.4331408577300913 -49.35956837141989 163.13975798631535 0.0 0.0
-99.99747793746327 -36.907459161887466 -41.07148112980522 153.63668663542344 0.0 0.0
-30.745959516246185 -93.36360078955693 -37.232868091740926 85.60073179342692 0.0 0.0
-31.530369763539987 -61.87957893739133 -28.022984610279394 -69.35113552275922 0.0 0.0
-108.685305642263 -29.24094972133237 -41.37787660907861 -133.85117548210428 0.0 0.0
-191.6107606011194 1.899266742520327 -56.911261051759226 -145.2069316342735 0.0 0.0
-275.0602721379653 14.607598091081567 -78.39226887691561 -136.7970899268107 0.0 0.0
-372.76750614478465 25.287294484678608 -109.3868821159638 -124.92986090042086 0.0 0.0
-484.3980225232492 23.588392985776355 -170.76979861231382 -106.97652409429757 0.0 0.0
-583.2736289685754 13.045027995977634 -250.82420437057178 -97.38509058499963 0.0 0.0
-665.1277921205855 -2.39328145701883 -319.51590606731247 -97.96787134842204 0.0 0.0
-736.388445727219 -18.105092083551668 -370.58739168723673 -100.53670770082222 0.0 0.0
-802.1919980326468 -35.619897720241255 -414.71075720888734 -101.23249933540343 0.0 0.0
-864.2856837494819 -54.94538123877709 -456.433188190096 -99.78170527153368 0.0 0.0
-923.0407904169235 -75.45566907873112 -496.63618594466294 -97.21932844941048 0.0 0.0
-978.8532955296843 -96.36126328710742 -535.4020717138434 -94.3030872733167 0.0 0.0
-1032.513610033872 -118.18129585512139 -573.3937754753 -91.52272216085281 0.0 0.0
-1088.4869217007197 -144.96691598755103 -614.8482328388842 -90.34045581634575 0.0 0.0
-1153.353425318466 -184.15609749756828 -666.8804353382442 -92.0484575641631 0.0 0.0
-1229.9527058741703 -240.47192291928687 -733.3582749075279 -95.86432697826703 0.0 0.0
-1317.3439134370874 -314.8615548050514 -814.2773244017724 -99.1543872917196 0.0 0.0
-1406.6439648690607 -403.6276014224377 -903.3631215587379 -100.87262929182683 0.0 0.0
-1484.8238297891799 -505.3850238726492 -993.5028490992052 -106.34862895099289 0.0 0.0
-1484.8238297887378 -505.3850238721665 -993.5028490988384 106.34862895094531 0.0 0.0
-1406.6439648673384 -403.62760142080407 -903.3631215575638 100.87262929195819 0.0 0.0
-1317.3439134350822 -314.8615548030531 -814.2773244002137 99.15438729166897 0.0 0.0
-1229.9527058734143 -240.4719229186675 -733.358274906881 95.86432697838032 0.0 0.0
-1153.3534253180499 -184.15609749731556 -666.8804353378849 92.04845756425593 0.0 0.0
-1088.4869216986767 -144.96691598559198 -614.8482328374779 90.34045581625915 0.0 0.0
-1032.5136100327863 -118.18129585421181 -573.3937754746005 91.52272216087927 0.0 0.0
-978.8532955301813 -96.36126328784145 -535.4020717141996 94.3030872734152 0.0 0.0
-923.0407904175868 -75.45566907970614 -496.636185945138 97.21932844954492 0.0 0.0
-864.2856837487824 -54.94538123829183 -456.43318818960574 99.78170527145784 0.0 0.0
-802.1919980323546 -35.619897720179665 -414.7107572086718 101.23249933528942 0.0 0.0
-736.3884457273068 -18.105092083969062 -370.58739168730153 100.53670770084506 0.0 0.0
-665.1277921205929 -2.3932814573774266 -319.5159060672716 97.96787134842066 0.0 0.0
-583.2736289681943 13.045027995969622 -250.82420437023785 97.38509058501602 0.0 0.0
-484.3980225226568 23.588392986009147 -170.76979861187584 106.97652409420931 0.0 0.0
-372.76750614453516 25.287294484355222 -109.3868821159453 124.92986090042827 0.0 0.0
-275.06027213774286 14.607598091054466 -78.39226887686807 136.79708992673574 0.0 0.0
-191.61076060094888 1.899266742515953 -56.91126105171024 145.20693163418323 0.0 0.0
-108.68530564222992 -29.240949721354784 -41.377876609075415 133.85117548201458 0.0 0.0
-31.530369763469068 -61.87957893728279 -28.02298461022555 69.35113552272935 0.0 0.0
-32.08591906844108 -36.08802619886394 -20.4521835801915 -52.60987325823329 0.0 0.0
-116.40365373244633 -20.981150859366696 -41.2154413775439 -110.76869073333845 0.0 0.0
-214.96756324192043 1.1754002190339161 -64.13688842277682 -122.85256602876194 0.0 0.0
-315.55894496493704 12.83679878033858 -91.1577360162552 -113.44710283214114 0.0 0.0
-427.10145809798263 25.766442852605017 -130.5879819135513 -96.88750703256903 0.0 0.0
-533.8379868328283 22.590526959196556 -202.0070003266316 -78.59421629169915 0.0 0.0
-621.8966201383212 11.316937850769705 -280.26191365538654 -73.76020699097708 0.0 0.0
-699.3562982752537 -2.7380083462341673 -341.08053155174525 -76.65025858331731 0.0 0.0
-771.1560246624713 -20.11504895051499 -390.46548848209466 -79.8417307731623 0.0 0.0
-839.8646885380365 -41.03923806644957 -436.8659003083077 -80.93656176217513 0.0 0.0
-905.7827070481325 -64.17807550726903 -482.15319090607056 -80.00180986150642 0.0 0.0
-969.1584562464502 -88.9738621748401 -526.7082375699279 -78.0782540735197 0.0 0.0
-1029.8563543597038 -114.4999025195333 -570.1594318591733 -75.82631099513905 0.0 0.0
-1088.731458117622 -140.7667150187934 -612.9678781461002 -73.38530105474905 0.0 0.0
-1148.7836123593104 -170.66114201995944 -658.0124705067576 -71.38867995594534 0.0 0.0
-1218.5341705155506 -213.84249806798363 -714.3970450347044 -71.43125458416807 0.0 0.0
-1306.668924551037 -280.1977775873063 -791.5828476578778 -74.39073700412517 0.0 0.0
-1406.7681846074306 -366.6103238296618 -884.8861436456034 -78.78323020924931 0.0 0.0
-1504.609113481673 -464.0451594834761 -982.6187476534524 -83.91235177843173 0.0 0.0
-1581.5625421729337 -563.7482761206292 -1071.1455392248731 -94.04398279384276 0.0 0.0
-1581.562542173675 -563.7482761213829 -1071.1455392253952 94.0439827939012 0.0 0.0
-1504.609113480848 -464.0451594827791 -982.6187476528656 83.91235177869567 0.0 0.0
-1406.7681846067564 -366.61032382904096 -884.8861436451612 78.7832302092439 0.0 0.0
-1306.6689245516866 -280.1977775880606 -791.5828476583223 74.39073700413587 0.0 0.0
-1218.5341705151766 -213.84249806774199 -714.3970450343376 71.43125458424518 0.0 0.0
-1148.7836123591396 -170.66114201994267 -658.0124705065899 71.38867995592108 0.0 0.0
-1088.7314581168157 -140.76671501814155 -612.9678781455221 73.38530105476855 0.0 0.0
-1029.8563543585124 -114.49990251854183 -570.1594318583702 75.82631099515702 0.0 0.0
-969.158456245843 -88.97386217444343 -526.708237569503 78.07825407351328 0.0 0.0
-905.7827070476274 -64.17807550701606 -482.15319090573826 80.00180986151291 0.0 0.0
-839.8646885370076 -41.03923806568523 -436.8659003076135 80.93656176216462 0.0 0.0
-771.1560246626922 -20.11504895107617 -390.46548848223625 79.84173077322092 0.0 0.0
-699.3562982748598 -2.73800834612733 -341.0805315514716 76.65025858321957 0.0 0.0
-621.8966201374305 11.316937851431518 -280.2619136547 73.76020699072171 0.0 0.0
-533.8379868326443 22.59052695892279 -202.00700032642348 78.59421629168543 0.0 0.0
-427.1014580978169 25.76644285229454 -130.58798191349672 96.88750703241116 0.0 0.0
-315.5589449649028 12.836798779995796 -91.15773601635955 113.44710283194213 0.0 0.0
-214.96756324175846 1.1754002189527184 -64.13688842275349 122.85256602856197 0.0 0.0
-116.40365373245486 -20.98115085952896 -41.21544137759514 110.76869073320607 0.0 0.0
-32.08591906833953 -36.088026198854735 -20.452183580158277 52.609873258118 0.0 0.0
-31.799591402946998 -16.44749177901557 -14.47412495458877 -35.49755745490674 0.0 0.0
-122.33644615536545 -12.603527436982887 -40.4819920777045 -84.61425175287063 0.0 0.0
-237.4255758515443 0.03110016028256446 -71.21834270737851 -96.022249140848 0.0 0.0
-355.89274325616975 12.476269170665763 -103.62566632560394 -86.40389626734071 0.0 0.0
-474.4519805536594 24.91094318218073 -153.3028710940378 -67.15200727663687 0.0 0.0
-572.4144534745957 20.361031853748223 -231.18179831119028 -53.3953533574797 0.0 0.0
-652.8570531045336 10.260589221052868 -303.35239795537086 -52.08078635768984 0.0 0.0
-727.2499538043062 -2.6115773031906997 -357.5797145690859 -55.36456064094186 0.0 0.0
-800.4022856279647 -22.204117818899576 -407.0362380690011 -58.60394975806577 0.0 0.0
-872.171516218604 -46.25373779653691 -456.0462583725886 -59.9241873490146 0.0 0.0
-942.1494628527819 -73.17949704269893 -505.1025915279815 -59.467293008631756 0.0 0.0
-1009.9949521764511 -102.15664863278602 -553.9140931065144 -58.16848659921274 0.0 0.0
-1076.211440821245 -132.54167056727806 -602.4976506895176 -56.66947313484456 0.0 0.0
-1141.036331019206 -164.57875700934383 -651.1343678939875 -54.758890525481185 0.0 0.0
-1206.232119078285 -199.2385877269922 -701.1602873230772 -52.360031966595656 0.0 0.0
-1278.0054287111675 -243.3785099494978 -759.0451570007947 -50.606973328817226 0.0 0.0
-1368.2283341991474 -310.85581844884734 -837.7351013690538 -52.1265513301509 0.0 0.0
-1483.825154645342 -411.8404782786453 -946.0352157515209 -58.01278232399252 0.0 0.0
-1595.666396183716 -522.5351019329378 -1057.4468793919064 -67.60881116904427 0.0 0.0
-1682.0084287763725 -630.1302414242547 -1154.6261540936189 -83.3358406000139 0.0 0.0
-1682.0084287763364 -630.1302414242189 -1154.6261540935916 83.33584060000508 0.0 0.0
-1595.6663961841814 -522.5351019335354 -1057.4468793923093 67.60881116935101 0.0 0.0
-1483.8251546451047 -411.8404782784774 -946.0352157513003 58.012782323959414 0.0 0.0
-1368.2283341982197 -310.85581844802306 -837.7351013682519 52.126551330224935 0.0 0.0
-1278.0054287098799 -243.3785099483147 -759.04515699973 50.60697332877071 0.0 0.0
-1206.2321190766208 -199.23858772547726 -701.1602873218592 52.36003196666189 0.0 0.0
-1141.0363310182074 -164.5787570085508 -651.1343678932933 54.75889052561207 0.0 0.0
-1076.2114408211605 -132.54167056742818 -602.4976506894305 56.669473134970616 0.0 0.0
-1009.9949521765018 -102.15664863307096 -553.9140931065499 58.168486599204655 0.0 0.0
-942.1494628523342 -73.17949704249068 -505.1025915276898 59.467293008585486 0.0 0.0
-872.1715162176911 -46.25373779588203 -456.0462583719817 59.92418734900729 0.0 0.0
-800.4022856269999 -22.204117818180507 -407.0362380683348 58.60394975795694 0.0 0.0
-727.2499538043086 -2.6115773035590024 -357.5797145690622 55.36456064106434 0.0 0.0
-652.8570531042606 10.26058922093484 -303.35239795515713 52.08078635780997 0.0 0.0
-572.4144534741757 20.361031853801865 -231.18179831078575 53.39535335743034 0.0 0.0
-474.4519805535574 24.91094318186888 -153.30287109397048 67.15200727653159 0.0 0.0
-355.8927432558416 12.47626917063592 -103.6256663255345 86.40389626741458 0.0 0.0
-237.4255758514861 0.031100160112291775 -71.21834270741213 96.0222491409761 0.0 0.0
-122.33644615524081 -12.603527436795268 -40.48199207761082 84.61425175281084 0.0 0.0
-31.799591402800818 -16.447491778806135 -14.474124954482082 35.4975574549836 0.0 0.0
-29.359282794687406 -3.342338210647715 -9.810486301600534 -18.530701347300255 0.0 0.0
-124.76694446596534 -4.724847413215199 -38.84753756375416 -55.352614698014676 0.0 0.0
-259.4110886247058 -1.3354353156977314 -78.22395718212105 -64.20858284729329 0.0 0.0
-397.57738679547913 13.417607142607572 -116.73231468727792 -55.76995324821337 0.0 0.0
-513.4266718580425 23.596145291780598 -176.63653136987 -38.76554495828501 0.0 0.0
-600.7811534229818 17.00251616938332 -256.90436547547625 -30.712634250332105 0.0 0.0
-677.0243896744752 10.52953684301302 -320.1928513765787 -31.250846513071096 0.0 0.0
-750.4517580366945 -3.070866352009446 -371.0816492594059 -34.06122341190862 0.0 0.0
-824.7336127084399 -24.118447175247837 -420.7700922907192 -36.8024619742934 0.0 0.0
-899.7646196536753 -51.22265883112897 -472.64360348750483 -38.15035348163317 0.0 0.0
-973.949103018932 -81.96729036739518 -525.611937946298 -38.160247916938296 0.0 0.0
-1046.6768014863178 -114.99665321220931 -578.8341562346641 -37.512397181855256 0.0 0.0
-1118.2636173977094 -150.5853697811088 -632.6572097493276 -36.63174616911177 0.0 0.0
-1189.8387003187695 -188.78207879573546 -687.7080049342253 -35.4208234935908 0.0 0.0
-1262.0737274338392 -230.1811734049609 -744.631149734042 -33.450212484013576 0.0 0.0
-1336.163598284497 -276.5091949747023 -804.8522793003077 -30.728645335840675 0.0 0.0
-1419.430198908216 -336.4547565430942 -876.3110576958018 -29.745356999510864 0.0 0.0
-1529.1413352476607 -430.13349167080037 -977.8145443904428 -35.49369680683693 0.0 0.0
-1687.9715031476542 -585.5516587394594 -1135.0915703066767 -50.216022332768304 0.0 0.0
-1795.502172536763 -711.9245945588002 -1252.3285431267707 -73.23575045455762 0.0 0.0
-1795.5021725357146 -711.9245945577757 -1252.3285431261427 73.235750454611 0.0 0.0
-1687.9715031471837 -585.5516587390604 -1135.0915703062424 50.21602233290132 0.0 0.0
-1529.1413352484703 -430.1334916717018 -977.8145443908479 35.49369680682227 0.0 0.0
-1419.430198908226 -336.45475654321376 -876.3110576958069 29.745356999571783 0.0 0.0
-1336.1635982843595 -276.50919497468703 -804.8522793001327 30.728645335734427 0.0 0.0
-1262.0737274331061 -230.18117340438147 -744.6311497334614 33.450212483987585 0.0 0.0
-1189.838700317475 -188.782078794599 -687.7080049332626 35.420823493530705 0.0 0.0
-1118.2636173972896 -150.58536978088512 -632.65720974893 36.631746169080245 0.0 0.0
-1046.6768014859836 -114.99665321212233 -578.8341562342794 37.51239718190185 0.0 0.0
-973.9491030185729 -81.96729036729616 -525.6119379459524 38.160247916960174 0.0 0.0
-899.7646196540186 -51.22265883175071 -472.6436034876781 38.15035348154424 0.0 0.0
-824.7336127077302 -24.118447174802128 -420.7700922902283 36.80246197423719 0.0 0.0
-750.4517580359858 -3.0708663515805554 -371.0816492589191 34.06122341179879 0.0 0.0
-677.0243896736229 10.529536843584445 -320.19285137596927 31.250846512845392 0.0 0.0
-600.7811534221671 17.002516169898243 -256.90436547486206 30.71263425032233 0.0 0.0
-513.4266718571496 23.596145292409737 -176.63653136929108 38.765544958410004 0.0 0.0
-397.57738679515046 13.417607142483078 -116.73231468722703 55.76995324819528 0.0 0.0
-259.4110886246463 -1.335435315818641 -78.22395718213949 64.20858284713529 0.0 0.0
-124.76694446585606 -4.724847413168358 -38.84753756370732 55.352614697916465 0.0 0.0
-29.359282794682603 -3.3423382105991424 -9.810486301584522 18.530701347227666 0.0 0.0
-22.252443194218884 2.9612794141969525 -5.787349134006579 -2.992943520194405 0.0 0.0
-120.56128999717777 1.7902624969359717 -35.631308250072536 -22.40889124269016 0.0 0.0
-282.13520469542044 -2.3448149548794692 -85.34400589508996 -26.353595942172007 0.0 0.0
-437.69517278104934 15.576297923088612 -131.27109734964662 -22.421188219545243 0.0 0.0
-546.0397566866061 21.17683321189801 -200.63589617185545 -13.16139147510529 0.0 0.0
-625.3746812262876 15.235545863868488 -278.1814065358558 -10.246719125227635 0.0 0.0
-696.8746515601919 10.124945797584147 -333.65451526181437 -10.832675747142044 0.0 0.0
-769.3341770604877 -3.599997684498561 -381.90550031536753 -12.660199210248713 0.0 0.0
-844.9431492162321 -26.083068415080987 -432.32415885969795 -14.462914695339855 0.0 0.0
-923.1177296377491 -55.88066933796216 -486.91166571547194 -15.610031176064954 0.0 0.0
-1001.72629854212 -90.30092603294196 -543.8405303141532 -16.06099596550667 0.0 0.0
-1079.4082835502222 -128.05276618426342 -601.8594086517342 -16.01505302601621 0.0 0.0
-1156.6630936706729 -168.43146570625186 -660.8760512874967 -15.7822844644482 0.0 0.0
-1234.7932127700662 -212.51049323265548 -722.1100338116534 -15.26486657283667 0.0 0.0
-1314.5521634516117 -261.22356283277 -786.4357849283496 -14.184991316591265 0.0 0.0
-1395.0010120065353 -314.068881037669 -853.1407353331288 -12.241374763190873 0.0 0.0
-1474.056002441721 -369.92761006000507 -920.587112340037 -9.787200978900806 0.0 0.0
-1557.7284167983116 -436.5567026239833 -995.5599798099964 -11.257012964742152 0.0 0.0
-1681.1278056943713 -552.8457690513496 -1115.1105665022897 -27.18766078232352 0.0 0.0
-1998.8282549881442 -883.4420550139005 -1439.7598908495304 -60.64540102453815 0.0 0.0
-1998.828254988121 -883.4420550138977 -1439.759890849498 60.64540102455044 0.0 0.0
-1681.1278056929004 -552.8457690499267 -1115.1105665011178 27.187660782399714 0.0 0.0
-1557.7284167973048 -436.55670262304795 -995.5599798091669 11.257012964767174 0.0 0.0
-1474.056002441498 -369.92761005990394 -920.5871123398535 9.787200978970063 0.0 0.0
-1395.001012006863 -314.06888103811843 -853.1407353333368 12.24137476309583 0.0 0.0
-1314.5521634521501 -261.2235628334767 -786.4357849287264 14.184991316509583 0.0 0.0
-1234.79321277009 -212.5104932328511 -722.1100338116873 15.264866572887959 0.0 0.0
-1156.663093670624 -168.43146570641647 -660.8760512873702 15.782284464452218 0.0 0.0
-1079.4082835497572 -128.0527661840331 -601.8594086514279 16.01505302606857 0.0 0.0
-1001.7262985412058 -90.3009260322859 -543.8405303135547 16.06099596540266 0.0 0.0
-923.1177296374458 -55.880669337925696 -486.9116657152385 15.610031175994168 0.0 0.0
-844.9431492154886 -26.083068414622474 -432.32415885922876 14.462914695306912 0.0 0.0
-769.334177059907 -3.599997684213065 -381.90550031498753 12.660199210308669 0.0 0.0
-696.8746515600108 10.124945797420075 -333.65451526170267 10.83267574723035 0.0 0.0
-625.3746812257916 15.235545864013005 -278.1814065354815 10.246719125369747 0.0 0.0
-546.0397566863054 21.176833211875827 -200.63589617159244 13.161391475060837 0.0 0.0
-437.695172781149 15.576297922480368 -131.2710973498234 22.421188219530833 0.0 0.0
-282.13520469525525 -2.344814955052682 -85.34400589509237 26.353595942129303 0.0 0.0
-120.56128999698001 1.7902624971305272 -35.631308249954834 22.408891242801182 0.0 0.0
-22.252443194122606 2.961279414213432 -5.787349133972753 2.9929435202627257 0.0 0.0
SCALARS Strain float 6
LOOKUP_TABLE default
0.012526616711012888 -0.01359500169831529 0.0 -0.007556109252167376 0.0 0.0
0.002564092235413703 -0.0016771449529734417 0.0 0.0012688041191739607 0.0 0.0
0.0018614846747863276 -0.0007632523504649269 0.0 -3.682683637107331e-05 0.0 0.0
0.0024075477580759 -0.0011959116449271612 0.0 -0.00023262222714331982 0.0 0.0
0.00387808082376373 -0.002409023546950939 0.0 -0.00030334568873130463 0.0 0.0
0.0069056933564329015 -0.005135489493431011 0.0 -0.00047613234362314794 0.0 0.0
0.011845893273546368 -0.009807855203770144 0.0 -0.0007739940582071059 0.0 0.0
0.01903378099731788 -0.016724772028648527 0.0 -0.0012387938418012556 0.0 0.0
0.02863950771992231 -0.02603372090028122 0.0 -0.001888024900948304 0.0 0.0
0.04062994108011563 -0.03769973592176523 0.0 -0.0026653696029125817 0.0 0.0
0.0548417947024034 -0.05157096474535905 0.0 -0.003472019078822719 0.0 0.0
0.07107465427658899 -0.06745506605993068 0.0 -0.004257747831268199 0.0 0.0
0.08912600646742183 -0.08515248560215705 0.0 -0.005029099967930162 0.0 0.0
0.10875847544354762 -0.10442152700115503 0.0 -0.005777653757077783 0.0 0.0
0.12958050332063836 -0.12486712351602458 0.0 -0.006465261199958328 0.0 0.0
0.15091156049034815 -0.1458125641058139 0.0 -0.006952349368993749 0.0 0.0
0.17172653133112395 -0.16624555941069064 0.0 -0.006998429343770707 0.0 0.0
0.19069530112445846 -0.18484920829782236 0.0 -0.006388199323095534 0.0 0.0
0.20623399828130434 -0.20004051447597604 0.0 -0.005468199789114836 0.0 0.0
0.21600841166320772 -0.2092708280372202 0.0 -0.006449960375498942 0.0 0.0
0.21600841166319484 -0.20927082803720154 0.0 0.006449960375507491 0.0 0.0
0.20623399828125946 -0.2000405144759272 0.0 0.0054681997891375955 0.0 0.0
0.1906953011243854 -0.1848492082977531 0.0 0.0063881993231101886 0.0 0.0
0.17172653133103016 -0.16624555941059782 0.0 0.0069984293437793665 0.0 0.0
0.15091156049024487 -0.14581256410571308 0.0 0.0069523493689845894 0.0 0.0
0.12958050332053278 -0.12486712351591978 0.0 0.00646526119995483 0.0 0.0
0.10875847544344319 -0.10442152700104801 0.0 0.005777653757078727 0.0 0.0
0.08912600646731983 -0.08515248560204913 0.0 0.0050290999679259984 0.0 0.0
0.07107465427648862 -0.06745506605983209 0.0 0.004257747831259984 0.0 0.0
0.05484179470231476 -0.051570964745272896 0.0 0.0034720190788132266 0.0 0.0
0.0406299410800427 -0.03769973592169551 0.0 0.002665369602901535 0.0 0.0
0.028639507719864177 -0.026033720900227486 0.0 0.0018880249009437522 0.0 0.0
0.019033780997275762 -0.016724772028607227 0.0 0.0012387938417983135 0.0 0.0
0.01184589327351776 -0.009807855203743054 0.0 0.0007739940582040528 0.0 0.0
0.006905693356415721 -0.005135489493414136 0.0 0.0004761323436205389 0.0 0.0
0.003878080823756791 -0.0024090235469431676 0.0 0.00030334568872941725 0.0 0.0
0.002407547758073336 -0.0011959116449252738 0.0 0.0002326222271408218 0.0 0.0
0.0018614846747860847 -0.0007632523504647049 0.0 3.682683636946349e-05 0.0 0.0
0.002564092235411597 -0.0016771449529718874 0.0 -0.001268804119172906 0.0 0.0
0.012526616711002136 -0.013595001698300864 0.0 0.00755610925213368 0.0 0.0
0.008954435031385044 -0.010401335600551564 0.0 -0.009176775955416883 0.0 0.0
0.0013794501127583625 -0.0008415243242537729 0.0 0.00012508759456653085 0.0 0.0
0.001587224450788162 -0.0005597182888474883 0.0 -0.0001265493545276053 0.0 0.0
0.002101042474422332 -0.0009892399754978243 0.0 -0.0004938061923515646 0.0 0.0
0.0032765096507064856 -0.0019088851200195212 0.0 -0.0006747469510585691 0.0 0.0
0.005873989497160545 -0.004192435282108331 0.0 -0.0010974149630141317 0.0 0.0
0.010284271094246643 -0.008313505986291103 0.0 -0.001844957808644132 0.0 0.0
0.01678716274933867 -0.014538646524955734 0.0 -0.0029438653910304202 0.0 0.0
0.025491749623734197 -0.022953356464179286 0.0 -0.004400271049777027 0.0 0.0
0.036315947061064946 -0.03347028924097284 0.0 -0.0060815010588641805 0.0 0.0
0.04908097798013029 -0.04591950581660287 0.0 -0.007799479946578702 0.0 0.0
0.06361604967634824 -0.06013495099905075 0.0 -0.00944715127027701 0.0 0.0
0.07978100449226823 -0.07597463086454459 0.0 -0.011080796488926015 0.0 0.0
0.0973888483900171 -0.09324934659665729 0.0 -0.012708400802862119 0.0 0.0
0.11610510606804686 -0.1116236083271116 0.0 -0.014210831962743697 0.0 0.0
0.13535435148030045 -0.13052401310592465 0.0 -0.015311992844499633 0.0 0.0
0.154252921355007 -0.14907181429342042 0.0 -0.015553379086686359 0.0 0.0
0.17158084144132466 -0.16604876823799763 0.0 -0.01461217824587846 0.0 0.0
0.18564954656662677 -0.1797245001076817 0.0 -0.01278665334668816 0.0 0.0
0.1941371879373758 -0.18791071690809602 0.0 -0.009888946663015652 0.0 0.0
0.19413718793736282 -0.1879107169080827 0.0 0.009888946663039522 0.0 0.0
0.1856495465665861 -0.17972450010763907 0.0 0.012786653346730459 0.0 0.0
0.1715808414412601 -0.1660487682379257 0.0 0.014612178245906327 0.0 0.0
0.1542529213549257 -0.14907181429333738 0.0 0.015553379086700514 0.0 0.0
0.13535435148020897 -0.1305240131058376 0.0 0.015311992844488143 0.0 0.0
0.11610510606795227 -0.11162360832702323 0.0 0.014210831962739201 0.0 0.0
0.09738884838992257 -0.0932493465965698 0.0 0.012708400802861286 0.0 0.0
0.07978100449217662 -0.07597463086446243 0.0 0.01108079648892002 0.0 0.0
0.06361604967625928 -0.06013495099896726 0.0 0.009447151270265741 0.0 0.0
0.049080977980050455 -0.045919505816524264 0.0 0.007799479946567711 0.0 0.0
0.03631594706099883 -0.03347028924090534 0.0 0.006081501058848304 0.0 0.0
0.02549174962368206 -0.022953356464123775 0.0 0.004400271049769144 0.0 0.0
0.016787162749300644 -0.014538646524920429 0.0 0.002943865391023537 0.0 0.0
0.010284271094221087 -0.008313505986268677 0.0 0.00184495780863847 0.0 0.0
0.005873989497146015 -0.004192435282094342 0.0 0.00109741496301069 0.0 0.0
0.003276509650701087 -0.0019088851200146362 0.0 0.0006747469510563486 0.0 0.0
0.0021010424744202782 -0.0009892399754980463 0.0 0.0004938061923512316 0.0 0.0
0.0015872244507882383 -0.0005597182888494867 0.0 0.00012654935452827143 0.0 0.0
0.0013794501127581404 -0.0008415243242516635 0.0 -0.00012508759456897334 0.0 0.0
0.0089544350313715 -0.010401335600535973 0.0 0.009176775955387129 0.0 0.0
0.006662194182215871 -0.008282709113386189 0.0 -0.008526590238411291 0.0 0.0
0.0008077408642316597 -0.0005525282230571804 0.0 -0.0005916673283875018 0.0 0.0
0.0012704935261976247 -0.00040971673985679136 0.0 -0.00044080031805782127 0.0 0.0
0.0018116827267925725 -0.0008009565382463002 0.0 -0.0007383602945020828 0.0 0.0
0.0027412360602254576 -0.0014908409095266695 0.0 -0.0009896833783420433 0.0 0.0
0.004884817983897553 -0.0033109411599343552 0.0 -0.001555623211917545 0.0 0.0
0.008735782729843454 -0.0068449688521221574 0.0 -0.0026360644623095175 0.0 0.0
0.014514661243645227 -0.01234068984566683 0.0 -0.004250213858958185 0.0 0.0
0.022282498410371207 -0.019824012498676602 0.0 -0.006340291702710887 0.0 0.0
0.03191730201414678 -0.02916970937671204 0.0 -0.008716843212302372 0.0 0.0
0.04323027034447195 -0.040191519840154566 0.0 -0.011143503972061597 0.0 0.0
0.0560703850868428 -0.05273925746890651 0.0 -0.013483007033749383 0.0 0.0
0.07033508169133161 -0.06670795885824843 0.0 -0.01578099957054374 0.0 0.0
0.08589594310481789 -0.08196739744746129 0.0 -0.01808474014702577 0.0 0.0
0.102494580247045 -0.0982596300346037 0.0 -0.02024969451031594 0.0 0.0
0.11966851325834799 -0.11512139740025606 0.0 -0.02187851031805571 0.0 0.0
0.13667607556616987 -0.13180787730001464 0.0 -0.022417118890529775 0.0 0.0
0.15238536972294842 -0.14717365206630628 0.0 -0.021405875253242668 0.0 0.0
0.16515335813244877 -0.15960576876552057 0.0 -0.018357764515236408 0.0 0.0
0.17310523969761119 -0.16731369391491047 0.0 -0.012312422682032031 0.0 0.0
0.17310523969759894 -0.1673136939149007 0.0 0.012312422682074442 0.0 0.0
0.16515335813241203 -0.15960576876549037 0.0 0.018357764515297248 0.0 0.0
0.15238536972289105 -0.147173652066253 0.0 0.02140587525328208 0.0 0.0
0.1366760755660992 -0.1318078772999458 0.0 0.02241711889054887 0.0 0.0
0.11966851325826788 -0.1151213974001779 0.0 0.021878510318045552 0.0 0.0
0.10249458024696129 -0.09825963003452287 0.0 0.02024969451031111 0.0 0.0
0.08589594310473331 -0.0819673974473778 0.0 0.018084740147021106 0.0 0.0
0.07033508169125074 -0.06670795885816583 0.0 0.015780999570535248 0.0 0.0
0.05607038508676493 -0.0527392574688359 0.0 0.013483007033735284 0.0 0.0
0.04323027034440141 -0.04019151984008884 0.0 0.011143503972044111 0.0 0.0
0.03191730201408799 -0.02916970937665697 0.0 0.008716843212280279 0.0 0.0
0.022282498410324925 -0.019824012498632193 0.0 0.006340291702698453 0.0 0.0
0.014514661243611449 -0.012340689845633523 0.0 0.004250213858944474 0.0 0.0
0.00873578272982145 -0.006844968852100619 0.0 0.002636064462302301 0.0 0.0
0.004884817983885348 -0.0033109411599263616 0.0 0.0015556232119127156 0.0 0.0
0.0027412360602211416 -0.001490840909524005 0.0 0.00098968337833788 0.0 0.0
0.001811682726791164 -0.0008009565382443018 0.0 0.0007383602945008061 0.0 0.0
0.0012704935261974581 -0.00040971673985767953 0.0 0.00044080031805726616 0.0 0.0
0.0008077408642316874 -0.0005525282230556816 0.0 0.0005916673283841711 0.0 0.0
0.00666219418220293 -0.008282709113371879 0.0 0.008526590238388088 0.0 0.0
0.0050501190611402375 -0.00668297775627541 0.0 -0.007256892187704034 0.0 0.0
0.0005051674887847357 -0.0004110927744448434 0.0 -0.0011942763981392934 0.0 0.0
0.0009844092328433335 -0.00029954967370193764 0.0 -0.0008636006489167181 0.0 0.0
0.0015320131852770286 -0.0006386152775612608 0.0 -0.0010102025658502156 0.0 0.0
0.0022693367196425646 -0.001154018672992807 0.0 -0.0012741306708028421 0.0 0.0
0.003973191987678162 -0.0025303604384139256 0.0 -0.001879193231148213 0.0 0.0
0.007214897465073422 -0.005432084756750388 0.0 -0.0031577574885571225 0.0 0.0
0.01224351386634312 -0.010157984124864683 0.0 -0.005152128152103919 0.0 0.0
0.019044018252881406 -0.016681228318261798 0.0 -0.007699270466723751 0.0 0.0
0.027470387847969888 -0.02483576523242892 0.0 -0.010575821338522529 0.0 0.0
0.037323433908281994 -0.034421279531241744 0.0 -0.01350493538480102 0.0 0.0
0.04846550915901861 -0.04529754172822331 0.0 -0.01634763149339763 0.0 0.0
0.06082692310492975 -0.0573926503451907 0.0 -0.019154653133739652 0.0 0.0
0.07432849638063899 -0.07062428936572474 0.0 -0.021930038586381817 0.0 0.0
0.08878940556638723 -0.08481459546422832 0.0 -0.02453950896792162 0.0 0.0
0.10386817076049004 -0.09961862557187251 0.0 -0.026616738518431493 0.0 0.0
0.1189658990898524 -0.11442511089832808 0.0 -0.027534827661584216 0.0 0.0
0.13309156942383485 -0.12824083973355638 0.0 -0.026534147345952386 0.0 0.0
0.14481880267687258 -0.13966996172611434 0.0 -0.022552735140070612 0.0 0.0
0.15255138506147362 -0.1471826486446126 0.0 -0.014285208531970128 0.0 0.0
0.15255138506146212 -0.14718264864460018 0.0 0.01428520853202464 0.0 0.0
0.14481880267683941 -0.13966996172607793 0.0 0.022552735140139668 0.0 0.0
0.13309156942378406 -0.1282408397335022 0.0 0.02653414734599957 0.0 0.0
0.11896589908979144 -0.11442511089826768 0.0 0.02753482766160653 0.0 0.0
0.10386817076042096 -0.09961862557180101 0.0 0.0266167385184215 0.0 0.0
0.08878940556631434 -0.0848145954641586 0.0 0.02453950896791046 0.0 0.0
0.07432849638056518 -0.07062428936565857 0.0 0.021930038586374545 0.0 0.0
0.060826923104859876 -0.05739265034512098 0.0 0.019154653133726662 0.0 0.0
0.04846550915895104 -0.04529754172815137 0.0 0.016347631493376147 0.0 0.0
0.03732343390822179 -0.03442127953118357 0.0 0.013504935384778483 0.0 0.0
0.027470387847918942 -0.02483576523238007 0.0 0.010575821338500102 0.0 0.0
0.019044018252840578 -0.01668122831822272 0.0 0.007699270466709929 0.0 0.0
0.012243513866313782 -0.010157984124834929 0.0 0.0051521281520910955 0.0 0.0
0.0072148974650553255 -0.005432084756732625 0.0 0.003157757488547408 0.0 0.0
0.0039731919876682675 -0.002530360438406154 0.0 0.0018791932311443271 0.0 0.0
0.0022693367196394143 -0.0011540186729912527 0.0 0.0012741306708009548 0.0 0.0
0.0015320131852764596 -0.0006386152775610388 0.0 0.0010102025658494385 0.0 0.0
0.0009844092328433751 -0.00029954967370160457 0.0 0.0008636006489159964 0.0 0.0
0.000505167488784819 -0.0004110927744438442 0.0 0.0011942763981375726 0.0 0.0
0.005050119061128844 -0.006682977756262719 0.0 0.007256892187684938 0.0 0.0
0.0038178711041993163 -0.005378049050708045 0.0 -0.005950126705696002 0.0 0.0
0.0003369896311855025 -0.00033181151076400184 0.0 -0.0016637024360272035 0.0 0.0
0.0007460159557235169 -0.00022089746947395739 0.0 -0.0012899440880744795 0.0 0.0
0.0012612543704178109 -0.0005004679643607624 0.0 -0.0013120806009929153 0.0 0.0
0.0018535866191927985 -0.0008873762961754128 0.0 -0.0015418448078798885 0.0 0.0
0.0031560457269835113 -0.0018712463366157284 0.0 -0.0021288513305521284 0.0 0.0
0.005764615508711449 -0.004117408784222842 0.0 -0.003432124052179575 0.0 0.0
0.009994446027185647 -0.008020986565188348 0.0 -0.005609243099220285 0.0 0.0
0.015808313461262893 -0.013558633904596107 0.0 -0.008470290507423317 0.0 0.0
0.02300945113295319 -0.020504743092680577 0.0 -0.011654796947188406 0.0 0.0
0.03139524378900381 -0.028645238984505994 0.0 -0.014893110200970061 0.0 0.0
0.04083565861347084 -0.03784672076998552 0.0 -0.018039881113419365 0.0 0.0
0.05129016569825599 -0.048064230857718826 0.0 -0.021148883980386612 0.0 0.0
0.0627283976877864 -0.05926507155279426 0.0 -0.02423769328804809 0.0 0.0
0.07503831937836627 -0.07133831563313198 0.0 -0.027132468864871973 0.0 0.0
0.08798003658958252 -0.08404135033258386 0.0 -0.029487223438850407 0.0 0.0
0.10111561170319555 -0.09692660261090946 0.0 -0.030749276437945894 0.0 0.0
0.11368856921502132 -0.10922941345789816 0.0 -0.029952277100934843 0.0 0.0
0.12453612968455727 -0.11980865588032952 0.0 -0.025558825084325276 0.0 0.0
0.13225342240782095 -0.12731230420996287 0.0 -0.01594883258480939 0.0 0.0
0.13225342240780993 -0.1273123042099531 0.0 0.015948832584867234 0.0 0.0
0.12453612968452796 -0.11980865588029754 0.0 0.025558825084396775 0.0 0.0
0.11368856921497764 -0.10922941345784487 0.0 0.029952277100987024 0.0 0.0
0.10111561170314326 -0.09692660261085839 0.0 0.03074927643797032 0.0 0.0
0.08798003658952352 -0.08404135033253457 0.0 0.029487223438842913 0.0 0.0
0.07503831937830382 -0.0713383156330738 0.0 0.027132468864860537 0.0 0.0
0.06272839768772412 -0.05926507155273564 0.0 0.02423769328803993 0.0 0.0
0.05129016569819672 -0.048064230857661094 0.0 0.021148883980377398 0.0 0.0
0.04083565861341382 -0.037846720769934894 0.0 0.018039881113399492 0.0 0.0
0.03139524378895345 -0.028645238984455368 0.0 0.014893110200946524 0.0 0.0
0.023009451132909864 -0.020504743092639277 0.0 0.011654796947160317 0.0 0.0
0.01580831346122813 -0.013558633904562356 0.0 0.008470290507405775 0.0 0.0
0.009994446027161097 -0.0080209865651657 0.0 0.0056092430992071285 0.0 0.0
0.005764615508696946 -0.004117408784207077 0.0 0.0034321240521707486 0.0 0.0
0.003156045726976142 -0.001871246336608845 0.0 0.002128851330546966 0.0 0.0
0.0018535866191906614 -0.0008873762961727483 0.0 0.0015418448078753366 0.0 0.0
0.0012612543704178525 -0.000500467964359208 0.0 0.0013120806009908614 0.0 0.0
0.0007460159557234336 -0.00022089746947362432 0.0 0.001289944088072481 0.0 0.0
0.00033698963118566905 -0.000331811510762281 0.0 0.0016637024360241504 0.0 0.0
0.0038178711041896296 -0.005378049050697102 0.0 0.00595012670568007 0.0 0.0
0.002844106498780613 -0.004284048021430231 0.0 -0.004802274314745725 0.0 0.0
0.0002353383445360402 -0.0002793956770641426 0.0 -0.0020140124998575537 0.0 0.0
0.0005469109416979673 -0.00016148456047648807 0.0 -0.0016651162764386718 0.0 0.0
0.000996460323135856 -0.00037854729450614855 0.0 -0.0016173051155990992 0.0 0.0
0.001483914685604229 -0.0006750570850255766 0.0 -0.001804077568363982 0.0 0.0
0.0024302473773468447 -0.0013385046965579406 0.0 -0.0023338696335277187 0.0 0.0
0.004428398849277218 -0.002957240977590203 0.0 -0.00356766125168434 0.0 0.0
0.007812595395708347 -0.00599056904977191 0.0 -0.0056984210810197555 0.0 0.0
0.012603568164180123 -0.01049179008934642 0.0 -0.008624681629943232 0.0 0.0
0.01856872692413984 -0.016214170352454538 0.0 -0.011942063366033373 0.0 0.0
0.02547949881539187 -0.022902026580457147 0.0 -0.015291334626842623 0.0 0.0
0.033217387529129755 -0.030426397772362 0.0 -0.018549453148282213 0.0 0.0
0.04176430698023072 -0.038766067645402025 0.0 -0.021771591775274046 0.0 0.0
0.05113311848635864 -0.04793027416740214 0.0 -0.024961006988356793 0.0 0.0
0.061280448687367456 -0.05787273852491426 0.0 -0.027971867856374732 0.0 0.0
0.07204717827950391 -0.06843734418867298 0.0 -0.03048546317362033 0.0 0.0
0.08315027786289134 -0.07933634728437378 0.0 -0.031987625442029155 0.0 0.0
0.0941307322407186 -0.09009488033287916 0.0 -0.03154745989868468 0.0 0.0
0.10416447477782781 -0.0998888363696997 0.0 -0.027360760340812806 0.0 0.0
0.11201252707103293 -0.10751702980124378 0.0 -0.017343107728285068 0.0 0.0
0.112012527071023 -0.10751702980123135 0.0 0.017343107728340135 0.0 0.0
0.10416447477780261 -0.0998888363696766 0.0 0.02736076034088719 0.0 0.0
0.09413073224068189 -0.09009488033284674 0.0 0.03154745989873653 0.0 0.0
0.08315027786284762 -0.07933634728433159 0.0 0.03198762544205214 0.0 0.0
0.07204717827945512 -0.06843734418862457 0.0 0.030485463173611005 0.0 0.0
0.061280448687315414 -0.05787273852486141 0.0 0.027971867856362964 0.0 0.0
0.05113311848630797 -0.047930274167356846 0.0 0.024961006988345136 0.0 0.0
0.041764306980182214 -0.038766067645357616 0.0 0.021771591775260113 0.0 0.0
0.033217387529084264 -0.03042639777232159 0.0 0.018549453148262174 0.0 0.0
0.025479498815350138 -0.022902026580419843 0.0 0.015291334626817088 0.0 0.0
0.01856872692410441 -0.016214170352419455 0.0 0.011942063366004563 0.0 0.0
0.012603568164152035 -0.010491790089321995 0.0 0.008624681629925801 0.0 0.0
0.00781259539568907 -0.005990569049755479 0.0 0.005698421081006599 0.0 0.0
0.004428398849265797 -0.0029572409775822095 0.0 0.0035676612516751804 0.0 0.0
0.002430247377341793 -0.0013385046965568304 0.0 0.00233386963352189 0.0 0.0
0.001483914685602744 -0.0006750570850269089 0.0 0.0018040775683624277 0.0 0.0
0.0009964603231358837 -0.0003785472945058155 0.0 0.0016173051155961016 0.0 0.0
0.0005469109416978424 -0.00016148456047626603 0.0 0.0016651162764356187 0.0 0.0
0.0002353383445361512 -0.0002793956770627548 0.0 0.0020140124998554443 0.0 0.0
0.0028441064987730635 -0.004284048021421526 0.0 0.0048022743147348446 0.0 0.0
0.0020691979754703382 -0.0033591440600787004 0.0 -0.0038497871907107184 0.0 0.0
0.00016496155395789858 -0.0002409038838937505 0.0 -0.0022603208438099487 0.0 0.0
0.0003731684362363874 -0.00011105093051599901 0.0 -0.0019668325360836514 0.0 0.0
0.0007358452334656207 -0.0002632548855110439 0.0 -0.0018996074119782547 0.0 0.0
0.0011408372124605826 -0.0004980989265066516 0.0 -0.0020646917279386057 0.0 0.0
0.0017966580294118684 -0.0009185836163936312 0.0 -0.002497190120610504 0.0 0.0
0.0032171014142889642 -0.0019744060740993774 0.0 -0.0035632960975578998 0.0 0.0
0.005759014187369876 -0.004137006796571363 0.0 -0.005494658689454368 0.0 0.0
0.00947838092707834 -0.007547727657798209 0.0 -0.008211891937978666 0.0 0.0
0.014180760932823708 -0.012006616093824363 0.0 -0.011404374462666345 0.0 0.0
0.01960915778869317 -0.017232105248652374 0.0 -0.014685782702055616 0.0 0.0
0.02564702248406918 -0.023080246160551265 0.0 -0.017862736921110844 0.0 0.0
0.032289184998482295 -0.02954472669368924 0.0 -0.02098948675590595 0.0 0.0
0.039584928982344114 -0.03666931134875773 0.0 -0.024097799265549114 0.0 0.0
0.0475526855740194 -0.04446667740496135 0.0 -0.027048401919730236 0.0 0.0
0.05611600442091588 -0.05285771232098524 0.0 -0.02952830772238957 0.0 0.0
0.06510937217888488 -0.06169402064425711 0.0 -0.031157662407581665 0.0 0.0
0.07437856977595614 -0.07080243150844101 0.0 -0.0312206805437637 0.0 0.0
0.0835460538732416 -0.0797670387462972 0.0 -0.027862034825312354 0.0 0.0
0.09161707965214691 -0.0876011772545704 0.0 -0.01845247729248911 0.0 0.0
0.09161707965213989 -0.08760117725456595 0.0 0.018452477292543956 0.0 0.0
0.08354605387322103 -0.07976703874628122 0.0 0.02786203482538485 0.0 0.0
0.07437856977592627 -0.07080243150841259 0.0 0.031220680543817214 0.0 0.0
0.06510937217884982 -0.06169402064422025 0.0 0.031157662407606646 0.0 0.0
0.05611600442087722 -0.05285771232094438 0.0 0.029528307722381242 0.0 0.0
0.04755268557397771 -0.044466677404920496 0.0 0.02704840191971236 0.0 0.0
0.0395849289823052 -0.03666931134872131 0.0 0.02409779926553579 0.0 0.0
0.032289184998445436 -0.029544726693651935 0.0 0.020989486755896514 0.0 0.0
0.025647022484034998 -0.023080246160515294 0.0 0.017862736921092304 0.0 0.0
0.01960915778866043 -0.01723210524861818 0.0 0.01468578270203258 0.0 0.0
0.014180760932796438 -0.012006616093797273 0.0 0.011404374462639755 0.0 0.0
0.009478380927057495 -0.007547727657776004 0.0 0.008211891937963567 0.0 0.0
0.005759014187354916 -0.004137006796556486 0.0 0.005494658689443654 0.0 0.0
0.0032171014142807486 -0.001974406074092494 0.0 0.0035632960975499617 0.0 0.0
0.0017966580294091206 -0.0009185836163894123 0.0 0.0024971901206050084 0.0 0.0
0.0011408372124595 -0.0004980989265055413 0.0 0.002064691727937329 0.0 0.0
0.0007358452334655652 -0.00026325488551059983 0.0 0.0018996074119767004 0.0 0.0
0.0003731684362362486 -0.00011105093051588799 0.0 0.001966832536082208 0.0 0.0
0.00016496155395789858 -0.00024090388389280681 0.0 0.002260320843808672 0.0 0.0
0.002069197975464898 -0.0033591440600717042 0.0 0.003849787190702003 0.0 0.0
0.0014637841981766653 -0.0025924701129957928 0.0 -0.003096605356014248 0.0 0.0
0.00010180417359695326 -0.0002084898938071733 0.0 -0.0024061375800156215 0.0 0.0
0.00021302192874375625 -6.163108312073895e-05 0.0 -0.002194488330502009 0.0 0.0
0.0004802364650116908 -0.00014975186461585466 0.0 -0.002135276101156214 0.0 0.0
0.0008026149767680346 -0.00033629253515088386 0.0 -0.002305380890400055 0.0 0.0
0.0012436329129984769 -0.0005984160260339433 0.0 -0.002674166993311633 0.0 0.0
0.0021445601559900995 -0.0011920071171114266 0.0 -0.00348936301631958 0.0 0.0
0.0038688061283928543 -0.002524377978866177 0.0 -0.0050446515265956116 0.0 0.0
0.006500209686326974 -0.004817998580126659 0.0 -0.007327655253629994 0.0 0.0
0.00989463129543805 -0.007958482848656079 0.0 -0.010092417337738246 0.0 0.0
0.013821734025147164 -0.0116913562487313 0.0 -0.013032651014585395 0.0 0.0
0.018159044402171226 -0.01586135718079662 0.0 -0.015929312248901706 0.0 0.0
0.022903961280779706 -0.020456195093741414 0.0 -0.018780754075045203 0.0 0.0
0.02812382793420906 -0.0255385768925529 0.0 -0.02160185049511265 0.0 0.0
0.03389424601141888 -0.031174952647262444 0.0 -0.024316888898357814 0.0 0.0
0.040228777789314496 -0.0373697547114884 0.0 -0.026639551876786682 0.0 0.0
0.04705746347803147 -0.04406886514552122 0.0 -0.028180099686577087 0.0 0.0
0.05442280556570128 -0.051344759069935186 0.0 -0.028673320441902628 0.0 0.0
0.06250713483288814 -0.05929629488982169 0.0 -0.026763917567540152 0.0 0.0
0.07081355259563615 -0.06734400436597543 0.0 -0.019197047288066704 0.0 0.0
0.07081355259563127 -0.06734400436596921 0.0 0.019197047288113334 0.0 0.0
0.06250713483287365 -0.05929629488981192 0.0 0.026763917567605544 0.0 0.0
0.054422805565678606 -0.051344759069915646 0.0 0.028673320441954364 0.0 0.0
0.047057463478005324 -0.044068865145501235 0.0 0.028180099686596627 0.0 0.0
0.0402287777892858 -0.03736975471146753 0.0 0.026639551876777023 0.0 0.0
0.0338942460113886 -0.031174952647232246 0.0 0.024316888898339717 0.0 0.0
0.028123827934182194 -0.025538576892522702 0.0 0.021601850495102326 0.0 0.0
0.022903961280754864 -0.02045619509371921 0.0 0.018780754075039652 0.0 0.0
0.018159044402147217 -0.015861357180776192 0.0 0.015929312248884164 0.0 0.0
0.01382173402512435 -0.011691356248713092 0.0 0.013032651014562746 0.0 0.0
0.009894631295418566 -0.007958482848638315 0.0 0.010092417337714377 0.0 0.0
0.006500209686313346 -0.00481799858011378 0.0 0.007327655253616117 0.0 0.0
0.0038688061283826125 -0.0025243779788579612 0.0 0.005044651526585453 0.0 0.0
0.002144560155984798 -0.0011920071171065416 0.0 0.0034893630163151945 0.0 0.0
0.0012436329129970336 -0.0005984160260337212 0.0 0.002674166993308247 0.0 0.0
0.000802614976767313 -0.00033629253514977364 0.0 0.0023053808903990003 0.0 0.0
0.0004802364650116908 -0.00014975186461485546 0.0 0.002135276101154493 0.0 0.0
0.00021302192874356196 -6.1631083120961e-05 0.0 0.002194488330499622 0.0 0.0
0.00010180417359678673 -0.00020848989380728433 0.0 0.0024061375800146223 0.0 0.0
0.0014637841981728628 -0.002592470112991097 0.0 0.003096605356008808 0.0 0.0
0.0010137167120897739 -0.001987239076661318 0.0 -0.0025389189349118158 0.0 0.0
3.0248641862212766e-05 -0.00018001572203973915 0.0 -0.0024780284605023795 0.0 0.0
5.891202732941081e-05 -7.034319420728963e-06 0.0 -0.0023518359000890277 0.0 0.0
0.0002312944227525482 -3.889823855196539e-05 0.0 -0.0023151632343813566 0.0 0.0
0.0004572454011578797 -0.00017288334459153454 0.0 -0.002496204480489317 0.0 0.0
0.0007339557857330425 -0.00033886910490532607 0.0 -0.0028620675369502857 0.0 0.0
0.001219490106644433 -0.0006139765399679753 0.0 -0.0034385781215218736 0.0 0.0
0.002172749753171943 -0.0012314259963868146 0.0 -0.004461437699422366 0.0 0.0
0.0037269162462126304 -0.002425481895480086 0.0 -0.006061370968643676 0.0 0.0
0.005778186754401615 -0.004201966608094132 0.0 -0.008107864877834325 0.0 0.0
0.008170313080521935 -0.006393124616568713 0.0 -0.010405771553136711 0.0 0.0
0.01078831509733702 -0.008860646620207913 0.0 -0.012773786995311842 0.0 0.0
0.013639589606706415 -0.011585085956952401 0.0 -0.01517479866930127 0.0 0.0
0.01678871776042093 -0.014627466118241728 0.0 -0.017557357564624176 0.0 0.0
0.020337987711963545 -0.01808167657215698 0.0 -0.019881803512637908 0.0 0.0
0.024401722486165817 -0.022046881584434797 0.0 -0.021981146114410266 0.0 0.0
0.02904783991794213 -0.026578768385300933 0.0 -0.023436970741091856 0.0 0.0
0.03437310110133332 -0.031833210433418024 0.0 -0.024007369704541648 0.0 0.0
0.040908941556190376 -0.03837621756106557 0.0 -0.023584832885082285 0.0 0.0
0.04924401726236308 -0.04645816065364183 0.0 -0.01930335810449557 0.0 0.0
0.04924401726235997 -0.04645816065364006 0.0 0.019303358104538315 0.0 0.0
0.04090894155618227 -0.03837621756105758 0.0 0.023584832885143903 0.0 0.0
0.034373101101318 -0.0318332104334047 0.0 0.024007369704587833 0.0 0.0
0.029047839917924617 -0.026578768385285834 0.0 0.023436970741101293 0.0 0.0
0.024401722486148025 -0.022046881584422362 0.0 0.021981146114395944 0.0 0.0
0.020337987711946115 -0.01808167657214632 0.0 0.01988180351262181 0.0 0.0
0.016788717760406385 -0.014627466118224852 0.0 0.017557357564617626 0.0 0.0
0.013639589606693425 -0.011585085956934638 0.0 0.015174798669299494 0.0 0.0
0.010788315097323281 -0.008860646620191481 0.0 0.012773786995297631 0.0 0.0
0.008170313080509362 -0.0063931246165571665 0.0 0.010405771553118615 0.0 0.0
0.005778186754390374 -0.004201966608083474 0.0 0.00810786487781523 0.0 0.0
0.003726916246205303 -0.0024254818954725366 0.0 0.006061370968634128 0.0 0.0
0.0021727497531665307 -0.0012314259963830398 0.0 0.004461437699414816 0.0 0.0
0.0012194901066415464 -0.0006139765399657549 0.0 0.003438578121515934 0.0 0.0
0.0007339557857324874 -0.00033886910490532607 0.0 0.0028620675369449566 0.0 0.0
0.0004572454011574911 -0.0001728833445933109 0.0 0.002496204480487485 0.0 0.0
0.00023129442275257595 -3.889823855274255e-05 0.0 0.002315163234380413 0.0 0.0
5.891202732921652e-05 -7.0343194206179405e-06 0.0 0.002351835900085697 0.0 0.0
3.0248641861907455e-05 -0.00018001572203940608 0.0 0.0024780284605002145 0.0 0.0
0.0010137167120875257 -0.0019872390766577167 0.0 0.0025389189349064867 0.0 0.0
0.0006932344840318017 -0.0015254658509684105 0.0 -0.0021420126276483487 0.0 0.0
-5.035754899071487e-05 -0.0001569086728470115 0.0 -0.0025077645451002106 0.0 0.0
-9.27446709299562e-05 5.4476253297464083e-05 0.0 -0.002449841421466481 0.0 0.0
-1.0919260185038304e-05 6.893488778936252e-05 0.0 -0.0024369657720202387 0.0 0.0
0.00010774919576236885 -5.896940336036494e-06 0.0 -0.002611588994682612 0.0 0.0
0.00022929297926163605 -9.320182825689471e-05 0.0 -0.0029999132791688754 0.0 0.0
0.0003919845826627355 -0.00018790686415015578 0.0 -0.0035209827463511534 0.0 0.0
0.0006873391724571409 -0.00033924372305405015 0.0 -0.00409726505744229 0.0 0.0
0.0011990206594442443 -0.0006212315688407521 0.0 -0.0048635375157048966 0.0 0.0
0.0018856362116067282 -0.0010683395274626584 0.0 -0.005987899222609783 0.0 0.0
0.0026916168556936626 -0.0016647329139698464 0.0 -0.007497646285943738 0.0 0.0
0.0035581446471600053 -0.002383487244771665 0.0 -0.009263239080456342 0.0 0.0
0.004497347725245987 -0.0032149194718336105 0.0 -0.011204697845346057 0.0 0.0
0.005560361517178591 -0.004198370055735978 0.0 -0.01328834881790486 0.0 0.0
0.006863028698463947 -0.0054360518725746765 0.0 -0.015481056353540024 0.0 0.0
0.008606540233220134 -0.007110023425541456 0.0 -0.017625324279530785 0.0 0.0
0.011052236972987212 -0.009455723768453161 0.0 -0.019285353320009024 0.0 0.0
0.014406436942023815 -0.012669237948671253 0.0 -0.019809701458074813 0.0 0.0
0.019014414599026586 -0.017294063073209465 0.0 -0.019500121771543255 0.0 0.0
0.026467034076938872 -0.0247620859823936 0.0 -0.018706038779031653 0.0 0.0
0.02646703407693854 -0.024762085982395377 0.0 0.018706038779063516 0.0 0.0
0.01901441459902309 -0.017294063073205024 0.0 0.019500121771590107 0.0 0.0
0.014406436942016626 -0.012669237948664147 0.0 0.01980970145810179 0.0 0.0
0.01105223697297969 -0.009455723768446944 0.0 0.019285353320010357 0.0 0.0
0.008606540233214999 -0.007110023425538792 0.0 0.017625324279518018 0.0 0.0
0.0068630286984598665 -0.0054360518725746765 0.0 0.015481056353528255 0.0 0.0
0.005560361517175788 -0.0041983700557324255 0.0 0.01328834881789831 0.0 0.0
0.0044973477252444605 -0.003214919471831834 0.0 0.011204697845340617 0.0 0.0
0.003558144647157896 -0.002383487244773441 0.0 0.009263239080444463 0.0 0.0
0.0026916168556911646 -0.0016647329139658495 0.0 0.0074976462859335236 0.0 0.0
0.0018856362116042857 -0.001068339527460438 0.0 0.0059878992225986805 0.0 0.0
0.0011990206594424402 -0.0006212315688371994 0.0 0.004863537515701122 0.0 0.0
0.0006873391724561417 -0.0003392437230513856 0.0 0.004097265057438904 0.0 0.0
0.00039198458266176406 -0.00018790686415148805 0.0 0.0035209827463480448 0.0 0.0
0.00022929297926177483 -9.320182825667267e-05 0.0 0.002999913279166322 0.0 0.0
0.00010774919576239661 -5.8969403349262706e-06 0.0 0.002611588994680447 0.0 0.0
-1.0919260185038304e-05 6.893488778980661e-05 0.0 0.002436965772017241 0.0 0.0
-9.274467093017824e-05 5.447625329724204e-05 0.0 0.002449841421463539 0.0 0.0
-5.035754899079814e-05 -0.00015690867284728904 0.0 0.002507764545099378 0.0 0.0
0.0006932344840307469 -0.001525465850966197 0.0 0.0021420126276462392 0.0 0.0
0.0004691153584227281 -0.0011911359738365213 0.0 -0.001891966948739665 0.0 0.0
-0.00013050425052663073 -0.0001326655471427518 0.0 -0.0025073563750918626 0.0 0.0
-0.0002416261702430922 0.00011811833605501754 0.0 -0.002493723043662688 0.0 0.0
-0.0002465601537868789 0.00017392236722724164 0.0 -0.002492579882058199 0.0 0.0
-0.00023863239121274527 0.0001601526187948732 0.0 -0.002649519012847712 0.0 0.0
-0.00027988817813970335 0.00015411709241353044 0.0 -0.003018652621592177 0.0 0.0
-0.0004101008029060438 0.00020421971624728918 0.0 -0.003530846389104003 0.0 0.0
-0.0006930385263052563 0.0003436207065972141 0.0 -0.004104180377884514 0.0 0.0
-0.0011988542906798405 0.0006219649105871916 0.0 -0.004866354381078297 0.0 0.0
-0.0018845090352091198 0.0010685641305601123 0.0 -0.005986793257217959 0.0 0.0
-0.002699513124236358 0.0016759580009813035 0.0 -0.007499277446862851 0.0 0.0
-0.0036010535159081425 0.002426425743140559 0.0 -0.009273178086160905 0.0 0.0
-0.0045882894708252075 0.003293216829839185 0.0 -0.011215329990276413 0.0 0.0
-0.005626582771297961 0.004226569489131471 0.0 -0.013293228196270324 0.0 0.0
-0.006583507825003915 0.005093889594857348 0.0 -0.01549751182182102 0.0 0.0
-0.007195751419250163 0.005641358933065277 0.0 -0.017778282804369883 0.0 0.0
-0.007057325612404297 0.005493101706361969 0.0 -0.020103169331440074 0.0 0.0
-0.005797015878191647 0.004402698082555112 0.0 -0.02254185808945719 0.0 0.0
-0.003094279899858221 0.0021928464979641404 0.0 -0.024765508223546284 0.0 0.0
0.0036107822432216163 -0.00413223338456703 0.0 -0.023650556018017577 0.0 0.0
0.00361078224322145 -0.004132233384570583 0.0 0.02365055601803545 0.0 0.0
-0.0030942798998588317 0.0021928464979605877 0.0 0.024765508223565935 0.0 0.0
-0.005797015878188316 0.004402698082553336 0.0 0.02254185808946263 0.0 0.0
-0.007057325612398357 0.0054931017063584164 0.0 0.02010316933142786 0.0 0.0
-0.007195751419241336 0.005641358933056839 0.0 0.01777828280435445 0.0 0.0
-0.00658350782499495 0.005093889594852019 0.0 0.015497511821808696 0.0 0.0
-0.005626582771289773 0.004226569489123033 0.0 0.013293228196261664 0.0 0.0
-0.004588289470815493 0.0032932168298276387 0.0 0.011215329990266865 0.0 0.0
-0.003601053515897873 0.002426425743126792 0.0 0.009273178086146028 0.0 0.0
-0.0026995131242280035 0.0016759580009706454 0.0 0.007499277446848973 0.0 0.0
-0.0018845090352024585 0.0010685641305605564 0.0 0.005986793257204415 0.0 0.0
-0.001198854290676149 0.0006219649105911884 0.0 0.004866354381074189 0.0 0.0
-0.0006930385263022865 0.000343620706596548 0.0 0.004104180377880462 0.0 0.0
-0.00041010080290507234 0.00020421971624617896 0.0 0.0035308463890990627 0.0 0.0
-0.00027988817813889844 0.0001541170924157509 0.0 0.0030186526215877363 0.0 0.0
-0.0002386323912123567 0.0001601526187948732 0.0 0.0026495190128448254 0.0 0.0
-0.0002465601537864903 0.00017392236722624244 0.0 0.0024925798820569778 0.0 0.0
-0.00024162617024331423 0.00011811833605557265 0.0 0.0024937230436622992 0.0 0.0
-0.00013050425052638093 -0.00013266554714336243 0.0 0.002507356375090475 0.0 0.0
0.000469115358422284 -0.0011911359738358777 0.0 0.0018919669487375002 0.0 0.0
0.0003156401046170987 -0.0009403012334500138 0.0 -0.0017091647071588167 0.0 0.0
-0.00020323385820250617 -0.00010135019303303405 0.0 -0.002461610147640292 0.0 0.0
-0.0003848701489751194 0.00017895230946185503 0.0 -0.0024853296497816535 0.0 0.0
-0.00047456638383239214 0.000275014587146849 0.0 -0.0024782857353735643 0.0 0.0
-0.0005777303004433076 0.0003209081104029732 0.0 -0.0026039668153091666 0.0 0.0
-0.0007830196155658997 0.000399271887003394 0.0 -0.002919359877028571 0.0 0.0
-0.0012369887478436703 0.0006318344391209596 0.0 -0.003470269601678677 0.0 0.0
-0.0021763189241155723 0.0012363004763469299 0.0 -0.004479076947760785 0.0 0.0
-0.003724933289048049 0.0024249546821750734 0.0 -0.006065216491619618 0.0 0.0
-0.0057773889493712705 0.004203221561013493 0.0 -0.008107642316423358 0.0 0.0
-0.008181049662148748 0.00640808358249112 0.0 -0.010405920271623348 0.0 0.0
-0.010829669782735474 0.008906280081696583 0.0 -0.012760565403324042 0.0 0.0
-0.013721614310515134 0.011662101024354055 0.0 -0.015126295158434222 0.0 0.0
-0.016839411136533727 0.01464539747269944 0.0 -0.017496239938287972 0.0 0.0
-0.02004872675999772 0.01771533474102105 0.0 -0.01995012038130639 0.0 0.0
-0.023035035349623506 0.02056511773638947 0.0 -0.022558216496799455 0.0 0.0
-0.025316188761525416 0.022736494550266162 0.0 -0.02540768449733566 0.0 0.0
-0.026332371409889588 0.023685986967155515 0.0 -0.02840607589984545 0.0 0.0
-0.025043653079683093 0.0221307947117646 0.0 -0.02977631450395124 0.0 0.0
-0.018268070087113314 0.015054555439355077 0.0 -0.0275945308501081 0.0 0.0
-0.01826807008711434 0.015054555439355077 0.0 0.02759453085014585 0.0 0.0
-0.025043653079680234 0.022130794711762825 0.0 0.02977631450399887 0.0 0.0
-0.026332371409876265 0.02368598696714619 0.0 0.028406075899875982 0.0 0.0
-0.025316188761506625 0.022736494550246622 0.0 0.025407684497331218 0.0 0.0
-0.02303503534960094 0.02056511773636993 0.0 0.022558216496784023 0.0 0.0
-0.020048726759975877 0.017715334741003286 0.0 0.019950120381288627 0.0 0.0
-0.01683941113651463 0.014645397472683452 0.0 0.01749623993827354 0.0 0.0
-0.013721614310494096 0.01166210102433407 0.0 0.015126295158421454 0.0 0.0
-0.010829669782714157 0.008906280081679263 0.0 0.012760565403304391 0.0 0.0
-0.008181049662129375 0.006408083582476909 0.0 0.010405920271598923 0.0 0.0
-0.0057773889493550334 0.004203221561003279 0.0 0.008107642316402708 0.0 0.0
-0.003724933289037974 0.002424954682168856 0.0 0.0060652164916108475 0.0 0.0
-0.002176318924109022 0.0012363004763451535 0.0 0.004479076947753735 0.0 0.0
-0.0012369887478402564 0.0006318344391222919 0.0 0.003470269601673348 0.0 0.0
-0.0007830196155642344 0.00039927188700317195 0.0 0.002919359877024519 0.0 0.0
-0.0005777303004426693 0.00032090811040341727 0.0 0.0026039668153056694 0.0 0.0
-0.0004745663838316705 0.000275014587146849 0.0 0.002478285735372343 0.0 0.0
-0.00038487014897489735 0.00017895230946263219 0.0 0.0024853296497794886 0.0 0.0
-0.00020323385820228412 -0.00010135019303347814 0.0 0.0024616101476388486 0.0 0.0
0.0003156401046168489 -0.0009403012334497987 0.0 0.0017091647071564298 0.0 0.0
0.00020613382165737826 -0.000725011092697625 0.0 -0.0015183652061134256 0.0 0.0
-0.00026796123042885367 -6.42247178884725e-05 0.0 -0.0023617820313333593 0.0 0.0
-0.0005199478620437903 0.00023552926353764825 0.0 -0.002419066474583842 0.0 0.0
-0.0006935948933407265 0.00037020513262975285 0.0 -0.0023958901925434373 0.0 0.0
-0.0009054289979130992 0.000472617241406903 0.0 -0.0024753225319707473 0.0 0.0
-0.0012898024053843715 0.0006594967373378946 0.0 -0.0027701782364396577 0.0 0.0
-0.0021587423801026906 0.0012114095713546824 0.0 -0.003537334369774381 0.0 0.0
-0.003867332640416693 0.0025258995218142566 0.0 -0.005061249561544523 0.0 0.0
-0.006496710418139234 0.0048155213629565985 0.0 -0.007326351321471969 0.0 0.0
-0.009896047776998262 0.007961386182360197 0.0 -0.010092565579418844 0.0 0.0
-0.013833548397605977 0.011706340303419438 0.0 -0.013028878448700598 0.0 0.0
-0.018190479197036397 0.01589682162045758 0.0 -0.01588471872667996 0.0 0.0
-0.022959197256391145 0.020508990169899377 0.0 -0.018640042520865152 0.0 0.0
-0.0281428478703577 0.0255319351797465 0.0 -0.02139696748943032 0.0 0.0
-0.033616790354681986 0.030832015006705404 0.0 -0.024379406388746694 0.0 0.0
-0.03902529951684949 0.036062561823428485 0.0 -0.027878556877733773 0.0 0.0
-0.04376831157522035 0.0406375156283465 0.0 -0.03205435607516971 0.0 0.0
-0.0468858425409833 0.043540354286037086 0.0 -0.036129100408978765 0.0 0.0
-0.04652042787672922 0.04289631992713261 0.0 -0.0381631874701136 0.0 0.0
-0.03890347643264949 0.034574389414459894 0.0 -0.03426449435513523 0.0 0.0
-0.03890347643264902 0.034574389414459006 0.0 0.03426449435518453 0.0 0.0
-0.04652042787672131 0.04289631992713172 0.0 0.038163187470174664 0.0 0.0
-0.046885842540963424 0.043540354286020655 0.0 0.03612910040902195 0.0 0.0
-0.04376831157519065 0.040637515628319854 0.0 0.03205435607517382 0.0 0.0
-0.039025299516815604 0.0360625618233974 0.0 0.027878556877720118 0.0 0.0
-0.03361679035464779 0.030832015006675206 0.0 0.024379406388726377 0.0 0.0
-0.02814284787032653 0.025531935179714527 0.0 0.02139696748941433 0.0 0.0
-0.02295919725635895 0.02050899016986607 0.0 0.018640042520852607 0.0 0.0
-0.01819047919700456 0.015896821620429158 0.0 0.015884718726660085 0.0 0.0
-0.013833548397576334 0.011706340303387464 0.0 0.013028878448675951 0.0 0.0
-0.009896047776972672 0.00796138618233222 0.0 0.010092565579391977 0.0 0.0
-0.006496710418122137 0.004815521362939279 0.0 0.007326351321456703 0.0 0.0
-0.003867332640405799 0.002525899521805597 0.0 0.00506124956153442 0.0 0.0
-0.002158742380096626 0.0012114095713513517 0.0 0.003537334369769052 0.0 0.0
-0.0012898024053816654 0.0006594967373367844 0.0 0.002770178236435994 0.0 0.0
-0.000905428997912322 0.0004726172414064589 0.0 0.0024753225319689154 0.0 0.0
-0.000693594893340102 0.0003702051326295308 0.0 0.0023958901925423826 0.0 0.0
-0.0005199478620433878 0.00023552926353653802 0.0 0.0024190664745823987 0.0 0.0
-0.0002679612304285761 -6.422471788930517e-05 0.0 0.002361782031332138 0.0 0.0
0.00020613382165721172 -0.0007250110926973526 0.0 0.001518365206112815 0.0 0.0
0.00011791267377439518 -0.0005335962605467759 0.0 -0.0013183376040802885 0.0 0.0
-0.00032685228541262656 -2.120327213073203e-05 0.0 -0.0022063925933940576 0.0 0.0
-0.0006463338694867871 0.0002878953783781446 0.0 -0.0022989065616016435 0.0 0.0
-0.0009025796741587988 0.0004575841782086254 0.0 -0.002253465927429421 0.0 0.0
-0.001221030610031787 0.000619470278444556 0.0 -0.0022846634773609487 0.0 0.0
-0.0018371642798976628 0.0009784327911546153 0.0 -0.0026202844502600797 0.0 0.0
-0.003222618902589014 0.0019891868090411435 0.0 -0.003611687921575124 0.0 0.0
-0.005752650281190624 0.00413254924981743 0.0 -0.0054991001442581955 0.0 0.0
-0.009475693812565494 0.007545299016146867 0.0 -0.008207423010667125 0.0 0.0
-0.014185230497104184 0.012011987650556222 0.0 -0.011405617529004153 0.0 0.0
-0.01961964940602881 0.017244286707608136 0.0 -0.014677956041556417 0.0 0.0
-0.025659285050960157 0.02309493249343353 0.0 -0.017790756228421745 0.0 0.0
-0.032295577478609894 0.029551204567407563 0.0 -0.020765244343481704 0.0 0.0
-0.03954973129457465 0.03662074184040076 0.0 -0.02374700808780994 0.0 0.0
-0.04731860086874473 0.04418975730767327 0.0 -0.027061722710263858 0.0 0.0
-0.05521999003011627 0.05187053110179507 0.0 -0.03117231763872985 0.0 0.0
-0.06242578616569269 0.05882726718485376 0.0 -0.03618949985828546 0.0 0.0
-0.06742624285572543 0.06353461311745612 0.0 -0.0411322895852263 0.0 0.0
-0.06761517838111245 0.06329307885899915 0.0 -0.043383700994678254 0.0 0.0
-0.058231018616257874 0.053245969361012335 0.0 -0.03965141392209082 0.0 0.0
-0.05823101861625482 0.05324596936100434 0.0 0.03965141392214111 0.0 0.0
-0.06761517838109896 0.06329307885897695 0.0 0.0433837009947442 0.0 0.0
-0.06742624285569823 0.06353461311741926 0.0 0.04113228958527415 0.0 0.0
-0.06242578616565442 0.0588272671848169 0.0 0.03618949985829745 0.0 0.0
-0.05521999003007222 0.051870531101755546 0.0 0.03117231763871764 0.0 0.0
-0.04731860086869924 0.044189757307632416 0.0 0.02706172271024443 0.0 0.0
-0.039549731294531015 0.03662074184035413 0.0 0.023747008087791066 0.0 0.0
-0.032295577478566345 0.029551204567357825 0.0 0.020765244343468103 0.0 0.0
-0.02565928505091751 0.023094932493385567 0.0 0.01779075622840154 0.0 0.0
-0.019619649405989648 0.017244286707567724 0.0 0.01467795604152955 0.0 0.0
-0.014185230497070517 0.012011987650522471 0.0 0.011405617528975287 0.0 0.0
-0.009475693812540667 0.0075452990161197775 0.0 0.008207423010646697 0.0 0.0
-0.005752650281174471 0.004132549249798556 0.0 0.005499100144244706 0.0 0.0
-0.0032226189025796603 0.0019891868090320397 0.0 0.0036116879215679076 0.0 0.0
-0.0018371642798935411 0.0009784327911497304 0.0 0.0026202844502553058 0.0 0.0
-0.0012210306100304547 0.0006194702784427797 0.0 0.0022846634773598384 0.0 0.0
-0.0009025796741579384 0.00045758417820929154 0.0 0.002253465927429088 0.0 0.0
-0.0006463338694863013 0.00028789537837925483 0.0 0.0022989065616003668 0.0 0.0
-0.0003268522854124323 -2.1203272129566297e-05 0.0 0.002206392593392892 0.0 0.0
0.00011791267377447845 -0.0005335962605455442 0.0 0.0013183376040796224 0.0 0.0
4.216490574049381e-05 -0.00036484976253597923 0.0 -0.0011128095133158267 0.0 0.0
-0.00038301897924997164 2.7066142791687398e-05 0.0 -0.001997276926262337 0.0 0.0
-0.0007645063996661317 0.00033676463200582596 0.0 -0.002121428085492316 0.0 0.0
-0.0010996298798184867 0.0005355615550652892 0.0 -0.002045741369105736 0.0 0.0
-0.0015362797208203494 0.0007742812958184686 0.0 -0.0020499302126908425 0.0 0.0
-0.0024583754537131353 0.0013871211268430272 0.0 -0.0024516832233456576 0.0 0.0
-0.004424933571095413 0.0029624314743292857 0.0 -0.0035973073074457296 0.0 0.0
-0.007804739722780396 0.005982911301375626 0.0 -0.005694503256637895 0.0 0.0
-0.012603487662454005 0.01049152967345579 0.0 -0.00861898179989451 0.0 0.0
-0.018575823899773303 0.016221527253261758 0.0 -0.0119426578711892 0.0 0.0
-0.025485907690838416 0.022908480480787752 0.0 -0.015276848866361714 0.0 0.0
-0.03320345387877893 0.030412773904896273 0.0 -0.01845827364285124 0.0 0.0
-0.041706067616366804 0.0387105525652065 0.0 -0.02150137923615958 0.0 0.0
-0.05102439368670547 0.04782393927419104 0.0 -0.024522740770363205 0.0 0.0
-0.0610956389575677 0.057669419558942 0.0 -0.027878278613184038 0.0 0.0
-0.07149373956999788 0.06779926425521365 0.0 -0.0320839157211219 0.0 0.0
-0.08110862042165615 0.07709130793446084 0.0 -0.037323416836268386 0.0 0.0
-0.08784290088920807 0.08342736051089439 0.0 -0.042640325195458684 0.0 0.0
-0.08824244097310394 0.08332979236297966 0.0 -0.04564336052429263 0.0 0.0
-0.0770847854241789 0.07158658292238851 0.0 -0.04437941719607086 0.0 0.0
-0.07708478542417407 0.07158658292238496 0.0 0.044379417196122484 0.0 0.0
-0.08824244097308387 0.08332979236296278 0.0 0.04564336052435891 0.0 0.0
-0.08784290088917329 0.08342736051085753 0.0 0.04264032519550798 0.0 0.0
-0.08110862042160974 0.07709130793441554 0.0 0.03732341683628271 0.0 0.0
-0.07149373956994416 0.06779926425516125 0.0 0.032083915721111966 0.0 0.0
-0.06109563895751133 0.05766941955888738 0.0 0.027878278613167218 0.0 0.0
-0.051024393686649794 0.0478239392741342 0.0 0.02452274077034411 0.0 0.0
-0.04170606761631225 0.03871055256515499 0.0 0.021501379236144258 0.0 0.0
-0.03320345387872542 0.0304127739048492 0.0 0.018458273642828094 0.0 0.0
-0.025485907690789858 0.022908480480747784 0.0 0.01527684886633296 0.0 0.0
-0.018575823899731697 0.01622152725322623 0.0 0.011942657871161 0.0 0.0
-0.012603487662422225 0.010491529673430477 0.0 0.008618981799875025 0.0 0.0
-0.007804739722758691 0.005982911301357419 0.0 0.005694503256620631 0.0 0.0
-0.004424933571082437 0.0029624314743179614 0.0 0.003597307307436126 0.0 0.0
-0.002458375453707057 0.0013871211268385863 0.0 0.002451683223339496 0.0 0.0
-0.001536279720818448 0.0007742812958182466 0.0 0.0020499302126884 0.0 0.0
-0.0010996298798176124 0.0005355615550646231 0.0 0.002045741369104126 0.0 0.0
-0.0007645063996656182 0.0003367646320050488 0.0 0.002121428085490318 0.0 0.0
-0.00038301897924977735 2.7066142791465353e-05 0.0 0.001997276926260505 0.0 0.0
4.216490574071585e-05 -0.000364849762535804 0.0 0.00111280951331455 0.0 0.0
-2.2798003496193875e-05 -0.00022006786312622761 0.0 -0.00090156476179587 0.0 0.0
-0.0004374982887156986 7.889002477035056e-05 0.0 -0.0017400652812673556 0.0 0.0
-0.0008754795090042955 0.0003822339991835788 0.0 -0.0018875332966949432 0.0 0.0
-0.001286197720002713 0.0006085078341551142 0.0 -0.0017904350297907046 0.0 0.0
-0.0018718936480649484 0.0009581594605128085 0.0 -0.0017932376893126656 0.0 0.0
-0.0031655826249564756 0.0019024237686569023 0.0 -0.0022372442933786263 0.0 0.0
-0.0057570241726878635 0.004114918562001524 0.0 -0.0034475523552928156 0.0 0.0
-0.009988722397513583 0.008014648438223748 0.0 -0.005598278758127961 0.0 0.0
-0.015811548690283617 0.013561386831287603 0.0 -0.008465437520524421 0.0 0.0
-0.02301767359307394 0.020512628287150392 0.0 -0.01165423157492207 0.0 0.0
-0.031394310924997004 0.028642982418640273 0.0 -0.01487101078719899 0.0 0.0
-0.04079239852354746 0.03780213323266679 0.0 -0.017940202348339263 0.0 0.0
-0.05116551713559381 0.047944283874532534 0.0 -0.02088702380090124 0.0 0.0
-0.06253513946750108 0.05908696210477249 0.0 -0.023800313860761757 0.0 0.0
-0.07485600093467823 0.07115939679362393 0.0 -0.026877946904920402 0.0 0.0
-0.08767851048626643 0.08366973056995786 0.0 -0.030601037018851862 0.0 0.0
-0.09963356132752091 0.0952259955201189 0.0 -0.03543404435960984 0.0 0.0
-0.10801872481770916 0.10312575923242129 0.0 -0.04093307964866921 0.0 0.0
-0.10866352877038127 0.10323625939468073 0.0 -0.045646646374344235 0.0 0.0
-0.09602950480156183 0.09006208139603977 0.0 -0.0487986634821892 0.0 0.0
-0.0960295048015549 0.09006208139603533 0.0 0.048798663482239046 0.0 0.0
-0.1086635287703544 0.10323625939466297 0.0 0.04564664637440896 0.0 0.0
-0.10801872481766739 0.10312575923239065 0.0 0.04093307964871584 0.0 0.0
-0.0996335613274658 0.09522599552006783 0.0 0.03543404435962266 0.0 0.0
-0.08767851048620354 0.08366973056989702 0.0 0.03060103701884631 0.0 0.0
-0.07485600093461063 0.07115939679356709 0.0 0.026877946904909134 0.0 0.0
-0.06253513946743443 0.059086962104711205 0.0 0.02380031386074638 0.0 0.0
-0.051165517135528193 0.0479442838744637 0.0 0.02088702380088553 0.0 0.0
-0.04079239852348372 0.037802133232598845 0.0 0.017940202348319723 0.0 0.0
-0.03139431092493901 0.02864298241858565 0.0 0.014871010787170125 0.0 0.0
-0.02301767359302441 0.020512628287101986 0.0 0.011654231574892815 0.0 0.0
-0.01581154869024523 0.013561386831248079 0.0 0.008465437520505492 0.0 0.0
-0.00998872239748648 0.008014648438195993 0.0 0.005598278758112973 0.0 0.0
-0.005757024172671127 0.004114918561986203 0.0 0.003447552355283212 0.0 0.0
-0.0031655826249479546 0.0019024237686509071 0.0 0.0022372442933721315 0.0 0.0
-0.0018718936480619508 0.0009581594605096999 0.0 0.0017932376893111113 0.0 0.0
-0.0012861977200018943 0.0006085078341547812 0.0 0.001790435029790205 0.0 0.0
-0.0008754795090035322 0.00038223399918324574 0.0 0.001887533296693833 0.0 0.0
-0.00043749828871550434 7.889002477018403e-05 0.0 0.0017400652812661899 0.0 0.0
-2.2798003496082853e-05 -0.000220067863125872 0.0 0.0009015647617954814 0.0 0.0
-7.561928067362222e-05 -0.00010163297702137086 0.0 -0.0006839283523570328 0.0 0.0
-0.0004887233803068658 0.00013152288836815185 0.0 -0.0014399929795333999 0.0 0.0
-0.0009803765490665195 0.00042451844617519274 0.0 -0.001597043763860384 0.0 0.0
-0.0014687888481699218 0.0006810290837682142 0.0 -0.0014863068399194601 0.0 0.0
-0.002247055042602253 0.0011832090482843949 0.0 -0.0014945308551461145 0.0 0.0
-0.003965207609227028 0.0025386986888265017 0.0 -0.0019582290540765546 0.0 0.0
-0.007208192212908027 0.005426509021022152 0.0 -0.0031579370331732415 0.0 0.0
-0.01224293328670234 0.010156583610355874 0.0 -0.0051387767307074506 0.0 0.0
-0.01905048656604591 0.016687013441855747 0.0 -0.007695626682285961 0.0 0.0
-0.027477553481553008 0.02484201382772744 0.0 -0.010573240795333061 0.0 0.0
-0.037311738522881666 0.0344075105759587 0.0 -0.0134759208164833 0.0 0.0
-0.04839393563705119 0.04522425452506873 0.0 -0.016251996941822444 0.0 0.0
-0.06064812544567888 0.057219094068202025 0.0 -0.018945528433018333 0.0 0.0
-0.07405037121573424 0.07036543911316917 0.0 -0.02157800595907744 0.0 0.0
-0.08852028286635327 0.08456536841658124 0.0 -0.02415533284336835 0.0 0.0
-0.10360310874576184 0.09930956131852531 0.0 -0.026921687242755565 0.0 0.0
-0.11779924223960897 0.11304234314001649 0.0 -0.030637067092876835 0.0 0.0
-0.12792833059795408 0.12261180129378868 0.0 -0.036106532858323104 0.0 0.0
-0.12917582981018977 0.12327328376895252 0.0 -0.04348510946562989 0.0 0.0
-0.11550335720491389 0.1090704444898769 0.0 -0.052896820152217305 0.0 0.0
-0.11550335720490357 0.1090704444898627 0.0 0.0528968201522656 0.0 0.0
-0.12917582981015793 0.12327328376892499 0.0 0.04348510946569151 0.0 0.0
-0.1279283305979045 0.1226118012937425 0.0 0.03610653285836307 0.0 0.0
-0.1177992422395451 0.11304234313994899 0.0 0.030637067092885606 0.0 0.0
-0.10360310874568926 0.0993095613184547 0.0 0.026921687242752124 0.0 0.0
-0.08852028286627488 0.08456536841650353 0.0 0.024155332843358857 0.0 0.0
-0.0740503712156565 0.07036543911309545 0.0 0.021578005959061897 0.0 0.0
-0.06064812544560272 0.05721909406813186 0.0 0.01894552843300329 0.0 0.0
-0.048393935636976776 0.04522425452499723 0.0 0.01625199694180418 0.0 0.0
-0.037311738522814206 0.03440751057589342 0.0 0.013475920816457432 0.0 0.0
-0.02747755348149611 0.02484201382767548 0.0 0.010573240795309191 0.0 0.0
-0.019050486566001126 0.016687013441809118 0.0 0.007695626682270085 0.0 0.0
-0.012242933286670372 0.010156583610325454 0.0 0.005138776730692962 0.0 0.0
-0.007208192212886898 0.005426509021005499 0.0 0.003157937033161473 0.0 0.0
-0.003965207609216134 0.0025386986888158436 0.0 0.0019582290540708924 0.0 0.0
-0.0022470550425982144 0.001183209048280176 0.0 0.0014945308551417846 0.0 0.0
-0.0014687888481693043 0.000681029083766771 0.0 0.0014863068399171286 0.0 0.0
-0.0009803765490656452 0.0004245184461745266 0.0 0.0015970437638578305 0.0 0.0
-0.0004887233803065882 0.0001315228883674302 0.0 0.001439992979531679 0.0 0.0
-7.561928067317814e-05 -0.00010163297702152699 0.0 0.000683928352355534 0.0 0.0
-0.00011261553191432849 -1.2826884358774215e-05 0.0 -0.00046146824691378763 0.0 0.0
-0.0005320539515047962 0.00018121002016469046 0.0 -0.0010999852727873183 0.0 0.0
-0.0010803470154370776 0.00046312137863979697 0.0 -0.001248289238831024 0.0 0.0
-0.0016577420981897517 0.0007636578173675357 0.0 -0.001137666562519235 0.0 0.0
-0.002678217202661315 0.0014725293857302812 0.0 -0.001153424479874432 0.0 0.0
-0.004865659865451011 0.0032991894255869347 0.0 -0.0016064843991714928 0.0 0.0
-0.00873496815495578 0.0068430704312780755 0.0 -0.0026282687822922757 0.0 0.0
-0.0145207488963785 0.01234586640502533 0.0 -0.004237440407003579 0.0 0.0
-0.022291519417726557 0.019832234134694815 0.0 -0.006337980533135723 0.0 0.0
-0.03192099143079419 0.029172048406018725 0.0 -0.008712031477842164 0.0 0.0
-0.04320539532460549 0.04016453222175853 0.0 -0.01111212126874761 0.0 0.0
-0.05597447227446917 0.05264234088663766 0.0 -0.013403912237317628 0.0 0.0
-0.07011971387564409 0.06649721235148798 0.0 -0.01564190431467305 0.0 0.0
-0.08554390954738361 0.08163041063553855 0.0 -0.017859622785296847 0.0 0.0
-0.10205097142478595 0.09783770943652925 0.0 -0.019853070699462405 0.0 0.0
-0.11912684190578865 0.11456598371446569 0.0 -0.02138951445286663 0.0 0.0
-0.13536412764345904 0.1303304891354249 0.0 -0.023249856793500445 0.0 0.0
-0.14751814265622962 0.1418347409588785 0.0 -0.02809340827372009 0.0 0.0
-0.15003230118970604 0.143681004434689 0.0 -0.038693409172086746 0.0 0.0
-0.13598484131085922 0.12905131166227068 0.0 -0.05633602622679901 0.0 0.0
-0.13598484131084568 0.12905131166225736 0.0 0.05633602622683531 0.0 0.0
-0.1500323011896691 0.14368100443464904 0.0 0.03869340917214137 0.0 0.0
-0.1475181426561719 0.1418347409588221 0.0 0.028093408273754616 0.0 0.0
-0.13536412764338546 0.1303304891353565 0.0 0.023249856793509494 0.0 0.0
-0.11912684190570562 0.11456598371438975 0.0 0.02138951445286369 0.0 0.0
-0.1020509714246976 0.09783770943644976 0.0 0.019853070699459352 0.0 0.0
-0.08554390954729432 0.08163041063545418 0.0 0.017859622785288465 0.0 0.0
-0.07011971387555785 0.06649721235140182 0.0 0.015641904314663474 0.0 0.0
-0.05597447227438422 0.05264234088655195 0.0 0.01340391223730425 0.0 0.0
-0.043205395324528516 0.04016453222168348 0.0 0.011112121268725794 0.0 0.0
-0.03192099143072988 0.029172048405958773 0.0 0.008712031477820958 0.0 0.0
-0.022291519417676105 0.019832234134649074 0.0 0.0063379805331206795 0.0 0.0
-0.014520748896341439 0.012345866404987582 0.0 0.004237440406994031 0.0 0.0
-0.008734968154930613 0.0068430704312536506 0.0 0.0026282687822856143 0.0 0.0
-0.004865659865437487 0.0032991894255751664 0.0 0.0016064843991663302 0.0 0.0
-0.0026782172026562703 0.0014725293857249522 0.0 0.0011534244798708237 0.0 0.0
-0.001657742098188572 0.0007636578173670916 0.0 0.0011376665625205118 0.0 0.0
-0.0010803470154364808 0.0004631213786389088 0.0 0.0012482892388326894 0.0 0.0
-0.000532053951504595 0.00018121002016530108 0.0 0.0010999852727865411 0.0 0.0
-0.00011261553191407175 -1.2826884358106347e-05 0.0 0.00046146824691478683 0.0 0.0
-0.00012706717720506466 4.2042962591193334e-05 0.0 -0.00024089911751490334 0.0 0.0
-0.0005584761448643727 0.00022179748597850324 0.0 -0.0007195839910741908 0.0 0.0
-0.001177716354376801 0.0004997753921317516 0.0 -0.0008347115770148128 0.0 0.0
-0.0018696702337144822 0.000867886045034183 0.0 -0.0007466303659159346 0.0 0.0
-0.003181571189313226 0.0018486370734409618 0.0 -0.0007756155585595392 0.0 0.0
-0.005851382380532344 0.0041700163750741925 0.0 -0.001121689047202834 0.0 0.0
-0.010292571283456897 0.008319195875040819 0.0 -0.0018346191542172319 0.0 0.0
-0.016799953392541978 0.014550744845245767 0.0 -0.002934874880964833 0.0 0.0
-0.0255021506309423 0.02296290632659348 0.0 -0.004398094270887332 0.0 0.0
-0.036314395764962815 0.033467134001018195 0.0 -0.006075664465836406 0.0 0.0
-0.04904222899983757 0.045879172337172314 0.0 -0.007773308896445119 0.0 0.0
-0.06350060057286921 0.060019585351002824 0.0 -0.009394499889824104 0.0 0.0
-0.07954236664964898 0.0757393542557927 0.0 -0.011006720399796555 0.0 0.0
-0.09697520078089233 0.09284254321279484 0.0 -0.012589507112651832 0.0 0.0
-0.11543826395262713 0.11096449185148138 0.0 -0.013894085035312087 0.0 0.0
-0.13424960170500227 0.12941455155988324 0.0 -0.01445455691024733 0.0 0.0
-0.15211370722273332 0.14684931519643918 0.0 -0.014321786194208985 0.0 0.0
-0.16636379580246474 0.16048961705984688 0.0 -0.016655999996757043 0.0 0.0
-0.17145134408004822 0.16463411461566047 0.0 -0.029635559186018123 0.0 0.0
-0.15817890253641656 0.15065939191597177 0.0 -0.05830439583409153 0.0 0.0
-0.15817890253639957 0.15065939191596023 0.0 0.05830439583411806 0.0 0.0
-0.17145134408000554 0.1646341146156205 0.0 0.029635559186059868 0.0 0.0
-0.16636379580239913 0.16048961705977716 0.0 0.016655999996782578 0.0 0.0
-0.15211370722264883 0.14684931519635436 0.0 0.014321786194213593 0.0 0.0
-0.1342496017049083 0.12941455155978998 0.0 0.01445455691024261 0.0 0.0
-0.11543826395252824 0.11096449185138635 0.0 0.0138940850353097 0.0 0.0
-0.0969752007807923 0.09284254321270158 0.0 0.012589507112645365 0.0 0.0
-0.07954236664955189 0.07573935425569767 0.0 0.011006720399788922 0.0 0.0
-0.06350060057277437 0.060019585350909566 0.0 0.009394499889816665 0.0 0.0
-0.04904222899975158 0.04587917233708794 0.0 0.00777330889643002 0.0 0.0
-0.03631439576489181 0.03346713400094492 0.0 0.006075664465819475 0.0 0.0
-0.025502150630885265 0.022962906326539745 0.0 0.004398094270878061 0.0 0.0
-0.016799953392499664 0.014550744845206687 0.0 0.002934874880956173 0.0 0.0
-0.010292571283428191 0.008319195875016172 0.0 0.0018346191542087942 0.0 0.0
-0.005851382380515576 0.004170016375061314 0.0 0.0011216890471993923 0.0 0.0
-0.003181571189306582 0.0018486370734385194 0.0 0.0007756155585600943 0.0 0.0
-0.001869670233712862 0.0008678860450330728 0.0 0.0007466303659157125 0.0 0.0
-0.0011777163543762945 0.0004997753921310855 0.0 0.0008347115770127589 0.0 0.0
-0.0005584761448639668 0.00022179748597850324 0.0 0.000719583991072914 0.0 0.0
-0.00012706717720513752 4.204296259140497e-05 0.0 0.00024089911751395965 0.0 0.0
-0.00010702311139137999 5.6866085563322954e-05 0.0 -3.890826576252726e-05 0.0 0.0
-0.000552044881356184 0.00024324020985555528 0.0 -0.0002913155861549721 0.0 0.0
-0.001279142792202148 0.0005394947411113682 0.0 -0.0003425967472482361 0.0 0.0
-0.0021280139606608683 0.0010212340162456535 0.0 -0.00031960837577993395 0.0 0.0
-0.003762672678728096 0.0023116750394349683 0.0 -0.000335695719082596 0.0 0.0
-0.006888703180957967 0.005112062097161418 0.0 -0.000475213978479494 0.0 0.0
-0.011864323865798887 0.00982351542375004 0.0 -0.0007699422228316655 0.0 0.0
-0.019051761604621964 0.016742082254501245 0.0 -0.001233481768909639 0.0 0.0
-0.02865022398521827 0.026043523232236243 0.0 -0.001884932349316526 0.0 0.0
-0.04062252866538868 0.03769070853600631 0.0 -0.0026611082834728794 0.0 0.0
-0.054790298138955196 0.051518562629176756 0.0 -0.003459372120448778 0.0 0.0
-0.0709432596465569 0.06732461872978446 0.0 -0.004237841067230019 0.0 0.0
-0.08886807715250367 0.08489613593117484 0.0 -0.0050032652189488935 0.0 0.0
-0.10828306193374515 0.10394423445411638 0.0 -0.005709979163246004 0.0 0.0
-0.1286723161917433 0.12394789316931787 0.0 -0.006209465700848793 0.0 0.0
-0.14910798725225227 0.14398356599549755 0.0 -0.006160428258698003 0.0 0.0
-0.16815535050428684 0.16262620905460334 0.0 -0.005143399125333015 0.0 0.0
-0.18373922922897035 0.17775953903050556 0.0 -0.004102078367763551 0.0 0.0
-0.19220605305662064 0.1855078847741245 0.0 -0.012344758198905348 0.0 0.0
-0.18410558661450752 0.1754615262128043 0.0 -0.05370691280794537 0.0 0.0
-0.18410558661448795 0.17546152621278477 0.0 0.05370691280795392 0.0 0.0
-0.19220605305657257 0.18550788477408453 0.0 0.012344758198926775 0.0 0.0
-0.18373922922889543 0.1777595390304363 0.0 0.004102078367776374 0.0 0.0
-0.16815535050419084 0.1626262090545083 0.0 0.005143399125332404 0.0 0.0
-0.14910798725214727 0.14398356599539053 0.0 0.006160428258693285 0.0 0.0
-0.12867231619163383 0.12394789316920507 0.0 0.006209465700848349 0.0 0.0
-0.10828306193363334 0.10394423445400403 0.0 0.005709979163243423 0.0 0.0
-0.08886807715239668 0.08489613593106782 0.0 0.005003265218945202 0.0 0.0
-0.07094325964645189 0.06732461872968143 0.0 0.004237841067227799 0.0 0.0
-0.05479029813886026 0.05151856262908616 0.0 0.0034593721204396743 0.0 0.0
-0.04062252866531113 0.03769070853592993 0.0 0.002661108283464886 0.0 0.0
-0.02865022398515542 0.026043523232176735 0.0 0.0018849323493126957 0.0 0.0
-0.01905176160457506 0.016742082254456836 0.0 0.0012334817689073074 0.0 0.0
-0.01186432386576643 0.009823515423717843 0.0 0.0007699422228307218 0.0 0.0
-0.006888703180938399 0.005112062097143877 0.0 0.00047521397847982705 0.0 0.0
-0.0037626726787196845 0.002311675039427641 0.0 0.00033569571908131923 0.0 0.0
-0.002128013960659196 0.0010212340162422118 0.0 0.00031960837577948986 0.0 0.0
-0.0012791427922010587 0.000539494741110258 0.0 0.00034259674724768097 0.0 0.0
-0.0005520448813556636 0.00024324020985605488 0.0 0.0002913155861564154 0.0 0.0
-0.00010702311139097406 5.68660855632102e-05 0.0 3.890826576341544e-05 0.0 0.0
SCALARS Statev float 8
LOOKUP_TABLE default
0.0 0.01372221159047619 0.010632346549196599 -0.01101307052991386 0.0003807239807172593 -0.006125759851833437 0.0 0.0
0.0 0.0008528398636624254 0.0006104267760281416 -0.0005226093907519458 -8.781738527619581e-05 0.0005509449904649421 0.0 0.0
0.0 3.342380937738801e-05 -4.754075056001044e-06 3.773145031477424e-06 9.809300245235895e-07 5.62033213615258e-07 0.0 0.0
0.0 0.000327028806422429 0.00024281542582859557 -0.0001920061461577907 -5.080927967080482e-05 -3.444107349186483e-05 0.0 0.0
0.0 0.0017128190996227798 0.001404355339387795 -0.0011717761902711088 -0.00023257914911668602 -0.0001516845964691242 0.0 0.0
0.0 0.004620253169088745 0.004174620926946905 -0.00369988012621672 -0.0004747408007301848 -0.0003425521923906443 0.0 0.0
0.0 0.00995504762548583 0.008847922858665175 -0.008210868720596643 -0.0006370541380685281 -0.0006316473845645661 0.0 0.0
0.0 0.017913570867767004 0.01576601308699257 -0.015016123891196505 -0.000749889195796065 -0.0010735395983502642 0.0 0.0
0.0 0.02868985439789984 0.025102933340391907 -0.024248102139142327 -0.000854831201249571 -0.0016998537461773698 0.0 0.0
0.0 0.04225046334169497 0.03682904155527573 -0.03586348998364297 -0.0009655515716327453 -0.002462019454019778 0.0 0.0
0.0 0.05843423571719784 0.0507842382534171 -0.04970338067503938 -0.001080857578377713 -0.003262513474066962 0.0 0.0
0.0 0.07672725806115195 0.0667712138870114 -0.06557278493702581 -0.0011984289499855582 -0.004048873023991073 0.0 0.0
0.0 0.09720095436803333 0.0845845949982359 -0.08326726970777254 -0.0013173252904632635 -0.004822774826427919 0.0 0.0
0.0 0.11957585909506904 0.10398475459985813 -0.10254565756450552 -0.0014390970353525229 -0.005575373908776693 0.0 0.0
0.0 0.14333478716640846 0.12457915980866448 -0.12301412844025095 -0.0015650313684134845 -0.006270313278377687 0.0 0.0
0.0 0.16772830084680795 0.14568915876152827 -0.14399523095928124 -0.001693927802247054 -0.006770543653411235 0.0 0.0
0.0 0.19154549721939507 0.1662956075622011 -0.1644740478070325 -0.0018215597551685888 -0.006837260240640407 0.0 0.0
0.0 0.2132392376594854 0.18507495725709525 -0.18313148600617138 -0.0019434712509238863 -0.006251501012612343 0.0 0.0
0.0 0.23099106963162136 0.20044642692441572 -0.1983873146020716 -0.0020591123223440942 -0.005339378170824245 0.0 0.0
0.0 0.2418803880065209 0.21001013155500195 -0.20777189143708075 -0.002238240117921216 -0.006243682107057772 0.0 0.0
0.0 0.241880388006503 0.21001013155498643 -0.20777189143706484 -0.002238240117921593 0.006243682107066628 0.0 0.0
0.0 0.2309910696315676 0.2004464269243692 -0.19838731460202472 -0.002059112322344393 0.005339378170846725 0.0 0.0
0.0 0.21323923765940336 0.185074957257024 -0.18313148600610082 -0.001943471250923127 0.00625150101262587 0.0 0.0
0.0 0.1915454972192877 0.1662956075621081 -0.16447404780693958 -0.001821559755168453 0.006837260240648124 0.0 0.0
0.0 0.16772830084669033 0.14568915876142632 -0.1439952309591799 -0.0016939278022464772 0.0067705436534018625 0.0 0.0
0.0 0.14333478716628753 0.12457915980855944 -0.12301412844014657 -0.0015650313684128503 0.006270313278374944 0.0 0.0
0.0 0.11957585909494745 0.10398475459975273 -0.1025456575644006 -0.00143909703535212 0.005575373908777148 0.0 0.0
0.0 0.0972009543679127 0.0845845949981315 -0.08326726970766837 -0.0013173252904631109 0.004822774826425553 0.0 0.0
0.0 0.07672725806103765 0.0667712138869124 -0.06557278493692727 -0.001198428949985075 0.004048873023982914 0.0 0.0
0.0 0.058434235717097896 0.050784238253330165 -0.04970338067495306 -0.001080857578377104 0.0032625134740606565 0.0 0.0
0.0 0.04225046334161321 0.036829041555204896 -0.03586348998357276 -0.0009655515716321539 0.0024620194540094877 0.0 0.0
0.0 0.028689854397836636 0.025102933340336538 -0.024248102139087437 -0.0008548312012491195 0.0016998537461747844 0.0 0.0
0.0 0.017913570867720694 0.01576601308695151 -0.01501612389115605 -0.0007498891957954588 0.001073539598346708 0.0 0.0
0.0 0.009955047625455354 0.008847922858637914 -0.00821086872057 -0.0006370541380679092 0.000631647384562699 0.0 0.0
0.0 0.004620253169070767 0.004174620926930399 -0.0036998801262011537 -0.0004747408007292454 0.0003425521923891043 0.0 0.0
0.0 0.0017128190996146119 0.001404355339381011 -0.0011717761902651246 -0.00023257914911588607 0.00015168459646825786 0.0 0.0
0.0 0.0003270288064198978 0.00024281542582721443 -0.00019200614615667345 -5.080927967054096e-05 3.444107349162391e-05 0.0 0.0
0.0 3.342380937687491e-05 -4.754075055922566e-06 3.7731450314146314e-06 9.80930024507978e-07 -5.620332136057866e-07 0.0 0.0
0.0 0.0008528398636595524 0.000610426776026509 -0.0005226093907505084 -8.781738527600099e-05 -0.0005509449904629717 0.0 0.0
0.0 0.013722211590457913 0.010632346549184536 -0.011013070529900783 0.0003807239807162433 0.006125759851803062 0.0 0.0
0.0 0.010232711262462398 0.007430266889425443 -0.007925092309343261 0.0004948254199178174 -0.007108958032839719 0.0 0.0
0.0 1.0701019145058677e-05 7.662993214769924e-06 -6.747476038229751e-06 -9.155171765401748e-07 4.982100974926246e-06 0.0 0.0
0.0 5.735261965721728e-07 8.74983727541758e-08 -6.52628369337416e-08 -2.223553582043693e-08 -2.687097776642045e-08 0.0 0.0
0.0 0.00013079594607832886 9.14694397131099e-05 -7.180168126855733e-05 -1.9667758444552805e-05 -3.223170325970544e-05 0.0 0.0
0.0 0.001154939739223066 0.0009076516453433855 -0.0007461972458746917 -0.00016145439946869413 -0.00024140517526315415 0.0 0.0
0.0 0.003570045911740242 0.003229005321892379 -0.002818069252749328 -0.0004109360691430511 -0.0007019009392676917 0.0 0.0
0.0 0.008292453402898388 0.007364685036114921 -0.006764560034109414 -0.0006001250020055028 -0.0014357589479415558 0.0 0.0
0.0 0.015476183879599495 0.01359651699580997 -0.012871625377400385 -0.0007248916184095841 -0.002500044014567046 0.0 0.0
0.0 0.025229128799111867 0.02203592316966351 -0.021205584702620066 -0.0008303384670434355 -0.003921859045089147 0.0 0.0
0.0 0.037457980849765135 0.03260352618160542 -0.031667280311295704 -0.0009362458703097205 -0.005584751093538079 0.0 0.0
0.0 0.05195771565948941 0.04512285205903828 -0.044079177810713494 -0.001043674248324787 -0.007301413918702095 0.0 0.0
0.0 0.06857271487963335 0.05942253280790812 -0.05827085604016114 -0.001151676767746964 -0.008957065022548697 0.0 0.0
0.0 0.08684570488478224 0.07536191438174947 -0.07410079659867191 -0.00126111778307756 -0.01060183655638075 0.0 0.0
0.0 0.1068555216648927 0.09275001045061271 -0.09137710049927518 -0.0013729099513375164 -0.012242818684520984 0.0 0.0
0.0 0.12821141023103363 0.11125175441701848 -0.10976428139833878 -0.0014874730186796312 -0.013764067583845987 0.0 0.0
0.0 0.15017330825122463 0.13029330508994114 -0.12868912474346628 -0.0016041803464748672 -0.01489460386288778 0.0 0.0
0.0 0.1717337140036969 0.14899406393206513 -0.1472726842988883 -0.0017213796331768528 -0.015177382061279518 0.0 0.0
0.0 0.19150012308713338 0.1661371772869753 -0.16429879642073858 -0.001838380866236688 -0.014278742858132076 0.0 0.0
0.0 0.2074939395845382 0.18002404123107618 -0.1780553136899475 -0.001968727541128679 -0.012475474032495826 0.0 0.0
0.0 0.21708807825647006 0.18838212104687832 -0.18631346417825387 -0.00206865686862447 -0.00958079063390262 0.0 0.0
0.0 0.21708807825645512 0.18838212104686525 -0.18631346417824068 -0.0020686568686246807 0.009580790633927465 0.0 0.0
0.0 0.20749393958449114 0.18002404123103466 -0.17805531368990596 -0.0019687275411286887 0.01247547403253816 0.0 0.0
0.0 0.19150012308705555 0.1661371772869074 -0.16429879642067055 -0.0018383808662367613 0.014278742858158822 0.0 0.0
0.0 0.1717337140036026 0.14899406393198295 -0.14727268429880686 -0.0017213796331758979 0.015177382061293432 0.0 0.0
0.0 0.15017330825112146 0.13029330508985199 -0.12868912474337757 -0.00160418034647432 0.01489460386287731 0.0 0.0
0.0 0.12821141023092836 0.11125175441692718 -0.10976428139824804 -0.0014874730186791277 0.013764067583841074 0.0 0.0
0.0 0.10685552166478812 0.09275001045052174 -0.09137710049918522 -0.0013729099513364665 0.01224281868451784 0.0 0.0
0.0 0.08684570488468243 0.07536191438166237 -0.0741007965985864 -0.001261117783075959 0.010601836556375456 0.0 0.0
0.0 0.0685727148795344 0.05942253280782203 -0.05827085604007621 -0.001151676767745798 0.00895706502253669 0.0 0.0
0.0 0.05195771565939861 0.04512285205895945 -0.04407917781063539 -0.0010436742483240424 0.007301413918691241 0.0 0.0
0.0 0.03745798084968885 0.0326035261815392 -0.03166728031123 -0.0009362458703091867 0.005584751093522949 0.0 0.0
0.0 0.02522912879905135 0.022035923169610363 -0.02120558470256736 -0.0008303384670429842 0.003921859045081589 0.0 0.0
0.0 0.015476183879558479 0.013596516995773893 -0.012871625377364875 -0.0007248916184090234 0.0025000440145598714 0.0 0.0
0.0 0.008292453402872137 0.007364685036091387 -0.006764560034086629 -0.0006001250020047569 0.001435758947937199 0.0 0.0
0.0 0.003570045911724705 0.0032290053218786874 -0.002818069252736543 -0.00041093606914214436 0.0007019009392644066 0.0 0.0
0.0 0.0011549397392170528 0.0009076516453388431 -0.000746197245870786 -0.00016145439946805738 0.0002414051752619579 0.0 0.0
0.0 0.00013079594607723777 9.146943971276131e-05 -7.18016812682613e-05 -1.9667758444499872e-05 3.2231703259513555e-05 0.0 0.0
0.0 5.73526196646304e-07 8.749837282872984e-08 -6.526283698997692e-08 -2.2235535838754863e-08 2.6870977791707216e-08 0.0 0.0
0.0 1.0701019144695186e-05 7.662993214784e-06 -6.747476038231604e-06 -9.155171765523934e-07 -4.9821009749365885e-06 0.0 0.0
0.0 0.010232711262440628 0.0074302668894111416 -0.007925092309328263 0.0004948254199171173 0.007108958032813725 0.0 0.0
0.0 0.00778358692113521 0.005354281842978627 -0.005879373610975867 0.0005250917679972417 -0.006261974902954107 0.0 0.0
0.0 0.0 0.0 0.0 0.0 0.0 0.0 0.0
0.0 0.0 0.0 0.0 0.0 0.0 0.0 0.0
0.0 2.8759667634311144e-05 2.2903101623531087e-05 -1.7899078112708866e-05 -5.0040235108222486e-06 -1.4944657593320342e-05 0.0 0.0
0.0 0.0006582973024154593 0.0005232011014480376 -0.000424017222720156 -9.918387872788133e-05 -0.00024690111851951815 0.0 0.0
0.0 0.0027720595692221107 0.0023347363114784967 -0.0020033516340411056 -0.000331384677437391 -0.0008762542102372024 0.0 0.0
0.0 0.006690812549375008 0.005911593007690081 -0.005359019621838261 -0.0005525733858518204 -0.001955415141322689 0.0 0.0
0.0 0.013063095635206896 0.011419214308008881 -0.0107264265112518 -0.000692787796757074 -0.0035293838042879545 0.0 0.0
0.0 0.021788854943232443 0.01892480284171863 -0.018123763114232493 -0.0008010397274861381 -0.005578552706120449 0.0 0.0
0.0 0.03269495018621132 0.028310519257322274 -0.027408320418586478 -0.000902198838735781 -0.007936962538342831 0.0 0.0
0.0 0.04558329907465267 0.03938761340327971 -0.038385752869434395 -0.0010018605338453146 -0.010367474681172897 0.0 0.0
0.0 0.06018573135117253 0.05200426350696437 -0.05090327705358962 -0.0011009864533747323 -0.012721990868635139 0.0 0.0
0.0 0.07655022474816507 0.066053753584371 -0.06485295280382496 -0.0012008007805460377 -0.01503781494065804 0.0 0.0
0.0 0.09419239306218612 0.08140763698482995 -0.08010546836982343 -0.001302168615006459 -0.01736366766121534 0.0 0.0
0.0 0.11308633264359291 0.09780521047340536 -0.09640020845253094 -0.0014050020208744144 -0.019558311190977642 0.0 0.0
0.0 0.13268109211377754 0.1147840978098674 -0.11327455512585413 -0.0015095426840132477 -0.021229383206720263 0.0 0.0
0.0 0.1520363759598645 0.13160343209999384 -0.1299866566994346 -0.0016167754005592112 -0.02182326931799368 0.0 0.0
0.0 0.16983697549246757 0.1471298265511243 -0.14539870063426075 -0.001731125916863553 -0.020869864461595177 0.0 0.0
0.0 0.1842294496101034 0.15973391752285282 -0.15789112446111717 -0.0018427930617356159 -0.017881976088754036 0.0 0.0
0.0 0.19309042292586065 0.167572433966063 -0.16564867570494118 -0.0019237582611216974 -0.01191802075362301 0.0 0.0
0.0 0.19309042292584871 0.1675724339660517 -0.16564867570493066 -0.001923758261120937 0.01191802075366354 0.0 0.0
0.0 0.1842294496100669 0.1597339175228188 -0.1578911244610846 -0.0018427930617342732 0.017881976088812812 0.0 0.0
0.0 0.16983697549240562 0.1471298265510687 -0.14539870063420607 -0.0017311259168624816 0.020869864461634656 0.0 0.0
0.0 0.15203637595978514 0.13160343209992398 -0.12998665669936565 -0.0016167754005583963 0.021823269318011818 0.0 0.0
0.0 0.13268109211368617 0.11478409780978813 -0.11327455512577587 -0.0015095426840121993 0.02122938320671011 0.0 0.0
0.0 0.11308633264349846 0.09780521047332295 -0.09640020845244998 -0.0014050020208729859 0.0195583111909707 0.0 0.0
0.0 0.09419239306208982 0.0814076369847462 -0.0801054683697403 -0.0013021686150059039 0.017363667661210183 0.0 0.0
0.0 0.07655022474807126 0.0660537535842898 -0.06485295280374381 -0.0012008007805459362 0.01503781494065002 0.0 0.0
0.0 0.060185731351086985 0.05200426350689065 -0.050903277053516396 -0.0011009864533742656 0.012721990868618433 0.0 0.0
0.0 0.045583299074574674 0.03938761340321194 -0.038385752869367185 -0.0010018605338447278 0.010367474681157365 0.0 0.0
0.0 0.032694950186145974 0.028310519257265677 -0.02740832041853045 -0.000902198838735216 0.007936962538322928 0.0 0.0
0.0 0.021788854943181078 0.018924802841673867 -0.018123763114188278 -0.0008010397274855816 0.00557855270610844 0.0 0.0
0.0 0.01306309563516902 0.011419214307975888 -0.010726426511219196 -0.0006927877967566849 0.0035293838042770205 0.0 0.0
0.0 0.006690812549350937 0.005911593007668829 -0.0053590196218177896 -0.0005525733858510386 0.0019554151413159544 0.0 0.0
0.0 0.0027720595692103194 0.0023347363114687904 -0.002003351634032244 -0.0003313846774365465 0.0008762542102329922 0.0 0.0
0.0 0.0006582973024113034 0.0005232011014450028 -0.0004240172227176531 -9.91838787273497e-05 0.0002469011185181582 0.0 0.0
0.0 2.8759667633546877e-05 2.2903101623391818e-05 -1.789907811258467e-05 -5.004023510807165e-06 1.4944657593147342e-05 0.0 0.0
0.0 0.0 0.0 0.0 0.0 0.0 0.0 0.0
0.0 0.0 0.0 0.0 0.0 0.0 0.0 0.0
0.0 0.007783586921116234 0.005354281842965608 -0.005879373610962212 0.0005250917679966019 0.006261974902932875 0.0 0.0
0.0 0.005854781617033891 0.003864834961401829 -0.0043624964950860195 0.0004976615336841888 -0.004965567751642805 0.0 0.0
0.0 0.0 0.0 0.0 0.0 0.0 0.0 0.0
0.0 0.0 0.0 0.0 0.0 0.0 0.0 0.0
0.0 4.840664859921123e-06 1.9796048456682406e-06 -1.5378896800572554e-06 -4.417151656109698e-07 -2.016705839774869e-06 0.0 0.0
0.0 0.0003258351974241608 0.0002518839381995474 -0.0002021093097640975 -4.977462843544967e-05 -0.00019066321764435408 0.0 0.0
0.0 0.001917893683083545 0.0015649802845492866 -0.0013187984989038457 -0.00024618178564544133 -0.0008918249998943 0.0 0.0
0.0 0.005216739376546838 0.00450854192808044 -0.004022235703772156 -0.00048630622430828515 -0.002196475189929841 0.0 0.0
0.0 0.010704080283882983 0.009262755368242927 -0.00861076866371917 -0.0006519867045237553 -0.004154651343576458 0.0 0.0
0.0 0.01836959810115891 0.01580445226317996 -0.015039255377134407 -0.0007651968860455579 -0.006661539644877824 0.0 0.0
0.0 0.02793680133467321 0.023988467597095144 -0.023125747448492988 -0.0008627201486021247 -0.00952294342174037 0.0 0.0
0.0 0.039187868654353974 0.033614942956428556 -0.03265974207049315 -0.000955200885935402 -0.012461431650665931 0.0 0.0
0.0 0.05193846712486558 0.04454372434183201 -0.04349797178105727 -0.001045752560774737 -0.01532500293582326 0.0 0.0
0.0 0.06608305928569458 0.056702261325182246 -0.05556641808966852 -0.001135843235513734 -0.018156684670595814 0.0 0.0
0.0 0.08156800767422769 0.07000808264961274 -0.06878119926890774 -0.0012268833807049947 -0.02096166070712791 0.0 0.0
0.0 0.09813855096387991 0.08428048050324172 -0.08296254545199988 -0.0013179350512418214 -0.023609951549523965 0.0 0.0
0.0 0.11516712928309278 0.09917789482643996 -0.0977678220676413 -0.001410072758798617 -0.02573903172109153 0.0 0.0
0.0 0.13232543436814906 0.11409666728291736 -0.11258933970162291 -0.0015073275812944324 -0.026721422583655053 0.0 0.0
0.0 0.14826051357337458 0.12804880725504292 -0.1264382650148921 -0.0016105422401508178 -0.02579635068447254 0.0 0.0
0.0 0.16133134933452262 0.13962122438753946 -0.13791150933068808 -0.0017097150568513393 -0.021916285192671026 0.0 0.0
0.0 0.1697714665664919 0.1472430067304428 -0.14546029851871384 -0.0017827082117289686 -0.013799943794490788 0.0 0.0
0.0 0.16977146656647954 0.14724300673043098 -0.14546029851870207 -0.001782708211728973 0.013799943794541636 0.0 0.0
0.0 0.16133134933448592 0.139621224387505 -0.1379115093306535 -0.0017097150568514067 0.021916285192738014 0.0 0.0
0.0 0.1482605135733171 0.12804880725499102 -0.12643826501483962 -0.0016105422401512847 0.025796350684518833 0.0 0.0
0.0 0.13232543436808103 0.11409666728285689 -0.11258933970156274 -0.001507327581294152 0.02672142258367639 0.0 0.0
0.0 0.11516712928301166 0.09917789482636988 -0.09776782206757162 -0.0014100727587982491 0.025739031721081593 0.0 0.0
0.0 0.09813855096379757 0.08428048050317066 -0.08296254545192903 -0.0013179350512416295 0.02360995154951324 0.0 0.0
0.0 0.08156800767414753 0.07000808264954299 -0.06878119926883866 -0.001226883380704315 0.02096166070711963 0.0 0.0
0.0 0.06608305928561446 0.0567022613251124 -0.05556641808959965 -0.0011358432355127342 0.018156684670584983 0.0 0.0
0.0 0.05193846712478532 0.04454372434176284 -0.04349797178098846 -0.001045752560774376 0.01532500293580194 0.0 0.0
0.0 0.039187868654285696 0.0336149429563697 -0.032659742070434726 -0.0009552008859349735 0.012461431650644946 0.0 0.0
0.0 0.02793680133461547 0.02398846759704591 -0.023125747448444155 -0.0008627201486017384 0.009522943421717132 0.0 0.0
0.0 0.018369598101113552 0.015804452263140766 -0.015039255377095783 -0.0007651968860449814 0.006661539644862952 0.0 0.0
0.0 0.01070408028384957 0.009262755368214021 -0.008610768663691043 -0.0006519867045229759 0.004154651343563505 0.0 0.0
0.0 0.005216739376526359 0.004508541928062912 -0.004022235703755589 -0.0004863062243073222 0.002196475189921911 0.0 0.0
0.0 0.001917893683072958 0.0015649802845411813 -0.0013187984988967216 -0.00024618178564446007 0.0008918249998896006 0.0 0.0
0.0 0.00032583519742132203 0.00025188393819801185 -0.00020210930976280299 -4.9774628435208956e-05 0.0001906632176431001 0.0 0.0
0.0 4.840664859571476e-06 1.979604845875445e-06 -1.537889680217251e-06 -4.417151656581827e-07 2.0167058399791076e-06 0.0 0.0
0.0 0.0 0.0 0.0 0.0 0.0 0.0 0.0
0.0 0.0 0.0 0.0 0.0 0.0 0.0 0.0
0.0 0.005854781617016875 0.0038648349613905173 -0.004362496495074024 0.0004976615336835033 0.004965567751625746 0.0 0.0
0.0 0.004270084287911024 0.0027179273746582217 -0.0031532798388417683 0.00043535246418354736 -0.003692660009489492 0.0 0.0
0.0 0.0 0.0 0.0 0.0 0.0 0.0 0.0
0.0 0.0 0.0 0.0 0.0 0.0 0.0 0.0
0.0 7.299786291867813e-07 2.8370150410953786e-07 -2.1654063392361243e-07 -6.716087018592555e-08 -4.1542404597753844e-07 0.0 0.0
0.0 0.00013744835294878793 9.652595205502076e-05 -7.716783327585259e-05 -1.9358118779168226e-05 -0.00011303836781529441 0.0 0.0
0.0 0.0011975260297980774 0.0009410024311167671 -0.0007793624455094807 -0.00016163998560728672 -0.0007923246250793425 0.0 0.0
0.0 0.0039370508304579785 0.0032029126413726447 -0.002802241658635769 -0.00040067098273687527 -0.0021695186586644655 0.0 0.0
0.0 0.008468511966521278 0.0071517142541447495 -0.006555482687596585 -0.0005962315665481634 -0.004334918203554673 0.0 0.0
0.0 0.014994138392794086 0.012709569904988519 -0.011988569088179102 -0.000721000816809419 -0.007163564257856635 0.0 0.0
0.0 0.023216934617512237 0.019674340629722543 -0.01885759369205037 -0.0008167469376721688 -0.010338355458275994 0.0 0.0
0.0 0.03283879854266388 0.027841809685116705 -0.02693886859236242 -0.0009029410927543155 -0.013592364190134376 0.0 0.0
0.0 0.04367218811823664 0.03707969608884483 -0.03609471166859197 -0.000984984420252857 -0.016765733226678535 0.0 0.0
0.0 0.05573940683307631 0.04734259521327884 -0.04627699721371932 -0.0010655979995595147 -0.01990435777649098 0.0 0.0
0.0 0.06879909054827626 0.05859808094724689 -0.05745213148983143 -0.001145949457415478 -0.02303028430774585 0.0 0.0
0.0 0.08293615963414454 0.07073175381647466 -0.06950590510072584 -0.0012258487157487995 -0.02597193420293192 0.0 0.0
0.0 0.0978375616463246 0.08350300201747879 -0.08219687251013819 -0.0013061295073405936 -0.028384244554682064 0.0 0.0
0.0 0.11260769557857761 0.09647322439380836 -0.09508337693980859 -0.0013898474539997443 -0.02971729928569624 0.0 0.0
0.0 0.12665721456945578 0.10888329979928904 -0.10740346574289415 -0.0014798340563948714 -0.02901158301984001 0.0 0.0
0.0 0.13859745290251668 0.11958011320649949 -0.11801104237279306 -0.0015690708337063883 -0.024756284824998916 0.0 0.0
0.0 0.14683976844662439 0.12718036939449076 -0.12554046921297768 -0.0016399001815129808 -0.015360259531019042 0.0 0.0
0.0 0.14683976844661464 0.12718036939448069 -0.12554046921296752 -0.0016399001815130812 0.01536025953107263 0.0 0.0
0.0 0.13859745290248587 0.1195801132064693 -0.11801104237276235 -0.001569070833706957 0.02475628482506917 0.0 0.0
0.0 0.12665721456940426 0.1088832997992413 -0.10740346574284568 -0.0014798340563955958 0.02901158301989042 0.0 0.0
0.0 0.11260769557852082 0.09647322439375684 -0.0950833769397576 -0.0013898474539992274 0.029717299285719256 0.0 0.0
0.0 0.0978375616462623 0.08350300201742417 -0.08219687251008495 -0.0013061295073392902 0.028384244554674944 0.0 0.0
0.0 0.0829361596340751 0.07073175381641436 -0.0695059051006663 -0.0012258487157480787 0.02597193420292062 0.0 0.0
0.0 0.06879909054820708 0.05859808094718684 -0.057452131489771685 -0.0011459494574151384 0.023030284307736418 0.0 0.0
0.0 0.05573940683300991 0.04734259521322093 -0.04627699721366173 -0.001065597999559178 0.019904357776480537 0.0 0.0
0.0 0.043672188118174325 0.037079696088791116 -0.036094711668539094 -0.0009849844202519937 0.016765733226659064 0.0 0.0
0.0 0.032838798542605185 0.027841809685066648 -0.026938868592313186 -0.0009029410927534656 0.013592364190110203 0.0 0.0
0.0 0.023216934617461844 0.019674340629680546 -0.01885759369200911 -0.0008167469376714463 0.010338355458249142 0.0 0.0
0.0 0.014994138392754479 0.012709569904954938 -0.01198856908814585 -0.0007210008168090816 0.007163564257839309 0.0 0.0
0.0 0.00846851196649381 0.0071517142541218885 -0.006555482687574323 -0.0005962315665475648 0.004334918203541063 0.0 0.0
0.0 0.003937050830440195 0.0032029126413582014 -0.002802241658622386 -0.0004006709827358153 0.0021695186586556496 0.0 0.0
0.0 0.0011975260297897275 0.000941002431110629 -0.0007793624455042064 -0.00016163998560642204 0.0007923246250741223 0.0 0.0
0.0 0.00013744835294673518 9.652595205404285e-05 -7.716783327505862e-05 -1.9358118778984176e-05 0.00011303836781418055 0.0 0.0
0.0 7.299786290073335e-07 2.837015042251983e-07 -2.1654063401222473e-07 -6.716087021297154e-08 4.154240461516788e-07 0.0 0.0
0.0 0.0 0.0 0.0 0.0 0.0 0.0 0.0
0.0 0.0 0.0 0.0 0.0 0.0 0.0 0.0
0.0 0.004270084287896378 0.002717927374648727 -0.00315327983883158 0.0004353524641828514 0.0036926600094755496 0.0 0.0
0.0 0.0029466933203843295 0.0018195121710993518 -0.002170856550413427 0.00035134437931407447 -0.002594477901477895 0.0 0.0
0.0 0.0 0.0 0.0 0.0 0.0 0.0 0.0
0.0 0.0 0.0 0.0 0.0 0.0 0.0 0.0
0.0 1.2459832782016668e-06 -8.711175530045244e-08 6.722946238267231e-08 1.9882292917777628e-08 2.0432140011233723e-07 0.0 0.0
0.0 5.96310853689571e-05 3.233859408238597e-05 -2.5788210206308378e-05 -6.550383876077584e-06 -5.6422722178490263e-05 0.0 0.0
0.0 0.0006514447990988026 0.00048725116266475223 -0.0003979903322063393 -8.926083045841271e-05 -0.0006106965019251942 0.0 0.0
0.0 0.0026397608273515186 0.0020721067922440167 -0.0017737457156946884 -0.0002983610765493282 -0.001970128559985407 0.0 0.0
0.0 0.006350562243345498 0.005143887398598856 -0.004628087313285088 -0.0005158000853137684 -0.004136833666297267 0.0 0.0
0.0 0.011735670376279457 0.009673287244081827 -0.00901003336243026 -0.0006632538816515615 -0.007052549916725062 0.0 0.0
0.0 0.018555468671552226 0.015407093215808219 -0.014644954746972087 -0.0007621384688361305 -0.010371407252238216 0.0 0.0
0.0 0.026518250753435828 0.022108006724941457 -0.021264908389854374 -0.0008430983350870841 -0.013743290125520224 0.0 0.0
0.0 0.03546259783701366 0.029653405993898447 -0.028735884977779395 -0.0009175210161190611 -0.017033436873027143 0.0 0.0
0.0 0.04534619058895367 0.03802113426142568 -0.03703245704597063 -0.0009886772154550471 -0.020290256063998775 0.0 0.0
0.0 0.0561793920469459 0.04721928303484335 -0.04616095037581203 -0.0010583326590313373 -0.02352116551215485 0.0 0.0
0.0 0.06792341373787113 0.05720148173692907 -0.0560737228773306 -0.0011277588595984926 -0.026585502266373587 0.0 0.0
0.0 0.08011644865859399 0.0678117534083703 -0.06661565087135023 -0.0011961025370200926 -0.029163831820081282 0.0 0.0
0.0 0.09282435135669176 0.07876298840208133 -0.07749830983854714 -0.0012646785635341475 -0.03074027147834079 0.0 0.0
0.0 0.1051331796129321 0.08959258147841595 -0.08825392747845946 -0.0013386539999564891 -0.030399976826091527 0.0 0.0
0.0 0.1158657196428956 0.09947774616583405 -0.09805948384939667 -0.0014182623164373323 -0.026379472077402964 0.0 0.0
0.0 0.12406190166698469 0.10719474392568909 -0.10570381108810965 -0.0014909328375793832 -0.01663029384729123 0.0 0.0
0.0 0.12406190166697417 0.10719474392567824 -0.10570381108809826 -0.00149093283757994 0.016630293847345157 0.0 0.0
0.0 0.11586571964287362 0.09947774616581001 -0.09805948384937299 -0.0014182623164370489 0.026379472077474826 0.0 0.0
0.0 0.10513317961289768 0.08959258147838126 -0.08825392747842538 -0.0013386539999558943 0.030399976826143475 0.0 0.0
0.0 0.09282435135664548 0.07876298840203858 -0.07749830983850464 -0.0012646785635339088 0.030740271478362738 0.0 0.0
0.0 0.08011644865853784 0.06781175340832192 -0.06661565087130222 -0.0011961025370196597 0.029163831820071 0.0 0.0
0.0 0.06792341373781084 0.057201481736876905 -0.05607372287727905 -0.0011277588595978462 0.026585502266360667 0.0 0.0
0.0 0.056179392046890944 0.0472192830347955 -0.04616095037576491 -0.0010583326590306102 0.023521165512142964 0.0 0.0
0.0 0.045346190588900034 0.03802113426137901 -0.03703245704592465 -0.0009886772154543714 0.020290256063987728 0.0 0.0
0.0 0.0354625978369631 0.029653405993855467 -0.02873588497773731 -0.0009175210161181523 0.01703343687300765 0.0 0.0
0.0 0.026518250753388668 0.022108006724902058 -0.021264908389815523 -0.0008430983350865404 0.013743290125496983 0.0 0.0
0.0 0.01855546867150937 0.015407093215773254 -0.014644954746937756 -0.0007621384688354978 0.010371407252210224 0.0 0.0
0.0 0.011735670376248519 0.009673287244056049 -0.00901003336240521 -0.0006632538816508324 0.007052549916707427 0.0 0.0
0.0 0.006350562243324114 0.005143887398581526 -0.0046280873132686536 -0.000515800085312874 0.004136833666284362 0.0 0.0
0.0 0.0026397608273393785 0.0020721067922346206 -0.0017737457156862535 -0.00029836107654836663 0.0019701285599776335 0.0 0.0
0.0 0.000651444799094084 0.00048725116266190116 -0.0003979903322039156 -8.926083045798536e-05 0.0006106965019215102 0.0 0.0
0.0 5.9631085368305265e-05 3.233859408258426e-05 -2.5788210206453953e-05 -6.550383876130312e-06 5.6422722178735185e-05 0.0 0.0
0.0 1.245983277765114e-06 -8.711175526903953e-08 6.722946235833695e-08 1.9882292910690027e-08 -2.0432140003799813e-07 0.0 0.0
0.0 0.0 0.0 0.0 0.0 0.0 0.0 0.0
0.0 0.0 0.0 0.0 0.0 0.0 0.0 0.0
0.0 0.002946693320373115 0.0018195121710923782 -0.002170856550405713 0.00035134437931333445 0.0025944779014676375 0.0 0.0
0.0 0.001902532998012933 0.001121226441031875 -0.001376302697165664 0.0002550762561337887 -0.0016886257716323247 0.0 0.0
0.0 5.610935232125803e-07 -8.037160125762508e-09 8.338978319598262e-09 -3.018181938355691e-10 1.1164998698213293e-07 0.0 0.0
0.0 0.0 0.0 0.0 0.0 0.0 0.0 0.0
0.0 1.343535810957597e-06 -6.745450613659108e-08 5.1836617700734505e-08 1.5617888435866596e-08 2.5068220686766373e-07 0.0 0.0
0.0 3.203981909465753e-05 1.4935824446309853e-05 -1.1837143547665613e-05 -3.0986808986442414e-06 -3.861725059002107e-05 0.0 0.0
0.0 0.000345078154411309 0.0002026514375689372 -0.0001640191166270425 -3.863232094189481e-05 -0.00038444102247492195 0.0 0.0
0.0 0.0015983879330944255 0.0011477745531768685 -0.0009604911792305117 -0.00018728337394635704 -0.0015806017006973379 0.0 0.0
0.0 0.004344876434037713 0.003320823084980385 -0.0029155644920576887 -0.00040525859292269437 -0.0036217536636888553 0.0 0.0
0.0 0.008581910746681286 0.006759711976110787 -0.006179981624683007 -0.0005797303514277737 -0.0063714601974918334 0.0 0.0
0.0 0.01398103914645294 0.011229466740581725 -0.010536787545972417 -0.0006926791946093039 -0.009586000071474065 0.0 0.0
0.0 0.020275934513500158 0.016456022383351455 -0.0156840056417076 -0.000772016741643855 -0.012900046583801094 0.0 0.0
0.0 0.027308118040084917 0.022311627613547404 -0.02147123960820057 -0.000840388005346835 -0.01611460235336984 0.0 0.0
0.0 0.03507471954988078 0.02878705191312218 -0.027884448177595077 -0.000902603735527098 -0.019280340987071664 0.0 0.0
0.0 0.04355066372014227 0.03592619749611993 -0.03496457247530295 -0.0009616250208169675 -0.022432981727959066 0.0 0.0
0.0 0.052805232145941405 0.04374189078932156 -0.04272220885050035 -0.0010196819388212245 -0.02544072051262355 0.0 0.0
0.0 0.06266483301225415 0.052157517307419445 -0.0510792090043993 -0.001078308303020169 -0.0279923985989475 0.0 0.0
0.0 0.07284647464622894 0.06101482271615094 -0.05988307728098295 -0.0011317454351679659 -0.02970189533076813 0.0 0.0
0.0 0.0831856631169487 0.07015031237620081 -0.0689647525916536 -0.0011855597845471999 -0.02986411703833079 0.0 0.0
0.0 0.09313343551581743 0.0791698385888334 -0.07791724113344384 -0.0012525974553895334 -0.026682049013155643 0.0 0.0
0.0 0.10145533151013428 0.0870867213762867 -0.08575627458187303 -0.0013304467944136639 -0.0175819046154482 0.0 0.0
0.0 0.10145533151013063 0.08708672137628082 -0.08575627458186769 -0.0013304467944130708 0.0175819046155006 0.0 0.0
0.0 0.09313343551580343 0.07916983858881507 -0.07791724113342607 -0.0012525974553890895 0.026682049013226503 0.0 0.0
0.0 0.08318566311692191 0.07015031237617185 -0.06896475259162499 -0.0011855597845468204 0.029864117038382647 0.0 0.0
0.0 0.07284647464619172 0.06101482271611521 -0.05988307728094768 -0.001131745435167554 0.029701895330790436 0.0 0.0
0.0 0.06266483301220857 0.052157517307380136 -0.0510792090043603 -0.0010783083030198285 0.027992398598937245 0.0 0.0
0.0 0.05280523214589293 0.04374189078928035 -0.042722208850459444 -0.0010196819388208866 0.025440720512607692 0.0 0.0
0.0 0.04355066372009835 0.03592619749608212 -0.03496457247526556 -0.0009616250208165503 0.02243298172794743 0.0 0.0
0.0 0.03507471954983849 0.028787051913085743 -0.027884448177558925 -0.0009026037355268112 0.019280340987060482 0.0 0.0
0.0 0.02730811804004356 0.02231162761351293 -0.02147123960816657 -0.0008403880053463676 0.016114602353349904 0.0 0.0
0.0 0.02027593451345993 0.016456022383318808 -0.015684005641675564 -0.000772016741643228 0.012900046583776265 0.0 0.0
0.0 0.013981039146418777 0.011229466740555177 -0.010536787545946402 -0.0006926791946087713 0.009586000071447474 0.0 0.0
0.0 0.008581910746655201 0.006759711976090288 -0.006179981624663065 -0.0005797303514272228 0.006371460197474845 0.0 0.0
0.0 0.004344876434020029 0.0033208230849667794 -0.0029155644920450864 -0.000405258592921692 0.003621753663676239 0.0 0.0
0.0 0.0015983879330851648 0.0011477745531702067 -0.000960491179224703 -0.00018728337394550312 0.001580601700689718 0.0 0.0
0.0 0.00034507815440740973 0.00020265143756694636 -0.00016401911662542967 -3.863232094151657e-05 0.00038444102247142046 0.0 0.0
0.0 3.203981909340447e-05 1.4935824446275206e-05 -1.1837143547632936e-05 -3.098680898642281e-06 3.8617250589929815e-05 0.0 0.0
0.0 1.343535810551308e-06 -6.74545061154224e-08 5.1836617684484416e-08 1.561788843093987e-08 -2.5068220678900275e-07 0.0 0.0
0.0 0.0 0.0 0.0 0.0 0.0 0.0 0.0
0.0 5.610935225658215e-07 -8.037160116491167e-09 8.3389783100577e-09 -3.018181935663175e-10 -1.1164998685127716e-07 0.0 0.0
0.0 0.0019025329980041908 0.0011212264410268495 -0.0013763026971598832 0.00025507625613303294 0.0016886257716248099 0.0 0.0
0.0 0.0010934254081799363 0.00060248298918321 -0.0007633799597989818 0.00016089697061577162 -0.0009681219266889525 0.0 0.0
0.0 1.1558717421655676e-06 2.2113907008033206e-08 -1.9879888018763226e-08 -2.2340189892713353e-09 -5.638233241038972e-07 0.0 0.0
0.0 6.305102464673167e-07 -7.0898921551877894e-09 5.074535917472657e-09 2.0153562377156586e-09 1.2874703632778445e-07 0.0 0.0
0.0 1.1965683320308329e-06 4.5883292749775514e-08 -3.8596211452316495e-08 -7.2870812974568485e-09 -3.7583389684459656e-07 0.0 0.0
0.0 2.6102494022442924e-05 8.705268743520505e-06 -6.872700619637191e-06 -1.8325681238833297e-06 -3.530039033180695e-05 0.0 0.0
0.0 0.0001848282804168473 7.929110835139627e-05 -6.375114128509459e-05 -1.553996706630168e-05 -0.00024262194372566196 0.0 0.0
0.0 0.0008557750085687657 0.0004953994694590346 -0.0004062658915153618 -8.913357794367258e-05 -0.0010774116004726195 0.0 0.0
0.0 0.0025967627069845693 0.00176316963193626 -0.0015010389257860085 -0.00026213070615025097 -0.0028053415694216694 0.0 0.0
0.0 0.0056096373885554975 0.00406379586526831 -0.0036114758263846667 -0.00045232003888364146 -0.005200670352537058 0.0 0.0
0.0 0.00948639197112699 0.007216875789559742 -0.006626522036688318 -0.0005903537528714218 -0.008027883029510133 0.0 0.0
0.0 0.014190245932864474 0.01094458668839477 -0.010265381984187878 -0.0006792047042068895 -0.011015221830612314 0.0 0.0
0.0 0.01927693762167467 0.015112048834392957 -0.014366577052991937 -0.0007454717814010109 -0.01395778070218085 0.0 0.0
0.0 0.02488228446753643 0.019704340577779388 -0.01890331782153014 -0.0008010227562492555 -0.016853539278311902 0.0 0.0
0.0 0.031065674349500357 0.024782800730107808 -0.02393272158664389 -0.0008500791434639185 -0.019720011247097116 0.0 0.0
0.0 0.037907579876192726 0.0304155988539964 -0.029518995700814923 -0.000896603153181462 -0.022490879205143345 0.0 0.0
0.0 0.04525081470895842 0.03661257326935287 -0.03566819666937249 -0.0009443765999803779 -0.024891048194986123 0.0 0.0
0.0 0.0530822340427834 0.043311164805742056 -0.04232196038923711 -0.0009892044165049493 -0.02652351525090123 0.0 0.0
0.0 0.06124987356246722 0.050563988843091566 -0.049543741847791894 -0.0010202469952996472 -0.02711253103497941 0.0 0.0
0.0 0.06986328257150778 0.058512672675828256 -0.05744919256702185 -0.0010634801088063807 -0.025363172077096215 0.0 0.0
0.0 0.07823848824309117 0.06663279950158922 -0.06548536301239537 -0.001147436489193884 -0.0181168178450101 0.0 0.0
0.0 0.07823848824308846 0.066632799501584 -0.06548536301238989 -0.0011474364891941404 0.018116817845055345 0.0 0.0
0.0 0.0698632825715015 0.05851267267581603 -0.05744919256700998 -0.0010634801088060548 0.025363172077160663 0.0 0.0
0.0 0.06124987356245059 0.0505639888430708 -0.049543741847771536 -0.001020246995299239 0.02711253103502656 0.0 0.0
0.0 0.053082234042760676 0.04331116480571927 -0.042321960389215166 -0.0009892044165041266 0.026523515250917555 0.0 0.0
0.0 0.04525081470892897 0.03661257326932777 -0.035668196669348506 -0.0009443765999792592 0.02489104819497602 0.0 0.0
0.0 0.037907579876156075 0.0304155988539662 -0.029518995700784978 -0.0008966031531812349 0.022490879205126883 0.0 0.0
0.0 0.03106567434946715 0.02478280073008014 -0.023932721586616378 -0.000850079143463773 0.01972001124708487 0.0 0.0
0.0 0.024882284467509726 0.019704340577756458 -0.018903317821507684 -0.0008010227562487705 0.01685353927830381 0.0 0.0
0.0 0.019276937621647054 0.01511204883437058 -0.014366577052970234 -0.0007454717814003455 0.01395778070216486 0.0 0.0
0.0 0.01419024593283743 0.010944586688373701 -0.010265381984167318 -0.0006792047042063726 0.011015221830592767 0.0 0.0
0.0 0.009486391971101807 0.007216875789541633 -0.00662652203667077 -0.0005903537528708583 0.008027883029486971 0.0 0.0
0.0 0.005609637388538365 0.004063795865255521 -0.0036114758263726845 -0.00045232003888283557 0.0052006703525234906 0.0 0.0
0.0 0.002596762706972997 0.0017631696319279763 -0.0015010389257786405 -0.00026213070614933493 0.0028053415694110242 0.0 0.0
0.0 0.0008557750085631715 0.000495399469455941 -0.0004062658915127198 -8.91335779432212e-05 0.0010774116004668042 0.0 0.0
0.0 0.0001848282804151345 7.929110835109548e-05 -6.375114128483409e-05 -1.5539967066261405e-05 0.00024262194372451118 0.0 0.0
0.0 2.6102494021974897e-05 8.705268743642122e-06 -6.872700619731648e-06 -1.8325681239104636e-06 3.530039033231975e-05 0.0 0.0
0.0 1.1965683317555393e-06 4.5883292824727355e-08 -3.859621151098699e-08 -7.287081313743333e-09 3.7583389738050763e-07 0.0 0.0
0.0 6.305102458760242e-07 -7.089892147158693e-09 5.074535912009278e-09 2.015356235150372e-09 -1.2874703620679312e-07 0.0 0.0
0.0 1.1558717416376186e-06 2.2113907049428196e-08 -1.9879888067032124e-08 -2.2340189823961157e-09 5.638233251160705e-07 0.0 0.0
0.0 0.0010934254081737815 0.0006024829891801624 -0.0007633799597953515 0.0001608969706151893 0.0009681219266840473 0.0 0.0
0.0 0.00047976437666712694 0.000260125893018062 -0.00034344107946213543 8.331518644407349e-05 -0.00045045270269031913 0.0 0.0
0.0 2.4566523223743053e-06 2.478667558115091e-09 -1.8167492823845934e-09 -6.619182757302826e-10 -2.293006402563177e-07 0.0 0.0
0.0 9.979449338441844e-07 -2.6759407131637196e-10 -2.5649350958711035e-10 5.240875809031348e-10 -1.5362949336833063e-07 0.0 0.0
0.0 2.747240765333606e-06 1.4359433695197587e-07 -1.0097936515173034e-07 -4.2614971800242293e-08 -2.036566561149555e-06 0.0 0.0
0.0 2.7674921586718112e-05 5.333843379049706e-06 -4.142422957744727e-06 -1.1914204213049842e-06 -4.079148269228783e-05 0.0 0.0
0.0 0.00013844999646995867 3.480616110091752e-05 -2.7942290312736278e-05 -6.863870788181248e-06 -0.0001957379419117052 0.0 0.0
0.0 0.00044701787244160563 0.00015818541168301082 -0.00012801590188833264 -3.0169509794678103e-05 -0.0006558545869083788 0.0 0.0
0.0 0.0012576110049860511 0.0006202243717969498 -0.0005106132878979067 -0.00010961108389904295 -0.001780765543297906 0.0 0.0
0.0 0.002941749050307488 0.0017404704499756744 -0.0014811724712985692 -0.0002592979786771048 -0.003585907954744127 0.0 0.0
0.0 0.0053420647706481725 0.003504656404371746 -0.0030919503006142887 -0.00041270610375745623 -0.005778688845612036 0.0 0.0
0.0 0.008222741636075014 0.005697054152763116 -0.005170407351220008 -0.0005266468015431079 -0.00815903694481235 0.0 0.0
0.0 0.011510137939397983 0.008157140453232297 -0.007553923655433071 -0.0006032167977992231 -0.01058474125585985 0.0 0.0
0.0 0.01506420528020071 0.010873205909664785 -0.010212491003294598 -0.0006607149063701875 -0.013037493324239115 0.0 0.0
0.0 0.018986437680596976 0.013899984429960531 -0.013195068926895691 -0.0007049155030648289 -0.015468183800814857 0.0 0.0
0.0 0.023351645668418016 0.017330951250900804 -0.016589713672710137 -0.0007412375781906609 -0.017845642741255757 0.0 0.0
0.0 0.028216379184209293 0.02127096382322914 -0.020494760483300255 -0.0007762033399288892 -0.020016946699567884 0.0 0.0
0.0 0.033598929669199404 0.02578236367414004 -0.024966904678013015 -0.0008154589961270436 -0.021579018219115925 0.0 0.0
0.0 0.03956071960152385 0.030990787079207684 -0.030148744142091243 -0.0008420429371164483 -0.022263064925343547 0.0 0.0
0.0 0.04668963900221663 0.03742399914642746 -0.03658421854507074 -0.0008397806013567198 -0.02195520516360347 0.0 0.0
0.0 0.0549783688931377 0.04553488021610564 -0.04461659208487873 -0.0009182881312269195 -0.0179296797991656 0.0 0.0
0.0 0.05497836889313932 0.04553488021610344 -0.0446165920848763 -0.0009182881312271428 0.01792967979920554 0.0 0.0
0.0 0.04668963900221612 0.037423999146420014 -0.0365842185450633 -0.0008397806013566798 0.021955205163660146 0.0 0.0
0.0 0.03956071960151578 0.030990787079194174 -0.030148744142078084 -0.0008420429371160877 0.022263064925383873 0.0 0.0
0.0 0.03359892966918315 0.02578236367412402 -0.02496690467799701 -0.0008154589961269982 0.021579018219125112 0.0 0.0
0.0 0.028216379184188834 0.021270963823214018 -0.02049476048328471 -0.0007762033399293074 0.02001694669955481 0.0 0.0
0.0 0.023351645668398077 0.017330951250885816 -0.016589713672695256 -0.0007412375781905548 0.017845642741243076 0.0 0.0
0.0 0.018986437680578006 0.013899984429945325 -0.013195068926880629 -0.0007049155030646961 0.015468183800806834 0.0 0.0
0.0 0.015064205280183998 0.010873205909651103 -0.010212491003281091 -0.0006607149063700163 0.013037493324232555 0.0 0.0
0.0 0.011510137939378457 0.00815714045321835 -0.007553923655419487 -0.0006032167977988616 0.010584741255843987 0.0 0.0
0.0 0.008222741636057046 0.005697054152750903 -0.005170407351208195 -0.0005266468015427063 0.00815903694479566 0.0 0.0
0.0 0.005342064770631381 0.0035046564043613405 -0.0030919503006044883 -0.00041270610375684945 0.005778688845593833 0.0 0.0
0.0 0.002941749050297619 0.001740470449969223 -0.0014811724712927628 -0.00025929797867645956 0.0035859079547338104 0.0 0.0
0.0 0.0012576110049796467 0.0006202243717933233 -0.0005106132878948764 -0.00010961108389844692 0.0017807655432905021 0.0 0.0
0.0 0.0004470178724381279 0.00015818541168184186 -0.00012801590188736922 -3.0169509794472545e-05 0.0006558545869041416 0.0 0.0
0.0 0.00013844999646820246 3.480616110081279e-05 -2.7942290312643162e-05 -6.863870788169611e-06 0.00019573794191073027 0.0 0.0
0.0 2.7674921586216418e-05 5.333843379068864e-06 -4.14242295775786e-06 -1.1914204213110057e-06 4.079148269242005e-05 0.0 0.0
0.0 2.7472407652597546e-06 1.4359433700703462e-07 -1.0097936519018355e-07 -4.2614971816848414e-08 2.0365665619729214e-06 0.0 0.0
0.0 9.97944933596517e-07 -2.6759407080529304e-10 -2.564935085496867e-10 5.240875793554451e-10 1.5362949381002104e-07 0.0 0.0
0.0 2.4566523218299905e-06 2.47866756376512e-09 -1.8167492953464673e-09 -6.61918268418973e-10 2.2930064068234525e-07 0.0 0.0
0.0 0.0004797643766628447 0.0002601258930162138 -0.00034344107945984283 8.331518644362883e-05 0.0004504527026870612 0.0 0.0
0.0 0.0001392569995360662 7.167736986740917e-05 -9.930335930872307e-05 2.7625989441313896e-05 -0.00013178448013261511 0.0 0.0
0.0 2.986133381236529e-06 1.477595150972743e-10 7.274156814969563e-10 -8.751751965929828e-10 -6.299701761236826e-07 0.0 0.0
0.0 3.8001995233698744e-06 -1.2050818042311294e-07 1.143401971635023e-07 6.167983259611316e-09 -3.410912430796947e-06 0.0 0.0
0.0 6.224166462653074e-06 -1.0067910718430857e-07 1.366907472230744e-07 -3.601164003876519e-08 -8.768998738348637e-06 0.0 0.0
0.0 3.2928720611951255e-05 1.2341985223917927e-06 -8.354931738627198e-07 -3.9870534852907966e-07 -4.626423296347004e-05 0.0 0.0
0.0 0.00013176154522996137 1.0492235841691342e-05 -8.30101489394521e-06 -2.1912209477461193e-06 -0.00020057113352215378 0.0 0.0
0.0 0.0003247802723017828 3.775312015810195e-05 -3.0490309686485126e-05 -7.262810471616823e-06 -0.0005242524587679507 0.0 0.0
0.0 0.0006753484807050975 0.00010272395669371427 -8.342132916925694e-05 -1.9302627524457194e-05 -0.0010565992543037754 0.0 0.0
0.0 0.0012265174377503315 0.00026673180648084796 -0.00021717457537932352 -4.955723110152424e-05 -0.00198036942062329 0.0 0.0
0.0 0.0021731997925694357 0.0006139381203709129 -0.0004999567020502452 -0.00011398141832066753 -0.0033167306003356245 0.0 0.0
0.0 0.0033164886225859913 0.001155629631849664 -0.0009498781838602129 -0.00020575144798945036 -0.004988460272225829 0.0 0.0
0.0 0.004803991775588226 0.0018512815949924487 -0.001559263673703564 -0.00029201792128888415 -0.006856871648876611 0.0 0.0
0.0 0.006506917842235114 0.002676731046357515 -0.002313022374517561 -0.00036370867183995126 -0.008871807763562998 0.0 0.0
0.0 0.00845340495554153 0.0036447447291037957 -0.003225603755134472 -0.00041914097396932525 -0.011013557255126078 0.0 0.0
0.0 0.01065427014865517 0.004848971217696867 -0.0043882668886438166 -0.0004607043290530481 -0.013259339041863737 0.0 0.0
0.0 0.013240733569495174 0.006466762837776618 -0.005972874892589611 -0.000493887945187005 -0.015461932279143933 0.0 0.0
0.0 0.016245811542065655 0.008746774294315522 -0.008217563777703331 -0.0005292105166121879 -0.017212775853245033 0.0 0.0
0.0 0.019745236318060133 0.011902275673567837 -0.011326062430940092 -0.0005762132426277423 -0.017883489538854606 0.0 0.0
0.0 0.02448848154263139 0.016355258403940413 -0.01577849763605469 -0.000576760767885718 -0.017711100917143882 0.0 0.0
0.0 0.03186644584140866 0.02357702609235914 -0.023018825371112526 -0.0005582007212466123 -0.01695902468522116 0.0 0.0
0.0 0.031866445841412766 0.023577026092359326 -0.02301882537111272 -0.0005582007212466054 0.016959024685251504 0.0 0.0
0.0 0.024488481542634687 0.0163552584039368 -0.015778497636051145 -0.0005767607678856641 0.01771110091718598 0.0 0.0
0.0 0.019745236318056702 0.011902275673560891 -0.011326062430933186 -0.0005762132426277047 0.017883489538877903 0.0 0.0
0.0 0.01624581154205593 0.00874677429430818 -0.008217563777696323 -0.0005292105166118514 0.017212775853245203 0.0 0.0
0.0 0.013240733569485456 0.006466762837773285 -0.005972874892586971 -0.0004938879451863133 0.015461932279129776 0.0 0.0
0.0 0.010654270148646349 0.004848971217693281 -0.004388266888640436 -0.00046070432905284317 0.013259339041852962 0.0 0.0
0.0 0.008453404955533905 0.0036447447291007577 -0.003225603755131458 -0.0004191409739693015 0.011013557255117944 0.0 0.0
0.0 0.006506917842229537 0.002676731046356292 -0.002313022374516524 -0.00036370867183976695 0.00887180776355536 0.0 0.0
0.0 0.0048039917755803565 0.0018512815949903703 -0.0015592636737017987 -0.00029201792128857147 0.006856871648865548 0.0 0.0
0.0 0.003316488622578319 0.0011556296318474513 -0.0009498781838584499 -0.00020575144798900085 0.004988460272214874 0.0 0.0
0.0 0.002173199792562043 0.0006139381203692773 -0.0004999567020489443 -0.00011398141832033324 0.0033167306003249967 0.0 0.0
0.0 0.0012265174377473118 0.000266731806479984 -0.00021717457537866346 -4.955723110132037e-05 0.0019803694206184273 0.0 0.0
0.0 0.0006753484807026128 0.00010272395669328015 -8.342132916890707e-05 -1.930262752437298e-05 0.0010565992542996515 0.0 0.0
0.0 0.0003247802723001913 3.775312015805702e-05 -3.0490309686431794e-05 -7.26281047162522e-06 0.0005242524587668208 0.0 0.0
0.0 0.00013176154522880702 1.049223584171617e-05 -8.301014893960277e-06 -2.1912209477558907e-06 0.0002005711335219441 0.0 0.0
0.0 3.2928720611444045e-05 1.2341985223959709e-06 -8.354931738671643e-07 -3.987053485288102e-07 4.626423296356885e-05 0.0 0.0
0.0 6.224166462452224e-06 -1.0067910719571399e-07 1.3669074723627923e-07 -3.601164004056532e-08 8.768998739008547e-06 0.0 0.0
0.0 3.800199522668647e-06 -1.2050818045343042e-07 1.1434019719033621e-07 6.1679832630935675e-09 3.4109124315276724e-06 0.0 0.0
0.0 2.9861333809410583e-06 1.4775951130889628e-10 7.27415670937035e-10 -8.751751822433948e-10 6.29970176924195e-07 0.0 0.0
0.0 0.0001392569995344494 7.167736986699358e-05 -9.930335930815957e-05 2.7625989441165932e-05 0.00013178448013199365 0.0 0.0
0.0 1.5404128465723462e-05 6.703948820774666e-06 -9.691170612040105e-06 2.9872217912654257e-06 -1.3574243205781198e-05 0.0 0.0
0.0 2.6731482476482327e-06 -4.253085673435386e-08 2.350152916156499e-08 1.9029327572793748e-08 -9.260751533845742e-07 0.0 0.0
0.0 5.916655243794863e-06 -5.712183993962802e-07 4.863879193649591e-07 8.483048003132197e-08 -6.925605225719817e-06 0.0 0.0
0.0 1.1167452008903468e-05 -1.2895376387461018e-06 1.1355904322907252e-06 1.539472064553783e-07 -1.5580760246787463e-05 0.0 0.0
0.0 4.091579695863235e-05 -3.886982809140986e-06 3.3544920849858793e-06 5.324907241551141e-07 -5.593420796100853e-05 0.0 0.0
0.0 0.0001402768327455499 -1.3705994656543607e-05 1.1297465656975961e-05 2.4085289995676363e-06 -0.0002064463137110646 0.0 0.0
0.0 0.00032963543046984163 -4.0225472532279515e-05 3.2657344208152916e-05 7.568128324126567e-06 -0.0005323898998786495 0.0 0.0
0.0 0.0006776388092586214 -0.0001036663221380962 8.418768729028301e-05 1.9478634847813132e-05 -0.0010614282916163577 0.0 0.0
0.0 0.0012260134223586086 -0.0002667320112374288 0.0002171818807187459 4.9550130518682794e-05 -0.001981865035545545 0.0 0.0
0.0 0.0021720209039062985 -0.000613341506682077 0.0004994678302414204 0.0001138736764406566 -0.003315921244922045 0.0 0.0
0.0 0.0033306016192282658 -0.0011596913351208282 0.0009547332287287901 0.00020495810639203753 -0.004991943074365544 0.0 0.0
0.0 0.004831132072907946 -0.0018834788699812121 0.001591340244673389 0.00029213862530782234 -0.006872929085595441 0.0 0.0
0.0 0.006564963374049651 -0.0027483902017847515 0.002382000751472718 0.00036638945031203024 -0.00888849998155274 0.0 0.0
0.0 0.008489444254456047 -0.0036991602758089303 0.0032699030928695586 0.0004292571829393681 -0.011011784538211682 0.0 0.0
0.0 0.010447757138878409 -0.004610051765828252 0.004126282432290542 0.0004837693335377091 -0.013235216777538476 0.0 0.0
0.0 0.01228869017854536 -0.005230178003256078 0.004698800211079484 0.000531377792176588 -0.015514948777987883 0.0 0.0
0.0 0.013677016541752542 -0.005189645690265705 0.004617848846569104 0.000571796843696602 -0.017835991716452327 0.0 0.0
0.0 0.014489508498235425 -0.0042135680171512925 0.0036179253936442493 0.0005956426235070406 -0.020276645385012317 0.0 0.0
0.0 0.01472239974239676 -0.0023271726163400066 0.0017599928432652007 0.0005671797730748036 -0.022462262320654274 0.0 0.0
0.0 0.01454561478786566 0.003321916451081971 -0.0033811484191672704 5.9231968085297584e-05 -0.02149228471522223 0.0 0.0
0.0 0.014545614787871279 0.003321916451082475 -0.003381148419167894 5.923196808542224e-05 0.021492284715235878 0.0 0.0
0.0 0.014722399742399644 -0.002327172616340462 0.001759992843265279 0.0005671797730751811 0.02246226232066715 0.0 0.0
0.0 0.014489508498230271 -0.0042135680171488015 0.003617925393641791 0.0005956426235070075 0.020276645385013628 0.0 0.0
0.0 0.01367701654174002 -0.00518964569025956 0.004617848846563118 0.0005717968436964409 0.01783599171644143 0.0 0.0
0.0 0.012288690178531087 -0.00523017800324842 0.004698800211072248 0.0005313777921761701 0.015514948777971337 0.0 0.0
0.0 0.010447757138865112 -0.004610051765820779 0.004126282432283581 0.0004837693335371962 0.01323521677752601 0.0 0.0
0.0 0.008489444254443758 -0.0036991602758014172 0.00326990309286246 0.00042925718293895614 0.011011784538201605 0.0 0.0
0.0 0.006564963374035358 -0.0027483902017755375 0.0023820007514639384 0.00036638945031159867 0.008888499981541672 0.0 0.0
0.0 0.004831132072891709 -0.0018834788699723895 0.0015913402446652229 0.0002921386253071665 0.006872929085579486 0.0 0.0
0.0 0.0033306016192156673 -0.001159691335114389 0.0009547332287232632 0.00020495810639112574 0.004991943074351303 0.0 0.0
0.0 0.0021720209038965333 -0.0006133415066790081 0.0004994678302387412 0.0001138736764402665 0.0033159212449106225 0.0 0.0
0.0 0.0012260134223554566 -0.0002667320112362397 0.00021718188071777073 4.955013051846898e-05 0.001981865035541319 0.0 0.0
0.0 0.0006776388092560059 -0.00010366632213744762 8.418768728974397e-05 1.9478634847703716e-05 0.001061428291612627 0.0 0.0
0.0 0.0003296354304678273 -4.022547253213343e-05 3.265734420807343e-05 7.568128324059992e-06 0.0005323898998766375 0.0 0.0
0.0 0.00014027683274363506 -1.3705994656482068e-05 1.1297465656932637e-05 2.4085289995494484e-06 0.0002064463137096924 0.0 0.0
0.0 4.09157969573317e-05 -3.886982809143762e-06 3.3544920849888363e-06 5.324907241549183e-07 5.59342079610913e-05 0.0 0.0
0.0 1.1167452008549315e-05 -1.2895376387878288e-06 1.1355904323269503e-06 1.539472064608775e-07 1.5580760247241107e-05 0.0 0.0
0.0 5.916655243377575e-06 -5.712183994872295e-07 4.863879194415037e-07 8.483048004572646e-08 6.925605226759437e-06 0.0 0.0
0.0 2.6731482471962127e-06 -4.2530856754626225e-08 2.35015291633209e-08 1.902932759131022e-08 9.260751541274373e-07 0.0 0.0
0.0 1.5404128465203475e-05 6.703948820966662e-06 -9.69117061229561e-06 2.9872217913289464e-06 1.3574243206363805e-05 0.0 0.0
0.0 5.791226492451869e-07 -3.285152939261594e-08 4.863961923435166e-08 -1.578808984173702e-08 8.324711323925464e-08 0.0 0.0
0.0 1.824329589468017e-06 -8.576499344231906e-08 4.8499744803341666e-08 3.726524863897586e-08 -1.6309510895907535e-06 0.0 0.0
0.0 7.099039282803979e-06 -1.0661592926166304e-06 8.847889634658845e-07 1.813703291507417e-07 -8.357364605069731e-06 0.0 0.0
0.0 1.5697356143061062e-05 -2.548615148347994e-06 2.171550869601934e-06 3.770642787460729e-07 -1.7021816145354758e-05 0.0 0.0
0.0 4.797290326834793e-05 -1.116636049638807e-05 9.295609818241677e-06 1.870750678146392e-06 -6.716451912389926e-05 0.0 0.0
0.0 0.00015530769362704337 -4.231737939164428e-05 3.4371646841907294e-05 7.945732549736973e-06 -0.00022234173696650164 0.0 0.0
0.0 0.0004661654491132873 -0.00016531270611512688 0.00013402729093276065 3.128541518236627e-05 -0.0006752422946345614 0.0 0.0
0.0 0.001266642089484979 -0.0006246393562836012 0.0005143754505865885 0.00011026390569701265 -0.001792283879298372 0.0 0.0
0.0 0.0029404815847281825 -0.0017398666524827155 0.0014806945692356775 0.00025917208324703763 -0.0035875763859760145 0.0 0.0
0.0 0.005341356733794125 -0.0035045655795421966 0.0030922453820619047 0.00041232019748029105 -0.005778931448249182 0.0 0.0
0.0 0.008233923377110907 -0.005707500056716854 0.005181775415554868 0.0005257246411619863 -0.008162803776768564 0.0 0.0
0.0 0.011545708214926016 -0.008195126362974684 0.007593086934386595 0.0006020394285880862 -0.010581702121386283 0.0 0.0
0.0 0.01512610873760337 -0.010947117551430834 0.010285427155551058 0.0006616903958797743 -0.013002698658534375 0.0 0.0
0.0 0.019006785077960168 -0.01394002061002448 0.01322582230157453 0.000714198308449954 -0.01540521244205569 0.0 0.0
0.0 0.02306094193042116 -0.0170398506667868 0.016274356097498423 0.0007654945692883715 -0.017860863298751795 0.0 0.0
0.0 0.02697430213820377 -0.019938842945127783 0.019123684887173528 0.000815158057954258 -0.02044030701182016 0.0 0.0
0.0 0.030321266646212923 -0.022169322843120905 0.02131285781836717 0.0008564650247537453 -0.023225441309128167 0.0 0.0
0.0 0.03246888483645026 -0.023180376998699095 0.022297240596720377 0.0008831364019787284 -0.026122303160628444 0.0 0.0
0.0 0.031744539353272885 -0.021870270338663168 0.020893064950992166 0.000977205387670983 -0.02737317503043896 0.0 0.0
0.0 0.02540717529065447 -0.015258174334952787 0.014172819544560391 0.001085354790392386 -0.02494262993172649 0.0 0.0
0.0 0.025407175290665295 -0.015258174334954301 0.014172819544561456 0.0010853547903928438 0.024942629931760257 0.0 0.0
0.0 0.03174453935328163 -0.02187027033866141 0.020893064950990116 0.0009772053876712793 0.027373175030483615 0.0 0.0
0.0 0.03246888483644489 -0.023180376998688197 0.022297240596709615 0.000883136401978569 0.026122303160656613 0.0 0.0
0.0 0.030321266646190954 -0.0221693228431018 0.02131285781834845 0.0008564650247533575 0.023225441309124968 0.0 0.0
0.0 0.02697430213817737 -0.019938842945106932 0.019123684887152666 0.0008151580579542722 0.0204403070118042 0.0 0.0
0.0 0.02306094193039558 -0.017039850666767012 0.01627435609747884 0.0007654945692881718 0.01786086329873551 0.0 0.0
0.0 0.019006785077937863 -0.013940020610007126 0.013225822301557458 0.0007141983084496669 0.015405212442041936 0.0 0.0
0.0 0.015126108737578615 -0.010947117551410415 0.010285427155531188 0.0006616903958792191 0.01300269865852192 0.0 0.0
0.0 0.01154570821490054 -0.008195126362955264 0.0075930869343678155 0.0006020394285874444 0.010581702121368546 0.0 0.0
0.0 0.008233923377086689 -0.005707500056699883 0.0051817754155385285 0.0005257246411613532 0.0081628037767471 0.0 0.0
0.0 0.005341356733774347 -0.0035045655795287556 0.0030922453820494277 0.00041232019747932877 0.005778931448230139 0.0 0.0
0.0 0.0029404815847178054 -0.0017398666524753993 0.001480694569229142 0.0002591720832462581 0.003587576385966169 0.0 0.0
0.0 0.0012666420894792425 -0.0006246393562801513 0.0005143754505837478 0.00011026390569640359 0.0017922838792917854 0.0 0.0
0.0 0.0004661654491101662 -0.00016531270611417156 0.00013402729093201784 3.1285415182153695e-05 0.0006752422946312657 0.0 0.0
0.0 0.00015530769362541026 -4.23173793915457e-05 3.43716468418222e-05 7.945732549723505e-06 0.00022234173696581103 0.0 0.0
0.0 4.7972903267207715e-05 -1.1166360496344716e-05 9.29560981820798e-06 1.8707506781367217e-06 6.716451912364458e-05 0.0 0.0
0.0 1.569735614243078e-05 -2.548615148432988e-06 2.171550869673973e-06 3.7706427875901667e-07 1.7021816145898102e-05 0.0 0.0
0.0 7.0990392821503535e-06 -1.0661592927071334e-06 8.847889635396471e-07 1.813703291674858e-07 8.35736460575768e-06 0.0 0.0
0.0 1.8243295892140058e-06 -8.576499347742033e-08 4.84997448081967e-08 3.7265248669223986e-08 1.630951090408615e-06 0.0 0.0
0.0 5.791226488939735e-07 -3.285152937202806e-08 4.863961920387383e-08 -1.57880898318369e-08 -8.324711318699175e-08 0.0 0.0
0.0 0.0 0.0 0.0 0.0 0.0 0.0 0.0
0.0 1.546319917433396e-06 2.096489414379388e-08 -7.102539574969584e-09 -1.3862354568826943e-08 3.138160816275471e-07 0.0 0.0
0.0 6.3967104287423314e-06 -8.319133027928433e-07 6.833197700854465e-07 1.485935327073924e-07 -4.7657709786544496e-06 0.0 0.0
0.0 1.8305806770183416e-05 -3.7180087864360853e-06 3.079454840773486e-06 6.385539456626089e-07 -1.622182470901452e-05 0.0 0.0
0.0 5.7124669590522335e-05 -1.977068294063652e-05 1.6188971560168798e-05 3.581711380467737e-06 -7.24499858328163e-05 0.0 0.0
0.0 0.00022418684073640955 -9.934338481959489e-05 8.052616329707597e-05 1.8817221522518854e-05 -0.0002934027257684882 0.0 0.0
0.0 0.0008861975093638469 -0.0005103644622179405 0.0004192766360190966 9.108782619884383e-05 -0.0011076148426898969 0.0 0.0
0.0 0.0026019636261436843 -0.0017646333481883033 0.0015026174125984141 0.00026201593558988924 -0.0028142663497478337 0.0 0.0
0.0 0.005605091161164347 -0.0040611711943896595 0.0036090923380345304 0.00045207885635512854 -0.005198526174503145 0.0 0.0
0.0 0.009487761393540935 -0.007218771956764127 0.006628713956827743 0.0005900579999363805 -0.008028313504248267 0.0 0.0
0.0 0.014202252133528513 -0.010956247347341812 0.010277866956965743 0.000678380390376079 -0.011015033006019125 0.0 0.0
0.0 0.01929963122934615 -0.015141332125505218 0.014397145548402419 0.0007441865771028017 -0.013925340513957853 0.0 0.0
0.0 0.024904172776701216 -0.01975373864573266 0.018952385745808917 0.0008013528999237464 -0.01673267972061124 0.0 0.0
0.0 0.03102777628096939 -0.024792190078081946 0.023934675420648546 0.0008575146574333822 -0.019523218043048653 0.0 0.0
0.0 0.037603344680145194 -0.03013072496415997 0.029213471104717934 0.0009172538594420078 -0.022506212622705673 0.0 0.0
0.0 0.04419448911259288 -0.03542060968028527 0.034442086671488986 0.000978523008796269 -0.025966179738194328 0.0 0.0
0.0 0.05027961066316628 -0.04006762941467752 0.03903118409445973 0.0010364453202177887 -0.030067426505681696 0.0 0.0
0.0 0.054392115999432736 -0.04309752770773352 0.041987818981698205 0.0011097087260353074 -0.034060141806752854 0.0 0.0
0.0 0.05453065411218401 -0.042659424044964624 0.04145571126998291 0.0012037127749816962 -0.03602117258771187 0.0 0.0
0.0 0.04548824005574777 -0.03492537723939785 0.033489709032721415 0.001435668206676431 -0.03203600185254956 0.0 0.0
0.0 0.045488240055757724 -0.034925377239397475 0.03348970903272119 0.0014356682066762735 0.03203600185259542 0.0 0.0
0.0 0.05453065411219141 -0.04265942404496019 0.04145571126997937 0.0012037127749808248 0.03602117258776963 0.0 0.0
0.0 0.054392115999421155 -0.04309752770771565 0.041987818981681184 0.0011097087260344219 0.03406014180679185 0.0 0.0
0.0 0.05027961066313601 -0.04006762941464925 0.03903118409443221 0.001036445320217085 0.03006742650568583 0.0 0.0
0.0 0.04419448911255501 -0.035420609680253345 0.03444208667145767 0.0009785230087956702 0.025966179738179145 0.0 0.0
0.0 0.03760334468010601 -0.03013072496412751 0.029213471104685897 0.0009172538594416106 0.022506212622687764 0.0 0.0
0.0 0.031027776280931688 -0.024792190078050745 0.02393467542061798 0.0008575146574327572 0.019523218043030567 0.0 0.0
0.0 0.024904172776663732 -0.01975373864570096 0.018952385745777664 0.0008013528999232908 0.01673267972059613 0.0 0.0
0.0 0.019299631229309794 -0.015141332125475557 0.014397145548373357 0.0007441865771022004 0.013925340513937456 0.0 0.0
0.0 0.014202252133490563 -0.01095624734731191 0.010277866956936443 0.0006783803903754667 0.011015033005992901 0.0 0.0
0.0 0.009487761393506936 -0.007218771956738537 0.006628713956802488 0.0005900579999360496 0.008028313504221582 0.0 0.0
0.0 0.005605091161143183 -0.004061171194373301 0.00360909233801888 0.00045207885635441996 0.005198526174487442 0.0 0.0
0.0 0.0026019636261313977 -0.0017646333481792819 0.001502617412590463 0.0002620159355888192 0.002814266349737413 0.0 0.0
0.0 0.0008861975093579597 -0.0005103644622147295 0.00041927663601649186 9.108782619823747e-05 0.0011076148426842729 0.0 0.0
0.0 0.0002241868407339844 -9.934338481898907e-05 8.052616329659632e-05 1.8817221522392704e-05 0.00029340272576674304 0.0 0.0
0.0 5.712466958934354e-05 -1.9770682940626382e-05 1.618897156015968e-05 3.5817113804666645e-06 7.24499858327813e-05 0.0 0.0
0.0 1.8305806769559133e-05 -3.718008786588368e-06 3.079454840900072e-06 6.385539456882838e-07 1.6221824709684143e-05 0.0 0.0
0.0 6.396710428300924e-06 -8.319133029293446e-07 6.833197701964617e-07 1.4859353273288936e-07 4.765770979443138e-06 0.0 0.0
0.0 1.5463199168796422e-06 2.0964894136532813e-08 -7.10253957316928e-09 -1.3862354563367244e-08 -3.138160815128601e-07 0.0 0.0
0.0 0.0 0.0 0.0 0.0 0.0 0.0 0.0
0.0 0.0 0.0 0.0 0.0 0.0 0.0 0.0
0.0 3.8538157917848767e-07 8.524370000021943e-09 -5.889213621647465e-09 -2.6351563783748637e-09 7.625979648851619e-08 0.0 0.0
0.0 3.728055738869807e-06 -5.013146884468712e-07 4.083038564323e-07 9.301083201456625e-08 -2.1997326634572956e-06 0.0 0.0
0.0 1.7719245311416696e-05 -5.551113310901052e-06 4.572039589314162e-06 9.790737215868839e-07 -1.8070801704596008e-05 0.0 0.0
0.0 7.45388484458185e-05 -3.348592907897674e-05 2.7264835349494806e-05 6.221093729481957e-06 -8.435381744970649e-05 0.0 0.0
0.0 0.0003961263915220704 -0.00024046330325360528 0.0001956693220020841 4.479398125152112e-05 -0.00045467122918937844 0.0 0.0
0.0 0.0016295348801899697 -0.0011586291998993761 0.0009711749592500941 0.00018745424064928212 -0.0016069750699257502 0.0 0.0
0.0 0.004341673923820602 -0.0033161467140338224 0.002911501431218089 0.00040464528281573266 -0.0036225109452935928 0.0 0.0
0.0 0.00857750253133086 -0.006757369664017146 0.0061776870149799976 0.0005796826490371489 -0.006366835341654402 0.0 0.0
0.0 0.013983605614990069 -0.01123418695085458 0.010541699681740839 0.0006924872691137368 -0.009587379768440851 0.0 0.0
0.0 0.02028598976097614 -0.016466146033311726 0.015694614729967388 0.0007715313033443379 -0.01289570875734952 0.0 0.0
0.0 0.02730707690034815 -0.02232216729192275 0.021482567192994524 0.0008396000989282174 -0.016055481070936396 0.0 0.0
0.0 0.03503728961331258 -0.028789660145671123 0.02788730514557581 0.0009023550000952922 -0.01907954353143276 0.0 0.0
0.0 0.043442124911202834 -0.03588529213555109 0.03491983430541069 0.0009654578301404211 -0.02209718735033739 0.0 0.0
0.0 0.05253747129962445 -0.043503114091784555 0.04247001988354562 0.0010330942082388693 -0.025413113969811964 0.0 0.0
0.0 0.0619259163680346 -0.051261512228472014 0.050153831653165386 0.001107680575306596 -0.0294821430855228 0.0 0.0
0.0 0.07061371142645867 -0.05833231223487744 0.05714054864419166 0.001191763590685761 -0.03442966581501315 0.0 0.0
0.0 0.07685563712912423 -0.06320378531344874 0.06191356339161483 0.0012902219218338467 -0.03930919193312397 0.0 0.0
0.0 0.0772928031064373 -0.06324930099974876 0.061816262687364336 0.0014330383123843972 -0.041547398343071786 0.0 0.0
0.0 0.06618915795669335 -0.05373179552777023 0.052078099185978576 0.0016536963417916625 -0.037802274665377056 0.0 0.0
0.0 0.06618915795669644 -0.053731795527765414 0.052078099185973545 0.0016536963417918345 0.03780227466542378 0.0 0.0
0.0 0.077292803106429 -0.06324930099973229 0.06181626268734743 0.0014330383123848513 0.04154739834313234 0.0 0.0
0.0 0.07685563712909627 -0.06320378531341772 0.06191356339158352 0.001290221921834186 0.03930919193316658 0.0 0.0
0.0 0.07061371142641891 -0.05833231223484028 0.057140548644155194 0.0011917635906850631 0.03442966581502281 0.0 0.0
0.0 0.061925916367986285 -0.051261512228430305 0.05015383165312419 0.0011076805753061016 0.029482143085510417 0.0 0.0
0.0 0.05253747129957359 -0.043503114091741485 0.042470019883502914 0.001033094208238534 0.025413113969794 0.0 0.0
0.0 0.043442124911149974 -0.0358852921355068 0.03491983430536634 0.0009654578301404711 0.022097187350316752 0.0 0.0
0.0 0.035037289613259276 -0.028789660145625732 0.02788730514553069 0.0009023550000950523 0.01907954353141512 0.0 0.0
0.0 0.02730707690029567 -0.022322167291878803 0.021482567192950962 0.0008396000989278317 0.016055481070912172 0.0 0.0
0.0 0.020285989760928446 -0.016466146033272972 0.0156946147299291 0.0007715313033438761 0.012895708757320734 0.0 0.0
0.0 0.01398360561494861 -0.011234186950821535 0.01054169968170838 0.0006924872691131507 0.009587379768412448 0.0 0.0
0.0 0.008577502531299044 -0.006757369663991954 0.006177687014955556 0.0005796826490364011 0.006366835341634177 0.0 0.0
0.0 0.004341673923799725 -0.003316146714017556 0.002911501431202966 0.00040464528281458737 0.003622510945278691 0.0 0.0
0.0 0.001629534880179223 -0.0011586291998918064 0.0009711749592434984 0.0001874542406483078 0.0016069750699167847 0.0 0.0
0.0 0.0003961263915172859 -0.0002404633032512031 0.00019566932200007747 4.479398125112558e-05 0.0004546712291852226 0.0 0.0
0.0 7.45388484448946e-05 -3.348592907906139e-05 2.7264835349552458e-05 6.221093729508864e-06 8.435381744982485e-05 0.0 0.0
0.0 1.7719245310926436e-05 -5.551113311164332e-06 4.572039589523394e-06 9.790737216409326e-07 1.807080170538106e-05 0.0 0.0
0.0 3.7280557384779113e-06 -5.013146886204726e-07 4.0830385657243755e-07 9.301083204803313e-08 2.199732664234481e-06 0.0 0.0
0.0 3.8538157904294466e-07 8.52436999717895e-09 -5.889213619678072e-09 -2.6351563774992616e-09 -7.62597964614563e-08 0.0 0.0
0.0 0.0 0.0 0.0 0.0 0.0 0.0 0.0
0.0 0.0 0.0 0.0 0.0 0.0 0.0 0.0
0.0 0.0 0.0 0.0 0.0 0.0 0.0 0.0
0.0 1.5658462238093245e-06 -1.7375935306050655e-07 1.4289068428079015e-07 3.086866877971991e-08 -6.112316678018877e-07 0.0 0.0
0.0 1.679612144821772e-05 -4.442287923831798e-06 3.60901481486677e-06 8.332731089650408e-07 -1.0696685437263755e-05 0.0 0.0
0.0 0.00012026797189867588 -6.18784875890589e-05 5.0094317212132346e-05 1.1784170376926542e-05 -0.00010908621603761775 0.0 0.0
0.0 0.0007201467923782938 -0.0005224716620327818 0.00042902034567169196 9.345131636108991e-05 -0.0006672924155218298 0.0 0.0
0.0 0.0026550314694938635 -0.0020729680491328555 0.0017762137052403102 0.0002967543438925458 -0.0019874674791121706 0.0 0.0
0.0 0.006343089783398197 -0.005136499875004515 0.004621053448205041 0.0005154464267994722 -0.004132260940370643 0.0 0.0
0.0 0.011734149479184906 -0.009673267554815639 0.009009895951578108 0.0006633716032375322 -0.007046702689375981 0.0 0.0
0.0 0.018563263410589833 -0.01541409219226332 0.014652007930870195 0.0007620842613931245 -0.010372171237092198 0.0 0.0
0.0 0.026522299327446174 -0.022113726560370906 0.02127065947538275 0.000843067084988161 -0.013732315438668052 0.0 0.0
0.0 0.035431483762608004 -0.029638000100011958 0.028720574047850365 0.0009174260521616021 -0.01695447037974437 0.0 0.0
0.0 0.045239817007282745 -0.037961555935882074 0.03697377091762443 0.0009877850182576108 -0.02004305982201611 0.0 0.0
0.0 0.05599587427833378 -0.04711064250374711 0.04605333026684962 0.001057312236897484 -0.02310074768114244 0.0 0.0
0.0 0.06770040603957414 -0.05701611719733203 0.05588296652802826 0.0011331506693037809 -0.026462302476594902 0.0 0.0
0.0 0.07967872796469923 -0.06724884147376821 0.06602580046787687 0.0012230410058913395 -0.03063320792748501 0.0 0.0
0.0 0.09113026369945604 -0.07669505186467852 0.07536386312390818 0.0013311887407703063 -0.035810816026282 0.0 0.0
0.0 0.09924260624376795 -0.08325696853867653 0.08179290726496556 0.0014640612737109914 -0.041083260856001926 0.0 0.0
0.0 0.09983960088682255 -0.08348820952992796 0.08185857615541522 0.0016296333745127044 -0.044087419183576594 0.0 0.0
0.0 0.08704876686469024 -0.07221622411453321 0.07039096994737765 0.0018252541671555651 -0.04279794803678175 0.0 0.0
0.0 0.08704876686469405 -0.07221622411452919 0.07039096994737368 0.001825254167155446 0.04279794803683276 0.0 0.0
0.0 0.09983960088681097 -0.0834882095299097 0.08185857615539713 0.0016296333745125444 0.04408741918363952 0.0 0.0
0.0 0.0992426062437344 -0.08325696853864174 0.08179290726493015 0.0014640612737115183 0.041083260856047944 0.0 0.0
0.0 0.09113026369940627 -0.07669505186463302 0.07536386312386283 0.0013311887407701467 0.03581081602629427 0.0 0.0
0.0 0.07967872796463844 -0.06724884147371538 0.06602580046782447 0.0012230410058909037 0.030633207927474634 0.0 0.0
0.0 0.06770040603950976 -0.0570161171972765 0.05588296652797334 0.0011331506693031679 0.026462302476579366 0.0 0.0
0.0 0.055995874278268604 -0.047110642503691263 0.04605333026679438 0.0010573122368968842 0.023100747681122268 0.0 0.0
0.0 0.04523981700722179 -0.03796155593582956 0.036973770917572396 0.0009877850182571537 0.020043059821999294 0.0 0.0
0.0 0.03543148376254929 -0.029638000099961842 0.028720574047800828 0.0009174260521610046 0.016954470379722773 0.0 0.0
0.0 0.026522299327393337 -0.022113726560326775 0.02127065947533934 0.0008430670849874165 0.013732315438640862 0.0 0.0
0.0 0.018563263410543776 -0.015414092192225094 0.014652007930832624 0.000762084261392477 0.010372171237064774 0.0 0.0
0.0 0.011734149479150989 -0.009673267554787349 0.009009895951550571 0.0006633716032367812 0.007046702689358373 0.0 0.0
0.0 0.006343089783373684 -0.005136499874984501 0.004621053448185959 0.0005154464267985408 0.004132260940356836 0.0 0.0
0.0 0.0026550314694791313 -0.0020729680491214783 0.0017762137052301894 0.0002967543438912893 0.001987467479102615 0.0 0.0
0.0 0.0007201467923717258 -0.0005224716620285492 0.0004290203456681816 9.345131636036747e-05 0.0006672924155169025 0.0 0.0
0.0 0.00012026797189719515 -6.187848758882865e-05 5.0094317211936655e-05 1.178417037689191e-05 0.00010908621603720312 0.0 0.0
0.0 1.6796121447647518e-05 -4.442287923995829e-06 3.6090148149988948e-06 8.332731089969434e-07 1.0696685437673495e-05 0.0 0.0
0.0 1.5658462237080625e-06 -1.7375935317860428e-07 1.4289068437624174e-07 3.0868668802360294e-08 6.112316682182277e-07 0.0 0.0
0.0 0.0 0.0 0.0 0.0 0.0 0.0 0.0
0.0 0.0 0.0 0.0 0.0 0.0 0.0 0.0
0.0 0.0 0.0 0.0 0.0 0.0 0.0 0.0
0.0 0.0 0.0 0.0 0.0 0.0 0.0 0.0
0.0 9.159772724021529e-07 5.630253744311479e-08 -4.536700834069255e-08 -1.0935529102421052e-08 1.5681455061216043e-07 0.0 0.0
0.0 1.3888787718204875e-05 -6.5733654916376065e-06 5.291032177385098e-06 1.2823333142525494e-06 -1.2072860742165411e-05 0.0 0.0
0.0 0.00019920124927321622 -0.00013420549878795281 0.00010849140569829289 2.5714093089659965e-05 -0.00016914949760719425 0.0 0.0
0.0 0.0012334177702007488 -0.0009643646207800358 0.0008017300720246761 0.00016263454875535988 -0.0008465494801527579 0.0 0.0
0.0 0.003939552820801089 -0.0031973247924068776 0.0027985466720129148 0.0003987781203939624 -0.0021815461776878205 0.0 0.0
0.0 0.008461431130073294 -0.007145947218197153 0.0065496492982269955 0.0005962979199701563 -0.004324696430598475 0.0 0.0
0.0 0.014996817544120642 -0.012712645187303704 0.011991448535583676 0.0007211966517200277 -0.007158460320413733 0.0 0.0
0.0 0.023225630952381636 -0.019682209585304398 0.0188653736428893 0.0008168359424151046 -0.010338209083561825 0.0 0.0
0.0 0.032833478031276425 -0.027839950360392905 0.02693663101692479 0.0009033193434680919 -0.013573848618669053 0.0 0.0
0.0 0.04360916569932822 -0.03703533235399793 0.03604989611351807 0.000985436240479833 -0.016676351078496927 0.0 0.0
0.0 0.05556864667736993 -0.04721889566044681 0.04615470714010278 0.0010641885203440293 -0.01966108366634812 0.0 0.0
0.0 0.06853812903000024 -0.058409934024327356 0.05726900750578434 0.00114092651854301 -0.02261051847267067 0.0 0.0
0.0 0.08270600273794346 -0.07055328904941427 0.06932922864175228 0.0012240604076620152 -0.025703520979307906 0.0 0.0
0.0 0.09757903573212179 -0.08318829815892782 0.08186016026646063 0.0013281378924671701 -0.02940440707051774 0.0 0.0
0.0 0.11129333107222195 -0.09494454309489027 0.09348338866354279 0.0014611544313474542 -0.034187808108892374 0.0 0.0
0.0 0.12106209872357568 -0.10312571356933395 0.10150263514968826 0.0016230784196456544 -0.039644072613876855 0.0 0.0
0.0 0.12209631539598151 -0.10359079503050772 0.10178938677215121 0.0018014082583564426 -0.04433530219355049 0.0 0.0
0.0 0.10837350187335323 -0.09085371746207371 0.08887151649707044 0.0019822009650032825 -0.047416131305826295 0.0 0.0
0.0 0.10837350187335382 -0.0908537174620677 0.08887151649706482 0.0019822009650028363 0.047416131305876755 0.0 0.0
0.0 0.12209631539596388 -0.10359079503048527 0.10178938677212965 0.0018014082583556047 0.04433530219361351 0.0 0.0
0.0 0.12106209872353953 -0.10312571356929687 0.10150263514965296 0.001623078419643866 0.03964407261392415 0.0 0.0
0.0 0.11129333107216305 -0.09494454309483705 0.09348338866349072 0.0014611544313462826 0.03418780810890372 0.0 0.0
0.0 0.09757903573205108 -0.08318829815886608 0.0818601602663997 0.001328137892466377 0.029404407070510983 0.0 0.0
0.0 0.0827060027378718 -0.07055328904935185 0.06932922864169082 0.0012240604076609863 0.02570352097929776 0.0 0.0
0.0 0.06853812902992662 -0.05840993402426372 0.057269007505721184 0.0011409265185425058 0.02261051847265495 0.0 0.0
0.0 0.05556864667729301 -0.04721889566038035 0.04615470714003633 0.0010641885203439634 0.019661083666331132 0.0 0.0
0.0 0.043609165699252786 -0.037035332353933054 0.036049896113453286 0.0009854362404797506 0.016676351078475638 0.0 0.0
0.0 0.032833478031210485 -0.027839950360336943 0.02693663101686953 0.0009033193434674177 0.013573848618641172 0.0 0.0
0.0 0.02322563095232403 -0.019682209585255916 0.018865373642841344 0.0008168359424145575 0.010338209083534052 0.0 0.0
0.0 0.01499681754407583 -0.012712645187265602 0.011991448535546012 0.0007211966517195944 0.007158460320394506 0.0 0.0
0.0 0.008461431130041684 -0.007145947218170488 0.006549649298201083 0.0005962979199694025 0.004324696430583504 0.0 0.0
0.0 0.003939552820782158 -0.0031973247923915574 0.0027985466719987065 0.0003987781203928521 0.0021815461776780037 0.0 0.0
0.0 0.0012334177701918535 -0.0009643646207734709 0.0008017300720190627 0.00016263454875440787 0.0008465494801474104 0.0 0.0
0.0 0.00019920124927040069 -0.00013420549878665982 0.0001084914056972031 2.5714093089456633e-05 0.00016914949760554355 0.0 0.0
0.0 1.38887877179862e-05 -6.573365491900321e-06 5.291032177592479e-06 1.2823333143078225e-06 1.2072860742640299e-05 0.0 0.0
0.0 9.159772720464821e-07 5.630253742091469e-08 -4.5367008322703315e-08 -1.0935529098212496e-08 -1.5681455054918204e-07 0.0 0.0
0.0 0.0 0.0 0.0 0.0 0.0 0.0 0.0
0.0 0.0 0.0 0.0 0.0 0.0 0.0 0.0
0.0 0.0 0.0 0.0 0.0 0.0 0.0 0.0
0.0 0.0 0.0 0.0 0.0 0.0 0.0 0.0
0.0 2.633745482838499e-07 1.9034837468267232e-08 -1.5232417022672714e-08 -3.80242044559584e-09 3.959451352121644e-08 0.0 0.0
0.0 1.4253110610502873e-05 -8.475529199111504e-06 6.770068394733087e-06 1.705460804378437e-06 -1.1494503101625195e-05 0.0 0.0
0.0 0.0003561011932931257 -0.00026878006070375895 0.0002178426740040689 5.093738669969011e-05 -0.00023499326372271713 0.0 0.0
0.0 0.0019365106478136523 -0.001565142385114039 0.001321978573291329 0.00024316381182271063 -0.0009365042422844656 0.0 0.0
0.0 0.0052119096520226 -0.004502126575923346 0.004016686531077743 0.0004854400448456057 -0.0021990543422905394 0.0 0.0
0.0 0.010703076106230395 -0.00926187960517304 0.008609618407346547 0.0006522611978264946 -0.0041423233691243256 0.0 0.0
0.0 0.018376629523122204 -0.01581057724888247 0.015045156416891473 0.0007654208319909941 -0.006657684182234851 0.0 0.0
0.0 0.0279439855405236 -0.02399508774642496 0.02313211413479017 0.0008629736116348097 -0.009521065492424784 0.0 0.0
0.0 0.039170003156241 -0.033602321887261005 0.03264649710656374 0.0009558247806972506 -0.012435897288283716 0.0 0.0
0.0 0.05184640998385071 -0.04447166650543609 0.043425323795218365 0.0010463427102177041 -0.015236979638866688 0.0 0.0
0.0 0.0658630502210899 -0.05652583267544842 0.05539156990147138 0.0011342627739770116 -0.01795978639008152 0.0 0.0
0.0 0.08123008961097515 -0.06973731581489347 0.06851672368386755 0.001220592131025878 -0.020623997045365702 0.0 0.0
0.0 0.09780700123921701 -0.08401937522334679 0.08270848000238194 0.0013108952209648838 -0.02322728000394106 0.0 0.0
0.0 0.1148619374804307 -0.09890279720783812 0.09747937698553985 0.001423420222298221 -0.02599308093316138 0.0 0.0
0.0 0.1311123549594421 -0.11287356855472155 0.11129595436963964 0.0015776141850818745 -0.029669987511823207 0.0 0.0
0.0 0.14281930198583093 -0.12277173437612982 0.12100737142055744 0.0017643629555723786 -0.035082350865602865 0.0 0.0
0.0 0.1446431899381294 -0.1238227801034868 0.12186266777466723 0.0019601123288195393 -0.042394248892510276 0.0 0.0
0.0 0.13027522522286644 -0.11004788521706747 0.10791012374838335 0.0021377614686840215 -0.05167424837589735 0.0 0.0
0.0 0.13027522522285884 -0.11004788521705536 0.107910123748371 0.0021377614686843883 0.05167424837594488 0.0 0.0
0.0 0.14464318993810155 -0.12382278010345715 0.1218626677746383 0.001960112328818888 0.04239424889256846 0.0 0.0
0.0 0.14281930198577938 -0.12277173437608202 0.12100737142050982 0.00176436295557211 0.0350823508656429 0.0 0.0
0.0 0.13111235495936768 -0.11287356855465625 0.11129595436957429 0.0015776141850819912 0.029669987511831843 0.0 0.0
0.0 0.11486193748034865 -0.09890279720776649 0.09747937698546914 0.0014234202222973109 0.025993080933156935 0.0 0.0
0.0 0.0978070012391273 -0.08401937522326898 0.08270848000230464 0.0013108952209643263 0.023227280003931882 0.0 0.0
0.0 0.0812300896108876 -0.06973731581481792 0.06851672368379265 0.001220592131025175 0.020623997045349902 0.0 0.0
0.0 0.06586305022100578 -0.05652583267537553 0.05539156990139925 0.0011342627739762696 0.01795978639006625 0.0 0.0
0.0 0.05184640998376699 -0.04447166650536349 0.04342532379514643 0.001046342710217086 0.01523697963884851 0.0 0.0
0.0 0.039170003156164424 -0.033602321887195204 0.03264649710649845 0.0009558247806967264 0.012435897288257763 0.0 0.0
0.0 0.027943985540460875 -0.02399508774637102 0.023132114134736974 0.0008629736116340285 0.009521065492401051 0.0 0.0
0.0 0.01837662952307044 -0.015810577248837634 0.015045156416847106 0.000765420831990529 0.006657684182218212 0.0 0.0
0.0 0.010703076106195093 -0.00926187960514247 0.008609618407316593 0.0006522611978258775 0.004142323369111108 0.0 0.0
0.0 0.005211909652000841 -0.004502126575904647 0.004016686531060146 0.0004854400448445015 0.002199054342282091 0.0 0.0
0.0 0.001936510647800984 -0.0015651423851041639 0.001321978573282628 0.00024316381182153525 0.0009365042422789817 0.0 0.0
0.0 0.0003561011932886059 -0.0002687800607009336 0.00021784267400173308 5.093738669920029e-05 0.00023499326372043944 0.0 0.0
0.0 1.425311061001744e-05 -8.475529199335672e-06 6.7700683948984395e-06 1.7054608044372417e-06 1.1494503101880885e-05 0.0 0.0
0.0 2.633745479801639e-07 1.90348374459991e-08 -1.5232417004860948e-08 -3.802420441135515e-09 -3.959451347502403e-08 0.0 0.0
0.0 0.0 0.0 0.0 0.0 0.0 0.0 0.0
0.0 0.0 0.0 0.0 0.0 0.0 0.0 0.0
0.0 0.0 0.0 0.0 0.0 0.0 0.0 0.0
0.0 0.0 0.0 0.0 0.0 0.0 0.0 0.0
0.0 0.0 0.0 0.0 0.0 0.0 0.0 0.0
0.0 2.1477025988921974e-05 -1.5002477641310116e-05 1.1998857141546358e-05 3.003620499763747e-06 -1.4415911043805646e-05 0.0 0.0
0.0 0.0006320856824166802 -0.0004985451917608032 0.00040634239234783176 9.220279941297116e-05 -0.00028044838527815273 0.0 0.0
0.0 0.0027596151262479786 -0.0023198187477641956 0.001991989888639515 0.00032782885912468026 -0.0009123448055242566 0.0 0.0
0.0 0.006688724793873801 -0.005910320602534588 0.005357453308582955 0.0005528672939516332 -0.0019512185596423078 0.0 0.0
0.0 0.013070339850671946 -0.011424786065165383 0.010731679788981194 0.0006931062761841842 -0.0035177011186713347 0.0 0.0
0.0 0.021798995808593728 -0.018933368523418585 0.018132096938243865 0.0008012715851747095 -0.005576129186280868 0.0 0.0
0.0 0.0326980891502915 -0.028313583843954857 0.02741099043311462 0.000902593410840232 -0.007933017042304974 0.0 0.0
0.0 0.0455511353462824 -0.039362071143197605 0.038359551625400876 0.0010025195177966865 -0.010339046459635397 0.0 0.0
0.0 0.06006995003447652 -0.051908603626195864 0.05080726056187714 0.0011013430643187169 -0.012647721911527863 0.0 0.0
0.0 0.07629780640452896 -0.06584121565342305 0.06464185706705822 0.0011993585863648037 -0.014905201163920072 0.0 0.0
0.0 0.09378337620716307 -0.08106229757964258 0.07976504837221549 0.0012972492074271127 -0.01714775720846559 0.0 0.0
0.0 0.11256055355148165 -0.09737040914196962 0.09597281376556216 0.0013975953764074705 -0.01917239028389666 0.0 0.0
0.0 0.13200925826593984 -0.11424045026265825 0.11272730038564523 0.0015131498770129754 -0.02073162379959201 0.0 0.0
0.0 0.15046794118400894 -0.13024587235219015 0.1285758230743168 0.0016700492778732776 -0.022572211626208483 0.0 0.0
0.0 0.16434279069228588 -0.14213583042404815 0.14024915279467642 0.0018866776293716236 -0.027339242103508188 0.0 0.0
0.0 0.16764457173312397 -0.14442394218077473 0.14231401003099026 0.002109932149784552 -0.03781449462688917 0.0 0.0
0.0 0.15346531346548248 -0.13025193376025418 0.12794701099508698 0.0023049227651671545 -0.05525266029899883 0.0 0.0
0.0 0.15346531346547154 -0.13025193376024072 0.12794701099507355 0.002304922765167125 0.05525266029903524 0.0 0.0
0.0 0.16764457173308406 -0.14442394218073695 0.14231401003095198 0.0021099321497849714 0.0378144946269398 0.0 0.0
0.0 0.16434279069222243 -0.14213583042399106 0.14024915279461989 0.0018866776293711284 0.027339242103543146 0.0 0.0
0.0 0.1504679411839277 -0.13024587235211876 0.12857582307424692 0.0016700492778718955 0.02257221162621657 0.0 0.0
0.0 0.1320092582658484 -0.11424045026257829 0.11272730038556691 0.0015131498770113586 0.02073162379958967 0.0 0.0
0.0 0.11256055355138533 -0.09737040914188551 0.09597281376547942 0.001397595376406149 0.019172390283892747 0.0 0.0
0.0 0.09378337620706328 -0.08106229757955605 0.07976504837212968 0.001297249207426329 0.017147757208455506 0.0 0.0
0.0 0.07629780640443018 -0.06584121565333734 0.06464185706697309 0.0011993585863642703 0.014905201163908855 0.0 0.0
0.0 0.06006995003437854 -0.05190860362611115 0.05080726056179273 0.0011013430643183907 0.012647721911514588 0.0 0.0
0.0 0.04555113534619533 -0.03936207114312212 0.038359551625325894 0.001002519517796212 0.010339046459614183 0.0 0.0
0.0 0.032698089150220405 -0.02831358384389322 0.027410990433053672 0.0009025934108395489 0.007933017042283864 0.0 0.0
0.0 0.021798995808539202 -0.018933368523370877 0.018132096938196972 0.0008012715851739033 0.0055761291862672395 0.0 0.0
0.0 0.013070339850630289 -0.011424786065128825 0.010731679788945321 0.0006931062761835096 0.0035177011186601943 0.0 0.0
0.0 0.0066887247938465415 -0.005910320602510642 0.00535745330855985 0.000552867293950797 0.0019512185596340847 0.0 0.0
0.0 0.002759615126233582 -0.002319818747752084 0.001991989888628715 0.00032782885912336816 0.0009123448055197358 0.0 0.0
0.0 0.0006320856824108676 -0.0004985451917566356 0.00040634239234431596 9.22027994123198e-05 0.00028044838527591304 0.0 0.0
0.0 2.1477025988545772e-05 -1.5002477641711979e-05 1.1998857141847965e-05 3.00362049986403e-06 1.4415911044122235e-05 0.0 0.0
0.0 0.0 0.0 0.0 0.0 0.0 0.0 0.0
0.0 0.0 0.0 0.0 0.0 0.0 0.0 0.0
0.0 0.0 0.0 0.0 0.0 0.0 0.0 0.0
0.0 0.0 0.0 0.0 0.0 0.0 0.0 0.0
0.0 0.0 0.0 0.0 0.0 0.0 0.0 0.0
0.0 0.0 0.0 0.0 0.0 0.0 0.0 0.0
0.0 4.9379690127358976e-05 -3.6755361054091894e-05 2.933345709700959e-05 7.421903957082341e-06 -2.1620973689160678e-05 0.0 0.0
0.0 0.0010569536493375308 -0.000843998409140147 0.00069556154214019 0.0001484368669999572 -0.0002716634741018341 0.0 0.0
0.0 0.0035492198747445487 -0.003207329387376574 0.0027984755158795885 0.00040885387149698345 -0.0007224248019485166 0.0 0.0
0.0 0.00829925865987048 -0.007371944306884869 0.006770722329249173 0.0006012219776357006 -0.0014283581495473077 0.0 0.0
0.0 0.01548272816451496 -0.013608923375775628 0.012883799066061664 0.0007251243097139736 -0.0024920789766100207 0.0 0.0
0.0 0.02524129037454001 -0.02204581537659905 0.02121524300497098 0.0008305723716280648 -0.003919662265221517 0.0 0.0
0.0 0.03745524502158068 -0.03260137206017239 0.03166463496046207 0.0009367370997103181 -0.005579709870575174 0.0 0.0
0.0 0.05191113273894436 -0.045083852327213444 0.044039667227561446 0.0010441850996519993 -0.007277225673524922 0.0 0.0
0.0 0.06843821640444728 -0.05930796277960793 0.0581563021804824 0.0011516605991255294 -0.008906838726459986 0.0 0.0
0.0 0.08657125442139926 -0.07512591243195609 0.0738658998639777 0.0012600125679784117 -0.010530507699598101 0.0 0.0
0.0 0.1063795019917441 -0.09234074240489343 0.09097013354889402 0.0013706088559993696 -0.012129036407235151 0.0 0.0
0.0 0.12743124647627252 -0.11059011380016645 0.10910534040275437 0.00148477339741201 -0.01345923227301991 0.0 0.0
0.0 0.14884859447458432 -0.12919082592499231 0.12758557371837953 0.0016052522066127397 -0.0140550845208814 0.0 0.0
0.0 0.16913920427773207 -0.1468357049495506 0.14508797709424862 0.0017477278553020442 -0.013935096553215344 0.0 0.0
0.0 0.18531804439973623 -0.1608300111803183 0.15887985069874372 0.0019501604815745234 -0.01619458193826816 0.0 0.0
0.0 0.19138944855931764 -0.16559245140787915 0.16332727829917626 0.002265173108702713 -0.028982750895692137 0.0 0.0
0.0 0.17853340605650886 -0.1521477713802611 0.14964726881527046 0.002500502564990509 -0.05735233107818228 0.0 0.0
0.0 0.17853340605649526 -0.15214777138024688 0.14964726881525633 0.002500502564990478 0.05735233107820811 0.0 0.0
0.0 0.19138944855927228 -0.16559245140783757 0.16332727829913565 0.002265173108701847 0.02898275089573215 0.0 0.0
0.0 0.1853180443996591 -0.16083001118025061 0.1588798506986767 0.0019501604815739815 0.016194581938293887 0.0 0.0
0.0 0.16913920427763487 -0.14683570494946624 0.14508797709416438 0.0017477278553018755 0.013935096553219159 0.0 0.0
0.0 0.1488485944744765 -0.12919082592489872 0.1275855737182867 0.0016052522066120946 0.014055084520878064 0.0 0.0
0.0 0.12743124647616108 -0.11059011380006947 0.1091053404026584 0.0014847733974110758 0.013459232273017862 0.0 0.0
0.0 0.10637950199163286 -0.0923407424047967 0.09097013354879846 0.0013706088559982024 0.012129036407229466 0.0 0.0
0.0 0.08657125442128893 -0.07512591243186015 0.07386589986388277 0.001260012567977388 0.01053050769959088 0.0 0.0
0.0 0.06843821640433974 -0.059307962779514056 0.05815630218038978 0.0011516605991242377 0.00890683872645194 0.0 0.0
0.0 0.05191113273884672 -0.04508385232712859 0.04403966722747763 0.001044185099650959 0.007277225673509538 0.0 0.0
0.0 0.037455245021498336 -0.03260137206010086 0.031664634960391125 0.0009367370997097369 0.005579709870559399 0.0 0.0
0.0 0.02524129037447769 -0.02204581537654416 0.02121524300491682 0.0008305723716273432 0.003919662265212977 0.0 0.0
0.0 0.015482728164469502 -0.013608923375735485 0.012883799066022234 0.0007251243097132458 0.002492078976602789 0.0 0.0
0.0 0.008299258659841203 -0.007371944306858654 0.0067707223292238616 0.0006012219776347885 0.001428358149541804 0.0 0.0
0.0 0.003549219874728529 -0.003207329387362186 0.0027984755158662793 0.00040885387149590716 0.000722424801945202 0.0 0.0
0.0 0.0010569536493320248 -0.0008439984091361556 0.0006955615421368098 0.0001484368669993457 0.0002716634741007643 0.0 0.0
0.0 4.937969012651697e-05 -3.6755361054225346e-05 2.9333457097091154e-05 7.42190395713415e-06 2.162097368917381e-05 0.0 0.0
0.0 0.0 0.0 0.0 0.0 0.0 0.0 0.0
0.0 0.0 0.0 0.0 0.0 0.0 0.0 0.0
0.0 0.0 0.0 0.0 0.0 0.0 0.0 0.0
0.0 0.0 0.0 0.0 0.0 0.0 0.0 0.0
0.0 0.0 0.0 0.0 0.0 0.0 0.0 0.0
0.0 0.0 0.0 0.0 0.0 0.0 0.0 0.0
0.0 0.00013619402115511316 -0.00011308029589545853 8.990312143416654e-05 2.3177174461292098e-05 -2.813292892584578e-05 0.0 0.0
0.0 0.0016371465900929145 -0.0013016624897350018 0.001085777394087786 0.0002158850956472151 -0.0001645976299062272 0.0 0.0
0.0 0.004599630911670259 -0.004156248565834509 0.0036805502361988607 0.00047569832963565025 -0.0003420066298515347 0.0 0.0
0.0 0.009965973631259329 -0.008865244962194273 0.008227096944529111 0.0006381480176651606 -0.0006291174381188189 0.0 0.0
0.0 0.017935436778040784 -0.015783348966319326 0.015033222726859955 0.0007501262394593584 -0.0010688991791764056 0.0 0.0
0.0 0.02870261328285079 -0.025113119080049276 0.024258037612197754 0.0008550814678515207 -0.001696914458277108 0.0 0.0
0.0 0.042241357639369766 -0.03682112851978009 0.035855067789666295 0.0009660607301137929 -0.0024581778781840352 0.0 0.0
0.0 0.05837442155975354 -0.050732878830765236 0.049651717016057056 0.0010811618147081735 -0.0032505791728971913 0.0 0.0
0.0 0.07657646503450416 -0.06664108649105979 0.06544298102240284 0.0011981054686569428 -0.004029645377891808 0.0 0.0
0.0 0.09690507752856292 -0.08432872295964092 0.08301198454226885 0.0013167384173720965 -0.004798095520911067 0.0 0.0
0.0 0.11902603085186783 -0.10351102666046129 0.10207143205040707 0.0014395946100541845 -0.005511535897799127 0.0 0.0
0.0 0.1422710553893074 -0.12367104439612692 0.12210252906091179 0.0015685153352151759 -0.006025060813733106 0.0 0.0
0.0 0.16559329697259378 -0.1438837966167758 0.1421816977796764 0.0017020988370993375 -0.0060012903867765225 0.0 0.0
0.0 0.18731181011704592 -0.1627208425756783 0.16088388243273072 0.0018369601429475968 -0.005016165512607304 0.0 0.0
0.0 0.2050078405187265 -0.17809876216862977 0.176112389948713 0.00198637221991654 -0.003955737199221903 0.0 0.0
0.0 0.21467912160323277 -0.18630234853147926 0.18407775606108626 0.002224592470392866 -0.011991318608735141 0.0 0.0
0.0 0.20714225022373417 -0.17759624825836193 0.1747208542691173 0.0028753939892445855 -0.05291852259462637 0.0 0.0
0.0 0.20714225022371252 -0.17759624825834244 0.17472085426909784 0.0028753939892444628 0.05291852259463477 0.0 0.0
0.0 0.21467912160318242 -0.18630234853143465 0.18407775606104315 0.0022245924703913483 0.011991318608755578 0.0 0.0
0.0 0.2050078405186434 -0.17809876216855722 0.1761123899486418 0.0019863722199153057 0.003955737199234401 0.0 0.0
0.0 0.18731181011693585 -0.16272084257558295 0.1608838824326358 0.0018369601429471644 0.005016165512605793 0.0 0.0
0.0 0.16559329697247166 -0.14388379661667014 0.14218169777957082 0.0017020988370992126 0.006001290386773038 0.0 0.0
0.0 0.14227105538917958 -0.1236710443960164 0.12210252906080114 0.0015685153352151926 0.006025060813733724 0.0 0.0
0.0 0.11902603085173885 -0.1035110266603497 0.10207143205029562 0.001439594610054025 0.005511535897795879 0.0 0.0
0.0 0.09690507752843998 -0.08432872295953424 0.08301198454216291 0.0013167384173712908 0.004798095520907323 0.0 0.0
0.0 0.0765764650343847 -0.06664108649095629 0.06544298102229981 0.001198105468656454 0.004029645377888908 0.0 0.0
0.0 0.058374421559647366 -0.050732878830672984 0.04965171701596545 0.001081161814707536 0.0032505791728894397 0.0 0.0
0.0 0.04224135763928165 -0.03682112851970365 0.035855067789590536 0.0009660607301131357 0.0024581778781769615 0.0 0.0
0.0 0.028702613282781675 -0.02511311907998876 0.024258037612137774 0.0008550814678509775 0.001696914458273706 0.0 0.0
0.0 0.017935436777989998 -0.015783348966274327 0.01503322272681556 0.000750126239458758 0.0010688991791732948 0.0 0.0
0.0 0.009965973631223903 -0.008865244962162799 0.008227096944498174 0.0006381480176646275 0.0006291174381167273 0.0 0.0
0.0 0.004599630911650708 -0.004156248565816643 0.0036805502361819025 0.00047569832963473963 0.0003420066298500204 0.0 0.0
0.0 0.0016371465900837272 -0.0013016624897277322 0.0010857773940814149 0.00021588509564631815 0.00016459762990552834 0.0 0.0
0.0 0.00013619402115327706 -0.00011308029589446587 8.990312143335148e-05 2.3177174461114295e-05 2.8132928925589052e-05 0.0 0.0
0.0 0.0 0.0 0.0 0.0 0.0 0.0 0.0
0.0 0.0 0.0 0.0 0.0 0.0 0.0 0.0
0.0 0.0 0.0 0.0 0.0 0.0 0.0 0.0