# vtk DataFile Version 3.0
Some data
ASCII
DATASET UNSTRUCTURED_GRID
POINTS 861 float
0.0 0.0 0.0
0.4 0.0 0.0
0.8 0.0 0.0
1.2000000000000002 0.0 0.0
1.6 0.0 0.0
2.0 0.0 0.0
2.4000000000000004 0.0 0.0
2.8000000000000003 0.0 0.0
3.2 0.0 0.0
3.6 0.0 0.0
4.0 0.0 0.0
4.4 0.0 0.0
4.800000000000001 0.0 0.0
5.2 0.0 0.0
5.6000000000000005 0.0 0.0
6.0 0.0 0.0
6.4 0.0 0.0
6.800000000000001 0.0 0.0
7.2 0.0 0.0
7.6000000000000005 0.0 0.0
8.0 0.0 0.0
8.4 0.0 0.0
8.8 0.0 0.0
9.200000000000001 0.0 0.0
9.600000000000001 0.0 0.0
10.0 0.0 0.0
10.4 0.0 0.0
10.8 0.0 0.0
11.200000000000001 0.0 0.0
11.600000000000001 0.0 0.0
12.0 0.0 0.0
12.4 0.0 0.0
12.8 0.0 0.0
13.200000000000001 0.0 0.0
13.600000000000001 0.0 0.0
14.0 0.0 0.0
14.4 0.0 0.0
14.8 0.0 0.0
15.200000000000001 0.0 0.0
15.600000000000001 0.0 0.0
16.0 0.0 0.0
0.0 0.1 0.0
0.4 0.1 0.0
0.8 0.1 0.0
1.2000000000000002 0.1 0.0
1.6 0.1 0.0
2.0 0.1 0.0
2.4000000000000004 0.1 0.0
2.8000000000000003 0.1 0.0
3.2 0.1 0.0
3.6 0.1 0.0
4.0 0.1 0.0
4.4 0.1 0.0
4.800000000000001 0.1 0.0
5.2 0.1 0.0
5.6000000000000005 0.1 0.0
6.0 0.1 0.0
6.4 0.1 0.0
6.800000000000001 0.1 0.0
7.2 0.1 0.0
7.6000000000000005 0.1 0.0
8.0 0.1 0.0
8.4 0.1 0.0
8.8 0.1 0.0
9.200000000000001 0.1 0.0
9.600000000000001 0.1 0.0
10.0 0.1 0.0
10.4 0.1 0.0
10.8 0.1 0.0
11.200000000000001 0.1 0.0
11.600000000000001 0.1 0.0
12.0 0.1 0.0
12.4 0.1 0.0
12.8 0.1 0.0
13.200000000000001 0.1 0.0
13.600000000000001 0.1 0.0
14.0 0.1 0.0
14.4 0.1 0.0
14.8 0.1 0.0
15.200000000000001 0.1 0.0
15.600000000000001 0.1 0.0
16.0 0.1 0.0
0.0 0.2 0.0
0.4 0.2 0.0
0.8 0.2 0.0
1.2000000000000002 0.2 0.0
1.6 0.2 0.0
2.0 0.2 0.0
2.4000000000000004 0.2 0.0
2.8000000000000003 0.2 0.0
3.2 0.2 0.0
3.6 0.2 0.0
4.0 0.2 0.0
4.4 0.2 0.0
4.800000000000001 0.2 0.0
5.2 0.2 0.0
5.6000000000000005 0.2 0.0
6.0 0.2 0.0
6.4 0.2 0.0
6.800000000000001 0.2 0.0
7.2 0.2 0.0
7.6000000000000005 0.2 0.0
8.0 0.2 0.0
8.4 0.2 0.0
8.8 0.2 0.0
9.200000000000001 0.2 0.0
9.600000000000001 0.2 0.0
10.0 0.2 0.0
10.4 0.2 0.0
10.8 0.2 0.0
11.200000000000001 0.2 0.0
11.600000000000001 0.2 0.0
12.0 0.2 0.0
12.4 0.2 0.0
12.8 0.2 0.0
13.200000000000001 0.2 0.0
13.600000000000001 0.2 0.0
14.0 0.2 0.0
14.4 0.2 0.0
14.8 0.2 0.0
15.200000000000001 0.2 0.0
15.600000000000001 0.2 0.0
16.0 0.2 0.0
0.0 0.30000000000000004 0.0
0.4 0.30000000000000004 0.0
0.8 0.30000000000000004 0.0
1.2000000000000002 0.30000000000000004 0.0
1.6 0.30000000000000004 0.0
2.0 0.30000000000000004 0.0
2.4000000000000004 0.30000000000000004 0.0
2.8000000000000003 0.30000000000000004 0.0
3.2 0.30000000000000004 0.0
3.6 0.30000000000000004 0.0
4.0 0.30000000000000004 0.0
4.4 0.30000000000000004 0.0
4.800000000000001 0.30000000000000004 0.0
5.2 0.30000000000000004 0.0
5.6000000000000005 0.30000000000000004 0.0
6.0 0.30000000000000004 0.0
6.4 0.30000000000000004 0.0
6.800000000000001 0.30000000000000004 0.0
7.2 0.30000000000000004 0.0
7.6000000000000005 0.30000000000000004 0.0
8.0 0.30000000000000004 0.0
8.4 0.30000000000000004 0.0
8.8 0.30000000000000004 0.0
9.200000000000001 0.30000000000000004 0.0
9.600000000000001 0.30000000000000004 0.0
10.0 0.30000000000000004 0.0
10.4 0.30000000000000004 0.0
10.8 0.30000000000000004 0.0
11.200000000000001 0.30000000000000004 0.0
11.600000000000001 0.30000000000000004 0.0
12.0 0.30000000000000004 0.0
12.4 0.30000000000000004 0.0
12.8 0.30000000000000004 0.0
13.200000000000001 0.30000000000000004 0.0
13.600000000000001 0.30000000000000004 0.0
14.0 0.30000000000000004 0.0
14.4 0.30000000000000004 0.0
14.8 0.30000000000000004 0.0
15.200000000000001 0.30000000000000004 0.0
15.600000000000001 0.30000000000000004 0.0
16.0 0.30000000000000004 0.0
0.0 0.4 0.0
0.4 0.4 0.0
0.8 0.4 0.0
1.2000000000000002 0.4 0.0
1.6 0.4 0.0
2.0 0.4 0.0
2.4000000000000004 0.4 0.0
2.8000000000000003 0.4 0.0
3.2 0.4 0.0
3.6 0.4 0.0
4.0 0.4 0.0
4.4 0.4 0.0
4.800000000000001 0.4 0.0
5.2 0.4 0.0
5.6000000000000005 0.4 0.0
6.0 0.4 0.0
6.4 0.4 0.0
6.800000000000001 0.4 0.0
7.2 0.4 0.0
7.6000000000000005 0.4 0.0
8.0 0.4 0.0
8.4 0.4 0.0
8.8 0.4 0.0
9.200000000000001 0.4 0.0
9.600000000000001 0.4 0.0
10.0 0.4 0.0
10.4 0.4 0.0
10.8 0.4 0.0
11.200000000000001 0.4 0.0
11.600000000000001 0.4 0.0
12.0 0.4 0.0
12.4 0.4 0.0
12.8 0.4 0.0
13.200000000000001 0.4 0.0
13.600000000000001 0.4 0.0
14.0 0.4 0.0
14.4 0.4 0.0
14.8 0.4 0.0
15.200000000000001 0.4 0.0
15.600000000000001 0.4 0.0
16.0 0.4 0.0
0.0 0.5 0.0
0.4 0.5 0.0
0.8 0.5 0.0
1.2000000000000002 0.5 0.0
1.6 0.5 0.0
2.0 0.5 0.0
2.4000000000000004 0.5 0.0
2.8000000000000003 0.5 0.0
3.2 0.5 0.0
3.6 0.5 0.0
4.0 0.5 0.0
4.4 0.5 0.0
4.800000000000001 0.5 0.0
5.2 0.5 0.0
5.6000000000000005 0.5 0.0
6.0 0.5 0.0
6.4 0.5 0.0
6.800000000000001 0.5 0.0
7.2 0.5 0.0
7.6000000000000005 0.5 0.0
8.0 0.5 0.0
8.4 0.5 0.0
8.8 0.5 0.0
9.200000000000001 0.5 0.0
9.600000000000001 0.5 0.0
10.0 0.5 0.0
10.4 0.5 0.0
10.8 0.5 0.0
11.200000000000001 0.5 0.0
11.600000000000001 0.5 0.0
12.0 0.5 0.0
12.4 0.5 0.0
12.8 0.5 0.0
13.200000000000001 0.5 0.0
13.600000000000001 0.5 0.0
14.0 0.5 0.0
14.4 0.5 0.0
14.8 0.5 0.0
15.200000000000001 0.5 0.0
15.600000000000001 0.5 0.0
16.0 0.5 0.0
0.0 0.6000000000000001 0.0
0.4 0.6000000000000001 0.0
0.8 0.6000000000000001 0.0
1.2000000000000002 0.6000000000000001 0.0
1.6 0.6000000000000001 0.0
2.0 0.6000000000000001 0.0
2.4000000000000004 0.6000000000000001 0.0
2.8000000000000003 0.6000000000000001 0.0
3.2 0.6000000000000001 0.0
3.6 0.6000000000000001 0.0
4.0 0.6000000000000001 0.0
4.4 0.6000000000000001 0.0
4.800000000000001 0.6000000000000001 0.0
5.2 0.6000000000000001 0.0
5.6000000000000005 0.6000000000000001 0.0
6.0 0.6000000000000001 0.0
6.4 0.6000000000000001 0.0
6.800000000000001 0.6000000000000001 0.0
7.2 0.6000000000000001 0.0
7.6000000000000005 0.6000000000000001 0.0
8.0 0.6000000000000001 0.0
8.4 0.6000000000000001 0.0
8.8 0.6000000000000001 0.0
9.200000000000001 0.6000000000000001 0.0
9.600000000000001 0.6000000000000001 0.0
10.0 0.6000000000000001 0.0
10.4 0.6000000000000001 0.0
10.8 0.6000000000000001 0.0
11.200000000000001 0.6000000000000001 0.0
11.600000000000001 0.6000000000000001 0.0
12.0 0.6000000000000001 0.0
12.4 0.6000000000000001 0.0
12.8 0.6000000000000001 0.0
13.200000000000001 0.6000000000000001 0.0
13.600000000000001 0.6000000000000001 0.0
14.0 0.6000000000000001 0.0
14.4 0.6000000000000001 0.0
14.8 0.6000000000000001 0.0
15.200000000000001 0.6000000000000001 0.0
15.600000000000001 0.6000000000000001 0.0
16.0 0.6000000000000001 0.0
0.0 0.7000000000000001 0.0
0.4 0.7000000000000001 0.0
0.8 0.7000000000000001 0.0
1.2000000000000002 0.7000000000000001 0.0
1.6 0.7000000000000001 0.0
2.0 0.7000000000000001 0.0
2.4000000000000004 0.7000000000000001 0.0
2.8000000000000003 0.7000000000000001 0.0
3.2 0.7000000000000001 0.0
3.6 0.7000000000000001 0.0
4.0 0.7000000000000001 0.0
4.4 0.7000000000000001 0.0
4.800000000000001 0.7000000000000001 0.0
5.2 0.7000000000000001 0.0
5.6000000000000005 0.7000000000000001 0.0
6.0 0.7000000000000001 0.0
6.4 0.7000000000000001 0.0
6.800000000000001 0.7000000000000001 0.0
7.2 0.7000000000000001 0.0
7.6000000000000005 0.7000000000000001 0.0
8.0 0.7000000000000001 0.0
8.4 0.7000000000000001 0.0
8.8 0.7000000000000001 0.0
9.200000000000001 0.7000000000000001 0.0
9.600000000000001 0.7000000000000001 0.0
10.0 0.7000000000000001 0.0
10.4 0.7000000000000001 0.0
10.8 0.7000000000000001 0.0
11.200000000000001 0.7000000000000001 0.0
11.600000000000001 0.7000000000000001 0.0
12.0 0.7000000000000001 0.0
12.4 0.7000000000000001 0.0
12.8 0.7000000000000001 0.0
13.200000000000001 0.7000000000000001 0.0
13.600000000000001 0.7000000000000001 0.0
14.0 0.7000000000000001 0.0
14.4 0.7000000000000001 0.0
14.8 0.7000000000000001 0.0
15.200000000000001 0.7000000000000001 0.0
15.600000000000001 0.7000000000000001 0.0
16.0 0.7000000000000001 0.0
0.0 0.8 0.0
0.4 0.8 0.0
0.8 0.8 0.0
1.2000000000000002 0.8 0.0
1.6 0.8 0.0
2.0 0.8 0.0
2.4000000000000004 0.8 0.0
2.8000000000000003 0.8 0.0
3.2 0.8 0.0
3.6 0.8 0.0
4.0 0.8 0.0
4.4 0.8 0.0
4.800000000000001 0.8 0.0
5.2 0.8 0.0
5.6000000000000005 0.8 0.0
6.0 0.8 0.0
6.4 0.8 0.0
6.800000000000001 0.8 0.0
7.2 0.8 0.0
7.6000000000000005 0.8 0.0
8.0 0.8 0.0
8.4 0.8 0.0
8.8 0.8 0.0
9.200000000000001 0.8 0.0
9.600000000000001 0.8 0.0
10.0 0.8 0.0
10.4 0.8 0.0
10.8 0.8 0.0
11.200000000000001 0.8 0.0
11.600000000000001 0.8 0.0
12.0 0.8 0.0
12.4 0.8 0.0
12.8 0.8 0.0
13.200000000000001 0.8 0.0
13.600000000000001 0.8 0.0
14.0 0.8 0.0
14.4 0.8 0.0
14.8 0.8 0.0
15.200000000000001 0.8 0.0
15.600000000000001 0.8 0.0
16.0 0.8 0.0
0.0 0.9 0.0
0.4 0.9 0.0
0.8 0.9 0.0
1.2000000000000002 0.9 0.0
1.6 0.9 0.0
2.0 0.9 0.0
2.4000000000000004 0.9 0.0
2.8000000000000003 0.9 0.0
3.2 0.9 0.0
3.6 0.9 0.0
4.0 0.9 0.0
4.4 0.9 0.0
4.800000000000001 0.9 0.0
5.2 0.9 0.0
5.6000000000000005 0.9 0.0
6.0 0.9 0.0
6.4 0.9 0.0
6.800000000000001 0.9 0.0
7.2 0.9 0.0
7.6000000000000005 0.9 0.0
8.0 0.9 0.0
8.4 0.9 0.0
8.8 0.9 0.0
9.200000000000001 0.9 0.0
9.600000000000001 0.9 0.0
10.0 0.9 0.0
10.4 0.9 0.0
10.8 0.9 0.0
11.200000000000001 0.9 0.0
11.600000000000001 0.9 0.0
12.0 0.9 0.0
12.4 0.9 0.0
12.8 0.9 0.0
13.200000000000001 0.9 0.0
13.600000000000001 0.9 0.0
14.0 0.9 0.0
14.4 0.9 0.0
14.8 0.9 0.0
15.200000000000001 0.9 0.0
15.600000000000001 0.9 0.0
16.0 0.9 0.0
0.0 1.0 0.0
0.4 1.0 0.0
0.8 1.0 0.0
1.2000000000000002 1.0 0.0
1.6 1.0 0.0
2.0 1.0 0.0
2.4000000000000004 1.0 0.0
2.8000000000000003 1.0 0.0
3.2 1.0 0.0
3.6 1.0 0.0
4.0 1.0 0.0
4.4 1.0 0.0
4.800000000000001 1.0 0.0
5.2 1.0 0.0
5.6000000000000005 1.0 0.0
6.0 1.0 0.0
6.4 1.0 0.0
6.800000000000001 1.0 0.0
7.2 1.0 0.0
7.6000000000000005 1.0 0.0
8.0 1.0 0.0
8.4 1.0 0.0
8.8 1.0 0.0
9.200000000000001 1.0 0.0
9.600000000000001 1.0 0.0
10.0 1.0 0.0
10.4 1.0 0.0
10.8 1.0 0.0
11.200000000000001 1.0 0.0
11.600000000000001 1.0 0.0
12.0 1.0 0.0
12.4 1.0 0.0
12.8 1.0 0.0
13.200000000000001 1.0 0.0
13.600000000000001 1.0 0.0
14.0 1.0 0.0
14.4 1.0 0.0
14.8 1.0 0.0
15.200000000000001 1.0 0.0
15.600000000000001 1.0 0.0
16.0 1.0 0.0
0.0 1.1 0.0
0.4 1.1 0.0
0.8 1.1 0.0
1.2000000000000002 1.1 0.0
1.6 1.1 0.0
2.0 1.1 0.0
2.4000000000000004 1.1 0.0
2.8000000000000003 1.1 0.0
3.2 1.1 0.0
3.6 1.1 0.0
4.0 1.1 0.0
4.4 1.1 0.0
4.800000000000001 1.1 0.0
5.2 1.1 0.0
5.6000000000000005 1.1 0.0
6.0 1.1 0.0
6.4 1.1 0.0
6.800000000000001 1.1 0.0
7.2 1.1 0.0
7.6000000000000005 1.1 0.0
8.0 1.1 0.0
8.4 1.1 0.0
8.8 1.1 0.0
9.200000000000001 1.1 0.0
9.600000000000001 1.1 0.0
10.0 1.1 0.0
10.4 1.1 0.0
10.8 1.1 0.0
11.200000000000001 1.1 0.0
11.600000000000001 1.1 0.0
12.0 1.1 0.0
12.4 1.1 0.0
12.8 1.1 0.0
13.200000000000001 1.1 0.0
13.600000000000001 1.1 0.0
14.0 1.1 0.0
14.4 1.1 0.0
14.8 1.1 0.0
15.200000000000001 1.1 0.0
15.600000000000001 1.1 0.0
16.0 1.1 0.0
0.0 1.2000000000000002 0.0
0.4 1.2000000000000002 0.0
0.8 1.2000000000000002 0.0
1.2000000000000002 1.2000000000000002 0.0
1.6 1.2000000000000002 0.0
2.0 1.2000000000000002 0.0
2.4000000000000004 1.2000000000000002 0.0
2.8000000000000003 1.2000000000000002 0.0
3.2 1.2000000000000002 0.0
3.6 1.2000000000000002 0.0
4.0 1.2000000000000002 0.0
4.4 1.2000000000000002 0.0
4.800000000000001 1.2000000000000002 0.0
5.2 1.2000000000000002 0.0
5.6000000000000005 1.2000000000000002 0.0
6.0 1.2000000000000002 0.0
6.4 1.2000000000000002 0.0
6.800000000000001 1.2000000000000002 0.0
7.2 1.2000000000000002 0.0
7.6000000000000005 1.2000000000000002 0.0
8.0 1.2000000000000002 0.0
8.4 1.2000000000000002 0.0
8.8 1.2000000000000002 0.0
9.200000000000001 1.2000000000000002 0.0
9.600000000000001 1.2000000000000002 0.0
10.0 1.2000000000000002 0.0
10.4 1.2000000000000002 0.0
10.8 1.2000000000000002 0.0
11.200000000000001 1.2000000000000002 0.0
11.600000000000001 1.2000000000000002 0.0
12.0 1.2000000000000002 0.0
12.4 1.2000000000000002 0.0
12.8 1.2000000000000002 0.0
13.200000000000001 1.2000000000000002 0.0
13.600000000000001 1.2000000000000002 0.0
14.0 1.2000000000000002 0.0
14.4 1.2000000000000002 0.0
14.8 1.2000000000000002 0.0
15.200000000000001 1.2000000000000002 0.0
15.600000000000001 1.2000000000000002 0.0
16.0 1.2000000000000002 0.0
0.0 1.3 0.0
0.4 1.3 0.0
0.8 1.3 0.0
1.2000000000000002 1.3 0.0
1.6 1.3 0.0
2.0 1.3 0.0
2.4000000000000004 1.3 0.0
2.8000000000000003 1.3 0.0
3.2 1.3 0.0
3.6 1.3 0.0
4.0 1.3 0.0
4.4 1.3 0.0
4.800000000000001 1.3 0.0
5.2 1.3 0.0
5.6000000000000005 1.3 0.0
6.0 1.3 0.0
6.4 1.3 0.0
6.800000000000001 1.3 0.0
7.2 1.3 0.0
7.6000000000000005 1.3 0.0
8.0 1.3 0.0
8.4 1.3 0.0
8.8 1.3 0.0
9.200000000000001 1.3 0.0
9.600000000000001 1.3 0.0
10.0 1.3 0.0
10.4 1.3 0.0
10.8 1.3 0.0
11.200000000000001 1.3 0.0
11.600000000000001 1.3 0.0
12.0 1.3 0.0
12.4 1.3 0.0
12.8 1.3 0.0
13.200000000000001 1.3 0.0
13.600000000000001 1.3 0.0
14.0 1.3 0.0
14.4 1.3 0.0
14.8 1.3 0.0
15.200000000000001 1.3 0.0
15.600000000000001 1.3 0.0
16.0 1.3 0.0
0.0 1.4000000000000001 0.0
0.4 1.4000000000000001 0.0
0.8 1.4000000000000001 0.0
1.2000000000000002 1.4000000000000001 0.0
1.6 1.4000000000000001 0.0
2.0 1.4000000000000001 0.0
2.4000000000000004 1.4000000000000001 0.0
2.8000000000000003 1.4000000000000001 0.0
3.2 1.4000000000000001 0.0
3.6 1.4000000000000001 0.0
4.0 1.4000000000000001 0.0
4.4 1.4000000000000001 0.0
4.800000000000001 1.4000000000000001 0.0
5.2 1.4000000000000001 0.0
5.6000000000000005 1.4000000000000001 0.0
6.0 1.4000000000000001 0.0
6.4 1.4000000000000001 0.0
6.800000000000001 1.4000000000000001 0.0
7.2 1.4000000000000001 0.0
7.6000000000000005 1.4000000000000001 0.0
8.0 1.4000000000000001 0.0
8.4 1.4000000000000001 0.0
8.8 1.4000000000000001 0.0
9.200000000000001 1.4000000000000001 0.0
9.600000000000001 1.4000000000000001 0.0
10.0 1.4000000000000001 0.0
10.4 1.4000000000000001 0.0
10.8 1.4000000000000001 0.0
11.200000000000001 1.4000000000000001 0.0
11.600000000000001 1.4000000000000001 0.0
12.0 1.4000000000000001 0.0
12.4 1.4000000000000001 0.0
12.8 1.4000000000000001 0.0
13.200000000000001 1.4000000000000001 0.0
13.600000000000001 1.4000000000000001 0.0
14.0 1.4000000000000001 0.0
14.4 1.4000000000000001 0.0
14.8 1.4000000000000001 0.0
15.200000000000001 1.4000000000000001 0.0
15.600000000000001 1.4000000000000001 0.0
16.0 1.4000000000000001 0.0
0.0 1.5 0.0
0.4 1.5 0.0
0.8 1.5 0.0
1.2000000000000002 1.5 0.0
1.6 1.5 0.0
2.0 1.5 0.0
2.4000000000000004 1.5 0.0
2.8000000000000003 1.5 0.0
3.2 1.5 0.0
3.6 1.5 0.0
4.0 1.5 0.0
4.4 1.5 0.0
4.800000000000001 1.5 0.0
5.2 1.5 0.0
5.6000000000000005 1.5 0.0
6.0 1.5 0.0
6.4 1.5 0.0
6.800000000000001 1.5 0.0
7.2 1.5 0.0
7.6000000000000005 1.5 0.0
8.0 1.5 0.0
8.4 1.5 0.0
8.8 1.5 0.0
9.200000000000001 1.5 0.0
9.600000000000001 1.5 0.0
10.0 1.5 0.0
10.4 1.5 0.0
10.8 1.5 0.0
11.200000000000001 1.5 0.0
11.600000000000001 1.5 0.0
12.0 1.5 0.0
12.4 1.5 0.0
12.8 1.5 0.0
13.200000000000001 1.5 0.0
13.600000000000001 1.5 0.0
14.0 1.5 0.0
14.4 1.5 0.0
14.8 1.5 0.0
15.200000000000001 1.5 0.0
15.600000000000001 1.5 0.0
16.0 1.5 0.0
0.0 1.6 0.0
0.4 1.6 0.0
0.8 1.6 0.0
1.2000000000000002 1.6 0.0
1.6 1.6 0.0
2.0 1.6 0.0
2.4000000000000004 1.6 0.0
2.8000000000000003 1.6 0.0
3.2 1.6 0.0
3.6 1.6 0.0
4.0 1.6 0.0
4.4 1.6 0.0
4.800000000000001 1.6 0.0
5.2 1.6 0.0
5.6000000000000005 1.6 0.0
6.0 1.6 0.0
6.4 1.6 0.0
6.800000000000001 1.6 0.0
7.2 1.6 0.0
7.6000000000000005 1.6 0.0
8.0 1.6 0.0
8.4 1.6 0.0
8.8 1.6 0.0
9.200000000000001 1.6 0.0
9.600000000000001 1.6 0.0
10.0 1.6 0.0
10.4 1.6 0.0
10.8 1.6 0.0
11.200000000000001 1.6 0.0
11.600000000000001 1.6 0.0
12.0 1.6 0.0
12.4 1.6 0.0
12.8 1.6 0.0
13.200000000000001 1.6 0.0
13.600000000000001 1.6 0.0
14.0 1.6 0.0
14.4 1.6 0.0
14.8 1.6 0.0
15.200000000000001 1.6 0.0
15.600000000000001 1.6 0.0
16.0 1.6 0.0
0.0 1.7000000000000002 0.0
0.4 1.7000000000000002 0.0
0.8 1.7000000000000002 0.0
1.2000000000000002 1.7000000000000002 0.0
1.6 1.7000000000000002 0.0
2.0 1.7000000000000002 0.0
2.4000000000000004 1.7000000000000002 0.0
2.8000000000000003 1.7000000000000002 0.0
3.2 1.7000000000000002 0.0
3.6 1.7000000000000002 0.0
4.0 1.7000000000000002 0.0
4.4 1.7000000000000002 0.0
4.800000000000001 1.7000000000000002 0.0
5.2 1.7000000000000002 0.0
5.6000000000000005 1.7000000000000002 0.0
6.0 1.7000000000000002 0.0
6.4 1.7000000000000002 0.0
6.800000000000001 1.7000000000000002 0.0
7.2 1.7000000000000002 0.0
7.6000000000000005 1.7000000000000002 0.0
8.0 1.7000000000000002 0.0
8.4 1.7000000000000002 0.0
8.8 1.7000000000000002 0.0
9.200000000000001 1.7000000000000002 0.0
9.600000000000001 1.7000000000000002 0.0
10.0 1.7000000000000002 0.0
10.4 1.7000000000000002 0.0
10.8 1.7000000000000002 0.0
11.200000000000001 1.7000000000000002 0.0
11.600000000000001 1.7000000000000002 0.0
12.0 1.7000000000000002 0.0
12.4 1.7000000000000002 0.0
12.8 1.7000000000000002 0.0
13.200000000000001 1.7000000000000002 0.0
13.600000000000001 1.7000000000000002 0.0
14.0 1.7000000000000002 0.0
14.4 1.7000000000000002 0.0
14.8 1.7000000000000002 0.0
15.200000000000001 1.7000000000000002 0.0
15.600000000000001 1.7000000000000002 0.0
16.0 1.7000000000000002 0.0
0.0 1.8 0.0
0.4 1.8 0.0
0.8 1.8 0.0
1.2000000000000002 1.8 0.0
1.6 1.8 0.0
2.0 1.8 0.0
2.4000000000000004 1.8 0.0
2.8000000000000003 1.8 0.0
3.2 1.8 0.0
3.6 1.8 0.0
4.0 1.8 0.0
4.4 1.8 0.0
4.800000000000001 1.8 0.0
5.2 1.8 0.0
5.6000000000000005 1.8 0.0
6.0 1.8 0.0
6.4 1.8 0.0
6.800000000000001 1.8 0.0
7.2 1.8 0.0
7.6000000000000005 1.8 0.0
8.0 1.8 0.0
8.4 1.8 0.0
8.8 1.8 0.0
9.200000000000001 1.8 0.0
9.600000000000001 1.8 0.0
10.0 1.8 0.0
10.4 1.8 0.0
10.8 1.8 0.0
11.200000000000001 1.8 0.0
11.600000000000001 1.8 0.0
12.0 1.8 0.0
12.4 1.8 0.0
12.8 1.8 0.0
13.200000000000001 1.8 0.0
13.600000000000001 1.8 0.0
14.0 1.8 0.0
14.4 1.8 0.0
14.8 1.8 0.0
15.200000000000001 1.8 0.0
15.600000000000001 1.8 0.0
16.0 1.8 0.0
0.0 1.9000000000000001 0.0
0.4 1.9000000000000001 0.0
0.8 1.9000000000000001 0.0
1.2000000000000002 1.9000000000000001 0.0
1.6 1.9000000000000001 0.0
2.0 1.9000000000000001 0.0
2.4000000000000004 1.9000000000000001 0.0
2.8000000000000003 1.9000000000000001 0.0
3.2 1.9000000000000001 0.0
3.6 1.9000000000000001 0.0
4.0 1.9000000000000001 0.0
4.4 1.9000000000000001 0.0
4.800000000000001 1.9000000000000001 0.0
5.2 1.9000000000000001 0.0
5.6000000000000005 1.9000000000000001 0.0
6.0 1.9000000000000001 0.0
6.4 1.9000000000000001 0.0
6.800000000000001 1.9000000000000001 0.0
7.2 1.9000000000000001 0.0
7.6000000000000005 1.9000000000000001 0.0
8.0 1.9000000000000001 0.0
8.4 1.9000000000000001 0.0
8.8 1.9000000000000001 0.0
9.200000000000001 1.9000000000000001 0.0
9.600000000000001 1.9000000000000001 0.0
10.0 1.9000000000000001 0.0
10.4 1.9000000000000001 0.0
10.8 1.9000000000000001 0.0
11.200000000000001 1.9000000000000001 0.0
11.600000000000001 1.9000000000000001 0.0
12.0 1.9000000000000001 0.0
12.4 1.9000000000000001 0.0
12.8 1.9000000000000001 0.0
13.200000000000001 1.9000000000000001 0.0
13.600000000000001 1.9000000000000001 0.0
14.0 1.9000000000000001 0.0
14.4 1.9000000000000001 0.0
14.8 1.9000000000000001 0.0
15.200000000000001 1.9000000000000001 0.0
15.600000000000001 1.9000000000000001 0.0
16.0 1.9000000000000001 0.0
0.0 2.0 0.0
0.4 2.0 0.0
0.8 2.0 0.0
1.2000000000000002 2.0 0.0
1.6 2.0 0.0
2.0 2.0 0.0
2.4000000000000004 2.0 0.0
2.8000000000000003 2.0 0.0
3.2 2.0 0.0
3.6 2.0 0.0
4.0 2.0 0.0
4.4 2.0 0.0
4.800000000000001 2.0 0.0
5.2 2.0 0.0
5.6000000000000005 2.0 0.0
6.0 2.0 0.0
6.4 2.0 0.0
6.800000000000001 2.0 0.0
7.2 2.0 0.0
7.6000000000000005 2.0 0.0
8.0 2.0 0.0
8.4 2.0 0.0
8.8 2.0 0.0
9.200000000000001 2.0 0.0
9.600000000000001 2.0 0.0
10.0 2.0 0.0
10.4 2.0 0.0
10.8 2.0 0.0
11.200000000000001 2.0 0.0
11.600000000000001 2.0 0.0
12.0 2.0 0.0
12.4 2.0 0.0
12.8 2.0 0.0
13.200000000000001 2.0 0.0
13.600000000000001 2.0 0.0
14.0 2.0 0.0
14.4 2.0 0.0
14.8 2.0 0.0
15.200000000000001 2.0 0.0
15.600000000000001 2.0 0.0
16.0 2.0 0.0
CELLS 800 4000
4 0 1 42 41
4 1 2 43 42
4 2 3 44 43
4 3 4 45 44
4 4 5 46 45
4 5 6 47 46
4 6 7 48 47
4 7 8 49 48
4 8 9 50 49
4 9 10 51 50
4 10 11 52 51
4 11 12 53 52
4 12 13 54 53
4 13 14 55 54
4 14 15 56 55
4 15 16 57 56
4 16 17 58 57
4 17 18 59 58
4 18 19 60 59
4 19 20 61 60
4 20 21 62 61
4 21 22 63 62
4 22 23 64 63
4 23 24 65 64
4 24 25 66 65
4 25 26 67 66
4 26 27 68 67
4 27 28 69 68
4 28 29 70 69
4 29 30 71 70
4 30 31 72 71
4 31 32 73 72
4 32 33 74 73
4 33 34 75 74
4 34 35 76 75
4 35 36 77 76
4 36 37 78 77
4 37 38 79 78
4 38 39 80 79
4 39 40 81 80
4 41 42 83 82
4 42 43 84 83
4 43 44 85 84
4 44 45 86 85
4 45 46 87 86
4 46 47 88 87
4 47 48 89 88
4 48 49 90 89
4 49 50 91 90
4 50 51 92 91
4 51 52 93 92
4 52 53 94 93
4 53 54 95 94
4 54 55 96 95
4 55 56 97 96
4 56 57 98 97
4 57 58 99 98
4 58 59 100 99
4 59 60 101 100
4 60 61 102 101
4 61 62 103 102
4 62 63 104 103
4 63 64 105 104
4 64 65 106 105
4 65 66 107 106
4 66 67 108 107
4 67 68 109 108
4 68 69 110 109
4 69 70 111 110
4 70 71 112 111
4 71 72 113 112
4 72 73 114 113
4 73 74 115 114
4 74 75 116 115
4 75 76 117 116
4 76 77 118 117
4 77 78 119 118
4 78 79 120 119
4 79 80 121 120
4 80 81 122 121
4 82 83 124 123
4 83 84 125 124
4 84 85 126 125
4 85 86 127 126
4 86 87 128 127
4 87 88 129 128
4 88 89 130 129
4 89 90 131 130
4 90 91 132 131
4 91 92 133 132
4 92 93 134 133
4 93 94 135 134
4 94 95 136 135
4 95 96 137 136
4 96 97 138 137
4 97 98 139 138
4 98 99 140 139
4 99 100 141 140
4 100 101 142 141
4 101 102 143 142
4 102 103 144 143
4 103 104 145 144
4 104 105 146 145
4 105 106 147 146
4 106 107 148 147
4 107 108 149 148
4 108 109 150 149
4 109 110 151 150
4 110 111 152 151
4 111 112 153 152
4 112 113 154 153
4 113 114 155 154
4 114 115 156 155
4 115 116 157 156
4 116 117 158 157
4 117 118 159 158
4 118 119 160 159
4 119 120 161 160
4 120 121 162 161
4 121 122 163 162
4 123 124 165 164
4 124 125 166 165
4 125 126 167 166
4 126 127 168 167
4 127 128 169 168
4 128 129 170 169
4 129 130 171 170
4 130 131 172 171
4 131 132 173 172
4 132 133 174 173
4 133 134 175 174
4 134 135 176 175
4 135 136 177 176
4 136 137 178 177
4 137 138 179 178
4 138 139 180 179
4 139 140 181 180
4 140 141 182 181
4 141 142 183 182
4 142 143 184 183
4 143 144 185 184
4 144 145 186 185
4 145 146 187 186
4 146 147 188 187
4 147 148 189 188
4 148 149 190 189
4 149 150 191 190
4 150 151 192 191
4 151 152 193 192
4 152 153 194 193
4 153 154 195 194
4 154 155 196 195
4 155 156 197 196
4 156 157 198 197
4 157 158 199 198
4 158 159 200 199
4 159 160 201 200
4 160 161 202 201
4 161 162 203 202
4 162 163 204 203
4 164 165 206 205
4 165 166 207 206
4 166 167 208 207
4 167 168 209 208
4 168 169 210 209
4 169 170 211 210
4 170 171 212 211
4 171 172 213 212
4 172 173 214 213
4 173 174 215 214
4 174 175 216 215
4 175 176 217 216
4 176 177 218 217
4 177 178 219 218
4 178 179 220 219
4 179 180 221 220
4 180 181 222 221
4 181 182 223 222
4 182 183 224 223
4 183 184 225 224
4 184 185 226 225
4 185 186 227 226
4 186 187 228 227
4 187 188 229 228
4 188 189 230 229
4 189 190 231 230
4 190 191 232 231
4 191 192 233 232
4 192 193 234 233
4 193 194 235 234
4 194 195 236 235
4 195 196 237 236
4 196 197 238 237
4 197 198 239 238
4 198 199 240 239
4 199 200 241 240
4 200 201 242 241
4 201 202 243 242
4 202 203 244 243
4 203 204 245 244
4 205 206 247 246
4 206 207 248 247
4 207 208 249 248
4 208 209 250 249
4 209 210 251 250
4 210 211 252 251
4 211 212 253 252
4 212 213 254 253
4 213 214 255 254
4 214 215 256 255
4 215 216 257 256
4 216 217 258 257
4 217 218 259 258
4 218 219 260 259
4 219 220 261 260
4 220 221 262 261
4 221 222 263 262
4 222 223 264 263
4 223 224 265 264
4 224 225 266 265
4 225 226 267 266
4 226 227 268 267
4 227 228 269 268
4 228 229 270 269
4 229 230 271 270
4 230 231 272 271
4 231 232 273 272
4 232 233 274 273
4 233 234 275 274
4 234 235 276 275
4 235 236 277 276
4 236 237 278 277
4 237 238 279 278
4 238 239 280 279
4 239 240 281 280
4 240 241 282 281
4 241 242 283 282
4 242 243 284 283
4 243 244 285 284
4 244 245 286 285
4 246 247 288 287
4 247 248 289 288
4 248 249 290 289
4 249 250 291 290
4 250 251 292 291
4 251 252 293 292
4 252 253 294 293
4 253 254 295 294
4 254 255 296 295
4 255 256 297 296
4 256 257 298 297
4 257 258 299 298
4 258 259 300 299
4 259 260 301 300
4 260 261 302 301
4 261 262 303 302
4 262 263 304 303
4 263 264 305 304
4 264 265 306 305
4 265 266 307 306
4 266 267 308 307
4 267 268 309 308
4 268 269 310 309
4 269 270 311 310
4 270 271 312 311
4 271 272 313 312
4 272 273 314 313
4 273 274 315 314
4 274 275 316 315
4 275 276 317 316
4 276 277 318 317
4 277 278 319 318
4 278 279 320 319
4 279 280 321 320
4 280 281 322 321
4 281 282 323 322
4 282 283 324 323
4 283 284 325 324
4 284 285 326 325
4 285 286 327 326
4 287 288 329 328
4 288 289 330 329
4 289 290 331 330
4 290 291 332 331
4 291 292 333 332
4 292 293 334 333
4 293 294 335 334
4 294 295 336 335
4 295 296 337 336
4 296 297 338 337
4 297 298 339 338
4 298 299 340 339
4 299 300 341 340
4 300 301 342 341
4 301 302 343 342
4 302 303 344 343
4 303 304 345 344
4 304 305 346 345
4 305 306 347 346
4 306 307 348 347
4 307 308 349 348
4 308 309 350 349
4 309 310 351 350
4 310 311 352 351
4 311 312 353 352
4 312 313 354 353
4 313 314 355 354
4 314 315 356 355
4 315 316 357 356
4 316 317 358 357
4 317 318 359 358
4 318 319 360 359
4 319 320 361 360
4 320 321 362 361
4 321 322 363 362
4 322 323 364 363
4 323 324 365 364
4 324 325 366 365
4 325 326 367 366
4 326 327 368 367
4 328 329 370 369
4 329 330 371 370
4 330 331 372 371
4 331 332 373 372
4 332 333 374 373
4 333 334 375 374
4 334 335 376 375
4 335 336 377 376
4 336 337 378 377
4 337 338 379 378
4 338 339 380 379
4 339 340 381 380
4 340 341 382 381
4 341 342 383 382
4 342 343 384 383
4 343 344 385 384
4 344 345 386 385
4 345 346 387 386
4 346 347 388 387
4 347 348 389 388
4 348 349 390 389
4 349 350 391 390
4 350 351 392 391
4 351 352 393 392
4 352 353 394 393
4 353 354 395 394
4 354 355 396 395
4 355 356 397 396
4 356 357 398 397
4 357 358 399 398
4 358 359 400 399
4 359 360 401 400
4 360 361 402 401
4 361 362 403 402
4 362 363 404 403
4 363 364 405 404
4 364 365 406 405
4 365 366 407 406
4 366 367 408 407
4 367 368 409 408
4 369 370 411 410
4 370 371 412 411
4 371 372 413 412
4 372 373 414 413
4 373 374 415 414
4 374 375 416 415
4 375 376 417 416
4 376 377 418 417
4 377 378 419 418
4 378 379 420 419
4 379 380 421 420
4 380 381 422 421
4 381 382 423 422
4 382 383 424 423
4 383 384 425 424
4 384 385 426 425
4 385 386 427 426
4 386 387 428 427
4 387 388 429 428
4 388 389 430 429
4 389 390 431 430
4 390 391 432 431
4 391 392 433 432
4 392 393 434 433
4 393 394 435 434
4 394 395 436 435
4 395 396 437 436
4 396 397 438 437
4 397 398 439 438
4 398 399 440 439
4 399 400 441 440
4 400 401 442 441
4 401 402 443 442
4 402 403 444 443
4 403 404 445 444
4 404 405 446 445
4 405 406 447 446
4 406 407 448 447
4 407 408 449 448
4 408 409 450 449
4 410 411 452 451
4 411 412 453 452
4 412 413 454 453
4 413 414 455 454
4 414 415 456 455
4 415 416 457 456
4 416 417 458 457
4 417 418 459 458
4 418 419 460 459
4 419 420 461 460
4 420 421 462 461
4 421 422 463 462
4 422 423 464 463
4 423 424 465 464
4 424 425 466 465
4 425 426 467 466
4 426 427 468 467
4 427 428 469 468
4 428 429 470 469
4 429 430 471 470
4 430 431 472 471
4 431 432 473 472
4 432 433 474 473
4 433 434 475 474
4 434 435 476 475
4 435 436 477 476
4 436 437 478 477
4 437 438 479 478
4 438 439 480 479
4 439 440 481 480
4 440 441 482 481
4 441 442 483 482
4 442 443 484 483
4 443 444 485 484
4 444 445 486 485
4 445 446 487 486
4 446 447 488 487
4 447 448 489 488
4 448 449 490 489
4 449 450 491 490
4 451 452 493 492
4 452 453 494 493
4 453 454 495 494
4 454 455 496 495
4 455 456 497 496
4 456 457 498 497
4 457 458 499 498
4 458 459 500 499
4 459 460 501 500
4 460 461 502 501
4 461 462 503 502
4 462 463 504 503
4 463 464 505 504
4 464 465 506 505
4 465 466 507 506
4 466 467 508 507
4 467 468 509 508
4 468 469 510 509
4 469 470 511 510
4 470 471 512 511
4 471 472 513 512
4 472 473 514 513
4 473 474 515 514
4 474 475 516 515
4 475 476 517 516
4 476 477 518 517
4 477 478 519 518
4 478 479 520 519
4 479 480 521 520
4 480 481 522 521
4 481 482 523 522
4 482 483 524 523
4 483 484 525 524
4 484 485 526 525
4 485 486 527 526
4 486 487 528 527
4 487 488 529 528
4 488 489 530 529
4 489 490 531 530
4 490 491 532 531
4 492 493 534 533
4 493 494 535 534
4 494 495 536 535
4 495 496 537 536
4 496 497 538 537
4 497 498 539 538
4 498 499 540 539
4 499 500 541 540
4 500 501 542 541
4 501 502 543 542
4 502 503 544 543
4 503 504 545 544
4 504 505 546 545
4 505 506 547 546
4 506 507 548 547
4 507 508 549 548
4 508 509 550 549
4 509 510 551 550
4 510 511 552 551
4 511 512 553 552
4 512 513 554 553
4 513 514 555 554
4 514 515 556 555
4 515 516 557 556
4 516 517 558 557
4 517 518 559 558
4 518 519 560 559
4 519 520 561 560
4 520 521 562 561
4 521 522 563 562
4 522 523 564 563
4 523 524 565 564
4 524 525 566 565
4 525 526 567 566
4 526 527 568 567
4 527 528 569 568
4 528 529 570 569
4 529 530 571 570
4 530 531 572 571
4 531 532 573 572
4 533 534 575 574
4 534 535 576 575
4 535 536 577 576
4 536 537 578 577
4 537 538 579 578
4 538 539 580 579
4 539 540 581 580
4 540 541 582 581
4 541 542 583 582
4 542 543 584 583
4 543 544 585 584
4 544 545 586 585
4 545 546 587 586
4 546 547 588 587
4 547 548 589 588
4 548 549 590 589
4 549 550 591 590
4 550 551 592 591
4 551 552 593 592
4 552 553 594 593
4 553 554 595 594
4 554 555 596 595
4 555 556 597 596
4 556 557 598 597
4 557 558 599 598
4 558 559 600 599
4 559 560 601 600
4 560 561 602 601
4 561 562 603 602
4 562 563 604 603
4 563 564 605 604
4 564 565 606 605
4 565 566 607 606
4 566 567 608 607
4 567 568 609 608
4 568 569 610 609
4 569 570 611 610
4 570 571 612 611
4 571 572 613 612
4 572 573 614 613
4 574 575 616 615
4 575 576 617 616
4 576 577 618 617
4 577 578 619 618
4 578 579 620 619
4 579 580 621 620
4 580 581 622 621
4 581 582 623 622
4 582 583 624 623
4 583 584 625 624
4 584 585 626 625
4 585 586 627 626
4 586 587 628 627
4 587 588 629 628
4 588 589 630 629
4 589 590 631 630
4 590 591 632 631
4 591 592 633 632
4 592 593 634 633
4 593 594 635 634
4 594 595 636 635
4 595 596 637 636
4 596 597 638 637
4 597 598 639 638
4 598 599 640 639
4 599 600 641 640
4 600 601 642 641
4 601 602 643 642
4 602 603 644 643
4 603 604 645 644
4 604 605 646 645
4 605 606 647 646
4 606 607 648 647
4 607 608 649 648
4 608 609 650 649
4 609 610 651 650
4 610 611 652 651
4 611 612 653 652
4 612 613 654 653
4 613 614 655 654
4 615 616 657 656
4 616 617 658 657
4 617 618 659 658
4 618 619 660 659
4 619 620 661 660
4 620 621 662 661
4 621 622 663 662
4 622 623 664 663
4 623 624 665 664
4 624 625 666 665
4 625 626 667 666
4 626 627 668 667
4 627 628 669 668
4 628 629 670 669
4 629 630 671 670
4 630 631 672 671
4 631 632 673 672
4 632 633 674 673
4 633 634 675 674
4 634 635 676 675
4 635 636 677 676
4 636 637 678 677
4 637 638 679 678
4 638 639 680 679
4 639 640 681 680
4 640 641 682 681
4 641 642 683 682
4 642 643 684 683
4 643 644 685 684
4 644 645 686 685
4 645 646 687 686
4 646 647 688 687
4 647 648 689 688
4 648 649 690 689
4 649 650 691 690
4 650 651 692 691
4 651 652 693 692
4 652 653 694 693
4 653 654 695 694
4 654 655 696 695
4 656 657 698 697
4 657 658 699 698
4 658 659 700 699
4 659 660 701 700
4 660 661 702 701
4 661 662 703 702
4 662 663 704 703
4 663 664 705 704
4 664 665 706 705
4 665 666 707 706
4 666 667 708 707
4 667 668 709 708
4 668 669 710 709
4 669 670 711 710
4 670 671 712 711
4 671 672 713 712
4 672 673 714 713
4 673 674 715 714
4 674 675 716 715
4 675 676 717 716
4 676 677 718 717
4 677 678 719 718
4 678 679 720 719
4 679 680 721 720
4 680 681 722 721
4 681 682 723 722
4 682 683 724 723
4 683 684 725 724
4 684 685 726 725
4 685 686 727 726
4 686 687 728 727
4 687 688 729 728
4 688 689 730 729
4 689 690 731 730
4 690 691 732 731
4 691 692 733 732
4 692 693 734 733
4 693 694 735 734
4 694 695 736 735
4 695 696 737 736
4 697 698 739 738
4 698 699 740 739
4 699 700 741 740
4 700 701 742 741
4 701 702 743 742
4 702 703 744 743
4 703 704 745 744
4 704 705 746 745
4 705 706 747 746
4 706 707 748 747
4 707 708 749 748
4 708 709 750 749
4 709 710 751 750
4 710 711 752 751
4 711 712 753 752
4 712 713 754 753
4 713 714 755 754
4 714 715 756 755
4 715 716 757 756
4 716 717 758 757
4 717 718 759 758
4 718 719 760 759
4 719 720 761 760
4 720 721 762 761
4 721 722 763 762
4 722 723 764 763
4 723 724 765 764
4 724 725 766 765
4 725 726 767 766
4 726 727 768 767
4 727 728 769 768
4 728 729 770 769
4 729 730 771 770
4 730 731 772 771
4 731 732 773 772
4 732 733 774 773
4 733 734 775 774
4 734 735 776 775
4 735 736 777 776
4 736 737 778 777
4 738 739 780 779
4 739 740 781 780
4 740 741 782 781
4 741 742 783 782
4 742 743 784 783
4 743 744 785 784
4 744 745 786 785
4 745 746 787 786
4 746 747 788 787
4 747 748 789 788
4 748 749 790 789
4 749 750 791 790
4 750 751 792 791
4 751 752 793 792
4 752 753 794 793
4 753 754 795 794
4 754 755 796 795
4 755 756 797 796
4 756 757 798 797
4 757 758 799 798
4 758 759 800 799
4 759 760 801 800
4 760 761 802 801
4 761 762 803 802
4 762 763 804 803
4 763 764 805 804
4 764 765 806 805
4 765 766 807 806
4 766 767 808 807
4 767 768 809 808
4 768 769 810 809
4 769 770 811 810
4 770 771 812 811
4 771 772 813 812
4 772 773 814 813
4 773 774 815 814
4 774 775 816 815
4 775 776 817 816
4 776 777 818 817
4 777 778 819 818
4 779 780 821 820
4 780 781 822 821
4 781 782 823 822
4 782 783 824 823
4 783 784 825 824
4 784 785 826 825
4 785 786 827 826
4 786 787 828 827
4 787 788 829 828
4 788 789 830 829
4 789 790 831 830
4 790 791 832 831
4 791 792 833 832
4 792 793 834 833
4 793 794 835 834
4 794 795 836 835
4 795 796 837 836
4 796 797 838 837
4 797 798 839 838
4 798 799 840 839
4 799 800 841 840
4 800 801 842 841
4 801 802 843 842
4 802 803 844 843
4 803 804 845 844
4 804 805 846 845
4 805 806 847 846
4 806 807 848 847
4 807 808 849 848
4 808 809 850 849
4 809 810 851 850
4 810 811 852 851
4 811 812 853 852
4 812 813 854 853
4 813 814 855 854
4 814 815 856 855
4 815 816 857 856
4 816 817 858 857
4 817 818 859 858
4 818 819 860 859
CELL_TYPES 800
9
9
9
9
9
9
9
9
9
9
9
9
9
9
9
9
9
9
9
9
9
9
9
9
9
9
9
9
9
9
9
9
9
9
9
9
9
9
9
9
9
9
9
9
9
9
9
9
9
9
9
9
9
9
9
9
9
9
9
9
9
9
9
9
9
9
9
9
9
9
9
9
9
9
9
9
9
9
9
9
9
9
9
9
9
9
9
9
9
9
9
9
9
9
9
9
9
9
9
9
9
9
9
9
9
9
9
9
9
9
9
9
9
9
9
9
9
9
9
9
9
9
9
9
9
9
9
9
9
9
9
9
9
9
9
9
9
9
9
9
9
9
9
9
9
9
9
9
9
9
9
9
9
9
9
9
9
9
9
9
9
9
9
9
9
9
9
9
9
9
9
9
9
9
9
9
9
9
9
9
9
9
9
9
9
9
9
9
9
9
9
9
9
9
9
9
9
9
9
9
9
9
9
9
9
9
9
9
9
9
9
9
9
9
9
9
9
9
9
9
9
9
9
9
9
9
9
9
9
9
9
9
9
9
9
9
9
9
9
9
9
9
9
9
9
9
9
9
9
9
9
9
9
9
9
9
9
9
9
9
9
9
9
9
9
9
9
9
9
9
9
9
9
9
9
9
9
9
9
9
9
9
9
9
9
9
9
9
9
9
9
9
9
9
9
9
9
9
9
9
9
9
9
9
9
9
9
9
9
9
9
9
9
9
9
9
9
9
9
9
9
9
9
9
9
9
9
9
9
9
9
9
9
9
9
9
9
9
9
9
9
9
9
9
9
9
9
9
9
9
9
9
9
9
9
9
9
9
9
9
9
9
9
9
9
9
9
9
9
9
9
9
9
9
9
9
9
9
9
9
9
9
9
9
9
9
9
9
9
9
9
9
9
9
9
9
9
9
9
9
9
9
9
9
9
9
9
9
9
9
9
9
9
9
9
9
9
9
9
9
9
9
9
9
9
9
9
9
9
9
9
9
9
9
9
9
9
9
9
9
9
9
9
9
9
9
9
9
9
9
9
9
9
9
9
9
9
9
9
9
9
9
9
9
9
9
9
9
9
9
9
9
9
9
9
9
9
9
9
9
9
9
9
9
9
9
9
9
9
9
9
9
9
9
9
9
9
9
9
9
9
9
9
9
9
9
9
9
9
9
9
9
9
9
9
9
9
9
9
9
9
9
9
9
9
9
9
9
9
9
9
9
9
9
9
9
9
9
9
9
9
9
9
9
9
9
9
9
9
9
9
9
9
9
9
9
9
9
9
9
9
9
9
9
9
9
9
9
9
9
9
9
9
9
9
9
9
9
9
9
9
9
9
9
9
9
9
9
9
9
9
9
9
9
9
9
9
9
9
9
9
9
9
9
9
9
9
9
9
9
9
9
9
9
9
9
9
9
9
9
9
9
9
9
9
9
9
9
9
9
9
9
9
9
9
9
9
9
9
9
9
9
9
9
9
9
9
9
9
9
9
9
9
9
9
9
9
9
9
9
9
9
9
9
9
9
9
9
9
9
9
9
9
9
9
9
9
9
9
9
9
9
9
9
9
9
9
9
9
9
9
9
9
9
9
9
9
9
9
9
9
9
9
9
9
9
9
9
9
9
9
9
9
9
9
9
9
9
9
9
9
9
9
9
9
9
9
9
9
9
9
9
9
9
9
9
9
9
9
9
9
9
9
9
9
9
9
9
9
9
9
9
9
9
9
9
9
9
9
9
9
9
9
9
9
9
9
9
9
9
9
9
9
9
9
9
9
9
9
9
9
9
9
9
9
9
9
9
9
9
9
9
9
9
9
9
9
9
9
9
POINT_DATA 861
SCALARS Disp float 2
LOOKUP_TABLE default
0.0 0.0
0.005265403628378956 -0.2001757417583563
0.006463857221511187 -0.3919020707598305
0.007222482418805251 -0.5827203747449002
0.008170014413690816 -0.7732099705214861
0.009616049198464925 -0.9630376394684423
0.012048289880143124 -1.1517688829873158
0.016038578377586116 -1.3388642744517234
0.022252361397542733 -1.523654464549118
0.03141200928321275 -1.7052775161401654
0.04424667051125718 -1.882576719195994
0.06146947157640242 -2.0540273713928316
0.08376932432503405 -2.2177404700980174
0.11180307913259648 -2.371543558030151
0.14619602551307104 -2.513047998021891
0.1874760762181232 -2.6396991611048226
0.23594902223643385 -2.748834545913262
0.2915417535099346 -2.837780647900152
0.3536609436509408 -2.9040317397130124
0.4211244586826224 -2.945488805944903
0.4920255773870258 -2.96070644186732
0.562926696091426 -2.945488805944813
0.6303902111230945 -2.9040317397128295
0.6925094012640771 -2.8377806478998875
0.7481021325375485 -2.7488345459129304
0.7965750785558282 -2.6396991611044442
0.8378551292608483 -2.513047998021474
0.8722480756412901 -2.37154355802971
0.9002818304488194 -2.2177404700975654
0.9225816831974198 -2.0540273713923827
0.9398044842625372 -1.88257671919556
0.9526391454905586 -1.7052775161397566
0.9617987933762104 -1.5236544645487398
0.9680125763961537 -1.3388642744513821
0.9720028648935878 -1.1517688829870143
0.9744351055752604 -0.9630376394681861
0.9758811403600317 -0.7732099705212758
0.9768286723549168 -0.5827203747447388
0.9775872975522106 -0.3919020707597164
0.9787857511453416 -0.2001757417582922
0.9840511547737173 0.0
0.04993571275278106 -0.002225142759515897
0.05357105052606478 -0.200389501439054
0.054207949169943585 -0.39196315145715044
0.05488426898189701 -0.5828057417636722
0.05572238500498287 -0.7733358707475655
0.05696105653734701 -0.963299827973714
0.0590602330658629 -1.1522973020198792
0.06256113306848676 -1.3398118417190046
0.06808939677129124 -1.5251913051497923
0.0763046665717497 -1.7075761554771776
0.08785701358891441 -1.8858051403852456
0.10336779537963686 -2.0583481634982395
0.12344052428502085 -2.223312273674379
0.14867436026281514 -2.378520748049416
0.17964251058877473 -2.5215740184952686
0.21683847998665096 -2.649883154143875
0.26056000926410444 -2.7607159632133493
0.3107684391594691 -2.851292131509243
0.3669598689909842 -2.9189694782766185
0.42803489266875194 -2.961491739261811
0.4920255773870148 -2.9771439821646943
0.5560162621052743 -2.961491739261719
0.6170912857830296 -2.918969478276431
0.6732827156145244 -2.851292131508972
0.7234911455098636 -2.7607159632130105
0.7672126747872896 -2.649883154143489
0.8044086441851367 -2.5215740184948445
0.8353767945110667 -2.378520748048967
0.8606106304888314 -2.223312273673919
0.8806833593941874 -2.0583481634977843
0.8961941411848846 -1.8858051403848057
0.9077464882020285 -1.707576155476764
0.9159617580024704 -1.5251913051494104
0.9214900217052627 -1.3398118417186609
0.9249909217078786 -1.1522973020195761
0.9270900982363897 -0.9632998279734569
0.9283287697687517 -0.773335870747355
0.929166885791837 -0.5828057417635106
0.9298432056037903 -0.39196315145703625
0.9304801042476691 -0.20038950143898962
0.9341154420209475 -0.0022251427595134394
0.0989597759010301 -0.003979879798802822
0.10160449175602392 -0.20049370482032516
0.10197233087853509 -0.39199817588045066
0.10252512654146449 -0.5828813825037069
0.10326204587211506 -0.7734383507039333
0.10431467500038438 -0.9635075787585886
0.10608673139326405 -1.1527338308643134
0.10910008875661113 -1.3406219201737724
0.11393152943190674 -1.5265333944732202
0.12118091876760896 -1.7096063349497777
0.13142263914903074 -1.8886711116198862
0.1451950234743803 -2.06219058880258
0.1630189345849614 -2.228270882697617
0.18542168030308523 -2.384736372304223
0.21292861144096253 -2.5291787915833526
0.24599637618477158 -2.658980389601063
0.2849217977378758 -2.771349233350713
0.3297174222386374 -2.8634108334095534
0.3799695383644245 -2.9323956465384304
0.43465313492935337 -2.9758680814204324
0.49202557738700425 -2.9919173466503115
0.5493980198446518 -2.9758680814203387
0.6040816164095693 -2.932395646538239
0.6543337325353384 -2.863410833409277
0.699129357036078 -2.7713492333503673
0.7380547785891577 -2.6589803896006705
0.7711225433329407 -2.529178791582922
0.7986294744707917 -2.384736372303768
0.8210322201888895 -2.2282708826971507
0.8388561312994458 -2.0621905888021184
0.8526285156247727 -1.8886711116194412
0.8628702360061761 -1.7096063349493598
0.8701196253418634 -1.5265333944728354
0.8749510660171479 -1.3406219201734262
0.877964423380488 -1.152733830864009
0.8797364797733638 -0.9635075787583309
0.8807891089016315 -0.7734383507037227
0.8815260282322817 -0.5828813825035453
0.8820788238952111 -0.3919981758803366
0.8824466630177222 -0.2004937048202604
0.885091378872711 -0.0039798797987977644
0.1475059216173398 -0.00538538666172673
0.14949019205028802 -0.20056427290910958
0.1497154221627576 -0.39201783050493766
0.15014828732127267 -0.5829435069824787
0.15078356163536327 -0.7735242416667195
0.1516732578186711 -0.9636678280936756
0.153136739028456 -1.153081418661813
0.1556668647253419 -1.3412957852156195
0.15979753763711405 -1.527678633620945
0.16606806927969228 -1.7113639653715478
0.1749813264041402 -1.8911697150807771
0.18699633591832465 -2.0655508541976975
0.20255573255697773 -2.2326129523273486
0.22211345185977485 -2.3901847751351104
0.24613260399162068 -2.5358547328517034
0.27503986691214105 -2.6669820695317203
0.3091344394307583 -2.7807261250865567
0.348480439685798 -2.874131398771568
0.3927600544516463 -2.9443056400858882
0.4411041658132899 -2.9886502980747665
0.492025577386994 -3.005099436802923
0.5429469889606947 -2.988650298074671
0.5912911003223281 -2.9443056400856937
0.6355707150881609 -2.8741313987712864
0.6749167153431811 -2.780726125086206
0.7090112878617769 -2.666982069531321
0.7379185507822745 -2.5358547328512673
0.761937702914097 -2.390184775134649
0.7814954222168715 -2.2326129523268765
0.7970548188555029 -2.06555085419723
0.8090698283696679 -1.8911697150803273
0.8179830854940993 -1.7113639653711263
0.8242536171366643 -1.5276786336205572
0.8283842900484267 -1.3412957852152714
0.8309144157453066 -1.1530814186615077
0.8323778969550886 -0.9636678280934174
0.8332675931383953 -0.7735242416665087
0.8339028674524855 -0.582943506982317
0.8343357326110006 -0.39201783050482364
0.8345609627234704 -0.20056427290904452
0.8365452331564139 -0.0053853866617193
0.19577772188487083 -0.00651730512912572
0.1972728162502987 -0.20062031407021474
0.19742002339391182 -0.3920291282157991
0.19775100111517618 -0.5829918386121953
0.19828399582194586 -0.7735962147458726
0.1990284083158074 -0.9637912217106653
0.20021619810335023 -1.1533469325395707
0.2022724972947475 -1.3418358856505823
0.20570641446155405 -1.528627570553346
0.21099384798072393 -1.712847408595767
0.21856975338151152 -1.893298874694074
0.22881877673035136 -2.0684268605551295
0.24210497551109803 -2.236336986347409
0.25880912173141424 -2.3948643881420253
0.27933523799851506 -2.5415979909874613
0.30406498072059107 -2.6738823420421327
0.3332985856957841 -2.7888391020974708
0.36715381436432437 -2.883444512042278
0.4054296068223857 -2.9546989980842464
0.4474587100669626 -2.9998621945369863
0.4920255773869839 -3.0167313044278825
0.5365924447070021 -2.999862194536889
0.5786215479515697 -2.9546989980840492
0.6168973404096173 -2.8834445120419927
0.6507525690781409 -2.7888391020971155
0.6799861740533154 -2.673882342041728
0.7047159167753718 -2.54159799098702
0.7252420330424525 -2.3948643881415586
0.7419461792627494 -2.2363369863469322
0.7552323780434776 -2.0684268605546574
0.7654814013923009 -1.8932988746936203
0.773057306793074 -1.7128474085953427
0.7783447403122327 -1.5286275705529557
0.781778657479031 -1.3418358856502326
0.7838349566704232 -1.1533469325392642
0.7850227464579638 -0.9637912217104071
0.7857671589518246 -0.7735962147456618
0.7863001536585941 -0.5829918386120335
0.7866311313798584 -0.3920291282156852
0.7867783385234717 -0.20062031407014938
0.7882734328888955 -0.006517305129116226
0.24386776976463728 -0.007423413450659018
0.24498295505663004 -0.200668178538562
0.2450843653315513 -0.3920368663876779
0.24533064390768763 -0.583027482791694
0.2457611698794884 -0.7736559025544802
0.24637408520785345 -0.9638863120653608
0.24731694335447504 -1.1535424302139385
0.24893476130814518 -1.3422469505074783
0.2516774844922089 -1.5293828397497873
0.25598641417420914 -1.7140578217319844
0.26222534342303067 -1.8950587512883403
0.270707607811266 -2.0708191867805468
0.2817226991759095 -2.2394438651006094
0.29557718431265584 -2.398776018951345
0.31260922101267696 -2.546409397767641
0.3331630483594103 -2.679679549374954
0.35752293513054295 -2.795681639372563
0.3858473905134607 -2.8913405381863755
0.4180751714105804 -2.96357185858069
0.4537760062761573 -3.0095148429524374
0.4920255773869737 -3.0268369837401816
0.5302751484977872 -3.009514842952339
0.5659759833633561 -2.9635718585804898
0.5982037642604642 -2.8913405381860864
0.6265282196433677 -2.7956816393722037
0.6508881064144847 -2.6796795493745456
0.6714419337612012 -2.5464093977671953
0.6884739704612057 -2.398776018950874
0.702328455597936 -2.2394438651001285
0.7133435469625644 -2.0708191867800707
0.7218258113507859 -1.8950587512878834
0.7280647405995954 -1.714057821731557
0.7323736702815862 -1.529382839749395
0.7351163934656432 -1.342246950507127
0.7367342114193094 -1.1535424302136315
0.7376770695659294 -0.9638863120651023
0.738289984894294 -0.7736559025542694
0.7387205108660946 -0.5830274827915323
0.7389667894422309 -0.392036866387564
0.7390681997171521 -0.20066817853849642
0.7401833850091418 -0.007423413450647757
0.2918254296761225 -0.008140388424666077
0.29264192036344144 -0.20071005712181114
0.29271304476261734 -0.39204349114944975
0.2928868276573276 -0.583051857455404
0.2932157461292859 -0.7737036408467775
0.2937044413848851 -0.9639595107059408
0.29442924712035773 -1.1536817875963488
0.29564952048018334 -1.34254223535397
0.29773510096240463 -1.529949606579208
0.3010750350029933 -1.7149989221201956
0.3059868532393283 -1.8964524274111758
0.31271084001844796 -2.072730851679578
0.32146496067786434 -2.241937356434196
0.33248344751523495 -2.4019239982764256
0.34603891292461175 -2.5502923927073344
0.3624246362318862 -2.684376099197228
0.3819099888719445 -2.80125155835328
0.4046816392739152 -2.8978102772529564
0.4308045831920839 -2.9709138227231766
0.4601166237669749 -3.017606029084942
0.4920255773869634 -3.035426142269305
0.5239345310069493 -3.0176060290848414
0.5532465715818332 -2.970913822722974
0.5793695154999926 -2.897810277252664
0.6021411659019517 -2.8012515583529174
0.621626518541997 -2.684376099196816
0.6380122418492578 -2.550292392706885
0.6515677072586212 -2.4019239982759513
0.6625861940959796 -2.241937356433712
0.671340314755384 -2.0727308516790983
0.6780643015344926 -1.896452427410716
0.6829761197708177 -1.7149989221197657
0.6863160538113989 -1.529949606578814
0.6884016342936152 -1.3425422353536178
0.6896219076534379 -1.1536817875960412
0.6903467133889094 -0.9639595107056822
0.6908354086445083 -0.7737036408465665
0.6911643271164666 -0.5830518574552424
0.6913381100111768 -0.3920434911493359
0.6914092344103526 -0.20071005712174544
0.6922257250976692 -0.00814038842465338
0.33968411779798935 -0.008697494387036769
0.34026564119641267 -0.2007477317329893
0.3403127586908183 -0.39204953175098295
0.34042108242014346 -0.5830663382531327
0.3406502848357563 -0.7737387405386145
0.3410143828622163 -0.9640153864817179
0.34154811333495283 -1.1537766544706418
0.34241020423565505 -1.34273918475608
0.3438878908814166 -1.530341439523976
0.3462939911659589 -1.715677986000071
0.34989555257076205 -1.8974858719674979
0.3548772610182166 -2.074167814730712
0.3613905302018417 -2.2438243817129684
0.3695979687603023 -2.404316206981777
0.3797028772762162 -2.5532550096071467
0.39194570158560904 -2.6879778790922497
0.40657038272674384 -2.805550938322933
0.42377616035008286 -2.9028474590514164
0.443733512710735 -2.976708306126329
0.4665498284660604 -3.0241188355571262
0.4920255773869526 -3.04249356858142
0.5175013263078428 -3.024118835557025
0.5403176420631629 -2.9767083061261244
0.5602749944238076 -2.9028474590511224
0.5774807720471374 -2.805550938322568
0.5921054531882622 -2.6879778790918345
0.6043482774976445 -2.553255009606694
0.6144531860135487 -2.4043162069813
0.6226606245720006 -2.2438243817124817
0.6291738937556168 -2.07416781473023
0.634155602203063 -1.8974858719670358
0.637757163607859 -1.7156779859996392
0.6401632638923959 -1.530341439523581
0.6416409505381538 -1.3427391847557268
0.6425030414388542 -1.153776654470334
0.6430367719115901 -0.9640153864814592
0.6434008699380498 -0.7737387405384036
0.6436300723536627 -0.5830663382529708
0.6437383960829877 -0.39204953175086904
0.6437855135773932 -0.20074773173292348
0.644367036975815 -0.00869749438702294
0.38746354927707916 -0.009122723221117826
0.38786909014739807 -0.20078269493268633
0.387889560718792 -0.392054228677706
0.38793630440027843 -0.583072003734775
0.38806880992686993 -0.7737606429488189
0.3883039454384604 -0.9640551192193504
0.3886597123372165 -1.1538391152629808
0.3892097825710944 -1.342857089858365
0.3901352122119066 -1.530579855320862
0.3916643007614166 -1.716111225965663
0.39399528591629507 -1.8981700050336634
0.3972631345835895 -2.0751402243503714
0.4015620176567201 -2.245115867456505
0.40699200483606546 -2.4059650475115557
0.41368612083708295 -2.5553098085654558
0.4218214474866345 -2.6904957565060807
0.43160963604646607 -2.80858791253632
0.4432639794391596 -2.9064507766463312
0.45700097691853425 -2.980934628885674
0.47316141820842156 -3.0290202562402695
0.4920255773869415 -3.0480176624235873
0.51088973656546 -3.0290202562401674
0.5270501778553441 -2.980934628885468
0.5407871753347132 -2.9064507766460355
0.5524415187274001 -2.808587912535953
0.5622297072872249 -2.690495756505663
0.5703650339367696 -2.5553098085650015
0.5770591499377808 -2.405965047511077
0.5824891371171206 -2.2451158674560165
0.5867880201902458 -2.075140224349888
0.5900558688575346 -1.8981700050332002
0.5923868540124084 -1.71611122596523
0.5939159425619152 -1.5305798553204661
0.5948413722027251 -1.3428570898580112
0.595391442436602 -1.1538391152626728
0.5957472093353579 -0.9640551192190919
0.5959823448469481 -0.7737606429486079
0.5961148503735396 -0.5830720037346132
0.596161594055026 -0.39205422867759204
0.5961820646264196 -0.20078269493262052
0.5965876054967376 -0.009122723221103135
0.4351769485681606 -0.009444869863102718
0.4354592583261919 -0.20081695044142542
0.43544910562602485 -0.39205597881473825
0.4354363856853146 -0.5830696444902868
0.43547516193632585 -0.773769429128844
0.4355793190492094 -0.9640773957682294
0.4357544823811211 -1.1538761097116612
0.43602785404910865 -1.3429181566458739
0.43646699886547385 -1.5306949997973602
0.4371936112371865 -1.7163276897069404
0.43831880374220095 -1.8985283269195068
0.43992209969729124 -2.0756675465543837
0.44204453640142466 -2.2458302228215
0.4447352452482224 -2.4068903286492715
0.44806418847139307 -2.556477451227978
0.45213661338939204 -2.6919481660853593
0.45711623368011234 -2.8103769294047276
0.4632305609720846 -2.908631883421062
0.47075383918623437 -2.9835789547763842
0.48008368370534643 -3.0322593489431995
0.49202557738693004 -3.0519531503561623
0.5039674710685128 -3.032259348943097
0.5132973155876236 -2.9835789547761773
0.5208205938017699 -2.9086318834207647
0.5269349210937381 -2.81037692940436
0.5319145413844554 -2.6919481660849405
0.5359869663024511 -2.556477451227523
0.5393159095256194 -2.4068903286487924
0.5420066183724149 -2.2458302228210103
0.5441290550765459 -2.075667546553899
0.5457323510316336 -1.8985283269190427
0.5468575435366462 -1.716327689706507
0.5475841559083575 -1.530694999796964
0.5480233007247218 -1.3429181566455202
0.548296672392709 -1.153876109711353
0.5484718357246205 -0.9640773957679708
0.548575992837504 -0.7737694291286331
0.5486147690885153 -0.5830696444901249
0.548602049147805 -0.3920559788146241
0.5485918964476378 -0.20081695044135967
0.5488742062056686 -0.009444869863087445
0.4828404587342392 -0.00968820889457705
0.483036060963697 -0.2008523933705187
0.4829962571279793 -0.3920534550962304
0.48292582007961504 -0.5830597789051507
0.48287364798146504 -0.7737653404322941
0.48284739201058535 -0.9640815870332309
0.4828375659372593 -1.1538877711558575
0.48283482333466615 -1.342937779568207
0.4828342488399283 -1.5307278682550556
0.4828344272336589 -1.716383761041973
0.482834664317839 -1.8986198841109967
0.4828344265743406 -2.07580352835237
0.48282999899948015 -2.246017934879675
0.48281786855123465 -2.4071402748737105
0.4828025725989511 -2.5568047863754426
0.48282324115877506 -2.6923782296396537
0.48299586526789 -2.810954646376845
0.4835660377552642 -2.909425901230983
0.48490565850908945 -2.9846738468267486
0.48743310985017313 -3.033795196751857
0.4920255773869181 -3.054229346063545
0.4966180449236632 -3.033795196751754
0.49914549626474664 -2.9846738468265412
0.5004851170185709 -2.909425901230685
0.5010552895059447 -2.8109546463764765
0.5012279136150605 -2.692378229639235
0.5012485821748849 -2.556804786374987
0.5012332862226022 -2.407140274873231
0.5012211557743582 -2.246017934879185
0.5012167281994986 -2.0758035283518854
0.5012164904560011 -1.8986198841105324
0.501216727540182 -1.7163837610415398
0.5012169059339129 -1.5307278682546597
0.5012163314391753 -1.3429377795678532
0.5012135888365823 -1.1538877711555493
0.5012037627632564 -0.9640815870329723
0.5011775067923766 -0.7737653404320832
0.5011253346942268 -0.583059778904989
0.5010548976458625 -0.3920534550961162
0.5010150938101449 -0.200852393370453
0.5012106960396022 -0.009688208894561394
0.5304651243425229 -0.00987513678222261
0.530601385785353 -0.20088765479121967
0.5305348704409473 -0.3920466902035855
0.5304093076842702 -0.5830426051644276
0.5302689315081909 -0.7737488227750069
0.5301144384265508 -0.9640676696384913
0.5299205391376434 -1.1538735041018187
0.5296414570329391 -1.3429176136769072
0.529201303563266 -1.5306949970914658
0.528475200246618 -1.7163277361594038
0.5273509282674885 -1.8985284642314564
0.5257465079761534 -2.0756665196306185
0.5236145117407677 -2.245826532838312
0.5208994670148677 -2.4068833647697225
0.5175419348996908 -2.556475281114932
0.5135139851992548 -2.691982737550096
0.5088731213540482 -2.8105256819431355
0.5038318256688813 -2.909034969399408
0.49877903861012846 -2.9844047398450915
0.4942945703514287 -3.033741487388639
0.4920255773869061 -3.0549573127731002
0.489756584422383 -3.0337414873885358
0.4852721161636835 -2.9844047398448845
0.48021932910493326 -2.9090349693991104
0.47517803341977044 -2.8105256819427673
0.4705371695745689 -2.691982737549677
0.466509219874137 -2.5564752811144773
0.46315168775896426 -2.406883364769244
0.460436643033069 -2.245826532837823
0.45830464679768795 -2.0756665196301345
0.456700226506357 -1.8985284642309928
0.4555759545272311 -1.7163277361589708
0.45484985121058524 -1.53069499709107
0.45440969774091333 -1.3429176136765535
0.45413061563620977 -1.1538735041015105
0.45393671634730265 -0.9640676696382329
0.45378222326566275 -0.773748822774796
0.4536418470895836 -0.5830426051642659
0.4535162843329065 -0.39204669020347127
0.45344976898850087 -0.20088765479115397
0.45358603043133083 -0.00987513678220672
0.5780654355781375 -0.010018936268826734
0.5781596684516209 -0.200920725195753
0.5780691142421813 -0.39203605029353783
0.5778916451181796 -0.58301839927391
0.5776665765195467 -0.7737204872548641
0.577386810269892 -0.9640359888467491
0.5770137809688611 -1.1538339286938601
0.5764585985947431 -1.34285596085188
0.5755326433460753 -1.5305798822138081
0.5740048327101506 -1.7161114995280555
0.5716745139262156 -1.8981700714204108
0.5684048005102914 -2.075137936624115
0.564097320738557 -2.2451080955266223
0.5586463956091076 -2.4059508834535843
0.5519280632165913 -2.5553057012530807
0.5438356289753074 -2.6905661844955704
0.5343607567845312 -2.8088846851608547
0.5236766558422316 -2.907239865938824
0.5122138558693025 -2.9825816208266795
0.5009783379533193 -3.0322001703420307
0.49202557738689445 -3.0543023668062834
0.48307281682046965 -3.0322001703419272
0.47183729890448795 -2.9825816208264735
0.46037449893156374 -2.9072398659385272
0.44969039798927163 -2.8088846851604883
0.44021552579850437 -2.690566184495154
0.432123091557228 -2.5553057012526263
0.42540475916471926 -2.4059508834531074
0.41995383403527803 -2.245108095526135
0.41564635426355145 -2.075137936623632
0.4123766408476348 -1.898170071419948
0.41004632206370584 -1.7161114995276237
0.40851851142778556 -1.530579882213413
0.40759255617912 -1.3428559608515265
0.4070373738050035 -1.1538339286935522
0.4066643445039732 -0.9640359888464909
0.40638457825431884 -0.7737204872546534
0.4061595096556862 -0.5830183992737482
0.4059820405316846 -0.3920360502934236
0.40589148632224503 -0.20092072519568732
0.40598571919572835 -0.010018936268810638
0.6256566754126965 -0.010126284188135964
0.6257163432187387 -0.20095002540201334
0.6256038078100167 -0.39202179437223456
0.6253778423640883 -0.5829875773633237
0.6250716671775938 -0.7736810081695957
0.624671814965435 -0.9639876892488578
0.6241230325185172 -1.1537685997986866
0.6232565197447996 -1.342737525507086
0.6217802089622154 -1.5303417805351929
0.6193756292413398 -1.7156785184873666
0.6157739683989298 -1.897485664246439
0.6107899188545935 -2.074164316802405
0.6042709738826996 -2.2438134937049288
0.5960520169154798 -2.4042967567405005
0.5859351214176177 -2.5532500280354076
0.573728552584194 -2.688078879489012
0.5593401298044004 -2.8059728313751866
0.5429091244761649 -2.9039736501411992
0.5250298771670403 -2.9791569022821247
0.5070937890839567 -3.0290320673299136
0.49202557738688324 -3.052292785376092
0.4769573656898102 -3.02903206732981
0.45902127760672967 -2.9791569022819195
0.44114203029761206 -2.9039736501409044
0.42471102496938684 -2.805972831374823
0.4103226021896054 -2.688078879488597
0.3981160333561929 -2.5532500280349555
0.38799913785834167 -2.4042967567400253
0.3797801808911334 -2.2438134937044434
0.37326123591925037 -2.0741643168019244
0.36827718637492474 -1.8974856642459788
0.36467552553252364 -1.715678518486936
0.36227094581165464 -1.5303417805347983
0.3607946350290743 -1.3427375255067326
0.3599281222553588 -1.1537685997983786
0.35937933980844206 -0.9639876892485996
0.3589794875962837 -0.773681008169385
0.3586733124097894 -0.5829875773631621
0.35844734696386116 -0.39202179437212037
0.3583348115551392 -0.2009500254019477
0.35839447936118135 -0.010126284188119722
0.6732482267754396 -0.010202771236022267
0.673277682818031 -0.20097414931614963
0.6731439197949647 -0.39200402853921307
0.6728723664722175 -0.5829506180921635
0.6724888189100217 -0.773631291724092
0.6719759936493442 -0.9639239212466238
0.6712381125847807 -1.1536706830606331
0.6700169905594101 -1.3425406237492197
0.667933814385277 -1.5299505074221862
0.6645949538484771 -1.714999556904675
0.659682019720145 -1.896451719283674
0.6529556655068488 -2.072726415375462
0.6442004377990718 -2.2419252430163974
0.6331853898034749 -2.4019033152335236
0.6196391770066239 -2.5502891321241914
0.6032801860079633 -2.684497032782615
0.5839219629013573 -2.801758862237065
0.5617001458930092 -2.8992143371168306
0.5374009624125781 -2.9741199463988752
0.5129269037807668 -3.024297052010785
0.4920255773868721 -3.048994829043131
0.4711242509929787 -3.0242970520106818
0.446650192361172 -2.974119946398671
0.4223510088807502 -2.899214337116538
0.4001291918724149 -2.801758862236704
0.38077096876582384 -2.684497032782204
0.364411977767178 -2.5502891321237424
0.35086576497034105 -2.4019033152330516
0.339850716974759 -2.2419252430159156
0.33109548926699645 -2.072726415374984
0.3243691350537136 -1.8964517192832162
0.31945620092539284 -1.7149995569042464
0.3161173403886015 -1.5299505074217927
0.314034164214474 -1.3425406237488673
0.31281304218910666 -1.1536706830603254
0.3120751611245446 -0.9639239212463656
0.3115623358638677 -0.7736312917238813
0.3111787883016723 -0.5829506180920018
0.31090723497892514 -0.3920040285390989
0.3107734719558589 -0.20097414931608398
0.31080292799845033 -0.010202771236005926
0.7208464961935214 -0.010253585876206532
0.7208494336233137 -0.2009921023969581
0.7206946713459564 -0.39198271685894426
0.7203801305019265 -0.5829079709219214
0.7199242952705394 -0.7735726869429048
0.7193000662226869 -0.9638439390716114
0.7183494098503818 -1.1535290291965954
0.7167326679948041 -1.3422459849367334
0.7139925271802507 -1.5293842734337615
0.7096836735674228 -1.7140583146925794
0.7034428445758547 -1.895057394255004
0.6949587093699031 -2.070814272148999
0.6839481698387814 -2.23943300283934
0.6701146703183166 -2.3987596977261862
0.6531185213916186 -2.5464120851840786
0.6325885481837503 -2.679808419259337
0.6082584256611103 -2.7962321597456916
0.58026305900429 -2.8929560028769674
0.5496006494553097 -2.9674846585453833
0.5187019225602212 -3.018033297517509
0.4920255773868612 -3.044426107425496
0.46534923221350294 -3.0180332975174067
0.43445050531842105 -2.9674846585451804
0.40378809576945235 -2.892956002876678
0.3757927291126472 -2.7962321597453346
0.35146260659002476 -2.6798084192589298
0.3309326333821744 -2.5464120851836336
0.31393648445549405 -2.398759697725718
0.3001029849350473 -2.239433002838862
0.289092445403943 -2.0708142721485245
0.2806083101980075 -1.8950573942545497
0.27436748120645355 -1.7140583146921533
0.270058627593636 -1.5293842734333698
0.2673184867790901 -1.3422459849363821
0.2657017449235167 -1.1535290291962883
0.2647510885512136 -0.9638439390713532
0.264126859503362 -0.7735726869426942
0.2636710242719751 -0.5829079709217597
0.26335648342794543 -0.3919827168588301
0.2632017211505883 -0.20099210239689244
0.2632046585803806 -0.010253585876190125
0.7684560346546107 -0.01028375552682107
0.768436491080218 -0.20100337468852134
0.7682613464839017 -0.391957748935114
0.7679060972181465 -0.5828602051243813
0.7673816120418496 -0.7735059592174446
0.7666396809388597 -0.9637435872259428
0.7654510984757201 -1.1533323558184787
0.7633971962751084 -1.3418357469342213
0.7599645064175545 -1.528629275423713
0.7546760306426828 -1.7128475236049014
0.7470977856455323 -1.8932968458366455
0.736848312541796 -2.06842214218423
0.7235728595621059 -2.2363299690776692
0.7069053869304128 -2.3948581340269937
0.6864413802716175 -2.541612440500538
0.661753240713673 -2.674013052630685
0.632502716516288 -2.7893991826485998
0.5988137985882742 -2.885210366106375
0.5618760846712779 -2.959267476636094
0.524576523061655 -3.0102447764981157
0.4920255773868504 -3.0385626844179634
0.4594746317120483 -3.010244776498015
0.42217507010243366 -2.959267476635894
0.38523735618545135 -2.885210366106089
0.35154843825745513 -2.7893991826482476
0.3222979140600903 -2.6740130526302828
0.2976097745021671 -2.541612440500098
0.27714576784339245 -2.3948581340265305
0.2604782952117205 -2.2363299690771963
0.24720284223205122 -2.0684221421837607
0.23695336912833354 -1.893296845836195
0.2293751241311995 -1.7128475236044787
0.22408664835634035 -1.5286292754233237
0.22065395849879552 -1.3418357469338713
0.21860005629818935 -1.153332355818172
0.2174114738350526 -0.9637435872256849
0.21666954273206362 -0.7735059592172339
0.21614505755576707 -0.5828602051242195
0.21578980829001218 -0.39195774893499985
0.21561466369369595 -0.20100337468845567
0.21559512011930343 -0.01028375552680462
0.8160797915150364 -0.010298308653775895
0.816042874465879 -0.20100793550341717
0.8158492436832173 -0.3919291093340134
0.8154554365216461 -0.5828078214531209
0.8148638574871371 -0.7734313601229652
0.8139920794535046 -0.9636176971895507
0.8125344763980608 -1.153066974214989
0.8100055596873013 -1.341296056942725
0.8058739977411479 -1.527680223933461
0.7996013063151718 -1.7113635240515386
0.7906858277272485 -1.8911671735104745
0.7786727424851717 -2.0655472376050343
0.7631302149248159 -2.232612054355593
0.7436200206023251 -2.3901929265806916
0.7196832972559495 -2.53588783367251
0.6908585585335207 -2.667120045809285
0.6567907229186908 -2.781284189596292
0.6175714939612522 -2.87600624150357
0.5744653119683705 -2.9494782543446867
0.5306968208489999 -3.000902852253805
0.4920255773868397 -3.0313455401761966
0.45335433392468255 -3.000902852253706
0.4095858428053218 -2.9494782543444895
0.3664796608124563 -2.876006241503288
0.32726043185503817 -2.7812841895959446
0.2931925962402311 -2.6671200458088884
0.2643678575178267 -2.5358878336720756
0.24043113417147516 -2.3901929265802333
0.2209209398490085 -2.2326120543551258
0.2053784122886765 -2.0655472376045703
0.19336532704662127 -1.8911671735100284
0.18444984845871668 -1.7113635240511191
0.178177157032755 -1.5276802239330745
0.17404559508661227 -1.341296056942377
0.1715166783758595 -1.1530669742146835
0.17005907532041947 -0.9636176971892931
0.1691872972867881 -0.7734313601227545
0.16859571825227956 -0.5828078214529593
0.1682019110907085 -0.3919291093338993
0.16800828030804713 -0.20100793550335155
0.16797136325888973 -0.01029830865375941
0.8637189287612892 -0.01030235572325421
0.8636716519362604 -0.20100630582362253
0.8634640062372239 -0.39189696688925285
0.8630334534957359 -0.5827513709587384
0.8623724457693351 -0.7733472635391341
0.8613523626602932 -0.9634587345506407
0.8595898524414565 -1.1527199293909778
0.8565750986095498 -1.3406218558137661
0.8517402255473352 -1.5265344442932536
0.8444878306531968 -1.7096052480169814
0.8342445330665977 -1.8886684017021467
0.820477136292933 -2.062189129720922
0.8026755471666249 -2.2282778343162892
0.7803264579340671 -2.3847614045310332
0.7529145691585524 -2.529236972494212
0.7199818163911513 -2.6591430717276636
0.6812256602304673 -2.7719299345864523
0.6367328103055511 -2.865392679632316
0.5876199877363898 -2.9381232473365873
0.5372521140101569 -2.989946196266355
0.4920255773868287 -3.0226722843831375
0.44679904076350424 -2.9899461962662572
0.39643116703728315 -2.9381232473363936
0.3473183444681405 -2.865392679632039
0.3028254945432476 -2.771929934586111
0.2640693383825894 -2.659143071727273
0.23113658561521586 -2.5292369724937838
0.20372469683972827 -2.3847614045305816
0.18137560760719812 -2.2282778343158283
0.16357401848091663 -2.062189129720464
0.14980662170727604 -1.888668401701706
0.13956332412069775 -1.7096052480165662
0.13231092922657559 -1.5265344442928703
0.12747605616437294 -1.3406218558134204
0.12446130233247454 -1.1527199293906736
0.12269879211364222 -0.9634587345503834
0.12167870900460202 -0.7733472635389236
0.12101770127820177 -0.5827513709585767
0.1205871485367141 -0.3918969668891388
0.12037950283767786 -0.20100630582355689
0.12033222601264909 -0.010302355723237722
0.9113721705441149 -0.010301085635137687
0.9113248580755485 -0.20099974844117213
0.9111121438677977 -0.39186192233069284
0.9106458787201621 -0.5826908778174158
0.909906786106861 -0.7732510776188838
0.9087113950044798 -0.963255300438789
0.9066223499145104 -1.1522835991044993
0.9031162116849939 -1.3398105657395185
0.8975823931811037 -1.5251914380797864
0.8893635332811085 -1.7075744178593146
0.8778105883911701 -1.8858027314057408
0.8623080407013963 -2.058349932689554
0.8422621673075941 -2.2233282863512582
0.8170853653426912 -2.378563810995186
0.7862210385770712 -2.5216625662104084
0.7492136776675395 -2.6500945652718664
0.7058562685156845 -2.7613801538733957
0.6563725551857033 -2.8534559197047895
0.6017005675384662 -2.9252329542331643
0.5445564551739837 -2.977268428306419
0.4920255773868175 -3.0123703123790047
0.4394946995996559 -2.977268428306323
0.38235058723518667 -2.9252329542329747
0.32767859958797096 -2.8534559197045177
0.2781948862580163 -2.761380153873061
0.23483747710619016 -2.6500945652714822
0.1978301161966892 -2.5216625662099874
0.1669657894310995 -2.378563810994741
0.14178898746622748 -2.2233282863508044
0.12174311407245487 -2.0583499326891026
0.10624056638270798 -1.8858027314053054
0.09468762149279233 -1.7075744178589043
0.08646876159281514 -1.5251914380794067
0.08093494308893832 -1.3398105657391757
0.07742880485943118 -1.1522835991041964
0.0753397597694669 -0.9632553004385326
0.07414436866708819 -0.7732510776186733
0.07340527605378759 -0.5826908778172541
0.07293901090615233 -0.39186192233057876
0.0727262966984018 -0.20099974844110655
0.07267898422983529 -0.010301085635121178
0.9590344616130781 -0.010299591115943727
0.9590034273251056 -0.2009907869761025
0.9588021415405541 -0.39182520179292385
0.9582985740969322 -0.5826252721970709
0.9574624689684602 -0.7731366419945543
0.9560654052455277 -0.9629994133721236
0.953639166210414 -1.151754172449915
0.949640393817953 -1.3388611850921013
0.943419513972659 -1.5236533764031472
0.934255847334642 -1.7052751736245286
0.9214216940808388 -1.8825751080284083
0.9042099659728184 -2.0540333203376173
0.8819407030653693 -2.2177664515004927
0.8539673844641171 -2.3716054943009333
0.8196892881042167 -2.5131721745610043
0.7786544881009008 -2.6399847378563805
0.7307445632799565 -2.749660094252901
0.6763994106580812 -2.840282367947193
0.6167780021164166 -2.9109776210453484
0.5537494907168413 -2.962755106000604
0.4920255773868061 -2.9999999999999973
0.4303016640567759 -2.9627551060005106
0.3672731526572152 -2.9109776210451637
0.3076517441155754 -2.8402823679469273
0.2533065914937303 -2.7496600942525737
0.20539666667281825 -2.6399847378560044
0.16436186666953584 -2.513172174560591
0.13008377030966933 -2.371605494300496
0.10211045170845116 -2.217766451500047
0.07984118880103441 -2.0540333203371732
0.06262946069304381 -1.8825751080279791
0.04979530743926552 -1.7052751736241234
0.04063164080126812 -1.5236533764027718
0.034410760955988676 -1.338861185091761
0.030411988563538026 -1.151754172449614
0.027985749528430352 -0.962999413371868
0.026588685805500757 -0.7731366419943442
0.025752580677029673 -0.5826252721969094
0.02524901323340811 -0.39182520179280983
0.025047727448856718 -0.20099078697603692
0.025016693160884305 -0.010299591115927228
SCALARS Stress float 6
LOOKUP_TABLE default
-1143.4648462041312 -1936.9980003026442 -1463.4964155989564 -19.486650113747658 0.0 0.0
1283.9577570892202 748.1298710901041 939.0247317765914 -23.201749534136297 0.0 0.0
569.5359283396928 129.4875582679835 218.7472708091836 -38.634556386955595 0.0 0.0
468.63274938413906 21.299884177210348 149.58051769160838 -2.5494011141664883 0.0 0.0
582.7993580379955 62.668408507137606 221.01034034568852 1.3233103411327 0.0 0.0
684.3509656815326 103.10914536338586 325.5195291286065 1.5430295821718802 0.0 0.0
796.5901978680149 142.2009545947233 433.19442167104245 0.7440358205956885 0.0 0.0
908.5251891518851 196.93146601063722 534.2517068065071 -0.43332480992188294 0.0 0.0
1027.0326624549364 264.17142521719916 632.9872249714854 -1.8349803638229096 0.0 0.0
1159.6619900902283 349.93607975874295 743.6484411617032 -3.3454346387741554 0.0 0.0
1311.3331524304235 458.5185484614078 873.9562860937572 -4.831183973777554 0.0 0.0
1482.1866267246573 590.4350154334797 1025.0764644148305 -6.093283139284229 0.0 0.0
1667.851132153055 739.6008589920082 1192.0348496701063 -6.891226352965553 0.0 0.0
1862.2011996005072 899.733848776696 1368.8030978183133 -7.53056554044513 0.0 0.0
2056.6513628087964 1062.1273523184077 1546.7420964380062 -7.965561640458143 0.0 0.0
2241.716243279937 1217.4637425601686 1716.477770999487 -8.16338999937165 0.0 0.0
2408.010000377216 1356.9645706953468 1868.9872358733446 -7.978903252700908 0.0 0.0
2545.835352709662 1471.6934797602403 1995.0040061418479 -7.287633286481288 0.0 0.0
2651.181448862071 1558.4576353881416 2090.8588306512206 -6.154379991552241 0.0 0.0
2711.9829718223273 1606.2137097265133 2145.032818961186 -6.728503519414865 0.0 0.0
2704.7137217594745 1596.9280848952694 2137.055086978177 -1.4921397450962104e-12 0.0 0.0
2711.982971822667 1606.2137097268792 2145.0328189613006 6.728503519429037 0.0 0.0
2651.181448861781 1558.4576353879102 2090.8588306507118 6.1543799914385335 0.0 0.0
2545.8353527090544 1471.6934797597078 1995.0040061414056 7.28763328640947 0.0 0.0
2408.0100003761054 1356.9645706943609 1868.9872358720597 7.97890325272896 0.0 0.0
2241.7162432798195 1217.4637425601886 1716.4777709991436 8.16338999944553 0.0 0.0
2056.6513628080297 1062.1273523177813 1546.7420964371902 7.965561640454281 0.0 0.0
1862.2011996008214 899.733848777172 1368.8030978185363 7.530565540224183 0.0 0.0
1667.8511321522496 739.6008589914348 1192.0348496692607 6.891226352928257 0.0 0.0
1482.1866267217056 590.4350154307081 1025.0764644126164 6.093283139363358 0.0 0.0
1311.3331524295113 458.5185484607124 873.9562860930058 4.831183973697362 0.0 0.0
1159.661990089937 349.9360797587166 743.648441161297 3.345434638774069 0.0 0.0
1027.032662454671 264.17142521720103 632.987224971168 1.834980363744144 0.0 0.0
908.525189151364 196.93146601040195 534.251706806018 0.43332480986954813 0.0 0.0
796.5901978677516 142.20095459475976 433.19442167067956 -0.7440358204795263 0.0 0.0
684.3509656814085 103.10914536361588 325.51952912831365 -1.5430295821386828 0.0 0.0
582.799358037343 62.668408506669465 221.01034034521413 -1.3233103411292113 0.0 0.0
468.6327493839286 21.29988417720586 149.58051769154028 2.5494011141664696 0.0 0.0
569.5359283393341 129.48755826776582 218.7472708089603 38.63455638687625 0.0 0.0
1283.9577570887777 748.1298710896406 939.0247317760336 23.201749534121156 0.0 0.0
-1143.4648462013524 -1936.9980002999232 -1463.4964155962539 19.486650113057145 0.0 0.0
-1456.7528623200437 -2220.609794621472 -1728.1646234608593 -19.80087045911562 0.0 0.0
873.1539082300727 415.36505000076164 586.7211475735986 -32.4927081139882 0.0 0.0
396.0539485090009 51.71942406601154 132.72536076964445 -32.37084987744765 0.0 0.0
414.76585492997623 3.1367155689985107 126.10042938393738 -16.176135389280333 0.0 0.0
519.0584919148449 27.40344338923116 180.57983073448702 -15.575388150389527 0.0 0.0
613.0291105586136 38.133264595501714 260.1444375298906 -20.1486766536098 0.0 0.0
692.1633695812889 52.43284514045916 343.08192474665896 -22.300171523097777 0.0 0.0
768.8893307250648 70.2186560764012 410.00502396930966 -22.94488407482065 0.0 0.0
840.4766551588813 89.82775880515511 462.0792153187862 -23.32390815381131 0.0 0.0
910.0369785158285 112.6952481755811 509.9812602927559 -23.79229792520009 0.0 0.0
979.6986855189539 139.90853407559385 558.8672256036739 -23.99282873513959 0.0 0.0
1050.364765276774 171.27864964182436 610.007245778115 -23.863746092313193 0.0 0.0
1121.0184144236023 206.57273656649497 662.9804019984009 -23.39105879826274 0.0 0.0
1189.156232939692 240.88428537566978 714.1652363491629 -22.787449822370398 0.0 0.0
1248.7792410161342 268.8783309174465 757.9333518089874 -22.099175951099948 0.0 0.0
1295.0479361455893 285.81750644594945 789.4999888886513 -21.129352849323134 0.0 0.0
1324.718440244873 288.92528932183194 805.8621598180204 -19.632721989611426 0.0 0.0
1337.9033384429538 279.04239811231434 807.5028192408946 -17.4950647191407 0.0 0.0
1332.943222050947 255.4823386395914 793.3408190662124 -15.00010703888805 0.0 0.0
1284.4959060254093 194.2334001615825 739.1497525072311 -13.893613492933923 0.0 0.0
1199.278997278133 107.50103447278724 654.3139085985574 3.420197458581242e-11 0.0 0.0
1284.4959060254287 194.23340016162464 739.1497525072283 13.893613493005642 0.0 0.0
1332.9432220512283 255.48233863992675 793.3408190663655 15.000107038856221 0.0 0.0
1337.9033384430293 279.0423981124832 807.502819241036 17.495064719233888 0.0 0.0
1324.718440244664 288.9252893217287 805.8621598177521 19.63272198973995 0.0 0.0
1295.0479361456503 285.8175064461407 789.499988888606 21.1293528494179 0.0 0.0
1248.7792410158565 268.8783309173011 757.933351808776 22.099175951088245 0.0 0.0
1189.1562329399735 240.88428537612833 714.1652363494094 22.787449822310208 0.0 0.0
1121.0184144232521 206.5727365663211 662.9804019981401 23.39105879829342 0.0 0.0
1050.3647652752436 171.27864964054027 610.0072457770531 23.86374609237327 0.0 0.0
979.6986855188838 139.90853407575375 558.8672256036267 23.992828735220034 0.0 0.0
910.0369785153163 112.69524817531618 509.98126029239523 23.79229792528276 0.0 0.0
840.4766551584997 89.82775880502362 462.07921531849496 23.323908153835625 0.0 0.0
768.8893307249202 70.2186560765279 410.00502396913004 22.944884074757685 0.0 0.0
692.1633695811563 52.43284514066663 343.0819247464459 22.300171523231175 0.0 0.0
613.0291105583779 38.133264595559595 260.14443752959363 20.148676653617827 0.0 0.0
519.0584919143206 27.40344338895082 180.5798307341542 15.575388150404788 0.0 0.0
414.76585492987823 3.13671556925272 126.10042938398597 16.176135389299322 0.0 0.0
396.05394850891935 51.719424066015094 132.72536076962626 32.37084987735553 0.0 0.0
873.153908229503 415.36505000025625 586.7211475729441 32.492708113941795 0.0 0.0
-1456.752862318178 -2220.609794619463 -1728.1646234588063 19.800870458629625 0.0 0.0
-1206.9806388313698 -1936.4345280561793 -1451.29976989726 -58.22911249420772 0.0 0.0
678.5014894421076 324.5645987442754 442.85209761530683 -99.93003647869043 0.0 0.0
278.2782723282832 59.18185034160349 101.23899876216159 -34.40435086720334 0.0 0.0
355.3214479076379 -0.03239269336793482 106.36976875692696 -37.107700739001814 0.0 0.0
473.77115205593987 18.62863411719254 155.1407027666998 -37.85166981210442 0.0 0.0
580.4954705745968 33.71624285825985 231.2164373812621 -39.19366619707903 0.0 0.0
663.3204600500022 48.94621160541796 318.3253211523065 -41.833238345294205 0.0 0.0
741.31547287583 63.22664507982682 388.5979146589768 -43.035600634777474 0.0 0.0
811.0264627639654 80.04897283602374 441.12214339168986 -43.96811350807535 0.0 0.0
877.1454782930577 99.08102794201142 486.1923310423655 -44.770032213414694 0.0 0.0
942.9939214808642 122.7896751024043 531.5951063189099 -44.89668336139587 0.0 0.0
1009.8233106816747 151.57784083655895 579.5567472946742 -44.24493831893114 0.0 0.0
1077.452348307505 183.27591576173165 629.2356214472313 -43.24538876494005 0.0 0.0
1141.5673745384597 214.84734278420677 677.065603441404 -42.0628310106648 0.0 0.0
1198.4709683931335 240.5772062326024 718.3508603413164 -40.69721706289349 0.0 0.0
1243.3217419161535 256.45829392153036 748.6729301200202 -38.87298302473433 0.0 0.0
1273.7964110455007 260.5339996256505 765.9186899762411 -36.205726218673185 0.0 0.0
1287.4784476377577 251.10719280171682 768.0840953412453 -32.626900886086794 0.0 0.0
1275.9911502171299 220.9223156967857 747.5024426075943 -28.581905278601027 0.0 0.0
1246.9550386549106 179.19125292954914 712.4810651394781 -24.559905498918567 0.0 0.0
1143.1028497490997 74.27600757001203 609.5376191693558 -9.00524099733957e-12 0.0 0.0
1246.9550386548888 179.191252929573 712.481065139445 24.55990549894304 0.0 0.0
1275.9911502171071 220.92231569680172 747.5024426076474 28.581905278637066 0.0 0.0
1287.478447638262 251.10719280233397 768.0840953416097 32.62690088619988 0.0 0.0
1273.7964110452497 260.5339996254663 765.9186899760113 36.20572621869513 0.0 0.0
1243.3217419163534 256.45829392188585 748.6729301200961 38.872983024721094 0.0 0.0
1198.4709683921742 240.5772062317494 718.3508603406552 40.69721706286977 0.0 0.0
1141.5673745386543 214.84734278456392 677.0656034414764 42.06283101059564 0.0 0.0
1077.4523483068144 183.27591576122467 629.2356214468296 43.24538876496371 0.0 0.0
1009.8233106813822 151.57784083647329 579.5567472944963 44.24493831888489 0.0 0.0
942.9939214809792 122.7896751027697 531.5951063190088 44.8966833614189 0.0 0.0
877.1454782921019 99.08102794128024 486.1923310417497 44.7700322134032 0.0 0.0
811.0264627634606 80.0489728357868 441.12214339134454 43.96811350810426 0.0 0.0
741.3154728756937 63.226645079978994 388.59791465880346 43.035600634767945 0.0 0.0
663.3204600492409 48.946211604914495 318.3253211516983 41.833238345283625 0.0 0.0
580.4954705741702 33.71624285809319 231.2164373808742 39.193666197044855 0.0 0.0
473.77115205557413 18.628634117261992 155.14070276655036 37.85166981208439 0.0 0.0
355.32144790749874 -0.032392693328761935 106.36976875689881 37.107700739041654 0.0 0.0
278.278272328237 59.18185034150334 101.23899876211809 34.40435086704636 0.0 0.0
678.5014894415314 324.56459874396046 442.8520976147296 99.9300364785803 0.0 0.0
-1206.9806388293764 -1936.4345280540701 -1451.299769895144 58.22911249398566 0.0 0.0
-980.9570051120769 -1679.8050056604106 -1202.463273849455 -71.69147891401016 0.0 0.0
514.4803654756277 229.12362144680947 320.8107292397565 -144.72756571211147 0.0 0.0
203.61725349572345 53.25098188445263 77.0604706140528 -56.58307806367762 0.0 0.0
295.79483695691243 5.326125572228083 90.32593662853351 -57.99295284841667 0.0 0.0
418.8448432086206 9.497382624053198 130.10423019309727 -62.200046626665674 0.0 0.0
534.6229952252154 28.01217440674395 198.99332085885197 -59.850362761484924 0.0 0.0
631.9960640841753 43.199872699053614 288.05419174329705 -62.763014234387796 0.0 0.0
708.7589513630467 56.42741659150639 362.8990704316545 -63.43248056187089 0.0 0.0
777.5467604353263 70.4268646472783 417.33902107099993 -64.38325554812442 0.0 0.0
840.6114983036018 86.02516445169996 460.5472016627903 -65.13434466260006 0.0 0.0
902.3577625253375 106.01942811446622 502.38177303583814 -64.94924525084417 0.0 0.0
965.5416987089978 131.06324808235075 546.7195173586146 -63.86083045185286 0.0 0.0
1029.2988653926805 160.3492626192019 593.2902109136693 -62.31326644571841 0.0 0.0
1090.0865021111954 187.93415560888533 637.4843944260426 -60.71692411328092 0.0 0.0
1143.7972775723404 211.2390697003898 675.9745501835216 -58.763270495335846 0.0 0.0
1188.06794755821 227.1627821031222 706.0353171257277 -56.13786434337632 0.0 0.0
1219.4912227262437 232.0347363916157 724.1601575214578 -52.59371389294635 0.0 0.0
1233.1839741863046 222.36732576887124 726.2615062891607 -48.02821561980334 0.0 0.0
1225.8431899967875 195.979103063558 709.6276720818706 -42.30803425959537 0.0 0.0
1207.197582024895 163.96106691716318 684.5103942654408 -34.12695652356615 0.0 0.0
1060.6353193744733 16.496028301537805 539.7386755224385 6.691536214020744e-11 0.0 0.0
1207.1975820250314 163.96106691732 684.5103942655539 34.12695652359735 0.0 0.0
1225.8431899957632 195.9791030626266 709.6276720812218 42.30803425978019 0.0 0.0
1233.1839741865563 222.36732576918578 726.2615062894108 48.02821561995547 0.0 0.0
1219.4912227259406 232.0347363914205 724.1601575212452 52.59371389305736 0.0 0.0
1188.0679475589534 227.16278210398804 706.0353171262318 56.13786434341423 0.0 0.0
1143.7972775716946 211.23906969991424 675.9745501830337 58.76327049535273 0.0 0.0
1090.0865021115035 187.9341556093515 637.4843944262846 60.716924113371135 0.0 0.0
1029.2988653921077 160.34926261881515 593.2902109132913 62.3132664457019 0.0 0.0
965.5416987088832 131.06324808246637 546.7195173585329 63.860830451902636 0.0 0.0
902.3577625248874 106.01942811424365 502.38177303555517 64.94924525092188 0.0 0.0
840.6114983023583 86.02516445067049 460.5472016619663 65.13434466250806 0.0 0.0
777.5467604353071 70.42686464757656 417.33902107099925 64.3832555482583 0.0 0.0
708.7589513627629 56.42741659150221 362.8990704313717 63.43248056190272 0.0 0.0
631.9960640837978 43.19987269901879 288.05419174289597 62.763014234327805 0.0 0.0
534.6229952247352 28.012174406508265 198.99332085848616 59.85036276141542 0.0 0.0
418.84484320835907 9.49738262424114 130.10423019306282 62.20004662655765 0.0 0.0
295.79483695673645 5.326125572057293 90.32593662842778 57.99295284841919 0.0 0.0
203.61725349561516 53.25098188423376 77.06047061395465 56.583078063533165 0.0 0.0
514.4803654750334 229.12362144653568 320.8107292392303 144.72756571200577 0.0 0.0
-980.9570051104128 -1679.8050056586392 -1202.4632738476 71.69147891380781 0.0 0.0
-785.4083721967281 -1456.58638200236 -984.2042613468113 -71.18509344616865 0.0 0.0
393.517132027225 146.53199226217617 226.62524523017967 -175.4016121475273 0.0 0.0
149.94535871442773 43.343744130164524 57.98673085337766 -86.12998719284877 0.0 0.0
242.30981867628273 11.569103894277953 76.16432191219384 -80.5427121250109 0.0 0.0
355.29510509472516 5.8277220087539705 108.10445388933006 -86.49289033043553 0.0 0.0
481.1909084334203 16.09062068350226 164.13496754778328 -85.62709972656513 0.0 0.0
588.3545880863502 35.96258274491114 250.7095606917017 -83.86646626188774 0.0 0.0
670.3507366347599 50.63768504975727 332.48357254569936 -84.19101976270579 0.0 0.0
739.1533319776661 61.316776508912625 389.85874814180295 -84.56142608197075 0.0 0.0
799.456316015363 73.31858936381602 432.1710185028964 -84.84670752461982 0.0 0.0
857.6846263004888 89.37581141774456 470.92951189110545 -84.20274095693091 0.0 0.0
916.6810856544414 110.57091235536376 511.4303758566565 -82.61917601307573 0.0 0.0
976.6885423121522 135.83818505924322 554.1569651411176 -80.71748535913699 0.0 0.0
1033.7644414257209 161.47213257638467 595.5679400479568 -78.68290641590852 0.0 0.0
1084.8317253175792 182.0225237968172 631.3953292755257 -76.22458346770884 0.0 0.0
1127.5563070136288 196.08362056127083 659.7527751337165 -73.00581086723628 0.0 0.0
1160.0803097399325 202.4639779439569 679.1910246324237 -68.82176820474884 0.0 0.0
1177.6533174948313 196.37394807537672 685.012401537468 -63.5383566420141 0.0 0.0
1176.1734763569375 175.03640262861092 673.8036981581928 -56.05772512118564 0.0 0.0
1162.2504141801828 146.25285675927628 652.6161377566351 -44.00311564576144 0.0 0.0
962.6949493909339 -54.03831961565142 456.06017710323874 5.539035896617861e-11 0.0 0.0
1162.2504141802024 146.25285675932912 652.6161377567527 44.00311564575777 0.0 0.0
1176.1734763568088 175.03640262860313 673.8036981580358 56.05772512140603 0.0 0.0
1177.6533174947303 196.37394807537012 685.0124015374909 63.53835664214755 0.0 0.0
1160.0803097396315 202.46397794377617 679.1910246321944 68.82176820488797 0.0 0.0
1127.5563070139 196.08362056164026 659.7527751339106 73.00581086725381 0.0 0.0
1084.8317253170208 182.02252379634746 631.3953292750929 76.22458346757654 0.0 0.0
1033.7644414256706 161.4721325765099 595.567940047959 78.68290641593755 0.0 0.0
976.6885423115018 135.83818505875934 554.156965140689 80.7174853591352 0.0 0.0
916.6810856543102 110.57091235549721 511.4303758564679 82.61917601320557 0.0 0.0
857.6846262996262 89.3758114170764 470.92951189050524 84.20274095691298 0.0 0.0
799.4563160147119 73.31858936343508 432.17101850247894 84.84670752461442 0.0 0.0
739.153331977525 61.31677650908112 389.85874814167977 84.56142608206599 0.0 0.0
670.350736634401 50.637685049704885 332.4835725453446 84.19101976268516 0.0 0.0
588.3545880867473 35.96258274582675 250.70956069179752 83.86646626193533 0.0 0.0
481.1909084328454 16.090620683160708 164.13496754740706 85.6270997264414 0.0 0.0
355.29510509430736 5.8277220085002845 108.10445388914088 86.49289033031532 0.0 0.0
242.30981867633616 11.569103894466156 76.16432191226595 80.54271212487468 0.0 0.0
149.94535871437273 43.343744129877855 57.986730853275176 86.12998719277009 0.0 0.0
393.517132026739 146.5319922619417 226.62524522974502 175.40161214730824 0.0 0.0
-785.4083721953534 -1456.5863820007617 -984.2042613451669 71.18509344607669 0.0 0.0
-613.952091633593 -1258.9813868258755 -790.7931454005209 -69.10137511487262 0.0 0.0
298.3908289443008 82.74178747391079 154.8819839121044 -192.67015655295114 0.0 0.0
108.72436315366997 30.812712065209162 41.861122565663734 -114.15565176058955 0.0 0.0
193.139490442488 16.825275739792232 62.9909682563419 -103.43047574417001 0.0 0.0
290.5458598864633 4.7983340306239075 88.24136642454343 -109.77535648219569 0.0 0.0
412.4982762346139 7.726415321779233 131.41124212206284 -111.37821415551983 0.0 0.0
527.090621735199 28.111658365642924 208.08264063521324 -106.5978882826429 0.0 0.0
624.5633042974232 41.73622472579807 293.1644235910451 -106.18895591338682 0.0 0.0
692.6445960464537 52.92479459161975 356.623585996562 -104.32772961217455 0.0 0.0
752.8788817779267 60.767272309221696 399.9818666050998 -103.95416019432079 0.0 0.0
807.6592030110828 72.86548774631632 436.3395396486517 -102.65141248251646 0.0 0.0
862.5527903118299 90.12082029228897 473.1959238229985 -100.5101728662891 0.0 0.0
918.4168213027851 111.9235797745334 512.2196953246338 -98.22001400460213 0.0 0.0
971.725653257999 133.53121165345783 549.7939470684754 -95.95856521513572 0.0 0.0
1019.8827775505946 152.06661758938077 583.2113343992588 -93.1414051709091 0.0 0.0
1061.031781251766 165.2509202070721 610.3957344694138 -89.31464241241606 0.0 0.0
1094.57383806471 171.664958619209 630.334410073348 -84.7349382670611 0.0 0.0
1117.9111015698347 171.0898286067015 641.7337181519985 -79.01817597548359 0.0 0.0
1124.049091199205 156.5504360961655 637.723727063687 -70.1817388370183 0.0 0.0
1112.9398990604288 128.26582849894524 618.2116377978336 -54.85332362918886 0.0 0.0
849.9305908579211 -135.05161811608107 359.99031222041174 7.553246916813805e-11 0.0 0.0
1112.9398990607885 128.26582849940283 618.2116377981706 54.85332362937247 0.0 0.0
1124.0490911998209 156.55043609685052 637.7237270640985 70.18173883719447 0.0 0.0
1117.9111015696515 171.0898286066452 641.733718151928 79.01817597568521 0.0 0.0
1094.573838064123 171.66495861871132 630.3344100728099 84.73493826715705 0.0 0.0
1061.03178125133 165.25092020675126 610.3957344691968 89.3146424124135 0.0 0.0
1019.8827775492081 152.06661758803725 583.21133439822 93.141405170832 0.0 0.0
971.7256532578474 133.5312116534127 549.7939470683381 95.95856521504003 0.0 0.0
918.4168213018735 111.92357977377844 512.2196953240383 98.22001400455466 0.0 0.0
862.5527903122329 90.1208202929296 473.1959238232001 100.51017286639804 0.0 0.0
807.6592030103549 72.86548774576531 436.33953964811707 102.6514124824027 0.0 0.0
752.8788817778782 60.767272309465426 399.98186660507827 103.95416019438254 0.0 0.0
692.6445960460173 52.92479459140907 356.6235859961862 104.32772961209716 0.0 0.0
624.5633042970453 41.73622472572711 293.16442359068344 106.18895591334743 0.0 0.0
527.0906217353114 28.11165836629892 208.08264063518936 106.59788828267864 0.0 0.0
412.49827623409834 7.7264153215480595 131.41124212179201 111.37821415538295 0.0 0.0
290.54585988617424 4.798334030448643 88.24136642442012 109.7753564820018 0.0 0.0
193.13949044247187 16.82527573980612 62.9909682563407 103.43047574397727 0.0 0.0
108.72436315357294 30.81271206503826 41.86112256558336 114.15565176047224 0.0 0.0
298.3908289437821 82.74178747365245 154.88198391171605 192.67015655276595 0.0 0.0
-613.9520916323286 -1258.9813868243655 -790.7931453990401 69.1013751148497 0.0 0.0
-466.6052886392607 -1077.8724410436255 -620.1112521128701 -67.81768241542093 0.0 0.0
223.41100908221014 32.08728930942977 100.3781445993918 -202.8335441222895 0.0 0.0
75.1146895972285 18.272808739813442 28.016152079186842 -137.3364539234523 0.0 0.0
146.7581920504081 20.202293653230527 50.08921486705451 -124.84026245390454 0.0 0.0
227.70540026394272 6.144038603764154 70.06418052041649 -130.29822714656302 0.0 0.0
334.77625063581434 0.2718746165808549 100.70395327501303 -138.3574870872671 0.0 0.0
453.48894939844274 15.248655899302557 161.37618750520258 -133.36389736327124 0.0 0.0
557.6138953739303 33.96713263537614 243.99200176620192 -127.80083670799624 0.0 0.0
639.5296888907012 41.10187522326853 313.81557717027965 -126.06131543289978 0.0 0.0
697.1187161846559 48.571332479882216 361.2444541953673 -122.26384561345358 0.0 0.0
750.8361725319171 56.53783227485451 397.2024319594893 -120.22933240872653 0.0 0.0
801.7577106686032 69.61582319520389 430.87373980724163 -117.54013391961534 0.0 0.0
853.1463317087264 87.46670505922093 465.97511782675554 -114.8807479202925 0.0 0.0
902.3296105764674 105.8978485065306 500.0226190536377 -112.38128979941479 0.0 0.0
947.0800805732483 121.67504906966441 530.4582195004326 -109.38561684380262 0.0 0.0
986.1906371697169 132.10447761453162 555.3030590591187 -105.4064035485639 0.0 0.0
1020.3325011185054 140.50539753401392 576.5416266903045 -100.10092385813017 0.0 0.0
1051.0761315266716 146.11792348563944 594.6252324737652 -94.19728739576458 0.0 0.0
1066.9933690859662 139.39174982476578 599.3613251530255 -85.00375622062988 0.0 0.0
1059.298860723485 111.81389571150223 582.0271036434332 -67.3947961008155 0.0 0.0
720.2945820038652 -226.28689199286111 250.7222318754074 9.061906780516438e-11 0.0 0.0
1059.2988607231491 111.81389571123842 582.0271036432858 67.39479610101908 0.0 0.0
1066.9933690867458 139.39174982564865 599.3613251536436 85.00375622075305 0.0 0.0
1051.0761315259367 146.11792348499773 594.6252324732787 94.19728739595037 0.0 0.0
1020.3325011173912 140.5053975328911 576.5416266894592 100.10092385806023 0.0 0.0
986.1906371699791 132.10447761496275 555.3030590594158 105.40640354856085 0.0 0.0
947.0800805731628 121.67504906973579 530.4582195003118 109.38561684385854 0.0 0.0
902.3296105761489 105.89784850638414 500.022619053443 112.38128979942515 0.0 0.0
853.146331708403 87.46670505917695 465.9751178265235 114.8807479204475 0.0 0.0
801.7577106687273 69.61582319551192 430.8737398073671 117.54013391971387 0.0 0.0
750.8361725313526 56.53783227443643 397.2024319590358 120.22933240856743 0.0 0.0
697.1187161842836 48.571332479816284 361.24445419512676 122.26384561349575 0.0 0.0
639.5296888902444 41.101875223006786 313.8155771698575 126.06131543278434 0.0 0.0
557.6138953734636 33.96713263523235 243.99200176579308 127.80083670795824 0.0 0.0
453.48894939819263 15.248655899495313 161.37618750501716 133.36389736329033 0.0 0.0
334.77625063539625 0.2718746165859516 100.7039532748892 138.35748708712427 0.0 0.0
227.7054002637373 6.144038603570859 70.06418052029848 130.29822714630745 0.0 0.0
146.75819205056752 20.202293653605523 50.08921486721442 124.84026245366383 0.0 0.0
75.11468959720074 18.27280873981652 28.01615207917955 137.33645392323768 0.0 0.0
223.4110090817335 32.08728930921695 100.37814459907909 202.8335441221651 0.0 0.0
-466.6052886382414 -1077.8724410423363 -620.1112521116369 67.8176824154094 0.0 0.0
-336.88468774772605 -921.4717962781393 -470.5762590743651 -75.81374697797818 0.0 0.0
159.36879786785403 -6.109997474245917 58.04723043644135 -204.3547734704977 0.0 0.0
46.11664064611075 7.965775117160709 16.22452842793708 -155.04966014582985 0.0 0.0
101.96390550028984 21.564560843151824 37.05967581534129 -143.38303158105722 0.0 0.0
167.01669825397687 8.65384034046346 52.636982597654125 -148.168398326135 0.0 0.0
249.50476408424274 -1.2445254494591733 73.86128983902574 -160.49411489622534 0.0 0.0
360.41860084423865 3.3161683504010115 115.33442262463782 -161.6645649679221 0.0 0.0
470.6072715443758 20.460917269274482 184.15651673946832 -151.62637832284827 0.0 0.0
563.1326452265622 31.41673500285947 257.1955970751296 -146.01985933010548 0.0 0.0
630.3717304054603 33.28882596334243 310.3683858033836 -141.72620844864537 0.0 0.0
682.367676810695 39.41743573498675 348.81448889639137 -136.8735018651072 0.0 0.0
730.2986973153298 49.232200825258374 381.39844430027347 -133.4638814126675 0.0 0.0
777.7046486477508 63.12828265592985 413.3318517278973 -130.46938615990646 0.0 0.0
821.8717928754029 77.50566725244335 443.2163735305626 -127.79511542727616 0.0 0.0
863.0639899440091 90.22467482916525 470.5047057399312 -124.87798379395772 0.0 0.0
899.6791941893589 99.62359789649477 493.744842362407 -120.90294805447158 0.0 0.0
933.29804064173 106.0044105364343 513.8488190182426 -115.28370160203558 0.0 0.0
970.2832513580905 117.58423150007924 537.8402736990112 -108.80233465602284 0.0 0.0
1000.5702495026329 124.50164096378366 556.4552757748709 -100.23323940481436 0.0 0.0
1000.7869289603848 100.8533026297958 545.332302728184 -82.50479236798489 0.0 0.0
568.0274596523892 -327.7275375508161 125.5858433060904 7.043254868221993e-11 0.0 0.0
1000.7869289592453 100.85330262873501 545.3323027274516 82.50479236804411 0.0 0.0
1000.5702495036608 124.50164096494916 556.4552757755735 100.23323940513463 0.0 0.0
970.2832513575411 117.584231499666 537.8402736986022 108.80233465614356 0.0 0.0
933.298040640589 106.00441053533059 513.8488190173683 115.28370160204388 0.0 0.0
899.6791941899027 99.62359789728374 493.74484236283695 120.90294805459551 0.0 0.0
863.0639899437994 90.22467482912303 470.50470573984734 124.87798379412163 0.0 0.0
821.8717928751353 77.50566725232075 443.2163735303706 127.79511542733809 0.0 0.0
777.7046486475324 63.12828265590175 413.3318517277353 130.469386159965 0.0 0.0
730.2986973145846 49.232200824584595 381.3984442998123 133.4638814126295 0.0 0.0
682.3676768104772 39.41743573494763 348.81448889618207 136.87350186504995 0.0 0.0
630.371730404875 33.288825962929856 310.36838580299286 141.72620844856772 0.0 0.0
563.1326452262729 31.416735002933812 257.19559707485786 146.0198593300744 0.0 0.0
470.60727154403446 20.460917269342115 184.1565167391905 151.62637832287902 0.0 0.0
360.41860084390686 3.3161683504396944 115.33442262447157 161.6645649679173 0.0 0.0
249.50476408376068 -1.2445254496084726 73.86128983887247 160.49411489603432 0.0 0.0
167.01669825380768 8.653840340298188 52.63698259755285 148.16839832597574 0.0 0.0
101.96390550028985 21.564560843306488 37.059675815387976 143.3830315809231 0.0 0.0
46.11664064604874 7.965775117194092 16.22452842792833 155.04966014564263 0.0 0.0
159.3687978675648 -6.10999747433657 58.047230436261486 204.35477347032946 0.0 0.0
-336.88468774684065 -921.4717962769536 -470.57625907333374 75.81374697800399 0.0 0.0
-239.98463954032763 -769.9960537687621 -351.53190895715545 -84.0353465150325 0.0 0.0
104.30665064990198 -36.973453155714324 25.877182485977404 -199.5549745409041 0.0 0.0
18.90103898190361 1.013942120734899 5.976267559344755 -167.7201672201846 0.0 0.0
58.418597393639565 21.40144725877406 23.94511751127759 -158.22021018180806 0.0 0.0
106.16045527016585 11.605480696636441 35.2882373230594 -162.3052499475493 0.0 0.0
163.9245296051016 1.0656120581348223 49.30064852468545 -176.1935555900535 0.0 0.0
247.6431180900658 -3.5052083091165915 73.3721955674171 -189.18157825474432 0.0 0.0
354.8781786994443 2.162481804278344 117.7170366933535 -182.40929180307188 0.0 0.0
456.0889656246482 14.102202563765704 179.98201730210482 -167.4558691994437 0.0 0.0
533.5956539905694 17.882765282141847 236.80837879685197 -158.59927843580115 0.0 0.0
590.8342679033983 21.57391915527426 280.7255717761238 -151.81640840935586 0.0 0.0
637.9603386951011 27.39128368684174 314.52615620517525 -147.74446062815898 0.0 0.0
681.9442724147086 38.35503873223016 345.6418253218042 -144.56964113229157 0.0 0.0
721.1651723990419 48.739138585908265 372.3560080058793 -141.79638150580425 0.0 0.0
757.6486120581976 58.26263021757055 396.3863622513258 -139.17916551334068 0.0 0.0
792.0849048293028 66.1968700016466 418.19774826064565 -135.8411261038439 0.0 0.0
825.4198699518731 72.53749120190956 438.64740468820315 -130.37492439056848 0.0 0.0
862.8347625880206 83.07464005140103 462.6177182889057 -122.83418446570758 0.0 0.0
909.7698769050202 103.62801085187274 495.8797178944678 -115.13769484519025 0.0 0.0
933.6539122060387 98.86058109120265 506.57733427536994 -101.56716078935786 0.0 0.0
384.48028898065866 -435.74682300650835 -17.488929680241128 8.112976956908824e-11 0.0 0.0
933.6539122052939 98.86058109054582 506.5773342749645 101.56716078948654 0.0 0.0
909.7698769056057 103.62801085266145 495.87971789487455 115.13769484552476 0.0 0.0
862.8347625881089 83.07464005169541 462.6177182889575 122.83418446594551 0.0 0.0
825.4198699510144 72.537491201086 438.64740468754025 130.37492439063416 0.0 0.0
792.0849048291308 66.19687000142687 418.19774826049405 135.84112610374183 0.0 0.0
757.6486120567257 58.26263021614738 396.386362250368 139.17916551327642 0.0 0.0
721.1651723982102 48.73913858516301 372.3560080053074 141.7963815059231 0.0 0.0
681.9442724145918 38.35503873237742 345.64182532170577 144.56964113234744 0.0 0.0
637.9603386945528 27.391283686381534 314.5261562047407 147.74446062815116 0.0 0.0
590.8342679031878 21.573919155249797 280.7255717759423 151.81640840933366 0.0 0.0
533.5956539902123 17.88276528203048 236.8083787965523 158.59927843572464 0.0 0.0
456.08896562421063 14.102202563805768 179.98201730185164 167.4558691995591 0.0 0.0
354.87817869878194 2.162481803816435 117.71703669294094 182.40929180312472 0.0 0.0
247.64311808970112 -3.505208309030488 73.37219556733922 189.18157825453673 0.0 0.0
163.92452960476592 1.0656120578411312 49.30064852450368 176.19355558979018 0.0 0.0
106.16045527012221 11.605480696673819 35.288237323056585 162.30524994744778 0.0 0.0
58.418597393595135 21.401447258652475 23.945117511227856 158.22021018162698 0.0 0.0
18.90103898191682 1.0139421209758073 5.976267559420623 167.72016722000456 0.0 0.0
104.30665064949805 -36.97345315593515 25.87718248575389 199.5549745407195 0.0 0.0
-239.9846395396832 -769.9960537677626 -351.5319089563963 84.035346515061 0.0 0.0
-164.18777608821324 -638.7808808839534 -257.85832913666553 -99.76353929541199 0.0 0.0
54.6944983888072 -59.5251479465015 0.6827161419209462 -188.75038919915823 0.0 0.0
-7.251308589022661 -2.257547286840137 -2.852590983491109 -175.57309287674485 0.0 0.0
15.820636913794184 20.21590780910812 10.810723275668572 -168.8015483575349 0.0 0.0
45.43065376010751 14.263325751044098 17.895664235211168 -172.28744316160757 0.0 0.0
79.2102320815778 4.269237321884541 24.92627389220164 -187.56632892136156 0.0 0.0
123.30556426813828 -1.1772199629081292 36.56629844023004 -203.60223094246902 0.0 0.0
191.6492480788083 -4.5073736273840606 56.45665366461551 -209.22457507048443 0.0 0.0
283.4215678008527 -10.524502243308444 85.66884150740776 -199.9258205074739 0.0 0.0
373.61353749004667 -17.526234814277643 119.95305450280053 -182.5202960344458 0.0 0.0
438.50416079552497 -14.353350210012461 156.45678364759186 -168.17001112094036 0.0 0.0
484.11808173305667 -3.425583785295075 189.63040907034477 -159.54650147284627 0.0 0.0
524.1343136107487 8.596063915708427 220.31703388075223 -156.61969275661153 0.0 0.0
559.2333430767758 17.775229555425028 247.20556571084506 -155.21368322376296 0.0 0.0
590.9208713488115 25.7758258775319 271.71386603923145 -154.47173344291082 0.0 0.0
622.558785351087 33.17255404949909 295.6140821160431 -153.82380786682512 0.0 0.0
656.9472072934218 39.48956771218373 320.44586286497633 -150.0444363042383 0.0 0.0
695.0451221950207 44.59274262512203 346.05411487690026 -141.72862417949267 0.0 0.0
745.9341631081255 59.52491890389183 379.6977735907369 -131.90058064682486 0.0 0.0
821.9155548027236 96.86527620162497 438.70426546131154 -126.51462417499056 0.0 0.0
136.5763849283084 -547.1595858370081 -191.25879700598472 -2.2460255877376767e-11 0.0 0.0
821.9155548028427 96.86527620216076 438.70426546156375 126.51462417521074 0.0 0.0
745.9341631087887 59.52491890454938 379.6977735911806 131.90058064718497 0.0 0.0
695.0451221952102 44.59274262553653 346.0541148771274 141.72862417962205 0.0 0.0
656.9472072932542 39.48956771212161 320.4458628647468 150.04443630426215 0.0 0.0
622.5587853509568 33.172554049264534 295.61408211591964 153.82380786673522 0.0 0.0
590.9208713479069 25.775825876295993 271.7138660386387 154.47173344272989 0.0 0.0
559.2333430765041 17.775229555534843 247.2055657106796 155.21368322376637 0.0 0.0
524.1343136110686 8.596063916248614 220.31703388095883 156.6196927568452 0.0 0.0
484.1180817330229 -3.4255837852581443 189.63040907026954 159.54650147284065 0.0 0.0
438.50416079495596 -14.353350210722738 156.45678364716852 168.17001112083526 0.0 0.0
373.6135374898873 -17.526234814057325 119.9530545027891 182.520296034395 0.0 0.0
283.4215678001451 -10.524502243993723 85.6688415069712 199.92582050750923 0.0 0.0
191.64924807814015 -4.507373628105046 56.4566536642005 209.2245750704619 0.0 0.0
123.30556426820075 -1.1772199624497057 36.56629844038594 203.6022309422433 0.0 0.0
79.2102320814619 4.269237321762837 24.926273892134393 187.56632892109405 0.0 0.0
45.43065376004956 14.263325750961489 17.895664235170543 172.28744316144736 0.0 0.0
15.820636913811663 20.215907809207334 10.810723275703342 168.8015483573714 0.0 0.0
-7.251308588957471 -2.2575472866063446 -2.852590983401646 175.5730928765688 0.0 0.0
54.69449838851256 -59.52514794662091 0.6827161417759937 188.75038919891406 0.0 0.0
-164.1877760878138 -638.7808808831851 -257.8583291361793 99.76353929543016 0.0 0.0
-120.56859704037491 -516.7086009038208 -193.88731303333245 -109.85393782232147 0.0 0.0
12.317889994333566 -73.674751129259 -18.030017263262685 -173.41286690481635 0.0 0.0
-31.74505103024279 -3.395811659555868 -10.538161979247917 -179.34496887547584 0.0 0.0
-25.672405213657157 18.72360862866016 -2.083605338853161 -175.0954394994148 0.0 0.0
-14.514998584512261 16.435840108128623 0.5774999257105384 -177.81905538091172 0.0 0.0
-6.474347876183618 7.827690815239562 0.4107037772764164 -191.68979702188705 0.0 0.0
-2.592969043220389 1.5639973017540472 -0.3124261018611696 -208.88542858644686 0.0 0.0
-0.6916711722525157 0.14305127020331643 -0.16714351301900443 -213.82682514822403 0.0 0.0
-0.11906137767274316 -0.06531013864930202 -0.05642687654101408 -206.3203030208202 0.0 0.0
0.09833985987705063 0.005122809999566158 0.040079864998304515 -196.71636182981746 0.0 0.0
-0.05199035827483556 -0.1597326672111734 -0.13196892111418634 -195.1071704613609 0.0 0.0
-0.5918434886525574 0.12347609593295061 0.11985282973355282 -191.92893587090998 0.0 0.0
-2.0013054531494845 0.7130433468889166 0.1644556369287642 -183.80742005948272 0.0 0.0
-1.6618610144321195 1.3611233905260107 0.568936164796682 -175.74407347101322 0.0 0.0
3.3508810640811078 3.9512352377024555 1.4810460289746743 -169.9929120102859 0.0 0.0
20.726131947317242 9.426348036966836 4.226776260463325 -164.9754549449401 0.0 0.0
61.433315341285834 19.88653069142211 11.046680753057132 -159.76551519971832 0.0 0.0
144.35495101758153 26.536291025028092 15.014587841292936 -151.36319086596362 0.0 0.0
350.10996971511736 -26.49712268248649 28.844540516895066 -144.76852336258744 0.0 0.0
540.0460436129089 3.129621665191422 201.42751976688805 -180.97686202373816 0.0 0.0
-470.8859690763017 -759.5629771226452 -539.3726752154968 -3.481659405224491e-11 0.0 0.0
540.0460436131877 3.1296216655986484 201.42751976712282 180.97686202373274 0.0 0.0
350.1099697153419 -26.497122682371327 28.844540517032584 144.7685233632058 0.0 0.0
144.35495101772278 26.53629102547781 15.014587841573942 151.363190866531 0.0 0.0
61.43331534214039 19.886530692529007 11.046680753779853 159.7655151999198 0.0 0.0
20.72613194801393 9.426348037683539 4.226776260959255 164.97545494486073 0.0 0.0
3.350881063122216 3.9512352360442193 1.4810460280994704 169.99291201035118 0.0 0.0
-1.661861013636539 1.3611233914778325 0.5689361653600642 175.74407347110827 0.0 0.0
-2.0013054534910566 0.7130433457104388 0.16445563639761218 183.8074200599185 0.0 0.0
-0.5918434877950105 0.12347609646601754 0.11985283018604775 191.92893587063247 0.0 0.0
-0.05199035843200761 -0.15973266875181835 -0.1319689216640647 195.10717046125464 0.0 0.0
0.09833986017462593 0.005122809917905258 0.040079865056956265 196.71636182962447 0.0 0.0
-0.11906137783584825 -0.06531013940550068 -0.05642687681503311 206.3203030208599 0.0 0.0
-0.69167117212168 0.14305127030180786 -0.16714351294515684 213.82682514827903 0.0 0.0
-2.5929690430189325 1.5639973020286304 -0.31242610171821905 208.88542858628009 0.0 0.0
-6.474347876341337 7.8276908148061475 0.410703777098699 191.68979702158958 0.0 0.0
-14.514998584408769 16.435840108236714 0.5774999257733253 177.81905538068918 0.0 0.0
-25.672405213529977 18.72360862876753 -2.0836053387844027 175.09543949925626 0.0 0.0
-31.745051030236603 -3.3958116595249863 -10.538161979235932 179.3449688754129 0.0 0.0
12.317889994222767 -73.67475112931095 -18.030017263311397 173.41286690463016 0.0 0.0
-120.56859704029193 -516.7086009030594 -193.887313033093 109.85393782225042 0.0 0.0
-98.91827482456667 -406.15307420730704 -151.42028305478715 -108.36500686477379 0.0 0.0
-15.975041475865439 -81.89054841548094 -29.372661679173405 -161.25316100568568 0.0 0.0
-54.604270415310154 -4.268851522024592 -17.663684507879644 -179.16435605368332 0.0 0.0
-65.6464623250059 17.36483808010866 -14.481130626204637 -176.85232627167412 0.0 0.0
-73.35229380598655 17.846297426928363 -16.654346120531738 -178.1901295932838 0.0 0.0
-91.02400763466191 11.176441632228089 -23.902199385339152 -189.5327466141956 0.0 0.0
-128.46089052946903 4.510874505369884 -37.05719998984452 -205.17059181952573 0.0 0.0
-192.84387802747437 4.682310504418989 -56.81387564529304 -209.43717407611507 0.0 0.0
-283.4623362105884 10.299556943327048 -85.78260906462508 -199.93268969935139 0.0 0.0
-373.4707586351976 17.529758463867008 -119.88977489609911 -182.49050080842943 0.0 0.0
-439.02016582944225 14.526779866887882 -156.40755661275278 -168.24839459812466 0.0 0.0
-484.4850155378328 3.3877936214168756 -190.18378664838542 -159.43443484564162 0.0 0.0
-525.2387523891636 -8.1892921463525 -221.3741736350268 -156.11310994039312 0.0 0.0
-559.7831306507132 -15.066827968738735 -247.03201673877615 -154.45865097987175 0.0 0.0
-585.5770633809329 -17.835842862327652 -264.80042260784876 -154.22179801156338 0.0 0.0
-600.6617153413806 -15.622752480541195 -271.6111379964084 -156.52927424499458 0.0 0.0
-602.9010315640637 -8.414871003220568 -265.13076394008215 -161.44374812010534 0.0 0.0
-597.5320533099803 -1.4076697453373441 -244.77376149666057 -171.64254308912905 0.0 0.0
-580.808497647533 42.3284854952518 -191.73956108366175 -184.6068268756378 0.0 0.0
-325.64178200267855 115.93089307754761 -23.63635102309577 -135.48359203614376 0.0 0.0
-1012.5393524160567 -995.4395504716897 -1010.8141596125708 -1.397353344145813e-10 0.0 0.0
-325.641782002437 115.93089307760258 -23.636351023014157 135.48359203666453 0.0 0.0
-580.8084976476937 42.32848549499646 -191.7395610836951 184.6068268759511 0.0 0.0
-597.5320533099673 -1.4076697454439113 -244.77376149670607 171.64254308914897 0.0 0.0
-602.9010315634322 -8.414871002481405 -265.1307639396997 161.4437481201822 0.0 0.0
-600.6617153413208 -15.622752480454295 -271.6111379964315 156.52927424502917 0.0 0.0
-585.5770633807483 -17.835842862603243 -264.80042260764924 154.2217980114747 0.0 0.0
-559.7831306504577 -15.06682796877157 -247.03201673866616 154.45865098004217 0.0 0.0
-525.2387523901215 -8.189292147966583 -221.37417363561445 156.1131099405614 0.0 0.0
-484.4850155364658 3.3877936232284185 -190.18378664727575 159.4344348455879 0.0 0.0
-439.0201658295007 14.526779866275314 -156.4075566127768 168.24839459808533 0.0 0.0
-373.47075863492296 17.52975846338409 -119.88977489607913 182.49050080843153 0.0 0.0
-283.4623362100438 10.299556943096103 -85.78260906449927 199.93268969944484 0.0 0.0
-192.84387802705095 4.682310504371719 -56.81387564516669 209.43717407610987 0.0 0.0
-128.46089052915477 4.510874505371165 -37.057199989756995 205.17059181936688 0.0 0.0
-91.02400763474525 11.17644163173238 -23.902199385517424 189.53274661393124 0.0 0.0
-73.35229380594663 17.846297426788084 -16.654346120564735 178.19012959312437 0.0 0.0
-65.64646232495603 17.36483808008188 -14.481130626201292 176.85232627154363 0.0 0.0
-54.604270415206756 -4.2688515218782275 -17.663684507808142 179.16435605354212 0.0 0.0
-15.975041475877092 -81.89054841553049 -29.372661679195915 161.25316100555628 0.0 0.0
-98.91827482436075 -406.15307420673423 -151.42028305455068 108.36500686477792 0.0 0.0
-81.46676164384881 -310.9004867631433 -117.7101745220976 -99.74745895753178 0.0 0.0
-34.745924608718525 -83.43167189530736 -35.44976545273197 -149.75652375966982 0.0 0.0
-75.85505251484425 -5.12943616163661 -24.29051634713481 -175.25435243540565 0.0 0.0
-103.64756834588215 15.956624294023051 -26.32562983513165 -173.81975603095464 0.0 0.0
-131.1571979050709 18.79594663353288 -33.62401538008838 -174.6654169514289 0.0 0.0
-174.62972587255018 14.368005543682928 -47.78452476520502 -182.86166501183132 0.0 0.0
-249.9311746790428 5.863077404261645 -73.80344186353597 -188.52578412745325 0.0 0.0
-355.12408357030966 -2.350864902323046 -118.01564121520323 -182.72642719204825 0.0 0.0
-456.13586226279904 -14.345291792428672 -180.08113313282917 -167.52198637466986 0.0 0.0
-533.5463176311516 -17.937133710172716 -236.80325597830222 -158.55886358249964 0.0 0.0
-590.7916269845045 -21.519358734438626 -280.7091766502728 -151.75686786672904 0.0 0.0
-638.2160425000156 -27.328722158287675 -314.6939070942999 -147.4537142173649 0.0 0.0
-682.5613474246492 -37.94543473712457 -345.89844762111244 -143.6996566030701 0.0 0.0
-720.983564440156 -46.734632310237615 -371.5476814228488 -140.4964496402753 0.0 0.0
-751.9134091143388 -51.26256260990898 -390.4204755891876 -138.8803310493812 0.0 0.0
-771.549860504294 -48.83083117444954 -399.5406756489273 -139.83161096222645 0.0 0.0
-778.6176163927598 -40.04570745355959 -398.56846445433064 -143.84495501987934 0.0 0.0
-772.5378905275787 -27.30502217397786 -388.6720137936668 -150.99332980095508 0.0 0.0
-730.5641402166766 12.526511716492095 -348.8171446521809 -159.5342734753934 0.0 0.0
-647.7790774666732 80.73252113464987 -277.0773483609163 -166.09023719098735 0.0 0.0
-1763.8680282718062 -1282.906266877058 -1482.8579203618895 4.339995030022692e-11 0.0 0.0
-647.7790774656792 80.73252113564797 -277.0773483602451 166.0902371911796 0.0 0.0
-730.5641402167407 12.526511716155937 -348.81714465228396 159.53427347569502 0.0 0.0
-772.537890527997 -27.305022174626984 -388.67201379395283 150.99332980122227 0.0 0.0
-778.6176163925907 -40.04570745348087 -398.5684644542679 143.84495501992043 0.0 0.0
-771.5498605038957 -48.83083117420524 -399.540675648606 139.8316109621687 0.0 0.0
-751.9134091130009 -51.262562608523055 -390.42047558826226 138.88033104928857 0.0 0.0
-720.9835644400157 -46.73463231033931 -371.547681422786 140.49644964028343 0.0 0.0
-682.561347423744 -37.945434736376036 -345.8984476204752 143.69965660298985 0.0 0.0
-638.2160424991555 -27.328722157497523 -314.6939070937028 147.45371421729936 0.0 0.0
-590.791626984493 -21.519358734694617 -280.70917665024496 151.75686786672972 0.0 0.0
-533.5463176309557 -17.93713371046693 -236.80325597809667 158.55886358240178 0.0 0.0
-456.13586226224874 -14.345291792383849 -180.0811331324408 167.52198637476857 0.0 0.0
-355.12408356952824 -2.350864901890469 -118.01564121473054 182.7264271920644 0.0 0.0
-249.93117467835924 5.863077404605428 -73.80344186322753 188.5257841272845 0.0 0.0
-174.62972587240787 14.368005543285733 -47.784524765294876 182.86166501158866 0.0 0.0
-131.15719790505622 18.795946633175475 -33.62401538019523 174.66541695124468 0.0 0.0
-103.64756834584675 15.956624293832146 -26.32562983518025 173.81975603084447 0.0 0.0
-75.8550525147315 -5.129436161547844 -24.290516347074707 175.25435243528818 0.0 0.0
-34.745924608797544 -83.43167189545936 -35.44976545280129 149.75652375951708 0.0 0.0
-81.4667616437333 -310.90048676268714 -117.7101745219261 99.74745895735508 0.0 0.0
-65.89761162293945 -230.25828102031718 -88.84676779297698 -88.1074652448485 0.0 0.0
-48.61271130989324 -79.5425412211963 -38.447300135513416 -136.8641360632907 0.0 0.0
-95.45479503927321 -5.708878178151021 -30.344975126954782 -167.18279966222366 0.0 0.0
-140.11054712902234 14.600059777848564 -37.62445354710868 -167.1863221007118 0.0 0.0
-186.4677072354428 18.494727750236198 -50.305317742797726 -164.89367983268372 0.0 0.0
-254.3815679899899 13.892597240783411 -72.23869086021917 -165.54184448246536 0.0 0.0
-361.1574142466845 -0.26608485586587527 -115.02193072712431 -164.44139054813238 0.0 0.0
-470.8134916222191 -20.7802814720377 -184.32819294402486 -152.22633527735167 0.0 0.0
-563.1511748735189 -31.680095242324107 -257.2883154916298 -146.03990886201993 0.0 0.0
-630.3465388609806 -33.30826842007261 -310.3889863218877 -141.70855299071565 0.0 0.0
-682.221648367124 -39.26870881449262 -348.6982926940041 -136.8179069412167 0.0 0.0
-730.2800402667599 -48.987362734201795 -381.30104800996475 -133.143665828975 0.0 0.0
-777.9986299682151 -62.72166942986139 -413.33713698588247 -129.45965699869345 0.0 0.0
-821.9433682181856 -76.26480276408871 -442.7790695423249 -126.12370411008042 0.0 0.0
-859.1302721425193 -85.27069075721276 -466.34142193056545 -124.16928189496367 0.0 0.0
-883.8507003337552 -85.87687935999882 -479.26289617975806 -125.15294498079167 0.0 0.0
-893.0721652363014 -75.64815661164317 -478.86493619643346 -129.8309950265871 0.0 0.0
-876.5741970364447 -47.00959136798852 -456.5020549623914 -136.54511090021933 0.0 0.0
-827.9576590858059 4.829433076128325 -407.2703246092166 -142.37871696818962 0.0 0.0
-700.1457616452578 120.68223574003224 -290.4280085783948 -146.71192037937823 0.0 0.0
-2208.6575830320157 -1522.760263347132 -1835.0023670819432 1.2601120147337497e-10 0.0 0.0
-700.1457616451396 120.68223574013572 -290.42800857828274 146.711920379621 0.0 0.0
-827.9576590848258 4.829433077047355 -407.2703246085654 142.37871696817817 0.0 0.0
-876.5741970362121 -47.00959136794327 -456.5020549621395 136.54511090048106 0.0 0.0
-893.0721652355069 -75.64815661096384 -478.8649361960042 129.83099502660335 0.0 0.0
-883.8507003327617 -85.87687935905652 -479.26289617909754 125.15294498082257 0.0 0.0
-859.1302721423087 -85.27069075713777 -466.3414219303854 124.16928189502852 0.0 0.0
-821.9433682174321 -76.26480276350054 -442.77906954189064 126.12370411005455 0.0 0.0
-777.9986299674028 -62.721669429105674 -413.3371369854037 129.4596569986612 0.0 0.0
-730.2800402659925 -48.98736273361917 -381.3010480094092 133.14366582890437 0.0 0.0
-682.2216483666457 -39.26870881430357 -348.69829269371485 136.81790694119056 0.0 0.0
-630.346538859945 -33.30826841928737 -310.3889863211568 141.70855299066133 0.0 0.0
-563.1511748728385 -31.680095242006306 -257.2883154910869 146.03990886200035 0.0 0.0
-470.8134916211998 -20.780281471269667 -184.32819294332086 152.2263352774076 0.0 0.0
-361.15741424602817 -0.266084855531147 -115.02193072673631 164.44139054807613 0.0 0.0
-254.38156798947813 13.892597240754288 -72.2386908600948 165.54184448223444 0.0 0.0
-186.46770723526134 18.49472775011147 -50.3053177427891 164.8936798324525 0.0 0.0
-140.11054712883077 14.600059778023713 -37.624453547004514 167.1863221005309 0.0 0.0
-95.4547950392883 -5.70887817828339 -30.344975126998335 167.18279966211318 0.0 0.0
-48.61271130983458 -79.54254122118326 -38.44730013549179 136.86413606311132 0.0 0.0
-65.8976116227248 -230.25828101994347 -88.84676779280046 88.1074652446767 0.0 0.0
-53.61709906572067 -162.87072165516574 -64.94634621626591 -75.33394586108217 0.0 0.0
-59.37850012797114 -71.68638460956667 -39.31946542126134 -122.00920047023133 0.0 0.0
-113.85753943018352 -5.856564454094748 -35.914829023219255 -155.09274497641277 0.0 0.0
-174.53199511137618 12.669477891634678 -48.55943236350178 -155.5779230393207 0.0 0.0
-240.31113216304183 17.45456238678618 -66.57337779220623 -151.49403792191563 0.0 0.0
-335.35481557365813 11.315817503544107 -98.27701208975502 -146.09013775949006 0.0 0.0
-450.84773153343787 -13.794503071340824 -160.8081913755637 -134.1500039219742 0.0 0.0
-557.7091051612965 -34.51414903016944 -244.1116946170537 -128.1227295393034 0.0 0.0
-639.6402214623588 -41.37379464609741 -313.9911746461884 -126.06154200666434 0.0 0.0
-697.076421154515 -48.5402704334667 -361.2454871526509 -122.25354467169942 0.0 0.0
-750.6185608716381 -56.271066348526546 -396.9906077099825 -120.19069740684647 0.0 0.0
-801.3664564847936 -69.07179594663731 -430.438814724447 -117.22136034196961 0.0 0.0
-852.8877208861873 -86.77407067468974 -465.5333590743838 -113.87139882357965 0.0 0.0
-902.7010863306717 -105.4144986873784 -500.02487447727 -110.61340863952552 0.0 0.0
-946.3203130279004 -120.133077565636 -529.4418532782452 -108.3863174459159 0.0 0.0
-976.7005193344178 -123.75273148527748 -546.6549907856527 -109.14036866912097 0.0 0.0
-983.174723494453 -109.60710887209294 -543.0641657411976 -113.23310267912927 0.0 0.0
-956.054505220372 -66.93370216618516 -508.5189375199342 -119.22782673491815 0.0 0.0
-882.4949348937553 12.850552324573343 -433.0225957296327 -123.76139096260368 0.0 0.0
-729.8239328757013 155.68215516170574 -288.54933234000555 -126.20135744857691 0.0 0.0
-2557.346886502951 -1765.3315153063365 -2137.284714067771 1.4742695952918439e-10 0.0 0.0
-729.8239328757884 155.68215516150406 -288.54933234008263 126.20135744882052 0.0 0.0
-882.4949348924519 12.850552325890547 -433.0225957286887 123.76139096263528 0.0 0.0
-956.0545052204648 -66.93370216653784 -508.5189375200248 119.22782673516154 0.0 0.0
-983.1747234944112 -109.60710887211886 -543.0641657413375 113.23310267928143 0.0 0.0
-976.7005193343368 -123.75273148537788 -546.6549907855958 109.14036866913112 0.0 0.0
-946.3203130282734 -120.13307756620614 -529.4418532784516 108.38631744606447 0.0 0.0
-902.7010863299704 -105.41449868682976 -500.0248744767829 110.61340863950079 0.0 0.0
-852.8877208865594 -86.77407067533179 -465.533359074682 113.87139882368076 0.0 0.0
-801.3664564839357 -69.07179594594089 -430.4388147238905 117.22136034196714 0.0 0.0
-750.6185608712757 -56.271066348313205 -396.99060770977525 120.19069740669204 0.0 0.0
-697.0764211534979 -48.54027043263933 -361.2454871519451 122.25354467157061 0.0 0.0
-639.6402214617342 -41.3737946456957 -313.99117464567496 126.06154200655821 0.0 0.0
-557.7091051608609 -34.51414903015508 -244.1116946166497 128.1227295392922 0.0 0.0
-450.8477315330893 -13.79450307146142 -160.80819137531338 134.15000392199426 0.0 0.0
-335.3548155730433 11.315817503919021 -98.27701208944026 146.09013775928707 0.0 0.0
-240.3111321627604 17.454562386703568 -66.57337779216208 151.49403792180757 0.0 0.0
-174.53199511126414 12.6694778916245 -48.559432363472055 155.57792303918617 0.0 0.0
-113.85753943024145 -5.856564454275182 -35.914829023290956 155.09274497631336 0.0 0.0
-59.378500127890476 -71.68638460942816 -39.319465421195574 122.00920047012453 0.0 0.0
-53.617099065620806 -162.87072165495013 -64.94634621617126 75.333945860967 0.0 0.0
-44.7445900237676 -108.16997901985253 -45.87437071308604 -62.09630046333312 0.0 0.0
-67.95569237572947 -61.239661976091455 -38.75860630554628 -105.18249365284161 0.0 0.0
-131.2361797816089 -5.390585859172576 -40.98867497852169 -139.04993281289757 0.0 0.0
-207.1673846543101 10.652053426849529 -58.93729645246787 -139.9862280536553 0.0 0.0
-291.6265888717557 13.347750674554415 -83.4300697091184 -131.70708599886495 0.0 0.0
-408.56248485875255 2.8364289165450476 -127.74227995393929 -120.47967139705338 0.0 0.0
-525.4956293862457 -26.372050315848142 -206.9381073386901 -108.18150392459128 0.0 0.0
-624.936424132844 -42.447969347057054 -293.4752378553193 -106.29990458347646 0.0 0.0
-692.7246689525487 -53.061451788286845 -356.75540018916655 -104.32419502292778 0.0 0.0
-752.8191224915327 -60.69666650664987 -399.95258931622016 -103.9581466188908 0.0 0.0
-807.3559559770729 -72.51746255545346 -436.0455873453162 -102.60257275810226 0.0 0.0
-861.7956108144157 -89.266367472427 -472.42675430417364 -100.19137900468746 0.0 0.0
-917.4323991726199 -110.74470459098008 -511.16245665788676 -97.31668738247015 0.0 0.0
-972.0867947688628 -133.5257650090525 -549.9647033738177 -94.41426224452927 0.0 0.0
-1022.4031700281583 -154.15044988619317 -585.5436550572307 -92.0788066113987 0.0 0.0
-1057.764722139691 -162.30334793587141 -607.5413816679063 -91.85119000265371 0.0 0.0
-1061.9360849536806 -142.33046093172908 -599.9652201143535 -95.12666125830862 0.0 0.0
-1019.1736588844574 -82.72971218305483 -549.2792314167716 -100.33141228196293 0.0 0.0
-920.0673313742823 23.27299175463122 -447.74153096984855 -104.36505073138335 0.0 0.0
-751.0856370685165 182.77484851448236 -285.4204725539237 -108.8037416539074 0.0 0.0
-2858.8822194043714 -1997.4350890604653 -2408.752595314836 6.918909889463976e-11 0.0 0.0
-751.0856370679936 182.7748485149478 -285.42047255356636 108.80374165403072 0.0 0.0
-920.0673313745383 23.272991754267025 -447.741530970078 104.36505073157184 0.0 0.0
-1019.1736588850322 -82.72971218379125 -549.2792314172502 100.33141228212497 0.0 0.0
-1061.9360849541536 -142.33046093234375 -599.9652201147544 95.12666125841741 0.0 0.0
-1057.7647221398206 -162.3033479361302 -607.5413816679004 91.85119000269059 0.0 0.0
-1022.4031700280461 -154.15044988623805 -585.5436550571602 92.0788066114134 0.0 0.0
-972.0867947682859 -133.52576500861184 -549.9647033732607 94.41426224446258 0.0 0.0
-917.4323991726144 -110.74470459117985 -511.1624566579693 97.31668738248595 0.0 0.0
-861.7956108150086 -89.26636747322169 -472.42675430457757 100.19137900469819 0.0 0.0
-807.3559559766217 -72.51746255518907 -436.04558734504826 102.60257275786432 0.0 0.0
-752.819122490916 -60.69666650630854 -399.9525893158178 103.95814661888551 0.0 0.0
-692.7246689523218 -53.06145178837386 -356.7554001889293 104.32419502294951 0.0 0.0
-624.93642413252 -42.447969347105314 -293.4752378549474 106.29990458342796 0.0 0.0
-525.4956293858152 -26.372050315814647 -206.93810733828542 108.18150392457193 0.0 0.0
-408.56248485816013 2.836428916739088 -127.74227995362952 120.47967139696746 0.0 0.0
-291.6265888711891 13.347750674779618 -83.43006970890978 131.70708599866657 0.0 0.0
-207.16738465422327 10.652053426719517 -58.93729645247949 139.9862280535821 0.0 0.0
-131.23617978147917 -5.390585859115706 -40.98867497846529 139.0499328128468 0.0 0.0
-67.95569237565086 -61.239661976022774 -38.758606305502084 105.18249365273304 0.0 0.0
-44.74459002366851 -108.1699790197003 -45.874370713010634 62.09630046331498 0.0 0.0
-38.95593136195188 -65.84130857198936 -31.439171980182362 -48.65933051349186 0.0 0.0
-74.6545419457605 -49.39382177792711 -37.21450911710628 -86.56058058004002 0.0 0.0
-147.56885563168908 -4.336453482157005 -45.57204235383583 -119.08831401433147 0.0 0.0
-238.30773494069967 7.9490410396312585 -69.1016603802601 -119.93384875253419 0.0 0.0
-345.92470653500595 8.763277141331642 -101.03169531109963 -109.45890553389812 0.0 0.0
-468.2051478683324 -11.988844313844199 -160.77228149729368 -90.59149394302207 0.0 0.0
-587.1756559232988 -34.717419486044236 -249.52238541943063 -84.86317703001791 0.0 0.0
-670.5881344070128 -51.032762222763154 -332.67915470248363 -84.1394084971995 0.0 0.0
-739.240765184145 -61.393796432576444 -389.9702078982334 -84.55661102249508 0.0 0.0
-799.3828571921749 -73.22263144407204 -432.11839127482267 -84.86643226622196 0.0 0.0
-857.2882834788568 -88.93916030097608 -470.54450795027924 -84.13900042541941 0.0 0.0
-915.6280542644517 -109.47244897644443 -510.391938987733 -82.3035996568716 0.0 0.0
-975.1065027703758 -134.25573308018397 -552.595061898096 -79.9938535128455 0.0 0.0
-1033.5606037257407 -161.32332014525446 -595.3627689459013 -77.59288720806728 0.0 0.0
-1088.5957963609367 -185.75113012140142 -635.1156800597084 -75.32134661296064 0.0 0.0
-1129.9861364114342 -198.42172887811077 -662.3233566618085 -74.08064250809812 0.0 0.0
-1134.426649419241 -178.02603218859147 -654.7732732675136 -75.63624533835075 0.0 0.0
-1076.8687989563725 -101.86611481156984 -588.5065558690433 -80.15631222029097 0.0 0.0
-952.2865998863988 30.699639072629324 -460.69974158044556 -85.60304256613259 0.0 0.0
-762.911772640876 209.86789244706148 -277.4100133141729 -94.03632830278616 0.0 0.0
-3123.9156889797873 -2211.485949604883 -2651.8623316721414 4.2160053226325545e-11 0.0 0.0
-762.911772640954 209.86789244688293 -277.4100133141583 94.03632830302348 0.0 0.0
-952.2865998870437 30.699639071890275 -460.6997415809791 85.60304256626479 0.0 0.0
-1076.8687989561515 -101.86611481144922 -588.5065558689363 80.15631222036546 0.0 0.0
-1134.4266494192593 -178.02603218871275 -654.7732732675491 75.6362453384353 0.0 0.0
-1129.9861364118528 -198.42172887871317 -662.3233566620294 74.08064250813749 0.0 0.0
-1088.5957963611318 -185.75113012177584 -635.1156800598233 75.32134661309976 0.0 0.0
-1033.5606037252778 -161.32332014498806 -595.3627689455251 77.59288720812296 0.0 0.0
-975.1065027705964 -134.2557330805808 -552.5950618982391 79.99385351289936 0.0 0.0
-915.6280542650617 -109.4724489773141 -510.39193898809197 82.30359965684809 0.0 0.0
-857.2882834780588 -88.93916030037926 -470.5445079498164 84.13900042531965 0.0 0.0
-799.3828571916808 -73.22263144381817 -432.1183912744713 84.86643226611928 0.0 0.0
-739.2407651840024 -61.393796432779624 -389.9702078980842 84.55661102252601 0.0 0.0
-670.5881344065155 -51.03276222259869 -332.6791547020404 84.13940849720109 0.0 0.0
-587.1756559226383 -34.71741948569245 -249.5223854188472 84.86317702994111 0.0 0.0
-468.20514786793024 -11.988844313969162 -160.77228149707017 90.59149394308115 0.0 0.0
-345.92470653449743 8.763277141498747 -101.03169531090965 109.45890553373901 0.0 0.0
-238.3077349405187 7.949041039659003 -69.10166038019742 119.93384875251479 0.0 0.0
-147.5688556315499 -4.336453482031051 -45.572042353756274 119.0883140142085 0.0 0.0
-74.65454194571547 -49.39382177796233 -37.214509117103326 86.56058057993135 0.0 0.0
-38.95593136184669 -65.84130857186437 -31.439171980113315 48.65933051348302 0.0 0.0
-35.57889641350806 -35.68787476307514 -21.38003135297496 -35.35358390084991 0.0 0.0
-79.27925211288711 -37.19784991784282 -34.943130609218976 -66.36127462198968 0.0 0.0
-162.62889708156365 -2.9046417589872804 -49.66006165216527 -95.11989773222005 0.0 0.0
-268.9822683164888 4.505056116458372 -79.30374624278593 -95.56807495606485 0.0 0.0
-397.6141965506505 0.4854984020110811 -120.7302736635755 -81.7480910587794 0.0 0.0
-526.9061949753735 -22.489170567556183 -194.33612687487891 -65.5089613134001 0.0 0.0
-630.7363965985445 -42.59882608817179 -287.1735624376415 -63.07387417837234 0.0 0.0
-708.7891857226987 -56.409027090256174 -362.87314661990604 -63.312460673066546 0.0 0.0
-777.6526938141608 -70.48424439234026 -417.44359322648876 -64.38261312580318 0.0 0.0
-840.527776201697 -85.91229787258402 -460.4772148120327 -65.16375897392447 0.0 0.0
-901.8552922744348 -105.49112689816877 -501.895638329764 -64.87144380903204 0.0 0.0
-964.3256985634043 -129.85906489803136 -545.5420797893972 -63.570637281846096 0.0 0.0
-1027.4480810010323 -158.63829335864403 -591.5278989697229 -61.804888640512246 0.0 0.0
-1088.9317101241068 -187.09417934074585 -636.4739136742112 -60.108879316135756 0.0 0.0
-1145.7171819243306 -213.49070873736235 -678.0358865259003 -58.20100966955063 0.0 0.0
-1191.8973436358765 -231.0271419751941 -709.9822176227383 -56.096865592371145 0.0 0.0
-1204.398577818667 -217.17899744488625 -709.7176270345651 -55.47462954779427 0.0 0.0
-1140.1807851294689 -132.85378901092457 -636.1310846628501 -59.00138556289627 0.0 0.0
-986.761203558895 29.522626479117008 -478.85886931168864 -67.00929045899957 0.0 0.0
-762.5056762265087 243.96443162754773 -259.8422894565361 -80.53109617127323 0.0 0.0
-3352.671813792358 -2398.0037785054697 -2862.378648336695 7.535305712735862e-12 0.0 0.0
-762.5056762260137 243.9644316279523 -259.84228945611983 80.53109617139299 0.0 0.0
-986.7612035586205 29.522626479287595 -478.8588693115171 67.0092904592071 0.0 0.0
-1140.1807851293165 -132.85378901085076 -636.1310846627529 59.00138556303333 0.0 0.0
-1204.3985778188337 -217.17899744517308 -709.7176270346541 55.47462954790327 0.0 0.0
-1191.8973436354106 -231.02714197485696 -709.9822176223798 56.09686559237679 0.0 0.0
-1145.717181924458 -213.49070873766806 -678.0358865258831 58.2010096696307 0.0 0.0
-1088.9317101243262 -187.09417934113816 -636.4739136743369 60.10887931617877 0.0 0.0
-1027.4480810014206 -158.6382933592747 -591.5278989699844 61.804888640593944 0.0 0.0
-964.3256985628417 -129.85906489769042 -545.5420797889825 63.57063728180185 0.0 0.0
-901.8552922740203 -105.49112689802988 -501.8956383295281 64.87144380912072 0.0 0.0
-840.5277762011749 -85.91229787231754 -460.4772148116999 65.16375897391619 0.0 0.0
-777.6526938138244 -70.48424439228714 -417.4435932262449 64.38261312578625 0.0 0.0
-708.7891857224406 -56.40902709026629 -362.8731466196029 63.31246067293738 0.0 0.0
-630.7363965982177 -42.59882608823039 -287.1735624372616 63.07387417835628 0.0 0.0
-526.9061949747351 -22.48917056724547 -194.33612687439387 65.50896131331618 0.0 0.0
-397.6141965503295 0.485498401826689 -120.7302736635234 81.74809105872515 0.0 0.0
-268.9822683163399 4.505056116491142 -79.30374624273023 95.56807495602519 0.0 0.0
-162.62889708145994 -2.9046417590377684 -49.66006165214932 95.11989773217492 0.0 0.0
-79.27925211278433 -37.197849917798294 -34.94313060917479 66.36127462196252 0.0 0.0
-35.57889641349636 -35.68787476302929 -21.380031352957687 35.35358390081032 0.0 0.0
-33.42304455502512 -17.375789822236225 -15.239650313178402 -22.921546579137793 0.0 0.0
-81.06792891910135 -25.74662641036361 -32.04436659883949 -44.87276224238595 0.0 0.0
-176.016588645411 -1.6038090671743173 -53.286119313775586 -66.6792689225213 0.0 0.0
-300.26994934282004 0.2949773325220275 -89.8912311570729 -66.36257373855854 0.0 0.0
-445.22877992192804 -11.353786896911023 -143.39294512924667 -51.72668436903784 0.0 0.0
-574.2501112726741 -31.32313584500615 -227.5557059026521 -42.400185546803336 0.0 0.0
-662.0025838889983 -48.00014608635615 -317.3495255150651 -41.83839494093664 0.0 0.0
-741.1371085045126 -62.841307861070476 -388.31038444399195 -42.912927635497205 0.0 0.0
-811.1792134542932 -80.13685045986091 -441.2617746202019 -43.97682704939541 0.0 0.0
-877.0293010700933 -98.93038444858317 -486.0826343822446 -44.79628505447475 0.0 0.0
-942.3868309976855 -122.17990353831601 -531.0119787946104 -44.81886675207804 0.0 0.0
-1008.5782534384422 -150.403068496758 -578.3725768476452 -44.016781455746234 0.0 0.0
-1075.5982882719252 -181.64354270047374 -627.5121324824113 -42.94490595636519 0.0 0.0
-1139.4652026001067 -213.16796056654798 -675.1891281143014 -41.81476680657472 0.0 0.0
-1196.456932710886 -239.12977909338906 -716.6455972643664 -40.47349153315791 0.0 0.0
-1240.8317899584197 -254.50382176133067 -746.5311247862006 -38.41066054672975 0.0 0.0
-1263.5096209891599 -250.80542238929434 -756.224452880829 -36.015270523651964 0.0 0.0
-1226.368378012598 -192.3138382392678 -709.0585955958993 -36.97686668761416 0.0 0.0
-1043.124271701172 1.9909345518076975 -521.0515686673568 -46.87722188334324 0.0 0.0
-738.4601851114792 298.4622977594017 -220.44871265826117 -67.13193836171885 0.0 0.0
-3531.120553502529 -2539.315239659279 -3024.665493014776 5.17523801590869e-11 0.0 0.0
-738.4601851108011 298.4622977600454 -220.44871265781052 67.13193836176568 0.0 0.0
-1043.1242717009204 1.9909345520097474 -521.0515686671904 46.877221883383655 0.0 0.0
-1226.3683780125143 -192.31383823926967 -709.0585955958011 36.976866687659125 0.0 0.0
-1263.5096209891444 -250.80542238940865 -756.2244528807448 36.015270523741314 0.0 0.0
-1240.8317899580202 -254.5038217610486 -746.5311247858946 38.4106605467575 0.0 0.0
-1196.4569327106203 -239.1297790932823 -716.6455972640938 40.47349153316737 0.0 0.0
-1139.4652025999144 -213.16796056655718 -675.1891281141302 41.81476680664417 0.0 0.0
-1075.5982882718483 -181.64354270060227 -627.512132482364 42.944905956450995 0.0 0.0
-1008.5782534381041 -150.40306849663344 -578.3725768473503 44.01678145562452 0.0 0.0
-942.38683099681 -122.179903537709 -531.0119787940448 44.81886675213739 0.0 0.0
-877.0293010701173 -98.93038444887485 -486.08263438223275 44.79628505454861 0.0 0.0
-811.1792134538791 -80.13685045972511 -441.26177461987646 43.976827049357595 0.0 0.0
-741.1371085046169 -62.841307861478725 -388.31038444393823 42.91292763537679 0.0 0.0
-662.0025838882101 -48.000146085914544 -317.34952551440824 41.83839494099006 0.0 0.0
-574.250111272113 -31.3231358447147 -227.55570590215538 42.40018554666813 0.0 0.0
-445.2287799214508 -11.35378689688262 -143.3929451290488 51.726684369059484 0.0 0.0
-300.26994934259164 0.29497733245266744 -89.89123115703912 66.3625737385236 0.0 0.0
-176.01658864527084 -1.6038090672200582 -53.286119313747264 66.67926892249015 0.0 0.0
-81.0679289189776 -25.74662641029798 -32.04436659878266 44.872762242349985 0.0 0.0
-33.42304455499569 -17.375789822212447 -15.239650313162443 22.921546579058063 0.0 0.0
-30.249965009749495 -9.92624070691576 -12.052861714999576 -12.999442780031265 0.0 0.0
-78.55579634521503 -16.613091268866704 -28.550666284224516 -22.474532709036204 0.0 0.0
-187.0997274882871 -1.3228542763122864 -56.5267745293798 -32.55655412716121 0.0 0.0
-333.4653875453166 -3.620809039618212 -101.01549983151182 -31.812920735816203 0.0 0.0
-494.1447713857015 -20.68549747913368 -167.66819198666207 -23.110737502812754 0.0 0.0
-608.40017060905 -38.08810779456654 -257.9813955229672 -21.33499089947925 0.0 0.0
-690.3022330507505 -50.73434152839929 -341.5606474430033 -22.276305115108254 0.0 0.0
-768.6461344984727 -69.89884138086471 -409.7511783376874 -22.887535608457135 0.0 0.0
-840.6668467756051 -89.88001923423454 -462.20741115266577 -23.335206644463558 0.0 0.0
-909.8743517468347 -112.49660077110613 -509.82106005787637 -23.80359725932523 0.0 0.0
-979.0051967134516 -139.23755884059506 -558.2059224205046 -23.938679627901607 0.0 0.0
-1049.162595966272 -170.19366574630683 -608.883457260847 -23.731990368269408 0.0 0.0
-1119.260591745921 -205.07710589100438 -661.3773620622302 -23.26092720921021 0.0 0.0
-1186.1620202148958 -238.3340049394292 -711.4338561725319 -22.732777524877463 0.0 0.0
-1242.4855850922513 -263.265581812085 -752.0587970467695 -22.033511063099194 0.0 0.0
-1281.7288521948194 -273.562328694827 -776.8554292679133 -20.680041462585667 0.0 0.0
-1300.9598204431081 -266.93773818580325 -783.203158640398 -18.28220729200434 0.0 0.0
-1301.804591309975 -246.26449573268926 -773.4648109107077 -16.43946872893896 0.0 0.0
-1208.3014338011394 -138.87193842117213 -673.8234070048011 -23.084474291638674 0.0 0.0
-722.5235579438565 343.51011452620025 -190.1297369840773 -49.44750219140679 0.0 0.0
-3510.637003725 -2483.2672641506647 -2988.9820082274496 3.7626790572176105e-11 0.0 0.0
-722.5235579439424 343.51011452607156 -190.12973698412216 49.447502191496554 0.0 0.0
-1208.3014338017429 -138.87193842183757 -673.8234070052735 23.084474291658783 0.0 0.0
-1301.8045913098902 -246.26449573268349 -773.4648109106831 16.43946872900969 0.0 0.0
-1300.959820443132 -266.93773818593615 -783.2031586404577 18.282207292035956 0.0 0.0
-1281.7288521950325 -273.56232869515753 -776.8554292680608 20.680041462514314 0.0 0.0
-1242.4855850917468 -263.2655818117359 -752.0587970463192 22.033511063069298 0.0 0.0
-1186.1620202141453 -238.33400493883371 -711.4338561720209 22.732777524838852 0.0 0.0
-1119.2605917460655 -205.07710589135345 -661.3773620623031 23.26092720913764 0.0 0.0
-1049.1625959654143 -170.19366574570185 -608.8834572602487 23.73199036822937 0.0 0.0
-979.0051967126988 -139.23755884007733 -558.2059224200348 23.93867962797176 0.0 0.0
-909.8743517467449 -112.4966007713042 -509.8210600577813 23.803597259395886 0.0 0.0
-840.6668467755426 -89.88001923445569 -462.20741115259335 23.335206644519836 0.0 0.0
-768.646134498118 -69.89884138084498 -409.7511783373959 22.887535608457075 0.0 0.0
-690.3022330502201 -50.73434152814761 -341.5606474425132 22.27630511515778 0.0 0.0
-608.4001706086776 -38.088107794584026 -257.9813955225916 21.334990899471045 0.0 0.0
-494.1447713853759 -20.685497479224757 -167.66819198646866 23.110737502719616 0.0 0.0
-333.4653875451203 -3.620809039812542 -101.01549983153608 31.812920735907277 0.0 0.0
-187.09972748816955 -1.322854276379024 -56.526774529364566 32.55655412711891 0.0 0.0
-78.55579634516542 -16.61309126881569 -28.550666284194328 22.474532708946732 0.0 0.0
-30.249965009872096 -9.926240706976472 -12.052861715054567 12.999442780052204 0.0 0.0
-19.164017834664413 -4.928492931408256 -7.227753229821802 -8.082996981701875 0.0 0.0
-67.844487788399 -9.380681426700166 -23.167550764529743 -9.332373127112326 0.0 0.0
-194.8403697480058 -2.798536993126799 -59.29167202233976 -11.009984511183113 0.0 0.0
-374.21572521686545 -17.13808554043895 -117.91344507707821 -9.003009660550516 0.0 0.0
-557.7701854644873 -57.82643913002025 -207.9557858856332 -1.3998500323003533 0.0 0.0
-687.6183160189303 -99.50752701897748 -323.0030474134796 0.8932234968667352 0.0 0.0
-795.2945478823997 -141.0307984901472 -432.17352293986926 0.8030510072084773 0.0 0.0
-908.8756614347571 -197.02475358881983 -534.478996486989 -0.4164389829426334 0.0 0.0
-1027.3636245133603 -264.39587043079655 -633.2736739292698 -1.8511573203593628 0.0 0.0
-1159.3921592033694 -349.6309312726146 -743.3931679803395 -3.362565427967933 0.0 0.0
-1310.2206230787474 -457.44375914667165 -872.8945822514925 -4.8204920778436 0.0 0.0
-1480.3945437585503 -588.7837636680185 -1023.3793175601563 -6.049500340488885 0.0 0.0
-1665.3560472037266 -737.3766538073768 -1189.7064880977873 -6.879033132008198 0.0 0.0
-1856.8880790611925 -894.8608133533528 -1363.8019870427097 -7.608531715580048 0.0 0.0
-2040.5556315980107 -1046.7757811568817 -1531.2705672349573 -8.061560534472324 0.0 0.0
-2196.0516782104924 -1173.1995095992472 -1672.0647499231627 -7.992462329119466 0.0 0.0
-2298.024317219294 -1249.7197338454603 -1761.3812482234641 -6.945845838653735 0.0 0.0
-2325.831469027094 -1256.7222216441862 -1778.7882485566217 -4.921907486624068 0.0 0.0
-2339.7632086690633 -1255.6383478014081 -1784.1324677237842 -9.266641987982725 0.0 0.0
-2349.7600927398075 -1263.7343661033497 -1790.159468087516 -38.38150780748049 0.0 0.0
-5637.234537668362 -4581.951692119099 -5084.143537716355 3.552713678800501e-11 0.0 0.0
-2349.760092739735 -1263.734366103315 -1790.1594680873282 38.38150780754214 0.0 0.0
-2339.7632086698018 -1255.6383478022324 -1784.1324677242246 9.266641987985835 0.0 0.0
-2325.831469026495 -1256.7222216436573 -1778.7882485560342 4.921907486700764 0.0 0.0
-2298.0243172189685 -1249.7197338452581 -1761.3812482231124 6.945845838588625 0.0 0.0
-2196.051678209899 -1173.1995095987988 -1672.0647499224906 7.992462329133616 0.0 0.0
-2040.555631596367 -1046.7757811553831 -1531.2705672335203 8.061560534581865 0.0 0.0
-1856.8880790599537 -894.8608133522929 -1363.8019870416167 7.6085317156523224 0.0 0.0
-1665.3560472036365 -737.3766538075081 -1189.7064880976063 6.879033132000647 0.0 0.0
-1480.3945437562406 -588.7837636659123 -1023.3793175584274 6.049500340481941 0.0 0.0
-1310.220623078424 -457.4437591466109 -872.8945822511541 4.820492077808019 0.0 0.0
-1159.3921592025927 -349.63093127212335 -743.3931679796839 3.3625654280650323 0.0 0.0
-1027.363624513459 -264.39587043118695 -633.273673929198 1.8511573205283902 0.0 0.0
-908.875661433638 -197.02475358797523 -534.4789964861545 0.41643898292500836 0.0 0.0
-795.2945478823957 -141.0307984904984 -432.173522939653 -0.8030510072346111 0.0 0.0
-687.6183160185492 -99.50752701894308 -323.00304741302796 -0.8932234967790009 0.0 0.0
-557.7701854643167 -57.82643913030918 -207.95578588546823 1.3998500321179463 0.0 0.0
-374.2157252164481 -17.13808554027106 -117.91344507690008 9.003009660698257 0.0 0.0
-194.84036974792784 -2.7985369932689608 -59.29167202235902 11.00998451115671 0.0 0.0
-67.84448778824066 -9.38068142653107 -23.167550764431507 9.332373127025557 0.0 0.0
-19.164017834562554 -4.928492931398866 -7.227753229788424 8.08299698187999 0.0 0.0
SCALARS Strain float 6
LOOKUP_TABLE default
0.013163509070947394 -0.022251427595158864 0.0 -0.0010822268680801298 0.0 0.0
0.008079821526888988 -0.0021375968069771564 0.0 -0.006821119472929941 0.0 0.0
0.002446348488032869 -0.0006108069731991498 0.0 -0.0007398717488558992 0.0 0.0
0.002132696490224535 -0.0008536701877186199 0.0 -1.700907115190972e-05 0.0 0.0
0.0029919584745745917 -0.0012590022607929493 0.0 0.00012712500849280483 0.0 0.0
0.004847844333065385 -0.002621885052718334 0.0 0.0002514328065338341 0.0 0.0
0.008028161473901493 -0.0052841903256339254 0.0 0.0003361381280966235 0.0 0.0
0.01275508939674953 -0.009475672672811472 0.0 0.00036856995675378494 0.0 0.0
0.019216788632033317 -0.015368406006746063 0.0 0.0003538016269322223 0.0 0.0
0.02749288639214309 -0.02298639337012176 0.0 0.00027375457677426693 0.0 0.0
0.0375718278664871 -0.03228421189251586 0.0 0.00016611171073948705 0.0 0.0
0.049403317267221095 -0.043207921054075164 0.0 2.8549404815071547e-05 0.0 0.0
0.06291700944524263 -0.05571803576361227 0.0 -0.00018323369678160842 0.0 0.0
0.07803337648504635 -0.06977190019265524 0.0 -0.0004215986026565642 0.0 0.0
0.0945912463569086 -0.08526020473377803 0.0 -0.0007296530863031168 0.0 0.0
0.11219124590420357 -0.10183993039052439 0.0 -0.0011091471789359 0.0 0.0
0.13008209661476416 -0.11881417300087227 0.0 -0.001491988217456114 0.0 0.0
0.14713990176813369 -0.13511483609091013 0.0 -0.0017296357543428293 0.0 0.0
0.16197838146585977 -0.14937738563605676 0.0 -0.0016459441555047715 0.0 0.0
0.17295579217010662 -0.16002933316908677 0.0 -0.0017390378315888981 0.0 0.0
0.17725279676100478 -0.16437540297373884 0.0 2.3696322681843185e-15 0.0 0.0
0.17295579217008572 -0.16002933316906384 0.0 0.0017390378315965595 0.0 0.0
0.161978381465814 -0.14937738563601324 0.0 0.0016459441555093561 0.0 0.0
0.1471399017680677 -0.1351148360908474 0.0 0.0017296357543453659 0.0 0.0
0.13008209661468895 -0.11881417300080394 0.0 0.0014919882174550848 0.0 0.0
0.11219124590412471 -0.10183993039044659 0.0 0.0011091471789337918 0.0 0.0
0.09459124635682739 -0.08526020473370127 0.0 0.0007296530863024403 0.0 0.0
0.07803337648496401 -0.06977190019257101 0.0 0.000421598602651058 0.0 0.0
0.06291700944516222 -0.055718035763536275 0.0 0.00018323369677963408 0.0 0.0
0.049403317267147216 -0.043207921054017134 0.0 -2.8549404815815527e-05 0.0 0.0
0.03757182786642336 -0.03228421189245687 0.0 -0.00016611171074238425 0.0 0.0
0.02749288639209159 -0.02298639337007172 0.0 -0.0002737545767762346 0.0 0.0
0.01921678863199383 -0.01536840600670773 0.0 -0.0003538016269334029 0.0 0.0
0.01275508939672154 -0.009475672672785979 0.0 -0.00036856995675410803 0.0 0.0
0.008028161473883294 -0.005284190325616907 0.0 -0.00033613812809495965 0.0 0.0
0.004847844333054836 -0.0026218850527081577 0.0 -0.0002514328065326735 0.0 0.0
0.0029919584745704214 -0.0012590022607919665 0.0 -0.0001271250084920971 0.0 0.0
0.002132696490223578 -0.0008536701877182272 0.0 1.70090711519925e-05 0.0 0.0
0.0024463484880309426 -0.0006108069731988208 0.0 0.0007398717488537421 0.0 0.0
0.00807982152688333 -0.0021375968069744164 0.0 0.006821119472920443 0.0 0.0
0.013163509070939331 -0.022251427595134394 0.0 0.0010822268680348512 0.0 0.0
0.009088344433209309 -0.019899398994014064 0.0 -0.0006120171936948077 0.0 0.0
0.005340295521453159 -0.0015898153098442887 0.0 -0.005477070233818377 0.0 0.0
0.0016415230697902864 -0.00048052560310097225 0.0 -0.0004779321206530248 0.0 0.0
0.0018930447937991072 -0.0008050387940332824 0.0 -0.00020267849972253017 0.0 0.0
0.0025959844443125117 -0.001141900912235385 0.0 -0.00015745047043122263 0.0 0.0
0.004172310076100044 -0.0023496964507320334 0.0 -0.0002086600807945325 0.0 0.0
0.007000095663924691 -0.004824739384987872 0.0 -0.000447809616008193 0.0 0.0
0.011286454631785408 -0.008788228610243863 0.0 -0.0008099520172660119 0.0 0.0
0.01717941687907864 -0.01439464962051298 0.0 -0.0013095520258955583 0.0 0.0
0.024709521022028974 -0.021644094048060638 0.0 -0.0019227466223354305 0.0 0.0
0.03382891100985894 -0.030471962119462542 0.0 -0.002585166837459229 0.0 0.0
0.044479388370133044 -0.0408160870487396 0.0 -0.003256157121526927 0.0 0.0
0.056633206103972863 -0.05265206299799578 0.0 -0.0039676793893338785 0.0 0.0
0.07025248287969238 -0.06596407137036328 0.0 -0.004734175173667695 0.0 0.0
0.08520514965479489 -0.08065396780730968 0.0 -0.005540077978616464 0.0 0.0
0.10114687334416217 -0.09640614248120186 0.0 -0.0063259310643588584 0.0 0.0
0.11741244896602249 -0.11257343718725293 0.0 -0.006897344199499151 0.0 0.0
0.13299982465859955 -0.12815092754700727 0.0 -0.006938550185570925 0.0 0.0
0.1465830668866035 -0.14181953412709003 0.0 -0.006206536123291871 0.0 0.0
0.15633213549503838 -0.1518963773776499 0.0 -0.005074748626439694 0.0 0.0
0.1599767117956532 -0.15605452391495422 0.0 6.827004239706724e-15 0.0 0.0
0.15633213549501837 -0.15189637737762976 0.0 0.005074748626457703 0.0 0.0
0.14658306688656256 -0.1418195341270474 0.0 0.006206536123308904 0.0 0.0
0.13299982465854251 -0.12815092754694932 0.0 0.006938550185582068 0.0 0.0
0.11741244896595673 -0.11257343718718843 0.0 0.006897344199501813 0.0 0.0
0.10114687334409159 -0.09640614248113054 0.0 0.006325931064354869 0.0 0.0
0.08520514965472135 -0.08065396780723762 0.0 0.0055400779786147075 0.0 0.0
0.07025248287961838 -0.06596407137028731 0.0 0.004734175173664357 0.0 0.0
0.056633206103900956 -0.052652062997925575 0.0 0.0039676793893303215 0.0 0.0
0.04447938837006675 -0.04081608704868107 0.0 0.0032561571215231205 0.0 0.0
0.03382891100980156 -0.030471962119405033 0.0 0.002585166837453923 0.0 0.0
0.024709521021982078 -0.02164409404801601 0.0 0.0019227466223315983 0.0 0.0
0.017179416879042734 -0.014394649620478706 0.0 0.0013095520258930272 0.0 0.0
0.011286454631760359 -0.008788228610219216 0.0 0.0008099520172627092 0.0 0.0
0.007000095663908801 -0.004824739384972259 0.0 0.00044780961600841325 0.0 0.0
0.0041723100760914875 -0.0023496964507244244 0.0 0.00020866008079432595 0.0 0.0
0.0025959844443092525 -0.0011419009122344012 0.0 0.00015745047043184005 0.0 0.0
0.0018930447937982263 -0.000805038794031992 0.0 0.0002026784997228 0.0 0.0
0.0016415230697901196 -0.00048052560310099816 0.0 0.0004779321206516377 0.0 0.0
0.005340295521446583 -0.001589815309841175 0.0 0.005477070233806323 0.0 0.0
0.009088344433195906 -0.019899398993988817 0.0 0.0006120171936618039 0.0 0.0
0.006611789637484537 -0.015801219511054163 0.0 -0.003433518231012272 0.0 0.0
0.0037656937218812137 -0.0008738573502778348 0.0 -0.005427162480943704 0.0 0.0
0.0011507934818006927 -0.00027339523893659545 0.0 -0.00044723214015712407 0.0 0.0
0.0016121437419749514 -0.0006888260940325578 0.0 -0.00048012683247495116 0.0 0.0
0.0022369355736498713 -0.0009418545957702068 0.0 -0.00047686216670026773 0.0 0.0
0.0035308569014362527 -0.001840000599808014 0.0 -0.0005583437938544471 0.0 0.0
0.005981767195283449 -0.0039205832096679966 0.0 -0.0010103969560137755 0.0 0.0
0.009805997548303365 -0.007419717483074096 0.0 -0.001720796226857701 0.0 0.0
0.015101037513747306 -0.012436642355763946 0.0 -0.0026898141408926825 0.0 0.0
0.021863887146405043 -0.01893904947185018 0.0 -0.003855132893620142 0.0 0.0
0.030017630883464187 -0.026822873477659805 0.0 -0.005108753239874906 0.0 0.0
0.03949536929491331 -0.03601345349728745 0.0 -0.0063570111537245575 0.0 0.0
0.05028332103588121 -0.046503393264848286 0.0 -0.007606188017269736 0.0 0.0
0.06238709607000153 -0.058320135428473335 0.0 -0.008939428122371314 0.0 0.0
0.07571836985210806 -0.07140357178217402 0.0 -0.010354554606820788 0.0 0.0
0.08999148287114156 -0.08549457693922602 0.0 -0.011706117581750632 0.0 0.0
0.10465130756733215 -0.10005080936603743 0.0 -0.012665903927343552 0.0 0.0
0.11880967578318577 -0.11419633631162432 0.0 -0.012748013853002406 0.0 0.0
0.13116964086339486 -0.12668080904635173 0.0 -0.011570632710288731 0.0 0.0
0.1400700487782249 -0.13579279406477687 0.0 -0.00905575941716198 0.0 0.0
0.14343110614412324 -0.1397772731911463 0.0 1.1891095746952018e-14 0.0 0.0
0.14007004877820614 -0.1357927940647584 0.0 0.009055759417192468 0.0 0.0
0.1311696408633585 -0.12668080904631546 0.0 0.011570632710319013 0.0 0.0
0.11880967578313623 -0.11419633631157172 0.0 0.012748013853021732 0.0 0.0
0.10465130756727418 -0.10005080936598071 0.0 0.012665903927345689 0.0 0.0
0.08999148287107839 -0.08549457693916172 0.0 0.01170611758174394 0.0 0.0
0.07571836985204242 -0.0714035717821133 0.0 0.010354554606817595 0.0 0.0
0.06238709606993606 -0.05832013542840664 0.0 0.008939428122365848 0.0 0.0
0.050283321035817674 -0.046503393264787925 0.0 0.007606188017262915 0.0 0.0
0.03949536929485395 -0.03601345349722919 0.0 0.0063570111537141726 0.0 0.0
0.03001763088341284 -0.02682287347760734 0.0 0.005108753239864825 0.0 0.0
0.021863887146363326 -0.01893904947181306 0.0 0.003855132893611348 0.0 0.0
0.01510103751371479 -0.012436642355733614 0.0 0.002689814140887089 0.0 0.0
0.00980599754828066 -0.007419717483051695 0.0 0.0017207962268527789 0.0 0.0
0.0059817671952698956 -0.00392058320965819 0.0 0.0010103969560112725 0.0 0.0
0.0035308569014295024 -0.0018400005998032267 0.0 0.0005583437938532184 0.0 0.0
0.0022369355736471244 -0.0009418545957683509 0.0 0.0004768621667001474 0.0 0.0
0.001612143741974277 -0.0006888260940321395 0.0 0.00048012683247549196 0.0 0.0
0.0011507934818006894 -0.00027339523893697205 0.0 0.0004472321401550756 0.0 0.0
0.0037656937218749536 -0.0008738573502745081 0.0 0.005427162480930212 0.0 0.0
0.006611789637472087 -0.01580121951102927 0.0 0.0034335182309915228 0.0 0.0
0.0049606760823705616 -0.01268712665161446 0.0 -0.0038574856992536523 0.0 0.0
0.0027618756817723127 -0.0006330462494479225 0.0 -0.004948932332639732 0.0 0.0
0.0008226190887308592 -0.00015476167674240124 0.0 -0.0007355800148278091 0.0 0.0
0.0013351743407570627 -0.0005522805424417147 0.0 -0.0007536410836688281 0.0 0.0
0.0019062131217480079 -0.0007893202096964649 0.0 -0.0007956516398422819 0.0 0.0
0.0029414717413659077 -0.0014182147603842843 0.0 -0.000877804666751657 0.0 0.0
0.004992008633338517 -0.003065508376285465 0.0 -0.001387612851999021 0.0 0.0
0.00832599826082255 -0.006069827384050134 0.0 -0.0023844760082328263 0.0 0.0
0.013001505692937957 -0.010470880400630739 0.0 -0.0037108000466731907 0.0 0.0
0.01897973595878266 -0.016205368229946476 0.0 -0.005299205759215351 0.0 0.0
0.026160333298290442 -0.023138815370939134 0.0 -0.006998039870283428 0.0 0.0
0.034468007691046944 -0.031181358762747018 0.0 -0.00868528027835886 0.0 0.0
0.043896394926812785 -0.04033051824896173 0.0 -0.010362196541083581 0.0 0.0
0.054471089293303715 -0.05064007918901145 0.0 -0.012115018513798797 0.0 0.0
0.06615801881545784 -0.06209599702054526 0.0 -0.013963485207999907 0.0 0.0
0.07875229429892205 -0.07450976220534797 0.0 -0.015746217614469284 0.0 0.0
0.09180071596707104 -0.08744934373379235 0.0 -0.01705272176026798 0.0 0.0
0.10453201877610993 -0.1001683931636212 0.0 -0.017292433120729336 0.0 0.0
0.11577965765936486 -0.11151675772908043 0.0 -0.015848281839191132 0.0 0.0
0.12408190366918477 -0.11997056558276994 0.0 -0.011964370208247668 0.0 0.0
0.12730352893425623 -0.12406978888785933 0.0 1.7824717396530687e-14 0.0 0.0
0.12408190366916763 -0.11997056558275176 0.0 0.0119643702082886 0.0 0.0
0.1157796576593326 -0.11151675772905337 0.0 0.015848281839233293 0.0 0.0
0.10453201877606602 -0.10016839316357574 0.0 0.0172924331207551 0.0 0.0
0.09180071596701994 -0.08744934373374273 0.0 0.01705272176027176 0.0 0.0
0.07875229429886674 -0.07450976220528835 0.0 0.0157462176144622 0.0 0.0
0.06615801881540007 -0.06209599702049079 0.0 0.013963485207995015 0.0 0.0
0.054471089293246365 -0.05064007918895208 0.0 0.012115018513793286 0.0 0.0
0.043896394926757405 -0.04033051824890894 0.0 0.010362196541073595 0.0 0.0
0.03446800769099548 -0.031181358762695753 0.0 0.008685280278346212 0.0 0.0
0.02616033329824551 -0.023138815370896113 0.0 0.006998039870271748 0.0 0.0
0.018979735958745535 -0.01620536822991552 0.0 0.0052992057592022475 0.0 0.0
0.013001505692909346 -0.010470880400601578 0.0 0.0037108000466662986 0.0 0.0
0.008325998260802811 -0.006069827384031532 0.0 0.0023844760082267617 0.0 0.0
0.004992008633327334 -0.0030655083762759086 0.0 0.0013876128519951872 0.0 0.0
0.0029414717413609815 -0.0014182147603815226 0.0 0.0008778046667500216 0.0 0.0
0.0019062131217463213 -0.0007893202096949958 0.0 0.0007956516398410644 0.0 0.0
0.0013351743407565603 -0.000552280542442117 0.0 0.0007536410836688331 0.0 0.0
0.0008226190887307933 -0.00015476167674318604 0.0 0.0007355800148259311 0.0 0.0
0.002761875681766588 -0.0006330462494449894 0.0 0.004948932332627745 0.0 0.0
0.00496067608235894 -0.012687126651592244 0.0 0.003857485699237893 0.0 0.0
0.003737735913569659 -0.010190133944661457 0.0 -0.0034482816162352183 0.0 0.0
0.00205287688630122 -0.0005195281472620572 0.0 -0.004425963826631616 0.0 0.0
0.0005977310810968254 -9.517941370088547e-05 0.0 -0.001119689833507034 0.0 0.0
0.0010799655350425448 -0.0004198790460770352 0.0 -0.0010470752305169427 0.0 0.0
0.0015967590007889922 -0.0006583044388033738 0.0 -0.0011111876524619983 0.0 0.0
0.0024152528517554037 -0.0010924198584259914 0.0 -0.0011842602962105504 0.0 0.0
0.004055111223675111 -0.0023050577606291834 0.0 -0.0016548082948009382 0.0 0.0
0.006862770447754769 -0.004755826459294341 0.0 -0.002761314603202897 0.0 0.0
0.010901688357470513 -0.00852103064421375 0.0 -0.004364669406006446 0.0 0.0
0.0160791736499468 -0.01346928180218265 0.0 -0.00624740570332518 0.0 0.0
0.022281160937034264 -0.0194451810378156 0.0 -0.008254229854750267 0.0 0.0
0.029419027661983135 -0.0263416629142502 0.0 -0.010241280101961327 0.0 0.0
0.03748793125132862 -0.03415456386630354 0.0 -0.012212076388960585 0.0 0.0
0.04653782810927135 -0.042956219081171226 0.0 -0.014257593535660617 0.0 0.0
0.056569823736471125 -0.05277332457969128 0.0 -0.016389357269853473 0.0 0.0
0.06745418462158624 -0.06348739921616896 0.0 -0.01843548165116635 0.0 0.0
0.07886104205466656 -0.07477757143003391 0.0 -0.020010234001258023 0.0 0.0
0.0901637764082521 -0.08604569707403682 0.0 -0.02049011584515559 0.0 0.0
0.10038111962829777 -0.09633109247401027 0.0 -0.018946518323714603 0.0 0.0
0.10824496320574792 -0.1043227243883556 0.0 -0.014181180615208747 0.0 0.0
0.11141716830004948 -0.1086877346862924 0.0 2.030103515848758e-14 0.0 0.0
0.10824496320573207 -0.10432272438833938 0.0 0.014181180615253391 0.0 0.0
0.10038111962826898 -0.096331092473982 0.0 0.01894651832376033 0.0 0.0
0.09016377640821407 -0.08604569707399894 0.0 0.020490115845183444 0.0 0.0
0.07886104205462258 -0.07477757142999135 0.0 0.020010234001263838 0.0 0.0
0.06745418462153858 -0.06348739921611958 0.0 0.018435481651158554 0.0 0.0
0.0565698237364214 -0.05277332457964447 0.0 0.016389357269844362 0.0 0.0
0.046537828109221996 -0.04295621908112168 0.0 0.014257593535653434 0.0 0.0
0.03748793125128145 -0.03415456386625951 0.0 0.01221207638894973 0.0 0.0
0.0294190276619394 -0.026341662914206834 0.0 0.010241280101948184 0.0 0.0
0.02228116093699554 -0.019445181037781145 0.0 0.008254229854734358 0.0 0.0
0.01607917364991462 -0.01346928180215337 0.0 0.006247405703311159 0.0 0.0
0.010901688357445987 -0.00852103064418941 0.0 0.004364669405997335 0.0 0.0
0.0068627704477380435 -0.004755826459279145 0.0 0.00276131460319538 0.0 0.0
0.004055111223666039 -0.0023050577606172984 0.0 0.0016548082947972897 0.0 0.0
0.002415252851751766 -0.0010924198584249388 0.0 0.0011842602962083984 0.0 0.0
0.001596759000787849 -0.0006583044388039522 0.0 0.0011111876524607322 0.0 0.0
0.0010799655350424123 -0.00041987904607627545 0.0 0.0010470752305151599 0.0 0.0
0.0005977310810971344 -9.51794137020826e-05 0.0 0.0011196898335060113 0.0 0.0
0.002052876886296417 -0.0005195281472595633 0.0 0.004425963826619495 0.0 0.0
0.003737735913559676 -0.01019013394464225 0.0 0.0034482816162250234 0.0 0.0
0.002787963229981841 -0.008115416477701823 0.0 -0.0028733737634993105 0.0 0.0
0.0015207444586425541 -0.0004487152579819219 0.0 -0.003921295605559951 0.0 0.0
0.00043461106382204043 -7.181466825295465e-05 0.0 -0.001484023472887664 0.0 0.0
0.0008460056849213787 -0.00030009421604413456 0.0 -0.0013446624977458616 0.0 0.0
0.0013043016252072786 -0.0005371305045240169 0.0 -0.0014147850553836937 0.0 0.0
0.0019447168437332876 -0.0008414449763763746 0.0 -0.0014779942289341883 0.0 0.0
0.0032008451253646725 -0.0016742752838925623 0.0 -0.0018855529676095532 0.0 0.0
0.005450676422167309 -0.0035317485169387743 0.0 -0.002915395992632178 0.0 0.0
0.008814566082579968 -0.0066101801293106935 0.0 -0.004620156526380108 0.0 0.0
0.013184823663527237 -0.010757567622142743 0.0 -0.0066889543118448655 0.0 0.0
0.018401492046321008 -0.015767763585508895 0.0 -0.008866207021619691 0.0 0.0
0.024371694691098483 -0.021519955622244246 0.0 -0.0110210758248533 0.0 0.0
0.03108697062673727 -0.02800185043393339 0.0 -0.013146114379666686 0.0 0.0
0.038608152295959375 -0.03529805067199952 0.0 -0.015335286914686698 0.0 0.0
0.04698233005844314 -0.043472008599364675 0.0 -0.017611038399028323 0.0 0.0
0.0561421426473325 -0.05246878577547598 0.0 -0.019792024449676437 0.0 0.0
0.0658554276925628 -0.062062281279048254 0.0 -0.021519220133473713 0.0 0.0
0.07569029535004668 -0.07182882605338964 0.0 -0.02222364946220424 0.0 0.0
0.0849107697033706 -0.08107412319465251 0.0 -0.02084299910908633 0.0 0.0
0.09243800747049168 -0.08871917273977722 0.0 -0.015791837949303306 0.0 0.0
0.09562392777703754 -0.09347418920711302 0.0 2.0896478991616618e-14 0.0 0.0
0.0924380074704779 -0.08871917273976129 0.0 0.015791837949351045 0.0 0.0
0.08491076970334632 -0.08107412319462481 0.0 0.020842999109132964 0.0 0.0
0.0756902953500146 -0.0718288260533581 0.0 0.02222364946223387 0.0 0.0
0.06585542769252573 -0.062062281279014406 0.0 0.02151922013347989 0.0 0.0
0.05614214264729198 -0.05246878577543739 0.0 0.01979202444966883 0.0 0.0
0.04698233005840127 -0.04347200859933035 0.0 0.01761103839901845 0.0 0.0
0.03860815229591847 -0.0352980506719593 0.0 0.015335286914677202 0.0 0.0
0.031086970626698338 -0.028001850433898943 0.0 0.013146114379655509 0.0 0.0
0.0243716946910625 -0.021519955622205777 0.0 0.011021075824838937 0.0 0.0
0.018401492046288638 -0.01576776358548017 0.0 0.008866207021600268 0.0 0.0
0.013184823663500237 -0.010757567622115386 0.0 0.006688954311829417 0.0 0.0
0.008814566082559814 -0.006610180129292587 0.0 0.004620156526368108 0.0 0.0
0.005450676422154034 -0.0035317485169271187 0.0 0.0029153959926247557 0.0 0.0
0.0032008451253576578 -0.0016742752838840593 0.0 0.0018855529676060716 0.0 0.0
0.0019447168437307155 -0.0008414449763758386 0.0 0.0014779942289321888 0.0 0.0
0.0013043016252066348 -0.0005371305045245491 0.0 0.0014147850553815602 0.0 0.0
0.0008460056849212677 -0.00030009421604403026 0.0 0.0013446624977433328 0.0 0.0
0.0004346110638219323 -7.181466825354309e-05 0.0 0.001484023472886139 0.0 0.0
0.0015207444586385868 -0.0004487152579802847 0.0 0.003921295605550647 0.0 0.0
0.002787963229974265 -0.008115416477685737 0.0 0.0028733737634924965 0.0 0.0
0.002041226718297249 -0.006370404681888766 0.0 -0.0023424315761024724 0.0 0.0
0.0011095188581184588 -0.00039776597213639505 0.0 -0.003465447707066374 0.0 0.0
0.0003061341173576757 -6.33268165252181e-05 0.0 -0.0017852836206564385 0.0 0.0
0.0006283767083357362 -0.0001942773071943499 0.0 -0.0016229945593804946 0.0 0.0
0.0010220171594468974 -0.00041418992067065064 0.0 -0.0016889917818320695 0.0 0.0
0.0015168762388398115 -0.0006453720817849946 0.0 -0.0017711951651496758 0.0 0.0
0.002431348869122877 -0.0011711212835169816 0.0 -0.0020725559076477133 0.0 0.0
0.004132317302558684 -0.0024611712430076664 0.0 -0.0029575590910251434 0.0 0.0
0.006781893153512447 -0.004792998870943945 0.0 -0.004518826511743689 0.0 0.0
0.01031469034615458 -0.008100821340434768 0.0 -0.006590641081211279 0.0 0.0
0.01454475626931839 -0.012135603395785866 0.0 -0.008813866210571748 0.0 0.0
0.01934763429817015 -0.01674313975082805 0.0 -0.011007895244022478 0.0 0.0
0.02471575937098372 -0.021902583061794306 0.0 -0.01315227811639857 0.0 0.0
0.030717440308434187 -0.027700940152160927 0.0 -0.015339873103190425 0.0 0.0
0.037426485895814064 -0.03422805919752733 0.0 -0.017596844833307587 0.0 0.0
0.04483884493416588 -0.04149164858647918 0.0 -0.0197856909264389 0.0 0.0
0.052821253802536106 -0.04934649475185052 0.0 -0.021555484588656065 0.0 0.0
0.06111824290017416 -0.057534604325201966 0.0 -0.022433981279259507 0.0 0.0
0.06929373061632459 -0.06568223772819709 0.0 -0.021452983289208517 0.0 0.0
0.07652624274359951 -0.07301996302344267 0.0 -0.016771288483144478 0.0 0.0
0.07977238404996817 -0.07828292420619538 0.0 1.9676968388004923e-14 0.0 0.0
0.07652624274358724 -0.07301996302343185 0.0 0.016771288483191784 0.0 0.0
0.0692937306163042 -0.06568223772817211 0.0 0.021452983289255694 0.0 0.0
0.061118242900148126 -0.057534604325179706 0.0 0.022433981279288515 0.0 0.0
0.05282125380250555 -0.049346494751826044 0.0 0.021555484588658656 0.0 0.0
0.04483884493413251 -0.04149164858644382 0.0 0.019785690926429077 0.0 0.0
0.03742648589578015 -0.03422805919749371 0.0 0.01759684483329772 0.0 0.0
0.03071744030840233 -0.027700940152130368 0.0 0.01533987310318247 0.0 0.0
0.02471575937095344 -0.02190258306176524 0.0 0.01315227811638946 0.0 0.0
0.019347634298141285 -0.01674313975079809 0.0 0.011007895244008071 0.0 0.0
0.014544756269292237 -0.012135603395762586 0.0 0.008813866210551285 0.0 0.0
0.010314690346132898 -0.008100821340414448 0.0 0.006590641081195901 0.0 0.0
0.006781893153496846 -0.004792998870930627 0.0 0.00451882651173212 0.0 0.0
0.004132317302548836 -0.002461171242999856 0.0 0.002957559091018931 0.0 0.0
0.0024313488691178587 -0.0011711212835124483 0.0 0.0020725559076449633 0.0 0.0
0.001516876238837971 -0.0006453720817842283 0.0 0.0017711951651481943 0.0 0.0
0.0010220171594463759 -0.00041418992067116255 0.0 0.0016889917818288399 0.0 0.0
0.0006283767083357219 -0.00019427730719294707 0.0 0.0016229945593773387 0.0 0.0
0.0003061341173575503 -6.332681652515662e-05 0.0 0.0017852836206537566 0.0 0.0
0.00110951885811537 -0.0003977659721353106 0.0 0.003465447707059789 0.0 0.0
0.002041226718291421 -0.006370404681875849 0.0 0.002342431576097483 0.0 0.0
0.0014538084960582605 -0.004911673982258722 0.0 -0.0019349953600979125 0.0 0.0
0.0007858011160361592 -0.0003631890543760604 0.0 -0.0030541977851493785 0.0 0.0
0.0001943015296635035 -5.3687641281086396e-05 0.0 -0.0020156783693055964 0.0 0.0
0.00042190768117252204 -0.00010073139685495601 0.0 -0.0018641272697850248 0.0 0.0
0.0007416255525910338 -0.0002850105102068449 0.0 -0.0019209912978113805 0.0 0.0
0.0011222856239956314 -0.0004780425670480125 0.0 -0.0020498721471570807 0.0 0.0
0.0017447767167984014 -0.0007866383331598462 0.0 -0.002252421758658326 0.0 0.0
0.0029247219330797 -0.0015742725219734623 0.0 -0.0029046708621126263 0.0 0.0
0.0048547336628798335 -0.0031512437082707283 0.0 -0.004172945307478959 0.0 0.0
0.007509577111681853 -0.0055615192273374735 0.0 -0.005984211762285949 0.0 0.0
0.010729087315322112 -0.00858788811243796 0.0 -0.008070122528466965 0.0 0.0
0.014368722038849542 -0.012046863353967832 0.0 -0.010161664356129939 0.0 0.0
0.01840088467760717 -0.015892555111543995 0.0 -0.01220020541955286 0.0 0.0
0.02289043384296819 -0.02020524617565135 0.0 -0.014245498263570088 0.0 0.0
0.027934666031633453 -0.025087079290607234 0.0 -0.016341050575734803 0.0 0.0
0.03358438181315952 -0.030598286544262963 0.0 -0.018385854620990884 0.0 0.0
0.03978807345559224 -0.03668177091519943 0.0 -0.02008873907634982 0.0 0.0
0.04645391247998895 -0.04320249696687459 0.0 -0.021035008928022896 0.0 0.0
0.05346708514497185 -0.050104030812489306 0.0 -0.02060725199988623 0.0 0.0
0.06036508084527192 -0.05707113577663521 0.0 -0.017007605861630932 0.0 0.0
0.06368937230222804 -0.06295760077141273 0.0 1.684763439868675e-14 0.0 0.0
0.06036508084526279 -0.057071135776631865 0.0 0.0170076058616733 0.0 0.0
0.05346708514495583 -0.05010403081246752 0.0 0.02060725199993221 0.0 0.0
0.046453912479968114 -0.04320249696685652 0.0 0.021035008928048736 0.0 0.0
0.03978807345556823 -0.03668177091518165 0.0 0.020088739076351798 0.0 0.0
0.03358438181313369 -0.03059828654423366 0.0 0.01838585462098056 0.0 0.0
0.02793466603160801 -0.02508707929058247 0.0 0.01634105057572704 0.0 0.0
0.022890433842945236 -0.020205246175629615 0.0 0.014245498263564138 0.0 0.0
0.01840088467758537 -0.01589255511152302 0.0 0.012200205419543305 0.0 0.0
0.014368722038828163 -0.012046863353950192 0.0 0.010161664356116134 0.0 0.0
0.010729087315302687 -0.008587888112419466 0.0 0.008070122528448982 0.0 0.0
0.0075095771116661745 -0.005561519227324578 0.0 0.005984211762271438 0.0 0.0
0.004854733662868643 -0.0031512437082605147 0.0 0.004172945307470088 0.0 0.0
0.0029247219330728056 -0.0015742725219676707 0.0 0.0029046708621078944 0.0 0.0
0.0017447767167953732 -0.0007866383331577366 0.0 0.0022524217586564342 0.0 0.0
0.0011222856239944468 -0.0004780425670483971 0.0 0.0020498721471562923 0.0 0.0
0.0007416255525905618 -0.00028501051020724444 0.0 0.0019209912978092767 0.0 0.0
0.00042190768117222194 -0.00010073139685425322 0.0 0.0018641272697833512 0.0 0.0
0.0001943015296631533 -5.3687641280810954e-05 0.0 0.002015678369303156 0.0 0.0
0.0007858011160342504 -0.0003631890543752711 0.0 0.0030541977851438864 0.0 0.0
0.0014538084960544957 -0.004911673982248752 0.0 0.0019349953600947638 0.0 0.0
0.0010138521757972392 -0.003736877380329729 0.0 -0.0016857754280651931 0.0 0.0
0.0005325143021410317 -0.00034609354218070166 0.0 -0.0026962961718388916 0.0 0.0
8.401781610044858e-05 -3.223531877648203e-05 0.0 -0.002179901326577872 0.0 0.0
0.00022406151009739746 -1.6531185770014936e-05 0.0 -0.0020565015130354736 0.0 0.0
0.0004595512977275456 -0.00015344295114782207 0.0 -0.002104508852871443 0.0 0.0
0.000738628012933346 -0.0003100464325575021 0.0 -0.002273409457736704 0.0 0.0
0.001132296415792472 -0.0004972762050957393 0.0 -0.0024706180679265975 0.0 0.0
0.001844374843362606 -0.0008948594489684538 0.0 -0.002837676005083673 0.0 0.0
0.003068147737902759 -0.0017678013669217205 0.0 -0.0036721302138363245 0.0 0.0
0.00482509213048552 -0.0032485185343463932 0.0 -0.004989586784864198 0.0 0.0
0.006998542277716064 -0.005212274760046468 0.0 -0.0066699921236913215 0.0 0.0
0.009458414675531324 -0.007498659118357082 0.0 -0.00845813463317849 0.0 0.0
0.012161087815595023 -0.010029205542657531 0.0 -0.010260997953565852 0.0 0.0
0.015155128975453565 -0.012870608337471902 0.0 -0.012056043946588366 0.0 0.0
0.018536803313211343 -0.016112208104157165 0.0 -0.01385683026727243 0.0 0.0
0.02240439401172887 -0.01985143496554568 0.0 -0.01564307094466634 0.0 0.0
0.026803164940656245 -0.024129955408972243 0.0 -0.017214520408470754 0.0 0.0
0.03173917609008512 -0.02892212184822851 0.0 -0.018161392326684025 0.0 0.0
0.037371798461577385 -0.034353243250274605 0.0 -0.01811021711492716 0.0 0.0
0.0437807505855092 -0.04070256693036397 0.0 -0.0161845157259621 0.0 0.0
0.047160397946298185 -0.0472979088737104 0.0 1.4613310561628623e-14 0.0 0.0
0.04378075058550325 -0.04070256693036164 0.0 0.016184515725999236 0.0 0.0
0.037371798461566554 -0.03435324325026022 0.0 0.018110217114968727 0.0 0.0
0.031739176090069904 -0.02892212184821235 0.0 0.0181613923267057 0.0 0.0
0.02680316494063946 -0.024129955408960176 0.0 0.01721452040846933 0.0 0.0
0.02240439401171197 -0.01985143496552984 0.0 0.015643070944654426 0.0 0.0
0.018536803313194877 -0.01611220810414839 0.0 0.013856830267265481 0.0 0.0
0.015155128975438529 -0.012870608337461158 0.0 0.012056043946584508 0.0 0.0
0.012161087815581208 -0.010029205542643863 0.0 0.010260997953558561 0.0 0.0
0.00945841467551754 -0.007498659118346183 0.0 0.008458134633166909 0.0 0.0
0.006998542277703337 -0.005212274760034574 0.0 0.006669992123677738 0.0 0.0
0.004825092130475756 -0.003248518534338167 0.0 0.004989586784853469 0.0 0.0
0.003068147737895845 -0.001767801366916107 0.0 0.0036721302138321013 0.0 0.0
0.0018443748433585178 -0.0008948594489674387 0.0 0.0028376760050810427 0.0 0.0
0.0011322964157907786 -0.0004972762050947588 0.0 0.0024706180679240335 0.0 0.0
0.0007386280129325521 -0.0003100464325583307 0.0 0.0022734094577343093 0.0 0.0
0.00045955129772724823 -0.00015344295114754305 0.0 0.0021045088528700443 0.0 0.0
0.0002240615100974318 -1.653118577048081e-05 0.0 0.0020565015130332063 0.0 0.0
8.401781610004085e-05 -3.223531877541434e-05 0.0 0.002179901326575653 0.0 0.0
0.0005325143021394184 -0.00034609354218078465 0.0 0.0026962961718350145 0.0 0.0
0.0010138521757948546 -0.003736877380322541 0.0 0.001685775428062988 0.0 0.0
0.0007057743950784261 -0.002827428367296091 0.0 -0.001545654160006852 0.0 0.0
0.0003401963223303553 -0.0003484921891619021 0.0 -0.002429032108049605 0.0 0.0
-2.8590801096652297e-05 3.867907377944489e-06 0.0 -0.002282385515140089 0.0 0.0
3.257038787625638e-05 6.11241481208854e-05 0.0 -0.0021942344959492545 0.0 0.0
0.000178666704868402 -2.3487417375676366e-05 0.0 -0.0022354988244523326 0.0 0.0
0.0003491505559939597 -0.00013233906940263173 0.0 -0.0024161178678964563 0.0 0.0
0.0005606687498740952 -0.0002432794643831747 0.0 -0.0026616830968417666 0.0 0.0
0.0008906456054409981 -0.00040344854920891857 0.0 -0.002898408789264905 0.0 0.0
0.0014571964850972436 -0.0007400646709673393 0.0 -0.003266733186224691 0.0 0.0
0.0023147560959088744 -0.001362675381551736 0.0 -0.003941026541471497 0.0 0.0
0.003410610575131024 -0.002249395386664814 0.0 -0.004977929051584525 0.0 0.0
0.004657165824029641 -0.0033165200099934313 0.0 -0.006270909923735767 0.0 0.0
0.006016431938663923 -0.004510337115849499 0.0 -0.007688570904810604 0.0 0.0
0.007524565087460498 -0.005876136810774402 0.0 -0.009179716932252056 0.0 0.0
0.009251710176462024 -0.007474889049930869 0.0 -0.01074003798576911 0.0 0.0
0.011315056510899073 -0.009412365667865812 0.0 -0.012365379360233995 0.0 0.0
0.013867434478365701 -0.011833669202624533 0.0 -0.01392350056250825 0.0 0.0
0.017047006882652538 -0.014875622923258447 0.0 -0.014992240134047709 0.0 0.0
0.02106640341657723 -0.01869608970537174 0.0 -0.015010923949896816 0.0 0.0
0.026589672750869556 -0.0238747025579382 0.0 -0.014109286265964938 0.0 0.0
0.02985473420395804 -0.031058418199787434 0.0 1.041527974976475e-14 0.0 0.0
0.026589672750866936 -0.023874702557933825 0.0 0.01410928626599714 0.0 0.0
0.021066403416571417 -0.018696089705362396 0.0 0.015010923949927833 0.0 0.0
0.017047006882643188 -0.014875622923247445 0.0 0.014992240134058449 0.0 0.0
0.013867434478356805 -0.011833669202616559 0.0 0.013923500562503046 0.0 0.0
0.01131505651089133 -0.009412365667859048 0.0 0.012365379360223572 0.0 0.0
0.009251710176455083 -0.007474889049929403 0.0 0.01074003798576079 0.0 0.0
0.007524565087454866 -0.005876136810769435 0.0 0.00917971693224835 0.0 0.0
0.006016431938658017 -0.004510337115841461 0.0 0.007688570904805183 0.0 0.0
0.0046571658240232025 -0.003316520009987133 0.0 0.006270909923724926 0.0 0.0
0.0034106105751253823 -0.002249395386662578 0.0 0.004977929051574088 0.0 0.0
0.00231475609590485 -0.001362675381547612 0.0 0.003941026541465679 0.0 0.0
0.001457196485094547 -0.0007400646709683008 0.0 0.003266733186222487 0.0 0.0
0.0008906456054393723 -0.00040344854921090103 0.0 0.002898408789263531 0.0 0.0
0.000560668749873496 -0.000243279464381222 0.0 0.0026616830968385413 0.0 0.0
0.0003491505559937454 -0.0001323390694030272 0.0 0.0024161178678938485 0.0 0.0
0.00017866670486830228 -2.3487417375939054e-05 0.0 0.00223549882445062 0.0 0.0
3.257038787614498e-05 6.112414812129971e-05 0.0 0.002194234495946947 0.0 0.0
-2.859080109681376e-05 3.8679073788828355e-06 0.0 0.002282385515137905 0.0 0.0
0.0003401963223295798 -0.0003484921891622443 0.0 0.0024290321080470477 0.0 0.0
0.0007057743950769576 -0.002827428367291315 0.0 0.0015456541600049442 0.0 0.0
0.0004890055736443754 -0.0021513345955994326 0.0 -0.0014695823180427077 0.0 0.0
0.00019474799217506392 -0.0003535217489714402 0.0 -0.0022459204562613475 0.0 0.0
-0.00013780110510237424 4.644305576428104e-05 0.0 -0.0023304078436776486 0.0 0.0
-0.00015326143314281412 0.00013519662929511382 0.0 -0.002275246675301768 0.0 0.0
-9.803508628714741e-05 0.00010303176918580119 0.0 -0.002308412300774805 0.0 0.0
-4.510255525720705e-05 4.8630648689871784e-05 0.0 -0.0024774415177471814 0.0 0.0
-1.5710844899012323e-05 1.3028049212357315e-05 0.0 -0.0027399568861082558 0.0 0.0
-4.146371663690435e-06 2.714844833554068e-06 0.0 -0.0029821064548458823 0.0 0.0
-4.951262591303899e-07 1.352947340422237e-08 0.0 -0.003135953353246899 0.0 0.0
5.193473882928682e-07 -2.3226231854311518e-07 0.0 -0.003457074772768417 0.0 0.0
-8.241479058446535e-10 -6.865597452941012e-07 0.0 -0.004114086511558592 0.0 0.0
-5.8316479485807276e-06 5.134618822608914e-06 0.0 -0.005125522066537162 0.0 0.0
-2.069752888243239e-05 1.8449915943769045e-05 0.0 -0.006321056454961248 0.0 0.0
-3.428300066133424e-05 3.4819397743115685e-05 0.0 -0.00766245553648256 0.0 0.0
6.715759425471096e-06 1.085056523604511e-05 0.0 -0.009158711315940756 0.0 0.0
0.00024161583617357454 -0.00017285732368407835 0.0 -0.01080046595243939 0.0 0.0
0.0009284957456113318 -0.0007437626920398027 0.0 -0.012525151119482032 0.0 0.0
0.002387241551499267 -0.002015429891731467 0.0 -0.014142677078394488 0.0 0.0
0.004833840118636201 -0.004128925343537149 0.0 -0.015335622281622404 0.0 0.0
0.008899898597285868 -0.007410692227195886 0.0 -0.015889940815584418 0.0 0.0
0.011481168841862654 -0.01502081208469155 0.0 9.115971866258121e-15 0.0 0.0
0.00889989859728573 -0.007410692227193903 0.0 0.01588994081560455 0.0 0.0
0.004833840118634652 -0.0041289253435346455 0.0 0.015335622281636225 0.0 0.0
0.002387241551497567 -0.0020154298917280165 0.0 0.01414267707839726 0.0 0.0
0.0009284957456119731 -0.0007437626920350736 0.0 0.012525151119474328 0.0 0.0
0.00024161583617522664 -0.0001728573236819113 0.0 0.010800465952430593 0.0 0.0
6.715759427141309e-06 1.0850565227389815e-05 0.0 0.009158711315934175 0.0 0.0
-3.428300065835886e-05 3.481939774476302e-05 0.0 0.007662455536478183 0.0 0.0
-2.069752887949984e-05 1.8449915936733223e-05 0.0 0.006321056454952569 0.0 0.0
-5.831647946319841e-06 5.134618824033908e-06 0.0 0.005125522066526625 0.0 0.0
-8.241457610759159e-10 -6.865597519345684e-07 0.0 0.004114086511549438 0.0 0.0
5.193473897246656e-07 -2.322623194254389e-07 0.0 0.0034570747727651003 0.0 0.0
-4.951262583430152e-07 1.3529470230186629e-08 0.0 0.0031359533532460122 0.0 0.0
-4.146371663298198e-06 2.7148448337680693e-06 0.0 0.0029821064548452556 0.0 0.0
-1.571084489866542e-05 1.3028049213248414e-05 0.0 0.00273995688610618 0.0 0.0
-4.510255525709533e-05 4.8630648688222414e-05 0.0 0.002477441517744089 0.0 0.0
-9.80350862869277e-05 0.0001030317691861303 0.0 0.0023084123007728703 0.0 0.0
-0.0001532614331425135 0.00013519662929541984 0.0 0.0022752466753008273 0.0 0.0
-0.00013780110510238437 4.6443055764389365e-05 0.0 0.0023304078436764326 0.0 0.0
0.00019474799217466155 -0.0003535217489714607 0.0 0.0022459204562590277 0.0 0.0
0.0004890055736434697 -0.0021513345955963587 0.0 0.0014695823180423603 0.0 0.0
0.00034065360707511013 -0.0016536368712484323 0.0 -0.0014064108030010414 0.0 0.0
8.718262303033706e-05 -0.00034165912617137664 0.0 -0.0020964043370840404 0.0 0.0
-0.0002400976263535738 8.702401346314504e-05 0.0 -0.00232940239549957 0.0 0.0
-0.0003324236659455304 0.0002068981562033267 0.0 -0.0022985405214538046 0.0 0.0
-0.0003685865721492067 0.0002242658871500269 0.0 -0.0023166879021713446 0.0 0.0
-0.00043549046318423486 0.0002279909324086888 0.0 -0.002458760361981264 0.0 0.0
-0.00059122674201457 0.0002692123099866827 0.0 -0.0026813548900096818 0.0 0.0
-0.0008990444679716732 0.0004090935816349761 0.0 -0.002907989936674534 0.0 0.0
-0.001457820982901308 0.0007399302062375349 0.0 -0.003270680572386291 0.0 0.0
-0.002312969119721852 0.0013613075695869926 0.0 -0.0039398065425300674 0.0 0.0
-0.0034108653380807846 0.0022490634529301686 0.0 -0.004974231297136828 0.0 0.0
-0.004670520658401125 0.003327958641271521 0.0 -0.006270716078815013 0.0 0.0
-0.006058801201607225 0.004549196765266139 0.0 -0.00768444772849612 0.0 0.0
-0.007590721051346103 0.0059469571006296445 0.0 -0.009168300056411208 0.0 0.0
-0.00923185226951601 0.007495425611813791 0.0 -0.010746762887266025 0.0 0.0
-0.010836016932053244 0.009060225720416598 0.0 -0.012501061952593442 0.0 0.0
-0.01210269941296677 0.010349806079952041 0.0 -0.0144908322284341 0.0 0.0
-0.012617603429899479 0.010930176460795514 0.0 -0.016795731942608205 0.0 0.0
-0.01192156914681573 0.010461130000343854 0.0 -0.01934216068547393 0.0 0.0
-0.008441826529028001 0.007975132049131552 0.0 -0.02046457564428018 0.0 0.0
-0.005672482411307151 -0.00036510371369348883 0.0 1.0195837230053684e-14 0.0 0.0
-0.0084418265290283 0.007975132049132609 0.0 0.020464575644301687 0.0 0.0
-0.011921569146812232 0.01046113000033945 0.0 0.01934216068548781 0.0 0.0
-0.012617603429891332 0.010930176460787096 0.0 0.016795731942610026 0.0 0.0
-0.0121026994129554 0.01034980607994417 0.0 0.014490832228426408 0.0 0.0
-0.010836016932041783 0.009060225720405367 0.0 0.012501061952581972 0.0 0.0
-0.009231852269505821 0.007495425611803819 0.0 0.0107467628872566 0.0 0.0
-0.007590721051335004 0.0059469571006192145 0.0 0.009168300056404904 0.0 0.0
-0.006058801201595422 0.004549196765248016 0.0 0.00768444772848653 0.0 0.0
-0.004670520658390044 0.003327958641269015 0.0 0.006270716078802696 0.0 0.0
-0.0034108653380710936 0.0022490634529190863 0.0 0.004974231297122999 0.0 0.0
-0.0023129691197146685 0.0013613075695794318 0.0 0.003939806542522577 0.0 0.0
-0.0014578209828971609 0.0007399302062342666 0.0 0.0032706805723850493 0.0 0.0
-0.0008990444679692654 0.00040909358163357347 0.0 0.002907989936671856 0.0 0.0
-0.000591226742013312 0.0002692123099862306 0.0 0.0026813548900080455 0.0 0.0
-0.0004354904631837644 0.00022799093240670384 0.0 0.002458760361978789 0.0 0.0
-0.00036858657214884795 0.00022426588714940133 0.0 0.0023166879021701585 0.0 0.0
-0.00033242366594534903 0.00020689815620319812 0.0 0.002298540521453084 0.0 0.0
-0.00024009762635340663 8.70240134636203e-05 0.0 0.0023294023954985622 0.0 0.0
8.71826230303943e-05 -0.0003416591261716014 0.0 0.002096404337082477 0.0 0.0
0.0003406536070748874 -0.0016536368712461791 0.0 0.0014064108030010113 0.0 0.0
0.0002355821837086172 -0.0012557370295667968 0.0 -0.001296716966447913 0.0 0.0
4.598330054738971e-06 -0.0003118530539682547 0.0 -0.001946605363960443 0.0 0.0
-0.0003350291668018434 0.00012447915675461207 0.0 -0.0022774057523489762 0.0 0.0
-0.0005031721532933154 0.00027513900551933383 0.0 -0.0022628728025665596 0.0 0.0
-0.0006310435603593571 0.00033907302705610417 0.0 -0.002258308619034804 0.0 0.0
-0.0008159944383569107 0.00039990194816876603 0.0 -0.0023549191043238027 0.0 0.0
-0.0011602645939360787 0.0005245215156594443 0.0 -0.002512498102043851 0.0 0.0
-0.0018514220284822466 0.0009004408491065741 0.0 -0.0028571283406327746 0.0 0.0
-0.0030672073557406238 0.0017660827813645113 0.0 -0.003674896350472694 0.0 0.0
-0.004822661774824606 0.0032460883601853514 0.0 -0.004985591534643792 0.0 0.0
-0.007000040249823893 0.0052139999250854635 0.0 -0.006667845712867522 0.0 0.0
-0.009471491484573121 0.007511014141067916 0.0 -0.0084554757405629 0.0 0.0
-0.012198006126479845 0.010065195666914068 0.0 -0.010233872827177333 0.0 0.0
-0.015211571902457421 0.01293304014611094 0.0 -0.011984257655011982 0.0 0.0
-0.018513458292250443 0.016126265397623556 0.0 -0.013803193712848355 0.0 0.0
-0.02195913304007508 0.01951929030541973 0.0 -0.015900892960022703 0.0 0.0
-0.025198716416344785 0.0227642528397435 0.0 -0.018507059552305187 0.0 0.0
-0.027683626144035967 0.025306596291045508 0.0 -0.021734675545862493 0.0 0.0
-0.028372897361140292 0.02623918781483556 0.0 -0.024946187719449453 0.0 0.0
-0.025235348103009942 0.02354710029362405 0.0 -0.025654838811864325 0.0 0.0
-0.022381901416062014 0.0133226369850405 0.0 1.4417286808843244e-14 0.0 0.0
-0.02523534810300804 0.023547100293627474 0.0 0.025654838811898374 0.0 0.0
-0.028372897361132236 0.0262391878148265 0.0 0.02494618771948078 0.0 0.0
-0.0276836261440203 0.025306596291027144 0.0 0.0217346755458748 0.0 0.0
-0.025198716416324214 0.02276425283972353 0.0 0.01850705955229911 0.0 0.0
-0.021959133040054576 0.019519290305401175 0.0 0.01590089296001013 0.0 0.0
-0.018513458292231368 0.016126265397611802 0.0 0.01380319371283682 0.0 0.0
-0.015211571902437493 0.01293304014609121 0.0 0.011984257655001074 0.0 0.0
-0.012198006126459765 0.01006519566689857 0.0 0.010233872827165624 0.0 0.0
-0.009471491484554015 0.007511014141053304 0.0 0.008455475740546614 0.0 0.0
-0.007000040249807072 0.005213999925068207 0.0 0.006667845712850021 0.0 0.0
-0.0048226617748116304 0.003246088360172591 0.0 0.004985591534631118 0.0 0.0
-0.003067207355732341 0.0017660827813581938 0.0 0.003674896350467966 0.0 0.0
-0.0018514220284775846 0.0009004408491052854 0.0 0.0028571283406293923 0.0 0.0
-0.0011602645939335211 0.0005245215156595584 0.0 0.0025124981020410806 0.0 0.0
-0.0008159944383558073 0.0003999019481669733 0.0 0.0023549191043216525 0.0 0.0
-0.0006310435603586965 0.0003390730270545445 0.0 0.002258308619032948 0.0 0.0
-0.0005031721532928302 0.00027513900551844023 0.0 0.002262872802565492 0.0 0.0
-0.00033502916680150445 0.00012447915675479628 0.0 0.002277405752347431 0.0 0.0
4.598330054675006e-06 -0.00031185305396879147 0.0 0.0019466053639584507 0.0 0.0
0.00023558218370825322 -0.0012557370295649465 0.0 0.0012967169664456159 0.0 0.0
0.00014916951510524404 -0.0009191748359777114 0.0 -0.0011453970481830307 0.0 0.0
-6.608450334991172e-05 -0.0002671206019832943 0.0 -0.0017793158980726987 0.0 0.0
-0.00042312606831294744 0.0001601087716241893 0.0 -0.0021729121877204667 0.0 0.0
-0.0006651757905286405 0.0003389059087320756 0.0 -0.0021704104765117144 0.0 0.0
-0.0008825342483167928 0.00044597765386078384 0.0 -0.0021389279045430634 0.0 0.0
-0.0011857933238459467 0.0005603380006270954 0.0 -0.002163572639101495 0.0 0.0
-0.0017691190257944655 0.0008162281661351158 0.0 -0.0023156372431862382 0.0 0.0
-0.0029285294453771315 0.0015766855133005674 0.0 -0.0029245160972973237 0.0 0.0
-0.004851113129324475 0.0031468739581095285 0.0 -0.004170386029341232 0.0 0.0
-0.0075078007041068685 0.005559713116900986 0.0 -0.005979248947423977 0.0 0.0
-0.0107321379834328 0.008591760683681551 0.0 -0.008069718924149243 0.0 0.0
-0.014378743145287736 0.012057606243265873 0.0 -0.010155461840325309 0.0 0.0
-0.018422377423892057 0.015914262551124148 0.0 -0.012149964620044803 0.0 0.0
-0.022919815581352247 0.020237841100303033 0.0 -0.014100696941260675 0.0 0.0
-0.027904330414107267 0.02508284564444669 0.0 -0.01617208448547698 0.0 0.0
-0.03324373951652163 0.03034575856477458 0.0 -0.01868071901144415 0.0 0.0
-0.038524285135036244 0.03562911461894748 0.0 -0.022062432731102446 0.0 0.0
-0.042887815796700084 0.0401276441099664 0.0 -0.026362638379783598 0.0 0.0
-0.044769169240260226 0.04230837213902244 0.0 -0.030387488769515164 0.0 0.0
-0.041255374725196435 0.039515591656229185 0.0 -0.031677024730222145 0.0 0.0
-0.03767052924268331 0.026537688815761126 0.0 1.7998623424997362e-14 0.0 0.0
-0.04125537472519198 0.03951559165622544 0.0 0.03167702473026101 0.0 0.0
-0.04476916924024771 0.04230837213901498 0.0 0.03038748876955178 0.0 0.0
-0.042887815796678594 0.040127644109945994 0.0 0.026362638379803044 0.0 0.0
-0.03852428513500832 0.03562911461892341 0.0 0.0220624327311005 0.0 0.0
-0.03324373951649241 0.03034575856475056 0.0 0.018680719011432156 0.0 0.0
-0.027904330414079623 0.025082845644419982 0.0 0.016172084485463898 0.0 0.0
-0.02291981558132435 0.02023784110027869 0.0 0.014100696941249272 0.0 0.0
-0.01842237742386415 0.015914262551100306 0.0 0.012149964620031407 0.0 0.0
-0.014378743145260824 0.01205760624324278 0.0 0.010155461840306402 0.0 0.0
-0.010732137983408389 0.008591760683659057 0.0 0.008069718924130331 0.0 0.0
-0.007507800704087596 0.005559713116886819 0.0 0.005979248947409782 0.0 0.0
-0.004851113129311676 0.0031468739580998075 0.0 0.004170386029332945 0.0 0.0
-0.002928529445369781 0.0015766855132982012 0.0 0.002924516097294041 0.0 0.0
-0.0017691190257903043 0.0008162281661337131 0.0 0.0023156372431828247 0.0 0.0
-0.0011857933238439858 0.000560338000626348 0.0 0.0021635726390994534 0.0 0.0
-0.0008825342483159443 0.0004459776538600663 0.0 0.0021389279045409123 0.0 0.0
-0.000665175790528243 0.0003389059087326199 0.0 0.0021704104765101332 0.0 0.0
-0.0004231260683127329 0.00016010877162359277 0.0 0.002172912187718884 0.0 0.0
-6.608450334966989e-05 -0.00026712060198334954 0.0 0.0017793158980703582 0.0 0.0
0.0001491695151054918 -0.0009191748359764295 0.0 0.0011453970481807973 0.0 0.0
7.364010647854411e-05 -0.000636508440352849 0.0 -0.000979341296194068 0.0 0.0
-0.0001303837255936138 -0.00021038497472398467 0.0 -0.001586119606113008 0.0 0.0
-0.0005066454322667737 0.00019538756645177854 0.0 -0.0020162682903177584 0.0 0.0
-0.0008188761061786277 0.00039803220701214103 0.0 -0.0020226382919070816 0.0 0.0
-0.0011204660285914323 0.0005416061334545085 0.0 -0.001953488478346898 0.0 0.0
-0.001563382906551011 0.0007187508862312729 0.0 -0.0019079828844157745 0.0 0.0
-0.002448753862417552 0.0011978530104568667 0.0 -0.002138991468920641 0.0 0.0
-0.004130372749379696 0.0024577028517626565 0.0 -0.002969039201918564 0.0 0.0
-0.00677754588866627 0.004787535507156981 0.0 -0.004512075354141743 0.0 0.0
-0.010314743331414931 0.00810101897393367 0.0 -0.0065862931964452195 0.0 0.0
-0.014549110427035276 0.012141349957174977 0.0 -0.008814192203858469 0.0 0.0
-0.019351977401341418 0.016750223267029653 0.0 -0.010997952089355566 0.0 0.0
-0.024712844629217343 0.02190245432794683 0.0 -0.01308514504216765 0.0 0.0
-0.030701575990560025 0.027685295071569346 0.0 -0.01514159437055751 0.0 0.0
-0.037381504744389685 0.03418971425664609 0.0 -0.0173251470663597 0.0 0.0
-0.04464651763158314 0.04135230114837249 0.0 -0.02003718464330976 0.0 0.0
-0.05197505014369253 0.048703358147476936 0.0 -0.02380515113421857 0.0 0.0
-0.058151250610974065 0.05508823632116115 0.0 -0.02868168256163698 0.0 0.0
-0.06096655264030301 0.058361218683705335 0.0 -0.0334995321760961 0.0 0.0
-0.05671923128213267 0.05499384906202465 0.0 -0.03555293592399703 0.0 0.0
-0.05225331598473522 0.03933338975298105 0.0 1.9617120428083723e-14 0.0 0.0
-0.05671923128212504 0.05499384906201632 0.0 0.03555293592403971 0.0 0.0
-0.06096655264028564 0.05836121868369515 0.0 0.03349953217613686 0.0 0.0
-0.05815125061094634 0.0550882363211322 0.0 0.0286816825616604 0.0 0.0
-0.051975050143657955 0.04870335814744221 0.0 0.02380515113421949 0.0 0.0
-0.04464651763154621 0.04135230114833556 0.0 0.020037184643298473 0.0 0.0
-0.037381504744353436 0.034189714256607585 0.0 0.01732514706634743 0.0 0.0
-0.030701575990523693 0.02768529507153651 0.0 0.015141594370545148 0.0 0.0
-0.024712844629180743 0.0219024543279076 0.0 0.013085145042153887 0.0 0.0
-0.0193519774013067 0.016750223266999157 0.0 0.010997952089337439 0.0 0.0
-0.01454911042700454 0.012141349957145825 0.0 0.008814192203835645 0.0 0.0
-0.010314743331390083 0.00810101897391392 0.0 0.006586293196427913 0.0 0.0
-0.006777545888648533 0.004787535507142326 0.0 0.004512075354129645 0.0 0.0
-0.004130372749368522 0.0024577028517531892 0.0 0.0029690392019116186 0.0 0.0
-0.002448753862411699 0.0011978530104519705 0.0 0.0021389914689173384 0.0 0.0
-0.0015633829065487082 0.0007187508862315792 0.0 0.0019079828844131182 0.0 0.0
-0.0011204660285903398 0.0005416061334539018 0.0 0.001953488478346214 0.0 0.0
-0.0008188761061781154 0.00039803220701189204 0.0 0.0020226382919053946 0.0 0.0
-0.0005066454322666862 0.00019538756645107104 0.0 0.0020162682903164695 0.0 0.0
-0.00013038372559351678 -0.0002103849747235118 0.0 0.0015861196061116188 0.0 0.0
7.36401064785779e-05 -0.0006365084403520625 0.0 0.0009793412961925712 0.0 0.0
7.343574480569847e-06 -0.0004049214539939823 0.0 -0.0008072519060233305 0.0 0.0
-0.00018978105945619082 -0.0001461268618585437 0.0 -0.0013673724174869412 0.0 0.0
-0.0005866289017339043 0.00023139802049529796 0.0 -0.001807702211518727 0.0 0.0
-0.0009629700942714852 0.0004520648389116283 0.0 -0.0018188088753043731 0.0 0.0
-0.001350080349049659 0.0006266625332370198 0.0 -0.001705994527972751 0.0 0.0
-0.001968606775197063 0.0009016701034047687 0.0 -0.001626991369535353 0.0 0.0
-0.0032092477848535608 0.0016916362107719921 0.0 -0.0019376278767050566 0.0 0.0
-0.005446103337663878 0.003524384074993438 0.0 -0.0029180267179665636 0.0 0.0
-0.008811243034226758 0.006606159992366752 0.0 -0.004611952033419615 0.0 0.0
-0.013187103255495188 0.01076016649886639 0.0 -0.0066860170555241545 0.0 0.0
-0.018406205246899683 0.015774367235144 0.0 -0.0088661171935877 0.0 0.0
-0.024368343421341736 0.02152136595615972 0.0 -0.01100627555568355 0.0 0.0
-0.03105504881448312 0.027976369693640125 0.0 -0.013069673156313879 0.0 0.0
-0.03853706055895336 0.035225906032649926 0.0 -0.015123867296234595 0.0 0.0
-0.04690765266820792 0.04338345811826473 0.0 -0.017299885591470287 0.0 0.0
-0.05607511966313551 0.05241990075964857 0.0 -0.019909819673467048 0.0 0.0
-0.06540686147432534 0.06179839794232579 0.0 -0.02353071144738462 0.0 0.0
-0.07332222025725074 0.07001985505228209 0.0 -0.02849736002328977 0.0 0.0
-0.07695142055508601 0.07426234881390696 0.0 -0.03397100700717771 0.0 0.0
-0.07196884008556069 0.07026137756334473 0.0 -0.037928714695700506 0.0 0.0
-0.066690862933398 0.05216072312583867 0.0 1.8598837747685337e-14 0.0 0.0
-0.07196884008555016 0.0702613775633369 0.0 0.03792871469574279 0.0 0.0
-0.07695142055506324 0.07426234881388254 0.0 0.03397100700721936 0.0 0.0
-0.07332222025721734 0.07001985505224514 0.0 0.02849736002331279 0.0 0.0
-0.06540686147428453 0.06179839794228191 0.0 0.02353071144738609 0.0 0.0
-0.05607511966309106 0.05241990075960343 0.0 0.019909819673458076 0.0 0.0
-0.04690765266816332 0.04338345811822044 0.0 0.017299885591459067 0.0 0.0
-0.03853706055890887 0.03522590603260853 0.0 0.015123867296220846 0.0 0.0
-0.03105504881443879 0.027976369693595224 0.0 0.013069673156299845 0.0 0.0
-0.024368343421299742 0.021521365956114105 0.0 0.011006275555664398 0.0 0.0
-0.01840620524686186 0.01577436723510813 0.0 0.008866117193563916 0.0 0.0
-0.013187103255464357 0.010760166498838273 0.0 0.006686017055507877 0.0 0.0
-0.00881124303420432 0.00660615999234507 0.0 0.004611952033408006 0.0 0.0
-0.005446103337649122 0.003524384074979974 0.0 0.002918026717958402 0.0 0.0
-0.003209247784845638 0.0016916362107658072 0.0 0.001937627876700862 0.0 0.0
-0.0019686067751933786 0.0009016701034032769 0.0 0.0016269913695333956 0.0 0.0
-0.0013500803490481906 0.0006266625332375518 0.0 0.001705994527971382 0.0 0.0
-0.0009629700942707987 0.00045206483891083193 0.0 0.0018188088753033674 0.0 0.0
-0.0005866289017334149 0.00023139802049529454 0.0 0.0018077022115180353 0.0 0.0
-0.00018978105945596704 -0.0001461268618583845 0.0 0.0013673724174855296 0.0 0.0
7.343574480723863e-06 -0.0004049214539934828 0.0 0.0008072519060230948 0.0 0.0
-4.885893598150184e-05 -0.00022361388784674545 0.0 -0.0006325712966753942 0.0 0.0
-0.00024336021338625238 -7.91655322953355e-05 0.0 -0.0011252875475405205 0.0 0.0
-0.0006629923275893552 0.00026803762465399123 0.0 -0.0015481763585211221 0.0 0.0
-0.0010996680525650682 0.000500747344002411 0.0 -0.001558732754315192 0.0 0.0
-0.0015830203491085661 0.0007066340996990182 0.0 -0.0014064165439647107 0.0 0.0
-0.002413141957661863 0.0011312094103029225 0.0 -0.0013229295972044977 0.0 0.0
-0.004053105829689128 0.0023102749080315802 0.0 -0.0016898668969539746 0.0 0.0
-0.00685824007270696 0.004749639970042438 0.0 -0.0027566910440575782 0.0 0.0
-0.010901457040531847 0.00852024750150194 0.0 -0.004357368033865197 0.0 0.0
-0.016083400965027726 0.013473953205205585 0.0 -0.006246299277421399 0.0 0.0
-0.0222846476261087 0.019451103722648452 0.0 -0.008253357467192622 0.0 0.0
-0.029406157604283036 0.026335172719825765 0.0 -0.010221238474937793 0.0 0.0
-0.03742865701422893 0.03410474241873159 0.0 -0.012134764373282305 0.0 0.0
-0.046414349113110445 0.042833855727476666 0.0 -0.014076337858543675 0.0 0.0
-0.056440182770924746 0.05262125755784066 0.0 -0.016119768932960372 0.0 0.0
-0.06742332969416198 0.06344186725025922 0.0 -0.018383375936225865 0.0 0.0
-0.07867430265674846 0.07473985074699771 0.0 -0.02133515555670951 0.0 0.0
-0.08828328980626242 0.08474880686698848 0.0 -0.025793192699556006 0.0 0.0
-0.09279659440827387 0.09003202100348535 0.0 -0.031969700424372305 0.0 0.0
-0.08731313410553448 0.08565222631851853 0.0 -0.03914451828344361 0.0 0.0
-0.08137736418700854 0.06540283624649498 0.0 1.8213729136018486e-14 0.0 0.0
-0.08731313410552094 0.08565222631850443 0.0 0.039144518283485294 0.0 0.0
-0.09279659440824624 0.09003202100345382 0.0 0.03196970042441066 0.0 0.0
-0.08828328980622309 0.08474880686695005 0.0 0.025793192699577385 0.0 0.0
-0.07867430265670133 0.07473985074695035 0.0 0.021335155556713167 0.0 0.0
-0.06742332969411013 0.06344186725020488 0.0 0.018383375936219585 0.0 0.0
-0.05644018277087227 0.05262125755778677 0.0 0.0161197689329529 0.0 0.0
-0.0464143491130583 0.04283385572742672 0.0 0.01407633785853346 0.0 0.0
-0.03742865701417664 0.03410474241867785 0.0 0.01213476437326969 0.0 0.0
-0.029406157604233735 0.026335172719772783 0.0 0.010221238474920015 0.0 0.0
-0.02228464762606469 0.019451103722608196 0.0 0.008253357467172833 0.0 0.0
-0.016083400964991487 0.01347395320517153 0.0 0.006246299277404772 0.0 0.0
-0.010901457040504972 0.008520247501475238 0.0 0.004357368033854591 0.0 0.0
-0.006858240072688782 0.004749639970026472 0.0 0.0027566910440502625 0.0 0.0
-0.004053105829678646 0.002310274908024288 0.0 0.0016898668969490232 0.0 0.0
-0.002413141957657134 0.0011312094102991937 0.0 0.001322929597204257 0.0 0.0
-0.0015830203491068828 0.0007066340996990657 0.0 0.0014064165439631186 0.0 0.0
-0.0010996680525642926 0.0005007473440021779 0.0 0.001558732754314913 0.0 0.0
-0.000662992327588967 0.00026803762465429264 0.0 0.0015481763585195227 0.0 0.0
-0.0002433602133859789 -7.916553229558342e-05 0.0 0.0011252875475391076 0.0 0.0
-4.88589359812669e-05 -0.00022361388784638192 0.0 0.0006325712966752791 0.0 0.0
-9.229262289346516e-05 -9.30009821656512e-05 0.0 -0.0004595965907110489 0.0 0.0
-0.0002881847897738429 -1.4655675506054972e-05 0.0 -0.0008626965700858655 0.0 0.0
-0.0007342974302910895 0.0003039102293056569 0.0 -0.001236558670518861 0.0 0.0
-0.0012317327451001712 0.000544170828214538 0.0 -0.0012410320982429689 0.0 0.0
-0.0018291963351768233 0.0007934783915523937 0.0 -0.0010581760331102427 0.0 0.0
-0.0029117263613454717 0.0014242633765098546 0.0 -0.0009811090078628692 0.0 0.0
-0.004983149707754109 0.00306213213750539 0.0 -0.0014041798627865592 0.0 0.0
-0.008325598321141083 0.006069455602275364 0.0 -0.00237705047588388 0.0 0.0
-0.013005316715161957 0.010474155652295961 0.0 -0.003705738237113377 0.0 0.0
-0.018985212517374263 0.016211377939601646 0.0 -0.005299686918696976 0.0 0.0
-0.0261607047875001 0.023142220672495353 0.0 -0.0069959048365426 0.0 0.0
-0.034444516003040784 0.031165062316539115 0.0 -0.008661982300713536 0.0 0.0
-0.04381590235355821 0.04026067380689944 0.0 -0.010293673196977013 0.0 0.0
-0.054308647086082976 0.05048364747980477 0.0 -0.011989369127875875 0.0 0.0
-0.06595182758600557 0.06187734003163042 0.0 -0.01379295460106858 0.0 0.0
-0.07861571792157343 0.07434990451510591 0.0 -0.015602566517335735 0.0 0.0
-0.09160883071533554 0.08734624031073931 0.0 -0.017493026046959348 0.0 0.0
-0.10290676368790032 0.09908843237029377 0.0 -0.02064752234910861 0.0 0.0
-0.1085933413903153 0.10572114649753239 0.0 -0.027401248112233906 0.0 0.0
-0.10304966822691361 0.10149290115880279 0.0 -0.03895615254687767 0.0 0.0
-0.09667810865539685 0.07945200017412779 0.0 1.4797191250082165e-14 0.0 0.0
-0.10304966822689732 0.10149290115878894 0.0 0.03895615254691389 0.0 0.0
-0.10859334139028289 0.1057211464975012 0.0 0.027401248112270238 0.0 0.0
-0.10290676368785467 0.09908843237024877 0.0 0.02064752234912792 0.0 0.0
-0.09160883071528156 0.08734624031068422 0.0 0.017493026046962363 0.0 0.0
-0.07861571792151426 0.07434990451504896 0.0 0.015602566517332328 0.0 0.0
-0.06595182758594487 0.061877340031568875 0.0 0.01379295460106307 0.0 0.0
-0.05430864708602284 0.05048364747974321 0.0 0.01198936912786664 0.0 0.0
-0.04381590235349841 0.0402606738068371 0.0 0.010293673196967975 0.0 0.0
-0.034444516002984114 0.031165062316485102 0.0 0.008661982300700114 0.0 0.0
-0.026160704787449807 0.02314222067244665 0.0 0.006995904836527922 0.0 0.0
-0.018985212517332806 0.01621137793956241 0.0 0.005299686918683457 0.0 0.0
-0.013005316715130505 0.01047415565226579 0.0 0.0037057382371036736 0.0 0.0
-0.008325598321119383 0.006069455602254765 0.0 0.002377050475875187 0.0 0.0
-0.004983149707740981 0.003062132137493561 0.0 0.001404179862782277 0.0 0.0
-0.0029117263613392327 0.0014242633765064834 0.0 0.0009811090078609616 0.0 0.0
-0.0018291963351749411 0.0007934783915508894 0.0 0.0010581760331099348 0.0 0.0
-0.0012317327450995174 0.0005441708282143593 0.0 0.0012410320982423786 0.0 0.0
-0.000734297430290519 0.000303910229305225 0.0 0.0012365586705182742 0.0 0.0
-0.0002881847897734622 -1.4655675506052739e-05 0.0 0.0008626965700855128 0.0 0.0
-9.229262289350135e-05 -9.300098216546534e-05 0.0 0.00045959659071053425 0.0 0.0
-0.00011819206257200371 -1.3884906808875842e-05 0.0 -0.00029798010552879137 0.0 0.0
-0.0003186531550817022 4.093531122509318e-05 0.0 -0.0005833459091510174 0.0 0.0
-0.0007977480506556303 0.00033593501660290827 0.0 -0.0008668304959927773 0.0 0.0
-0.0013644505848608307 0.0005847181785260888 0.0 -0.0008606598197713061 0.0 0.0
-0.0021013635443033183 0.0009014125204071459 0.0 -0.0006695613912585614 0.0 0.0
-0.0034782416598484007 0.001811983753807735 0.0 -0.0006192545599284213 0.0 0.0
-0.005971580063429308 0.003916875552448471 0.0 -0.0010145339966580048 0.0 0.0
-0.009812033617651632 0.007427456016032487 0.0 -0.0017148836393827466 0.0 0.0
-0.015109084945441394 0.012443929268372676 0.0 -0.0026872630542400335 0.0 0.0
-0.021869615600921846 0.01894553096112 0.0 -0.0038563119314320546 0.0 0.0
-0.030013367950329592 0.026822210523668344 0.0 -0.005106048810318038 0.0 0.0
-0.03946123237496583 0.03598652457740012 0.0 -0.006335299686555658 0.0 0.0
-0.050188347948582374 0.046418840021672736 0.0 -0.007555581598747519 0.0 0.0
-0.06220122251009087 0.05814557792752892 0.0 -0.008872199020572721 0.0 0.0
-0.07543080192864482 0.07112633731050758 0.0 -0.010288377390180422 0.0 0.0
-0.08961113616010635 0.08512740268709434 0.0 -0.011590606945206151 0.0 0.0
-0.10406125760700019 0.09952017861448165 0.0 -0.012484281895846234 0.0 0.0
-0.11700709061759665 0.1127516089939011 0.0 -0.013736334815414161 0.0 0.0
-0.12435087036924244 0.12122650055760895 0.0 -0.019515617942069442 0.0 0.0
-0.11949301293695141 0.11817211973693056 0.0 -0.03638812468326886 0.0 0.0
-0.11306634155831598 0.09487613898596273 0.0 1.1228865059997872e-14 0.0 0.0
-0.11949301293693187 0.11817211973691483 0.0 0.03638812468329671 0.0 0.0
-0.1243508703692047 0.12122650055757253 0.0 0.019515617942096705 0.0 0.0
-0.11700709061754451 0.11275160899384931 0.0 0.013736334815426878 0.0 0.0
-0.10406125760693893 0.09952017861442049 0.0 0.012484281895849129 0.0 0.0
-0.08961113616003973 0.08512740268702985 0.0 0.011590606945204933 0.0 0.0
-0.07543080192857635 0.07112633731044035 0.0 0.01028837739017612 0.0 0.0
-0.06220122251002219 0.05814557792746104 0.0 0.008872199020566006 0.0 0.0
-0.05018834794851455 0.04641884002160489 0.0 0.0075555815987416956 0.0 0.0
-0.039461232374902594 0.03598652457733836 0.0 0.006335299686545135 0.0 0.0
-0.030013367950273637 0.026822210523616528 0.0 0.005106048810307146 0.0 0.0
-0.02186961560087554 0.018945530961073088 0.0 0.0038563119314226173 0.0 0.0
-0.015109084945405978 0.012443929268339024 0.0 0.0026872630542326735 0.0 0.0
-0.009812033617626253 0.0074274560160061814 0.0 0.001714883639375401 0.0 0.0
-0.005971580063413396 0.003916875552436335 0.0 0.0010145339966559732 0.0 0.0
-0.0034782416598406734 0.0018119837538027065 0.0 0.0006192545599258896 0.0 0.0
-0.0021013635443005597 0.0009014125204057947 0.0 0.0006695613912591679 0.0 0.0
-0.0013644505848599078 0.0005847181785255514 0.0 0.0008606598197709277 0.0 0.0
-0.0007977480506549034 0.00033593501660242694 0.0 0.000866830495992372 0.0 0.0
-0.00031865315508126696 4.0935311225150435e-05 0.0 0.00058334590915055 0.0 0.0
-0.00011819206257191614 -1.3884906808825049e-05 0.0 0.0002979801055277549 0.0 0.0
-0.00011828117141587452 1.3823036552544816e-05 0.0 -0.00016899275614040644 0.0 0.0
-0.0003250333453964383 7.759423759982574e-05 0.0 -0.0002921689252174707 0.0 0.0
-0.0008487241942328975 0.0003588254816449388 0.0 -0.0004232352036530958 0.0 0.0
-0.001506697201170645 0.0006304938083377516 0.0 -0.00041084110425535766 0.0 0.0
-0.002418104644602828 0.0010531077228998337 0.0 -0.0002554122810916469 0.0 0.0
-0.004105545240438412 0.0022966058925852446 0.0 -0.00022543893084556532 0.0 0.0
-0.006993979149357588 0.004828784705313282 0.0 -0.0004475127811227257 0.0 0.0
-0.01129994591675853 0.00880335360832448 0.0 -0.0008083226770927551 0.0 0.0
-0.017190848004856787 0.014405339450531782 0.0 -0.0013083730231254716 0.0 0.0
-0.024714755987417087 0.021650371962265436 0.0 -0.0019240332502153702 0.0 0.0
-0.033819365724640366 0.030466468368691282 0.0 -0.002583588466592241 0.0 0.0
-0.04443552635447017 0.0407790469165233 0.0 -0.003242795282469027 0.0 0.0
-0.05652834419838154 0.05255691407898317 0.0 -0.003941568388317323 0.0 0.0
-0.07005141091315359 0.06577955115049983 0.0 -0.0047132171736874685 0.0 0.0
-0.08483960959393966 0.08032398966603752 0.0 -0.005539848117529052 0.0 0.0
-0.10045596257673345 0.09579166935641831 0.0 -0.006283626029987665 0.0 0.0
-0.11605140310229517 0.11134920166775655 0.0 -0.0066071777937075395 0.0 0.0
-0.13019462622152272 0.12555155842561608 0.0 -0.0064829986870600445 0.0 0.0
-0.13977012501464947 0.1357281314561951 0.0 -0.008975563851901123 0.0 0.0
-0.13709373768956107 0.13595545132875764 0.0 -0.026434814148878317 0.0 0.0
-0.1313271944679099 0.11336142191570361 0.0 5.936223734792634e-15 0.0 0.0
-0.13709373768953848 0.13595545132873446 0.0 0.026434814148895015 0.0 0.0
-0.1397701250146062 0.13572813145614837 0.0 0.00897556385191706 0.0 0.0
-0.13019462622146294 0.12555155842555638 0.0 0.006482998687067157 0.0 0.0
-0.11605140310222603 0.11134920166768703 0.0 0.006607177793708169 0.0 0.0
-0.10045596257665892 0.09579166935634235 0.0 0.006283626029985702 0.0 0.0
-0.08483960959386322 0.08032398966596367 0.0 0.0055398481175254685 0.0 0.0
-0.07005141091307722 0.06577955115042713 0.0 0.004713217173683849 0.0 0.0
-0.0565283441983059 0.05255691407890641 0.0 0.003941568388313214 0.0 0.0
-0.04443552635439943 0.040779046916456715 0.0 0.003242795282462574 0.0 0.0
-0.03381936572457825 0.030466468368632586 0.0 0.00258358846658678 0.0 0.0
-0.02471475598736604 0.021650371962214383 0.0 0.001924033250210985 0.0 0.0
-0.01719084800481751 0.01440533945049231 0.0 0.00130837302312251 0.0 0.0
-0.011299945916729942 0.008803353608297218 0.0 0.0008083226770900017 0.0 0.0
-0.006993979149339293 0.004828784705297529 0.0 0.0004475127811217893 0.0 0.0
-0.004105545240428759 0.0022966058925770506 0.0 0.00022543893084511933 0.0 0.0
-0.0024181046445991335 0.0010531077228969946 0.0 0.0002554122810909026 0.0 0.0
-0.0015066972011698325 0.0006304938083368946 0.0 0.0004108411042566287 0.0 0.0
-0.0008487241942322324 0.0003588254816444061 0.0 0.00042323520365254567 0.0 0.0
-0.0003250333453963121 7.759423759996118e-05 0.0 0.0002921689252163076 0.0 0.0
-0.00011828117141631394 1.3823036552507628e-05 0.0 0.00016899275614067871 0.0 0.0
-7.758571993147699e-05 1.4945191939688048e-05 0.0 -0.00010507896076212436 0.0 0.0
-0.00029040009065515006 8.961465069589224e-05 0.0 -0.00012132085065246032 0.0 0.0
-0.0008810665352168291 0.00036720537768988426 0.0 -0.00014312979864538044 0.0 0.0
-0.0016745907151173582 0.0006560562034485934 0.0 -0.00011234648433445782 0.0 0.0
-0.0027914610642555205 0.0011443562432952384 0.0 8.915214717597763e-05 0.0 0.0
-0.004779128447557605 0.002558870666654829 0.0 0.00026818934128030074 0.0 0.0
-0.008031264284468192 0.0052942665458433616 0.0 0.00034094830906568135 0.0 0.0
-0.012774565297193643 0.009493806474172502 0.0 0.00036781638805201064 0.0 0.0
-0.019230683104138745 0.015380616766391884 0.0 0.00035372225002110614 0.0 0.0
-0.027497274864774997 0.02299244234786236 0.0 0.0002709760037605058 0.0 0.0
-0.03755735170227926 0.0322762337733254 0.0 0.00016337350532778317 0.0 0.0
-0.04935123876933685 0.043166123519363386 0.0 3.0073374117046622e-05 0.0 0.0
-0.06280322688587658 0.05561834850765877 0.0 -0.0001798598763906225 0.0 0.0
-0.07781426870144076 0.0695831669425263 0.0 -0.00043696261137834286 0.0 0.0
-0.0941411204540204 0.0849039164940405 0.0 -0.000791559172852065 0.0 0.0
-0.11118090603032517 0.10109827415485936 0.0 -0.001201795281257495 0.0 0.0
-0.12781884680352432 0.11720059620494769 0.0 -0.0014890899707943675 0.0 0.0
-0.14245820145442473 0.13173551757596885 0.0 -0.0013783537667791182 0.0 0.0
-0.15331239992654977 0.14255333187816135 0.0 -0.00231657678725811 0.0 0.0
-0.15594053091201332 0.1451332230581519 0.0 -0.019347618264735064 0.0 0.0
-0.1543097833250818 0.12370312379007406 0.0 2.2343238370581275e-15 0.0 0.0
-0.15594053091198834 0.14513322305812754 0.0 0.01934761826474106 0.0 0.0
-0.15331239992650064 0.142553331878108 0.0 0.0023165767872634514 0.0 0.0
-0.14245820145435614 0.1317355175759039 0.0 0.0013783537667811912 0.0 0.0
-0.1278188468034464 0.11720059620487154 0.0 0.0014890899707928323 0.0 0.0
-0.11118090603024311 0.10109827415478068 0.0 0.0012017952812584873 0.0 0.0
-0.09414112045393605 0.08490391649396538 0.0 0.0007915591728508489 0.0 0.0
-0.07781426870135591 0.06958316694244818 0.0 0.0004369626113780653 0.0 0.0
-0.06280322688579372 0.05561834850757623 0.0 0.0001798598763902686 0.0 0.0
-0.049351238769259204 0.04316612351929797 0.0 -3.007337412066092e-05 0.0 0.0
-0.037557351702211174 0.03227623377325879 0.0 -0.00016337350533063982 0.0 0.0
-0.027497274864719583 0.02299244234781081 0.0 -0.0002709760037605852 0.0 0.0
-0.01923068310409601 0.015380616766348335 0.0 -0.000353722250019397 0.0 0.0
-0.012774565297162586 0.009493806474147036 0.0 -0.0003678163880522275 0.0 0.0
-0.008031264284447908 0.005294266545822808 0.0 -0.00034094830906567495 0.0 0.0
-0.004779128447546598 0.002558870666645558 0.0 -0.0002681893412783123 0.0 0.0
-0.002791461064250845 0.0011443562432906567 0.0 -8.915214717763271e-05 0.0 0.0
-0.0016745907151158106 0.0006560562034485719 0.0 0.00011234648433647027 0.0 0.0
-0.0008810665352161971 0.0003672053776890854 0.0 0.00014312979864503726 0.0 0.0
-0.00029040009065475937 8.961465069635286e-05 0.0 0.00012132085065133226 0.0 0.0
-7.758571993103183e-05 1.494519193953214e-05 0.0 0.00010507896076443989 0.0 0.0
SCALARS Statev float 8
LOOKUP_TABLE default
0.0 0.017238591797150333 0.013780091678115652 -0.01647687948635028 0.002696787808234622 -0.0008289004166014114 0.0 0.0
0.0 0.005734698127812623 0.004190764645742932 -0.00254377242912896 -0.0016469922166139736 -0.00651949672898617 0.0 0.0
0.0 7.497122856467323e-05 0.00012102108995015653 -7.581996581575284e-05 -4.520112413440383e-05 -0.00023762251582547646 0.0 0.0
0.0 0.00012990133158095763 4.585334610706847e-05 -3.28497079910505e-05 -1.3003638116018102e-05 1.6133143332254593e-05 0.0 0.0
0.0 0.0008127698128077775 0.0005034798076638555 -0.00036662975575311194 -0.00013685005191074355 0.00010992197405807971 0.0 0.0
0.0 0.0020635100035586145 0.0020690325163957093 -0.001622625037320054 -0.00044640747907565546 0.00023137342196559964 0.0 0.0
0.0 0.0053315125512776885 0.004908303548960068 -0.004150518169298955 -0.0007577853796611056 0.00032646566242887945 0.0 0.0
0.0 0.010266975080739538 0.00930923821021582 -0.008296164658927069 -0.0010130735512887531 0.00037420317928276933 0.0 0.0
0.0 0.017219580415000928 0.015427363295041654 -0.014199233301692423 -0.0012281299933492244 0.0003776563716619201 0.0 0.0
0.0 0.0263004999781628 0.0233349532230726 -0.021881108122037578 -0.0014538451010350604 0.00031724522707833125 0.0 0.0
0.0 0.03747625073350257 0.033013874356167726 -0.031298870477036625 -0.001715003879131041 0.00022891710239859484 0.0 0.0
0.0 0.05035840271105981 0.04441565135337029 -0.04239920149453333 -0.0020164498588369486 0.00010776208562576664 0.0 0.0
0.0 0.0652312272815537 0.05747520734747051 -0.05512621108583759 -0.0023489962616329344 -9.36477541930551e-05 0.0 0.0
0.0 0.08195642375231901 0.07212517590693635 -0.06942406299041048 -0.002701112916525763 -0.0003237012506307768 0.0 0.0
0.0 0.10037321418117098 0.08822129371599921 -0.08516575130649988 -0.0030555424094992267 -0.0006261007849771623 0.0 0.0
0.0 0.12008856157357717 0.10538357695814336 -0.10198995808190606 -0.0033936188762372756 -0.0010030231089440682 0.0 0.0
0.0 0.14022422580435134 0.1228809743227311 -0.11918349999997321 -0.003697474322757877 -0.0013882624751710027 0.0 0.0
0.0 0.15949627506809186 0.13961077123343846 -0.1356620444514341 -0.003948726782004388 -0.0016348965216185728 0.0 0.0
0.0 0.1763056354511425 0.15419644892060846 -0.15005661339372756 -0.004139835526880784 -0.0015659372156145972 0.0 0.0
0.0 0.1885679242748923 0.16502274710402648 -0.160774878031544 -0.004247869072482673 -0.001651567285836502 0.0 0.0
0.0 0.19359896435555574 0.16933020291001755 -0.16509739018510866 -0.004232812724908769 2.3895815881580518e-15 0.0 0.0
0.0 0.18856792427486727 0.1650227471040046 -0.16077487803152232 -0.004247869072482187 0.0016515672858439774 0.0 0.0
0.0 0.17630563545109112 0.154196448920563 -0.15005661339368404 -0.004139835526879023 0.0015659372156206558 0.0 0.0
0.0 0.15949627506801772 0.1396107712333741 -0.13566204445137026 -0.003948726782003889 0.0016348965216220427 0.0 0.0
0.0 0.1402242258042682 0.12288097432265804 -0.11918349999990352 -0.003697474322754602 0.001388262475169608 0.0 0.0
0.0 0.12008856157348755 0.10538357695806465 -0.10198995808182909 -0.0033936188762357087 0.001003023108940999 0.0 0.0
0.0 0.10037321418107996 0.08822129371591973 -0.08516575130642233 -0.003055542409497237 0.0006261007849765348 0.0 0.0
0.0 0.08195642375222321 0.07212517590685345 -0.06942406299032783 -0.002701112916525694 0.00032370125062814413 0.0 0.0
0.0 0.06523122728146388 0.05747520734739202 -0.0551262110857612 -0.002348996261630777 9.364775419156736e-05 0.0 0.0
0.0 0.05035840271098439 0.04441565135330368 -0.042399201494469206 -0.0020164498588344615 -0.00010776208562753844 0.0 0.0
0.0 0.03747625073343242 0.03301387435610638 -0.031298870476976666 -0.0017150038791296932 -0.00022891710240045002 0.0 0.0
0.0 0.026300499978104932 0.02333495322302193 -0.02188110812198845 -0.0014538451010335054 -0.00031724522708029734 0.0 0.0
0.0 0.01721958041495725 0.015427363295003027 -0.014199233301654974 -0.001228129993348032 -0.0003776563716620768 0.0 0.0
0.0 0.010266975080710368 0.009309238210189353 -0.008296164658901917 -0.0010130735512874414 -0.0003742031792824121 0.0 0.0
0.0 0.005331512551259363 0.004908303548942696 -0.0041505181692830595 -0.0007577853796596317 -0.0003264656624287257 0.0 0.0
0.0 0.0020635100035487045 0.002069032516385687 -0.0016226250373116533 -0.0004464074790740317 -0.00023137342196487065 0.0 0.0
0.0 0.0008127698128042132 0.0005034798076615319 -0.0003666297557514785 -0.00013685005191005223 -0.00010992197405741732 0.0 0.0
0.0 0.00012990133158008468 4.585334610705383e-05 -3.2849707991053496e-05 -1.3003638115999774e-05 -1.6133143332171584e-05 0.0 0.0
0.0 7.497122856364044e-05 0.00012102108994936089 -7.581996581520853e-05 -4.5201124134151915e-05 0.00023762251582435084 0.0 0.0
0.0 0.005734698127802933 0.004190764645737947 -0.0025437724291254016 -0.001646992216612541 0.00651949672897687 0.0 0.0
0.0 0.017238591797129933 0.013780091678101826 -0.016476879486331197 0.0026967878082293562 0.0008289004165651082 0.0 0.0
0.0 0.013997699796471882 0.010448947117686031 -0.013573726249578064 0.003124779131892022 -0.00035460587772630377 0.0 0.0
0.0 0.0034590687026872092 0.002477655276664337 -0.0014768279761425904 -0.001000827300521742 -0.00505466502833653 0.0 0.0
0.0 -6.122856562897511e-05 -6.207949550123438e-05 5.404624048693802e-05 8.033255014296388e-06 -5.711107224620545e-05 0.0 0.0
0.0 2.152072424038315e-05 1.3071236578629778e-05 -9.422945407404683e-06 -3.6482911712251207e-06 7.6112603381142065e-06 0.0 0.0
0.0 0.00041958060911408075 0.00031266689592386447 -0.00022946064520754295 -8.320625071632109e-05 4.5029575523841155e-05 0.0 0.0
0.0 0.0018136231122335403 0.001554581076495064 -0.0012306024515767856 -0.00032397862491827955 5.327271570239489e-05 0.0 0.0
0.0 0.004493113326993549 0.0041325509708489225 -0.0035340356691982468 -0.0005985153016506733 -0.00015790738620792194 0.0 0.0
0.0 0.009070218777592958 0.00816234349822865 -0.007370980358584305 -0.0007913631396443491 -0.0005116685242933433 0.0 0.0
0.0 0.015555900685349774 0.013804894064470141 -0.012889954608822257 -0.0009149394556478761 -0.001006341219896011 0.0 0.0
0.0 0.02395174186100648 0.021093350892152345 -0.020077542930725667 -0.0010158079614266658 -0.0016134467493078295 0.0 0.0
0.0 0.03422849297652318 0.02997858122178309 -0.02886365592315656 -0.0011149252986265483 -0.002273260063902415 0.0 0.0
0.0 0.04641550195436487 0.04039949338687908 -0.039181922280366384 -0.0012175711065126782 -0.0029459284223268545 0.0 0.0
0.0 0.05989561513456422 0.052332443739702174 -0.05100892845619525 -0.0013235152835068592 -0.003663595624956463 0.0 0.0
0.0 0.07536698563961422 0.06573927599758114 -0.06431351059330834 -0.001425765404272771 -0.004437938325976881 0.0 0.0
0.0 0.0923945002655135 0.08050147097380389 -0.07898829057265924 -0.001513180401144565 -0.005252788691252163 0.0 0.0
0.0 0.11062709955438756 0.09628460990643613 -0.09470840812588026 -0.001576201780555949 -0.006051249477317658 0.0 0.0
0.0 0.12933272413693536 0.11243103793850791 -0.11082219273376777 -0.0016088452047400455 -0.006642118813634202 0.0 0.0
0.0 0.14734776142446837 0.12794012579241462 -0.12632803030104306 -0.0016120954913715717 -0.006711114344222093 0.0 0.0
0.0 0.16309060963720587 0.14149158551290747 -0.1399075197586122 -0.0015840657542952547 -0.006011534731786327 0.0 0.0
0.0 0.17456793483418667 0.15130973069391462 -0.14983207589065886 -0.0014776548032556693 -0.004894131651031553 0.0 0.0
0.0 0.17939666543540306 0.15512303922386952 -0.15381163972850315 -0.0013113994953664072 6.379445582904708e-15 0.0 0.0
0.0 0.17456793483416402 0.15130973069389456 -0.14983207589063893 -0.0014776548032555624 0.004894131651048635 0.0 0.0
0.0 0.16309060963715774 0.1414915855128658 -0.13990751975857063 -0.0015840657542950957 0.0060115347318037745 0.0 0.0
0.0 0.14734776142440212 0.1279401257923576 -0.1263280303009856 -0.0016120954913719124 0.006711114344232033 0.0 0.0
0.0 0.12933272413685987 0.11243103793844261 -0.11082219273370343 -0.00160884520473917 0.006642118813635195 0.0 0.0
0.0 0.11062709955430611 0.09628460990636543 -0.09470840812580988 -0.0015762017805553432 0.006051249477312434 0.0 0.0
0.0 0.09239450026542999 0.08050147097373121 -0.07898829057258719 -0.0015131804011441433 0.005252788691250558 0.0 0.0
0.0 0.07536698563952811 0.06573927599750684 -0.06431351059323388 -0.001425765404272894 0.004437938325974325 0.0 0.0
0.0 0.059895615134482466 0.05233244373963138 -0.05100892845612509 -0.0013235152835063407 0.0036635956249525064 0.0 0.0
0.0 0.04641550195429396 0.04039949338681693 -0.03918192228030533 -0.0012175711065115905 0.002945928422322267 0.0 0.0
0.0 0.03422849297645739 0.029978581221726208 -0.028863655923100036 -0.0011149252986261773 0.002273260063896063 0.0 0.0
0.0 0.0239517418609551 0.021093350892107066 -0.020077542930681026 -0.001015807961426028 0.0016134467493029226 0.0 0.0
0.0 0.015555900685310967 0.013804894064435518 -0.012889954608788334 -0.0009149394556471899 0.0010063412198931638 0.0 0.0
0.0 0.009070218777565938 0.008162343498204246 -0.00737098035856078 -0.0007913631396434785 0.0005116685242908594 0.0 0.0
0.0 0.004493113326977162 0.004132550970833688 -0.0035340356691841886 -0.0005985153016494956 0.00015790738620640802 0.0 0.0
0.0 0.0018136231122247 0.0015545810764873273 -0.0012306024515702648 -0.00032397862491706194 -5.327271570270598e-05 0.0 0.0
0.0 0.00041958060911155044 0.00031266689592230614 -0.00022946064520644265 -8.320625071586372e-05 -4.502957552342222e-05 0.0 0.0
0.0 2.1520724239746903e-05 1.3071236578693309e-05 -9.422945407459626e-06 -3.648291171233503e-06 -7.611260338091154e-06 0.0 0.0
0.0 -6.122856562880403e-05 -6.207949550101518e-05 5.404624048674478e-05 8.033255014270255e-06 5.7111072246015725e-05 0.0 0.0
0.0 0.0034590687026771843 0.0024776552766588673 -0.0014768279761387861 -0.0010008273005200818 0.005054665028325077 0.0 0.0
0.0 0.013997699796450155 0.01044894711766939 -0.013573726249556972 0.003124779131887572 0.00035460587769961933 0.0 0.0
0.0 0.010356991003065842 0.007565091384711228 -0.010106467483866208 0.002541376099154977 -0.0026765397685875715 0.0 0.0
0.0 0.0024055098331509234 0.0015243113192100488 -0.0008146499634130902 -0.0007096613557969598 -0.004128072006720729 0.0 0.0
0.0 6.716957818425885e-08 3.339381492355669e-08 -2.858400894570787e-08 -4.809805977848973e-09 2.4421116519573012e-08 0.0 0.0
0.0 -3.4665867340363787e-06 -4.957433467899318e-06 3.8726944311290175e-06 1.0847390367701729e-06 2.273277132072277e-06 0.0 0.0
0.0 0.0001629479618140996 0.00012873381869601047 -9.16299841222102e-05 -3.710383457380068e-05 1.5209540857089824e-05 0.0 0.0
0.0 0.0012649217593194676 0.0010257785689225508 -0.000791013952165525 -0.00023476461675702527 -4.8826133292419755e-05 0.0 0.0
0.0 0.0034272602391756278 0.0032160721941700238 -0.0026928455958916218 -0.0005232265982784027 -0.00046656485752495094 0.0 0.0
0.0 0.007522265018192668 0.00677715702353242 -0.00604098062717102 -0.0007361763963613988 -0.0011613334186055934 0.0 0.0
0.0 0.013306824408489959 0.01182766187426905 -0.01095866431071058 -0.0008689975635584651 -0.002118228665287703 0.0 0.0
0.0 0.02089453995169448 0.018356069793416318 -0.017389447897557097 -0.0009666218958592236 -0.003273122474845751 0.0 0.0
0.0 0.030109776811216377 0.026284238448191846 -0.025224938311472166 -0.001059300136719647 -0.0045250963561767575 0.0 0.0
0.0 0.040755278345302785 0.03554295462370178 -0.03438727261450572 -0.0011556820091960219 -0.005781826955578452 0.0 0.0
0.0 0.053161074969994046 0.046114826600157116 -0.044859740889024835 -0.0012550857111323019 -0.007043997963325515 0.0 0.0
0.0 0.06664441465709656 0.05801712861664764 -0.05666642267542458 -0.0013507059412230218 -0.008392611319232673 0.0 0.0
0.0 0.08184609966077662 0.07116440711000326 -0.06973122507023535 -0.0014331820397679791 -0.009825490785003173 0.0 0.0
0.0 0.09816788400322773 0.08528257099762312 -0.08378887640077942 -0.0014936945968435755 -0.01120076880242909 0.0 0.0
0.0 0.11499028904921635 0.09982200454650747 -0.09829390671263309 -0.0015280978338744798 -0.012195229486500802 0.0 0.0
0.0 0.13128108272406697 0.1139010704772114 -0.11236852846116438 -0.0015325420160470168 -0.012323864141483279 0.0 0.0
0.0 0.14559433687809517 0.12624232224976575 -0.12475018023559861 -0.0014921420141670969 -0.01119906794166692 0.0 0.0
0.0 0.1559956617608469 0.13517278206205394 -0.13374959617373308 -0.0014231858883207015 -0.008736480645676042 0.0 0.0
0.0 0.16055109327518052 0.13874131233548684 -0.1375196925256187 -0.0012216198098681118 1.2008189581580453e-14 0.0 0.0
0.0 0.15599566176082688 0.1351727820620352 -0.13374959617371474 -0.001423185888320533 0.008736480645706209 0.0 0.0
0.0 0.1455943368780536 0.12624232224972964 -0.12475018023556232 -0.0014921420141673736 0.011199067941696731 0.0 0.0
0.0 0.13128108272400857 0.11390107047716083 -0.11236852846111359 -0.0015325420160471556 0.012323864141501134 0.0 0.0
0.0 0.11499028904914953 0.09982200454645013 -0.09829390671257615 -0.001528097833873982 0.012195229486502653 0.0 0.0
0.0 0.09816788400315471 0.0852825709975596 -0.08378887640071647 -0.0014936945968431208 0.011200768802422567 0.0 0.0
0.0 0.0818460996607038 0.07116440710994015 -0.06973122507017282 -0.001433182039767392 0.009825490785000286 0.0 0.0
0.0 0.06664441465702083 0.058017128616581856 -0.056666422675359276 -0.0013507059412225545 0.008392611319228105 0.0 0.0
0.0 0.05316107496992285 0.0461148266000957 -0.04485974088896358 -0.0012550857111320898 0.007043997963318385 0.0 0.0
0.0 0.04075527834523528 0.0355429546236435 -0.03438727261444773 -0.0011556820091956981 0.005781826955568668 0.0 0.0
0.0 0.03010977681115768 0.026284238448140623 -0.025224938311421218 -0.0010593001367194207 0.004525096356166378 0.0 0.0
0.0 0.020894539951650377 0.018356069793377363 -0.017389447897518687 -0.0009666218958586754 0.003273122474837106 0.0 0.0
0.0 0.01330682440845505 0.011827661874238183 -0.010958664310680339 -0.0008689975635578519 0.0021182286652817336 0.0 0.0
0.0 0.007522265018167727 0.006777157023510363 -0.0060409806271498456 -0.0007361763963605087 0.0011613334186007958 0.0 0.0
0.0 0.003427260239163552 0.0032160721941586114 -0.0026928455958813544 -0.0005232265982772581 0.0004665648575225853 0.0 0.0
0.0 0.0012649217593129045 0.0010257785689171029 -0.0007910139521611263 -0.00023476461675597625 4.882613329163532e-05 0.0 0.0
0.0 0.00016294796181218817 0.00012873381869497213 -9.16299841214742e-05 -3.710383457349803e-05 -1.5209540856949674e-05 0.0 0.0
0.0 -3.466586734298896e-06 -4.9574334678612925e-06 3.872694431100435e-06 1.0847390367608794e-06 -2.273277132049438e-06 0.0 0.0
0.0 6.716957817306137e-08 3.3393814935956525e-08 -2.8584008956026952e-08 -4.809805979929293e-09 -2.4421116527252038e-08 0.0 0.0
0.0 0.002405509833143149 0.0015243113192053306 -0.0008146499634099191 -0.0007096613557954106 0.004128072006708667 0.0 0.0
0.0 0.01035699100304411 0.007565091384695152 -0.010106467483845699 0.002541376099150549 0.002676539768569708 0.0 0.0
0.0 0.007796970315939946 0.005542058688666149 -0.007563232041754707 0.002021173353088543 -0.002925496473371519 0.0 0.0
0.0 0.0017075546851459797 0.0010143753804240229 -0.0005257277146088939 -0.0004886476658151269 -0.0030674739783822826 0.0 0.0
0.0 0.0 0.0 0.0 0.0 0.0 0.0 0.0
0.0 -7.088076443463866e-07 -3.2175072635670836e-07 2.699900753137024e-07 5.1760651043002494e-08 2.673033605888172e-07 0.0 0.0
0.0 4.4084175464859615e-05 2.139132493063039e-05 -1.3383512714154214e-05 -8.007812216475872e-06 1.2948966304372073e-05 0.0 0.0
0.0 0.0007064493677495069 0.0006088650081382251 -0.00045785115829190346 -0.00015101384984632105 -9.974995085235269e-05 0.0 0.0
0.0 0.0026573558785899266 0.0023289094095811673 -0.001901432356039524 -0.00042747705354164177 -0.0005716936669519794 0.0 0.0
0.0 0.006017493194061154 0.005411193234542056 -0.004744477434315613 -0.000666715800226443 -0.0015598537609285042 0.0 0.0
0.0 0.011130196888058925 0.009845420719338744 -0.009030686051607641 -0.0008147346677310929 -0.0028738177245475733 0.0 0.0
0.0 0.017838303052799355 0.015596537016436382 -0.014683756002255391 -0.0009127810141809992 -0.004452459278601548 0.0 0.0
0.0 0.025911490266356033 0.022561146287389203 -0.021561803208169705 -0.0009993430792194858 -0.006153699682022454 0.0 0.0
0.0 0.03538407516424584 0.030656973345663398 -0.02956828317905734 -0.0010886901666060493 -0.007855089482484773 0.0 0.0
0.0 0.04594187560747619 0.03988035981014869 -0.03869838094759822 -0.0011819788625505234 -0.009552124077289245 0.0 0.0
0.0 0.05820122416427433 0.05025878460780012 -0.04898839362225002 -0.0012703909855500913 -0.011325698500326145 0.0 0.0
0.0 0.07142926302711887 0.061769852857421995 -0.0604225346274134 -0.0013473182300085128 -0.01319956269156054 0.0 0.0
0.0 0.08564748438530363 0.07421175170997428 -0.07280442121883766 -0.0014073304911366405 -0.015016425378005393 0.0 0.0
0.0 0.10068226507109086 0.08713755219430942 -0.08569404034537889 -0.0014435118489305014 -0.01636900347965968 0.0 0.0
0.0 0.1153203320816741 0.09978904215326545 -0.09834106157175238 -0.0014479805815130404 -0.01666806631767189 0.0 0.0
0.0 0.12827511745667652 0.11100885187209905 -0.10959344695128025 -0.0014154049208188347 -0.015298277393816392 0.0 0.0
0.0 0.13783879531801535 0.1193186229508342 -0.11795280895292028 -0.001365813997914118 -0.011520719773441308 0.0 0.0
0.0 0.1423790587355604 0.12283470439311986 -0.12175170803702168 -0.0010829963560981763 1.6954319892459324e-14 0.0 0.0
0.0 0.13783879531799695 0.11931862295081674 -0.11795280895290247 -0.0013658139979142424 0.011520719773481835 0.0 0.0
0.0 0.12827511745664383 0.11100885187206957 -0.10959344695125102 -0.0014154049208185235 0.015298277393856148 0.0 0.0
0.0 0.11532033208162336 0.09978904215322118 -0.09834106157170774 -0.0014479805815134409 0.016668066317695674 0.0 0.0
0.0 0.10068226507103255 0.08713755219425927 -0.08569404034532907 -0.0014435118489301863 0.016369003479662015 0.0 0.0
0.0 0.0856474843852375 0.07421175170991731 -0.0728044212187805 -0.0014073304911367476 0.01501642537799781 0.0 0.0
0.0 0.07142926302705471 0.061769852857366005 -0.060422534627358276 -0.0013473182300077552 0.013199562691555424 0.0 0.0
0.0 0.05820122416420757 0.050258784607742316 -0.048988393622192164 -0.00127039098555014 0.011325698500319458 0.0 0.0
0.0 0.045941875607413696 0.03988035981009503 -0.03869838094754492 -0.0011819788625500721 0.00955212407727947 0.0 0.0
0.0 0.03538407516418744 0.030656973345612563 -0.029568283179006956 -0.0010886901666056414 0.007855089482471479 0.0 0.0
0.0 0.025911490266305993 0.022561146287345776 -0.021561803208126666 -0.00099934307921908 0.0061536996820097615 0.0 0.0
0.0 0.01783830305276076 0.01559653701640269 -0.014683756002222388 -0.0009127810141802889 0.004452459278589642 0.0 0.0
0.0 0.011130196888026595 0.009845420719310681 -0.00903068605158 -0.0008147346677306713 0.00287381772453894 0.0 0.0
0.0 0.006017493194040674 0.005411193234523307 -0.004744477434297843 -0.0006667158002254607 0.001559853760922026 0.0 0.0
0.0 0.002657355878578083 0.0023289094095712173 -0.0019014323560309616 -0.00042747705354025513 0.0005716936669489255 0.0 0.0
0.0 0.0007064493677448312 0.0006088650081347976 -0.00045785115828923237 -0.00015101384984556572 9.974995085162081e-05 0.0 0.0
0.0 4.408417546381985e-05 2.1391324930482598e-05 -1.3383512714068788e-05 -8.007812216413856e-06 -1.2948966304184905e-05 0.0 0.0
0.0 -7.088076442411924e-07 -3.217507263946775e-07 2.699900753429106e-07 5.176065105177887e-08 -2.6730336061651614e-07 0.0 0.0
0.0 0.0 0.0 0.0 0.0 0.0 0.0 0.0
0.0 0.0017075546851391017 0.0010143753804200692 -0.0005257277146062728 -0.0004886476658137976 0.0030674739783716695 0.0 0.0
0.0 0.00779697031592133 0.005542058688651645 -0.007563232041736069 0.0020211733530844235 0.0029254964733583925 0.0 0.0
0.0 0.005660076104791091 0.004003591809529542 -0.0055616209849649635 0.0015580291754354251 -0.002522875401435025 0.0 0.0
0.0 0.001361408095725654 0.0006450270824036286 -0.000321974542686831 -0.00032305253971679697 -0.002145742868713761 0.0 0.0
0.0 0.0 0.0 0.0 0.0 0.0 0.0 0.0
0.0 -1.7918878968638495e-07 1.6580370838373166e-08 -1.3354665710081564e-08 -3.22570512829003e-09 -1.9972891801069645e-08 0.0 0.0
0.0 -1.8755641263071567e-05 -8.818260837507474e-06 7.65628962893911e-06 1.1619712085683578e-06 1.3219921833663778e-05 0.0 0.0
0.0 0.00036321428238783127 0.0002796366919352303 -0.00020488414787169743 -7.475254406353268e-05 -7.110799976520354e-05 0.0 0.0
0.0 0.0019080060932644238 0.0015433464983982792 -0.0012262744511866615 -0.000317072047211616 -0.0005645442333963968 0.0 0.0
0.0 0.004587610978048114 0.004085698650974155 -0.0035047634207724387 -0.0005809352302017213 -0.0016668313462877213 0.0 0.0
0.0 0.008991990040302109 0.007882684984558257 -0.00713409640657911 -0.0007485885779791464 -0.003265370866940826 0.0 0.0
0.0 0.014781266494851874 0.01284012648167006 -0.01198843374722434 -0.0008516927344457134 -0.005144398505505123 0.0 0.0
0.0 0.021805609286580423 0.018833195790495093 -0.017899138887616933 -0.0009340569028781763 -0.007159594222310167 0.0 0.0
0.0 0.02994057410662328 0.02576862416602896 -0.02475235028376037 -0.0010162738822685749 -0.009167230813791342 0.0 0.0
0.0 0.03922606381534398 0.03363948126506838 -0.03253748653041986 -0.0011019947346484942 -0.011162749079291804 0.0 0.0
0.0 0.04933527776571655 0.042504566011079256 -0.04131958117184262 -0.0011849848392366258 -0.013234715752253809 0.0 0.0
0.0 0.060908590417266116 0.052365791889491725 -0.05110909661678571 -0.0012566952727060335 -0.015398437684773253 0.0 0.0
0.0 0.07346572311559296 0.06310015768006058 -0.061786853695754304 -0.0013133039843062331 -0.017486406109892272 0.0 0.0
0.0 0.08638764680192743 0.07438312300983144 -0.07303098431819516 -0.001352138691636284 -0.019115551014596284 0.0 0.0
0.0 0.09933009548549337 0.0855975893451972 -0.08423356823586524 -0.0013640211093320274 -0.01966411720880941 0.0 0.0
0.0 0.11104295709712618 0.09577351239769329 -0.09443130872538061 -0.0013422036723126415 -0.018217767897139192 0.0 0.0
0.0 0.12002688178354128 0.10363201462662085 -0.10233168884424676 -0.0013003257823739867 -0.013609140111813852 0.0 0.0
0.0 0.12471163305268142 0.10720672633932617 -0.10628941039847291 -0.0009173159408532702 1.957765546900525e-14 0.0 0.0
0.0 0.12002688178352539 0.10363201462660519 -0.10233168884423059 -0.0013003257823744666 0.013609140111858539 0.0 0.0
0.0 0.11104295709709561 0.09577351239766489 -0.09443130872535281 -0.0013422036723120616 0.018217767897182054 0.0 0.0
0.0 0.09933009548545105 0.08559758934515972 -0.08423356823582746 -0.0013640211093323038 0.01966411720883553 0.0 0.0
0.0 0.08638764680187735 0.07438312300978839 -0.0730309843181525 -0.0013521386916358607 0.019115551014600295 0.0 0.0
0.0 0.07346572311553716 0.06310015768001241 -0.06178685369570607 -0.001313303984306244 0.017486406109884254 0.0 0.0
0.0 0.060908590417210584 0.05236579188944346 -0.05110909661673805 -0.0012566952727054125 0.015398437684765865 0.0 0.0
0.0 0.049335277765660004 0.04250456601103035 -0.04131958117179381 -0.0011849848392365243 0.013234715752246246 0.0 0.0
0.0 0.039226063815291756 0.0336394812650231 -0.03253748653037501 -0.0011019947346480536 0.01116274907928097 0.0 0.0
0.0 0.02994057410657367 0.02576862416598579 -0.02475235028371816 -0.0010162738822676277 0.009167230813776512 0.0 0.0
0.0 0.021805609286538134 0.01883319579045879 -0.01789913888758133 -0.0009340569028774726 0.007159594222294489 0.0 0.0
0.0 0.01478126649481682 0.012840126481639935 -0.011988433747194757 -0.0008516927344451751 0.00514439850549117 0.0 0.0
0.0 0.008991990040274796 0.007882684984534505 -0.0071340964065560114 -0.00074858857797849 0.0032653708669304776 0.0 0.0
0.0 0.0045876109780305235 0.004085698650958615 -0.003504763420758051 -0.0005809352302005646 0.0016668313462804719 0.0 0.0
0.0 0.0019080060932525724 0.0015433464983887395 -0.0012262744511786145 -0.00031707204721012644 0.0005645442333921302 0.0 0.0
0.0 0.0003632142823848308 0.00027963669193339046 -0.0002048841478703635 -7.475254406302627e-05 7.110799976465989e-05 0.0 0.0
0.0 -1.8755641263370867e-05 -8.818260837225562e-06 7.65628962871869e-06 1.161971208506816e-06 -1.3219921833367186e-05 0.0 0.0
0.0 -1.7918878958620634e-07 1.6580370829333657e-08 -1.3354665703083526e-08 -3.225705126253981e-09 1.9972891788994082e-08 0.0 0.0
0.0 0.0 0.0 0.0 0.0 0.0 0.0 0.0
0.0 0.0013614080957187304 0.0006450270824002512 -0.0003219745426845456 -0.0003230525397157042 0.0021457428687044868 0.0 0.0
0.0 0.005660076104775815 0.004003591809517553 -0.0055616209849492235 0.0015580291754316623 0.002522875401426027 0.0 0.0
0.0 0.004079112792080144 0.002783061889810211 -0.003927627399123614 0.0011445655093134024 -0.001975055887005966 0.0 0.0
0.0 0.0007947239543774391 0.0003852259710000732 -0.00018251497606686846 -0.00020271099493320455 -0.0014165835703715869 0.0 0.0
0.0 0.0 0.0 0.0 0.0 0.0 0.0 0.0
0.0 -4.2819074672083497e-07 3.2598703140169964e-08 -2.4906694850939358e-08 -7.692008289230642e-09 -6.631307165159322e-08 0.0 0.0
0.0 -1.0856611327107054e-05 -8.868123542287227e-06 7.058664789373605e-06 1.8094587529136323e-06 1.2294578884849943e-05 0.0 0.0
0.0 9.747976823651941e-05 9.093194872598e-05 -6.421277545025551e-05 -2.6719173275724572e-05 -3.0077444912430692e-05 0.0 0.0
0.0 0.0010406199900175066 0.0009196834651899619 -0.0007120736821651588 -0.0002076097830248039 -0.0004997804199351957 0.0 0.0
0.0 0.0035239108871216013 0.002830210873155458 -0.0023638380487350625 -0.0004663728244203942 -0.001534939565758149 0.0 0.0
0.0 0.006785727408495791 0.005965665673229971 -0.00530090182920427 -0.0006647638440257001 -0.0032638960414218387 0.0 0.0
0.0 0.011805855559505099 0.010111552963009082 -0.009332112861114308 -0.0007794401018947766 -0.005337550229318696 0.0 0.0
0.0 0.017714983358279205 0.01512700357235805 -0.014266092910250876 -0.0008609106621071598 -0.007531738659346976 0.0 0.0
0.0 0.024513091932217356 0.02090390585571226 -0.019966936652503445 -0.0009369692032088133 -0.009714443577591542 0.0 0.0
0.0 0.03218403009536204 0.0274311014328721 -0.026415513557864933 -0.0010155878750071918 -0.01186925419760685 0.0 0.0
0.0 0.04088099398248641 0.034774511767752266 -0.033683427329777096 -0.0010910844379751923 -0.014087825566889933 0.0 0.0
0.0 0.0504360936952077 0.042985833098673126 -0.0418277005193868 -0.0011581325792863312 -0.0164002001318065 0.0 0.0
0.0 0.06081485778849175 0.05200045372308838 -0.05078789910292957 -0.0012125546201588113 -0.018630934098315025 0.0 0.0
0.0 0.07224397788895631 0.06158555755527809 -0.06033324369993725 -0.0012523138553408614 -0.02041766593600192 0.0 0.0
0.0 0.08340197210472054 0.07131997516233556 -0.0700448079668404 -0.001275167195495188 -0.021196413174522952 0.0 0.0
0.0 0.09372457183332052 0.08048193549211437 -0.07921421614773902 -0.0012677193443753785 -0.019930636504205092 0.0 0.0
0.0 0.10230783572609392 0.08799302417463468 -0.08676377457698455 -0.0012292495976501065 -0.015078744742123857 0.0 0.0
0.0 0.10728882467496151 0.09171168286390445 -0.09098404976191513 -0.0007276331019892989 1.990985501465481e-14 0.0 0.0
0.0 0.10230783572608057 0.08799302417462032 -0.08676377457696985 -0.0012292495976505668 0.015078744742169203 0.0 0.0
0.0 0.09372457183329372 0.08048193549208865 -0.07921421614771318 -0.0012677193443754863 0.01993063650424944 0.0 0.0
0.0 0.0834019721046858 0.07131997516230422 -0.07004480796680894 -0.001275167195495195 0.021196413174549962 0.0 0.0
0.0 0.07224397788891508 0.06158555755524239 -0.060333243699902575 -0.0012523138553397993 0.02041766593600685 0.0 0.0
0.0 0.060814857788446315 0.05200045372304925 -0.05078789910289035 -0.0012125546201588622 0.01863093409830745 0.0 0.0
0.0 0.05043609369516362 0.042985833098634615 -0.041827700519349385 -0.0011581325792852312 0.01640020013179763 0.0 0.0
0.0 0.04088099398244017 0.03477451176771187 -0.03368342732973709 -0.0010910844379748003 0.01408782556688168 0.0 0.0
0.0 0.03218403009531943 0.027431101432835697 -0.026415513557828965 -0.0010155878750067126 0.0118692541975963 0.0 0.0
0.0 0.024513091932174387 0.020903905855675527 -0.019966936652467276 -0.0009369692032082569 0.009714443577575763 0.0 0.0
0.0 0.017714983358242873 0.015127003572327685 -0.014266092910221288 -0.0008609106621064049 0.007531738659329032 0.0 0.0
0.0 0.011805855559474079 0.01011155296298266 -0.009332112861088277 -0.0007794401018943765 0.005337550229302442 0.0 0.0
0.0 0.006785727408474385 0.005965665673211119 -0.0053009018291863275 -0.0006647638440247918 0.003263896041410845 0.0 0.0
0.0 0.0035239108871065366 0.0028302108731434223 -0.002363838048724162 -0.0004663728244192587 0.0015349395657512383 0.0 0.0
0.0 0.001040619990009161 0.0009196834651833346 -0.000712073682159803 -0.0002076097830235316 0.0004997804199312504 0.0 0.0
0.0 9.747976823493092e-05 9.093194872523432e-05 -6.421277544974359e-05 -2.671917327549072e-05 3.007744491221038e-05 0.0 0.0
0.0 -1.0856611327689102e-05 -8.86812354193277e-06 7.058664789099075e-06 1.8094587528336624e-06 -1.229457888446296e-05 0.0 0.0
0.0 -4.2819074657463115e-07 3.259870312858171e-08 -2.4906694842016207e-08 -7.692008286562386e-09 6.631307162822855e-08 0.0 0.0
0.0 0.0 0.0 0.0 0.0 0.0 0.0 0.0
0.0 0.0007947239543722089 0.00038522597099772856 -0.00018251497606529973 -0.00020271099493242845 0.0014165835703646894 0.0 0.0
0.0 0.004079112792068098 0.0027830618898007997 -0.003927627399110962 0.001144565509310159 0.0019750558869994508 0.0 0.0
0.0 0.002652417710108961 0.0018272776217588093 -0.0026111172877988325 0.000783839666040021 -0.0014608017047020008 0.0 0.0
0.0 0.0004684914324236055 0.00019116196357064043 -7.251868816114089e-05 -0.00011864327540949914 -0.000828611633476611 0.0 0.0
0.0 4.5030000765742004e-07 -5.889399966331698e-09 5.402290337682763e-09 4.871096286490315e-10 9.028034844085993e-08 0.0 0.0
0.0 -3.9933846218285653e-07 2.3010864123224606e-08 -1.7665084308602554e-08 -5.345779814626124e-09 -7.114747973550936e-08 0.0 0.0
0.0 -3.6629894133638044e-06 -2.1975131865451757e-06 1.7442574870673686e-06 4.532556994778462e-07 4.885171073250058e-06 0.0 0.0
0.0 -9.550406369906775e-06 -5.541272501869703e-06 6.488850998342218e-06 -9.475784964724922e-07 2.745216698479651e-05 0.0 0.0
0.0 0.000540955688960592 0.0004288413872374214 -0.00032506685765802646 -0.00010377452957939505 -0.0003388252419251868 0.0 0.0
0.0 0.0020792498672146083 0.001761186527291398 -0.001428598060474348 -0.00033258846681704995 -0.0012961482138211925 0.0 0.0
0.0 0.0052163980826106975 0.004116620887649263 -0.003568490347968817 -0.0005481305396804443 -0.0028800294111159903 0.0 0.0
0.0 0.008756970862776171 0.007443820445244175 -0.006756133247264145 -0.0006876871979800297 -0.005001211088236383 0.0 0.0
0.0 0.013692790143218423 0.011471185803010316 -0.010696234650423032 -0.0007749511525872893 -0.007250884889258302 0.0 0.0
0.0 0.019194565211879434 0.016089580089330806 -0.015242271691090305 -0.0008473083982404975 -0.009479873503067476 0.0 0.0
0.0 0.025334794125192402 0.021280190446769053 -0.020361234412787185 -0.0009189560339818564 -0.01165882839343477 0.0 0.0
0.0 0.0322330367089724 0.0271146729568921 -0.026126901050248428 -0.0009877719066436917 -0.013878916335798023 0.0 0.0
0.0 0.039918744880562504 0.03366928539580297 -0.03262012699276513 -0.0010491584030377934 -0.016174831814338153 0.0 0.0
0.0 0.04870789366949786 0.04093900305332778 -0.03983993043020859 -0.0010990726231192222 -0.01841540768030757 0.0 0.0
0.0 0.057527928123031036 0.04879516183328007 -0.04765371054780736 -0.0011414512854727432 -0.020254172578500373 0.0 0.0
0.0 0.06720267702136672 0.05697397697647993 -0.05579664189662952 -0.0011773350798503599 -0.021209416543114566 0.0 0.0
0.0 0.07662446572153205 0.06506689338336145 -0.06387966443596242 -0.0011872289473990303 -0.02034793445834033 0.0 0.0
0.0 0.08469872424879478 0.0722705099390145 -0.0711170435554498 -0.0011534663835646862 -0.015895156133833868 0.0 0.0
0.0 0.0901600774744511 0.07620756414977269 -0.07569496452541213 -0.000512599624360531 1.8499524828685665e-14 0.0 0.0
0.0 0.08469872424878579 0.07227050993900329 -0.07111704355543837 -0.001153466383564848 0.01589515613387854 0.0 0.0
0.0 0.07662446572151005 0.0650668933833394 -0.06387966443593976 -0.0011872289473996286 0.020347934458385904 0.0 0.0
0.0 0.06720267702134095 0.05697397697645585 -0.055796641896605874 -0.0011773350798499926 0.021209416543141155 0.0 0.0
0.0 0.05752792812299859 0.048795161833252124 -0.047653710547780226 -0.0011414512854718744 0.020254172578503874 0.0 0.0
0.0 0.04870789366945821 0.04093900305329418 -0.03983993043017455 -0.0010990726231196663 0.018415407680297785 0.0 0.0
0.0 0.039918744880524104 0.03366928539576941 -0.032620126992732174 -0.0010491584030372107 0.016174831814327557 0.0 0.0
0.0 0.03223303670893686 0.027114672956861336 -0.0261269010502179 -0.000987771906643416 0.01387891633578994 0.0 0.0
0.0 0.025334794125158044 0.021280190446739976 -0.020361234412758732 -0.0009189560339812479 0.011658828393423642 0.0 0.0
0.0 0.01919456521184463 0.016089580089301975 -0.015242271691061507 -0.0008473083982404769 0.009479873503051793 0.0 0.0
0.0 0.013692790143188334 0.011471185802985678 -0.010696234650399181 -0.0007749511525864947 0.007250884889239906 0.0 0.0
0.0 0.008756970862751625 0.007443820445223894 -0.006756133247244414 -0.000687687197979484 0.005001211088220455 0.0 0.0
0.0 0.005216398082592225 0.004116620887634922 -0.003568490347955508 -0.0005481305396794105 0.0028800294111059237 0.0 0.0
0.0 0.0020792498672042516 0.0017611865272830567 -0.0014285980604671336 -0.00033258846681592194 0.0012961482138154738 0.0 0.0
0.0 0.0005409556889550548 0.0004288413872336647 -0.00032506685765511077 -0.00010377452957855391 0.0003388252419221892 0.0 0.0
0.0 -9.55040637059044e-06 -5.54127250179754e-06 6.488850998270068e-06 -9.475784964726404e-07 -2.7452166984420744e-05 0.0 0.0
0.0 -3.6629894140600214e-06 -2.1975131865063503e-06 1.7442574870365842e-06 4.5325569946976467e-07 -4.885171073157184e-06 0.0 0.0
0.0 -3.9933846203843063e-07 2.3010864114477826e-08 -1.766508430182229e-08 -5.345779812654833e-09 7.114747970917023e-08 0.0 0.0
0.0 4.503000071303827e-07 -5.889399959299267e-09 5.402290331223529e-09 4.871096280759266e-10 -9.028034833325816e-08 0.0 0.0
0.0 0.00046849143241994227 0.00019116196356914664 -7.251868816017648e-05 -0.00011864327540896988 0.0008286116334716417 0.0 0.0
0.0 0.002652417710099714 0.0018272776217516688 -0.002611117287788985 0.0007838396660373183 0.0014608017046971612 0.0 0.0
0.0 0.0019907456703263573 0.0010501598517681345 -0.0015155064211011624 0.0004653465693330275 -0.0009494166493841958 0.0 0.0
0.0 0.00013695647300446213 6.686297614018252e-05 -6.515024548387795e-06 -6.034795159179474e-05 -0.0003975857300329098 0.0 0.0
0.0 -1.6359315948714524e-07 3.781750596414535e-09 -4.763255818210833e-09 9.815052217967462e-10 -3.278740980812844e-08 0.0 0.0
0.0 -7.398519191745401e-07 2.4508658812307933e-08 -1.8829097268388878e-08 -5.679561543919343e-09 -1.4785923128019126e-07 0.0 0.0
0.0 -1.4191406350055678e-06 -1.5217042716739254e-06 1.200809368284205e-06 3.208949033897267e-07 5.197880428374894e-06 0.0 0.0
0.0 -2.627458275104624e-05 -1.631304984123248e-05 1.3229141084185934e-05 3.0839087570465175e-06 3.655134649384881e-05 0.0 0.0
0.0 0.00017085174057223482 0.00012065959903976642 -8.958963970853668e-05 -3.106995933122976e-05 -0.00015078241407533773 0.0 0.0
0.0 0.0010869788066419257 0.0008786117263709355 -0.0006944314258940691 -0.00018418030047686652 -0.0009335279439155982 0.0 0.0
0.0 0.003090855749586137 0.0024719889348640057 -0.0020778350198324877 -0.0003941539150315158 -0.002274687136187586 0.0 0.0
0.0 0.006299024933667398 0.0048732042773046375 -0.00431685318284092 -0.0005563510944637143 -0.00414177105245356 0.0 0.0
0.0 0.009762646481786682 0.007899596818215707 -0.007238202042552266 -0.0006613947756634345 -0.00629076700422057 0.0 0.0
0.0 0.013899711550167877 0.011363174519961185 -0.010625478645670719 -0.0007376958742904848 -0.00842663389776526 0.0 0.0
0.0 0.01858438149008507 0.015227051635944159 -0.014421641774260177 -0.0008054098616839659 -0.010504103399474074 0.0 0.0
0.0 0.02376930223109382 0.01956215793976569 -0.01869514226230463 -0.0008670156774610435 -0.012584161763015501 0.0 0.0
0.0 0.02970147591805277 0.024460440152767056 -0.023537849621227153 -0.0009225905315398958 -0.014717636786413352 0.0 0.0
0.0 0.036218454025992476 0.029976038502601082 -0.02900626847891779 -0.0009697700236832548 -0.016814116296282752 0.0 0.0
0.0 0.043561940334058954 0.03605136309671561 -0.03504107267839165 -0.0010102904183239665 -0.018590050955523355 0.0 0.0
0.0 0.05110524323859082 0.042585632980997136 -0.04152823283678933 -0.001057400144207801 -0.0196205785774946 0.0 0.0
0.0 0.058848755307635225 0.04948566927256667 -0.048391000729391974 -0.0010946685431747285 -0.01930421988762365 0.0 0.0
0.0 0.06669591290734454 0.056330424608506964 -0.05525622344225134 -0.0010742011662556493 -0.01593504356084713 0.0 0.0
0.0 0.07288350523865773 0.060546022462599 -0.06027854312922092 -0.0002674793333780917 1.592779727555005e-14 0.0 0.0
0.0 0.06669591290734261 0.05633042460850085 -0.05525622344224548 -0.0010742011662552874 0.015935043560888727 0.0 0.0
0.0 0.05884875530761802 0.04948566927254831 -0.048391000729373405 -0.0010946685431749536 0.019304219887665452 0.0 0.0
0.0 0.05110524323857081 0.04258563298097782 -0.04152823283677065 -0.001057400144207202 0.019620578577518873 0.0 0.0
0.0 0.043561940334034065 0.03605136309669435 -0.03504107267837135 -0.0010102904183229625 0.018590050955525232 0.0 0.0
0.0 0.03621845402596011 0.02997603850257436 -0.029006268478890977 -0.0009697700236834045 0.01681411629627081 0.0 0.0
0.0 0.02970147591802384 0.02446044015274247 -0.023537849621202613 -0.0009225905315398532 0.014717636786403452 0.0 0.0
0.0 0.02376930223106804 0.019562157939743603 -0.018695142262282957 -0.0008670156774606691 0.012584161763008743 0.0 0.0
0.0 0.018584381490059632 0.01522705163592316 -0.014421641774239626 -0.0008054098616835257 0.010504103399463758 0.0 0.0
0.0 0.013899711550144273 0.011363174519941835 -0.01062547864565152 -0.0007376958742903084 0.008426633897751952 0.0 0.0
0.0 0.009762646481762841 0.007899596818196995 -0.007238202042534216 -0.0006613947756627724 0.006290767004203333 0.0 0.0
0.0 0.006299024933649182 0.004873204277290682 -0.004316853182827425 -0.0005563510944632575 0.0041417710524400565 0.0 0.0
0.0 0.0030908557495731926 0.002471988934853966 -0.002077835019823488 -0.0003941539150304793 0.0022746871361791214 0.0 0.0
0.0 0.0010869788066346859 0.0008786117263654321 -0.0006944314258895436 -0.00018418030047588778 0.0009335279439104662 0.0 0.0
0.0 0.00017085174056983305 0.00012065959903820603 -8.958963970736783e-05 -3.106995933083821e-05 0.00015078241407350912 0.0 0.0
0.0 -2.627458275111691e-05 -1.631304984046102e-05 1.3229141083594963e-05 3.083908756866092e-06 -3.65513464921534e-05 0.0 0.0
0.0 -1.4191406354892024e-06 -1.5217042716998607e-06 1.200809368305394e-06 3.2089490339445886e-07 -5.1978804284082466e-06 0.0 0.0
0.0 -7.398519195415277e-07 2.4508658814311785e-08 -1.882909726890552e-08 -5.679561545406168e-09 1.4785923135050773e-07 0.0 0.0
0.0 -1.635931594526776e-07 3.781750593238529e-09 -4.763255815837391e-09 9.815052225990617e-10 3.278740980120743e-08 0.0 0.0
0.0 0.00013695647300183945 6.686297613931383e-05 -6.51502454784872e-06 -6.034795159146512e-05 0.00039758573002960333 0.0 0.0
0.0 0.0019907456703181286 0.0010501598517632688 -0.001515506421094246 0.0004653465693309772 0.0009494166493807122 0.0 0.0
0.0 0.0009300419717522916 0.0005314834294100013 -0.0007741719342321436 0.00024268850482214306 -0.0005933159233697706 0.0 0.0
0.0 6.512087969116128e-06 -5.663357113083582e-06 3.404947330168909e-05 -2.8386116188605604e-05 -0.00010208150280713774 0.0 0.0
0.0 2.1122780755375956e-06 -2.0642889499915286e-09 1.0930431715996376e-08 -8.866142766003806e-09 4.60847284526908e-07 0.0 0.0
0.0 1.7511861102621881e-06 -1.1629715722904351e-08 7.150293490461872e-09 4.479422232442335e-09 3.6121932803134345e-07 0.0 0.0
0.0 -2.949876380742165e-06 -9.104015937399796e-07 7.026842588335755e-07 2.0771733490640308e-07 5.45939644669812e-06 0.0 0.0
0.0 -1.8356563368967967e-05 -5.445244217931536e-06 4.463274346504307e-06 9.819698714272309e-07 1.7106764933991662e-05 0.0 0.0
0.0 2.6428758391460988e-05 -1.1186937704064996e-06 1.7728069360680497e-06 -6.541131656616131e-07 -1.125755061492069e-05 0.0 0.0
0.0 0.00045681851633936574 0.00024980322761183226 -0.0001967790349006488 -5.302419271118361e-05 -0.00046635521164373715 0.0 0.0
0.0 0.0015274937701201814 0.0010788292395783237 -0.0008842059053504194 -0.00019462333422790324 -0.0014952039142435564 0.0 0.0
0.0 0.0034954983542744653 0.0025391505766511626 -0.002182326311575971 -0.00035682426507519286 -0.0029277961651987825 0.0 0.0
0.0 0.0058584117761197926 0.004497820174596169 -0.004012804596303555 -0.0004850155782926105 -0.004696378814369694 0.0 0.0
0.0 0.008775458732560495 0.006781489141893843 -0.006206885794440875 -0.0005746033474529623 -0.0065374566450124225 0.0 0.0
0.0 0.011961856775874172 0.009327361749602532 -0.008679601589713913 -0.0006477601598886129 -0.008381592618846063 0.0 0.0
0.0 0.015494382973977417 0.012180945833346035 -0.011474022259794058 -0.0007069235735519711 -0.01021269098701291 0.0 0.0
0.0 0.019538746369646837 0.015430533741623698 -0.014672468793780733 -0.0007580649478429768 -0.012047501115598998 0.0 0.0
0.0 0.024188773627628623 0.019170561414975792 -0.018366995335918984 -0.0008035660790568052 -0.01387713630531637 0.0 0.0
0.0 0.029409718388127937 0.023442842934732044 -0.02259654195302168 -0.0008463009817103422 -0.015519646391393369 0.0 0.0
0.0 0.03496728522123653 0.028243540814655483 -0.027349316327170123 -0.0008942244874853964 -0.016564547928629828 0.0 0.0
0.0 0.0412538887058077 0.03372221067017178 -0.03276290891233474 -0.0009593017578369993 -0.01661342708193969 0.0 0.0
0.0 0.04865335637949893 0.040020637897528855 -0.039036522966097865 -0.0009841149314309876 -0.014864142635700453 0.0 0.0
0.0 0.055541369001433534 0.044558142872364766 -0.04456868771972723 1.054484736243052e-05 1.3560333411710701e-14 0.0 0.0
0.0 0.04865335637950047 0.04002063789752506 -0.03903652296609397 -0.0009841149314310637 0.014864142635735909 0.0 0.0
0.0 0.04125388870579831 0.033722210670159826 -0.032762908912322815 -0.0009593017578369739 0.016613427081976908 0.0 0.0
0.0 0.03496728522121992 0.028243540814640346 -0.02734931632715523 -0.0008942244874850817 0.016564547928648407 0.0 0.0
0.0 0.029409718388109237 0.02344284293471732 -0.022596541953007778 -0.0008463009817095508 0.015519646391391083 0.0 0.0
0.0 0.024188773627607896 0.019170561414959195 -0.01836699533590254 -0.0008035660790566341 0.013877136305305784 0.0 0.0
0.0 0.01953874636963177 0.015430533741611026 -0.014672468793768491 -0.0007580649478425299 0.012047501115592888 0.0 0.0
0.0 0.015494382973961935 0.012180945833333175 -0.011474022259781698 -0.0007069235735514765 0.010212690987007509 0.0 0.0
0.0 0.011961856775858044 0.009327361749589374 -0.008679601589701304 -0.0006477601598880754 0.008381592618838044 0.0 0.0
0.0 0.00877545873254378 0.006781489141881458 -0.006206885794429153 -0.0005746033474523027 0.006537456645000942 0.0 0.0
0.0 0.005858411776104016 0.004497820174584188 -0.004012804596292128 -0.00048501557829205524 0.004696378814356401 0.0 0.0
0.0 0.0034954983542623726 0.002539150576642569 -0.002182326311568173 -0.0003568242650743976 0.0029277961651890507 0.0 0.0
0.0 0.0015274937701129686 0.0010788292395732771 -0.0008842059053460425 -0.00019462333422723364 0.0014952039142378333 0.0 0.0
0.0 0.00045681851633577346 0.0002498032276097436 -0.00019677903489893634 -5.302419271080717e-05 0.0004663552116404205 0.0 0.0
0.0 2.6428758389957467e-05 -1.118693770263916e-06 1.7728069359541344e-06 -6.541131656901929e-07 1.1257550615054898e-05 0.0 0.0
0.0 -1.835656336962403e-05 -5.445244217760064e-06 4.463274346367918e-06 9.819698713921114e-07 -1.710676493296223e-05 0.0 0.0
0.0 -2.9498763813666243e-06 -9.10401593767092e-07 7.026842588559926e-07 2.0771733491111112e-07 -5.45939644677693e-06 0.0 0.0
0.0 1.751186109882542e-06 -1.162971572337093e-08 7.150293491276846e-09 4.479422232094953e-09 -3.6121932794506737e-07 0.0 0.0
0.0 2.112278074978371e-06 -2.0642889486199333e-09 1.093043171278356e-08 -8.866142764163054e-09 -4.608472844053425e-07 0.0 0.0
0.0 6.512087967898999e-06 -5.663357113343786e-06 3.4049473301768965e-05 -2.838611618842507e-05 0.00010208150280565991 0.0 0.0
0.0 0.0009300419717467086 0.0005314834294070324 -0.0007741719342278464 0.00024268850482081315 0.000593315923367196 0.0 0.0
0.0 0.0003839014316883465 0.0001817544604885639 -0.0002665931207136417 8.483866022507794e-05 -0.00024872814916649625 0.0 0.0
0.0 -3.9517366369572864e-05 -2.153981732055144e-05 3.219937236669765e-05 -1.0659555046146205e-05 2.4722951539451353e-05 0.0 0.0
0.0 3.817223197661916e-07 5.344429641332711e-10 -2.0554662548518438e-10 -3.2889633864698833e-10 6.469225759429495e-08 0.0 0.0
0.0 3.4922349768272484e-07 7.149934450520661e-09 -8.350640461121768e-09 1.2007060105989748e-09 1.856326986994273e-07 0.0 0.0
0.0 -2.3219039239500488e-06 -2.480789527527149e-07 1.8543086208116425e-07 6.264809067155906e-08 4.237936648566642e-06 0.0 0.0
0.0 -1.0052799215427503e-05 -3.1073375928000623e-06 2.5195029486147e-06 5.878346441853348e-07 2.224440808124447e-05 0.0 0.0
0.0 2.109374325053305e-05 -2.775453750613265e-06 2.4144294939183293e-06 3.6102425669496144e-07 -1.4854094589669477e-05 0.0 0.0
0.0 0.00012249161736636345 1.032328510280358e-05 -8.752828456862497e-06 -1.5704566459411444e-06 -0.00017848931334860595 0.0 0.0
0.0 0.0004574151462185583 0.00015280515498912914 -0.00013380654578840645 -1.89986092007225e-05 -0.000667697519627531 0.0 0.0
0.0 0.0012214720996779791 0.0006003286379914258 -0.0005346943194910774 -6.563431850034937e-05 -0.0015682626930237035 0.0 0.0
0.0 0.0025945816402798746 0.0014312449213097684 -0.0012851872189500765 -0.00014605770235969078 -0.0027917189070123 0.0 0.0
0.0 0.004036605637073908 0.002515882653291933 -0.002288769354861854 -0.00022711329843008152 -0.004196805404588766 0.0 0.0
0.0 0.005797776544112435 0.00373913001730487 -0.00343664041419079 -0.00030248960311407596 -0.005652514898974653 0.0 0.0
0.0 0.007805945850926962 0.00512586956497602 -0.004755354595370095 -0.00037051496960592415 -0.007161939050343138 0.0 0.0
0.0 0.010080934911620277 0.006743340357593112 -0.006309816073236464 -0.00043352428435664263 -0.008731905451011268 0.0 0.0
0.0 0.01276323121370682 0.00869544253839195 -0.008200969136912614 -0.0004944734014793367 -0.010365669857965264 0.0 0.0
0.0 0.01602866398224694 0.011122601587764331 -0.010565027435947855 -0.0005575741518164734 -0.011972922890553152 0.0 0.0
0.0 0.019952479651146764 0.014157751557930465 -0.013536937780776177 -0.0006208137771542881 -0.013149768019714306 0.0 0.0
0.0 0.0244591445238653 0.017995566639778547 -0.017305266394842905 -0.0006903002449356582 -0.013296216401488092 0.0 0.0
0.0 0.030316698029752346 0.02328344928935034 -0.022468099208550273 -0.0008153500808000362 -0.012464596151690061 0.0 0.0
0.0 0.03906775993164507 0.028064224705052012 -0.028404643888718908 0.0003404191836668747 1.0706713293728853e-14 0.0 0.0
0.0 0.030316698029756717 0.023283449289348307 -0.022468099208548014 -0.0008153500808003138 0.012464596151719402 0.0 0.0
0.0 0.024459144523859312 0.01799556663977107 -0.017305266394835185 -0.0006903002449358953 0.013296216401514425 0.0 0.0
0.0 0.01995247965113433 0.01415775155792113 -0.013536937780766622 -0.0006208137771545169 0.01314976801972336 0.0 0.0
0.0 0.016028663982233054 0.011122601587755835 -0.010565027435940169 -0.0005575741518156701 0.01197292289054764 0.0 0.0
0.0 0.012763231213695592 0.008695442538384321 -0.008200969136905056 -0.0004944734014792664 0.010365669857956013 0.0 0.0
0.0 0.010080934911613099 0.00674334035758795 -0.006309816073231064 -0.00043352428435688945 0.0087319054510053 0.0 0.0
0.0 0.007805945850920015 0.005125869564971669 -0.004755354595366333 -0.00037051496960533993 0.007161939050339384 0.0 0.0
0.0 0.005797776544101941 0.0037391300172984845 -0.0034366404141846635 -0.0003024896031138181 0.005652514898966196 0.0 0.0
0.0 0.004036605637063354 0.002515882653285605 -0.0022887693548559037 -0.00022711329842970066 0.0041968054045779975 0.0 0.0
0.0 0.0025945816402716208 0.0014312449213052711 -0.0012851872189457777 -0.0001460577023594926 0.0027917189070032302 0.0 0.0
0.0 0.001221472099672298 0.0006003286379885112 -0.0005346943194883104 -6.563431850020073e-05 0.0015682626930185435 0.0 0.0
0.0 0.0004574151462166584 0.00015280515498828693 -0.0001338065457876577 -1.899860920062893e-05 0.0006676975196248667 0.0 0.0
0.0 0.00012249161736536165 1.032328510281465e-05 -8.752828456864801e-06 -1.57045664594994e-06 0.00017848931334752687 0.0 0.0
0.0 2.109374324942805e-05 -2.7754537506033205e-06 2.414429493906526e-06 3.610242566968027e-07 1.485409458937715e-05 0.0 0.0
0.0 -1.0052799216372405e-05 -3.1073375927181233e-06 2.5195029485530218e-06 5.878346441651004e-07 -2.2244408080373695e-05 0.0 0.0
0.0 -2.32190392419765e-06 -2.4807895274753547e-07 1.854308620836851e-07 6.264809066384709e-08 -4.237936648196582e-06 0.0 0.0
0.0 3.492234970549567e-07 7.14993445268051e-09 -8.350640464452523e-09 1.2007060117728334e-09 -1.8563269888136888e-07 0.0 0.0
0.0 3.81722319524631e-07 5.344429615921697e-10 -2.055466241082511e-10 -3.2889633748790273e-10 -6.469225748920948e-08 0.0 0.0
0.0 -3.9517366369769986e-05 -2.1539817320250455e-05 3.219937236629302e-05 -1.065955504604255e-05 -2.472295153883504e-05 0.0 0.0
0.0 0.0003839014316846364 0.00018175446048697996 -0.00026659312071137853 8.483866022439827e-05 0.00024872814916435213 0.0 0.0
0.0 4.3353937178374655e-05 2.5954687940520135e-05 -3.9475456190889145e-05 1.3520768250368977e-05 -4.148112635252851e-05 0.0 0.0
0.0 -7.157026708534783e-06 -4.398610385386342e-06 6.283815771461132e-06 -1.8852053860747788e-06 8.4468135012653e-06 0.0 0.0
0.0 4.042788035215335e-06 2.318959063402778e-08 -2.705452175654161e-09 -2.0484138458379024e-08 1.0767517035380417e-06 0.0 0.0
0.0 6.352146453081034e-07 6.059786018220424e-08 -5.542967695249239e-08 -5.1681832297083894e-09 9.940381906249138e-07 0.0 0.0
0.0 -1.7907828356734661e-06 5.99166861726493e-08 -5.367934304451015e-08 -6.237343128139265e-09 3.2354191770480174e-06 0.0 0.0
0.0 -6.952931071969617e-06 -3.7322398751501023e-07 3.9672846531319114e-07 -2.3504477798178356e-08 1.4525843537350378e-05 0.0 0.0
0.0 2.876558143953047e-05 -8.686428830710529e-07 8.499699859647378e-07 1.867289710630684e-08 -2.4446314484447363e-05 0.0 0.0
0.0 0.00011903459242671691 -7.241541666513464e-07 7.113664546301739e-07 1.278771202118562e-08 -0.00020235772791896896 0.0 0.0
0.0 0.00031041984280637876 -8.242489355209018e-08 7.684778533003364e-08 5.57710822206077e-09 -0.00045378941397623623 0.0 0.0
0.0 0.0005065645697296243 9.545210140418037e-08 -5.0246781227686837e-08 -4.5205320176520643e-08 -0.0008997620689807905 0.0 0.0
0.0 0.0008988101984419544 -1.7842473901984505e-07 -1.6383532832202102e-07 3.42260067341944e-07 -0.0015776932955608998 0.0 0.0
0.0 0.0012776673829202787 -2.5074371168183087e-06 3.809252354565796e-06 -1.3018152377472703e-06 -0.0026304459002153323 0.0 0.0
0.0 0.0019993719200498737 -9.374753140958488e-06 1.2129424484993615e-05 -2.7546713440346253e-06 -0.003931559994187974 0.0 0.0
0.0 0.00294695736500876 -2.3078606256189942e-05 2.6374393516032546e-05 -3.2957872598425635e-06 -0.005377782581359387 0.0 0.0
0.0 0.004059726198641889 -1.890223994919127e-06 -1.6577203128823807e-06 3.5479443078017246e-06 -0.006948803459807041 0.0 0.0
0.0 0.00530111493166021 0.0001584648628831339 -0.0001825597015572414 2.4094838674109493e-05 -0.008655785038155171 0.0 0.0
0.0 0.0067330082632463106 0.0006677289860716207 -0.0007344753513553976 6.674636528377652e-05 -0.010448199421885698 0.0 0.0
0.0 0.008303619321516315 0.001727793114710841 -0.0019090570385682957 0.0001812639238574499 -0.012174955597136963 0.0 0.0
0.0 0.010573959926087898 0.003086811396812227 -0.0034280079647766963 0.0003411965679644711 -0.013453631477908758 0.0 0.0
0.0 0.015520359386518393 0.006506504091369442 -0.006314129990452149 -0.00019237410091728992 -0.013537241609275826 0.0 0.0
0.0 0.027234391865046215 0.011887195208736951 -0.01273838516551602 0.0008511899567790639 9.569602055226056e-15 0.0 0.0
0.0 0.015520359386523713 0.006506504091368874 -0.006314129990451432 -0.0001923741009174344 0.013537241609296024 0.0 0.0
0.0 0.010573959926084292 0.003086811396809934 -0.003428007964774227 0.0003411965679642929 0.013453631477914552 0.0 0.0
0.0 0.008303619321507387 0.0017277931147095314 -0.0019090570385664604 0.00018126392385693087 0.012174955597132357 0.0 0.0
0.0 0.0067330082632369335 0.0006677289860707346 -0.0007344753513538382 6.674636528310516e-05 0.01044819942187537 0.0 0.0
0.0 0.005301114931655961 0.00015846486288312138 -0.00018255970155686918 2.4094838673749782e-05 0.008655785038147401 0.0 0.0
0.0 0.004059726198635559 -1.8902239922547002e-06 -1.6577203159991367e-06 3.5479443082525223e-06 0.006948803459799609 0.0 0.0
0.0 0.002946957365004557 -2.3078606254919637e-05 2.63743935149587e-05 -3.2957872600383975e-06 0.005377782581353777 0.0 0.0
0.0 0.001999371920039941 -9.374753138882079e-06 1.2129424482541204e-05 -2.7546713436591254e-06 0.0039315599941736265 0.0 0.0
0.0 0.0012776673829157288 -2.5074371173670776e-06 3.8092523552905172e-06 -1.301815237923819e-06 0.0026304459002084017 0.0 0.0
0.0 0.0008988101984378096 -1.784247392249761e-07 -1.6383532831962223e-07 3.4226006754462543e-07 0.0015776932955531265 0.0 0.0
0.0 0.000506564569729778 9.545210131361222e-08 -5.0246781167517004e-08 -4.520532014594953e-08 0.0008997620689799824 0.0 0.0
0.0 0.0003104198428052915 -8.242489349465266e-08 7.684778528142062e-08 5.5771082131676655e-09 0.00045378941397483284 0.0 0.0
0.0 0.00011903459242595705 -7.241541666547774e-07 7.113664546588046e-07 1.2787711995969403e-08 0.00020235772791762837 0.0 0.0
0.0 2.876558143837136e-05 -8.68642883105209e-07 8.499699859995651e-07 1.867289710566214e-08 2.4446314484539263e-05 0.0 0.0
0.0 -6.952931071921805e-06 -3.7322398753141694e-07 3.9672846532768367e-07 -2.350447779627252e-08 -1.4525843536575599e-05 0.0 0.0
0.0 -1.7907828356600718e-06 5.99166861311536e-08 -5.367934300643589e-08 -6.237343124714555e-09 -3.235419176088771e-06 0.0 0.0
0.0 6.35214645433263e-07 6.059786011107576e-08 -5.5429676889422774e-08 -5.168183221654094e-09 -9.940381895037945e-07 0.0 0.0
0.0 4.042788034434098e-06 2.3189590657247744e-08 -2.7054521945259825e-09 -2.04841384627118e-08 -1.0767517039352898e-06 0.0 0.0
0.0 -7.157026709351177e-06 -4.3986103853858426e-06 6.283815771461122e-06 -1.8852053860752957e-06 -8.446813501164655e-06 0.0 0.0
0.0 4.335393717785009e-05 2.595468794070086e-05 -3.947545619113912e-05 1.3520768250438393e-05 4.148112635310528e-05 0.0 0.0
0.0 -6.840829059285371e-07 -1.1150546951975978e-06 1.6206629690723665e-06 -5.056082738747818e-07 2.3342862410174097e-06 0.0 0.0
0.0 -9.572009452340411e-08 1.6301526768272414e-07 -2.2793882653016842e-07 6.492355884744644e-08 -1.1324401012624567e-07 0.0 0.0
0.0 1.2289722158296164e-07 2.4921678120560442e-08 -3.3661311516687487e-08 8.739633396126713e-09 -2.6576680168691e-07 0.0 0.0
0.0 9.700390857695572e-07 1.3420686035506382e-07 -1.1742362403243533e-07 -1.6783236322630126e-08 5.397200779586513e-07 0.0 0.0
0.0 -1.2080861561131855e-06 -3.717615967896424e-08 2.4440125607608413e-08 1.2736034071357741e-08 -2.1621745865451046e-07 0.0 0.0
0.0 -4.975594751776388e-06 5.409383594081998e-07 -2.8058628245322416e-07 -2.603520769549402e-07 5.165344003278539e-06 0.0 0.0
0.0 4.0113223793368264e-05 2.25822240606301e-06 -1.6191983191370032e-06 -6.390240869260553e-07 -1.4137196355846791e-05 0.0 0.0
0.0 0.0001321660910359577 -1.3022425545612147e-05 1.1195398603729973e-05 1.8270269418821542e-06 -0.0001853066736850385 0.0 0.0
0.0 0.0004589606779216726 -0.0001537338800303132 0.0001345650036080796 1.9168876422233425e-05 -0.0006715556062947225 0.0 0.0
0.0 0.0012191908255111497 -0.000599155351194211 0.0005336179769707122 6.553737422349958e-05 -0.0015674300320204842 0.0 0.0
0.0 0.002602500295980064 -0.0014285856740523697 0.0012832879699324362 0.00014529770411993251 -0.002787002167361206 0.0 0.0
0.0 0.004060430869027155 -0.0025282895702524143 0.0022990164698851096 0.00022927310036730336 -0.0041980684258216714 0.0 0.0
0.0 0.0058414227137875575 -0.0037769526383334773 0.0034702238369616186 0.00030672880137186013 -0.005654977299271012 0.0 0.0
0.0 0.007870194889709073 -0.005184953665153806 0.004812068519389104 0.0003728851457647027 -0.007160337593672871 0.0 0.0
0.0 0.010040103699193052 -0.006727921350816608 0.006309038597142254 0.00041888275367435327 -0.008741879513115697 0.0 0.0
0.0 0.012272830899175642 -0.00826355919106177 0.007829930202812618 0.0004336289882491596 -0.010466181387408515 0.0 0.0
0.0 0.014247731722371681 -0.009498512707561411 0.00908983274171193 0.0004086799658494844 -0.012392063502872733 0.0 0.0
0.0 0.015767504470776877 -0.009999215310212573 0.009673756087312243 0.00032545922290032624 -0.014564378882449523 0.0 0.0
0.0 0.015942984098773063 -0.00924164327196068 0.009090665484770801 0.00015097778718988695 -0.01694227193609064 0.0 0.0
0.0 0.013078130417478632 -0.006675175805932931 0.0068715603842051535 -0.00019638457827221665 -0.018703288947810315 0.0 0.0
0.0 0.026110066867102377 -0.0036191662143532557 0.001577063770622017 0.002042102443731237 1.201816424156732e-14 0.0 0.0
0.0 0.013078130417485056 -0.006675175805934233 0.006871560384206421 -0.0001963845782721806 0.018703288947825046 0.0 0.0
0.0 0.015942984098768997 -0.009241643271956812 0.009090665484767384 0.0001509777871894292 0.016942271936100442 0.0 0.0
0.0 0.015767504470766115 -0.00999921531020472 0.009673756087304303 0.00032545922290041384 0.014564378882451086 0.0 0.0
0.0 0.014247731722357358 -0.009498512707551511 0.009089832741701881 0.00040867996584962804 0.012392063502864042 0.0 0.0
0.0 0.01227283089915987 -0.008263559191050505 0.007829930202801011 0.0004336289882494954 0.01046618138739659 0.0 0.0
0.0 0.01004010369918221 -0.006727921350807453 0.006309038597134239 0.00041888275367321843 0.008741879513107427 0.0 0.0
0.0 0.007870194889696154 -0.005184953665143874 0.004812068519379387 0.00037288514576448706 0.007160337593664358 0.0 0.0
0.0 0.005841422713769804 -0.0037769526383201867 0.003470223836949245 0.0003067288013709408 0.0056549772992592305 0.0 0.0
0.0 0.004060430869014469 -0.002528289570243783 0.0022990164698772596 0.0002292731003665225 0.004198068425810053 0.0 0.0
0.0 0.0026025002959653037 -0.001428585674043342 0.0012832879699242945 0.00014529770411904623 0.00278700216734789 0.0 0.0
0.0 0.0012191908255019279 -0.0005991553511890953 0.0005336179769660084 6.553737422308737e-05 0.0015674300320129661 0.0 0.0
0.0 0.0004589606779190981 -0.00015373388002904584 0.00013456500360697134 1.916887642207464e-05 0.0006715556062922667 0.0 0.0
0.0 0.00013216609103373035 -1.302242554520319e-05 1.1195398603388435e-05 1.827026941814798e-06 0.00018530667368242773 0.0 0.0
0.0 4.011322379239405e-05 2.2582224058833415e-06 -1.6191983189928977e-06 -6.39024086890449e-07 1.4137196356277162e-05 0.0 0.0
0.0 -4.975594752780002e-06 5.409383592841964e-07 -2.80586282352066e-07 -2.603520769321307e-07 -5.165344002317611e-06 0.0 0.0
0.0 -1.208086156099086e-06 -3.717615977967566e-08 2.4440125693863472e-08 1.2736034085807892e-08 2.1621745954223958e-07 0.0 0.0
0.0 9.700390859104738e-07 1.3420686025210874e-07 -1.1742362394734109e-07 -1.6783236304766618e-08 -5.397200769831097e-07 0.0 0.0
0.0 1.2289722130030968e-07 2.4921678097642643e-08 -3.366131151090222e-08 8.739633413254932e-09 2.6576680251533095e-07 0.0 0.0
0.0 -9.572009446423079e-08 1.6301526769021858e-07 -2.2793882655842298e-07 6.492355886820789e-08 1.1324401024555037e-07 0.0 0.0
0.0 -6.840829068879688e-07 -1.115054695236223e-06 1.6206629691253194e-06 -5.056082738891161e-07 -2.3342862411018144e-06 0.0 0.0
0.0 0.0 0.0 0.0 0.0 0.0 0.0 0.0
0.0 1.230401660347419e-06 5.7970762725636765e-09 1.1770416106448926e-08 -1.7567492379018464e-08 2.2944491526424025e-07 0.0 0.0
0.0 1.1292340281898193e-07 1.1616700922056001e-07 -9.201573017339165e-08 -2.415127904717709e-08 9.008293112974994e-07 0.0 0.0
0.0 1.4303681081644426e-06 -4.878198755675328e-07 3.960867776979314e-07 9.173309786958957e-08 -3.2159741641495056e-06 0.0 0.0
0.0 1.7508327707566741e-06 2.5003260461642734e-06 -2.078526039299107e-06 -4.218000068651078e-07 1.2341801333771653e-05 0.0 0.0
0.0 6.354608532900736e-06 7.029412173557107e-06 -5.559455506281369e-06 -1.4699566672757255e-06 2.2282540830004436e-05 0.0 0.0
0.0 3.4151160536400924e-05 -1.2519267229776014e-05 9.604203824267922e-06 2.915063405508159e-06 -6.166290838695812e-05 0.0 0.0
0.0 0.0004721942676839585 -0.0002563513698069874 0.00020248558643991998 5.3865783367066975e-05 -0.0004816847871361472 0.0 0.0
0.0 0.0015268855018820185 -0.0010781676818145158 0.000883483747233212 0.0001946839345813044 -0.0014971105276019847 0.0 0.0
0.0 0.0034913624271325078 -0.0025370407712015605 0.0021802496683220336 0.00035679110287952447 -0.0029243263080712964 0.0 0.0
0.0 0.005859372871825106 -0.004499424917978437 0.004014345513305491 0.00048507940467294936 -0.004695006430600047 0.0 0.0
0.0 0.008789770148803286 -0.006793445215951926 0.006218292827467882 0.0005751523884840447 -0.0065385774557371575 0.0 0.0
0.0 0.011997722659462319 -0.009360965212893951 0.008712233148031049 0.0006487320648629019 -0.00836577729133742 0.0 0.0
0.0 0.015540982037680765 -0.012234077550856268 0.01152791643886762 0.0007061611119886539 -0.010157803809688403 0.0 0.0
0.0 0.019497851903453958 -0.01541641580397739 0.01466907738361781 0.0007473384203595657 -0.0119977494092064 0.0 0.0
0.0 0.023732270975844384 -0.018773940997788674 0.018006808657062136 0.0007671323407265211 -0.014083082017513767 0.0 0.0
0.0 0.027831836805780212 -0.021963549592242823 0.021198702255740658 0.0007648473365021741 -0.01663707513704675 0.0 0.0
0.0 0.03104663878989416 -0.024444902245349533 0.023701306545433544 0.0007435956999159992 -0.019771762258450072 0.0 0.0
0.0 0.03275449405290922 -0.02522451260946044 0.024557483328949817 0.0006670292805106275 -0.02287224216426934 0.0 0.0
0.0 0.030372075763064162 -0.02229096995651597 0.021756153049209418 0.0005348169073065464 -0.02349566572838148 0.0 0.0
0.0 0.03213464045820826 -0.017711207555561416 0.014867079396475247 0.0028441281590861514 1.3846562785246874e-14 0.0 0.0
0.0 0.03037207576307337 -0.02229096995651654 0.021756153049210344 0.0005348169073061794 0.02349566572841304 0.0 0.0
0.0 0.03275449405290548 -0.025224512609452725 0.024557483328942184 0.0006670292805105429 0.022872242164296747 0.0 0.0
0.0 0.03104663878987575 -0.02444490224533319 0.023701306545417352 0.0007435956999158292 0.019771762258458912 0.0 0.0
0.0 0.02783183680575542 -0.021963549592222888 0.02119870225572064 0.0007648473365022329 0.016637075137040137 0.0 0.0
0.0 0.023732270975820823 -0.01877394099776931 0.018006808657043443 0.0007671323407258791 0.01408308201750193 0.0 0.0
0.0 0.019497851903434477 -0.01541641580396154 0.014669077383602515 0.000747338420359026 0.011997749409196064 0.0 0.0
0.0 0.015540982037658326 -0.012234077550837108 0.011527916438848703 0.0007061611119883982 0.010157803809677388 0.0 0.0
0.0 0.011997722659440697 -0.009360965212876321 0.00871223314801412 0.0006487320648621962 0.008365777291326754 0.0 0.0
0.0 0.008789770148781052 -0.006793445215935038 0.006218292827451504 0.0005751523884835346 0.00653857745572172 0.0 0.0
0.0 0.005859372871803588 -0.004499424917962016 0.004014345513289575 0.0004850794046724436 0.004695006430582534 0.0 0.0
0.0 0.0034913624271166407 -0.002537040771189697 0.0021802496683113477 0.00035679110287834925 0.0029243263080598954 0.0 0.0
0.0 0.0015268855018736064 -0.0010781676818083332 0.000883483747228078 0.0001946839345802552 0.0014971105275959737 0.0 0.0
0.0 0.00047219426768027627 -0.0002563513698048745 0.0002024855864383496 5.386578336652464e-05 0.00048168478713255566 0.0 0.0
0.0 3.415116053457738e-05 -1.251926722965796e-05 9.604203824151008e-06 2.915063405506937e-06 6.166290838638141e-05 0.0 0.0
0.0 6.354608532409026e-06 7.029412173218136e-06 -5.5594555060094665e-06 -1.469956667208766e-06 -2.2282540828999597e-05 0.0 0.0
0.0 1.7508327696465792e-06 2.500326046054906e-06 -2.078526039210059e-06 -4.2180000684483966e-07 -1.2341801333232821e-05 0.0 0.0
0.0 1.430368107454193e-06 -4.878198756183976e-07 3.960867777390207e-07 9.173309787938308e-08 3.2159741645149135e-06 0.0 0.0
0.0 1.129234019543122e-07 1.161670092191597e-07 -9.201573017375906e-08 -2.4151279045395962e-08 -9.00829311315618e-07 0.0 0.0
0.0 1.2304016600227803e-06 5.797076271763773e-09 1.1770416107172644e-08 -1.7567492378939028e-08 -2.294449152709983e-07 0.0 0.0
0.0 0.0 0.0 0.0 0.0 0.0 0.0 0.0
0.0 0.0 0.0 0.0 0.0 0.0 0.0 0.0
0.0 -4.0259822338143506e-07 -5.708835510017592e-09 2.086954577271083e-09 3.62188093274714e-09 -8.212924992018442e-08 0.0 0.0
0.0 1.2962158600879967e-06 6.712692576000606e-08 -4.6492734397575904e-08 -2.0634191362425456e-08 4.6420788844126977e-07 0.0 0.0
0.0 1.0928783704906886e-06 8.403544625809084e-07 -6.968911713637209e-07 -1.4346329121718744e-07 3.0117107975386054e-06 0.0 0.0
0.0 8.981069888237783e-07 2.0884028715789717e-06 -1.6555223577577863e-06 -4.3288051382122195e-07 4.689933281824673e-06 0.0 0.0
0.0 -9.065326555484136e-06 -1.4046243251508347e-06 9.44626147864688e-07 4.5999817728619644e-07 -1.1528660829445251e-05 0.0 0.0
0.0 0.00023915499198443995 -0.0001362639779355279 0.00010328957295373194 3.297440498179591e-05 -0.00017789916606051722 0.0 0.0
0.0 0.001101984406969477 -0.0008821246988901296 0.0006978743938113898 0.00018425030507873913 -0.0009455737386917521 0.0 0.0
0.0 0.003086880882549665 -0.0024688098710578116 0.002074615198773426 0.00039419467228438447 -0.0022718672141349722 0.0 0.0
0.0 0.006296638212681555 -0.004871613891914903 0.004315151171227047 0.000556462720687859 -0.004137037758544673 0.0 0.0
0.0 0.009761860634133805 -0.007902980243859924 0.007241724316162322 0.0006612559276975959 -0.006291086133913426 0.0 0.0
0.0 0.01391149457816968 -0.011372775560070183 0.010635171424521798 0.0007376041355483814 -0.008424594184548634 0.0 0.0
0.0 0.01860215981530561 -0.015246472483674601 0.014440867247842309 0.0008056052358322981 -0.010466989079061788 0.0 0.0
0.0 0.02377894392086733 -0.019588664548720942 0.018722081457482713 0.0008665830912382137 -0.012461088787829628 0.0 0.0
0.0 0.029633615837510868 -0.02443609722242634 0.023520991557123123 0.0009151056653032307 -0.014557883820842454 0.0 0.0
0.0 0.03585766732698649 -0.029672195678162497 0.028730472566804305 0.0009417231113581604 -0.017053730726693857 0.0 0.0
0.0 0.04239998137320257 -0.03489069394806685 0.0339494497498566 0.0009412441982102497 -0.020374629795756813 0.0 0.0
0.0 0.04791065018338658 -0.039260212281013424 0.038363077688808075 0.0008971345922053063 -0.024587551938080744 0.0 0.0
0.0 0.05082266956124323 -0.041233042282130844 0.040431382998099265 0.000801659284031567 -0.0285365654489287 0.0 0.0
0.0 0.04769243692758839 -0.03800926457622768 0.03742631982219355 0.0005829447540341346 -0.029769769765290232 0.0 0.0
0.0 0.04496502210402282 -0.03166388527316684 0.02808600020732585 0.0035778850658409983 1.6361044463675256e-14 0.0 0.0
0.0 0.04769243692759145 -0.03800926457622351 0.03742631982218962 0.0005829447540339077 0.02976976976532593 0.0 0.0
0.0 0.05082266956123834 -0.04123304228212085 0.04043138299808965 0.0008016592840311596 0.028536565448965465 0.0 0.0
0.0 0.047910650183364906 -0.039260212280992655 0.03836307768878819 0.0008971345922044652 0.024587551938096794 0.0 0.0
0.0 0.04239998137317239 -0.03489069394804124 0.03394944974983096 0.0009412441982103155 0.02037462979575465 0.0 0.0
0.0 0.03585766732695465 -0.029672195678135838 0.02873047256677806 0.0009417231113577602 0.017053730726681458 0.0 0.0
0.0 0.02963361583747837 -0.024436097222399367 0.023520991557096627 0.0009151056653027567 0.01455788382082852 0.0 0.0
0.0 0.023778943920837167 -0.01958866454869528 0.018722081457457206 0.0008665830912380544 0.012461088787818562 0.0 0.0
0.0 0.018602159815274442 -0.015246472483648894 0.014440867247816626 0.0008056052358322558 0.010466989079048812 0.0 0.0
0.0 0.013911494578138825 -0.011372775560045406 0.010635171424497776 0.0007376041355476294 0.008424594184530646 0.0 0.0
0.0 0.00976186063410529 -0.007902980243837187 0.007241724316140033 0.0006612559276971508 0.006291086133894853 0.0 0.0
0.0 0.006296638212660974 -0.004871613891898537 0.004315151171211603 0.0005564627206869354 0.004137037758531184 0.0 0.0
0.0 0.003086880882535894 -0.002468809871047122 0.00207461519876395 0.00039419467228316745 0.0022718672141269405 0.0 0.0
0.0 0.0011019844069635129 -0.000882124698885667 0.0006978743938077683 0.0001842503050778998 0.0009455737386877428 0.0 0.0
0.0 0.00023915499198076386 -0.00013626397793356498 0.00010328957295222216 3.297440498134284e-05 0.00017789916605783504 0.0 0.0
0.0 -9.06532655601233e-06 -1.4046243256051408e-06 9.44626148217016e-07 4.599981773881499e-07 1.152866083040559e-05 0.0 0.0
0.0 8.981069884801816e-07 2.0884028713460305e-06 -1.6555223575667503e-06 -4.32880513779282e-07 -4.689933280970529e-06 0.0 0.0
0.0 1.092878369786503e-06 8.403544624396189e-07 -6.968911712515604e-07 -1.4346329118805528e-07 -3.01171079676921e-06 0.0 0.0
0.0 1.296215859687964e-06 6.712692578611767e-08 -4.649273442021593e-08 -2.0634191365908065e-08 -4.642078885879391e-07 0.0 0.0
0.0 -4.025982233362702e-07 -5.708835509426125e-09 2.086954577233801e-09 3.6218809321944536e-09 8.212924991066692e-08 0.0 0.0
0.0 0.0 0.0 0.0 0.0 0.0 0.0 0.0
0.0 0.0 0.0 0.0 0.0 0.0 0.0 0.0
0.0 0.0 0.0 0.0 0.0 0.0 0.0 0.0
0.0 -3.327481570650355e-07 -1.482533182699559e-08 1.1836042148116669e-08 2.989289678877303e-09 -6.260562439208767e-08 0.0 0.0
0.0 -1.6610231380373498e-06 -5.1062329547411784e-08 4.7676341650795506e-08 3.385987896626563e-09 -1.2529239591276346e-07 0.0 0.0
0.0 -2.210429927144168e-06 7.411409115646726e-06 -5.9934434122944265e-06 -1.4179657033522937e-06 1.593401463800562e-05 0.0 0.0
0.0 5.925530394736331e-05 -1.7050620562036925e-05 1.1724057218432776e-05 5.326563343604064e-06 -8.811093542403879e-06 0.0 0.0
0.0 0.0005622977130235322 -0.0004564192464207191 0.0003493416414500683 0.0001070776049706507 -0.00039504141793497596 0.0 0.0
0.0 0.0020857378373775855 -0.001759765989044048 0.001427542397245978 0.00033222359179806973 -0.00130344371790762 0.0 0.0
0.0 0.00521040692876487 -0.004112392235292905 0.0035639573862246464 0.0005484348490682579 -0.0028732753080551073 0.0 0.0
0.0 0.008755507264696967 -0.0074440398620215335 0.006756237463640254 0.0006878023983812822 -0.004996997115713124 0.0 0.0
0.0 0.01369925699783295 -0.011475910133764849 0.01070129153604518 0.0007746185977196657 -0.007251713137569463 0.0 0.0
0.0 0.01920046171272886 -0.016094411034924077 0.015247874339948977 0.0008465366949750889 -0.009474074404909959 0.0 0.0
0.0 0.02532665770487145 -0.021276867169410015 0.020358693061379423 0.0009181741080306034 -0.011604816857461116 0.0 0.0
0.0 0.03219058471571455 -0.027096229618653645 0.026108278623794334 0.000987950994859274 -0.01370362005824368 0.0 0.0
0.0 0.039821025142788666 -0.03362426557551598 0.03257673639501505 0.001047529180500921 -0.01591612493956279 0.0 0.0
0.0 0.04848549205882461 -0.04076862661831744 0.03968603154061876 0.0010825950776987205 -0.018618359850611187 0.0 0.0
0.0 0.05681256329318542 -0.0480381834381402 0.04696203535798392 0.001076148080156169 -0.022333120799389886 0.0 0.0
0.0 0.06464442116986019 -0.054234157044401377 0.0532260446678816 0.0010081123765198357 -0.027131720814083035 0.0 0.0
0.0 0.06887062418540178 -0.05718433603094182 0.0563236896261474 0.0008606464047943901 -0.03189063409358225 0.0 0.0
0.0 0.06492003461624296 -0.0532694123835216 0.05268787838839257 0.0005815339951290336 -0.03391231827716553 0.0 0.0
0.0 0.05899222286857994 -0.045320505896281636 0.04111809992865665 0.004202405967624927 1.771239405146119e-14 0.0 0.0
0.0 0.06492003461624157 -0.05326941238351397 0.05268787838838499 0.000581533995128986 0.033912318277205034 0.0 0.0
0.0 0.06887062418539167 -0.05718433603092758 0.056323689626133995 0.0008606464047936021 0.031890634093622604 0.0 0.0
0.0 0.06464442116983056 -0.05423415704437385 0.05322604466785416 0.00100811237651962 0.027131720814103307 0.0 0.0
0.0 0.056812563293145574 -0.04803818343810608 0.046962035357949176 0.0010761480801568936 0.022333120799388824 0.0 0.0
0.0 0.04848549205878176 -0.040768626618280984 0.03968603154058256 0.001082595077698407 0.018618359850599772 0.0 0.0
0.0 0.0398210251427454 -0.03362426557547906 0.03257673639497852 0.0010475291805005394 0.015916124939548592 0.0 0.0
0.0 0.032190584715674764 -0.027096229618619263 0.02610827862376054 0.000987950994858714 0.013703620058231633 0.0 0.0
0.0 0.025326657704827435 -0.02127686716937296 0.020358693061342394 0.000918174108030573 0.011604816857446038 0.0 0.0
0.0 0.019200461712690263 -0.016094411034891763 0.015247874339917125 0.0008465366949746372 0.009474074404891866 0.0 0.0
0.0 0.013699256997797282 -0.011475910133735294 0.010701291536015813 0.0007746185977194933 0.007251713137548648 0.0 0.0
0.0 0.008755507264670833 -0.007444039861999469 0.0067562374636189505 0.00068780239838052 0.004996997115697495 0.0 0.0
0.0 0.005210406928744352 -0.004112392235276917 0.0035639573862096905 0.0005484348490672306 0.0028732753080443875 0.0 0.0
0.0 0.0020857378373653414 -0.0017597659890344246 0.0014275423972376993 0.0003322235917967248 0.0013034437179008198 0.0 0.0
0.0 0.0005622977130172438 -0.00045641924641641425 0.00034934164144667337 0.00010707760496974076 0.00039504141793141365 0.0 0.0
0.0 5.925530394601001e-05 -1.705062056177391e-05 1.1724057218258873e-05 5.326563343514992e-06 8.81109354238606e-06 0.0 0.0
0.0 -2.2104299278552855e-06 7.411409115274465e-06 -5.993443411999726e-06 -1.4179657032747214e-06 -1.5934014637284257e-05 0.0 0.0
0.0 -1.661023138696368e-06 -5.1062329566016605e-08 4.767634166519989e-08 3.385987900833169e-09 1.2529239597414174e-07 0.0 0.0
0.0 -3.327481570925252e-07 -1.4825331828201173e-08 1.1836042148335524e-08 2.9892896798660335e-09 6.260562439504761e-08 0.0 0.0
0.0 0.0 0.0 0.0 0.0 0.0 0.0 0.0
0.0 0.0 0.0 0.0 0.0 0.0 0.0 0.0
0.0 0.0 0.0 0.0 0.0 0.0 0.0 0.0
0.0 0.0 0.0 0.0 0.0 0.0 0.0 0.0
0.0 -3.008317283811859e-07 -1.6894082401111415e-08 1.3667650964936457e-08 3.226431436173586e-09 -5.3084951058647605e-08 0.0 0.0
0.0 1.9351369407101275e-07 4.3896446163769526e-07 -3.5244988278627745e-07 -8.651457885139289e-08 1.0120893931461767e-06 0.0 0.0
0.0 -1.4104104844058203e-05 2.929116757273104e-06 -2.6612080070633453e-06 -2.6790875020977045e-07 6.197590012493977e-06 0.0 0.0
0.0 0.0001901048644606131 -0.00011315312745939104 8.30308116030058e-05 3.0122315856385284e-05 -6.075564137365876e-05 0.0 0.0
0.0 0.0010817279151502561 -0.0009317348744041393 0.0007248458572638287 0.00020688901714030976 -0.0005312683256853693 0.0 0.0
0.0 0.003523137349069276 -0.002825306027803222 0.002359006428746479 0.00046629959905674506 -0.0015361279583813703 0.0 0.0
0.0 0.006781741801917688 -0.005962344967430195 0.0052972471475956125 0.0006650978198345797 -0.0032557374981215526 0.0 0.0
0.0 0.011807591077055835 -0.010113981526771829 0.009334492263688012 0.0007794892630838275 -0.0053345611494785726 0.0 0.0
0.0 0.017721182273079644 -0.015132270041865476 0.014271852232937674 0.0008604178089277918 -0.007532283747732372 0.0 0.0
0.0 0.024510846893595607 -0.02090190504993456 0.019966364245843967 0.0009355408040906044 -0.009703787628622614 0.0 0.0
0.0 0.032145368598080475 -0.027400747560493325 0.026387200932849263 0.0010135466276440335 -0.011804556220341765 0.0 0.0
0.0 0.040779705961055505 -0.03470186228768335 0.03361045761048116 0.0010914046772022151 -0.013896481887055712 0.0 0.0
0.0 0.05030213346684654 -0.04290517797548225 0.041742290130067604 0.0011628878454146264 -0.0161028611055221 0.0 0.0
0.0 0.06071297368790893 -0.051941063146842714 0.05073345834361655 0.0012076048032261884 -0.018715754203432546 0.0 0.0
0.0 0.07190669975713888 -0.061210624571126054 0.06001719828938238 0.0011934262817436527 -0.02229406485102661 0.0 0.0
0.0 0.08139872640320482 -0.06917436537822819 0.0680808242777455 0.0010935411004825907 -0.02719305166362425 0.0 0.0
0.0 0.08620380909162731 -0.0729877867070374 0.07209427056161762 0.0008935161454197663 -0.03261426134766972 0.0 0.0
0.0 0.08178244674478036 -0.06836738033627725 0.06779274415633868 0.0005746361799385686 -0.03651426605419972 0.0 0.0
0.0 0.07411575998227575 -0.059005733362939086 0.054246446349062186 0.004759287013876926 1.7702853072343316e-14 0.0 0.0
0.0 0.0817824467447766 -0.0683673803362681 0.06779274415632981 0.0005746361799382638 0.036514266054240394 0.0 0.0
0.0 0.08620380909160517 -0.07298778670701424 0.07209427056159426 0.000893516145419983 0.03261426134770892 0.0 0.0
0.0 0.08139872640316667 -0.06917436537819374 0.06808082427771067 0.0010935411004830162 0.027193051663645156 0.0 0.0
0.0 0.07190669975709063 -0.061210624571084386 0.06001719828934027 0.0011934262817440248 0.02229406485102666 0.0 0.0
0.0 0.060712973687857136 -0.051941063146798014 0.05073345834357247 0.001207604803225577 0.0187157542034231 0.0 0.0
0.0 0.050302133466795185 -0.04290517797543817 0.04174229013002383 0.0011628878454143753 0.01610286110551069 0.0 0.0
0.0 0.04077970596100623 -0.034701862287640245 0.03361045761043926 0.0010914046772009568 0.013896481887042839 0.0 0.0
0.0 0.032145368598029196 -0.02740074756044944 0.026387200932805246 0.001013546627644156 0.011804556220327524 0.0 0.0
0.0 0.024510846893544408 -0.020901905049891395 0.019966364245800845 0.0009355408040905431 0.00970378762860332 0.0 0.0
0.0 0.017721182273036342 -0.015132270041829104 0.014271852232901568 0.0008604178089275247 0.0075322837477116815 0.0 0.0
0.0 0.011807591077021697 -0.01011398152674296 0.009334492263659714 0.000779489263083252 0.005334561149462363 0.0 0.0
0.0 0.006781741801893667 -0.005962344967408665 0.005297247147575062 0.0006650978198336032 0.0032557374981096628 0.0 0.0
0.0 0.0035231373490522363 -0.0028253060277895997 0.0023590064287343 0.0004662995990552992 0.0015361279583738382 0.0 0.0
0.0 0.0010817279151421346 -0.0009317348743977118 0.00072484585725873 0.00020688901713898232 0.0005312683256814267 0.0 0.0
0.0 0.00019010486445762475 -0.00011315312745791368 8.303081160189731e-05 3.0122315856016256e-05 6.075564137281797e-05 0.0 0.0
0.0 -1.4104104844025608e-05 2.9291167565596866e-06 -2.6612080064944467e-06 -2.679087500652714e-07 -6.197590011283119e-06 0.0 0.0
0.0 1.9351369325545253e-07 4.389644616778651e-07 -3.5244988281967246e-07 -8.6514578858188e-08 -1.0120893932006028e-06 0.0 0.0
0.0 -3.0083172820327663e-07 -1.6894082390560128e-08 1.3667650956397697e-08 3.226431434162971e-09 5.3084951026648725e-08 0.0 0.0
0.0 0.0 0.0 0.0 0.0 0.0 0.0 0.0
0.0 0.0 0.0 0.0 0.0 0.0 0.0 0.0
0.0 0.0 0.0 0.0 0.0 0.0 0.0 0.0
0.0 0.0 0.0 0.0 0.0 0.0 0.0 0.0
0.0 -1.680433764396781e-07 -1.0793184899027673e-08 8.54508648894806e-09 2.2480984100807976e-09 -2.827633481288059e-08 0.0 0.0
0.0 -1.4143155194377301e-06 1.4169312748688672e-07 -1.1195417718497554e-07 -2.973895030194007e-08 4.0727946775230523e-07 0.0 0.0
0.0 6.4251513014186835e-06 8.2005563118113e-06 -7.616888776798113e-06 -5.836675350131175e-07 1.654922797596439e-05 0.0 0.0
0.0 0.00034130921048050513 -0.0003312579070369077 0.0002476874878237042 8.357041921320343e-05 -0.00014524017594521043 0.0 0.0
0.0 0.0019375210249042267 -0.001543587257430845 0.0012288149434477064 0.0003147723139831387 -0.0005866455955637417 0.0 0.0
0.0 0.0045828574877723625 -0.004080867276059765 0.0034999028474920098 0.000580964428567754 -0.0016628787335939848 0.0 0.0
0.0 0.008991471120819276 -0.007882299221107336 0.007133400024041254 0.0007488991970660849 -0.0032581320905727598 0.0 0.0
0.0 0.01478606154170702 -0.012844498213145188 0.011992814489725452 0.0008516837234197436 -0.005143035657960512 0.0 0.0
0.0 0.021810858069035557 -0.01883743171109129 0.01790405033700963 0.0009333813740816482 -0.007159550461662171 0.0 0.0
0.0 0.02992818069868248 -0.02575781391490704 0.02474350497482971 0.0010143089400773213 -0.009151291679398463 0.0 0.0
0.0 0.03915871187100542 -0.03358340069284446 0.032484468737129804 0.0010989319557146396 -0.011094844277615312 0.0 0.0
0.0 0.049182372425723896 -0.04238157522811847 0.04119708726919548 0.0011844879589230136 -0.013067630324838795 0.0 0.0
0.0 0.060723668883427215 -0.05222850400439172 0.0509644459938167 0.0012640580105750358 -0.015140591426991886 0.0 0.0
0.0 0.0733878176085437 -0.0630645166404147 0.061745511655039886 0.001319004985374725 -0.017420327583620592 0.0 0.0
0.0 0.08626058998743028 -0.07425136836783641 0.07294618102391055 0.0013051873439258203 -0.020351884367310953 0.0 0.0
0.0 0.09769281060991213 -0.08393450481750149 0.08276007440880823 0.001174430408693304 -0.024751160640692216 0.0 0.0
0.0 0.10370816836642112 -0.08868016156260361 0.08775904329592195 0.0009211182666815727 -0.030856860871012578 0.0 0.0
0.0 0.09873501950166108 -0.08359988842363078 0.08304240417735063 0.0005574842462801431 -0.037922046015507395 0.0 0.0
0.0 0.08956503008956382 -0.07305280816402517 0.06779659896354151 0.005256209200483703 1.7676832220203664e-14 0.0 0.0
0.0 0.09873501950165095 -0.08359988842361711 0.08304240417733734 0.0005574842462796842 0.037922046015545996 0.0 0.0
0.0 0.10370816836639112 -0.08868016156257465 0.08775904329589232 0.0009211182666821651 0.030856860871049222 0.0 0.0
0.0 0.09769281060986862 -0.08393450481746294 0.08276007440876962 0.0011744304086932817 0.02475116064071263 0.0 0.0
0.0 0.08626058998737632 -0.07425136836778944 0.07294618102386369 0.0013051873439257873 0.020351884367313507 0.0 0.0
0.0 0.07338781760848284 -0.06306451664036196 0.06174551165498761 0.0013190049853742977 0.017420327583613802 0.0 0.0
0.0 0.060723668883366104 -0.052228504004338996 0.05096444599376421 0.0012640580105747548 0.015140591426982593 0.0 0.0
0.0 0.04918237242566521 -0.042381575228067674 0.04119708726914545 0.0011844879589222267 0.013067630324827864 0.0 0.0
0.0 0.039158711870944884 -0.033583400692791886 0.0324844687370775 0.0010989319557144312 0.011094844277601996 0.0 0.0
0.0 0.029928180698623633 -0.025757813914856532 0.024743504974779628 0.0010143089400768965 0.00915129167938099 0.0 0.0
0.0 0.02181085806898694 -0.018837431711049693 0.01790405033696828 0.0009333813740814254 0.007159550461643675 0.0 0.0
0.0 0.01478606154166701 -0.012844498213110515 0.011992814489691396 0.0008516837234191078 0.0051430356579452215 0.0 0.0
0.0 0.008991471120789648 -0.007882299221081256 0.007133400024016008 0.0007488991970652476 0.0032581320905617534 0.0 0.0
0.0 0.004582857487753371 -0.004080867276043165 0.0034999028474766328 0.000580964428566531 0.0016628787335866478 0.0 0.0
0.0 0.0019375210248931906 -0.001543587257422264 0.001228814943440522 0.00031477231398173953 0.0005866455955597889 0.0 0.0
0.0 0.00034130921047636754 -0.00033125790703404076 0.0002476874878215387 8.357041921250146e-05 0.0001452401759442019 0.0 0.0
0.0 6.425151300671514e-06 8.20055631148837e-06 -7.616888776538614e-06 -5.836675349496117e-07 -1.654922797548865e-05 0.0 0.0
0.0 -1.4143155196460657e-06 1.416931274935948e-07 -1.119541771911426e-07 -2.9738950302450792e-08 -4.072794677791143e-07 0.0 0.0
0.0 -1.6804337643450485e-07 -1.0793184898566844e-08 8.545086488621468e-09 2.248098409945835e-09 2.8276334812116163e-08 0.0 0.0
0.0 0.0 0.0 0.0 0.0 0.0 0.0 0.0
0.0 0.0 0.0 0.0 0.0 0.0 0.0 0.0
0.0 0.0 0.0 0.0 0.0 0.0 0.0 0.0
0.0 0.0 0.0 0.0 0.0 0.0 0.0 0.0
0.0 0.0 0.0 0.0 0.0 0.0 0.0 0.0
0.0 -2.0965198691242446e-06 9.805612927817178e-07 -7.834742066658314e-07 -1.970870861158778e-07 1.3528761858742093e-06 0.0 0.0
0.0 4.810434836523278e-05 -2.1492515315917366e-05 1.3534194220999255e-05 7.958321094918392e-06 4.5491506538893685e-06 0.0 0.0
0.0 0.0007238269893897632 -0.0006024333326322576 0.00045484574657225687 0.00014758758606000038 -0.0001294925107886685 0.0 0.0
0.0 0.002658527524448407 -0.002324126307550105 0.00189826132939197 0.00042586497815813286 -0.0005842194984677186 0.0 0.0
0.0 0.006018343419443148 -0.005410575653092831 0.004744007239212737 0.0006665684138800979 -0.0015539884871340148 0.0 0.0
0.0 0.011134336940325059 -0.009848945002519397 0.009033932443696687 0.0008150125588226931 -0.0028687642664779363 0.0 0.0
0.0 0.01784505047899284 -0.015602157905392707 0.014689431942443966 0.0009127259629487419 -0.004452558052035957 0.0 0.0
0.0 0.025913693131662942 -0.02256250847396983 0.021564049911079897 0.0009984585628899144 -0.006152576067025181 0.0 0.0
0.0 0.035360088773169936 -0.030635989227254905 0.029549555973500063 0.0010864332537548324 -0.007835564016049536 0.0 0.0
0.0 0.045852191055172804 -0.0398039112370456 0.03862540130373653 0.0011785099333091003 -0.009490209644650352 0.0 0.0
0.0 0.05801259161522855 -0.05009934067498487 0.04883100994081103 0.001268330734173777 -0.011207953696766108 0.0 0.0
0.0 0.07117695033069507 -0.0615605315692788 0.06020916397264188 0.0013513675966369625 -0.013036341475364418 0.0 0.0
0.0 0.0854592220666964 -0.07406774524279096 0.07265222088309398 0.001415524359697085 -0.014873307264634913 0.0 0.0
0.0 0.10047422813828497 -0.0869771827629614 0.0855609609906839 0.0014162217722774968 -0.016771855862838022 0.0 0.0
0.0 0.11376202281969788 -0.09835933707276362 0.0970882335106599 0.0012711035621036607 -0.019880504336790963 0.0 0.0
0.0 0.12108317436728072 -0.1043335397367697 0.10337510325583092 0.0009584364809387768 -0.02653012733626691 0.0 0.0
0.0 0.11627888177996197 -0.0992609566325245 0.09873955705214048 0.0005213995803842383 -0.03790924829665113 0.0 0.0
0.0 0.10637100957639352 -0.08780532322669828 0.08211944337346157 0.005685879853236734 1.470698562933137e-14 0.0 0.0
0.0 0.11627888177994916 -0.09926095663250947 0.09873955705212599 0.0005213995803835071 0.03790924829668579 0.0 0.0
0.0 0.12108317436724683 -0.10433353973673815 0.1033751032557995 0.0009584364809385867 0.026530127336300544 0.0 0.0
0.0 0.11376202281964623 -0.09835933707271849 0.09708823351061492 0.0012711035621035141 0.01988050433680849 0.0 0.0
0.0 0.10047422813822235 -0.08697718276290714 0.08556096099062988 0.0014162217722772602 0.016771855862839618 0.0 0.0
0.0 0.08545922206662987 -0.07406774524273307 0.07265222088303658 0.0014155243596964977 0.01487330726463143 0.0 0.0
0.0 0.07117695033062482 -0.06156053156921789 0.0602091639725817 0.001351367596636227 0.013036341475357871 0.0 0.0
0.0 0.058012591615158676 -0.05009934067492443 0.048831009940750916 0.0012683307341734883 0.011207953696756314 0.0 0.0
0.0 0.04585219105510287 -0.03980391123698521 0.03862540130367636 0.0011785099333088795 0.009490209644640254 0.0 0.0
0.0 0.035360088773107 -0.030635989227199914 0.02954955597344583 0.0010864332537541147 0.007835564016036686 0.0 0.0
0.0 0.025913693131606616 -0.022562508473921043 0.02156404991103148 0.000998458562889566 0.006152576067009351 0.0 0.0
0.0 0.017845050478946946 -0.015602157905352954 0.014689431942404685 0.0009127259629482616 0.004452558052022546 0.0 0.0
0.0 0.011134336940290767 -0.009848945002489182 0.009033932443667124 0.0008150125588220578 0.002868764266468451 0.0 0.0
0.0 0.006018343419420162 -0.005410575653071984 0.004744007239193031 0.0006665684138789542 0.001553988487127001 0.0 0.0
0.0 0.002658527524434352 -0.002324126307538131 0.0018982613293814952 0.0004258649781566366 0.0005842194984636451 0.0 0.0
0.0 0.0007238269893841026 -0.000602433332628017 0.00045484574656901744 0.00014758758605899904 0.000129492510787851 0.0 0.0
0.0 4.810434836430985e-05 -2.149251531583962e-05 1.3534194220976664e-05 7.958321094862888e-06 -4.549150653492312e-06 0.0 0.0
0.0 -2.096519869679782e-06 9.805612928231472e-07 -7.834742067013544e-07 -1.970870861217873e-07 -1.3528761859484752e-06 0.0 0.0
0.0 0.0 0.0 0.0 0.0 0.0 0.0 0.0
0.0 0.0 0.0 0.0 0.0 0.0 0.0 0.0
0.0 0.0 0.0 0.0 0.0 0.0 0.0 0.0
0.0 0.0 0.0 0.0 0.0 0.0 0.0 0.0
0.0 0.0 0.0 0.0 0.0 0.0 0.0 0.0
0.0 0.0 0.0 0.0 0.0 0.0 0.0 0.0
0.0 -2.1106962871756058e-06 2.5047811164431967e-06 -1.9984788863607347e-06 -5.063022300824782e-07 2.053638829954794e-06 0.0 0.0
0.0 0.00010805006616929553 -0.00010733974273291363 7.524886731493876e-05 3.209087541797472e-05 2.8855055389307818e-06 0.0 0.0
0.0 0.0012271595185757171 -0.0009953093661065173 0.0007658907072697765 0.0002294186588367401 -6.80521478199778e-05 0.0 0.0
0.0 0.0034210073343238522 -0.0032095916513864486 0.0026878481187741577 0.0005217435326122947 -0.00047063486242582834 0.0 0.0
0.0 0.0075381277163954 -0.006783075613586664 0.006047491315915083 0.0007355842976715849 -0.0011570155801212828 0.0 0.0
0.0 0.01331464197484971 -0.011835286815790023 0.010965952038560238 0.0008693347772297785 -0.0021155643025978937 0.0 0.0
0.0 0.02090210927086616 -0.01836198862381761 0.017395514980184407 0.000966473643633208 -0.0032739602257238817 0.0 0.0
0.0 0.030107199685089375 -0.026281221618840552 0.025223011826671488 0.0010582097921690496 -0.004523403542541023 0.0 0.0
0.0 0.04071956578168748 -0.03551150457579022 0.03435811367445477 0.0011533909013354258 -0.005763081527630955 0.0 0.0
0.0 0.05305638229680393 -0.046024090019997084 0.0447723921040436 0.0012516979159534593 -0.006997297821314771 0.0 0.0
0.0 0.06643605203215974 -0.05783643213011161 0.05648943623429004 0.0013469958958215252 -0.00832860705208725 0.0 0.0
0.0 0.0815219374130677 -0.07088218032962701 0.06945233241101163 0.0014298479186154191 -0.00976222200024937 0.0 0.0
0.0 0.09773383440884302 -0.08490852963013554 0.08341887742378407 0.0014896522063513793 -0.011091268358098668 0.0 0.0
0.0 0.11431116337209361 -0.09925425431495956 0.09774460461562313 0.001509649699336464 -0.012016083379038759 0.0 0.0
0.0 0.1293076994538898 -0.1122273073782864 0.11081003772468473 0.0014172696536016976 -0.013255635548475177 0.0 0.0
0.0 0.138458622140703 -0.11991383996190995 0.11887028212429712 0.001043557837612737 -0.01890621405758598 0.0 0.0
0.0 0.13465265393593037 -0.11568369163374234 0.11524144490147896 0.0004422467322631903 -0.03551540948456651 0.0 0.0
0.0 0.12464001075172418 -0.10375670988981443 0.09773903611448319 0.006017673775331173 1.054017984003508e-14 0.0 0.0
0.0 0.1346526539359127 -0.11568369163372451 0.11524144490146167 0.0004422467322629192 0.03551540948459375 0.0 0.0
0.0 0.1384586221406616 -0.11991383996187285 0.11887028212426037 0.0010435578376125857 0.018906214057612714 0.0 0.0
0.0 0.12930769945382994 -0.11222730737823453 0.11081003772463321 0.0014172696536013307 0.013255635548487304 0.0 0.0
0.0 0.11431116337202331 -0.09925425431489844 0.0977446046155627 0.001509649699335895 0.012016083379040487 0.0 0.0
0.0 0.09773383440876751 -0.08490852963007003 0.08341887742371921 0.0014896522063508688 0.011091268358097085 0.0 0.0
0.0 0.08152193741298965 -0.07088218032955931 0.06945233241094471 0.0014298479186146131 0.009762222000244947 0.0 0.0
0.0 0.06643605203208125 -0.05783643213004364 0.05648943623422277 0.0013469958958209427 0.008328607052079634 0.0 0.0
0.0 0.05305638229672636 -0.04602409001992976 0.04477239210397659 0.001251697915953143 0.006997297821307835 0.0 0.0
0.0 0.04071956578161568 -0.035511504575728055 0.03435811367439334 0.0011533909013346463 0.005763081527622018 0.0 0.0
0.0 0.03010719968502871 -0.026281221618787223 0.025223011826618798 0.0010582097921684461 0.004523403542529359 0.0 0.0
0.0 0.02090210927081393 -0.018361988623771617 0.017395514980138933 0.0009664736436326752 0.0032739602257134855 0.0 0.0
0.0 0.01331464197481156 -0.011835286815755984 0.010965952038527016 0.0008693347772289767 0.002115564302591024 0.0 0.0
0.0 0.00753812771636722 -0.006783075613561297 0.006047491315890741 0.0007355842976705483 0.0011570155801155031 0.0 0.0
0.0 0.0034210073343092524 -0.00320959165137283 0.0026878481187619808 0.0005217435326108546 0.0004706348624231028 0.0 0.0
0.0 0.0012271595185683922 -0.000995309366100414 0.0007658907072648778 0.0002294186588355353 6.805214781920388e-05 0.0 0.0
0.0 0.00010805006616754116 -0.00010733974273220199 7.52488673144583e-05 3.2090875417743524e-05 -2.8855055386054216e-06 0.0 0.0
0.0 -2.110696287248886e-06 2.504781116170938e-06 -1.9984788861581197e-06 -5.063022300128383e-07 -2.0536388298790426e-06 0.0 0.0
0.0 0.0 0.0 0.0 0.0 0.0 0.0 0.0
0.0 0.0 0.0 0.0 0.0 0.0 0.0 0.0
0.0 0.0 0.0 0.0 0.0 0.0 0.0 0.0
0.0 0.0 0.0 0.0 0.0 0.0 0.0 0.0
0.0 0.0 0.0 0.0 0.0 0.0 0.0 0.0
0.0 0.0 0.0 0.0 0.0 0.0 0.0 0.0
0.0 -4.851509346202495e-06 3.6752732492429833e-06 -3.123477529399951e-06 -5.517957198430299e-07 2.726865310252883e-06 0.0 0.0
0.0 0.00030569909879799245 -0.00022991132187301467 0.00016381576523695674 6.609555663605808e-05 4.502730644491885e-05 0.0 0.0
0.0 0.0017119367241978482 -0.0015076486423694635 0.0011874740823600517 0.00032017456000941184 5.191595084766488e-05 0.0 0.0
0.0 0.004483999416488539 -0.0041309104675609385 0.0035346620922146457 0.0005962483753462919 -0.00015792081462631837 0.0 0.0
0.0 0.009074419468837296 -0.008176190273843998 0.007385251845974563 0.0007909384278694311 -0.0005107847141828123 0.0 0.0
0.0 0.015574340193771154 -0.013815644916559115 0.012900428159810545 0.0009152167567485697 -0.0010050153367474456 0.0 0.0
0.0 0.023959042453710375 -0.021098860719926386 0.0200833118484139 0.0010155488715124707 -0.001614586485844142 0.0 0.0
0.0 0.034220232498083675 -0.029970504962964762 0.02885683948419332 0.0011136654787714528 -0.0022723856314295202 0.0 0.0
0.0 0.04636905240513182 -0.04035832905914953 0.03914294616541415 0.0012153828937353666 -0.0029342794076815254 0.0 0.0
0.0 0.05978029521252594 -0.05223172294158179 0.05091134267772597 0.0013203802638557627 -0.00363917633459759 0.0 0.0
0.0 0.07514585708594246 -0.06554525260374705 0.06412482736061582 0.0014204252431311726 -0.004417691065864063 0.0 0.0
0.0 0.09199728221614797 -0.08015016823676667 0.07864850100188941 0.0015016672348773445 -0.0052534124737087596 0.0 0.0
0.0 0.10987586540021502 -0.09562294495270346 0.09407160457769834 0.0015513403750050966 -0.006014785490974052 0.0 0.0
0.0 0.12781539908247325 -0.11112181534531891 0.1095576458900603 0.0015641694552586231 -0.0063695090989114855 0.0 0.0
0.0 0.14412132275380207 -0.12521519722493799 0.1236699768009485 0.001545220423989543 -0.006269285593583841 0.0 0.0
0.0 0.1553907535854605 -0.1349476608637827 0.13359930388709204 0.0013483569766905381 -0.008675465686109822 0.0 0.0
0.0 0.15421912301843188 -0.13325104933352863 0.13286892081373475 0.0003821285197939019 -0.02579199662039003 0.0 0.0
0.0 0.14554713434368122 -0.12198238335785212 0.11602832971852828 0.005954053639323752 5.443562267615221e-15 0.0 0.0
0.0 0.15421912301840696 -0.13325104933350582 0.13286892081371193 0.00038212851979380384 0.025791996620405558 0.0 0.0
0.0 0.15539075358540902 -0.1349476608637381 0.13359930388704702 0.001348356976690997 0.008675465686125495 0.0 0.0
0.0 0.14412132275373307 -0.12521519722487856 0.12366997680088895 0.0015452204239895541 0.006269285593590029 0.0 0.0
0.0 0.12781539908239342 -0.11112181534524998 0.10955764588999131 0.0015641694552586858 0.006369509098911703 0.0 0.0
0.0 0.10987586540012857 -0.09562294495262862 0.09407160457762351 0.0015513403750050203 0.006014785490973015 0.0 0.0
0.0 0.09199728221606153 -0.08015016823669158 0.07864850100181525 0.001501667234876374 0.0052534124737055685 0.0 0.0
0.0 0.07514585708585676 -0.06554525260367276 0.06412482736054206 0.001420425243130636 0.004417691065860943 0.0 0.0
0.0 0.05978029521243856 -0.05223172294150603 0.05091134267765064 0.0013203802638553867 0.0036391763345944264 0.0 0.0
0.0 0.04636905240505348 -0.04035832905908127 0.03914294616534672 0.0012153828937345704 0.0029342794076755918 0.0 0.0
0.0 0.03422023249801456 -0.029970504962904893 0.028856839484133867 0.001113665478771009 0.0022723856314231473 0.0 0.0
0.0 0.023959042453653063 -0.021098860719875944 0.020083311848364115 0.0010155488715118339 0.0016145864858388384 0.0 0.0
0.0 0.015574340193727632 -0.01381564491652037 0.01290042815977239 0.0009152167567479691 0.001005015336743752 0.0 0.0
0.0 0.009074419468807118 -0.00817619027381671 0.007385251845948173 0.0007909384278685355 0.0005107847141800596 0.0 0.0
0.0 0.004483999416470544 -0.004130910467544184 0.0035346620921991663 0.0005962483753450147 0.0001579208146247381 0.0 0.0
0.0 0.001711936724188306 -0.0015076486423611323 0.001187474082353067 0.00032017456000806515 -5.1915950848004344e-05 0.0 0.0
0.0 0.000305699098794644 -0.00022991132187079436 0.00016381576523535175 6.609555663544272e-05 -4.5027306444452246e-05 0.0 0.0
0.0 -4.851509346188572e-06 3.675273248746111e-06 -3.1234775290271905e-06 -5.517957197188585e-07 -2.726865310166003e-06 0.0 0.0
0.0 0.0 0.0 0.0 0.0 0.0 0.0 0.0
0.0 0.0 0.0 0.0 0.0 0.0 0.0 0.0
0.0 0.0 0.0 0.0 0.0 0.0 0.0 0.0
0.0 0.0 0.0 0.0 0.0 0.0 0.0 0.0
0.0 0.0 0.0 0.0 0.0 0.0 0.0 0.0
0.0 0.0 0.0 0.0 0.0 0.0 0.0 0.0
0.0 7.426857822740402e-06 -6.089384959306947e-06 3.552875709872549e-06 2.5365092494345052e-06 4.692641252698894e-06 0.0 0.0
0.0 0.0005639362288146069 -0.0004012834744565634 0.0002848994819201588 0.00011638399253640457 0.00010735019759588209 0.0 0.0
0.0 0.0022362731821358485 -0.0019748027291116386 0.0015404762566011017 0.00043432647251053614 0.00025657743582103315 0.0 0.0
0.0 0.005319517573956082 -0.004914598027201217 0.004158218432060693 0.0007563795951405261 0.00033050864597197093 0.0 0.0
0.0 0.010294096484508845 -0.00932744261513357 0.008313898255233982 0.0010135443598995797 0.00037323009483026463 0.0 0.0
0.0 0.017235967565147312 -0.015440369298112041 0.01421164017088192 0.001228729127230114 0.00037778729518577804 0.0 0.0
0.0 0.026307247027150937 -0.023339850217637584 0.02188641901344987 0.0014534312041877217 0.0003146893543240893 0.0 0.0
0.0 0.037463688836216646 -0.033001756098982774 0.0312887797610634 0.0017129763379193342 0.0002260399023397493 0.0 0.0
0.0 0.05030441576115589 -0.044367510672386354 0.04235438154572541 0.002013129126660928 0.00010871687854340298 0.0 0.0
0.0 0.06510859892416296 -0.05736707136271571 0.05502263797374338 0.0023444333889722823 -9.043244567451605e-05 0.0 0.0
0.0 0.08172257626811304 -0.0719178225067289 0.0692264359101372 0.0026913865965917322 -0.000338051699075804 0.0 0.0
0.0 0.0999082267480901 -0.08780541181861813 0.08478005610157546 0.0030253557170424484 -0.0006867588859039257 0.0 0.0
0.0 0.11907113843727338 -0.10446854402855633 0.10116209706065513 0.0033064469679012043 -0.0010978932709789415 0.0 0.0
0.0 0.13796181402283725 -0.12084537669053125 0.11736008652601085 0.0034852901645201903 -0.0013987939748918692 0.0 0.0
0.0 0.15476968434044838 -0.13538230981459048 0.13186219910781424 0.0035201107067761887 -0.0013143689694530055 0.0 0.0
0.0 0.16707306710089662 -0.14617324010649224 0.1426456801025791 0.0035275600039132143 -0.002196110441414335 0.0 0.0
0.0 0.16949458461314584 -0.14877257119960058 0.1452420155474277 0.0035305556521728456 -0.01884865866323782 0.0 0.0
0.0 0.16527111191062857 -0.14062275348149317 0.13053081513759246 0.010091938343900587 1.7763568394002505e-15 0.0 0.0
0.0 0.16949458461311767 -0.14877257119957563 0.14524201554740354 0.003530555652172067 0.018848658663243013 0.0 0.0
0.0 0.16707306710083747 -0.1461732401064413 0.14264568010252818 0.00352756000391307 0.0021961104414196346 0.0 0.0
0.0 0.15476968434037114 -0.1353823098145232 0.13186219910774838 0.003520110706774943 0.0013143689694540828 0.0 0.0
0.0 0.13796181402274874 -0.12084537669045411 0.11736008652593469 0.003485290164519222 0.0013987939748911805 0.0 0.0
0.0 0.11907113843718095 -0.10446854402847555 0.10116209706057608 0.0033064469678994067 0.0010978932709797481 0.0 0.0
0.0 0.09990822674799843 -0.08780541181853757 0.08478005610149746 0.003025355717039977 0.0006867588859012855 0.0 0.0
0.0 0.08172257626801943 -0.07191782250664701 0.06922643591005728 0.002691386596589714 0.00033805169907458535 0.0 0.0
0.0 0.06510859892406823 -0.05736707136263321 0.0550226379736619 0.0023444333889713165 9.043244567425932e-05 0.0 0.0
0.0 0.05030441576107381 -0.04436751067231451 0.04235438154565553 0.0020131291266589093 -0.00010871687854692707 0.0 0.0
0.0 0.03746368883613989 -0.033001756098915695 0.03128877976099749 0.0017129763379182174 -0.0002260399023421445 0.0 0.0
0.0 0.02630724702708992 -0.02333985021758433 0.02188641901339801 0.0014534312041863452 -0.0003146893543254309 0.0 0.0
0.0 0.0172359675650988 -0.015440369298069294 0.014211640170840286 0.001228729127229022 -0.00037778729518626614 0.0 0.0
0.0 0.010294096484477974 -0.00932744261510559 0.008313898255207224 0.0010135443598983532 -0.0003732300948302526 0.0 0.0
0.0 0.005319517573934538 -0.004914598027181157 0.0041582184320422275 0.0007563795951389243 -0.00033050864597162523 0.0 0.0
0.0 0.0022362731821255755 -0.001974802729101808 0.0015404762565929078 0.00043432647250890127 -0.00025657743582018535 0.0 0.0
0.0 0.0005639362288098383 -0.0004012834744529273 0.00028489948191752544 0.00011638399253540264 -0.00010735019759516612 0.0 0.0
0.0 7.4268578225527505e-06 -6.089384959326659e-06 3.5528757099049024e-06 2.536509249421732e-06 -4.692641252606988e-06 0.0 0.0
0.0 0.0 0.0 0.0 0.0 0.0 0.0 0.0
0.0 0.0 0.0 0.0 0.0 0.0 0.0 0.0
0.0 0.0 0.0 0.0 0.0 0.0 0.0 0.0
SCALARS Wm float 4
LOOKUP_TABLE default
11.97288752598061 1.9864567251374692 4.929143561963929 5.05728723887921
5.83250075547285 2.8273441984621 1.3353631151738965 1.6697934418368563
0.6505995458022175 0.6190944978873117 0.0023149234819413713 0.02919012443296443
0.5044098740684128 0.48435570894251073 0.005432334348453446 0.014621830777448778
0.9780266519596053 0.7351709553509789 0.08603887547365968 0.1568168211349664
2.0580879658519184 1.0360637489697968 0.36639874719804555 0.6556254696840752
4.2024522835652025 1.4602748506554604 1.1525668179609656 1.5896106149487799
7.6662493303397685 1.9735381522660662 2.61661433890327 3.076096839170431
12.766130937394099 2.610619165298516 4.992926912245625 5.162584859849959
19.748418017550033 3.4069754066459694 8.472579184079667 7.868863426824403
28.756740035270195 4.395710558247564 13.17776968753769 11.183259789484937
39.758939883015415 5.5937952797867 19.07849309837911 15.086651504849618
52.91688097140576 6.990960291404347 26.366693606743123 19.559227073258292
68.22615410164097 8.577098940018777 35.067064645422604 24.581990516199614
85.51387565462056 10.236997449732987 45.17826234271629 30.09861586217123
104.27465903488364 11.763286724701025 56.53481996751654 35.976552342666054
123.49894210444428 12.898574100144042 68.60908872917466 41.99127927512558
141.76675242784106 13.43699837233326 80.58040275767956 47.74935129782818
157.49713709595238 13.401194599056803 91.32223579933631 52.773706697559334
168.5333120837395 12.692574964824463 99.32390930842946 56.51682781048554
172.17049327746668 11.42202078547668 102.6486092274719 58.09986326451815
168.53331208372322 12.692574964831572 99.32390930841291 56.51682781047876
157.49713709590787 13.401194599061553 91.32223579930289 52.773706697543396
141.76675242777367 13.436998372335099 80.5804027576327 47.74935129780587
123.49894210435724 12.898574100132723 68.60908872912388 41.99127927510056
104.27465903480527 11.763286724702672 56.53481996746375 35.97655234263886
85.51387565453743 10.236997449728502 45.17826234266515 30.09861586214375
68.22615410156233 8.57709894002016 35.06706464537139 24.581990516170748
52.916880971331814 6.990960291402699 26.366693606697787 19.559227073231355
39.75893988294116 5.593795279770932 19.07849309834333 15.086651504826943
28.75674003520824 4.395710558237597 13.177769687506796 11.183259789463829
19.748418017504857 3.4069754066413447 8.472579184056414 7.868863426807108
12.76613093736283 2.6106191652962982 4.992926912229794 5.16258485983674
7.666249330318469 1.973538152263029 2.6166143388939678 3.0760968391614734
4.2024522835529226 1.4602748506539447 1.1525668179559723 1.5896106149430058
2.058087965845369 1.0360637489686473 0.36639874719611754 0.6556254696806038
0.9780266519569522 0.7351709553494953 0.08603887547320414 0.15681682113425296
0.5044098740679336 0.48435570894205904 0.005432334348434695 0.014621830777439873
0.6505995458012053 0.6190944978865849 0.0023149234818685355 0.02919012443275134
5.832500755467899 2.8273441984628462 1.3353631151711396 1.669793441833912
11.972887525953363 1.986456725123734 4.929143561956531 5.0572872388731005
14.187076795879722 6.244632382036519 3.803688561879665 4.138755851963535
2.2743328640509115 0.49797248155204543 0.7370718102537677 1.0392885722450975
0.2561368102346567 0.2913608412164878 -0.010653408283200157 -0.02457062269863103
0.3962135207664682 0.3915733213413813 0.0007126137403868898 0.003927585684699894
0.7425657280692084 0.603965910284952 0.04147062513582672 0.09712919264843008
1.6486010885039604 0.8754601343141003 0.28120689367184115 0.4919340605180192
3.4495813294289808 1.1763713402144653 0.9291593418415808 1.3440506473729343
6.4894405736289125 1.537332869710609 2.237745328972088 2.714362374946215
10.992343228822996 1.9442948768049577 4.393683677495137 4.654364674522902
17.108771046228142 2.403600700435123 7.535362018010039 7.169808327782974
24.930916096920058 2.9176349207134056 11.772554557112723 10.240726619093921
34.556009555101866 3.501921050111165 17.212565098672204 13.841523406318505
45.83676743014834 4.168899738601369 23.70154325272326 17.966324438823708
59.07992745344758 4.8972641385599385 31.580916524812267 22.60174679007539
74.08127950204592 5.637495711033292 40.730501190909536 27.713282600103085
90.46259434907319 6.274881323374227 51.00748170771775 33.18023131798117
107.44366225950104 6.667298694465755 62.01509992143665 38.7612636435986
123.83514398752493 6.712041429350359 72.99293504213404 44.130167516040544
138.03607905144642 6.344909102871633 82.85951759871249 48.8316523498622
148.06778084630704 5.6123309530224414 90.20573798451828 52.2497119087663
151.8115114718015 4.796042909836002 93.33318532392788 53.68228323803769
148.06778084628516 5.612330953021742 90.20573798450376 52.24971190875962
138.03607905140677 6.344909102877162 82.8595175986819 48.831652349847744
123.8351439874649 6.712041429351131 72.992935042093 44.13016751602078
107.44366225943119 6.6672986944637485 62.01509992139144 38.76126364357595
90.46259434899952 6.274881323371877 51.007481707670756 33.1802313179569
74.08127950197238 5.63749571103109 40.73050119086339 27.713282600077893
59.079927453373756 4.897264138557027 31.580916524767115 22.601746790049624
45.83676743008101 4.1688997385991335 23.701543252682807 17.966324438799056
34.556009555042884 3.501921050106518 17.212565098639253 13.841523406297103
24.93091609686836 2.9176349207097334 11.772554557084439 10.240726619074188
17.108771046187428 2.4036007004302244 7.535362017989799 7.1698083277674005
10.992343228794446 1.9442948768021209 4.393683677481364 4.6543646745109655
6.48944057361053 1.5373328697089015 2.2377453289637463 2.714362374937885
3.449581329418494 1.1763713402132907 0.9291593418373814 1.3440506473678218
1.6486010884985132 0.8754601343128834 0.2812068936700821 0.49193406051554767
0.7425657280674511 0.6039659102839461 0.0414706251355484 0.0971291926479566
0.3962135207661017 0.3915733213410025 0.000712613740381448 0.003927585684717838
0.2561368102346987 0.2913608412163801 -0.010653408283143265 -0.024570622698538123
2.2743328640440557 0.4979724815507758 0.7370718102510618 1.039288572242219
14.187076795855207 6.244632382026039 3.803688561872195 4.138755851956966
10.63331505835096 4.9348102641552964 2.614497049278999 3.084007744916664
1.4015088319671485 0.19111362211471247 0.48845915185496297 0.7219360579974743
0.1612638251584822 0.16125096938282235 1.2584593728390447e-06 1.159731628699839e-05
0.29640089467028047 0.29845790185770277 -0.0004262052658253426 -0.001630801921596945
0.5666717848327775 0.5150721909670262 0.01247540410654417 0.03912418975920731
1.2822272001090598 0.7853270649585379 0.1742502536321234 0.322649881518399
2.785831654946473 1.0757201090603064 0.6682047050734758 1.041906840812691
5.4365658441309375 1.4169108065501048 1.7684391072854486 2.2512159302953836
9.393552020117044 1.7877320604401197 3.6138128822318167 3.992007077445107
14.794437186175681 2.191600147302524 6.350051717748714 6.252785321124438
21.661208142795005 2.637129187942284 10.023808919844608 9.00027003500811
29.99062254824635 3.138735123552496 14.643214284751027 12.20867313994282
39.98221449189052 3.719733011635526 20.395742851425233 15.866738628829747
51.441552053677114 4.371396203246199 27.0800158125753 19.990140037855603
64.58889395200201 5.039068220437722 35.00515341421226 24.544672317352024
79.01759397395321 5.644268449678178 43.93205457387964 29.441270950395392
94.08474473887794 6.070993691751051 53.52009964631894 34.49365140080798
108.71898557813027 6.187573039837566 63.164524381332605 39.36688815696006
121.41631211249732 5.889326649409033 71.89431885417036 43.63266660891797
130.42722479755025 5.327714713023471 78.38240867706244 46.71710140746433
133.67586509432584 4.3460553694383535 81.24940536058699 48.08040436430054
130.427224797536 5.327714713028054 78.38240867704982 46.71710140745807
121.41631211245526 5.889326649405147 71.89431885414463 43.63266660890549
108.71898557808396 6.187573039843994 63.16452438129758 39.366888156942366
94.08474473881671 6.070993691748823 53.52009964628003 34.49365140078789
79.01759397389343 5.644268449681161 43.93205457383875 29.441270950373518
64.58889395193584 5.0390682204321875 35.005153414173336 24.544672317330296
51.44155205361712 4.371396203247556 27.080015812536782 19.990140037832795
39.98221449183055 3.719733011631147 20.395742851391052 15.866738628808355
29.99062254819481 3.1387351235515393 14.643214284720703 12.208673139922578
21.66120814275117 2.6371291879408782 10.023808919820084 9.000270034990205
14.794437186140527 2.1916001472976525 6.350051717731933 6.252785321110947
9.393552020092214 1.787732060437836 3.6138128822199516 3.992007077434426
5.436565844114433 1.4169108065484646 1.7684391072781454 2.251215930287825
2.7858316549373185 1.0757201090578976 0.6682047050706329 1.041906840808788
1.282227200104946 0.7853270649573115 0.17425025363098143 0.322649881516653
0.5666717848314328 0.5150721909661623 0.012475404106383236 0.039124189758887165
0.2964008946699913 0.2984579018573981 -0.00042620526582135075 -0.0016308019215854458
0.1612638251583819 0.16125096938271755 1.2584593731477871e-06 1.1597316291217664e-05
1.401508831962447 0.19111362211450855 0.48845915185292316 0.7219360579950145
10.633315058326549 4.9348102641445255 2.6144970492720216 3.0840077449100054
7.995570745453779 3.8370892313607623 1.8322577645164349 2.3262237495765823
0.9319590139085274 0.09454764526467332 0.3182782415551117 0.5191331270887414
0.11348019928457839 0.11348019928457839 0.0 0.0
0.22325619124370608 0.2233779468108554 -7.683752019596136e-06 -0.00011407181512971922
0.43321852549382117 0.42699842097503843 0.0006640687924310395 0.0055560357263516914
0.955648991172219 0.6778676436691371 0.0864494855261817 0.19133186197690052
2.1973774880793497 0.9788756605418785 0.4633712511533722 0.7551305763840981
4.426475696041471 1.2911994581437507 1.3348476266218838 1.8004286112758356
7.851554214117889 1.628820971255486 2.886390100618558 3.336343142243841
12.53018021687515 1.9835313788232085 5.207868357729874 5.338780480322068
18.438530329931936 2.3648159999444305 8.309358366407727 7.764355963579782
25.639239826901232 2.797137143794357 12.26201958062851 10.580083102478369
34.08975809015141 3.2961875077701226 17.010569583831717 13.783000998549575
44.08642803879443 3.863278582985443 22.841242400353792 17.381907055455187
55.36586465285905 4.47048106122924 29.51475558564831 21.380628005981507
67.80423649713791 5.047359790614859 37.05056248322261 25.706314223300446
81.03032758967281 5.49936827321457 45.3379710668368 30.192988249621436
93.98760214958659 5.692921647311916 53.7130628296611 34.581617672613596
105.3373421878391 5.519348992143954 61.345473865504914 38.4725193301902
113.52792429383194 5.071730132395976 67.10945379417575 41.346740367260296
116.48690279241666 3.8967691987167905 69.89885576673721 42.69127782696267
113.52792429381671 5.071730132397268 67.10945379416455 41.34674036725485
105.33734218780464 5.51934899213901 61.3454738654853 38.47251933018034
93.98760214953872 5.692921647308847 53.713062829631454 34.58161767259842
81.03032758961902 5.4993682732111555 45.337971066804 30.192988249603843
67.80423649708425 5.04735979061679 37.050562483186845 25.706314223280668
55.36586465280827 4.470481061230988 29.5147555856151 21.380628005962166
44.08642803873869 3.8632785829827156 22.841242400320958 17.381907055435025
34.08975809010028 3.2961875077666214 17.010569583802816 13.78300099853084
25.6392398268556 2.7971371437919075 12.262019580603107 10.580083102460588
18.438530329893826 2.3648159999416865 8.309358366387618 7.764355963564531
12.530180216843993 1.983531378817888 5.207868357715742 5.338780480310357
7.851554214096117 1.6288209712540183 2.8863901006080743 3.3363431422340217
4.426475696027655 1.291199458142068 1.3348476266162628 1.800428611269322
2.197377488072346 0.9788756605407289 0.4633712511507907 0.7551305763808261
0.9556489911692698 0.6778676436679575 0.08644948552550699 0.1913318619758058
0.4332185254929454 0.4269984209742281 0.0006640687923991443 0.005556035726318118
0.223256191243597 0.22337794681075962 -7.68375202036426e-06 -0.00011407181514223638
0.1134801992843919 0.1134801992843919 0.0 0.0
0.9319590139045006 0.09454764526436965 0.3182782415534382 0.5191331270866935
7.995570745434255 3.837089231352857 1.83225776451084 2.3262237495705596
5.922771282272858 2.9612393398588956 1.2387328741872945 1.7227990682266694
0.6819920234969875 0.10827260658013972 0.22326898564154266 0.35045043127530556
0.1033172529221326 0.1033172529221326 0.0 0.0
0.17853845280065755 0.1785321632336646 3.5059575947504334e-07 5.938971233487455e-06
0.33420802271612227 0.3397770281540565 -0.0019373535165536503 -0.0036316519213805574
0.7029424931225595 0.5836490138021876 0.032327334548476805 0.08696614477189457
1.662078785861282 0.8614480126362704 0.2977558706176582 0.5028749026073542
3.4748753689340064 1.161577484446311 0.9459174992658785 1.3673803852218178
6.362808567265469 1.466494569711657 2.205399267646305 2.690914729907506
10.32360959188852 1.7771459932899123 4.114881734641802 4.431581863956808
15.332330613054392 2.104655020185881 6.693696253167527 6.533979339700978
21.37819401965662 2.4698128460687654 9.9488243042762 8.959556869311646
28.541266100033074 2.8976994264653078 13.93877583034722 11.704790843220545
36.77082900155769 3.3905403645675287 18.587113264530096 14.793175372460077
46.332863737197336 3.923863299655767 24.1826421426193 18.22635829492225
56.99382888923442 4.46908404639566 30.55996242785543 21.96478241498333
68.27791158054728 4.948232172231722 37.43483324742825 25.89484616088732
79.58962617330162 5.233006250163169 44.57385695944017 29.782762963698282
89.72352743429171 5.194351793569096 51.234461847663795 33.29471379305884
97.29483193710308 4.843343536728947 56.46372476762166 35.987763632752426
100.08008800212433 3.456334353804714 59.230749469491364 37.393004178828285
97.29483193709055 4.843343536730475 56.46372476761239 35.987763632747686
89.72352743427408 5.194351793578335 51.23446184764616 33.29471379304962
79.58962617326658 5.233006250164614 44.57385695941639 29.782762963685578
68.27791158050245 4.948232172229038 37.434833247401016 25.894846160872376
56.993828889186574 4.469084046393671 30.559962427826324 21.96478241496657
46.332863737147335 3.9238632996500025 24.182642142591725 18.226358294905623
36.77082900151234 3.3905403645658354 18.587113264503415 14.793175372443082
28.54126609999009 2.8976994264614944 13.938775830323904 11.704790843204684
21.378194019620906 2.4698128460688697 9.94882430425551 8.959556869296533
15.332330613022279 2.104655020182943 6.69369625315125 6.533979339688087
10.323609591864429 1.7771459932886353 4.114881734629593 4.4315818639462075
6.362808567246813 1.4664945697097755 2.205399267637953 2.690914729899083
3.474875368922419 1.1615774844446398 0.9459174992613245 1.3673803852164548
1.6620787858553574 0.8614480126358849 0.2977558706153262 0.5028749026041465
0.7029424931205465 0.5836490138010465 0.032327334548185274 0.08696614477131438
0.33420802271555067 0.3397770281533536 -0.001937353516524007 -0.003631651921278945
0.17853845280047717 0.17853216323348775 3.5059575927603094e-07 5.938971230153005e-06
0.10331725292206129 0.10331725292206129 0.0 0.0
0.6819920234934367 0.10827260657982357 0.22326898564007266 0.3504504312735413
5.922771282257569 2.961239339852838 1.2387328741830188 1.7227990682217111
4.303934950688567 2.267334742349868 0.8133568420921731 1.2232433662465265
0.48254395555047885 0.142647838856723 0.11613846568026283 0.2237576510134925
0.1161865353390978 0.1161865353390978 0.0 0.0
0.15693866479330193 0.1569232468541225 1.0256537066026557e-06 1.4392285472793056e-05
0.26952433183616364 0.27391583753856574 -0.0008447485469802556 -0.003546757155421797
0.5107171717285436 0.47897845538777956 0.004277236416332936 0.02746147992443107
1.1740637141506107 0.725900971037151 0.14307922200903603 0.3050835211044237
2.6357750911972557 1.0234821655083475 0.652403237981492 0.9598896877074169
4.919407085815619 1.2977725007148901 1.5617736924873806 2.0598608926133486
8.206584551775311 1.5725875473586073 3.099401264177084 3.5345957402396193
12.321933709103261 1.8514738047735764 5.158774065752235 5.31168583857745
17.255295517899317 2.159179437288739 7.7469367737009955 7.3491793069095825
23.04881623323392 2.519729090281277 10.888695796913463 9.640391346039177
29.834226161418634 2.940545847292498 14.679896806482594 12.21378350764354
37.595094302381554 3.4171514132676064 19.0894359772627 15.088506911851235
46.296913013919095 3.911735233663572 24.145660249661127 18.239517530594398
55.895690884409014 4.39649685147968 29.921827219070927 21.57736681385841
65.56395281017922 4.786630721768349 35.81295289990475 24.964369188506108
74.48128706718957 4.898591943201875 41.45617184083104 28.12652328315664
81.5715037355821 4.644308900943251 46.25177532483051 30.67541950980834
84.28560793351339 3.0333304134892916 49.08438319882437 32.16789432119971
81.57150373557374 4.644308900946623 46.25177532482291 30.675419509804165
74.48128706716552 4.898591943200854 41.456171840816154 28.126523283148543
65.56395281014623 4.786630721764392 35.81295289988603 24.964369188495805
55.895690884371 4.396496851475316 29.92182721904956 21.577366813846126
46.29691301388099 3.9117352336617013 24.14566024963856 18.239517530580752
37.59509430234026 3.4171514132604752 19.089435977241777 15.088506911837996
29.834226161380744 2.9405458472894903 14.679896806461747 12.213783507629513
23.048816233198703 2.5197290902769582 10.888695796895414 9.640391346026338
17.25529551786994 2.159179437289435 7.746936773683969 7.349179306896541
12.321933709076431 1.8514738047710229 5.158774065738982 5.311685838566431
8.206584551753966 1.5725875473569657 3.0994012641668793 3.5345957402301167
4.919407085800729 1.2977725007129088 1.5617736924811827 2.059860892606639
2.635775091187983 1.0234821655068291 0.6524032379779409 0.9598896877032123
1.1740637141463883 0.7259009710366308 0.14307922200760181 0.30508352110215586
0.5107171717271141 0.47897845538666534 0.004277236416242367 0.027461479924206323
0.2695243318357401 0.2739158375379872 -0.0008447485469547195 -0.0035467571552923413
0.15693866479299415 0.1569232468538202 1.0256537061492444e-06 1.4392285467779322e-05
0.11618653533894367 0.11618653533894367 0.0 0.0
0.48254395554804286 0.14264783885655619 0.11613846567928227 0.22375765101220466
4.3039349506765 2.267334742344813 0.8133568420890872 1.2232433662426012
3.0139818023774265 1.709716227596722 0.4835352909877124 0.8207302837929931
0.3632075944353423 0.18601103072137246 0.05527318162305955 0.12192338209091003
0.13922352050321898 0.13923927833517327 -8.23290305344124e-07 -1.4934541648948963e-05
0.15235873960101926 0.15234445358490223 9.176681420014073e-07 1.3368347975063384e-05
0.22912796476028724 0.2304722847590731 -0.0002452105969699908 -0.0010991094018158736
0.3812252439031597 0.38998193228144906 -0.004309219880808548 -0.004447468497480707
0.8089100815199936 0.6042176682118383 0.056567839653598836 0.14812457365455609
1.8128277375508837 0.8536416884037723 0.34401511419669656 0.6151709349504149
3.6604896776616647 1.1292231472569565 1.0772445077932717 1.4540220226114347
6.154826069431308 1.3634504144392252 2.14120747784039 2.6501681771516927
9.435559864202546 1.6035508213925698 3.730677661744438 4.101331381065537
13.311930568558836 1.8612068479203654 5.699969125110959 5.750754595527513
17.822439732149178 2.1617825020894545 8.068449976365061 7.592207253694666
23.077548849678138 2.5173978876536554 10.9059807422603 9.654170219764184
29.152636758119456 2.927650183923249 14.256253720106617 11.968732854089595
36.168815424415605 3.3828032817485427 18.25891712296658 14.527095019700477
43.66052289145181 3.8535088682782273 22.5237657718789 17.283248251294715
51.78073400335246 4.3184491604995 27.34488555039342 20.117399292459535
59.72224866712528 4.606524572713323 32.20834006516152 22.907384029250434
66.34718277235491 4.480741012953121 36.51365007337392 25.352791686027878
69.10817769571753 2.6401275534039845 39.48217181801283 26.98587832430071
66.34718277234134 4.480741012947078 36.51365007336901 25.352791686025235
59.72224866711733 4.606524572723572 32.208340065149905 22.907384029243858
51.78073400332707 4.318449160495083 27.344885550380244 20.117399292451715
43.66052289141975 3.853508868271749 22.523765771862983 17.28324825128502
36.168815424389905 3.382803281753362 18.258917122947924 14.527095019688614
29.152636758094825 2.9276501839274602 14.256253720089438 11.968732854077931
23.07754884965028 2.5173978876516 10.905980742245244 9.654170219753444
17.822439732124696 2.1617825020890504 8.068449976351353 7.592207253684299
13.311930568534029 1.8612068479190174 5.699969125098001 5.750754595517016
9.435559864181542 1.6035508213910208 3.7306776617341724 4.101331381056349
6.154826069414445 1.3634504144373083 2.14120747783287 2.6501681771442693
3.660489677649941 1.1292231472552254 1.0772445077884587 1.4540220226062583
1.8128277375446034 0.8536416884025991 0.3440151141945204 0.6151709349474841
0.8089100815170223 0.6042176682109665 0.05656783965282618 0.14812457365322973
0.38122524390231594 0.38998193228051925 -0.004309219880779654 -0.004447468497423516
0.22912796475969366 0.23047228475845816 -0.0002452105969678445 -0.00109910940179669
0.15235873960066634 0.15234445358455465 9.176681415783688e-07 1.336834797013782e-05
0.13922352050286477 0.1392392783348003 -8.232903041218908e-07 -1.4934541631370911e-05
0.3632075944337288 0.18601103072122982 0.05527318162245759 0.12192338209004128
3.013981802368542 1.7097162275930262 0.48353529098558395 0.8207302837899325
2.0876170477997733 1.3091703354058568 0.2930731964030414 0.48537351599087525
0.269434578002042 0.20811467910921544 0.010091726205326963 0.051228172687499664
0.16374996511305873 0.16374413283095726 3.7705430600642793e-07 5.455227795464113e-06
0.1591072279161151 0.1590802736920135 1.9856943216208e-06 2.4968529779967134e-05
0.20575793714156593 0.20696084514524654 -0.00018532090615036402 -0.0010175870975302212
0.30367580531885197 0.3152856682395026 -0.003398606249847357 -0.008211256670803399
0.538446856180479 0.4830396683103874 0.008721817609333273 0.04668537026075828
1.1643626919167613 0.6857113396976121 0.14916579684436132 0.3294855553747882
2.3989659574133744 0.9214401410442716 0.5657171925988178 0.9118086237702853
4.320744642723999 1.1494537461526466 1.3770178758443254 1.7942730207270259
6.689365257611575 1.3515732900647663 2.431991470092017 2.9058004974547913
9.541334149461917 1.5666476467389656 3.8043053551580215 4.170381147564929
12.853585719681899 1.8158075568309484 5.471635080437179 5.566143082413775
16.680233880572462 2.1086614191754434 7.448554557733226 7.123017903663801
21.176136683474223 2.4609595369125987 9.838670351571533 8.876506794990089
26.325086713178283 2.8670121784550266 12.613922436385527 10.844152098337734
32.182185103931424 3.309075376137818 15.884785606580587 12.988324121213031
38.48371841558635 3.813633751130599 19.392039560021473 15.278045104434264
45.09975079107526 4.278210377816207 23.165124588618802 17.656415824640238
51.41141067746841 4.34728885427666 27.087416480023435 19.976705343168305
54.36885056410867 2.285940722032273 30.274333541368712 21.808576300707696
51.41141067746301 4.347288854272707 27.087416480022416 19.976705343167893
45.09975079106015 4.27821037781495 23.165124588610208 17.65641582463502
38.4837184155719 3.813633751131743 19.392039560011945 15.278045104428227
32.182185103908544 3.3090753761338934 15.884785606569148 12.988324121205515
26.325086713150878 2.867012178451441 12.613922436371407 10.844152098328022
21.17613668344556 2.4609595369047486 9.83867035155946 8.87650679498136
16.680233880552482 2.1086614191733393 7.448554557723097 7.123017903656042
12.853585719662318 1.8158075568284535 5.4716350804277685 5.5661430824060965
9.54133414944289 1.5666476467353505 3.804305355149869 4.170381147557672
6.689365257596072 1.3515732900639965 2.4319914700845504 2.905800497447524
4.320744642711293 1.1494537461502938 1.37701787583926 1.794273020721741
2.3989659574057476 0.9214401410433446 0.565717192595824 0.9118086237665786
1.1643626919126122 0.6857113396967746 0.14916579684308348 0.3294855553727536
0.5384468561790049 0.4830396683097301 0.00872181760910875 0.046685370260165955
0.30367580531833166 0.3152856682385409 -0.0033986062497865497 -0.008211256670422901
0.20575793714118618 0.20696084514487506 -0.00018532090614844523 -0.001017587097540406
0.15910722791581472 0.15908027369170116 1.985694321836739e-06 2.4968529791673438e-05
0.1637499651126864 0.16374413283058625 3.77054305894178e-07 5.455227794269461e-06
0.26943457800095155 0.20811467910898274 0.01009172620502511 0.051228172686943546
2.0876170477931546 1.3091703354029023 0.2930731964014845 0.48537351598876805
1.3488065618025484 0.9704309734128445 0.12116359772830598 0.2572119906613977
0.21646513035936066 0.21604031232197865 -0.004373056228229012 0.0047978742656111335
0.1849966231745187 0.18507680109859526 -6.891134986441236e-06 -7.328678909005853e-05
0.17232055705007393 0.17238339993485902 -4.153057242887411e-06 -5.8689827542243214e-05
0.19547419154529586 0.19664581630488118 -0.00018460357611610386 -0.000987021183469206
0.2591728812677883 0.264360651190831 -0.0017616739156042622 -0.0034260960074385138
0.37898479292350845 0.38128885044539473 -0.003997217902038324 0.0016931603801520253
0.6871871525731038 0.5297806382697429 0.04035046737437077 0.11705604692899028
1.3791547005706692 0.7032961333008148 0.2265613536071238 0.4492972136627302
2.556088287701142 0.8912168786478795 0.6551989078579709 1.0096725011952925
4.109463425149788 1.067410932851848 1.2844819320781893 1.7575705602197516
6.005229408339065 1.2502626123107086 2.1312750923390706 2.6236917036892837
8.186762725267219 1.45625733574535 3.149481789456956 3.581023600064912
10.69635092511539 1.6926933646622695 4.358952628896798 4.644704931556322
13.6551395615266 1.9823962459739746 5.826389830341945 5.846353485210677
17.164866860709004 2.340385964521992 7.606488516303818 7.217992379883197
21.233983645887484 2.7575546366886283 9.709802095326314 8.766626913872535
25.76172981598841 3.2166146476970683 12.077565995616633 10.467549172674707
31.038121717454924 3.8177406171990915 14.853229787277662 12.367151312978168
36.9962020689745 4.235899391740478 18.237444104031788 14.522858573202216
40.25655525026254 2.0130865874073995 21.55037103367436 16.693097629180794
36.99620206897611 4.235899391740988 18.237444104032477 14.522858573202639
31.038121717450792 3.8177406172020802 14.853229787273383 12.367151312975329
25.761729815977326 3.216614647698047 12.077565995609458 10.467549172669822
21.23398364587009 2.7575546366846404 9.709802095318533 8.76662691386691
17.16486686069148 2.340385964518866 7.6064885162956255 7.217992379876992
13.655139561513593 1.9823962459710431 5.826389830336348 5.846353485206192
10.696350925101356 1.6926933646583457 4.3589526288913145 4.6447049315517015
8.186762725257486 1.4562573357460469 3.1494817894515768 3.5810236000598605
6.005229408329189 1.2502626123108165 2.131275092333995 2.6236917036843814
4.109463425139358 1.0674109328507455 1.284481932073758 1.7575705602148541
2.5560882876944557 0.891216878647411 0.6551989078551329 1.0096725011919103
1.379154700566279 0.7032961332997946 0.22656135360575463 0.44929721366073067
0.6871871525706794 0.5297806382686996 0.040350467373904034 0.11705604692807577
0.3789847929224784 0.3812888504443572 -0.003997217902066244 0.0016931603801874093
0.25917288126726196 0.26436065119009283 -0.0017616739155728797 -0.0034260960072579182
0.19547419154503373 0.19664581630463562 -0.00018460357611662536 -0.000987021183485291
0.17232055704970192 0.17238339993447208 -4.153057241293014e-06 -5.868982752885634e-05
0.18499662317414844 0.18507680109820376 -6.891134984875096e-06 -7.328678907042576e-05
0.21646513035873688 0.21604031232166054 -0.004373056228327406 0.0047978742654036935
1.3488065617982534 0.9704309734107941 0.12116359772742631 0.25721199066003325
0.8626110578683934 0.7338343999305237 0.03596845026751279 0.09280820767035702
0.1883277186422758 0.20375971969565834 -0.004866876116466338 -0.010565124936916257
0.20055971739924827 0.2005702488606526 -4.4860825479286637e-07 -1.008285314959019e-05
0.1880301535034535 0.18806480143384488 -3.0617207945786337e-06 -3.158620959673789e-05
0.19661422298333128 0.1975134747134751 -0.0001603854543050848 -0.0007388662758387979
0.23631746113295046 0.24177992833840692 -0.0015060133394449585 -0.00395645386601152
0.3052009344375256 0.3039839064248833 -0.0011051728502327659 0.0023222008628750253
0.40974764949326575 0.37279531337936556 0.006867546152471786 0.030084789961428514
0.6419810585469268 0.46553530035143526 0.047271014972112085 0.12917474322337927
1.1207876728265136 0.589232717654916 0.175591602811559 0.35596335236003895
1.8942735190298714 0.7151321956723318 0.45103168968044577 0.7281096336770938
2.841562110121474 0.834770152882995 0.8048577113503552 1.201934245888124
3.986073375847794 0.9806584786721653 1.2732685770782568 1.7321463200973723
5.334954928630149 1.1568773110663653 1.8503239005213006 2.327753717042483
6.938022326033954 1.3757351308195966 2.5514248244737248 3.0108623707406332
8.915622549511228 1.6682669159778147 3.427980308155253 3.819375325378158
11.394719303550346 2.0496861744795147 4.552499094932759 4.792534034138072
14.390387204924483 2.4736755520541878 5.980857461421566 5.935854191448733
17.93977221087311 2.963342964078576 7.703313754583976 7.27311549221056
23.031168542668937 3.884845224084286 10.086123504100124 9.060199814484525
27.46794758899643 1.9174644407960932 13.862029964070162 11.688453184130173
23.03116854267416 3.8848452240864346 10.08612350410194 9.060199814485783
17.93977221086855 2.9633429640781825 7.703313754581569 7.273115492208797
14.390387204915484 2.4736755520536584 5.980857461416834 5.935854191444996
11.394719303543395 2.0496861744815615 4.552499094927831 4.792534034134003
8.915622549503842 1.6682669159776433 3.427980308151472 3.8193753253747276
6.938022326027134 1.3757351308173176 2.5514248244714386 3.01086237073838
5.3349549286277425 1.1568773110678765 1.8503239005193106 2.327753717040553
3.98607337584093 0.9806584786714626 1.2732685770752732 1.7321463200941944
2.841562110114766 0.8347701528821652 0.8048577113476564 1.2019342458849434
1.894273519024117 0.7151321956708648 0.45103168967855917 0.7281096336746934
1.1207876728233817 0.5892327176541236 0.1755916028106123 0.35596335235864557
0.6419810585454544 0.46553530035080026 0.047271014971835834 0.12917474322281813
0.40974764949264797 0.372795313379019 0.006867546152371467 0.03008478996125765
0.3052009344368338 0.3039839064242807 -0.0011051728502699566 0.0023222008628230135
0.23631746113242696 0.24177992833769832 -0.0015060133394100787 -0.003956453865861394
0.19661422298303374 0.19751347471310596 -0.00016038545429612289 -0.0007388662757761455
0.1880301535030614 0.1880648014334902 -3.0617207994238748e-06 -3.158620962936542e-05
0.2005597173988629 0.2005702488602482 -4.4860825316658915e-07 -1.0082853132141154e-05
0.18832771864196993 0.20375971969512527 -0.0048668761164103085 -0.010565124936745024
0.8626110578658203 0.7338343999291476 0.03596845026711596 0.0928082076695566
0.5481281496166531 0.5314644087113213 0.0026247056496162486 0.014039035255715817
0.17790455404356936 0.1808413806189094 -0.00046192016511219377 -0.0024749064102278224
0.21012820758362233 0.21031884941084092 -1.5850025098077424e-05 -0.00017479180212048702
0.20357556192232562 0.20376810674648765 -2.1740874513927387e-05 -0.00017080394964811473
0.2065899678696818 0.20731592414923666 -0.00016442018691792678 -0.0005615360926369247
0.23378816198507948 0.23749786656220118 -0.0012039207013960808 -0.0025057838757255174
0.2845801759857119 0.28036640903898186 -9.008389107531351e-05 0.004303850837805551
0.3359028061173219 0.29093671346267225 0.009924549404601371 0.035041543250048234
0.3755885188255993 0.2633357873030997 0.0338195803136708 0.0784331512088291
0.4460046488142079 0.22475884808673435 0.07155612232586692 0.14968967840160655
0.6239499420199028 0.2352251355826362 0.14814017011521377 0.2405846363220529
0.9030161350639355 0.2795177438061315 0.24318825345400708 0.3803101378037971
1.2976680580231557 0.29971251642492613 0.4004897349545267 0.5974658066437021
1.8028979941331968 0.30308477403381284 0.6216180800819404 0.8781951400174439
2.4375497485265782 0.31782481989537287 0.9092906491167431 1.2104342795144614
3.204591299028426 0.36350787728534295 1.251683773022315 1.5893996487207676
4.15702696785357 0.4603807564924525 1.6826964129747954 2.0139497983863217
5.304168962178346 0.6092851480621122 2.209766842471402 2.4851169716448314
7.011974521067048 0.9131078948265026 2.957269368600446 3.1415972576400977
11.207725542485477 2.2314332687946083 4.3510691643176855 4.625223109373184
18.6920546564991 1.9321683375257095 8.631986163743068 8.127900155230327
11.207725542485559 2.231433268791514 4.3510691643194885 4.625223109374555
7.011974521062872 0.9131078948241184 2.957269368599472 3.141597257639279
5.304168962172685 0.6092851480615642 2.2097668424686217 2.4851169716424995
4.157026967849218 0.4603807564936273 1.6826964129719186 2.01394979838367
3.204591299027523 0.36350787728725614 1.2516837730209618 1.589399648719305
2.437549748521905 0.3178248198939289 0.9092906491151445 1.210434279512831
1.8028979941310688 0.3030847740338485 0.6216180800809772 0.8781951400162441
1.2976680580157949 0.29971251642258223 0.40048973495236245 0.5974658066408502
0.9030161350623211 0.2795177438059422 0.24318825345320008 0.3803101378031795
0.6239499420172624 0.2352251355819894 0.1481401701143093 0.24058463632096347
0.4460046488141074 0.2247588480867138 0.07155612232585629 0.14968967840153746
0.37558851882553684 0.2633357873034194 0.033819580313532056 0.0784331512085854
0.33590280611717976 0.29093671346287436 0.009924549404490581 0.035041543249814795
0.2845801759851074 0.28036640903841226 -9.008389112357589e-05 0.004303850837818665
0.2337881619844877 0.23749786656144733 -0.001203920701366033 -0.002505783875593714
0.2065899678693624 0.20731592414873096 -0.00016442018689717908 -0.0005615360924712725
0.2035755619221695 0.2037681067461118 -2.1740874488314368e-05 -0.00017080394945395586
0.2101282075834082 0.2103188494107058 -1.5850025105864093e-05 -0.00017479180219171284
0.17790455404327526 0.18084138061859137 -0.0004619201651040656 -0.0024749064102120473
0.5481281496153534 0.5314644087099389 0.002624705649580995 0.01403903525583337
0.35932275288626264 0.36007016852816226 -0.00010877246701017933 -0.0006386431748894492
0.16881986408284727 0.16875742913650038 1.1016726240726913e-05 5.141822010617329e-05
0.21382389579727756 0.21377938968501442 8.614135563161169e-07 4.3644698706851495e-05
0.21696105726167253 0.21708201446219372 -2.4080160167339027e-05 -9.687704035392233e-05
0.22229197781927681 0.22234979154079412 -9.217877235962954e-05 3.4365050842373206e-05
0.25186039855137693 0.2538147958891361 -0.0010359684381108132 -0.0009184288996485042
0.31398894283341067 0.3120611181863121 -0.00035430837224811776 0.0022821330193465994
0.41351300071505626 0.37429136746142005 0.007722900576707157 0.03149873267692898
0.6429117382186266 0.4653294155374481 0.04768006461809378 0.12990225806308475
1.1196521898006555 0.588763912527847 0.1752781758175918 0.35561010145521643
1.8953003480482427 0.7168597584122649 0.4511072856827288 0.7273333039532494
2.8528391864051628 0.8367368979180436 0.8105627053644591 1.2055395831226596
4.013712504734548 0.9850024996710003 1.2844506991315525 1.7442593059319944
5.373009022984591 1.1603884171759073 1.8682581773791573 2.3443624284295272
6.899420970548155 1.3601027405115615 2.5409758479036477 2.9983423821329445
8.529528464738977 1.5882976561435074 3.2730233105603634 3.6682074980351045
10.054148082843351 1.8303650102347693 3.9581129692312618 4.26567010337732
11.28777861887641 2.1069597158265605 4.515856565872984 4.66496233717687
11.723803138862742 2.292887024348522 4.687976198290716 4.742939916223501
9.374968478712384 1.3727236879149034 4.073044013297839 3.929200777499641
18.927196792073545 3.259590010865821 7.909355167537268 7.758251613670467
9.374968478719959 1.372723687917017 4.073044013300873 3.9292007775020616
11.723803138857523 2.292887024346065 4.687976198289187 4.742939916222278
11.287778618863491 2.1069597158209605 4.515856565868939 4.664962337173587
10.054148082826373 1.8303650102273505 3.958112969226111 4.265670103372914
8.529528464721263 1.5882976561359092 3.2730233105550353 3.668207498030317
6.89942097054646 1.3601027405169124 2.5409758479001523 2.9983423821293984
5.373009022973267 1.1603884171723402 1.8682581773752214 2.344362428425704
4.013712504726302 0.9850024996730913 1.2844506991265896 1.7442593059266231
2.85283918639591 0.8367368979158404 0.8105627053612335 1.2055395831188356
1.8953003480411184 0.7168597584123427 0.4511072856795619 0.7273333039492138
1.1196521897955263 0.5887639125264088 0.17527817581612393 0.3556101014529934
0.6429117382170603 0.46532941553680446 0.04768006461778029 0.12990225806247543
0.41351300071377356 0.37429136746082353 0.00772290057649406 0.031498732676455934
0.31398894283296075 0.3120611181857652 -0.0003543083722362633 0.0022821330194316815
0.25186039855085196 0.25381479588841827 -0.001035968438084827 -0.0009184288994815036
0.22229197781898952 0.22234979154033252 -9.217877234093322e-05 3.436505099797554e-05
0.21696105726151652 0.21708201446184625 -2.4080160146822622e-05 -9.687704018288934e-05
0.21382389579708225 0.2137793896846674 8.614135658556903e-07 4.3644698848942295e-05
0.16881986408267377 0.16875742913630615 1.1016726239611836e-05 5.141822012799307e-05
0.3593227528855005 0.3600701685274284 -0.00010877246701446282 -0.0006386431749134759
0.2327195143965567 0.2327195143965567 0.0 0.0
0.15520611724200578 0.15524583470707853 -2.2282581135979696e-06 -3.7489206959187357e-05
0.21093706831838954 0.21111529025173728 -1.8409609965126327e-05 -0.00015981232338269915
0.22658927619461902 0.2259330646769684 8.159755236770149e-05 0.0005746139652830598
0.24204166379072922 0.24483651239982887 -0.0005381191663190663 -0.0022567294427804662
0.2887005481984092 0.2945866438754655 -0.0015174571255836796 -0.0043686385514726984
0.39281516312165643 0.3830626670223207 -0.001625513665911779 0.011378009765247611
0.6934457044220824 0.5305170751337753 0.04246703315842976 0.12046159612987734
1.379000991649131 0.7031109262262598 0.22654224977793286 0.44934781564493786
2.5540957120622765 0.8910363995411184 0.6542573816738577 1.008801930847299
4.110516821244923 1.0676846998791356 1.2847589163880178 1.7580732049777685
6.015272183591824 1.251717517849894 2.135587808966533 2.6279668567753958
8.211479794096284 1.4587209288861145 3.161222147807398 3.591536717402774
10.724901537769327 1.6915684035426513 4.37532938642275 4.658003747803922
13.601965929250309 1.9580665641986292 5.811553858611127 5.832345506440548
16.759249083490893 2.250581337867157 7.42960418469846 7.079063560925272
19.936101891481556 2.566269214358822 9.07160266732393 8.298230009798809
22.694802442464997 2.9265517539899095 10.440919069854697 9.327331618620379
24.079199679983898 3.0596810239248855 11.187959746331028 9.831558909727988
22.272162813306913 3.002345886609671 10.259329968196912 9.01048695850033
27.241374797456782 6.759275522474882 10.831792391107317 9.650306883874578
22.27216281331195 3.0023458866079995 10.259329968200891 9.010486958503055
24.07919967998233 3.0596810239260166 11.18795974632943 9.831558909726876
22.6948024424531 2.926551753991301 10.440919069846885 9.327331618614906
19.93610189146436 2.566269214359187 9.071602667313767 8.298230009791405
16.759249083479933 2.250581337872461 7.429604184689282 7.07906356091819
13.601965929231142 1.9580665641926638 5.811553858603812 5.832345506434668
10.724901537755535 1.6915684035436795 4.375329386414798 4.658003747797055
8.211479794083775 1.458720928887236 3.161222147800278 3.591536717396263
6.015272183574481 1.2517175178459938 2.1355878089597047 2.6279668567687815
4.1105168212309655 1.0676846998777272 1.2847589163820121 1.7580732049712247
2.554095712053855 0.8910363995408804 0.6542573816701305 1.0088019308428458
1.3790009916440265 0.7031109262250521 0.22654224977635692 0.4493478156426175
0.6934457044198657 0.5305170751329709 0.0424670331579632 0.12046159612893174
0.392815163120284 0.3830626670211362 -0.0016255136659842975 0.01137800976513217
0.2887005481978378 0.2945866438746427 -0.001517457125533938 -0.004368638551270883
0.24204166379031553 0.24483651239929988 -0.0005381191662993511 -0.0022567294426849753
0.2265892761943579 0.22593306467664437 8.159755236716882e-05 0.0005746139653464038
0.21093706831808284 0.21111529025143574 -1.8409609965473038e-05 -0.00015981232338739106
0.15520611724176767 0.15524583470684172 -2.2282581127935475e-06 -3.7489206961250654e-05
0.23271951439586303 0.23271951439586303 0.0 0.0
0.14366374088713538 0.14366374088713538 0.0 0.0
0.1363209685731638 0.13630659229736775 9.041248211059367e-07 1.3472150974969511e-05
0.20128282611614198 0.20137129359657296 -7.83298215694435e-06 -8.0634498274036e-05
0.23239665308515964 0.2330790165070293 -0.00010174844242383725 -0.0005806149794459614
0.26563861971971753 0.26700866043758126 -0.0003537230748310333 -0.0010163176430327543
0.3386340206229359 0.33866769567884913 -0.0018792323979066518 0.0018455573419935106
0.5607036804617367 0.4926046529860426 0.014260126326313165 0.05383890114938099
1.1698482913953194 0.6865799175478433 0.15151841928281493 0.33174995456466155
2.396861048369223 0.921388492051578 0.5647608699811787 0.9107116863364659
4.319489780806042 1.149612982773681 1.3765884074331514 1.793288390599211
6.6908190145410025 1.351716284849345 2.431414902423973 2.907687827267689
9.54939796079604 1.5672368411655115 3.808347843144403 4.173813276486129
12.866281307129341 1.8164832526893981 5.4783159930112255 5.571482061428719
16.683169041586424 2.1048323314492663 7.452536370022472 7.1258003401146865
21.100171625944053 2.4337351832897616 9.810723896656427 8.855712545997866
25.978172730185328 2.7861965227608265 12.457206750887112 10.734769456537377
31.150294063386728 3.153010442136982 15.358580786808167 12.638702834441576
35.63793876190006 3.4154934253662965 17.899094253001213 14.323351083532549
37.962974599317924 3.4403263302081584 19.307171064537535 15.21547720457223
35.2225185675635 3.020648927776917 17.903001395546852 14.29886824423972
39.567766713580674 9.574125942974698 16.536646625242145 13.456994145363831
35.22251856755621 3.0206489277672386 17.903001395548305 14.298868244240651
37.962974599317455 3.440326330211424 19.307171064535204 15.215477204570824
35.637938761886225 3.415493425369138 17.899094252991055 14.32335108352603
31.150294063362686 3.1530104421356855 15.358580786794448 12.63870283443255
25.978172730152032 2.786196522751039 12.457206750873201 10.734769456527788
21.10017162591565 2.433735183284615 9.810723896642918 8.85571254598812
16.683169041563424 2.1048323314471347 7.4525363700106295 7.125800340105649
12.866281307101206 1.8164832526821773 5.478315992999674 5.571482061419361
9.54939796077521 1.5672368411644733 3.808347843133843 4.173813276476893
6.690819014522526 1.351716284848311 2.4314149024150598 2.907687827259155
4.319489780791981 1.1496129827712998 1.3765884074274415 1.7932883905932393
2.3968610483603388 0.9213884920497022 0.5647608699780282 0.9107116863326087
1.1698482913908197 0.6865799175460218 0.1515184192817762 0.3317499545630218
0.5607036804595174 0.49260465298497447 0.014260126325955129 0.05383890114858764
0.3386340206220372 0.33866769567770827 -0.0018792323978814671 0.0018455573422102764
0.26563861971917196 0.26700866043684607 -0.00035372307480460225 -0.0010163176428695205
0.23239665308484872 0.23307901650656218 -0.00010174844240526877 -0.0005806149793082215
0.20128282611586096 0.20137129359632372 -7.8329821614492e-06 -8.06344983013631e-05
0.13632096857285458 0.1363065922970602 9.041248209747978e-07 1.3472150973420913e-05
0.14366374088665995 0.14366374088665995 0.0 0.0
0.08401530483556556 0.08401530483556556 0.0 0.0
0.11347042520134168 0.11347042520134168 0.0 0.0
0.18589761315982095 0.185885804551368 7.548168538369072e-07 1.105379159913707e-05
0.23481122819520373 0.23479715565182369 -3.9313780839501105e-06 1.8003921463950208e-05
0.2908819720568121 0.29547359872261486 -0.0009668818694647492 -0.0036247447963379405
0.41971454757498516 0.4149130182498473 -0.0005757842155852439 0.005377313540723102
0.8248492868294875 0.6012684615368064 0.06238336729125022 0.16119745800143057
1.8145945793367106 0.8540549052516535 0.34501049828831354 0.6155291757967445
3.6575682969124723 1.1296146532406515 1.0756298966482816 1.4523237470235386
6.1545724731073435 1.3637910415545638 2.140719903083393 2.6500615284693865
9.439312482557213 1.6034844724229056 3.732957584929522 4.102870425204784
13.314834845904423 1.860101626207359 5.702219830296738 5.752513389400324
17.813498205012163 2.158432464356139 8.065373758918508 7.589691981737525
23.039469343564726 2.5099773679140167 10.88824432512938 9.641247650521322
29.06227327073061 2.9102109094459387 14.212719511699298 11.93934284958539
35.95657485825934 3.3409596239960733 18.154694676275902 14.460920557987368
42.9438665590898 3.701143288600953 22.17406232410055 17.068660946388306
49.241692333713615 3.8373449969218276 26.05323937895082 19.35110795784096
52.35158254438298 3.5688340588136733 28.20772101762299 20.57502746794632
48.77567278117589 3.1003664240830897 26.24902628553 19.426280071562807
53.213577539900584 12.283114612031333 23.23962364632584 17.690839281543393
48.77567278117906 3.100366424087251 26.249026285529382 19.426280071562424
52.35158254436615 3.568834058805125 28.207721017617736 20.575027467943293
49.2416923336822 3.83734499691427 26.053239378935753 19.351107957832163
42.943866559050896 3.7011432885935482 22.1740623240811 17.06866094637625
35.95657485822654 3.340959623996204 18.154694676255797 14.460920557974534
29.06227327069858 2.910210909446377 14.212719511679921 11.939342849572277
23.039469343532968 2.509977367911148 10.888244325112494 9.641247650509333
17.81349820498172 2.1584324643564723 8.065373758900954 7.589691981724286
13.314834845874012 1.8601016262031216 5.702219830282337 5.752513389388557
9.439312482531143 1.6034844724199686 3.7329575849173184 4.102870425193855
6.154572473088264 1.3637910415514929 2.1407199030753676 2.650061528461405
3.6575682968989818 1.1296146532382498 1.0756298966429245 1.4523237470178068
1.8145945793292397 0.8540549052501545 0.34501049828575453 0.6155291757933312
0.8248492868259756 0.6012684615357116 0.06238336729036118 0.16119745799990218
0.41971454757381965 0.4149130182487668 -0.0005757842156006121 0.00537731354065348
0.2908819720564455 0.2954735987220456 -0.0009668818694318955 -0.003624744796168259
0.2348112281947986 0.23479715565140874 -3.931378085397508e-06 1.8003921475307395e-05
0.18589761315962844 0.18588580455117487 7.548168536389339e-07 1.1053791599910286e-05
0.11347042520113686 0.11347042520113686 0.0 0.0
0.0840153048353229 0.0840153048353229 0.0 0.0
0.046243126406236956 0.046243126406236956 0.0 0.0
0.08940652834114916 0.08940652834114916 0.0 0.0
0.16643109265924788 0.1664204340649535 6.366593226293898e-07 1.002193497175889e-05
0.23448861190610415 0.2347527040993278 -3.8445031535844827e-05 -0.00022564716168780541
0.3201329244056537 0.3227310100612941 -0.001133907287748824 -0.0014641783678917537
0.5431806283601314 0.4964374255027713 0.010163021685306023 0.03658018117205386
1.1868824162127565 0.7265783715261329 0.14881327392366323 0.3114907707629607
2.634611650837192 1.0242858716936163 0.6516726602041962 0.9586531189393797
4.917487998673049 1.2984935002883053 1.560620689159124 2.0583738092256194
8.208181322667894 1.57293712643652 3.099988393256699 3.5352558029746737
12.325642730316783 1.8509998755297594 5.161056237343233 5.313586617443791
17.250201979953253 2.1555627956766927 7.746114645365338 7.348524538911219
23.011108802184804 2.5099117721271664 10.872472128231747 9.628724901825894
29.746505311226038 2.928616050394878 14.634599295933036 12.183289964898115
37.49448342709932 3.419671838617364 19.026331400687663 15.048480187794294
46.21917848439591 3.914932790128238 24.0948121463577 18.20943354790999
55.4807628863291 4.257242560875329 29.746665650048428 21.47685467540533
63.29170040289449 4.189486140877075 34.73989597720083 24.362318284816592
66.83065182122289 3.6021099241073404 37.350278588470644 25.8782633086449
62.757489445897306 3.2628514342096753 35.00525983867679 24.48937817301085
68.08920415033897 15.03495250691178 30.906687010448422 22.14756463297875
62.75748944589065 3.2628514342061434 35.00525983867483 24.48937817300971
66.83065182119596 3.6021099240990804 37.35027858845863 25.878263308638218
63.2917004028686 4.189486140883087 34.73989597718044 24.362318284805088
55.48076288629389 4.257242560879552 29.746665650023402 21.476854675390936
46.21917848435258 3.914932790126169 24.094812146331993 18.20943354789444
37.49448342705953 3.419671838617477 19.02633140066329 15.048480187778754
29.746505311186848 2.928616050392768 14.634599295910851 12.183289964883222
23.011108802146367 2.5099117721259847 10.872472128209997 9.628724901810385
17.25020197991598 2.155562795675183 7.746114645345061 7.348524538895729
12.32564273028758 1.8509998755294883 5.161056237327436 5.313586617430655
8.208181322643163 1.5729371264332992 3.0999883932454813 3.535255802964384
4.917487998656895 1.2984935002867508 1.5606206891521555 2.0583738092179895
2.6346116508269084 1.0242858716920475 0.6516726602002004 0.9586531189346588
1.1868824162080878 0.7265783715250458 0.14881327392228236 0.31149077076076026
0.5431806283582551 0.4964374255016066 0.010163021685080159 0.036580181171568145
0.32013292440501767 0.3227310100602973 -0.0011339072876963992 -0.001464178367583099
0.23448861190581535 0.23475270409906113 -3.844503154105765e-05 -0.00022564716170480427
0.1664310926590902 0.1664204340648023 6.366593221431451e-07 1.0021934965748754e-05
0.08940652834097039 0.08940652834097039 0.0 0.0
0.046243126406158845 0.046243126406158845 0.0 0.0
0.023881468690517705 0.023881468690517705 0.0 0.0
0.06671155947398193 0.06671155947398193 0.0 0.0
0.14522799950718468 0.14522202536414103 3.662909033654852e-07 5.6078521402870744e-06
0.23350331702174112 0.23360938229019054 -2.086758912948913e-05 -8.519767931988332e-05
0.36330622898775883 0.3687496526935037 -0.0017324505143326606 -0.0037109731914122383
0.7119426521213383 0.5690608545523883 0.036059083082177514 0.10682271448677219
1.667503010343411 0.8618126067025241 0.30102973219031165 0.5046606714505749
3.4731799969316173 1.1626064031722698 0.9444804666969198 1.3660931270624266
6.3629096397935365 1.4672600143364796 2.2052949746897204 2.690354650767338
10.326969881862743 1.7774322744209816 4.116556002595506 4.432981604846258
15.33470322246556 2.1034083406474906 6.69573443181778 6.535560450000282
21.362757229917925 2.4632190987211304 9.94371905675063 8.955819074446161
28.4746179829553 2.881185513682471 13.908900755841668 11.684531713431168
36.63555360894245 3.373006205444416 18.515290547009684 14.747256856488345
46.2005952009084 3.93843251868615 24.091117014550505 18.171045667671756
56.97633311598054 4.514083629893826 30.51986966494607 21.942379821140616
68.04890909776533 4.825605633442317 37.3657080786671 25.85759538565594
77.44789710184284 4.501469450265291 43.65531953652878 29.2911081150488
81.76157507050422 3.6260076776164727 47.04219016264115 31.093377230246617
77.33946394130938 3.4501691251826325 44.27720403017039 29.612090785956344
83.85499026641563 17.805501872599148 39.176514285272674 26.872974108543836
77.33946394129512 3.4501691251769997 44.27720403016471 29.612090785953395
81.7615750704851 3.6260076776235093 47.042190162624024 31.09337723023755
77.44789710180629 4.501469450266007 43.655319536504436 29.29110811503584
68.04890909771926 4.825605633441755 37.36570807863783 25.857595385639684
56.97633311593093 4.5140836298942615 30.51986966491434 21.942379821122316
46.2005952008561 3.9384325186824944 24.09111701452019 18.171045667653416
36.63555360889564 3.3730062054429 18.515290546982044 14.747256856470687
28.47461798290791 2.8811855136805113 13.908900755814638 11.68453171341276
21.3627572298771 2.4632190987226488 9.943719056726145 8.95581907442831
15.334703222428852 2.1034083406442976 6.695734431799086 6.535560449985462
10.326969881834112 1.7774322744184852 4.116556002581543 4.432981604834083
6.3629096397737275 1.4672600143349344 2.205294974680675 2.6903546507581173
3.473179996918782 1.1626064031700678 0.9444804666919818 1.3660931270567351
1.6675030103364237 0.8618126067005396 0.3010297321881788 0.504660671447704
0.7119426521189294 0.5690608545514152 0.03605908308166738 0.10682271448584704
0.36330622898693854 0.368749652692523 -0.0017324505143009174 -0.003710973191283686
0.2335033170214848 0.23360938228994083 -2.0867589131524816e-05 -8.519767932448992e-05
0.1452279995069269 0.14522202536388346 3.662909033509835e-07 5.607852140109466e-06
0.06671155947383456 0.06671155947383456 0.0 0.0
0.02388146869048969 0.02388146869048969 0.0 0.0
0.011713819429610035 0.011713819429610035 0.0 0.0
0.047365980183630106 0.047365980183630106 0.0 0.0
0.12487097530918012 0.12487097530918012 0.0 0.0
0.23523406761783375 0.23569193156619067 -6.693231453985059e-05 -0.00039093163381710347
0.426930004749237 0.4203065594181654 0.0007027429879065301 0.005920702343165267
0.9518108037726564 0.6738541834652898 0.08718964415759234 0.19076697614977434
2.1964030565231516 0.9784524853280303 0.46317046023401875 0.7547801109611032
4.427323509892517 1.2919303575101473 1.3351572663762992 1.800235886006069
7.85456981987193 1.629534674592741 2.8876965233757215 3.3373386219034673
12.534552228205719 1.9835449662792835 5.210315540057242 5.340691721869188
18.43760561119571 2.3623882528042 8.31024769014717 7.764969668244344
25.612153095222357 2.7876678162795487 12.251636881546334 10.572848397396482
34.000497436889944 3.275309452247857 16.969115576218385 13.756072408423702
43.9134586056808 3.8393215488898047 22.748759312542063 17.32537774424895
55.16453347292878 4.474627684363236 29.384751142888405 21.305154645677145
67.69447085549737 5.095189710053245 36.94939677538364 25.649884370060462
80.74781201928184 5.3952610294399275 45.22164822062321 30.130902769218704
91.77190924244086 4.853407810479814 52.80517673760159 34.11332469435947
97.05703567172583 3.6717126916118152 57.0673125619902 36.318010418123805
92.76813912396983 3.608178491538191 54.29378262350943 34.86617800892219
101.00369109347162 20.5427283902775 48.56919237228042 31.891770330913715
92.7681391239603 3.608178491539883 54.29378262350198 34.866178008918446
97.05703567169613 3.671712691612289 57.067312561970205 36.318010418113616
91.7719092423942 4.853407810478501 52.805176737571585 34.11332469434409
80.74781201922673 5.395261029438852 45.221648220588 30.130902769199874
67.6944708554446 5.095189710056297 36.949396775347694 25.649884370040617
55.16453347287137 4.474627684363213 29.384751142852103 21.30515464565604
43.91345860562352 3.839321548887831 22.748759312507715 17.32537774422797
34.000497436838536 3.275309452249799 16.96911557618604 13.756072408402687
25.61215309517331 2.787667816277107 12.251636881518955 10.57284839737726
18.437605611153028 2.3623882528012716 8.310247690124541 7.764969668227223
12.534552228171604 1.9835449662758293 5.210315540040457 5.340691721855316
7.854569819847965 1.6295346745904398 2.8876965233645717 3.337338621892953
4.427323509876926 1.2919303575081245 1.3351572663700721 1.8002358859987282
2.1964030565146984 0.9784524853266519 0.4631704602309255 0.7547801109571223
0.9518108037690899 0.6738541834638941 0.08718964415676296 0.1907669761484327
0.42693000474836673 0.4203065594173225 0.0007027429878722328 0.005920702343171904
0.23523406761760635 0.23569193156598528 -6.693231454328629e-05 -0.00039093163383556185
0.12487097530903664 0.12487097530903664 0.0 0.0
0.04736598018356389 0.04736598018356389 0.0 0.0
0.011713819429583567 0.011713819429583567 0.0 0.0
0.005686674981336352 0.005686674981336352 0.0 0.0
0.03254393875606865 0.03254393875606865 0.0 0.0
0.10821025216852159 0.10821025216852159 0.0 0.0
0.2449700238635244 0.2459962495737149 -0.00015592176747865433 -0.0008703039427118385
0.5195891814229181 0.47860250948340605 0.008677887209615175 0.03230878472989686
1.260330049648248 0.778704142674498 0.16815321474831257 0.3134726922254373
2.783102470000549 1.0755300424700525 0.6662819760971502 1.0412904514333456
5.443342713100868 1.417279344720901 1.7730292934163139 2.2530340749636553
9.39923310590264 1.7881658911200007 3.6165609733412234 3.9945062414414143
14.798870686951624 2.191139734685377 6.352878533847832 6.254852418418415
21.65528084635042 2.6331778051046584 10.02270965948618 8.999393381759575
29.952106869888603 3.1270441424801736 14.62716225292106 12.197900474487362
39.87801388503393 3.6972727722923113 20.34546795132266 15.835273161418954
51.243662935202465 4.341803396970449 26.97424084456923 19.927618693662783
64.29079853616285 5.011215056549349 34.83213545449438 24.447448025119105
78.61416265911241 5.612927864359997 43.690208655085556 29.311026139666847
93.3402201462482 5.924335079261608 53.129702283839706 34.28618278314689
106.12040647959388 5.366672611446509 61.970485397538965 38.783248470608385
112.74975164901328 3.7508051865236585 67.51196343759557 41.48698302489409
109.22658319216664 3.6627134287937655 65.22399896426889 40.33987079910399
119.68382035354514 23.111248743853192 59.19093522156366 37.38163638812826
109.2265831921384 3.6627134287815784 65.22399896425814 40.339870799098655
112.74975164897339 3.750805186521628 67.5119634375702 41.48698302488161
106.12040647954163 5.366672611448132 61.97048539750314 38.78324847059036
93.34022014618685 5.924335079262325 53.1297022837988 34.286182783125746
78.61416265904231 5.612927864354767 43.69020865504336 29.311026139644202
64.29079853609306 5.011215056544656 34.832135454452654 24.447448025095756
51.243662935140954 4.3418033969723995 26.974240844529387 19.92761869363918
39.878013884972574 3.6972727722915044 20.34546795128544 15.835273161395635
29.95210686983176 3.127044142477197 14.627162252888773 12.197900474465794
21.655280846304155 2.6331778051023305 10.022709659460807 8.99939338174101
14.798870686912931 2.1911397346825683 6.352878533827909 6.254852418402455
9.39923310587547 1.7881658911175735 3.616560973328245 3.9945062414296535
5.443342713082819 1.4172793447198786 1.773029293408004 2.2530340749549356
2.7831024699903146 1.0755300424678702 0.6662819760938203 1.041290451428624
1.2603300496435121 0.7787041426729938 0.16815321474703393 0.3134726922234846
0.5195891814216035 0.4786025094824364 0.008677887209478732 0.03230878472968845
0.24497002386317815 0.24599624957327584 -0.00015592176747032362 -0.0008703039426273745
0.10821025216838442 0.10821025216838442 0.0 0.0
0.0325439387560187 0.0325439387560187 0.0 0.0
0.005686674981314843 0.005686674981314843 0.0 0.0
0.002698619394697942 0.002698619394697942 0.0 0.0
0.022371010858167513 0.022371010858167513 0.0 0.0
0.09903229410658371 0.09903229410658371 0.0 0.0
0.2712419831763873 0.2729139561086506 -0.000416989214202071 -0.0012549837180613076
0.663009494759911 0.5635835384812133 0.02892223542738936 0.07050372085130834
1.6126401039022933 0.8689547583914715 0.26675031297032226 0.47693503254049924
3.446868737788161 1.1757070371174847 0.9271535852870874 1.344008115383589
6.4955005461318205 1.5368054723890985 2.23938532978629 2.719309743956431
11.002211280626558 1.9444805411514579 4.3996847417790885 4.658045997696014
17.112416603850527 2.402493126428892 7.538169924062724 7.171753553358914
24.91909374260199 2.912017260025651 11.768954205422261 10.23812227715407
34.50717185380062 3.4887328852589716 17.190947460884416 13.827491507657232
45.722706099185196 4.146505783361823 23.644481452790984 17.931718863032412
58.86235615650449 4.861844237324052 31.46511134785589 22.53540057132456
73.67255285790212 5.5667319544663805 40.51203758190573 27.59378332153002
89.63276641148852 6.102140133543717 50.575087074771915 32.95553920317286
105.70072089035267 6.282545460196493 61.10567402807969 38.31250140207647
120.10046294891734 5.927481383672816 71.0022177251718 43.17076384007275
128.71527513615 4.193451400867774 77.99414507138026 46.52767866390192
126.83177254806121 3.4256378268428076 77.26455181872286 46.14158290249554
140.0332907776795 24.541882509535462 71.88788703800472 43.60352123013928
126.83177254803478 3.4256378268394867 77.26455181870719 46.14158290248812
128.71527513610164 4.193451400867478 77.99414507134799 46.52767866388627
120.10046294885336 5.927481383672003 71.00221772512926 43.17076384005212
105.70072089027808 6.282545460193587 61.105674028032 38.31250140205246
89.63276641141542 6.102140133546288 50.57508707472217 32.955539203146984
73.67255285782687 5.566731954464711 40.51203758185812 27.593783321504052
58.86235615643012 4.861844237320264 31.465111347811035 22.535400571298833
45.7227060991155 4.146505783361571 23.644481452747705 17.931718863006203
34.50717185373752 3.4887328852558848 17.190947460848065 13.827491507633562
24.91909374254599 2.912017260020123 11.768954205392523 10.238122277133346
17.112416603807837 2.4024931264262097 7.538169924040111 7.171753553341517
11.002211280595473 1.9444805411491932 4.399684741763647 4.6580459976826285
6.495500546111503 1.5368054723874094 2.239385329777003 2.7193097439470937
3.446868737775468 1.1757070371150482 0.9271535852824778 1.3440081153779417
1.6126401038964844 0.8689547583901911 0.2667503129684452 0.47693503253784864
0.6630094947578086 0.5635835384801685 0.028922235427014758 0.07050372085062555
0.27124198317615233 0.27291395610823876 -0.000416989214180279 -0.0012549837179062471
0.09903229410644823 0.09903229410644823 0.0 0.0
0.022371010858100265 0.022371010858100265 0.0 0.0
0.0026986193947038674 0.0026986193947038674 0.0 0.0
0.0007969341524885491 0.0007969341524885491 0.0 0.0
0.0162281599379935 0.0162281599379935 0.0 0.0
0.10297090043846813 0.10297090043846813 0.0 0.0
0.32956613198753604 0.32782168037044307 1.5113165061724897e-05 0.0017293384520312132
0.8706746321260227 0.6858934308491887 0.06062535543101749 0.12415584584581622
2.052469792552708 1.055035374144945 0.3736735140959052 0.6237609043118573
4.201331495002908 1.4591693483171608 1.1497807010919854 1.5923814455937626
7.681080570867872 1.9738458280457445 2.6248278900996143 3.0824068527225137
12.776371313223173 2.610598251228696 4.998751491667745 5.1670215703267335
19.74985437681267 3.4040286440456096 8.475205362836958 7.870620369930101
28.736798215133682 4.385290040877224 13.172158131431207 11.179350042825256
39.69660213912686 5.573310492620868 19.052865551156078 15.07042609534991
52.78479510611988 6.957695407846994 26.304667439932686 19.52243225834021
67.95527981087336 8.501521051683795 34.94193462219648 24.511824136993056
84.8810741283572 10.004471627801813 44.91570051980524 29.960901980750148
102.7179331795105 11.107122648323282 55.9365260805795 35.674284450607715
119.93308679240648 11.386868542838727 67.22867817260513 41.31754007696263
134.6470724277193 10.70020781758329 77.60793656698706 46.33892804314901
145.04901890074697 9.644781652184692 85.38655389629305 50.01768335226929
141.21554465958943 3.469633535455869 86.92780706120666 50.81810406292683
199.8576659879251 66.25437140932732 84.21900185189502 49.38429272670276
141.21554465956558 3.469633535458497 86.92780706118866 50.81810406291843
145.04901890070704 9.644781652199722 85.3865538962553 50.01768335225193
134.64707242764513 10.70020781758091 77.60793656693873 46.33892804312561
119.93308679232857 11.386868542841482 67.22867817255124 41.31754007693591
102.71793317942685 11.107122648321754 55.93652608052525 35.67428445057978
84.88107412826551 10.004471627789302 44.91570051975367 29.96090198072257
67.95527981078604 8.501521051674573 34.94193462214638 24.51182413696508
52.78479510604592 6.9576954078493545 26.304667439884863 19.52243225831174
39.69660213904797 5.57331049260542 19.052865551117208 15.070426095325328
28.736798215073062 4.385290040873514 13.172158131397406 11.179350042802154
19.749854376764095 3.4040286440397973 8.475205362812437 7.870620369911865
12.776371313189017 2.610598251226774 4.99875149165016 5.167021570312082
7.681080570843838 1.973845828041032 2.624827890089785 3.0824068527130186
4.201331494989181 1.459169348315914 1.1497807010861978 1.5923814455870704
2.0524697925457773 1.0550353741433514 0.37367351409381344 0.6237609043086119
0.8706746321233739 0.6858934308483023 0.06062535543038577 0.12415584584468584
0.3295661319869687 0.32782168036985704 1.5113165072237322e-05 0.001729338452039401
0.10297090043832482 0.10297090043832482 0.0 0.0
0.01622815993795032 0.01622815993795032 0.0 0.0
0.0007969341524898192 0.0007969341524898192 0.0 0.0
CELL_DATA 800
SCALARS Stress float 6
LOOKUP_TABLE default
160.85656937807843 -512.9952502818754 -182.15404359106336 -108.45076763504365 0.0 0.0
399.41978407185263 -55.78692740689579 116.36134642287347 57.034529882306444 0.0 0.0
399.1565149908891 9.241582359255151 122.32324320013856 -3.6374876986135987 0.0 0.0
459.0242615354852 -11.16945348188449 140.00709105051698 -14.298569812622736 0.0 0.0
534.2224807526242 -16.259596080287558 189.7567351613795 -11.483277196536285 0.0 0.0
605.761564479277 -10.491414776564316 260.3467620806549 -9.933288814850671 0.0 0.0
675.1064151919965 -3.3857691052248953 320.306416843235 -10.16740798418569 0.0 0.0
744.6983231245663 11.510194901564255 371.55101381041646 -11.47538279157755 0.0 0.0
816.0327556189816 33.586053732529024 421.0049002614892 -12.967094482158643 0.0 0.0
889.334282998909 62.08475248340119 472.80980211448696 -14.030204350747885 0.0 0.0
963.5037039298165 95.09277148627926 526.8595728533861 -14.516276819610294 0.0 0.0
1037.4159774648062 131.5740597986971 582.3842920745556 -14.4532396685652 0.0 0.0
1111.0323524734124 170.05972768725903 638.6681716193594 -14.223833342368392 0.0 0.0
1185.1452918951193 211.1117479109795 696.4021701080771 -13.94114936398062 0.0 0.0
1260.4696122889923 255.59806942431436 756.4111015412797 -13.497779879483659 0.0 0.0
1336.443094077316 303.26697810308247 818.3111398225576 -12.70213167038398 0.0 0.0
1410.7673613562565 352.5324901469448 880.1736060925473 -11.378842847011125 0.0 0.0
1480.428719649353 401.2480485094688 939.4052829246127 -9.633075975202068 0.0 0.0
1542.9507874650835 447.9648092896848 993.9913953653443 -8.469724359632169 0.0 0.0
1621.2314355024441 517.5652922834917 1067.396375675081 -12.04440813737237 0.0 0.0
1621.2314355024703 517.5652922835307 1067.396375675018 12.044408137409603 0.0 0.0
1542.9507874654316 447.9648092900776 993.9913953654916 8.469724359606815 0.0 0.0
1480.4287196490977 401.24804850927774 939.4052829243418 9.633075975148124 0.0 0.0
1410.7673613557347 352.5324901465151 880.173606091984 11.378842847003085 0.0 0.0
1336.4430940775412 303.2669781034316 818.3111398225105 12.702131670483414 0.0 0.0
1260.4696122890657 255.59806942453167 756.4111015412417 13.497779879544076 0.0 0.0
1185.145291895184 211.11174791120368 696.402170108154 13.941149363888233 0.0 0.0
1111.032352474041 170.05972768807098 638.6681716198298 14.223833342305365 0.0 0.0
1037.4159774635718 131.57405979765417 582.384292073646 14.453239668568727 0.0 0.0
963.5037039279541 95.09277148464267 526.8595728520808 14.51627681970012 0.0 0.0
889.3342829987528 62.08475248348978 472.80980211432245 14.030204350705652 0.0 0.0
816.0327556192245 33.5860537330428 421.0049002616162 12.967094482158984 0.0 0.0
744.6983231244553 11.510194901717 371.5510138103112 11.475382791490805 0.0 0.0
675.1064151919826 -3.3857691049568075 320.30641684315344 10.167407984251025 0.0 0.0
605.7615644791889 -10.491414776340235 260.3467620804978 9.933288815024985 0.0 0.0
534.2224807524296 -16.259596080197635 189.75673516119787 11.483277196542774 0.0 0.0
459.0242615353407 -11.169453481768027 140.00709105049123 14.298569812583548 0.0 0.0
399.1565149907646 9.241582359289811 122.32324320011472 3.637487698563763 0.0 0.0
399.4197840718083 -55.78692740682058 116.36134642284179 -57.03452988228566 0.0 0.0
160.85656937859625 -512.9952502814165 -182.15404359056888 108.45076763460304 0.0 0.0
61.6558610869275 -542.2144351514239 -241.7589596572036 -154.11430512078348 0.0 0.0
257.76925115265277 -42.47392633513353 64.59626774769723 10.868054041920086 0.0 0.0
349.8009151253426 28.302741482633067 113.43060685606478 -10.081035437820448 0.0 0.0
422.37616162766676 -8.765652388330803 125.48484583960578 -34.12937684467991 0.0 0.0
505.37700141255687 -17.025274050368207 168.13433242781352 -32.589977741366326 0.0 0.0
581.6148176422298 -11.631051412998538 238.83773637105574 -29.3650420608072 0.0 0.0
654.8291239121593 -4.505249519971734 304.5687313349146 -29.958300012956933 0.0 0.0
725.4284104120002 9.876582609121336 359.09079780224977 -31.94065314993938 0.0 0.0
795.6241546978429 30.59455754036341 408.5212577919181 -34.231476284026165 0.0 0.0
866.1329444192486 56.66601241603968 458.116399179648 -35.604534293300546 0.0 0.0
936.1724245225616 86.26388969360954 508.55116087585066 -35.791718298359946 0.0 0.0
1005.3502536417675 118.04423311088104 559.4197042796535 -35.167072902965316 0.0 0.0
1073.8885972031635 152.3098063143491 611.0819613184045 -34.262306104119745 0.0 0.0
1142.879521700183 188.9684969883429 664.0845389812376 -33.29742192232063 0.0 0.0
1212.6532800400057 228.36094462483442 718.7982507084015 -32.06079145136011 0.0 0.0
1282.6953106585484 270.42967696199224 774.9552950999046 -30.135273387717177 0.0 0.0
1351.6590149847655 314.4359245421749 831.5089638669513 -27.28442176393182 0.0 0.0
1417.9715735198893 359.7400401566597 887.3292043307183 -23.952803229194355 0.0 0.0
1485.1487798076996 411.215014166129 946.4978066276643 -21.348259142133358 0.0 0.0
1534.6529636706905 451.70531214584406 991.3295985341135 -18.9776004105277 0.0 0.0
1534.6529636705768 451.70531214574004 991.3295985340427 18.977600410526435 0.0 0.0
1485.148779807335 411.215014165806 946.4978066274335 21.348259142174527 0.0 0.0
1417.9715735197683 359.7400401566035 887.3292043305901 23.952803229236274 0.0 0.0
1351.659014984488 314.43592454200234 831.5089638666852 27.284421764080605 0.0 0.0
1282.6953106580852 270.4296769616313 774.9552950994417 30.13527338766827 0.0 0.0
1212.6532800396735 228.36094462464396 718.798250708136 32.0607914514126 0.0 0.0
1142.8795216997635 188.96849698806966 664.0845389808827 33.297421922265684 0.0 0.0
1073.8885972021953 152.30980631354822 611.0819613176707 34.262306104146404 0.0 0.0
1005.3502536409939 118.04423311030405 559.4197042790568 35.167072902919145 0.0 0.0
936.1724245219923 86.26388969327155 508.551160875427 35.79171829836693 0.0 0.0
866.1329444186174 56.66601241564197 458.1163991792302 35.60453429336141 0.0 0.0
795.6241546972598 30.594557540037727 408.5212577915315 34.231476284086156 0.0 0.0
725.4284104114853 9.876582608878536 359.0907978018645 31.940653149916304 0.0 0.0
654.8291239120501 -4.505249519804963 304.5687313347635 29.958300012944015 0.0 0.0
581.6148176419676 -11.63105141293606 238.83773637080628 29.365042060926754 0.0 0.0
505.37700141225724 -17.02527405036098 168.13433242760814 32.58997774136898 0.0 0.0
422.3761616274302 -8.765652388243238 125.48484583956031 34.12937684472108 0.0 0.0
349.8009151254083 28.302741482943276 113.43060685617795 10.08103543783518 0.0 0.0
257.7692511528132 -42.47392633472493 64.59626774787066 -10.86805404207346 0.0 0.0
61.65586108723019 -542.2144351511221 -241.75895965688528 154.11430512055986 0.0 0.0
12.32765509506126 -547.705205442902 -261.6933989592229 -168.4781703407976 0.0 0.0
147.5390425773182 -35.91482051239909 33.48726661947573 -42.582917500701896 0.0 0.0
284.5325245676182 32.07536409081675 94.98236659753047 -33.064888911006086 0.0 0.0
375.3599395910692 -0.5262507883767396 112.74873526535927 -53.38664312014412 0.0 0.0
467.14200798124176 -15.634879649545393 147.09544672124633 -55.862121911065685 0.0 0.0
554.1962496151373 -14.661277557710882 213.08319814160495 -50.77822910007583 0.0 0.0
630.3633265434216 -4.763277718877951 285.44476545429455 -50.06436546028773 0.0 0.0
701.7753173433689 8.296780524062058 343.4884201198803 -52.35039914214743 0.0 0.0
771.3043326806046 27.696989802609203 393.7753652044852 -55.05791799414817 0.0 0.0
838.9895122573371 51.051709593648866 441.2350126657062 -56.46908001688144 0.0 0.0
904.9948363386738 76.9440905026551 488.0100828473245 -56.30353184743461 0.0 0.0
969.3738778838933 104.76862944817522 534.587273816511 -55.11436917281986 0.0 0.0
1033.1977068150393 134.32941648634414 581.5823632263108 -53.71259888277071 0.0 0.0
1096.903192765817 166.37006823409928 629.6685344815731 -52.136328256348634 0.0 0.0
1160.9308681773887 200.4982750082016 678.9101495001656 -50.137647097458895 0.0 0.0
1225.0600594182865 236.7714761148305 729.2355930394357 -47.26969831628098 0.0 0.0
1288.83657692818 275.4886717918755 780.5474790096692 -43.30677411016667 0.0 0.0
1353.1415716168574 318.57776799978956 834.2151939737847 -38.71320213869781 0.0 0.0
1413.2117752958138 362.4729357803733 886.1072385513179 -33.28130859254802 0.0 0.0
1455.2751582868198 394.54876217108006 923.067831773542 -25.024536893953666 0.0 0.0
1455.2751582870526 394.5487621713374 923.067831773626 25.02453689402339 0.0 0.0
1413.2117752953561 362.4729357799639 886.1072385509261 33.281308592656146 0.0 0.0
1353.1415716170272 318.5777680000458 834.2151939738193 38.71320213885582 0.0 0.0
1288.8365769279765 275.48867179178154 780.547479009423 43.306774110320845 0.0 0.0
1225.0600594186753 236.7714761153362 729.2355930396269 47.26969831629697 0.0 0.0
1160.9308681772195 200.49827500817648 678.91014950002 50.137647097538846 0.0 0.0
1096.9031927651088 166.37006823354875 629.6685344810377 52.136328256393924 0.0 0.0
1033.1977068149488 134.32941648642662 581.5823632262311 53.7125988827798 0.0 0.0
969.3738778839223 104.76862944841344 534.5872738166158 55.11436917282684 0.0 0.0
904.9948363386286 76.9440905028433 488.01008284735525 56.30353184748978 0.0 0.0
838.9895122564623 51.05170959299048 441.235012665126 56.46908001682263 0.0 0.0
771.3043326802765 27.69698980254647 393.7753652042832 55.057917994176236 0.0 0.0
701.7753173432169 8.29678052419763 343.48842011977695 52.35039914217353 0.0 0.0
630.3633265428164 -4.7632777192463465 285.4447654538384 50.06436546020476 0.0 0.0
554.196249614514 -14.661277558099087 213.08319814113173 50.778229100058155 0.0 0.0
467.1420079810131 -15.634879649458501 147.0954467211211 55.862121910974025 0.0 0.0
375.3599395909401 -0.5262507881275535 112.74873526539875 53.38664312008169 0.0 0.0
284.5325245674703 32.07536409052159 94.98236659739757 33.06488891095484 0.0 0.0
147.53904257750023 -35.91482051200998 33.487266619647066 42.58291750052469 0.0 0.0
12.327655095208456 -547.7052054426056 -261.693398958938 168.47817034067307 0.0 0.0
-6.001163336643742 -533.8678331281369 -255.42707581054685 -170.73054465248785 0.0 0.0
86.4901119701644 -36.93156955854262 14.867562723486532 -87.83365545701002 0.0 0.0
222.66096497693465 29.899379959377136 75.76810348089353 -63.37757439481285 0.0 0.0
323.7883111862689 6.530481644623259 99.0875730326488 -74.29511077687778 0.0 0.0
419.2287440113573 -13.0207016355305 126.69314049773533 -81.07224698343411 0.0 0.0
515.6046194767018 -15.74694288875068 184.91795987303573 -74.24157353981846 0.0 0.0
598.9315084366602 -6.440407383598995 259.98867232255236 -70.98698431423072 0.0 0.0
673.5110844238193 7.336385349634689 324.42791092780834 -72.83503642739525 0.0 0.0
742.1982737467705 24.657802735111773 375.92175805936074 -75.42031237148417 0.0 0.0
807.2925633546771 45.207029560950204 421.7198915662332 -76.63026230612194 0.0 0.0
869.4739658126318 67.49608891931095 465.13555783518655 -76.05786257855476 0.0 0.0
929.5312081005814 91.23023872747827 507.63474656456754 -74.38802856651066 0.0 0.0
988.2230172032773 116.39743595186381 549.9279313524148 -72.4933783446702 0.0 0.0
1046.924186853023 143.5670473753491 593.1236584305999 -70.4393858948312 0.0 0.0
1105.302056334068 172.17825298115991 636.8216018806909 -67.79158486972815 0.0 0.0
1163.1998801615973 202.6376639022683 681.149586250748 -64.1477191462373 0.0 0.0
1222.008112899191 236.15501727769131 727.3792430001062 -59.428721054698585 0.0 0.0
1281.3921432174743 273.7229455155547 775.8362535410126 -53.52506405292418 0.0 0.0
1336.460736399994 311.48084700165936 822.181394041188 -45.065827972597624 0.0 0.0
1375.8853880857837 339.21452376515674 855.6641787781591 -31.42804843540864 0.0 0.0
1375.885388085981 339.2145237653763 855.6641787783446 31.428048435453476 0.0 0.0
1336.4607363995815 311.4808470012847 822.1813940409202 45.065827972698116 0.0 0.0
1281.3921432161362 273.72294551430207 775.8362535401086 53.5250640531069 0.0 0.0
1222.0081128986756 236.15501727726138 727.379242999836 59.428721054780496 0.0 0.0
1163.1998801617588 202.63766390254872 681.1495862508831 64.1477191462812 0.0 0.0
1105.3020563345876 172.17825298180887 636.8216018809746 67.79158486969945 0.0 0.0
1046.924186852669 143.5670473751592 593.1236584303696 70.43938589489923 0.0 0.0
988.2230172028376 116.39743595159914 549.9279313520759 72.49337834468935 0.0 0.0
929.5312081002105 91.2302387273123 507.63474656419885 74.38802856655244 0.0 0.0
869.4739658118156 67.49608891873598 465.13555783457593 76.057862578651 0.0 0.0
807.2925633535448 45.20702956001307 421.7198915654713 76.63026230603379 0.0 0.0
742.1982737459788 24.65780273459616 375.92175805881345 75.42031237157627 0.0 0.0
673.5110844235979 7.336385349746465 324.4279109276248 72.8350364274817 0.0 0.0
598.9315084367006 -6.440407383187356 259.98867232246374 70.98698431426045 0.0 0.0
515.6046194768213 -15.74694288817398 184.91795987308154 74.24157353989514 0.0 0.0
419.2287440109121 -13.020701635717337 126.69314049752447 81.0722469833127 0.0 0.0
323.7883111861512 6.530481644675917 99.08757303263062 74.29511077674937 0.0 0.0
222.6609649768415 29.899379959142017 75.76810348079505 63.377574394785086 0.0 0.0
86.49011197038165 -36.93156955819941 14.867562723654665 87.83365545680292 0.0 0.0
-6.001163336620664 -533.8678331279486 -255.4270758103308 170.73054465235913 0.0 0.0
-9.751296117279253 -508.8576682550513 -234.89822444116967 -168.59563609086612 0.0 0.0
51.59087726099021 -38.99142647719968 3.779835235137158 -123.03644411700971 0.0 0.0
169.24066659976734 24.858800655435026 58.22984017656071 -93.97960382774039 0.0 0.0
269.2664841267823 10.63471144645674 83.9692582671104 -96.68867112929233 0.0 0.0
361.8781423882685 -8.122614120509201 107.62895236605333 -105.61025516521516 0.0 0.0
465.7041233649192 -15.92786559331853 155.40862842245653 -100.86350278071524 0.0 0.0
559.8674058674193 -8.690774434643313 228.7402560739505 -93.91357438570404 0.0 0.0
638.8956116357389 5.9215766525718045 299.7478976621103 -93.41312817836251 0.0 0.0
707.5965574417156 21.716248917236996 354.20836272601895 -95.37160354313224 0.0 0.0
770.3669874075467 39.15339144129623 399.02695094759355 -96.13991690871097 0.0 0.0
829.0997031691039 57.89247584381493 439.55560744948957 -95.09443521576353 0.0 0.0
884.7214202498653 77.54972939039817 478.02274468424844 -92.93881347166075 0.0 0.0
938.6745079132243 98.32873962420187 515.8674443262934 -90.70508222771 0.0 0.0
991.7630079790887 120.6155939225619 553.8730288008494 -88.1763117680083 0.0 0.0
1044.5746617064847 143.93685418517646 592.1844946118433 -84.9716529368269 0.0 0.0
1097.1201112882156 168.51402426413188 630.9366861164433 -80.82734230101407 0.0 0.0
1149.507664925002 195.6092595151564 670.7770597456271 -75.5067853586192 0.0 0.0
1203.0144739559169 226.5186883681466 712.9835833099263 -68.46793243344709 0.0 0.0
1254.2413406725213 258.6179965537639 754.5797018824007 -57.296400445328395 0.0 0.0
1293.7535227638741 283.8609354775643 786.8402416572337 -38.72906486149867 0.0 0.0
1293.753522763761 283.8609354774807 786.8402416571377 38.72906486155746 0.0 0.0
1254.2413406728156 258.6179965541367 754.5797018825394 57.29640044553109 0.0 0.0
1203.0144739565999 226.51868836898015 712.9835833103425 68.46793243373004 0.0 0.0
1149.507664924932 195.6092595152229 670.7770597455095 75.50678535878629 0.0 0.0
1097.120111287957 168.5140242640082 630.9366861161831 80.82734230109446 0.0 0.0
1044.5746617054176 143.93685418422152 592.1844946110768 84.9716529367879 0.0 0.0
991.7630079785228 120.61559392208054 553.8730288004178 88.1763117678974 0.0 0.0
938.6745079130471 98.3287396241671 515.8674443261614 90.70508222767087 0.0 0.0
884.7214202497763 77.54972939050876 478.02274468414936 92.93881347170533 0.0 0.0
829.0997031686261 57.89247584353714 439.55560744910366 95.09443521573263 0.0 0.0
770.3669874072664 39.15339144125852 399.02695094737857 96.13991690870122 0.0 0.0
707.5965574413088 21.716248917107194 354.20836272573587 95.37160354314713 0.0 0.0
638.8956116354923 5.921576652596428 299.74789766185995 93.41312817828128 0.0 0.0
559.867405867431 -8.690774434245206 228.74025607384613 93.9135743856964 0.0 0.0
465.7041233647771 -15.927865593061764 155.40862842236956 100.86350278069516 0.0 0.0
361.87814238802696 -8.122614120412317 107.62895236601058 105.6102551650873 0.0 0.0
269.2664841266754 10.634711446440015 83.96925826707444 96.68867112913124 0.0 0.0
169.24066659973158 24.85880065527329 58.22984017650145 93.97960382751836 0.0 0.0
51.59087726108842 -38.991426476956285 3.779835235239638 123.03644411681542 0.0 0.0
-9.751296117230723 -508.857668254784 -234.898224440918 168.59563609079441 0.0 0.0
-6.939508571459001 -476.39471660571667 -206.50218089350713 -165.1905608083546 0.0 0.0
30.081854732107384 -40.40815568736343 -3.097890286576812 -149.18681973510232 0.0 0.0
123.48255721845253 18.855793223447694 42.70150513257006 -121.10865261025869 0.0 0.0
213.99203806940568 12.449780230521556 67.92856903139462 -118.97371283945557 0.0 0.0
299.53370679533054 -2.7823396657287134 89.41291565531293 -128.21877182973475 0.0 0.0
399.8776264044645 -14.45690526401144 125.47914769317204 -129.15247927395092 0.0 0.0
505.1638390855106 -9.770376567480152 191.8080361615931 -119.86416028901536 0.0 0.0
593.4135696893242 3.056016305703009 266.09101565197386 -115.22085852530432 0.0 0.0
665.797986903879 18.419340221560837 326.654455412577 -115.18334120260425 0.0 0.0
727.0677147948034 33.06657863252987 372.14160717900046 -115.01660261059361 0.0 0.0
782.3205775427869 48.02357667738336 410.21027071045046 -113.43624817172716 0.0 0.0
833.9111901559878 63.783649018234016 445.1720943180218 -110.83612698134428 0.0 0.0
882.960453828314 80.32423049901661 478.6461528283962 -108.23122777967546 0.0 0.0
930.6673725606124 97.54605693409266 511.5397269451789 -105.45658275287377 0.0 0.0
978.1050014201666 115.64745410652051 544.6047983119796 -101.85092321426269 0.0 0.0
1024.6346585541164 134.7899604239789 577.6780055388729 -97.11912031856542 0.0 0.0
1070.5589370635532 154.63169188118255 610.7303683658134 -91.4201606860748 0.0 0.0
1117.1508774825363 177.36364600069305 645.4304634054404 -83.70297768321076 0.0 0.0
1164.5684216933487 203.48822211463693 682.1148190065887 -70.4388155076956 0.0 0.0
1206.2919646914947 227.2458758398678 714.6784621517118 -47.50357089049317 0.0 0.0
1206.291964692013 227.24587584044195 714.6784621520944 47.503570890708076 0.0 0.0
1164.568421693764 203.48822211517066 682.1148190069486 70.43881550792986 0.0 0.0
1117.1508774815711 177.36364599977398 645.430463404781 83.70297768330232 0.0 0.0
1070.558937062972 154.63169188072806 610.7303683653885 91.42016068620995 0.0 0.0
1024.6346585534588 134.78996042337238 577.6780055383484 97.11912031845698 0.0 0.0
978.105001418765 115.64745410523037 544.6047983109689 101.8509232142977 0.0 0.0
930.6673725596826 97.54605693323859 511.5397269445024 105.45658275277411 0.0 0.0
882.9604538274766 80.32423049831533 478.64615282780096 108.23122777967797 0.0 0.0
833.9111901558866 63.78364901841121 445.17209431788547 110.83612698152167 0.0 0.0
782.3205775424839 48.023576677276935 410.210270710196 113.43624817168227 0.0 0.0
727.0677147940871 33.06657863202403 372.14160717848114 115.01660261054977 0.0 0.0
665.7979869036176 18.419340221563616 326.65445541234914 115.18334120257046 0.0 0.0
593.4135696890057 3.056016305664542 266.0910156516571 115.2208585252516 0.0 0.0
505.16383908525034 -9.770376567275179 191.80803616137078 119.86416028907783 0.0 0.0
399.87762640408795 -14.456905263978442 125.47914769300212 129.1524792738901 0.0 0.0
299.5337067950393 -2.782339665897797 89.41291565517658 128.21877182949953 0.0 0.0
213.99203806937737 12.44978023061284 67.92856903141492 118.97371283922567 0.0 0.0
123.48255721839917 18.855793223266218 42.70150513249961 121.10865261003664 0.0 0.0
30.081854732120732 -40.40815568721131 -3.097890286527173 149.1868197349977 0.0 0.0
-6.939508571451725 -476.3947166054652 -206.50218089326256 165.19056080827752 0.0 0.0
-1.3155960613081703 -437.98271341363534 -173.8943208082762 -161.75602905469907 0.0 0.0
14.573115486438637 -41.793727856986145 -8.166235919416899 -167.4551640209319 0.0 0.0
83.10046043769859 13.063494844719273 28.849186584725356 -143.20173500350128 0.0 0.0
159.23539387640534 13.747263350809842 51.89167359047737 -139.34734091112426 0.0 0.0
233.73891942970275 1.1421918441187182 70.67602097789295 -148.47116211926036 0.0 0.0
322.70600776491546 -10.287045854349579 97.30954304477358 -156.14145597097885 0.0 0.0
431.89357036776653 -10.297110776110651 150.34051223140543 -149.16089540768425 0.0 0.0
531.9576025398912 0.4506318620860039 222.67785339223371 -139.58216756722774 0.0 0.0
611.4248014896863 13.89945013239801 288.7051399755197 -135.59065799075245 0.0 0.0
674.4966656240042 26.75229664237854 338.34222295160276 -133.50999071116135 0.0 0.0
726.8161788342094 37.91931475162942 375.305004381759 -131.12621369025808 0.0 0.0
774.6178858412393 49.9859932648859 407.54394802812783 -128.0855516341738 0.0 0.0
818.8932889669293 62.26606593727272 436.9590571800951 -125.17234200932899 0.0 0.0
861.0012089914414 74.73784311770835 464.9306382874203 -122.19745206900095 0.0 0.0
902.2989885751117 87.29578473672426 492.2555000191659 -118.42843751448031 0.0 0.0
944.1436904153222 101.27558361206749 520.4521775308765 -113.28139195460116 0.0 0.0
983.365615644723 114.28037531793069 546.8421045729964 -106.95683578643559 0.0 0.0
1021.2736212388427 127.30452193180228 572.4440270611537 -99.08156254735046 0.0 0.0
1064.0849171197478 145.22398698379158 602.6891139380223 -84.97148464683991 0.0 0.0
1110.1577632065703 167.92354073375762 636.7758233606827 -58.6115277469914 0.0 0.0
1110.1577632064311 167.92354073363938 636.7758233606332 58.611527747033655 0.0 0.0
1064.0849171200364 145.2239869841607 602.6891139382928 84.97148464700501 0.0 0.0
1021.273621238699 127.30452193178465 572.4440270610579 99.08156254752024 0.0 0.0
983.3656156435899 114.28037531686931 546.8421045722131 106.95683578645077 0.0 0.0
944.1436904153828 101.27558361215031 520.4521775308838 113.28139195451267 0.0 0.0
902.2989885760941 87.29578473794052 492.2555000198929 118.42843751462276 0.0 0.0
861.0012089918598 74.73784311831923 464.93063828777827 122.1974520690552 0.0 0.0
818.8932889672054 62.26606593774065 436.9590571802749 125.17234200939606 0.0 0.0
774.617885841058 49.98599326498869 407.5439480280666 128.08555163431944 0.0 0.0
726.8161788342077 37.91931475178313 375.3050043817223 131.1262136901555 0.0 0.0
674.4966656234058 26.752296641955652 338.34222295116797 133.50999071108586 0.0 0.0
611.4248014893236 13.899450132283576 288.7051399752273 135.59065799068668 0.0 0.0
531.9576025395953 0.45063186209971917 222.67785339193992 139.5821675671849 0.0 0.0
431.8935703672913 -10.297110776211655 150.34051223109336 149.16089540765432 0.0 0.0
322.70600776460145 -10.287045854235835 97.30954304469617 156.1414559709045 0.0 0.0
233.7389194294819 1.1421918441481775 70.67602097784146 148.47116211906334 0.0 0.0
159.23539387645866 13.747263350958594 51.891673590538986 139.34734091090684 0.0 0.0
83.1004604378176 13.063494845160687 28.849186584893488 143.20173500323227 0.0 0.0
14.573115486466882 -41.793727856790255 -8.166235919349598 167.45516402073105 0.0 0.0
-1.3155960612382458 -437.9827134132675 -173.8943208079983 161.75602905464268 0.0 0.0
3.3244990231920752 -395.1205588903341 -141.76885661424888 -158.99686787196092 0.0 0.0
-0.13377119975214669 -43.641852442019164 -13.132151283770952 -178.11742681095365 0.0 0.0
46.20892610352497 8.41531536987842 16.386869370773475 -160.24889657816738 0.0 0.0
105.82867788730003 15.055469054216655 36.26358731970785 -156.36461606908614 0.0 0.0
165.65824980283256 3.810014472020172 50.964827414580114 -166.27539179617222 0.0 0.0
234.69832813963342 -4.739336734202942 70.49304084911537 -177.6167650095354 0.0 0.0
332.8113839630147 -8.183224258209075 107.05781284806694 -179.73062699235584 0.0 0.0
444.4148004800701 -1.6820889123560883 168.4127196133076 -168.39727620453777 0.0 0.0
536.1871788243628 8.733447086261178 235.43298917715143 -158.3133623109697 0.0 0.0
604.3379102581004 19.504551210664083 290.5665589390193 -152.24486905044603 0.0 0.0
657.033495210953 27.49669438576529 330.08629255907215 -148.53283999743863 0.0 0.0
701.0209209878124 35.8793852152874 360.95644627930244 -144.77584700049064 0.0 0.0
740.6853949598647 44.425983097990056 387.46402478398966 -141.50785535791496 0.0 0.0
777.1826068149162 52.1624717668692 410.94652428153734 -138.41404452732826 0.0 0.0
812.4073720619757 59.333012925457226 432.91303400325734 -134.7723344450004 0.0 0.0
848.3123837561104 67.35250481547584 455.2496064883279 -129.44616771338872 0.0 0.0
883.91859408326 75.46921858318271 477.4583015994383 -122.27365201367047 0.0 0.0
912.81891707038 78.31363814424884 493.73520915296166 -114.1478999058559 0.0 0.0
945.6649868330928 83.03811086161608 512.4114493436373 -100.90060816069074 0.0 0.0
997.233475891318 103.54667969994952 547.876093266088 -73.26577096533859 0.0 0.0
997.2334758909436 103.54667969966343 547.8760932658333 73.26577096551856 0.0 0.0
945.6649868327618 83.03811086139785 512.4114493433322 100.90060816101177 0.0 0.0
912.8189170701351 78.31363814418833 493.73520915270046 114.14789990610838 0.0 0.0
883.9185940825146 75.46921858263846 477.45830159885406 122.27365201388476 0.0 0.0
848.3123837556501 67.35250481515038 455.2496064879376 129.44616771344047 0.0 0.0
812.4073720613312 59.333012924989504 432.9130340027951 134.77233444514056 0.0 0.0
777.1826068139958 52.162471766136974 410.94652428089955 138.4140445274809 0.0 0.0
740.6853949591543 44.425983097401755 387.4640247834787 141.50785535793847 0.0 0.0
701.0209209868603 35.8793852144543 360.9564462786319 144.77584700048482 0.0 0.0
657.0334952101263 27.496694384953017 330.0862925584546 148.53283999729564 0.0 0.0
604.3379102574058 19.504551210115643 290.5665589385206 152.24486905033643 0.0 0.0
536.1871788240156 8.733447086193117 235.43298917685328 158.31336231096378 0.0 0.0
444.41480047982765 -1.6820889119370293 168.41271961319336 168.39727620469415 0.0 0.0
332.81138396277197 -8.183224257829721 107.05781284804132 179.73062699235598 0.0 0.0
234.69832813919027 -4.739336734632058 70.49304084885664 177.61676500939876 0.0 0.0
165.65824980250653 3.8100144717072455 50.964827414393326 166.27539179598946 0.0 0.0
105.82867788725962 15.055469054080296 36.26358731965564 156.36461606901815 0.0 0.0
46.20892610334653 8.41531536960811 16.38686937063936 160.24889657798724 0.0 0.0
-0.13377119980889285 -43.64185244191417 -13.132151283756757 178.1174268108479 0.0 0.0
3.3244990232692047 -395.1205588899784 -141.76885661400618 158.99686787185314 0.0 0.0
2.286048123520054 -348.5942865121589 -114.79049570236441 -154.85462436934066 0.0 0.0
-17.299178843135437 -46.983259669298825 -19.283006399160115 -183.85184643495626 0.0 0.0
11.80185521328653 5.727300530345552 5.258450881232645 -172.4105171490492 0.0 0.0
53.9377050342252 16.050668721906753 20.99539840333915 -169.51166394158628 0.0 0.0
95.99137009626813 7.329930279193865 31.07976766044054 -179.31651586804543 0.0 0.0
141.7319222207821 -1.0172265458010414 42.93920459434216 -194.26304778231705 0.0 0.0
208.09319945987826 -3.2440035685211948 64.64890230164514 -203.78661171764395 0.0 0.0
308.77741335968176 -1.0168101156753515 104.57027247429232 -200.41093986691254 0.0 0.0
415.8520253827645 4.496311439745025 160.44419450247113 -186.66867796243704 0.0 0.0
496.6019014260512 10.894903760267887 215.65016444452897 -173.61658673268698 0.0 0.0
553.3148104429572 17.11038857005756 259.9299653378483 -166.22287585848198 0.0 0.0
595.6094654614377 21.317285015946773 292.20418779438137 -161.3308418711893 0.0 0.0
631.4027831532563 26.460579001956113 318.48039740689694 -157.4612884196689 0.0 0.0
662.4162753254415 30.105893783587717 339.5803454130595 -154.06574892494586 0.0 0.0
690.8030730399759 31.927084152920244 356.9839680238151 -150.5300344374888 0.0 0.0
719.7939928544154 33.22721839181719 373.2932011329523 -145.7386054875849 0.0 0.0
752.6682513337355 35.92441660467857 391.5174021324198 -137.99109817359437 0.0 0.0
782.2492600269396 35.198952148153325 406.6424326757778 -128.2275261771653 0.0 0.0
798.1009077730398 18.192047585532237 406.5891911652017 -117.13048416075428 0.0 0.0
851.6686058683197 28.44930228458192 437.21354065046614 -93.40159569313616 0.0 0.0
851.668605867476 28.44930228372789 437.21354065000025 93.40159569321268 0.0 0.0
798.1009077738531 18.192047586570652 406.58919116588606 117.13048416113674 0.0 0.0
782.2492600271738 35.198952148551825 406.64243267598073 128.22752617734756 0.0 0.0
752.6682513331236 35.92441660426172 391.5174021320309 137.99109817373207 0.0 0.0
719.7939928541217 33.22721839155477 373.29320113272206 145.73860548753902 0.0 0.0
690.8030730392734 31.92708415209745 356.9839680233368 150.53003443733348 0.0 0.0
662.4162753242247 30.10589378219342 339.58034541221286 154.065748924839 0.0 0.0
631.4027831529872 26.460579001809933 318.4803974067037 157.46128841976503 0.0 0.0
595.6094654620038 21.31728501693587 292.2041877947214 161.3308418713696 0.0 0.0
553.3148104428852 17.11038857023513 259.92996533775 166.22287585848196 0.0 0.0
496.60190142593046 10.894903760371982 215.65016444437205 173.61658673263668 0.0 0.0
415.8520253822162 4.496311439487485 160.44419450212504 186.66867796248408 0.0 0.0
308.77741335873895 -1.016810116410488 104.57027247374282 200.41093986691294 0.0 0.0
208.0931994593736 -3.244003568937816 64.64890230135904 203.78661171745355 0.0 0.0
141.731922220643 -1.0172265458819005 42.93920459427071 194.26304778208464 0.0 0.0
95.99137009618309 7.329930279213398 31.079767660422778 179.31651586780808 0.0 0.0
53.93770503424609 16.050668721965597 20.995398403363485 169.51166394139028 0.0 0.0
11.801855213445043 5.727300530779418 5.25845088141048 172.4105171487666 0.0 0.0
-17.29917884319512 -46.98325966920119 -19.283006399149496 183.85184643479317 0.0 0.0
2.286048123470607 -348.59428651189114 -114.79049570223563 154.85462436921657 0.0 0.0
-4.872576638374266 -299.4390856111965 -93.9482469887784 -147.0760683937363 0.0 0.0
-35.80424793557608 -51.52160562731261 -26.195007828811214 -186.9868559811248 0.0 0.0
-20.83856144300998 4.684812439746168 -4.846110058537757 -180.16487160905572 0.0 0.0
3.5457433051842613 16.84907384755787 6.118482600610789 -178.14860413811905 0.0 0.0
26.09949636373608 11.136056266499379 11.196239993399482 -187.18282341120516 0.0 0.0
45.64802124519235 3.171101220007922 14.884891155873962 -203.31027748136873 0.0 0.0
69.45851839905046 -0.22043857535165134 21.694169724865446 -217.7509824246332 0.0 0.0
107.85493765932262 0.21738072458207647 34.80568256224023 -223.28060912370142 0.0 0.0
170.2290962917404 3.7632124857385616 57.902437804605185 -214.84177786685586 0.0 0.0
242.28780125717032 5.163456942295102 86.87091874091156 -200.82754104462742 0.0 0.0
305.0398515777791 8.365510333211716 119.65854664459829 -187.10087896916448 0.0 0.0
355.92312807686994 8.463518680161641 150.13441863585754 -179.52261080489728 0.0 0.0
393.8603858583782 9.488677804551784 176.61672889700552 -173.54207698223053 0.0 0.0
421.70493673305117 8.655603293537467 197.46557452096118 -168.7095998315488 0.0 0.0
445.3233459263771 5.363800269504139 213.9995230472215 -164.7246882624611 0.0 0.0
472.28255986802213 -0.5176639037318296 228.93653790335648 -160.75157689303126 0.0 0.0
508.29995103280146 -6.071371570710369 246.2468275334541 -154.3263336012499 0.0 0.0
555.0925492057758 -7.769307041506153 269.7139621062796 -143.33413646294125 0.0 0.0
586.2801952095452 -29.518221397519596 277.1982912549487 -129.14183262123365 0.0 0.0
613.7479390800463 -75.97981106894093 266.09884334465744 -117.87020525196046 0.0 0.0
613.7479390801952 -75.97981106877671 266.0988433447694 117.870205252068 0.0 0.0
586.2801952100112 -29.518221396803966 277.1982912552969 129.141832621699 0.0 0.0
555.0925492059455 -7.769307041215313 269.71396210641643 143.33413646316836 0.0 0.0
508.29995103321187 -6.071371570043709 246.2468275337919 154.32633360142182 0.0 0.0
472.282559868296 -0.5176639033165031 228.93653790354216 160.75157689302625 0.0 0.0
445.323345925863 5.363800268916592 213.99952304686582 164.7246882624388 0.0 0.0
421.7049367331787 8.655603293545 197.46557452096476 168.70959983159102 0.0 0.0
393.8603858589258 9.48867780544441 176.61672889736988 173.54207698251506 0.0 0.0
355.9231280766485 8.463518679935355 150.13441863566695 179.52261080478075 0.0 0.0
305.0398515774306 8.36551033266774 119.65854664428326 187.10087896906947 0.0 0.0
242.2878012566023 5.163456941348919 86.87091874042746 200.82754104446465 0.0 0.0
170.2290962913012 3.763212485100773 57.90243780426657 214.84177786690205 0.0 0.0
107.85493765899754 0.21738072416661502 34.80568256200933 223.28060912372644 0.0 0.0
69.45851839900511 -0.22043857529451838 21.69416972486753 217.75098242449627 0.0 0.0
45.64802124535579 3.171101220314606 14.884891156014458 203.31027748116819 0.0 0.0
26.099496363619448 11.136056266401921 11.196239993336018 187.1828234109807 0.0 0.0
3.5457433051810137 16.849073847357914 6.118482600550315 178.14860413790583 0.0 0.0
-20.838561443056573 4.684812439697238 -4.846110058567132 180.16487160891384 0.0 0.0
-35.80424793553986 -51.521605627241335 -26.19500782877993 186.98685598101974 0.0 0.0
-4.872576638475863 -299.4390856109512 -93.94824698871305 147.07606839356666 0.0 0.0
-16.642586050167033 -251.03181940994597 -80.38407022634767 -136.07864985381815 0.0 0.0
-52.22020485480418 -53.69651115996649 -31.774091702409976 -186.96593253299656 0.0 0.0
-52.135516011135365 3.9432348667955064 -14.461013586465185 -183.93935275654772 0.0 0.0
-45.30775830434098 17.534872499631323 -8.341290563117218 -182.0559822219917 0.0 0.0
-43.060367295837665 14.717876147922151 -8.538036610507802 -189.40766525662977 0.0 0.0
-51.18783005997876 7.641049446826794 -13.320448836781402 -204.25503783037934 0.0 0.0
-71.21513757362298 2.6645858644327998 -21.507527005209894 -217.92453165881116 0.0 0.0
-108.23605458600437 0.1822256060906433 -34.808511552917864 -223.4173155624551 0.0 0.0
-170.0016456560975 -3.664045002967878 -57.79727076650041 -214.89508476445243 0.0 0.0
-242.0373830300403 -5.102642380683658 -86.7698786587136 -200.8072790902554 0.0 0.0
-305.14868003845015 -7.446423014127433 -119.24466549005774 -187.0227054028129 0.0 0.0
-357.0254385894246 -7.115338875731396 -150.0971961525448 -179.07908212911985 0.0 0.0
-397.54136610586977 -8.393581730002012 -177.76917262670221 -172.9655832899863 0.0 0.0
-428.0120140295959 -12.21150052501551 -201.7556163615692 -168.64952704243223 0.0 0.0
-449.4709093750702 -19.826298800521002 -222.76012953584626 -166.7547452124652 0.0 0.0
-460.4205903006962 -30.893734958038607 -240.19420163020342 -167.1173818579917 0.0 0.0
-451.16926643613067 -43.51393645126288 -250.02813252225997 -168.2145015002198 0.0 0.0
-392.4780822365565 -40.63456324793998 -237.5192620168181 -168.67482265277633 0.0 0.0
-210.9016655835337 -34.27968503519307 -170.91336070323888 -171.0175259836163 0.0 0.0
6.80016128241931 -173.88939202212762 -66.38252746340122 -148.2302795362934 0.0 0.0
6.800161281996111 -173.88939202290666 -66.38252746375537 148.2302795365796 0.0 0.0
-210.90166558383703 -34.27968503573848 -170.91336070349976 171.01752598405358 0.0 0.0
-392.4780822358772 -40.63456324710518 -237.51926201623624 168.67482265301766 0.0 0.0
-451.1692664354467 -43.51393645046977 -250.0281325217232 168.21450150027874 0.0 0.0
-460.4205902995228 -30.89373495657341 -240.1942016293249 167.1173818579113 0.0 0.0
-449.4709093751768 -19.826298800520888 -222.76012953580914 166.75474521240793 0.0 0.0
-428.0120140296808 -12.211500525835532 -201.75561636173293 168.64952704262544 0.0 0.0
-397.54136610586875 -8.393581730699012 -177.7691726267699 172.96558329015735 0.0 0.0
-357.02543858913 -7.115338876512098 -150.0971961525792 179.0790821291297 0.0 0.0
-305.14868003787734 -7.446423014080416 -119.24466548971343 187.0227054026895 0.0 0.0
-242.03738302963018 -5.102642381293638 -86.76987865870106 200.80727909020266 0.0 0.0
-170.00164565558708 -3.664045003043615 -57.797270766345335 214.89508476451294 0.0 0.0
-108.23605458567795 0.1822256060950771 -34.80851155281157 223.4173155625108 0.0 0.0
-71.21513757340415 2.664585864393257 -21.507527005146308 217.92453165868199 0.0 0.0
-51.18783006001811 7.641049446475129 -13.320448836896933 204.25503783016046 0.0 0.0
-43.06036729579239 14.717876147984311 -8.538036610476452 189.4076652564654 0.0 0.0
-45.307758304104865 17.534872499866193 -8.341290562977575 182.05598222185915 0.0 0.0
-52.135516011077925 3.943234866911202 -14.461013586416279 183.93935275636068 0.0 0.0
-52.22020485473253 -53.696511159918444 -31.774091702377028 186.96593253284266 0.0 0.0
-16.64258605021768 -251.03181940966024 -80.38407022628871 136.07864985372663 0.0 0.0
-24.47011920455939 -204.8497116782532 -68.79594926484376 -123.07032003778549 0.0 0.0
-65.80016308010694 -52.85019638536882 -35.59434790200605 -183.1001018978859 0.0 0.0
-81.83984823123566 3.169465070850463 -23.610040850715034 -183.69604125242788 0.0 0.0
-92.61912785435257 17.971686190389644 -22.402015879805646 -181.36982459804187 0.0 0.0
-110.78027981812326 17.540767254608227 -28.131789782877956 -185.66924317587683 0.0 0.0
-146.17909355100315 11.324293994205313 -41.335069902616524 -196.575493422771 0.0 0.0
-209.51893521636325 5.608605424408047 -64.43438700780685 -204.7826702245075 0.0 0.0
-308.6973513116048 1.3188603166835904 -104.52020125609297 -200.71761978802894 0.0 0.0
-415.55254184963167 -4.446240297601722 -160.31866569552614 -186.77392479329356 0.0 0.0
-496.3713790432324 -10.701184008105493 -215.4730578794875 -173.57627907464644 0.0 0.0
-552.9764233925368 -16.407804315361368 -259.50979545726153 -166.02386378163877 0.0 0.0
-595.4863315901952 -20.018978184360293 -291.61639919291065 -160.72058083473104 0.0 0.0
-632.4213827311455 -25.51314469469513 -318.50006259782543 -156.36834317358833 0.0 0.0
-666.4362148340841 -33.072504385628875 -342.75365311301016 -153.50207723946446 0.0 0.0
-698.8919156706547 -44.32590599882684 -366.68985096159895 -153.03298187465808 0.0 0.0
-728.6408660117413 -59.37072081235135 -390.44884364917965 -155.32821397576635 0.0 0.0
-751.1400137079763 -75.75099274321994 -411.23127855201597 -160.76282862976103 0.0 0.0
-761.527525953349 -90.08812218523636 -425.07004917236446 -169.31559875496328 0.0 0.0
-797.8489855379994 -144.69710061831904 -471.3551104709137 -178.3127544373477 0.0 0.0
-790.1491794100664 -224.38240593435447 -508.406837935461 -195.91352384927407 0.0 0.0
-790.1491794099337 -224.38240593430092 -508.40683793548317 195.9135238495155 0.0 0.0
-797.8489855378608 -144.69710061829306 -471.3551104708765 178.31275443765105 0.0 0.0
-761.5275259537015 -90.08812218585751 -425.0700491726863 169.31559875518624 0.0 0.0
-751.1400137083921 -75.75099274392505 -411.23127855231417 160.7628286299747 0.0 0.0
-728.6408660118565 -59.37072081270489 -390.44884364926156 155.32821397583712 0.0 0.0
-698.8919156705831 -44.325905999033125 -366.6898509615777 153.03298187470017 0.0 0.0
-666.4362148337997 -33.07250438539238 -342.7536531127872 153.502077239435 0.0 0.0
-632.4213827315142 -25.51314469546712 -318.5000625980995 156.36834317374877 0.0 0.0
-595.486331589717 -20.01897818423754 -291.6163991925941 160.72058083482494 0.0 0.0
-552.9764233914404 -16.40780431425135 -259.50979545641553 166.02386378144666 0.0 0.0
-496.37137904316796 -10.701184008416845 -215.47305787933752 173.5762790745377 0.0 0.0
-415.55254184947364 -4.446240298246645 -160.3186656954974 186.77392479346454 0.0 0.0
-308.69735131123645 1.318860316414753 -104.52020125597738 200.71761978805694 0.0 0.0
-209.51893521577858 5.608605424618355 -64.43438700754714 204.78267022436324 0.0 0.0
-146.1790935509637 11.324293993804773 -41.33506990272033 196.5754934225731 0.0 0.0
-110.78027981819054 17.5407672541056 -28.131789783050504 185.66924317572864 0.0 0.0
-92.61912785441751 17.97168618997661 -22.40201587995217 181.3698245979333 0.0 0.0
-81.83984823117818 3.1694650708282746 -23.610040850708707 183.69604125229458 0.0 0.0
-65.80016308003069 -52.85019638531865 -35.594347901972895 183.10010189776813 0.0 0.0
-24.4701192045235 -204.84971167803417 -68.7959492647673 123.07032003770864 0.0 0.0
-27.041959142115157 -161.75218641207812 -56.63824366625798 -109.02612827854088 0.0 0.0
-77.02958486909114 -49.54245969829314 -37.9696791763931 -175.17540562761067 0.0 0.0
-109.77098873624749 2.498830571868149 -32.179868318171124 -179.30553927912825 0.0 0.0
-138.1662479200522 17.966915563798732 -36.07554371185136 -175.8819845730202 0.0 0.0
-176.67051000819617 18.9985635982259 -47.64288432392614 -176.4639023614716 0.0 0.0
-237.42553568195996 14.171089856060018 -68.80666397980237 -181.35099276071543 0.0 0.0
-332.66313420616797 10.203270469732255 -106.68900374200467 -180.89732370492118 0.0 0.0
-443.82472930579735 1.9255649583429673 -168.17454666177187 -168.88241617140508 0.0 0.0
-536.0040707446348 -8.70313904927594 -235.32996494628046 -158.33766144030017 0.0 0.0
-604.1975909068 -19.361614488427776 -290.4575244188869 -152.20541299714873 0.0 0.0
-656.7795791069773 -26.99164001131205 -329.7631418404153 -148.35568487573033 0.0 0.0
-700.7773981409161 -34.82905621271291 -360.3549019053438 -144.09912284391703 0.0 0.0
-741.1780554734268 -43.482815927258855 -387.1941020749056 -140.10547449941495 0.0 0.0
-780.1621507695361 -54.14424997461218 -413.21120385050716 -137.19370171661288 0.0 0.0
-819.5633806761263 -68.93036077029493 -440.93761966781756 -136.64736138487035 0.0 0.0
-858.154586638867 -88.17834180577847 -470.32944759569676 -139.4748695362604 0.0 0.0
-892.9740517273765 -109.75237040481466 -499.0410387211729 -145.70316215554422 0.0 0.0
-932.2821735988998 -143.23818906080567 -535.9233331746889 -152.61040562037056 0.0 0.0
-975.1715137638383 -192.49374786735333 -582.5345961056407 -159.16647513365535 0.0 0.0
-1060.8287480968206 -320.2963652489331 -687.7714455698243 -169.3665406033462 0.0 0.0
-1060.8287480964927 -320.2963652488471 -687.7714455696706 169.3665406036626 0.0 0.0
-975.1715137634354 -192.493747866951 -582.5345961053347 159.1664751337568 0.0 0.0
-932.282173598846 -143.2381890609668 -535.9233331747001 152.61040562067095 0.0 0.0
-892.974051726736 -109.75237040433225 -499.0410387207088 145.70316215561775 0.0 0.0
-858.1545866374461 -88.17834180439664 -470.32944759474196 139.47486953618983 0.0 0.0
-819.5633806748975 -68.9303607690274 -440.9376196669897 136.64736138474524 0.0 0.0
-780.1621507687496 -54.14424997387046 -413.2112038500156 137.193701716509 0.0 0.0
-741.1780554715699 -43.48281592552589 -387.19410207372607 140.1054744993999 0.0 0.0
-700.7773981400435 -34.829056211848474 -360.35490190472126 144.09912284373183 0.0 0.0
-656.7795791068299 -26.991640011365682 -329.76314184027103 148.35568487566212 0.0 0.0
-604.1975909064707 -19.361614488379452 -290.45752441864056 152.20541299709245 0.0 0.0
-536.004070743664 -8.703139048693528 -235.3299649456343 158.3376614403646 0.0 0.0
-443.82472930500705 1.9255649586767187 -168.174546661293 168.88241617152642 0.0 0.0
-332.66313420532424 10.203270470167823 -106.6890037415492 180.89732370484126 0.0 0.0
-237.42553568141992 14.171089856321267 -68.80666397955594 181.3509927604609 0.0 0.0
-176.67051000810932 18.99856359796871 -47.64288432397782 176.46390236128988 0.0 0.0
-138.16624791994866 17.966915563703253 -36.07554371185249 175.88198457283002 0.0 0.0
-109.7709887362263 2.4988305717113715 -32.179868318215945 179.30553927891768 0.0 0.0
-77.02958486907808 -49.542459698385855 -37.969679176417515 175.17540562739578 0.0 0.0
-27.041959142073857 -161.75218641195326 -56.63824366620813 109.02612827831243 0.0 0.0
-28.051182876768294 -122.58343224676062 -45.19038453705868 -94.57263902526009 0.0 0.0
-86.55701903344888 -44.08276762395562 -39.19193599722134 -163.06171695412922 0.0 0.0
-135.87562026993592 1.9217569365464948 -40.18260663444437 -170.59174894971395 0.0 0.0
-181.89689553333696 17.01986067902172 -49.510391417115954 -165.73398245157472 0.0 0.0
-239.48806933935907 19.348599947324725 -66.57283178647286 -161.98862746721548 0.0 0.0
-322.04095827175314 17.84126470506672 -95.75315039051827 -160.40470244706088 0.0 0.0
-430.4378425027071 12.193959939262218 -149.4816270674254 -150.78090590452044 0.0 0.0
-531.5284594303544 -0.3046616775503068 -222.40904965838695 -139.83928401949942 0.0 0.0
-611.4045451084353 -13.950460635174323 -288.70841605821283 -135.55810408227904 0.0 0.0
-674.4121873698798 -26.661638785371323 -338.2816669181693 -133.4822326789942 0.0 0.0
-726.6836210756081 -37.600899379963124 -375.10185379492657 -130.96862788782383 0.0 0.0
-774.5060595835515 -49.30868470102051 -407.1628918236132 -127.40257770334645 0.0 0.0
-819.0656982946183 -61.377151482139766 -436.579763213063 -123.61653108287686 0.0 0.0
-862.4461193300453 -75.31766463504461 -465.8353547476399 -120.54244371237273 0.0 0.0
-906.5451570106309 -93.03306387903883 -497.04013013130333 -119.78945540640103 0.0 0.0
-952.7411794183545 -117.02601335715974 -532.3468749280041 -122.6400365569561 0.0 0.0
-1001.9838359120471 -149.42243841505717 -573.4022798118655 -128.34785935365792 0.0 0.0
-1055.6132610635818 -192.9588322930143 -622.2748810711596 -134.19061906622858 0.0 0.0
-1123.7605331805266 -261.9044410266216 -690.748716655744 -137.1096097870817 0.0 0.0
-1215.4306943517818 -385.3399163025387 -797.7615659765414 -142.84625290960153 0.0 0.0
-1215.4306943521838 -385.33991630316905 -797.7615659769019 142.8462529099604 0.0 0.0
-1123.7605331803395 -261.904441026565 -690.7487166556787 137.1096097872127 0.0 0.0
-1055.6132610619848 -192.95883229140549 -622.2748810699625 134.19061906623637 0.0 0.0
-1001.9838359110086 -149.42243841419875 -573.4022798111157 128.34785935384048 0.0 0.0
-952.7411794179891 -117.02601335689845 -532.3468749277484 122.6400365569601 0.0 0.0
-906.5451570105662 -93.03306387914193 -497.04013013123404 119.78945540648228 0.0 0.0
-862.4461193300197 -75.31766463519904 -465.83535474757775 120.54244371240506 0.0 0.0
-819.0656982944694 -61.377151482192936 -436.5797632129704 123.61653108292029 0.0 0.0
-774.5060595828304 -49.30868470054627 -407.1628918231368 127.40257770341948 0.0 0.0
-726.6836210742783 -37.600899378807426 -375.10185379400974 130.96862788773507 0.0 0.0
-674.4121873689221 -26.661638784580994 -338.28166691749567 133.48223267884018 0.0 0.0
-611.4045451075355 -13.950460634450414 -288.7084160575191 135.5581040821306 0.0 0.0
-531.5284594296811 -0.30466167715222525 -222.40904965783466 139.83928401945624 0.0 0.0
-430.4378425019459 12.193959939605142 -149.48162706694725 150.78090590451697 0.0 0.0
-322.04095827119494 17.84126470523092 -95.75315039026923 160.40470244686986 0.0 0.0
-239.48806933902821 19.348599947507783 -66.57283178632059 161.98862746705956 0.0 0.0
-181.89689553303523 17.019860679189573 -49.51039141698185 165.7339824514357 0.0 0.0
-135.87562026985754 1.9217569366347482 -40.182606634395924 170.59174894959534 0.0 0.0
-86.55701903339816 -44.08276762395828 -39.191935997206926 163.06171695398405 0.0 0.0
-28.051182876645793 -122.5834322465602 -45.190384536961794 94.57263902515973 0.0 0.0
-28.772035828253372 -87.89979666569413 -35.001549748184246 -79.78977955970844 0.0 0.0
-95.16220718461467 -37.09303444137795 -39.676572487797785 -147.16194807228555 0.0 0.0
-160.3487802683007 1.5695801036183576 -47.63252779339004 -157.4877349288314 0.0 0.0
-224.0657432355623 15.232536933465035 -62.651161114016475 -151.19770693024134 0.0 0.0
-299.2453202388849 19.767674804392012 -84.71390689806154 -143.5836954951078 0.0 0.0
-397.4867874225035 20.123098524656157 -123.88211151989586 -134.03160698269673 0.0 0.0
-503.567202901186 11.336840650840678 -190.70287203173086 -120.92217686714243 0.0 0.0
-593.3079447351022 -3.100504176530791 -265.98266673960933 -115.24622160131287 0.0 0.0
-665.8719824070372 -18.517573969771348 -326.74128584001414 -115.14453675182381 0.0 0.0
-727.0518536311422 -33.010886079246916 -372.12110831388077 -115.00121239514324 0.0 0.0
-782.3349296535744 -47.895895729664886 -410.1544238130583 -113.27891839014274 0.0 0.0
-834.0171102270044 -63.532225601199045 -445.0966796814767 -110.1941704828948 0.0 0.0
-882.8694428064662 -79.58896226597304 -478.23958147966005 -106.74634420434157 0.0 0.0
-930.1353262296179 -96.46115187969832 -510.7184804840716 -103.71888850552358 0.0 0.0
-978.7929417620304 -117.10900684030935 -545.54952200047 -102.57666381452378 0.0 0.0
-1032.5971292580098 -146.91777621560715 -587.4110761758859 -104.69675910400336 0.0 0.0
-1094.4527607905302 -189.14055913227165 -639.5546427151846 -109.7485767855439 0.0 0.0
-1165.3214269016603 -247.41120431638973 -704.2077787755186 -114.41986646248961 0.0 0.0
-1246.6245076799817 -328.43041613275625 -785.330163579446 -116.43358429085994 0.0 0.0
-1330.131692050234 -441.3042587251766 -883.4185014812942 -123.58328903089533 0.0 0.0
-1330.1316920498884 -441.3042587249292 -883.4185014811314 123.58328903107173 0.0 0.0
-1246.6245076794585 -328.4304161322763 -785.3301635790617 116.43358429096268 0.0 0.0
-1165.321426901607 -247.4112043164565 -704.2077787754832 114.4198664626297 0.0 0.0
-1094.4527607911823 -189.1405591331538 -639.554642715728 109.74857678581748 0.0 0.0
-1032.5971292584813 -146.91777621625747 -587.4110761762843 104.69675910410194 0.0 0.0
-978.792941762036 -117.10900684051131 -545.549522000475 102.57666381466137 0.0 0.0
-930.1353262294806 -96.46115187973314 -510.7184804839544 103.71888850554308 0.0 0.0
-882.86944280599 -79.58896226569901 -478.23958147932035 106.74634420440543 0.0 0.0
-834.0171102271298 -63.532225601577395 -445.09667968159243 110.19417048295448 0.0 0.0
-782.3349296535529 -47.895895729788116 -410.15442381305377 113.27891838993939 0.0 0.0
-727.0518536305658 -33.01088607890627 -372.1211083135 115.00121239509295 0.0 0.0
-665.8719824063086 -18.517573969326968 -326.7412858395305 115.14453675181394 0.0 0.0
-593.3079447348622 -3.1005041766179104 -265.9826667393397 115.24622160125524 0.0 0.0
-503.567202901256 11.336840650172622 -190.70287203170068 120.92217686724926 0.0 0.0
-397.4867874220277 20.1230985247715 -123.88211151962668 134.0316069825289 0.0 0.0
-299.245320238419 19.76767480450943 -84.71390689789536 143.58369549497348 0.0 0.0
-224.06574323545817 15.232536933215721 -62.65116111406557 151.19770693016096 0.0 0.0
-160.3487802683752 1.5695801032663668 -47.63252779351859 157.48773492874187 0.0 0.0
-95.1622071845789 -37.093034441387026 -39.67657248778977 147.16194807217454 0.0 0.0
-28.77203582816624 -87.8997966655264 -35.001549748107784 79.78977955960809 0.0 0.0
-29.497419150742008 -58.1823468643413 -26.30392980452499 -64.5915394689466 0.0 0.0
-103.125025409181 -29.146294112717268 -39.68139585656947 -127.89022395966293 0.0 0.0
-183.4570327005024 1.3134155500805456 -54.640898039306066 -140.12195069461785 0.0 0.0
-263.6602772090573 12.572017096587155 -75.37818718916742 -132.25227342251054 0.0 0.0
-354.3962776970919 20.671225540518623 -102.4261142976062 -121.21196497719939 0.0 0.0
-461.12420956989763 20.007714082122 -153.34471720192798 -105.55688289196688 0.0 0.0
-558.7847701632951 9.714695740847716 -227.8040091235666 -94.36305730544073 0.0 0.0
-639.0131411202601 -6.0886923309796614 -299.8273052138645 -93.28721738337742 0.0 0.0
-707.7082202614757 -21.82480571791986 -354.32509701685035 -95.35371029419454 0.0 0.0
-770.3985663010435 -39.13655345589548 -399.03735810078126 -96.1238389526593 0.0 0.0
-829.2438322998682 -57.9300960447043 -439.63530739148814 -94.92514495245425 0.0 0.0
-884.9915772631996 -77.64690843191657 -478.19751746419433 -92.37770467128249 0.0 0.0
-938.3603767302543 -97.78847187490092 -515.4650943360206 -89.51614855339616 0.0 0.0
-989.6123022714819 -118.28714184264656 -551.6768399867642 -86.66484230663481 0.0 0.0
-1042.1536779294988 -141.80486147894356 -589.8336587441695 -84.91714134324211 0.0 0.0
-1103.04710925182 -176.43915672297112 -637.5586196833426 -85.92859073981931 0.0 0.0
-1176.599603329446 -228.97435672662817 -700.569236253998 -89.85384000173322 0.0 0.0
-1262.335100215189 -301.1509266786544 -779.5444396357137 -94.3202299789287 0.0 0.0
-1351.3069019305317 -389.91345765539154 -868.4526341519986 -98.1299966148184 0.0 0.0
-1429.8169563655213 -496.33951283321625 -961.0402435903972 -109.06562976923168 0.0 0.0
-1429.8169563651777 -496.33951283295147 -961.0402435901668 109.06562976941316 0.0 0.0
-1351.3069019313898 -389.91345765636345 -868.4526341526823 98.12999661502029 0.0 0.0
-1262.3351002156287 -301.15092667922187 -779.5444396360783 94.32022997909252 0.0 0.0
-1176.599603329431 -228.9743567267615 -700.5692362539324 89.8538400018811 0.0 0.0
-1103.0471092517525 -176.43915672301222 -637.5586196831064 85.92859073980087 0.0 0.0
-1042.1536779293517 -141.80486147897778 -589.8336587439437 84.91714134334724 0.0 0.0
-989.6123022712804 -118.28714184260349 -551.6768399865582 86.66484230663232 0.0 0.0
-938.3603767296509 -97.78847187447664 -515.4650943355701 89.51614855341535 0.0 0.0
-884.9915772634 -77.64690843231378 -478.19751746428904 92.37770467122853 0.0 0.0
-829.2438323002359 -57.93009604530217 -439.63530739171176 94.92514495236061 0.0 0.0
-770.3985663002767 -39.13655345532342 -399.0373581002492 96.1238389524992 0.0 0.0
-707.7082202614315 -21.824805718168196 -354.3250970167451 95.35371029417456 0.0 0.0
-639.0131411197515 -6.0886923308005265 -299.82730521344416 93.28721738338695 0.0 0.0
-558.7847701627318 9.714695741067853 -227.8040091231078 94.36305730545129 0.0 0.0
-461.124209569502 20.007714082095703 -153.3447172016622 105.5568828919139 0.0 0.0
-354.39627769661786 20.67122554056475 -102.42611429744625 121.21196497712393 0.0 0.0
-263.6602772086688 12.572017096924302 -75.37818718895986 132.2522734223554 0.0 0.0
-183.45703270030123 1.3134155502723375 -54.64089803918901 140.12195069450627 0.0 0.0
-103.12502540905263 -29.14629411257075 -39.681395856487015 127.89022395954979 0.0 0.0
-29.497419150680557 -58.18234686428332 -26.303929804489165 64.59153946891458 0.0 0.0
-30.02844553163967 -33.873665503311074 -19.170633310485222 -48.912021826482174 0.0 0.0
-110.21549126873619 -20.77500592313869 -39.29714915756246 -105.61785935420333 0.0 0.0
-205.34210206503528 1.0328050061356606 -61.29278911766988 -118.4829131840571 0.0 0.0
-302.0862587070404 9.767975833801792 -87.76493453101203 -109.73089168254027 0.0 0.0
-407.42560098382046 21.093336060672204 -121.01311828696045 -95.27761433245341 0.0 0.0
-512.0184997626009 18.86507628914822 -182.53342593697312 -77.73607622443788 0.0 0.0
-598.6460601280517 6.697681769119022 -259.6344537830933 -70.85820499111911 0.0 0.0
-673.7054731010994 -7.500829159806585 -324.59737068591653 -72.68126803327618 0.0 0.0
-742.3198358127735 -24.75131970520337 -376.0307359746157 -75.41828100171526 0.0 0.0
-807.3784285509887 -45.24327780853545 -421.77583547584504 -76.60811368699177 0.0 0.0
-869.6950540386192 -67.65222834449204 -465.3094203322852 -75.87818372594766 0.0 0.0
-929.8076976122194 -91.48715774456592 -507.8947289911809 -73.94082339939612 0.0 0.0
-987.7297930131517 -115.99799659684622 -549.5086358083897 -71.7046365680999 0.0 0.0
-1044.2598650636335 -141.06563939332264 -590.5950629485807 -69.36670638720324 0.0 0.0
-1100.9696489058765 -167.9964989440051 -632.5486538134437 -67.10803130085124 0.0 0.0
-1165.272697110061 -205.3946742078077 -683.307827046397 -66.39746603990613 0.0 0.0
-1248.5870344180894 -266.06811696328424 -755.1425142438588 -69.04457471485311 0.0 0.0
-1347.2443566345087 -350.26007663042276 -846.563274877994 -74.28405285922186 0.0 0.0
-1445.8481543775483 -448.6574005710014 -945.1610613763054 -81.49709393437595 0.0 0.0
-1524.490240740914 -554.2106235627913 -1037.496131106378 -97.21349219460542 0.0 0.0
-1524.4902407415002 -554.2106235634212 -1037.4961311068023 97.21349219473626 0.0 0.0
-1445.8481543777411 -448.657400571307 -945.1610613764049 81.49709393459597 0.0 0.0
-1347.2443566341453 -350.2600766301499 -846.5632748777603 74.2840528593278 0.0 0.0
-1248.5870344174637 -266.0681169627396 -755.142514243384 69.04457471489465 0.0 0.0
-1165.2726971102388 -205.39467420812161 -683.3078270465302 66.39746603995057 0.0 0.0
-1100.9696489062485 -167.99649894453293 -632.5486538136814 67.10803130091749 0.0 0.0
-1044.2598650641469 -141.06563939403452 -590.5950629488823 69.36670638731516 0.0 0.0
-987.7297930131019 -115.99799659701175 -549.508635808294 71.70463656818288 0.0 0.0
-929.8076976120534 -91.48715774461684 -507.8947289910073 73.94082339938448 0.0 0.0
-869.6950540381099 -67.65222834422718 -465.30942033193065 75.87818372598957 0.0 0.0
-807.3784285503865 -45.24327780821088 -421.77583547549347 76.60811368700564 0.0 0.0
-742.3198358120818 -24.751319704750525 -376.03073597417267 75.41828100163713 0.0 0.0
-673.7054731007222 -7.5008291597427 -324.5973706856318 72.68126803327388 0.0 0.0
-598.6460601278634 6.697681768957228 -259.63445378284524 70.85820499107855 0.0 0.0
-512.0184997623118 18.865076289006343 -182.53342593672102 77.7360762244235 0.0 0.0
-407.42560098356444 21.093336060402684 -121.01311828692951 95.27761433245692 0.0 0.0
-302.08625870680766 9.76797583377223 -87.76493453095844 109.73089168246251 0.0 0.0
-205.3421020650118 1.032805005962718 -61.29278911771471 118.48291318400372 0.0 0.0
-110.21549126862543 -20.77500592318272 -39.29714915754244 105.61785935408805 0.0 0.0
-30.02844553160838 -33.873665503295 -19.17063331047101 48.91202182643734 0.0 0.0
-29.72912478400975 -15.397525658722 -13.537995132819523 -32.876738795526954 0.0 0.0
-115.5610517896699 -12.413940266759319 -38.392497616928765 -80.5456537186756 0.0 0.0
-226.31750248540843 0.3616628283360477 -67.78675189712169 -92.49981501990429 0.0 0.0
-339.95430642069874 8.135374353219486 -99.68009796723337 -83.69733983083643 0.0 0.0
-454.7805498446602 20.812937002228868 -140.79754447678664 -66.98450876286141 0.0 0.0
-552.0685517278871 15.865083679114143 -211.3486710730923 -52.57673043070012 0.0 0.0
-630.6023541062808 4.555473183939185 -285.6323258185866 -49.76652570670716 0.0 0.0
-701.9846353833573 -8.419039606466313 -343.6662823243811 -52.20910701867957 0.0 0.0
-771.4160910725288 -27.76345853618838 -393.86021355127787 -55.063407809206375 0.0 0.0
-839.1264362920144 -51.14703854111259 -441.3420270312912 -56.440717744918615 0.0 0.0
-905.2235070360624 -77.1587040987152 -488.2198176046346 -56.13540284096333 0.0 0.0
-969.5015719942992 -104.99091039385937 -534.7606382375814 -54.802560270249714 0.0 0.0
-1032.5855188245027 -133.98745835163842 -581.1240223233899 -53.282655838593485 0.0 0.0
-1094.6889104469908 -164.55032472679068 -627.6852711164818 -51.54328591128534 0.0 0.0
-1156.9339647546383 -196.8241533011788 -675.0859132898473 -49.26725517669664 0.0 0.0
-1223.5561241805492 -235.6115283353911 -727.7544785278095 -46.98962459578506 0.0 0.0
-1306.6207040820723 -295.1074898507768 -798.7789048053401 -47.61476694898548 0.0 0.0
-1419.4084429278764 -392.36543986440523 -903.6817701015898 -53.70035910986547 0.0 0.0
-1533.45302710214 -505.281590395714 -1017.3359221322553 -65.36144593137304 0.0 0.0
-1622.5530688818924 -619.4830440658915 -1119.296989209941 -86.70543540521437 0.0 0.0
-1622.553068881567 -619.483044065597 -1119.2969892096944 86.70543540525821 0.0 0.0
-1533.4530271011836 -505.281590394809 -1017.3359221315463 65.36144593148761 0.0 0.0
-1419.408442927354 -392.36543986397373 -903.6817701010975 53.7003591100257 0.0 0.0
-1306.6207040820364 -295.10748985084416 -798.7789048051816 47.614766949035406 0.0 0.0
-1223.5561241801836 -235.611528335144 -727.7544785273656 46.98962459582306 0.0 0.0
-1156.93396475327 -196.8241532999506 -675.0859132887572 49.2672551767305 0.0 0.0
-1094.68891044717 -164.55032472714768 -627.6852711165017 51.54328591135629 0.0 0.0
-1032.585518824875 -133.9874583522414 -581.1240223236305 53.28265583876979 0.0 0.0
-969.5015719938328 -104.99091039361974 -534.7606382372339 54.802560270247184 0.0 0.0
-905.2235070356103 -77.1587040985041 -488.2198176042607 56.1354028409761 0.0 0.0
-839.1264362914096 -51.14703854077806 -441.3420270308835 56.44071774495306 0.0 0.0
-771.4160910723606 -27.763458536287033 -393.86021355113604 55.06340780914499 0.0 0.0
-701.9846353832336 -8.419039606633461 -343.66628232423056 52.209107018558925 0.0 0.0
-630.6023541060396 4.555473183875655 -285.6323258183104 49.76652570665422 0.0 0.0
-552.0685517274964 15.865083679131931 -211.348671072744 52.57673043067817 0.0 0.0
-454.7805498442228 20.8129370023484 -140.79754447654904 66.98450876278966 0.0 0.0
-339.9543064204133 8.135374353196102 -99.68009796716582 83.69733983074656 0.0 0.0
-226.31750248524668 0.36166282847855413 -67.78675189703044 92.49981501989147 0.0 0.0
-115.56105178947666 -12.413940266707012 -38.3924976168551 80.54565371870974 0.0 0.0
-29.729124783995935 -15.39752565870045 -13.537995132808915 32.87673879547785 0.0 0.0
-27.31708694052635 -3.105706966909198 -9.126838172230665 -17.002040187350175 0.0 0.0
-117.46615650897654 -4.626219811106369 -36.62771289602487 -52.640372663787815 0.0 0.0
-246.69580890729344 -0.7402918583912079 -74.23083022970539 -61.64501309696702 0.0 0.0
-379.5375769237055 7.970213869565091 -111.79769532689511 -54.315471651079704 0.0 0.0
-494.4184793578909 20.277801363274605 -161.48062388972352 -39.13237332524846 0.0 0.0
-581.0625790470085 11.376117903689035 -238.12461103596172 -29.928980652973284 0.0 0.0
-655.4028012766352 4.032372930704327 -305.1362082284001 -29.707527636139048 0.0 0.0
-725.5445218723974 -9.945666078005061 -359.2013215780428 -31.83271881864399 0.0 0.0
-795.7239168895073 -30.63517777656574 -408.58422383219784 -34.23614244199066 0.0 0.0
-866.310989084668 -56.81811266158857 -458.27131090882176 -35.57482004039254 0.0 0.0
-936.3421179181721 -86.47115255062394 -508.73369974552963 -35.66819540226861 0.0 0.0
-1005.2626445436279 -118.12213984441264 -559.4167996829917 -34.993531062260246 0.0 0.0
-1073.2341595911948 -151.99151541870222 -610.6025712080741 -34.08042554114009 0.0 0.0
-1141.5311428839232 -188.11555648110425 -662.9884647170629 -33.02267615955946 0.0 0.0
-1210.838759516077 -227.16372207028175 -717.2867174931357 -31.356285399520445 0.0 0.0
-1281.360369306175 -269.9258144709379 -773.9742144240918 -28.62095675166595 0.0 0.0
-1357.9432457865244 -322.61278485387504 -838.4444022133604 -26.632040987766338 0.0 0.0
-1459.4966700573514 -407.21643090835533 -931.1607069101542 -31.400269466498163 0.0 0.0
-1620.2947280334358 -564.3280874662157 -1090.2158327990307 -47.74628816325818 0.0 0.0
-1733.7490668747373 -700.0052265038387 -1215.2798030074423 -76.59220246150002 0.0 0.0
-1733.7490668743626 -700.0052265034926 -1215.2798030071888 76.59220246155853 0.0 0.0
-1620.2947280334663 -564.3280874663051 -1090.2158327990524 47.7462881633284 0.0 0.0
-1459.4966700570126 -407.2164309080856 -931.1607069098854 31.400269466534503 0.0 0.0
-1357.943245785672 -322.6127848531117 -838.4444022126678 26.632040987781902 0.0 0.0
-1281.360369306295 -269.92581447118755 -773.974214424087 28.620956751712058 0.0 0.0
-1210.8387595161635 -227.16372207050088 -717.2867174931856 31.356285399434523 0.0 0.0
-1141.5311428836521 -188.11555648098883 -662.9884647168615 33.02267615954104 0.0 0.0
-1073.234159590457 -151.9915154181437 -610.6025712074647 34.08042554107959 0.0 0.0
-1005.2626445433182 -118.12213984431156 -559.4167996826375 34.993531062140704 0.0 0.0
-936.3421179172234 -86.47115254991792 -508.7336997448298 35.66819540237172 0.0 0.0
-866.3109890837936 -56.818112660983026 -458.27131090820905 35.57482004043497 0.0 0.0
-795.7239168894049 -30.635177776742943 -408.584223832093 34.23614244197107 0.0 0.0
-725.5445218722989 -9.94566607820537 -359.2013215779245 31.83271881859497 0.0 0.0
-655.4028012761781 4.032372930857534 -305.136208228036 29.70752763619462 0.0 0.0
-581.0625790465068 11.376117903864603 -238.12461103552812 29.928980652945718 0.0 0.0
-494.4184793574591 20.27780136332408 -161.4806238894534 39.13237332532814 0.0 0.0
-379.5375769234398 7.970213869354322 -111.7976953269066 54.31547165108734 0.0 0.0
-246.69580890722767 -0.7402918585704228 -74.23083022973942 61.645013096898694 0.0 0.0
-117.46615650879959 -4.626219811067136 -36.627712895960016 52.64037266373231 0.0 0.0
-27.317086940602877 -3.1057069669881274 -9.126838172277301 17.002040187202862 0.0 0.0
-20.334398298562988 2.775350469360532 -5.2677143487607365 -2.540133856747929 0.0 0.0
-112.97191884872377 1.783466469861537 -33.356535713658666 -21.377020873761893 0.0 0.0
-267.3516462228947 -2.1329493550291634 -80.84537867337714 -24.832085842553425 0.0 0.0
-419.6068781010483 9.928650280906853 -124.71724910199222 -22.00808161491582 0.0 0.0
-528.3635365859817 17.807468003602416 -183.92146975124692 -13.414119458648926 0.0 0.0
-606.6559574090122 8.947403920511135 -261.0597215640173 -9.855497211575202 0.0 0.0
-675.6413709729833 2.939587476148347 -320.84910023476107 -10.07342487080017 0.0 0.0
-744.8714941326882 -11.537549812155845 -371.6716141540521 -11.416247116247778 0.0 0.0
-816.1322448579115 -33.61955525490248 -421.0625075815909 -12.958478166302815 0.0 0.0
-889.5210624505281 -62.26338050019223 -472.9828665912073 -14.010975902559906 0.0 0.0
-963.5912783970156 -95.25680815110715 -526.984963899998 -14.4672266327403 0.0 0.0
-1037.1375820286378 -131.49568815609948 -582.208911342477 -14.40374785959396 0.0 0.0
-1110.4239214602246 -169.795793601273 -638.226776239361 -14.170324739768468 0.0 0.0
-1184.748481162535 -211.2448088260895 -696.250304319704 -13.767495057890512 0.0 0.0
-1261.1490186205876 -257.1581044246411 -757.4957852594941 -12.918406090144936 0.0 0.0
-1338.7503046516122 -307.22640167985344 -821.3894367166291 -11.228235750050072 0.0 0.0
-1414.3702318913165 -359.3763567966475 -885.2661859924015 -8.544874819276602 0.0 0.0
-1490.6122949057708 -418.0490899944323 -952.4988696307043 -8.483273759932526 0.0 0.0
-1602.947248078891 -522.7569455588596 -1060.5469248205932 -23.881583062254666 0.0 0.0
-1933.097202561415 -868.0700564178355 -1398.9904772148875 -62.72711798157029 0.0 0.0
-1933.097202561527 -868.0700564179825 -1398.9904772149694 62.72711798164882 0.0 0.0
-1602.9472480793893 -522.7569455594114 -1060.5469248209165 23.88158306227258 0.0 0.0
-1490.6122949058886 -418.0490899946258 -952.4988696307366 8.483273760038713 0.0 0.0
-1414.3702318917333 -359.37635679717005 -885.2661859926693 8.54487481924074 0.0 0.0
-1338.750304651571 -307.2264016799351 -821.3894367165608 11.228235750056243 0.0 0.0
-1261.149018619875 -257.15810442406405 -757.4957852588983 12.918406090172073 0.0 0.0
-1184.7484811619597 -211.2448088256796 -696.2503043191955 13.767495057961439 0.0 0.0
-1110.423921460208 -169.79579360145613 -638.2267762393371 14.170324739751953 0.0 0.0
-1037.1375820274318 -131.49568815509926 -582.2089113416686 14.40374785956191 0.0 0.0
-963.5912783964433 -95.25680815078634 -526.9849638996013 14.467226632774311 0.0 0.0
-889.5210624501135 -62.26338050003906 -472.98286659092116 14.010975902559629 0.0 0.0
-816.132244857839 -33.619555255122286 -421.06250758153465 12.958478166465932 0.0 0.0
-744.8714941324866 -11.537549812246134 -371.6716141539085 11.416247116268494 0.0 0.0
-675.6413709727858 2.939587476010729 -320.84910023457985 10.073424870828838 0.0 0.0
-606.6559574089908 8.947403920207673 -261.05972156389385 9.855497211585298 0.0 0.0
-528.3635365859298 17.807468003227715 -183.92146975115708 13.41411945867032 0.0 0.0
-419.60687810094635 9.928650280514963 -124.71724910206657 22.008081614843242 0.0 0.0
-267.3516462227277 -2.132949355067394 -80.84537867333852 24.83208584258972 0.0 0.0
-112.97191884857585 1.7834664699371299 -33.35653571359161 21.377020873676493 0.0 0.0
-20.334398298536705 2.7753504693969613 -5.267714348741921 2.54013385680771 0.0 0.0
SCALARS Strain float 6
LOOKUP_TABLE default
0.011125926752078347 -0.01219451220106807 0.0 -0.006718327295033633 0.0 0.0
0.0022941902962637945 -0.0013742018900881336 0.0 0.0011237204561277414 0.0 0.0
0.0017936812615593541 -0.0007322385804587883 0.0 -4.6725306868361516e-05 0.0 0.0
0.002232060022464285 -0.0010563362242560492 0.0 -0.00020387017868009338 0.0 0.0
0.003355882896422819 -0.0019404436567553862 0.0 -0.000252643065510344 0.0 0.0
0.005664271512742611 -0.003953037689175876 0.0 -0.0003761443332885861 0.0 0.0
0.009363985625083572 -0.007379931499223558 0.0 -0.0005899245713138768 0.0 0.0
0.014677558403451356 -0.012422039339778257 0.0 -0.0009141165869819556 0.0 0.0
0.02171864710766058 -0.01917739968843457 0.0 -0.0013614140866134994 0.0 0.0
0.030483760306511464 -0.02763530263131786 0.0 -0.0018952331239001363 0.0 0.0
0.04091697856983456 -0.03774606647329559 0.0 -0.0024487597328304855 0.0 0.0
0.052965727067519536 -0.049462978408843394 0.0 -0.0029988922855506694 0.0 0.0
0.06658448848169589 -0.06274496797813578 0.0 -0.0035520474329358565 0.0 0.0
0.0817013708830428 -0.07751605246321436 0.0 -0.004108307017379659 0.0 0.0
0.09809502512866064 -0.09355006756215145 0.0 -0.004655929193265601 0.0 0.0
0.11524309411970504 -0.11032705169569912 0.0 -0.0050932883664000506 0.0 0.0
0.13225145146108153 -0.12696450454589003 0.0 -0.005214474467453156 0.0 0.0
0.1478882749656516 -0.1422461108634847 0.0 -0.004782493277405375 0.0 0.0
0.16067317338681153 -0.1547033594025713 0.0 -0.003927362390489075 0.0 0.0
0.16861475427833333 -0.1622023680714113 0.0 -0.004035178601032641 0.0 0.0
0.1686147542783245 -0.16220236807140243 0.0 0.004035178601039302 0.0 0.0
0.16067317338677958 -0.15470335940253754 0.0 0.003927362390507727 0.0 0.0
0.1478882749655969 -0.14224611086343142 0.0 0.004782493277413091 0.0 0.0
0.13225145146101328 -0.12696450454582475 0.0 0.0052144744674592625 0.0 0.0
0.11524309411963235 -0.1103270516956254 0.0 0.0050932883663925566 0.0 0.0
0.09809502512858387 -0.09355006756207418 0.0 0.004655929193266517 0.0 0.0
0.08170137088296486 -0.07751605246313575 0.0 0.004108307017376522 0.0 0.0
0.0665844884816175 -0.06274496797805362 0.0 0.0035520474329344687 0.0 0.0
0.05296572706744565 -0.04946297840877589 0.0 0.0029988922855448408 0.0 0.0
0.040916978569768336 -0.03774606647323897 0.0 0.0024487597328291533 0.0 0.0
0.03048376030645658 -0.02763530263126346 0.0 0.0018952331238928366 0.0 0.0
0.021718647107617034 -0.019177399688389274 0.0 0.0013614140866113345 0.0 0.0
0.014677558403419472 -0.012422039339746505 0.0 0.0009141165869781531 0.0 0.0
0.009363985625062382 -0.007379931499202019 0.0 0.0005899245713135715 0.0 0.0
0.0056642715127296905 -0.003953037689162997 0.0 0.00037614433328986285 0.0 0.0
0.0033558828964166953 -0.001940443656749835 0.0 0.0002526430655097056 0.0 0.0
0.002232060022462956 -0.001056336224254828 0.0 0.000203870178679455 0.0 0.0
0.0017936812615587938 -0.0007322385804584552 0.0 4.672530686772314e-05 0.0 0.0
0.0022941902962622662 -0.001374201890086607 0.0 -0.0011237204561259373 0.0 0.0
0.011125926752067583 -0.012194512201054365 0.0 0.00671832729500052 0.0 0.0
0.007850067035346915 -0.00929470210279032 0.0 -0.008060207735284652 0.0 0.0
0.0012559222079874671 -0.0006961390228570341 0.0 0.0001414633449757785 0.0 0.0
0.001536394343603524 -0.0005533258166754429 0.0 -0.000131049821427226 0.0 0.0
0.0019687941921705254 -0.0008906034820126418 0.0 -0.0004562793466512671 0.0 0.0
0.0028641258257918432 -0.0015511537062118386 0.0 -0.0005750849501570121 0.0 0.0
0.004839041151744449 -0.0032213981465438746 0.0 -0.0008790737376691837 0.0 0.0
0.008142821707463686 -0.006233036496009481 0.0 -0.0014260161831027018 0.0 0.0
0.012949630472625085 -0.010760838890978341 0.0 -0.002208230419094931 0.0 0.0
0.019330823920200864 -0.01686134398014061 0.0 -0.0032303142225540704 0.0 0.0
0.02724258424823315 -0.02448075353620327 0.0 -0.004407813192843224 0.0 0.0
0.03660395764508999 -0.033541982694905936 0.0 -0.005613857095310426 0.0 0.0
0.04737080001995636 -0.04400517163789175 0.0 -0.006777313115550854 0.0 0.0
0.05954572711989769 -0.055871166390225824 0.0 -0.00796380327600052 0.0 0.0
0.07309385182979622 -0.06910198671445666 0.0 -0.009202507693938072 0.0 0.0
0.08782966767710672 -0.0835100427263602 0.0 -0.010418431831354213 0.0 0.0
0.10330868853819701 -0.09865252797275614 0.0 -0.011403642664445046 0.0 0.0
0.1187550679951576 -0.11375986018836981 0.0 -0.011743352678718455 0.0 0.0
0.13305443244662774 -0.12772435081061317 0.0 -0.011034437607272407 0.0 0.0
0.14469827530337065 -0.13901255210216767 0.0 -0.009353811663784795 0.0 0.0
0.1517039089698927 -0.1457485332211914 0.0 -0.006535673862999136 0.0 0.0
0.15170390896988367 -0.14574853322118297 0.0 0.006535673863018232 0.0 0.0
0.14469827530334078 -0.1390125521021397 0.0 0.0093538116638201 0.0 0.0
0.13305443244658008 -0.1277243508105661 0.0 0.011034437607294723 0.0 0.0
0.1187550679950985 -0.11375986018831208 0.0 0.0117433526787315 0.0 0.0
0.10330868853813233 -0.09865252797269397 0.0 0.011403642664435942 0.0 0.0
0.08782966767703762 -0.0835100427262927 0.0 0.010418431831352049 0.0 0.0
0.07309385182972616 -0.06910198671438872 0.0 0.009202507693934603 0.0 0.0
0.05954572711982828 -0.05587116639016143 0.0 0.00796380327599866 0.0 0.0
0.0473708000198903 -0.044005171637829577 0.0 0.006777313115541417 0.0 0.0
0.03660395764503027 -0.03354198269484887 0.0 0.0056138570953026545 0.0 0.0
0.02724258424818407 -0.024480753536157085 0.0 0.004407813192832677 0.0 0.0
0.019330823920161416 -0.01686134398010375 0.0 0.003230314222549713 0.0 0.0
0.012949630472596146 -0.010760838890951696 0.0 0.0022082304190894075 0.0 0.0
0.008142821707444847 -0.006233036495990829 0.0 0.0014260161830991214 0.0 0.0
0.004839041151733781 -0.0032213981465341046 0.0 0.0008790737376684898 0.0 0.0
0.0028641258257870728 -0.0015511537062080638 0.0 0.0005750849501560962 0.0 0.0
0.0019687941921692487 -0.0008906034820117537 0.0 0.0004562793466517945 0.0 0.0
0.0015363943436032257 -0.0005533258166741661 0.0 0.00013104982142742028 0.0 0.0
0.001255922207987481 -0.0006961390228555631 0.0 -0.00014146334497783242 0.0 0.0
0.00785006703533403 -0.009294702102775585 0.0 0.008060207735258201 0.0 0.0
0.005786232859927541 -0.007380374758541669 0.0 -0.007456659033262675 0.0 0.0
0.0007413365437259761 -0.00045111356635718636 0.0 -0.0005535779275091246 0.0 0.0
0.0012320760268055703 -0.0004088955162936392 0.0 -0.0004298435558430791 0.0 0.0
0.0017152420559264497 -0.0007400772077903461 0.0 -0.0006987458903023325 0.0 0.0
0.0024279066394714346 -0.0012307014893655488 0.0 -0.0008655251943398001 0.0 0.0
0.0040444220033307166 -0.0025391856629326526 0.0 -0.0012568510749340345 0.0 0.0
0.006929353825291251 -0.005107264196733574 0.0 -0.0020441518094682642 0.0 0.0
0.011202641983834659 -0.009095520947860036 0.0 -0.0032039825112761544 0.0 0.0
0.016899901222850587 -0.014514347847475184 0.0 -0.004682046697497111 0.0 0.0
0.023943721882337107 -0.021281169413303713 0.0 -0.006358969138209353 0.0 0.0
0.0322342422994175 -0.029294344280040185 0.0 -0.008075771879248905 0.0 0.0
0.04172913468654274 -0.03851167512424558 0.0 -0.009737437951056777 0.0 0.0
0.05245058127615124 -0.04895236230309585 0.0 -0.011403792874430774 0.0 0.0
0.06440760408715399 -0.06062172049619097 0.0 -0.01316165070791453 0.0 0.0
0.07746878458041187 -0.07338810599504031 0.0 -0.014923751982021949 0.0 0.0
0.09127499258965173 -0.0868928583325066 0.0 -0.016360462029347822 0.0 0.0
0.10517703094475146 -0.10048728548929198 0.0 -0.016955296479599147 0.0 0.0
0.11816466361454427 -0.11315279454736338 0.0 -0.01618115038208423 0.0 0.0
0.12878463490821546 -0.12346105100896043 0.0 -0.013563631232808626 0.0 0.0
0.13536731753919423 -0.1298215340347313 0.0 -0.008367850527913667 0.0 0.0
0.13536731753918518 -0.12982153403472108 0.0 0.008367850527945198 0.0 0.0
0.1287846349081885 -0.123461051008936 0.0 0.013563631232855089 0.0 0.0
0.11816466361450259 -0.11315279454732075 0.0 0.016181150382118648 0.0 0.0
0.10517703094469968 -0.10048728548924135 0.0 0.016955296479615023 0.0 0.0
0.0912749925895944 -0.08689285833244709 0.0 0.016360462029339717 0.0 0.0
0.07746878458035075 -0.07338810599497991 0.0 0.014923751982018563 0.0 0.0
0.06440760408709173 -0.06062172049613235 0.0 0.013161650707911088 0.0 0.0
0.052450581276090674 -0.04895236230303546 0.0 0.011403792874425167 0.0 0.0
0.041729134686484426 -0.03851167512418652 0.0 0.009737437951043315 0.0 0.0
0.032234242299365 -0.02929434427998734 0.0 0.008075771879237692 0.0 0.0
0.02394372188229335 -0.02128116941326419 0.0 0.006358969138193893 0.0 0.0
0.016899901222815428 -0.014514347847441211 0.0 0.004682046697488451 0.0 0.0
0.011202641983808659 -0.009095520947834279 0.0 0.0032039825112685216 0.0 0.0
0.006929353825274848 -0.005107264196720029 0.0 0.00204415180946238 0.0 0.0
0.004044422003322418 -0.0025391856629273235 0.0 0.0012568510749313422 0.0 0.0
0.002427906639468125 -0.0012307014893627732 0.0 0.0008655251943375519 0.0 0.0
0.0017152420559254367 -0.0007400772077890139 0.0 0.0006987458903015553 0.0 0.0
0.0012320760268054731 -0.0004088955162946939 0.0 0.00042984355584241296 0.0 0.0
0.0007413365437260455 -0.0004511135663557708 0.0 0.0005535779275068209 0.0 0.0
0.005786232859915558 -0.007380374758528228 0.0 0.007456659033242052 0.0 0.0
0.004349205997970111 -0.005939798142520769 0.0 -0.0063302466478812325 0.0 0.0
0.00046554657010340617 -0.0003366943598331895 0.0 -0.0011418375209411302 0.0 0.0
0.0009548035997242674 -0.00029814670288985656 0.0 -0.0008239084671325669 0.0 0.0
0.0014603362760753635 -0.0006015235443482814 0.0 -0.0009656486199672021 0.0 0.0
0.0020426358464616587 -0.000976833480714534 0.0 -0.0011453183210915763 0.0 0.0
0.0033140887466596575 -0.0019445374737376842 0.0 -0.0015385788861503602 0.0 0.0
0.0057330311103539686 -0.004028071563602742 0.0 -0.002453691359523502 0.0 0.0
0.009455737598223352 -0.007445186836820827 0.0 -0.0038956196658833653 0.0 0.0
0.014447456452185127 -0.012161900783102642 0.0 -0.005708184613920891 0.0 0.0
0.020611453156544335 -0.018063014187580606 0.0 -0.007750491367405743 0.0 0.0
0.027830041078780357 -0.025025829853646098 0.0 -0.009832067275478779 0.0 0.0
0.036056994274249694 -0.03300020188746444 0.0 -0.011856861071678548 0.0 0.0
0.04532733190389168 -0.04201823513487657 0.0 -0.013899466624173906 0.0 0.0
0.05568158549868338 -0.05211435571336542 0.0 -0.016012931309867917 0.0 0.0
0.06704625705324556 -0.06321765323085371 0.0 -0.01812587059163906 0.0 0.0
0.07916022186726272 -0.0750662476066335 0.0 -0.019929719145339475 0.0 0.0
0.09150153615447483 -0.08713045140812081 0.0 -0.020825749819511685 0.0 0.0
0.10319425902988713 -0.09853235634533908 0.0 -0.02007127394903163 0.0 0.0
0.11296651825777546 -0.10802627230288975 0.0 -0.01676433492996182 0.0 0.0
0.11936034861715716 -0.11421882043589893 0.0 -0.009875089505503643 0.0 0.0
0.1193603486171485 -0.11421882043588916 0.0 0.009875089505543388 0.0 0.0
0.11296651825775117 -0.10802627230286754 0.0 0.016764334930016056 0.0 0.0
0.10319425902985047 -0.09853235634530932 0.0 0.020071273949071267 0.0 0.0
0.09150153615442971 -0.08713045140807818 0.0 0.02082574981952845 0.0 0.0
0.07916022186721283 -0.07506624760658243 0.0 0.019929719145332148 0.0 0.0
0.06704625705319253 -0.06321765323079775 0.0 0.018125870591630955 0.0 0.0
0.05568158549862898 -0.05211435571331258 0.0 0.016012931309862588 0.0 0.0
0.04532733190383942 -0.04201823513482639 0.0 0.013899466624166412 0.0 0.0
0.03605699427419948 -0.033000201887416036 0.0 0.01185686107166406 0.0 0.0
0.02783004107873549 -0.02502582985360524 0.0 0.009832067275465817 0.0 0.0
0.020611453156505588 -0.01806301418754752 0.0 0.007750491367387202 0.0 0.0
0.014447456452154561 -0.012161900783075774 0.0 0.005708184613911815 0.0 0.0
0.009455737598200786 -0.007445186836798845 0.0 0.0038956196658748166 0.0 0.0
0.005733031110340042 -0.004028071563588087 0.0 0.0024536913595178955 0.0 0.0
0.003314088746653371 -0.0019445374737299126 0.0 0.001538578886147668 0.0 0.0
0.0020426358464594174 -0.000976833480713979 0.0 0.0011453183210894946 0.0 0.0
0.001460336276074753 -0.0006015235443478373 0.0 0.0009656486199655645 0.0 0.0
0.0009548035997243021 -0.00029814670289074474 0.0 0.0008239084671322061 0.0 0.0
0.00046554657010372535 -0.00033669435983205154 0.0 0.001141837520938438 0.0 0.0
0.004349205997959238 -0.005939798142509039 0.0 0.006330246647863996 0.0 0.0
0.003262849571775764 -0.004769863949402764 0.0 -0.00518378410575096 0.0 0.0
0.00031077177316804483 -0.00027801320113018946 0.0 -0.0015994737735211262 0.0 0.0
0.0007215703717508432 -0.0002169117568873169 0.0 -0.001221734849760625 0.0 0.0
0.0012044008482130636 -0.0004766599405323646 0.0 -0.0012569106203094982 0.0 0.0
0.001696659777783202 -0.0007738908165155767 0.0 -0.001417515846648676 0.0 0.0
0.0026633099177054975 -0.001452940145317383 0.0 -0.0017826755059991983 0.0 0.0
0.00459264643133428 -0.003032812656320827 0.0 -0.0026767954330770283 0.0 0.0
0.007720800438587805 -0.005831670266686961 0.0 -0.004242797461078307 0.0 0.0
0.01199545400146268 -0.009828411663292735 0.0 -0.006300343910072004 0.0 0.0
0.017268543312011372 -0.014851448652418497 0.0 -0.008574713393307287 0.0 0.0
0.02341410967134394 -0.020761014098419128 0.0 -0.01088842107940785 0.0 0.0
0.03037661268173769 -0.027496024893088666 0.0 -0.013135731411797302 0.0 0.0
0.03819828919632817 -0.03509254781260074 0.0 -0.01539551332642447 0.0 0.0
0.04694769120890252 -0.043615187947497525 0.0 -0.01774849910014825 0.0 0.0
0.05660446258601172 -0.05304307056500468 0.0 -0.020082875062574945 0.0 0.0
0.06699186468290702 -0.06319872303956942 0.0 -0.022086477198292986 0.0 0.0
0.07772460506432236 -0.07369281709595077 0.0 -0.02324075802879766 0.0 0.0
0.08812946669397638 -0.0838444332027084 0.0 -0.022661554358698766 0.0 0.0
0.097162422637692 -0.09262754455947464 0.0 -0.019068422043661715 0.0 0.0
0.10352054803854757 -0.09879163863875018 0.0 -0.0111525823023787 0.0 0.0
0.10352054803853947 -0.09879163863874263 0.0 0.011152582302420333 0.0 0.0
0.09716242263767055 -0.09262754455945155 0.0 0.01906842204371828 0.0 0.0
0.08812946669394472 -0.08384443320267287 0.0 0.022661554358740843 0.0 0.0
0.07772460506428391 -0.07369281709591258 0.0 0.023240758028818087 0.0 0.0
0.06699186468286442 -0.06319872303952812 0.0 0.022086477198287602 0.0 0.0
0.05660446258596613 -0.05304307056496471 0.0 0.020082875062566674 0.0 0.0
0.0469476912088565 -0.04361518794745445 0.0 0.017748499100140203 0.0 0.0
0.038198289196283985 -0.03509254781255722 0.0 0.015395513326415533 0.0 0.0
0.030376612681695808 -0.027496024893046922 0.0 0.01313573141178248 0.0 0.0
0.023414109671306138 -0.0207610140983836 0.0 0.010888421079390587 0.0 0.0
0.017268543311978107 -0.014851448652386301 0.0 0.008574713393286304 0.0 0.0
0.01199545400143684 -0.009828411663268533 0.0 0.006300343910059847 0.0 0.0
0.007720800438569098 -0.005831670266669198 0.0 0.004242797461066594 0.0 0.0
0.004592646431323122 -0.0030328126563090585 0.0 0.0026767954330704224 0.0 0.0
0.002663309917700668 -0.001452940145312498 0.0 0.0017826755059954236 0.0 0.0
0.0016966597777818282 -0.0007738908165145775 0.0 0.0014175158466467885 0.0 0.0
0.0012044008482126334 -0.0004766599405322536 0.0 0.0012569106203074443 0.0 0.0
0.0007215703717509958 -0.00021691175688798303 0.0 0.0012217348497577385 0.0 0.0
0.0003107717731680171 -0.0002780132011292735 0.0 0.0015994737735186004 0.0 0.0
0.0032628495717669515 -0.004769863949392819 0.0 0.00518378410573786 0.0 0.0
0.002414594974139553 -0.0037942677862809193 0.0 -0.004184916139827327 0.0 0.0
0.0002156683426214473 -0.00024251672510511302 0.0 -0.0019394286565563301 0.0 0.0
0.0005250768385582361 -0.0001549971274092954 0.0 -0.0015744124839333629 0.0 0.0
0.0009493055546988538 -0.00036056478003620995 0.0 -0.0015464539455128101 0.0 0.0
0.0013770132299552873 -0.0006046846643854575 0.0 -0.001683187078409476 0.0 0.0
0.002084579852617785 -0.0010627801149505345 0.0 -0.002009694084160296 0.0 0.0
0.0035476141418697704 -0.002173211144510523 0.0 -0.002820895374347765 0.0 0.0
0.006035379582856229 -0.004310258379562226 0.0 -0.004317197373264636 0.0 0.0
0.009561079653236187 -0.0075393360881601534 0.0 -0.006424185409081906 0.0 0.0
0.013938434356445609 -0.01167388255523294 0.0 -0.008817390333761943 0.0 0.0
0.019007813959193764 -0.016526705109332518 0.0 -0.011224864583363081 0.0 0.0
0.024711515030074876 -0.022025781163090397 0.0 -0.013561510297667334 0.0 0.0
0.031091214967646136 -0.02820735329333468 0.0 -0.015905871093536805 0.0 0.0
0.038234377636747405 -0.03515487132386763 0.0 -0.01832244098643715 0.0 0.0
0.04617443831750978 -0.04289772380983248 0.0 -0.020735923699455316 0.0 0.0
0.05480654926398859 -0.05133234401495468 0.0 -0.022853728372689175 0.0 0.0
0.06387013223111038 -0.06019829023648926 0.0 -0.024165509632580462 0.0 0.0
0.07293840601911053 -0.0690585160453332 0.0 -0.02385027962087838 0.0 0.0
0.08126609430058468 -0.07716575137495552 0.0 -0.020443842055284822 0.0 0.0
0.0876981559135065 -0.08340172330814033 0.0 -0.01222473001109825 0.0 0.0
0.08769815591349922 -0.08340172330813012 0.0 0.012224730011142104 0.0 0.0
0.08126609430056594 -0.0771657513749342 0.0 0.020443842055341666 0.0 0.0
0.07293840601908455 -0.06905851604531232 0.0 0.02385027962091968 0.0 0.0
0.06387013223107815 -0.06019829023645995 0.0 0.024165509632598448 0.0 0.0
0.05480654926395309 -0.051332344014922704 0.0 0.022853728372680737 0.0 0.0
0.04617443831747134 -0.04289772380980139 0.0 0.020735923699446768 0.0 0.0
0.03823437763671006 -0.03515487132383521 0.0 0.01832244098642799 0.0 0.0
0.031091214967610775 -0.028207353293303594 0.0 0.0159058710935287 0.0 0.0
0.024711515030041015 -0.022025781163056646 0.0 0.0135615102976544 0.0 0.0
0.019007813959162678 -0.016526705109302764 0.0 0.011224864583345262 0.0 0.0
0.013938434356418145 -0.011673882555208959 0.0 0.008817390333740516 0.0 0.0
0.00956107965321501 -0.007539336088139947 0.0 0.006424185409067751 0.0 0.0
0.00603537958284156 -0.0043102583795489036 0.0 0.0043171973732537006 0.0 0.0
0.0035476141418612217 -0.0021732111445025293 0.0 0.0028208953743427134 0.0 0.0
0.0020845798526143156 -0.001062780114948092 0.0 0.0020096940841571875 0.0 0.0
0.0013770132299543159 -0.0006046846643856796 0.0 0.0016831870784064507 0.0 0.0
0.0009493055546985762 -0.00036056478003576586 0.0 0.0015464539455098958 0.0 0.0
0.0005250768385583471 -0.00015499712741001703 0.0 0.0015744124839304763 0.0 0.0
0.00021566834262121137 -0.00024251672510444688 0.0 0.00193942865655497 0.0 0.0
0.0024145949741328776 -0.0037942677862732362 0.0 0.004184916139817668 0.0 0.0
0.0017475176071777426 -0.0029739028677441826 0.0 -0.00336283777968141 0.0 0.0
0.000147802366976868 -0.00021857606355679682 0.0 -0.0021768687511792006 0.0 0.0
0.00035263328004432604 -0.00010260699631003956 0.0 -0.0018616225550455168 0.0 0.0
0.0006976511094639593 -0.00024790244782857407 0.0 -0.0018112647496377476 0.0 0.0
0.0010659916025740207 -0.0004548773380705917 0.0 -0.0019432438338255198 0.0 0.0
0.001573170260261464 -0.0007537132503507848 0.0 -0.002210392639532821 0.0 0.0
0.002602955325659795 -0.0014590813820136717 0.0 -0.0028809727034902477 0.0 0.0
0.004454083909978548 -0.0029439117343901255 0.0 -0.004194664118999658 0.0 0.0
0.007182542906413694 -0.005354484123218484 0.0 -0.006123597111465373 0.0 0.0
0.010641724551422704 -0.008562542180986732 0.0 -0.008438461601012415 0.0 0.0
0.014632119033217775 -0.012352038037282576 0.0 -0.010824857133508115 0.0 0.0
0.019084237303801904 -0.0166199416495334 0.0 -0.013118887052363304 0.0 0.0
0.024032406744789042 -0.021396169920620434 0.0 -0.015397630043573862 0.0 0.0
0.02957546740661339 -0.026774128025820243 0.0 -0.017741568336989144 0.0 0.0
0.03578568452083414 -0.03282198397417213 0.0 -0.020083071442109635 0.0 0.0
0.04263754222649126 -0.039505799323374724 0.0 -0.02215335194080803 0.0 0.0
0.049971785031637045 -0.04668280884056575 0.0 -0.023544474880363875 0.0 0.0
0.05760037034852605 -0.054158326008062474 0.0 -0.0235882377073226 0.0 0.0
0.06516044541277038 -0.06153644937668723 0.0 -0.020817748652019685 0.0 0.0
0.07173087817610106 -0.06790116392149903 0.0 -0.01307753426544822 0.0 0.0
0.07173087817609514 -0.0679011639214937 0.0 0.013077534265486523 0.0 0.0
0.06516044541275487 -0.06153644937666991 0.0 0.020817748652075085 0.0 0.0
0.05760037034850515 -0.054158326008042046 0.0 0.023588237707363624 0.0 0.0
0.04997178503161109 -0.046682808840545764 0.0 0.02354447488038014 0.0 0.0
0.04263754222646271 -0.03950579932334586 0.0 0.022153351940798816 0.0 0.0
0.03578568452080358 -0.032821983974135716 0.0 0.020083071442098643 0.0 0.0
0.02957546740658462 -0.026774128025788713 0.0 0.017741568336980373 0.0 0.0
0.024032406744762896 -0.021396169920592456 0.0 0.015397630043565869 0.0 0.0
0.01908423730377587 -0.01661994164950764 0.0 0.013118887052350203 0.0 0.0
0.014632119033193586 -0.01235203803725815 0.0 0.010824857133488575 0.0 0.0
0.01064172455140136 -0.008562542180968302 0.0 0.008438461600991265 0.0 0.0
0.007182542906397721 -0.005354484123204051 0.0 0.006123597111452217 0.0 0.0
0.004454083909967849 -0.0029439117343805776 0.0 0.004194664118989999 0.0 0.0
0.0026029553256537996 -0.0014590813820094528 0.0 0.0028809727034846966 0.0 0.0
0.0015731702602593545 -0.0007537132503492305 0.0 0.0022103926395308227 0.0 0.0
0.0010659916025730909 -0.00045487733807014763 0.0 0.0019432438338233549 0.0 0.0
0.0006976511094639315 -0.00024790244782801896 0.0 0.0018112647496349998 0.0 0.0
0.00035263328004400685 -0.0001026069963082632 0.0 0.0018616225550420196 0.0 0.0
0.0001478023669766182 -0.00021857606355596415 0.0 0.002176868751176647 0.0 0.0
0.0017475176071729548 -0.0029739028677379636 0.0 0.0033628377796743603 0.0 0.0
0.0012338303359277492 -0.0023009601688905312 0.0 -0.0027233591715249694 0.0 0.0
8.448508224943863e-05 -0.00019830063210052318 0.0 -0.002315412308971032 0.0 0.0
0.00019383426351449184 -5.181204182613808e-05 0.0 -0.002083106908479848 0.0 0.0
0.0004521349277554071 -0.00013783945923295793 0.0 -0.002032566518163914 0.0 0.0
0.0007490419225631567 -0.000308175739184291 0.0 -0.0021734644302550676 0.0 0.0
0.0011118717143657891 -0.0005109676498566973 0.0 -0.002425772148153149 0.0 0.0
0.0017652014182250875 -0.0009018294731193421 0.0 -0.002919744412512304 0.0 0.0
0.003003895358217226 -0.0017816044958551824 0.0 -0.003921776958344891 0.0 0.0
0.004918986042565368 -0.0033582788123898144 0.0 -0.005496741771381042 0.0 0.0
0.0074156831996020495 -0.00558686515878648 0.0 -0.007483116589330874 0.0 0.0
0.010311946393436147 -0.008282713429124566 0.0 -0.009637168045372901 0.0 0.0
0.013515190320944698 -0.01131947681597989 0.0 -0.011753457509230902 0.0 0.0
0.017046782172257455 -0.014701631366573764 0.0 -0.013848639001616592 0.0 0.0
0.020998780646164242 -0.01851819744043759 0.0 -0.01596805641593757 0.0 0.0
0.025472688698680523 -0.02286338186069914 0.0 -0.018091074472699586 0.0 0.0
0.03051608712620786 -0.027774258136088026 0.0 -0.020006522972414287 0.0 0.0
0.0360751512700406 -0.03320145904150884 0.0 -0.02131386900412302 0.0 0.0
0.04211793730003348 -0.0391482017712983 0.0 -0.021654457658440374 0.0 0.0
0.04872094630651577 -0.04563871721243906 0.0 -0.01997492623093916 0.0 0.0
0.055424885124265355 -0.052127572626550656 0.0 -0.013657225297764808 0.0 0.0
0.055424885124260886 -0.05212757262654799 0.0 0.013657225297799447 0.0 0.0
0.04872094630650517 -0.04563871721243018 0.0 0.019974926230992285 0.0 0.0
0.042117937300017255 -0.0391482017712832 0.0 0.021654457658478066 0.0 0.0
0.036075151270020867 -0.03320145904149285 0.0 0.021313869004137453 0.0 0.0
0.030516087126186864 -0.027774258136069374 0.0 0.020006522972405905 0.0 0.0
0.025472688698658708 -0.022863381860680487 0.0 0.018091074472690316 0.0 0.0
0.020998780646144105 -0.018518197440422046 0.0 0.015968056415933685 0.0 0.0
0.017046782172239622 -0.014701631366559553 0.0 0.01384863900161093 0.0 0.0
0.013515190320926906 -0.011319476815967011 0.0 0.011753457509219523 0.0 0.0
0.010311946393418758 -0.008282713429111688 0.0 0.00963716804535708 0.0 0.0
0.007415683199587242 -0.005586865158775156 0.0 0.007483116589313332 0.0 0.0
0.004918986042554613 -0.0033582788123804885 0.0 0.005496741771370606 0.0 0.0
0.0030038953582098016 -0.001781604495847633 0.0 0.003921776958339396 0.0 0.0
0.0017652014182215348 -0.0009018294731155674 0.0 0.0029197444125086958 0.0 0.0
0.0011118717143646373 -0.0005109676498578075 0.0 0.0024257721481512617 0.0 0.0
0.0007490419225623934 -0.00030817573918517915 0.0 0.002173464430253208 0.0 0.0
0.00045213492775550423 -0.00013783945923351304 0.0 0.002032566518163137 0.0 0.0
0.0001938342635142143 -5.1812041827026256e-05 0.0 0.0020831069084776277 0.0 0.0
8.448508224898066e-05 -0.0001983006320999403 0.0 0.002315412308969783 0.0 0.0
0.001233830335924696 -0.0023009601688861268 0.0 0.002723359171519474 0.0 0.0
0.0008598132854377993 -0.001782010753619806 0.0 -0.0022722280129876538 0.0 0.0
1.2897339033576816e-05 -0.00018002822885676562 0.0 -0.0023896372177823477 0.0 0.0
4.252967597025148e-05 3.0455372794779834e-06 0.0 -0.002241169954426553 0.0 0.0
0.00021410222200342333 -3.213467768448108e-05 0.0 -0.0022033633432912147 0.0 0.0
0.00042411578059251 -0.00015531364452070484 0.0 -0.002344425536371819 0.0 0.0
0.0006636627883347679 -0.00029635498779612135 0.0 -0.0026276692105598465 0.0 0.0
0.0010293023773318144 -0.0004903061809458098 0.0 -0.003010819302402379 0.0 0.0
0.0017057180714718095 -0.0008810563200352117 0.0 -0.003625220109572058 0.0 0.0
0.0028196261515281984 -0.001658041088878237 0.0 -0.004649590046290564 0.0 0.0
0.004320222074866195 -0.0028739281356044977 0.0 -0.006060128842330537 0.0 0.0
0.0060889307779808804 -0.004428220449279152 0.0 -0.0077243839914425405 0.0 0.0
0.008026649721580056 -0.006208387845036523 0.0 -0.009465479924531561 0.0 0.0
0.010150870032678866 -0.008198182513554642 0.0 -0.011257811569220955 0.0 0.0
0.012528824030235183 -0.010464619001191 0.0 -0.013058314308423857 0.0 0.0
0.015259689459438189 -0.01310026120900476 0.0 -0.014854660812170128 0.0 0.0
0.018459761063189764 -0.0162071322384314 0.0 -0.01654233150499096 0.0 0.0
0.02221083835583222 -0.019850618215690563 0.0 -0.01778137682507469 0.0 0.0
0.0265753446169055 -0.02412716332720377 0.0 -0.018191435490207186 0.0 0.0
0.031862857261249156 -0.029417092968201608 0.0 -0.017581888078638697 0.0 0.0
0.03850756607512962 -0.0358729031775229 0.0 -0.01375268201078439 0.0 0.0
0.03850756607512662 -0.03587290317752423 0.0 0.013752682010812811 0.0 0.0
0.03186285726124358 -0.02941709296819095 0.0 0.01758188807868477 0.0 0.0
0.026575344616894314 -0.024127163327190893 0.0 0.018191435490237495 0.0 0.0
0.022210838355818746 -0.019850618215679905 0.0 0.017781376825082185 0.0 0.0
0.018459761063177538 -0.01620713223842074 0.0 0.016542331504979746 0.0 0.0
0.01525968945942574 -0.013100261208996322 0.0 0.014854660812158249 0.0 0.0
0.012528824030224261 -0.010464619001187003 0.0 0.013058314308418306 0.0 0.0
0.010150870032669207 -0.008198182513546204 0.0 0.01125781156921879 0.0 0.0
0.008026649721570078 -0.006208387845022756 0.0 0.009465479924522069 0.0 0.0
0.00608893077797068 -0.004428220449268938 0.0 0.007724383991429051 0.0 0.0
0.004320222074858077 -0.002873928135596726 0.0 0.0060601288423173805 0.0 0.0
0.002819626151522564 -0.0016580410888749064 0.0 0.0046495900462844575 0.0 0.0
0.0017057180714677989 -0.0008810563200356558 0.0 0.0036252201095688386 0.0 0.0
0.0010293023773300658 -0.0004903061809464759 0.0 0.003010819302398604 0.0 0.0
0.000663662788334185 -0.00029635498779612135 0.0 0.0026276692105560717 0.0 0.0
0.0004241157805921214 -0.0001553136445204828 0.0 0.0023444255363690436 0.0 0.0
0.00021410222200340945 -3.213467768425904e-05 0.0 0.0022033633432887723 0.0 0.0
4.252967597012658e-05 3.045537281143318e-06 0.0 0.0022411699544229724 0.0 0.0
1.2897339033118849e-05 -0.0001800282288562105 0.0 0.002389637217780377 0.0 0.0
0.0008598132854359397 -0.0017820107536172525 0.0 0.002272228012984462 0.0 0.0
0.0005973899843614017 -0.0013939098028381003 0.0 -0.0019687672999118555 0.0 0.0
-6.244566985599831e-05 -0.00016459605292740154 0.0 -0.002430341926483004 0.0 0.0
-0.00010394623634304989 6.194651821944674e-05 0.0 -0.0023420573743113127 0.0 0.0
-1.674480892352448e-05 6.977140843023033e-05 0.0 -0.002317080509927294 0.0 0.0
9.737642750481945e-05 -5.128422575495506e-07 0.0 -0.0024474715178263717 0.0 0.0
0.00020667157323200902 -7.926354598986052e-05 0.0 -0.0027503399950015717 0.0 0.0
0.0003382863317430984 -0.00015642183264596987 0.0 -0.003164804974724156 0.0 0.0
0.0005482129020342175 -0.00026245690014192746 0.0 -0.003587568497858573 0.0 0.0
0.0009084884568039131 -0.0004446989636397447 0.0 -0.004070398515986506 0.0 0.0
0.0014067869864932692 -0.0007381426326125151 0.0 -0.004762567491435443 0.0 0.0
0.0020038227644898765 -0.001137694947378698 0.0 -0.005762642581874644 0.0 0.0
0.0026475114115912246 -0.0016184692808054457 0.0 -0.006982406117503448 0.0 0.0
0.0033482229981902922 -0.00218829141307042 0.0 -0.008387627771919481 0.0 0.0
0.0041420590886089015 -0.0028864068595138015 0.0 -0.009959505447696637 0.0 0.0
0.0051163668472786195 -0.0037869935087924134 0.0 -0.01168013816728497 0.0 0.0
0.006440305499794047 -0.0050389026320587504 0.0 -0.013425178284895756 0.0 0.0
0.008355624724182997 -0.006858673910191904 0.0 -0.01483221923330258 0.0 0.0
0.011078623709968788 -0.009444549301427685 0.0 -0.015307290658686856 0.0 0.0
0.01482161982524463 -0.013153699295110677 0.0 -0.014745952776495708 0.0 0.0
0.020667951522910788 -0.019060217580199268 0.0 -0.01341280768173958 0.0 0.0
0.020667951522909872 -0.01906021758019749 0.0 0.013412807681761452 0.0 0.0
0.014821619825242799 -0.013153699295105792 0.0 0.014745952776532345 0.0 0.0
0.01107862370996332 -0.009444549301421024 0.0 0.015307290658705952 0.0 0.0
0.00835562472417739 -0.006858673910183466 0.0 0.014832219233303134 0.0 0.0
0.0064403054997913545 -0.0050389026320543095 0.0 0.013425178284885098 0.0 0.0
0.005116366847275261 -0.0037869935087919693 0.0 0.011680138167275866 0.0 0.0
0.004142059088606959 -0.002886406859511581 0.0 0.009959505447691419 0.0 0.0
0.0033482229981894596 -0.002188291413065979 0.0 0.008387627771917483 0.0 0.0
0.0026475114115890597 -0.0016184692808045575 0.0 0.006982406117492346 0.0 0.0
0.002003822764487906 -0.001137694947379142 0.0 0.005762642581864208 0.0 0.0
0.0014067869864917149 -0.0007381426326149576 0.0 0.004762567491426062 0.0 0.0
0.0009084884568028584 -0.00044469896364152106 0.0 0.004070398515984175 0.0 0.0
0.0005482129020333848 -0.0002624569001430377 0.0 0.0035875684978567968 0.0 0.0
0.0003382863317426821 -0.00015642183264552578 0.0 0.0031648049747209916 0.0 0.0
0.00020667157323212004 -7.92635459887503e-05 0.0 0.00275033999499813 0.0 0.0
9.737642750448638e-05 -5.128422577715952e-07 0.0 0.0024474715178238182 0.0 0.0
-1.6744808923163657e-05 6.977140842934215e-05 0.0 0.002317080509925379 0.0 0.0
-0.00010394623634318867 6.194651821933572e-05 0.0 0.002342057374309925 0.0 0.0
-6.244566985597055e-05 -0.00016459605292715174 0.0 0.0024303419264817827 0.0 0.0
0.0005973899843601804 -0.001393909802836461 0.0 0.0019687672999093575 0.0 0.0
0.0004148295903597943 -0.0011109465417327158 0.0 -0.0017709259564749336 0.0 0.0
-0.00013289897515436633 -0.00014248264027999502 0.0 -0.002430430749477047 0.0 0.0
-0.0002449997563016282 0.00011969316684001807 0.0 -0.0023922938740875976 0.0 0.0
-0.00024068534278673392 0.00016845699005108017 0.0 -0.0023708682652483493 0.0 0.0
-0.00022593631564962746 0.00015217526013278082 0.0 -0.0024822171170704177 0.0 0.0
-0.00025465670279181674 0.00014092224389194996 0.0 -0.0027649251506945416 0.0 0.0
-0.0003522808841218139 0.00017216472669301375 0.0 -0.0031696129910127047 0.0 0.0
-0.0005509099555136288 0.00026518527444796547 0.0 -0.0035908980187065453 0.0 0.0
-0.000907406153646817 0.0004444802307956852 0.0 -0.004071651137085908 0.0 0.0
-0.0014050436186867354 0.0007372238105478601 0.0 -0.004760879113303085 0.0 0.0
-0.002005822543541924 0.001142143006456653 0.0 -0.005760397793357908 0.0 0.0
-0.002670529762807766 0.001642053815572364 0.0 -0.006985053953247 0.0 0.0
-0.0034089689676818913 0.0022415607267567417 0.0 -0.008393408882205189 0.0 0.0
-0.004216035084325553 0.0029320768224931903 0.0 -0.009965730986814081 0.0 0.0
-0.00500910142576505 0.003624986750342174 0.0 -0.011700592918122088 0.0 0.0
-0.0055852996701146185 0.0041222826163367365 0.0 -0.01355920077959949 0.0 0.0
-0.005588903997240768 0.004099481326421461 0.0 -0.015510457889136076 0.0 0.0
-0.004641457881159411 0.003300194066156781 0.0 -0.017576304978531243 0.0 0.0
-0.0024462711470200904 0.0016140817243761596 0.0 -0.01939841882434712 0.0 0.0
0.002904343215277966 -0.0033712867316841866 0.0 -0.017755165863968636 0.0 0.0
0.0029043432152775217 -0.003371286731686851 0.0 0.017755165863982625 0.0 0.0
-0.0024462711470200904 0.0016140817243739392 0.0 0.019398418824363217 0.0 0.0
-0.00464145788115744 0.0033001940661590012 0.0 0.01757630497853413 0.0 0.0
-0.0055889039972363 0.004099481326421017 0.0 0.015510457889129414 0.0 0.0
-0.005585299670107138 0.0041222826163362924 0.0 0.013559200779586944 0.0 0.0
-0.005009101425759416 0.003624986750336401 0.0 0.011700592918112651 0.0 0.0
-0.004216035084319253 0.0029320768224847527 0.0 0.009965730986807642 0.0 0.0
-0.003408968967674092 0.002241560726747416 0.0 0.00839340888220047 0.0 0.0
-0.0026705297628008134 0.0016420538155643705 0.0 0.006985053953235565 0.0 0.0
-0.0020058225435355542 0.001142143006452212 0.0 0.005760397793346028 0.0 0.0
-0.001405043618681337 0.000737223810542087 0.0 0.004760879113292871 0.0 0.0
-0.000907406153643639 0.0004444802307936868 0.0 0.00407165113708341 0.0 0.0
-0.0005509099555118663 0.0002651852744470773 0.0 0.003590898018705657 0.0 0.0
-0.00035228088412066205 0.00017216472669234761 0.0 0.0031696129910098736 0.0 0.0
-0.0002546567027912755 0.00014092224389039565 0.0 0.0027649251506911554 0.0 0.0
-0.00022593631564957195 0.00015217526013300287 0.0 0.0024822171170687246 0.0 0.0
-0.0002406853427861788 0.0001684569900517463 0.0 0.00237086826524735 0.0 0.0
-0.0002449997563016837 0.00011969316684051767 0.0 0.0023922938740862654 0.0 0.0
-0.00013289897515414428 -0.00014248264027991175 0.0 0.0024304307494755484 0.0 0.0
0.0004148295903591559 -0.0011109465417314893 0.0 0.0017709259564740454 0.0 0.0
0.0002881178953918484 -0.0008843494556871612 0.0 -0.0015999141604912115 0.0 0.0
-0.00019633694230672405 -0.00011215247242823967 0.0 -0.002380318300178319 0.0 0.0
-0.0003787898508485765 0.000174229002826376 0.0 -0.0023899237508004934 0.0 0.0
-0.00045680596839020593 0.00026270705330266875 0.0 -0.0023604697630900395 0.0 0.0
-0.0005428241641184106 0.00030008155942562453 0.0 -0.0024428512957266058 0.0 0.0
-0.0007086607374228726 0.0003562809985040438 0.0 -0.002676649515252094 0.0 0.0
-0.001042830598527833 0.0005061411649283087 0.0 -0.003030760201276461 0.0 0.0
-0.0017076358979260242 0.0008838385134239957 0.0 -0.003634224247541895 0.0 0.0
-0.0028173924407158824 0.0016567575450303629 0.0 -0.004650584246022549 0.0 0.0
-0.004318238453830614 0.0028731472119689627 0.0 -0.006058034344212371 0.0 0.0
-0.006092667134074081 0.004434879087743759 0.0 -0.007723009789257107 0.0 0.0
-0.008049345008900116 0.006235101590965186 0.0 -0.00945720747811396 0.0 0.0
-0.0102074623191869 0.008254593139139565 0.0 -0.011225836862820526 0.0 0.0
-0.01259483063461661 0.010510305889951166 0.0 -0.013018133125180631 0.0 0.0
-0.015150479927149796 0.01293066458188763 0.0 -0.014921064132302986 0.0 0.0
-0.017644670044978522 0.015287749184031973 0.0 -0.017030410290226783 0.0 0.0
-0.0196567457843331 0.017180501214326682 0.0 -0.01941825727363522 0.0 0.0
-0.020644483789602402 0.018091112394980513 0.0 -0.021991169504303576 0.0 0.0
-0.019649982718353665 0.01682218032509919 0.0 -0.023101197018299935 0.0 0.0
-0.01402719191368429 0.01098131506712452 0.0 -0.020728689301498182 0.0 0.0
-0.014027191913684844 0.010981315067125408 0.0 0.02072868930152516 0.0 0.0
-0.019649982718351486 0.016822180325097413 0.0 0.02310119701833685 0.0 0.0
-0.02064448378959302 0.018091112394968523 0.0 0.021991169504324504 0.0 0.0
-0.019656745784318627 0.017180501214309363 0.0 0.019418257273635442 0.0 0.0
-0.017644670044960967 0.015287749184013322 0.0 0.017030410290214515 0.0 0.0
-0.015150479927135363 0.012930664581872975 0.0 0.014921064132290662 0.0 0.0
-0.012594830634601803 0.010510305889937843 0.0 0.013018133125169973 0.0 0.0
-0.010207462319170635 0.00825459313912047 0.0 0.011225836862812422 0.0 0.0
-0.008049345008884518 0.00623510159095142 0.0 0.009457207478101581 0.0 0.0
-0.006092667134059537 0.004434879087735322 0.0 0.007723009789240065 0.0 0.0
-0.004318238453818596 0.0028731472119567503 0.0 0.00605803434419494 0.0 0.0
-0.0028173924407076945 0.001656757545021259 0.0 0.004650584246014555 0.0 0.0
-0.0017076358979218192 0.0008838385134202209 0.0 0.0036342242475377318 0.0 0.0
-0.0010428305985250574 0.0005061411649276426 0.0 0.003030760201272187 0.0 0.0
-0.000708660737421804 0.0003562809985020454 0.0 0.00267664951524893 0.0 0.0
-0.0005428241641177861 0.0003000815594235151 0.0 0.002442851295724996 0.0 0.0
-0.0004568059683897896 0.0002627070533010034 0.0 0.0023604697630892624 0.0 0.0
-0.00037878985084838224 0.00017422900282626497 0.0 0.0023899237507996607 0.0 0.0
-0.00019633694230648813 -0.0001121524724281564 0.0 0.0023803183001773753 0.0 0.0
0.0002881178953915847 -0.0008843494556862348 0.0 0.0015999141604902123 0.0 0.0
0.0001923758494069283 -0.0006832406278478309 0.0 -0.0014173396676210315 0.0 0.0
-0.00025386202270211156 -7.522142478544325e-05 0.0 -0.00227702591024187 0.0 0.0
-0.0005042932124126875 0.00022538915944758653 0.0 -0.0023307108956058253 0.0 0.0
-0.0006640547314092637 0.000351504979273054 0.0 -0.002287958964253517 0.0 0.0
-0.0008495230772668505 0.0004388934157990576 0.0 -0.002327251570984068 0.0 0.0
-0.0011522646849359552 0.0005681424653245504 0.0 -0.0025022817701789712 0.0 0.0
-0.0017771189347945415 0.0009188211998376605 0.0 -0.0029528338344612104 0.0 0.0
-0.0030028325390648314 0.0017826851170463787 0.0 -0.003932786656560716 0.0 0.0
-0.004915487946000302 0.0033554135965199183 0.0 -0.005493633346378757 0.0 0.0
-0.007414974532931162 0.005586941073302931 0.0 -0.007480892044766485 0.0 0.0
-0.010317203700325545 0.008290134978408137 0.0 -0.009635283114504789 0.0 0.0
-0.013533030929535339 0.011341108217017393 0.0 -0.011730312314064961 0.0 0.0
-0.017087352620836577 0.014743642673885393 0.0 -0.013761191450591959 0.0 0.0
-0.02104403486297307 0.01854899965378376 0.0 -0.01582171383101072 0.0 0.0
-0.025373753843384583 0.0227148911211561 0.0 -0.018111759320553533 0.0 0.0
-0.02982911871321209 0.026995793961131387 0.0 -0.020904082545544433 0.0 0.0
-0.03389388283816891 0.03089034791646217 0.0 -0.024385791160963288 0.0 0.0
-0.03667755910256712 0.03345467171089833 0.0 -0.027913809127620315 0.0 0.0
-0.036464507498833454 0.032964107783359786 0.0 -0.029709781062048468 0.0 0.0
-0.030026215329373024 0.02588842221154186 0.0 -0.026126387484907698 0.0 0.0
-0.03002621532937233 0.025888422211542306 0.0 0.026126387484944336 0.0 0.0
-0.036464507498827695 0.032964107783356233 0.0 0.029709781062091545 0.0 0.0
-0.036677559102552285 0.03345467171088323 0.0 0.0279138091276519 0.0 0.0
-0.03389388283814661 0.030890347916443073 0.0 0.024385791160967563 0.0 0.0
-0.0298291187131859 0.026995793961112735 0.0 0.020904082545532665 0.0 0.0
-0.02537375384336106 0.022714891121139225 0.0 0.01811175932054071 0.0 0.0
-0.021044034862949937 0.018548999653764664 0.0 0.015821713830996897 0.0 0.0
-0.017087352620811944 0.014743642673870294 0.0 0.013761191450583021 0.0 0.0
-0.013533030929511969 0.011341108216998741 0.0 0.011730312314048308 0.0 0.0
-0.010317203700302868 0.008290134978385932 0.0 0.009635283114483306 0.0 0.0
-0.007414974532912594 0.005586941073285612 0.0 0.007480892044747334 0.0 0.0
-0.004915487945986577 0.0033554135965105925 0.0 0.005493633346369653 0.0 0.0
-0.0030028325390574068 0.0017826851170421598 0.0 0.003932786656556331 0.0 0.0
-0.0017771189347899619 0.0009188211998365503 0.0 0.002952833834457047 0.0 0.0
-0.0011522646849338597 0.0005681424653245504 0.0 0.0025022817701749744 0.0 0.0
-0.0008495230772659623 0.00043889341579772534 0.0 0.0023272515709817365 0.0 0.0
-0.0006640547314086948 0.0003515049792724989 0.0 0.0022879589642514353 0.0 0.0
-0.0005042932124123822 0.0002253891594469204 0.0 0.0023307108956036604 0.0 0.0
-0.00025386202270187563 -7.522142478588734e-05 0.0 0.00227702591023915 0.0 0.0
0.0001923758494068728 -0.0006832406278473434 0.0 0.0014173396676180616 0.0 0.0
0.00011140481079188747 -0.0005030548101130627 0.0 -0.0012294443073283812 0.0 0.0
-0.00030787303973547897 -3.179040557377277e-05 0.0 -0.0021198023204036798 0.0 0.0
-0.0006218984608443723 0.0002736255209087046 0.0 -0.0022172852146631894 0.0 0.0
-0.0008621534358630167 0.0004333785833201542 0.0 -0.002159251344965113 0.0 0.0
-0.0011408468410452344 0.00056742223868822 0.0 -0.002142486170556096 0.0 0.0
-0.0016083293893515982 0.0008084237014371887 0.0 -0.0023132967039326546 0.0 0.0
-0.0026095434988603616 0.001474092479598621 0.0 -0.002920828591861435 0.0 0.0
-0.004449358695896549 0.002940874354363965 0.0 -0.0041972921879799285 0.0 0.0
-0.007179300322094212 0.005351173478490567 0.0 -0.00611758414233321 0.0 0.0
-0.010643243713427591 0.00856453272728075 0.0 -0.008437255530826748 0.0 0.0
-0.014638004697040491 0.012359231948539495 0.0 -0.010822695942339089 0.0 0.0
-0.019092715849588715 0.01663076057737234 0.0 -0.013083952836186685 0.0 0.0
-0.024042506203520775 0.02140846097754112 0.0 -0.015262485044034602 0.0 0.0
-0.029578885368391455 0.026771687090966 0.0 -0.01748671784696232 0.0 0.0
-0.03570694979010544 0.03271371308806348 0.0 -0.02001749507615813 0.0 0.0
-0.04218330735799941 0.03897907922259236 0.0 -0.02327739407214857 0.0 0.0
-0.04831602792072942 0.04486641081245146 0.0 -0.02745609448821551 0.0 0.0
-0.05272303848694468 0.04898134453808911 0.0 -0.03180054346680261 0.0 0.0
-0.053012683393618504 0.04885985601189269 0.0 -0.03404433861288403 0.0 0.0
-0.044961922613710514 0.0401648582604488 0.0 -0.030782545364161473 0.0 0.0
-0.04496192261370799 0.04016485826044347 0.0 0.03078254536420172 0.0 0.0
-0.053012683393608984 0.04885985601188381 0.0 0.034044338612930825 0.0 0.0
-0.05272303848692429 0.048981344538077565 0.0 0.031800543466837305 0.0 0.0
-0.04831602792070058 0.044866410812427926 0.0 0.027456094488225502 0.0 0.0
-0.04218330735796566 0.03897907922256039 0.0 0.023277394072139912 0.0 0.0
-0.03570694979007295 0.03271371308803106 0.0 0.020017495076146363 0.0 0.0
-0.029578885368360064 0.02677168709093447 0.0 0.01748671784694772 0.0 0.0
-0.024042506203487968 0.021408460977508703 0.0 0.015262485044023166 0.0 0.0
-0.01909271584955695 0.016630760577343917 0.0 0.013083952836171087 0.0 0.0
-0.014638004697010598 0.012359231948516403 0.0 0.010822695942317495 0.0 0.0
-0.01064324371340232 0.008564532727260321 0.0 0.008437255530804766 0.0 0.0
-0.007179300322075366 0.0053511734784763565 0.0 0.0061175841423183885 0.0 0.0
-0.004449358695884864 0.002940874354355527 0.0 0.004197292187970769 0.0 0.0
-0.0026095434988534227 0.0014740924795948462 0.0 0.002920828591856106 0.0 0.0
-0.001608329389348545 0.0008084237014360784 0.0 0.002313296703928547 0.0 0.0
-0.0011408468410441241 0.000567422238688442 0.0 0.002142486170554181 0.0 0.0
-0.0008621534358621424 0.0004333785833204873 0.0 0.0021592513449638917 0.0 0.0
-0.0006218984608442196 0.0002736255209089822 0.0 0.0022172852146618016 0.0 0.0
-0.00030787303973524305 -3.1790405573883795e-05 0.0 0.0021198023204017924 0.0 0.0
0.000111404810792054 -0.0005030548101123897 0.0 0.0012294443073270767 0.0 0.0
4.049184047955068e-05 -0.00034383860496381424 0.0 -0.0010372671342762096 0.0 0.0
-0.00036065662552930977 1.6792997301728896e-05 0.0 -0.0019131053249397123 0.0 0.0
-0.0007326177084712726 0.00031979425255512783 0.0 -0.002047226616403941 0.0 0.0
-0.0010492284919788042 0.0005062597571465766 0.0 -0.001965535115004663 0.0 0.0
-0.0014213178856622988 0.0006929347809971897 0.0 -0.0019071073947451722 0.0 0.0
-0.0021106717960858723 0.0011081801952503856 0.0 -0.0021129657290222537 0.0 0.0
-0.0035473298511853046 0.0021814633826211516 0.0 -0.0028487470309296326 0.0 0.0
-0.006029146235858179 0.004304364004555694 0.0 -0.004313264060654576 0.0 0.0
-0.009559642687034797 0.007537381002601151 0.0 -0.0064167008570353845 0.0 0.0
-0.013942203899875327 0.011677836203826786 0.0 -0.008816329553502256 0.0 0.0
-0.01901311177405965 0.01653234127566705 0.0 -0.011220123888406652 0.0 0.0
-0.024707209048623502 0.022021917017604142 0.0 -0.013518068400275807 0.0 0.0
-0.03106068439507692 0.028179288421972704 0.0 -0.015745896107208668 0.0 0.0
-0.03817795215443645 0.03510332223724966 0.0 -0.018004630936517385 0.0 0.0
-0.046111205258161175 0.04282830231695556 0.0 -0.020566760613192736 0.0 0.0
-0.054610432036557466 0.05107658007325844 0.0 -0.023882837748303798 0.0 0.0
-0.06277147958146034 0.05892518365618438 0.0 -0.028227268158632413 0.0 0.0
-0.06870199128676438 0.06446811046677725 0.0 -0.03297983041801422 0.0 0.0
-0.0692159819086246 0.06449521173384021 0.0 -0.03603365161911354 0.0 0.0
-0.05947208945906865 0.054162380554555245 0.0 -0.03498813977819937 0.0 0.0
-0.0594720894590645 0.05416238055455258 0.0 0.0349881397782405 0.0 0.0
-0.06921598190861071 0.0644952117338291 0.0 0.03603365161916311 0.0 0.0
-0.06870199128673814 0.06446811046675105 0.0 0.032979830418050804 0.0 0.0
-0.06277147958142547 0.0589251836561453 0.0 0.02822726815864357 0.0 0.0
-0.054610432036516984 0.05107658007321492 0.0 0.023882837748296804 0.0 0.0
-0.04611120525812028 0.04282830231691426 0.0 0.020566760613183077 0.0 0.0
-0.03817795215439647 0.03510332223721013 0.0 0.018004630936503063 0.0 0.0
-0.031060684395036092 0.028179288421934068 0.0 0.015745896107197344 0.0 0.0
-0.02470720904858345 0.022021917017562842 0.0 0.013518068400259098 0.0 0.0
-0.019013111774022984 0.01653234127563019 0.0 0.011220123888381506 0.0 0.0
-0.013942203899843408 0.011677836203797476 0.0 0.008816329553479774 0.0 0.0
-0.009559642687011052 0.007537381002580723 0.0 0.006416700857021895 0.0 0.0
-0.00602914623584179 0.004304364004540151 0.0 0.0043132640606433625 0.0 0.0
-0.00354732985117584 0.0021814633826102714 0.0 0.0028487470309234153 0.0 0.0
-0.002110671796081487 0.001108180195247721 0.0 0.0021129657290168136 0.0 0.0
-0.001421317885660578 0.0006929347809969677 0.0 0.0019071073947437012 0.0 0.0
-0.0010492284919779715 0.0005062597571453553 0.0 0.0019655351150039413 0.0 0.0
-0.0007326177084709395 0.00031979425255368454 0.0 0.0020472266164028308 0.0 0.0
-0.00036065662552912936 1.6792997301617874e-05 0.0 0.001913105324938269 0.0 0.0
4.049184047962007e-05 -0.00034383860496322097 0.0 0.0010372671342749051 0.0 0.0
-2.0757680750410623e-05 -0.00020720971088880602 0.0 -0.0008396900130963059 0.0 0.0
-0.00041238359209197495 6.847816133503937e-05 0.0 -0.0016625729114756183 0.0 0.0
-0.0008372376372312307 0.0003636686068517747 0.0 -0.0018214285444794198 0.0 0.0
-0.0012254005096052345 0.0005724676150019592 0.0 -0.0017216702049076271 0.0 0.0
-0.0017077001885529297 0.0008353978556445707 0.0 -0.001651442734091041 0.0 0.0
-0.0026740485443060014 0.001485126118926594 0.0 -0.0018858066893447378 0.0 0.0
-0.00458830507023672 0.0030345569031446917 0.0 -0.002694349041637456 0.0 0.0
-0.007716038340134096 0.005826180062803887 0.0 -0.0042322336451092735 0.0 0.0
-0.011996661734624492 0.009828945488632002 0.0 -0.006293680237188959 0.0 0.0
-0.01727384248589836 0.014856697530182927 0.0 -0.008574011518023283 0.0 0.0
-0.023417010387109943 0.020763391915637808 0.0 -0.010879996594122865 0.0 0.0
-0.03035749063851481 0.02747581863219617 0.0 -0.013086732503639564 0.0 0.0
-0.03812621519019721 0.035022987304314857 0.0 -0.015241543118110323 0.0 0.0
-0.04682519448186659 0.043506041913664806 0.0 -0.01744048995382097 0.0 0.0
-0.05652264095726603 0.0529750565609608 0.0 -0.01980842570714958 0.0 0.0
-0.06697580840003137 0.0631417186287151 0.0 -0.022717421204834554 0.0 0.0
-0.07710535573104241 0.07289306933842221 0.0 -0.026693631040503596 0.0 0.0
-0.08450015433247074 0.07981409339941159 0.0 -0.0316013337479063 0.0 0.0
-0.0852478606308891 0.0800285146434132 0.0 -0.036157244955674406 0.0 0.0
-0.07403411356020606 0.06825972013462778 0.0 -0.039015394777679235 0.0 0.0
-0.07403411356020041 0.06825972013462378 0.0 0.03901539477772037 0.0 0.0
-0.08524786063087061 0.08002851464338967 0.0 0.0361572449557237 0.0 0.0
-0.08450015433243885 0.07981409339937695 0.0 0.03160133374794255 0.0 0.0
-0.07710535573100165 0.07289306933838136 0.0 0.026693631040515087 0.0 0.0
-0.06697580839998422 0.06314171862866846 0.0 0.022717421204830335 0.0 0.0
-0.056522640957216944 0.05297505656091239 0.0 0.01980842570714253 0.0 0.0
-0.04682519448181863 0.04350604191361773 0.0 0.017440489953809035 0.0 0.0
-0.03812621519014853 0.035022987304269115 0.0 0.015241543118098 0.0 0.0
-0.03035749063846689 0.027475818632146876 0.0 0.013086732503623189 0.0 0.0
-0.02341701038706656 0.020763391915592067 0.0 0.010879996594098995 0.0 0.0
-0.017273842485859996 0.014856697530148288 0.0 0.008574011518000552 0.0 0.0
-0.011996661734595827 0.009828945488603136 0.0 0.006293680237174665 0.0 0.0
-0.007716038340113453 0.005826180062785458 0.0 0.004232233645099004 0.0 0.0
-0.004588305070224466 0.0030345569031349218 0.0 0.0026943490416308224 0.0 0.0
-0.0026740485442998466 0.001485126118921709 0.0 0.0018858066893402414 0.0 0.0
-0.0017077001885506815 0.0008353978556436825 0.0 0.0016514427340897642 0.0 0.0
-0.0012254005096043671 0.0005724676150029584 0.0 0.0017216702049061006 0.0 0.0
-0.0008372376372307103 0.0003636686068522743 0.0 0.001821428544478032 0.0 0.0
-0.0004123835920916766 6.84781613354557e-05 0.0 0.0016625729114741472 0.0 0.0
-2.075768075024409e-05 -0.00020720971088866204 0.0 0.0008396900130958895 0.0 0.0
-7.057577943750393e-05 -9.556970925336805e-05 0.0 -0.0006358562837442683 0.0 0.0
-0.0004609692237226293 0.00012039393102375451 0.0 -0.0013730321716046434 0.0 0.0
-0.0009363205341578751 0.000405116361804736 0.0 -0.0015402778713927423 0.0 0.0
-0.0013950802635073478 0.0006349138286988465 0.0 -0.0014286922097001553 0.0 0.0
-0.0020171364207780262 0.0010024456543578086 0.0 -0.0013567365441941037 0.0 0.0
-0.003307731898229277 0.0019563581994084256 0.0 -0.0016186748375411342 0.0 0.0
-0.005728523639213917 0.004025357974929866 0.0 -0.0024568856316820598 0.0 0.0
-0.009455314754634209 0.007443707408740563 0.0 -0.003882845671354662 0.0 0.0
-0.014451459001059624 0.012165255218074433 0.0 -0.005703100393671612 0.0 0.0
-0.020617154481342326 0.018068359397671596 0.0 -0.007749625842325081 0.0 0.0
-0.027828197932266457 0.025022884526835654 0.0 -0.009819340427221102 0.0 0.0
-0.036022475675057286 0.03296409650636134 0.0 -0.011806878024569367 0.0 0.0
-0.045222083692729786 0.04191561084189299 0.0 -0.013776351294917832 0.0 0.0
-0.05550091250646369 0.05194907137165261 0.0 -0.015778763675482477 0.0 0.0
-0.06689109785046662 0.06308806824713997 0.0 -0.017804856312755524 0.0 0.0
-0.07914794976526879 0.07503999936854022 0.0 -0.019971221144899687 0.0 0.0
-0.09113518360681516 0.08659558827556468 0.0 -0.022938035329411965 0.0 0.0
-0.10005486988734749 0.09496673447106163 0.0 -0.027676790863191858 0.0 0.0
-0.10133506591124158 0.09565573267859184 0.0 -0.03445474679173799 0.0 0.0
-0.08902773642120643 0.08279534243038622 0.0 -0.04284925586612842 0.0 0.0
-0.08902773642119897 0.08279534243037556 0.0 0.04284925586616717 0.0 0.0
-0.10133506591121921 0.0956557326785683 0.0 0.034454746791783786 0.0 0.0
-0.10005486988730986 0.09496673447102566 0.0 0.027676790863224443 0.0 0.0
-0.0911351836067679 0.08659558827552072 0.0 0.022938035329420514 0.0 0.0
-0.07914794976521498 0.07503999936848516 0.0 0.019971221144897022 0.0 0.0
-0.06689109785040938 0.06308806824708046 0.0 0.017804856312749695 0.0 0.0
-0.05550091250640772 0.05194907137159355 0.0 0.015778763675474095 0.0 0.0
-0.0452220836926734 0.04191561084183659 0.0 0.013776351294907507 0.0 0.0
-0.0360224756750016 0.03296409650630627 0.0 0.011806878024555711 0.0 0.0
-0.02782819793221624 0.025022884526787692 0.0 0.009819340427202589 0.0 0.0
-0.020617154481298264 0.018068359397630074 0.0 0.007749625842306984 0.0 0.0
-0.014451459001026026 0.012165255218044013 0.0 0.0057031003936589275 0.0 0.0
-0.009455314754609444 0.007443707408717248 0.0 0.00388284567134492 0.0 0.0
-0.005728523639198714 0.004025357974915211 0.0 0.002456885631674871 0.0 0.0
-0.0033077318982209294 0.001956358199400876 0.0 0.0016186748375368598 0.0 0.0
-0.002017136420775438 0.0010024456543552551 0.0 0.001356736544193382 0.0 0.0
-0.0013950802635063903 0.0006349138286984024 0.0 0.0014286922096993782 0.0 0.0
-0.000936320534157431 0.0004051163618039033 0.0 0.0015402778713920484 0.0 0.0
-0.00046096922372203947 0.00012039393102333817 0.0 0.0013730321716031446 0.0 0.0
-7.05757794373929e-05 -9.556970925335591e-05 0.0 0.0006358562837436854 0.0 0.0
-0.00010524234273273647 -1.2086948418366106e-05 0.0 -0.00042739760434185037 0.0 0.0
-0.0005015956021228174 0.00016886062277610137 0.0 -0.0010470934983427826 0.0 0.0
-0.0010304498788238636 0.00044296469571547537 0.0 -0.0012024975952587558 0.0 0.0
-0.0015657334511371135 0.0007027353910676881 0.0 -0.0010912627813608466 0.0 0.0
-0.0023648264283430698 0.0012152961137046336 0.0 -0.001027902652681878 0.0 0.0
-0.004025141592850834 0.002530037314607103 0.0 -0.001309793581297125 0.0 0.0
-0.006929588178332613 0.005106229764850756 0.0 -0.002039186609934629 0.0 0.0
-0.011208043760460112 0.009099903845831703 0.0 -0.0031921106955998257 0.0 0.0
-0.016906357900143193 0.014520278373823192 0.0 -0.004678869081194692 0.0 0.0
-0.023948470218152884 0.021285239214424045 0.0 -0.006357355543255172 0.0 0.0
-0.03222560251967682 0.02928439846219799 0.0 -0.008060494406116225 0.0 0.0
-0.04168014585832977 0.03846163961707827 0.0 -0.009693271434556006 0.0 0.0
-0.05232410444381083 0.04882871044481174 0.0 -0.011321705182048003 0.0 0.0
-0.06418576515236299 0.06041191613978247 0.0 -0.013024547647022211 0.0 0.0
-0.0771968643622874 0.0731391762995961 0.0 -0.014650240411615889 0.0 0.0
-0.09102998971939244 0.08665614545730493 0.0 -0.015897782460208454 0.0 0.0
-0.10464009860294327 0.09983908440546685 0.0 -0.017249727911050283 0.0 0.0
-0.11527375570255366 0.10984284439676584 0.0 -0.021173265120143614 0.0 0.0
-0.11767045605700413 0.11155831497774393 0.0 -0.03050958890272526 0.0 0.0
-0.10487222510686087 0.0981495589025454 0.0 -0.046184504243237834 0.0 0.0
-0.10487222510685196 0.09814955890253829 0.0 0.0461845042432672 0.0 0.0
-0.11767045605697726 0.11155831497772217 0.0 0.030509588902764673 0.0 0.0
-0.11527375570251032 0.10984284439672543 0.0 0.021173265120173812 0.0 0.0
-0.10464009860288877 0.09983908440541267 0.0 0.01724972791105711 0.0 0.0
-0.09102998971933168 0.08665614545724631 0.0 0.01589778246020712 0.0 0.0
-0.0771968643622223 0.07313917629953837 0.0 0.014650240411614668 0.0 0.0
-0.06418576515229885 0.06041191613971719 0.0 0.013024547647016133 0.0 0.0
-0.05232410444374615 0.04882871044474468 0.0 0.011321705182040509 0.0 0.0
-0.04168014585826681 0.03846163961701743 0.0 0.009693271434547568 0.0 0.0
-0.032225602519619895 0.029284398462143146 0.0 0.008060494406101348 0.0 0.0
-0.023948470218103556 0.021285239214377416 0.0 0.006357355543240156 0.0 0.0
-0.016906357900104786 0.014520278373785223 0.0 0.0046788690811832845 0.0 0.0
-0.011208043760431698 0.009099903845803503 0.0 0.0031921106955898892 0.0 0.0
-0.00692958817831394 0.005106229764832992 0.0 0.002039186609927829 0.0 0.0
-0.004025141592840439 0.0025300373145982213 0.0 0.0013097935812932116 0.0 0.0
-0.0023648264283394824 0.0012152961137026352 0.0 0.001027902652679935 0.0 0.0
-0.0015657334511360102 0.000702735391067244 0.0 0.0010912627813599307 0.0 0.0
-0.0010304498788234057 0.00044296469571580843 0.0 0.0012024975952585892 0.0 0.0
-0.0005015956021220402 0.0001688606227759626 0.0 0.0010470934983432267 0.0 0.0
-0.00010524234273271565 -1.2086948418294982e-05 0.0 0.000427397604341212 0.0 0.0
-0.00011823661699392196 3.913735283458952e-05 0.0 -0.00022102652243555232 0.0 0.0
-0.0005254498834841859 0.00020800970505197025 0.0 -0.0006843248446292416 0.0 0.0
-0.0011210223614043224 0.0004776884994135422 0.0 -0.0008013851702605712 0.0 0.0
-0.001750125424627158 0.0007833953078650868 0.0 -0.0007112876675693103 0.0 0.0
-0.002769342764279009 0.0014981001605103295 0.0 -0.0006777538807020145 0.0 0.0
-0.004814444136007789 0.0031988219916492255 0.0 -0.0009042177963559661 0.0 0.0
-0.008151115076779042 0.00623810180363038 0.0 -0.0014180635797700902 0.0 0.0
-0.012960864457631088 0.010771481438574204 0.0 -0.002200422478632058 0.0 0.0
-0.01933906849266709 0.016869181855670545 0.0 -0.0032278780706691546 0.0 0.0
-0.027245303095671802 0.02448250227036164 0.0 -0.004405544277068907 0.0 0.0
-0.0365874305792982 0.033524336638869556 0.0 -0.005600112963056625 0.0 0.0
-0.047309328150137914 0.043943724981995835 0.0 -0.006746200074177144 0.0 0.0
-0.059407363996826 0.05573570750439005 0.0 -0.007921230825374326 0.0 0.0
-0.07284526942641836 0.06885999909825413 0.0 -0.0091410198372881 0.0 0.0
-0.08742514209616609 0.08311456369800707 0.0 -0.010230969394103617 0.0 0.0
-0.10264195664067369 0.09799143584427128 0.0 -0.010778216517370875 0.0 0.0
-0.11747070406862167 0.11243270320291421 0.0 -0.01057137276972464 0.0 0.0
-0.12973101277049778 0.12413526515474604 0.0 -0.01203287937966424 0.0 0.0
-0.1343899826133941 0.1278403053167967 0.0 -0.022898423924261224 0.0 0.0
-0.12219676801311835 0.11489869982034628 0.0 -0.04826325941763343 0.0 0.0
-0.12219676801310748 0.1148986998203374 0.0 0.04826325941765469 0.0 0.0
-0.13438998261336282 0.12784030531676516 0.0 0.022898423924290923 0.0 0.0
-0.12973101277044807 0.12413526515469808 0.0 0.012032879379684724 0.0 0.0
-0.11747070406855939 0.11243270320285648 0.0 0.010571372769727194 0.0 0.0
-0.10264195664060558 0.09799143584420245 0.0 0.010778216517369238 0.0 0.0
-0.08742514209609303 0.08311456369793335 0.0 0.010230969394100703 0.0 0.0
-0.07284526942634652 0.06885999909818352 0.0 0.009141019837282827 0.0 0.0
-0.05940736399675289 0.055735707504320775 0.0 0.007921230825366832 0.0 0.0
-0.04730932815006755 0.043943724981927 0.0 0.0067462000741698724 0.0 0.0
-0.036587430579234456 0.03352433663881049 0.0 0.005600112963047521 0.0 0.0
-0.027245303095617415 0.024482502270311457 0.0 0.004405544277058804 0.0 0.0
-0.019339068492624175 0.01686918185562769 0.0 0.0032278780706625487 0.0 0.0
-0.012960864457599315 0.010771481438542452 0.0 0.0022004224786258963 0.0 0.0
-0.00815111507675689 0.006238101803610174 0.0 0.0014180635797665375 0.0 0.0
-0.0048144441359957955 0.0031988219916394556 0.0 0.0009042177963533571 0.0 0.0
-0.002769342764273621 0.0014981001605064437 0.0 0.0006777538807019867 0.0 0.0
-0.001750125424626072 0.0007833953078640876 0.0 0.0007112876675696711 0.0 0.0
-0.0011210223614036736 0.0004776884994125985 0.0 0.000801385170259683 0.0 0.0
-0.0005254498834834573 0.00020800970505180372 0.0 0.00068432484462852 0.0 0.0
-0.00011823661699411625 3.913735283437962e-05 0.0 0.00022102652243363718 0.0 0.0
-9.793344567371465e-05 5.227992131778825e-05 0.0 -3.302174013772308e-05 0.0 0.0
-0.0005174999903779232 0.00022841001419288132 0.0 -0.00027790127135890463 0.0 0.0
-0.001212290739071864 0.0005116307905692619 0.0 -0.0003228171159531945 0.0 0.0
-0.001968997177216214 0.0009002062233719466 0.0 -0.00029757080684164605 0.0 0.0
-0.0032405685316421184 0.0018516134549748653 0.0 -0.00028527723360602386 0.0 0.0
-0.005644105156353885 0.003926568606248848 0.0 -0.00037468949461716416 0.0 0.0
-0.00938113827747189 0.007394036510008695 0.0 -0.0005874819521918817 0.0 0.0
-0.014693372936480237 0.01243721162028244 0.0 -0.0009098149415687762 0.0 0.0
-0.021728158172515333 0.01918652955712652 0.0 -0.001358797025690528 0.0 0.0
-0.030483872679676866 0.02763433806059301 0.0 -0.0018932112218696395 0.0 0.0
-0.04089284474724275 0.0377211786463465 0.0 -0.0024416121858212847 0.0 0.0
-0.05289392037656418 0.04939223601350973 0.0 -0.0029870508847362753 0.0 0.0
-0.06643765070769395 0.06260075772509222 0.0 -0.003540434909453105 0.0 0.0
-0.08142802890690043 0.07724354171828374 0.0 -0.004080451101258098 0.0 0.0
-0.09755270114105966 0.09300109532445022 0.0 -0.00451040314350748 0.0 0.0
-0.11408416746599895 0.10914943517990272 0.0 -0.004555655259395608 0.0 0.0
-0.12978608243982048 0.1244680568904597 0.0 -0.003796798223856479 0.0 0.0
-0.14286674523612702 0.13714442472706523 0.0 -0.002568909281520204 0.0 0.0
-0.15021577970507227 0.1438432774681555 0.0 -0.008413848181596295 0.0 0.0
-0.14281848889650223 0.13441817342411388 0.0 -0.044468294875743775 0.0 0.0
-0.14281848889648957 0.13441817342410056 0.0 0.044468294875753156 0.0 0.0
-0.15021577970503727 0.14384327746811776 0.0 0.008413848181610228 0.0 0.0
-0.1428667452360696 0.13714442472700705 0.0 0.002568909281531362 0.0 0.0
-0.1297860824397496 0.12446805689038642 0.0 0.003796798223854647 0.0 0.0
-0.11408416746592294 0.10914943517982678 0.0 0.004555655259394553 0.0 0.0
-0.09755270114097914 0.0930010953243734 0.0 0.00451040314350834 0.0 0.0
-0.08142802890682019 0.07724354171820647 0.0 0.004080451101257293 0.0 0.0
-0.06643765070761298 0.06260075772501095 0.0 0.0035404349094502185 0.0 0.0
-0.05289392037648666 0.04939223601343823 0.0 0.002987050884733833 0.0 0.0
-0.04089284474717199 0.03772117864627833 0.0 0.002441612185816011 0.0 0.0
-0.030483872679617417 0.02763433806053528 0.0 0.0018932112218638109 0.0 0.0
-0.02172815817246822 0.019186529557079224 0.0 0.0013587970256906667 0.0 0.0
-0.01469337293644531 0.012437211620248023 0.0 0.0009098149415663337 0.0 0.0
-0.009381138277447205 0.007394036509984492 0.0 0.000587481952190716 0.0 0.0
-0.005644105156339993 0.003926568606234637 0.0 0.0003746894946160817 0.0 0.0
-0.003240568531635367 0.0018516134549676488 0.0 0.0002852772336057463 0.0 0.0
-0.001968997177214611 0.0009002062233696151 0.0 0.00029757080684053583 0.0 0.0
-0.0012122907390710296 0.0005116307905687623 0.0 0.00032281711595366636 0.0 0.0
-0.0005174999903773975 0.00022841001419293683 0.0 0.0002779012713577944 0.0 0.0
-9.793344567366608e-05 5.227992131790274e-05 0.0 3.302174013850023e-05 0.0 0.0
SCALARS Statev float 8
LOOKUP_TABLE default
0.0 0.012050117529389927 0.009278919964378548 -0.00966148216097817 0.0003825621965996211 -0.005308467315778065 0.0 0.0
0.0 0.000572567641801385 0.0003879530044284978 -0.0003215955573115656 -6.635744711693218e-05 0.0003822715676577576 0.0 0.0
0.0 3.342380937738801e-05 -4.754075056001044e-06 3.773145031477424e-06 9.809300245235895e-07 5.62033213615258e-07 0.0 0.0
0.0 0.00020688209119557505 0.00013019517113980756 -0.0001019419279676236 -2.8253243172183983e-05 -1.7988771115997815e-05 0.0 0.0
0.0 0.0012086035581705824 0.0009450162012813357 -0.0007731768524829429 -0.00017183934879839256 -0.00010336046195537228 0.0 0.0
0.0 0.0033010742881091045 0.003010246711302362 -0.002601418125453156 -0.0004088285858492058 -0.00024701157869552737 0.0 0.0
0.0 0.0072110278783461676 0.006463834520730605 -0.005869883405644587 -0.000593951115086018 -0.00045774826751946275 0.0 0.0
0.0 0.013015851293406346 0.011528658600896496 -0.010805216308883604 -0.0007234422920128869 -0.0007649366106914474 0.0 0.0
0.0 0.020845825390956217 0.018320369760556697 -0.017489773473276512 -0.00083059628728018 -0.001192841858345437 0.0 0.0
0.0 0.03069780949066857 0.02683943072341375 -0.02590251026606477 -0.00093692045734897 -0.001712840467340414 0.0 0.0
0.0 0.042531607805255486 0.03703238856669498 -0.03598598541555219 -0.0010464031511427873 -0.002260048134175552 0.0 0.0
0.0 0.0560038173256908 0.04884958470800539 -0.04769114830352784 -0.001158436404477523 -0.002811000169859322 0.0 0.0
0.0 0.0713669979572212 0.06224241856828875 -0.06097071583043291 -0.0012717027378557903 -0.0033671375994850667 0.0 0.0
0.0 0.08853329505697102 0.07713691530059577 -0.07574929000976446 -0.001387625290831237 -0.003927072075647911 0.0 0.0
0.0 0.10718229146313923 0.09331069082366408 -0.09180273683852762 -0.0015079539851364392 -0.004480458054832313 0.0 0.0
0.0 0.12674800953689772 0.11024324582620693 -0.10861125523536472 -0.0016319905908421914 -0.004928160654685059 0.0 0.0
0.0 0.14617185755367762 0.12704667379865947 -0.12529075554545155 -0.0017559182532079346 -0.005066549510442012 0.0 0.0
0.0 0.16402165135306357 0.14249711136455595 -0.14062260010217112 -0.001874511262384831 -0.004657263289727748 0.0 0.0
0.0 0.1785991088797563 0.15512135375646866 -0.1531377701747741 -0.00198358358169457 -0.0038172559738138567 0.0 0.0
0.0 0.18740319163588398 0.162886039602759 -0.16075725281606248 -0.002128786786696502 -0.0038786012952468 0.0 0.0
0.0 0.18740319163587388 0.16288603960274997 -0.16075725281605385 -0.0021287867866960886 0.003878601295252977 0.0 0.0
0.0 0.17859910887971867 0.15512135375643576 -0.15313777017474156 -0.0019835835816941956 0.0038172559738328385 0.0 0.0
0.0 0.16402165135300123 0.14249711136450183 -0.14062260010211763 -0.0018745112623841467 0.004657263289736166 0.0 0.0
0.0 0.1461718575536008 0.12704667379859236 -0.12529075554538577 -0.001755918253206546 0.005066549510448222 0.0 0.0
0.0 0.12674800953681348 0.11024324582613357 -0.10861125523529247 -0.0016319905908410948 0.004928160654676272 0.0 0.0
0.0 0.10718229146305079 0.09331069082358721 -0.09180273683845137 -0.0015079539851358126 0.004480458054832444 0.0 0.0
0.0 0.0885332950568811 0.07713691530051799 -0.07574929000968676 -0.001387625290831188 0.003927072075645976 0.0 0.0
0.0 0.071366997957129 0.06224241856820914 -0.06097071583035317 -0.0012717027378559814 0.003367137599484499 0.0 0.0
0.0 0.05600381732560971 0.04884958470793474 -0.047691148303458344 -0.001158436404476391 0.0028110001698534474 0.0 0.0
0.0 0.042531607805185626 0.03703238856663365 -0.03598598541549213 -0.0010464031511415093 0.0022600481341730518 0.0 0.0
0.0 0.030697809490606184 0.026839430723359536 -0.025902510266011293 -0.0009369204573482486 0.001712840467333663 0.0 0.0
0.0 0.020845825390906406 0.0183203697605129 -0.017489773473233227 -0.0008305962872796799 0.0011928418583432676 0.0 0.0
0.0 0.013015851293371348 0.011528658600865237 -0.01080521630885294 -0.0007234422920122976 0.0007649366106887727 0.0 0.0
0.0 0.007211027878323242 0.006463834520709763 -0.005869883405624532 -0.0005939511150852291 0.00045774826751830813 0.0 0.0
0.0 0.003301074288095945 0.003010246711289982 -0.002601418125441766 -0.000408828585848216 0.00024701157869453803 0.0 0.0
0.0 0.0012086035581641299 0.0009450162012760474 -0.0007731768524784058 -0.0001718393487976414 0.00010336046195464954 0.0 0.0
0.0 0.00020688209119401862 0.00013019517113933715 -0.00010194192796723996 -2.8253243172097186e-05 1.798877111586888e-05 0.0 0.0
0.0 3.342380937687491e-05 -4.754075055922566e-06 3.7731450314146314e-06 9.80930024507978e-07 -5.620332136057866e-07 0.0 0.0
0.0 0.0005725676417990878 0.00038795300442725654 -0.0003215955573105292 -6.635744711672749e-05 -0.00038227156765622373 0.0 0.0
0.0 0.012050117529372188 0.009278919964366623 -0.009661482160965242 0.00038256219659861426 0.005308467315750681 0.0 0.0
0.0 0.008818423583077249 0.006365827637699337 -0.006853784574888614 0.0004879569371892734 -0.006056721768714466 0.0 0.0
0.0 4.070522875614133e-07 2.594643430488944e-07 -2.2111283084158488e-07 -3.835151220730994e-08 1.7864243081738062e-07 0.0 0.0
0.0 9.430826945183483e-08 -1.020951514236367e-08 7.758883502814768e-09 2.450631639548195e-09 3.6392644398315674e-09 0.0 0.0
0.0 6.681129833283578e-05 3.1992174209103836e-05 -2.4983708870079028e-05 -7.008465339025038e-06 -1.2597447670428346e-05 0.0 0.0
0.0 0.0007781080373193352 0.0005639044062952269 -0.00045576033519944214 -0.00010814407109578471 -0.00015141523951924988 0.0 0.0
0.0 0.0024879804744763045 0.0022717770909703857 -0.0019325640584589537 -0.00033921303251143207 -0.0004973281908786901 0.0 0.0
0.0 0.005934810990632208 0.005318771310625305 -0.004771413465539011 -0.0005473578450862921 -0.0010365582829342617 0.0 0.0
0.0 0.011161976147955575 0.00987593949118214 -0.009183442991702574 -0.0006924964994795667 -0.0017930019281457191 0.0 0.0
0.0 0.018235661104815 0.016011376869710072 -0.015208098649107785 -0.0008032782206022814 -0.0027853050308617303 0.0 0.0
0.0 0.027104911359320943 0.023684093143530437 -0.022777709582885126 -0.0009063835606453081 -0.003944954247030317 0.0 0.0
0.0 0.03767679191813214 0.032815318098331374 -0.03180621676527636 -0.0010091013330549967 -0.005148564757431746 0.0 0.0
0.0 0.049942431976092924 0.04336024465783332 -0.04224823786656402 -0.0011120067912692951 -0.0063201411678123045 0.0 0.0
0.0 0.06360966170646888 0.055321371785331 -0.054105259584015214 -0.001216112201315754 -0.007518393296646963 0.0 0.0
0.0 0.07893202829106916 0.06865903377524966 -0.06733638310837625 -0.0013226506668733995 -0.008769641208947904 0.0 0.0
0.0 0.09569232607567214 0.08318714006990653 -0.08175467015336176 -0.0014324699165447472 -0.010001641542486533 0.0 0.0
0.0 0.11330469093799461 0.09846328944299712 -0.09691820044892842 -0.0015450889940687128 -0.011011884110404723 0.0 0.0
0.0 0.13088832200028333 0.11371569025284746 -0.11205728784280311 -0.0016584024100443464 -0.011388655195787342 0.0 0.0
0.0 0.1471712601780002 0.12783517844575934 -0.12606509984462058 -0.0017700786011387681 -0.01072305116529288 0.0 0.0
0.0 0.16038425515595098 0.13930910063552285 -0.13742115729334528 -0.0018879433421775795 -0.009076284294937061 0.0 0.0
0.0 0.16828495767551505 0.1461951965175592 -0.1442180859386134 -0.001977110578945767 -0.0062889650576622765 0.0 0.0
0.0 0.16828495767550516 0.14619519651755045 -0.14421808593860475 -0.0019771105789457384 0.006288965057681388 0.0 0.0
0.0 0.16038425515591834 0.13930910063549398 -0.13742115729331658 -0.001887943342177457 0.009076284294971832 0.0 0.0
0.0 0.1471712601779462 0.12783517844571202 -0.12606509984457356 -0.0017700786011383928 0.010723051165314652 0.0 0.0
0.0 0.1308883220002165 0.11371569025278909 -0.11205728784274532 -0.0016584024100436909 0.011388655195798451 0.0 0.0
0.0 0.11330469093792138 0.0984632894429335 -0.09691820044886583 -0.0015450889940676344 0.011011884110396254 0.0 0.0
0.0 0.09569232607559364 0.08318714006983843 -0.08175467015329421 -0.0014324699165442043 0.010001641542483685 0.0 0.0
0.0 0.07893202829098991 0.06865903377518077 -0.0673363831083081 -0.0013226506668726644 0.00876964120894515 0.0 0.0
0.0 0.0636096617063922 0.055321371785264126 -0.05410525958394938 -0.0012161122013147386 0.0075183932966447565 0.0 0.0
0.0 0.049942431976019566 0.04336024465776937 -0.04224823786650102 -0.0011120067912683375 0.006320141167803468 0.0 0.0
0.0 0.03767679191806549 0.03281531809827336 -0.0318062167652191 -0.0010091013330542394 0.005148564757423884 0.0 0.0
0.0 0.027104911359266834 0.02368409314348329 -0.022777709582838524 -0.000906383560644762 0.003944954247018979 0.0 0.0
0.0 0.018235661104772573 0.01601137686967247 -0.015208098649070752 -0.0008032782206017114 0.0027853050308565925 0.0 0.0
0.0 0.011161976147924893 0.009875939491154834 -0.009183442991676064 -0.0006924964994787767 0.0017930019281404957 0.0 0.0
0.0 0.005934810990612125 0.005318771310607035 -0.004771413465521584 -0.0005473578450854502 0.0010365582829308492 0.0 0.0
0.0 0.0024879804744655357 0.0022717770909607476 -0.0019325640584502636 -0.0003392130325104843 0.000497328190876442 0.0 0.0
0.0 0.0007781080373144374 0.0005639044062916575 -0.0004557603351964609 -0.00010814407109519668 0.00015141523951829939 0.0 0.0
0.0 6.681129833210058e-05 3.199217420907319e-05 -2.4983708870051814e-05 -7.0084653390212254e-06 1.2597447670420414e-05 0.0 0.0
0.0 9.430826938068039e-08 -1.0209515134588993e-08 7.758883496907494e-09 2.4506316376819497e-09 -3.6392644370560787e-09 0.0 0.0
0.0 4.070522875489885e-07 2.5946434313367323e-07 -2.2111283091270023e-07 -3.83515122209714e-08 -1.786424308774731e-07 0.0 0.0
0.0 0.008818423583056921 0.006365827637685868 -0.006853784574874456 0.00048795693718858856 0.006056721768690924 0.0 0.0
0.0 0.006608835692399324 0.004510496677849048 -0.005015897347123401 0.0005054006692743536 -0.005266442818832305 0.0 0.0
0.0 0.0 0.0 0.0 0.0 0.0 0.0 0.0
0.0 0.0 0.0 0.0 0.0 0.0 0.0 0.0
0.0 1.0743064218835094e-05 6.776084686577563e-06 -5.282941563819842e-06 -1.4931431227577403e-06 -4.719529740458876e-06 0.0 0.0
0.0 0.00039897602067742375 0.00028938745017277704 -0.00023117090906408976 -5.8216541108687174e-05 -0.00013931760949594627 0.0 0.0
0.0 0.0019068715679077558 0.0015710736361308714 -0.001314960103508985 -0.0002561135326218853 -0.0005967340966330487 0.0 0.0
0.0 0.004708085817041552 0.004198559424177268 -0.0037097356701426103 -0.0004888237540346574 -0.0013933150584845239 0.0 0.0
0.0 0.009330470161814076 0.008221443198083728 -0.007569109244285473 -0.0006523339537982553 -0.0025234273224282377 0.0 0.0
0.0 0.01565150703613367 0.013675588091958204 -0.012905213249660595 -0.0007703748422976052 -0.003966293763573185 0.0 0.0
0.0 0.023551791375895054 0.020487204404439456 -0.019616091173887393 -0.0008711132305520527 -0.005624871097989894 0.0 0.0
0.0 0.03293759441486693 0.0285566993777491 -0.027589557353774462 -0.0009671420239746294 -0.007343825965232255 0.0 0.0
0.0 0.04366738260347885 0.03784129915202031 -0.03677957654393585 -0.001061722608084453 -0.00902095115181012 0.0 0.0
0.0 0.055931677737266774 0.04835846041164502 -0.04720183928046555 -0.0011566211311794792 -0.010705529088954755 0.0 0.0
0.0 0.06940574117731536 0.06011714602739841 -0.058863713246490375 -0.0012534327809079918 -0.012483878440581997 0.0 0.0
0.0 0.08421221134040732 0.07298324287628749 -0.07163083584356499 -0.0013524070327224432 -0.014271962569754984 0.0 0.0
0.0 0.09992416296947203 0.0865987028962917 -0.08514527223439416 -0.0014534306618975037 -0.01574595595123617 0.0 0.0
0.0 0.11571102368553449 0.10031690228631288 -0.09876065276434458 -0.0015562495219682638 -0.01639230841616698 0.0 0.0
0.0 0.13039505171968488 0.11312814519942034 -0.11146464823897637 -0.0016634969604439544 -0.015677878754281158 0.0 0.0
0.0 0.14233947330796945 0.12359144629323392 -0.1218244371670916 -0.001767009126142309 -0.013130974221105502 0.0 0.0
0.0 0.14966399195032387 0.13006736663867707 -0.12822676336049615 -0.0018406032781808615 -0.00804253154829227 0.0 0.0
0.0 0.14966399195031338 0.13006736663866736 -0.12822676336048675 -0.001840603278180546 0.008042531548322893 0.0 0.0
0.0 0.14233947330794142 0.12359144629320808 -0.1218244371670664 -0.001767009126141651 0.01313097422115056 0.0 0.0
0.0 0.13039505171963783 0.11312814519937825 -0.1114646482389347 -0.0016634969604434875 0.01567787875431352 0.0 0.0
0.0 0.11571102368547641 0.10031690228626161 -0.09876065276429416 -0.0015562495219674775 0.01639230841618085 0.0 0.0
0.0 0.09992416296940466 0.08659870289623346 -0.08514527223433631 -0.0014534306618971178 0.015745955951227856 0.0 0.0
0.0 0.08421221134033761 0.07298324287622694 -0.07163083584350494 -0.0013524070327220056 0.014271962569750558 0.0 0.0
0.0 0.06940574117724618 0.06011714602733807 -0.058863713246430874 -0.0012534327809072027 0.012483878440577967 0.0 0.0
0.0 0.05593167773719759 0.04835846041158492 -0.04720183928040582 -0.001156621131179092 0.01070552908894903 0.0 0.0
0.0 0.04366738260341132 0.037841299151962354 -0.03677957654387778 -0.0010617226080845757 0.009020951151796566 0.0 0.0
0.0 0.03293759441480709 0.028556699377697156 -0.02758955735372258 -0.0009671420239745683 0.007343825965220325 0.0 0.0
0.0 0.02355179137584775 0.020487204404398215 -0.01961609117384676 -0.0008711132305514512 0.005624871097975198 0.0 0.0
0.0 0.015651507036094883 0.01367558809192429 -0.012905213249627104 -0.0007703748422971816 0.00396629376356416 0.0 0.0
0.0 0.009330470161785438 0.008221443198058537 -0.007569109244260777 -0.0006523339537977634 0.002523427322420266 0.0 0.0
0.0 0.004708085817025276 0.004198559424162654 -0.0037097356701288153 -0.0004888237540338372 0.001393315058479718 0.0 0.0
0.0 0.0019068715678998381 0.0015710736361243963 -0.0013149601035033595 -0.0002561135326210364 0.0005967340966305862 0.0 0.0
0.0 0.0003989760206741742 0.00028938745017055367 -0.00023117090906227966 -5.8216541108273877e-05 0.00013931760949488956 0.0 0.0
0.0 1.0743064218315661e-05 6.7760846866429615e-06 -5.282941563867917e-06 -1.4931431227750636e-06 4.71952974049322e-06 0.0 0.0
0.0 0.0 0.0 0.0 0.0 0.0 0.0 0.0
0.0 0.0 0.0 0.0 0.0 0.0 0.0 0.0
0.0 0.006608835692382099 0.0045104966778372006 -0.005015897347110794 0.0005054006692735946 0.005266442818813302 0.0 0.0
0.0 0.004892360758185625 0.003195269451245304 -0.0036626013356008706 0.0004673318843555634 -0.00411074956739889 0.0 0.0
0.0 0.0 0.0 0.0 0.0 0.0 0.0 0.0
0.0 0.0 0.0 0.0 0.0 0.0 0.0 0.0
0.0 1.7764958665315978e-06 -1.7819784007305854e-07 1.3787375697884427e-07 4.03240830942293e-08 1.8782013220909485e-07 0.0 0.0
0.0 0.00017050293814669211 0.00011700078469817929 -9.284714577324259e-05 -2.4153638924936566e-05 -9.137911030693277e-05 0.0 0.0
0.0 0.0012580440226765102 0.0009898221747525761 -0.0008150188902693247 -0.00017480328448325213 -0.0005734384301327204 0.0 0.0
0.0 0.003593690510409765 0.003118695965579097 -0.002707489255545928 -0.0004112067100331699 -0.0015308605634385027 0.0 0.0
0.0 0.00754599551688013 0.00658582862052042 -0.005984960270541559 -0.0006008683499788612 -0.0029487641923272266 0.0 0.0
0.0 0.013088597915622491 0.011337334424642985 -0.010608009749069005 -0.0007293246755739806 -0.004727720553091598 0.0 0.0
0.0 0.02000943649201771 0.017275380721461724 -0.01644553065300399 -0.0008298500684577253 -0.006754297957426157 0.0 0.0
0.0 0.028188606442706824 0.024281618719848946 -0.023361396012770926 -0.0009202227070780185 -0.008843315061957567 0.0 0.0
0.0 0.03754814768762183 0.03230763571168486 -0.031300604149104114 -0.0010070315625807487 -0.01088981670031391 0.0 0.0
0.0 0.048102833176972636 0.04138570486883171 -0.04029299589180235 -0.0010927089770293628 -0.012957052705693192 0.0 0.0
0.0 0.05993759831598586 0.05155200062312719 -0.05037211918231674 -0.0011798814408104416 -0.015097219293235112 0.0 0.0
0.0 0.07292544518779921 0.062733246553868 -0.06146535900843737 -0.0012678875454306129 -0.017244579988332592 0.0 0.0
0.0 0.08653685955940783 0.07466990334168426 -0.07331291172652632 -0.0013569916151579416 -0.019095798796438388 0.0 0.0
0.0 0.10053491544571051 0.08683679698039556 -0.08538714546066031 -0.001449651519735208 -0.020053176445800604 0.0 0.0
0.0 0.11369892908008394 0.0983616371123846 -0.09681512847777912 -0.0015465086346055199 -0.019375448116343615 0.0 0.0
0.0 0.12457012281270537 0.10798470793733975 -0.10634571334223628 -0.0016389945951034608 -0.016178479166318052 0.0 0.0
0.0 0.1315456790947556 0.11427323973054322 -0.1125675687044288 -0.0017056710261143854 -0.009466524875843329 0.0 0.0
0.0 0.1315456790947459 0.11427323973053419 -0.11256756870441956 -0.0017056710261146887 0.009466524875882494 0.0 0.0
0.0 0.12457012281268097 0.10798470793731657 -0.10634571334221321 -0.0016389945951033014 0.016178479166370982 0.0 0.0
0.0 0.11369892908004813 0.09836163711235141 -0.09681512847774647 -0.0015465086346048863 0.019375448116380877 0.0 0.0
0.0 0.10053491544566137 0.08683679698035199 -0.08538714546061672 -0.001449651519735275 0.020053176445816303 0.0 0.0
0.0 0.0865368595593496 0.07466990334163419 -0.07331291172647621 -0.0013569916151579538 0.01909579879643049 0.0 0.0
0.0 0.07292544518773647 0.06273324655381377 -0.06146535900838346 -0.0012678875454302785 0.017244579988324862 0.0 0.0
0.0 0.05993759831592459 0.051552000623073926 -0.05037211918226381 -0.0011798814408101055 0.015097219293228898 0.0 0.0
0.0 0.048102833176914175 0.041385704868780744 -0.04029299589175202 -0.0010927089770287252 0.012957052705685451 0.0 0.0
0.0 0.037548147687565384 0.03230763571163569 -0.031300604149055986 -0.0010070315625797107 0.010889816700298878 0.0 0.0
0.0 0.028188606442658137 0.02428161871980638 -0.023361396012729334 -0.0009202227070770521 0.008843315061943354 0.0 0.0
0.0 0.020009436491976253 0.01727538072142609 -0.016445530652969064 -0.00082985006845702 0.006754297957408763 0.0 0.0
0.0 0.013088597915590245 0.01133733442461478 -0.010608009749041566 -0.0007293246755732052 0.004727720553081323 0.0 0.0
0.0 0.0075459955168554055 0.006585828620498854 -0.005984960270520743 -0.000600868349978108 0.0029487641923175547 0.0 0.0
0.0 0.00359369051039401 0.003118695965565454 -0.002707489255533404 -0.0004112067100320491 0.0015308605634325096 0.0 0.0
0.0 0.0012580440226684182 0.0009898221747466252 -0.0008150188902641885 -0.00017480328448243664 0.0005734384301290311 0.0 0.0
0.0 0.0001705029381449471 0.0001170007846975675 -9.284714577273741e-05 -2.4153638924830165e-05 9.137911030642958e-05 0.0 0.0
0.0 1.7764958662467406e-06 -1.7819784004332652e-07 1.3787375695581053e-07 4.032408308752122e-08 -1.8782013217738892e-07 0.0 0.0
0.0 0.0 0.0 0.0 0.0 0.0 0.0 0.0
0.0 0.0 0.0 0.0 0.0 0.0 0.0 0.0
0.0 0.004892360758169924 0.0031952694512349224 -0.0036626013355897237 0.00046733188435480014 0.004110749567383327 0.0 0.0
0.0 0.0034980206271525913 0.0021959722133178287 -0.0025925498889651805 0.0003965776756473526 -0.0029920408365697007 0.0 0.0
0.0 0.0 0.0 0.0 0.0 0.0 0.0 0.0
0.0 0.0 0.0 0.0 0.0 0.0 0.0 0.0
0.0 3.1234164431588785e-07 -2.5617850497127908e-08 2.0115826190663957e-08 5.502024306463789e-09 4.21043713021938e-08 0.0 0.0
0.0 6.228355273369326e-05 3.652857321017581e-05 -2.9017103781548016e-05 -7.5114694286278145e-06 -4.4582529500878955e-05 0.0 0.0
0.0 0.0007263635742764108 0.0005440104451246084 -0.00044163168966972676 -0.00010237875545488176 -0.0004714499698499003 0.0 0.0
0.0 0.0026549571306503927 0.0021233836244561443 -0.0018064472912355557 -0.0003169363332205886 -0.0014559189660628758 0.0 0.0
0.0 0.005871719418241321 0.004984826591881134 -0.004453312886003046 -0.0005315137058780858 -0.0030284267947595944 0.0 0.0
0.0 0.010564998117358991 0.009021358131718985 -0.008344285527627318 -0.0006770726040916661 -0.005060513064011285 0.0 0.0
0.0 0.01650639947329259 0.014073978888556974 -0.013293124702092268 -0.0007808541864647037 -0.0073248944734940445 0.0 0.0
0.0 0.023493248449742828 0.02001478328043838 -0.019147493511710315 -0.0008672897687280695 -0.009652193421602924 0.0 0.0
0.0 0.03142422640440025 0.026786364291600334 -0.025839657292639488 -0.0009467069989608474 -0.011927526836665713 0.0 0.0
0.0 0.04041592331623853 0.034426210932687794 -0.033402378582362474 -0.001023832350325328 -0.01421634725746424 0.0 0.0
0.0 0.050345368058700206 0.0430006091030922 -0.04189981186194043 -0.0011007972411517714 -0.016602207047164145 0.0 0.0
0.0 0.06140568118154026 0.052485771300674826 -0.05130761610145307 -0.0011781551992217254 -0.018978243574396193 0.0 0.0
0.0 0.07335963316986063 0.0627054401920368 -0.061449207964783086 -0.0012562322272536958 -0.021035721748379803 0.0 0.0
0.0 0.08537842056342031 0.07327664621858851 -0.07194043630652061 -0.0013362099120678979 -0.02225916981913561 0.0 0.0
0.0 0.0969738595878557 0.0835236477317139 -0.08210302955865037 -0.0014206181730635362 -0.021771471237063952 0.0 0.0
0.0 0.10690573790921686 0.09241101248198363 -0.09090740297841107 -0.0015036095035725757 -0.018323568837872443 0.0 0.0
0.0 0.11370273438035322 0.0986578321904304 -0.09709005266950634 -0.0015677795209240114 -0.010649104459179217 0.0 0.0
0.0 0.11370273438034562 0.09865783219042258 -0.09709005266949869 -0.0015677795209238252 0.010649104459220085 0.0 0.0
0.0 0.10690573790919461 0.09241101248196149 -0.0909074029783892 -0.0015036095035722693 0.018323568837926376 0.0 0.0
0.0 0.09697385958782048 0.08352364773168072 -0.08210302955861735 -0.0014206181730633425 0.021771471237102352 0.0 0.0
0.0 0.08537842056337844 0.07327664621855036 -0.07194043630648303 -0.0013362099120673156 0.022259169819153865 0.0 0.0
0.0 0.07335963316981259 0.06270544019199492 -0.061449207964741945 -0.0012562322272529677 0.021035721748373374 0.0 0.0
0.0 0.06140568118149117 0.05248577130063199 -0.051307616101411074 -0.0011781551992209262 0.01897824357438843 0.0 0.0
0.0 0.050345368058649094 0.043000609103047635 -0.04189981186189644 -0.0011007972411511847 0.016602207047157536 0.0 0.0
0.0 0.0404159233161887 0.03442621093264424 -0.03340237858231924 -0.0010238323503249857 0.01421634725745581 0.0 0.0
0.0 0.03142422640435221 0.026786364291558912 -0.025839657292598576 -0.0009467069989603197 0.011927526836650312 0.0 0.0
0.0 0.02349324844970048 0.020014783280401967 -0.01914749351167469 -0.0008672897687272739 0.009652193421586061 0.0 0.0
0.0 0.016506399473253955 0.01407397888852473 -0.013293124702060627 -0.0007808541864641056 0.007324894473473188 0.0 0.0
0.0 0.010564998117330528 0.00902135813169456 -0.008344285527603502 -0.0006770726040910557 0.005060513063998934 0.0 0.0
0.0 0.005871719418220112 0.004984826591863321 -0.004453312885986152 -0.000531513705877167 0.0030284267947489375 0.0 0.0
0.0 0.0026549571306371134 0.002123383624445368 -0.0018064472912259167 -0.00031693633321945217 0.001455918966056369 0.0 0.0
0.0 0.000726363574270769 0.0005440104451207443 -0.0004416316896664693 -0.00010237875545427501 0.00047144996984638656 0.0 0.0
0.0 6.228355273272206e-05 3.6528573210090606e-05 -2.9017103781459592e-05 -7.51146942863094e-06 4.4582529500653557e-05 0.0 0.0
0.0 3.1234164401444015e-07 -2.5617850471780222e-08 2.0115826170972936e-08 5.502024300809174e-09 -4.2104371261965705e-08 0.0 0.0
0.0 0.0 0.0 0.0 0.0 0.0 0.0 0.0
0.0 0.0 0.0 0.0 0.0 0.0 0.0 0.0
0.0 0.003498020627139663 0.002195972213309552 -0.0025925498889561214 0.00039657767564656794 0.0029920408365575325 0.0 0.0
0.0 0.0023440365093090327 0.0014249471707480123 -0.0017324567374497847 0.0003075095667017721 -0.0020374388493187173 0.0 0.0
0.0 0.0 0.0 0.0 0.0 0.0 0.0 0.0
0.0 0.0 0.0 0.0 0.0 0.0 0.0 0.0
0.0 1.2459832782016668e-06 -8.711175530045244e-08 6.722946238267231e-08 1.9882292917777628e-08 2.0432140011233723e-07 0.0 0.0
0.0 2.596835391142812e-05 9.290559963010721e-06 -7.3530323808487786e-06 -1.9375275821619366e-06 -1.634304462292415e-05 0.0 0.0
0.0 0.00034944638103914577 0.0002517250842392034 -0.00020246042748402258 -4.9264656755180616e-05 -0.0003307118535989341 0.0 0.0
0.0 0.00168271851888956 0.0012948514358333868 -0.0010789014488024667 -0.00021594998703091994 -0.0012626612905905653 0.0 0.0
0.0 0.004298196050701504 0.0034720322823461234 -0.0030362815830787945 -0.00043575069926732877 -0.0028193262124356798 0.0 0.0
0.0 0.008147183223586136 0.006749700412168 -0.006142754125793274 -0.0006069462863747257 -0.004926801973448051 0.0 0.0
0.0 0.013058626278713615 0.010910908061188886 -0.010190401465434883 -0.0007205065957540027 -0.007322174499824226 0.0 0.0
0.0 0.018829090889033513 0.01578356184256158 -0.01497802672033958 -0.000805535122221997 -0.009750193357130628 0.0 0.0
0.0 0.025366535706328394 0.02130539269429932 -0.02042607448147055 -0.000879318212828776 -0.012120640646909858 0.0 0.0
0.0 0.03269675185470388 0.027514868273495682 -0.026566564535844696 -0.0009483037376509856 -0.014498865132401026 0.0 0.0
0.0 0.04092167146892234 0.034494669449763246 -0.03347929095927941 -0.0010153784904838373 -0.01695150541064979 0.0 0.0
0.0 0.050096766863599373 0.0422742916890367 -0.04119189638076686 -0.0010823953082698674 -0.0194118616976699 0.0 0.0
0.0 0.05982213376470379 0.050752077920162286 -0.04960282482093509 -0.001149253099227222 -0.021591179808547824 0.0 0.0
0.0 0.07019179587311249 0.0596653806361631 -0.058449514737751125 -0.0012158658984119646 -0.022977047543661488 0.0 0.0
0.0 0.08034567973457202 0.06858684279580704 -0.0673014622640047 -0.0012853805318023578 -0.02276214091099664 0.0 0.0
0.0 0.08922117513121273 0.07677165675379977 -0.07541316762447879 -0.0013584891293209644 -0.019528137453684778 0.0 0.0
0.0 0.09595186514343076 0.0830795825970364 -0.08165649704707485 -0.0014230855499615157 -0.011607183589521838 0.0 0.0
0.0 0.09595186514342252 0.08307958259702797 -0.08165649704706615 -0.00142308554996179 0.011607183589562899 0.0 0.0
0.0 0.0892211751311942 0.07677165675378031 -0.07541316762445899 -0.0013584891293213412 0.019528137453738575 0.0 0.0
0.0 0.08034567973454915 0.06858684279578353 -0.06730146226398166 -0.001285380531801888 0.022762140911036746 0.0 0.0
0.0 0.07019179587307944 0.05966538063613247 -0.05844951473772105 -0.0012158658984113922 0.022977047543677718 0.0 0.0
0.0 0.05982213376466468 0.05075207792012838 -0.049602824820901864 -0.001149253099226496 0.0215911798085408 0.0 0.0
0.0 0.05009676686355937 0.04227429168900182 -0.041191896380732944 -0.0010823953082688522 0.019411861697660897 0.0 0.0
0.0 0.04092167146888237 0.03449466944972826 -0.03347929095924513 -0.0010153784904831306 0.01695150541064193 0.0 0.0
0.0 0.03269675185466592 0.027514868273462563 -0.026566564535812253 -0.0009483037376503171 0.014498865132392888 0.0 0.0
0.0 0.025366535706289307 0.021305392694266026 -0.020426074481438045 -0.0008793182128279807 0.012120640646894618 0.0 0.0
0.0 0.01882909088899778 0.015783561842531466 -0.01497802672031013 -0.0008055351222213389 0.009750193357113392 0.0 0.0
0.0 0.013058626278682662 0.010910908061163465 -0.010190401465410228 -0.0007205065957532392 0.007322174499803368 0.0 0.0
0.0 0.008147183223562058 0.006749700412147791 -0.006142754125773815 -0.000606946286373974 0.004926801973434335 0.0 0.0
0.0 0.004298196050684783 0.0034720322823325136 -0.003036281583066232 -0.00043575069926628013 0.0028193262124254297 0.0 0.0
0.0 0.0016827185188801447 0.0012948514358261131 -0.0010789014487962217 -0.0002159499870298912 0.0012626612905847015 0.0 0.0
0.0 0.0003494463810358491 0.00025172508423741116 -0.0002024604274825647 -4.9264656754846465e-05 0.00033071185359661605 0.0 0.0
0.0 2.596835391055954e-05 9.290559963037636e-06 -7.353032380866869e-06 -1.9375275821707593e-06 1.634304462295677e-05 0.0 0.0
0.0 1.245983277765114e-06 -8.711175526903953e-08 6.722946235833695e-08 1.9882292910690027e-08 -2.0432140003799813e-07 0.0 0.0
0.0 0.0 0.0 0.0 0.0 0.0 0.0 0.0
0.0 0.0 0.0 0.0 0.0 0.0 0.0 0.0
0.0 0.0023440365092992905 0.0014249471707420446 -0.0017324567374429815 0.00030750956670093756 0.00203743884931006 0.0 0.0
0.0 0.0014500845694566905 0.0008362800361514163 -0.001046804175980382 0.00021052413982896567 -0.0012600094019703228 0.0 0.0
0.0 2.413150468070681e-07 -3.1561199297649185e-09 2.895078666521106e-09 2.6104126324386403e-10 4.838109291425756e-08 0.0 0.0
0.0 0.0 0.0 0.0 0.0 0.0 0.0 0.0
0.0 1.343535810957597e-06 -6.745450613659108e-08 5.1836617700734505e-08 1.5617888435866596e-08 2.5068220686766373e-07 0.0 0.0
0.0 1.2823558551319961e-05 5.024324658524375e-06 -3.965886679791806e-06 -1.058437978732574e-06 -1.3118726275135042e-05 0.0 0.0
0.0 0.00017618361070004506 9.01739672225225e-05 -7.225469486450346e-05 -1.791927235801907e-05 -0.00018055371191009608 0.0 0.0
0.0 0.0009402997580696808 0.0006535525760039041 -0.0005342447042343605 -0.00011930787176954349 -0.0009418810631903521 0.0 0.0
0.0 0.0028179881327230327 0.002128988625160572 -0.0018142117098023682 -0.000314776915358203 -0.002380095940625697 0.0 0.0
0.0 0.005818254608267941 0.0045793257841271395 -0.004073786461682665 -0.0005055393224444723 -0.004360918557585591 0.0 0.0
0.0 0.009688658496118694 0.007816883002693656 -0.007177045331335214 -0.0006398376713584398 -0.006702831721767316 0.0 0.0
0.0 0.014240460054305116 0.01161787461774681 -0.01088845283621677 -0.000729421781530037 -0.009120216355534758 0.0 0.0
0.0 0.01936701035795594 0.01589744278653523 -0.015096628865053778 -0.0008008139214814516 -0.011453774881119044 0.0 0.0
0.0 0.025110171989527502 0.020686777984630447 -0.01982372173108626 -0.0008630562535441722 -0.013770389597452585 0.0 0.0
0.0 0.03150817998767404 0.02607996408376387 -0.025158919470490496 -0.000921044613273377 -0.01615300146009213 0.0 0.0
0.0 0.038702294277931704 0.03214351650509241 -0.031166631164964334 -0.0009768853401280755 -0.018543501754421387 0.0 0.0
0.0 0.04657708042604841 0.03884941541612906 -0.03781528343951576 -0.0010341319766132978 -0.020680693845398213 0.0 0.0
0.0 0.054850504627327074 0.04604664067324982 -0.04495889913682882 -0.0010877415364210022 -0.02215403601514021 0.0 0.0
0.0 0.06333781253354 0.05354362506582127 -0.05240427214527149 -0.0011393529205498015 -0.022300177394207046 0.0 0.0
0.0 0.07155387537423245 0.06096189047855437 -0.05976240826501954 -0.0011994822135348027 -0.019713119351610766 0.0 0.0
0.0 0.07835588472561136 0.06738713840620987 -0.06612038124531694 -0.001266757160892922 -0.012315584404737333 0.0 0.0
0.0 0.07835588472560676 0.06738713840620439 -0.0661203812453113 -0.0012667571608930607 0.012315584404775086 0.0 0.0
0.0 0.07155387537421873 0.060961890478538366 -0.05976240826500322 -0.0011994822135351698 0.01971311935166402 0.0 0.0
0.0 0.06333781253352141 0.05354362506580092 -0.05240427214525133 -0.0011393529205495647 0.022300177394245863 0.0 0.0
0.0 0.054850504627303516 0.046046640673226766 -0.04495889913680641 -0.0010877415364203766 0.02215403601515628 0.0 0.0
0.0 0.046577080426015 0.03884941541610035 -0.03781528343948721 -0.0010341319766131191 0.020680693845390154 0.0 0.0
0.0 0.03870229427789308 0.03214351650505986 -0.03116663116493144 -0.000976885340128413 0.018543501754408546 0.0 0.0
0.0 0.0315081799876396 0.026079964083734468 -0.025158919470460853 -0.0009210446132736228 0.016153001460082656 0.0 0.0
0.0 0.025110171989496676 0.020686777984603895 -0.01982372173105994 -0.0008630562535439555 0.01377038959744372 0.0 0.0
0.0 0.019367010357925787 0.015897442786510164 -0.015096628865028898 -0.0008008139214812632 0.01145377488110405 0.0 0.0
0.0 0.014240460054275577 0.011617874617722804 -0.010888452836193172 -0.0007294217815296254 0.009120216355516554 0.0 0.0
0.0 0.009688658496093443 0.007816883002674017 -0.00717704533131622 -0.0006398376713577977 0.006702831721747148 0.0 0.0
0.0 0.005818254608249164 0.004579325784112369 -0.004073786461668643 -0.0005055393224437259 0.00436091855757329 0.0 0.0
0.0 0.0028179881327104034 0.002128988625150932 -0.0018142117097937737 -0.0003147769153571574 0.002380095940616595 0.0 0.0
0.0 0.0009402997580634958 0.0006535525759996656 -0.0005342447042308177 -0.00011930787176884735 0.0009418810631851903 0.0 0.0
0.0 0.00017618361069830438 9.017396722203759e-05 -7.225469486410497e-05 -1.7919272357932494e-05 0.00018055371190906408 0.0 0.0
0.0 1.2823558551007364e-05 5.024324658665841e-06 -3.965886679903517e-06 -1.0584379787623292e-06 1.3118726275531444e-05 0.0 0.0
0.0 1.343535810551308e-06 -6.74545061154224e-08 5.1836617684484416e-08 1.561788843093987e-08 -2.5068220678900275e-07 0.0 0.0
0.0 0.0 0.0 0.0 0.0 0.0 0.0 0.0
0.0 2.413150465246296e-07 -3.1561199259962506e-09 2.8950786630596134e-09 2.610412629367381e-10 -4.838109285659394e-08 0.0 0.0
0.0 0.001450084569449211 0.0008362800361472473 -0.0010468041759754806 0.0002105241398282329 0.0012600094019640054 0.0 0.0
0.0 0.0007763286395985203 0.00041187371755491435 -0.0005330239108254456 0.00012115019327053143 -0.0006563998891894775 0.0 0.0
0.0 5.68229300698234e-07 -7.067340485817422e-09 9.746384288017086e-09 -2.679043802201258e-09 1.14239571365149e-07 0.0 0.0
0.0 6.305102464673167e-07 -7.0898921551877894e-09 5.074535917472657e-09 2.0153562377156586e-09 1.2874703632778445e-07 0.0 0.0
0.0 8.694762653476193e-07 -2.987712020632065e-08 2.159330647060148e-08 8.283813735721381e-09 1.7349073420562356e-07 0.0 0.0
0.0 1.083273679118034e-05 2.912936378894356e-06 -2.2911957182728498e-06 -6.21740660621518e-07 -1.1884336904829072e-05 0.0 0.0
0.0 9.917684226666733e-05 3.701062983999069e-05 -2.9483912702559467e-05 -7.526717137431209e-06 -0.00011675420302918854 0.0 0.0
0.0 0.00046335851136849863 0.00024945638129480064 -0.00020110955661167433 -4.834682468312633e-05 -0.0005832462616116781 0.0 0.0
0.0 0.0015686503711409324 0.001031917301868303 -0.0008539527711533356 -0.00017796453071496697 -0.0017326123676858997 0.0 0.0
0.0 0.003652070220735623 0.002604299802838673 -0.002244515795818849 -0.00035978400701982134 -0.003438668061338436 0.0 0.0
0.0 0.006384023338836345 0.004859100313536073 -0.004342031211044121 -0.0005170691024919497 -0.0055039332916750755 0.0 0.0
0.0 0.009797092393548725 0.007563153397798638 -0.0069395172193983555 -0.0006236361784002832 -0.0077062411254062 0.0 0.0
0.0 0.01348337859453345 0.01060533946324752 -0.009905907691155656 -0.0006994317720918625 -0.009871371498224524 0.0 0.0
0.0 0.017602125705863343 0.0139911902092811 -0.013231537152447933 -0.0007596530568331668 -0.012009036881963697 0.0 0.0
0.0 0.02224737114484496 0.01780753110616227 -0.016996816102627255 -0.0008107150035350087 -0.014168673837082304 0.0 0.0
0.0 0.027540858935829027 0.022149020908763715 -0.021292066316228576 -0.0008569545925351373 -0.01633903412491458 0.0 0.0
0.0 0.0333763643324285 0.027058428374383017 -0.02615567767479875 -0.0009027506995842604 -0.018323722792140233 0.0 0.0
0.0 0.03974443602100949 0.03248494957989823 -0.03153673979090071 -0.0009482097889975278 -0.019724311527945303 0.0 0.0
0.0 0.04640047687495794 0.03841191598562739 -0.03742993877268452 -0.000981977212942865 -0.020170534959664248 0.0 0.0
0.0 0.05341101888200346 0.04488579571265819 -0.04386679311248204 -0.0010190026001761234 -0.01866321832485018 0.0 0.0
0.0 0.06018049009599897 0.05141585190425783 -0.05032764167131429 -0.0010882102329435386 -0.012704770275215407 0.0 0.0
0.0 0.060180490095997435 0.05141585190425442 -0.050327641671311145 -0.0010882102329432557 0.012704770275247705 0.0 0.0
0.0 0.053411018881998264 0.04488579571264846 -0.043866793112473025 -0.0010190026001754213 0.01866321832489913 0.0 0.0
0.0 0.04640047687494565 0.038411915985611916 -0.03742993877266988 -0.0009819772129420177 0.020170534959698658 0.0 0.0
0.0 0.03974443602099182 0.03248494957988053 -0.031536739790884 -0.0009482097889965402 0.01972431152795695 0.0 0.0
0.0 0.03337636433240504 0.027058428374363244 -0.026155677674779745 -0.0009027506995834875 0.01832372279213118 0.0 0.0
0.0 0.027540858935804935 0.022149020908743728 -0.021292066316209245 -0.0008569545925344946 0.01633903412490349 0.0 0.0
0.0 0.02224737114482449 0.01780753110614468 -0.016996816102610387 -0.0008107150035342988 0.014168673837076432 0.0 0.0
0.0 0.01760212570584492 0.01399119020926517 -0.013231537152432611 -0.0007596530568325594 0.01200903688195773 0.0 0.0
0.0 0.013483378594514645 0.010605339463232234 -0.009905907691141044 -0.0006994317720911879 0.009871371498213221 0.0 0.0
0.0 0.009797092393529161 0.007563153397783237 -0.006939517219383582 -0.0006236361783996542 0.007706241125392237 0.0 0.0
0.0 0.0063840233388184845 0.004859100313523167 -0.004342031211031845 -0.0005170691024913209 0.005503933291658959 0.0 0.0
0.0 0.003652070220722752 0.002604299802829104 -0.0022445157958101507 -0.0003597840070189534 0.003438668061328076 0.0 0.0
0.0 0.0015686503711327844 0.0010319173018625476 -0.0008539527711484162 -0.00017796453071413097 0.0017326123676783718 0.0 0.0
0.0 0.00046335851136482644 0.00024945638129299203 -0.00020110955661019884 -4.834682468279324e-05 0.0005832462616080678 0.0 0.0
0.0 9.917684226565535e-05 3.701062984002292e-05 -2.9483912702576957e-05 -7.5267171374459596e-06 0.00011675420302907774 0.0 0.0
0.0 1.0832736790930612e-05 2.9129363790117e-06 -2.2911957183656524e-06 -6.217406606460407e-07 1.1884336905344985e-05 0.0 0.0
0.0 8.694762648168817e-07 -2.987712019000699e-08 2.1593306458356525e-08 8.283813731647456e-09 -1.7349073409897767e-07 0.0 0.0
0.0 6.305102458760242e-07 -7.089892147158693e-09 5.074535912009278e-09 2.015356235150372e-09 -1.2874703620679312e-07 0.0 0.0
0.0 5.682293000733039e-07 -7.067340481250902e-09 9.746384282047934e-09 -2.6790438007974454e-09 -1.1423957123934295e-07 0.0 0.0
0.0 0.0007763286395931606 0.0004118737175523733 -0.0005330239108223407 0.00012115019326996734 0.0006563998891853831 0.0 0.0
0.0 0.000292865204038043 0.0001533058714984142 -0.00020779599242727815 5.449012092886397e-05 -0.00025911789618622533 0.0 0.0
0.0 2.0717276247831737e-06 -6.165853434397743e-09 1.47916262852059e-08 -8.625772850807937e-09 4.367858720835785e-07 0.0 0.0
0.0 8.129603515550081e-07 -9.729788138728575e-10 -5.062304710215263e-10 1.479209284894036e-09 1.6676851108718092e-07 0.0 0.0
0.0 1.3942118126280809e-06 -1.7202479833820512e-08 1.1633862331670308e-08 5.568617502153395e-09 2.882879494068393e-07 0.0 0.0
0.0 1.136059474665169e-05 1.7734770206208996e-06 -1.356589281611176e-06 -4.16887739009728e-07 -1.3310830087228739e-05 0.0 0.0
0.0 8.149754274749229e-05 1.7886144303669015e-05 -1.4262164844429773e-05 -3.6239794592392407e-06 -0.00010224958938972511 0.0 0.0
0.0 0.00025728456073184007 8.094372813210893e-05 -6.497301046091874e-05 -1.597071767119012e-05 -0.000361593350073007 0.0 0.0
0.0 0.000701888146136949 0.00031716119821132625 -0.00025595074070587393 -6.121045750545215e-05 -0.0010198778913021952 0.0 0.0
0.0 0.0017713535378914972 0.0009877767835277003 -0.000816078316249109 -0.00017169846727859163 -0.002222897232778882 0.0 0.0
0.0 0.003409398063271939 0.0021770301700431345 -0.0018600245555999671 -0.00031700561444316657 -0.0038031132148056055 0.0 0.0
0.0 0.005447164777363571 0.0037379172566279527 -0.0032939052284582317 -0.00044401202816971914 -0.005563486605282274 0.0 0.0
0.0 0.007830984028719103 0.00551888460348836 -0.004983253790232528 -0.00053563081325583 -0.0073681789802061 0.0 0.0
0.0 0.010431544489728618 0.007511267581525863 -0.006905660637724192 -0.0006056069438016662 -0.00921081481976526 0.0 0.0
0.0 0.013358142700876171 0.009771272012402948 -0.009112153539001187 -0.0006591184734017533 -0.011055459572399562 0.0 0.0
0.0 0.016693762549303555 0.012389040672503411 -0.011688216068173675 -0.0007008246043297313 -0.012897770364482773 0.0 0.0
0.0 0.020515514937374357 0.015470571728204839 -0.014733637539409433 -0.0007369341887954127 -0.014647729633652356 0.0 0.0
0.0 0.024870004681044982 0.01908865982726919 -0.018313961818514725 -0.0007746980087544784 -0.015987492548817966 0.0 0.0
0.0 0.029724159513399028 0.023326860394006697 -0.02251982054889046 -0.0008070398451162497 -0.016524477649904036 0.0 0.0
0.0 0.035449331718219235 0.028509524580510058 -0.027701018057721908 -0.0008085065227881505 -0.016059191784548888 0.0 0.0
0.0 0.04203197011742936 0.03494771731019059 -0.03408182646916763 -0.0008658908410229781 -0.01253846126677362 0.0 0.0
0.0 0.04203197011743107 0.03494771731018983 -0.03408182646916665 -0.0008658908410231958 0.012538461266801047 0.0 0.0
0.0 0.035449331718216535 0.028509524580502998 -0.027701018057714195 -0.000808506522788795 0.016059191784589994 0.0 0.0
0.0 0.029724159513390837 0.023326860393995244 -0.022519820548878917 -0.0008070398451163156 0.01652447764993198 0.0 0.0
0.0 0.02487000468103311 0.01908865982725757 -0.01831396181850348 -0.0007746980087540767 0.015987492548823666 0.0 0.0
0.0 0.020515514937358814 0.015470571728193341 -0.014733637539398247 -0.000736934188795096 0.014647729633641738 0.0 0.0
0.0 0.016693762549288983 0.012389040672492524 -0.011688216068162895 -0.0007008246043296283 0.012897770364472913 0.0 0.0
0.0 0.013358142700866103 0.009771272012394748 -0.009112153538993313 -0.0006591184734014375 0.011055459572395399 0.0 0.0
0.0 0.010431544489718201 0.0075112675815170405 -0.006905660637715717 -0.0006056069438013225 0.009210814819761845 0.0 0.0
0.0 0.007830984028704191 0.005518884603477546 -0.004983253790222348 -0.0005356308132551981 0.007368178980194264 0.0 0.0
0.0 0.005447164777349314 0.003737917256618231 -0.0032939052284491612 -0.00044401202816906943 0.005563486605268786 0.0 0.0
0.0 0.003409398063259901 0.0021770301700355403 -0.0018600245555931323 -0.00031700561444240655 0.0038031132147931038 0.0 0.0
0.0 0.0017713535378853862 0.0009877767835239017 -0.0008160783162458321 -0.0001716984672780698 0.0022228972327721645 0.0 0.0
0.0 0.0007018881461341338 0.00031716119821010246 -0.00025595074070488075 -6.121045750522146e-05 0.0010198778912989706 0.0 0.0
0.0 0.0002572845607303197 8.094372813182942e-05 -6.497301046068785e-05 -1.5970717671141554e-05 0.0003615933500717079 0.0 0.0
0.0 8.149754274585247e-05 1.788614430355329e-05 -1.4262164844341304e-05 -3.6239794592119718e-06 0.00010224958938897155 0.0 0.0
0.0 1.136059474625498e-05 1.7734770206601247e-06 -1.3565892816409793e-06 -4.168877390191471e-07 1.3310830087538658e-05 0.0 0.0
0.0 1.3942118121365584e-06 -1.7202479827439693e-08 1.1633862327329383e-08 5.568617500112952e-09 -2.8828794930130727e-07 0.0 0.0
0.0 8.12960351106587e-07 -9.729788137991681e-10 -5.062304704954294e-10 1.479209284295063e-09 -1.667685109932312e-07 0.0 0.0
0.0 2.0717276240791394e-06 -6.165853431574411e-09 1.4791626278552993e-08 -8.625772846978897e-09 -4.3678587193397695e-07 0.0 0.0
0.0 0.000292865204035245 0.00015330587149739653 -0.00020779599242594422 5.44901209285475e-05 0.00025911789618464646 0.0 0.0
0.0 6.666061009620037e-05 3.1671868653310634e-05 -4.494561022284647e-05 1.327374156953584e-05 -5.677841079328374e-05 0.0 0.0
0.0 2.3409661729961703e-06 6.496376963596438e-10 1.3091562580591183e-08 -1.3741200276949575e-08 4.872012716183131e-07 0.0 0.0
0.0 8.762774417977301e-07 4.624443812629733e-09 -4.551231605700758e-09 -7.321220692904156e-11 8.59566064119036e-08 0.0 0.0
0.0 1.8211100045980498e-06 -2.2190777192794508e-08 2.237805113355272e-08 -1.872739407576177e-10 -1.1486561317460178e-06 0.0 0.0
0.0 1.4321217303996583e-05 3.7739007598732413e-07 -2.495190543431098e-07 -1.278710216442207e-07 -1.4094813480704525e-05 0.0 0.0
0.0 7.682424374715627e-05 5.515455569870075e-06 -4.319683488300654e-06 -1.195772081569408e-06 -0.00010730638774377816 0.0 0.0
0.0 0.00021365804619528995 2.3204336472116733e-05 -1.8590607583337754e-05 -4.6137288887789986e-06 -0.00033404220320392385 0.0 0.0
0.0 0.00045527911630540026 6.147280866783777e-05 -4.955287343249359e-05 -1.1919935235344113e-05 -0.0006849205792504543 0.0 0.0
0.0 0.0007940476790118937 0.00014984145078072672 -0.00012131772492391912 -2.8523725856807546e-05 -0.0012774554037173803 0.0 0.0
0.0 0.0013988702024371042 0.0003333995437322276 -0.00027022183732686785 -6.317770640535981e-05 -0.002151809457855287 0.0 0.0
0.0 0.0021354440838444056 0.0006706595920676961 -0.0005424749017111905 -0.00012818469035650543 -0.0033303311552755057 0.0 0.0
0.0 0.0031258661122008256 0.0011057926771809036 -0.0009017005541371628 -0.00020409212304374033 -0.004648612177039784 0.0 0.0
0.0 0.004308862328639704 0.0016580791789507368 -0.0013800191299601036 -0.0002780600489906324 -0.006131580771150485 0.0 0.0
0.0 0.005729183500593711 0.002342716171665393 -0.0020009291091004702 -0.00034178706256492316 -0.007766280649886503 0.0 0.0
0.0 0.0073796761003254874 0.003218795102621823 -0.0028248282066795365 -0.000393966895942286 -0.009538717219872976 0.0 0.0
0.0 0.009375000690700313 0.004421521011453373 -0.0039844856658830235 -0.0004370353455703467 -0.011335407785286349 0.0 0.0
0.0 0.01175379799606219 0.006174388152963105 -0.005696496884488969 -0.0004778912684741338 -0.01282597689648633 0.0 0.0
0.0 0.014596351927651362 0.00869607794653707 -0.008168492999252071 -0.0005275849472849939 -0.013443946884668621 0.0 0.0
0.0 0.018344647344165223 0.012261738953983048 -0.011710890458426338 -0.0005508484955567049 -0.01306710895241967 0.0 0.0
0.0 0.024046920352085926 0.017884390375924132 -0.017360548351217506 -0.0005238420247066296 -0.011880495013464094 0.0 0.0
0.0 0.024046920352086852 0.017884390375922883 -0.01736054835121616 -0.0005238420247067192 0.011880495013484567 0.0 0.0
0.0 0.018344647344167582 0.012261738953980483 -0.01171089045842381 -0.0005508484955566737 0.013067108952450258 0.0 0.0
0.0 0.01459635192764809 0.008696077946531395 -0.008168492999246404 -0.0005275849472849868 0.013443946884684763 0.0 0.0
0.0 0.011753797996053552 0.006174388152956955 -0.005696496884482742 -0.00047789126847420775 0.01282597689648465 0.0 0.0
0.0 0.009375000690692295 0.004421521011450213 -0.0039844856658799695 -0.0004370353455702417 0.011335407785275756 0.0 0.0
0.0 0.007379676100319364 0.00321879510261962 -0.002824828206677459 -0.00039396689594215986 0.009538717219864162 0.0 0.0
0.0 0.005729183500587976 0.0023427161716628297 -0.002000929109098091 -0.0003417870625647388 0.0077662806498807364 0.0 0.0
0.0 0.004308862328635054 0.001658079178949052 -0.0013800191299587579 -0.00027806004899029414 0.006131580771144787 0.0 0.0
0.0 0.0031258661121942536 0.0011057926771792204 -0.0009017005541357612 -0.000204092123043459 0.004648612177030196 0.0 0.0
0.0 0.0021354440838387673 0.0006706595920661792 -0.00054247490170991 -0.00012818469035626875 0.0033303311552663048 0.0 0.0
0.0 0.001398870202432157 0.00033339954373136783 -0.00027022183732615764 -6.317770640521044e-05 0.002151809457848021 0.0 0.0
0.0 0.0007940476790100684 0.00014984145078040324 -0.00012131772492367325 -2.852372585672985e-05 0.0012774554037144482 0.0 0.0
0.0 0.0004552791163041234 6.147280866766092e-05 -4.955287343236046e-05 -1.1919935235300442e-05 0.000684920579248353 0.0 0.0
0.0 0.000213658046193544 2.3204336472015977e-05 -1.8590607583244218e-05 -4.613728888771739e-06 0.00033404220320253986 0.0 0.0
0.0 7.682424374592882e-05 5.515455569834652e-06 -4.319683488267952e-06 -1.1957720815667014e-06 0.00010730638774294339 0.0 0.0
0.0 1.4321217303642546e-05 3.7739007599604227e-07 -2.495190543479973e-07 -1.2787102164804833e-07 1.4094813481068796e-05 0.0 0.0
0.0 1.8211100045110464e-06 -2.2190777206385346e-08 2.2378051149566884e-08 -1.872739431816159e-10 1.148656132602964e-06 0.0 0.0
0.0 8.762774415596626e-07 4.624443789359102e-09 -4.551231586020832e-09 -7.321220333848214e-11 -8.595660595498762e-08 0.0 0.0
0.0 2.340966172321822e-06 6.496376968874008e-10 1.3091562575233056e-08 -1.3741200272117913e-08 -4.87201271473837e-07 0.0 0.0
0.0 6.666061009488825e-05 3.167186865306336e-05 -4.494561022248813e-05 1.327374156942471e-05 5.6778410792990916e-05 0.0 0.0
0.0 3.9640057022875205e-06 9.186861561890183e-07 -1.3274290977579621e-06 4.0874294156893686e-07 -1.9035083752974255e-06 0.0 0.0
0.0 2.0642586444041056e-06 -3.855173910121673e-09 8.470684016217751e-09 -4.615510106091222e-09 1.2637345190833977e-07 0.0 0.0
0.0 2.50400834623397e-06 -9.884432545587734e-08 8.219810963972341e-08 1.6646215816154746e-08 -1.0822882524771959e-06 0.0 0.0
0.0 3.971745731851486e-06 -3.5617836025788366e-07 3.0905425173626856e-07 4.712410852161529e-08 -4.1404963624568656e-06 0.0 0.0
0.0 1.877994864073641e-05 -1.3647198643176076e-06 1.1882735336518748e-06 1.7644633066574206e-07 -1.9917468734230896e-05 0.0 0.0
0.0 8.295374627815817e-05 -7.236651576854827e-06 5.95457831267575e-06 1.2820732641790689e-06 -0.00010960965889961003 0.0 0.0
0.0 0.00021512021263232398 -2.446960796486467e-05 1.9757800502600446e-05 4.711807462264217e-06 -0.00033659407944815943 0.0 0.0
0.0 0.0004555368793562077 -6.166911150384771e-05 4.9707297209128893e-05 1.1961814294718759e-05 -0.000686472916394629 0.0 0.0
0.0 0.0007940129542387552 -0.00014958989902053187 0.00012110208117662778 2.8487817843904006e-05 -0.001278015035148026 0.0 0.0
0.0 0.0013974126513141502 -0.00033266548509562963 0.0002695261299181476 6.313935517748206e-05 -0.0021503844851297645 0.0 0.0
0.0 0.002143923443100689 -0.0006701157761059509 0.0005427851032345282 0.00012733067287142241 -0.0033291026231213397 0.0 0.0
0.0 0.0031373045988724764 -0.0011212213724030575 0.0009169465578380673 0.00020427481456499011 -0.004657025885568442 0.0 0.0
0.0 0.004343628710594212 -0.0017005062686875987 0.001420562827307894 0.00027994344137970346 -0.006144856299435367 0.0 0.0
0.0 0.0057711071684488965 -0.0023969256895074514 0.0020484828795315204 0.00034844280997592907 -0.007773287135262462 0.0 0.0
0.0 0.007299246515999804 -0.0031256265213942497 0.0027157716859784044 0.00040985483541584465 -0.00953278123036004 0.0 0.0
0.0 0.008824995671601086 -0.003689828623493501 0.00322582910323058 0.0004639995202629152 -0.011386674815445598 0.0 0.0
0.0 0.010052012539595187 -0.003773370768520399 0.0032652549102401896 0.0005081158582802097 -0.013323669369633216 0.0 0.0
0.0 0.010830976569093254 -0.003096298207873766 0.002558370866016419 0.0005379273418573459 -0.015383532284045152 0.0 0.0
0.0 0.011114411060098275 -0.0016995523877100698 0.0012127576101219658 0.0004867947775881041 -0.017175190986560108 0.0 0.0
0.0 0.010758363754005325 0.0025099345296375757 -0.0025912133208450213 8.127879120744375e-05 -0.01582817222999682 0.0 0.0
0.0 0.010758363754008864 0.0025099345296375484 -0.0025912133208449567 8.127879120741106e-05 0.01582817223000709 0.0 0.0
0.0 0.011114411060101262 -0.0016995523877097623 0.0012127576101216265 0.0004867947775881353 0.01717519098657052 0.0 0.0
0.0 0.010830976569090248 -0.003096298207873066 0.0025583708660163566 0.0005379273418567078 0.0153835322840449 0.0 0.0
0.0 0.010052012539588378 -0.0037733707685173555 0.0032652549102376114 0.0005081158582797414 0.013323669369625792 0.0 0.0
0.0 0.008824995671591417 -0.0036898286234883716 0.0032258291032258883 0.0004639995202624802 0.011386674815434098 0.0 0.0
0.0 0.00729924651598938 -0.0031256265213880268 0.0027157716859725267 0.0004098548354154992 0.009532781230351348 0.0 0.0
0.0 0.005771107168439472 -0.0023969256895022017 0.00204848287952681 0.0003484428099753902 0.007773287135253511 0.0 0.0
0.0 0.004343628710584125 -0.0017005062686809517 0.0014205628273019533 0.00027994344137899786 0.006144856299428425 0.0 0.0
0.0 0.00313730459886243 -0.0011212213723988003 0.0009169465578343673 0.00020427481456443286 0.004657025885556878 0.0 0.0
0.0 0.0021439234430925447 -0.0006701157761018583 0.0005427851032312281 0.00012733067287063057 0.003329102623111065 0.0 0.0
0.0 0.0013974126513068362 -0.0003326654850931781 0.00026952612991605835 6.313935517711961e-05 0.002150384485120236 0.0 0.0
0.0 0.0007940129542364197 -0.00014958989901978683 0.00012110208117600626 2.8487817843780617e-05 0.0012780150351447417 0.0 0.0
0.0 0.0004555368793548774 -6.166911150355122e-05 4.970729720886764e-05 1.196181429468356e-05 0.0006864729163930167 0.0 0.0
0.0 0.00021512021263080908 -2.446960796477086e-05 1.9757800502555655e-05 4.711807462215207e-06 0.00033659407944700763 0.0 0.0
0.0 8.295374627690621e-05 -7.236651576817647e-06 5.954578312647456e-06 1.2820732641702017e-06 0.00010960965889906919 0.0 0.0
0.0 1.8779948640288936e-05 -1.3647198643481861e-06 1.1882735336780377e-06 1.7644633067014486e-07 1.9917468734674118e-05 0.0 0.0
0.0 3.971745731727903e-06 -3.5617836032155513e-07 3.0905425179168495e-07 4.71241085298706e-08 4.14049636318107e-06 0.0 0.0
0.0 2.5040083458515914e-06 -9.884432555168915e-08 8.21981097203623e-08 1.6646215831327555e-08 1.0822882535765853e-06 0.0 0.0
0.0 2.064258643812908e-06 -3.855173924850522e-09 8.470684016152553e-09 -4.615510091297136e-09 -1.2637345140632187e-07 0.0 0.0
0.0 3.964005701699623e-06 9.186861563209526e-07 -1.32742909794765e-06 4.087429416267002e-07 1.9035083755991092e-06 0.0 0.0
0.0 0.0 0.0 0.0 0.0 0.0 0.0 0.0
0.0 8.883986605011907e-07 -2.943337251567222e-09 6.743025434962251e-09 -3.799688183396568e-09 -1.697550580239784e-08 0.0 0.0
0.0 3.255618166923611e-06 -2.514733621950246e-07 2.0684384919763386e-07 4.4629512997386556e-08 -1.8752145189307973e-06 0.0 0.0
0.0 6.820809074300399e-06 -3.55823652567069e-07 3.1690674948323866e-07 3.891690308384401e-08 -2.662043315495244e-06 0.0 0.0
0.0 2.4597393187544238e-05 -4.809298820198827e-06 4.0096187510815825e-06 7.996800691172508e-07 -2.9151134440206745e-05 0.0 0.0
0.0 9.321376867483195e-05 -2.278143353047362e-05 1.8388283352587735e-05 4.3931501778858615e-06 -0.00012116810075607121 0.0 0.0
0.0 0.0002677620162528806 -8.347459482111486e-05 6.716815447001338e-05 1.6306440351101448e-05 -0.0003685854883578633 0.0 0.0
0.0 0.0007062010907275646 -0.00031895115277711435 0.00025741788298903114 6.153326978808316e-05 -0.001024895190297519 0.0 0.0
0.0 0.0017690108777619071 -0.0009867770904574155 0.0008151819352006347 0.00017159515525678063 -0.0022225232237097323 0.0 0.0
0.0 0.0034067404422731353 -0.0021756429214458413 0.0018588864766254105 0.0003167564448204308 -0.003801542716241967 0.0 0.0
0.0 0.005450972975774375 -0.003741661416770331 0.0032981887810458687 0.0004434726357244606 -0.005564699560095802 0.0 0.0
0.0 0.007850507238313379 -0.005539366417015046 0.005004542385712329 0.0005348240313027201 -0.007367839927262457 0.0 0.0
0.0 0.010475951700173174 -0.0075613752164699535 0.006955776694619584 0.0006055985218503665 -0.009193048401563878 0.0 0.0
0.0 0.013404193882131835 -0.009826388796694148 0.00916188360995867 0.0006645051867354814 -0.011022606121067594 0.0 0.0
0.0 0.016585958965528065 -0.01227254398423716 0.011553921461933382 0.0007186225223037724 -0.012931635367932431 0.0 0.0
0.0 0.01980010193000086 -0.01467619506161211 0.01390596822360235 0.0007702268380097594 -0.015011143508541819 0.0 0.0
0.0 0.022677609253536173 -0.016631519122736076 0.015815699239652793 0.0008158198830832859 -0.017328340501448325 0.0 0.0
0.0 0.024614130824786248 -0.017609583416872056 0.016761656643218124 0.0008479267736539444 -0.019790066720489056 0.0 0.0
0.0 0.02405780681778273 -0.016584816107297517 0.015641859684177414 0.0009429564231200904 -0.02078313121061441 0.0 0.0
0.0 0.018680692745134925 -0.01117562988243868 0.010155393070778 0.0010202368116606745 -0.01818181349145762 0.0 0.0
0.0 0.01868069274514262 -0.011175629882439852 0.010155393070778788 0.0010202368116610642 0.018181813491481458 0.0 0.0
0.0 0.02405780681778908 -0.016584816107295938 0.015641859684175773 0.0009429564231201522 0.020783131210647385 0.0 0.0
0.0 0.02461413082477934 -0.01760958341686233 0.01676165664320823 0.0008479267736540935 0.019790066720507083 0.0 0.0
0.0 0.022677609253518922 -0.016631519122721025 0.01581569923963793 0.0008158198830830951 0.01732834050144577 0.0 0.0
0.0 0.01980010192997888 -0.014676195061594633 0.013905968223585169 0.0007702268380094658 0.015011143508528633 0.0 0.0
0.0 0.016585958965510014 -0.012272543984223363 0.0115539214619199 0.0007186225223034643 0.01293163536791956 0.0 0.0
0.0 0.013404193882113969 -0.009826388796680074 0.009161883609944925 0.0006645051867351485 0.011022606121057318 0.0 0.0
0.0 0.010475951700153136 -0.007561375216453413 0.006955776694603385 0.0006055985218500254 0.009193048401553688 0.0 0.0
0.0 0.007850507238294838 -0.00553936641700118 0.005004542385699141 0.0005348240313020386 0.007367839927248858 0.0 0.0
0.0 0.005450972975757406 -0.003741661416758335 0.0032981887810347946 0.0004434726357235402 0.0055646995600812585 0.0 0.0
0.0 0.0034067404422563076 -0.0021756429214343873 0.0018588864766150763 0.0003167564448193106 0.00380154271622595 0.0 0.0
0.0 0.0017690108777521955 -0.000986777090450942 0.0008151819351950357 0.00017159515525590663 0.002222523223699516 0.0 0.0
0.0 0.0007062010907236882 -0.00031895115277498097 0.0002574178829873265 6.153326978765449e-05 0.0010248951902929913 0.0 0.0
0.0 0.00026776201625041643 -8.347459482055785e-05 6.716815446956232e-05 1.630644035099549e-05 0.0003685854883554646 0.0 0.0
0.0 9.321376867324522e-05 -2.278143353035887e-05 1.8388283352495544e-05 4.393150177863304e-06 0.00012116810075547984 0.0 0.0
0.0 2.4597393186953836e-05 -4.809298820250717e-06 4.009618751125572e-06 7.996800691251289e-07 2.9151134440523685e-05 0.0 0.0
0.0 6.820809074045247e-06 -3.5582365266541683e-07 3.1690674956588827e-07 3.891690309953182e-08 2.662043316129191e-06 0.0 0.0
0.0 3.255618166395905e-06 -2.514733623119669e-07 2.0684384929328188e-07 4.462951301868497e-08 1.8752145198311495e-06 0.0 0.0
0.0 8.883986601131147e-07 -2.9433372720159102e-09 6.743025431501588e-09 -3.799688159485328e-09 1.6975506389427408e-08 0.0 0.0
0.0 0.0 0.0 0.0 0.0 0.0 0.0 0.0
0.0 0.0 0.0 0.0 0.0 0.0 0.0 0.0
0.0 1.2508586812791678e-06 1.7693331314728913e-08 -8.022362203851962e-09 -9.670969110877117e-09 2.5436291706895875e-07 0.0 0.0
0.0 3.3488028207914677e-06 4.017464909549143e-08 -3.127899338212132e-08 -8.895655713373823e-09 2.611150228420296e-07 0.0 0.0
0.0 9.0813624713421e-06 -3.864340310815939e-07 3.0771400620502233e-07 7.872002487657989e-08 -1.493164804254514e-06 0.0 0.0
0.0 3.1777519216844186e-05 -9.137008314419995e-06 7.4305063097446675e-06 1.706502004675341e-06 -3.322084028493703e-05 0.0 0.0
0.0 0.0001215799071112847 -4.709036771176887e-05 3.793871655160685e-05 9.151651160161994e-06 -0.00014471886428967084 0.0 0.0
0.0 0.0004841715573627591 -0.00025853186367211017 0.00020877664056674037 4.97552231053698e-05 -0.0006011686262972352 0.0 0.0
0.0 0.0015722095608790147 -0.0010330823650909879 0.00085505837830331 0.00017802398678767788 -0.0017373152463324498 0.0 0.0
0.0 0.003646956478171264 -0.002601517248270463 0.002241928238229925 0.00035958901004053617 -0.0034352437476548544 0.0 0.0
0.0 0.006382336195028767 -0.004858715286758134 0.00434176647275654 0.0005169488140015932 -0.005502221675803552 0.0 0.0
0.0 0.009802599781120592 -0.007568437977568249 0.006945279097043608 0.0006231588805246426 -0.007706659211120295 0.0 0.0
0.0 0.01349759758702047 -0.010621919876007843 0.009923555048011568 0.0006983648279962755 -0.00985702371709404 0.0 0.0
0.0 0.017623378857095483 -0.014027477720472688 0.01326849851719919 0.0007589792032734998 -0.011939820282099564 0.0 0.0
0.0 0.022254891961951597 -0.01784425728986307 0.017029660871726755 0.0008145964181363137 -0.014038195708694752 0.0 0.0
0.0 0.027421648666951678 -0.022040738910661124 0.02116879142449166 0.0008719474861694567 -0.01633534362255022 0.0 0.0
0.0 0.03280005396976549 -0.026376107464119967 0.025443959618808434 0.0009321478453115159 -0.01909090924157305 0.0 0.0
0.0 0.03796948185286089 -0.030342202693221007 0.029351087132813418 0.000991115560407578 -0.022491650052941216 0.0 0.0
0.0 0.04157249696550879 -0.033034890517925866 0.03196855439604198 0.0010663361218838864 -0.025929873854555502 0.0 0.0
0.0 0.04179633642850786 -0.032751192445973756 0.03159001735789233 0.0011611750880814163 -0.02764061688531095 0.0 0.0
0.0 0.03408359306111894 -0.026234173305117056 0.02486700374728656 0.0013671695578304915 -0.0239246224570642 0.0 0.0
0.0 0.03408359306112695 -0.026234173305117642 0.0248670037472873 0.0013671695578303437 0.02392462245709672 0.0 0.0
0.0 0.04179633642851128 -0.03275119244596895 0.031590017357887835 0.001161175088081094 0.027640616885352708 0.0 0.0
0.0 0.04157249696549849 -0.03303489051791156 0.03196855439602775 0.0010663361218837817 0.02592987385458318 0.0 0.0
0.0 0.03796948185283902 -0.03034220269320049 0.029351087132793566 0.000991115560406942 0.022491650052944533 0.0 0.0
0.0 0.032800053969738785 -0.026376107464097374 0.025443959618786437 0.0009321478453109458 0.019090909241562197 0.0 0.0
0.0 0.02742164866692694 -0.0220407389106406 0.021168791424471534 0.0008719474861690613 0.016335343622539023 0.0 0.0
0.0 0.02225489196192604 -0.01784425728984202 0.01702966087170587 0.0008145964181361482 0.01403819570868228 0.0 0.0
0.0 0.017623378857072547 -0.014027477720452972 0.01326849851717998 0.0007589792032729867 0.011939820282090823 0.0 0.0
0.0 0.01349759758699456 -0.010621919875986607 0.009923555047990836 0.0006983648279957687 0.009857023717079794 0.0 0.0
0.0 0.009802599781092325 -0.007568437977546173 0.0069452790970221095 0.0006231588805240622 0.0077066592110997 0.0 0.0
0.0 0.006382336195005649 -0.0048587152867407704 0.0043417664727398424 0.0005169488140009277 0.005502221675785132 0.0 0.0
0.0 0.003646956478157575 -0.002601517248259748 0.0022419282382201127 0.00035958901003963514 0.003435243747644913 0.0 0.0
0.0 0.001572209560872205 -0.0010330823650862957 0.0008550583782993262 0.00017802398678696947 0.0017373152463264875 0.0 0.0
0.0 0.0004841715573590663 -0.00025853186367041263 0.00020877664056540105 4.975522310501146e-05 0.0006011686262941103 0.0 0.0
0.0 0.00012157990710963408 -4.709036771161211e-05 3.793871655148029e-05 9.151651160131774e-06 0.00014471886428898248 0.0 0.0
0.0 3.17775192157087e-05 -9.137008314429382e-06 7.4305063097510965e-06 1.7065020046782482e-06 3.322084028496792e-05 0.0 0.0
0.0 9.081362470544458e-06 -3.864340311752891e-07 3.0771400628090346e-07 7.8720024894374e-08 1.4931648046451475e-06 0.0 0.0
0.0 3.348802820219848e-06 4.01746489924956e-08 -3.1278993299840034e-08 -8.89565569264909e-09 -2.6111502226997046e-07 0.0 0.0
0.0 1.2508586809248778e-06 1.7693331309732382e-08 -8.022362201433076e-09 -9.67096910830339e-09 -2.543629169952669e-07 0.0 0.0
0.0 0.0 0.0 0.0 0.0 0.0 0.0 0.0
0.0 0.0 0.0 0.0 0.0 0.0 0.0 0.0
0.0 0.0 0.0 0.0 0.0 0.0 0.0 0.0
0.0 2.097264954190379e-06 8.83659584605301e-08 -7.060413059826229e-08 -1.7761827862272653e-08 4.0752168309173775e-07 0.0 0.0
0.0 8.825182671155984e-06 -1.404754303473162e-06 1.1683494993662647e-06 2.3640480410689305e-07 -4.709573094641776e-06 0.0 0.0
0.0 4.0173331700224596e-05 -1.4242842107161296e-05 1.1587887262848505e-05 2.6549548443128216e-06 -3.6634013482294696e-05 0.0 0.0
0.0 0.00020786106296973513 -0.00011499242652100977 9.252621491844798e-05 2.2466211602561768e-05 -0.0002280355721208631 0.0 0.0
0.0 0.0009679692045561113 -0.000663285787039071 0.0005432434755471112 0.00012004231149195978 -0.0009606768151026695 0.0 0.0
0.0 0.002815901228753365 -0.002125786965748683 0.0018114913991186044 0.00031429556663007785 -0.002379381495726436 0.0 0.0
0.0 0.005812793823253335 -0.004576265911592116 0.0040707563399164665 0.0005055095716756499 -0.004355328789263583 0.0 0.0
0.0 0.009687410599212024 -0.007818597735133504 0.007178800139775532 0.0006397975953579701 -0.006701986505999824 0.0 0.0
0.0 0.01424681058662871 -0.011623640721424784 0.01089455823313351 0.0007290824882912763 -0.009120103779797379 0.0 0.0
0.0 0.019369850021678 -0.015904892916457906 0.015104800573766695 0.0008000923426912084 -0.011427719326043181 0.0 0.0
0.0 0.025095448030811734 -0.020694113084090485 0.0198318785426903 0.0008622345414001783 -0.013655470139957203 0.0 0.0
0.0 0.0314622904322098 -0.026078384300815258 0.025155853203024697 0.0009225310977905644 -0.015919666078701475 0.0 0.0
0.0 0.03859395638952745 -0.032059333796067804 0.031073500476745772 0.0009858333193220124 -0.018460232155874917 0.0 0.0
0.0 0.046240398685915465 -0.03839366079333539 0.03733657720785862 0.0010570835854767503 -0.021683073596908145 0.0 0.0
0.0 0.05357584392971506 -0.04439034581850956 0.043250443830940885 0.001139901987568671 -0.02578757231661796 0.0 0.0
0.0 0.059039949471998664 -0.04866782275167303 0.04742930648635207 0.001238516265320904 -0.030056065418941638 0.0 0.0
0.0 0.05958911566548379 -0.04882286046423941 0.04744761434227139 0.001375246121967998 -0.03226191368565197 0.0 0.0
0.0 0.050025577545390026 -0.04065942136537023 0.03907176945146901 0.0015876519139012269 -0.028925544076336653 0.0 0.0
0.0 0.050025577545393184 -0.040659421365367175 0.03907176945146569 0.0015876519139014808 0.028925544076372232 0.0 0.0
0.0 0.059589115665481696 -0.04882286046423066 0.0474476143422626 0.0013752461219680365 0.03226191368569706 0.0 0.0
0.0 0.05903994947198633 -0.04866782275165642 0.04742930648633667 0.0012385162653197274 0.030056065418976232 0.0 0.0
0.0 0.053575843929687436 -0.04439034581848351 0.04325044383091573 0.001139901987567768 0.025787572316625575 0.0 0.0
0.0 0.04624039868587773 -0.038393660793302684 0.03733657720782627 0.0010570835854764112 0.02168307359689943 0.0 0.0
0.0 0.03859395638948966 -0.032059333796035684 0.031073500476714068 0.000985833319321608 0.018460232155862094 0.0 0.0
0.0 0.03146229043217284 -0.026078384300784133 0.025155853202994072 0.0009225310977900606 0.015919666078686452 0.0 0.0
0.0 0.025095448030774164 -0.020694113084058365 0.01983187854265851 0.0008622345413998587 0.0136554701399452 0.0 0.0
0.0 0.019369850021642925 -0.01590489291642832 0.015104800573737698 0.0008000923426906191 0.011427719326026634 0.0 0.0
0.0 0.014246810586596412 -0.011623640721398432 0.010894558233108007 0.0007290824882904203 0.009120103779776938 0.0 0.0
0.0 0.009687410599183644 -0.007818597735110825 0.007178800139753599 0.0006397975953572238 0.006701986505979844 0.0 0.0
0.0 0.005812793823232659 -0.004576265911575643 0.004070756339901027 0.0005055095716746171 0.00435532878925069 0.0 0.0
0.0 0.002815901228740925 -0.0021257869657389386 0.0018114913991100147 0.0003142955666289234 0.002379381495717838 0.0 0.0
0.0 0.000967969204549553 -0.0006632857870347063 0.0005432434755434809 0.00012004231149122517 0.0009606768150973852 0.0 0.0
0.0 0.00020786106296715796 -0.0001149924265201278 9.252621491772762e-05 2.246621160240021e-05 0.00022803557211923856 0.0 0.0
0.0 4.017333169926977e-05 -1.4242842107202374e-05 1.1587887262879944e-05 2.654954844322381e-06 3.66340134824067e-05 0.0 0.0
0.0 8.825182670522667e-06 -1.4047543036545828e-06 1.168349499513809e-06 2.3640480414076595e-07 4.709573095227271e-06 0.0 0.0
0.0 2.097264953409312e-06 8.83659584261996e-08 -7.060413057169412e-08 -1.7761827854507373e-08 -4.0752168293768845e-07 0.0 0.0
0.0 0.0 0.0 0.0 0.0 0.0 0.0 0.0
0.0 0.0 0.0 0.0 0.0 0.0 0.0 0.0
0.0 0.0 0.0 0.0 0.0 0.0 0.0 0.0
0.0 0.0 0.0 0.0 0.0 0.0 0.0 0.0
0.0 6.301117771691601e-07 3.177133557320747e-08 -2.5610055499987776e-08 -6.161280073216576e-09 1.139376708674144e-07 0.0 0.0
0.0 9.021596166780553e-06 -2.771207181979128e-08 2.1715954883269545e-08 5.996116936532824e-09 3.507508847445623e-08 0.0 0.0
0.0 6.254763970980142e-05 -2.25106326083784e-05 1.8157566269810037e-05 4.3530663385683595e-06 -4.0519353308770874e-05 0.0 0.0
0.0 0.0004053860625006517 -0.0002788763784662143 0.00022551135421350587 5.336502425270839e-05 -0.00037055483824719615 0.0 0.0
0.0 0.0016999707719158534 -0.0012985428837507095 0.0010833740669675728 0.0002151688167831363 -0.0012767587316567812 0.0 0.0
0.0 0.004292496325644376 -0.0034662312685568787 0.003030930608226281 0.0004353006603305975 -0.0028150631798375086 0.0 0.0
0.0 0.008143715824646578 -0.006748171064714289 0.006141048970079431 0.0006071220946348584 -0.004919821879261675 0.0 0.0
0.0 0.013062514041407283 -0.010914642623309309 0.010194131191305487 0.0007205114320038205 -0.007321313792365394 0.0 0.0
0.0 0.01883398541125461 -0.015788512605105862 0.014983086724115427 0.000805425880990433 -0.009747497949334796 0.0 0.0
0.0 0.025354488885333586 -0.021300066855412494 0.020420907460747418 0.0008791593946650786 -0.012085544183998173 0.0 0.0
0.0 0.03263879312597609 -0.027483079996663037 0.02653556969687338 0.0009475102997896416 -0.014358193632552228 0.0 0.0
0.0 0.04081505373608809 -0.03443804497183402 0.03342434728657761 0.0010136976852563836 -0.016656285385945577 0.0 0.0
0.0 0.05000240149433864 -0.04221122834261219 0.041127333655513354 0.0010838946870988405 -0.019233263983603924 0.0 0.0
0.0 0.059715256498554095 -0.05054893966885465 0.04938115664618563 0.0011677830226690046 -0.022521779879951753 0.0 0.0
0.0 0.06939707945677853 -0.05854225858027887 0.05726987534658717 0.0012723832336917207 -0.026800536660420343 0.0 0.0
0.0 0.076521999279223 -0.06430281262689394 0.06290087267984343 0.0014019399470505177 -0.03149237215400186 0.0 0.0
0.0 0.0772529497518517 -0.064653500239793 0.06308943180761485 0.0015640684321781234 -0.03452001502333236 0.0 0.0
0.0 0.06605836652396951 -0.05480851513912719 0.053048576557883836 0.001759938581243356 -0.03338155702079773 0.0 0.0
0.0 0.06605836652397247 -0.054808515139124145 0.05304857655788069 0.0017599385812434314 0.03338155702083657 0.0 0.0
0.0 0.07725294975184473 -0.06465350023978042 0.06308943180760271 0.0015640684321777069 0.03452001502338059 0.0 0.0
0.0 0.07652199927919832 -0.06430281262686802 0.0629008726798177 0.0014019399470503212 0.031492372154036614 0.0 0.0
0.0 0.06939707945673854 -0.05854225858024288 0.057269875346550696 0.0012723832336921361 0.02680053666042794 0.0 0.0
0.0 0.059715256498506245 -0.050548939668813395 0.04938115664614405 0.0011677830226693134 0.022521779879943478 0.0 0.0
0.0 0.050002401494291485 -0.04221122834257158 0.041127333655473046 0.0010838946870985547 0.01923326398359248 0.0 0.0
0.0 0.040815053736042134 -0.0344380449717946 0.03342434728653865 0.0010136976852559516 0.016656285385931002 0.0 0.0
0.0 0.03263879312593061 -0.02748307999662367 0.026535569696834595 0.0009475102997890685 0.014358193632540074 0.0 0.0
0.0 0.025354488885286672 -0.021300066855372557 0.020420907460707644 0.0008791593946649015 0.012085544183980688 0.0 0.0
0.0 0.018833985411210872 -0.01578851260506948 0.014983086724079223 0.0008054258809902572 0.009747497949312293 0.0 0.0
0.0 0.013062514041371119 -0.010914642623279189 0.01019413119127591 0.0007205114320032919 0.007321313792343565 0.0 0.0
0.0 0.008143715824620866 -0.006748171064692795 0.0061410489700586 0.0006071220946341993 0.004919821879248314 0.0 0.0
0.0 0.004292496325625576 -0.003466231268541415 0.0030309306082119377 0.00043530066032947866 0.0028150631798270443 0.0 0.0
0.0 0.0016999707719042487 -0.0012985428837418518 0.0010833740669599734 0.00021516881678187834 0.0012767587316491749 0.0 0.0
0.0 0.00040538606249611775 -0.0002788763784636311 0.00022551135421138203 5.336502425224911e-05 0.00037055483824393785 0.0 0.0
0.0 6.2547639708915e-05 -2.251063260856149e-05 1.8157566269949e-05 4.353066338612389e-06 4.0519353309046295e-05 0.0 0.0
0.0 9.021596166151946e-06 -2.7712071955326768e-08 2.1715954991121827e-08 5.9961169642155815e-09 -3.507508815115921e-08 0.0 0.0
0.0 6.301117768796378e-07 3.177133555832444e-08 -2.5610055487985994e-08 -6.161280070339225e-09 -1.1393767081387647e-07 0.0 0.0
0.0 0.0 0.0 0.0 0.0 0.0 0.0 0.0
0.0 0.0 0.0 0.0 0.0 0.0 0.0 0.0
0.0 0.0 0.0 0.0 0.0 0.0 0.0 0.0
0.0 0.0 0.0 0.0 0.0 0.0 0.0 0.0
0.0 9.159772724021529e-07 5.630253744311479e-08 -4.536700834069255e-08 -1.0935529102421052e-08 1.5681455061216043e-07 0.0 0.0
0.0 5.985379810862231e-06 -1.3083786988181922e-06 1.049832921686329e-06 2.5854577713190466e-07 -2.3906504149903566e-06 0.0 0.0
0.0 0.00010181937906584135 -5.835113320310194e-05 4.6808139949930635e-05 1.1542993253171326e-05 -7.568718938744898e-05 0.0 0.0
0.0 0.0007603032161369895 -0.0005684330011362221 0.0004633841583582459 0.00010504884277797653 -0.0005135672117491683 0.0 0.0
0.0 0.002661338930638812 -0.0021215151894943226 0.0018061002555101605 0.00031541493398416206 -0.0014676292966667264 0.0 0.0
0.0 0.005865681519342787 -0.004979846630850061 0.004448362854957599 0.000531483775892463 -0.003019499819125367 0.0 0.0
0.0 0.01056507899507229 -0.00902234548741927 0.008345019541304111 0.0006773259461151588 -0.00505408200336443 0.0 0.0
0.0 0.01651206687022814 -0.014079110521728156 0.013298226410859667 0.0007808841108684979 -0.007324401611638712 0.0 0.0
0.0 0.023494768516691363 -0.02001713933076489 0.019149723686324296 0.0008674156444405819 -0.00964596970974096 0.0 0.0
0.0 0.03139546764479711 -0.02676629939104298 0.025819269532264662 0.0009470298587782976 -0.011885822342912892 0.0 0.0
0.0 0.04031707219526334 -0.034354293655862324 0.033331191457089945 0.0010231021987723702 -0.014077833186916173 0.0 0.0
0.0 0.050178757810023115 -0.0428820789432533 0.04178554390949067 0.0010965350337626286 -0.016313847003834717 0.0 0.0
0.0 0.06129143962416634 -0.052409330347953205 0.051236099863345014 0.0011732304846081847 -0.01870450286968743 0.0 0.0
0.0 0.07338458656364578 -0.06268156951838173 0.06141300581892721 0.0012685636994545263 -0.021600349525216903 0.0 0.0
0.0 0.08492930986837288 -0.07261667310386612 0.07122218786268018 0.0013944852411858794 -0.025525531120481063 0.0 0.0
0.0 0.09350394206703777 -0.07980952188086635 0.0782570287230285 0.0015524931578378043 -0.030375170758180227 0.0 0.0
0.0 0.09462887119514815 -0.08037887525894752 0.07864844262756637 0.0017304326313811083 -0.03488155499968176 0.0 0.0
0.0 0.08245568602515557 -0.06907109841301388 0.06715513189885998 0.0019159665141538801 -0.037597541590679226 0.0 0.0
0.0 0.08245568602515613 -0.06907109841300921 0.06715513189885552 0.0019159665141536407 0.037597541590718 0.0 0.0
0.0 0.0946288711951302 -0.08037887525892723 0.07864844262754538 0.0017304326313817816 0.034881554999728434 0.0 0.0
0.0 0.09350394206700395 -0.07980952188083365 0.0782570287229955 0.0015524931578381161 0.03037517075821435 0.0 0.0
0.0 0.0849293098683278 -0.07261667310382554 0.07122218786264012 0.001394485241185374 0.025525531120490635 0.0 0.0
0.0 0.07338458656359222 -0.06268156951833465 0.06141300581888124 0.0012685636994533849 0.021600349525212923 0.0 0.0
0.0 0.06129143962411063 -0.05240933034790456 0.051236099863297344 0.0011732304846072247 0.018704502869679018 0.0 0.0
0.0 0.05017875780996853 -0.04288207894320597 0.04178554390944399 0.0010965350337619653 0.016313847003822816 0.0 0.0
0.0 0.040317072195209434 -0.03435429365581534 0.03333119145704366 0.0010231021987716594 0.0140778331869036 0.0 0.0
0.0 0.031395467644741416 -0.026766299390994792 0.025819269532216912 0.0009470298587778749 0.011885822342897218 0.0 0.0
0.0 0.023494768516639425 -0.020017139330720902 0.019149723686280658 0.0008674156444402519 0.009645969709718307 0.0 0.0
0.0 0.016512066870185388 -0.01407911052169197 0.013298226410824118 0.000780884110867846 0.007324401611618062 0.0 0.0
0.0 0.010565078995039532 -0.00902234548739104 0.008345019541276713 0.0006773259461143262 0.005054082003350396 0.0 0.0
0.0 0.005865681519320608 -0.0049798466308310614 0.004448362854939667 0.0005314837758913928 0.0030194998191149735 0.0 0.0
0.0 0.0026613389306258104 -0.002121515189483866 0.0018061002555008233 0.00031541493398304295 0.0014676292966599555 0.0 0.0
0.0 0.0007603032161305301 -0.0005684330011316862 0.00046338415835448437 0.0001050488427772017 0.0005135672117453606 0.0 0.0
0.0 0.00010181937906444954 -5.8351133202914096e-05 4.6808139949762604e-05 1.1542993253151494e-05 7.56871893871532e-05 0.0 0.0
0.0 5.985379810647025e-06 -1.3083786990766327e-06 1.049832921894003e-06 2.585457771826072e-07 2.390650415480472e-06 0.0 0.0
0.0 9.159772720464821e-07 5.630253742091469e-08 -4.5367008322703315e-08 -1.0935529098212496e-08 -1.5681455054918204e-07 0.0 0.0
0.0 0.0 0.0 0.0 0.0 0.0 0.0 0.0
0.0 0.0 0.0 0.0 0.0 0.0 0.0 0.0
0.0 0.0 0.0 0.0 0.0 0.0 0.0 0.0
0.0 0.0 0.0 0.0 0.0 0.0 0.0 0.0
0.0 0.0 0.0 0.0 0.0 0.0 0.0 0.0
0.0 5.239615665637993e-06 -1.6444080179614165e-06 1.2971596727590485e-06 3.472483452023867e-07 -2.190617827131858e-06 0.0 0.0
0.0 0.00019272792331523266 -0.0001298880891983562 0.0001043208951482763 2.556719405007998e-05 -0.00011812755787220953 0.0 0.0
0.0 0.0012783451374449534 -0.0009931419238880103 0.0008202049294133237 0.00017293699447468692 -0.0006081058466234418 0.0 0.0
0.0 0.0035918367875721526 -0.0031146984965946195 0.002704448795217553 0.00041024970137706744 -0.0015357289667975113 0.0 0.0
0.0 0.007545060958174439 -0.006584934688897297 0.005983757288859072 0.0006011774000382237 -0.002937989186922072 0.0 0.0
0.0 0.013092722136720395 -0.011341032905515486 0.010611485958919366 0.0007295469465961135 -0.0047226627406493134 0.0 0.0
0.0 0.020015584615003357 -0.017280791008513954 0.016450844390674024 0.0008299466178399392 -0.006753720364394188 0.0 0.0
0.0 0.028184375478545347 -0.024279165135088526 0.023358638957001757 0.0009205261780867596 -0.008832924038783782 0.0 0.0
0.0 0.03750301434991714 -0.03227251001709981 0.03126497865517907 0.0010075313619207268 -0.010845647320377218 0.0 0.0
0.0 0.04797344562827513 -0.041281694676271886 0.04018974318164491 0.0010919514946269517 -0.012844191019532533 0.0 0.0
0.0 0.059719936746709536 -0.051377104234658376 0.050202117176600905 0.0011749870580574696 -0.014876996492448833 0.0 0.0
0.0 0.07273349802899133 -0.06258706733507341 0.061327773287781016 0.0012592940472923961 -0.016932451905844456 0.0 0.0
0.0 0.08651433870746933 -0.07465464003159979 0.07329410195334458 0.0013605380782551828 -0.01910805408638091 0.0 0.0
0.0 0.10017976071575499 -0.08642406438153544 0.08492033453738818 0.0015037298441472342 -0.02204045585811888 0.0 0.0
0.0 0.11043560453459675 -0.09511388313143758 0.093427323406945 0.001686559724492573 -0.02671109817602197 0.0 0.0
0.0 0.11222964147597639 -0.09619655283227481 0.09431250585781607 0.0018840469744587029 -0.0333952845705911 0.0 0.0
0.0 0.09929048270865229 -0.08379284534950561 0.08172341599042923 0.002069429359076332 -0.04158548046759855 0.0 0.0
0.0 0.09929048270864732 -0.08379284534949681 0.08172341599042021 0.0020694293590766293 0.04158548046763559 0.0 0.0
0.0 0.11222964147595474 -0.09619655283225208 0.09431250585779362 0.0018840469744584524 0.03339528457063404 0.0 0.0
0.0 0.11043560453455728 -0.095113883131401 0.09342732340690856 0.0016865597244923596 0.02671109817605318 0.0 0.0
0.0 0.1001797607157034 -0.08642406438148977 0.08492033453734316 0.0015037298441466153 0.022040455858126883 0.0 0.0
0.0 0.0865143387074071 -0.07465464003154576 0.07329410195329061 0.0013605380782551108 0.019108054086377665 0.0 0.0
0.0 0.0727334980289244 -0.06258706733501546 0.061327773287723236 0.0012592940472922354 0.016932451905837767 0.0 0.0
0.0 0.059719936746643505 -0.05137710423460136 0.05020211717654418 0.0011749870580571396 0.014876996492438998 0.0 0.0
0.0 0.04797344562821057 -0.04128169467621585 0.040189743181589556 0.0010919514946262996 0.012844191019521129 0.0 0.0
0.0 0.03750301434985398 -0.03227251001704477 0.03126497865512477 0.0010075313619200314 0.010845647320363713 0.0 0.0
0.0 0.028184375478489156 -0.02427916513503993 0.023358638956953767 0.0009205261780861481 0.008832924038764725 0.0 0.0
0.0 0.020015584614954517 -0.017280791008471887 0.016450844390632307 0.0008299466178395715 0.006753720364375911 0.0 0.0
0.0 0.01309272213668437 -0.011341032905484003 0.010611485958888384 0.0007295469465956153 0.004722662740637645 0.0 0.0
0.0 0.007545060958147762 -0.006584934688873895 0.005983757288836431 0.0006011774000374622 0.002937989186912359 0.0 0.0
0.0 0.0035918367875555275 -0.0031146984965802283 0.0027044487952043623 0.000410249701375867 0.0015357289667908497 0.0 0.0
0.0 0.0012783451374355796 -0.0009931419238809426 0.0008202049294072952 0.00017293699447364693 0.0006081058466193544 0.0 0.0
0.0 0.00019272792331291355 -0.00012988808919740593 0.0001043208951475008 2.5567194049904957e-05 0.00011812755787144206 0.0 0.0
0.0 5.239615665100806e-06 -1.6444080181314527e-06 1.2971596728922811e-06 3.472483452391843e-07 2.1906178273653615e-06 0.0 0.0
0.0 0.0 0.0 0.0 0.0 0.0 0.0 0.0
0.0 0.0 0.0 0.0 0.0 0.0 0.0 0.0
0.0 0.0 0.0 0.0 0.0 0.0 0.0 0.0
0.0 0.0 0.0 0.0 0.0 0.0 0.0 0.0
0.0 0.0 0.0 0.0 0.0 0.0 0.0 0.0
0.0 0.0 0.0 0.0 0.0 0.0 0.0 0.0
0.0 7.466307137015779e-06 -3.279004454640727e-06 2.6069127196926223e-06 6.720917349480942e-07 -3.1973635599729822e-06 0.0 0.0
0.0 0.00037683604246747135 -0.00027090059033160567 0.00021786428721131922 5.303630312028642e-05 -0.0001571040387646797 0.0 0.0
0.0 0.0018959867801032967 -0.0015580242153023652 0.0013055860620100634 0.0002524381532923022 -0.0006262960856980235 0.0 0.0
0.0 0.00470722870798568 -0.00419819168675318 0.003709100379043759 0.0004890913077094205 -0.001392221775747436 0.0 0.0
0.0 0.009336868804314754 -0.008226248566439595 0.007573522667302426 0.0006527258991371699 -0.002513392304356991 0.0 0.0
0.0 0.015658830593984322 -0.013681712952911746 0.012911181209568424 0.0007705317433433136 -0.003963044779675009 0.0 0.0
0.0 0.02355689574416128 -0.020491571635051418 0.01962027171214465 0.0008712999229067656 -0.005623626212571229 0.0 0.0
0.0 0.03292581053443352 -0.028547552767051534 0.027580026995730523 0.0009675257713210069 -0.007330734169183701 0.0 0.0
0.0 0.04360779135014504 -0.03779226532130543 0.03673020085369975 0.0010620644676056694 -0.008980838151042758 0.0 0.0
0.0 0.05578391319321409 -0.04823384407070086 0.047078083424848094 0.0011557606458527376 -0.010629030656146288 0.0 0.0
0.0 0.06915076304512253 -0.05990067399389295 0.05865110649107121 0.001249567502821737 -0.012354484930175502 0.0 0.0
0.0 0.08389434772378745 -0.07272005963840075 0.07137526724903527 0.0013447923893655112 -0.014009766094318832 0.0 0.0
0.0 0.09960956989856071 -0.0863572581087845 0.08490723719491935 0.0014500209138651374 -0.015286917340463248 0.0 0.0
0.0 0.11503079084756891 -0.09974782467451708 0.09815652244138962 0.0015913022331274273 -0.01663073594071347 0.0 0.0
0.0 0.12709820255743928 -0.11012078430286328 0.10832003627654367 0.0018007480263195262 -0.020475160451715362 0.0 0.0
0.0 0.1301597371710958 -0.11228711719028539 0.1102585395058709 0.002028577684414496 -0.02965989010561741 0.0 0.0
0.0 0.11722020040911699 -0.09936762981236516 0.0971341990357371 0.00223343077662803 -0.045057333582970045 0.0 0.0
0.0 0.11722020040911164 -0.09936762981235706 0.0971341990357294 0.0022334307766277263 0.04505733358299885 0.0 0.0
0.0 0.1301597371710708 -0.11228711719026088 0.11025853950584713 0.0020285776844137437 0.029659890105655333 0.0 0.0
0.0 0.12709820255739285 -0.11012078430282116 0.10832003627650262 0.0018007480263184964 0.02047516045174348 0.0 0.0
0.0 0.11503079084750684 -0.09974782467446261 0.09815652244133606 0.0015913022331265874 0.01663073594071965 0.0 0.0
0.0 0.09960956989849216 -0.08635725810872454 0.08490723719486071 0.0014500209138638362 0.01528691734046142 0.0 0.0
0.0 0.08389434772371714 -0.07272005963833901 0.07137526724897508 0.0013447923893639558 0.014009766094317172 0.0 0.0
0.0 0.06915076304504833 -0.05990067399382848 0.058651106491007424 0.0012495675028210327 0.0123544849301685 0.0 0.0
0.0 0.05578391319313876 -0.04823384407063558 0.04707808342478313 0.0011557606458524783 0.010629030656136502 0.0 0.0
0.0 0.043607791350074254 -0.03779226532124392 0.03673020085363893 0.0010620644676049911 0.008980838151034355 0.0 0.0
0.0 0.03292581053437002 -0.02854755276699599 0.02758002699567586 0.0009675257713201318 0.007330734169168659 0.0 0.0
0.0 0.023556895744106916 -0.020491571635003997 0.01962027171209787 0.0008712999229061361 0.005623626212555766 0.0 0.0
0.0 0.015658830593941457 -0.013681712952874117 0.012911181209531414 0.0007705317433427089 0.0039630447796644 0.0 0.0
0.0 0.009336868804283471 -0.008226248566411826 0.0075735226672754745 0.0006527258991363522 0.0025133923043486233 0.0 0.0
0.0 0.004707228707965812 -0.004198191686735395 0.003709100379027089 0.0004890913077083064 0.001392221775741324 0.0 0.0
0.0 0.001895986780092472 -0.0015580242152933759 0.0013055860620022014 0.0002524381532911736 0.0006262960856943953 0.0 0.0
0.0 0.0003768360424641977 -0.00027090059032966896 0.0002178642872097355 5.303630311993364e-05 0.00015710403876366944 0.0 0.0
0.0 7.466307136490371e-06 -3.279004454898271e-06 2.606912719894861e-06 6.720917350034172e-07 3.19736356022532e-06 0.0 0.0
0.0 0.0 0.0 0.0 0.0 0.0 0.0 0.0
0.0 0.0 0.0 0.0 0.0 0.0 0.0 0.0
0.0 0.0 0.0 0.0 0.0 0.0 0.0 0.0
0.0 0.0 0.0 0.0 0.0 0.0 0.0 0.0
0.0 0.0 0.0 0.0 0.0 0.0 0.0 0.0
0.0 0.0 0.0 0.0 0.0 0.0 0.0 0.0
0.0 1.7635203188060435e-05 -8.178762194625447e-06 6.541330141360533e-06 1.6374320532649438e-06 -5.1865361052741475e-06 0.0 0.0
0.0 0.0006887545631927003 -0.000509054601279228 0.00041286249882253477 9.619210245669335e-05 -0.0001690330274737845 0.0 0.0
0.0 0.0024664526462419034 -0.002249253980471156 0.001913160617006325 0.0003360933634648295 -0.0005151410478673134 0.0 0.0
0.0 0.005941274696989166 -0.005325756823342409 0.004777131424719306 0.0005486253986231044 -0.0010318657205002828 0.0 0.0
0.0 0.0111668139077525 -0.009886862329753172 0.00919409100378857 0.0006927713259646106 -0.0017865971339896861 0.0 0.0
0.0 0.018245620052933863 -0.016019278010632694 0.015215895533470816 0.0008033824771618797 -0.0027828082189232765 0.0 0.0
0.0 0.02710771662877255 -0.023686382285604077 0.022779719383679346 0.0009066629019247243 -0.003943071616543803 0.0 0.0
0.0 0.037656669320341854 -0.03279852726815157 0.03178907867512712 0.001009448593024454 -0.005136426422827134 0.0 0.0
0.0 0.04987083234707536 -0.043299323336710875 0.042187316514877976 0.0011120068218328982 -0.006291284170367761 0.0 0.0
0.0 0.06345150660111679 -0.05518508432881019 0.05396990998528466 0.0012151743435255252 -0.007478185293339505 0.0 0.0
0.0 0.07864880215261365 -0.068414269743796 0.06709379746925817 0.0013204722745377736 -0.008711725047213828 0.0 0.0
0.0 0.09522284189491916 -0.08278762395793084 0.08135819409284467 0.0014294298650861402 -0.009823337683909852 0.0 0.0
0.0 0.1125043704814763 -0.09780100483748536 0.09625806304103057 0.00154294179645479 -0.010406144079599219 0.0 0.0
0.0 0.12930687159275112 -0.1124225736202899 0.11075118565518376 0.0016713879651062034 -0.010225156236883677 0.0 0.0
0.0 0.14316960726918854 -0.1244410951269388 0.12258536124383657 0.0018557338831022123 -0.011624675876599764 0.0 0.0
0.0 0.14862538274750312 -0.1287703248536248 0.12659617991287908 0.002174144940745677 -0.022277722178138868 0.0 0.0
0.0 0.1367536081816291 -0.11640095022301158 0.11397518264804221 0.002425767574969348 -0.04726756078563393 0.0 0.0
0.0 0.1367536081816202 -0.11640095022300169 0.11397518264803254 0.0024257675749691622 0.04726756078565443 0.0 0.0
0.0 0.1486253827474685 -0.12877032485359352 0.1265961799128479 0.002174144940745606 0.022277722178167654 0.0 0.0
0.0 0.14316960726913291 -0.12444109512688996 0.12258536124378816 0.0018557338831017797 0.011624675876619776 0.0 0.0
0.0 0.12930687159268223 -0.1124225736202297 0.11075118565512451 0.0016713879651051636 0.010225156236886029 0.0 0.0
0.0 0.11250437048139755 -0.09780100483741702 0.09625806304096281 0.0015429417964542115 0.010406144079596981 0.0 0.0
0.0 0.09522284189483483 -0.08278762395785776 0.08135819409277184 0.0014294298650859316 0.009823337683908053 0.0 0.0
0.0 0.07864880215253175 -0.06841426974372504 0.0670937974691877 0.0013204722745373467 0.008711725047208792 0.0 0.0
0.0 0.06345150660103506 -0.055185084328739024 0.053969909985214615 0.0012151743435244232 0.007478185293332797 0.0 0.0
0.0 0.049870832346995964 -0.04329932333664138 0.04218731651480963 0.0011120068218317429 0.006291284170362043 0.0 0.0
0.0 0.037656669320271785 -0.03279852726809046 0.031789078675067 0.0010094485930234372 0.005136426422816689 0.0 0.0
0.0 0.027107716628713294 -0.023686382285552234 0.02277971938362837 0.0009066629019238801 0.0039430716165331494 0.0 0.0
0.0 0.018245620052886134 -0.0160192780105904 0.015215895533429159 0.0008033824771612432 0.002782808218916925 0.0 0.0
0.0 0.011166813907717489 -0.009886862329722017 0.009194091003758145 0.0006927713259638665 0.0017865971339841615 0.0 0.0
0.0 0.0059412746969663725 -0.005325756823321767 0.004777131424699566 0.0005486253986221992 0.0010318657204960076 0.0 0.0
0.0 0.0024664526462305943 -0.0022492539804607565 0.0019131606169970803 0.00033609336346367743 0.0005151410478650628 0.0 0.0
0.0 0.0006887545631875307 -0.0005090546012755195 0.00041286249881945455 9.619210245606469e-05 0.00016903302747272098 0.0 0.0
0.0 1.7635203187709618e-05 -8.178762195201221e-06 6.5413301417963985e-06 1.6374320534047775e-06 5.186536105535663e-06 0.0 0.0
0.0 0.0 0.0 0.0 0.0 0.0 0.0 0.0
0.0 0.0 0.0 0.0 0.0 0.0 0.0 0.0
0.0 0.0 0.0 0.0 0.0 0.0 0.0 0.0
0.0 0.0 0.0 0.0 0.0 0.0 0.0 0.0
0.0 0.0 0.0 0.0 0.0 0.0 0.0 0.0
0.0 0.0 0.0 0.0 0.0 0.0 0.0 0.0
0.0 6.124331567411342e-05 -4.314568494260025e-05 3.407678116285145e-05 9.068903779748945e-06 -1.1465745847740375e-05 0.0 0.0
0.0 0.001139714639780682 -0.0008479218513336765 0.0006941486054510104 0.00015377324588266574 -0.00011089368064358789 0.0 0.0
0.0 0.0032775091566216216 -0.002988993845774083 0.002580258068186748 0.00040873577758733493 -0.00024656803086668655 0.0 0.0
0.0 0.007220253030396168 -0.006479795691744892 0.005884602865816336 0.0005951928259285529 -0.00045652742887147954 0.0 0.0
0.0 0.013035181380018083 -0.011543829211766107 0.01082008470691311 0.0007237445048529947 -0.0007614037290575551 0.0 0.0
0.0 0.02085754256731774 -0.018329520042480514 0.017498835204741776 0.0008306848377387338 -0.0011903368095285915 0.0 0.0
0.0 0.03069778190216627 -0.026839136738061323 0.02590189906953137 0.0009372376685299565 -0.0017110685351363608 0.0 0.0
0.0 0.0425035268613002 -0.03700825101333433 0.035961598323656516 0.001046652689677806 -0.0022535382395956613 0.0 0.0
0.0 0.055921818253454714 -0.04877878936566885 0.047620694714233545 0.001158094651435279 -0.0027998021625615537 0.0 0.0
0.0 0.07119998016354294 -0.06209756495515377 0.06082676064654921 0.001270804308604559 -0.0033562206878361145 0.0 0.0
0.0 0.08821934738024628 -0.07686552917080644 0.07547826758419082 0.001387261586615584 -0.0039014736655055213 0.0 0.0
0.0 0.10654744025918725 -0.09276893688248292 0.0912589186407533 0.0015100182417296273 -0.004342463864335596 0.0 0.0
0.0 0.12537035231451477 -0.10908333970033561 0.10744535757624962 0.0016379821240859473 -0.004409688194644957 0.0 0.0
0.0 0.1432385240529387 -0.12458119509454747 0.12281548404761736 0.0017657110469300615 -0.0036857148512058828 0.0 0.0
0.0 0.15805537635772 -0.1374695057010359 0.13557000343023268 0.001899502270803218 -0.0024586267226410813 0.0 0.0
0.0 0.16639071242675318 -0.144575999270247 0.1424618209366006 0.0021141783336463406 -0.008103387601786985 0.0 0.0
0.0 0.15934666573196335 -0.13655359368414424 0.13376039218653862 0.0027932014976055613 -0.04365284234198336 0.0 0.0
0.0 0.15934666573194928 -0.1365535936841314 0.13376039218652575 0.002793201497605584 0.043652842341991724 0.0 0.0
0.0 0.16639071242671158 -0.1445759992702108 0.14246182093656434 0.002114178333646381 0.008103387601800686 0.0 0.0
0.0 0.1580553763576534 -0.13746950570097818 0.13557000343017522 0.0018995022708029117 0.0024586267226508586 0.0 0.0
0.0 0.14323852405285567 -0.12458119509447568 0.12281548404754566 0.0017657110469299917 0.0036857148512045176 0.0 0.0
0.0 0.12537035231442736 -0.10908333970025982 0.10744535757617427 0.001637982124085545 0.004409688194643822 0.0 0.0
0.0 0.10654744025909686 -0.09276893688240422 0.09125891864067555 0.0015100182417285837 0.004342463864336104 0.0 0.0
0.0 0.08821934738015574 -0.0768655291707277 0.07547826758411313 0.0013872615866145183 0.0039014736655037944 0.0 0.0
0.0 0.07119998016344989 -0.06209756495507313 0.06082676064646891 0.0012708043086041899 0.003356220687833443 0.0 0.0
0.0 0.05592181825336936 -0.04877878936559465 0.04762069471416007 0.0011580946514345473 0.002799802162559528 0.0 0.0
0.0 0.04250352686122098 -0.03700825101326535 0.035961598323588195 0.0010466526896771625 0.0022535382395899453 0.0 0.0
0.0 0.03069778190209938 -0.02683913673800329 0.025901899069473926 0.0009372376685293772 0.0017110685351305356 0.0 0.0
0.0 0.02085754256726484 -0.01832952004243401 0.01749883520469578 0.0008306848377382313 0.0011903368095266095 0.0 0.0
0.0 0.013035181379979995 -0.011543829211732108 0.010820084706879661 0.0007237445048524434 0.0007614037290548433 0.0 0.0
0.0 0.0072202530303698215 -0.006479795691721129 0.005884602865793389 0.0005951928259277368 0.00045652742886994105 0.0 0.0
0.0 0.003277509156607188 -0.002988993845760568 0.002580258068174272 0.00040873577758629453 0.0002465680308654728 0.0 0.0
0.0 0.001139714639772914 -0.0008479218513276118 0.0006941486054458802 0.0001537732458817323 0.00011089368064303213 0.0 0.0
0.0 6.124331567292077e-05 -4.3145684942206944e-05 3.4076781162521005e-05 9.06890377968592e-06 1.1465745847573677e-05 0.0 0.0
0.0 0.0 0.0 0.0 0.0 0.0 0.0 0.0
0.0 0.0 0.0 0.0 0.0 0.0 0.0 0.0
0.0 0.0 0.0 0.0 0.0 0.0 0.0 0.0