# vtk DataFile Version 3.0
Some data
ASCII
DATASET UNSTRUCTURED_GRID
POINTS 861 float
0.0 0.0 0.0
0.4 0.0 0.0
0.8 0.0 0.0
1.2000000000000002 0.0 0.0
1.6 0.0 0.0
2.0 0.0 0.0
2.4000000000000004 0.0 0.0
2.8000000000000003 0.0 0.0
3.2 0.0 0.0
3.6 0.0 0.0
4.0 0.0 0.0
4.4 0.0 0.0
4.800000000000001 0.0 0.0
5.2 0.0 0.0
5.6000000000000005 0.0 0.0
6.0 0.0 0.0
6.4 0.0 0.0
6.800000000000001 0.0 0.0
7.2 0.0 0.0
7.6000000000000005 0.0 0.0
8.0 0.0 0.0
8.4 0.0 0.0
8.8 0.0 0.0
9.200000000000001 0.0 0.0
9.600000000000001 0.0 0.0
10.0 0.0 0.0
10.4 0.0 0.0
10.8 0.0 0.0
11.200000000000001 0.0 0.0
11.600000000000001 0.0 0.0
12.0 0.0 0.0
12.4 0.0 0.0
12.8 0.0 0.0
13.200000000000001 0.0 0.0
13.600000000000001 0.0 0.0
14.0 0.0 0.0
14.4 0.0 0.0
14.8 0.0 0.0
15.200000000000001 0.0 0.0
15.600000000000001 0.0 0.0
16.0 0.0 0.0
0.0 0.1 0.0
0.4 0.1 0.0
0.8 0.1 0.0
1.2000000000000002 0.1 0.0
1.6 0.1 0.0
2.0 0.1 0.0
2.4000000000000004 0.1 0.0
2.8000000000000003 0.1 0.0
3.2 0.1 0.0
3.6 0.1 0.0
4.0 0.1 0.0
4.4 0.1 0.0
4.800000000000001 0.1 0.0
5.2 0.1 0.0
5.6000000000000005 0.1 0.0
6.0 0.1 0.0
6.4 0.1 0.0
6.800000000000001 0.1 0.0
7.2 0.1 0.0
7.6000000000000005 0.1 0.0
8.0 0.1 0.0
8.4 0.1 0.0
8.8 0.1 0.0
9.200000000000001 0.1 0.0
9.600000000000001 0.1 0.0
10.0 0.1 0.0
10.4 0.1 0.0
10.8 0.1 0.0
11.200000000000001 0.1 0.0
11.600000000000001 0.1 0.0
12.0 0.1 0.0
12.4 0.1 0.0
12.8 0.1 0.0
13.200000000000001 0.1 0.0
13.600000000000001 0.1 0.0
14.0 0.1 0.0
14.4 0.1 0.0
14.8 0.1 0.0
15.200000000000001 0.1 0.0
15.600000000000001 0.1 0.0
16.0 0.1 0.0
0.0 0.2 0.0
0.4 0.2 0.0
0.8 0.2 0.0
1.2000000000000002 0.2 0.0
1.6 0.2 0.0
2.0 0.2 0.0
2.4000000000000004 0.2 0.0
2.8000000000000003 0.2 0.0
3.2 0.2 0.0
3.6 0.2 0.0
4.0 0.2 0.0
4.4 0.2 0.0
4.800000000000001 0.2 0.0
5.2 0.2 0.0
5.6000000000000005 0.2 0.0
6.0 0.2 0.0
6.4 0.2 0.0
6.800000000000001 0.2 0.0
7.2 0.2 0.0
7.6000000000000005 0.2 0.0
8.0 0.2 0.0
8.4 0.2 0.0
8.8 0.2 0.0
9.200000000000001 0.2 0.0
9.600000000000001 0.2 0.0
10.0 0.2 0.0
10.4 0.2 0.0
10.8 0.2 0.0
11.200000000000001 0.2 0.0
11.600000000000001 0.2 0.0
12.0 0.2 0.0
12.4 0.2 0.0
12.8 0.2 0.0
13.200000000000001 0.2 0.0
13.600000000000001 0.2 0.0
14.0 0.2 0.0
14.4 0.2 0.0
14.8 0.2 0.0
15.200000000000001 0.2 0.0
15.600000000000001 0.2 0.0
16.0 0.2 0.0
0.0 0.30000000000000004 0.0
0.4 0.30000000000000004 0.0
0.8 0.30000000000000004 0.0
1.2000000000000002 0.30000000000000004 0.0
1.6 0.30000000000000004 0.0
2.0 0.30000000000000004 0.0
2.4000000000000004 0.30000000000000004 0.0
2.8000000000000003 0.30000000000000004 0.0
3.2 0.30000000000000004 0.0
3.6 0.30000000000000004 0.0
4.0 0.30000000000000004 0.0
4.4 0.30000000000000004 0.0
4.800000000000001 0.30000000000000004 0.0
5.2 0.30000000000000004 0.0
5.6000000000000005 0.30000000000000004 0.0
6.0 0.30000000000000004 0.0
6.4 0.30000000000000004 0.0
6.800000000000001 0.30000000000000004 0.0
7.2 0.30000000000000004 0.0
7.6000000000000005 0.30000000000000004 0.0
8.0 0.30000000000000004 0.0
8.4 0.30000000000000004 0.0
8.8 0.30000000000000004 0.0
9.200000000000001 0.30000000000000004 0.0
9.600000000000001 0.30000000000000004 0.0
10.0 0.30000000000000004 0.0
10.4 0.30000000000000004 0.0
10.8 0.30000000000000004 0.0
11.200000000000001 0.30000000000000004 0.0
11.600000000000001 0.30000000000000004 0.0
12.0 0.30000000000000004 0.0
12.4 0.30000000000000004 0.0
12.8 0.30000000000000004 0.0
13.200000000000001 0.30000000000000004 0.0
13.600000000000001 0.30000000000000004 0.0
14.0 0.30000000000000004 0.0
14.4 0.30000000000000004 0.0
14.8 0.30000000000000004 0.0
15.200000000000001 0.30000000000000004 0.0
15.600000000000001 0.30000000000000004 0.0
16.0 0.30000000000000004 0.0
0.0 0.4 0.0
0.4 0.4 0.0
0.8 0.4 0.0
1.2000000000000002 0.4 0.0
1.6 0.4 0.0
2.0 0.4 0.0
2.4000000000000004 0.4 0.0
2.8000000000000003 0.4 0.0
3.2 0.4 0.0
3.6 0.4 0.0
4.0 0.4 0.0
4.4 0.4 0.0
4.800000000000001 0.4 0.0
5.2 0.4 0.0
5.6000000000000005 0.4 0.0
6.0 0.4 0.0
6.4 0.4 0.0
6.800000000000001 0.4 0.0
7.2 0.4 0.0
7.6000000000000005 0.4 0.0
8.0 0.4 0.0
8.4 0.4 0.0
8.8 0.4 0.0
9.200000000000001 0.4 0.0
9.600000000000001 0.4 0.0
10.0 0.4 0.0
10.4 0.4 0.0
10.8 0.4 0.0
11.200000000000001 0.4 0.0
11.600000000000001 0.4 0.0
12.0 0.4 0.0
12.4 0.4 0.0
12.8 0.4 0.0
13.200000000000001 0.4 0.0
13.600000000000001 0.4 0.0
14.0 0.4 0.0
14.4 0.4 0.0
14.8 0.4 0.0
15.200000000000001 0.4 0.0
15.600000000000001 0.4 0.0
16.0 0.4 0.0
0.0 0.5 0.0
0.4 0.5 0.0
0.8 0.5 0.0
1.2000000000000002 0.5 0.0
1.6 0.5 0.0
2.0 0.5 0.0
2.4000000000000004 0.5 0.0
2.8000000000000003 0.5 0.0
3.2 0.5 0.0
3.6 0.5 0.0
4.0 0.5 0.0
4.4 0.5 0.0
4.800000000000001 0.5 0.0
5.2 0.5 0.0
5.6000000000000005 0.5 0.0
6.0 0.5 0.0
6.4 0.5 0.0
6.800000000000001 0.5 0.0
7.2 0.5 0.0
7.6000000000000005 0.5 0.0
8.0 0.5 0.0
8.4 0.5 0.0
8.8 0.5 0.0
9.200000000000001 0.5 0.0
9.600000000000001 0.5 0.0
10.0 0.5 0.0
10.4 0.5 0.0
10.8 0.5 0.0
11.200000000000001 0.5 0.0
11.600000000000001 0.5 0.0
12.0 0.5 0.0
12.4 0.5 0.0
12.8 0.5 0.0
13.200000000000001 0.5 0.0
13.600000000000001 0.5 0.0
14.0 0.5 0.0
14.4 0.5 0.0
14.8 0.5 0.0
15.200000000000001 0.5 0.0
15.600000000000001 0.5 0.0
16.0 0.5 0.0
0.0 0.6000000000000001 0.0
0.4 0.6000000000000001 0.0
0.8 0.6000000000000001 0.0
1.2000000000000002 0.6000000000000001 0.0
1.6 0.6000000000000001 0.0
2.0 0.6000000000000001 0.0
2.4000000000000004 0.6000000000000001 0.0
2.8000000000000003 0.6000000000000001 0.0
3.2 0.6000000000000001 0.0
3.6 0.6000000000000001 0.0
4.0 0.6000000000000001 0.0
4.4 0.6000000000000001 0.0
4.800000000000001 0.6000000000000001 0.0
5.2 0.6000000000000001 0.0
5.6000000000000005 0.6000000000000001 0.0
6.0 0.6000000000000001 0.0
6.4 0.6000000000000001 0.0
6.800000000000001 0.6000000000000001 0.0
7.2 0.6000000000000001 0.0
7.6000000000000005 0.6000000000000001 0.0
8.0 0.6000000000000001 0.0
8.4 0.6000000000000001 0.0
8.8 0.6000000000000001 0.0
9.200000000000001 0.6000000000000001 0.0
9.600000000000001 0.6000000000000001 0.0
10.0 0.6000000000000001 0.0
10.4 0.6000000000000001 0.0
10.8 0.6000000000000001 0.0
11.200000000000001 0.6000000000000001 0.0
11.600000000000001 0.6000000000000001 0.0
12.0 0.6000000000000001 0.0
12.4 0.6000000000000001 0.0
12.8 0.6000000000000001 0.0
13.200000000000001 0.6000000000000001 0.0
13.600000000000001 0.6000000000000001 0.0
14.0 0.6000000000000001 0.0
14.4 0.6000000000000001 0.0
14.8 0.6000000000000001 0.0
15.200000000000001 0.6000000000000001 0.0
15.600000000000001 0.6000000000000001 0.0
16.0 0.6000000000000001 0.0
0.0 0.7000000000000001 0.0
0.4 0.7000000000000001 0.0
0.8 0.7000000000000001 0.0
1.2000000000000002 0.7000000000000001 0.0
1.6 0.7000000000000001 0.0
2.0 0.7000000000000001 0.0
2.4000000000000004 0.7000000000000001 0.0
2.8000000000000003 0.7000000000000001 0.0
3.2 0.7000000000000001 0.0
3.6 0.7000000000000001 0.0
4.0 0.7000000000000001 0.0
4.4 0.7000000000000001 0.0
4.800000000000001 0.7000000000000001 0.0
5.2 0.7000000000000001 0.0
5.6000000000000005 0.7000000000000001 0.0
6.0 0.7000000000000001 0.0
6.4 0.7000000000000001 0.0
6.800000000000001 0.7000000000000001 0.0
7.2 0.7000000000000001 0.0
7.6000000000000005 0.7000000000000001 0.0
8.0 0.7000000000000001 0.0
8.4 0.7000000000000001 0.0
8.8 0.7000000000000001 0.0
9.200000000000001 0.7000000000000001 0.0
9.600000000000001 0.7000000000000001 0.0
10.0 0.7000000000000001 0.0
10.4 0.7000000000000001 0.0
10.8 0.7000000000000001 0.0
11.200000000000001 0.7000000000000001 0.0
11.600000000000001 0.7000000000000001 0.0
12.0 0.7000000000000001 0.0
12.4 0.7000000000000001 0.0
12.8 0.7000000000000001 0.0
13.200000000000001 0.7000000000000001 0.0
13.600000000000001 0.7000000000000001 0.0
14.0 0.7000000000000001 0.0
14.4 0.7000000000000001 0.0
14.8 0.7000000000000001 0.0
15.200000000000001 0.7000000000000001 0.0
15.600000000000001 0.7000000000000001 0.0
16.0 0.7000000000000001 0.0
0.0 0.8 0.0
0.4 0.8 0.0
0.8 0.8 0.0
1.2000000000000002 0.8 0.0
1.6 0.8 0.0
2.0 0.8 0.0
2.4000000000000004 0.8 0.0
2.8000000000000003 0.8 0.0
3.2 0.8 0.0
3.6 0.8 0.0
4.0 0.8 0.0
4.4 0.8 0.0
4.800000000000001 0.8 0.0
5.2 0.8 0.0
5.6000000000000005 0.8 0.0
6.0 0.8 0.0
6.4 0.8 0.0
6.800000000000001 0.8 0.0
7.2 0.8 0.0
7.6000000000000005 0.8 0.0
8.0 0.8 0.0
8.4 0.8 0.0
8.8 0.8 0.0
9.200000000000001 0.8 0.0
9.600000000000001 0.8 0.0
10.0 0.8 0.0
10.4 0.8 0.0
10.8 0.8 0.0
11.200000000000001 0.8 0.0
11.600000000000001 0.8 0.0
12.0 0.8 0.0
12.4 0.8 0.0
12.8 0.8 0.0
13.200000000000001 0.8 0.0
13.600000000000001 0.8 0.0
14.0 0.8 0.0
14.4 0.8 0.0
14.8 0.8 0.0
15.200000000000001 0.8 0.0
15.600000000000001 0.8 0.0
16.0 0.8 0.0
0.0 0.9 0.0
0.4 0.9 0.0
0.8 0.9 0.0
1.2000000000000002 0.9 0.0
1.6 0.9 0.0
2.0 0.9 0.0
2.4000000000000004 0.9 0.0
2.8000000000000003 0.9 0.0
3.2 0.9 0.0
3.6 0.9 0.0
4.0 0.9 0.0
4.4 0.9 0.0
4.800000000000001 0.9 0.0
5.2 0.9 0.0
5.6000000000000005 0.9 0.0
6.0 0.9 0.0
6.4 0.9 0.0
6.800000000000001 0.9 0.0
7.2 0.9 0.0
7.6000000000000005 0.9 0.0
8.0 0.9 0.0
8.4 0.9 0.0
8.8 0.9 0.0
9.200000000000001 0.9 0.0
9.600000000000001 0.9 0.0
10.0 0.9 0.0
10.4 0.9 0.0
10.8 0.9 0.0
11.200000000000001 0.9 0.0
11.600000000000001 0.9 0.0
12.0 0.9 0.0
12.4 0.9 0.0
12.8 0.9 0.0
13.200000000000001 0.9 0.0
13.600000000000001 0.9 0.0
14.0 0.9 0.0
14.4 0.9 0.0
14.8 0.9 0.0
15.200000000000001 0.9 0.0
15.600000000000001 0.9 0.0
16.0 0.9 0.0
0.0 1.0 0.0
0.4 1.0 0.0
0.8 1.0 0.0
1.2000000000000002 1.0 0.0
1.6 1.0 0.0
2.0 1.0 0.0
2.4000000000000004 1.0 0.0
2.8000000000000003 1.0 0.0
3.2 1.0 0.0
3.6 1.0 0.0
4.0 1.0 0.0
4.4 1.0 0.0
4.800000000000001 1.0 0.0
5.2 1.0 0.0
5.6000000000000005 1.0 0.0
6.0 1.0 0.0
6.4 1.0 0.0
6.800000000000001 1.0 0.0
7.2 1.0 0.0
7.6000000000000005 1.0 0.0
8.0 1.0 0.0
8.4 1.0 0.0
8.8 1.0 0.0
9.200000000000001 1.0 0.0
9.600000000000001 1.0 0.0
10.0 1.0 0.0
10.4 1.0 0.0
10.8 1.0 0.0
11.200000000000001 1.0 0.0
11.600000000000001 1.0 0.0
12.0 1.0 0.0
12.4 1.0 0.0
12.8 1.0 0.0
13.200000000000001 1.0 0.0
13.600000000000001 1.0 0.0
14.0 1.0 0.0
14.4 1.0 0.0
14.8 1.0 0.0
15.200000000000001 1.0 0.0
15.600000000000001 1.0 0.0
16.0 1.0 0.0
0.0 1.1 0.0
0.4 1.1 0.0
0.8 1.1 0.0
1.2000000000000002 1.1 0.0
1.6 1.1 0.0
2.0 1.1 0.0
2.4000000000000004 1.1 0.0
2.8000000000000003 1.1 0.0
3.2 1.1 0.0
3.6 1.1 0.0
4.0 1.1 0.0
4.4 1.1 0.0
4.800000000000001 1.1 0.0
5.2 1.1 0.0
5.6000000000000005 1.1 0.0
6.0 1.1 0.0
6.4 1.1 0.0
6.800000000000001 1.1 0.0
7.2 1.1 0.0
7.6000000000000005 1.1 0.0
8.0 1.1 0.0
8.4 1.1 0.0
8.8 1.1 0.0
9.200000000000001 1.1 0.0
9.600000000000001 1.1 0.0
10.0 1.1 0.0
10.4 1.1 0.0
10.8 1.1 0.0
11.200000000000001 1.1 0.0
11.600000000000001 1.1 0.0
12.0 1.1 0.0
12.4 1.1 0.0
12.8 1.1 0.0
13.200000000000001 1.1 0.0
13.600000000000001 1.1 0.0
14.0 1.1 0.0
14.4 1.1 0.0
14.8 1.1 0.0
15.200000000000001 1.1 0.0
15.600000000000001 1.1 0.0
16.0 1.1 0.0
0.0 1.2000000000000002 0.0
0.4 1.2000000000000002 0.0
0.8 1.2000000000000002 0.0
1.2000000000000002 1.2000000000000002 0.0
1.6 1.2000000000000002 0.0
2.0 1.2000000000000002 0.0
2.4000000000000004 1.2000000000000002 0.0
2.8000000000000003 1.2000000000000002 0.0
3.2 1.2000000000000002 0.0
3.6 1.2000000000000002 0.0
4.0 1.2000000000000002 0.0
4.4 1.2000000000000002 0.0
4.800000000000001 1.2000000000000002 0.0
5.2 1.2000000000000002 0.0
5.6000000000000005 1.2000000000000002 0.0
6.0 1.2000000000000002 0.0
6.4 1.2000000000000002 0.0
6.800000000000001 1.2000000000000002 0.0
7.2 1.2000000000000002 0.0
7.6000000000000005 1.2000000000000002 0.0
8.0 1.2000000000000002 0.0
8.4 1.2000000000000002 0.0
8.8 1.2000000000000002 0.0
9.200000000000001 1.2000000000000002 0.0
9.600000000000001 1.2000000000000002 0.0
10.0 1.2000000000000002 0.0
10.4 1.2000000000000002 0.0
10.8 1.2000000000000002 0.0
11.200000000000001 1.2000000000000002 0.0
11.600000000000001 1.2000000000000002 0.0
12.0 1.2000000000000002 0.0
12.4 1.2000000000000002 0.0
12.8 1.2000000000000002 0.0
13.200000000000001 1.2000000000000002 0.0
13.600000000000001 1.2000000000000002 0.0
14.0 1.2000000000000002 0.0
14.4 1.2000000000000002 0.0
14.8 1.2000000000000002 0.0
15.200000000000001 1.2000000000000002 0.0
15.600000000000001 1.2000000000000002 0.0
16.0 1.2000000000000002 0.0
0.0 1.3 0.0
0.4 1.3 0.0
0.8 1.3 0.0
1.2000000000000002 1.3 0.0
1.6 1.3 0.0
2.0 1.3 0.0
2.4000000000000004 1.3 0.0
2.8000000000000003 1.3 0.0
3.2 1.3 0.0
3.6 1.3 0.0
4.0 1.3 0.0
4.4 1.3 0.0
4.800000000000001 1.3 0.0
5.2 1.3 0.0
5.6000000000000005 1.3 0.0
6.0 1.3 0.0
6.4 1.3 0.0
6.800000000000001 1.3 0.0
7.2 1.3 0.0
7.6000000000000005 1.3 0.0
8.0 1.3 0.0
8.4 1.3 0.0
8.8 1.3 0.0
9.200000000000001 1.3 0.0
9.600000000000001 1.3 0.0
10.0 1.3 0.0
10.4 1.3 0.0
10.8 1.3 0.0
11.200000000000001 1.3 0.0
11.600000000000001 1.3 0.0
12.0 1.3 0.0
12.4 1.3 0.0
12.8 1.3 0.0
13.200000000000001 1.3 0.0
13.600000000000001 1.3 0.0
14.0 1.3 0.0
14.4 1.3 0.0
14.8 1.3 0.0
15.200000000000001 1.3 0.0
15.600000000000001 1.3 0.0
16.0 1.3 0.0
0.0 1.4000000000000001 0.0
0.4 1.4000000000000001 0.0
0.8 1.4000000000000001 0.0
1.2000000000000002 1.4000000000000001 0.0
1.6 1.4000000000000001 0.0
2.0 1.4000000000000001 0.0
2.4000000000000004 1.4000000000000001 0.0
2.8000000000000003 1.4000000000000001 0.0
3.2 1.4000000000000001 0.0
3.6 1.4000000000000001 0.0
4.0 1.4000000000000001 0.0
4.4 1.4000000000000001 0.0
4.800000000000001 1.4000000000000001 0.0
5.2 1.4000000000000001 0.0
5.6000000000000005 1.4000000000000001 0.0
6.0 1.4000000000000001 0.0
6.4 1.4000000000000001 0.0
6.800000000000001 1.4000000000000001 0.0
7.2 1.4000000000000001 0.0
7.6000000000000005 1.4000000000000001 0.0
8.0 1.4000000000000001 0.0
8.4 1.4000000000000001 0.0
8.8 1.4000000000000001 0.0
9.200000000000001 1.4000000000000001 0.0
9.600000000000001 1.4000000000000001 0.0
10.0 1.4000000000000001 0.0
10.4 1.4000000000000001 0.0
10.8 1.4000000000000001 0.0
11.200000000000001 1.4000000000000001 0.0
11.600000000000001 1.4000000000000001 0.0
12.0 1.4000000000000001 0.0
12.4 1.4000000000000001 0.0
12.8 1.4000000000000001 0.0
13.200000000000001 1.4000000000000001 0.0
13.600000000000001 1.4000000000000001 0.0
14.0 1.4000000000000001 0.0
14.4 1.4000000000000001 0.0
14.8 1.4000000000000001 0.0
15.200000000000001 1.4000000000000001 0.0
15.600000000000001 1.4000000000000001 0.0
16.0 1.4000000000000001 0.0
0.0 1.5 0.0
0.4 1.5 0.0
0.8 1.5 0.0
1.2000000000000002 1.5 0.0
1.6 1.5 0.0
2.0 1.5 0.0
2.4000000000000004 1.5 0.0
2.8000000000000003 1.5 0.0
3.2 1.5 0.0
3.6 1.5 0.0
4.0 1.5 0.0
4.4 1.5 0.0
4.800000000000001 1.5 0.0
5.2 1.5 0.0
5.6000000000000005 1.5 0.0
6.0 1.5 0.0
6.4 1.5 0.0
6.800000000000001 1.5 0.0
7.2 1.5 0.0
7.6000000000000005 1.5 0.0
8.0 1.5 0.0
8.4 1.5 0.0
8.8 1.5 0.0
9.200000000000001 1.5 0.0
9.600000000000001 1.5 0.0
10.0 1.5 0.0
10.4 1.5 0.0
10.8 1.5 0.0
11.200000000000001 1.5 0.0
11.600000000000001 1.5 0.0
12.0 1.5 0.0
12.4 1.5 0.0
12.8 1.5 0.0
13.200000000000001 1.5 0.0
13.600000000000001 1.5 0.0
14.0 1.5 0.0
14.4 1.5 0.0
14.8 1.5 0.0
15.200000000000001 1.5 0.0
15.600000000000001 1.5 0.0
16.0 1.5 0.0
0.0 1.6 0.0
0.4 1.6 0.0
0.8 1.6 0.0
1.2000000000000002 1.6 0.0
1.6 1.6 0.0
2.0 1.6 0.0
2.4000000000000004 1.6 0.0
2.8000000000000003 1.6 0.0
3.2 1.6 0.0
3.6 1.6 0.0
4.0 1.6 0.0
4.4 1.6 0.0
4.800000000000001 1.6 0.0
5.2 1.6 0.0
5.6000000000000005 1.6 0.0
6.0 1.6 0.0
6.4 1.6 0.0
6.800000000000001 1.6 0.0
7.2 1.6 0.0
7.6000000000000005 1.6 0.0
8.0 1.6 0.0
8.4 1.6 0.0
8.8 1.6 0.0
9.200000000000001 1.6 0.0
9.600000000000001 1.6 0.0
10.0 1.6 0.0
10.4 1.6 0.0
10.8 1.6 0.0
11.200000000000001 1.6 0.0
11.600000000000001 1.6 0.0
12.0 1.6 0.0
12.4 1.6 0.0
12.8 1.6 0.0
13.200000000000001 1.6 0.0
13.600000000000001 1.6 0.0
14.0 1.6 0.0
14.4 1.6 0.0
14.8 1.6 0.0
15.200000000000001 1.6 0.0
15.600000000000001 1.6 0.0
16.0 1.6 0.0
0.0 1.7000000000000002 0.0
0.4 1.7000000000000002 0.0
0.8 1.7000000000000002 0.0
1.2000000000000002 1.7000000000000002 0.0
1.6 1.7000000000000002 0.0
2.0 1.7000000000000002 0.0
2.4000000000000004 1.7000000000000002 0.0
2.8000000000000003 1.7000000000000002 0.0
3.2 1.7000000000000002 0.0
3.6 1.7000000000000002 0.0
4.0 1.7000000000000002 0.0
4.4 1.7000000000000002 0.0
4.800000000000001 1.7000000000000002 0.0
5.2 1.7000000000000002 0.0
5.6000000000000005 1.7000000000000002 0.0
6.0 1.7000000000000002 0.0
6.4 1.7000000000000002 0.0
6.800000000000001 1.7000000000000002 0.0
7.2 1.7000000000000002 0.0
7.6000000000000005 1.7000000000000002 0.0
8.0 1.7000000000000002 0.0
8.4 1.7000000000000002 0.0
8.8 1.7000000000000002 0.0
9.200000000000001 1.7000000000000002 0.0
9.600000000000001 1.7000000000000002 0.0
10.0 1.7000000000000002 0.0
10.4 1.7000000000000002 0.0
10.8 1.7000000000000002 0.0
11.200000000000001 1.7000000000000002 0.0
11.600000000000001 1.7000000000000002 0.0
12.0 1.7000000000000002 0.0
12.4 1.7000000000000002 0.0
12.8 1.7000000000000002 0.0
13.200000000000001 1.7000000000000002 0.0
13.600000000000001 1.7000000000000002 0.0
14.0 1.7000000000000002 0.0
14.4 1.7000000000000002 0.0
14.8 1.7000000000000002 0.0
15.200000000000001 1.7000000000000002 0.0
15.600000000000001 1.7000000000000002 0.0
16.0 1.7000000000000002 0.0
0.0 1.8 0.0
0.4 1.8 0.0
0.8 1.8 0.0
1.2000000000000002 1.8 0.0
1.6 1.8 0.0
2.0 1.8 0.0
2.4000000000000004 1.8 0.0
2.8000000000000003 1.8 0.0
3.2 1.8 0.0
3.6 1.8 0.0
4.0 1.8 0.0
4.4 1.8 0.0
4.800000000000001 1.8 0.0
5.2 1.8 0.0
5.6000000000000005 1.8 0.0
6.0 1.8 0.0
6.4 1.8 0.0
6.800000000000001 1.8 0.0
7.2 1.8 0.0
7.6000000000000005 1.8 0.0
8.0 1.8 0.0
8.4 1.8 0.0
8.8 1.8 0.0
9.200000000000001 1.8 0.0
9.600000000000001 1.8 0.0
10.0 1.8 0.0
10.4 1.8 0.0
10.8 1.8 0.0
11.200000000000001 1.8 0.0
11.600000000000001 1.8 0.0
12.0 1.8 0.0
12.4 1.8 0.0
12.8 1.8 0.0
13.200000000000001 1.8 0.0
13.600000000000001 1.8 0.0
14.0 1.8 0.0
14.4 1.8 0.0
14.8 1.8 0.0
15.200000000000001 1.8 0.0
15.600000000000001 1.8 0.0
16.0 1.8 0.0
0.0 1.9000000000000001 0.0
0.4 1.9000000000000001 0.0
0.8 1.9000000000000001 0.0
1.2000000000000002 1.9000000000000001 0.0
1.6 1.9000000000000001 0.0
2.0 1.9000000000000001 0.0
2.4000000000000004 1.9000000000000001 0.0
2.8000000000000003 1.9000000000000001 0.0
3.2 1.9000000000000001 0.0
3.6 1.9000000000000001 0.0
4.0 1.9000000000000001 0.0
4.4 1.9000000000000001 0.0
4.800000000000001 1.9000000000000001 0.0
5.2 1.9000000000000001 0.0
5.6000000000000005 1.9000000000000001 0.0
6.0 1.9000000000000001 0.0
6.4 1.9000000000000001 0.0
6.800000000000001 1.9000000000000001 0.0
7.2 1.9000000000000001 0.0
7.6000000000000005 1.9000000000000001 0.0
8.0 1.9000000000000001 0.0
8.4 1.9000000000000001 0.0
8.8 1.9000000000000001 0.0
9.200000000000001 1.9000000000000001 0.0
9.600000000000001 1.9000000000000001 0.0
10.0 1.9000000000000001 0.0
10.4 1.9000000000000001 0.0
10.8 1.9000000000000001 0.0
11.200000000000001 1.9000000000000001 0.0
11.600000000000001 1.9000000000000001 0.0
12.0 1.9000000000000001 0.0
12.4 1.9000000000000001 0.0
12.8 1.9000000000000001 0.0
13.200000000000001 1.9000000000000001 0.0
13.600000000000001 1.9000000000000001 0.0
14.0 1.9000000000000001 0.0
14.4 1.9000000000000001 0.0
14.8 1.9000000000000001 0.0
15.200000000000001 1.9000000000000001 0.0
15.600000000000001 1.9000000000000001 0.0
16.0 1.9000000000000001 0.0
0.0 2.0 0.0
0.4 2.0 0.0
0.8 2.0 0.0
1.2000000000000002 2.0 0.0
1.6 2.0 0.0
2.0 2.0 0.0
2.4000000000000004 2.0 0.0
2.8000000000000003 2.0 0.0
3.2 2.0 0.0
3.6 2.0 0.0
4.0 2.0 0.0
4.4 2.0 0.0
4.800000000000001 2.0 0.0
5.2 2.0 0.0
5.6000000000000005 2.0 0.0
6.0 2.0 0.0
6.4 2.0 0.0
6.800000000000001 2.0 0.0
7.2 2.0 0.0
7.6000000000000005 2.0 0.0
8.0 2.0 0.0
8.4 2.0 0.0
8.8 2.0 0.0
9.200000000000001 2.0 0.0
9.600000000000001 2.0 0.0
10.0 2.0 0.0
10.4 2.0 0.0
10.8 2.0 0.0
11.200000000000001 2.0 0.0
11.600000000000001 2.0 0.0
12.0 2.0 0.0
12.4 2.0 0.0
12.8 2.0 0.0
13.200000000000001 2.0 0.0
13.600000000000001 2.0 0.0
14.0 2.0 0.0
14.4 2.0 0.0
14.8 2.0 0.0
15.200000000000001 2.0 0.0
15.600000000000001 2.0 0.0
16.0 2.0 0.0
CELLS 800 4000
4 0 1 42 41
4 1 2 43 42
4 2 3 44 43
4 3 4 45 44
4 4 5 46 45
4 5 6 47 46
4 6 7 48 47
4 7 8 49 48
4 8 9 50 49
4 9 10 51 50
4 10 11 52 51
4 11 12 53 52
4 12 13 54 53
4 13 14 55 54
4 14 15 56 55
4 15 16 57 56
4 16 17 58 57
4 17 18 59 58
4 18 19 60 59
4 19 20 61 60
4 20 21 62 61
4 21 22 63 62
4 22 23 64 63
4 23 24 65 64
4 24 25 66 65
4 25 26 67 66
4 26 27 68 67
4 27 28 69 68
4 28 29 70 69
4 29 30 71 70
4 30 31 72 71
4 31 32 73 72
4 32 33 74 73
4 33 34 75 74
4 34 35 76 75
4 35 36 77 76
4 36 37 78 77
4 37 38 79 78
4 38 39 80 79
4 39 40 81 80
4 41 42 83 82
4 42 43 84 83
4 43 44 85 84
4 44 45 86 85
4 45 46 87 86
4 46 47 88 87
4 47 48 89 88
4 48 49 90 89
4 49 50 91 90
4 50 51 92 91
4 51 52 93 92
4 52 53 94 93
4 53 54 95 94
4 54 55 96 95
4 55 56 97 96
4 56 57 98 97
4 57 58 99 98
4 58 59 100 99
4 59 60 101 100
4 60 61 102 101
4 61 62 103 102
4 62 63 104 103
4 63 64 105 104
4 64 65 106 105
4 65 66 107 106
4 66 67 108 107
4 67 68 109 108
4 68 69 110 109
4 69 70 111 110
4 70 71 112 111
4 71 72 113 112
4 72 73 114 113
4 73 74 115 114
4 74 75 116 115
4 75 76 117 116
4 76 77 118 117
4 77 78 119 118
4 78 79 120 119
4 79 80 121 120
4 80 81 122 121
4 82 83 124 123
4 83 84 125 124
4 84 85 126 125
4 85 86 127 126
4 86 87 128 127
4 87 88 129 128
4 88 89 130 129
4 89 90 131 130
4 90 91 132 131
4 91 92 133 132
4 92 93 134 133
4 93 94 135 134
4 94 95 136 135
4 95 96 137 136
4 96 97 138 137
4 97 98 139 138
4 98 99 140 139
4 99 100 141 140
4 100 101 142 141
4 101 102 143 142
4 102 103 144 143
4 103 104 145 144
4 104 105 146 145
4 105 106 147 146
4 106 107 148 147
4 107 108 149 148
4 108 109 150 149
4 109 110 151 150
4 110 111 152 151
4 111 112 153 152
4 112 113 154 153
4 113 114 155 154
4 114 115 156 155
4 115 116 157 156
4 116 117 158 157
4 117 118 159 158
4 118 119 160 159
4 119 120 161 160
4 120 121 162 161
4 121 122 163 162
4 123 124 165 164
4 124 125 166 165
4 125 126 167 166
4 126 127 168 167
4 127 128 169 168
4 128 129 170 169
4 129 130 171 170
4 130 131 172 171
4 131 132 173 172
4 132 133 174 173
4 133 134 175 174
4 134 135 176 175
4 135 136 177 176
4 136 137 178 177
4 137 138 179 178
4 138 139 180 179
4 139 140 181 180
4 140 141 182 181
4 141 142 183 182
4 142 143 184 183
4 143 144 185 184
4 144 145 186 185
4 145 146 187 186
4 146 147 188 187
4 147 148 189 188
4 148 149 190 189
4 149 150 191 190
4 150 151 192 191
4 151 152 193 192
4 152 153 194 193
4 153 154 195 194
4 154 155 196 195
4 155 156 197 196
4 156 157 198 197
4 157 158 199 198
4 158 159 200 199
4 159 160 201 200
4 160 161 202 201
4 161 162 203 202
4 162 163 204 203
4 164 165 206 205
4 165 166 207 206
4 166 167 208 207
4 167 168 209 208
4 168 169 210 209
4 169 170 211 210
4 170 171 212 211
4 171 172 213 212
4 172 173 214 213
4 173 174 215 214
4 174 175 216 215
4 175 176 217 216
4 176 177 218 217
4 177 178 219 218
4 178 179 220 219
4 179 180 221 220
4 180 181 222 221
4 181 182 223 222
4 182 183 224 223
4 183 184 225 224
4 184 185 226 225
4 185 186 227 226
4 186 187 228 227
4 187 188 229 228
4 188 189 230 229
4 189 190 231 230
4 190 191 232 231
4 191 192 233 232
4 192 193 234 233
4 193 194 235 234
4 194 195 236 235
4 195 196 237 236
4 196 197 238 237
4 197 198 239 238
4 198 199 240 239
4 199 200 241 240
4 200 201 242 241
4 201 202 243 242
4 202 203 244 243
4 203 204 245 244
4 205 206 247 246
4 206 207 248 247
4 207 208 249 248
4 208 209 250 249
4 209 210 251 250
4 210 211 252 251
4 211 212 253 252
4 212 213 254 253
4 213 214 255 254
4 214 215 256 255
4 215 216 257 256
4 216 217 258 257
4 217 218 259 258
4 218 219 260 259
4 219 220 261 260
4 220 221 262 261
4 221 222 263 262
4 222 223 264 263
4 223 224 265 264
4 224 225 266 265
4 225 226 267 266
4 226 227 268 267
4 227 228 269 268
4 228 229 270 269
4 229 230 271 270
4 230 231 272 271
4 231 232 273 272
4 232 233 274 273
4 233 234 275 274
4 234 235 276 275
4 235 236 277 276
4 236 237 278 277
4 237 238 279 278
4 238 239 280 279
4 239 240 281 280
4 240 241 282 281
4 241 242 283 282
4 242 243 284 283
4 243 244 285 284
4 244 245 286 285
4 246 247 288 287
4 247 248 289 288
4 248 249 290 289
4 249 250 291 290
4 250 251 292 291
4 251 252 293 292
4 252 253 294 293
4 253 254 295 294
4 254 255 296 295
4 255 256 297 296
4 256 257 298 297
4 257 258 299 298
4 258 259 300 299
4 259 260 301 300
4 260 261 302 301
4 261 262 303 302
4 262 263 304 303
4 263 264 305 304
4 264 265 306 305
4 265 266 307 306
4 266 267 308 307
4 267 268 309 308
4 268 269 310 309
4 269 270 311 310
4 270 271 312 311
4 271 272 313 312
4 272 273 314 313
4 273 274 315 314
4 274 275 316 315
4 275 276 317 316
4 276 277 318 317
4 277 278 319 318
4 278 279 320 319
4 279 280 321 320
4 280 281 322 321
4 281 282 323 322
4 282 283 324 323
4 283 284 325 324
4 284 285 326 325
4 285 286 327 326
4 287 288 329 328
4 288 289 330 329
4 289 290 331 330
4 290 291 332 331
4 291 292 333 332
4 292 293 334 333
4 293 294 335 334
4 294 295 336 335
4 295 296 337 336
4 296 297 338 337
4 297 298 339 338
4 298 299 340 339
4 299 300 341 340
4 300 301 342 341
4 301 302 343 342
4 302 303 344 343
4 303 304 345 344
4 304 305 346 345
4 305 306 347 346
4 306 307 348 347
4 307 308 349 348
4 308 309 350 349
4 309 310 351 350
4 310 311 352 351
4 311 312 353 352
4 312 313 354 353
4 313 314 355 354
4 314 315 356 355
4 315 316 357 356
4 316 317 358 357
4 317 318 359 358
4 318 319 360 359
4 319 320 361 360
4 320 321 362 361
4 321 322 363 362
4 322 323 364 363
4 323 324 365 364
4 324 325 366 365
4 325 326 367 366
4 326 327 368 367
4 328 329 370 369
4 329 330 371 370
4 330 331 372 371
4 331 332 373 372
4 332 333 374 373
4 333 334 375 374
4 334 335 376 375
4 335 336 377 376
4 336 337 378 377
4 337 338 379 378
4 338 339 380 379
4 339 340 381 380
4 340 341 382 381
4 341 342 383 382
4 342 343 384 383
4 343 344 385 384
4 344 345 386 385
4 345 346 387 386
4 346 347 388 387
4 347 348 389 388
4 348 349 390 389
4 349 350 391 390
4 350 351 392 391
4 351 352 393 392
4 352 353 394 393
4 353 354 395 394
4 354 355 396 395
4 355 356 397 396
4 356 357 398 397
4 357 358 399 398
4 358 359 400 399
4 359 360 401 400
4 360 361 402 401
4 361 362 403 402
4 362 363 404 403
4 363 364 405 404
4 364 365 406 405
4 365 366 407 406
4 366 367 408 407
4 367 368 409 408
4 369 370 411 410
4 370 371 412 411
4 371 372 413 412
4 372 373 414 413
4 373 374 415 414
4 374 375 416 415
4 375 376 417 416
4 376 377 418 417
4 377 378 419 418
4 378 379 420 419
4 379 380 421 420
4 380 381 422 421
4 381 382 423 422
4 382 383 424 423
4 383 384 425 424
4 384 385 426 425
4 385 386 427 426
4 386 387 428 427
4 387 388 429 428
4 388 389 430 429
4 389 390 431 430
4 390 391 432 431
4 391 392 433 432
4 392 393 434 433
4 393 394 435 434
4 394 395 436 435
4 395 396 437 436
4 396 397 438 437
4 397 398 439 438
4 398 399 440 439
4 399 400 441 440
4 400 401 442 441
4 401 402 443 442
4 402 403 444 443
4 403 404 445 444
4 404 405 446 445
4 405 406 447 446
4 406 407 448 447
4 407 408 449 448
4 408 409 450 449
4 410 411 452 451
4 411 412 453 452
4 412 413 454 453
4 413 414 455 454
4 414 415 456 455
4 415 416 457 456
4 416 417 458 457
4 417 418 459 458
4 418 419 460 459
4 419 420 461 460
4 420 421 462 461
4 421 422 463 462
4 422 423 464 463
4 423 424 465 464
4 424 425 466 465
4 425 426 467 466
4 426 427 468 467
4 427 428 469 468
4 428 429 470 469
4 429 430 471 470
4 430 431 472 471
4 431 432 473 472
4 432 433 474 473
4 433 434 475 474
4 434 435 476 475
4 435 436 477 476
4 436 437 478 477
4 437 438 479 478
4 438 439 480 479
4 439 440 481 480
4 440 441 482 481
4 441 442 483 482
4 442 443 484 483
4 443 444 485 484
4 444 445 486 485
4 445 446 487 486
4 446 447 488 487
4 447 448 489 488
4 448 449 490 489
4 449 450 491 490
4 451 452 493 492
4 452 453 494 493
4 453 454 495 494
4 454 455 496 495
4 455 456 497 496
4 456 457 498 497
4 457 458 499 498
4 458 459 500 499
4 459 460 501 500
4 460 461 502 501
4 461 462 503 502
4 462 463 504 503
4 463 464 505 504
4 464 465 506 505
4 465 466 507 506
4 466 467 508 507
4 467 468 509 508
4 468 469 510 509
4 469 470 511 510
4 470 471 512 511
4 471 472 513 512
4 472 473 514 513
4 473 474 515 514
4 474 475 516 515
4 475 476 517 516
4 476 477 518 517
4 477 478 519 518
4 478 479 520 519
4 479 480 521 520
4 480 481 522 521
4 481 482 523 522
4 482 483 524 523
4 483 484 525 524
4 484 485 526 525
4 485 486 527 526
4 486 487 528 527
4 487 488 529 528
4 488 489 530 529
4 489 490 531 530
4 490 491 532 531
4 492 493 534 533
4 493 494 535 534
4 494 495 536 535
4 495 496 537 536
4 496 497 538 537
4 497 498 539 538
4 498 499 540 539
4 499 500 541 540
4 500 501 542 541
4 501 502 543 542
4 502 503 544 543
4 503 504 545 544
4 504 505 546 545
4 505 506 547 546
4 506 507 548 547
4 507 508 549 548
4 508 509 550 549
4 509 510 551 550
4 510 511 552 551
4 511 512 553 552
4 512 513 554 553
4 513 514 555 554
4 514 515 556 555
4 515 516 557 556
4 516 517 558 557
4 517 518 559 558
4 518 519 560 559
4 519 520 561 560
4 520 521 562 561
4 521 522 563 562
4 522 523 564 563
4 523 524 565 564
4 524 525 566 565
4 525 526 567 566
4 526 527 568 567
4 527 528 569 568
4 528 529 570 569
4 529 530 571 570
4 530 531 572 571
4 531 532 573 572
4 533 534 575 574
4 534 535 576 575
4 535 536 577 576
4 536 537 578 577
4 537 538 579 578
4 538 539 580 579
4 539 540 581 580
4 540 541 582 581
4 541 542 583 582
4 542 543 584 583
4 543 544 585 584
4 544 545 586 585
4 545 546 587 586
4 546 547 588 587
4 547 548 589 588
4 548 549 590 589
4 549 550 591 590
4 550 551 592 591
4 551 552 593 592
4 552 553 594 593
4 553 554 595 594
4 554 555 596 595
4 555 556 597 596
4 556 557 598 597
4 557 558 599 598
4 558 559 600 599
4 559 560 601 600
4 560 561 602 601
4 561 562 603 602
4 562 563 604 603
4 563 564 605 604
4 564 565 606 605
4 565 566 607 606
4 566 567 608 607
4 567 568 609 608
4 568 569 610 609
4 569 570 611 610
4 570 571 612 611
4 571 572 613 612
4 572 573 614 613
4 574 575 616 615
4 575 576 617 616
4 576 577 618 617
4 577 578 619 618
4 578 579 620 619
4 579 580 621 620
4 580 581 622 621
4 581 582 623 622
4 582 583 624 623
4 583 584 625 624
4 584 585 626 625
4 585 586 627 626
4 586 587 628 627
4 587 588 629 628
4 588 589 630 629
4 589 590 631 630
4 590 591 632 631
4 591 592 633 632
4 592 593 634 633
4 593 594 635 634
4 594 595 636 635
4 595 596 637 636
4 596 597 638 637
4 597 598 639 638
4 598 599 640 639
4 599 600 641 640
4 600 601 642 641
4 601 602 643 642
4 602 603 644 643
4 603 604 645 644
4 604 605 646 645
4 605 606 647 646
4 606 607 648 647
4 607 608 649 648
4 608 609 650 649
4 609 610 651 650
4 610 611 652 651
4 611 612 653 652
4 612 613 654 653
4 613 614 655 654
4 615 616 657 656
4 616 617 658 657
4 617 618 659 658
4 618 619 660 659
4 619 620 661 660
4 620 621 662 661
4 621 622 663 662
4 622 623 664 663
4 623 624 665 664
4 624 625 666 665
4 625 626 667 666
4 626 627 668 667
4 627 628 669 668
4 628 629 670 669
4 629 630 671 670
4 630 631 672 671
4 631 632 673 672
4 632 633 674 673
4 633 634 675 674
4 634 635 676 675
4 635 636 677 676
4 636 637 678 677
4 637 638 679 678
4 638 639 680 679
4 639 640 681 680
4 640 641 682 681
4 641 642 683 682
4 642 643 684 683
4 643 644 685 684
4 644 645 686 685
4 645 646 687 686
4 646 647 688 687
4 647 648 689 688
4 648 649 690 689
4 649 650 691 690
4 650 651 692 691
4 651 652 693 692
4 652 653 694 693
4 653 654 695 694
4 654 655 696 695
4 656 657 698 697
4 657 658 699 698
4 658 659 700 699
4 659 660 701 700
4 660 661 702 701
4 661 662 703 702
4 662 663 704 703
4 663 664 705 704
4 664 665 706 705
4 665 666 707 706
4 666 667 708 707
4 667 668 709 708
4 668 669 710 709
4 669 670 711 710
4 670 671 712 711
4 671 672 713 712
4 672 673 714 713
4 673 674 715 714
4 674 675 716 715
4 675 676 717 716
4 676 677 718 717
4 677 678 719 718
4 678 679 720 719
4 679 680 721 720
4 680 681 722 721
4 681 682 723 722
4 682 683 724 723
4 683 684 725 724
4 684 685 726 725
4 685 686 727 726
4 686 687 728 727
4 687 688 729 728
4 688 689 730 729
4 689 690 731 730
4 690 691 732 731
4 691 692 733 732
4 692 693 734 733
4 693 694 735 734
4 694 695 736 735
4 695 696 737 736
4 697 698 739 738
4 698 699 740 739
4 699 700 741 740
4 700 701 742 741
4 701 702 743 742
4 702 703 744 743
4 703 704 745 744
4 704 705 746 745
4 705 706 747 746
4 706 707 748 747
4 707 708 749 748
4 708 709 750 749
4 709 710 751 750
4 710 711 752 751
4 711 712 753 752
4 712 713 754 753
4 713 714 755 754
4 714 715 756 755
4 715 716 757 756
4 716 717 758 757
4 717 718 759 758
4 718 719 760 759
4 719 720 761 760
4 720 721 762 761
4 721 722 763 762
4 722 723 764 763
4 723 724 765 764
4 724 725 766 765
4 725 726 767 766
4 726 727 768 767
4 727 728 769 768
4 728 729 770 769
4 729 730 771 770
4 730 731 772 771
4 731 732 773 772
4 732 733 774 773
4 733 734 775 774
4 734 735 776 775
4 735 736 777 776
4 736 737 778 777
4 738 739 780 779
4 739 740 781 780
4 740 741 782 781
4 741 742 783 782
4 742 743 784 783
4 743 744 785 784
4 744 745 786 785
4 745 746 787 786
4 746 747 788 787
4 747 748 789 788
4 748 749 790 789
4 749 750 791 790
4 750 751 792 791
4 751 752 793 792
4 752 753 794 793
4 753 754 795 794
4 754 755 796 795
4 755 756 797 796
4 756 757 798 797
4 757 758 799 798
4 758 759 800 799
4 759 760 801 800
4 760 761 802 801
4 761 762 803 802
4 762 763 804 803
4 763 764 805 804
4 764 765 806 805
4 765 766 807 806
4 766 767 808 807
4 767 768 809 808
4 768 769 810 809
4 769 770 811 810
4 770 771 812 811
4 771 772 813 812
4 772 773 814 813
4 773 774 815 814
4 774 775 816 815
4 775 776 817 816
4 776 777 818 817
4 777 778 819 818
4 779 780 821 820
4 780 781 822 821
4 781 782 823 822
4 782 783 824 823
4 783 784 825 824
4 784 785 826 825
4 785 786 827 826
4 786 787 828 827
4 787 788 829 828
4 788 789 830 829
4 789 790 831 830
4 790 791 832 831
4 791 792 833 832
4 792 793 834 833
4 793 794 835 834
4 794 795 836 835
4 795 796 837 836
4 796 797 838 837
4 797 798 839 838
4 798 799 840 839
4 799 800 841 840
4 800 801 842 841
4 801 802 843 842
4 802 803 844 843
4 803 804 845 844
4 804 805 846 845
4 805 806 847 846
4 806 807 848 847
4 807 808 849 848
4 808 809 850 849
4 809 810 851 850
4 810 811 852 851
4 811 812 853 852
4 812 813 854 853
4 813 814 855 854
4 814 815 856 855
4 815 816 857 856
4 816 817 858 857
4 817 818 859 858
4 818 819 860 859
CELL_TYPES 800
9
9
9
9
9
9
9
9
9
9
9
9
9
9
9
9
9
9
9
9
9
9
9
9
9
9
9
9
9
9
9
9
9
9
9
9
9
9
9
9
9
9
9
9
9
9
9
9
9
9
9
9
9
9
9
9
9
9
9
9
9
9
9
9
9
9
9
9
9
9
9
9
9
9
9
9
9
9
9
9
9
9
9
9
9
9
9
9
9
9
9
9
9
9
9
9
9
9
9
9
9
9
9
9
9
9
9
9
9
9
9
9
9
9
9
9
9
9
9
9
9
9
9
9
9
9
9
9
9
9
9
9
9
9
9
9
9
9
9
9
9
9
9
9
9
9
9
9
9
9
9
9
9
9
9
9
9
9
9
9
9
9
9
9
9
9
9
9
9
9
9
9
9
9
9
9
9
9
9
9
9
9
9
9
9
9
9
9
9
9
9
9
9
9
9
9
9
9
9
9
9
9
9
9
9
9
9
9
9
9
9
9
9
9
9
9
9
9
9
9
9
9
9
9
9
9
9
9
9
9
9
9
9
9
9
9
9
9
9
9
9
9
9
9
9
9
9
9
9
9
9
9
9
9
9
9
9
9
9
9
9
9
9
9
9
9
9
9
9
9
9
9
9
9
9
9
9
9
9
9
9
9
9
9
9
9
9
9
9
9
9
9
9
9
9
9
9
9
9
9
9
9
9
9
9
9
9
9
9
9
9
9
9
9
9
9
9
9
9
9
9
9
9
9
9
9
9
9
9
9
9
9
9
9
9
9
9
9
9
9
9
9
9
9
9
9
9
9
9
9
9
9
9
9
9
9
9
9
9
9
9
9
9
9
9
9
9
9
9
9
9
9
9
9
9
9
9
9
9
9
9
9
9
9
9
9
9
9
9
9
9
9
9
9
9
9
9
9
9
9
9
9
9
9
9
9
9
9
9
9
9
9
9
9
9
9
9
9
9
9
9
9
9
9
9
9
9
9
9
9
9
9
9
9
9
9
9
9
9
9
9
9
9
9
9
9
9
9
9
9
9
9
9
9
9
9
9
9
9
9
9
9
9
9
9
9
9
9
9
9
9
9
9
9
9
9
9
9
9
9
9
9
9
9
9
9
9
9
9
9
9
9
9
9
9
9
9
9
9
9
9
9
9
9
9
9
9
9
9
9
9
9
9
9
9
9
9
9
9
9
9
9
9
9
9
9
9
9
9
9
9
9
9
9
9
9
9
9
9
9
9
9
9
9
9
9
9
9
9
9
9
9
9
9
9
9
9
9
9
9
9
9
9
9
9
9
9
9
9
9
9
9
9
9
9
9
9
9
9
9
9
9
9
9
9
9
9
9
9
9
9
9
9
9
9
9
9
9
9
9
9
9
9
9
9
9
9
9
9
9
9
9
9
9
9
9
9
9
9
9
9
9
9
9
9
9
9
9
9
9
9
9
9
9
9
9
9
9
9
9
9
9
9
9
9
9
9
9
9
9
9
9
9
9
9
9
9
9
9
9
9
9
9
9
9
9
9
9
9
9
9
9
9
9
9
9
9
9
9
9
9
9
9
9
9
9
9
9
9
9
9
9
9
9
9
9
9
9
9
9
9
9
9
9
9
9
9
9
9
9
9
9
9
9
9
9
9
9
9
9
9
9
9
9
9
9
9
9
9
9
9
9
9
9
9
9
9
9
9
9
9
9
9
9
9
9
9
9
9
9
9
9
9
9
9
9
9
9
9
9
9
9
9
9
9
9
9
9
9
9
9
9
9
9
9
9
9
9
9
9
9
9
9
9
9
9
9
9
9
9
9
9
9
9
9
9
9
9
9
9
POINT_DATA 861
SCALARS Disp float 2
LOOKUP_TABLE default
0.0 0.0
0.0024922814951583465 -0.08014407168267079
0.0033557759209856494 -0.15544181438342872
0.004034209973875075 -0.23035098807406754
0.004821776289289151 -0.30496989599937185
0.0058035387183176185 -0.37920772896852284
0.007138272146328048 -0.4529207720395445
0.008904046245875683 -0.5259688295865985
0.011192598003827136 -0.5981687951841046
0.014125525299460425 -0.6692781761915504
0.017876299692457763 -0.7389689628949061
0.02272433219556533 -0.8067822903780465
0.029102728113896102 -0.8720857004448878
0.03757711900167685 -0.9340720116842072
0.048819394407170286 -0.9917748779181308
0.06351430549274846 -1.0440808099685939
0.08220899324980689 -1.0897330134306111
0.10512910278643378 -1.1273480243939522
0.13202141507300597 -1.1555232711661738
0.1621020106728386 -1.173065435744346
0.19408222186799887 -1.1792213616037175
0.22606243306315865 -1.1730654357443286
0.25614302866298927 -1.1555232711661372
0.28303534094955773 -1.1273480243938994
0.3059554504861801 -1.089733013430545
0.32465013824323447 -1.04408080996852
0.33934504932880843 -0.9917748779180494
0.35058732473429705 -0.9340720116841206
0.35906171562207256 -0.8720857004447985
0.3654401115403981 -0.8067822903779565
0.3702881440435006 -0.7389689628948182
0.3740389184364935 -0.669278176191466
0.3769718457321232 -0.5981687951840251
0.3792603974900715 -0.5259688295865252
0.38102617158961644 -0.4529207720394782
0.3823609050176248 -0.37920772896846566
0.38334266744665224 -0.3049698959993238
0.38413023376206584 -0.2303509880740296
0.384808667814955 -0.1554418143834006
0.3856721622407818 -0.0801440716826535
0.38816444373593934 0.0
0.020015553018269277 -0.0012416009589474558
0.021616059897626636 -0.0801509438447927
0.022093960144393583 -0.15552243278225983
0.022720120302612473 -0.2304214551759156
0.023425556243708363 -0.30505615532761937
0.024297546918171816 -0.37933661272755337
0.025482200288389285 -0.45312092101610146
0.027059417422644765 -0.5262550755932223
0.029108542642675293 -0.5985649270666724
0.03173191568078055 -0.6698156884663313
0.03508045323729551 -0.739697405794935
0.03939552120560446 -0.807783629958052
0.04505607529102105 -0.8734811601265964
0.052590346281565024 -0.9360138142035485
0.06262516721121256 -0.9944338373954583
0.0758059864203651 -1.0476149006217816
0.09264565203212691 -1.0942447188879083
0.11335725574815742 -1.1328420142010778
0.13772520590808904 -1.1618805852161822
0.16504587695665607 -1.1800422007772928
0.19408222186799673 -1.1864360303522536
0.22311856677933703 -1.1800422007772753
0.2504392378279022 -1.161880585216145
0.27480718798783066 -1.1328420142010238
0.2955187917038576 -1.0942447188878413
0.31235845731561596 -1.0476149006217068
0.32553927652476455 -0.9944338373953762
0.3355740974544078 -0.9360138142034609
0.34310836844494713 -0.873481160126506
0.34876892253035907 -0.8077836299579609
0.35308399049866346 -0.7396974057948461
0.35643252805517445 -0.6698156884662464
0.35905590109327645 -0.5985649270665923
0.3611050263133041 -0.5262550755931484
0.3626822434475571 -0.45312092101603474
0.3638668968177729 -0.37933661272749597
0.3647388874922355 -0.30505615532757124
0.365444323433331 -0.2304214551758777
0.36607048359154964 -0.1555224327822317
0.3665483838383167 -0.08015094384477545
0.3681488907176723 -0.0012416009589460903
0.0394851667657633 -0.0022143973171208954
0.04060286866756397 -0.08013996549952782
0.040870845929714385 -0.15556972139584624
0.04137903887090406 -0.23048850364120158
0.042009477415421805 -0.3051316964407886
0.042782680567495665 -0.3794431185666719
0.04381046246555477 -0.4532887357387928
0.04519764373547392 -0.5264990152358991
0.047006490526607846 -0.5989049096408137
0.049322751002274776 -0.6702785977587533
0.05227437095410274 -0.7403262398737775
0.056068186486064216 -0.8086484063978603
0.06103152681367015 -0.8746894384950622
0.06763568291281281 -0.9377085181538848
0.07646789331653173 -0.9967741253606813
0.08812374825662694 -1.0507484752155447
0.10308160961931218 -1.0982680906511653
0.12155596114326446 -1.1377638704714936
0.14338149063458921 -1.1675990925777517
0.16793006414348424 -1.1863307198976865
0.19408222186799493 -1.1929484297991302
0.2202343795925053 -1.1863307198976687
0.2447829531013985 -1.167599092577714
0.26660848259272063 -1.1377638704714392
0.2850828341166699 -1.0982680906510978
0.3000406954793521 -1.050748475215469
0.3116965504194439 -0.9967741253605984
0.320528760823159 -0.9377085181537963
0.32713291692229757 -0.8746894384949709
0.33209625724989933 -0.8086484063977686
0.3358900727818568 -0.7403262398736878
0.3388416927336812 -0.6702785977586676
0.3411579532093452 -0.5989049096407331
0.3429668000004766 -0.5264990152358248
0.34435398127039357 -0.4532887357387257
0.3453817631684513 -0.37944311856661433
0.3461549663205245 -0.3051316964407404
0.3467854048650419 -0.23048850364116363
0.3472935978062314 -0.15556972139581823
0.34756157506838203 -0.08013996549951051
0.3486792769701809 -0.0022143973171181988
0.0586610391596179 -0.002992418347298693
0.059481670298262485 -0.08013870610631106
0.05963623879511327 -0.15559339448784987
0.06002446283498314 -0.23054389402589887
0.06056858389642382 -0.30520068475643647
0.061252961401781776 -0.3795309167760366
0.06213028369989938 -0.4534232030597473
0.06332237550392826 -0.5267024186794009
0.06489062975634577 -0.5991903498885977
0.06690190229821247 -0.6706693128414497
0.06946278816762994 -0.7408583353673549
0.07274559466965487 -0.8093819278751702
0.07702911108866685 -0.8757172652088737
0.08272571342899246 -0.9391594087527946
0.09036133920249899 -0.9987965275786894
0.10048767176013577 -1.0534785684844978
0.11354799895434053 -1.1017974406145414
0.12976032690368042 -1.142108158164159
0.14901567278035707 -1.1726741432013599
0.17078482549198917 -1.1919362311468273
0.19408222186799345 -1.198774808206211
0.21737961824399712 -1.1919362311468094
0.23914877095562756 -1.1726741432013217
0.25840411683230197 -1.142108158164104
0.2746164447816393 -1.1017974406144737
0.2876767719758413 -1.0534785684844215
0.297803104533475 -0.9987965275786058
0.3054387303069783 -0.9391594087527054
0.3111353326473003 -0.8757172652087817
0.31541884906630874 -0.8093819278750777
0.3187016555683301 -0.7408583353672643
0.3212625414377445 -0.6706693128413636
0.32327381397960864 -0.5991903498885164
0.3248420682320239 -0.5267024186793261
0.3260341600360509 -0.4534232030596799
0.3269114823341675 -0.37953091677597894
0.32759585983952494 -0.30520068475638823
0.32813998090096524 -0.2305438940258609
0.32852820494083507 -0.1555933944878219
0.3286827734376859 -0.08013870610629366
0.329503404576329 -0.002992418347294828
0.07766121701992329 -0.003617592155342389
0.0782784212472781 -0.08015184030921554
0.07837110142858099 -0.15560349059165712
0.07865521591594281 -0.23058574329553472
0.07910653255767904 -0.3052608074896578
0.07969777263812491 -0.37960675232892716
0.08044753156059604 -0.45352780791524555
0.08143821888380161 -0.5268655975374276
0.08276515334944058 -0.5994236206125907
0.08447375174654145 -0.6709904723788883
0.08664942832949102 -0.7412977932632572
0.0894327279647325 -0.809988816693681
0.09305309776939091 -0.8765709531104737
0.0978613279717821 -0.9403731354657565
0.10432197626629656 -1.0005033203290166
0.11292282179434933 -1.055804338243351
0.12407523620429284 -1.104829271414299
0.13800521737195418 -1.1458690189154308
0.15466141778521098 -1.1771006471500263
0.1736332156437462 -1.1968606694140183
0.19408222186799212 -1.2039233000451839
0.21453122809223718 -1.196860669414
0.23350302595077083 -1.1771006471499879
0.2501592263640257 -1.1458690189153753
0.26408920753168463 -1.1048292714142307
0.2752416219416257 -1.0558043382432742
0.2838424674696759 -1.0005033203289324
0.29030311576418755 -0.9403731354656669
0.29511134596657573 -0.8765709531103809
0.29873171577123103 -0.8099888166935878
0.3015150154064695 -0.7412977932631659
0.30369069198941645 -0.6709904723788015
0.3053992903865151 -0.599423620612509
0.3067262248521521 -0.5268655975373524
0.3077169121753563 -0.45352780791517794
0.3084666710978266 -0.37960675232886937
0.309057911178272 -0.3052608074896095
0.30950922782000795 -0.23058574329549672
0.30979334230736977 -0.15560349059162912
0.3098860224886727 -0.08015184030919803
0.31050322671602626 -0.003617592155337561
0.09654324213077184 -0.004118480574479479
0.09701481923681886 -0.08017802199691
0.09707052572852969 -0.1556066020448815
0.09726820385826199 -0.23061499875005795
0.09762576002424385 -0.30531006041608605
0.09811744035550646 -0.37967245575254904
0.09874898542823896 -0.45361147136832214
0.09955949899890068 -0.5269873309774196
0.10063501740581568 -0.5996069336831008
0.10204285343553107 -0.6712454982829266
0.10383902532684765 -0.7416483447148399
0.10613302090790766 -0.8104749152152249
0.10910815954281118 -0.8772575318347111
0.11305263244632625 -0.9413562972900618
0.11835585933611449 -1.0019008423148943
0.1254493155611908 -1.057728180822913
0.13469940703151922 -1.1073617530491147
0.14632806821104974 -1.1490409720163632
0.1603529046554321 -1.1808723373867915
0.17649666120232124 -1.2011017292655575
0.19408222186799065 -1.208396542939182
0.2116677825336593 -1.2011017292655388
0.2278115390805469 -1.180872337386753
0.2418363755249276 -1.1490409720163073
0.2534650367044559 -1.107361753049046
0.2627151281747823 -1.0577281808228358
0.26980858439985633 -1.0019008423148097
0.2751118112896423 -0.9413562972899716
0.27905628419315487 -0.8772575318346177
0.2820314228280558 -0.8104749152151312
0.28432541840911335 -0.7416483447147483
0.28612159030042783 -0.6712454982828393
0.28752942633014134 -0.5996069336830187
0.2886049447370548 -0.5269873309773442
0.2894154583077154 -0.45361147136825447
0.29004700338044737 -0.37967245575249126
0.29053868371170954 -0.3053100604160377
0.2908962398776912 -0.23061499875001995
0.29109391800742346 -0.15560660204485352
0.2911496244991343 -0.08017802199689239
0.29162120160518035 -0.0041184805744738625
0.11534021023588759 -0.004518334328655835
0.11570505121222491 -0.08021436128486271
0.11573613387208162 -0.15560640932989953
0.11586179081228686 -0.2306332860669465
0.11612811509175346 -0.3053479366010435
0.11651659290732695 -0.37972637483918853
0.11702512299670534 -0.4536809836237118
0.11767510103394814 -0.5270781025529523
0.11851406083423156 -0.5997402465842017
0.11961439640056612 -0.6714379314003431
0.12103695014387647 -0.7419150481809687
0.12285169048738281 -0.8108464322238411
0.12519902247285966 -0.8777849005656096
0.12830330879474175 -0.9421180829883032
0.13248028669177586 -1.0029956738477903
0.13808522781095267 -1.0592558150865774
0.14544411065044807 -1.1093971352860095
0.154770460119501 -1.1516197748098926
0.1661314542223703 -1.183981081346277
0.17939848858981292 -1.2046523557949866
0.19408222186798907 -1.2121922102673244
0.20876595514616475 -1.2046523557949678
0.2220329895136059 -1.1839810813462381
0.23339398361647368 -1.1516197748098365
0.24272033308552474 -1.1093971352859404
0.25007921592501836 -1.0592558150865
0.2556841570441933 -1.0029956738477053
0.25986113494122565 -0.9421180829882126
0.2629654212631058 -0.8777849005655158
0.2653127532485806 -0.810846432223747
0.267127493592085 -0.7419150481808767
0.2685500473353936 -0.6714379314002555
0.26965038290172677 -0.5997402465841194
0.270489342702009 -0.5270781025528768
0.2711393207392511 -0.45368098362364406
0.2716478508286291 -0.37972637483913074
0.27203632864420224 -0.3053479366009951
0.2723026529236687 -0.2306332860669085
0.2724283098638739 -0.15560640932987152
0.2724593925237306 -0.08021436128484508
0.27282423350006724 -0.004518334328649589
0.13407841153588837 -0.004832359352560083
0.13435692580723685 -0.0802594806102636
0.13437230333340425 -0.1556044540567377
0.13443627708516429 -0.23064229888342427
0.134615418225309 -0.30537442631350964
0.13489926858346293 -0.3797676544972234
0.13528099463803983 -0.45373535751300864
0.1357714604028748 -0.5271477336171511
0.13639758073551933 -0.5998325242751872
0.1372018849195719 -0.6715704896773015
0.13824902032866263 -0.7421036632093932
0.13959372542469028 -0.8111108388830153
0.14133023503695308 -0.878162499946386
0.14362073540379305 -0.9426691111071664
0.14670189869654066 -1.003799323418467
0.1508521437605764 -1.0603950678035976
0.15633951812307867 -1.1109396913388245
0.1633629372407351 -1.1536052981821494
0.1720372030852466 -1.1864182978963616
0.18236630757033198 -1.2075000466809578
0.1940822218679874 -1.2153024384711997
0.20579813616564252 -1.2075000466809387
0.21612724065072658 -1.1864182978963222
0.22480150649523675 -1.153605298182093
0.23182492561289164 -1.1109396913387553
0.23731229997539263 -1.0603950678035197
0.24146254503942685 -1.0037993234183817
0.2445437083321731 -0.9426691111070756
0.2468342086990119 -0.8781624999462919
0.24857071831127311 -0.8111108388829207
0.24991542340729936 -0.742103663209301
0.25096255881638885 -0.6715704896772137
0.25176686300044043 -0.5998325242751047
0.2523929833330842 -0.5271477336170753
0.2528834490979186 -0.4537353575129409
0.25326517515249525 -0.3797676544971655
0.253549025510649 -0.3053744263134613
0.25372816665079356 -0.23064229888338628
0.2537921404025536 -0.15560445405670964
0.253807517928721 -0.08025948061024592
0.254086032200069 -0.004832359352553373
0.15277113105247853 -0.005078764006549353
0.152983321673644 -0.08030926918198447
0.15298279206596174 -0.1556017530279903
0.1529937221645374 -0.2306433660118485
0.15309001272342843 -0.30538985193409496
0.15326891591753566 -0.3797957548641373
0.153521028224841 -0.45377425002923044
0.15384894403088828 -0.5271977647249827
0.15426831000191635 -0.5998959587181107
0.1548001469539623 -0.6716543407368701
0.15548393366044685 -0.742221086550812
0.15636710197898304 -0.8112780275827692
0.15750704187424433 -0.8784024979446678
0.15900946257246906 -0.9430238605481762
0.16103054373832124 -1.0043265175829121
0.1637648133379852 -1.061159091604584
0.1674101605044644 -1.1119982752062882
0.17214564885474312 -1.155000036917067
0.17811343169488833 -1.1881769580610957
0.18543144278144183 -1.2096282010201092
0.19408222186798554 -1.217714376615926
0.20273300095452912 -1.2096282010200898
0.21005101204108165 -1.1881769580610564
0.2160187948812257 -1.1550000369170104
0.22075428323150337 -1.1119982752062187
0.22439963039798172 -1.0611590916045057
0.22713389999764466 -1.0043265175828266
0.22915498116349595 -0.9430238605480853
0.23065740186172007 -0.8784024979445737
0.23179734175698039 -0.8112780275826745
0.2326805100755157 -0.7422210865507196
0.23336429678199955 -0.6716543407367821
0.23389613373404491 -0.5998959587180281
0.2343154997050725 -0.527197764724907
0.23464341551111945 -0.4537742500291627
0.23489552781842465 -0.3797957548640794
0.2350744310125318 -0.30538985193404655
0.2351707215714228 -0.2306433660118105
0.2351816516699985 -0.15560175302796225
0.23518112206231623 -0.08030926918196675
0.2353933126834814 -0.0050787640065423365
0.17142088100639874 -0.005280320968700138
0.17159043552866124 -0.08035946481091971
0.17157298034695403 -0.15559849993773225
0.1715369410277255 -0.2306376242610463
0.1715546797001932 -0.3053946208526463
0.17162940459784592 -0.37981051265206844
0.1717505440447195 -0.4537969704388043
0.17191396981721746 -0.5272278333535747
0.17212316978814335 -0.5999341286015055
0.17239034363688682 -0.6717033516895107
0.17272827108693833 -0.7422847687325602
0.17316929878162673 -0.8113651497026834
0.17373218929311657 -0.878523072873333
0.1744704547125369 -0.9432035348573699
0.17546786999824132 -1.004600416733888
0.17682625282085632 -1.0615703123356364
0.17866755971110818 -1.1125896821549015
0.18112828737604428 -1.1558159644074526
0.1843962828846133 -1.1892572392214984
0.18864258408211637 -1.211016707147226
0.1940822218679835 -1.2194074446719236
0.1995218596538507 -1.2110167071472067
0.2037681608513531 -1.1892572392214589
0.20703615635992137 -1.155815964407396
0.20949688402485697 -1.1125896821548318
0.21133819091510841 -1.061570312335558
0.21269657373772294 -1.0046004167338023
0.21369398902342704 -0.9432035348572789
0.21443225444284728 -0.8785230728732387
0.21499514495433672 -0.8113651497025886
0.21543617264902487 -0.7422847687324677
0.21577410009907616 -0.6717033516894226
0.21604127394781944 -0.5999341286014229
0.2162504739187451 -0.5272278333534991
0.21641389969124294 -0.4537969704387365
0.21653503913811653 -0.3798105126520105
0.21660976403576931 -0.30539462085259794
0.21662750270823705 -0.23063762426100828
0.21659146338900853 -0.15559849993770417
0.21657400820730136 -0.08035946481090193
0.2167435627295637 -0.005280320968692929
0.190046232020091 -0.00544394116404632
0.1901818194087082 -0.08040797872642251
0.19014852131771626 -0.15559431666899004
0.1900694478573722 -0.2306259274429374
0.1900126380411916 -0.30538923630621706
0.18998472660314367 -0.3798119618734532
0.18997452480370908 -0.45380331336854624
0.18997225950587143 -0.5272376705210624
0.18997256661242995 -0.5999468036415974
0.18997313323887344 -0.6717197041071107
0.18997349713585127 -0.7423053659192306
0.1899738362193245 -0.8113933044962588
0.18997413104558308 -0.8785598908641241
0.18997336929120784 -0.9432538598442031
0.18997109401879891 -1.004673221240819
0.1899764844761866 -1.0616815330809597
0.1900257511861592 -1.1127589119429153
0.19022354297133603 -1.1560895534969176
0.19079624268166998 -1.1896928988882212
0.19200899537331562 -1.211664165144002
0.1940822218679814 -1.2203634624810775
0.19615544836264728 -1.2116641651439828
0.1973682010542927 -1.1896928988881816
0.1979409007646264 -1.1560895534968607
0.1981386925498032 -1.112758911942846
0.19818795925977606 -1.061681533080881
0.19819334971716385 -1.0046732212407334
0.19819107444475506 -0.9432538598441121
0.19819031269038026 -0.8785598908640299
0.1981906075166391 -0.8113933044961638
0.1981909466001126 -0.7423053659191382
0.19819131049709066 -0.6717197041070226
0.19819187712353437 -0.5999468036415148
0.19819218423009297 -0.5272376705209867
0.19818991893225538 -0.4538033133684785
0.19817971713282095 -0.37981196187339517
0.19815180569477314 -0.30538923630616865
0.19809499587859264 -0.2306259274428994
0.1980159224182487 -0.15559431666896195
0.19798262432725677 -0.08040797872640468
0.19811821171587385 -0.005443941164038957
0.2086582266577273 -0.005574368882762344
0.20876336220656527 -0.08045285708957903
0.20871438612488966 -0.1555888986658849
0.20859530188429218 -0.23060881572225206
0.2084674620242585 -0.30537425435428955
0.20833922073438532 -0.3798003177342525
0.2081984825783664 -0.4537932588023882
0.2080306491174761 -0.5272271261309229
0.2078220631665563 -0.5999343327573484
0.207555970746578 -0.6717035535968552
0.20721873707479277 -0.7422849464583835
0.20677841741422315 -0.8113652982844376
0.2062161123476346 -0.8785229956833881
0.20547667723874352 -0.9432027439082687
0.20447467731352595 -1.004599776404169
0.20312326552629187 -1.0615769652692335
0.20137285444529066 -1.1126264777462809
0.1992776427851153 -1.155951874757702
0.1970490805240912 -1.1896116875875176
0.1950799468092045 -1.2116709932999434
0.19408222186797947 -1.220682586838517
0.1930844969267543 -1.2116709932999241
0.1911153632118675 -1.189611687587478
0.18888680095084368 -1.1559518747576452
0.18679158929066908 -1.1126264777462116
0.18504117820966862 -1.0615769652691553
0.18368976642243526 -1.0045997764040835
0.18268776649721835 -0.9432027439081778
0.18194833138832825 -0.878522995683294
0.18138602632174056 -0.8113652982843429
0.1809457066611718 -0.7422849464582912
0.18060847298938726 -0.6717035535967671
0.1803423805694095 -0.5999343327572659
0.18013379461849008 -0.5272271261308472
0.17996596115760005 -0.4537932588023204
0.1798252230015814 -0.37980031773419454
0.17969698171170845 -0.30537425435424115
0.179569141851675 -0.23060881572221406
0.1794500576110776 -0.1555888986658568
0.1794010815294021 -0.08045285708956115
0.17950621707823997 -0.005574368882754856
0.22726430451169072 -0.005675590412755249
0.22734102902942907 -0.08049255798858432
0.22727565033750027 -0.1555818083382994
0.2271187706328429 -0.23058669579244653
0.22692310202748275 -0.30535022966043046
0.2266969783813883 -0.37977592275513467
0.22642761515814055 -0.4537670313546164
0.22609605562746954 -0.527196426465935
0.22567724989914148 -0.5998963602507135
0.22514631040484184 -0.6716547390958502
0.22446312762622617 -0.7422214106696233
0.22358050675491564 -0.8112783366958514
0.22244134572044477 -0.8784024758068248
0.22093882997900827 -0.9430222042369184
0.2189133939405407 -1.0043244842120704
0.21617956346413825 -1.0611723336556158
0.2126058959832915 -1.1120789564803204
0.20819716430162472 -1.1552865988003989
0.203163837778057 -1.188904633199283
0.1980861195354582 -1.2111025311159223
0.1940822218679775 -1.2204849116224445
0.1900783242004965 -1.211102531115903
0.1850006059578979 -1.1889046331992434
0.179967279434331 -1.1552865988003422
0.1755585477526654 -1.1120789564802511
0.1719848802718203 -1.061172333655538
0.1692510497954188 -1.004324484211985
0.16722561375695247 -0.9430222042368277
0.16572309801551743 -0.8784024758067309
0.16458393698104812 -0.8112783366957568
0.163701316109739 -0.7422214106695312
0.16301813333112455 -0.6716547390957622
0.16248719383682583 -0.599896360250631
0.16206838810849844 -0.5271964264658593
0.1617368285778279 -0.45376703135454866
0.16146746535458054 -0.37977592275507677
0.16124134170848645 -0.3053502296603821
0.16104567310312662 -0.2305866957924086
0.16088879339846937 -0.1555818083382713
0.16082341470654063 -0.08049255798856642
0.16090013922427893 -0.005675590412747666
0.2458699646036781 -0.005751330024589907
0.24592017410810635 -0.08052600717085022
0.24583732116013893 -0.15557251818873713
0.2456441654701949 -0.23055986340957385
0.24538358716691394 -0.30531768540524096
0.24506242198538805 -0.37973930328521277
0.24466737182215356 -0.4537250246462807
0.24417421221234456 -0.5271459109364176
0.2435484455307955 -0.599833087803891
0.24274481546726193 -0.6715710803755174
0.24169814371681855 -0.742104132893344
0.2403537449153098 -0.811111320042062
0.23861814629999828 -0.8781626994430922
0.23632956403542404 -0.9426670448401092
0.23324771363879548 -1.0037957286090213
0.22909412848846522 -1.0604117845610928
0.22364765558072838 -1.1110555426048647
0.21685862162106942 -1.1540188971716339
0.20898424421237977 -1.1874998990496664
0.20083978314123446 -1.209813637295534
0.19408222186797547 -1.2197674147287891
0.18732466059471653 -1.2098136372955144
0.17918019952357164 -1.1874998990496268
0.17130582211488318 -1.1540188971715775
0.16451678815522594 -1.111055542604796
0.15907031524749107 -1.0604117845610153
0.15491673009716236 -1.0037957286089363
0.1518348797005355 -0.9426670448400187
0.1495462974359633 -0.8781626994429986
0.14781069882065387 -0.8111113200419677
0.14646630001914715 -0.7421041328932522
0.1454196282687056 -0.6715710803754298
0.14461599820517335 -0.5998330878038086
0.1439902315236253 -0.5271459109363419
0.14349707191381697 -0.45372502464621295
0.14310202175058298 -0.37973930328515487
0.14278085656905756 -0.3053176854051926
0.1425202782657769 -0.23055986340953588
0.14232712257583308 -0.15557251818870904
0.14224426962786574 -0.08052600717083228
0.14229447913229396 -0.005751330024582263
0.2644796447785895 -0.005805126748095353
0.2645054741250874 -0.0805525836050663
0.26440424071210356 -0.15556049546176495
0.26417594598629945 -0.23052854554377333
0.2638529624355089 -0.30527716713547826
0.2634400105282276 -0.37969094514484486
0.26292268783022243 -0.45366804594012017
0.2622715636641609 -0.5270759793319432
0.26143256445581864 -0.5997409330820869
0.26033263066342255 -0.6714387260477886
0.2589102358061427 -0.741915596674611
0.2570955885129566 -0.8108470345934797
0.25474913878551825 -0.8777855152289308
0.2516495206029499 -0.9421167599296095
0.24748005491831637 -1.0029918769724542
0.24187438045097054 -1.0592728936685596
0.23451457232260678 -1.1095305269660933
0.22530016441689701 -1.1521245087720784
0.2145660237903649 -1.1853810504057558
0.20340784936683332 -1.2078217545062848
0.19408222186797366 -1.2185479349031865
0.18475659436911418 -1.2078217545062653
0.17359841994558337 -1.1853810504057165
0.1628642793190527 -1.1521245087720227
0.15364987141334496 -1.109530526966025
0.1462900632849837 -1.0592728936684825
0.14068438881763984 -1.0029918769723691
0.1365149231330084 -0.9421167599295195
0.13341530495044268 -0.8777855152288376
0.13106885522300693 -0.810847034593386
0.12925420792982342 -0.7419155966745197
0.1278318130725459 -0.6714387260477014
0.12673187928015167 -0.5997409330820047
0.12589288007181082 -0.5270759793318676
0.12524175590575015 -0.4536680459400525
0.12472443320774566 -0.3796909451447871
0.12431148130046489 -0.30527716713542996
0.1239884977496747 -0.23052854554373545
0.12376020302387084 -0.15556049546173686
0.1236589696108871 -0.08055258360504834
0.12368479895738503 -0.005805126748087661
0.2830969193981502 -0.005840471995899305
0.28310099039510644 -0.08057205043546879
0.28298102383455415 -0.15554528947799237
0.2827186163249844 -0.2304929403023947
0.282335602563428 -0.30522914098632964
0.2818342730922715 -0.37963177614310406
0.28119955882848413 -0.4535968587929783
0.28038811148943227 -0.5269848711993343
0.2793124030775969 -0.599607738629312
0.2779045054553247 -0.6712464233424014
0.27610823921958183 -0.7416489382518644
0.2738140253003769 -0.8104755456618662
0.27083981583663325 -0.8772587532395653
0.2669029646948273 -0.9413573163121397
0.26161821815537634 -1.0018998698153223
0.2545331201275818 -1.0577432274334542
0.245244744796722 -1.107492337632573
0.2336028358289117 -1.1495944128975182
0.22001866190697433 -1.1825465949404987
0.20590290067271355 -1.2051456850078182
0.194082221867972 -1.216844796748397
0.18226154306323072 -1.2051456850077988
0.16814578182897094 -1.1825465949404597
0.15456160790703538 -1.1495944128974627
0.14291969893922743 -1.1074923376325054
0.13363132360837027 -1.0577432274333776
0.1265462255805783 -1.001899869815238
0.12126147904112977 -0.9413573163120501
0.11732462789932697 -0.8772587532394727
0.11435041843558655 -0.810475545661773
0.11205620451638466 -0.7416489382517737
0.11025993828064452 -0.6712464233423145
0.10885204065837464 -0.5996077386292301
0.10777633224654114 -0.5269848711992587
0.10696488490749066 -0.45359685879291073
0.10633017064370401 -0.3796317761430463
0.10582884117254811 -0.3052291409862814
0.10544582741099208 -0.23049294030235684
0.10518341990142263 -0.1555452894779643
0.10506345334087049 -0.08057205043545083
0.10506752433782666 -0.005840471995891576
0.3017245133136734 -0.005860919282320871
0.30171017661127736 -0.08058450208628576
0.30157212211804124 -0.15552660600495427
0.3012766809094275 -0.2304532277577901
0.3008355574048028 -0.305174036421433
0.300249392288938 -0.37956252718669803
0.2995015163183971 -0.4535119458192354
0.2985108464134886 -0.5268628756697625
0.2971831447613444 -0.5994244456612364
0.2954739135582565 -0.6709914236449309
0.2932978217478718 -0.7412983542709884
0.2905141424310088 -0.8099894208894524
0.28689516552589595 -0.8765730257999267
0.2820974065377059 -0.9403780939264312
0.27566470626820416 -1.0005088450859994
0.2670865337884258 -1.0558174982511312
0.255881600986011 -1.1049405949398046
0.24184482582950076 -1.1464308681342688
0.22546270436707314 -1.1790028998999138
0.20841904621015206 -1.2017899085103259
0.19408222186797042 -1.2146567994693187
0.17974539752578914 -1.2017899085103068
0.16270173936886928 -1.1790028998998752
0.14631961790644377 -1.1464308681342135
0.13228284274993624 -1.1049405949397375
0.12107790994752421 -1.0558174982510549
0.11249973746774887 -1.0005088450859156
0.1060670371982502 -0.9403780939263424
0.10126927821006358 -0.876573025799835
0.09765030130495458 -0.8099894208893599
0.09486662198809509 -0.7412983542708982
0.09269053017771356 -0.6709914236448445
0.09098129897462832 -0.5994244456611548
0.08965359732248648 -0.5268628756696874
0.08866292741757972 -0.45351194581916787
0.08791505144703982 -0.37956252718664035
0.08732888633117564 -0.3051740364213848
0.08688776282655132 -0.23045322775775226
0.0865923216179379 -0.1555266060049262
0.08645426712470194 -0.0805845020862678
0.08643993042230591 -0.005860919282313126
0.32036416104344845 -0.005870155324543267
0.32033583206161004 -0.08059035463787427
0.3201819619984739 -0.15550438502383146
0.3198547585411954 -0.23040954813759656
0.31935668403672707 -0.30511223007363014
0.3186907516545621 -0.3794848985734701
0.3178204086531326 -0.45340676410870273
0.31662862663574803 -0.5266995053607438
0.3150585309034753 -0.5991909937655052
0.31304600195996635 -0.6706701720923058
0.31048438084277935 -0.740858787917879
0.30720124475111177 -0.809382546235907
0.30292027287237916 -0.8757205908534436
0.2972367834486892 -0.9391694727003471
0.2896337224611766 -0.9988113709113253
0.2795439129380261 -1.0534935342362763
0.26645475380192735 -1.1018844974120967
0.25011842322131456 -1.142651499099521
0.2310274244245791 -1.1747600162962692
0.21104669579121085 -1.1977413376963442
0.1940822218679688 -1.2119623384442166
0.17711774794472712 -1.1977413376963253
0.15713701931136048 -1.174760016296231
0.1380460205146274 -1.1426514990994663
0.12170968993401755 -1.10188449741203
0.10862053079792193 -1.0534935342362006
0.09853072127477491 -0.9988113709112423
0.09092766028726577 -0.9391694727002587
0.08524417086357972 -0.8757205908533526
0.08096319898485158 -0.8093825462358153
0.07768006289318796 -0.7408587879177896
0.07511844177600457 -0.67067017209222
0.07310591283249859 -0.5991909937654243
0.0715358171002286 -0.526699505360669
0.07034403508284623 -0.4534067641086354
0.06947369208141797 -0.37948489857341255
0.06880775969925373 -0.30511223007358207
0.06830968519478588 -0.23040954813755876
0.0679824817375077 -0.15550438502380345
0.06782861167437165 -0.08059035463785631
0.06780028269253331 -0.005870155324535528
0.3390162733374849 -0.005872027818914687
0.3389800172921367 -0.08059039119074227
0.3388151742784907 -0.15547895824546784
0.33845775075878337 -0.23036174290468597
0.33790285613405474 -0.3050447608542727
0.3371598853680298 -0.37939718259331834
0.33614359538532745 -0.45327264543258994
0.3347554307130999 -0.5264956524133624
0.3329433937688211 -0.5989051537327318
0.3306253454915909 -0.6702792442866683
0.32767268768639696 -0.7403265258357113
0.3238788844543431 -0.8086492034512422
0.318919887350573 -0.8746945923890598
0.3123311663851392 -0.9377243245481979
0.3035313488639002 -0.9967992693190058
0.29191912776820816 -1.0507707405239843
0.27698648953830474 -1.0983435268981436
0.25849763716141255 -1.138290409089806
0.23684830353777447 -1.169833269742465
0.21390580328848566 -1.192968009081735
0.19408222186796711 -1.2087138105922202
0.17425864044744901 -1.1929680090817163
0.1513161401981621 -1.1698332697424272
0.12966680657452664 -1.1382904090897517
0.11117795419763787 -1.098343526898078
0.09624531596773793 -1.050770740523909
0.08463309487204969 -0.9967992693189235
0.07583327735081474 -0.9377243245481104
0.06924455638538539 -0.8746945923889697
0.06428555928162018 -0.8086492034511514
0.060491756049570765 -0.7403265258356228
0.05753909824438089 -0.6702792442865833
0.05522104996715405 -0.5989051537326514
0.053409013022878316 -0.526495652413288
0.05202084835065335 -0.453272645432523
0.0510045583679526 -0.37939718259326094
0.05026158760192848 -0.30504476085422466
0.04970669297720036 -0.23036174290464825
0.04934926945749333 -0.15547895824543984
0.04918442644384742 -0.0805903911907243
0.0491481703984993 -0.005872027818906947
0.3576792676002304 -0.00587050159679891
0.3576440019183121 -0.08058594187482603
0.3574769159070791 -0.15545118195639954
0.3570912381058938 -0.23030931707335672
0.3564779489470706 -0.3049729811192975
0.35564895437535 -0.3792931421058152
0.3544762938518287 -0.45310554156590976
0.3528953995694186 -0.5262507340866748
0.3508420274169885 -0.598564591159332
0.3482163153533458 -0.6698160048210989
0.34486653547025786 -0.7396975037273663
0.34055213516191235 -0.8077848943607724
0.33489811680134096 -0.873488809275269
0.32738111532673164 -0.9360355974092566
0.3173758012687701 -0.9944686567787651
0.30424024061426663 -1.0476494381734913
0.2874864480328656 -1.0943342426491043
0.26697606623247055 -1.133402469782579
0.24309958085514516 -1.1642638318194798
0.21720524314309966 -1.1874143021800885
0.19408222186796517 -1.2048163207958256
0.17095920059283143 -1.1874143021800703
0.14506486288078818 -1.1642638318194425
0.12118837750346578 -1.1334024697825251
0.10067799570307463 -1.0943342426490392
0.0839242031216775 -1.047649438173417
0.07078864246717836 -0.9944686567786835
0.06078332840922134 -0.9360355974091699
0.05326632693461688 -0.8734888092751799
0.047612308574050924 -0.8077848943606827
0.04329790826571037 -0.7396975037272786
0.0399481283826269 -0.6698160048210148
0.037322416318987896 -0.5985645911592522
0.0352690441665612 -0.5262507340866012
0.03368814988415394 -0.4531055415658432
0.03251548936063475 -0.37929314210575793
0.03168649478891505 -0.30497298111924953
0.03107320563009236 -0.23030931707331903
0.03068752782890744 -0.15545118195637156
0.030520441817674538 -0.08058594187480805
0.030485176135756308 -0.005870501596791172
0.37634827163788176 -0.005869490311914655
0.3763283069739919 -0.08057936186813391
0.3761736458831087 -0.15542238746859585
0.37576164467533746 -0.23025205234381096
0.37508371565990206 -0.3048948857616416
0.3741520463480862 -0.3791703620031358
0.37282404247299206 -0.4529047072120658
0.371052394892022 -0.5259634082787058
0.3687587085486097 -0.5981676620556189
0.36582275839907497 -0.6692780578841443
0.36207074321499005 -0.7389689140750735
0.3572243080920752 -0.8067843930588222
0.35085465903672935 -0.8720965074783674
0.34239891758889945 -0.934099763629606
0.3311830755505351 -0.9918182574933989
0.3165353774778107 -1.0441316057399075
0.2979860118106876 -1.0898666620550115
0.2755020862558269 -1.1280257882564606
0.24969400547372614 -1.158185655287478
0.22165156207613476 -1.1810368154977178
0.1940822218679631 -1.2000000000000002
0.16651288165979217 -1.1810368154976996
0.13847043826220323 -1.1581856552874414
0.11266235748010618 -1.1280257882564075
0.09017843192525005 -1.0898666620549473
0.07162906625813142 -1.044131605739834
0.05698136818541185 -0.9918182574933185
0.04576552614705262 -0.9340997636295204
0.0373097846992281 -0.8720965074782797
0.03094013564388809 -0.8067843930587336
0.026093700520978886 -0.7389689140749869
0.022341685336898637 -0.669278057884061
0.019405735187367976 -0.5981676620555401
0.017112048843959476 -0.5259634082786326
0.01534040126299253 -0.4529047072119998
0.014012397387900739 -0.3791703620030788
0.013080728076085983 -0.3048948857615937
0.012402799060651178 -0.23025205234377327
0.011990797852880286 -0.15542238746856787
0.011836136761997226 -0.08057936186811596
0.01181617209810745 -0.005869490311906916
SCALARS Stress float 6
LOOKUP_TABLE default
-697.0520631088903 -1436.180846328115 -959.4200163523476 10.715081925981083 0.0 0.0
931.9582198996876 546.2670951937562 584.7738249130573 -12.410851846730544 0.0 0.0
427.1765230599344 4.52723720857363 128.9095447738903 -28.264671194798012 0.0 0.0
413.75359104142103 20.462202211352285 129.6989276966227 -3.9058460390825536 0.0 0.0
494.3714356482641 23.76791873355984 156.39446965725006 -4.25456269488349 0.0 0.0
546.5880085886238 50.53616617272739 206.26694073532857 -2.867748056720843 0.0 0.0
618.1615346362685 59.77004872833628 259.14073857467565 -4.185953338453823 0.0 0.0
687.3896161295111 91.85918121924847 323.4748304696809 -4.374496583711679 0.0 0.0
759.5597134433227 131.48513246418435 391.7201497439271 -4.051272706960104 0.0 0.0
840.7567366992669 181.91216167361037 467.0832831166216 -3.873937591666299 0.0 0.0
934.7938355710737 244.67897814003382 552.5669962099398 -3.7893118673992214 0.0 0.0
1041.150002384891 320.2693388612699 648.4005221255172 -4.037122921721744 0.0 0.0
1156.3186437815684 401.07859054424694 748.296110950376 -4.343611469976001 0.0 0.0
1277.2932847298944 485.53408250636875 851.0764693533462 -4.693859351117036 0.0 0.0
1396.8626319334207 567.9473777688166 951.1341605798557 -5.069886016489645 0.0 0.0
1509.3020098280906 644.3397256827772 1044.4042751983031 -5.510808786605031 0.0 0.0
1610.2695093521422 712.430926107151 1128.0205866075328 -5.821879308789727 0.0 0.0
1695.1025297436868 769.3034638498536 1198.408610277268 -5.533275241036304 0.0 0.0
1758.8520653969367 811.4083334258275 1251.2367801384553 -4.3754495090114 0.0 0.0
1793.3039018202667 832.0239309229204 1278.8512493934545 -3.1498167693875345 0.0 0.0
1794.3595526606025 829.2946230640339 1278.2660755436789 -3.175770757479768e-11 0.0 0.0
1793.3039018201753 832.0239309228458 1278.8512493933558 3.1498167694344 0.0 0.0
1758.852065396636 811.4083334255436 1251.236780138176 4.375449509062593 0.0 0.0
1695.1025297443969 769.3034638506101 1198.4086102776969 5.533275241108985 0.0 0.0
1610.269509351881 712.430926106925 1128.020586607112 5.821879308802483 0.0 0.0
1509.3020098278885 644.3397256826178 1044.4042751979955 5.510808786598146 0.0 0.0
1396.8626319327218 567.947377768151 951.1341605792586 5.069886016486187 0.0 0.0
1277.2932847294517 485.53408250599125 851.0764693528953 4.693859351074723 0.0 0.0
1156.3186437814388 401.0785905442266 748.2961109501289 4.3436114699614485 0.0 0.0
1041.1500023841263 320.26933886059345 648.400522124882 4.037122921725942 0.0 0.0
934.7938355708014 244.67897813991166 552.566996209569 3.789311867380677 0.0 0.0
840.7567366982664 181.91216167270676 467.0832831158523 3.8739375916484544 0.0 0.0
759.5597134427724 131.48513246378076 391.7201497434063 4.051272706954405 0.0 0.0
687.389616128844 91.85918121871842 323.4748304691318 4.374496583701802 0.0 0.0
618.1615346359239 59.77004872817716 259.1407385743383 4.185953338437967 0.0 0.0
546.5880085882543 50.5361661725652 206.26694073504893 2.8677480567070663 0.0 0.0
494.37143564783776 23.767918733301084 156.394469657017 4.254562694933324 0.0 0.0
413.75359104106093 20.462202211069346 129.69892769643533 3.905846039077833 0.0 0.0
427.17652305962747 4.527237208465154 128.90954477378202 28.264671194816 0.0 0.0
931.9582198994368 546.2670951933661 584.7738249126878 12.41085184679445 0.0 0.0
-697.052063106938 -1436.1808463261486 -959.4200163504718 -10.715081926491859 0.0 0.0
-880.3101576803174 -1579.5614967817637 -1075.4880391434567 14.7977786979549 0.0 0.0
618.5635909491444 325.970437401607 364.7358833343638 -39.5125446007519 0.0 0.0
297.9404077043794 -13.164401302570774 85.49421567056032 -20.455977017419073 0.0 0.0
368.91988504485073 6.857554066929185 112.68120512483168 -14.859087708346056 0.0 0.0
439.6345493080935 8.037688901250164 133.71829297345673 -16.170930835228926 0.0 0.0
513.5311509672391 12.00470715805254 171.39267442767238 -16.974909408683242 0.0 0.0
565.6483822511076 22.476313643515134 218.1351212803547 -19.00971150550715 0.0 0.0
626.3037234440771 42.90464315194998 271.79148158148587 -18.744130717616894 0.0 0.0
685.1821628420929 68.24647524588585 326.596631474196 -17.991142547239363 0.0 0.0
747.2998643468127 99.96946461840366 384.1208746648346 -17.444797181912417 0.0 0.0
814.721998483982 137.07254311092873 444.7664642417309 -16.71760886031432 0.0 0.0
886.9347972726691 176.20183371737468 506.33710305411887 -16.21732071801165 0.0 0.0
957.979980725941 214.9507697051633 564.4897966076569 -15.859798352702667 0.0 0.0
1026.7237483170607 246.99691208754214 615.6956155212515 -15.499461870344893 0.0 0.0
1086.1191305505786 269.26741308087577 656.2699367423279 -15.393256633767166 0.0 0.0
1131.564346547186 278.8505323081541 683.225016839092 -15.459322775768106 0.0 0.0
1160.8221144482686 275.35860840570916 695.6695556306131 -15.267435781378168 0.0 0.0
1175.9501647771958 262.50071493047795 696.6550989147613 -14.043603740895394 0.0 0.0
1180.3484154847024 245.15172035948234 690.3345905224508 -11.442480009857226 0.0 0.0
1168.6317786250368 219.25488443273198 672.0379285338965 -8.068510554159108 0.0 0.0
1142.9899432864534 189.63099699365273 645.1397103628196 -1.2641443447591882e-11 0.0 0.0
1168.631778625007 219.2548844327193 672.0379285338545 8.068510554229395 0.0 0.0
1180.3484154845694 245.15172035936405 690.3345905222976 11.442480009896247 0.0 0.0
1175.9501647773425 262.50071493065684 696.6550989148267 14.043603740969546 0.0 0.0
1160.8221144477598 275.3586084052101 695.6695556301147 15.267435781398314 0.0 0.0
1131.5643465469502 278.85053230795285 683.2250168388206 15.459322775729248 0.0 0.0
1086.11913055006 269.26741308040374 656.2699367418743 15.393256633796701 0.0 0.0
1026.7237483165402 246.99691208707654 615.6956155207721 15.49946187034327 0.0 0.0
957.9799807258455 214.9507697051702 564.4897966074799 15.859798352722004 0.0 0.0
886.9347972719781 176.20183371676742 506.33710305354975 16.21732071801861 0.0 0.0
814.721998483604 137.07254311067126 444.76646424134856 16.717608860277945 0.0 0.0
747.2998643463662 99.96946461809154 384.12087466444046 17.44479718186797 0.0 0.0
685.1821628416847 68.24647524562116 326.59663147380934 17.991142547261553 0.0 0.0
626.303723443554 42.904643151579954 271.7914815810457 18.74413071761562 0.0 0.0
565.6483822508882 22.47631364351219 218.13512128013306 19.009711505484265 0.0 0.0
513.5311509668891 12.004707157947326 171.3926744274463 16.97490940865937 0.0 0.0
439.63454930773986 8.037688901145566 133.71829297330842 16.17093083525613 0.0 0.0
368.9198850446413 6.857554066824077 112.68120512473976 14.859087708324388 0.0 0.0
297.94040770429524 -13.164401302741215 85.49421567048162 20.455977017393323 0.0 0.0
618.5635909488316 325.97043740126367 364.73588333401835 39.51254460080106 0.0 0.0
-880.3101576788786 -1579.5614967802082 -1075.488039141926 -14.797778698393346 0.0 0.0
-716.8190451049059 -1380.2334088591203 -882.8636396632257 -30.94375458471855 0.0 0.0
433.48596855307835 217.59489429395333 245.56296082649447 -96.20659408669349 0.0 0.0
220.271680591358 16.42225257208235 71.00817994903208 -17.252263345672148 0.0 0.0
312.54768244063393 -0.5896177833023997 93.58948895165607 -33.11685474808556 0.0 0.0
389.85915627945883 7.229738401165585 118.86359364636385 -36.83205445750222 0.0 0.0
481.47202357794447 7.303082960515372 151.08042858660454 -34.51252116080817 0.0 0.0
534.7259280564947 21.893136465503513 197.02780634962627 -36.57671085837176 0.0 0.0
597.3047431139371 35.14730314147535 246.70777645657205 -36.61516303109748 0.0 0.0
655.597073618808 58.696737533030756 300.34117578544186 -35.39526907521377 0.0 0.0
715.8882673556592 86.75227096915768 355.72379106316066 -34.120663308737946 0.0 0.0
779.86157051283 119.82238349635844 413.8892923096453 -32.89740108032871 0.0 0.0
847.3963381370917 156.4494395481601 473.6318417491714 -31.671667415648823 0.0 0.0
917.6781900952566 191.11943893790522 530.6249319909101 -30.801665247639114 0.0 0.0
982.4845569664801 221.27543664121055 579.9826975657332 -30.201195869722582 0.0 0.0
1039.245248743874 240.82869268931964 618.2414403728674 -29.99922936268578 0.0 0.0
1082.6266175800324 248.48180926784957 643.2946055994335 -30.003213810921384 0.0 0.0
1112.0445715136343 245.33430775712782 655.9498582954359 -29.413846583368592 0.0 0.0
1128.9927693987497 234.32901043234153 658.7439470140321 -27.055725950897443 0.0 0.0
1132.5583644492287 215.86707459241728 651.4939731517346 -22.46517173703053 0.0 0.0
1123.9484507223788 192.84631969826387 636.0863266220114 -15.681148406956275 0.0 0.0
1089.0180792287586 154.00197670626036 600.2324648092604 1.7339019109385845e-11 0.0 0.0
1123.9484507225282 192.846319698432 636.0863266221194 15.681148407005436 0.0 0.0
1132.558364448809 215.86707459199317 651.4939731514029 22.46517173703767 0.0 0.0
1128.9927693985812 234.32901043220917 658.7439470138736 27.055725950937138 0.0 0.0
1112.0445715124108 245.33430775590568 655.9498582944663 29.413846583419378 0.0 0.0
1082.6266175797923 248.4818092676398 643.2946055991775 30.00321381092441 0.0 0.0
1039.2452487434603 240.82869268895638 618.241440372459 29.999229362701264 0.0 0.0
982.4845569659276 221.27543664071013 579.9826975652641 30.20119586973496 0.0 0.0
917.6781900951787 191.1194389379196 530.624931990767 30.80166524765353 0.0 0.0
847.3963381364439 156.44943954760205 473.6318417486358 31.671667415643533 0.0 0.0
779.861570512606 119.8223834962537 413.8892923093833 32.897401080291495 0.0 0.0
715.8882673553408 86.75227096897241 355.72379106283967 34.12066330868927 0.0 0.0
655.5970736186655 58.69673753308083 300.3411757852494 35.39526907522193 0.0 0.0
597.3047431134363 35.14730314113195 246.7077764561568 36.615163031126 0.0 0.0
534.7259280562721 21.89313646553622 197.02780634943966 36.5767108583527 0.0 0.0
481.4720235775411 7.3030829604090135 151.08042858639888 34.51252116079521 0.0 0.0
389.85915627912806 7.22973840119332 118.8635936462852 36.83205445751755 0.0 0.0
312.54768244047483 -0.5896177833235408 93.58948895160273 33.11685474803836 0.0 0.0
220.27168059126677 16.42225257189096 71.0081799489473 17.25226334561238 0.0 0.0
433.4859685528464 217.5948942937655 245.5629608262384 96.20659408658969 0.0 0.0
-716.8190451036348 -1380.2334088577397 -882.8636396618302 30.94375458446538 0.0 0.0
-570.111327558635 -1198.2409141815747 -713.8459305077901 -51.51551466707066 0.0 0.0
303.7331238587348 119.21266829639248 156.86695581016352 -132.34997210282845 0.0 0.0
163.18833689008176 32.82885228156534 58.805156751494124 -38.862108088595605 0.0 0.0
257.67079982797117 3.5728881156260184 78.37286454264895 -48.325357847723815 0.0 0.0
339.42744887042807 3.025872731704893 102.58066047407848 -57.626289425720955 0.0 0.0
431.3764255179944 4.66031684237188 130.94122917375594 -55.09452843383275 0.0 0.0
507.58348996000245 15.407645304569206 172.71223744485457 -55.79981759657427 0.0 0.0
562.3676570390878 27.393637901137403 218.99923651826273 -55.20276200306482 0.0 0.0
621.4231432319531 48.312660877239765 270.6910128757599 -52.87545138790196 0.0 0.0
680.1612674058958 73.48285999986886 324.2683293091489 -50.88645428583746 0.0 0.0
740.4761262227752 102.9074478829012 380.04068434668545 -48.905614381592024 0.0 0.0
805.3673241150937 134.96793667642845 437.5908253050917 -47.143916340742095 0.0 0.0
871.5401469090401 168.32632786592941 493.9212112818125 -45.58001831509092 0.0 0.0
935.318749994005 194.0704719934388 541.7100694782222 -44.82295925699497 0.0 0.0
988.8782854603768 211.3976812460975 577.9605694199555 -44.53332217331497 0.0 0.0
1030.9332561716346 218.70883102519116 602.3626881886458 -44.344349523659275 0.0 0.0
1061.0223620522593 215.9394433742335 615.4957514547251 -43.447976733842964 0.0 0.0
1079.1740994917143 205.88646670133343 619.3644652242752 -40.292114484423585 0.0 0.0
1084.366048297869 188.55175213372274 613.5073865754752 -33.823292232139195 0.0 0.0
1076.8869457842065 165.94827488735606 598.8841682714753 -23.024729812007703 0.0 0.0
1026.036443782172 110.9512937337634 547.5821173548853 7.077183283854538e-11 0.0 0.0
1076.8869457843093 165.94827488747825 598.8841682715641 23.024729812088907 0.0 0.0
1084.3660482974044 188.55175213328522 613.5073865751125 33.82329223225941 0.0 0.0
1079.174099491894 205.88646670155126 619.3644652243601 40.29211448454008 0.0 0.0
1061.0223620515744 215.93944337358093 615.4957514541408 43.447976733910586 0.0 0.0
1030.9332561713377 218.70883102492337 602.3626881883654 44.34434952370526 0.0 0.0
988.8782854600815 211.39768124585086 577.9605694196555 44.533322173334895 0.0 0.0
935.3187499934174 194.07047199288894 541.7100694777657 44.82295925698143 0.0 0.0
871.5401469091736 168.32632786618817 493.9212112818227 45.58001831513464 0.0 0.0
805.3673241145491 134.96793667598 437.5908253046493 47.143916340762104 0.0 0.0
740.4761262226588 102.90744788291587 380.04068434649747 48.90561438159493 0.0 0.0
680.1612674055868 73.4828599997211 324.26832930884774 50.886454285810835 0.0 0.0
621.4231432318122 48.31266087728457 270.6910128755803 52.87545138791113 0.0 0.0
562.367657038533 27.39363790075083 218.99923651782902 55.20276200305189 0.0 0.0
507.5834899596928 15.407645304531657 172.71223744464447 55.7998175965713 0.0 0.0
431.37642551762247 4.660316842367537 130.9412291736281 55.09452843377236 0.0 0.0
339.42744887016465 3.025872731679644 102.58066047399524 57.62628942567519 0.0 0.0
257.67079982784315 3.5728881155868883 78.37286454259868 48.32535784761172 0.0 0.0
163.18833689010228 32.828852281587444 58.8051567515069 38.862108088486686 0.0 0.0
303.7331238585593 119.21266829634632 156.86695581000387 132.34997210268529 0.0 0.0
-570.1113275575838 -1198.240914180393 -713.8459305066082 51.51551466695508 0.0 0.0
-443.1956487824458 -1032.8460836845854 -567.6085512914123 -59.5276960644252 0.0 0.0
215.6461616969468 36.58281649821991 93.15905071855539 -158.43758921827805 0.0 0.0
119.18615366697608 36.565981207108905 46.725640462225485 -66.99569737052944 0.0 0.0
206.4789045085191 10.353899559595188 65.04984122043427 -65.61084662357122 0.0 0.0
287.60372909716057 3.254632344217497 87.30044079861817 -76.06860350418219 0.0 0.0
372.1910654578925 0.9112331232786898 111.17463696089348 -78.8998400091553 0.0 0.0
466.6734231610143 5.262082911957858 145.17262603768947 -75.86481581348596 0.0 0.0
522.0194093065368 23.570317674864405 190.64314600031483 -72.90480384131095 0.0 0.0
580.7080116378123 37.49299934603341 237.54754197060245 -70.75206329909902 0.0 0.0
638.2558656485296 60.03351576272408 288.9188774281695 -67.73607958836432 0.0 0.0
696.6951762348089 85.40038479143648 342.2412066308821 -65.04069107311881 0.0 0.0
758.288061598145 113.6872504192929 397.84973778326616 -62.543297356022286 0.0 0.0
822.3183721726041 142.2916829698936 452.59838466962964 -60.58666236810141 0.0 0.0
882.4180372999874 167.79824495243358 500.6114351457162 -59.429264392125795 0.0 0.0
934.6050165723326 182.29012996739704 535.7516520528518 -58.970077798493456 0.0 0.0
975.551479972286 187.38657554017638 558.8185596973016 -58.64130569920206 0.0 0.0
1006.2588087344753 186.3077694667107 573.1495713686176 -57.41512413253242 0.0 0.0
1026.7215234816754 178.37159003395158 579.2357440472531 -53.709292245889245 0.0 0.0
1034.2280707345408 162.45838751794255 575.3269980381406 -45.468076521263335 0.0 0.0
1026.4361648706936 138.06072636643174 559.7603636754732 -30.7096632624984 0.0 0.0
955.4437979454918 62.51946819589652 488.95768173866725 6.279599062963825e-11 0.0 0.0
1026.4361648704248 138.06072636619814 559.7603636753369 30.709663262652033 0.0 0.0
1034.2280707345137 162.45838751796487 575.3269980380645 45.46807652146276 0.0 0.0
1026.7215234819896 178.3715900343299 579.2357440474304 53.709292246073105 0.0 0.0
1006.2588087343082 186.30776946657193 573.1495713684011 57.41512413258694 0.0 0.0
975.5514799720542 187.38657553999383 558.8185596970931 58.64130569923057 0.0 0.0
934.6050165720588 182.29012996716804 535.7516520525975 58.970077798536074 0.0 0.0
882.4180372994406 167.7982449519506 500.61143514528135 59.42926439213819 0.0 0.0
822.3183721725575 142.29168296994482 452.598384669502 60.586662368177144 0.0 0.0
758.2880615977731 113.68725041902087 397.8497377829398 62.54329735599521 0.0 0.0
696.6951762343061 85.40038479103399 342.24120663043635 65.04069107312344 0.0 0.0
638.2558656482943 60.0335157626665 288.91887742792545 67.73607958835485 0.0 0.0
580.7080116375151 37.492999345926876 237.54754197033498 70.75206329910408 0.0 0.0
522.0194093060638 23.570317674559796 190.64314599996615 72.90480384127477 0.0 0.0
466.6734231606238 5.262082911821748 145.17262603747398 75.86481581349449 0.0 0.0
372.19106545748684 0.9112331232806397 111.17463696078602 78.8998400090208 0.0 0.0
287.6037290969024 3.254632344147482 87.30044079852037 76.06860350409809 0.0 0.0
206.4789045084264 10.353899559586512 65.04984122040389 65.61084662345345 0.0 0.0
119.18615366699369 36.565981207119655 46.725640462234004 66.99569737034894 0.0 0.0
215.64616169680085 36.58281649824812 93.15905071845897 158.43758921810723 0.0 0.0
-443.19564878159343 -1032.8460836835807 -567.6085512904378 59.527696064351076 0.0 0.0
-331.5251133153657 -887.4925674394088 -443.3663699700777 -69.96301178838753 0.0 0.0
146.64351019564907 -21.016790384332204 47.623089669442905 -166.45018496541846 0.0 0.0
83.58978323043603 32.61678815107207 34.86197141445243 -93.92759414860652 0.0 0.0
159.42917370469291 16.081984981367327 52.653347605818055 -84.34219094504448 0.0 0.0
235.5096085845868 5.215338552945841 72.22508517614169 -93.35048190286287 0.0 0.0
309.09369576180546 0.9011262612519193 92.96477982040017 -98.75437931972334 0.0 0.0
396.9033522481298 1.6696290063070782 119.77439970134323 -97.83714686407123 0.0 0.0
481.1209353516467 9.670706635456302 156.7158051866547 -94.40746271977166 0.0 0.0
527.9023038258977 30.526717152224116 202.10257288836183 -86.91127036186035 0.0 0.0
589.3413673701098 45.689100274139435 248.8269293639954 -85.15703515180464 0.0 0.0
645.9582634225317 67.69651283537054 299.5625996988106 -81.3983926595137 0.0 0.0
704.5007457579065 91.93255941987795 352.7367543991015 -78.15961601273243 0.0 0.0
765.7033112039517 117.50098687663765 406.68427559111416 -75.52791807025746 0.0 0.0
824.4250381801708 138.79228229535514 454.2262439718676 -74.13301565653768 0.0 0.0
874.7049047515607 152.46356512507526 489.87467998006036 -73.46514367219618 0.0 0.0
914.7722568817356 157.8085279646517 513.4444167155633 -72.62246494082824 0.0 0.0
946.3637101425616 155.50474126795265 527.6922754756454 -71.26884109648144 0.0 0.0
969.5521094390803 150.37265390393225 536.6215154477419 -67.23714505396258 0.0 0.0
980.5917790766604 137.48675986047482 536.2065899798861 -57.516076211971246 0.0 0.0
972.2605514156712 110.20636403322194 519.1403899793821 -39.12892410670971 0.0 0.0
876.2478792763537 9.152586586760346 424.27481087232485 8.073541835074138e-12 0.0 0.0
972.2605514154354 110.20636403304319 519.140389979277 39.128924106868844 0.0 0.0
980.5917790769479 137.48675986081966 536.2065899800929 57.516076212146146 0.0 0.0
969.5521094390268 150.37265390391707 536.6215154477002 67.23714505410017 0.0 0.0
946.3637101422024 155.5047412676168 527.6922754753158 71.26884109652526 0.0 0.0
914.7722568815408 157.80852796452146 513.444416715374 72.62246494089995 0.0 0.0
874.7049047511001 152.46356512464956 489.87467997970305 73.46514367221612 0.0 0.0
824.4250381800728 138.79228229535815 454.22624397174553 74.13301565660348 0.0 0.0
765.7033112035888 117.5009868763427 406.6842755908027 75.52791807029826 0.0 0.0
704.5007457576289 91.93255941971118 352.73675439884556 78.15961601271991 0.0 0.0
645.9582634220833 67.69651283500123 299.5625996984169 81.39839265948515 0.0 0.0
589.3413673697561 45.68910027395941 248.82692936368142 85.15703515177702 0.0 0.0
527.9023038255242 30.526717152001677 202.10257288805826 86.91127036186748 0.0 0.0
481.1209353511845 9.67070663516398 156.71580518633775 94.40746271970399 0.0 0.0
396.9033522476297 1.6696290062208639 119.77439970116956 97.83714686400641 0.0 0.0
309.0936957614652 0.9011262611513411 92.96477982027365 98.75437931960738 0.0 0.0
235.50960858438262 5.215338552886141 72.22508517606185 93.35048190278246 0.0 0.0
159.42917370462328 16.081984981347166 52.65334760579115 84.34219094490192 0.0 0.0
83.5897832304283 32.61678815105633 34.86197141444539 93.92759414842294 0.0 0.0
146.6435101954485 -21.01679038433734 47.62308966934008 166.45018496521968 0.0 0.0
-331.52511331468145 -887.4925674385706 -443.3663699692939 69.96301178836787 0.0 0.0
-239.0841805801009 -750.0510279400598 -339.51051625969683 -77.89130997890193 0.0 0.0
95.3485585926287 -65.9746168564231 14.431797501069724 -170.2433111167075 0.0 0.0
53.98812779614276 25.498195587175793 23.84589701499556 -116.52061178707332 0.0 0.0
116.16667967821769 19.785573305680785 40.78567589516954 -102.81099649372857 0.0 0.0
183.20734497461814 7.81555271990314 57.31366814670967 -109.05119306975658 0.0 0.0
247.13115070299762 1.0787023990310212 74.42322580710055 -116.09785429467054 0.0 0.0
320.5950854086158 -1.3299151340360627 95.08704714735241 -118.96495976088431 0.0 0.0
401.51601597500996 4.1063373447643485 123.95719580516295 -114.60330836025474 0.0 0.0
478.33910264541066 10.456296848846975 159.28772442592336 -111.50723325668841 0.0 0.0
525.7110701599839 34.014993221278104 204.60126920960067 -101.34368069091005 0.0 0.0
585.6910480856826 49.032321122122156 250.28919866936096 -98.24550098612268 0.0 0.0
642.0084297927723 69.15885154212165 300.3187548034956 -94.38854689789311 0.0 0.0
700.8177783635435 91.08725388965277 352.936130658902 -91.04270861684256 0.0 0.0
757.4324311265934 110.07196672882803 401.2511962051181 -89.20246673874807 0.0 0.0
806.744611853732 122.20749636350548 438.54451798336413 -87.87276803434435 0.0 0.0
847.2515568331603 125.29669759260317 462.62426803312866 -87.03589490428605 0.0 0.0
878.5401635333931 125.97986015370857 478.90444488050366 -84.89145400226376 0.0 0.0
905.42829842126 122.58613625118412 490.7598833138493 -80.64943497624688 0.0 0.0
921.3353062165605 112.02004435156105 494.26116945133265 -70.221282271063 0.0 0.0
913.5522195461201 82.92432653717847 476.95969392773213 -48.75254318411166 0.0 0.0
786.6042670485913 -49.45166128000105 352.77516190622924 7.218758923954738e-11 0.0 0.0
913.5522195461938 82.92432653733911 476.9596939278126 48.75254318433177 0.0 0.0
921.3353062167174 112.02004435180484 494.2611694514707 70.22128227130233 0.0 0.0
905.4282984206951 122.58613625067785 490.75988331345445 80.64943497641542 0.0 0.0
878.540163533333 125.97986015368139 478.9044448803911 84.89145400236356 0.0 0.0
847.2515568330132 125.2966975925259 462.6242680330144 87.03589490432972 0.0 0.0
806.7446118532825 122.20749636307859 438.5445179830184 87.87276803434392 0.0 0.0
757.4324311265694 110.07196672888853 401.25119620503835 89.20246673877323 0.0 0.0
700.8177783632443 91.0872538894865 352.9361306586859 91.04270861693718 0.0 0.0
642.0084297927303 69.15885154225208 300.3187548034147 94.3885468979387 0.0 0.0
585.6910480854041 49.032321121977944 250.28919866910394 98.2455009861072 0.0 0.0
525.7110701596482 34.01499322107739 204.60126920932666 101.34368069085488 0.0 0.0
478.3391026451486 10.456296848846925 159.28772442574603 111.5072332567013 0.0 0.0
401.51601597476684 4.106337344963609 123.957195805113 114.60330836020601 0.0 0.0
320.5950854082541 -1.329915134026856 95.08704714726262 118.96495976076947 0.0 0.0
247.1311507028381 1.0787023991137743 74.42322580707918 116.09785429450895 0.0 0.0
183.2073449744321 7.81555271973418 57.31366814660244 109.05119306966145 0.0 0.0
116.16667967813763 19.785573305612022 40.78567589512488 102.81099649353196 0.0 0.0
53.988127796152405 25.498195587253047 23.845897015021638 116.52061178690407 0.0 0.0
95.3485585924369 -65.97461685639465 14.43179750099404 170.24331111646956 0.0 0.0
-239.08418057952798 -750.0510279393076 -339.5105162590802 77.89130997893102 0.0 0.0
-152.44919568365438 -649.9537685122639 -250.52839135227643 -99.34509358004287 0.0 0.0
47.05022972954207 -89.34168728909403 -11.29591179743506 -161.65298837316593 0.0 0.0
29.39108501937562 17.7129945789002 14.131223879482746 -134.24860554232004 0.0 0.0
76.0021588706499 21.49549127203779 29.2492950428063 -119.44681228554089 0.0 0.0
131.62817141372568 10.35635674863131 42.59682564553757 -122.8506696265451 0.0 0.0
183.94568711185462 2.616653263731828 55.972855209300214 -129.9550809237982 0.0 0.0
240.29071921058238 -0.20981188063604916 71.8729660057167 -135.0905730556974 0.0 0.0
308.34140440535157 -1.25970732859034 91.62918377163834 -135.04819078851344 0.0 0.0
384.8720398931288 2.0016779311388673 117.86127033883798 -131.39024343011366 0.0 0.0
454.5669967823246 10.201237770207214 151.35816984464557 -127.11575334542326 0.0 0.0
508.47788392315294 28.660124632270424 192.66638253532275 -116.77134585595813 0.0 0.0
563.3073917743013 45.57007847136812 237.89332511564638 -110.68820445970499 0.0 0.0
621.7396677602429 63.50233844328376 287.6457830897745 -107.34767028697092 0.0 0.0
676.9607824538556 79.55583126168045 336.3292738443948 -104.80324263059133 0.0 0.0
726.6452570179225 89.48600968237868 376.3896184845486 -102.88557917169682 0.0 0.0
767.1372909282999 93.8573838254688 404.3261718159395 -101.15327039421268 0.0 0.0
800.583412274604 93.24658371319757 422.5661284137736 -98.96525316646989 0.0 0.0
829.7713833340812 92.81081018399584 437.81563990161624 -94.1273549793568 0.0 0.0
851.5894569511272 87.92405132735732 447.9011606729986 -83.14050083809543 0.0 0.0
847.48424615833 58.19819511435696 432.841235134759 -60.14024636603725 0.0 0.0
680.9294520627363 -113.59210516729566 272.1396536692637 7.477218844087474e-11 0.0 0.0
847.484246158086 58.19819511419868 432.8412351346548 60.140246366230876 0.0 0.0
851.5894569507889 87.92405132709544 447.90116067279047 83.14050083836483 0.0 0.0
829.7713833334383 92.81081018336526 437.81563990117144 94.1273549794911 0.0 0.0
800.5834122747724 93.24658371345494 422.5661284138254 98.96525316660396 0.0 0.0
767.1372909284037 93.85738382568283 404.32617181602393 101.15327039429425 0.0 0.0
726.6452570177116 89.48600968224584 376.3896184843656 102.88557917176807 0.0 0.0
676.9607824536862 79.55583126155727 336.3292738442197 104.80324263059231 0.0 0.0
621.7396677599379 63.50233844311438 287.6457830895662 107.34767028707222 0.0 0.0
563.3073917740934 45.57007847128716 237.89332511547653 110.68820445974576 0.0 0.0
508.47788392286105 28.66012463211617 192.66638253508677 116.77134585595587 0.0 0.0
454.56699678205115 10.20123777012652 151.3581698444613 127.11575334540913 0.0 0.0
384.8720398927794 2.0016779311289357 117.86127033870918 131.39024343015163 0.0 0.0
308.3414044051374 -1.2597073282441231 91.62918377167885 135.04819078846393 0.0 0.0
240.29071921031843 -0.20981188068467427 71.87296600562692 135.09057305552898 0.0 0.0
183.94568711178093 2.6166532638375406 55.97285520931119 129.9550809236139 0.0 0.0
131.62817141362402 10.356356748623103 42.59682564550409 122.85066962638787 0.0 0.0
76.00215887055835 21.495491271938217 29.249295042748972 119.44681228537348 0.0 0.0
29.39108501939938 17.712994578929873 14.131223879498776 134.2486055421491 0.0 0.0
47.050229729377094 -89.3416872889836 -11.295911797469898 161.65298837290436 0.0 0.0
-152.4491956833525 -649.9537685116925 -250.5283913518922 99.34509358011191 0.0 0.0
-116.00637566363739 -541.2013267433108 -197.45806148637456 -104.74564201221749 0.0 0.0
13.618258191791185 -104.16872825487842 -27.121898150141888 -152.82238924390697 0.0 0.0
6.936018915483748 9.513257168339983 4.936328238184449 -147.29346422766014 0.0 0.0
38.78077263474166 21.75727879728047 18.16141542960663 -133.21568614036417 0.0 0.0
80.96291440274305 12.506140812941537 28.040692566427044 -134.16526943701732 0.0 0.0
120.24955556818989 4.532685261589595 37.45706044036519 -140.59013218397772 0.0 0.0
159.68555383034948 0.6936357545434877 48.10606677137019 -146.7396773011424 0.0 0.0
206.83740099815793 -1.263292060697393 61.22766067538523 -151.78844715448423 0.0 0.0
261.998229880379 0.005731315831561057 78.4870499294262 -149.0348626376388 0.0 0.0
332.6873174414876 -3.479561954678815 98.40200057197815 -149.4390706323698 0.0 0.0
395.32616339205185 4.583252045460963 126.67366728289296 -140.45902857400483 0.0 0.0
453.5452754754451 14.817577639994473 160.3027313379733 -131.06287995578975 0.0 0.0
513.2821858440553 32.88418813211233 203.87667958462026 -124.68863409269656 0.0 0.0
569.4764863158232 46.49515375268454 250.15764947072682 -121.33592617416714 0.0 0.0
620.6561269342044 55.494656480379035 293.2101564802573 -118.6342111407136 0.0 0.0
663.6280765533483 59.050501091069066 326.47057109885765 -116.09821705285589 0.0 0.0
700.6107953450893 61.026564870800755 351.40779756518486 -113.12413422375234 0.0 0.0
731.0865023196133 61.259573821890655 370.5328546158713 -108.22025871835916 0.0 0.0
759.8582028356699 59.17659059174578 387.23309791683073 -96.58648311906902 0.0 0.0
768.7003912427573 36.50989232292597 383.6324089502642 -74.06316139763523 0.0 0.0
551.5856744195347 -181.16742090028316 180.54010285040658 6.609823799408332e-11 0.0 0.0
768.7003912424942 36.50989232273734 383.63240895014854 74.06316139786153 0.0 0.0
759.8582028354774 59.17659059168588 387.2330979167275 96.58648311930881 0.0 0.0
731.0865023188551 61.25957382115625 370.5328546153681 108.2202587185267 0.0 0.0
700.6107953451268 61.02656487091488 351.4077975651688 113.12413422394732 0.0 0.0
663.6280765531609 59.05050109089971 326.4705710987229 116.09821705287358 0.0 0.0
620.6561269342774 55.49465648056105 293.210156480288 118.63421114076077 0.0 0.0
569.4764863158509 46.49515375282053 250.15764947073416 121.33592617419204 0.0 0.0
513.2821858438697 32.884188132029664 203.87667958447784 124.68863409276304 0.0 0.0
453.5452754751902 14.817577639824368 160.30273133776632 131.0628799558 0.0 0.0
395.3261633917597 4.583252045358789 126.6736672827415 140.45902857401433 0.0 0.0
332.68731744124307 -3.4795619546005963 98.40200057192102 149.43907063232294 0.0 0.0
261.99822987992866 0.005731315523289204 78.48704992920085 149.03486263756565 0.0 0.0
206.83740099782815 -1.2632920608872986 61.22766067523243 151.78844715440195 0.0 0.0
159.68555383022067 0.6936357545414606 48.106066771331896 146.73967730099434 0.0 0.0
120.24955556816347 4.532685261655959 37.457060440377205 140.59013218379647 0.0 0.0
80.96291440277412 12.506140813075051 28.04069256647629 134.16526943681785 0.0 0.0
38.78077263474663 21.757278797286393 18.161415429609907 133.21568614022402 0.0 0.0
6.936018915479519 9.513257168319935 4.936328238176921 147.29346422748915 0.0 0.0
13.618258191739834 -104.168728254784 -27.12189815013062 152.82238924370748 0.0 0.0
-116.00637566354249 -541.2013267427161 -197.45806148616686 104.74564201218102 0.0 0.0
-95.48534510466884 -444.2424248012452 -161.27197100839493 -102.65694760895215 0.0 0.0
-5.9125310857192455 -110.72055816593887 -35.07868399634353 -146.4138282146895 0.0 0.0
-13.71317630284802 2.294686271375537 -3.424675552659726 -155.3271726248929 0.0 0.0
3.9018413272795254 20.835480251354017 7.421196473590064 -143.57866765143535 0.0 0.0
31.471466061929906 14.165345692846014 13.691989265320801 -142.52434481541115 0.0 0.0
56.55656363183973 6.4411637347992325 18.899964672562074 -147.9579264211358 0.0 0.0
79.02653583184097 1.899829058621962 24.268548927462348 -154.35394299643824 0.0 0.0
102.55923757967481 -0.13922507052765787 30.70658693135494 -158.7288900200092 0.0 0.0
131.04989287145224 0.2765626928594105 39.294873012250946 -159.7667738146499 0.0 0.0
165.55727401549854 -0.4343088181255115 49.65692094817445 -158.16335158804594 0.0 0.0
214.62435545785388 -1.82649849129034 63.35068744946047 -162.70359089510583 0.0 0.0
269.25518216420403 -8.35390603838389 78.35531901132677 -156.67428749479166 0.0 0.0
326.66689476738145 -6.319041791609358 99.39230520241182 -151.92043065883445 0.0 0.0
392.7053642197946 -7.312926939215945 124.40976335455517 -145.01441143279447 0.0 0.0
449.1881030202322 -0.657518395407223 157.08408830784447 -136.8455133131949 0.0 0.0
491.29038627515956 10.80932275478656 191.60267057306532 -134.42304259829078 0.0 0.0
533.2319399520508 25.60949008692508 228.33832538540773 -134.7875001753106 0.0 0.0
570.4096513413957 26.595276439115377 259.65560603392845 -130.40806324130392 0.0 0.0
605.0748187368482 18.141842552519392 283.3667121919806 -115.79626514754688 0.0 0.0
643.7935534514312 12.992941572844728 307.0150598490232 -91.97462770920987 0.0 0.0
368.2276812812833 -255.1282867169142 63.73317489061887 6.277645070440485e-11 0.0 0.0
643.7935534516434 12.992941573316259 307.0150598492396 91.97462770949831 0.0 0.0
605.0748187366138 18.141842552407915 283.3667121918734 115.79626514785478 0.0 0.0
570.4096513409282 26.59527643856495 259.6556060335882 130.40806324152544 0.0 0.0
533.2319399519669 25.60949008682024 228.33832538533335 134.7875001754757 0.0 0.0
491.29038627497414 10.809322754620617 191.60267057293294 134.4230425982273 0.0 0.0
449.18810302007086 -0.6575183956789274 157.08408830771717 136.84551331317692 0.0 0.0
392.70536422010366 -7.312926938580354 124.40976335483948 145.01441143284777 0.0 0.0
326.66689476746865 -6.319041791394924 99.39230520249441 151.92043065892736 0.0 0.0
269.25518216425314 -8.353906037883945 78.3553190114914 156.6742874947753 0.0 0.0
214.62435545770197 -1.8264984914342972 63.35068744936703 162.70359089506337 0.0 0.0
165.55727401540634 -0.4343088181130712 49.6569209481487 158.16335158799046 0.0 0.0
131.04989287134865 0.27656269290294944 39.29487301223453 159.76677381457685 0.0 0.0
102.55923757965805 -0.13922507034575982 30.70658693140477 158.7288900199272 0.0 0.0
79.02653583172172 1.8998290584218536 24.268548927367206 154.35394299628706 0.0 0.0
56.556563631952265 6.441163735006801 18.899964672658133 147.9579264209563 0.0 0.0
31.47146606193023 14.165345692793615 13.691989265305113 142.52434481521723 0.0 0.0
3.9018413273048727 20.835480251395754 7.421196473610189 143.57866765125402 0.0 0.0
-13.713176302841282 2.294686271351715 -3.4246755526651373 155.32717262470993 0.0 0.0
-5.912531085707378 -110.72055816583247 -35.0786839963067 146.4138282145221 0.0 0.0
-95.48534510459534 -444.24242480079977 -161.2719710082469 102.65694760885532 0.0 0.0
-78.45266655271669 -356.6205751518123 -130.56230767946988 -94.0347075606478 0.0 0.0
-19.446464080306747 -110.980752703251 -39.12266884894389 -140.26800137466864 0.0 0.0
-32.27713363303708 -3.2832884170668293 -10.668617916397617 -158.8645271601154 0.0 0.0
-29.113494800101684 19.18556379385042 -2.977769836131765 -150.16411110403862 0.0 0.0
-16.760622308529925 15.195672498706575 -0.4695881910711279 -147.55646562635408 0.0 0.0
-6.945198932725615 8.227102922072046 0.3846171238793392 -151.43880983832852 0.0 0.0
-2.0591466141156154 3.2044221141228544 0.3418797452238338 -157.34256731614684 0.0 0.0
-0.25174246701393344 0.6709024778226782 0.12502706910560235 -161.21027630875153 0.0 0.0
0.17687227160326024 -0.14913109300966942 0.007952340151065052 -164.00757938046672 0.0 0.0
0.1956920216077016 -0.13655132817975568 0.017668083733598294 -162.04902045245345 0.0 0.0
0.11880964036266306 -0.1239574043468874 0.00019598759353733897 -165.32117585112442 0.0 0.0
0.17524370001738987 -0.14687800404535611 -0.0036264990630279215 -161.6211408926868 0.0 0.0
-0.1499724088791794 0.07127339525314635 -0.02015619731009899 -159.83438027780244 0.0 0.0
-0.5227184692199742 0.5557342398918443 0.04621524205441574 -155.85598751165574 0.0 0.0
2.182329716902686 0.5369524639728525 0.8285327286803543 -152.62565927432834 0.0 0.0
19.603619268518656 -5.157294968683733 3.0820713071213177 -142.24690469452474 0.0 0.0
61.70531746797619 -9.89139467108561 10.608658223086202 -131.95013115743564 0.0 0.0
133.3894209041445 -15.363826666125696 23.75571483287616 -129.78024498842643 0.0 0.0
253.617487473822 -61.67829230851217 37.84764102413448 -126.65514169001172 0.0 0.0
372.0090538393325 -61.69837283937761 107.71092865008251 -114.39556022363476 0.0 0.0
-64.53076590800725 -373.08754816501954 -158.70398407756466 -5.9401372709544376e-12 0.0 0.0
372.0090538396518 -61.69837283904507 107.71092865027998 114.39556022381875 0.0 0.0
253.6174874734913 -61.67829230901799 37.84764102384537 126.65514169043138 0.0 0.0
133.3894209040975 -15.363826666192288 23.755714832845502 129.78024498877696 0.0 0.0
61.705317467798466 -9.891394671629424 10.608658222862374 131.95013115760904 0.0 0.0
19.60361926864571 -5.157294968650291 3.0820713071631545 142.24690469461706 0.0 0.0
2.1823297167763656 0.5369524634666103 0.8285327284827702 152.6256592743217 0.0 0.0
-0.5227184689736291 0.5557342401717573 0.04621524221345297 155.85598751172495 0.0 0.0
-0.14997240853785598 0.07127339558150769 -0.020156197105968943 159.83438027792744 0.0 0.0
0.17524370002336198 -0.1468780043789879 -0.003626499161759611 161.62114089273481 0.0 0.0
0.11880964051431064 -0.12395740431699531 0.0001959876489534551 165.32117585102228 0.0 0.0
0.19569202171345346 -0.13655132819942617 0.017668083759572184 162.04902045239345 0.0 0.0
0.1768722717256619 -0.14913109293965476 0.007952340209060438 164.00757938042034 0.0 0.0
-0.25174246681284984 0.6709024781566404 0.12502706926606377 161.21027630866874 0.0 0.0
-2.0591466140646126 3.204422114084812 0.34187974522761255 157.34256731602053 0.0 0.0
-6.945198932605668 8.227102922159377 0.3846171239414744 151.43880983812377 0.0 0.0
-16.76062230845903 15.195672498720075 -0.4695881910456863 147.5564656261579 0.0 0.0
-29.11349480002845 19.185563793875062 -2.9777698361025355 150.16411110384254 0.0 0.0
-32.27713363301046 -3.283288417099297 -10.66861791639925 158.86452715992812 0.0 0.0
-19.446464080276467 -110.98075270311912 -39.12266884889479 140.26800137452454 0.0 0.0
-78.45266655265215 -356.62057515146745 -130.56230767935054 94.03470756055809 0.0 0.0
-62.87948561419747 -281.50796494337123 -103.3162351672706 -85.06600454177291 0.0 0.0
-29.8959074906382 -105.75677591556376 -40.695805021860565 -132.4703173306882 0.0 0.0
-49.34061570216887 -7.402836286622478 -17.023422705188924 -158.4007905300137 0.0 0.0
-60.47207953747916 17.202876517780126 -12.979233647646303 -152.7208509195984 0.0 0.0
-63.674314426667145 15.572390675067448 -14.432180473741187 -148.99060051564848 0.0 0.0
-69.70300189565262 9.696863672915688 -18.00821966360344 -150.89735534995924 0.0 0.0
-83.0508190034594 4.445457628798858 -23.546864369028377 -155.75778424292497 0.0 0.0
-103.08227310359881 1.4097842205652191 -30.479505679880468 -158.98194828935567 0.0 0.0
-130.71466882371317 -0.5692851547252986 -39.28155062307509 -159.7071543834199 0.0 0.0
-165.20797430156512 0.16913295353714997 -49.627437852671015 -158.1235773097883 0.0 0.0
-214.3152106708333 1.5764132536667033 -63.343911286886765 -162.571279836975 0.0 0.0
-269.11745199393727 8.219938582628718 -78.32344004338134 -157.17228849946716 0.0 0.0
-326.96786829839834 6.380786977695177 -99.46288510645041 -151.78455770782227 0.0 0.0
-393.45888167131613 8.396358024423249 -124.19535445883534 -144.63615660687898 0.0 0.0
-447.0935121436435 3.0876489906338485 -155.03388525788893 -137.47473741497117 0.0 0.0
-483.035974530149 -1.2696063151694332 -181.33514844236913 -137.39248694837772 0.0 0.0
-507.09761636783173 -0.2794133738407538 -196.24852700580732 -141.63902975539708 0.0 0.0
-516.0791072023876 12.346744599168915 -191.23959684999875 -148.34732221061552 0.0 0.0
-504.88393128516293 19.881128529923842 -167.8929598437146 -145.829915535169 0.0 0.0
-326.2676063073229 -2.42910967396125 -121.50487388913565 -94.92966579826495 0.0 0.0
-522.1674900300992 -540.2051693138388 -488.40637060522135 -8.275691243397887e-11 0.0 0.0
-326.2676063072928 -2.429109674014029 -121.50487388915064 94.92966579856906 0.0 0.0
-504.8839312852772 19.881128529703744 -167.89295984380402 145.82991553554663 0.0 0.0
-516.0791072021595 12.34674459938212 -191.23959684985573 148.34732221088478 0.0 0.0
-507.09761636784225 -0.2794133739648892 -196.24852700582034 141.63902975546821 0.0 0.0
-483.03597453025503 -1.2696063154425659 -181.33514844242038 137.39248694845892 0.0 0.0
-447.0935121433236 3.0876489909469953 -155.03388525763788 137.47473741497447 0.0 0.0
-393.4588816710602 8.396358024331342 -124.19535445876912 144.63615660695706 0.0 0.0
-326.9678682979776 6.380786978004993 -99.46288510620774 151.7845577078932 0.0 0.0
-269.1174519938338 8.219938581819894 -78.32344004359211 157.17228849949367 0.0 0.0
-214.3152106702287 1.5764132541047386 -63.343911286566815 162.5712798369183 0.0 0.0
-165.20797430130352 0.1691329534030217 -49.62743785263222 158.12357730972235 0.0 0.0
-130.71466882351962 -0.5692851548507727 -39.28155062305523 159.70715438337632 0.0 0.0
-103.08227310336986 1.4097842206672389 -30.47950567978202 158.98194828927873 0.0 0.0
-83.05081900322946 4.445457628977842 -23.546864368906803 155.7577842427893 0.0 0.0
-69.70300189552356 9.696863672901042 -18.008219663569363 150.89735534974588 0.0 0.0
-63.67431442652177 15.572390675107616 -14.432180473685893 148.99060051545723 0.0 0.0
-60.47207953740036 17.20287651778015 -12.979233647623104 152.72085091940644 0.0 0.0
-49.34061570213972 -7.402836286666375 -17.023422705193198 158.40079052983162 0.0 0.0
-29.895907490573205 -105.75677591542787 -40.69580502180031 132.47031733053672 0.0 0.0
-62.879485614143185 -281.50796494310794 -103.31623516717532 85.06600454170342 0.0 0.0
-50.45146411508444 -216.08484926642555 -79.96089401445298 -75.67147767834774 0.0 0.0
-38.383663201316125 -96.83484606559774 -40.56555278007416 -122.97791532498874 0.0 0.0
-65.34501186406362 -10.008520899387612 -22.60677223351576 -154.06684692735706 0.0 0.0
-90.39559976596068 15.041713821932847 -22.60802612142938 -151.2287901516562 0.0 0.0
-109.35287451885318 15.34858439838532 -28.193494417180496 -146.72406773012395 0.0 0.0
-131.67748312064384 10.774508431266666 -36.240196050291736 -146.84123297312496 0.0 0.0
-162.64716832253913 5.012510295365125 -47.35667290318902 -148.20297682235932 0.0 0.0
-207.2749070694393 2.3592009728399486 -61.02459451458865 -152.19401025263355 0.0 0.0
-261.71478745853693 -0.28063596513186706 -78.48295707492686 -148.91803091146278 0.0 0.0
-332.4624973306949 3.2190171274491473 -98.39988702443071 -149.36376542678212 0.0 0.0
-395.212026289623 -4.718109498408374 -126.66323281714259 -140.46204029653458 0.0 0.0
-453.48587127698863 -14.90389509366176 -160.27831880368691 -131.14136916416976 0.0 0.0
-513.3416756862413 -33.028073207193046 -203.93763530899434 -124.55266635942894 0.0 0.0
-569.5664312090433 -46.09928344002958 -250.0564773919581 -120.89269066101339 0.0 0.0
-619.2478093503314 -53.48654707991847 -291.68772749446845 -118.88264256431624 0.0 0.0
-655.8814604354579 -53.17568723269801 -320.17730526065316 -119.52011289965549 0.0 0.0
-679.1563129420072 -47.39014138811978 -335.1151687001793 -122.95998450741979 0.0 0.0
-688.7931730601573 -40.78661368863398 -339.26262635284166 -130.0112974112452 0.0 0.0
-680.8168294769921 -30.76914956105324 -328.34565518781864 -138.5818589463418 0.0 0.0
-671.9673955068282 -40.398305760124735 -320.2542315088897 -135.32599855576268 0.0 0.0
-1120.9559029446973 -740.6598547356175 -855.3260523515675 -7.755573960821494e-12 0.0 0.0
-671.9673955064892 -40.39830575997708 -320.2542315087506 135.32599855602666 0.0 0.0
-680.8168294769193 -30.769149561172817 -328.3456551878558 138.58185894666687 0.0 0.0
-688.793173059816 -40.78661368839019 -339.2626263525883 130.01129741147864 0.0 0.0
-679.1563129419753 -47.390141388133635 -335.1151687001571 122.95998450751293 0.0 0.0
-655.8814604354959 -53.175687232921675 -320.1773052606667 119.52011289972594 0.0 0.0
-619.2478093501143 -53.486547079721674 -291.6877274942788 118.88264256437442 0.0 0.0
-569.5664312087404 -46.09928343986949 -250.05647739176118 120.89269066104593 0.0 0.0
-513.3416756859767 -33.028073207101464 -203.9376353088178 124.55266635949017 0.0 0.0
-453.4858712767389 -14.903895093621653 -160.27831880349365 131.14136916423416 0.0 0.0
-395.2120262892343 -4.718109498386537 -126.66323281696829 140.46204029653512 0.0 0.0
-332.4624973301695 3.219017127379341 -98.39988702428803 149.36376542676828 0.0 0.0
-261.71478745822077 -0.28063596545600844 -78.48295707493351 148.9180309114745 0.0 0.0
-207.27490706905843 2.359200972961678 -61.02459451444072 152.1940102526041 0.0 0.0
-162.64716832228635 5.012510295389147 -47.35667290310706 148.20297682222323 0.0 0.0
-131.67748312040197 10.774508431340813 -36.24019605019812 146.84123297294278 0.0 0.0
-109.3528745186539 15.348584398438105 -28.193494417105537 146.72406772995484 0.0 0.0
-90.39559976581016 15.04171382199367 -22.60802612136648 151.22879015147953 0.0 0.0
-65.34501186398944 -10.008520899377139 -22.606772233490148 154.06684692721413 0.0 0.0
-38.38366320127781 -96.83484606552288 -40.56555278004019 122.97791532483869 0.0 0.0
-50.451464115036124 -216.08484926622927 -79.96089401437963 75.67147767828318 0.0 0.0
-40.93764240798144 -159.892325141997 -60.24899026499352 -66.15319470438631 0.0 0.0
-45.615937622974144 -85.51190346695581 -39.338352326979 -111.86613283785549 0.0 0.0
-80.59034181338926 -11.119527756828568 -27.51333778829436 -146.1020034415312 0.0 0.0
-119.15152617551819 12.837359491757441 -31.893957398822245 -145.8172176928446 0.0 0.0
-153.64537350333384 14.462005750363202 -41.749997870807 -140.42164325886532 0.0 0.0
-191.74799005940685 10.888519266500847 -54.331093957816016 -137.67236089114235 0.0 0.0
-243.14012765305762 6.196320491066892 -70.72376474969093 -138.8903003317975 0.0 0.0
-308.7591499717514 2.037919009774749 -91.48986615707672 -135.56992409718393 0.0 0.0
-384.7457628641979 -2.1952342989170406 -117.86404694685453 -131.2412858183759 0.0 0.0
-454.6567471384758 -10.368130187866278 -151.38113625592842 -127.06281549087046 0.0 0.0
-508.41256563371957 -28.786040483278693 -192.68550132248095 -116.7179609245077 0.0 0.0
-563.2647820346991 -45.619301195734536 -237.85904635305917 -110.75286757320028 0.0 0.0
-621.6264549202974 -63.553719439236914 -287.5314308339621 -107.30922325274057 0.0 0.0
-677.0779080565558 -79.5489285293418 -336.2828083936987 -104.35364474593857 0.0 0.0
-726.199068806047 -88.60354449126547 -375.82650451103353 -102.61635226987185 0.0 0.0
-761.8962448820273 -89.39316458945343 -400.14690917936025 -103.61184310052286 0.0 0.0
-784.3455753016245 -81.45173834148608 -410.3206929120203 -107.91211982275813 0.0 0.0
-788.7792972825168 -64.82421509607224 -405.80352203755376 -115.13919975505476 0.0 0.0
-773.6290334082605 -43.062491214664334 -386.12554145628604 -123.83333074140116 0.0 0.0
-736.4753881965338 -21.32106660167817 -354.0259863611317 -127.7720929226988 0.0 0.0
-1511.295900957947 -941.9866883941901 -1151.2272040766097 5.523048685063259e-11 0.0 0.0
-736.475388196078 -21.321066601333996 -354.02598636088265 127.77209292292343 0.0 0.0
-773.6290334078898 -43.06249121442294 -386.12554145602707 123.83333074164 0.0 0.0
-788.779297282538 -64.82421509620464 -405.80352203756377 115.13919975525279 0.0 0.0
-784.34557530153 -81.45173834146489 -410.320692911899 107.91211982284011 0.0 0.0
-761.8962448818438 -89.39316458934962 -400.1469091792295 103.6118431005576 0.0 0.0
-726.1990688057374 -88.60354449100065 -375.82650451075926 102.61635226989463 0.0 0.0
-677.0779080561772 -79.5489285290566 -336.28280839342926 104.35364474595046 0.0 0.0
-621.6264549199998 -63.55371943908678 -287.53143083374187 107.30922325278965 0.0 0.0
-563.2647820345546 -45.61930119580144 -237.85904635287764 110.75286757322223 0.0 0.0
-508.4125656334806 -28.786040483312902 -192.68550132228216 116.71796092449623 0.0 0.0
-454.6567471380228 -10.368130187733037 -151.38113625565597 127.06281549091022 0.0 0.0
-384.74576286382535 -2.1952342990951497 -117.86404694675328 131.24128581843408 0.0 0.0
-308.7591499712793 2.0379190096322546 -91.48986615699299 135.56992409714817 0.0 0.0
-243.1401276527037 6.196320491152388 -70.72376474956147 138.89030033172105 0.0 0.0
-191.7479900591781 10.888519266436262 -54.331093957767294 137.67236089098864 0.0 0.0
-153.64537350308217 14.462005750433105 -41.74999787071125 140.42164325868396 0.0 0.0
-119.15152617538405 12.837359491711098 -31.893957398796072 145.81721769268174 0.0 0.0
-80.59034181329187 -11.119527756779119 -27.513337788250183 146.10200344136743 0.0 0.0
-45.61593762293545 -85.51190346691538 -39.338352326955246 111.86613283775357 0.0 0.0
-40.93764240790837 -159.89232514183914 -60.24899026492425 66.1531947043279 0.0 0.0
-34.042923304907355 -112.54803450363869 -43.97728734256381 -56.45139769743445 0.0 0.0
-51.93979042424057 -72.8569042681526 -37.43900840771795 -99.24072746816644 0.0 0.0
-95.1900212777834 -10.874063245665898 -31.81922535703478 -134.72608086981288 0.0 0.0
-146.88393917710573 10.550847092474823 -40.908062839067256 -136.38015401229188 0.0 0.0
-196.63509072050385 13.089278326140757 -55.052801622174485 -130.31437144531276 0.0 0.0
-251.7947254312357 11.168316889835744 -71.97736449083453 -126.0746905130496 0.0 0.0
-321.15027910933225 5.435174788999419 -94.14955246552617 -121.54445687473823 0.0 0.0
-401.3537012248066 -3.5890415795971204 -123.78502348977611 -114.98771177328196 0.0 0.0
-478.4626091549118 -10.644489144131455 -159.35309071526794 -111.31688600352533 0.0 0.0
-525.8794400244993 -34.2278084194675 -204.70557481332577 -101.21956038002882 0.0 0.0
-585.7658392253242 -49.07686275268246 -250.32203836457143 -98.25088126685523 0.0 0.0
-641.9089448698068 -69.110903006961 -300.22983952379906 -94.46068821329948 0.0 0.0
-700.4471559109294 -90.90860567242744 -352.57117335354036 -91.08458941025322 0.0 0.0
-757.440901582144 -110.23908809603059 -401.1761073992228 -88.8418154845349 0.0 0.0
-807.6220127561912 -122.85811511818576 -439.33548286500917 -87.22592684076787 0.0 0.0
-846.0042915520854 -124.12244083115326 -461.9070708390826 -88.45347110205428 0.0 0.0
-866.218129567823 -115.69767459445563 -468.9567864045372 -92.223780171338 0.0 0.0
-863.5368723232237 -88.13230776681817 -454.9629672716511 -98.57465868831383 0.0 0.0
-833.1298643470323 -47.25417381805643 -419.05259520595234 -107.54371776589089 0.0 0.0
-771.1421433225154 0.5610244403351103 -361.91436332352214 -116.33109432313468 0.0 0.0
-1805.7817570833568 -1143.2421973584464 -1401.465468152227 1.170583630027977e-10 0.0 0.0
-771.142143322244 0.5610244405150837 -361.9143633233365 116.33109432336816 0.0 0.0
-833.129864346751 -47.254173817856504 -419.05259520577 107.54371776608886 0.0 0.0
-863.5368723230536 -88.13230776675269 -454.9629672715018 98.57465868846865 0.0 0.0
-866.218129567699 -115.69767459438555 -468.95678640444595 92.22378017145857 0.0 0.0
-846.0042915514628 -124.12244083060061 -461.90707083861196 88.45347110211594 0.0 0.0
-807.6220127558993 -122.85811511792267 -439.3354828647494 87.2259268408287 0.0 0.0
-757.4409015817726 -110.23908809572931 -401.17610739894076 88.84181548451905 0.0 0.0
-700.447155910588 -90.9086056721926 -352.5711733532682 91.08458941027925 0.0 0.0
-641.9089448696424 -69.11090300701528 -300.2298395236042 94.4606882133526 0.0 0.0
-585.7658392250061 -49.07686275255355 -250.3220383642846 98.2508812668425 0.0 0.0
-525.8794400242265 -34.2278084194585 -204.7055748130809 101.21956038000395 0.0 0.0
-478.4626091543685 -10.644489143859683 -159.35309071491753 111.31688600354582 0.0 0.0
-401.3537012241527 -3.58904157928202 -123.78502348945787 114.98771177324929 0.0 0.0
-321.15027910878797 5.435174789036298 -94.14955246537318 121.54445687467489 0.0 0.0
-251.79472543091234 11.168316889775948 -71.97736449075994 126.07469051293432 0.0 0.0
-196.63509072025766 13.089278326130504 -55.052801622105065 130.31437144516252 0.0 0.0
-146.88393917698087 10.550847092413406 -40.908062839047695 136.38015401216168 0.0 0.0
-95.19002127771354 -10.874063245694213 -31.81922535702232 134.72608086967756 0.0 0.0
-51.93979042419389 -72.85690426812145 -37.439008407694594 99.24072746809752 0.0 0.0
-34.04292330484139 -112.54803450351349 -43.97728734250646 56.45139769737096 0.0 0.0
-29.447906409533743 -73.93100848927082 -31.01367446964137 -46.507955654129184 0.0 0.0
-57.41782306757271 -59.68289254485037 -35.13021468372692 -85.19303243589488 0.0 0.0
-109.13197159258827 -9.529683637820959 -35.598496569122766 -120.13117722836596 0.0 0.0
-173.73725430207935 8.284416364014382 -49.640991557689134 -123.14212700957563 0.0 0.0
-237.94628604686798 11.146116414239215 -68.0875656996471 -116.07125189365635 0.0 0.0
-309.60020750752864 10.082869790628022 -89.46510125605163 -109.59836197412338 0.0 0.0
-396.6057006788737 1.6640625380163274 -118.65906142162234 -101.07453949415499 0.0 0.0
-480.68903921266747 -9.414286623260516 -156.6098630170538 -94.66675849371735 0.0 0.0
-528.1406996478363 -30.690401118624607 -202.20411842483426 -86.7144385228509 0.0 0.0
-589.543345482746 -45.84858934999016 -248.95446928187033 -85.03974963213054 0.0 0.0
-646.0481371016662 -67.76330540714666 -299.6326452770525 -81.38929934591461 0.0 0.0
-704.3422823893765 -91.79883113936569 -352.58924074590743 -78.23048822587722 0.0 0.0
-765.0652770192706 -117.05518476712527 -406.0688441716318 -75.60286064783975 0.0 0.0
-824.0863673602958 -138.8275003295493 -453.9196751497955 -73.9233754207196 0.0 0.0
-876.834319787117 -154.6990131490367 -492.03980545542305 -72.75891891184396 0.0 0.0
-917.7907326659014 -160.50211812300356 -516.6394547995931 -73.06036762873012 0.0 0.0
-938.3206339851359 -147.6904384553828 -520.5865485063053 -76.4469829961772 0.0 0.0
-925.7903088923423 -110.01073072701124 -496.39917195002647 -81.3843248435988 0.0 0.0
-876.1420220092134 -48.90365997701463 -442.03752603253474 -89.74037672737582 0.0 0.0
-791.2782298840574 22.83014565161991 -362.2119502468637 -104.31360071049971 0.0 0.0
-2067.507738255458 -1345.9444883056701 -1634.5576946960844 6.582467904081568e-11 0.0 0.0
-791.2782298840253 22.830145651553224 -362.21195024686375 104.3136007106934 0.0 0.0
-876.1420220093039 -48.903659977186244 -442.0375260326013 89.74037672757177 0.0 0.0
-925.7903088913334 -110.01073072600266 -496.39917194923567 81.3843248436661 0.0 0.0
-938.3206339851596 -147.690438455478 -520.5865485062678 76.44698299629111 0.0 0.0
-917.7907326650486 -160.50211812217086 -516.6394547989328 73.06036762871223 0.0 0.0
-876.8343197871524 -154.69901314916396 -492.0398054554013 72.75891891194327 0.0 0.0
-824.086367360285 -138.82750032962943 -453.9196751497231 73.9233754207618 0.0 0.0
-765.0652770191934 -117.05518476718782 -406.06884417153935 75.60286064788784 0.0 0.0
-704.3422823889003 -91.79883113901455 -352.5892407454861 78.23048822588306 0.0 0.0
-646.0481371013242 -67.7633054069453 -299.6326452767255 81.38929934584328 0.0 0.0
-589.5433454824283 -45.848589349900266 -248.95446928157267 85.03974963208523 0.0 0.0
-528.1406996472792 -30.690401118245827 -202.20411842440396 86.714438522822 0.0 0.0
-480.6890392120636 -9.41428662287107 -156.6098630166571 94.66675849369398 0.0 0.0
-396.6057006783002 1.6640625381390308 -118.65906142139907 101.07453949408665 0.0 0.0
-309.6002075070958 10.082869790743889 -89.46510125589096 109.59836197403747 0.0 0.0
-237.94628604659587 11.146116414182078 -68.08756569958507 116.0712518935441 0.0 0.0
-173.73725430186516 8.284416364059409 -49.640991557610896 123.14212700945012 0.0 0.0
-109.13197159246879 -9.529683637819142 -35.59849656908637 120.13117722824956 0.0 0.0
-57.41782306755297 -59.68289254482802 -35.1302146837143 85.19303243580165 0.0 0.0
-29.44790640956788 -73.93100848922944 -31.013674469639195 46.507955654102744 0.0 0.0
-26.774700830418475 -44.09391425035842 -21.260584524233064 -36.36529103238424 0.0 0.0
-61.84561530246592 -46.6197718389605 -32.539616142427924 -69.83846698261759 0.0 0.0
-122.28925302972017 -7.4597302424833885 -38.924694981661055 -102.40125152169487 0.0 0.0
-199.74906531700154 6.005487904901835 -58.12895636655539 -106.02550752767651 0.0 0.0
-278.55547791936965 9.43258703012523 -80.65521516785056 -98.7136456509904 0.0 0.0
-364.83965595841494 5.821620953664031 -107.56371991411008 -87.96700640405548 0.0 0.0
-464.47761279948315 -2.9563331565399107 -143.92051551090555 -78.70487748919584 0.0 0.0
-521.6694076208182 -23.378486055036117 -190.51973300603603 -72.98681912128319 0.0 0.0
-580.9525642999018 -37.58923559714395 -237.67907510564547 -70.55674076111376 0.0 0.0
-638.4675184355468 -60.16485271548993 -289.0663870303192 -67.63840783997006 0.0 0.0
-696.7566743348011 -85.43115908120718 -342.29328615024315 -65.04419323148 0.0 0.0
-758.0590932393116 -113.4732438589554 -397.629236738958 -62.60226438634001 0.0 0.0
-821.5281062709868 -141.68229367874562 -451.8435680600157 -60.64767977226195 0.0 0.0
-881.7440480955566 -167.61271815069927 -500.07124032927214 -59.380661380560085 0.0 0.0
-937.0304320565166 -185.1513467560462 -538.3664294953871 -58.52986126986374 0.0 0.0
-981.7941629140707 -193.28800647945275 -565.1256390327575 -58.30168237499983 0.0 0.0
-1003.4671449133821 -182.66686775977587 -570.3329104639041 -60.105366790369494 0.0 0.0
-982.6841226931824 -135.110433909395 -536.7313352409379 -63.64765832353537 0.0 0.0
-912.424401571213 -50.71645846699934 -461.5247914814207 -71.5703667389668 0.0 0.0
-798.060799466947 50.22168025630722 -354.0941640432154 -92.9856531493965 0.0 0.0
-2310.16250427086 -1547.757513427056 -1856.9646495782742 4.618883053808531e-11 0.0 0.0
-798.0607994670421 50.22168025612948 -354.0941640433001 92.98565314954314 0.0 0.0
-912.4244015710973 -50.7164584669399 -461.5247914813181 71.5703667391382 0.0 0.0
-982.6841226929042 -135.1104339091459 -536.7313352406646 63.647658323641025 0.0 0.0
-1003.4671449129947 -182.66686775944942 -570.3329104635718 60.105366790469 0.0 0.0
-981.7941629135589 -193.28800647895608 -565.1256390323391 58.30168237502788 0.0 0.0
-937.030432056154 -185.15134675573523 -538.366429495072 58.52986126986744 0.0 0.0
-881.7440480954796 -167.61271815071976 -500.0712403291098 59.38066138060762 0.0 0.0
-821.528106270971 -141.6822936788606 -451.8435680599661 60.6476797723026 0.0 0.0
-758.0590932388278 -113.4732438585859 -397.62923673852885 62.602264386338945 0.0 0.0
-696.7566743343884 -85.43115908092595 -342.2932861498741 65.04419323143932 0.0 0.0
-638.4675184350705 -60.1648527151916 -289.06638702990915 67.63840783997101 0.0 0.0
-580.952564299741 -37.58923559724167 -237.6790751054564 70.55674076107762 0.0 0.0
-521.669407620387 -23.378486054883307 -190.51973300570435 72.98681912126834 0.0 0.0
-464.47761279899925 -2.9563331563346336 -143.9205155106145 78.70487748914312 0.0 0.0
-364.83965595784326 5.821620953706184 -107.5637199139545 87.96700640395534 0.0 0.0
-278.555477919148 9.432587029926708 -80.65521516784878 98.71364565087389 0.0 0.0
-199.74906531679733 6.005487904888865 -58.12895636649728 106.02550752757823 0.0 0.0
-122.28925302959037 -7.459730242511673 -38.92469498163061 102.40125152159679 0.0 0.0
-61.845615302375975 -46.61977183888922 -32.53961614237956 69.83846698250954 0.0 0.0
-26.774700830377064 -44.09391425033884 -21.260584524214767 36.36529103237026 0.0 0.0
-25.476355041478026 -23.12562094504105 -14.580592795955718 -26.284474174640806 0.0 0.0
-64.71454655289806 -34.20634902435802 -29.676268673176818 -53.35259383181288 0.0 0.0
-134.4106504358325 -5.24438921268777 -41.896511894556085 -81.44085172348431 0.0 0.0
-224.950035534469 4.115847464851893 -66.25240526169954 -84.9539462412857 0.0 0.0
-317.6955331614741 6.5451128521816955 -93.16496593578502 -77.62471352822519 0.0 0.0
-422.2514684727396 1.6385558968741716 -126.19771872143492 -63.97710058300507 0.0 0.0
-504.97938977478447 -14.09826134428002 -171.4995190262481 -57.67059310481876 0.0 0.0
-562.1344624074169 -27.10306667140589 -218.8779234568318 -55.19493551203589 0.0 0.0
-621.6746592321946 -48.37044786138374 -270.86549400794104 -52.71850407373912 0.0 0.0
-680.367982872596 -73.60054506316723 -324.42686434261753 -50.81219459048949 0.0 0.0
-740.4808724424629 -102.87848856219392 -380.04280633679764 -48.91723699185587 0.0 0.0
-805.0565054682781 -134.679327819382 -437.28805268725 -47.181133842766926 0.0 0.0
-870.7659133658792 -167.73993928222635 -493.1989341984862 -45.609664554314406 0.0 0.0
-934.6155727269816 -193.85852981311132 -541.1964588778237 -44.88451738934801 0.0 0.0
-990.5288121351807 -213.66321512627448 -579.9126244194905 -44.47341450395536 0.0 0.0
-1036.8863319488944 -224.60717262124018 -608.4675895936468 -43.71759655208591 0.0 0.0
-1063.4027999936209 -217.32014580527687 -617.5380229929327 -43.785048483242385 0.0 0.0
-1041.4461963980796 -167.72660350261225 -581.7604497853615 -45.8082258018061 0.0 0.0
-950.1468327453732 -60.33390769601972 -485.27350975124523 -52.97486114775436 0.0 0.0
-790.1936054543303 88.34042243877911 -334.14984338898984 -80.97967108769234 0.0 0.0
-2538.074905683581 -1742.1828556438768 -2067.86244997818 3.6358471788844327e-11 0.0 0.0
-790.1936054542047 88.34042243888553 -334.1498433888968 80.97967108775312 0.0 0.0
-950.1468327453503 -60.33390769602868 -485.2735097512192 52.97486114784087 0.0 0.0
-1041.4461963976182 -167.72660350219272 -581.7604497849701 45.8082258018901 0.0 0.0
-1063.4027999934888 -217.3201458051718 -617.5380229927871 43.78504848328693 0.0 0.0
-1036.8863319482844 -224.60717262066922 -608.4675895931315 43.71759655212057 0.0 0.0
-990.5288121347108 -213.6632151258468 -579.9126244190834 44.47341450396347 0.0 0.0
-934.6155727267219 -193.85852981292257 -541.1964588775385 44.88451738937937 0.0 0.0
-870.7659133655893 -167.7399392820494 -493.1989341982488 45.60966455434943 0.0 0.0
-805.0565054678872 -134.67932781909806 -437.28805268687796 47.181133842752665 0.0 0.0
-740.4808724421812 -102.87848856206597 -380.04280633650654 48.91723699183466 0.0 0.0
-680.3679828722418 -73.60054506299498 -324.4268643422761 50.812194590491295 0.0 0.0
-621.6746592321002 -48.37044786152928 -270.86549400775664 52.71850407375423 0.0 0.0
-562.1344624069072 -27.103066671088925 -218.87792345641378 55.194935511986095 0.0 0.0
-504.9793897743377 -14.098261344118576 -171.49951902593907 57.67059310479416 0.0 0.0
-422.25146847226057 1.6385558968526954 -126.19771872128025 63.97710058299629 0.0 0.0
-317.69553316118936 6.5451128520555235 -93.16496593574323 77.6247135281489 0.0 0.0
-224.95003553431775 4.115847464741336 -66.2524052616868 84.95394624123956 0.0 0.0
-134.41065043571504 -5.244389212698411 -41.89651189452401 81.44085172345369 0.0 0.0
-64.71454655280401 -34.2063490242515 -29.676268673116653 53.35259383174558 0.0 0.0
-25.476355041474974 -23.125620945057335 -14.580592795959696 26.284474174590237 0.0 0.0
-24.602879901069045 -10.924610348417009 -10.658247074845814 -16.951972743060978 0.0 0.0
-65.13174309519765 -23.064414020749194 -26.458847134784044 -35.9856730524121 0.0 0.0
-145.06869828319378 -3.7073899984030643 -44.63282648447903 -56.878469184871165 0.0 0.0
-249.20060031880428 3.3389023971545084 -73.7594817511776 -59.60164563562906 0.0 0.0
-356.3907294511509 0.20400647893092128 -106.85676041714291 -52.825459666216055 0.0 0.0
-470.7769529891277 -3.233876053500433 -146.1359697746833 -40.285735817014036 0.0 0.0
-532.6287127538982 -21.149729698511635 -195.94935989662355 -37.46165183564174 0.0 0.0
-597.153502341729 -34.52561875009539 -246.51870405223934 -36.62877289152044 0.0 0.0
-655.8899621329841 -58.81282306771489 -300.5939628091548 -35.277990437722224 0.0 0.0
-716.065753967406 -86.83830540750333 -355.86906412303426 -34.074579815563936 0.0 0.0
-779.790760236073 -119.71905890368708 -413.81785285857967 -32.91039507977355 0.0 0.0
-847.0090101207225 -156.1051116051166 -473.2564003277545 -31.683758567895758 0.0 0.0
-917.0714918028216 -190.71405350121555 -530.0843025117128 -30.805677519048754 0.0 0.0
-982.0672317174112 -221.30278879270145 -579.7783059341109 -30.31144481670856 0.0 0.0
-1039.7385566243495 -241.91851535935953 -619.0817321978384 -30.17813998485119 0.0 0.0
-1084.375224281151 -250.55898368563538 -645.3627135674624 -29.58147384167592 0.0 0.0
-1111.9457587089585 -244.9677280860941 -655.8812349708764 -28.278797317864143 0.0 0.0
-1109.7081226541502 -215.07082389358362 -639.0140114295099 -28.606888431970212 0.0 0.0
-1006.5190272106147 -93.53006237315151 -529.3858890214398 -33.40535499470524 0.0 0.0
-761.3911923932894 145.10924270856725 -294.9303033066185 -66.06938087200778 0.0 0.0
-2741.5965380353355 -1915.9814010045507 -2256.8547156299296 1.554312234475219e-11 0.0 0.0
-761.391192393153 145.10924270867963 -294.93030330649475 66.06938087206609 0.0 0.0
-1006.519027210498 -93.5300623730528 -529.385889021335 33.40535499478399 0.0 0.0
-1109.7081226533255 -215.07082389275962 -639.0140114288371 28.60688843197717 0.0 0.0
-1111.945758708743 -244.96772808592104 -655.8812349706391 28.278797317909863 0.0 0.0
-1084.375224280798 -250.5589836853139 -645.3627135671136 29.58147384170689 0.0 0.0
-1039.7385566239107 -241.9185153589691 -619.0817321974257 30.17813998485216 0.0 0.0
-982.0672317169366 -221.30278879230033 -579.7783059336758 30.311444816744007 0.0 0.0
-917.0714918025559 -190.71405350104408 -530.0843025114725 30.805677519064833 0.0 0.0
-847.009010120326 -156.10511160483742 -473.2564003273702 31.683758567861318 0.0 0.0
-779.7907602356006 -119.71905890334621 -413.81785285815715 32.91039507975244 0.0 0.0
-716.0657539671442 -86.83830540741238 -355.86906412274556 34.07457981556614 0.0 0.0
-655.889962132525 -58.81282306743239 -300.5939628087352 35.27799043773819 0.0 0.0
-597.153502341472 -34.525618750081456 -246.5187040519688 36.62877289152023 0.0 0.0
-532.6287127533867 -21.1497296982558 -195.94935989623383 37.46165183556394 0.0 0.0
-470.7769529886195 -3.233876053393118 -146.1359697744452 40.285735817031295 0.0 0.0
-356.39072945073775 0.20400647893101853 -106.85676041702756 52.82545966618639 0.0 0.0
-249.20060031860334 3.3389023970830873 -73.75948175113794 59.6016456355999 0.0 0.0
-145.0686982830745 -3.7073899983618714 -44.63282648443092 56.87846918485266 0.0 0.0
-65.1317430951431 -23.064414020692766 -26.458847134750755 35.98567305237754 0.0 0.0
-24.602879901035198 -10.924610348407116 -10.65824707483269 16.951972743006298 0.0 0.0
-22.272570329586017 -6.7569180533056805 -8.70884651486751 -9.893014852584322 0.0 0.0
-61.7360567672397 -14.338175308629518 -22.822269622760768 -18.03092617113058 0.0 0.0
-153.38929636847695 -3.5725810018964546 -47.08856321111202 -27.835459621023386 0.0 0.0
-272.85969713901375 3.5421420057938766 -80.81039268463746 -29.432604989565554 0.0 0.0
-402.13026069893306 -3.799969308073404 -120.80937000498221 -25.282021869902096 0.0 0.0
-504.53698126559607 -11.83492141692887 -167.61105638748504 -18.78138469971879 0.0 0.0
-563.342989759946 -20.961409367969427 -216.82180326905183 -19.646789893150256 0.0 0.0
-626.1816428496463 -42.686387705130656 -271.93815457892464 -18.78973415274018 0.0 0.0
-685.5631485746962 -68.29331060251508 -326.8419830861745 -17.912193062319613 0.0 0.0
-747.4466931959047 -100.02466509650932 -384.24510210423966 -17.42724517114698 0.0 0.0
-814.5709978926346 -136.8969428837244 -444.61527727498503 -16.72539283799786 0.0 0.0
-886.4927485121987 -175.83000963685885 -505.91292887414886 -16.209694689128796 0.0 0.0
-957.6268836310481 -214.82551699243032 -564.2227196332839 -15.848843745099636 0.0 0.0
-1026.734189408941 -247.38777156056028 -615.9229504079874 -15.596386060681628 0.0 0.0
-1085.461090036688 -269.09010641228366 -655.9659348242963 -15.595095217122353 0.0 0.0
-1127.6671093170285 -275.54252374241514 -679.7991791885873 -15.321897398717985 0.0 0.0
-1148.9877372063074 -264.4303265333042 -684.5288170527665 -14.078577707904603 0.0 0.0
-1156.791535154349 -245.41406028932974 -678.0343072676687 -13.122383681785937 0.0 0.0
-1135.5811943922047 -204.87273861529678 -647.2743603821245 -15.418689418369954 0.0 0.0
-739.5588195712104 194.1327274287994 -262.43931480229764 -40.20433521425824 0.0 0.0
-2824.4189931681067 -1967.2847242604128 -2327.546395938665 -1.2999379350731033e-11 0.0 0.0
-739.5588195710264 194.13272742895674 -262.43931480214906 40.204335214325106 0.0 0.0
-1135.581194391945 -204.87273861505741 -647.2743603819141 15.418689418476953 0.0 0.0
-1156.7915351542126 -245.41406028921133 -678.03430726745 13.122383681830241 0.0 0.0
-1148.9877372059248 -264.4303265329476 -684.5288170523688 14.078577707913944 0.0 0.0
-1127.6671093166628 -275.5425237420932 -679.7991791882158 15.321897398716201 0.0 0.0
-1085.4610900366592 -269.09010641231134 -655.9659348241602 15.59509521715419 0.0 0.0
-1026.7341894084275 -247.38777156010875 -615.9229504075023 15.596386060703086 0.0 0.0
-957.6268836310036 -214.82551699248836 -564.2227196331592 15.848843745096014 0.0 0.0
-886.4927485117979 -175.83000963657935 -505.91292887377375 16.209694689109266 0.0 0.0
-814.5709978922004 -136.89694288342452 -444.615277274603 16.725392837996104 0.0 0.0
-747.4466931956565 -100.02466509643614 -384.2451021039548 17.427245171160045 0.0 0.0
-685.5631485744964 -68.29331060249605 -326.84198308591743 17.912193062332012 0.0 0.0
-626.1816428492293 -42.68638770494351 -271.93815457853185 18.789734152770418 0.0 0.0
-563.3429897595553 -20.961409367807313 -216.82180326870596 19.6467898931034 0.0 0.0
-504.5369812651007 -11.834921416682816 -167.61105638716165 18.781384699693742 0.0 0.0
-402.13026069854703 -3.7999693081322112 -120.8093700048884 25.282021869871063 0.0 0.0
-272.8596971387123 3.5421420059207684 -80.81039268450914 29.432604989514175 0.0 0.0
-153.3892963683407 -3.572581001885366 -47.08856321106781 27.835459620974127 0.0 0.0
-61.736056767200154 -14.338175308639952 -22.82226962275203 18.03092617111425 0.0 0.0
-22.27257032956002 -6.756918053294063 -8.708846514856223 9.89301485256479 0.0 0.0
-12.270887367166875 -3.036347587562464 -4.592170486418803 -6.510654925669739 0.0 0.0
-51.17596744235412 -7.471004305818145 -17.594091524451674 -7.543914542520172 0.0 0.0
-157.47924919672036 -4.2065182190386885 -48.505730224727714 -9.50487186917694 0.0 0.0
-300.73945009741425 -3.0275646648573087 -91.11572701320972 -10.478309180807724 0.0 0.0
-451.2540807372883 -21.947963621983302 -142.32012189306516 -7.6409418424537705 0.0 0.0
-554.2291577761309 -43.182854066881525 -200.98321657889346 -3.7417669784902508 0.0 0.0
-616.4062996178279 -58.386096241232835 -258.31799496151893 -4.45982867285168 0.0 0.0
-688.1116815701319 -92.03687998898796 -324.05610133483134 -4.433689758893044 0.0 0.0
-760.0185863924739 -131.71569617318505 -392.14300696087184 -4.021738447230378 0.0 0.0
-840.9587129885695 -182.02191543283146 -467.263020317572 -3.8835956440334343 0.0 0.0
-934.4766158079476 -244.34783050410496 -552.2587340987225 -3.800783406189204 0.0 0.0
-1040.348370567742 -319.566600753043 -647.631130341477 -4.019278968903004 0.0 0.0
-1155.7658317236528 -400.76752449757726 -747.826723755704 -4.3072120328477865 0.0 0.0
-1277.6741399088726 -486.2474174531018 -851.6492232569101 -4.754285661504138 0.0 0.0
-1395.5218367531718 -567.009978462214 -950.1843273834545 -5.292670655544946 0.0 0.0
-1495.7872639423053 -631.5478743735746 -1031.6675311704253 -5.659954339389781 0.0 0.0
-1561.5530674949312 -665.4060575115374 -1080.9449182702242 -5.339626705316341 0.0 0.0
-1571.629304719857 -649.7549042152716 -1077.7121210729235 -4.579444616563837 0.0 0.0
-1569.7061190033626 -629.6481063211495 -1066.3407269747763 -5.672169028046355 0.0 0.0
-1440.0819552115036 -489.12833073336213 -940.7210558028498 -25.4068161804758 0.0 0.0
-3929.3446665174906 -3047.55235210872 -3403.1742624599583 -3.572608875401784e-11 0.0 0.0
-1440.081955211269 -489.12833073314675 -940.7210558027016 25.406816180521282 0.0 0.0
-1569.706119003148 -629.6481063209475 -1066.3407269745933 5.672169028076375 0.0 0.0
-1571.6293047195952 -649.7549042150397 -1077.7121210725695 4.57944461654894 0.0 0.0
-1561.553067494474 -665.4060575111151 -1080.9449182697058 5.339626705313712 0.0 0.0
-1495.7872639412103 -631.5478743725009 -1031.6675311694653 5.659954339360613 0.0 0.0
-1395.5218367536136 -567.0099784627403 -950.184327383643 5.292670655546516 0.0 0.0
-1277.6741399085934 -486.24741745289646 -851.6492232565213 4.7542856615218625 0.0 0.0
-1155.7658317236533 -400.767524497692 -747.8267237555494 4.307212032863422 0.0 0.0
-1040.3483705671943 -319.5666007526239 -647.6311303409691 4.019278968888106 0.0 0.0
-934.4766158075615 -244.34783050386423 -552.2587340983441 3.800783406226884 0.0 0.0
-840.9587129882607 -182.02191543269026 -467.26302031723935 3.8835956440359105 0.0 0.0
-760.0185863924615 -131.71569617341987 -392.1430069606945 4.021738447279549 0.0 0.0
-688.1116815692037 -92.03687998819936 -324.0561013340883 4.433689758960767 0.0 0.0
-616.406299617523 -58.38609624117451 -258.31799496119356 4.459828672826074 0.0 0.0
-554.2291577756813 -43.18285406670108 -200.98321657856138 3.7417669784769494 0.0 0.0
-451.2540807368871 -21.947963621936726 -142.32012189290407 7.640941842428489 0.0 0.0
-300.7394500970811 -3.027564664673399 -91.11572701305903 10.47830918075665 0.0 0.0
-157.47924919661395 -4.206518219054235 -48.50573022470046 9.504871869144761 0.0 0.0
-51.175967442288375 -7.471004305827745 -17.594091524434834 7.5439145425089995 0.0 0.0
-12.270887367052152 -3.0363475875104546 -4.592170486368782 6.510654925699474 0.0 0.0
SCALARS Strain float 6
LOOKUP_TABLE default
0.0062307037378958735 -0.012416009589474575 0.0 -0.000204649023984234 0.0 0.0
0.004194719901232066 -6.87216212190651e-05 0.0 -0.0030644839546030422 0.0 0.0
0.001927410598395914 -0.0008061839883111164 0.0 -0.0003768032551665198 0.0 0.0
0.0018325004603793782 -0.0007046710184805864 0.0 -5.099873255490219e-05 0.0 0.0
0.002211660930553182 -0.0008625932824750326 0.0 -3.312657387698126e-05 0.0 0.0
0.0028956198212986223 -0.0012888375903052625 0.0 1.4869483262476947e-06 0.0 0.0
0.003875634409447583 -0.002001489765569021 0.0 -1.2094351982132151e-05 0.0 0.0
0.005067907321873863 -0.002862460066236982 0.0 -6.317163009338735e-06 0.0 0.0
0.006526848816980931 -0.003961318825678059 0.0 2.2763132291675768e-05 0.0 0.0
0.00835462711078829 -0.005375122747809293 0.0 6.36941746993227e-05 0.0 0.0
0.010748508620131138 -0.007284429000289038 0.0 0.00016139271525733725 0.0 0.0
0.014033035526797934 -0.010013395800054567 0.0 0.0003159681629142525 0.0 0.0
0.01856598350763941 -0.013954596817087012 0.0 0.0004213201385486285 0.0 0.0
0.02464583286659275 -0.019418025193413534 0.0 0.0005208009573277513 0.0 0.0
0.03242148311383958 -0.026589594773275396 0.0 0.0005467301849389599 0.0 0.0
0.041736998553295795 -0.035340906531877464 0.0 0.00046913988556563616 0.0 0.0
0.05201849661710661 -0.04511705457297291 0.0 0.00028256979150230303 0.0 0.0
0.062265527278998825 -0.05493989807125722 0.0 4.3707447783115526e-05 0.0 0.0
0.07121613485800603 -0.0635731405000836 0.0 -0.0001088558371612799 0.0 0.0
0.07757600849374126 -0.06976765032946794 0.0 -0.00018395020875476044 0.0 0.0
0.07995052798790021 -0.0721466874853636 0.0 3.0791341698588326e-17 0.0 0.0
0.07757600849373797 -0.06976765032946519 0.0 0.0001839502087589641 0.0 0.0
0.07121613485799885 -0.06357314050007819 0.0 0.00010885583716662697 0.0 0.0
0.06226552727898864 -0.05493989807124325 0.0 -4.3707447780003215e-05 0.0 0.0
0.05201849661709594 -0.045117054572964076 0.0 -0.0002825697915010122 0.0 0.0
0.041736998553285394 -0.03534090653186841 0.0 -0.00046913988556579965 0.0 0.0
0.03242148311382823 -0.02658959477326798 0.0 -0.0005467301849395023 0.0 0.0
0.024645832866580227 -0.019418025193403538 0.0 -0.000520800957328879 0.0 0.0
0.018565983507626418 -0.013954596817074828 0.0 -0.00042132013854924606 0.0 0.0
0.014033035526785063 -0.010013395800045852 0.0 -0.0003159681629142897 0.0 0.0
0.010748508620119232 -0.007284429000278666 0.0 -0.00016139271525795074 0.0 0.0
0.008354627110778263 -0.005375122747804611 0.0 -6.369417469974159e-05 0.0 0.0
0.006526848816972448 -0.003961318825672526 0.0 -2.2763132291996123e-05 0.0 0.0
0.005067907321866472 -0.0028624600662330822 0.0 6.317163009157754e-06 0.0 0.0
0.003875634409441624 -0.0020014897655647444 0.0 1.2094351981856432e-05 0.0 0.0
0.002895619821294773 -0.0012888375903030364 0.0 -1.4869483262062511e-06 0.0 0.0
0.0022116609305513203 -0.0008625932824750083 0.0 3.312657387778329e-05 0.0 0.0
0.0018325004603783881 -0.000704671018481256 0.0 5.0998732554854764e-05 0.0 0.0
0.0019274105983949114 -0.0008061839883111625 0.0 0.00037680325516652175 0.0 0.0
0.004194719901230438 -6.872162121945467e-05 0.0 0.003064483954600134 0.0 0.0
0.006230703737893781 -0.0124160095894609 0.0 0.00020464902396449543 0.0 0.0
0.004001267198393395 -0.011071986585604474 0.0 0.00015247661420344637 0.0 0.0
0.0025980089076553777 2.0530915714853928e-05 0.0 -0.0022981039171123493 0.0 0.0
0.0013800755062322902 -0.0006395350620875521 0.0 -0.00026278912025985555 0.0 0.0
0.0016644951241434692 -0.0006875778356702453 0.0 -0.00019300869655449425 0.0 0.0
0.001971783269449175 -0.000809002207083575 0.0 -0.00020544130888393224 0.0 0.0
0.0025708050558511495 -0.0011769479907452211 0.0 -0.00018524786471234007 0.0 0.0
0.0034523381305911877 -0.001839818496241233 0.0 -0.0002871269859525177 0.0 0.0
0.0045329279428575125 -0.0026509282465024867 0.0 -0.00033702011522252764 0.0 0.0
0.005840622822669727 -0.0036805722835453773 0.0 -0.00038130347748263003 0.0 0.0
0.007464888243275274 -0.005002107836015169 0.0 -0.00042946989625645466 0.0 0.0
0.009579506906029883 -0.0067863848943565995 0.0 -0.000469570556425843 0.0 0.0
0.01246952756715692 -0.009330580099068588 0.0 -0.0005104214620821492 0.0 0.0
0.016493531344950713 -0.013018690250873186 0.0 -0.0006437368080005203 0.0 0.0
0.021961364900239415 -0.018182532348387712 0.0 -0.0008980270303978278 0.0 0.0
0.02901955017350013 -0.024996237212752546 0.0 -0.0012588634759842644 0.0 0.0
0.03752560602614293 -0.033338326234754086 0.0 -0.0017163880461698925 0.0 0.0
0.04693908665974032 -0.04267538610277115 0.0 -0.002170810126593718 0.0 0.0
0.05634944234495264 -0.05207923038770774 0.0 -0.002410541126188946 0.0 0.0
0.06461077651062332 -0.060379107057890055 0.0 -0.002199855412352781 0.0 0.0
0.07044626994988473 -0.06632642076670142 0.0 -0.001554039066860705 0.0 0.0
0.07259086227835132 -0.06863534097706542 0.0 2.4301307494090096e-15 0.0 0.0
0.07044626994988176 -0.06632642076669858 0.0 0.0015540390668692138 0.0 0.0
0.06461077651061706 -0.0603791070578846 0.0 0.002199855412360844 0.0 0.0
0.05634944234494431 -0.05207923038769864 0.0 0.002410541126194111 0.0 0.0
0.04693908665973167 -0.0426753861027655 0.0 0.0021708101265951072 0.0 0.0
0.03752560602613376 -0.033338326234746286 0.0 0.001716388046168986 0.0 0.0
0.029019550173489762 -0.02499623721274509 0.0 0.0012588634759847191 0.0 0.0
0.021961364900228167 -0.018182532348379372 0.0 0.0008980270303976513 0.0 0.0
0.016493531344939086 -0.013018690250862094 0.0 0.000643736808000313 0.0 0.0
0.012469527567145432 -0.009330580099060841 0.0 0.000510421462081672 0.0 0.0
0.009579506906019317 -0.0067863848943480656 0.0 0.00046957055642439304 0.0 0.0
0.0074648882432663075 -0.00500210783600851 0.0 0.0004294698962550647 0.0 0.0
0.005840622822662086 -0.0036805722835398557 0.0 0.0003813034774824804 0.0 0.0
0.004532927942850872 -0.002650928246498511 0.0 0.0003370201152220366 0.0 0.0
0.003452338130586011 -0.001839818496236944 0.0 0.00028712698595182535 0.0 0.0
0.002570805055847943 -0.001176947990743377 0.0 0.00018524786471204978 0.0 0.0
0.001971783269447613 -0.000809002207083225 0.0 0.0002054413088843872 0.0 0.0
0.0016644951241427644 -0.0006875778356703541 0.0 0.0001930086965542129 0.0 0.0
0.0013800755062322353 -0.000639535062088164 0.0 0.00026278912025957306 0.0 0.0
0.0025980089076533368 2.0530915714890954e-05 0.0 0.002298103917108334 0.0 0.0
0.004001267198388948 -0.01107198658559098 0.0 -0.00015247661421792231 0.0 0.0
0.0027942547545016733 -0.008754086941756178 0.0 -0.0015864897492742372 0.0 0.0
0.001732098954938861 6.118869240819203e-05 0.0 -0.002366103095227507 0.0 0.0
0.0009702127541751184 -0.00035480852795017324 0.0 -0.0002242794234937379 0.0 0.0
0.0014232893571342754 -0.0006121942499162998 0.0 -0.0004307561443245949 0.0 0.0
0.0017545521207395073 -0.0007226471440855305 0.0 -0.00047813039326066807 0.0 0.0
0.002251231312666202 -0.0009715202424160742 0.0 -0.00041922670445551435 0.0 0.0
0.003018703959972811 -0.0015114102182295613 0.0 -0.0005794537789835393 0.0 0.0
0.00399503507631634 -0.0022367154308923706 0.0 -0.000705426971108678 0.0 0.0
0.0051563840835010645 -0.0031271141096265035 0.0 -0.0008140425852153134 0.0 0.0
0.006584850534368617 -0.0042681218755926615 0.0 -0.0009267297040453436 0.0 0.0
0.008431794354736791 -0.0058046478620991234 0.0 -0.0010505861472118023 0.0 0.0
0.010946444824459254 -0.007991489585590407 0.0 -0.001203630956353775 0.0 0.0
0.01445937053343576 -0.011180525411387608 0.0 -0.001459960706801588 0.0 0.0
0.019295458128576994 -0.015727972746230136 0.0 -0.0019290228448865772 0.0 0.0
0.025610081679767686 -0.021813450916155563 0.0 -0.002619086370643127 0.0 0.0
0.03326714537847556 -0.029318339313580924 0.0 -0.003459029914251717 0.0 0.0
0.041790266108296836 -0.03776360863316442 0.0 -0.004257509458867719 0.0 0.0
0.05037485126909622 -0.046330719815405916 0.0 -0.004648396630618087 0.0 0.0
0.05796762875027471 -0.05396778992588793 0.0 -0.004256227421401635 0.0 0.0
0.06337591404175721 -0.05947015184767189 0.0 -0.00299192885005755 0.0 0.0
0.0653803943112764 -0.06169388926978789 0.0 5.537237335317968e-15 0.0 0.0
0.06337591404175441 -0.05947015184766821 0.0 0.0029919288500706623 0.0 0.0
0.05796762875026916 -0.05396778992588474 0.0 0.004256227421413732 0.0 0.0
0.05037485126908928 -0.046330719815399955 0.0 0.004648396630626259 0.0 0.0
0.041790266108289384 -0.03776360863316382 0.0 0.004257509458871553 0.0 0.0
0.03326714537846747 -0.029318339313574235 0.0 0.003459029914251068 0.0 0.0
0.02561008167975861 -0.02181345091614887 0.0 0.0026190863706432805 0.0 0.0
0.01929545812856712 -0.01572797274622332 0.0 0.0019290228448869125 0.0 0.0
0.014459370533425425 -0.011180525411377684 0.0 0.0014599607068008125 0.0 0.0
0.010946444824449161 -0.007991489585583796 0.0 0.0012036309563525122 0.0 0.0
0.008431794354727448 -0.005804647862090961 0.0 0.0010505861472095836 0.0 0.0
0.006584850534360535 -0.004268121875586227 0.0 0.0009267297040433155 0.0 0.0
0.0051563840834942445 -0.003127114109620253 0.0 0.0008140425852144015 0.0 0.0
0.003995035076310487 -0.0022367154308890374 0.0 0.0007054269711081135 0.0 0.0
0.0030187039599684426 -0.0015114102182259461 0.0 0.0005794537789825586 0.0 0.0
0.002251231312663661 -0.0009715202424149627 0.0 0.0004192267044554202 0.0 0.0
0.0017545521207381926 -0.0007226471440849792 0.0 0.0004781303932609426 0.0 0.0
0.001423289357133607 -0.0006121942499160989 0.0 0.00043075614432397705 0.0 0.0
0.0009702127541750761 -0.00035480852795086615 0.0 0.000224279423492961 0.0 0.0
0.0017320989549368102 6.118869240889153e-05 0.0 0.0023661030952214406 0.0 0.0
0.002794254754497241 -0.008754086941743651 0.0 0.0015864897492649205 0.0 0.0
0.002051577846611455 -0.0070159741911074575 0.0 -0.001985468126730982 0.0 0.0
0.0012189995443692065 -5.937404843862425e-05 0.0 -0.0023734572771183676 0.0 0.0
0.0006784906709008196 -0.00016884597905453705 0.0 -0.0005052074051517428 0.0 0.0
0.0011654313766381894 -0.00048619827166569663 0.0 -0.0006282276105394835 0.0 0.0
0.0015356232084982907 -0.0006455552443458677 0.0 -0.0007485027263861348 0.0 0.0
0.0019521247543444619 -0.0008181688112762169 0.0 -0.000702687525992261 0.0 0.0
0.0025867676276831245 -0.0011953608822642724 0.0 -0.0007790319039990794 0.0 0.0
0.003450432570557992 -0.0018329115076410152 0.0 -0.0010060577944246535 0.0 0.0
0.004474408492855268 -0.0025935548588853614 0.0 -0.0011653035883973154 0.0 0.0
0.005715198014105235 -0.0035593731006754066 0.0 -0.001329978127113275 0.0 0.0
0.007304615464303017 -0.004857766947398296 0.0 -0.0015154819152091111 0.0 0.0
0.009457903651296135 -0.0067020514791029055 0.0 -0.0017509549085568685 0.0 0.0
0.012475148449171991 -0.00940757307705842 0.0 -0.0021139963184267255 0.0 0.0
0.0166652851422902 -0.013323086559358871 0.0 -0.002720852667423432 0.0 0.0
0.02220244791392918 -0.01864597484167631 0.0 -0.003628534915804983 0.0 0.0
0.02898332468980195 -0.02527931513903103 0.0 -0.004755773606202984 0.0 0.0
0.03659081892943074 -0.032805903815668315 0.0 -0.005818854174672682 0.0 0.0
0.044334592282520624 -0.040525742219685995 0.0 -0.006349597090074139 0.0 0.0
0.05128062323538594 -0.04750777286137178 0.0 -0.005885455475226648 0.0 0.0
0.056333186359545574 -0.05264974758165949 0.0 -0.004110073754754123 0.0 0.0
0.05824349094001002 -0.054874351230268355 0.0 8.760136713248379e-15 0.0 0.0
0.05633318635954257 -0.05264974758165589 0.0 0.004110073754771503 0.0 0.0
0.05128062323538113 -0.04750777286136949 0.0 0.005885455475243651 0.0 0.0
0.04433459228251478 -0.04052574221967918 0.0 0.006349597090085013 0.0 0.0
0.03659081892942419 -0.032805903815665574 0.0 0.005818854174676837 0.0 0.0
0.028983324689794657 -0.02527931513902539 0.0 0.004755773606203268 0.0 0.0
0.022202447913921324 -0.018645974841670146 0.0 0.003628534915804919 0.0 0.0
0.016665285142281685 -0.01332308655935353 0.0 0.002720852667422907 0.0 0.0
0.01247514844916299 -0.009407573077048623 0.0 0.002113996318425862 0.0 0.0
0.009457903651287082 -0.006702051479096723 0.0 0.0017509549085553446 0.0 0.0
0.007304615464294674 -0.004857766947390527 0.0 0.001515481915206813 0.0 0.0
0.005715198014098225 -0.0035593731006699127 0.0 0.0013299781271110052 0.0 0.0
0.004474408492849179 -0.0025935548588798237 0.0 0.0011653035883959606 0.0 0.0
0.0034504325705527555 -0.0018329115076385297 0.0 0.001006057794423269 0.0 0.0
0.0025867676276794937 -0.0011953608822617558 0.0 0.0007790319039983144 0.0 0.0
0.001952124754342555 -0.0008181688112753193 0.0 0.0007026875259916039 0.0 0.0
0.0015356232084971992 -0.0006455552443455198 0.0 0.0007485027263855592 0.0 0.0
0.0011654313766376802 -0.0004861982716656225 0.0 0.0006282276105380242 0.0 0.0
0.0006784906709008698 -0.0001688459790544765 0.0 0.000505207405150327 0.0 0.0
0.0012189995443674028 -5.937404843758411e-05 0.0 0.0023734572771126083 0.0 0.0
0.002051577846607622 -0.007015974191096795 0.0 0.0019854681267246436 0.0 0.0
0.001543010568387039 -0.005630311135903928 0.0 -0.0019246055289131548 0.0 0.0
0.0008873555108221299 -0.00019657945299468555 0.0 -0.002316628352611657 0.0 0.0
0.0004709933358308788 -6.603778515825774e-05 0.0 -0.000870944065816883 0.0 0.0
0.0009192889113725511 -0.00035552362079545406 0.0 -0.0008529410061064262 0.0 0.0
0.0013031959027276436 -0.0005468782982476506 0.0 -0.0009903806526402796 0.0 0.0
0.0016762487536462582 -0.0007076948825621288 0.0 -0.001011355763361244 0.0 0.0
0.0021755578070958466 -0.000941341542874523 0.0 -0.0009800478689275193 0.0 0.0
0.002897027236055671 -0.001424561490092238 0.0 -0.0011841483968194836 0.0 0.0
0.003794416078424798 -0.002082918972515899 0.0 -0.0014341553044763004 0.0 0.0
0.0048553437250630285 -0.002880927207384183 0.0 -0.0016379601267400182 0.0 0.0
0.0061987202727388155 -0.003950046737424557 0.0 -0.0018667445974023585 0.0 0.0
0.008004586799874872 -0.005464936700273459 0.0 -0.0021543186177567617 0.0 0.0
0.010535750008811986 -0.007701333129187736 0.0 -0.002585156194372808 0.0 0.0
0.014086098121132071 -0.0109844426863358 0.0 -0.0032808639365097367 0.0 0.0
0.018826867278209067 -0.0155215736810239 0.0 -0.00431640280391585 0.0 0.0
0.024691574922495334 -0.021248061692075788 0.0 -0.005599219851327988 0.0 0.0
0.031352994472006006 -0.027821562172866382 0.0 -0.006823810454206102 0.0 0.0
0.03823272697614765 -0.03466406926102188 0.0 -0.0075005131328123595 0.0 0.0
0.04453499783974002 -0.04099097092715878 0.0 -0.007053403747859027 0.0 0.0
0.04927600510347651 -0.04582749059365131 0.0 -0.0049691375672866805 0.0 0.0
0.05112251556061378 -0.04810867366485369 0.0 9.041812437660113e-15 0.0 0.0
0.04927600510347331 -0.04582749059364938 0.0 0.004969137567306216 0.0 0.0
0.04453499783973565 -0.040990970927154584 0.0 0.007053403747877902 0.0 0.0
0.03823272697614229 -0.03466406926101479 0.0 0.007500513132824946 0.0 0.0
0.031352994472 -0.027821562172861417 0.0 0.006823810454209456 0.0 0.0
0.024691574922489086 -0.021248061692070812 0.0 0.005599219851327983 0.0 0.0
0.01882686727820224 -0.015521573681018596 0.0 0.004316402803915652 0.0 0.0
0.014086098121124711 -0.010984442686331362 0.0 0.003280863936509288 0.0 0.0
0.010535750008804355 -0.007701333129180343 0.0 0.0025851561943722795 0.0 0.0
0.00800458679986729 -0.005464936700267821 0.0 0.002154318617754054 0.0 0.0
0.006198720272731742 -0.003950046737420189 0.0 0.0018667445973998076 0.0 0.0
0.004855343725056908 -0.002880927207379135 0.0 0.001637960126737609 0.0 0.0
0.0037944160784195878 -0.0020829189725120336 0.0 0.0014341553044747472 0.0 0.0
0.002897027236051556 -0.001424561490090376 0.0 0.0011841483968178784 0.0 0.0
0.002175557807093201 -0.0009413415428733622 0.0 0.0009800478689271472 0.0 0.0
0.0016762487536446835 -0.0007076948825615763 0.0 0.0010113557633597543 0.0 0.0
0.00130319590272662 -0.0005468782982474793 0.0 0.0009903806526391822 0.0 0.0
0.0009192889113721465 -0.00035552362079531295 0.0 0.0008529410061048947 0.0 0.0
0.000470993335830938 -6.603778515824325e-05 0.0 0.0008709440658145361 0.0 0.0
0.0008873555108206345 -0.00019657945299361812 0.0 0.002316628352606591 0.0 0.0
0.0015430105683839537 -0.005630311135895178 0.0 0.0019246055289083236 0.0 0.0
0.0011789427651175428 -0.004503710866567249 0.0 -0.001753887476254926 0.0 0.0
0.0006591044971972968 -0.00031260487823577736 0.0 -0.0022270020132685846 0.0 0.0
0.00031673077680389344 -1.4593691211972273e-05 0.0 -0.0012210587239318842 0.0 0.0
0.0006940428696426866 -0.0002377138570589298 0.0 -0.0010964484822855783 0.0 0.0
0.0010615456215555621 -0.0004356455569282133 0.0 -0.001213908582741732 0.0 0.0
0.0014040317549938737 -0.0005981125513069585 0.0 -0.0012826623442848861 0.0 0.0
0.0018025733042427911 -0.0007658785423312296 0.0 -0.0012556368505417703 0.0 0.0
0.0023575399719709136 -0.0010625250776233987 0.0 -0.0013099171427408364 0.0 0.0
0.0031041930457879874 -0.0015831298580550196 0.0 -0.0015781717079287958 0.0 0.0
0.004005009901289955 -0.0022372951072734655 0.0 -0.0018485405195505797 0.0 0.0
0.005112709340470725 -0.003086274588557299 0.0 -0.00209916209344571 0.0 0.0
0.006586417769954403 -0.00428807765080063 0.0 -0.0024166712865877657 0.0 0.0
0.008649514423023238 -0.00606973727567983 0.0 -0.002872104076202573 0.0 0.0
0.011559624741629158 -0.008724737612734365 0.0 -0.0035942339854308013 0.0 0.0
0.01549585389358071 -0.012461767593867315 0.0 -0.004673302288667941 0.0 0.0
0.02042943461925592 -0.017257384216132012 0.0 -0.006014108334758849 0.0 0.0
0.026098440812323632 -0.0228393193585513 0.0 -0.0072966167610365425 0.0 0.0
0.03206687202989101 -0.028753779472309525 0.0 -0.008062016684362539 0.0 0.0
0.03771074123908938 -0.034402170981255316 0.0 -0.007725764375696531 0.0 0.0
0.042161646515698314 -0.03895843190484173 0.0 -0.0055788922101550325 0.0 0.0
0.04396390166417267 -0.04134455111070178 0.0 7.720169989400283e-15 0.0 0.0
0.042161646515695324 -0.038958431904839774 0.0 0.005578892210174173 0.0 0.0
0.03771074123908539 -0.03440217098124967 0.0 0.007725764375714747 0.0 0.0
0.032066872029886256 -0.02875377947230496 0.0 0.0080620166843737 0.0 0.0
0.02609844081231843 -0.022839319358548174 0.0 0.007296616761039867 0.0 0.0
0.02042943461925059 -0.017257384216127714 0.0 0.006014108334758929 0.0 0.0
0.015495853893574971 -0.012461767593864066 0.0 0.004673302288667144 0.0 0.0
0.011559624741623127 -0.00872473761272877 0.0 0.0035942339854306976 0.0 0.0
0.00864951442301689 -0.006069737275675419 0.0 0.002872104076201489 0.0 0.0
0.0065864177699481 -0.004288077650795728 0.0 0.0024166712865852404 0.0 0.0
0.005112709340465019 -0.0030862745885540145 0.0 0.0020991620934426893 0.0 0.0
0.004005009901284999 -0.0022372951072702047 0.0 0.0018485405195479065 0.0 0.0
0.003104193045783691 -0.0015831298580525214 0.0 0.0015781717079270826 0.0 0.0
0.0023575399719676054 -0.001062525077622233 0.0 0.0013099171427389013 0.0 0.0
0.0018025733042407606 -0.00076587854233072 0.0 0.0012556368505411883 0.0 0.0
0.001404031754992633 -0.0005981125513068529 0.0 0.0012826623442835205 0.0 0.0
0.001061545621554736 -0.00043564555692807453 0.0 0.0012139085827406618 0.0 0.0
0.0006940428696424094 -0.00023771385705888585 0.0 0.001096448482283725 0.0 0.0
0.000316730776803889 -1.4593691212028843e-05 0.0 0.0012210587239294983 0.0 0.0
0.0006591044971960715 -0.0003126048782351688 0.0 0.0022270020132645245 0.0 0.0
0.00117894276511506 -0.004503710866560154 0.0 0.0017538874762513233 0.0 0.0
0.000912102440843291 -0.003569393890403007 0.0 -0.00156422036493448 0.0 0.0
0.0004949045452425475 -0.0004072930667679966 0.0 -0.0021495608994646655 0.0 0.0
0.0001959245000774568 1.073994071917145e-05 0.0 -0.001514767953231953 0.0 0.0
0.000489976524589813 -0.0001365006668316769 0.0 -0.001336542954418471 0.0 0.0
0.0008185026188001363 -0.00032182948711767414 0.0 -0.001418069959976838 0.0 0.0
0.0011212598811898562 -0.00047599372337159783 0.0 -0.0015071676385529106 0.0 0.0
0.0014481351582764843 -0.0006194307234326196 0.0 -0.0015296135932002777 0.0 0.0
0.0018611722969077691 -0.000802013198657895 0.0 -0.0015142716807419537 0.0 0.0
0.002424119208272465 -0.0011279529604321025 0.0 -0.0016369694107203276 0.0 0.0
0.0031536116370561532 -0.0016249569718744272 0.0 -0.0019233445757547924 0.0 0.0
0.004046617608520873 -0.0022765924727665412 0.0 -0.002210651020297619 0.0 0.0
0.00520259041122898 -0.0031796183389521983 0.0 -0.0025337928968880707 0.0 0.0
0.006814522884198674 -0.004524840558374474 0.0 -0.0029791859848681437 0.0 0.0
0.009101580273645273 -0.006564069085524193 0.0 -0.0036729518153919894 0.0 0.0
0.012227398770263668 -0.009492405517862462 0.0 -0.004691968320712478 0.0 0.0
0.01620477994834025 -0.013334434903422471 0.0 -0.00598768580084621 0.0 0.0
0.020856540385685376 -0.017889691448550165 0.0 -0.007254394196346318 0.0 0.0
0.025859179464902807 -0.02282163082893024 0.0 -0.008055587426907483 0.0 0.0
0.0307850355878899 -0.02772980254785099 0.0 -0.007869234082294925 0.0 0.0
0.03493845955702348 -0.03199158707700141 0.0 -0.005915679311255546 0.0 0.0
0.03670933319543982 -0.034529477660090194 0.0 7.308390004290288e-15 0.0 0.0
0.03493845955702101 -0.03199158707699831 0.0 0.005915679311273705 0.0 0.0
0.030785035587886193 -0.0277298025478462 0.0 0.007869234082312423 0.0 0.0
0.02585917946489859 -0.022821630828928942 0.0 0.008055587426918042 0.0 0.0
0.02085654038568088 -0.017889691448546057 0.0 0.007254394196349155 0.0 0.0
0.016204779948335673 -0.013334434903418565 0.0 0.005987685800845598 0.0 0.0
0.012227398770259107 -0.009492405517860342 0.0 0.0046919683207113224 0.0 0.0
0.00910158027364068 -0.006564069085519683 0.0 0.003672951815391035 0.0 0.0
0.006814522884193689 -0.004524840558370854 0.0 0.002979185984867873 0.0 0.0
0.005202590411223927 -0.0031796183389471333 0.0 0.0025337928968859193 0.0 0.0
0.004046617608516229 -0.002276592472763258 0.0 0.0022106510202945266 0.0 0.0
0.0031536116370522154 -0.001624956971872112 0.0 0.0019233445757518217 0.0 0.0
0.002424119208269214 -0.0011279529604297303 0.0 0.0016369694107187965 0.0 0.0
0.001861172296905471 -0.0008020131986557841 0.0 0.0015142716807406427 0.0 0.0
0.001448135158275154 -0.0006194307234321742 0.0 0.001529613593199356 0.0 0.0
0.0011212598811890034 -0.00047599372337094113 0.0 0.0015071676385508886 0.0 0.0
0.0008185026187996036 -0.0003218294871180662 0.0 0.0014180699599755631 0.0 0.0
0.0004899765245895828 -0.00013650066683183366 0.0 0.0013365429544159157 0.0 0.0
0.00019592450007735 1.07399407195042e-05 0.0 0.0015147679532297531 0.0 0.0
0.000494904545241711 -0.0004072930667676384 0.0 0.0021495608994613244 0.0 0.0
0.0009121024408417267 -0.003569393890397559 0.0 0.0015642203649321531 0.0 0.0
0.000696285678371184 -0.0028021483894675727 0.0 -0.0014131990613039111 0.0 0.0
0.00036736474689483376 -0.0004745394856088081 0.0 -0.0020737660731264505 0.0 0.0
9.91890974093037e-05 2.328150954621348e-05 0.0 -0.0017452318720501598 0.0 0.0
0.0003038936148809833 -5.039972450999533e-05 0.0 -0.0015528085597120316 0.0 0.0
0.0005787393728732977 -0.0002095766652575085 0.0 -0.0015972063588739086 0.0 0.0
0.0008319705159135046 -0.00034690012474373105 0.0 -0.0016895489483299063 0.0 0.0
0.0010902397742648172 -0.00046633202759349093 0.0 -0.001745572759231254 0.0 0.0
0.0013957326218493541 -0.0005983108601525544 0.0 -0.0017522434680226709 0.0 0.0
0.001788030645871342 -0.0007785606695451311 0.0 -0.001757199236763799 0.0 0.0
0.002314299491429077 -0.0010820466826347217 0.0 -0.001910170900776463 0.0 0.0
0.00298980063139798 -0.0015301918492164883 0.0 -0.0021905189242900137 0.0 0.0
0.0038515183853630825 -0.0021579767946404496 0.0 -0.002496488463239521 0.0 0.0
0.005033762473878476 -0.003087986895291875 0.0 -0.0029077432732654614 0.0 0.0
0.006714579574484476 -0.0045288877993646115 0.0 -0.003515260451464833 0.0 0.0
0.009039260445979197 -0.0066542186756094945 0.0 -0.004406160637812273 0.0 0.0
0.012047024283172518 -0.009516382590033104 0.0 -0.005527532265284178 0.0 0.0
0.015638491850198354 -0.013005699601395204 0.0 -0.006682538703107814 0.0 0.0
0.019622106202709898 -0.016901310535870514 0.0 -0.007472314520710214 0.0 0.0
0.0237542129119961 -0.020979383574093135 0.0 -0.007458548260920179 0.0 0.0
0.02755627347842606 -0.024879226125611165 0.0 -0.005940404760403039 0.0 0.0
0.029289785744138215 -0.027610831743008796 0.0 6.235897215267627e-15 0.0 0.0
0.027556273478423963 -0.024879226125610086 0.0 0.005940404760418388 0.0 0.0
0.023754212911992777 -0.020979383574091418 0.0 0.007458548260935798 0.0 0.0
0.019622106202706307 -0.016901310535870368 0.0 0.007472314520718571 0.0 0.0
0.01563849185019484 -0.01300569960139072 0.0 0.006682538703109727 0.0 0.0
0.012047024283169006 -0.00951638259002878 0.0 0.005527532265284011 0.0 0.0
0.009039260445975562 -0.00665421867560692 0.0 0.0044061606378119796 0.0 0.0
0.006714579574481333 -0.004528887799362406 0.0 0.0035152604514636305 0.0 0.0
0.005033762473875095 -0.003087986895289856 0.0 0.0029077432732655356 0.0 0.0
0.0038515183853593572 -0.002157976794637643 0.0 0.0024964884632377895 0.0 0.0
0.002989800631394664 -0.0015301918492145357 0.0 0.0021905189242874693 0.0 0.0
0.0023142994914263203 -0.0010820466826330412 0.0 0.0019101709007747205 0.0 0.0
0.0017880306458691764 -0.000778560669543941 0.0 0.0017571992367636357 0.0 0.0
0.0013957326218477055 -0.0005983108601505612 0.0 0.0017522434680219252 0.0 0.0
0.0010902397742638017 -0.0004663320275932804 0.0 0.0017455727592293013 0.0 0.0
0.000831970515912992 -0.0003469001247431325 0.0 0.0016895489483276334 0.0 0.0
0.0005787393728728404 -0.0002095766652573379 0.0 0.0015972063588718213 0.0 0.0
0.00030389361488076107 -5.03997245102699e-05 0.0 0.001552808559709855 0.0 0.0
9.918909740935395e-05 2.3281509546302148e-05 0.0 0.001745231872047938 0.0 0.0
0.00036736474689417743 -0.0004745394856083305 0.0 0.0020737660731235297 0.0 0.0
0.0006962856783698532 -0.002802148389463727 0.0 0.0014131990613030164 0.0 0.0
0.0005304765529136543 -0.0022398080807003004 0.0 -0.001363915586035952 0.0 0.0
0.00026457626685402286 -0.0004999210032804811 0.0 -0.0019861876696792647 0.0 0.0
1.3000613616806486e-05 2.9770595027209885e-05 0.0 -0.0019142359695809878 0.0 0.0
0.00013402582183337763 2.3373111889879928e-05 0.0 -0.0017318039198247347 0.0 0.0
0.00034399219124781175 -0.0001009726956835884 0.0 -0.0017441786909401882 0.0 0.0
0.0005387693767657004 -0.00021429077422541095 0.0 -0.001829817547004306 0.0 0.0
0.000725035141690724 -0.0003080646289781977 0.0 -0.0019047652926583217 0.0 0.0
0.0009341022213441802 -0.0004004986821184884 0.0 -0.001939588789387165 0.0 0.0
0.0011890036538425056 -0.0005080216315912321 0.0 -0.0019427747517393196 0.0 0.0
0.001519529573163105 -0.0006643100610455305 0.0 -0.0019641162043019054 0.0 0.0
0.001958693781275948 -0.0009055276158351356 0.0 -0.002133354765994998 0.0 0.0
0.002528885267246865 -0.001271554098340039 0.0 -0.002348897457637658 0.0 0.0
0.003302950741857546 -0.001802864634735969 0.0 -0.002672519925941556 0.0 0.0
0.0044043773300961285 -0.0026721187510176593 0.0 -0.0031564280040863907 0.0 0.0
0.005944188456895185 -0.004005466577105504 0.0 -0.003839182312006596 0.0 0.0
0.007974520957678958 -0.005876222660192406 0.0 -0.004719151727820425 0.0 0.0
0.010476044395947383 -0.008249954080385232 0.0 -0.005660973700455643 0.0 0.0
0.013379088988029931 -0.011053331126515176 0.0 -0.006396602891963281 0.0 0.0
0.01660724240837338 -0.014194706625684887 0.0 -0.00648980613196929 0.0 0.0
0.019960987716371517 -0.017583302331339618 0.0 -0.005540390634615632 0.0 0.0
0.02162694771635913 -0.020525031003619812 0.0 4.997521493854684e-15 0.0 0.0
0.01996098771637009 -0.017583302331339326 0.0 0.005540390634627749 0.0 0.0
0.016607242408370693 -0.014194706625682911 0.0 0.006489806131981565 0.0 0.0
0.013379088988027171 -0.0110533311265164 0.0 0.006396602891970365 0.0 0.0
0.010476044395945024 -0.008249954080382604 0.0 0.005660973700457756 0.0 0.0
0.007974520957676593 -0.005876222660191025 0.0 0.004719151727819191 0.0 0.0
0.005944188456892799 -0.004005466577102545 0.0 0.0038391823120059896 0.0 0.0
0.004404377330094263 -0.0026721187510154523 0.0 0.0031564280040858365 0.0 0.0
0.0033029507418555135 -0.0018028646347347586 0.0 0.002672519925940911 0.0 0.0
0.0025288852672445713 -0.0012715540983390102 0.0 0.002348897457636052 0.0 0.0
0.0019586937812740234 -0.000905527615834303 0.0 0.0021333547659935143 0.0 0.0
0.0015195295731615164 -0.0006643100610443891 0.0 0.0019641162043005714 0.0 0.0
0.0011890036538411554 -0.0005080216315918496 0.0 0.0019427747517385637 0.0 0.0
0.0009341022213431125 -0.0004004986821187658 0.0 0.001939588789386315 0.0 0.0
0.0007250351416901613 -0.00030806462897797293 0.0 0.0019047652926565163 0.0 0.0
0.0005387693767654482 -0.00021429077422505487 0.0 0.0018298175470019776 0.0 0.0
0.000343992191247691 -0.00010097269568304002 0.0 0.0017441786909375757 0.0 0.0
0.00013402582183338882 2.337311188989715e-05 0.0 0.0017318039198229124 0.0 0.0
1.3000613616827543e-05 2.9770595027125202e-05 0.0 0.0019142359695788558 0.0 0.0
0.0002645762668536524 -0.000499921003280002 0.0 0.0019861876696767584 0.0 0.0
0.0005304765529129239 -0.0022398080806977755 0.0 0.0013639155860355702 0.0 0.0
0.00042388630565625633 -0.0018258857874848744 0.0 -0.0013223547674863058 0.0 0.0
0.00019012417569411397 -0.0004935477221901174 0.0 -0.00190523503596927 0.0 0.0
-6.686812616969337e-05 3.718179500142893e-05 0.0 -0.002019053053885524 0.0 0.0
-2.2875808451018482e-05 8.719284455546571e-05 0.0 -0.001866522679468659 0.0 0.0
0.00011557946265054384 3.0781393896496394e-06 0.0 -0.0018529838999619074 0.0 0.0
0.0002448304306578738 -8.103504657947172e-05 0.0 -0.001923883554657523 0.0 0.0
0.0003557065242144441 -0.0001453166965785935 0.0 -0.0020041679825424214 0.0 0.0
0.000465782179279809 -0.0001995289803988048 0.0 -0.0020548703284607333 0.0 0.0
0.0005954672745867024 -0.0002542246174335771 0.0 -0.002073114867351936 0.0 0.0
0.0007563766234937371 -0.00032681685120264186 0.0 -0.002073368739262583 0.0 0.0
0.0009736939309248746 -0.0004213968420928266 0.0 -0.002129430139443608 0.0 0.0
0.001254897757722799 -0.0005763845674485057 0.0 -0.0022642089742584905 0.0 0.0
0.0016264449136377001 -0.0007869645972813316 0.0 -0.0024625355866644792 0.0 0.0
0.0021696008814059173 -0.0011499964801356488 0.0 -0.0027771462320000644 0.0 0.0
0.002944747635399272 -0.0017335182895339332 0.0 -0.003255720445445159 0.0 0.0
0.003999612141083559 -0.0026122073818775357 0.0 -0.003928226085260157 0.0 0.0
0.005377543193984938 -0.003803183683136171 0.0 -0.004729111681295775 0.0 0.0
0.007160903966881382 -0.0054475828992525035 0.0 -0.005444975750281659 0.0 0.0
0.009392870882590117 -0.007579704135627422 0.0 -0.0055868734908087634 0.0 0.0
0.012107423729212778 -0.010179820619466175 0.0 -0.0047999938536625085 0.0 0.0
0.013599094464667907 -0.013245429325757929 0.0 3.475301643685036e-15 0.0 0.0
0.012107423729211995 -0.0101798206194636 0.0 0.004799993853671521 0.0 0.0
0.009392870882588361 -0.0075797041356265756 0.0 0.005586873490818645 0.0 0.0
0.007160903966879865 -0.005447582899253697 0.0 0.005444975750287344 0.0 0.0
0.005377543193983836 -0.003803183683135594 0.0 0.004729111681296111 0.0 0.0
0.00399961214108246 -0.002612207381877406 0.0 0.003928226085258247 0.0 0.0
0.0029447476353982958 -0.0017335182895340765 0.0 0.0032557204454444306 0.0 0.0
0.002169600881405463 -0.001149996480132738 0.0 0.002777146231999986 0.0 0.0
0.0016264449136371374 -0.0007869645972800009 0.0 0.0024625355866640278 0.0 0.0
0.0012548977577220295 -0.0005763845674463082 0.0 0.00226420897425736 0.0 0.0
0.0009736939309243249 -0.0004213968420930556 0.0 0.002129430139442048 0.0 0.0
0.0007563766234932335 -0.0003268168512023494 0.0 0.0020733687392615174 0.0 0.0
0.0005954672745861866 -0.00025422461743321425 0.0 0.00207311486735124 0.0 0.0
0.0004657821792793873 -0.00019952898039795315 0.0 0.0020548703284597463 0.0 0.0
0.0003557065242143037 -0.00014531669657928215 0.0 0.0020041679825405986 0.0 0.0
0.0002448304306579776 -8.103504657874321e-05 0.0 0.0019238835546552015 0.0 0.0
0.0001155794626506473 3.078139389410623e-06 0.0 0.0018529838999593712 0.0 0.0
-2.2875808450984553e-05 8.719284455560622e-05 0.0 0.0018665226794663025 0.0 0.0
-6.686812616961645e-05 3.7181795001307016e-05 0.0 0.002019053053883216 0.0 0.0
0.0001901241756939403 -0.0004935477221896334 0.0 0.001905235035967033 0.0 0.0
0.0004238863056558179 -0.0018258857874831015 0.0 0.0013223547674852047 0.0 0.0
0.00033896847154304727 -0.0014702395703110457 0.0 -0.0012233656492975308 0.0 0.0
0.00012786162203160944 -0.00046696139329661284 0.0 -0.0018233359916595532 0.0 0.0
-0.00014046443916999264 4.8006359236989576e-05 0.0 -0.002065407005965569 0.0 0.0
-0.00016985409565586644 0.00014404269397110035 0.0 -0.0019518452637005035 0.0 0.0
-0.00010590156778569331 0.00010183249178390438 0.0 -0.0019186314178179543 0.0 0.0
-4.764154685315794e-05 5.097458907960949e-05 0.0 -0.0019685156452147385 0.0 0.0
-1.5583871590305446e-05 1.8558182080767602e-05 0.0 -0.0020424431412769547 0.0 0.0
-2.447739098931592e-06 3.536113258760319e-06 0.0 -0.0020959663400208473 0.0 0.0
1.0921662524972518e-06 -1.0207792150080393e-06 0.0 -0.002108075090495582 0.0 0.0
1.1631542766604459e-06 -1.0095367223373472e-06 0.0 -0.0021200672985856026 0.0 0.0
8.787255638285696e-07 -8.886291166099175e-07 0.0 -0.002139670547163013 0.0 0.0
7.923871647611089e-07 -7.429087709431284e-07 0.0 -0.0022725630181347914 0.0 0.0
-5.836601458450972e-07 3.8594972397284957e-07 0.0 -0.0024060789123401174 0.0 0.0
-3.796283480190252e-06 3.954745505642716e-06 0.0 -0.002610550339835473 0.0 0.0
3.893981223453548e-06 3.201648595658327e-06 0.0 -0.0030005549695228716 0.0 0.0
6.832145920032288e-05 -3.326466798641054e-05 0.0 -0.0036220498504423533 0.0 0.0
0.00030882311893677596 -0.00018397795689682278 0.0 -0.004483551849034318 0.0 0.0
0.0009631143693884679 -0.000679551751246678 0.0 -0.005420706636277008 0.0 0.0
0.0022318155024744894 -0.001772241830095601 0.0 -0.006204276361465882 0.0 0.0
0.0041074739828892756 -0.0032714307635892037 0.0 -0.006151390855629676 0.0 0.0
0.0051830662366645595 -0.006375710832965743 0.0 3.97988933475979e-15 0.0 0.0
0.004107473982889114 -0.00327143076358734 0.0 0.006151390855638058 0.0 0.0
0.002231815502473918 -0.0017722418300972805 0.0 0.006204276361474519 0.0 0.0
0.0009631143693881581 -0.0006795517512466564 0.0 0.005420706636281232 0.0 0.0
0.0003088231189370677 -0.00018397795689900572 0.0 0.004483551849035528 0.0 0.0
6.8321459200806e-05 -3.326466798648904e-05 0.0 0.0036220498504421017 0.0 0.0
3.893981223764714e-06 3.2016485936867323e-06 0.0 0.0030005549695226756 0.0 0.0
-3.7962834794721576e-06 3.954745506295473e-06 0.0 0.0026105503398363658 0.0 0.0
-5.836601449167491e-07 3.859497247921066e-07 0.0 0.0024060789123407883 0.0 0.0
7.923871654601483e-07 -7.429087724949334e-07 0.0 0.0022725630181338508 0.0 0.0
8.787255644525686e-07 -8.886291167600795e-07 0.0 0.0021396705471610575 0.0 0.0
1.1631542771824621e-06 -1.009536722635225e-06 0.0 0.002120067298584783 0.0 0.0
1.0921662529128536e-06 -1.020779214922777e-06 0.0 0.002108075090495133 0.0 0.0
-2.447739098667189e-06 3.5361132598868865e-06 0.0 0.00209596634001987 0.0 0.0
-1.5583871590000392e-05 1.8558182080496016e-05 0.0 0.002042443141275452 0.0 0.0
-4.7641546852786395e-05 5.097458907977674e-05 0.0 0.00196851564521219 0.0 0.0
-0.00010590156778539313 0.00010183249178382384 0.0 0.0019186314178153336 0.0 0.0
-0.00016985409565558717 0.00014404269397107534 0.0 0.0019518452636980268 0.0 0.0
-0.0001404644391698068 4.800635923678878e-05 0.0 0.0020654070059630907 0.0 0.0
0.00012786162203148483 -0.00046696139329606575 0.0 0.0018233359916576784 0.0 0.0
0.0003389684715427071 -0.0014702395703096477 0.0 0.001223365649296423 0.0 0.0
0.0002628388720949753 -0.001158246243544654 0.0 -0.0011058580590430482 0.0 0.0
7.019933395294543e-05 -0.0004228963108090707 0.0 -0.0017221141252989468 0.0 0.0
-0.00021007540284137283 6.254165345341224e-05 0.0 -0.0020593031919213444 0.0 0.0
-0.0003086551257889375 0.00019615825245424676 0.0 -0.0019850807331526356 0.0 0.0
-0.0003201014373835726 0.00019503322893289074 0.0 -0.0019370575835444743 0.0 0.0
-0.0003362243073650834 0.00018019559159240258 0.0 -0.0019624966689002496 0.0 0.0
-0.00038571452113650797 0.00018141006964912998 0.0 -0.002018058723680608 0.0 0.0
-0.000470524264762601 0.0002062202756367727 0.0 -0.002057361835709706 0.0 0.0
-0.0005933479636225814 0.00025221695441955406 0.0 -0.002072117898857724 0.0 0.0
-0.0007541576147043893 0.0003248250563029913 0.0 -0.0020723812964519727 0.0 0.0
-0.0009719416654435495 0.0004197762480354422 0.0 -0.0021290284076032943 0.0 0.0
-0.0012532809089476978 0.0005748390020383185 0.0 -0.002264208853299814 0.0 0.0
-0.0016271752193494958 0.0007870752864951879 0.0 -0.0024607336554806638 0.0 0.0
-0.002176793792635817 0.00115827803642436 0.0 -0.0027686724619742655 0.0 0.0
-0.0029417646405645835 0.0017436851437427868 0.0 -0.0032562770924971195 0.0 0.0
-0.0038772785852941244 0.00254599712671875 0.0 -0.004017981737881856 0.0 0.0
-0.004807028426470722 0.003399777312975763 0.0 -0.005067912874923958 0.0 0.0
-0.005404717401499316 0.0040147734825928755 0.0 -0.006363405650102352 0.0 0.0
-0.005247119969888495 0.003941328444690587 0.0 -0.007810922695866793 0.0 0.0
-0.0037085733201396706 0.002808170140398831 0.0 -0.008453003253036592 0.0 0.0
-0.00249431235306276 -0.0006072457068355607 0.0 4.163770023213331e-15 0.0 0.0
-0.00370857332013993 0.002808170140399015 0.0 0.008453003253044914 0.0 0.0
-0.005247119969888289 0.003941328444689536 0.0 0.007810922695875279 0.0 0.0
-0.005404717401498055 0.004014773482592787 0.0 0.0063634056501060444 0.0 0.0
-0.004807028426468804 0.0033997773129735512 0.0 0.00506791287492328 0.0 0.0
-0.003877278585292289 0.0025459971267160525 0.0 0.0040179817378816285 0.0 0.0
-0.0029417646405628614 0.0017436851437428302 0.0 0.0032562770924964186 0.0 0.0
-0.0021767937926337804 0.0011582780364227834 0.0 0.002768672461974298 0.0 0.0
-0.0016271752193472652 0.0007870752864949039 0.0 0.0024607336554798 0.0 0.0
-0.001253280908945558 0.0005748390020343456 0.0 0.0022642088532988398 0.0 0.0
-0.0009719416654415702 0.00041977624803618834 0.0 0.002129028407601641 0.0 0.0
-0.000754157614702875 0.00032482505630180924 0.0 0.002072381296450873 0.0 0.0
-0.0005933479636214766 0.0002522169544186252 0.0 0.002072117898857263 0.0 0.0
-0.0004705242647617798 0.0002062202756368106 0.0 0.0020573618357088716 0.0 0.0
-0.00038571452113583354 0.00018141006964951664 0.0 0.0020180587236790443 0.0 0.0
-0.0003362243073644756 0.00018019559159209187 0.0 0.001962496668897554 0.0 0.0
-0.00032010143738300285 0.00019503322893280273 0.0 0.0019370575835421081 0.0 0.0
-0.000308655125788591 0.00019615825245410432 0.0 0.0019850807331502503 0.0 0.0
-0.00021007540284115022 6.254165345315156e-05 0.0 0.002059303191918936 0.0 0.0
7.01993339529762e-05 -0.00042289631080857915 0.0 0.001722114125296977 0.0 0.0
0.000262838872094709 -0.0011582462435435622 0.0 0.0011058580590421444 0.0 0.0
0.00019181129434589554 -0.0008848057091378216 0.0 -0.0009837292098185207 0.0 0.0
1.4182282261927159e-05 -0.0003657504063559032 0.0 -0.0015987128992248536 0.0 0.0
-0.0002778229957327733 8.190238573883924e-05 0.0 -0.002002997078581314 0.0 0.0
-0.00044068538752189154 0.000244761563390977 0.0 -0.001966208723150113 0.0 0.0
-0.0005272403143182028 0.0002828447452429059 0.0 -0.0019059079900828222 0.0 0.0
-0.000619358586677763 0.00030507224519842513 0.0 -0.0019049958627187858 0.0 0.0
-0.0007511534423984668 0.0003411707805377408 0.0 -0.0019311834195647674 0.0 0.0
-0.0009379565737488629 0.00040607597252648663 0.0 -0.0019438456457788215 0.0 0.0
-0.0011871815282846654 0.0005062247672874742 0.0 -0.0019409789661978304 0.0 0.0
-0.0015176528411441543 0.0006623661066888015 0.0 -0.0019620894202174244 0.0 0.0
-0.0019572545624077496 0.0009040678251974014 0.0 -0.0021324637898724906 0.0 0.0
-0.002527227382226765 0.00126989121187809 0.0 -0.002349693916068529 0.0 0.0
-0.0033020959698842507 0.0018014812014793924 0.0 -0.0026696646645154587 0.0 0.0
-0.004409939724880125 0.0026784953407980616 0.0 -0.003138076523154474 0.0 0.0
-0.005949083143587518 0.0040202389757380795 0.0 -0.0038224801470241364 0.0 0.0
-0.007884372446561483 0.005825903540703862 0.0 -0.0048387755244454515 0.0 0.0
-0.0099779989531419 0.007854675707081291 0.0 -0.006268825753789806 0.0 0.0
-0.01180257275654309 0.009664887930339828 0.0 -0.008127201718932279 0.0 0.0
-0.01263880595770809 0.010558942689256353 0.0 -0.01009409695296142 0.0 0.0
-0.011352019887599396 0.009286780022047709 0.0 -0.010676166368801952 0.0 0.0
-0.010009744168702192 0.004575860548638421 0.0 3.814656923672999e-15 0.0 0.0
-0.011352019887599474 0.009286780022049032 0.0 0.010676166368812355 0.0 0.0
-0.012638805957706884 0.01055894268925499 0.0 0.010094096952971596 0.0 0.0
-0.011802572756540645 0.009664887930339055 0.0 0.0081272017189379 0.0 0.0
-0.009977998953138386 0.007854675707077858 0.0 0.006268825753789415 0.0 0.0
-0.007884372446558265 0.005825903540700097 0.0 0.004838775524445255 0.0 0.0
-0.005949083143584782 0.004020238975736551 0.0 0.003822480147023283 0.0 0.0
-0.004409939724876737 0.002678495340795993 0.0 0.0031380765231534707 0.0 0.0
-0.0033020959698804495 0.001801481201476658 0.0 0.002669664664514128 0.0 0.0
-0.002527227382223034 0.0012698912118753241 0.0 0.0023496939160664353 0.0 0.0
-0.001957254562404445 0.0009040678251952664 0.0 0.002132463789870177 0.0 0.0
-0.0015176528411414557 0.0006623661066872989 0.0 0.0019620894202168476 0.0 0.0
-0.0011871815282826598 0.0005062247672854392 0.0 0.0019409789661978824 0.0 0.0
-0.0009379565737474263 0.0004060759725263514 0.0 0.0019438456457786667 0.0 0.0
-0.0007511534423973908 0.00034117078053738203 0.0 0.001931183419563119 0.0 0.0
-0.0006193585866768382 0.0003050722451983196 0.0 0.0019049958627165766 0.0 0.0
-0.0005272403143174184 0.0002828447452427759 0.0 0.0019059079900807367 0.0 0.0
-0.00044068538752133686 0.0002447615633909709 0.0 0.0019662087231479097 0.0 0.0
-0.0002778229957324509 8.190238573873735e-05 0.0 0.0020029970785794193 0.0 0.0
1.418228226195554e-05 -0.0003657504063556375 0.0 0.0015987128992229031 0.0 0.0
0.0001918112943457327 -0.0008848057091370232 0.0 0.0009837292098176813 0.0 0.0
0.00012552376107057852 -0.0006476816767005225 0.0 -0.0008599915311570221 0.0 0.0
-4.0804304423968514e-05 -0.00030012808240984954 0.0 -0.0014542597268921216 0.0 0.0
-0.0003450107973892812 0.00010656438267225672 0.0 -0.0018993684253882084 0.0 0.0
-0.0005671674915312743 0.0002907512433661083 0.0 -0.0018955822533466204 0.0 0.0
-0.0007271793560086063 0.00036531262476105085 0.0 -0.0018249978044180327 0.0 0.0
-0.0008952691809504235 0.0004248880514489793 0.0 -0.001794013317103349 0.0 0.0
-0.0011102622163042997 0.0004949270724809361 0.0 -0.0017828962035963973 0.0 0.0
-0.0013986578641975807 0.0006022356699594737 0.0 -0.001757538763556017 0.0 0.0
-0.001786745931353286 0.0007771358431333469 0.0 -0.0017548890154891021 0.0 0.0
-0.002312877267471152 0.0010800652403066108 0.0 -0.0019072050689122573 0.0 0.0
-0.0029888381899401545 0.001529069975061196 0.0 -0.002189758683598173 0.0 0.0
-0.00384999677102535 0.002156510511858363 0.0 -0.0024977993969804544 0.0 0.0
-0.005030226099857174 0.0030848028894701804 0.0 -0.0029056906721915826 0.0 0.0
-0.006713040826503451 0.0045272215365442575 0.0 -0.0034878333377031225 0.0 0.0
-0.009044294433698544 0.006663036198081852 0.0 -0.0043476197623516484 0.0 0.0
-0.012000072572583915 0.009497199935282228 0.0 -0.005600682560642628 0.0 0.0
-0.015294383584244776 0.01274214757113451 0.0 -0.007465509066599731 0.0 0.0
-0.0183292642104358 0.015810450141603503 0.0 -0.010040444979640305 0.0 0.0
-0.020023548099793693 0.01761791396763528 0.0 -0.012732495093335591 0.0 0.0
-0.018627527930505417 0.01640388304818673 0.0 -0.01372574544202796 0.0 0.0
-0.01689390318314746 0.009684883596289945 0.0 4.803015624110785e-15 0.0 0.0
-0.01862752793050475 0.016403883048188166 0.0 0.013725745442041328 0.0 0.0
-0.020023548099791705 0.01761791396763504 0.0 0.012732495093348225 0.0 0.0
-0.01832926421043217 0.015810450141599548 0.0 0.010040444979646802 0.0 0.0
-0.015294383584240151 0.012742147571130364 0.0 0.007465509066600311 0.0 0.0
-0.012000072572579476 0.009497199935278632 0.0 0.005600682560641674 0.0 0.0
-0.00904429443369446 0.0066630361980794615 0.0 0.004347619762350652 0.0 0.0
-0.006713040826498814 0.004527221536541488 0.0 0.0034878333377015213 0.0 0.0
-0.005030226099851992 0.003084802889466335 0.0 0.0029056906721900803 0.0 0.0
-0.00384999677102015 0.0021565105118536835 0.0 0.0024977993969771796 0.0 0.0
-0.002988838189935335 0.001529069975057183 0.0 0.0021897586835946383 0.0 0.0
-0.002312877267467256 0.0010800652403044327 0.0 0.00190720506891101 0.0 0.0
-0.001786745931350352 0.0007771358431310042 0.0 0.001754889015488766 0.0 0.0
-0.0013986578641954637 0.0006022356699581833 0.0 0.0017575387635561045 0.0 0.0
-0.0011102622163029054 0.0004949270724806797 0.0 0.0017828962035955102 0.0 0.0
-0.0008952691809492731 0.0004248880514482549 0.0 0.0017940133171014325 0.0 0.0
-0.0007271793560076161 0.0003653126247608953 0.0 0.0018249978044157585 0.0 0.0
-0.0005671674915305766 0.00029075124336563847 0.0 0.0018955822533445322 0.0 0.0
-0.0003450107973889317 0.0001065643826722892 0.0 0.0018993684253860634 0.0 0.0
-4.0804304423871336e-05 -0.0003001280824097409 0.0 0.001454259726890796 0.0 0.0
0.00012552376107060324 -0.0006476816766999469 0.0 0.0008599915311562628 0.0 0.0
6.457336624476692e-05 -0.00044570985654698674 0.0 -0.0007338681700666479 0.0 0.0
-9.425508310739706e-05 -0.00023021632309282527 0.0 -0.0012901294570861637 0.0 0.0
-0.00041191017348486594 0.00013614355372389776 0.0 -0.0017514390513075676 0.0 0.0
-0.0006890978457432667 0.00033461553589587034 0.0 -0.0017735853181936132 0.0 0.0
-0.0009199193225897905 0.0004427220945567152 0.0 -0.0016929225187687985 0.0 0.0
-0.0011628432566080699 0.0005376357105436005 0.0 -0.0016293429713848033 0.0 0.0
-0.0014605585800834136 0.0006408292665116956 0.0 -0.0015703577022195049 0.0 0.0
-0.001862654218004741 0.0008051986854163814 0.0 -0.0015216125420196363 0.0 0.0
-0.002423666250922918 0.0011267458728942952 0.0 -0.0016336456607995784 0.0 0.0
-0.0031529108120949764 0.001623285165580391 0.0 -0.0019198795503412207 0.0 0.0
-0.00404630268808243 0.0022759732073972744 0.0 -0.0022099081682971293 0.0 0.0
-0.005201371275780547 0.0031788719009794133 0.0 -0.002535996267563567 0.0 0.0
-0.006807584887508371 0.004519731017634576 0.0 -0.002978808986987055 0.0 0.0
-0.009086354834002362 0.006548642639847565 0.0 -0.00364094888238795 0.0 0.0
-0.01221892518997423 0.009479293968495447 0.0 -0.004592644590783357 0.0 0.0
-0.016206853244636974 0.013342785638192337 0.0 -0.00597835429646564 0.0 0.0
-0.0207177700425919 0.017816024861458255 0.0 -0.00807907279942971 0.0 0.0
-0.024935685665302326 0.022122421370578942 0.0 -0.01109208326036647 0.0 0.0
-0.027365393812579644 0.02476652054583756 0.0 -0.014449468694784818 0.0 0.0
-0.02560475240298914 0.02333976143857772 0.0 -0.01614301796439262 0.0 0.0
-0.02331406874714896 0.014613089901960901 0.0 7.419845987621798e-15 0.0 0.0
-0.025604752402987842 0.023339761438577702 0.0 0.016143017964408514 0.0 0.0
-0.027365393812576834 0.024766520545836054 0.0 0.014449468694799569 0.0 0.0
-0.024935685665297972 0.022122421370575344 0.0 0.011092083260375423 0.0 0.0
-0.020717770042586237 0.017816024861453176 0.0 0.008079072799432768 0.0 0.0
-0.016206853244631406 0.013342785638190049 0.0 0.005978354296465647 0.0 0.0
-0.012218925189969112 0.009479293968491958 0.0 0.004592644590783007 0.0 0.0
-0.009086354833996491 0.006548642639843603 0.0 0.0036409488823856157 0.0 0.0
-0.006807584887501886 0.0045197310176297864 0.0 0.0029788089869852504 0.0 0.0
-0.005201371275774101 0.003178871900973578 0.0 0.0025359962675609803 0.0 0.0
-0.004046302688076292 0.0022759732073926015 0.0 0.002209908168293538 0.0 0.0
-0.003152910812089663 0.00162328516557613 0.0 0.0019198795503379941 0.0 0.0
-0.002423666250918857 0.0011267458728925648 0.0 0.0016336456607983307 0.0 0.0
-0.0018626542180019082 0.000805198685416123 0.0 0.0015216125420188576 0.0 0.0
-0.0014605585800814458 0.000640829266511196 0.0 0.0015703577022194138 0.0 0.0
-0.0011628432566065726 0.0005376357105427798 0.0 0.0016293429713834472 0.0 0.0
-0.0009199193225886855 0.00044272209455622103 0.0 0.0016929225187669648 0.0 0.0
-0.0006890978457425657 0.0003346155358953352 0.0 0.0017735853181918798 0.0 0.0
-0.0004119101734844929 0.00013614355372363267 0.0 0.0017514390513058086 0.0 0.0
-9.42550831072454e-05 -0.0002302163230927746 0.0 0.0012901294570852677 0.0 0.0
6.457336624482294e-05 -0.0004457098565465458 0.0 0.0007338681700658225 0.0 0.0
1.017749239069955e-05 -0.00027896267112759144 0.0 -0.0006046034235036793 0.0 0.0
-0.00014486945449499765 -0.00015959240609730247 0.0 -0.0011075094216666333 0.0 0.0
-0.00047796758765252586 0.0001694472840534618 0.0 -0.0015617053039687569 0.0 0.0
-0.0008067765889077512 0.0003765889299162427 0.0 -0.001601139769780981 0.0 0.0
-0.00110542904089122 0.0005156535702266683 0.0 -0.0015105699544168093 0.0 0.0
-0.0014200546686798563 0.0006420897907339517 0.0 -0.0014127384547587048 0.0 0.0
-0.0018077020035490565 0.0007805006044240969 0.0 -0.0012972263794147599 0.0 0.0
-0.002358944688609016 0.001065518310903053 0.0 -0.0013171860487788123 0.0 0.0
-0.0031045075426344776 0.001582437104251887 0.0 -0.001574038651205036 0.0 0.0
-0.004005204822518861 0.0022365120142896476 0.0 -0.001845085054021161 0.0 0.0
-0.005113100193684712 0.0030862120181129804 0.0 -0.0020984731906857697 0.0 0.0
-0.006585529228685725 0.004288068520136425 0.0 -0.002419499144364896 0.0 0.0
-0.008638825756937007 0.00606244714502095 0.0 -0.0028720796109527862 0.0 0.0
-0.011526997101571184 0.008693330015891905 0.0 -0.0035619660459169137 0.0 0.0
-0.015462305709056955 0.012415159432273797 0.0 -0.004559132152204487 0.0 0.0
-0.02046684169831795 0.017276977087140953 0.0 -0.005929818084287229 0.0 0.0
-0.026162855373337603 0.022949660131443957 0.0 -0.007978838513059023 0.0 0.0
-0.03153260361218455 0.02846820318904579 0.0 -0.011094514571888392 0.0 0.0
-0.03462491894524765 0.03189075252921014 0.0 -0.014955687254333928 0.0 0.0
-0.03242055004875296 0.030159229979794366 0.0 -0.017816768043279266 0.0 0.0
-0.029551697011853575 0.01945567716933913 0.0 7.576838462197699e-15 0.0 0.0
-0.03242055004875132 0.030159229979792625 0.0 0.017816768043296197 0.0 0.0
-0.03462491894524422 0.031890752529206014 0.0 0.014955687254350137 0.0 0.0
-0.031532603612179376 0.02846820318904624 0.0 0.011094514571898069 0.0 0.0
-0.026162855373331396 0.022949660131437594 0.0 0.007978838513062777 0.0 0.0
-0.020466841698311464 0.01727697708713915 0.0 0.0059298180842869645 0.0 0.0
-0.015462305709050626 0.012415159432267198 0.0 0.004559132152204469 0.0 0.0
-0.011526997101564148 0.008693330015884874 0.0 0.0035619660459156235 0.0 0.0
-0.008638825756929026 0.006062447145013184 0.0 0.0028720796109509583 0.0 0.0
-0.006585529228677875 0.004288068520131073 0.0 0.0024194991443621337 0.0 0.0
-0.005113100193677525 0.0030862120181075346 0.0 0.0020984731906816137 0.0 0.0
-0.004005204822512517 0.0022365120142847144 0.0 0.0018450850540176963 0.0 0.0
-0.0031045075426292235 0.0015824371042493645 0.0 0.0015740386512027524 0.0 0.0
-0.002358944688604962 0.0010655183109017777 0.0 0.0013171860487771025 0.0 0.0
-0.0018077020035464127 0.0007805006044232919 0.0 0.001297226379413861 0.0 0.0
-0.001420054668678203 0.0006420897907337173 0.0 0.0014127384547577488 0.0 0.0
-0.001105429040889926 0.0005156535702259281 0.0 0.00151056995441546 0.0 0.0
-0.000806776588906853 0.0003765889299160198 0.0 0.0016011397697793218 0.0 0.0
-0.0004779675876519857 0.00016944728405323702 0.0 0.001561705303967244 0.0 0.0
-0.00014486945449495144 -0.0001595924060972392 0.0 0.0011075094216654218 0.0 0.0
1.0177492390463507e-05 -0.0002789626711273365 0.0 0.0006046034235033357 0.0 0.0
-3.5841755990205154e-05 -0.00014841664321981482 0.0 -0.0004727487834209951 0.0 0.0
-0.00019048899454024697 -9.152101202746178e-05 0.0 -0.0009079000707740287 0.0 0.0
-0.0005418696273123842 0.00020452227080465488 0.0 -0.0013312162697820336 0.0 0.0
-0.0009207058915481393 0.000416960823990829 0.0 -0.001378576939543584 0.0 0.0
-0.0012841107756118885 0.0005845545634976982 0.0 -0.0012812169196398848 0.0 0.0
-0.0016675513580070743 0.0007343878481693522 0.0 -0.0011399939358001062 0.0 0.0
-0.002173182344311776 0.0009504734213779187 0.0 -0.0010211864805886824 0.0 0.0
-0.0028979644463159523 0.0014268291929521713 0.0 -0.0011880490709227434 0.0 0.0
-0.0037961660690401184 0.002083724319034735 0.0 -0.001430045839568902 0.0 0.0
-0.004856653766840719 0.0028812562504780077 0.0 -0.0016349032389819077 0.0 0.0
-0.006199713909059596 0.003950751669927092 0.0 -0.0018667884396644705 0.0 0.0
-0.008003320277469852 0.005464997129795398 0.0 -0.002157242157498863 0.0 0.0
-0.010520919866628708 0.007690811930609217 0.0 -0.0025835561174938773 0.0 0.0
-0.01403807407211477 0.010939218058963708 0.0 -0.00325068033828204 0.0 0.0
-0.018763590936600103 0.015442494519984203 0.0 -0.004221733876874663 0.0 0.0
-0.024728881602741407 0.021248465985888847 0.0 -0.005485723265034984 0.0 0.0
-0.03155213494865628 0.028039201102382123 0.0 -0.00721666732789524 0.0 0.0
-0.03802362077367233 0.03471456898998531 0.0 -0.009999944238121804 0.0 0.0
-0.04178222452418585 0.038932893221146604 0.0 -0.014154987882047578 0.0 0.0
-0.03922560312387841 0.037021736557370684 0.0 -0.018848398869269735 0.0 0.0
-0.0358420608554537 0.02441229152090132 0.0 7.576838462197699e-15 0.0 0.0
-0.039225603123876386 0.03702173655736798 0.0 0.018848398869286458 0.0 0.0
-0.04178222452418172 0.038932893221142975 0.0 0.014154987882064478 0.0 0.0
-0.03802362077366632 0.034714568989980925 0.0 0.00999994423813195 0.0 0.0
-0.03155213494864944 0.02803920110237739 0.0 0.007216667327899422 0.0 0.0
-0.02472888160273421 0.0212484659858845 0.0 0.005485723265036112 0.0 0.0
-0.018763590936592495 0.015442494519978579 0.0 0.004221733876873752 0.0 0.0
-0.014038074072106617 0.010939218058956006 0.0 0.0032506803382812274 0.0 0.0
-0.010520919866619528 0.007690811930599931 0.0 0.002583556117492259 0.0 0.0
-0.008003320277460637 0.005464997129788749 0.0 0.002157242157496492 0.0 0.0
-0.006199713909051303 0.003950751669920924 0.0 0.001866788439661012 0.0 0.0
-0.004856653766833446 0.002881256250473104 0.0 0.0016349032389796586 0.0 0.0
-0.0037961660690338335 0.002083724319028955 0.0 0.0014300458395662208 0.0 0.0
-0.002897964446310745 0.001426829192948796 0.0 0.001188049070920923 0.0 0.0
-0.0021731823443083475 0.0009504734213764501 0.0 0.001021186480587262 0.0 0.0
-0.0016675513580051253 0.0007343878481689421 0.0 0.0011399939357993301 0.0 0.0
-0.0012841107756106011 0.0005845545634964607 0.0 0.0012812169196385183 0.0 0.0
-0.0009207058915471676 0.0004169608239903561 0.0 0.0013785769395422754 0.0 0.0
-0.0005418696273117385 0.00020452227080427303 0.0 0.0013312162697807581 0.0 0.0
-0.00019048899453997674 -9.15210120273128e-05 0.0 0.0009079000707726239 0.0 0.0
-3.584175599005491e-05 -0.00014841664321980648 0.0 0.00047274878342081335 0.0 0.0
-7.082245459589498e-05 -5.554268296905465e-05 0.0 -0.00034169816427033045 0.0 0.0
-0.00022774880621818813 -2.9445522282677773e-05 0.0 -0.0006935837198135675 0.0 0.0
-0.0006013419005182967 0.00023823879743214396 0.0 -0.001058731072405296 0.0 0.0
-0.001031597452183433 0.0004574242655207996 0.0 -0.0011044570654690077 0.0 0.0
-0.0014550086082915355 0.0006463778358013803 0.0 -0.0010076943985825805 0.0 0.0
-0.0019203442294930947 0.0008267229668984938 0.0 -0.0008157021483811475 0.0 0.0
-0.0025776562735176124 0.001196501933226987 0.0 -0.0008078631494405557 0.0 0.0
-0.003452347187071614 0.001836116282000305 0.0 -0.0010073655729471115 0.0 0.0
-0.0044782808447271245 0.0025964596425240858 0.0 -0.0011620883770690727 0.0 0.0
-0.005717687575869954 0.003560896791313192 0.0 -0.0013275830237952679 0.0 0.0
-0.007305946511068251 0.004859142176385339 0.0 -0.0015161379868757245 0.0 0.0
-0.009455134963000232 0.006701087191050412 0.0 -0.0017535435527844731 0.0 0.0
-0.012455576628028198 0.009392167054335019 0.0 -0.0021100489571647643 0.0 0.0
-0.01660818801400327 0.013268846891167432 0.0 -0.002694675835185926 0.0 0.0
-0.02211608813832898 0.018547878834967085 0.0 -0.0035718639414318797 0.0 0.0
-0.028973710824061548 0.025233788635733976 0.0 -0.004678438227052398 0.0 0.0
-0.03678186214588931 0.03298534020830565 0.0 -0.005923013317587272 0.0 0.0
-0.04428416172168522 0.04070229522231313 0.0 -0.007830341945656452 0.0 0.0
-0.048839659287629573 0.045848150787244274 0.0 -0.011934302392522885 0.0 0.0
-0.04618150319576291 0.044109497142953834 0.0 -0.01906911729326663 0.0 0.0
-0.04241118480810474 0.02971494438549347 0.0 6.79664657887713e-15 0.0 0.0
-0.04618150319576039 0.04410949714295197 0.0 0.019069117293281347 0.0 0.0
-0.04883965928762466 0.04584815078723946 0.0 0.011934302392538017 0.0 0.0
-0.044284161721678664 0.04070229522230906 0.0 0.007830341945665707 0.0 0.0
-0.03678186214588182 0.03298534020829893 0.0 0.005923013317590644 0.0 0.0
-0.028973710824053305 0.025233788635729122 0.0 0.004678438227053843 0.0 0.0
-0.022116088138320177 0.01854787883496091 0.0 0.0035718639414316147 0.0 0.0
-0.016608188013994007 0.013268846891159624 0.0 0.0026946758351850874 0.0 0.0
-0.012455576628017748 0.009392167054325972 0.0 0.0021100489571637122 0.0 0.0
-0.009455134962989688 0.006701087191041959 0.0 0.0017535435527821198 0.0 0.0
-0.00730594651105876 0.00485914217637725 0.0 0.0015161379868727767 0.0 0.0
-0.005717687575861716 0.0035608967913066895 0.0 0.0013275830237932508 0.0 0.0
-0.004478280844719965 0.0025964596425171902 0.0 0.0011620883770673844 0.0 0.0
-0.0034523471870654453 0.0018361162819966245 0.0 0.0010073655729450715 0.0 0.0
-0.0025776562735132826 0.001196501933224491 0.0 0.0008078631494393344 0.0 0.0
-0.0019203442294906093 0.0008267229668972325 0.0 0.0008157021483811859 0.0 0.0
-0.001455008608290108 0.0006463778358003537 0.0 0.0010076943985816817 0.0 0.0
-0.0010315974521825175 0.00045742426551999065 0.0 0.001104457065468391 0.0 0.0
-0.0006013419005177415 0.00023823879743186646 0.0 0.0010587310724048974 0.0 0.0
-0.00022774880621796785 -2.9445522282376558e-05 0.0 0.0006935837198126926 0.0 0.0
-7.082245459584935e-05 -5.5542682969134695e-05 0.0 0.0003416981642696731 0.0 0.0
-9.0640113370451e-05 -1.7313612782127632e-06 0.0 -0.00022037564565979275 0.0 0.0
-0.00025137382374268837 2.2063815241226535e-05 0.0 -0.00046781374968135733 0.0 0.0
-0.0006528331666916456 0.00026601533715949377 0.0 -0.0007394200994033249 0.0 0.0
-0.001140397680545016 0.0005011553211993608 0.0 -0.0007748554375137698 0.0 0.0
-0.001622331738442003 0.0006962447716632765 0.0 -0.0006879750590728976 0.0 0.0
-0.002199075935909114 0.0009587823382744905 0.0 -0.0004938421189570961 0.0 0.0
-0.0030055683186624737 0.0015061127139644078 0.0 -0.0005936612815746798 0.0 0.0
-0.00400025202063301 0.002243856370344882 0.0 -0.0007067707068243956 0.0 0.0
-0.00516260652688621 0.003132013030866501 0.0 -0.0008120072740664964 0.0 0.0
-0.0065883826030301304 0.00427083635603424 0.0 -0.0009251481618273448 0.0 0.0
-0.008433076296559755 0.005806420952563076 0.0 -0.0010516758183249828 0.0 0.0
-0.010941000419780002 0.007988259375672815 0.0 -0.0012056311376825815 0.0 0.0
-0.01443464758650485 0.011158907890873343 0.0 -0.0014546817263856478 0.0 0.0
-0.01923567310834096 0.01566937645545251 0.0 -0.0019091867722203502 0.0 0.0
-0.02551504827116384 0.021713570662800746 0.0 -0.002597625931765691 0.0 0.0
-0.033181074156994395 0.02922048031392588 0.0 -0.003448683592719753 0.0 0.0
-0.04177686325849451 0.03775127381496264 0.0 -0.0042411145525855995 0.0 0.0
-0.05017273250066282 0.04624514658470835 0.0 -0.005073963499621582 0.0 0.0
-0.05573979234115862 0.05248092238394818 0.0 -0.007986217837080738 0.0 0.0
-0.05345760208725923 0.05163517758127656 0.0 -0.01780793930275016 0.0 0.0
-0.04955895355129584 0.03573008824195614 0.0 4.754877047652428e-15 0.0 0.0
-0.05345760208725619 0.05163517758127427 0.0 0.017807939302762355 0.0 0.0
-0.05573979234115297 0.052480922383943224 0.0 0.007986217837094092 0.0 0.0
-0.05017273250065531 0.04624514658470545 0.0 0.00507396349962834 0.0 0.0
-0.04177686325848587 0.037751273814955286 0.0 0.004241114552588666 0.0 0.0
-0.03318107415698523 0.02922048031391878 0.0 0.0034486835927207927 0.0 0.0
-0.025515048271153962 0.021713570662793346 0.0 0.002597625931765357 0.0 0.0
-0.019235673108330405 0.015669376455444577 0.0 0.0019091867722202246 0.0 0.0
-0.014434647586493229 0.011158907890863084 0.0 0.0014546817263847386 0.0 0.0
-0.010941000419768292 0.007988259375663226 0.0 0.0012056311376806433 0.0 0.0
-0.008433076296549128 0.005806420952554919 0.0 0.001051675818322602 0.0 0.0
-0.006588382603020878 0.004270836356026271 0.0 0.0009251481618258108 0.0 0.0
-0.005162606526878208 0.003132013030860825 0.0 0.0008120072740656148 0.0 0.0
-0.004000252020625875 0.002243856370338831 0.0 0.0007067707068231552 0.0 0.0
-0.003005568318657157 0.0015061127139614032 0.0 0.0005936612815728613 0.0 0.0
-0.0021990759359060918 0.0009587823382731762 0.0 0.000493842118957408 0.0 0.0
-0.0016223317384402931 0.0006962447716626245 0.0 0.000687975059072611 0.0 0.0
-0.0011403976805439454 0.0005011553211986285 0.0 0.0007748554375133746 0.0 0.0
-0.0006528331666911835 0.0002660153371594489 0.0 0.0007394200994030846 0.0 0.0
-0.00025137382374255013 2.2063815241376924e-05 0.0 0.0004678137496809081 0.0 0.0
-9.064011337031627e-05 -1.7313612782337675e-06 0.0 0.0002203756456590818 0.0 0.0
-8.816420479567034e-05 1.2687535000151892e-05 0.0 -0.0001286091930835962 0.0 0.0
-0.00025293961643911317 5.5146613041853125e-05 0.0 -0.00023440204022469763 0.0 0.0
-0.0006909547655228721 0.0002828538843599012 0.0 -0.00036186097507330414 0.0 0.0
-0.001248708700010634 0.0005484528043749196 0.0 -0.00038277937085182654 0.0 0.0
-0.0018028546631797498 0.0007493754631557726 0.0 -0.00032548366133613337 0.0 0.0
-0.002502068869052307 0.001134102950912287 0.0 -0.00020489565798320204 0.0 0.0
-0.0034419435074142385 0.0018396911026203038 0.0 -0.00029475453775128864 0.0 0.0
-0.004542833043550267 0.0026612206732828624 0.0 -0.00033899109716657613 0.0 0.0
-0.005848855270090956 0.0036874583855641832 0.0 -0.00038001451908678953 0.0 0.0
-0.007469364933413226 0.005005932012619918 0.0 -0.0004290761726219927 0.0 0.0
-0.009580225239291725 0.006788058803189033 0.0 -0.00047083428162629655 0.0 0.0
-0.012460523336146072 0.009324051962099662 0.0 -0.0005120137462172024 0.0 0.0
-0.016463774793975938 0.01299042455346241 0.0 -0.0006395203798232115 0.0 0.0
-0.021902894415713667 0.018122804592958692 0.0 -0.0008860533605686488 0.0 0.0
-0.028926093390581276 0.024905059128034743 0.0 -0.0012586675221188262 0.0 0.0
-0.037361691544880574 0.03319567392038449 0.0 -0.0017507337899111365 0.0 0.0
-0.046580217977245 0.042384324215660255 0.0 -0.0021936781494448134 0.0 0.0
-0.0554835839721505 0.05132310416672782 0.0 -0.0023897409908976677 0.0 0.0
-0.062213528861713635 0.05823807227493438 0.0 -0.0032862808171279755 0.0 0.0
-0.061271698733975075 0.05965596792008569 0.0 -0.011961817282187242 0.0 0.0
-0.05780755318783537 0.04356905296110095 0.0 2.566523382707686e-15 0.0 0.0
-0.06127169873397118 0.05965596792008272 0.0 0.011961817282194646 0.0 0.0
-0.06221352886170706 0.058238072274929206 0.0 0.003286280817137361 0.0 0.0
-0.05548358397214196 0.051323104166720195 0.0 0.002389740990901866 0.0 0.0
-0.04658021797723535 0.04238432421565285 0.0 0.0021936781494457545 0.0 0.0
-0.03736169154487035 0.033195673920376395 0.0 0.001750733789911829 0.0 0.0
-0.02892609339057018 0.02490505912802392 0.0 0.0012586675221192326 0.0 0.0
-0.021902894415701875 0.01812280459294979 0.0 0.0008860533605687257 0.0 0.0
-0.016463774793963062 0.012990424553449755 0.0 0.0006395203798225473 0.0 0.0
-0.012460523336133155 0.009324051962088848 0.0 0.0005120137462162387 0.0 0.0
-0.009580225239280047 0.006788058803179591 0.0 0.0004708342816254832 0.0 0.0
-0.00746936493340309 0.005005932012610998 0.0 0.00042907617262133977 0.0 0.0
-0.005848855270082126 0.003687458385556305 0.0 0.00038001451908621 0.0 0.0
-0.0045428330435424435 0.0026612206732770332 0.0 0.00033899109716642857 0.0 0.0
-0.003441943507408063 0.0018396911026159245 0.0 0.0002947545377501259 0.0 0.0
-0.0025020688690486144 0.0011341029509107244 0.0 0.000204895657982966 0.0 0.0
-0.0018028546631779882 0.0007493754631548525 0.0 0.00032548366133583755 0.0 0.0
-0.0012487087000095116 0.0005484528043749105 0.0 0.00038277937085114984 0.0 0.0
-0.0006909547655222736 0.00028285388435968597 0.0 0.00036186097507266365 0.0 0.0
-0.0002529396164389128 5.5146613041728496e-05 0.0 0.00023440204022448524 0.0 0.0
-8.816420479557467e-05 1.2687535000154037e-05 0.0 0.00012860919308334227 0.0 0.0
-4.9911659724862485e-05 1.011284884256619e-05 0.0 -8.46385140337066e-05 0.0 0.0
-0.00021828219346636585 6.580006692111795e-05 0.0 -9.807088905276222e-05 0.0 0.0
-0.0007083278733179524 0.00028794487803697873 0.0 -0.00012356333429930025 0.0 0.0
-0.001362412779008206 0.0005726472954572431 0.0 -0.0001365571718703164 0.0 0.0
-0.002011997909064089 0.0007809535765594149 0.0 -9.021994584089944e-05 0.0 0.0
-0.0028245914836375714 0.0012278010267937596 0.0 1.864291433262505e-05 0.0 0.0
-0.0038745643200801916 0.002008343538439031 0.0 -1.382163282840211e-05 0.0 0.0
-0.005081667405477913 0.0028732580796900094 0.0 -8.740328406243471e-06 0.0 0.0
-0.006537045616183775 0.003969291037130713 0.0 2.3499309414656724e-05 0.0 0.0
-0.008359956667024535 0.00537946936954659 0.0 6.286543297462745e-05 0.0 0.0
-0.010748062883749791 0.007285896522928241 0.0 0.00015915847897507397 0.0 0.0
-0.014020105222825941 0.010005013019501416 0.0 0.00031223754751207077 0.0 0.0
-0.01853173812896965 0.013923017969015778 0.0 0.0004212091404047092 0.0 0.0
-0.024589479357742777 0.01935833779650499 0.0 0.0005258351028891114 0.0 0.0
-0.032329425138861015 0.026503992853663304 0.0 0.0005329401797736426 0.0 0.0
-0.04149632967480938 0.035178324335836786 0.0 0.00039086293342546676 0.0 0.0
-0.0512916140274797 0.044675805940926294 0.0 0.00012790963252950083 0.0 0.0
-0.06036500792120181 0.05376681526118571 0.0 -0.00013854130701973066 0.0 0.0
-0.06731315522461505 0.06078176532001645 0.0 -0.00031953786576091126 0.0 0.0
-0.0695147295072038 0.06377486682370834 0.0 -0.007804741560301642 0.0 0.0
-0.06892335052042825 0.04816320795825591 0.0 1.609823385706477e-15 0.0 0.0
-0.06951472950719967 0.06377486682370546 0.0 0.007804741560305696 0.0 0.0
-0.06731315522460747 0.06078176532001007 0.0 0.00031953786576570213 0.0 0.0
-0.06036500792119148 0.05376681526117709 0.0 0.0001385413070212789 0.0 0.0
-0.05129161402746844 0.044675805940917836 0.0 -0.00012790963252935512 0.0 0.0
-0.04149632967479773 0.03517832433583137 0.0 -0.00039086293342541125 0.0 0.0
-0.03232942513884844 0.026503992853648437 0.0 -0.0005329401797737579 0.0 0.0
-0.024589479357729697 0.01935833779649368 0.0 -0.0005258351028888074 0.0 0.0
-0.018531738128955682 0.013923017969001899 0.0 -0.00042120914040458127 0.0 0.0
-0.01402010522281151 0.010005013019489932 0.0 -0.0003122375475125795 0.0 0.0
-0.010748062883736817 0.007285896522917279 0.0 -0.00015915847897440155 0.0 0.0
-0.00835995666701363 0.005379469369537244 0.0 -6.28654329750105e-05 0.0 0.0
-0.006537045616173949 0.003969291037120797 0.0 -2.3499309414474145e-05 0.0 0.0
-0.005081667405469296 0.0028732580796863106 0.0 8.74032840720402e-06 0.0 0.0
-0.0038745643200734257 0.0020083435384336433 0.0 1.3821632827978078e-05 0.0 0.0
-0.0028245914836331956 0.0012278010267913076 0.0 -1.8642914332555065e-05 0.0 0.0
-0.002011997909061952 0.0007809535765584972 0.0 9.02199458407216e-05 0.0 0.0
-0.0013624127790071217 0.0005726472954574944 0.0 0.0001365571718696493 0.0 0.0
-0.0007083278733174378 0.00028794487803670047 0.0 0.0001235633342988819 0.0 0.0
-0.000218282193466048 6.580006692094608e-05 0.0 9.807088905261702e-05 0.0 0.0
-4.991165972444191e-05 1.0112848842579126e-05 0.0 8.463851403409318e-05 0.0 0.0
SCALARS Statev float 8
LOOKUP_TABLE default
0.0 0.008111497434355104 0.0061225627594196285 -0.007719813477025857 0.001597250717606231 -0.0003439450890219886 0.0 0.0
0.0 0.0018934293176064785 0.001231490181893849 -0.0005249590299687292 -0.0007065311519251217 -0.0029031428805955444 0.0 0.0
0.0 -2.9884254633202836e-05 -8.316843930062472e-06 5.308927396752418e-06 3.007916533310473e-06 -9.362529634145468e-06 0.0 0.0
0.0 7.149623777442509e-05 -1.102579996576422e-05 8.196748569717583e-06 2.829051396046456e-06 -2.2273404682893211e-07 0.0 0.0
0.0 0.0003007629995748648 1.0047334898075474e-05 -5.284018184560589e-06 -4.763316713514579e-06 2.2182741156504054e-05 0.0 0.0
0.0 0.0004501477193078437 0.0005478844387175866 -0.00041223599718297074 -0.00013564844153461615 3.876767306361861e-05 0.0 0.0
0.0 0.0013581529121392234 0.001263192917220758 -0.0009843865993942862 -0.00027880631782647124 4.232304141776758e-05 0.0 0.0
0.0 0.0024077408287728817 0.0022539602587597013 -0.0018054593024344355 -0.00044850095632526546 5.055129257891313e-05 0.0 0.0
0.0 0.0037746186976964895 0.003513858173076482 -0.002891824693218106 -0.0006220334798583745 7.542967748215715e-05 0.0 0.0
0.0 0.005605768192391449 0.005124336594477302 -0.00432292352645351 -0.0008014130680237918 0.00011405536339098464 0.0 0.0
0.0 0.008112978113619988 0.007270408403800726 -0.006276782643317689 -0.0009936257604830378 0.00021065376953352714 0.0 0.0
0.0 0.01134568846054306 0.010280290306353657 -0.009080416707595303 -0.0011998735987583445 0.000368450760896635 0.0 0.0
0.0 0.016077346493597867 0.014508452340973501 -0.01310306763771033 -0.0014053847032631558 0.0004777870876583169 0.0 0.0
0.0 0.02259835924335855 0.020264282270732865 -0.018653140974820515 -0.001611141295912337 0.0005818211288922727 0.0 0.0
0.0 0.03110346434316931 0.02771579226169548 -0.025907336473349567 -0.001808455788345922 0.0006126387031533254 0.0 0.0
0.0 0.041470581472715096 0.036723604505476966 -0.034732045732751765 -0.001991558772725217 0.0005407803997915023 0.0 0.0
0.0 0.05301346715344348 0.046727826339417924 -0.04457177405956918 -0.0021560522798487252 0.0003582542225165702 0.0 0.0
0.0 0.0645784306756221 0.05674158274147107 -0.054446148680475065 -0.0022954340609960306 0.00011564002591658677 0.0 0.0
0.0 0.07471895843533036 0.06551584220136779 -0.06311504889890965 -0.0024007933024581323 -5.1974993544131286e-05 0.0 0.0
0.0 0.08175297493016775 0.07177580175511447 -0.06931953725726195 -0.002456264497852493 -0.00014300259075272228 0.0 0.0
0.0 0.08432608481934234 0.07414007127250877 -0.07168422215837734 -0.0024558491141314395 4.462576141950336e-16 0.0 0.0
0.0 0.08175297493016459 0.0717758017551114 -0.06931953725725915 -0.0024562644978522487 0.0001430025907563164 0.0 0.0
0.0 0.07471895843532295 0.06551584220136125 -0.06311504889890368 -0.00240079330245761 5.197499354881374e-05 0.0 0.0
0.0 0.06457843067560824 0.05674158274145912 -0.05444614868046316 -0.0022954340609959746 -0.00011564002591441837 0.0 0.0
0.0 0.053013467153432234 0.04672782633940759 -0.04457177405956021 -0.0021560522798473526 -0.00035825422251544413 0.0 0.0
0.0 0.04147058147270408 0.03672360450546687 -0.034732045732742675 -0.001991558772724219 -0.0005407803997915755 0.0 0.0
0.0 0.031103464343158586 0.02771579226168573 -0.02590733647334077 -0.0018084557883449829 -0.0006126387031538224 0.0 0.0
0.0 0.022598359243345766 0.02026428227072129 -0.01865314097480998 -0.0016111412959113123 -0.0005818211288928503 0.0 0.0
0.0 0.01607734649358365 0.01450845234096075 -0.013103067637698614 -0.0014053847032621462 -0.0004777870876587451 0.0 0.0
0.0 0.011345688460530967 0.01028029030634265 -0.009080416707585305 -0.0011998735987573306 -0.0003684507608967271 0.0 0.0
0.0 0.008112978113607748 0.007270408403789447 -0.006276782643307671 -0.0009936257604817758 -0.00021065376953389986 0.0 0.0
0.0 0.005605768192383131 0.0051243365944697705 -0.004322923526446969 -0.0008014130680228016 -0.00011405536339117149 0.0 0.0
0.0 0.0037746186976892067 0.0035138581730693634 -0.002891824693212163 -0.0006220334798572012 -7.542967748240339e-05 0.0 0.0
0.0 0.0024077408287673666 0.002253960258754026 -0.0018054593024297108 -0.0004485009563243155 -5.0551292578965576e-05 0.0 0.0
0.0 0.0013581529121349666 0.001263192917215778 -0.000984386599390238 -0.0002788063178255399 -4.232304141783721e-05 0.0 0.0
0.0 0.0004501477193057929 0.0005478844387149238 -0.0004122359971809079 -0.00013564844153401588 -3.876767306339807e-05 0.0 0.0
0.0 0.0003007629995733005 1.0047334897607983e-05 -5.2840181842317275e-06 -4.763316713376787e-06 -2.218274115634985e-05 0.0 0.0
0.0 7.149623777388238e-05 -1.1025799965659802e-05 8.196748569641746e-06 2.8290513960185217e-06 2.2273404684293704e-07 0.0 0.0
0.0 -2.988425463341711e-05 -8.316843929854769e-06 5.30892739662601e-06 3.0079165332287635e-06 9.36252963391355e-06 0.0 0.0
0.0 0.0018934293176029423 0.0012314901818923354 -0.0005249590299680983 -0.0007065311519242351 0.0029031428805918074 0.0 0.0
0.0 0.008111497434345787 0.00612256275941354 -0.007719813477016273 0.0015972507176027296 0.00034394508900889 0.0 0.0
0.0 0.0063581731163997995 0.004420243682907152 -0.006107876396931316 0.001687632714024161 -3.9894508869967493e-05 0.0 0.0
0.0 0.0007718292492844242 0.0005412504340136115 -0.00013437205986791895 -0.00040687837414569186 -0.001784440837302575 0.0 0.0
0.0 1.5999031152490774e-05 -1.1318107376230243e-06 1.4388794877113962e-06 -3.0706875008855595e-07 3.1385809665923853e-06 0.0 0.0
0.0 7.467978065355359e-06 -7.961622931434474e-07 5.360292496322876e-07 2.6013304351136995e-07 1.594436540044148e-07 0.0 0.0
0.0 8.315332147324674e-05 -1.3755504279232072e-05 1.083861183249946e-05 2.9168924467318266e-06 4.780791974043842e-06 0.0 0.0
0.0 0.0004604528459573712 0.0002782453733935415 -0.00020958578844311666 -6.86595849504246e-05 3.542595760054211e-05 0.0 0.0
0.0 0.0010503212862935255 0.0009850133717214543 -0.0007765248091616147 -0.00020848856255983932 -4.000073638092489e-05 0.0 0.0
0.0 0.002021976589131424 0.0018734535127372801 -0.0015183086547238915 -0.00035514485801338815 -9.3346415893508e-05 0.0 0.0
0.0 0.003278094850282555 0.003006976668539385 -0.002504136468300373 -0.000502840200239012 -0.0001474186243685181 0.0 0.0
0.0 0.004887124697555534 0.004454524430466066 -0.0038048240505897174 -0.0006497003798763482 -0.0002026875328915936 0.0 0.0
0.0 0.0070769414465328365 0.006378655424638963 -0.005582514915822674 -0.0007961405088162888 -0.0002522416412417566 0.0 0.0
0.0 0.010278329024240114 0.00905866198595081 -0.00812168141716528 -0.0009369805687855282 -0.00029959629274799773 0.0 0.0
0.0 0.014347111562451251 0.012872792290790237 -0.011809739433398605 -0.001063052857391628 -0.0004375594294153857 0.0 0.0
0.0 0.020372603866197683 0.018121784950067304 -0.016953887863067958 -0.0011678970869993537 -0.0006965340260833447 0.0 0.0
0.0 0.028249386324027004 0.024977260545482043 -0.02372899067721756 -0.0012482698682644592 -0.0010587511397452912 0.0 0.0
0.0 0.037861623071626375 0.033310897617127876 -0.03201039485121544 -0.0013005027659124503 -0.0015154168500849073 0.0 0.0
0.0 0.048623858601975614 0.04259151833355346 -0.041267441639681365 -0.0013240766938721 -0.0019723334614358016 0.0 0.0
0.0 0.059477736668214154 0.05190842524183451 -0.0505828260668222 -0.0013255991750122963 -0.002227974277557305 0.0 0.0
0.0 0.0690355429043212 0.06011226389952268 -0.05879884115067673 -0.0013134227488459768 -0.0020511031722246368 0.0 0.0
0.0 0.07586552750960654 0.0659400502762095 -0.06466169062812667 -0.0012783596480828293 -0.0014491484296566366 0.0 0.0
0.0 0.07851830317376106 0.06812806862295377 -0.06690130148155976 -0.0012267671413939399 2.5949294796268063e-15 0.0 0.0
0.0 0.07586552750960333 0.06594005027620659 -0.0646616906281239 -0.0012783596480826834 0.0014491484296642323 0.0 0.0
0.0 0.0690355429043144 0.060112263899516696 -0.058798841150671126 -0.0013134227488455887 0.0020511031722321932 0.0 0.0
0.0 0.05947773666820424 0.05190842524182583 -0.05058282606681368 -0.0013255991750121356 0.0022279742775615083 0.0 0.0
0.0 0.04862385860196727 0.042591518333545866 -0.04126744163967474 -0.001324076693871119 0.001972333461436929 0.0 0.0
0.0 0.03786162307161676 0.03331089761711916 -0.0320103948512074 -0.001300502765911748 0.0015154168500845053 0.0 0.0
0.0 0.02824938632401683 0.024977260545472873 -0.023728990677209204 -0.0012482698682636764 0.0010587511397453617 0.0 0.0
0.0 0.020372603866186497 0.018121784950057236 -0.01695388786305879 -0.0011678970869984347 0.0006965340260831883 0.0 0.0
0.0 0.01434711156243846 0.012872792290778834 -0.011809739433387959 -0.0010630528573908758 0.00043755942941492724 0.0 0.0
0.0 0.010278329024229654 0.009058661985941019 -0.008121681417156386 -0.0009369805687846304 0.0002995962927474298 0.0 0.0
0.0 0.007076941446522197 0.006378655424629325 -0.0055825149158139934 -0.0007961405088153301 0.0002522416412407798 0.0 0.0
0.0 0.004887124697547584 0.004454524430458272 -0.003804824050582756 -0.000649700379875516 0.00020268753289078101 0.0 0.0
0.0 0.0032780948502762397 0.003006976668532809 -0.0025041364682947204 -0.0005028402002380882 0.0001474186243680802 0.0 0.0
0.0 0.002021976589126389 0.0018734535127320393 -0.0015183086547195118 -0.00035514485801252724 9.334641589303351e-05 0.0 0.0
0.0 0.0010503212862895673 0.000985013371717038 -0.0007765248091579728 -0.0002084885625590652 4.000073638052964e-05 0.0 0.0
0.0 0.0004604528459547451 0.0002782453733915876 -0.0002095857884416109 -6.865958494997697e-05 -3.5425957600522085e-05 0.0 0.0
0.0 8.315332147209548e-05 -1.375550427940524e-05 1.0838611832619335e-05 2.91689244678604e-06 -4.780791973942509e-06 0.0 0.0
0.0 7.467978065023354e-06 -7.961622930962181e-07 5.360292495970548e-07 2.601330434990899e-07 -1.5944365400420054e-07 0.0 0.0
0.0 1.599903115244434e-05 -1.131810737630371e-06 1.4388794877072388e-06 -3.070687500771016e-07 -3.1385809665400408e-06 0.0 0.0
0.0 0.0007718292492814885 0.0005412504340121025 -0.0001343720598671526 -0.00040687837414494945 0.0017844408372979198 0.0 0.0
0.0 0.006358173116389957 0.004420243682900141 -0.006107876396921144 0.0016876327140210013 3.98945088611912e-05 0.0 0.0
0.0 0.004395872725996201 0.0029837044072426842 -0.004252443924612773 0.0012687395173700895 -0.0011842209396728965 0.0 0.0
0.0 0.0004531587607161857 0.00025940589485414064 -8.212384992215362e-06 -0.0002511935098619252 -0.0011154173721004918 0.0 0.0
0.0 0.0 0.0 0.0 0.0 0.0 0.0 0.0
0.0 1.6196987412902269e-07 5.07516836358892e-08 -4.040391135278601e-08 -1.0347772283147763e-08 -2.370325994826249e-07 0.0 0.0
0.0 2.8261750621252078e-05 -5.603662586492098e-06 4.288288797375596e-06 1.3153737891172734e-06 6.863146868609075e-07 0.0 0.0
0.0 0.000271742472642846 8.144646209715915e-05 -5.9206978971827433e-05 -2.2239483125332842e-05 2.943607063499188e-05 0.0 0.0
0.0 0.0006619580796105574 0.0006734557339130322 -0.0005232452989478975 -0.00015021043496513407 -0.00010395653782470631 0.0 0.0
0.0 0.0015458765892205173 0.001431293980143725 -0.001146433167243984 -0.00028486081289974123 -0.00022942985170441068 0.0 0.0
0.0 0.002601494261832514 0.002416955585384734 -0.0019866904231852825 -0.0004302651621994512 -0.00035390408723753435 0.0 0.0
0.0 0.004031385207895754 0.0036691232906387976 -0.003094465142810219 -0.0005746581478285776 -0.00048316108103175055 0.0 0.0
0.0 0.005938173921677548 0.005333054015881649 -0.0046131334853472036 -0.0007199205305344442 -0.000622919933167529 0.0 0.0
0.0 0.008501565698756673 0.007654585055719793 -0.006792194513501813 -0.0008623905422179791 -0.0007918992799503397 0.0 0.0
0.0 0.012452766551764591 0.010953596139352699 -0.009963667922947884 -0.0009899282164048083 -0.0010595390585822796 0.0 0.0
0.0 0.017499428517195856 0.015584922545055009 -0.014490649047637869 -0.001094273497417131 -0.0015364072985801838 0.0 0.0
0.0 0.024553683401794948 0.0217024606356416 -0.020531364345927054 -0.0011710962897145472 -0.0022290963889282124 0.0 0.0
0.0 0.03319876200405132 0.029191676912876326 -0.027971866525150962 -0.0012198103877253447 -0.003068988134709737 0.0 0.0
0.0 0.04290893733398583 0.037581969499807515 -0.03633828852723648 -0.0012436809725710366 -0.003875129453283928 0.0 0.0
0.0 0.05274269911190499 0.04606949685827204 -0.044820759792948445 -0.001248737065323523 -0.00429667219325642 0.0 0.0
0.0 0.0615051998694142 0.05360587849964478 -0.05237104679244858 -0.0012348317071962048 -0.003964180188820236 0.0 0.0
0.0 0.06780502931648 0.05899957075762574 -0.05779433128014662 -0.0012052394774790932 -0.0027880739207671182 0.0 0.0
0.0 0.07030090121433087 0.0610666555774059 -0.05993002333726216 -0.0011366322401437747 5.3119401238754804e-15 0.0 0.0
0.0 0.06780502931647678 0.05899957075762262 -0.05779433128014339 -0.0012052394774791579 0.002788073920779591 0.0 0.0
0.0 0.06150519986940923 0.053605878499640214 -0.052371046792444385 -0.0012348317071958104 0.003964180188832242 0.0 0.0
0.0 0.052742699111897766 0.04606949685826551 -0.04482075979294232 -0.0012487370653231815 0.004296672193264076 0.0 0.0
0.0 0.042908937333981 0.037581969499802886 -0.03633828852723302 -0.0012436809725698576 0.003875129453287101 0.0 0.0
0.0 0.03319876200404288 0.02919167691286873 -0.027971866525143992 -0.0012198103877247395 0.0030689881347090503 0.0 0.0
0.0 0.024553683401786 0.02170246063563344 -0.020531364345919782 -0.0011710962897136705 0.002229096388928164 0.0 0.0
0.0 0.01749942851718638 0.015584922545046447 -0.014490649047630082 -0.0010942734974163655 0.0015364072985803578 0.0 0.0
0.0 0.012452766551753458 0.010953596139342563 -0.009963667922938369 -0.0009899282164041884 0.0010595390585813168 0.0 0.0
0.0 0.008501565698747321 0.007654585055711297 -0.006792194513494186 -0.0008623905422171098 0.0007918992799491463 0.0 0.0
0.0 0.005938173921668717 0.0053330540158728745 -0.004613133485339246 -0.0007199205305336268 0.0006229199331657941 0.0 0.0
0.0 0.004031385207888558 0.003669123290631549 -0.0030944651428038185 -0.0005746581478277295 0.000483161081030355 0.0 0.0
0.0 0.002601494261826115 0.002416955585378412 -0.001986690423179785 -0.00043026516219862724 0.0003539040872365163 0.0 0.0
0.0 0.0015458765892164886 0.0014312939801392399 -0.0011464331672403076 -0.0002848608128989318 0.0002294298517034756 0.0 0.0
0.0 0.0006619580796071227 0.000673455733909546 -0.0005232452989450597 -0.000150210434964486 0.00010395653782397336 0.0 0.0
0.0 0.000271742472640997 8.144646209616723e-05 -5.9206978971097704e-05 -2.2239483125069334e-05 -2.943607063491757e-05 0.0 0.0
0.0 2.826175062047516e-05 -5.6036625862297414e-06 4.28828879717375e-06 1.3153737890561062e-06 -6.863146867854419e-07 0.0 0.0
0.0 1.6196987402351605e-07 5.0751683652012e-08 -4.040391136506354e-08 -1.0347772286923351e-08 2.370325994783513e-07 0.0 0.0
0.0 0.0 0.0 0.0 0.0 0.0 0.0 0.0
0.0 0.00045315876071370443 0.0002594058948525834 -8.212384991308861e-06 -0.0002511935098612742 0.0011154173720957746 0.0 0.0
0.0 0.0043958727259867745 0.0029837044072360615 -0.004252443924603152 0.00126873951736709 0.0011842209396668707 0.0 0.0
0.0 0.0031022517202140515 0.002034004217370584 -0.002950705507299222 0.0009167012899286371 -0.0013157664360590638 0.0 0.0
0.0 0.00021044078529743003 0.00011445336123536596 3.546272958276081e-05 -0.00014991609081812667 -0.0006529076397815974 0.0 0.0
0.0 0.0 0.0 0.0 0.0 0.0 0.0 0.0
0.0 2.7969504051437723e-08 -3.993514254552682e-09 2.784312103542317e-09 1.2092021510114187e-09 2.0414809259877924e-09 0.0 0.0
0.0 2.0582009981205472e-05 -3.104236045174635e-06 2.3275560123677335e-06 7.766800328068346e-07 6.390361482379574e-07 0.0 0.0
0.0 6.790524805686763e-05 -1.3550542213178652e-06 2.006086549549069e-06 -6.510323282305941e-07 1.3541343647564738e-05 0.0 0.0
0.0 0.0004891659575154703 0.0003310300020072475 -0.0002519555176798329 -7.907448432741515e-05 -5.3634275243613764e-05 0.0 0.0
0.0 0.0010946144476516862 0.001008183596991653 -0.0007978293568106767 -0.00021035424018097596 -0.0002884218883848108 0.0 0.0
0.0 0.0020043337917296324 0.001845798287325001 -0.0014969469291099909 -0.00034885135821501024 -0.00047792272035458987 0.0 0.0
0.0 0.0032065596140878685 0.0029110184610392827 -0.002420143005602184 -0.000490875455437098 -0.0006684542213973878 0.0 0.0
0.0 0.004763441345226917 0.00432665703153352 -0.00369152897095861 -0.0006351280605749125 -0.000879708928248415 0.0 0.0
0.0 0.007052862861449038 0.006289905173692947 -0.005512453938354771 -0.000777451235338176 -0.001138083996127221 0.0 0.0
0.0 0.010134477500699844 0.009110819023348402 -0.008201012679101786 -0.0009098063442466085 -0.001521456080330543 0.0 0.0
0.0 0.014946175606544657 0.013092362204527665 -0.012077895690117723 -0.0010144665144099455 -0.0021381541970824968 0.0 0.0
0.0 0.021016716470373335 0.01844209386262638 -0.017352704965586302 -0.0010893888970400657 -0.0030496017275518884 0.0 0.0
0.0 0.028483871411401462 0.025060265687764528 -0.02392291537761657 -0.0011373503101479914 -0.004179297062395411 0.0 0.0
0.0 0.03721471901635684 0.03253285991141288 -0.031370823862279004 -0.0011620360491338855 -0.005254030477132723 0.0 0.0
0.0 0.04608051794462073 0.040176598182950475 -0.039007366706118686 -0.0011692314768318056 -0.005825799601776635 0.0 0.0
0.0 0.054048737785185354 0.04706188170196039 -0.045903721469730374 -0.0011581602322299886 -0.0054457526762088405 0.0 0.0
0.0 0.05985547065200601 0.052096000295362786 -0.05096583228501276 -0.0011301680103500322 -0.003810752267198022 0.0 0.0
0.0 0.06228442589980258 0.05410110883773213 -0.05306867985723159 -0.0010324289805005238 7.837914345332209e-15 0.0 0.0
0.0 0.05985547065200289 0.05209600029535959 -0.05096583228500947 -0.0011301680103501385 0.003810752267214346 0.0 0.0
0.0 0.054048737785181634 0.04706188170195671 -0.04590372146972714 -0.0011581602322295295 0.00544575267622428 0.0 0.0
0.0 0.04608051794461378 0.040176598182944175 -0.039007366706112545 -0.0011692314768316332 0.00582579960178599 0.0 0.0
0.0 0.0372147190163515 0.03253285991140789 -0.03137082386227492 -0.0011620360491329705 0.005254030477136001 0.0 0.0
0.0 0.028483871411394107 0.025060265687757897 -0.02392291537761045 -0.0011373503101474362 0.004179297062395099 0.0 0.0
0.0 0.021016716470365387 0.018442093862619174 -0.017352704965579786 -0.001089388897039379 0.003049601727551565 0.0 0.0
0.0 0.014946175606536998 0.013092362204520584 -0.0120778956901112 -0.0010144665144093696 0.0021381541970821472 0.0 0.0
0.0 0.010134477500689347 0.009110819023339142 -0.00820101267909307 -0.0009098063442460715 0.0015214560803291112 0.0 0.0
0.0 0.007052862861441392 0.00628990517368528 -0.005512453938347825 -0.000777451235337453 0.0011380839961254367 0.0 0.0
0.0 0.00476344134521855 0.004326657031525497 -0.0036915289709513717 -0.000635128060574125 0.0008797089282460793 0.0 0.0
0.0 0.0032065596140815823 0.0029110184610331435 -0.002420143005596867 -0.000490875455436277 0.0006684542213954646 0.0 0.0
0.0 0.0020043337917243853 0.0018457982873194135 -0.0014969469291051577 -0.00034885135821425634 0.000477922720353116 0.0 0.0
0.0 0.0010946144476479537 0.0010081835969879614 -0.0007978293568077411 -0.00021035424018021984 0.00028842188838359474 0.0 0.0
0.0 0.0004891659575122892 0.0003310300020047935 -0.00025195551767790754 -7.90744843268856e-05 5.363427524288745e-05 0.0 0.0
0.0 6.790524805552917e-05 -1.3550542215632164e-06 2.006086549718675e-06 -6.510323281557253e-07 -1.3541343647436956e-05 0.0 0.0
0.0 2.0582009980724127e-05 -3.104236045112055e-06 2.3275560123219874e-06 7.766800327901583e-07 -6.390361482181891e-07 0.0 0.0
0.0 2.7969504081147853e-08 -3.993514257424873e-09 2.7843121058454295e-09 1.209202151577698e-09 -2.0414809282561615e-09 0.0 0.0
0.0 0.0 0.0 0.0 0.0 0.0 0.0 0.0
0.0 0.00021044078529526114 0.00011445336123413193 3.546272958352917e-05 -0.000149916090817661 0.000652907639777699 0.0 0.0
0.0 0.003102251720206841 0.0020340042173650394 -0.0029507055072911176 0.0009167012899260771 0.0013157664360542276 0.0 0.0
0.0 0.0020309570305367497 0.0013583068598352717 -0.0019822870175917866 0.0006239801577565149 -0.0011507454800756271 0.0 0.0
0.0 0.00022630491849479203 3.73750316255901e-06 8.371428313746815e-05 -8.745178630002697e-05 -0.0002569396927740423 0.0 0.0
0.0 0.0 0.0 0.0 0.0 0.0 0.0 0.0
0.0 0.0 0.0 0.0 0.0 0.0 0.0 0.0
0.0 -7.737691250357112e-06 1.0098669560937012e-06 -7.952051250701086e-07 -2.1466183102365516e-07 -1.4888070859109598e-06 0.0 0.0
0.0 5.546290765335246e-05 -1.6577768516945717e-05 1.279750544965659e-05 3.7802630672893304e-06 1.4342156757774829e-05 0.0 0.0
0.0 0.00030164717364635857 6.784275471524597e-05 -4.988288363625698e-05 -1.7959871078989225e-05 6.194736647798193e-06 0.0 0.0
0.0 0.0006843380907572661 0.0006082503850357548 -0.0004734192455062823 -0.0001348311395294722 -0.00023638594688244136 0.0 0.0
0.0 0.0014438852112935489 0.0013034368322106889 -0.001043000638833444 -0.00026043619337724354 -0.0005143784815880128 0.0 0.0
0.0 0.002404264346104316 0.0021874929866067213 -0.001790332671582755 -0.00039716031502396685 -0.0007573910920912825 0.0 0.0
0.0 0.00371425911033898 0.0033567067786982475 -0.0028186440870832034 -0.0005380626916150425 -0.0010212156134518139 0.0 0.0
0.0 0.005579749205680568 0.004980451974187985 -0.004299166253297807 -0.0006812857208901745 -0.0013412557521284717 0.0 0.0
0.0 0.008361310475494719 0.007316493249408249 -0.006500416408773853 -0.0008160768406344015 -0.0017975295835874901 0.0 0.0
0.0 0.012026179747827095 0.010676622454779364 -0.009748889702429412 -0.0009277327523499503 -0.002508283499412102 0.0 0.0
0.0 0.017411623579104654 0.015230904868377778 -0.014227489327923113 -0.0010034155404546662 -0.0035497917925354353 0.0 0.0
0.0 0.024125593346392003 0.02093312522549012 -0.019883439510272286 -0.0010496857152178145 -0.004836882877238361 0.0 0.0
0.0 0.03155093502120455 0.027460886439586617 -0.026383988450045297 -0.001076897989541309 -0.006077413840483181 0.0 0.0
0.0 0.03938589664321272 0.03423553035986107 -0.03314699130989824 -0.001088539049962825 -0.006802292333615801 0.0 0.0
0.0 0.04659293279790863 0.04047053556440144 -0.03938893026158947 -0.0010816053028119771 -0.006462318753082601 0.0 0.0
0.0 0.052030039517471934 0.0451905559141859 -0.04413849943266423 -0.0010520564815216784 -0.004569911944874203 0.0 0.0
0.0 0.05445105370563096 0.047172512295788185 -0.04625466878630693 -0.0009178435094812556 8.224323999606042e-15 0.0 0.0
0.0 0.05203003951746992 0.045190555914183486 -0.04413849943266173 -0.0010520564815217491 0.00456991194489174 0.0 0.0
0.0 0.04659293279790449 0.04047053556439713 -0.039388930261585554 -0.0010816053028116052 0.006462318753098887 0.0 0.0
0.0 0.03938589664320614 0.034235530359854986 -0.033146991309892314 -0.0010885390499626735 0.006802292333625996 0.0 0.0
0.0 0.03155093502119819 0.027460886439580924 -0.026383988450040214 -0.001076897989540686 0.006077413840485824 0.0 0.0
0.0 0.024125593346385796 0.020933125225484447 -0.01988343951026706 -0.0010496857152173934 0.004836882877237984 0.0 0.0
0.0 0.01741162357909784 0.015230904868371597 -0.01422748932791745 -0.0010034155404541466 0.0035497917925346833 0.0 0.0
0.0 0.012026179747820605 0.010676622454773355 -0.009748889702424036 -0.0009277327523493195 0.0025082834994114905 0.0 0.0
0.0 0.00836131047548695 0.007316493249400739 -0.00650041640876698 -0.0008160768406337573 0.0017975295835859764 0.0 0.0
0.0 0.005579749205673655 0.004980451974181367 -0.004299166253291858 -0.0006812857208895081 0.0013412557521261163 0.0 0.0
0.0 0.003714259110332757 0.003356706778692419 -0.002818644087078245 -0.0005380626916141724 0.001021215613449203 0.0 0.0
0.0 0.002404264346098946 0.002187492986601325 -0.0017903326715781385 -0.00039716031502318606 0.0007573910920889953 0.0 0.0
0.0 0.0014438852112890392 0.0013034368322064054 -0.0010430006388298927 -0.00026043619337651224 0.0005143784815863943 0.0 0.0
0.0 0.0006843380907544794 0.0006082503850330258 -0.0004734192455041304 -0.00013483113952889554 0.00023638594688130636 0.0 0.0
0.0 0.00030164717364394774 6.784275471402616e-05 -4.988288363532441e-05 -1.7959871078701712e-05 -6.194736648281494e-06 0.0 0.0
0.0 5.546290765259586e-05 -1.657776851665065e-05 1.2797505449429749e-05 3.780263067221064e-06 -1.4342156757516167e-05 0.0 0.0
0.0 -7.737691250485663e-06 1.009866956110036e-06 -7.952051250828789e-07 -2.1466183102719435e-07 1.4888070859070433e-06 0.0 0.0
0.0 0.0 0.0 0.0 0.0 0.0 0.0 0.0
0.0 0.0 0.0 0.0 0.0 0.0 0.0 0.0
0.0 0.0002263049184921089 3.7375031616909368e-06 8.371428313803093e-05 -8.745178629972151e-05 0.0002569396927711975 0.0 0.0
0.0 0.002030957030530981 0.0013583068598308939 -0.0019822870175853226 0.0006239801577544291 0.00115074548007176 0.0 0.0
0.0 0.0013376404872894986 0.0008402799255801417 -0.001228585254298368 0.0003883053287182266 -0.0008443683230058884 0.0 0.0
0.0 8.778116885730539e-06 -3.4203604853282475e-05 8.387897348352144e-05 -4.967536863023924e-05 -6.314960871814542e-05 0.0 0.0
0.0 0.0 0.0 0.0 0.0 0.0 0.0 0.0
0.0 0.0 0.0 0.0 0.0 0.0 0.0 0.0
0.0 -1.932854331056878e-06 1.5821422625931317e-07 -1.202090518498264e-07 -3.8005174409474386e-08 -3.5231800451442257e-07 0.0 0.0
0.0 5.291829980851611e-06 -6.378646926755059e-07 4.695307600903472e-07 1.6833393258505862e-07 1.1445868715176133e-06 0.0 0.0
0.0 2.1110924229298995e-05 2.2258606361687032e-07 7.89940561444442e-07 -1.0125266250610014e-06 1.624605869115563e-05 0.0 0.0
0.0 0.000543808258734848 0.00020151506294584657 -0.0001541234999932286 -4.739156295261892e-05 -8.262012738380491e-05 0.0 0.0
0.0 0.0008160418050921492 0.0008136254617193781 -0.0006407561287447509 -0.00017286933297462682 -0.00044832519322461113 0.0 0.0
0.0 0.0016937234311099041 0.0015000771088966077 -0.0012084881635430044 -0.0002915889453536033 -0.0007414990625771199 0.0 0.0
0.0 0.002712326760958622 0.0024338066921593387 -0.002006475858052139 -0.0004273308341071997 -0.0010409829888720311 0.0 0.0
0.0 0.004168163209037984 0.003730918011893338 -0.003161884197664508 -0.0005690338142288311 -0.0014005962784222432 0.0 0.0
0.0 0.006323424234418724 0.005607275760705107 -0.004898660829870418 -0.0007086149308346871 -0.0018902411412892268 0.0 0.0
0.0 0.009563980590832145 0.008327027340129137 -0.007500722100983083 -0.0008263052391460486 -0.002630504781895811 0.0 0.0
0.0 0.013894778475779185 0.012085836737480614 -0.011177216042395258 -0.0009086206950853483 -0.0037182554209293918 0.0 0.0
0.0 0.019335506284794045 0.016862452751867568 -0.015904101845559324 -0.0009583509063082354 -0.005070016290528081 0.0 0.0
0.0 0.026073043722106504 0.022391417786726216 -0.021405759086463753 -0.0009856587002624554 -0.006370121826782284 0.0 0.0
0.0 0.032778346331441284 0.028249602736723122 -0.027246382304498953 -0.001003220432224192 -0.007187933798661027 0.0 0.0
0.0 0.03901703182609845 0.033818322368466616 -0.03281440722697288 -0.0010039151414937282 -0.006978055384940903 0.0 0.0
0.0 0.04416479394914086 0.038244363889638866 -0.03727236231291525 -0.0009720015767235716 -0.0050702161967678076 0.0 0.0
0.0 0.04663407867337683 0.04023280336397951 -0.03943953000841256 -0.0007932733555669534 7.615219219103686e-15 0.0 0.0
0.0 0.04416479394913914 0.03824436388963662 -0.03727236231291292 -0.0009720015767236662 0.005070216196784878 0.0 0.0
0.0 0.03901703182609401 0.03381832236846202 -0.032814407226968205 -0.0010039151414938143 0.006978055384956844 0.0 0.0
0.0 0.03277834633143634 0.028249602736718553 -0.027246382304494454 -0.0010032204322240853 0.007187933798670399 0.0 0.0
0.0 0.026073043722101646 0.022391417786721816 -0.021405759086459974 -0.000985658700261851 0.006370121826785038 0.0 0.0
0.0 0.01933550628478882 0.01686245275186273 -0.01590410184555495 -0.0009583509063077774 0.005070016290527228 0.0 0.0
0.0 0.013894778475774085 0.012085836737476 -0.01117721604239111 -0.0009086206950848911 0.003718255420928335 0.0 0.0
0.0 0.009563980590826207 0.008327027340123416 -0.007500722100977833 -0.0008263052391455812 0.002630504781894852 0.0 0.0
0.0 0.006323424234412794 0.005607275760699666 -0.004898660829865545 -0.000708614930834116 0.0018902411412876118 0.0 0.0
0.0 0.004168163209032153 0.00373091801188779 -0.003161884197659574 -0.0005690338142282179 0.0014005962784198818 0.0 0.0
0.0 0.002712326760953783 0.0024338066921547295 -0.002006475858048271 -0.0004273308341064575 0.0010409829888693824 0.0 0.0
0.0 0.0016937234311057258 0.0015000771088926796 -0.0012084881635398457 -0.0002915889453528336 0.0007414990625748043 0.0 0.0
0.0 0.00081604180508946 0.0008136254617161589 -0.0006407561287421564 -0.00017286933297400235 0.00044832519322280523 0.0 0.0
0.0 0.0005438082587316945 0.0002015150629439353 -0.00015412349999176955 -4.7391562952165834e-05 8.262012738274981e-05 0.0 0.0
0.0 2.111092422828826e-05 2.2258606369776938e-07 7.899405613746434e-07 -1.0125266250719114e-06 -1.6246058690895114e-05 0.0 0.0
0.0 5.291829979884731e-06 -6.378646925551398e-07 4.6953075999858397e-07 1.6833393255638597e-07 -1.1445868713758081e-06 0.0 0.0
0.0 -1.9328543309110656e-06 1.5821422624477898e-07 -1.20209051838583e-07 -3.8005174406152786e-08 3.5231800448983585e-07 0.0 0.0
0.0 0.0 0.0 0.0 0.0 0.0 0.0 0.0
0.0 0.0 0.0 0.0 0.0 0.0 0.0 0.0
0.0 8.778116883910167e-06 -3.420360485366704e-05 8.38789734837008e-05 -4.9675368630033665e-05 6.314960871666834e-05 0.0 0.0
0.0 0.0013376404872854366 0.0008402799255766706 -0.0012285852542932634 0.00038830532871659147 0.0008443683230025412 0.0 0.0
0.0 0.0006815298854700827 0.0004731810274441609 -0.0006870307959624044 0.00021384976851824308 -0.0005516333352087548 0.0 0.0
0.0 -3.1774989151665115e-05 -5.915247675362627e-05 8.72505516546666e-05 -2.8098074901040246e-05 6.360214505253153e-05 0.0 0.0
0.0 0.0 0.0 0.0 0.0 0.0 0.0 0.0
0.0 0.0 0.0 0.0 0.0 0.0 0.0 0.0
0.0 -2.246165107375649e-06 1.5972522696470997e-07 -1.2573103519818578e-07 -3.399419176652718e-08 -4.0445007000256713e-07 0.0 0.0
0.0 1.03746999129228e-06 -1.1429800159342167e-06 9.443293983941062e-07 1.986506175400661e-07 2.104467277805994e-06 0.0 0.0
0.0 3.0311339747864697e-05 -1.4204570746620094e-05 1.0742051071512794e-05 3.4625196751073625e-06 1.693088369121848e-05 0.0 0.0
0.0 8.040932285624161e-05 4.568751675761099e-05 -3.433506771145739e-05 -1.135244904615334e-05 -2.442867205864143e-05 0.0 0.0
0.0 0.0006976688377675782 0.00028703972695756695 -0.00022379420406933644 -6.324552288823046e-05 -0.0001873753783833781 0.0 0.0
0.0 0.0009280843254886425 0.0008829806799025514 -0.0006995634289264407 -0.0001834172509761103 -0.0006058767267729616 0.0 0.0
0.0 0.0018057433699468597 0.001567144647779686 -0.0012677837082445877 -0.00029936093953509765 -0.0009334595074780246 0.0 0.0
0.0 0.0029061453347535536 0.0025467646717835424 -0.0021119218197684047 -0.0004348428520151373 -0.00130674178721546 0.0 0.0
0.0 0.004526391392448131 0.0039764690692037875 -0.0033996459642890685 -0.0005768231049147155 -0.0017956307728491901 0.0 0.0
0.0 0.006968159950793687 0.006081402862413226 -0.005376403478170767 -0.0007049993842424588 -0.002513319747788265 0.0 0.0
0.0 0.010382452387942007 0.009034803732515312 -0.008235509304924346 -0.0007992944275909647 -0.003549622336266001 0.0 0.0
0.0 0.01511754465596283 0.012850403612613047 -0.011996104654086053 -0.0008542989585269977 -0.004856219167090493 0.0 0.0
0.0 0.020069427554297768 0.017371166025569727 -0.01648342383669786 -0.0008877421888718658 -0.006150805294316886 0.0 0.0
0.0 0.025958384256329462 0.022252057002144054 -0.021340279237583495 -0.0009117777645605807 -0.0070071447722162734 0.0 0.0
0.0 0.03168871855826179 0.027087780877511434 -0.02616650805610696 -0.0009212728214044813 -0.006956357412771106 0.0 0.0
0.0 0.03636436755792279 0.03121052448999024 -0.03032044083947652 -0.0008900836505137126 -0.005281896249862092 0.0 0.0
0.0 0.038953609593459046 0.033231297111136204 -0.03257315021025795 -0.0006581469008782617 6.370771965524824e-15 0.0 0.0
0.0 0.03636436755792099 0.03121052448998776 -0.030320440839474 -0.0008900836505137642 0.005281896249877391 0.0 0.0
0.0 0.031688718558258035 0.027087780877507524 -0.02616650805610294 -0.0009212728214045719 0.006956357412785491 0.0 0.0
0.0 0.025958384256326808 0.022252057002141317 -0.021340279237581108 -0.0009117777645602131 0.00700714477222464 0.0 0.0
0.0 0.020069427554292744 0.017371166025565318 -0.016483423836693878 -0.0008877421888714339 0.0061508052943184295 0.0 0.0
0.0 0.015117544655958031 0.01285040361260892 -0.011996104654082154 -0.0008542989585267636 0.004856219167089313 0.0 0.0
0.0 0.010382452387938484 0.009034803732511842 -0.008235509304921286 -0.0007992944275905505 0.0035496223362648516 0.0 0.0
0.0 0.0069681599507888355 0.006081402862408721 -0.005376403478166716 -0.0007049993842420053 0.0025133197477869825 0.0 0.0
0.0 0.00452639139244355 0.003976469069199723 -0.0033996459642853917 -0.0005768231049143329 0.0017956307728476898 0.0 0.0
0.0 0.0029061453347482185 0.002546764671778778 -0.0021119218197641772 -0.0004348428520146001 0.0013067417872127166 0.0 0.0
0.0 0.0018057433699424546 0.001567144647775832 -0.0012677837082413854 -0.00029936093953444615 0.0009334595074751326 0.0 0.0
0.0 0.0009280843254856542 0.0008829806798995814 -0.0006995634289240369 -0.00018341725097554502 0.0006058767267707077 0.0 0.0
0.0 0.0006976688377639856 0.0002870397269553601 -0.0002237942040676228 -6.324552288773696e-05 0.00018737537838167965 0.0 0.0
0.0 8.040932285452755e-05 4.568751675675186e-05 -3.43350677107823e-05 -1.1352449045969575e-05 2.442867205796486e-05 0.0 0.0
0.0 3.0311339747649862e-05 -1.4204570746262167e-05 1.0742051071234811e-05 3.4625196750276258e-06 -1.693088369064699e-05 0.0 0.0
0.0 1.0374699904470881e-06 -1.1429800158975779e-06 9.443293983658377e-07 1.9865061753177862e-07 -2.104467277727832e-06 0.0 0.0
0.0 -2.246165107184204e-06 1.5972522694812237e-07 -1.2573103518529555e-07 -3.3994191762862533e-08 4.0445006996416107e-07 0.0 0.0
0.0 0.0 0.0 0.0 0.0 0.0 0.0 0.0
0.0 0.0 0.0 0.0 0.0 0.0 0.0 0.0
0.0 -3.177498915251732e-05 -5.915247675357442e-05 8.725055165448122e-05 -2.809807490090681e-05 -6.360214505277909e-05 0.0 0.0
0.0 0.0006815298854671418 0.0004731810274417851 -0.000687030795958933 0.00021384976851714782 0.0005516333352060497 0.0 0.0
0.0 0.0005508769579287779 0.00010780841699264536 -0.00015684592746014855 4.903751046750478e-05 -0.00012171284476335354 0.0 0.0
0.0 -6.683494018425756e-05 -1.88428003826702e-05 2.58004277348226e-05 -6.957627352152617e-06 2.772277572470619e-05 0.0 0.0
0.0 0.0 0.0 0.0 0.0 0.0 0.0 0.0
0.0 0.0 0.0 0.0 0.0 0.0 0.0 0.0
0.0 -7.175871387334668e-07 2.8289395922596167e-08 -2.0953411770208744e-08 -7.335984152383846e-09 -1.4765372882220106e-07 0.0 0.0
0.0 -7.794241956764133e-07 1.2634306377945046e-07 -1.0557758065799357e-07 -2.0765483121461904e-08 -1.3289632052882292e-07 0.0 0.0
0.0 9.380975888289286e-07 -3.7190906004739817e-06 2.962559634138016e-06 7.565309663359333e-07 1.0604690492813065e-05 0.0 0.0
0.0 -1.5796620861680036e-05 -1.0420185512832255e-05 7.943558755882183e-06 2.4766267569501865e-06 3.383012228003693e-06 0.0 0.0
0.0 0.00010856131672386913 4.3464868810663315e-05 -3.4469093852875305e-05 -8.995774957788495e-06 -4.9126072172322206e-05 0.0 0.0
0.0 0.0006622024519635318 0.00028380361893973313 -0.00022416512154530262 -5.96384973944302e-05 -0.00025766610728596086 0.0 0.0
0.0 0.001010084389064853 0.0007794009725336057 -0.0006217760726901269 -0.00015762489984347906 -0.0006724914281625578 0.0 0.0
0.0 0.0017161822159497502 0.0014601765318720968 -0.0011840261116623685 -0.00027615042020972814 -0.001057541805263355 0.0 0.0
0.0 0.0028795072353619143 0.0024517863173768497 -0.0020414204112332674 -0.00041036590614358225 -0.001512223559534839 0.0 0.0
0.0 0.004608087610082576 0.00395360331987431 -0.003406731871225638 -0.0005468714486486705 -0.0021528182972671444 0.0 0.0
0.0 0.007219682896064872 0.006104847603139974 -0.00544709641076768 -0.0006577511923722912 -0.003068648108580213 0.0 0.0
0.0 0.010560853421630816 0.008958613161993128 -0.00822847431504409 -0.0007301388469490446 -0.004212539750159413 0.0 0.0
0.0 0.014832550321690058 0.01240929385701579 -0.011637208208928626 -0.000772085648087166 -0.005395990411943708 0.0 0.0
0.0 0.019305793595807634 0.016269188961167913 -0.015463984051936944 -0.0008052049092309659 -0.006248658905978573 0.0 0.0
0.0 0.023793161384177298 0.020300003445241004 -0.01946976790429373 -0.0008302355409472675 -0.0063777217500249365 0.0 0.0
0.0 0.02822566866153456 0.02405541139300808 -0.023249728879243314 -0.0008056825137647652 -0.005158581557644556 0.0 0.0
0.0 0.03102101849719932 0.026122959806577487 -0.025613267558574317 -0.0005096922480031576 5.260982621768662e-15 0.0 0.0
0.0 0.028225668661534302 0.024055411393006817 -0.023249728879241965 -0.0008056825137648477 0.005158581557657387 0.0 0.0
0.0 0.023793161384175532 0.020300003445238662 -0.019469767904291526 -0.0008302355409471254 0.006377721750037054 0.0 0.0
0.0 0.019305793595805757 0.016269188961165918 -0.015463984051935279 -0.0008052049092306519 0.006248658905985185 0.0 0.0
0.0 0.014832550321685425 0.012409293857011894 -0.011637208208925099 -0.0007720856480867862 0.0053959904119438755 0.0 0.0
0.0 0.010560853421626586 0.008958613161989547 -0.008228474315040554 -0.0007301388469489902 0.004212539750158185 0.0 0.0
0.0 0.007219682896061586 0.006104847603136922 -0.005447096410765035 -0.0006577511923718922 0.003068648108578995 0.0 0.0
0.0 0.004608087610079366 0.003953603319871568 -0.003406731871223333 -0.0005468714486482335 0.002152818297265929 0.0 0.0
0.0 0.0028795072353592866 0.002451786317374426 -0.0020414204112311728 -0.00041036590614325276 0.0015122235595335964 0.0 0.0
0.0 0.0017161822159462397 0.001460176531869036 -0.0011840261116597244 -0.00027615042020931197 0.0010575418052610958 0.0 0.0
0.0 0.0010100843890619464 0.0007794009725311633 -0.0006217760726881948 -0.00015762489984296816 0.0006724914281600429 0.0 0.0
0.0 0.0006622024519610233 0.0002838036189379451 -0.00022416512154390552 -5.963849739403989e-05 0.0002576661072844015 0.0 0.0
0.0 0.00010856131672241752 4.346486881003632e-05 -3.4469093852352815e-05 -8.995774957683463e-06 4.912607217166424e-05 0.0 0.0
0.0 -1.5796620862268595e-05 -1.0420185512829231e-05 7.943558755883652e-06 2.4766267569455384e-06 -3.3830122281058088e-06 0.0 0.0
0.0 9.38097588268327e-07 -3.7190906003769914e-06 2.962559634060916e-06 7.565309663160031e-07 -1.0604690492575634e-05 0.0 0.0
0.0 -7.794241963471986e-07 1.2634306381038347e-07 -1.0557758068213482e-07 -2.076548312826178e-08 1.328963206529414e-07 0.0 0.0
0.0 -7.175871385132497e-07 2.8289395911022666e-08 -2.0953411761217933e-08 -7.335984149795719e-09 1.4765372877936105e-07 0.0 0.0
0.0 0.0 0.0 0.0 0.0 0.0 0.0 0.0
0.0 0.0 0.0 0.0 0.0 0.0 0.0 0.0
0.0 -6.683494018430589e-05 -1.8842800382388232e-05 2.5800427734448325e-05 -6.957627352060219e-06 -2.772277572422737e-05 0.0 0.0
0.0 0.0005508769579252028 0.00010780841699123915 -0.0001568459274581315 4.90375104668934e-05 0.00012171284476156154 0.0 0.0
0.0 7.837403627245277e-05 2.5193488873132994e-06 -3.998102708763948e-06 1.4787538214507535e-06 -2.2222398771243586e-06 0.0 0.0
0.0 -9.0674790824873e-06 -4.509637124634152e-07 6.671780563847489e-07 -2.1621434392135387e-07 5.033904915265807e-07 0.0 0.0
0.0 2.6872475098897426e-06 -5.102850825596392e-09 1.2829916012259741e-08 -7.727065186663307e-09 5.790653785945233e-07 0.0 0.0
0.0 0.0 0.0 0.0 0.0 0.0 0.0 0.0
0.0 -1.4538234169779158e-07 -2.1306968507081207e-09 2.010705459048294e-09 1.1999139165886264e-10 -3.0188258963191864e-08 0.0 0.0
0.0 -8.529594063891747e-06 5.062174776831641e-07 -3.9427652052642064e-07 -1.1194095715673368e-07 -2.145828612595487e-06 0.0 0.0
0.0 1.9058404249252738e-05 -1.9307367215269317e-07 1.546231516642804e-07 3.8450520488398705e-08 2.8505122565289433e-06 0.0 0.0
0.0 3.627028917215198e-05 -1.0138230724578063e-05 7.915370695313397e-06 2.2228600292646776e-06 3.3661023621130695e-05 0.0 0.0
0.0 3.0281748006854468e-05 -3.2483236915029787e-06 2.677631544318043e-06 5.70692147184855e-07 -5.321537450015097e-06 0.0 0.0
0.0 0.0001459538091648927 -1.523356118384685e-06 -2.7827425193802655e-07 1.8016303703225329e-06 -2.140828608109822e-05 0.0 0.0
0.0 0.00026805262181608925 0.00017894834330821905 -0.00014544413005002324 -3.3504213258195645e-05 -0.0003073873945329351 0.0 0.0
0.0 0.0007312842551834175 0.0005238393533365911 -0.000424869976319884 -9.896937701670709e-05 -0.0006450800182123909 0.0 0.0
0.0 0.0014055469704884209 0.0010916811142123676 -0.0008915472772535175 -0.00020013383695884982 -0.001051567682736501 0.0 0.0
0.0 0.002473268036438498 0.002001974103352129 -0.0016751433161012565 -0.0003268307872508723 -0.0015790609638222169 0.0 0.0
0.0 0.004142605702042454 0.0033639650416651184 -0.002912140434385707 -0.0004518246072794113 -0.002296937567177317 0.0 0.0
0.0 0.006480306577773634 0.005234662183197104 -0.004686327194169442 -0.000548334989027662 -0.003209874906133297 0.0 0.0
0.0 0.009393738670836869 0.0075916419628759115 -0.0069770590153738245 -0.0006145829475020886 -0.0041903599555468615 0.0 0.0
0.0 0.012608632435225716 0.010371345119088507 -0.0097071999602214 -0.0006641451588671008 -0.00498973952862461 0.0 0.0
0.0 0.016209306439605334 0.013477565926957896 -0.012769952627514862 -0.0007076132994430299 -0.0052341818514213935 0.0 0.0
0.0 0.020211142272017108 0.016747699212067514 -0.016037352592664717 -0.000710346619402796 -0.004577569536446375 0.0 0.0
0.0 0.022924701772479406 0.018868078367186642 -0.018521005233213483 -0.00034707313397315585 4.137749171073679e-15 0.0 0.0
0.0 0.020211142272017733 0.016747699212066952 -0.01603735259266405 -0.000710346619402896 0.0045775695364555485 0.0 0.0
0.0 0.01620930643960395 0.013477565926955922 -0.012769952627513037 -0.000707613299442893 0.00523418185143055 0.0 0.0
0.0 0.012608632435224719 0.01037134511908768 -0.009707199960220849 -0.0006641451588668234 0.004989739528629517 0.0 0.0
0.0 0.009393738670833884 0.007591641962873515 -0.006977059015371738 -0.0006145829475017814 0.00419035995554644 0.0 0.0
0.0 0.0064803065777712466 0.005234662183195223 -0.004686327194167697 -0.0005483349890275243 0.003209874906131833 0.0 0.0
0.0 0.004142605702039398 0.003363965041662684 -0.002912140434383501 -0.0004518246072791822 0.0022969375671760997 0.0 0.0
0.0 0.002473268036436656 0.0020019741033503406 -0.001675143316099677 -0.00032683078725066365 0.0015790609638213395 0.0 0.0
0.0 0.0014055469704871103 0.0010916811142109267 -0.0008915472772523859 -0.00020013383695854058 0.001051567682734992 0.0 0.0
0.0 0.0007312842551814621 0.0005238393533350072 -0.0004248699763186974 -9.896937701630988e-05 0.000645080018210652 0.0 0.0
0.0 0.0002680526218145786 0.00017894834330737524 -0.00014544413004934523 -3.3504213258029884e-05 0.00030738739453132856 0.0 0.0
0.0 0.00014595380916374696 -1.523356118719086e-06 -2.782742516399315e-07 1.8016303703588488e-06 2.1408286080374097e-05 0.0 0.0
0.0 3.0281748006416373e-05 -3.248323691401899e-06 2.67763154422808e-06 5.706921471735673e-07 5.321537450210742e-06 0.0 0.0
0.0 3.6270289171849284e-05 -1.0138230724510803e-05 7.91537069526155e-06 2.2228600292492654e-06 -3.36610236209108e-05 0.0 0.0
0.0 1.9058404248785297e-05 -1.930736721321658e-07 1.5462315164853044e-07 3.8450520483706434e-08 -2.8505122564097052e-06 0.0 0.0
0.0 -8.529594064082895e-06 5.062174776805896e-07 -3.9427652052368657e-07 -1.1194095715691101e-07 2.1458286126241696e-06 0.0 0.0
0.0 -1.453823416037469e-07 -2.1306968526137976e-09 2.0107054603383367e-09 1.199913922732709e-10 3.0188258943369004e-08 0.0 0.0
0.0 0.0 0.0 0.0 0.0 0.0 0.0 0.0
0.0 2.6872475094896635e-06 -5.1028508247719e-09 1.2829916010191829e-08 -7.727065185422114e-09 -5.790653785028842e-07 0.0 0.0
0.0 -9.067479082979181e-06 -4.509637124187051e-07 6.671780563319411e-07 -2.1621434391320158e-07 -5.033904914383585e-07 0.0 0.0
0.0 7.837403627142973e-05 2.519348887311917e-06 -3.99810270875906e-06 1.4787538214468533e-06 2.222239877216535e-06 0.0 0.0
0.0 6.647547130826979e-05 -6.958562534859526e-06 1.0190362351756008e-05 -3.2317998168963403e-06 1.2185551430072075e-05 0.0 0.0
0.0 -1.0114156783579963e-05 9.879678792865874e-07 -1.431753983517094e-06 4.437861042304886e-07 -1.8552691783062143e-06 0.0 0.0
0.0 9.70285583999249e-07 2.771422620445596e-09 1.5858612896310194e-09 -4.357283910076113e-09 2.0019023808334223e-07 0.0 0.0
0.0 0.0 0.0 0.0 0.0 0.0 0.0 0.0
0.0 -7.435159669676254e-07 8.134778144500256e-09 -3.406083704380407e-09 -4.728694440120219e-09 -1.6741736156257642e-07 0.0 0.0
0.0 -1.5756893251328297e-06 5.930510971711308e-08 -5.6072796865187e-08 -3.23231285192737e-09 -4.3051118275676577e-07 0.0 0.0
0.0 1.0245710281972232e-05 -1.7358796563429243e-07 1.267852672516477e-07 4.6802698382662727e-08 2.433276411275923e-06 0.0 0.0
0.0 1.0375362291386191e-05 -1.1629658273241266e-06 1.0658817203780933e-06 9.708410694599146e-08 8.6052417993859e-06 0.0 0.0
0.0 2.016063113267639e-05 -4.2503621289332687e-07 -9.028207231935353e-08 5.15318285212717e-07 3.853192238512868e-06 0.0 0.0
0.0 2.2769945222066316e-05 2.424171611317547e-06 -1.8240146665047453e-06 -6.001569448127107e-07 -1.7245168617985766e-05 0.0 0.0
0.0 0.00017875910309818736 -7.141562927139468e-06 4.698214724596568e-06 2.4433482025429305e-06 -1.4283457807231613e-05 0.0 0.0
0.0 0.00013708817085978224 1.3623966361193589e-05 -1.3199285493290126e-05 -4.246808679037402e-07 -0.000227443236826198 0.0 0.0
0.0 0.0003482937978325757 0.00013272033491699642 -0.00011628058836859516 -1.6439746548401125e-05 -0.0004875699880996318 0.0 0.0
0.0 0.0007645470256171163 0.00038171931492995287 -0.0003377591540780447 -4.3960160851907944e-05 -0.0008919588833737366 0.0 0.0
0.0 0.0015279632398305957 0.0009334469751667669 -0.0008208224105647818 -0.00011262456460198532 -0.0014767287723736245 0.0 0.0
0.0 0.002748560545765619 0.0018467781996995398 -0.0016419144103791317 -0.00020486378932040798 -0.002180726531482378 0.0 0.0
0.0 0.004438345278436431 0.003092305217433183 -0.002788875735564609 -0.0003034294818685752 -0.0029768741790167355 0.0 0.0
0.0 0.006667912295468477 0.004738232033883969 -0.004335461395385093 -0.0004027706384988755 -0.0037496709281447074 0.0 0.0
0.0 0.00922895209955111 0.006819759621022624 -0.006337751051996775 -0.00048200856902585147 -0.004081522043890653 0.0 0.0
0.0 0.012057689336897666 0.009368467964088424 -0.00881857240737972 -0.0005498955567087025 -0.0036043236934427793 0.0 0.0
0.0 0.015402776343970822 0.011470863390522047 -0.011321846607915503 -0.0001490167826065412 2.658680567368954e-15 0.0 0.0
0.0 0.012057689336898046 0.00936846796408761 -0.008818572407378853 -0.0005498955567087584 0.0036043236934480407 0.0 0.0
0.0 0.009228952099550557 0.006819759621021717 -0.006337751051995883 -0.00048200856902583494 0.004081522043896534 0.0 0.0
0.0 0.006667912295467779 0.0047382320338834535 -0.004335461395384748 -0.0004027706384987014 0.003749670928147513 0.0 0.0
0.0 0.004438345278434139 0.0030923052174322316 -0.0027888757355637446 -0.0003034294818684858 0.002976874179014927 0.0 0.0
0.0 0.0027485605457649998 0.0018467781996989196 -0.0016419144103786492 -0.00020486378932027264 0.0021807265314812904 0.0 0.0
0.0 0.0015279632398295727 0.000933446975165999 -0.0008208224105640002 -0.00011262456460199802 0.00147672877237313 0.0 0.0
0.0 0.0007645470256162135 0.0003817193149293335 -0.0003377591540774211 -4.396016085191248e-05 0.0008919588833729649 0.0 0.0
0.0 0.0003482937978314135 0.00013272033491644328 -0.00011628058836808177 -1.643974654836165e-05 0.00048756998809797213 0.0 0.0
0.0 0.00013708817085911386 1.3623966361174793e-05 -1.3199285493271527e-05 -4.2468086790321186e-07 0.00022744323682528098 0.0 0.0
0.0 0.00017875910309699184 -7.141562927285926e-06 4.698214724719424e-06 2.4433482025663933e-06 1.4283457806223647e-05 0.0 0.0
0.0 2.2769945222180147e-05 2.424171611255218e-06 -1.824014666451543e-06 -6.001569448036868e-07 1.7245168617641237e-05 0.0 0.0
0.0 2.0160631132435722e-05 -4.2503621285041443e-07 -9.02820723542522e-08 5.153182852047139e-07 -3.85319223825883e-06 0.0 0.0
0.0 1.0375362291147696e-05 -1.1629658273144184e-06 1.065881720369898e-06 9.708410694451535e-08 -8.605241799307813e-06 0.0 0.0
0.0 1.0245710281448204e-05 -1.7358796562138627e-07 1.2678526724200202e-07 4.680269837932477e-08 -2.4332764111328903e-06 0.0 0.0
0.0 -1.5756893251926713e-06 5.930510971365751e-08 -5.607279686157613e-08 -3.232312852062267e-09 4.3051118276923393e-07 0.0 0.0
0.0 -7.435159669076723e-07 8.13477814426712e-09 -3.406083704466916e-09 -4.728694439801132e-09 1.6741736154714735e-07 0.0 0.0
0.0 0.0 0.0 0.0 0.0 0.0 0.0 0.0
0.0 9.702855836726998e-07 2.7714226198560375e-09 1.5858612888147212e-09 -4.357283908669878e-09 -2.0019023801254523e-07 0.0 0.0
0.0 -1.011415678321284e-05 9.879678792684846e-07 -1.4317539834923278e-06 4.43786104223798e-07 1.8552691782452144e-06 0.0 0.0
0.0 6.647547130699655e-05 -6.9585625347754184e-06 1.0190362351633821e-05 -3.231799816858079e-06 -1.2185551429914576e-05 0.0 0.0
0.0 -5.770224573590775e-06 4.574800597073866e-07 -6.591559002634143e-07 2.016758405559572e-07 -9.144510091093165e-07 0.0 0.0
0.0 8.944238404648796e-07 -6.118989514911867e-08 8.867082576634532e-08 -2.7480930617217163e-08 1.4802621113937348e-07 0.0 0.0
0.0 -8.056849132046889e-07 -6.630505003856552e-09 4.173998171645165e-09 2.4565068322106782e-09 -1.6815288406868848e-07 0.0 0.0
0.0 1.3953316881759382e-06 2.5069281220005497e-08 -2.2021952501931927e-08 -3.0473287180718248e-09 2.881806519995945e-07 0.0 0.0
0.0 -1.8241573116793171e-06 -9.329781590536367e-09 8.81354096991264e-09 5.16240620623143e-10 -3.9736467535102493e-07 0.0 0.0
0.0 1.3548064262676173e-06 2.027879397198529e-09 -1.7982440201379955e-09 -2.2963537705411468e-10 1.8888268353207425e-07 0.0 0.0
0.0 1.2196517218122843e-05 3.131426929266121e-08 -3.982879318435302e-08 8.514523891697174e-09 3.0102338329546878e-06 0.0 0.0
0.0 1.1056211720641032e-06 4.867556530467994e-09 -8.47222721556892e-09 3.604670685109691e-09 -2.3274800707773495e-07 0.0 0.0
0.0 3.645158133407806e-05 -3.963234806881649e-09 2.113167671796135e-09 1.8500671350418787e-09 2.402344145048626e-05 0.0 0.0
0.0 1.947064254275267e-05 6.369301952709071e-09 -6.739923426616778e-09 3.706214738997656e-10 -1.3430032703707789e-05 0.0 0.0
0.0 9.634630267813153e-05 9.903523688514874e-08 -9.033365294114286e-08 -8.701583944006087e-09 9.504738901604445e-06 0.0 0.0
0.0 0.00010265770027268048 -3.0958808998849323e-07 2.489070507152772e-07 6.068103927322027e-08 -0.0001714881865298625 0.0 0.0
0.0 0.00018940355885388032 2.428776954652353e-07 -2.2561016157671754e-07 -1.7267533888525802e-08 -0.00032823196872868533 0.0 0.0
0.0 0.0003288426835046188 -2.7976691117085543e-07 4.613194654352115e-07 -1.815525542643652e-07 -0.0005844225021839474 0.0 0.0
0.0 0.0005479958452177132 -4.969439572080313e-06 5.0331799441686905e-06 -6.374037208837543e-08 -0.0010164213989566036 0.0 0.0
0.0 0.000810663797368067 -3.280947263461385e-05 2.655034272046817e-05 6.259129914145728e-06 -0.0017728400894135316 0.0 0.0
0.0 0.001346772401554266 1.3724269248959885e-06 -2.6050020004801184e-05 2.4677593079905026e-05 -0.0027682001439876553 0.0 0.0
0.0 0.0023580082814108594 0.0003087550971178709 -0.00036701491431051855 5.825981719264752e-05 -0.0037335634514274662 0.0 0.0
0.0 0.003775423073218493 0.0009279820881788134 -0.0010266526758061056 9.867058762729222e-05 -0.00455775951949573 0.0 0.0
0.0 0.005669733608869247 0.00231644754740867 -0.0022433589256581933 -7.308862175048026e-05 -0.004664248572722424 0.0 0.0
0.0 0.009992515707273893 0.004708032767840721 -0.004845125217119003 0.000137092449278283 4.056217167702769e-15 0.0 0.0
0.0 0.005669733608870481 0.0023164475474077074 -0.002243358925657218 -7.308862175049013e-05 0.004664248572728414 0.0 0.0
0.0 0.0037754230732197844 0.0009279820881787017 -0.001026652675806185 9.86705876274833e-05 0.00455775951949891 0.0 0.0
0.0 0.00235800828141002 0.0003087550971176503 -0.0003670149143102805 5.825981719263027e-05 0.0037335634514271297 0.0 0.0
0.0 0.0013467724015537794 1.372426924924991e-06 -2.6050020004867293e-05 2.4677593079941726e-05 0.0027682001439866093 0.0 0.0
0.0 0.0008106637973673691 -3.280947263465322e-05 2.6550342720476003e-05 6.259129914177427e-06 0.0017728400894120797 0.0 0.0
0.0 0.0005479958452177405 -4.969439572193206e-06 5.03317994424244e-06 -6.374037204932891e-08 0.0010164213989564933 0.0 0.0
0.0 0.0003288426835046845 -2.797669110262633e-07 4.6131946529641486e-07 -1.8155255427013123e-07 0.0005844225021839412 0.0 0.0
0.0 0.00018940355885352147 2.4287769548586225e-07 -2.2561016158113397e-07 -1.726753390470625e-08 0.00032823196872773107 0.0 0.0
0.0 0.00010265770027200656 -3.095880899678468e-07 2.489070506924615e-07 6.068103927536284e-08 0.00017148818652829858 0.0 0.0
0.0 9.634630267726043e-05 9.903523687899165e-08 -9.033365293021783e-08 -8.701583948795e-09 -9.504738902231667e-06 0.0 0.0
0.0 1.9470642542713204e-05 6.36930195539406e-09 -6.73992342855733e-09 3.706214731874638e-10 1.3430032703667135e-05 0.0 0.0
0.0 3.645158133394289e-05 -3.963234811316502e-09 2.1131676775813434e-09 1.8500671337092047e-09 -2.402344145033088e-05 0.0 0.0
0.0 1.1056211717037572e-06 4.867556531128216e-09 -8.472227216487646e-09 3.604670685373889e-09 2.3274800717603577e-07 0.0 0.0
0.0 1.2196517217618462e-05 3.13142692912894e-08 -3.982879318352939e-08 8.514523892241475e-09 -3.010233832814609e-06 0.0 0.0
0.0 1.354806425769798e-06 2.0278793932332602e-09 -1.7982440164227105e-09 -2.296353768149288e-10 -1.8888268341893876e-07 0.0 0.0
0.0 -1.824157311369387e-06 -9.32978158637108e-09 8.813540966384354e-09 5.162406199879355e-10 3.9736467528070166e-07 0.0 0.0
0.0 1.3953316878415678e-06 2.5069281213888235e-08 -2.202195249647863e-08 -3.0473287174080074e-09 -2.881806519266303e-07 0.0 0.0
0.0 -8.056849130083668e-07 -6.630505002333999e-09 4.173998170728032e-09 2.456506831605438e-09 1.6815288402557935e-07 0.0 0.0
0.0 8.944238405144465e-07 -6.118989515364349e-08 8.86708257730765e-08 -2.748093061942507e-08 -1.4802621114036114e-07 0.0 0.0
0.0 -5.770224574193189e-06 4.5748005974096255e-07 -6.591559003143907e-07 2.01675840573369e-07 9.144510091677869e-07 0.0 0.0
0.0 0.0 0.0 0.0 0.0 0.0 0.0 0.0
0.0 0.0 0.0 0.0 0.0 0.0 0.0 0.0
0.0 -4.5569280405876125e-07 -1.171281824557888e-08 9.777275487960875e-09 1.9355427576167955e-09 -9.291503116647164e-08 0.0 0.0
0.0 1.3838277084983177e-06 4.0736203659059935e-08 -3.3099912342025085e-08 -7.636291317027877e-09 2.9032880214322996e-07 0.0 0.0
0.0 -5.072761400283795e-07 -1.9549948247451e-08 1.1533206941029713e-08 8.016741306419077e-09 -1.797768410439206e-07 0.0 0.0
0.0 -2.49720434533152e-06 -1.7633187285197221e-07 1.4444088894009927e-07 3.1890983911848076e-08 -8.31049350779347e-07 0.0 0.0
0.0 2.6018566111253775e-05 8.874637704448903e-07 -7.137435535959846e-07 -1.7372021684890654e-07 6.792471477416699e-06 0.0 0.0
0.0 1.34944242620657e-05 1.282518566420398e-06 -1.1713136412723585e-06 -1.112049251480789e-07 9.40349205191746e-06 0.0 0.0
0.0 2.0507437709949566e-05 4.491268292843067e-07 6.905102299806326e-08 -5.181778522822611e-07 4.075108126734303e-06 0.0 0.0
0.0 2.2343404736444805e-05 -2.305200545264802e-06 1.7262733039514917e-06 5.789272413132636e-07 -1.6774791424724908e-05 0.0 0.0
0.0 0.00017532156895290222 6.983140860787411e-06 -4.5945011694715315e-06 -2.388639691316092e-06 -1.5601769722618778e-05 0.0 0.0
0.0 0.00014570220778190068 -1.2848901169141015e-05 1.2577971069197148e-05 2.7093009994404135e-07 -0.00022096910280673963 0.0 0.0
0.0 0.0003492962006389107 -0.00013195902505063611 0.00011552522149943871 1.643380355119715e-05 -0.00048753440527897344 0.0 0.0
0.0 0.0007726703713412766 -0.00038319787893085393 0.00033981489210701643 4.338298682383742e-05 -0.0008884024260848383 0.0 0.0
0.0 0.0015209595221443346 -0.0009342164342472487 0.0008250558026873188 0.00010916063155993017 -0.0014691055061024955 0.0 0.0
0.0 0.0026337397777863245 -0.0017360058447796873 0.0015557884738358198 0.00018021737094386816 -0.002231879407552944 0.0 0.0
0.0 0.003854145350889637 -0.002566332255201034 0.002346155164784508 0.00022017709041652727 -0.0032266054881037957 0.0 0.0
0.0 0.005018855022561658 -0.0030926611438636233 0.002892061703518452 0.00020059944034516578 -0.004434890461364351 0.0 0.0
0.0 0.005347335950148159 -0.002944718060433367 0.0028327574653476528 0.00011196059508571462 -0.005915133793909595 0.0 0.0
0.0 0.004860583643824557 -0.0022631362639477 0.0021486569684739487 0.00011447929547375245 -0.007218917597659144 0.0 0.0
0.0 0.009311565848070903 -0.0014263922127908538 0.0005779193487806529 0.0008484728640102004 5.240382780491437e-15 0.0 0.0
0.0 0.004860583643827604 -0.002263136263948213 0.0021486569684744197 0.00011447929547379293 0.0072189175976635125 0.0 0.0
0.0 0.005347335950148548 -0.002944718060433055 0.0028327574653473956 0.00011196059508565974 0.0059151337939131726 0.0 0.0
0.0 0.005018855022560187 -0.003092661143862967 0.0028920617035178534 0.0002005994403451129 0.004434890461364542 0.0 0.0
0.0 0.0038541453508869356 -0.0025663322551992707 0.002346155164782881 0.0002201770904163909 0.003226605488102192 0.0 0.0
0.0 0.0026337397777844497 -0.0017360058447778077 0.0015557884738342527 0.00018021737094355534 0.0022318794075516625 0.0 0.0
0.0 0.0015209595221432983 -0.000934216434246278 0.0008250558026866529 0.00010916063155962452 0.00146910550610175 0.0 0.0
0.0 0.0007726703713398131 -0.0003831978789301351 0.0003398148921063829 4.3382986823752426e-05 0.0008884024260838561 0.0 0.0
0.0 0.00034929620063703457 -0.00013195902504968082 0.00011552522149860078 1.6433803551079805e-05 0.00048753440527718776 0.0 0.0
0.0 0.00014570220778100458 -1.2848901169047286e-05 1.257797106910723e-05 2.7093009993990444e-07 0.00022096910280542127 0.0 0.0
0.0 0.00017532156895136707 6.983140860880415e-06 -4.59450116952849e-06 -2.3886396913517605e-06 1.5601769721703356e-05 0.0 0.0
0.0 2.234340473640664e-05 -2.3052005452008647e-06 1.726273303890491e-06 5.789272413103608e-07 1.677479142448223e-05 0.0 0.0
0.0 2.050743770981243e-05 4.4912682926256527e-07 6.905102301680281e-08 -5.181778522793592e-07 -4.075108126629742e-06 0.0 0.0
0.0 1.3494424261637615e-05 1.2825185663973383e-06 -1.1713136412534508e-06 -1.1120492514390911e-07 -9.403492051751779e-06 0.0 0.0
0.0 2.601856611057787e-05 8.87463770420462e-07 -7.137435535770495e-07 -1.7372021684342375e-07 -6.792471477216642e-06 0.0 0.0
0.0 -2.497204345732415e-06 -1.7633187286029646e-07 1.4444088894724497e-07 3.189098391306514e-08 8.310493508575193e-07 0.0 0.0
0.0 -5.072761406308549e-07 -1.9549948261496643e-08 1.153320695322396e-08 8.016741308274078e-09 1.7977684116479252e-07 0.0 0.0
0.0 1.3838277079828714e-06 4.0736203646437205e-08 -3.309991233164821e-08 -7.63629131478945e-09 -2.9032880203378124e-07 0.0 0.0
0.0 -4.5569280386548877e-07 -1.1712818240874536e-08 9.777275484047321e-09 1.9355427568270564e-09 9.291503112572537e-08 0.0 0.0
0.0 0.0 0.0 0.0 0.0 0.0 0.0 0.0
0.0 0.0 0.0 0.0 0.0 0.0 0.0 0.0
0.0 0.0 0.0 0.0 0.0 0.0 0.0 0.0
0.0 0.0 0.0 0.0 0.0 0.0 0.0 0.0
0.0 -6.184246970149612e-07 -2.0876111810172227e-08 1.7314089408234478e-08 3.562022401937719e-09 -1.2806852567251785e-07 0.0 0.0
0.0 -9.073015981519399e-07 -5.685714133296699e-08 4.755545022776246e-08 9.30169110519889e-09 -2.3445117858209914e-07 0.0 0.0
0.0 6.939413693331901e-06 2.566932478706198e-07 -2.177301530713073e-07 -3.8963094799286765e-08 1.5048904087892627e-06 0.0 0.0
0.0 1.690702464335916e-05 8.302974969186489e-07 -6.768157143116402e-07 -1.5348178260704522e-07 3.94016593183917e-06 0.0 0.0
0.0 -8.885770280613516e-06 -1.4338446975072406e-06 1.1024672223230939e-06 3.313774751842225e-07 -4.544720874095338e-06 0.0 0.0
0.0 4.154371643817292e-05 1.041987128571085e-05 -8.16928471375506e-06 -2.250586571955808e-06 3.467648750541445e-05 0.0 0.0
0.0 3.0220221938302624e-05 3.2470194479311017e-06 -2.668669687062132e-06 -5.783497608689315e-07 -5.044564348813512e-06 0.0 0.0
0.0 0.00014361352960079243 1.8883406638476149e-06 -2.2555481132521035e-08 -1.8657851827148287e-06 -2.036046966925631e-05 0.0 0.0
0.0 0.00026638292482341014 -0.00017826644443296136 0.00014484548402929508 3.342096040366637e-05 -0.00030645726601754084 0.0 0.0
0.0 0.0007301300205939029 -0.0005225713466878452 0.0004237644022253858 9.880694446245893e-05 -0.000644856116934322 0.0 0.0
0.0 0.0014059343816568033 -0.001090836154227325 0.0008907026010225043 0.00020013355320482075 -0.0010504800018428825 0.0 0.0
0.0 0.002478545167578529 -0.00200634121008289 0.0016795573950967074 0.00032678381498618106 -0.0015664715445613 0.0 0.0
0.0 0.004146561651143816 -0.0033706055086974405 0.002921268405870472 0.0004493371028269675 -0.002277005793688025 0.0 0.0
0.0 0.006396983443066281 -0.005164994633124219 0.004627693828323186 0.0005373008048010315 -0.0032850140567499304 0.0 0.0
0.0 0.008910185915964111 -0.007155975353564312 0.006570219191558608 0.0005857561620057062 -0.004670345955193347 0.0 0.0
0.0 0.011023383536509343 -0.008928680751304516 0.008326737299663498 0.0006019434516410221 -0.006437054852586089 0.0 0.0
0.0 0.012450154254117388 -0.009773394017446434 0.009199044710064403 0.0005743493073820253 -0.008292532786658974 0.0 0.0
0.0 0.011810849505211385 -0.008533161715968775 0.008000439110324756 0.0005327226056440192 -0.008916928387577037 0.0 0.0
0.0 0.011872360004471871 -0.00679894351460948 0.005314736889372111 0.001484206625237365 3.9148372044106594e-15 0.0 0.0
0.0 0.011810849505214766 -0.00853316171597012 0.00800043911032606 0.0005327226056440535 0.008916928387584006 0.0 0.0
0.0 0.01245015425411762 -0.009773394017445829 0.009199044710063692 0.0005743493073821409 0.008292532786664928 0.0 0.0
0.0 0.011023383536507765 -0.008928680751303035 0.008326737299662398 0.0006019434516406318 0.006437054852588679 0.0 0.0
0.0 0.008910185915959894 -0.007155975353560946 0.006570219191555324 0.000585756162005622 0.004670345955191748 0.0 0.0
0.0 0.006396983443062881 -0.00516499463312117 0.004627693828320461 0.0005373008048007074 0.0032850140567488154 0.0 0.0
0.0 0.004146561651140976 -0.0033706055086952114 0.0029212684058685717 0.0004493371028266402 0.0022770057936864155 0.0 0.0
0.0 0.0024785451675759782 -0.0020063412100804795 0.001679557395094588 0.00032678381498589125 0.0015664715445598727 0.0 0.0
0.0 0.0014059343816536594 -0.0010908361542244455 0.0008907026010199733 0.00020013355320447216 0.0010504800018407557 0.0 0.0
0.0 0.0007301300205905623 -0.0005225713466850109 0.00042376440222308343 9.880694446192738e-05 0.000644856116931391 0.0 0.0
0.0 0.00026638292482099475 -0.00017826644443130562 0.0001448454840278952 3.342096040341028e-05 0.0003064572660152204 0.0 0.0
0.0 0.00014361352959880774 1.8883406640293847e-06 -2.2555481284339832e-08 -1.8657851827450288e-06 2.0360469668859937e-05 0.0 0.0
0.0 3.0220221937883695e-05 3.247019447860004e-06 -2.668669687012238e-06 -5.783497608476146e-07 5.0445643487138936e-06 0.0 0.0
0.0 4.154371643787223e-05 1.041987128564717e-05 -8.169284713705622e-06 -2.2505865719414794e-06 -3.467648750518649e-05 0.0 0.0
0.0 -8.885770281105253e-06 -1.4338446975359444e-06 1.102467222346212e-06 3.3137747518968757e-07 4.54472087421618e-06 0.0 0.0
0.0 1.6907024642783286e-05 8.302974968858689e-07 -6.768157142847567e-07 -1.534817826011506e-07 -3.940165931679167e-06 0.0 0.0
0.0 6.939413692862606e-06 2.566932478499369e-07 -2.1773015305387495e-07 -3.896309479599238e-08 -1.5048904086759496e-06 0.0 0.0
0.0 -9.073015986455803e-07 -5.685714134533184e-08 4.7555450237640396e-08 9.301691107664112e-09 2.3445117867591146e-07 0.0 0.0
0.0 -6.184246968346537e-07 -2.0876111804557736e-08 1.7314089403673093e-08 3.562022400887866e-09 1.2806852563539354e-07 0.0 0.0
0.0 0.0 0.0 0.0 0.0 0.0 0.0 0.0
0.0 0.0 0.0 0.0 0.0 0.0 0.0 0.0
0.0 0.0 0.0 0.0 0.0 0.0 0.0 0.0
0.0 0.0 0.0 0.0 0.0 0.0 0.0 0.0
0.0 -2.2098314800529048e-07 -8.38664001924742e-09 6.502053874168221e-09 1.884586145079983e-09 -4.238064830287919e-08 0.0 0.0
0.0 2.0226143929595992e-07 5.242485719426157e-09 -3.779454189556672e-09 -1.4630315298730378e-09 4.157666035962229e-08 0.0 0.0
0.0 2.3140902412834673e-06 1.1552332739743595e-07 -9.046105197643214e-08 -2.5062275420996453e-08 4.835579472159823e-07 0.0 0.0
0.0 -1.5054080645303334e-05 -1.6930926903620101e-06 1.3268290906408001e-06 3.662635997211869e-07 -4.272625518497618e-06 0.0 0.0
0.0 4.20030345753526e-05 8.647255573052695e-06 -6.850368578521178e-06 -1.7968869945314928e-06 2.267770071697032e-05 0.0 0.0
0.0 -1.0327831422958409e-05 1.0959964940223626e-05 -8.327449282642204e-06 -2.6325156575813515e-06 4.8702497073743136e-06 0.0 0.0
0.0 0.00010777460512389591 -4.310603890095422e-05 3.4197299911353617e-05 8.908738989600504e-06 -4.875229985021613e-05 0.0 0.0
0.0 0.0006603758054248006 -0.000282217431444465 0.00022284906615433595 5.9368365290128974e-05 -0.00025538846753094083 0.0 0.0
0.0 0.0010047770898301111 -0.0007789826744801958 0.0006213530770432888 0.00015762959743690732 -0.0006724251915795721 0.0 0.0
0.0 0.001715335057202765 -0.001458890382175044 0.0011829212752553979 0.0002759691069196453 -0.001058012118528851 0.0 0.0
0.0 0.0028769133116362438 -0.0024487215506654855 0.0020388346580349753 0.00040988689263050937 -0.0015106707699059556 0.0 0.0
0.0 0.004604647180500005 -0.003951398891605233 0.003404925104515585 0.0005464737870896474 -0.0021312359560059202 0.0 0.0
0.0 0.007215676467811129 -0.006109944163171757 0.0054530155605625585 0.0006569286026091989 -0.0030136071828433136 0.0 0.0
0.0 0.010507573106421938 -0.008924901458827001 0.008201101027137414 0.0007238004316895803 -0.004253728600335827 0.0 0.0
0.0 0.014519120789777651 -0.012110314354616916 0.011357406860521474 0.0007529074940954358 -0.0060626515089038735 0.0 0.0
0.0 0.018159031231902878 -0.015091309329723652 0.01434269698810376 0.0007486123416198852 -0.008543635382824592 0.0 0.0
0.0 0.02047181805666533 -0.016799184981758825 0.016093594561411774 0.0007055904203470435 -0.011122661793697374 0.0 0.0
0.0 0.01933367116576854 -0.015508171568966968 0.014874736319358626 0.0006334352496083407 -0.012064708234032875 0.0 0.0
0.0 0.017397837639704143 -0.01247724451706392 0.010401032380709063 0.0020762121363548445 4.084406424187392e-15 0.0 0.0
0.0 0.01933367116577174 -0.015508171568967687 0.014874736319359396 0.0006334352496082957 0.01206470823404332 0.0 0.0
0.0 0.020471818056666084 -0.01679918498175793 0.016093594561411274 0.0007055904203466664 0.0111226617937069 0.0 0.0
0.0 0.018159031231899107 -0.015091309329720134 0.014342696988100423 0.0007486123416197048 0.008543635382828514 0.0 0.0
0.0 0.014519120789772603 -0.01211031435461255 0.011357406860517541 0.0007529074940950032 0.006062651508903388 0.0 0.0
0.0 0.010507573106417664 -0.008924901458823126 0.00820110102713377 0.0007238004316893573 0.0042537286003344246 0.0 0.0
0.0 0.007215676467807606 -0.00610994416316841 0.00545301556055972 0.0006569286026086892 0.003013607182842021 0.0 0.0
0.0 0.004604647180495771 -0.0039513988916016545 0.0034049251045123615 0.0005464737870892949 0.0021312359560041643 0.0 0.0
0.0 0.0028769133116314867 -0.002448721550661236 0.002038834658031156 0.0004098868926300797 0.0015106707699038147 0.0 0.0
0.0 0.0017153350571976831 -0.001458890382170396 0.0011829212752515422 0.000275969106918854 0.0010580121185252906 0.0 0.0
0.0 0.0010047770898255401 -0.0007789826744763247 0.0006213530770401034 0.00015762959743622086 0.0006724251915761871 0.0 0.0
0.0 0.0006603758054214702 -0.00028221743144222583 0.00022284906615257984 5.936836528964625e-05 0.00025538846752917635 0.0 0.0
0.0 0.00010777460512197587 -4.310603889999778e-05 3.419729991061209e-05 8.908738989385669e-06 4.875229984912386e-05 0.0 0.0
0.0 -1.032783142360711e-05 1.095996493989142e-05 -8.327449282386165e-06 -2.6325156575054323e-06 -4.870249706821168e-06 0.0 0.0
0.0 4.200303457446413e-05 8.64725557299974e-06 -6.85036857848002e-06 -1.7968869945196252e-06 -2.2677700716863446e-05 0.0 0.0
0.0 -1.5054080645657943e-05 -1.6930926903792818e-06 1.3268290906554938e-06 3.6626359972378307e-07 4.272625518579371e-06 0.0 0.0
0.0 2.3140902408674115e-06 1.15523327377649e-07 -9.046105196029126e-08 -2.5062275417359505e-08 -4.835579471334804e-07 0.0 0.0
0.0 2.0226143915763118e-07 5.242485716237932e-09 -3.77945418719882e-09 -1.463031529031556e-09 -4.157666033030567e-08 0.0 0.0
0.0 -2.2098314792527552e-07 -8.386640016207881e-09 6.502053871768999e-09 1.8845861444370603e-09 4.238064828660179e-08 0.0 0.0
0.0 0.0 0.0 0.0 0.0 0.0 0.0 0.0
0.0 0.0 0.0 0.0 0.0 0.0 0.0 0.0
0.0 0.0 0.0 0.0 0.0 0.0 0.0 0.0
0.0 0.0 0.0 0.0 0.0 0.0 0.0 0.0
0.0 0.0 0.0 0.0 0.0 0.0 0.0 0.0
0.0 -3.216566219922162e-06 -2.1397347762671908e-07 1.7329740923679004e-07 4.067606838992204e-08 -6.433160338192215e-07 0.0 0.0
0.0 5.968070654938176e-06 3.10846068678393e-07 -2.5613558800617143e-07 -5.471048067218412e-08 1.1643100202671114e-06 0.0 0.0
0.0 3.602955090493629e-05 4.916799146610734e-06 -3.8640087886836325e-06 -1.0527903579271862e-06 9.628005284841326e-06 0.0 0.0
0.0 1.1388689732808125e-05 1.2121248948457356e-05 -9.296354795589056e-06 -2.824894152868301e-06 9.7202371520915e-06 0.0 0.0
0.0 8.76353475084528e-05 -4.694680948476828e-05 3.5435806242493193e-05 1.1511003242275186e-05 -2.6772288966970314e-05 0.0 0.0
0.0 0.0006965172767868159 -0.0002863495749374579 0.000223244768809683 6.310480612777476e-05 -0.00018652614275374864 0.0 0.0
0.0 0.0009257403948114701 -0.0008819136868216698 0.0006985466854209912 0.000183367001400679 -0.0006040252654008455 0.0 0.0
0.0 0.0018057221438527887 -0.0015665718436316917 0.0012672257047758434 0.0002993461388558474 -0.0009326467118280115 0.0 0.0
0.0 0.002905433641979068 -0.002545837665227652 0.0021112182394238095 0.00043461942580384376 -0.0013080073207906732 0.0 0.0
0.0 0.004521095295584593 -0.003970568776492678 0.0033947465521000095 0.0005758222243926668 -0.001794709324653763 0.0 0.0
0.0 0.006951041026271567 -0.006066273119334521 0.005361912566855668 0.0007043605524788522 -0.0024860052810889966 0.0 0.0
0.0 0.010358686081461455 -0.009024105523168062 0.008223148300654575 0.0008009572225134812 -0.0034587075418533756 0.0 0.0
0.0 0.01509681196798561 -0.012855876054381904 0.01200153079876135 0.0008543452556205554 -0.004828459172138931 0.0 0.0
0.0 0.019963647094418856 -0.017263661086251266 0.016391750860471996 0.0008719102257792679 -0.006880163657202315 0.0 0.0
0.0 0.025225813683368736 -0.02143264421624391 0.020585333150020715 0.0008473110662231928 -0.00981061269741839 0.0 0.0
0.0 0.02862795034957179 -0.023899204644380494 0.023124517725598363 0.0007746869187821284 -0.013051400363828236 0.0 0.0
0.0 0.02713689316846328 -0.022291071694701337 0.021637371556406996 0.0006537001382943409 -0.014630713738191872 0.0 0.0
0.0 0.023265327864465148 -0.018102221459998187 0.01551843005089976 0.0025837914090984303 5.898493499190138e-15 0.0 0.0
0.0 0.027136893168465216 -0.022291071694700848 0.021637371556406756 0.0006537001382940885 0.014630713738204728 0.0 0.0
0.0 0.028627950349571146 -0.023899204644378523 0.02312451772559656 0.0007746869187819389 0.01305140036384041 0.0 0.0
0.0 0.025225813683365177 -0.02143264421624009 0.020585333150017277 0.0008473110662227991 0.009810612697425333 0.0 0.0
0.0 0.019963647094412902 -0.017263661086245982 0.01639175086046689 0.0008719102257791033 0.006880163657203808 0.0 0.0
0.0 0.015096811967981408 -0.012855876054377909 0.01200153079875794 0.0008543452556199649 0.004828459172138141 0.0 0.0
0.0 0.010358686081456712 -0.009024105523163623 0.0082231483006506 0.0008009572225130132 0.0034587075418522325 0.0 0.0
0.0 0.006951041026266311 -0.006066273119329634 0.00536191256685118 0.0007043605524784516 0.0024860052810868672 0.0 0.0
0.0 0.004521095295578386 -0.003970568776487137 0.0033947465520949654 0.0005758222243921706 0.0017947093246516194 0.0 0.0
0.0 0.0029054336419729546 -0.002545837665221819 0.0021112182394187845 0.0004346194258030345 0.0013080073207873957 0.0 0.0
0.0 0.0018057221438469455 -0.0015665718436265181 0.0012672257047714338 0.0002993461388550837 0.0009326467118245858 0.0 0.0
0.0 0.000925740394807236 -0.0008819136868173391 0.0006985466854174616 0.00018336700139987716 0.0006040252653979426 0.0 0.0
0.0 0.000696517276782836 -0.0002863495749351795 0.00022324476880793408 6.310480612724533e-05 0.00018652614275223528 0.0 0.0
0.0 8.763534750677525e-05 -4.694680948425456e-05 3.543580624211746e-05 1.1511003242137211e-05 2.6772288966617247e-05 0.0 0.0
0.0 1.1388689732417202e-05 1.212124894798889e-05 -9.296354795227146e-06 -2.824894152761438e-06 -9.720237151359872e-06 0.0 0.0
0.0 3.6029550903546384e-05 4.916799146512965e-06 -3.864008788608125e-06 -1.0527903579047495e-06 -9.628005284699212e-06 0.0 0.0
0.0 5.9680706544040476e-06 3.1084606864117153e-07 -2.5613558797568295e-07 -5.471048066549119e-08 -1.1643100201481985e-06 0.0 0.0
0.0 -3.2165662197370074e-06 -2.139734776125392e-07 1.732974092253024e-07 4.0676068387236426e-08 6.43316033777429e-07 0.0 0.0
0.0 0.0 0.0 0.0 0.0 0.0 0.0 0.0
0.0 0.0 0.0 0.0 0.0 0.0 0.0 0.0
0.0 0.0 0.0 0.0 0.0 0.0 0.0 0.0
0.0 0.0 0.0 0.0 0.0 0.0 0.0 0.0
0.0 0.0 0.0 0.0 0.0 0.0 0.0 0.0
0.0 0.0 0.0 0.0 0.0 0.0 0.0 0.0
0.0 -1.649479723669036e-06 -1.2518018786631028e-07 9.947930651809292e-08 2.5700881348227217e-08 -2.9211865649805987e-07 0.0 0.0
0.0 -8.140711964618085e-06 -1.1097845849920453e-06 8.722105356994703e-07 2.3757404929250856e-07 -1.6436797992766112e-06 0.0 0.0
0.0 5.7414755395754035e-05 8.873021659651569e-06 -6.9225213645587845e-06 -1.9505002950927096e-06 1.2040250904899283e-05 0.0 0.0
0.0 4.133295367844177e-05 -1.6599848009693887e-07 -7.168514167288335e-07 8.828498968257284e-07 1.6742634009254835e-05 0.0 0.0
0.0 0.0005509884326984288 -0.00020453571700615057 0.00015664139067477395 4.7894326331377284e-05 -8.651818836048658e-05 0.0 0.0
0.0 0.0008162642753118084 -0.0008131458237104844 0.0006403718827360043 0.00017277394097447998 -0.00044675095040797383 0.0 0.0
0.0 0.0016925632755844604 -0.0014996926830529215 0.0012080082388926734 0.00029168444416024743 -0.000739568308803464 0.0 0.0
0.0 0.002712145520832846 -0.0024339534342026794 0.0020065073715806363 0.0004274460626220439 -0.00104041229918888 0.0 0.0
0.0 0.004167836664534119 -0.0037303999245667514 0.003161665391130327 0.0005687345334364244 -0.0014025027974284923 0.0 0.0
0.0 0.006314422378777208 -0.005598185415248789 0.0048910218870702234 0.000707163528178565 -0.0018892424225308692 0.0 0.0
0.0 0.009528502613922374 -0.008295686027988722 0.007470458453774514 0.00082522757421421 -0.002600962165447559 0.0 0.0
0.0 0.013841103122007141 -0.01204824233802806 0.01113534331015517 0.0009128990278728862 -0.003613266206350515 0.0 0.0
0.0 0.019344467208434253 -0.016893600394372342 0.015927842396557725 0.0009657579978146083 -0.004980033305113739 0.0 0.0
0.0 0.026165135831489016 -0.022473667683854455 0.021499751549983705 0.0009739161338707483 -0.006985027734108719 0.0 0.0
0.0 0.03244323326101818 -0.027813266921738397 0.0268849726214173 0.0009282943003211018 -0.010036518348921603 0.0 0.0
0.0 0.036270056260211646 -0.030980620614215915 0.03015800150703258 0.0008226191071833318 -0.01378906235687804 0.0 0.0
0.0 0.03462879593147396 -0.028973231606225534 0.028314843981339884 0.0006583876248856615 -0.016460691234042774 0.0 0.0
0.0 0.029685015460698592 -0.02368491159507892 0.020632301461440173 0.00305261013363873 6.7220534694101275e-15 0.0 0.0
0.0 0.03462879593147471 -0.028973231606224163 0.02831484398133853 0.0006583876248856105 0.01646069123405719 0.0 0.0
0.0 0.03627005626020925 -0.030980620614212372 0.030158001507029082 0.0008226191071832716 0.013789062356891705 0.0 0.0
0.0 0.032443233261016 -0.027813266921735573 0.026884972621415405 0.0009282943003201755 0.010036518348930407 0.0 0.0
0.0 0.026165135831482108 -0.022473667683848213 0.02149975154997784 0.0009739161338703821 0.006985027734110991 0.0 0.0
0.0 0.01934446720842941 -0.016893600394367877 0.015927842396554034 0.0009657579978138352 0.004980033305113705 0.0 0.0
0.0 0.013841103121999957 -0.012048242338021714 0.011135343310149187 0.0009128990278725324 0.003613266206349205 0.0 0.0
0.0 0.009528502613914984 -0.008295686027981752 0.007470458453768008 0.0008252275742137443 0.0026009621654457193 0.0 0.0
0.0 0.006314422378768862 -0.005598185415241148 0.004891021887063022 0.000707163528178125 0.0018892424225284165 0.0 0.0
0.0 0.004167836664527055 -0.0037303999245601243 0.003161665391124566 0.0005687345334355574 0.001402502797425654 0.0 0.0
0.0 0.0027121455208261843 -0.0024339534341964106 0.0020065073715751867 0.0004274460626212234 0.0010404122991856512 0.0 0.0
0.0 0.0016925632755787157 -0.0014996926830475861 0.0012080082388882143 0.0002916844441593712 0.0007395683088005879 0.0 0.0
0.0 0.0008162642753087026 -0.0008131458237068012 0.0006403718827330694 0.00017277394097373188 0.0004467509504060663 0.0 0.0
0.0 0.0005509884326946777 -0.00020453571700393527 0.0001566413906730518 4.789432633088322e-05 8.651818835908124e-05 0.0 0.0
0.0 4.133295367715238e-05 -1.6599847980126804e-07 -7.168514169521491e-07 8.828498967536579e-07 -1.6742634009265772e-05 0.0 0.0
0.0 5.7414755394822665e-05 8.87302165955529e-06 -6.922521364482224e-06 -1.9505002950729068e-06 -1.2040250904738263e-05 0.0 0.0
0.0 -8.140711965363018e-06 -1.1097845850512142e-06 8.722105357465461e-07 2.3757404930466407e-07 1.6436797993867725e-06 0.0 0.0
0.0 -1.6494797235226471e-06 -1.251801878543305e-07 9.947930650851927e-08 2.5700881345804934e-08 2.921186564701545e-07 0.0 0.0
0.0 0.0 0.0 0.0 0.0 0.0 0.0 0.0
0.0 0.0 0.0 0.0 0.0 0.0 0.0 0.0
0.0 0.0 0.0 0.0 0.0 0.0 0.0 0.0
0.0 0.0 0.0 0.0 0.0 0.0 0.0 0.0
0.0 0.0 0.0 0.0 0.0 0.0 0.0 0.0
0.0 0.0 0.0 0.0 0.0 0.0 0.0 0.0
0.0 -1.6427912561948415e-06 -1.4576765561191955e-07 1.163519409844636e-07 2.9415714627468992e-08 -2.453416837895156e-07 0.0 0.0
0.0 1.6684875012151977e-05 1.8326717783723114e-06 -1.4244112837583095e-06 -4.082604946139857e-07 2.0604738229905975e-06 0.0 0.0
0.0 -1.9453780764369232e-05 4.033773344331453e-06 -3.325320407755619e-06 -7.084529365758378e-07 3.577147452615231e-06 0.0 0.0
0.0 0.0003290893577081107 -7.110955331552765e-05 5.265789469503515e-05 1.8451658620493223e-05 1.9769267708634527e-06 0.0 0.0
0.0 0.0006873202064393155 -0.0006104647368034697 0.0004754379122870704 0.00013502682451639893 -0.0002392204223460623 0.0 0.0
0.0 0.0014456512576775543 -0.0013043057135947935 0.0010437230379121342 0.00026058267568265873 -0.0005128082096744229 0.0 0.0
0.0 0.0024048116919413534 -0.0021881630342816994 0.0017907796558566586 0.0003973833784250412 -0.0007556039370622968 0.0 0.0
0.0 0.0037150281807385764 -0.003357517205232765 0.0028193325246055616 0.0005381846806272038 -0.0010212139276552306 0.0 0.0
0.0 0.005579294658505621 -0.004979678532170164 0.00429883085412277 0.0006808476780473898 -0.0013434127204764426 0.0 0.0
0.0 0.008347619257373425 -0.007303568127881916 0.00648916588750644 0.00081440224037548 -0.001795136280454472 0.0 0.0
0.0 0.011973819810752928 -0.010630879769356942 0.00970455871707996 0.0009263210522769769 -0.00247873174033476 0.0 0.0
0.0 0.01732779525114878 -0.01516371544069467 0.014155155961436579 0.001008559479258092 -0.0034608456803664335 0.0 0.0
0.0 0.02413100027170718 -0.020957531256439378 0.01989452631536587 0.0010630049410735025 -0.004727801394159986 0.0 0.0
0.0 0.031766795363242444 -0.02766429889142488 0.026591835358115084 0.001072463533309784 -0.006435297559620438 0.0 0.0
0.0 0.03934029697570909 -0.03411796281393192 0.03311099797263111 0.0010069648413008234 -0.009172524679915842 0.0 0.0
0.0 0.04413466243661261 -0.03798846439125241 0.03712555172390265 0.0008629126673497849 -0.013224573114441012 0.0 0.0
0.0 0.042065449043947316 -0.035691107852224034 0.035042395710823904 0.0006487121414001189 -0.017639585378327573 0.0 0.0
0.0 0.03593158335830117 -0.029398331578607405 0.025900388357262896 0.0034979432213444973 6.979226224723689e-15 0.0 0.0
0.0 0.04206544904394713 -0.03569110785222194 0.03504239571082181 0.0006487121414001316 0.017639585378342402 0.0 0.0
0.0 0.0441346624366097 -0.037988464391248616 0.03712555172389906 0.0008629126673495356 0.013224573114455677 0.0 0.0
0.0 0.03934029697570358 -0.03411796281392652 0.033110997972626295 0.0010069648413002464 0.009172524679924614 0.0 0.0
0.0 0.0317667953632361 -0.027664298891419 0.02659183535810979 0.001072463533309193 0.006435297559623326 0.0 0.0
0.0 0.024131000271700596 -0.02095753125643336 0.019894526315360428 0.001063004941072923 0.004727801394160749 0.0 0.0
0.0 0.017327795251141358 -0.015163715440687939 0.014155155961430419 0.001008559479257527 0.0034608456803654737 0.0 0.0
0.0 0.01197381981074423 -0.010630879769348964 0.00970455871707272 0.0009263210522762502 0.002478731740333328 0.0 0.0
0.0 0.008347619257363824 -0.007303568127872913 0.00648916588749783 0.0008144022403750838 0.0017951362804523247 0.0 0.0
0.0 0.005579294658497358 -0.004979678532162169 0.004298830854115643 0.0006808476780465234 0.0013434127204740855 0.0 0.0
0.0 0.0037150281807309276 -0.0033575172052255596 0.002819332524599161 0.0005381846806263989 0.0010212139276523002 0.0 0.0
0.0 0.0024048116919353274 -0.002188163034275746 0.0017907796558515924 0.0003973833784241531 0.0007556039370600356 0.0 0.0
0.0 0.0014456512576712134 -0.0013043057135891753 0.0010437230379073674 0.0002605826756818083 0.000512808209672212 0.0 0.0
0.0 0.000687320206435489 -0.000610464736799692 0.000475437912284076 0.00013502682451561646 0.0002392204223444346 0.0 0.0
0.0 0.00032908935770473017 -7.110955331377434e-05 5.2657894693702826e-05 1.8451658620071757e-05 -1.9769267715987772e-06 0.0 0.0
0.0 -1.945378076530658e-05 4.0337733437185395e-06 -3.3253204072855435e-06 -7.084529364330276e-07 -3.577147452089622e-06 0.0 0.0
0.0 1.6684875011096455e-05 1.832671778256117e-06 -1.4244112836681288e-06 -4.082604945880409e-07 -2.060473822842135e-06 0.0 0.0
0.0 -1.642791256004414e-06 -1.4576765559379935e-07 1.1635194096994413e-07 2.941571462384305e-08 2.4534168375822876e-07 0.0 0.0
0.0 0.0 0.0 0.0 0.0 0.0 0.0 0.0
0.0 0.0 0.0 0.0 0.0 0.0 0.0 0.0
0.0 0.0 0.0 0.0 0.0 0.0 0.0 0.0
0.0 0.0 0.0 0.0 0.0 0.0 0.0 0.0
0.0 0.0 0.0 0.0 0.0 0.0 0.0 0.0
0.0 0.0 0.0 0.0 0.0 0.0 0.0 0.0
0.0 -5.301947324137244e-07 -5.2111206359757394e-08 4.136700228751207e-08 1.0744204072252427e-08 -5.5764332293221864e-08 0.0 0.0
0.0 2.4825010272405424e-05 3.53927789043017e-06 -2.6384771054167123e-06 -9.008007850134323e-07 1.426877284346955e-06 0.0 0.0
0.0 8.415852473656358e-05 4.0743686337621504e-06 -4.1435933771386614e-06 6.922474337650168e-08 1.6000159197918583e-05 0.0 0.0
0.0 0.0004923673637988115 -0.00033115599519948236 0.00025227487674683836 7.888111845264383e-05 -5.814543907791176e-05 0.0 0.0
0.0 0.001098934806614632 -0.0010106463602268859 0.0008001130365609609 0.00021053332366592455 -0.0002898314112906451 0.0 0.0
0.0 0.002008322654944721 -0.0018487614613701391 0.0014995016519708017 0.00034925980939933763 -0.00047674782411046403 0.0 0.0
0.0 0.0032087742815720918 -0.00291288877561565 0.0024217072458062082 0.0004911815298094432 -0.0006670244941189048 0.0 0.0
0.0 0.00476500106847014 -0.004327924091204425 0.0036927491010274186 0.0006351749901770031 -0.000880213905981598 0.0 0.0
0.0 0.007050997691531586 -0.006287803506418787 0.00551096699291403 0.0007768365135047599 -0.0011401888128285032 0.0 0.0
0.0 0.010114862339854891 -0.009093155371419873 0.008184919479399602 0.0009082358920202733 -0.0015171233179586772 0.0 0.0
0.0 0.014882955319654181 -0.013037692633404766 0.012024421492825784 0.001013271140578979 -0.002111177109124402 0.0 0.0
0.0 0.020911928080715715 -0.01835380783697172 0.01726053275576645 0.0010932750812052694 -0.002993709552880459 0.0 0.0
0.0 0.02845009063484975 -0.025038891307639408 0.02388879361652636 0.0011500976911130326 -0.004110109471875281 0.0 0.0
0.0 0.03740581909112968 -0.032717135399118524 0.0315505297028522 0.0011666056962663174 -0.005353807687305122 0.0 0.0
0.0 0.046122424524703484 -0.04020116131962678 0.03910611827055103 0.0010950430490757686 -0.007234835010232972 0.0 0.0
0.0 0.05179372506796377 -0.04490733625007359 0.04399668981197946 0.0009106464380941368 -0.011245629197602079 0.0 0.0
0.0 0.04980818910036676 -0.04259924929991659 0.04198127985749494 0.0006179694424216227 -0.018016381569126633 0.0 0.0
0.0 0.04296795582582333 -0.03543587823811992 0.03151695263022022 0.0039189256078997125 6.327403878625404e-15 0.0 0.0
0.0 0.04980818910036611 -0.042599249299914384 0.04198127985749288 0.0006179694424215051 0.018016381569140556 0.0 0.0
0.0 0.05179372506795921 -0.04490733625006877 0.04399668981197475 0.0009106464380940289 0.011245629197616085 0.0 0.0
0.0 0.04612242452469767 -0.0402011613196213 0.03910611827054613 0.001095043049075134 0.007234835010241134 0.0 0.0
0.0 0.03740581909112165 -0.03271713539911132 0.03155052970284537 0.0011666056962659455 0.005353807687307914 0.0 0.0
0.0 0.02845009063484234 -0.02503889130763258 0.023888793616520344 0.0011500976911122274 0.004110109471876274 0.0 0.0
0.0 0.020911928080707173 -0.01835380783696402 0.017260532755759447 0.001093275081204581 0.0029937095528800896 0.0 0.0
0.0 0.014882955319644744 -0.013037692633396082 0.012024421492817848 0.0010132711405782255 0.0021111771091231555 0.0 0.0
0.0 0.010114862339844077 -0.009093155371410252 0.00818491947939046 0.0009082358920197881 0.0015171233179571697 0.0 0.0
0.0 0.007050997691521728 -0.006287803506409215 0.0055109669929053005 0.0007768365135039129 0.0011401888128263352 0.0 0.0
0.0 0.004765001068461168 -0.004327924091195713 0.003692749101019548 0.0006351749901761627 0.0008802139059789265 0.0 0.0
0.0 0.0032087742815645024 -0.002912888775608413 0.002421707245799888 0.0004911815298085256 0.000667024494116864 0.0 0.0
0.0 0.00200832265493846 -0.0018487614613633915 0.0014995016519650517 0.00034925980939833886 0.0004767478241085796 0.0 0.0
0.0 0.0010989348066101656 -0.0010106463602221627 0.0008001130365570875 0.00021053332366507477 0.0002898314112892522 0.0 0.0
0.0 0.0004923673637951991 -0.00033115599519668013 0.00025227487674466876 7.888111845201078e-05 5.814543907701045e-05 0.0 0.0
0.0 8.415852473474272e-05 4.074368634052354e-06 -4.143593377342014e-06 6.922474328955851e-08 -1.600015919776594e-05 0.0 0.0
0.0 2.4825010271440088e-05 3.5392778903079047e-06 -2.638477105323103e-06 -9.008007849847367e-07 -1.4268772842538581e-06 0.0 0.0
0.0 -5.301947322778795e-07 -5.211120634663761e-08 4.136700227712206e-08 1.0744204069519997e-08 5.576433227657831e-08 0.0 0.0
0.0 0.0 0.0 0.0 0.0 0.0 0.0 0.0
0.0 0.0 0.0 0.0 0.0 0.0 0.0 0.0
0.0 0.0 0.0 0.0 0.0 0.0 0.0 0.0
0.0 0.0 0.0 0.0 0.0 0.0 0.0 0.0
0.0 0.0 0.0 0.0 0.0 0.0 0.0 0.0
0.0 0.0 0.0 0.0 0.0 0.0 0.0 0.0
0.0 -3.496294827607134e-07 -2.554798202866444e-08 2.0686108615403197e-08 4.86187341325861e-09 -3.404425059177649e-08 0.0 0.0
0.0 1.4843274897720693e-06 -3.5722209356605575e-07 3.535044661813487e-07 3.7176273846034136e-09 -1.2440834120890952e-06 0.0 0.0
0.0 0.00025125402834302965 -6.924593970575104e-05 4.95823343962764e-05 1.9663605309474458e-05 2.987244666408636e-05 0.0 0.0
0.0 0.000655106188934112 -0.0006680733892856858 0.0005189942534811831 0.00014907913580450294 -0.00010665980771133739 0.0 0.0
0.0 0.001560125474465904 -0.0014360509931278676 0.0011509761545044073 0.00028507483862346024 -0.00023059665923462968 0.0 0.0
0.0 0.0026067967046306236 -0.0024222668950365915 0.0019913512587918674 0.0004309156362447249 -0.00035339339837610746 0.0 0.0
0.0 0.004035275523260404 -0.003672114887488907 0.0030971256559360976 0.0005749892315528075 -0.00048217862422501363 0.0 0.0
0.0 0.005940131344996947 -0.0053344278630227905 0.004614603327439533 0.0007198245355832581 -0.0006238406822879269 0.0 0.0
0.0 0.008496903622798861 -0.007649997637075695 0.006788386818025681 0.0008616108190500141 -0.000793742276299937 0.0 0.0
0.0 0.012426645454576817 -0.010930487661510134 0.00994174446690762 0.0009887431946025084 -0.001054207918638014 0.0 0.0
0.0 0.017432283976559052 -0.015526958591844118 0.014433122092938731 0.0010938364989053848 -0.0015151379896031398 0.0 0.0
0.0 0.02444445875156317 -0.021607855859377897 0.020434932806364256 0.0011729230530136286 -0.002205310111962626 0.0 0.0
0.0 0.03309697284754761 -0.029103080581468283 0.027878668325581134 0.001224412255887133 -0.0030641244327779655 0.0 0.0
0.0 0.04288638928169867 -0.037568407909535174 0.03632437196487336 0.0012440359446618037 -0.003873490187453366 0.0 0.0
0.0 0.052519814599846226 -0.045905319140376724 0.04469741750305078 0.001207901637325948 -0.004702073950005969 0.0 0.0
0.0 0.05929483607577234 -0.05164157113219744 0.050644715321465854 0.00099685581073155 -0.007551948222149569 0.0 0.0
0.0 0.05794103184392494 -0.04987537771618986 0.04932514912418387 0.0005502285920060097 -0.016949037351414058 0.0 0.0
0.0 0.05075361858742134 -0.04211022503607086 0.037812318366481 0.00429790666958982 4.553649124439119e-15 0.0 0.0
0.0 0.0579410318439232 -0.049875377716187136 0.0493251491241814 0.0005502285920057646 0.01694903735142549 0.0 0.0
0.0 0.059294836075766785 -0.05164157113219206 0.05064471532146074 0.0009968558107313486 0.007551948222161898 0.0 0.0
0.0 0.05251981459984018 -0.04590531914037107 0.04469741750304601 0.0012079016373250586 0.004702073950012637 0.0 0.0
0.0 0.04288638928168963 -0.037568407909527 0.036324371964865806 0.001244035944661201 0.0038734901874558376 0.0 0.0
0.0 0.033096972847538236 -0.029103080581459877 0.027878668325573487 0.0012244122558863996 0.003064124432778602 0.0 0.0
0.0 0.02444445875155334 -0.021607855859368995 0.020434932806356186 0.0011729230530128085 0.0022053101119622782 0.0 0.0
0.0 0.017432283976548578 -0.01552695859183469 0.014433122092930163 0.0010938364989045253 0.0015151379896025526 0.0 0.0
0.0 0.012426645454564789 -0.010930487661499226 0.009941744466897261 0.0009887431946019628 0.0010542079186368959 0.0 0.0
0.0 0.008496903622786912 -0.007649997637064976 0.006788386818015868 0.0008616108190491071 0.0007937422762984463 0.0 0.0
0.0 0.00594013134498741 -0.0053344278630133805 0.004614603327431015 0.0007198245355823657 0.0006238406822858204 0.0 0.0
0.0 0.004035275523252023 -0.0036721148874803928 0.003097125655928499 0.000574989231551893 0.0004821786242234509 0.0 0.0
0.0 0.00260679670462427 -0.002422266895029836 0.0019913512587860973 0.0004309156362437401 0.00035339339837501843 0.0 0.0
0.0 0.0015601254744596654 -0.001436050993121592 0.0011509761544990778 0.00028507483862251455 0.00023059665923339206 0.0 0.0
0.0 0.0006551061889304579 -0.0006680733892819568 0.0005189942534782512 0.0001490791358037052 0.00010665980771053 0.0 0.0
0.0 0.00025125402834085876 -6.924593970475161e-05 4.958233439554494e-05 1.966360530920701e-05 -2.9872446663998853e-05 0.0 0.0
0.0 1.4843274886915123e-06 -3.572220937492583e-07 3.53504466321609e-07 3.717627427834506e-09 1.244083412188103e-06 0.0 0.0
0.0 -3.4962948259329757e-07 -2.5547982010916308e-08 2.0686108601423818e-08 4.86187340948535e-09 3.404425057573326e-08 0.0 0.0
0.0 0.0 0.0 0.0 0.0 0.0 0.0 0.0
0.0 0.0 0.0 0.0 0.0 0.0 0.0 0.0
0.0 0.0 0.0 0.0 0.0 0.0 0.0 0.0
0.0 0.0 0.0 0.0 0.0 0.0 0.0 0.0
0.0 0.0 0.0 0.0 0.0 0.0 0.0 0.0
0.0 0.0 0.0 0.0 0.0 0.0 0.0 0.0
0.0 -2.648122376227234e-06 -3.125903338309129e-07 2.3695961047333237e-07 7.563072335754801e-08 -1.5550598747438445e-07 0.0 0.0
0.0 5.107213592531627e-05 2.088263134533171e-05 -1.60341363597331e-05 -4.84849498559834e-06 3.182622972593936e-06 0.0 0.0
0.0 0.00037760329261729005 -0.00024855292943094744 0.00018505550151730983 6.34974279136378e-05 3.9262343113142144e-05 0.0 0.0
0.0 0.0010380747685109928 -0.0009819033775700409 0.0007742509599166546 0.00020765241765338612 -3.934626914033528e-05 0.0 0.0
0.0 0.0020213676933004405 -0.0018838616427281174 0.001527472915665658 0.0003563887270624578 -9.47245531809537e-05 0.0 0.0
0.0 0.003291879282893014 -0.00301374246775051 0.0025103172410854526 0.0005034252266650557 -0.0001471560092766346 0.0 0.0
0.0 0.004892392458475486 -0.004458536118234826 0.0038085176451522484 0.0006500184730825768 -0.00020252198539708188 0.0 0.0
0.0 0.007078617105328703 -0.006379638580066616 0.005583764104856226 0.0007958744752103871 -0.00025340417473232436 0.0 0.0
0.0 0.010269829130449151 -0.009050674001351585 0.008114593494204434 0.0009360805071471587 -0.0003012877152585285 0.0 0.0
0.0 0.014314184841499602 -0.012844212730759266 0.011781777733528063 0.001062434997231202 -0.0004334854111369165 0.0 0.0
0.0 0.02030562669093965 -0.01806418955162178 0.0168957577410361 0.001168431810585686 -0.0006833003417797876 0.0 0.0
0.0 0.028146097260421752 -0.02488637200225271 0.023638369122804682 0.0012480028794480242 -0.0010559312842962365 0.0 0.0
0.0 0.03768811954806527 -0.033156368552691926 0.03186218710633814 0.001294181446353771 -0.0015515491237278033 0.0 0.0
0.0 0.04823570782138582 -0.04225871800659258 0.04095620101693816 0.001302516989654415 -0.002010656639242053 0.0 0.0
0.0 0.05848117310334934 -0.051084798847714254 0.04979793570454144 0.001286863143172825 -0.0022191500030344508 0.0 0.0
0.0 0.06626823490931855 -0.05781384353824874 0.05658815263584936 0.0012256909023993705 -0.0030858378546891677 0.0 0.0
0.0 0.06665012230560527 -0.05767636451717928 0.05718230708138144 0.0004940574357978715 -0.011439160924401885 0.0 0.0
0.0 0.06007309341527056 -0.050127704902293437 0.04567752849874286 0.004450176403550548 2.729587389449506e-15 0.0 0.0
0.0 0.06665012230560188 -0.057676364517175824 0.057182307081378156 0.0004940574357976401 0.01143916092440842 0.0 0.0
0.0 0.06626823490931198 -0.0578138435382428 0.05658815263584371 0.0012256909023990663 0.0030858378546971604 0.0 0.0
0.0 0.05848117310333994 -0.05108479884770589 0.04979793570453375 0.001286863143172114 0.002219150003038073 0.0 0.0
0.0 0.04823570782137614 -0.042258718006583706 0.04095620101693015 0.0013025169896535367 0.002010656639242874 0.0 0.0
0.0 0.03768811954805481 -0.033156368552682496 0.03186218710632955 0.001294181446352946 0.0015515491237285176 0.0 0.0
0.0 0.02814609726040926 -0.024886372002241586 0.023638369122794253 0.0012480028794473448 0.0010559312842962285 0.0 0.0
0.0 0.020305626690927867 -0.018064189551611154 0.01689575774102644 0.0011684318105847065 0.0006833003417795857 0.0 0.0
0.0 0.014314184841485203 -0.012844212730746513 0.011781777733515953 0.0010624349972305593 0.00043348541113629916 0.0 0.0
0.0 0.010269829130436217 -0.009050674001339696 0.008114593494193386 0.000936080507146303 0.00030128771525781843 0.0 0.0
0.0 0.007078617105316998 -0.006379638580056087 0.00558376410484651 0.000795874475209578 0.00025340417473153365 0.0 0.0
0.0 0.004892392458465675 -0.004458536118225393 0.0038085176451437596 0.0006500184730816351 0.0002025219853962593 0.0 0.0
0.0 0.003291879282884878 -0.003013742467742263 0.0025103172410781646 0.0005034252266640985 0.00014715600927589379 0.0 0.0
0.0 0.0020213676932940967 -0.001883861642721509 0.0015274729156601096 0.00035638872706139966 9.4724553180413e-05 0.0 0.0
0.0 0.001038074768506477 -0.0009819033775650555 0.0007742509599125696 0.00020765241765248585 3.9346269139781675e-05 0.0 0.0
0.0 0.0003776032926145844 -0.0002485529294288776 0.0001850555015157447 6.349742791313287e-05 -3.926234311305267e-05 0.0 0.0
0.0 5.1072135924299934e-05 2.088263134521568e-05 -1.6034136359639206e-05 -4.848494985576817e-06 -3.1826229724863546e-06 0.0 0.0
0.0 -2.6481223762910176e-06 -3.125903338328666e-07 2.36959610474324e-07 7.563072335853993e-08 1.5550598746556588e-07 0.0 0.0
0.0 0.0 0.0 0.0 0.0 0.0 0.0 0.0
0.0 0.0 0.0 0.0 0.0 0.0 0.0 0.0
0.0 0.0 0.0 0.0 0.0 0.0 0.0 0.0
0.0 0.0 0.0 0.0 0.0 0.0 0.0 0.0
0.0 0.0 0.0 0.0 0.0 0.0 0.0 0.0
0.0 0.0 0.0 0.0 0.0 0.0 0.0 0.0
0.0 1.6004297711181226e-06 6.953396176498085e-08 2.3531155938533583e-09 -7.188707735865485e-08 -3.3915251981599474e-07 0.0 0.0
0.0 0.00015308354548828669 -2.129633650219927e-06 3.32090723801433e-07 1.7975429264185116e-06 9.112298110999621e-06 0.0 0.0
0.0 0.0005886276966825358 -0.00041969480072557945 0.00031089673559563075 0.00010879806512994885 6.728588505299834e-05 0.0 0.0
0.0 0.001343265821104085 -0.0012675889587951778 0.0009881875777761745 0.00027940138101900343 4.415613991866974e-05 0.0 0.0
0.0 0.002426302222828004 -0.0022652484696129823 0.0018151908052775043 0.00045005766433547673 4.889763845936597e-05 0.0 0.0
0.0 0.0037860237077340345 -0.003522740738922491 0.002899627127966621 0.0006231136109558711 7.57819092286516e-05 0.0 0.0
0.0 0.005611949107084031 -0.005129090505707293 0.004327246346751535 0.0008018441589557584 0.000113352176347062 0.0 0.0
0.0 0.008113852207922757 -0.007270589651614293 0.00627753265058876 0.0009930570010255333 0.00020856866325553352 0.0 0.0
0.0 0.011333558607690903 -0.010269159966629011 0.009070876771902802 0.001198283194726208 0.00036448817410781004 0.0 0.0
0.0 0.016040049579694394 -0.014475800342731306 0.01307146675828463 0.0014043335844466757 0.000477202896831731 0.0 0.0
0.0 0.022532857660320565 -0.02020795361926344 0.018595589839021827 0.00161236378024159 0.0005876408164886659 0.0 0.0
0.0 0.031000986174355625 -0.027627607413863657 0.025820483499769432 0.0018071239140941939 0.0006017448982957268 0.0 0.0
0.0 0.041232433578132874 -0.036512216463413856 0.03454488151503557 0.0019673349483783093 0.0004644423398375338 0.0 0.0
0.0 0.05231984529960139 -0.04610337515367768 0.04403908924983625 0.002064285903841419 0.00019732477969861342 0.0 0.0
0.0 0.06275878394857845 -0.05509806193553482 0.0530415776435729 0.002056484291961926 -7.900852700440039e-05 0.0 0.0
0.0 0.07070337793110552 -0.06200860787954213 0.05997593558265498 0.0020326722968871135 -0.000245799668396308 0.0 0.0
0.0 0.07314748431892285 -0.06445909381095061 0.06264930396085361 0.0018097898500969507 -0.0074744529499554575 0.0 0.0
0.0 0.06981907118155467 -0.0589527171096938 0.052402191325333344 0.006550525784360477 2.0747292772682613e-15 0.0 0.0
0.0 0.0731474843189189 -0.06445909381094711 0.06264930396085022 0.0018097898500968848 0.007474452949958922 0.0 0.0
0.0 0.07070337793109738 -0.06200860787953504 0.059975935582648195 0.002032672296886823 0.0002457996684007086 0.0 0.0
0.0 0.06275878394856753 -0.05509806193552492 0.05304157764356404 0.0020564842919608963 7.900852700614292e-05 0.0 0.0
0.0 0.05231984529959014 -0.04610337515366731 0.04403908924982715 0.002064285903840146 -0.00019732477969843214 0.0 0.0
0.0 0.0412324335781231 -0.036512216463404634 0.03454488151502785 0.00196733494837676 -0.00046444233983709924 0.0 0.0
0.0 0.031000986174340134 -0.02762760741384995 0.025820483499756255 0.0018071239140936852 -0.0006017448982958613 0.0 0.0
0.0 0.022532857660306632 -0.020207953619250853 0.01859558983901049 0.0016123637802403726 -0.0005876408164885911 0.0 0.0
0.0 0.016040049579678726 -0.014475800342717275 0.013071466758271554 0.001404333584445729 -0.0004772028968318058 0.0 0.0
0.0 0.011333558607676408 -0.01026915996661593 0.009070876771890807 0.0011982831947251187 -0.0003644881741081251 0.0 0.0
0.0 0.008113852207909654 -0.0072705896516023225 0.006277532650577742 0.0009930570010245816 -0.00020856866325535094 0.0 0.0
0.0 0.005611949107072675 -0.0051290905056972196 0.004327246346742447 0.0008018441589547706 -0.00011335217634747725 0.0 0.0
0.0 0.0037860237077238356 -0.003522740738912813 0.0028996271279581624 0.000623113610954651 -7.578190922910837e-05 0.0 0.0
0.0 0.002426302222821858 -0.0022652484696067078 0.0018151908052723696 0.00045005766433433675 -4.8897638459286094e-05 0.0 0.0
0.0 0.0013432658210987148 -0.0012675889587893626 0.0009881875777714413 0.0002794013810179216 -4.415613991876088e-05 0.0 0.0
0.0 0.0005886276966792078 -0.00041969480072268225 0.0003108967355934493 0.00010879806512923337 -6.728588505275536e-05 0.0 0.0
0.0 0.00015308354548682453 -2.129633649778105e-06 3.3209072349400114e-07 1.7975429262846048e-06 -9.112298110848668e-06 0.0 0.0
0.0 1.6004297705406918e-06 6.953396168526615e-08 2.3531156513319553e-09 -7.188707733667413e-08 3.391525198128718e-07 0.0 0.0
0.0 0.0 0.0 0.0 0.0 0.0 0.0 0.0
0.0 0.0 0.0 0.0 0.0 0.0 0.0 0.0
0.0 0.0 0.0 0.0 0.0 0.0 0.0 0.0
SCALARS Wm float 4
LOOKUP_TABLE default
5.992585923820236 1.786444498661702 1.8869694913128492 2.319171933845686
2.0508876019877835 1.213665700370182 0.3195914012553141 0.5176305003622877
0.36458794321480603 0.3688017711348542 -0.001231843677250596 -0.0029819842427974016
0.37402779509760886 0.3774143553341601 -0.0004873687015177926 -0.002899191535033343
0.5491138800128491 0.5411758343649943 0.004722323781858059 0.0032157218659968133
0.8824995387294604 0.6479399153407839 0.06294243268031745 0.17161719070835912
1.4320229304723138 0.8291936081502383 0.20522223766429215 0.3976070846577826
2.1552095160775093 1.0120048071409113 0.42486197818871185 0.7183427307478861
3.10011046113265 1.2236978263445346 0.7472850048375099 1.1291276299506043
4.371811765904154 1.4890187963631818 1.2223076146865506 1.6604853548544232
6.145397768708338 1.8403669686754864 1.9307092332750373 2.374321566757815
8.643690322812372 2.307073454851633 2.953739316680905 3.3828775512798357
12.285819298703636 2.900591404257859 4.572126474536169 4.813101419909609
17.403705936546416 3.6334071685942484 6.995687847759911 6.774610920192258
24.207065720555335 4.457435884087483 10.431895592314676 9.31773424415317
32.61613235041128 5.270549721668793 14.954376284740604 12.391206344001885
42.061087610966496 5.916653807208023 20.31632916170037 15.828104642058104
51.51750504808673 6.251515352906134 25.991934333615287 19.27405536156533
59.74838088236773 6.267224321094134 31.183391908656574 22.297764652617026
65.4120709720402 6.047899168299305 34.8917636517707 24.47240815197021
67.35903299317125 5.768872492621674 36.272094704642775 25.318065795906826
65.41207097203726 6.047899168299089 34.89176365176894 24.472408151969233
59.748380882359704 6.2672243210922165 31.183391908652705 22.29776465261478
51.51750504808096 6.251515352911461 25.991934333608324 19.2740553615612
42.061087610955674 5.916653807206035 20.316329161694973 15.828104642054672
32.616132350401614 5.270549721667406 14.954376284735634 12.391206343998563
24.207065720544072 4.457435884083959 10.431895592310203 9.317734244149898
17.403705936535303 3.6334071685919644 6.995687847754928 6.774610920188419
12.285819298693443 2.9005914042570153 4.572126474531102 4.813101419905327
8.64369032280206 2.3070734548489633 2.9537393166769346 3.3828775512761635
6.145397768699741 1.8403669686743112 1.930709233271346 2.3743215667540833
4.371811765896449 1.489018796360167 1.222307614684301 1.660485354851981
3.1001104611269557 1.223697826342971 0.7472850048356828 1.1291276299483042
2.1552095160728415 1.0120048071392997 0.42486197818747995 0.7183427307460616
1.4320229304690173 0.8291936081493888 0.20522223766346015 0.39760708465616906
0.8824995387274666 0.6479399153399743 0.06294243268017426 0.17161719070731798
0.549113880011912 0.5411758343642702 0.004722323781788727 0.003215721865852855
0.3740277950971785 0.37741435533369494 -0.0004873687015116937 -0.002899191535004801
0.3645879432144936 0.3688017711344452 -0.0012318436772250278 -0.0029819842427263907
2.050887601986658 1.213665700370695 0.31959140125465235 0.51763050036131
5.992585923807129 1.786444498654244 1.88696949131004 2.319171933842844
6.525506414556994 3.2844209726833773 1.3941501709035637 1.8469352709700544
0.5530657029785196 0.22151108385392757 0.09873089774792608 0.23282372137666585
0.18923900114644693 0.18925627845800386 8.721508220964317e-05 -0.00010449239376661792
0.30609450047262077 0.30633330931403124 -9.213948674856948e-06 -0.00022959489273551763
0.4359522993788141 0.44113540853118105 -0.0013842077945698593 -0.00379890135779704
0.7247281694719201 0.6033942016294366 0.03535075124255731 0.08598321659992636
1.18642457837436 0.7271777718447667 0.1480297831801515 0.311217023349442
1.8190480595392076 0.8796030414830025 0.3395390732598035 0.5999059447964015
2.63716174097784 1.0419051265917232 0.6242012835151297 0.9710553308709874
3.709973585312205 1.2300808117983315 1.0294267519968967 1.4504660215169756
5.1906097509942555 1.4601250960910168 1.6351798409126732 2.0953048139905652
7.34477264785865 1.7499698345337054 2.594391794897016 3.000411018427928
10.370892228985488 2.1002120511317983 3.968870792844383 4.301809385009305
14.76728399608125 2.516469389387028 6.14734576644745 6.103468840246778
20.68433849604422 2.970177671110375 9.244372808256788 8.469788016677066
28.064521657658958 3.385390617542238 13.328498925936337 11.350632114180375
36.44178564589748 3.6588490145036907 18.23428440892345 14.548652222470338
44.947277838938035 3.7200623615303368 23.45800273646715 17.76921274094054
52.44231005521706 3.5723979009710316 28.254723201975597 20.615188952270437
57.70070831267615 3.274786522162004 31.78687103852297 22.639050751991174
59.60940753815351 3.010258611054279 33.18031282583038 23.41883610126886
57.70070831267401 3.274786522162398 31.786871038521348 22.639050751990272
52.4423100552113 3.5723979009707527 28.25472320197213 20.61518895226841
44.94727783892874 3.720062361528988 23.458002736462216 17.76921274093755
36.441785645887656 3.6588490145003107 18.23428440891954 14.548652222467805
28.064521657650523 3.3853906175409167 13.328498925932099 11.350632114177513
20.684338496035185 2.970177671108571 9.244372808252614 8.469788016674002
14.767283996071564 2.5164693893849144 6.147345766443215 6.103468840243435
10.370892228976581 2.10021205113118 3.9688707928399474 4.301809385005455
7.344772647849825 1.7499698345315244 2.5943917948936384 3.0004110184246606
5.190609750986557 1.4601250960896186 1.6351798409095841 2.095304813987354
3.7099735853063764 1.2300808117972124 1.0294267519947504 1.4504660215144125
2.637161740973078 1.0419051265906658 0.6242012835135734 0.9710553308688384
1.8190480595352638 0.8796030414818274 0.3395390732587156 0.5999059447947204
1.1864245783716314 0.7271777718441396 0.14802978317953103 0.31121702334796103
0.7247281694702732 0.6033942016286721 0.03535075124223621 0.08598321659936499
0.4359522993781155 0.44113540853055533 -0.0013842077945900365 -0.0037989013578498564
0.30609450047235687 0.3063333093137528 -9.21394867310587e-06 -0.00022959489272272572
0.1892390011464412 0.18925627845800605 8.721508220705401e-05 -0.00010449239377192658
0.5530657029774375 0.2215110838542009 0.09873089774739033 0.23282372137584656
6.525506414544369 3.2844209726765055 1.3941501709007988 1.8469352709670643
4.7897070591133915 2.61350788364685 0.8804984100303437 1.2957007654361978
0.2595891775169395 0.07740724242268887 0.04596760513001031 0.1362143299642404
0.11596979669236722 0.11596979669236722 0.0 0.0
0.22903926860054002 0.22901500365384003 1.0145746364015119e-05 1.4119200336005697e-05
0.3522410333982866 0.3539310546026423 -0.00025526344154605497 -0.0014347577628095194
0.5748632682472037 0.5393125019085545 0.010851671612064136 0.024699094726584825
0.9573625518393071 0.656761559578043 0.08828219907943052 0.2123187931818333
1.5079799979121606 0.8088170399785184 0.24084986622086293 0.45831309171277956
2.209402254235437 0.9607800051804283 0.4681824774634028 0.7804397715916056
3.136480472012179 1.1344595687460115 0.8081365475916958 1.1938843556744716
4.400181002959513 1.3415899432695912 1.3097541883594637 1.7488368713304583
6.187835290853732 1.5943879100900713 2.0608463741118506 2.5326010066518116
8.87172227438755 1.9125452641361345 3.304894987896505 3.6542820223549124
12.615932196679191 2.283658963833027 5.085595443445041 5.246677789401122
17.80399692304734 2.6847176163180984 7.762297152873932 7.356982153855313
24.32076418281994 3.057584914806597 11.312607445425169 9.950571822588177
31.768858168453193 3.322938484882352 15.576632436783662 12.869287246787183
39.38962363849885 3.4157768836817617 20.168427814082598 15.805418940734477
46.16280514384609 3.3066690497128497 24.450160464376214 18.40597562975703
50.95597072029459 3.063843087197159 27.6321615013534 20.259966131744026
52.678631007073776 2.768407133962416 28.90482369413503 21.005400178976345
50.95597072029364 3.063843087198851 27.63216150135176 20.25996613174304
46.16280514383952 3.306669049710274 24.45016046437372 18.405975629755538
39.38962363849426 3.415776883682806 20.16842781407926 15.805418940732187
31.768858168444083 3.322938484876901 15.576632436781406 12.869287246785769
24.320764182812873 3.057584914805676 11.31260744542156 9.950571822585637
17.80399692303963 2.6847176163166377 7.7622971528703815 7.3569821538526075
12.61593219667136 2.283658963831498 5.085595443441585 5.246677789398273
8.871722274379925 1.9125452641357101 3.3048949878927507 3.654282022351466
6.187835290846066 1.5943879100880523 2.0608463741090235 2.5326010066489903
4.400181002953378 1.34158994326894 1.3097541883569241 1.7488368713275126
3.1364804720068813 1.1344595687449655 0.8081365475898358 1.1938843556720804
2.2094022542313954 0.9607800051799124 0.4681824774619608 0.7804397715895222
1.507979997908809 0.8088170399774626 0.24084986622009827 0.4583130917112492
0.9573625518369574 0.6567615595773639 0.08828219907894085 0.21231879318065253
0.5748632682459534 0.5393125019077359 0.010851671611941678 0.02469909472627594
0.3522410333977546 0.35393105460201557 -0.00025526344152555666 -0.0014347577627354263
0.22903926860029594 0.22901500365359104 1.0145746364596143e-05 1.4119200340271062e-05
0.1159697966922928 0.1159697966922928 0.0 0.0
0.2595891775160968 0.07740724242313408 0.045967605129577996 0.13621432996338476
4.789707059102433 2.613507883641293 0.8804984100278834 1.2957007654332566
3.532604566364833 2.047720175412607 0.5670574782896289 0.9178269126625969
0.14384510099662073 0.061459928979550514 0.012386242417601173 0.06999892959946888
0.08098459437173117 0.08098459437173117 0.0 0.0
0.16606856589026664 0.16606967812072918 -2.0746257414353945e-07 -9.047678883628789e-07
0.2849462128658167 0.28600880789983957 -0.00014481743657183328 -0.0009177775974510144
0.44715995490494964 0.4480505328905674 -0.0006605560552057902 -0.00023002193041195517
0.7544840819499282 0.6090964284305782 0.04071250771673031 0.1046751458026197
1.2111077640895087 0.7331280271718636 0.15440428348113316 0.3235754534365122
1.8106298095724256 0.8765580285124606 0.3354584458743062 0.5986133351856586
2.5904219067357044 1.03526234658004 0.60585575051756 0.949303809638105
3.6352370633663567 1.217769458457704 0.997475433934379 1.4199921709742738
5.150012709852731 1.4448497458188367 1.6243988619984655 2.080764102035429
7.332971578981904 1.719979379539383 2.5721750149879195 3.0408171844546033
10.61452461512416 2.0510160373452666 4.158085312894272 4.405423264884623
15.044108687762296 2.40639900402088 6.380816004582498 6.256893679158914
20.647082336330236 2.739262554692038 9.350558386129526 8.557261395508673
27.195948112674408 2.995892051095701 13.04729732144476 11.152758740133944
33.962081947937506 3.117839310767712 17.03453059538643 13.809712041783362
40.04631162163791 3.0603671502685277 20.781296364125577 16.204648107243816
44.416541557795185 2.8606633634507106 23.604088466947335 17.951789727397134
45.999253594655805 2.5138424765237404 24.822478302975554 18.662932815156516
44.41654155779307 2.860663363451105 23.60408846694579 17.951789727396164
40.04631162163425 3.060367150267737 20.78129636412379 16.204648107242733
33.962081947932546 3.1178393107680917 17.0345305953832 13.809712041781252
27.195948112669896 2.995892051095124 13.047297321442418 11.152758740132349
20.64708233632407 2.7392625546911047 9.350558386126478 8.557261395506476
15.044108687755985 2.4063990040199883 6.380816004579469 6.2568936791565335
10.614524615116986 2.0510160373431665 4.158085312891564 4.405423264882253
7.332971578975513 1.7199793795394709 2.572175014984612 3.040817184451431
5.150012709846425 1.4448497458173917 1.6243988619961676 2.0807641020328655
3.635237063360678 1.217769458456984 0.9974754339321391 1.4199921709715544
2.590421906731408 1.0352623465792754 0.6058557505160429 0.9493038096360887
1.8106298095688935 0.8765580285119194 0.33545844587319834 0.5986133351837756
1.2111077640866406 0.7331280271708283 0.15440428348049032 0.3235754534353217
0.7544840819479867 0.6090964284298066 0.040712507716341474 0.10467514580183848
0.4471599549040483 0.4480505328897723 -0.000660556055235514 -0.00023002193048834985
0.2849462128653914 0.28600880789939204 -0.00014481743656939486 -0.0009177775974311826
0.1660685658900439 0.16606967812050744 -2.0746257418463764e-07 -9.047678893264398e-07
0.08098459437166278 0.08098459437166278 0.0 0.0
0.14384510099582887 0.061459928979778304 0.012386242417285786 0.0699989295987646
3.5326045663563925 2.04772017540844 0.5670574782878568 0.9178269126600967
2.558030742893966 1.579468251030986 0.3444881923386796 0.6340742995243008
0.1259964421121787 0.11315170746816132 0.002924747324396116 0.00991998731962108
0.07249028692378776 0.07249028692378776 0.0 0.0
0.12507577850469495 0.12507577850469495 0.0 0.0
0.22792586911955656 0.22750460911242895 6.726871533102752e-05 0.0003539912917965725
0.355020123216768 0.3619771606596069 -0.0014776430743226633 -0.005479394368516206
0.5750286877359048 0.5424244397595737 0.011636699141696637 0.020967548834634378
0.9322910875861667 0.6536746518701694 0.08221072780730508 0.19640570790869227
1.4319857914088283 0.7864528801544536 0.2190253106455522 0.42650760060882253
2.07047772581872 0.9294555354699341 0.4224966800077568 0.7185255103410287
2.929778840687769 1.0934087126182392 0.7297429095976448 1.106627218471885
4.154753079240523 1.2913890721944445 1.2120069694814664 1.6513570375646134
5.983745769601415 1.5352563910340888 2.0030880812513505 2.4454012973159758
8.59948923289916 1.8195356413718367 3.179479863501196 3.6004737280261234
12.347941442163586 2.1275380858600177 5.043110515362438 5.177292840941137
17.166143614630297 2.428355803176421 7.575019597823054 7.162768213630822
22.73233233087103 2.677530143009645 10.610942361782396 9.443859826078992
28.62943517954711 2.8257417609318245 14.004159119686822 11.799534298928462
34.05703334540328 2.823325597410196 17.273966696182214 13.959741051810866
38.076171724846006 2.662071261507023 19.82535095131189 15.588749512027086
39.55357348773227 2.2550969618505725 20.983610366422898 16.314866159458802
38.07617172484338 2.6620712615059627 19.825350951310902 15.5887495120265
34.05703334540016 2.82332559741024 17.273966696180295 13.959741051809624
28.629435179543986 2.825741760933621 14.004159119683873 11.799534298926487
22.732332330864917 2.677530143008111 10.61094236177971 9.443859826077095
17.16614361462581 2.4283558031762906 7.575019597820593 7.162768213628928
12.347941442158305 2.127538085859305 5.043110515359947 5.177292840939057
8.599489232893559 1.8195356413703863 3.179479863499048 3.6004737280241232
5.983745769595787 1.5352563910334296 2.0030880812489156 2.44540129731344
4.154753079235409 1.2913890721934982 1.2120069694795397 1.651357037562369
2.929778840682888 1.0934087126168839 0.7297429095960888 1.1066272184699153
2.070477725814945 0.9294555354691605 0.4224966800065421 0.7185255103392421
1.431985791405874 0.7864528801537807 0.219025310644714 0.42650760060737936
0.9322910875839714 0.6536746518692932 0.08221072780687826 0.19640570790779976
0.575028687734528 0.5424244397587723 0.011636699141505117 0.020967548834250397
0.35502012321604115 0.36197716065874963 -0.001477643074290621 -0.0054793943684178495
0.22792586911916618 0.22750460911203488 6.726871533108478e-05 0.0003539912918002479
0.1250757785044882 0.1250757785044882 0.0 0.0
0.07249028692362229 0.07249028692362229 0.0 0.0
0.12599644211136224 0.11315170746810442 0.002924747324105525 0.009919987319152144
2.5580307428875684 1.5794682510279225 0.34448819233738104 0.6340742995222657
1.822253780273406 1.2263125599896645 0.19513349842765834 0.4008077218560831
0.11626291688489457 0.13900373010171566 -0.010715343257806074 -0.01202546995901501
0.08182258302360676 0.08182258302360676 0.0 0.0
0.1048481411979804 0.1048481411979804 0.0 0.0
0.18359246417948907 0.18351486769010197 7.669628395727339e-06 6.992686099134184e-05
0.2851982806223135 0.2855242992538779 -2.353976273675164e-05 -0.00030247886882761647
0.4276768001870195 0.4302880295532959 -0.0018391296851590013 -0.0007720996811175313
0.6954095140017866 0.5946198354347041 0.034925275969008546 0.06586440259807366
1.0654172846917558 0.67803527007606 0.11840897419531828 0.2689730404203776
1.5886919186453217 0.8197860696264969 0.26791092821525403 0.5009949208035702
2.265622556821796 0.9631294620724927 0.49155202018631555 0.8109410745629864
3.2226817987233245 1.133725347037626 0.8432057766217335 1.2457506750639644
4.644550756231993 1.3433978009860672 1.418905818529637 1.8822471367162896
6.7847304892389 1.5902152396842029 2.375810002079535 2.8187052474751613
9.779429049490737 1.859341394539367 3.793955416387835 4.1261322385635335
13.677095954885724 2.119688637831155 5.7616765393340295 5.795730777720543
18.428728816662634 2.3554605594708313 8.347161347473072 7.726106909718739
23.432981712077307 2.5348932495872325 11.120783684570368 9.777304777919708
28.149107786404006 2.58919378485866 13.845626564160277 11.714287437385073
31.860787589638754 2.467481332286141 16.160768930640057 13.232537326712553
33.26431722408666 1.9947386884178904 17.298081480150017 13.97149705551875
31.860787589637667 2.4674813322863223 16.160768930639275 13.23253732671207
28.14910778640196 2.5891937848599382 13.845626564158293 11.714287437383732
23.432981712072394 2.5348932495858874 11.120783684568249 9.777304777918264
18.428728816657912 2.355460559469472 8.347161347471133 7.726106909717302
13.677095954881135 2.1196886378301376 5.761676539332079 5.795730777718921
9.779429049486087 1.8593413945380337 3.7939554163860683 4.126132238561983
6.784730489235032 1.5902152396841558 2.3758100020776305 2.8187052474732446
4.644550756227401 1.3433978009850014 1.4189058185279615 1.8822471367144378
3.22268179871924 1.1337253470369395 0.8432057766202296 1.2457506750620706
2.2656225568180846 0.9631294620714832 0.49155202018520094 0.8109410745614
1.5886919186423847 0.8197860696257164 0.2679109282144218 0.5009949208022463
1.065417284689413 0.6780352700753086 0.11840897419480816 0.26897304041929637
0.6954095139999587 0.5946198354338589 0.034925275968655946 0.06586440259744364
0.42767680018607546 0.4302880295523098 -0.001839129685146886 -0.0007720996810875341
0.28519828062179603 0.28552429925331524 -2.3539762732178726e-05 -0.00030247886878709176
0.18359246417917316 0.18351486768979233 7.669628394994188e-06 6.992686098583603e-05
0.10484814119775697 0.10484814119775697 0.0 0.0
0.08182258302339289 0.08182258302339289 0.0 0.0
0.11626291688421124 0.13900373010139286 -0.01071534325792786 -0.012025469959253715
1.822253780268854 1.2263125599875877 0.19513349842681493 0.4008077218544514
1.2534972963330182 0.932504096804625 0.09152520404608233 0.2294679954823108
0.12939022294372735 0.16956053480374556 -0.011972608653054405 -0.02819770320696381
0.10020190054320587 0.10020190054320587 0.0 0.0
0.10095199862736451 0.10095199862736451 0.0 0.0
0.15366731116987925 0.15358116832016777 7.828390201934371e-06 7.831445950952713e-05
0.229308834144521 0.22988191897965435 -5.289149232138079e-05 -0.0005201933428119476
0.32793046860407926 0.33491653903671353 -0.0017133176473486439 -0.0052727527852856355
0.48111048567719134 0.4639950739738584 0.001598134328823409 0.015517277374509496
0.7661516484574789 0.6146783278242605 0.053057643775861904 0.0984156768573563
1.1275124664373843 0.6903838570702505 0.13559670756792888 0.3015319017992051
1.652942015145003 0.8268257656082878 0.29085179678654166 0.5352644527501734
2.3704546157921795 0.972124018264654 0.5340510170894278 0.8642795804380979
3.430372560804793 1.1490756749608628 0.9315703579639125 1.3497265278800188
5.032913154519097 1.3582429989910054 1.5999377041685983 2.074732451359493
7.334893544853153 1.584978252103299 2.6420538478745654 3.107861444875289
10.474015396988772 1.8218547699331595 4.202156766468444 4.45000386058717
14.115614656486443 2.034952311836268 6.034950163715244 6.0457121809349275
18.285597376085 2.227900059406685 8.313569697310536 7.744127619367776
22.43134000014869 2.3476845848838104 10.656977415889195 9.426677999375695
25.796335444139913 2.2785505771352637 12.665277346003753 10.852507521000899
27.165196507788796 1.737680284452666 13.803560732025936 11.623955491310188
25.796335444139377 2.2785505771360532 12.665277346002966 10.85250752100035
22.4313400001455 2.3476845848832824 10.656977415887606 9.426677999374608
18.285597376082233 2.227900059405743 8.313569697309465 7.744127619367023
14.115614656483299 2.0349523118365225 6.034950163713359 6.045712180933419
10.474015396985536 1.821854769932981 4.202156766466778 4.450003860585777
7.334893544849556 1.5849782521020188 2.642053847873417 3.107861444874118
5.032913154516043 1.3582429989908855 1.5999377041671738 2.0747324513579826
3.4303725608015165 1.1490756749601903 0.9315703579627216 1.3497265278786055
2.3704546157891273 0.9721240182645078 0.5340510170881838 0.8642795804364356
1.6529420151420349 0.8268257656075946 0.2908517967856397 0.5352644527488012
1.1275124664350848 0.690383857069535 0.13559670756737668 0.301531901798173
0.7661516484557724 0.6146783278237563 0.05305764377541186 0.09841567685660438
0.4811104856761021 0.4639950739731923 0.001598134328699877 0.01551727737420994
0.32793046860344877 0.3349165390359099 -0.0017133176473197289 -0.005272752785141402
0.2293088341441005 0.2298819189792135 -5.289149231679656e-05 -0.0005201933427961705
0.15366731116961643 0.15358116831991359 7.82839020086291e-06 7.83144595019974e-05
0.10095199862704954 0.10095199862704954 0.0 0.0
0.10020190054294395 0.10020190054294395 0.0 0.0
0.12939022294324887 0.16956053480324446 -0.011972608653043167 -0.028197703206952383
1.2534972963298001 0.9325040968030827 0.0915252040455818 0.22946799548113525
0.8609170933058468 0.7803037711649234 0.027203326010773174 0.05340999613014997
0.14091672230020316 0.15479610392894982 -0.0042518623807088285 -0.009627519248037878
0.12130762923282543 0.12130762923282543 0.0 0.0
0.10815714591606383 0.10815714591606383 0.0 0.0
0.13727616764067427 0.13724950242998735 2.1249220324058944e-06 2.4540288654521162e-05
0.18839065200715946 0.18836210269703865 4.904695656137002e-06 2.3644614464709365e-05
0.2530720701983736 0.25567950064974804 -0.0004866796512254937 -0.002120750800149024
0.34190571416481386 0.34646043709808666 -0.001744187443314058 -0.0028105354899587336
0.48587921912177073 0.46579212465917186 0.0027450488929686677 0.017342045569630204
0.7491293939346338 0.5932236461618058 0.05265504448137565 0.10325070329145239
1.0921689816377202 0.6807428892910034 0.13135648580009202 0.2800696065466252
1.587461767029276 0.7963647345096952 0.2757279047103147 0.5153691278092661
2.3254428985204827 0.9452533945144902 0.525465839532783 0.8547236644732096
3.4429935571775876 1.1169770966166033 0.9513349373183877 1.3746815232425975
5.109058549895102 1.3109948510439895 1.666079306796105 2.1319843920550063
7.3481504889584395 1.5117421897458083 2.689526403758352 3.1468818954542774
10.19409296261918 1.7139884631357576 4.110588113919133 4.369516385564289
13.366873333533192 1.9120312773120938 5.716621615029108 5.738220441191988
16.672817777489996 2.075262133685581 7.457806700546376 7.139748943258043
19.747537046752885 2.0813782781211643 9.230509716881265 8.435649051750465
21.12515460215165 1.4791477758573242 10.396167101112356 9.249839725181962
19.747537046751262 2.0813782781197174 9.230509716881146 8.4356490517504
16.672817777487296 2.0752621336840926 7.457806700545664 7.139748943257541
13.366873333529718 1.9120312773098718 5.716621615028413 5.738220441191431
10.194092962616363 1.7139884631359503 4.110588113917497 4.36951638556291
7.348150488956284 1.5117421897462613 2.6895264037569953 3.1468818954530273
5.109058549892839 1.3109948510437306 1.666079306795134 2.1319843920539734
3.44299355717538 1.1169770966161578 0.9513349373175605 1.3746815232416612
2.3254428985183337 0.9452533945138198 0.5254658395321609 0.8547236644723534
1.5874617670267328 0.7963647345090076 0.2757279047095768 0.5153691278081479
1.0921689816356803 0.6807428892903924 0.1313564857996101 0.28006960654567775
0.7491293939332316 0.5932236461613626 0.0526550444810142 0.1032507032908547
0.4858792191207845 0.46579212465852315 0.002745048892872276 0.01734204556938908
0.3419057141640921 0.3464604370973786 -0.001744187443308584 -0.0028105354899778823
0.253072070197835 0.25567950064914924 -0.0004866796512136463 -0.002120750800100572
0.18839065200675806 0.1883621026966135 4.904695657642923e-06 2.364461448689511e-05
0.13727616764037756 0.1372495024296989 2.1249220317335205e-06 2.4540288646926994e-05
0.10815714591576961 0.10815714591576961 0.0 0.0
0.12130762923253668 0.12130762923253668 0.0 0.0
0.14091672229978355 0.15479610392833024 -0.004251862380649753 -0.009627519247896949
0.8609170933038053 0.780303771163892 0.027203326010441512 0.05340999612947213
0.5848534080194708 0.5824020657846734 0.0005191336611280763 0.0019322085736695857
0.14977111792015402 0.15015009588474829 -7.22993444264205e-05 -0.00030667862016784997
0.14102746235794508 0.1411281616552359 -8.195463380971078e-06 -9.250383390982974e-05
0.12160373753087975 0.12160373753087975 0.0 0.0
0.13203717225433872 0.13203253214498004 1.4819308320338025e-07 4.491916275472017e-06
0.1623089100906154 0.16189150229582144 5.757015791437414e-05 0.0003598376368795672
0.20069588639408834 0.2011023829762669 -1.3667142978000399e-05 -0.00039282943920051155
0.24838132501219154 0.2563757866258023 -0.0015954820743447153 -0.006398979539265991
0.31359789149549583 0.3138827699912871 -0.00062197248439125 0.0003370939885999688
0.4253330528889676 0.42043522161972574 0.0017642372118510654 0.0031335940573908056
0.6138789343835239 0.5059847800753285 0.02701990812058453 0.08087424618761076
0.9019109611626844 0.6037660337284412 0.08767240436923993 0.2104725230650033
1.3427532934531845 0.7192708695924923 0.20930893409634302 0.41417348976434903
2.0241510325751215 0.8540549628883717 0.43169282832691575 0.738403241359834
3.0640659907074523 1.010058258596469 0.826477234670695 1.2275304974402885
4.533348256076454 1.1791761365695468 1.4487099101181866 1.905462209388722
6.437151756847676 1.3660207695496818 2.3092910445323893 2.7618399427656057
8.675871792810998 1.5516774334729289 3.3642342893745867 3.7599600699634848
11.211952520528143 1.7474517861728698 4.610717449282969 4.853783285072304
13.915859931538625 1.8663061368632063 6.0593454077169255 5.9902083869584954
15.260954440348078 1.231019978524903 7.121833803370731 6.9081006584524465
13.9158599315398 1.8663061368639688 6.059345407717151 5.990208386958676
11.211952520528063 1.7474517861736873 4.610717449282475 4.853783285071904
8.675871792809014 1.551677433471447 3.36423428937428 3.7599600699632862
6.437151756845544 1.3660207695494195 2.3092910445314354 2.761839942764691
4.533348256074137 1.1791761365686166 1.4487099101174992 1.9054622093880214
3.064065990706056 1.0100582585966806 0.8264772346699376 1.227530497439437
2.024151032574248 0.8540549628885278 0.43169282832650574 0.7384032413592145
1.3427532934521242 0.7192708695923129 0.20930893409604762 0.4141734897637638
0.9019109611614867 0.6037660337281616 0.08767240436893514 0.2104725230643898
0.6138789343824228 0.5059847800748288 0.027019908120381755 0.08087424618721209
0.4253330528882047 0.4204352216192063 0.00176423721178108 0.003133594057217323
0.3135978914950303 0.31388276999076437 -0.0006219724843778113 0.000337093988643808
0.2483813250117615 0.2563757866253149 -0.001595482074330353 -0.006398979539223071
0.20069588639370173 0.2011023829758578 -1.3667142975111693e-05 -0.0003928294391809862
0.16230891009026038 0.16189150229546287 5.75701579139471e-05 0.00035983763688355024
0.13203717225396538 0.13203253214461014 1.4819308292817893e-07 4.4919162723172205e-06
0.12160373753064405 0.12160373753064405 0.0 0.0
0.1410274623576379 0.14112816165491265 -8.195463379370206e-06 -9.250383389538218e-05
0.14977111791979553 0.15015009588436384 -7.229934442219227e-05 -0.0003066786201461126
0.5848534080182675 0.5824020657834903 0.0005191336611103642 0.0019322085736667965
0.41424052779108794 0.41823753615410786 -0.0005708770789802026 -0.00342613128403973
0.15098888536820204 0.15040798469005545 8.032745737837788e-05 0.0005005732207682078
0.15582723399678752 0.15586165939233212 -2.281992438070464e-06 -3.2143403106540925e-05
0.13727677260622506 0.13727677260622506 0.0 0.0
0.13532825678561816 0.13529919665779072 2.748232432859623e-06 2.631189539456126e-05
0.15013374091438766 0.15005815871646708 1.0898145879815922e-05 6.468405204076716e-05
0.17081372667379818 0.1712412942411905 -4.630670229204104e-05 -0.00038126086510026667
0.19194822397813374 0.19363446739036191 -0.0002553736100286849 -0.0014308698021995474
0.2151346200982128 0.21626938113791258 -0.0005047187125013406 -0.0006300423271983896
0.24462972520469006 0.2410258069311501 0.0002292589613228614 0.0033746593122171036
0.3068432167418675 0.3018027324079928 0.003638455337504159 0.0014020289963705128
0.399782556670753 0.3557341824791401 0.010355332977452515 0.03369304121416042
0.5629978657565016 0.4310719512757288 0.03525100121137331 0.09667491326939931
0.8517100484958159 0.5397377381930542 0.09791941236001928 0.21405289794274257
1.333100418613009 0.6528634734656372 0.23533474984997266 0.4449021952973992
2.0700715940400203 0.7641631132165936 0.4908056813341095 0.8151027994893174
3.1220889296326844 0.911219470283473 0.89542133208977 1.3154481272594414
4.5432573387579955 1.0941094036616317 1.4986551469161404 1.9504927881802236
6.229981409517327 1.2705970937858169 2.2553206173688145 2.704063698362697
8.271259097832537 1.5165485776670717 3.172199568929148 3.5825109512363142
9.909599668243983 0.9944003365036762 4.326241350446024 4.588957981294279
8.271259097834008 1.5165485776683274 3.172199568929269 3.5825109512364124
6.22998140951547 1.2705970937842566 2.2553206173686444 2.7040636983625705
4.543257338757037 1.0941094036610128 1.4986551469159504 1.9504927881800738
3.122088929631109 0.911219470283063 0.8954213320891875 1.3154481272588592
2.0700715940397916 0.764163113216813 0.49080568133395164 0.8151027994890261
1.3331004186118791 0.6528634734650051 0.23533474984976718 0.4449021952971069
0.8517100484956054 0.5397377381932902 0.09791941235985493 0.2140528979424599
0.5629978657560587 0.43107195127583064 0.03525100121118547 0.09667491326904255
0.39978255667026524 0.35573418247885213 0.010355332977370589 0.033693041214042534
0.3068432167413242 0.30180273240770894 0.0036384553374220656 0.001402028996193157
0.24462972520449172 0.24102580693102532 0.00022925896131310782 0.00337465931215326
0.21513462009800233 0.21626938113765043 -0.0005047187124932789 -0.0006300423271548825
0.1919482239779583 0.19363446739017065 -0.00025537361002509005 -0.0014308698021872597
0.17081372667345965 0.1712412942408261 -4.630670228850972e-05 -0.00038126086507791286
0.15013374091404785 0.1500581587161254 1.0898145879928854e-05 6.46840520425575e-05
0.13532825678525243 0.13529919665742768 2.7482324325262464e-06 2.631189539219741e-05
0.13727677260588442 0.13727677260588442 0.0 0.0
0.15582723399643278 0.1558616593919651 -2.2819924370101156e-06 -3.214340309535219e-05
0.1509888853678551 0.15040798468972294 8.032745737647956e-05 0.0005005732207556924
0.4142405277903008 0.4182375361532715 -0.0005708770789718352 -0.003426131283998737
0.2860802641486045 0.2858179733087089 3.299210283869165e-05 0.00022929873705692912
0.14636489754569024 0.14640444672890143 -4.741606735771434e-06 -3.4807576475446827e-05
0.1643243920969636 0.16429515367847436 2.112966847201214e-06 2.7125451642014554e-05
0.15207161321605156 0.15212213547213352 -3.59193576582823e-06 -4.693032031615608e-05
0.14455631899392496 0.14448759580613085 5.836380388876281e-06 6.288680740523345e-05
0.15045926170771293 0.15049152048697131 2.19443135302791e-06 -3.445321061137496e-05
0.16264690479601673 0.16317206948212512 -6.0640637655165915e-05 -0.0004645240484532017
0.17417775930937873 0.174091441092666 3.361288076499162e-05 5.270533594773432e-05
0.18135522559935538 0.18621992182620525 -0.0009459594417916661 -0.003918736785058252
0.1889671252219807 0.18607881466452156 0.0004401299669668754 0.002448180590492244
0.19983047673312498 0.20024423329513133 0.000649676383810588 -0.0010634329458168801
0.22854548837291777 0.1904655608522782 0.008878854305996272 0.029201073214643228
0.26179365844005353 0.18618556496910277 0.019199938441689185 0.05640815502926155
0.31194185937709645 0.17025623657592479 0.04108439001281042 0.10060123278836135
0.40888249867820786 0.17191005873864407 0.08035378341961918 0.15661865651994505
0.5888170114687972 0.20789156943060258 0.13727088472831164 0.24365455730988295
0.9058013200758837 0.2560020046694317 0.2478486976074352 0.4019506177990173
1.4233710979478054 0.2622644600557378 0.45911440982436025 0.7019922280677073
2.267929520619156 0.37172601105490244 0.7939896328739363 1.102213876690317
3.747071719740787 0.8325910129473219 1.2447975313850763 1.6696831754083892
6.157648042990688 0.7554885868476207 2.446717776590505 2.955441679552567
3.747071719741269 0.8325910129470417 1.2447975313855086 1.6696831754087191
2.267929520619608 0.37172601105462044 0.7939896328742716 1.1022138766907155
1.4233710979479324 0.2622644600563204 0.45911440982416035 0.7019922280674512
0.9058013200751116 0.2560020046688312 0.2478486976073338 0.4019506177989469
0.5888170114681173 0.20789156943023043 0.13727088472816917 0.24365455730971788
0.4088824986784577 0.17191005873887466 0.08035378341962293 0.1566186565199601
0.31194185937697794 0.17025623657579542 0.041084390012818904 0.10060123278836372
0.26179365843997693 0.18618556496924815 0.01919993844163096 0.0564081550290978
0.22854548837233296 0.1904655608520539 0.008878854305977757 0.02920107321430133
0.19983047673279047 0.2002442332949652 0.0006496763837351492 -0.0010634329459098674
0.18896712522186446 0.1860788146644097 0.00044012996696879793 0.0024481805904859734
0.1813552255991945 0.18621992182601094 -0.0009459594417839611 -0.003918736785032459
0.17417775930914167 0.1740914410924123 3.361288076722627e-05 5.270533596211092e-05
0.16264690479578423 0.1631720694818675 -6.064063765172492e-05 -0.00046452404843158086
0.15045926170729568 0.15049152048653439 2.1944313549771556e-06 -3.445321059367567e-05
0.14455631899353427 0.14448759580575246 5.8363803876559066e-06 6.288680739411639e-05
0.15207161321567203 0.15212213547174117 -3.5919357646408444e-06 -4.6930320304495193e-05
0.1643243920965688 0.16429515367808709 2.1129668465125042e-06 2.71254516351774e-05
0.14636489754539034 0.14640444672860276 -4.741606735707153e-06 -3.480757647670061e-05
0.28608026414806614 0.2858179733081527 3.2992102839009944e-05 0.00022929873707435794
0.1913481958432781 0.1913481958432781 0.0 0.0
0.13499120351477817 0.13499120351477817 0.0 0.0
0.1663365600777431 0.1663201021122705 1.157425527525521e-06 1.530053994511454e-05
0.16388925241890098 0.16394121702951917 -4.205818835592597e-06 -4.7758791782554004e-05
0.1574889024158417 0.15745574325995787 6.495258939901161e-06 2.6663896943950223e-05
0.16215689198883815 0.16199398254200145 2.972100390691209e-05 0.00013318844292978442
0.17577212784837448 0.17703023786643896 -0.00016797845079625826 -0.0010901315672681702
0.19303575884909305 0.19486511962147043 -0.00027682919707095003 -0.0015525315753064455
0.2147866552113654 0.21595667803529248 -0.0005046726533501295 -0.0006653501705770355
0.24407357744873037 0.24059883791534847 0.00019416187470633318 0.0032805776586755223
0.30608960937125834 0.3009920763875106 0.003333790443816491 0.0017637425399313921
0.40045942168337456 0.35698419953160887 0.011364001180229129 0.03211122097153647
0.5635809207368038 0.4317705605526681 0.035257396129632614 0.09655296405450278
0.8545083731659021 0.5419782222004769 0.0983433766865709 0.21418677427885485
1.325846912638057 0.64865966671189 0.23442065539313656 0.44276659053303025
1.9869111004083448 0.7435331070740101 0.46737618720722884 0.7760018061271055
2.7373302413618 0.8298018460280436 0.7609644912123614 1.1465639041213929
3.393370393203327 0.8811702158908745 1.0719754172406741 1.440224760071779
3.6668009100129617 0.881129894583585 1.2214642120293813 1.5642068033999967
3.1162703673719188 0.46627428764041395 1.1852333300845317 1.464762749646973
6.179595743967955 1.3077296466033173 2.1535650217759184 2.718301075588718
3.1162703673730996 0.46627428763983125 1.185233330085422 1.4647627496478446
3.666800910013868 0.8811298945841587 1.2214642120295882 1.5642068034001206
3.3933703932018893 0.8811702158902057 1.0719754172402751 1.440224760071409
2.7373302413612017 0.8298018460289084 0.7609644912116998 1.1465639041205926
1.9869111004072522 0.7435331070740374 0.467376187206788 0.7760018061264269
1.3258469126374106 0.6486596667117979 0.234420655392941 0.4427665905326718
0.8545083731650835 0.5419782222001711 0.09834337668634574 0.2141867742785666
0.5635809207355925 0.431770560552185 0.03525739612937301 0.09655296405403449
0.40045942168271537 0.3569841995312045 0.011364001180129247 0.032111220971381756
0.30608960937042207 0.30099207638691344 0.00333379044373809 0.001763742539770536
0.2440735774483257 0.24059883791500242 0.00019416187469729418 0.003280577658625882
0.214786655211113 0.21595667803501464 -0.0005046726533433457 -0.0006653501705582144
0.19303575884886126 0.19486511962120656 -0.00027682919706526203 -0.0015525315752801347
0.17577212784803156 0.17703023786605715 -0.0001679784507901299 -0.0010901315672354752
0.162156891988374 0.16199398254152428 2.9721003907639913e-05 0.00013318844294204826
0.15748890241544897 0.15745574325954384 6.495258941420264e-06 2.6663896963688794e-05
0.16388925241851282 0.16394121702911155 -4.205818833967814e-06 -4.775879176477709e-05
0.16633656007736117 0.16632010211189574 1.1574255269296667e-06 1.5300539938497835e-05
0.13499120351446453 0.13499120351446453 0.0 0.0
0.1913481958429314 0.1913481958429314 0.0 0.0
0.12320985948240087 0.12320985948240087 0.0 0.0
0.11869429244119523 0.11869429244119523 0.0 0.0
0.16193483498352568 0.1619116215241483 1.88827716884134e-06 2.1325182208540644e-05
0.17176347772962797 0.1717179440912086 6.741537791932319e-06 3.879210062737888e-05
0.17262363373068243 0.17290054822692477 -2.658144819851299e-05 -0.00025033304804387285
0.18430135583537793 0.18504875605383336 -8.906184876859221e-05 -0.0006583383696868605
0.20937129888092998 0.20829732392365513 0.0002080216791298974 0.0008659532781450164
0.2501899065781659 0.25843306070451894 -0.00165528235958287 -0.006587871766770209
0.3130086722633496 0.3133180165988185 -0.0006115829419138278 0.0003022386064448774
0.4243546705517372 0.4197874301544708 0.00164718361882413 0.0029200567784423426
0.613055264502064 0.5056390579726042 0.026843263972861655 0.08057294255659808
0.9012948336756348 0.6037072473790331 0.08747954557932051 0.21010804071728129
1.3428182717359893 0.7194281274730214 0.20934617224366697 0.41404397201930093
2.026389593644387 0.8543324551324085 0.4327508761646213 0.7393062623473567
3.061315025797492 1.0072372422436664 0.8270998671783631 1.2269779163754617
4.461928479153349 1.1586419101700887 1.4247991019913646 1.878487466991898
6.0797330890071155 1.2954253325994243 2.1625671875869483 2.621740568820743
7.59144126969273 1.4142333657458632 2.85684785483988 3.320360049106986
8.538994152306566 1.4661620811566296 3.332569310225721 3.7402627609242134
8.080438116105267 1.4909920382733453 3.1473034885191655 3.4421425893127555
9.527882594326144 2.842683546446115 3.113561124196735 3.5716379236832916
8.080438116107807 1.4909920382736495 3.147303488520356 3.442142589313801
8.538994152306602 1.4661620811564955 3.3325693102258027 3.740262760924302
7.591441269691787 1.4142333657458521 2.8568478548393648 3.3203600491065695
6.079733089003498 1.2954253325984055 2.162567187585622 2.621740568819471
4.46192847915141 1.1586419101701377 1.424799101990405 1.878487466990867
3.0613150257951305 1.0072372422428593 0.8270998671776386 1.2269779163746324
2.0263895936424587 0.8543324551318984 0.4327508761640259 0.7393062623465343
1.3428182717337513 0.7194281274725051 0.20934617224302265 0.41404397201822396
0.9012948336736079 0.6037072473786285 0.08747954557877652 0.2101080407162028
0.6130552645002216 0.5056390579717646 0.02684326397252222 0.08057294255593483
0.4243546705507422 0.4197874301536333 0.0016471836187760417 0.002920056778332807
0.3130086722627764 0.313318016598243 -0.000611582941909596 0.0003022386064429005
0.25018990657775575 0.25843306070404876 -0.0016552823595674846 -0.00658787176672543
0.20937129888047193 0.20829732392317687 0.00020802167913172315 0.0008659532781633511
0.1843013558349161 0.18504875605334 -8.906184876391693e-05 -0.0006583383696600243
0.17262363373028966 0.1729005482265108 -2.6581448195931356e-05 -0.00025033304802520766
0.17176347772924716 0.1717179440908114 6.741537792735469e-06 3.879210064301524e-05
0.161934834983214 0.1619116215238433 1.8882771683331395e-06 2.1325182202372398e-05
0.11869429244092057 0.11869429244092057 0.0 0.0
0.12320985948218256 0.12320985948218256 0.0 0.0
0.07589689767872596 0.07589689767872596 0.0 0.0
0.09974781017502861 0.09974781017502861 0.0 0.0
0.15197947331029568 0.15197171659125921 4.7276083499528125e-07 7.283958201470016e-06
0.175547137373673 0.1755550674778859 -4.521355835348512e-07 -7.477968629409893e-06
0.18935282830822556 0.18944437647704052 -8.726735944573644e-06 -8.282143287035757e-05
0.21563179565644416 0.21465315473751756 0.00015292634423490225 0.0008257145746916654
0.26418643771503614 0.26966913348416255 -0.0009612643828074838 -0.004521431386318911
0.3442091925451311 0.34895983502892064 -0.0016956122905210816 -0.0030550301932684505
0.4852072985073401 0.4653074272180563 0.0026974176758426064 0.017202453613441034
0.7482231327954428 0.5931772124393346 0.05261179802185206 0.10243412233425608
1.0910516867220728 0.6803694139669804 0.1300817032305767 0.28060056952451595
1.5868192384936253 0.7962771493136045 0.27552974277532905 0.5150123464046918
2.3237859524218045 0.9449333852931147 0.52490111837972 0.8539514487489708
3.440921814722815 1.1168906463721917 0.9504912632809255 1.3735399050696966
5.104880901747739 1.3096842136216242 1.6648503835412627 2.130346304584851
7.29638090116217 1.4945707845498026 2.672059233988694 3.1297508826236724
9.935566969559689 1.6599435271775096 4.001170764704629 4.274452677677554
12.464930169137082 1.7700936778456122 5.296962934000273 5.397873557291192
14.053139690946725 1.7625734339864143 6.180335210170756 6.1102310467895595
13.212827651039289 1.6299170780250751 5.791645679902678 5.7912648931115385
14.77486744400835 4.55321352103698 5.034782576684196 5.186871346287179
13.212827651039927 1.62991707802356 5.791645679903884 5.791264893112485
14.053139690947736 1.762573433986946 6.180335210171031 6.1102310467897585
12.464930169132739 1.770093677843783 5.296962933998877 5.397873557290077
9.935566969557529 1.6599435271785739 4.001170764702891 4.274452677676063
7.296380901159086 1.4945707845494276 2.672059233987314 3.1297508826223432
5.104880901745464 1.3096842136215185 1.6648503835402222 2.1303463045837248
3.440921814719688 1.1168906463713928 0.950491263279829 1.3735399050684665
2.323785952418663 0.9449333852925699 0.5249011183786035 0.853951448747489
1.5868192384903381 0.7962771493130586 0.27552974277425907 0.5150123464030205
1.0910516867194051 0.6803694139664992 0.13008170322986568 0.2806005695230402
0.7482231327935165 0.5931772124386103 0.052611798021383265 0.10243412233352292
0.48520729850613625 0.4653074272173569 0.0026974176757012915 0.01720245361307795
0.3442091925444103 0.34895983502802586 -0.0016956122904803234 -0.003055030193135199
0.2641864377145384 0.2696691334836328 -0.0009612643827991528 -0.004521431386295083
0.21563179565591817 0.21465315473697932 0.0001529263442351029 0.0008257145747037236
0.18935282830774738 0.18944437647654666 -8.726735943247965e-06 -8.282143285599838e-05
0.17554713737327232 0.17555506747748004 -4.521355831248496e-07 -7.477968624652542e-06
0.15197947330994954 0.1519717165909161 4.727608347461193e-07 7.2839581987408026e-06
0.09974781017486026 0.09974781017486026 0.0 0.0
0.0758968976785879 0.0758968976785879 0.0 0.0
0.044346890474866174 0.044346890474866174 0.0 0.0
0.08014698488575496 0.08014698488575496 0.0 0.0
0.1378757946354927 0.1378757946354927 0.0 0.0
0.17580588353534776 0.17567439698547793 1.3736583309134642e-05 0.00011774996656073778
0.20744467828069377 0.20767548234731878 -1.9411429853041333e-05 -0.00021139263677199293
0.25644930204683464 0.2589015006428475 -0.00033948427265910605 -0.002112714323353758
0.33783612153921133 0.3432644768396218 -0.0014357610541513828 -0.0039925942462591185
0.4834588802686196 0.46534830020015944 0.0020148412560968415 0.016095738812363366
0.7656768946148909 0.6146172084196259 0.052890236812470216 0.0981694493827947
1.1267372416515198 0.6904206667453223 0.1351553381012062 0.3011612368049913
1.6526973752754215 0.8269264562390112 0.2909137676055397 0.5348571514308704
2.3698832302468755 0.9719404489612217 0.5338868817993089 0.8640558994863448
3.4262169800306905 1.147935402586644 0.9302181223152783 1.3480634551287687
5.021518677935254 1.3570592590681791 1.59504927885357 2.069410140013503
7.321474999118026 1.586288881053663 2.6345285261217515 3.100657591942613
10.459209603639813 1.8198206481894457 4.195058989517911 4.4443299659324556
14.008206379480875 1.999969608100956 5.994237177842325 6.01399959353759
17.615428883409614 2.069696705713771 8.020192140298835 7.525540037397012
19.839926823149217 1.9446804515025353 9.393005950579102 8.502240421067574
18.604723562896375 1.7022081033024474 8.811141705505813 8.091373754088115
20.426748182320754 6.2016852237234055 7.252234637247155 6.972828321350193
18.604723562897117 1.7022081033018066 8.811141705506625 8.09137375408869
19.83992682314652 1.9446804515002782 9.39300595057883 8.502240421067413
17.615428883409315 2.0696967057159195 8.020192140297427 7.525540037395972
14.00820637947556 1.999969608099702 5.994237177840074 6.0139995935357895
10.459209603635621 1.819820648188037 4.195058989516419 4.444329965931165
7.321474999113764 1.586288881052464 2.6345285261202016 3.1006575919410992
5.021518677930981 1.3570592590671167 1.595049278852025 2.0694101400118385
3.4262169800262927 1.1479354025857684 0.9302181223136662 1.348063455126858
2.369883230242987 0.971940448960802 0.5338868817978554 0.8640558994843304
1.6526973752715546 0.8269264562381627 0.29091376760432996 0.5348571514290617
1.1267372416485315 0.6904206667446019 0.1351553381004327 0.30116123680349693
0.7656768946127475 0.6146172084187043 0.05289023681200134 0.09816944938204161
0.48345888026734724 0.4653483001991442 0.0020148412560146802 0.016095738812188384
0.3378361215384923 0.343264476838667 -0.0014357610541046435 -0.003992594246070052
0.2564493020462673 0.2589015006422405 -0.00033948427265337707 -0.002112714323319826
0.20744467828021587 0.20767548234681665 -1.941142985004195e-05 -0.0002113926367506531
0.1758058835350035 0.17567439698514237 1.3736583307990824e-05 0.00011774996655311035
0.13787579463522173 0.13787579463522173 0.0 0.0
0.08014698488565021 0.08014698488565021 0.0 0.0
0.0443468904747709 0.0443468904747709 0.0 0.0
0.024392742285424037 0.024392742285424037 0.0 0.0
0.06147723200539777 0.06147723200539777 0.0 0.0
0.12132013259302322 0.12132013259302322 0.0 0.0
0.17376702527297183 0.17370293854442898 6.040838194752111e-06 5.804589034815593e-05
0.22759174033188626 0.22711577282952278 8.162384340723983e-05 0.00039434365895625183
0.3062152665428457 0.3100860331025338 -0.0005946628747755473 -0.0032761036849126295
0.4357563866396687 0.4380728028993481 -0.0016851816189665286 -0.0006312346407126058
0.6974040729991646 0.5948926857539372 0.03549741747594854 0.06701396976927892
1.0655314237108198 0.6783345771681889 0.11844845947265076 0.26874838706998017
1.5884750743563336 0.8199965729617305 0.26769211204431276 0.5007863893502905
2.2657349480492472 0.9632890383521169 0.49151806538460435 0.8109278443125255
3.222186303771704 1.1333863373573507 0.843128655443962 1.2456713109703914
4.637008431098861 1.3411630983674865 1.416366908280271 1.8794784244511054
6.759241000457932 1.5865456133712175 2.364740594449245 2.8079547926374704
9.74998183649025 1.8639581197619284 3.7758324417112994 4.11019127501702
13.704365520154692 2.140455753105682 5.765009177167479 5.798900589881533
18.485375753171027 2.347187116183801 8.383782579516419 7.754406057470807
23.004095206810863 2.352253350821278 10.976149060188218 9.675692795801373
25.59448105804312 2.057304764037676 12.639017030472477 10.89815926353297
24.048003133486155 1.7608294206669566 11.943845423385621 10.343328289433577
26.588283093361156 7.942666479405187 9.82718121354138 8.818435400414586
24.048003133486123 1.7608294206663377 11.943845423385968 10.343328289433826
25.594481058042433 2.0573047640387596 12.639017030471424 10.89815926353226
23.004095206806632 2.352253350818638 10.976149060187277 9.675692795800714
18.485375753167503 2.3471871161851183 8.383782579513642 7.75440605746874
13.704365520148801 2.1404557531030224 5.765009177165675 5.798900589880096
9.749981836485556 1.8639581197619162 3.7758324417088063 4.110191275014833
6.759241000452877 1.5865456133708724 2.364740594446887 2.8079547926351185
4.637008431093323 1.3411630983669722 1.416366908277897 1.8794784244484548
3.2221863037664824 1.1333863373561814 0.8431286554421515 1.2456713109681485
2.2657349480447517 0.9632890383513009 0.4915180653830686 0.810927844310382
1.5884750743526617 0.8199965729609695 0.2676921120431722 0.5007863893485198
1.0655314237079172 0.6783345771670989 0.11844845947207133 0.26874838706874743
0.6974040729969037 0.5948926857528195 0.03549741747553412 0.06701396976855008
0.4357563866384777 0.4380728028982854 -0.001685181618993046 -0.0006312346408146854
0.3062152665422059 0.3100860331018443 -0.0005946628747659585 -0.0032761036848723652
0.22759174033139787 0.22711577282900858 8.162384340902495e-05 0.00039434365898036096
0.1737670252726039 0.17370293854406726 6.040838194052553e-06 5.804589034264557e-05
0.12132013259277902 0.12132013259277902 0.0 0.0
0.06147723200527595 0.06147723200527595 0.0 0.0
0.024392742285393745 0.024392742285393745 0.0 0.0
0.012615585529045157 0.012615585529045157 0.0 0.0
0.04495984345541287 0.04495984345541287 0.0 0.0
0.10409142015231197 0.10409142015231197 0.0 0.0
0.17122111916696803 0.171158289495085 5.622717784753524e-06 5.720695409827208e-05
0.251618853449486 0.2523275196508791 -7.51025984871783e-05 -0.0006335636029059292
0.3646573219597029 0.3668988286338433 -0.0008349867116825129 -0.0014065199624578714
0.5790284475308697 0.5443974307959717 0.012498789874593328 0.022132226860304537
0.9337274019163606 0.6537684398999106 0.0825198925336059 0.19743906948284418
1.4329278728683346 0.7868648314108675 0.2194299961089875 0.42663304534847935
2.0710543531645964 0.9297859312499367 0.4226173831163771 0.7186510387982834
2.930367136563445 1.0935653799113143 0.729937374456415 1.1068643821957156
4.153882234146246 1.290798727781556 1.2118828108155908 1.6512006955490974
5.9721735303536025 1.5320011650097938 1.998932228523536 2.441240136820272
8.56008360102765 1.813180257497618 3.162184568597266 3.5847187749327647
12.297851684520223 2.132705958781539 5.012837126372035 5.152308599366656
17.213143806129985 2.4700518003869654 7.577732079090605 7.165359926652413
22.914463711280842 2.703020644423787 10.701958126532535 9.509484940324516
28.384934948289672 2.618005900431451 13.981543493083741 11.785385554774479
31.506691100080136 2.1455680079559523 16.139768067267482 13.221355024856702
29.62350291567894 1.7899784576791862 15.222255717209798 12.611268740789956
33.07418913132881 9.798098319612023 12.493002226520826 10.783088585195967
29.623502915679325 1.7899784576797493 15.222255717209705 12.611268740789873
31.506691100077855 2.1455680079558332 16.139768067266154 13.221355024855862
28.3849349482828 2.618005900428689 13.981543493081276 11.78538555477283
22.914463711275108 2.7030206444226423 10.70195812652984 9.509484940322633
17.213143806123608 2.470051800385194 7.577732079087991 7.165359926650424
12.297851684514416 2.1327059587807162 5.012837126369327 5.1523085993643765
8.560083601022205 1.8131802574977356 3.162184568594379 3.584718774930089
5.972173530347383 1.5320011650096257 1.9989322285205644 2.4412401368171914
4.153882234139819 1.2907987277801483 1.211882810813278 1.651200695546393
2.930367136557906 1.0935653799101206 0.7299373744545005 1.1068643821932842
2.0710543531601187 0.9297859312487746 0.4226173831150288 0.7186510387963151
1.4329278728645412 0.7868648314101504 0.2194299961077792 0.4266330453466115
0.9337274019136576 0.6537684398990464 0.08251989253300675 0.19743906948160422
0.579028447529053 0.5443974307949808 0.012498789874322389 0.02213222685974989
0.3646573219588565 0.36689882863275364 -0.0008349867116318366 -0.001406519962265517
0.2516188534489551 0.2523275196503007 -7.510259848165842e-05 -0.0006335636028637988
0.1712211191666273 0.17115828949475226 5.622717783863718e-06 5.720695409117878e-05
0.10409142015209187 0.10409142015209187 0.0 0.0
0.044959843455283595 0.044959843455283595 0.0 0.0
0.012615585529036856 0.012615585529036856 0.0 0.0
0.006248979225889126 0.006248979225889126 0.0 0.0
0.031440572504664165 0.031440572504664165 0.0 0.0
0.08796796880259498 0.08796796880259498 0.0 0.0
0.17055451540211186 0.17053553194631382 1.3006158643001404e-06 1.7682839933716896e-05
0.28051072988154613 0.2817070286343917 -0.00014944336320277387 -0.0010468553896426475
0.44341614040797933 0.445422352348405 -0.0008740312608681935 -0.0011321806795575595
0.7534997010310701 0.6077852033894289 0.04078084248521349 0.10493365515642752
1.2130739787641078 0.7333841182365509 0.1552661201275516 0.32442374040000566
1.8128770333718967 0.8770545441358231 0.33625900183306273 0.5995634874030104
2.5918750317227506 1.035661004566279 0.6063587463906429 0.9498552807658286
3.6361028458931712 1.21781305768758 0.9978769510118929 1.4204128371936968
5.147856151604095 1.4438425367219394 1.623848058498418 2.0801655563837365
7.316939140431677 1.716079806758593 2.5659501099829005 3.034909223690181
10.566259794505749 2.043743377816513 4.135998791926691 4.386517624762544
14.975031746755871 2.408227036600235 6.341126623203851 6.2256780869517865
20.666208830248134 2.781793551856933 9.337238603207751 8.547176675183454
27.392575646306923 3.04986234107602 13.13229841009091 11.210414895139998
33.78160321739007 2.907590937943015 17.052526392358224 13.82148588708882
37.468609602764744 2.2456323193162886 19.69176195521805 15.531215328230406
35.46721884136964 1.7587925898544934 18.78341227894868 14.925013972566479
40.25746547143795 11.766255603086465 15.620126162540409 12.87108370581109
35.4672188413684 1.7587925898537429 18.783412278948422 14.925013972566251
37.468609602761006 2.2456323193161194 19.691761955215856 15.531215328229031
33.78160321738653 2.9075909379438425 17.052526392355556 13.821485887087134
27.392575646299886 3.0498623410749435 13.132298410087355 11.210414895137575
20.666208830242148 2.7817935518562034 9.337238603204705 8.547176675181245
14.975031746747664 2.408227036597877 6.341126623200584 6.225678086949204
10.566259794498706 2.0437433778157224 4.135998791923359 4.386517624759626
7.316939140424015 1.7160798067576135 2.5659501099794926 3.034909223686909
5.147856151596596 1.4438425367206054 1.6238480584954784 2.0801655563805115
3.636102845886868 1.2178130576866018 0.9978769510094955 1.4204128371907705
2.5918750317175236 1.035661004565276 0.606358746388814 0.9498552807634336
1.8128770333679372 0.8770545441354638 0.3362590018317401 0.5995634874007335
1.2130739787607556 0.733384118235529 0.15526612012683022 0.3244237403983961
0.7534997010287736 0.6077852033884684 0.04078084248475162 0.10493365515555385
0.4434161404068522 0.44542235234740724 -0.0008740312609060096 -0.0011321806796488875
0.2805107298810045 0.28170702863380404 -0.0001494433631973383 -0.0010468553896022502
0.17055451540183708 0.17053553194604407 1.3006158638795505e-06 1.768283992909949e-05
0.08796796880248148 0.08796796880248148 0.0 0.0
0.03144057250458332 0.03144057250458332 0.0 0.0
0.006248979225872757 0.006248979225872757 0.0 0.0
0.0031065649107636416 0.0031065649107636416 0.0 0.0
0.021287897780208273 0.021287897780208273 0.0 0.0
0.07481985294780519 0.07481985294780519 0.0 0.0
0.1748938075217679 0.17488447897625475 -1.392926486306911e-07 9.4678381617896e-06
0.3171471348425917 0.31677511906078787 0.00012517116752081123 0.0002468446142830216
0.556153372913065 0.5261545121764122 0.009297916741298477 0.020700943995354288
0.9532033309851728 0.6548809970622305 0.08679956110084745 0.21152277282209483
1.512580812397074 0.809372219810602 0.24356153253593343 0.45964706005053857
2.212998654567475 0.961365577383635 0.46944866455501766 0.7821844126288227
3.138774935995486 1.134864682397675 0.8090625080438932 1.1948477455539182
4.400988142340985 1.3414006945796166 1.310266990138792 1.7493204576225778
6.183388298533311 1.5928310182083218 2.0594139537171947 2.531143326607794
8.851086208514522 1.908564896014364 3.2961333342283985 3.6463879782717603
12.565390627067618 2.2776876308105707 5.061180961336517 5.2265220349205315
17.726330007786995 2.682860470360619 7.719229899756747 7.324239637669635
24.26210656051033 3.072164887430756 11.269935826834512 9.920005846245061
31.776364027815138 3.346524756612965 15.571047753571468 12.858791517630701
39.065841264315694 3.2653569609158692 20.053552890704708 15.746931412695119
43.50705613999243 2.4176635689555477 23.351492625754908 17.73789994528196
41.632735103771466 1.6050003488714313 22.70132168257306 17.32641307232698
48.198142745918524 13.767448659261369 19.21463083166643 15.216063254990718
41.63273510376845 1.6050003488698097 22.701321682572175 17.326413072326464
43.50705613998883 2.417663568956361 23.351492625752194 17.73789994528028
39.065841264306925 3.2653569609118334 20.0535528907018 15.746931412693296
31.776364027807535 3.346524756612194 15.571047753567342 12.858791517628003
24.26210656050165 3.072164887428915 11.269935826830492 9.920005846242237
17.726330007778657 2.682860470359132 7.719229899752851 7.324239637666672
12.565390627059704 2.277687630809614 5.061180961332706 5.226522034917385
8.851086208505588 1.9085648960131856 3.2961333342243546 3.646387978268049
6.1833882985246325 1.5928310182068655 2.0594139537135763 2.5311433266041914
4.400988142333724 1.3414006945782366 1.3102669901360613 1.7493204576194281
3.1387749359896304 1.1348646823968105 0.8090625080417172 1.1948477455511035
2.2129986545627367 0.9613655773825615 0.46944866455356243 0.782184412626613
1.5125808123929714 0.8093722198097888 0.24356153253469454 0.4596470600484881
0.9532033309823025 0.6548809970611342 0.0867995611004021 0.21152277282076593
0.5561533729116345 0.5261545121754156 0.009297916741167535 0.020700943995051423
0.3171471348419201 0.3167751190600577 0.0001251711675292381 0.0002468446143330973
0.17489380752146114 0.1748844789759542 -1.392926491735977e-07 9.467838156118176e-06
0.07481985294771543 0.07481985294771543 0.0 0.0
0.02128789778017438 0.02128789778017438 0.0 0.0
0.00310656491074862 0.00310656491074862 0.0 0.0
0.001473742536189841 0.001473742536189841 0.0 0.0
0.014249413189107059 0.014249413189107059 0.0 0.0
0.06703312749776105 0.06703312749776105 0.0 0.0
0.1885192938537645 0.1884164561956712 9.7558651427082e-06 9.308179295064185e-05
0.37308779865191355 0.3810782424763194 -0.0019244445230571514 -0.006065999301348763
0.6929523030448608 0.5867120304942343 0.02960564509953445 0.07663462745109213
1.181146328773523 0.7246570281884912 0.14625462400142697 0.310234676583605
1.822832077053971 0.8795251125386939 0.339896576496623 0.603410388018654
2.6432505726851896 1.0428649997672788 0.6270454601687914 0.9733401127491195
3.7129980092824297 1.2304403618002222 1.0307563098989374 1.4518013375832706
5.1909153880980154 1.459608541760162 1.6356256510761735 2.09568119526168
7.337215767673883 1.7478182368280282 2.5916336025710804 2.9977639282747757
10.346053024198449 2.096672119503732 3.957459038898994 4.2919218657957225
14.71883957887057 2.5134041632109834 6.1220670245667606 6.083368391092829
20.605967540069898 2.965058012216697 9.202441598580613 8.438467929272589
27.911210523270412 3.3595358858853697 13.25241489337811 11.299259744006928
36.05486378359856 3.565009499318347 18.051212776627438 14.438641507652784
43.97323072926672 3.524655218699844 22.969804280776213 17.47877122979067
49.59135686567748 2.9575659665686382 26.842803468552702 19.790987430556154
48.16754851397447 1.2616549856260106 27.03499638081158 19.870897147536866
56.815471454112966 15.095276756772494 23.758400848120523 17.961793849219962
48.167548513970935 1.2616549856251802 27.034996380809854 19.870897147535903
49.591356865671 2.957565966567486 26.842803468549356 19.79098743055418
43.973230729259456 3.52465521869994 22.969804280771623 17.478771229787892
36.054863783588715 3.565009499315989 18.051212776622922 14.438641507649823
27.911210523262493 3.359535885885159 13.252414893373514 11.299259744003813
20.605967540059645 2.96505801221532 9.202441598575476 8.438467929268846
14.71883957886033 2.5134041632087403 6.122067024562291 6.083368391089298
10.346053024188702 2.0966721195032907 3.957459038894011 4.291921865791401
7.3372157676642376 1.7478182368265478 2.591633602566916 2.997763928270772
5.190915388089654 1.45960854175873 1.6356256510727765 2.095681195258147
3.7129980092757564 1.230440361799311 1.030756309896293 1.4518013375801524
2.643250572679753 1.042864999766565 0.6270454601667879 0.9733401127463991
1.8228320770495543 0.8795251125377532 0.33989657649528404 0.603410388016517
1.1811463287701984 0.7246570281875496 0.14625462400069417 0.3102346765819545
0.6929523030429416 0.5867120304932283 0.029605645099234534 0.07663462745047886
0.37308779865117164 0.3810782424755328 -0.0019244445230460557 -0.0060659993013151324
0.1885192938534242 0.1884164561953307 9.755865142070194e-06 9.30817929514431e-05
0.06703312749763214 0.06703312749763214 0.0 0.0
0.014249413189084433 0.014249413189084433 0.0 0.0
0.0014737425361837841 0.0014737425361837841 0.0 0.0
0.0003126784250415813 0.0003126784250415813 0.0 0.0
0.009840552611605624 0.009840552611605624 0.0 0.0
0.06787515387339803 0.06787515387339803 0.0 0.0
0.21833713886055994 0.2183431994796743 1.2501714780865336e-05 -1.8562333895261066e-05
0.46058999199457407 0.45874457540427593 0.000945043704493853 0.0009003728858040932
0.8616243919559954 0.6760515570411543 0.056105131166187455 0.12946770374865357
1.4285812338823585 0.8262152767734674 0.2028556854405189 0.39951027166837183
2.1646601534331564 1.0139548716573474 0.428620482159869 0.7220847996159397
3.106902192099374 1.2248228920095663 0.7500096923783348 1.1320696077114725
4.375437153261471 1.4894474437920873 1.2239173136544048 1.6620723958149766
6.144317722410025 1.8389678691045326 1.9309073652496576 2.374442488055834
8.631729454429841 2.3027705957201796 2.949749676956359 3.3792091817533025
12.256932754845845 2.8962080285860736 4.558818494273397 4.801906231986372
17.35965497932167 3.634366015055618 6.9703400640762085 6.754948900189849
24.12010188434871 4.443286190714642 10.38804185650026 9.28877383713381
32.3108703140087 5.141066174252613 14.847082594898055 12.322721544858043
41.07617121827931 5.4660483600402054 19.985121285152772 15.62500157308634
49.02499529379752 5.2085919914095395 25.080689891082073 18.73571341130589
55.092697801424634 4.880300009602002 29.105559436930534 21.106838354892098
53.69471883629987 1.4187122989408838 30.362012338033853 21.913994199325135
81.63676814361777 32.25016960874285 28.63727105049067 20.749327484384246
53.694718836296076 1.4187122989403171 30.36201233803184 21.913994199323916
55.09269780141726 4.880300009601189 29.105559436926356 21.10683835488971
49.024995293787924 5.208591991408789 25.080689891076585 18.735713411302573
41.0761712182671 5.466048360036661 19.985121285147414 15.625001573083004
32.310870313995295 5.141066174246578 14.847082594893628 12.322721544855089
24.12010188433925 4.443286190716352 10.388041856493768 9.288773837129128
17.359654979310545 3.634366015054087 6.970340064070806 6.754948900185649
12.256932754835422 2.896208028585944 4.558818494267816 4.801906231981662
8.631729454418657 2.3027705957181244 2.9497496769516136 3.3792091817489185
6.144317722400451 1.8389678691029165 1.9309073652456987 2.3744424880518347
4.375437153253898 1.4894474437909289 1.2239173136513273 1.6620723958116428
3.1069021920933784 1.224822892009278 0.7500096923757946 1.1320696077083061
2.164660153427592 1.0139548716551652 0.428620482158499 0.7220847996139278
1.4285812338785888 0.8262152767725939 0.20285568543953547 0.3995102716664596
0.861624391953653 0.676051557040131 0.056105131165791716 0.12946770374773015
0.4605899919935718 0.4587445754034609 0.0009450437044384028 0.0009003728856725886
0.2183371388602093 0.21834319947929934 1.250171478375796e-05 -1.8562333873742905e-05
0.06787515387329052 0.06787515387329052 0.0 0.0
0.009840552611589476 0.009840552611589476 0.0 0.0
0.0003126784250383426 0.0003126784250383426 0.0 0.0
CELL_DATA 800
SCALARS Stress float 6
LOOKUP_TABLE default
102.97399136109092 -481.9348813414232 -184.2291786207379 -96.21477931706889 0.0 0.0
400.5706712577278 75.9789908485516 143.09560588259356 74.59022575843011 0.0 0.0
352.6128129705503 -15.802185086175975 100.84700236040713 -10.794952142699636 0.0 0.0
413.3989919477203 3.3171519965282017 124.5941911355632 -9.204095756111949 0.0 0.0
480.4830978198778 -7.181082224310214 147.43595589182024 -10.748584806054144 0.0 0.0
542.1971392857511 12.15723542144342 197.68053521666195 -8.996366054094041 0.0 0.0
599.9151631769566 26.17708749466756 247.28981250378462 -9.103640481671455 0.0 0.0
657.0429485995336 48.25106812974391 299.80937153071307 -9.266762109652284 0.0 0.0
713.4878677690574 73.3009307246611 351.788516720978 -9.279077411954784 0.0 0.0
770.1716459653323 99.73972840796615 402.27065704737225 -9.282478275511096 0.0 0.0
827.2912324599872 125.31468015425625 449.87568193525874 -9.207578553722357 0.0 0.0
885.4114447247537 151.36763728327537 495.5665160484331 -9.158617579860325 0.0 0.0
945.9675002410963 176.55645703033508 539.7342140565299 -9.201945075716742 0.0 0.0
1009.1826923974031 202.62157107715163 584.4759543163239 -9.323054355912603 0.0 0.0
1075.513327539601 232.13396481790363 632.058815561018 -9.503944551017728 0.0 0.0
1144.6005511989279 266.4966465913549 683.3833815095377 -9.500097487925395 0.0 0.0
1213.7471549774614 304.95213250178415 736.8833343742618 -8.902105361925814 0.0 0.0
1277.5965932244785 343.7788941232297 788.0288988822929 -7.527476491731449 0.0 0.0
1330.402834305511 378.5496448864384 831.6414686695623 -5.8245610178146805 0.0 0.0
1373.9560339528937 412.68933817268334 870.117740729962 -5.020942830654973 0.0 0.0
1373.9560339528502 412.68933817263877 870.1177407299401 5.0209428306430635 0.0 0.0
1330.4028343053567 378.54964488629685 831.6414686694162 5.82456101788165 0.0 0.0
1277.5965932246747 343.7788941234544 788.0288988823725 7.5274764917744825 0.0 0.0
1213.7471549777022 304.95213250206655 736.8833343743088 8.902105361985146 0.0 0.0
1144.6005511988897 266.4966465913526 683.3833815093601 9.500097487925695 0.0 0.0
1075.513327539291 232.13396481763186 632.0588155606969 9.503944551025116 0.0 0.0
1009.182692396978 202.6215710767811 584.475954315926 9.323054355898954 0.0 0.0
945.9675002408463 176.55645703016518 539.7342140562382 9.201945075690592 0.0 0.0
885.4114447245157 151.36763728313989 495.5665160481529 9.158617579897106 0.0 0.0
827.2912324594856 125.31468015386913 449.8756819348018 9.20757855368194 0.0 0.0
770.1716459646875 99.73972840743694 402.27065704682906 9.28247827548568 0.0 0.0
713.4878677684715 73.30093072419339 351.78851672048364 9.279077411944279 0.0 0.0
657.0429485989821 48.25106812932845 299.80937153023945 9.266762109660544 0.0 0.0
599.9151631765369 26.17708749442562 247.28981250341138 9.103640481653173 0.0 0.0
542.1971392853993 12.157235421292112 197.68053521637427 8.996366054077882 0.0 0.0
480.48309781953236 -7.181082224445152 147.43595589162638 10.748584806054708 0.0 0.0
413.39899194738894 3.3171519963296348 124.5941911354086 9.204095756123813 0.0 0.0
352.6128129703262 -15.8021850863286 100.84700236029765 10.794952142721034 0.0 0.0
400.57067125759704 75.97899084842439 143.09560588250753 -74.59022575830399 0.0 0.0
102.97399136166544 -481.9348813408622 -184.229178620205 96.21477931676213 0.0 0.0
19.245614273448496 -504.4179089658757 -220.49224935521357 -133.88386527759167 0.0 0.0
230.06823762324132 58.69927950720235 86.63025513913307 24.378210312212204 0.0 0.0
315.78974756687836 9.693321624918951 97.64492075753918 -7.171848515525198 0.0 0.0
367.90919429368006 0.2682371999640488 110.27017587682286 -29.55810202345037 0.0 0.0
448.67933568846166 -7.737576457710866 132.18700163577512 -30.215942815814156 0.0 0.0
512.34570569447 7.901412824069123 176.72351962963813 -27.19222526354326 0.0 0.0
575.4338290239112 21.731550568855397 226.19770959604455 -27.361567991641735 0.0 0.0
632.5635569590411 41.473887979227285 277.38951999423494 -26.85941923647464 0.0 0.0
687.5051382488364 64.28509214338305 328.25104930713303 -26.250327628986568 0.0 0.0
742.039619373183 88.45674479682498 377.74365038302426 -25.713935377150015 0.0 0.0
796.8902791806117 112.28508674699839 424.85052511433935 -25.124100980982526 0.0 0.0
853.1625155982645 134.8878281240353 469.24664373160954 -24.537442879598682 0.0 0.0
910.2261156025984 157.46334716329238 511.37167128300064 -24.1544155211239 0.0 0.0
970.1461855485984 180.7352558860615 553.5333530213692 -24.14928657385208 0.0 0.0
1033.174990306341 207.02385982111502 598.0660956873239 -24.318370717893647 0.0 0.0
1098.1504225699982 237.48010063507996 645.4579432744796 -24.102493679120307 0.0 0.0
1162.6066698943364 271.2929507799197 694.2523201327788 -22.64903912203546 0.0 0.0
1222.6169875240937 306.0604428826939 741.3382716648539 -19.61132696976368 0.0 0.0
1275.4266724279319 340.5674948910581 784.7174761868479 -15.51483144628923 0.0 0.0
1310.4465915850624 365.50303670898995 814.5681009377155 -9.488551392943712 0.0 0.0
1310.446591585119 365.50303670904975 814.5681009377134 9.488551392954502 0.0 0.0
1275.426672427698 340.567494890841 784.7174761866343 15.514831446372412 0.0 0.0
1222.6169875236983 306.060442882311 741.3382716645119 19.61132696978442 0.0 0.0
1162.606669893514 271.29295077911803 694.252320132118 22.649039122113805 0.0 0.0
1098.1504225693632 237.48010063446316 645.4579432739342 24.10249367907643 0.0 0.0
1033.1749903059574 207.02385982076342 598.0660956869616 24.318370717881454 0.0 0.0
970.1461855481635 180.735255885685 553.5333530209392 24.14928657390377 0.0 0.0
910.2261156021096 157.46334716287248 511.37167128255146 24.154415521126865 0.0 0.0
853.1625155976299 134.88782812348597 469.2466437310622 24.537442879624557 0.0 0.0
796.8902791800467 112.28508674654003 424.8505251138435 25.124100980964606 0.0 0.0
742.0396193728789 88.45674479665195 377.743650382709 25.713935377074456 0.0 0.0
687.5051382485806 64.28509214326989 328.25104930685455 26.25032762898542 0.0 0.0
632.5635569586358 41.473887978983534 277.3895199938744 26.859419236482452 0.0 0.0
575.4338290236083 21.731550568755736 226.19770959576547 27.36156799165156 0.0 0.0
512.345705694195 7.901412824039248 176.72351962943728 27.192225263517038 0.0 0.0
448.6793356881381 -7.7375764576902775 132.18700163566425 30.215942815821997 0.0 0.0
367.90919429349435 0.2682372000604136 110.27017587680047 29.55810202344498 0.0 0.0
315.7897475667244 9.693321624798052 97.6449207574567 7.171848515495307 0.0 0.0
230.06823762327886 58.69927950711473 86.63025513911808 -24.37821031229547 0.0 0.0
19.24561427384083 -504.41790896545376 -220.49224935479893 133.88386527737825 0.0 0.0
-14.949487518938412 -496.3430213133727 -219.1534332919951 -147.84595740770084 0.0 0.0
129.27191959452136 30.7718130274694 48.013119786597215 -29.583297448817405 0.0 0.0
256.0652474522034 22.859307478511845 83.67736647921456 -21.7321601435061 0.0 0.0
323.5512267468582 1.9565597109387267 97.64521640325711 -46.34115703352851 0.0 0.0
401.6048114830502 -1.9992106315777909 119.415997511947 -50.81393861236635 0.0 0.0
482.92898820441224 -0.9844544675672049 153.08176307546614 -48.718853403445486 0.0 0.0
545.6823312026886 18.40932280044236 203.27710607379123 -45.694246597803456 0.0 0.0
602.6610087556184 34.073694623997426 251.84422062572224 -44.62267975507358 0.0 0.0
657.5390349213185 54.988312607816894 301.792462228276 -43.265431261598934 0.0 0.0
710.6877263269649 77.03460231741158 350.56736894943595 -42.006084559031166 0.0 0.0
763.507716147375 98.4084121320879 396.9302157440189 -40.887456479523784 0.0 0.0
816.5943035555008 118.87672394245237 440.4439613345917 -39.75505621837766 0.0 0.0
871.8126572036542 138.11153036948423 481.2565552911458 -39.046915430610404 0.0 0.0
928.7361866375238 158.96586497043972 521.4635168631328 -38.87880613770026 0.0 0.0
987.9989132374271 181.90268872781564 562.7268667141794 -39.03530982486283 0.0 0.0
1048.6952954363223 208.1004010374329 605.9640707595622 -38.620260257577854 0.0 0.0
1108.3102232904255 236.94824703494982 649.8220603789892 -36.49821374849415 0.0 0.0
1165.2803382766888 268.3269245321264 693.594051509069 -32.07345884335897 0.0 0.0
1214.8569516742898 298.90450122704107 733.4127530560095 -25.067790456183353 0.0 0.0
1246.7149628279292 319.7488427273686 759.7833667122126 -13.730121477106714 0.0 0.0
1246.7149628280877 319.74884272754196 759.7833667123078 13.730121477188627 0.0 0.0
1214.8569516739144 298.90450122667903 733.4127530557595 25.06779045626782 0.0 0.0
1165.2803382764062 268.3269245318636 693.5940515088456 32.073458843408645 0.0 0.0
1108.3102232897186 236.94824703425888 649.8220603784107 36.49821374855321 0.0 0.0
1048.695295435679 208.10040103681573 605.9640707590074 38.62026025763897 0.0 0.0
987.9989132370899 181.90268872752264 562.7268667138279 39.035309824885054 0.0 0.0
928.7361866371317 158.9658649700965 521.463516862765 38.878806137704856 0.0 0.0
871.812657203265 138.11153036916426 481.25655529079984 39.04691543061348 0.0 0.0
816.5943035551951 118.87672394224617 440.4439613343092 39.755056218399666 0.0 0.0
763.5077161471621 98.40841213200801 396.93021574378616 40.887456479538855 0.0 0.0
710.6877263266828 77.03460231724904 350.5673689491558 42.00608455896959 0.0 0.0
657.5390349210115 54.988312607669265 301.7924622279688 43.26543126160945 0.0 0.0
602.6610087553807 34.07369462396351 251.84422062548038 44.62267975512132 0.0 0.0
545.6823312022061 18.40932280017499 203.27710607343096 45.69424659783027 0.0 0.0
482.92898820408334 -0.9844544676334674 153.08176307527472 48.71885340344724 0.0 0.0
401.60481148270304 -1.9992106315690306 119.41599751185159 50.81393861235594 0.0 0.0
323.55122674662584 1.9565597108871757 97.64521640317325 46.34115703347995 0.0 0.0
256.0652474521344 22.85930747847008 83.67736647918132 21.732160143436708 0.0 0.0
129.2719195946405 30.77181302759977 48.01311978667208 29.583297448685034 0.0 0.0
-14.949487518638321 -496.3430213129778 -219.15343329161607 147.84595740757015 0.0 0.0
-22.737413154114655 -474.13786171094773 -200.2476487557713 -150.84229925891734 0.0 0.0
69.80658973723993 4.389300314028253 22.258767015380446 -74.9888782737552 0.0 0.0
196.29928890886123 27.045438715749178 67.00341828738311 -45.22013309778245 0.0 0.0
276.1730715361655 6.302741804317298 84.74274400214482 -63.1776880577953 0.0 0.0
351.4667305565031 0.4909636025921569 105.40758168873825 -71.92636473153634 0.0 0.0
437.4782169378222 -3.530819527524211 131.8773444856505 -71.47028967248386 0.0 0.0
507.15108176490264 11.705393637676236 175.92119530687998 -64.82965604164234 0.0 0.0
567.1462256865902 27.31048641795455 223.9122816317355 -63.11334510977771 0.0 0.0
621.994731013834 45.142401290414526 271.70655097130185 -60.47651840931855 0.0 0.0
674.3076191935072 65.00492806653334 319.4954021171002 -58.38758589548883 0.0 0.0
725.6296755281397 84.30710432408515 365.5127699068563 -56.62022724050484 0.0 0.0
777.157541697042 102.40721113126756 408.9223366883041 -54.919337519255166 0.0 0.0
829.1791417114853 119.11700046993994 448.6876606115358 -53.887842580848115 0.0 0.0
884.1142295512167 137.14927411229422 487.6091306270296 -53.66365845439309 0.0 0.0
940.2543770017433 156.70309203048478 526.1225615733551 -53.68386342259097 0.0 0.0
995.691482851059 178.53451813187985 564.736105082688 -53.03254740670837 0.0 0.0
1050.7441141129548 202.55649380849516 603.913712630172 -50.502003767966016 0.0 0.0
1103.7658453094095 229.2225700391732 643.3162660141165 -44.823715110973886 0.0 0.0
1150.465762123957 255.62486467029893 679.6479399169083 -34.80297854974787 0.0 0.0
1181.165088373319 273.77336881207043 704.2379025615571 -18.24942281148836 0.0 0.0
1181.1650883731672 273.773368811935 704.2379025614594 18.24942281159004 0.0 0.0
1150.4657621237209 255.62486467009262 679.6479399166716 34.802978549900146 0.0 0.0
1103.765845309255 229.22257003906645 643.316266013941 44.82371511115508 0.0 0.0
1050.7441141130985 202.55649380869923 603.9137126302039 50.50200376808405 0.0 0.0
995.6914828510602 178.5345181319261 564.7361050826374 53.03254740674501 0.0 0.0
940.2543770012644 156.70309203003615 526.1225615729669 53.68386342260703 0.0 0.0
884.1142295506926 137.1492741118185 487.60913062660353 53.66365845441264 0.0 0.0
829.1791417112618 119.11700046979635 448.68766061131066 53.88784258087405 0.0 0.0
777.1575416969246 102.40721113126015 408.92233668813645 54.91933751926287 0.0 0.0
725.6296755277124 84.30710432377408 365.5127699064695 56.620227240518666 0.0 0.0
674.3076191933237 65.00492806649471 319.4954021168645 58.387585895436644 0.0 0.0
621.9947310137405 45.14240129051447 271.70655097116867 60.47651840934779 0.0 0.0
567.1462256862184 27.310486417767954 223.91228163141972 63.113345109755016 0.0 0.0
507.15108176441726 11.705393637406956 175.92119530654003 64.82965604164762 0.0 0.0
437.4782169375244 -3.53081952743703 131.877344485554 71.47028967240757 0.0 0.0
351.46673055621153 0.49096360261105065 105.40758168866219 71.92636473143193 0.0 0.0
276.17307153598466 6.302741804331305 84.74274400209477 63.17768805767146 0.0 0.0
196.29928890886444 27.04543871579936 67.00341828739913 45.22013309763087 0.0 0.0
69.80658973735908 4.3893003142226785 22.258767015474525 74.98887827358226 0.0 0.0
-22.737413153886024 -474.1378617105498 -200.24764875543147 150.84229925881766 0.0 0.0
-19.065831304212637 -443.884975286255 -174.2361271122354 -149.31656104129766 0.0 0.0
33.03793365721862 -18.031150321431536 4.502035000736127 -109.32126658224328 0.0 0.0
143.46853012920874 25.918482420644192 50.81610376495588 -71.25004230600939 0.0 0.0
226.92351358696123 10.979988293883574 71.37105056425344 -80.8907908283826 0.0 0.0
298.3410554659433 1.2748440419032365 89.81848268468025 -91.75577788780056 0.0 0.0
379.00075802948345 -2.069581027484486 112.96662825396487 -93.92741017356572 0.0 0.0
461.6317118535824 3.588866383367799 147.03774775894067 -87.91808607051271 0.0 0.0
525.4434369267566 20.63901498003186 192.83431718426704 -81.15086194908854 0.0 0.0
579.2159206016544 34.96037630653061 237.74778348115782 -78.43049929133524 0.0 0.0
631.8126925931566 52.54623687274619 284.1029778982427 -75.19397671446539 0.0 0.0
682.4283679597596 69.67176599326828 329.58444341895654 -72.58500283826913 0.0 0.0
732.1818051298334 85.44717890454376 372.87067623836566 -70.19364577928467 0.0 0.0
782.8603325025597 100.04182613409958 413.1859111981175 -68.84677665403045 0.0 0.0
834.4040812154346 115.44432452423476 450.86405899244147 -68.42441687751355 0.0 0.0
887.1153558325666 131.58446007606756 486.82736619746447 -68.32386596277993 0.0 0.0
939.5439933195938 149.08695404299417 522.1246918630663 -67.49150791941457 0.0 0.0
989.045113775421 167.93279284097153 556.086721008469 -64.59260943832122 0.0 0.0
1037.234091290149 188.99103916325015 590.314561326368 -57.875339484628995 0.0 0.0
1081.3603646693623 210.8406454969309 623.1452724627185 -45.03721266004616 0.0 0.0
1112.2085056012997 226.77913192476188 646.8598048281092 -23.366671336382673 0.0 0.0
1112.208505600994 226.7791319244601 646.8598048279365 23.36667133647802 0.0 0.0
1081.3603646691026 210.84064549671854 623.1452724625569 45.03721266025474 0.0 0.0
1037.2340912905129 188.9910391636803 590.3145613265821 57.87533948479361 0.0 0.0
989.0451137752317 167.9327928408399 556.0867210082824 64.59260943842592 0.0 0.0
939.5439933195906 149.08695404303518 522.1246918629621 67.49150791945291 0.0 0.0
887.1153558325436 131.58446007611923 486.8273661973822 68.32386596285866 0.0 0.0
834.404081215007 115.44432452385388 450.86405899208495 68.42441687752901 0.0 0.0
782.860332502102 100.0418261337245 413.18591119772225 68.8467766541048 0.0 0.0
732.1818051295292 85.44717890432753 372.87067623806723 70.1936457792691 0.0 0.0
682.4283679592356 69.67176599285598 329.5844434185305 72.58500283829518 0.0 0.0
631.8126925925908 52.54623687226289 284.1029778977584 75.19397671439557 0.0 0.0
579.2159206013552 34.960376306439386 237.74778348089092 78.43049929139823 0.0 0.0
525.4434369263458 20.639014979836666 192.8343171839622 81.15086194908382 0.0 0.0
461.6317118529611 3.588866382952819 147.0377477585788 87.91808607049597 0.0 0.0
379.0007580290991 -2.069581027554756 112.96662825382788 93.92741017347404 0.0 0.0
298.34105546561835 1.2748440417476203 89.81848268453808 91.75577788770406 0.0 0.0
226.92351358682274 10.979988293891315 71.37105056421422 80.89079082827266 0.0 0.0
143.4685301291918 25.918482420606423 50.81610376493947 71.2500423058514 0.0 0.0
33.03793365726173 -18.03115032136121 4.502035000770155 109.32126658203512 0.0 0.0
-19.065831304046448 -443.8849752858856 -174.2361271119392 149.31656104117832 0.0 0.0
-11.849874956945918 -408.72591006292055 -147.1455188125754 -145.61679615760508 0.0 0.0
8.354095448272098 -36.14118213835589 -8.336126007025138 -134.35265549774044 0.0 0.0
98.37549359057215 22.276747905222276 36.19567244873833 -96.00894729964364 0.0 0.0
177.55774499941634 14.37804253167113 57.580736259326244 -98.64847249877867 0.0 0.0
243.3917923287875 3.2645314847613394 73.95433896671997 -109.25116502290533 0.0 0.0
312.07793133237215 -1.4078094510851757 93.29849936515024 -114.30721840037288 0.0 0.0
391.96854172693656 0.35322937087024475 119.77590653659595 -111.75504412654324 0.0 0.0
468.2142178404987 11.047484593668793 157.07598548089652 -102.91268437660361 0.0 0.0
528.3581787228724 24.99004399152559 199.89397852325462 -96.82607005988406 0.0 0.0
580.7111415254998 39.626741779803154 243.52417947315598 -92.9451589524085 0.0 0.0
630.7859617577755 54.193494938682356 287.4293092951186 -89.11610171943947 0.0 0.0
680.327802792307 68.01717693036107 330.9848092283402 -85.95738034864532 0.0 0.0
729.5390932311411 80.79375779844035 372.2555919933295 -84.04060817642045 0.0 0.0
779.5038514795312 93.65456176687297 410.42650067376144 -83.434493415505 0.0 0.0
829.1973714961528 106.36187599859947 444.7746012628327 -83.10173870998052 0.0 0.0
876.5867532352373 120.06572715293998 476.4152118544445 -81.90479973299273 0.0 0.0
922.004075062262 133.44246172430292 505.97254251774734 -78.81660919455865 0.0 0.0
965.0208473444985 147.7738309105368 534.4825312394461 -71.29664330102194 0.0 0.0
1005.8741148807732 164.30959980656272 563.1343844832043 -56.02115292361311 0.0 0.0
1037.9645234045474 178.06999897093914 586.5395485990678 -29.432262883965176 0.0 0.0
1037.9645234046316 178.06999897103572 586.5395485991403 29.43226288407321 0.0 0.0
1005.8741148807361 164.3095998066031 563.1343844832124 56.02115292386112 0.0 0.0
965.0208473443842 147.7738309104983 534.4825312393951 71.29664330122104 0.0 0.0
922.0040750617627 133.44246172385732 505.9725425174026 78.81660919467637 0.0 0.0
876.5867532347542 120.06572715246594 476.4152118540625 81.90479973298818 0.0 0.0
829.1973714957489 106.3618759982451 444.7746012625195 83.1017387100147 0.0 0.0
779.5038514794776 93.65456176688448 410.426500673671 83.43449341553847 0.0 0.0
729.5390932309003 80.79375779830782 372.25559199313807 84.04060817650128 0.0 0.0
680.3278027920863 68.01717693025155 330.9848092281396 85.95738034866253 0.0 0.0
630.7859617573909 54.193494938425516 287.4293092947952 89.11610171944648 0.0 0.0
580.7111415252375 39.626741779652946 243.52417947289908 92.94515895231655 0.0 0.0
528.3581787225245 24.990043991354234 199.89397852297571 96.8260700598668 0.0 0.0
468.21421784000114 11.047484593347514 157.0759854805653 102.91268437654375 0.0 0.0
391.9685417265132 0.3532293707511833 119.77590653640993 111.75504412650702 0.0 0.0
312.07793133208577 -1.4078094510641472 93.29849936507901 114.30721840021866 0.0 0.0
243.39179232854042 3.2645314847012052 73.95433896662998 109.25116502280507 0.0 0.0
177.55774499931454 14.378042531670197 57.58073625929542 98.64847249864417 0.0 0.0
98.37549359055615 22.276747905227616 36.195672448735124 96.00894729946108 0.0 0.0
8.354095448293982 -36.141182138297715 -8.336126007001116 134.35265549756966 0.0 0.0
-11.849874956866927 -408.7259100626012 -147.14551881235522 145.61679615750106 0.0 0.0
-6.9392930388872855 -367.7731070058326 -121.05144341450253 -138.86556732806517 0.0 0.0
-9.26669830286641 -51.40446656830143 -18.20134946135035 -152.38896790121225 0.0 0.0
59.746361729130825 17.850041492780967 23.278920966573537 -117.50948335896678 0.0 0.0
129.43401874771502 16.45795425021933 43.76759189938029 -115.3481094663763 0.0 0.0
187.20122802606963 5.716128302860671 57.8643259982768 -124.2522166838229 0.0 0.0
244.79875274043997 -0.6534438430697965 73.13091274532528 -131.98545960410584 0.0 0.0
310.5451802557588 -1.0984227058946885 93.31823500950028 -133.03541496905916 0.0 0.0
386.2105684723876 3.757700125636102 120.93492652110197 -127.53342254211708 0.0 0.0
457.92853526683916 13.79354492476965 156.58784394070375 -118.2097005563585 0.0 0.0
516.7502197824922 26.729293297887747 197.14294371280988 -111.81849301574609 0.0 0.0
566.6556814519092 37.91882933381788 237.52466992608512 -107.11984935691507 0.0 0.0
617.0601525306034 49.886823640464954 280.4389225398375 -102.76238623677936 0.0 0.0
666.4809731133903 60.78989659133426 322.9020616478446 -100.00717517772833 0.0 0.0
715.1140184436806 71.72411912715101 362.8058821926795 -98.84577742071552 0.0 0.0
761.7110734295222 81.17272023823844 396.8518515979771 -98.10138944345536 0.0 0.0
806.5140109129543 90.99721067151319 426.8776050754732 -96.62722938692406 0.0 0.0
846.7830493276858 99.3617642694646 452.2619904162836 -93.04271254201846 0.0 0.0
883.8526343753011 106.49701224623094 474.8380146380631 -85.00383096254653 0.0 0.0
921.50130803928 115.45858507853566 498.3582995729219 -68.11037864247322 0.0 0.0
956.2644221289927 126.71304234320269 522.0045458060375 -37.0130662186455 0.0 0.0
956.2644221290698 126.7130423433235 522.0045458060707 37.01306621882767 0.0 0.0
921.5013080391334 115.45858507848975 498.3582995728288 68.11037864274647 0.0 0.0
883.852634375259 106.4970122463063 474.8380146380247 85.00383096278 0.0 0.0
846.7830493274934 99.36176426934726 452.2619904161353 93.0427125421505 0.0 0.0
806.5140109130632 90.99721067168952 426.87760507551843 96.62722938697844 0.0 0.0
761.7110734293962 81.17272023820809 396.85185159786664 98.10138944354061 0.0 0.0
715.1140184436059 71.72411912714666 362.8058821925892 98.84577742074651 0.0 0.0
666.4809731130342 60.789896591041355 322.90206164756063 100.00717517778548 0.0 0.0
617.0601525305086 49.88682364056592 280.4389225397341 102.76238623686989 0.0 0.0
566.6556814518598 37.91882933398332 237.5246699260108 107.11984935695399 0.0 0.0
516.750219782254 26.72929329781578 197.14294371261323 111.81849301570338 0.0 0.0
457.9285352665987 13.793544924821521 156.5878439405663 118.20970055639552 0.0 0.0
386.2105684722237 3.757700126077819 120.93492652114669 127.53342254215852 0.0 0.0
310.54518025553625 -1.098422705717712 93.31823500947992 133.03541496899157 0.0 0.0
244.79875274032597 -0.6534438428930178 73.13091274534571 131.98545960390857 0.0 0.0
187.2012280259075 5.716128302797445 57.86432599821072 124.25221668367254 0.0 0.0
129.4340187475301 16.457954250011966 43.767591899262605 115.34810946620655 0.0 0.0
59.74636172914871 17.850041492819134 23.27892096659035 117.5094833587597 0.0 0.0
-9.266698302826644 -51.40446656818374 -18.201349461303117 152.38896790100517 0.0 0.0
-6.939293038868545 -367.7731070054849 -121.05144341433159 138.86556732793053 0.0 0.0
-7.33170518232172 -325.6897695901103 -100.77103168170929 -131.73116315790898 0.0 0.0
-22.168994532965883 -61.245550375093615 -25.024363472417846 -162.49220159820305 0.0 0.0
26.15066135711106 13.002921156503307 11.746074754084308 -135.35793873289958 0.0 0.0
83.1783127468882 17.523948309569807 30.210678316937397 -129.85144638091862 0.0 0.0
130.63932107912868 8.138646947094305 41.62803338888908 -136.77853178677827 0.0 0.0
174.82604699233548 1.1066761148498425 52.73404522980825 -145.25320307303468 0.0 0.0
223.6916953145379 -1.3592108373609881 66.8469371905 -150.08166482507943 0.0 0.0
282.93880970255026 0.7214225333287021 86.1048306716763 -148.85291109156367 0.0 0.0
352.55323483224953 3.9108243450290052 110.41039465384245 -143.45342579962482 0.0 0.0
421.68598208777433 13.649517611370307 143.30482006706706 -134.04959509394664 0.0 0.0
481.60446742907294 20.902632976375216 178.38368076549204 -128.54193558799852 0.0 0.0
532.3773577866666 30.309451207356112 217.12738811868533 -121.87680683219315 0.0 0.0
583.8803511980326 40.22069457015459 259.6060216682064 -117.75835947611284 0.0 0.0
633.5592878597452 48.92923526718441 301.55524986061243 -115.4133635929654 0.0 0.0
680.0766330234102 56.143421822036515 338.5566963879046 -113.82221626860384 0.0 0.0
721.4965350286529 61.74195930043094 368.1932901588898 -111.68779360687358 0.0 0.0
758.7101928587117 65.39861986350141 391.9018487841369 -107.64469580535108 0.0 0.0
791.1932125680204 66.07854131726242 410.51142489632 -98.74447584639987 0.0 0.0
821.8431274069071 64.45067957858032 426.11716557592246 -81.14634230604473 0.0 0.0
859.1674193540655 70.92716330622238 448.85757277094626 -46.84255393875868 0.0 0.0
859.1674193538468 70.92716330603008 448.8575727708235 46.842553938943695 0.0 0.0
821.8431274062432 64.45067957798103 426.11716557553245 81.14634230629677 0.0 0.0
791.1932125672729 66.07854131658983 410.5114248958542 98.7444758465958 0.0 0.0
758.7101928585481 65.39861986340715 391.90184878400385 107.6446958054878 0.0 0.0
721.4965350287399 61.74195930058637 368.19329015888377 111.68779360691946 0.0 0.0
680.0766330233171 56.14342182203808 338.5566963878445 113.82221626867712 0.0 0.0
633.5592878595638 48.929235267099216 301.55524986047305 115.41336359302417 0.0 0.0
583.8803511977776 40.22069456995783 259.6060216679961 117.75835947615951 0.0 0.0
532.3773577861643 30.30945120693472 217.12738811832878 121.87680683221276 0.0 0.0
481.60446742863127 20.90263297602052 178.38368076517497 128.54193558798983 0.0 0.0
421.68598208746863 13.649517611261256 143.3048200668748 134.04959509389457 0.0 0.0
352.55323483191125 3.910824344989643 110.41039465371 143.45342579965043 0.0 0.0
282.9388097021075 0.721422533075712 86.1048306714629 148.85291109154147 0.0 0.0
223.69169531428054 -1.3592108374017133 66.84693719040945 150.08166482496182 0.0 0.0
174.82604699223987 1.1066761148882787 52.73404522979256 145.25320307285037 0.0 0.0
130.6393210791004 8.138646947170091 41.628033388904036 136.77853178657648 0.0 0.0
83.1783127468703 17.523948309659744 30.21067831695901 129.85144638073498 0.0 0.0
26.150661357134275 13.002921156525456 11.746074754097918 135.35793873275333 0.0 0.0
-22.16899453295307 -61.24555037506372 -25.024363472405035 162.49220159803548 0.0 0.0
-7.331705182371859 -325.68976958980164 -100.77103168161388 131.73116315780547 0.0 0.0
-16.70425646862107 -283.93563390621284 -90.15087269773835 -123.34864902125804 0.0 0.0
-33.13438649529162 -65.78689677065749 -29.67555679543408 -167.5537197058801 0.0 0.0
-3.2608871080353894 8.486917679236676 1.5678091713603861 -148.7604548510264 0.0 0.0
38.93647146738472 17.75610562983225 17.007773129165088 -141.53261096492585 0.0 0.0
74.09385837670006 10.292432820276517 25.31449994674069 -146.27977066174753 0.0 0.0
104.09544396217625 3.3040481212664017 32.18736051601074 -154.63812023345457 0.0 0.0
135.09651721029965 -0.3465490190283891 40.3659229847332 -161.67702167228873 0.0 0.0
170.9313523516182 -0.23888477871238178 51.564966181470346 -163.24229064387998 0.0 0.0
215.48047618622937 0.29873542237786266 65.65044879619967 -162.64665504374125 0.0 0.0
268.5739605855728 3.6154942446368104 84.64905703295148 -157.87718267274707 0.0 0.0
333.39912203876736 7.795384468515162 109.41724760211045 -152.79550023066855 0.0 0.0
397.71380047771913 9.776256985367773 137.53632530784316 -147.71742860447017 0.0 0.0
457.40746867550445 18.363279031246076 174.03498117411095 -140.90414439155703 0.0 0.0
512.5905861838603 25.422215205121194 214.61383041008196 -135.32668440705234 0.0 0.0
561.26103777501 30.167921071200144 253.67910000827388 -131.27082916457266 0.0 0.0
603.0148310531576 32.742019733607926 286.8327355064338 -127.61006491701036 0.0 0.0
637.5524993015508 30.463700872855085 311.2827118375558 -122.780893185336 0.0 0.0
672.4648935772334 26.79381534124326 332.5811320571166 -112.74266548340483 0.0 0.0
698.9682999163972 13.400848951168207 343.35780986806225 -94.52634214889844 0.0 0.0
735.3250566190158 7.053855565918873 360.19617528562105 -59.75807497099453 0.0 0.0
735.3250566189314 7.053855565866968 360.19617528556677 59.75807497120939 0.0 0.0
698.9682999164255 13.40084895137008 343.35780986812904 94.52634214920897 0.0 0.0
672.4648935769505 26.79381534113982 332.58113205697725 112.74266548369857 0.0 0.0
637.5524993012559 30.463700872615206 311.2827118373585 122.78089318549164 0.0 0.0
603.0148310529847 32.7420197334635 286.8327355063026 127.61006491700263 0.0 0.0
561.2610377749554 30.167921071159448 253.67910000819234 131.27082916455794 0.0 0.0
512.5905861838594 25.42221520517746 214.61383041006812 135.32668440706848 0.0 0.0
457.40746867563774 18.363279031525085 174.03498117421915 140.90414439164675 0.0 0.0
397.7138004777356 9.776256985702561 137.53632530790807 147.7174286044939 0.0 0.0
333.3991220386149 7.795384468594515 109.41724760206559 152.79550023067037 0.0 0.0
268.57396058536824 3.6154942445814786 84.64905703286104 157.8771826726778 0.0 0.0
215.4804761860833 0.2987354224254517 65.65044879616283 162.6466550437331 0.0 0.0
170.93135235125305 -0.23888477911473327 51.5649661812386 163.24229064380617 0.0 0.0
135.09651721013512 -0.34654901912058467 40.36592298465687 161.6770216721515 0.0 0.0
104.09544396214436 3.3040481212682846 32.18736051600258 154.6381202332726 0.0 0.0
74.09385837671438 10.292432820320574 25.314499946758637 146.27977066156504 0.0 0.0
38.93647146737271 17.7561056298149 17.00777312915628 141.53261096472943 0.0 0.0
-3.260887107991621 8.486917679310336 1.5678091713956142 148.76045485085348 0.0 0.0
-33.13438649523164 -65.78689677054923 -29.67555679538374 167.55371970570337 0.0 0.0
-16.704256468645458 -283.9356339059282 -90.15087269766727 123.34864902112756 0.0 0.0
-19.61140543086667 -241.67254392975906 -78.33763346200642 -113.18087905973991 0.0 0.0
-42.655917207075845 -66.99646837906909 -32.895026752233576 -169.02173187320813 0.0 0.0
-29.5782891728293 4.774235245838693 -7.441216178097181 -157.55229765630014 0.0 0.0
-3.2943092082744774 17.358883458195656 4.219372274976354 -149.85045887492683 0.0 0.0
18.027797691460602 12.048048027635257 9.020879145293742 -152.5464462912603 0.0 0.0
32.86097744702743 5.495551825586753 11.499122560183295 -159.9132492683384 0.0 0.0
44.9366212235264 1.437377699333231 13.901054665585058 -167.20894808286852 0.0 0.0
57.6521344928984 -0.19025209168201007 17.19952207734553 -172.51922862228344 0.0 0.0
72.86646178690363 -0.08160554786284102 21.984296523044893 -171.85801939601527 0.0 0.0
91.16401736497907 0.09817468054690082 27.795889171907806 -172.347048377808 0.0 0.0
115.4013265723884 1.9349733324951988 36.63798583166652 -167.88816383878273 0.0 0.0
142.1791788161012 1.5239403321774425 45.8557560279612 -167.339016057745 0.0 0.0
179.0933214202498 4.033988978982087 59.95503619276136 -165.25097607992618 0.0 0.0
229.0431267832221 5.937316986291844 79.15833012967228 -161.0157065757121 0.0 0.0
281.1347804493759 7.40601375377436 103.75437516244493 -154.1599834077448 0.0 0.0
338.0015686907407 7.518408631359399 134.9621894748866 -146.9945496880732 0.0 0.0
394.80978938553864 -3.9277785945803743 163.64545183269516 -138.88146802877256 0.0 0.0
449.6452206778039 -16.000945237241154 193.66834590459422 -129.06466785095606 0.0 0.0
508.122867802788 -29.559381658725613 225.55103582633683 -107.47675466050363 0.0 0.0
535.3120857639345 -74.38726854506201 225.92584328906636 -73.83932331482829 0.0 0.0
535.3120857641904 -74.38726854472536 225.92584328922942 73.83932331507457 0.0 0.0
508.1228678024934 -29.55938165884558 225.55103582619577 107.47675466091906 0.0 0.0
449.64522067749215 -16.00094523745217 193.66834590440243 129.06466785129396 0.0 0.0
394.80978938522003 -3.927778595004149 163.64545183246258 138.8814680288756 0.0 0.0
338.0015686907653 7.518408631343327 134.9621894748889 146.99454968808277 0.0 0.0
281.1347804492839 7.40601375369814 103.75437516239455 154.1599834077839 0.0 0.0
229.04312678313974 5.9373169861971675 79.15833012961687 161.01570657575016 0.0 0.0
179.0933214206013 4.03398897955579 59.95503619303311 165.2509760800465 0.0 0.0
142.17917881620318 1.5239403324442904 45.85575602807116 167.33901605778027 0.0 0.0
115.401326572485 1.9349733326411886 36.6379858317362 167.88816383875974 0.0 0.0
91.16401736495665 0.09817468044670008 27.795889171867373 172.34704837770585 0.0 0.0
72.86646178699964 -0.0816055476590094 21.984296523133644 171.8580193960086 0.0 0.0
57.65213449308408 -0.1902520911874266 17.19952207754997 172.51922862221986 0.0 0.0
44.93662122359777 1.4373776995233256 13.9010546656636 167.20894808274764 0.0 0.0
32.86097744707807 5.495551825597282 11.499122560201931 159.9132492681645 0.0 0.0
18.02779769153394 12.048048027679197 9.020879145329125 152.54644629105832 0.0 0.0
-3.2943092082723426 17.35888345812947 4.219372274957138 149.85045887470585 0.0 0.0
-29.578289172784462 4.77423524585791 -7.441216178077964 157.552297656108 0.0 0.0
-42.65591720704859 -66.99646837904815 -32.89502675221931 169.0217318730302 0.0 0.0
-19.611405430851388 -241.6725439295151 -78.33763346193177 113.18087905958865 0.0 0.0
-20.125597129042347 -201.26930192623843 -66.41846971658423 -102.72846415572091 0.0 0.0
-50.45401583122387 -64.98618266544744 -34.63205954900138 -166.61049026458826 0.0 0.0
-53.6926625588405 1.750523000478402 -15.582114053903847 -162.0016305292802 0.0 0.0
-43.62812192601035 16.572487469419237 -8.116231645245458 -154.43565883328435 0.0 0.0
-37.20880802965743 13.336106134557282 -7.157525235111638 -155.06510919207764 0.0 0.0
-38.32359730775427 7.475819399032548 -9.242930852865449 -160.94898617075586 0.0 0.0
-45.402484806922466 3.2282184444505777 -12.640067098762671 -167.4937136448425 0.0 0.0
-56.949089389480235 1.0454820945518115 -16.732484459822146 -172.53173011674465 0.0 0.0
-72.36266858017119 -0.13948985016636062 -21.897976267600704 -171.81558438578003 0.0 0.0
-90.91453039283013 -0.39488046001742116 -27.809270645442155 -172.33584753537235 0.0 0.0
-115.18689025886599 -2.1300706933443223 -36.606718062294235 -167.91751888225568 0.0 0.0
-141.84081309453035 -1.4513912437478016 -45.710714474907675 -167.31655096390605 0.0 0.0
-179.33077001153654 -3.466184154160173 -59.79829369984557 -165.11375807378707 0.0 0.0
-230.77643878369275 -5.782828432704854 -79.7107998389848 -160.8391134180734 0.0 0.0
-280.2082955356484 -10.767439616114025 -105.2559750617959 -155.10023079273031 0.0 0.0
-320.0147389921221 -18.200476671124846 -132.4949953278482 -151.12600672483555 0.0 0.0
-333.1904530474144 -27.12208691592867 -150.292542285629 -149.936899111273 0.0 0.0
-294.431475736468 -44.84408160357542 -148.41343704342108 -151.33233856919253 0.0 0.0
-157.07143927196634 -41.605371653532266 -88.10346669448083 -145.47526025417494 0.0 0.0
46.977284783571974 -148.44428614757368 -41.22581118750985 -98.79708938196264 0.0 0.0
46.97728478336947 -148.44428614795223 -41.22581118773414 98.79708938224309 0.0 0.0
-157.07143927226255 -41.60537165400352 -88.10346669468828 145.47526025459 0.0 0.0
-294.43147573639624 -44.84408160347735 -148.41343704337203 151.33233856947297 0.0 0.0
-333.1904530473993 -27.122086916041965 -150.29254228562115 149.9368991113896 0.0 0.0
-320.0147389922177 -18.200476671578194 -132.49499532798967 151.12600672489177 0.0 0.0
-280.2082955356102 -10.767439616274672 -105.25597506181566 155.1002307927581 0.0 0.0
-230.7764387836109 -5.782828432925939 -79.71079983901905 160.83911341815897 0.0 0.0
-179.3307700111276 -3.466184153986756 -59.79829369966111 165.11375807390894 0.0 0.0
-141.84081309441984 -1.451391244098776 -45.71071447497253 167.3165509639229 0.0 0.0
-115.18689025876728 -2.130070693749829 -36.606718062376046 167.9175188822488 0.0 0.0
-90.9145303925775 -0.39488045996232124 -27.809270645343993 172.33584753530218 0.0 0.0
-72.36266858006648 -0.13948985035741934 -21.897976267625367 171.81558438576803 0.0 0.0
-56.94908938936773 1.04548209450049 -16.732484459803523 172.5317301166594 0.0 0.0
-45.40248480674063 3.2282184446612194 -12.64006709864514 167.4937136447291 0.0 0.0
-38.323597307613625 7.475819399079079 -9.24293085280976 160.9489861705645 0.0 0.0
-37.208808029575 13.33610613451776 -7.157525235099042 155.06510919183316 0.0 0.0
-43.62812192590055 16.57248746945904 -8.116231645200788 154.43565883308045 0.0 0.0
-53.69266255878763 1.7505230004871302 -15.582114053885649 162.00163052908306 0.0 0.0
-50.45401583112672 -64.98618266532041 -34.63205954893414 166.61049026440787 0.0 0.0
-20.12559712902344 -201.26930192603416 -66.41846971651728 102.72846415563018 0.0 0.0
-20.098494324227275 -163.4734525105904 -55.071584050445296 -92.35356493623041 0.0 0.0
-57.298570782128785 -60.39232310417847 -35.30726816589217 -160.53536385801434 0.0 0.0
-76.02490216171097 -0.47723569070145944 -22.94968445431759 -162.12091814890763 0.0 0.0
-82.27578259028178 15.478117405638955 -20.0335665249452 -155.12565839052138 0.0 0.0
-91.35760065755521 14.097437195361977 -23.168739075330258 -153.76597008058428 0.0 0.0
-108.90311323986273 9.073319264180926 -29.927500841996586 -157.64344611169395 0.0 0.0
-135.44948031985152 4.781423579370944 -39.1347810862997 -162.59918343089086 0.0 0.0
-170.30495968454892 1.006489833193502 -51.14090062131379 -163.26267212564704 0.0 0.0
-215.07857556892571 -0.5134194154109561 -65.58543233938883 -162.52015619238796 0.0 0.0
-268.36789130371363 -3.859766326836212 -84.65689945718545 -157.8284249073431 0.0 0.0
-333.19186071855654 -7.991405739902328 -109.41112260057805 -152.82034840913866 0.0 0.0
-397.48158843756073 -9.798306528799905 -137.43275532206926 -147.73960856910836 0.0 0.0
-457.2251814627489 -17.69901959464227 -173.64621061341126 -140.59085147456463 0.0 0.0
-512.8643829819498 -25.05239338383406 -214.65104231511583 -134.9928764019024 0.0 0.0
-563.1050621461264 -33.810006447723694 -256.55183188857825 -132.7603124163485 0.0 0.0
-606.8121693815917 -45.229647529058845 -295.12508529923525 -133.49846829479733 0.0 0.0
-642.8141204207892 -61.834340786921715 -328.3230692846749 -138.44847584655452 0.0 0.0
-667.2952719545979 -86.11090791093245 -354.4484466599898 -149.3201264209613 0.0 0.0
-692.0830555255714 -136.17092867347415 -387.2370585898229 -159.65912165563932 0.0 0.0
-652.3549070825046 -179.73836055413503 -378.5773625708924 -152.66584654186192 0.0 0.0
-652.3549070825304 -179.73836055426608 -378.57736257096457 152.66584654211124 0.0 0.0
-692.0830555254329 -136.17092867352594 -387.23705858984283 159.65912165596228 0.0 0.0
-667.2952719545499 -86.11090791107559 -354.44844666002666 149.32012642123493 0.0 0.0
-642.814120420395 -61.83434078657737 -328.3230692844236 138.44847584660226 0.0 0.0
-606.8121693813378 -45.22964752881255 -295.1250852990206 133.49846829482146 0.0 0.0
-563.1050621459951 -33.81000644779404 -256.5518318885005 132.76031241646888 0.0 0.0
-512.8643829815105 -25.05239338340799 -214.65104231478765 134.99287640189166 0.0 0.0
-457.2251814625283 -17.699019594694438 -173.6462106132917 140.59085147464637 0.0 0.0
-397.4815884371361 -9.798306528741158 -137.43275532187258 147.7396085691373 0.0 0.0
-333.1918607179779 -7.991405739690702 -109.4111226003206 152.82034840912445 0.0 0.0
-268.3678913031481 -3.859766326574089 -84.65689945692023 157.82842490726622 0.0 0.0
-215.07857556862734 -0.513419415536803 -65.58543233932886 162.5201561923978 0.0 0.0
-170.30495968424742 1.006489833236524 -51.14090062120732 163.26267212562988 0.0 0.0
-135.4494803195575 4.781423579566004 -39.13478108615392 162.59918343076697 0.0 0.0
-108.90311323965668 9.0733192642399 -29.927500841918118 157.6434461115092 0.0 0.0
-91.35760065738083 14.097437195396347 -23.16873907526838 153.76597008037885 0.0 0.0
-82.27578259014281 15.478117405628481 -20.033566524907165 155.12565839032192 0.0 0.0
-76.02490216166393 -0.4772356907453905 -22.949684454317232 162.1209181487552 0.0 0.0
-57.29857078205325 -60.39232310413391 -35.307268165856144 160.53536385782752 0.0 0.0
-20.098494324211362 -163.47345251044652 -55.07158405039736 92.35356493611192 0.0 0.0
-20.275354521184447 -128.67712347673267 -44.685743399375134 -81.96384994525954 0.0 0.0
-63.823551524871405 -53.90133823994128 -35.3174669294438 -151.2017079171494 0.0 0.0
-96.97291758926275 -1.8491906254573318 -29.643682323797698 -158.11112714092388 0.0 0.0
-119.33670791724802 14.164789202261671 -31.540804030291078 -151.82340978843456 0.0 0.0
-144.34456904109817 14.220943455646687 -39.02257889881328 -148.55093553876372 0.0 0.0
-178.45882635879212 10.18572560324891 -50.419820151647 -149.98233653572726 0.0 0.0
-223.80786243097452 5.334705872713405 -65.67071160888177 -151.40094814124342 0.0 0.0
-282.48160959744916 -0.12743024488803822 -85.77877548102482 -148.85080123599673 0.0 0.0
-352.30141326673674 -4.100699836771246 -110.37594265406511 -143.2610622382346 0.0 0.0
-421.6345244638338 -13.85187540006471 -143.33143926780522 -133.96521581148835 0.0 0.0
-481.6292228206747 -21.087130160199944 -178.4348673594733 -128.57212421115312 0.0 0.0
-532.3052461945804 -30.371054874872613 -217.06593623960106 -121.93129512315102 0.0 0.0
-583.4261758812438 -39.619743723698264 -259.05093279694495 -117.47957800614584 0.0 0.0
-633.1342410223008 -48.15832421462255 -300.9739570525366 -114.91980352992645 0.0 0.0
-681.8040854097198 -58.6634547601556 -340.90548260712177 -114.67869926699511 0.0 0.0
-727.6893109828341 -72.4696568885344 -377.5213500463194 -116.53054640861397 0.0 0.0
-769.4012759192032 -90.72540463431709 -410.688084723493 -122.32451573083739 0.0 0.0
-812.7511288128616 -125.14958122626018 -448.3248016675883 -133.0293602881816 0.0 0.0
-857.8342404105266 -179.00486083616235 -492.95304483099625 -144.22066869186818 0.0 0.0
-900.7541980025019 -263.4409726311122 -545.7398822194037 -145.7469817902577 0.0 0.0
-900.7541980021879 -263.4409726308695 -545.7398822192702 145.74698179045234 0.0 0.0
-857.8342404101727 -179.00486083597247 -492.9530448308195 144.22066869213538 0.0 0.0
-812.751128812555 -125.14958122611147 -448.3248016673879 133.0293602884097 0.0 0.0
-769.4012759192799 -90.72540463452631 -410.688084723489 122.32451573098888 0.0 0.0
-727.6893109827921 -72.46965688859939 -377.5213500462591 116.53054640864497 0.0 0.0
-681.8040854098818 -58.66345476042122 -340.9054826072229 114.67869926706834 0.0 0.0
-633.1342410221442 -48.15832421455845 -300.9739570524139 114.91980352994668 0.0 0.0
-583.4261758809798 -39.61974372359016 -259.0509327967551 117.47957800622487 0.0 0.0
-532.3052461943781 -30.37105487491873 -217.06593623945543 121.93129512321326 0.0 0.0
-481.6292228204487 -21.08713016028762 -178.43486735930614 128.5721242111582 0.0 0.0
-421.63452446347577 -13.85187540020186 -143.3314392676584 133.96521581151364 0.0 0.0
-352.30141326641296 -4.100699837157058 -110.37594265405514 143.26106223832988 0.0 0.0
-282.48160959708855 -0.12743024502488698 -85.77877548094682 148.8508012360616 0.0 0.0
-223.80786243061624 5.3347058728103285 -65.67071160874708 151.40094814118657 0.0 0.0
-178.4588263585686 10.18572560319204 -50.41982015159858 149.98233653559424 0.0 0.0
-144.3445690408268 14.220943455744585 -39.02257889870374 148.5509355385842 0.0 0.0
-119.33670791702863 14.164789202363195 -31.540804030195673 151.82340978825954 0.0 0.0
-96.97291758911784 -1.8491906253615862 -29.643682323726082 158.11112714074824 0.0 0.0
-63.82355152480149 -53.90133823987777 -35.31746692940377 151.20170791699465 0.0 0.0
-20.275354521146088 -128.6771234766076 -44.6857433993261 81.96384994518054 0.0 0.0
-20.779131546886767 -97.22749343385193 -35.40198749422161 -71.36665727512221 0.0 0.0
-70.34851026851598 -46.14244642701669 -34.94728700865979 -138.9946729618115 0.0 0.0
-116.83008639248496 -2.4430120003685767 -35.78192951785606 -150.05721447770847 0.0 0.0
-154.99041718012165 12.56961954926687 -42.71502225576504 -144.47628273197202 0.0 0.0
-195.91033835544627 13.858724072132961 -54.58054089448136 -139.35563390147965 0.0 0.0
-246.2499663653998 10.192821542157825 -70.83377713066415 -137.61612134830835 0.0 0.0
-310.2386888241464 4.512382427217312 -92.1752769349181 -134.76017098770745 0.0 0.0
-386.077495367545 -3.417456244255809 -120.7679138739768 -127.46646401373403 0.0 0.0
-457.942384983476 -13.921437304691697 -156.5909638359915 -117.99685330032487 0.0 0.0
-516.8082440324094 -26.917509522221003 -197.2145101185523 -111.69867914471264 0.0 0.0
-566.7197563387552 -38.04677799544915 -237.5831065621719 -107.15872335642568 0.0 0.0
-617.085976068455 -50.050005871888246 -280.4700754189853 -102.86501560064926 0.0 0.0
-666.0716633383568 -60.426637698913844 -322.45416677417035 -99.82987318426481 0.0 0.0
-714.2410216702027 -70.6636847498259 -361.8264767016949 -98.18427318633442 0.0 0.0
-762.504198587761 -82.23807506159515 -397.93866464686346 -98.25514083327278 0.0 0.0
-811.6672824315136 -98.5073856343921 -433.98465123581593 -100.43033804087297 0.0 0.0
-860.7880980964935 -121.5909573576412 -471.2620145837258 -105.39933270925835 0.0 0.0
-916.3056101795365 -163.14682106588566 -517.7787321033691 -115.38967639553174 0.0 0.0
-979.4733501584515 -230.2857832304714 -577.5594678851105 -126.80075399411311 0.0 0.0
-1044.537247606499 -329.1220494170366 -649.9271484215637 -130.95546985561327 0.0 0.0
-1044.5372476063742 -329.1220494170906 -649.9271484215377 130.9554698558747 0.0 0.0
-979.4733501580009 -230.2857832301312 -577.5594678848024 126.80075399432741 0.0 0.0
-916.3056101794732 -163.14682106593435 -517.778732103309 115.38967639571621 0.0 0.0
-860.7880980964471 -121.59095735770703 -471.2620145836855 105.3993327093921 0.0 0.0
-811.6672824310119 -98.50738563392022 -433.98465123545407 100.4303380408985 0.0 0.0
-762.5041985873669 -82.23807506128944 -397.93866464656634 98.25514083336289 0.0 0.0
-714.2410216695941 -70.66368474922099 -361.826476701236 98.18427318629307 0.0 0.0
-666.0716633380027 -60.42663769867163 -322.4541667738783 99.82987318429947 0.0 0.0
-617.0859760681776 -50.05000587174857 -280.4700754187121 102.86501560064488 0.0 0.0
-566.7197563385182 -38.04677799544082 -237.5831065619492 107.15872335643671 0.0 0.0
-516.8082440318872 -26.91750952190484 -197.2145101181557 111.69867914467154 0.0 0.0
-457.94238498302684 -13.921437304622781 -156.59096383574288 117.99685330038656 0.0 0.0
-386.07749536699316 -3.417456244178869 -120.76791387375556 127.46646401377117 0.0 0.0
-310.238688823703 4.5123824272820245 -92.1752769347635 134.76017098765394 0.0 0.0
-246.24996636507936 10.192821542098455 -70.83377713059214 137.61612134815783 0.0 0.0
-195.91033835523837 13.858724071971539 -54.58054089446886 139.3556339012951 0.0 0.0
-154.99041717995277 12.569619549186953 -42.71502225573952 144.47628273178682 0.0 0.0
-116.8300863924292 -2.443012000491077 -35.781929517876065 150.05721447755798 0.0 0.0
-70.34851026845755 -46.142446426997736 -34.94728700863658 138.9946729616716 0.0 0.0
-20.779131546848802 -97.22749343378113 -35.40198749418898 71.36665727506777 0.0 0.0
-21.559737225867472 -69.4729403566274 -27.30980327474846 -60.372282521265774 0.0 0.0
-76.90047953421995 -37.639597415678985 -34.36202308496968 -124.22628166763445 0.0 0.0
-135.82600700971673 -2.3746347061076043 -41.4601925147473 -138.25837133346192 0.0 0.0
-189.42394476669415 10.816722088042237 -53.56262122006017 -133.13744969373096 0.0 0.0
-246.2120510483743 12.72133231767303 -69.947265569416 -126.21554110547888 0.0 0.0
-312.6101655946356 9.402573771754067 -90.92513709074078 -121.00117535558019 0.0 0.0
-391.4192978131439 1.9709811236119732 -118.92067462959407 -113.18802138799867 0.0 0.0
-468.1657535991976 -10.793347713036038 -156.97669783969548 -102.84371436265197 0.0 0.0
-528.5391032612108 -25.13813832526773 -199.9744971758027 -96.57661457580902 0.0 0.0
-580.866525456115 -39.76670644160712 -243.62713090647964 -92.84348789286602 0.0 0.0
-630.8672210461602 -54.30138108780591 -287.50126970995916 -89.14615108367074 0.0 0.0
-680.4357770678694 -68.25103821156833 -331.0978767618411 -86.0906539354146 0.0 0.0
-729.356834743752 -80.80915686386778 -372.1133190375015 -83.98279753794797 0.0 0.0
-778.3623277908057 -92.56204973880068 -409.33132601934796 -82.74722535312291 0.0 0.0
-828.213991112045 -105.4334502081771 -443.9018875495183 -82.70879327012725 0.0 0.0
-880.1957353790374 -124.45321477767888 -480.8267902941079 -84.40646837015304 0.0 0.0
-937.5240420736881 -152.81690536916767 -524.1440783061897 -88.2483312171675 0.0 0.0
-1004.5142342775391 -202.48733810153436 -580.5666708711387 -96.6943185344031 0.0 0.0
-1082.5169092794272 -282.8765149479712 -654.5039525835147 -109.3261176340553 0.0 0.0
-1150.81387182164 -386.1689584379404 -731.4394763513137 -120.20634628371134 0.0 0.0
-1150.813871821368 -386.1689584377759 -731.4394763511702 120.2063462839246 0.0 0.0
-1082.5169092795043 -282.8765149481545 -654.5039525835859 109.3261176342661 0.0 0.0
-1004.5142342771771 -202.48733810124622 -580.5666708708803 96.6943185345539 0.0 0.0
-937.5240420734026 -152.8169053689408 -524.144078305955 88.24833121728217 0.0 0.0
-880.1957353785531 -124.45321477724204 -480.82679029374106 84.40646837018312 0.0 0.0
-828.2139911118499 -105.43345020805023 -443.9018875493232 82.70879327021393 0.0 0.0
-778.3623277905615 -92.56204973861887 -409.33132601911547 82.74722535312382 0.0 0.0
-729.3568347434643 -80.80915686367922 -372.1133190372747 83.98279753797829 0.0 0.0
-680.4357770674504 -68.25103821128671 -331.09787676149 86.09065393544633 0.0 0.0
-630.8672210459436 -54.30138108779144 -287.50126970972866 89.14615108367077 0.0 0.0
-580.8665254560065 -39.76670644172914 -243.62713090631172 92.84348789280739 0.0 0.0
-528.5391032607752 -25.138138325065356 -199.97449717546402 96.57661457580706 0.0 0.0
-468.1657535984961 -10.793347712562364 -156.97669783925917 102.84371436263996 0.0 0.0
-391.41929781247325 1.970981123912443 -118.92067462927986 113.1880213879777 0.0 0.0
-312.61016559418584 9.402573771860105 -90.92513709058011 121.00117535551757 0.0 0.0
-246.21205104803454 12.721332317712461 -69.94726556930424 126.21554110537342 0.0 0.0
-189.4239447664695 10.816722088057631 -53.56262121998974 133.13744969360758 0.0 0.0
-135.82600700955152 -2.374634706067305 -41.460192514685644 138.25837133334556 0.0 0.0
-76.90047953415483 -37.63959741566938 -34.36202308494726 124.22628166754798 0.0 0.0
-21.559737225863365 -69.47294035658047 -27.309803274733145 60.37228252120065 0.0 0.0
-22.434960814460702 -45.76766149029841 -20.460786691427728 -48.85006891902632 0.0 0.0
-83.23872643582324 -28.8255836140977 -33.61929301497628 -107.1350925538606 0.0 0.0
-154.04753921017286 -1.8489259881411901 -46.76893955949421 -122.84818322283346 0.0 0.0
-222.69125935731242 8.804076477642733 -64.15583473031181 -117.82121496275145 0.0 0.0
-294.6222341052119 10.850278457729363 -85.02835798409893 -109.02367150461536 0.0 0.0
-375.8626911704853 7.734152540083183 -110.58553245251326 -100.40805811434427 0.0 0.0
-460.6100575889301 -2.074372046680029 -146.3675895527755 -89.28001401512705 0.0 0.0
-525.5352219452606 -20.537698705873854 -192.8371252174893 -80.93493076698569 0.0 0.0
-579.4643567676937 -35.11505677884495 -237.89443843814462 -78.18460933505015 0.0 0.0
-631.9341519017887 -52.63381191663701 -284.19661914535243 -75.116606481723 0.0 0.0
-682.5053621440421 -69.75206436858976 -329.6539628052904 -72.61752793815288 0.0 0.0
-732.3474037421834 -85.72126225584357 -373.04228440630624 -70.31987623411936 0.0 0.0
-782.9478678477749 -100.42853940710644 -413.38036062514345 -68.89562980502313 0.0 0.0
-833.2460110787176 -114.60893616512385 -449.93152077300294 -67.92384451413369 0.0 0.0
-884.4716372862456 -128.96303789340118 -484.22461293862193 -67.56484521371888 0.0 0.0
-940.9229583781739 -150.25873937872748 -523.4561978112654 -68.51924054235027 0.0 0.0
-1004.3627379147042 -184.20651557794935 -572.389684163955 -70.7586033325452 0.0 0.0
-1081.0740794663827 -241.6714048199771 -638.0896213563985 -77.41465916742312 0.0 0.0
-1170.4121113114882 -332.3045125145766 -723.2416504696927 -92.43089734519177 0.0 0.0
-1242.4956440536914 -441.33717202214245 -805.1722093246499 -113.18411093086797 0.0 0.0
-1242.495644053733 -441.337172022265 -805.1722093246926 113.18411093102492 0.0 0.0
-1170.4121113116025 -332.304512514798 -723.241650469749 92.43089734542082 0.0 0.0
-1081.0740794659428 -241.67140481959092 -638.0896213560288 77.41465916755662 0.0 0.0
-1004.3627379139626 -184.20651557722786 -572.3896841633662 70.75860333260346 0.0 0.0
-940.9229583776035 -150.25873937821208 -523.4561978107774 68.51924054242303 0.0 0.0
-884.4716372857782 -128.9630378929728 -484.2246129382336 67.56484521373841 0.0 0.0
-833.246011078846 -114.6089361653475 -449.93152077302267 67.92384451420398 0.0 0.0
-782.9478678477753 -100.42853940723224 -413.38036062506444 68.89562980508073 0.0 0.0
-732.3474037420023 -85.72126225581651 -373.0422844061069 70.3198762341571 0.0 0.0
-682.5053621435311 -69.75206436819687 -329.6539628048524 72.6175279381091 0.0 0.0
-631.9341519010917 -52.633811916045 -284.19661914479366 75.11660648165267 0.0 0.0
-579.4643567671633 -35.115056778493546 -237.89443843771684 78.18460933502413 0.0 0.0
-525.5352219448757 -20.537698705761464 -192.83712521719187 80.93493076697874 0.0 0.0
-460.6100575884664 -2.074372046618362 -146.36758955252546 89.28001401509431 0.0 0.0
-375.86269116995686 7.734152540277904 -110.58553245229632 100.40805811422773 0.0 0.0
-294.62223410487024 10.850278457695898 -85.02835798401162 109.02367150449268 0.0 0.0
-222.6912593570852 8.804076477623438 -64.15583473025089 117.82121496258685 0.0 0.0
-154.04753920998766 -1.8489259881289164 -46.768939559434955 122.84818322268401 0.0 0.0
-83.23872643572918 -28.825583614075676 -33.61929301494145 107.1350925537325 0.0 0.0
-22.434960814476348 -45.76766149029043 -20.46078669143003 48.85006891898683 0.0 0.0
-23.06360170057983 -26.465273048511236 -14.858662424727317 -36.785518929353195 0.0 0.0
-88.80051635550375 -20.07007894983461 -32.6611785916015 -87.89932515045169 0.0 0.0
-171.5243002619764 -1.092171193192696 -51.784941436550724 -103.85719401914683 0.0 0.0
-255.25578970852507 6.568619820649488 -74.59666580432096 -98.74662850655989 0.0 0.0
-341.584951708206 7.609500475473779 -99.99808245909863 -87.93297179956497 0.0 0.0
-432.88484402771246 7.7851861474487265 -129.26139019992502 -77.49724412973188 0.0 0.0
-506.3364057908459 -10.883745318128213 -175.43225144598927 -65.64571806279076 0.0 0.0
-567.5174776524628 -27.43118664087985 -224.11918909226887 -62.78781265862558 0.0 0.0
-622.2253193026354 -45.24557870324546 -271.8705727262558 -60.274951901763615 0.0 0.0
-674.3991376393951 -65.05129990168126 -319.5753778545826 -58.336572799438734 0.0 0.0
-725.7029587778727 -84.37355667145236 -365.5805982453289 -56.647068639025576 0.0 0.0
-777.353766814808 -102.7048688181957 -409.1353541992475 -55.01313136841708 0.0 0.0
-829.397634909504 -119.68310045535662 -449.05909064187284 -54.004637325575175 0.0 0.0
-883.2530089274288 -136.79334426282097 -487.06593054843256 -53.4702842580318 0.0 0.0
-937.1173730100018 -153.70797564325724 -523.0679293552697 -52.84273139255517 0.0 0.0
-994.2823747674433 -176.52854129654662 -562.8426890996932 -52.636481836325196 0.0 0.0
-1063.3952813380374 -214.63020552336 -616.4991927005434 -53.28094904772779 0.0 0.0
-1147.7596867213547 -277.72931903153267 -689.5795602430094 -57.987055755111726 0.0 0.0
-1248.0974835164047 -377.93205837287655 -785.5761579761212 -75.64472210573163 0.0 0.0
-1329.1930751237176 -498.7431729117318 -877.795570144691 -108.41289215941796 0.0 0.0
-1329.1930751237855 -498.7431729118495 -877.7955701447595 108.41289215951603 0.0 0.0
-1248.097483516281 -377.9320583727987 -785.5761579760069 75.64472210585672 0.0 0.0
-1147.7596867214384 -277.72931903166426 -689.5795602430277 57.987055755222215 0.0 0.0
-1063.3952813380738 -214.63020552345324 -616.4991927005279 53.28094904781869 0.0 0.0
-994.2823747672562 -176.52854129640068 -562.842689099502 52.636481836368546 0.0 0.0
-937.1173730094501 -153.70797564274267 -523.0679293548168 52.84273139256738 0.0 0.0
-883.253008926969 -136.79334426240825 -487.0659305480198 53.470284258032734 0.0 0.0
-829.3976349090465 -119.68310045497317 -449.05909064147096 54.00463732557675 0.0 0.0
-777.3537668144558 -102.70486881796211 -409.1353541989452 55.01313136842304 0.0 0.0
-725.7029587775469 -84.37355667126263 -365.5805982450078 56.6470686390073 0.0 0.0
-674.3991376391552 -65.05129990162311 -319.57537785431646 58.33657279943422 0.0 0.0
-622.2253193025588 -45.24557870340384 -271.870572726103 60.27495190178311 0.0 0.0
-567.51747765235 -27.431186641069637 -224.11918909210362 62.7878126586429 0.0 0.0
-506.3364057902495 -10.883745317803214 -175.43225144558008 65.645718062782 0.0 0.0
-432.8848440272161 7.785186147535747 -129.2613901997156 77.49724412967896 0.0 0.0
-341.58495170786927 7.609500475335522 -99.9980824590456 87.93297179949121 0.0 0.0
-255.25578970832507 6.5686198205442095 -74.59666580429425 98.74662850648244 0.0 0.0
-171.52430026184177 -1.092171193275302 -51.78494143653512 103.85719401906783 0.0 0.0
-88.80051635543101 -20.070078949855294 -32.66117859158589 87.89932515036415 0.0 0.0
-23.06360170054787 -26.465273048481144 -14.858662424708704 36.78551892929448 0.0 0.0
-22.836719095141774 -11.885019435748887 -10.416521559267197 -24.362748740969856 0.0 0.0
-92.61100151576498 -11.78908252257133 -31.32002521150089 -66.63532677965647 0.0 0.0
-188.15407228895066 -0.1627218884401671 -56.49503825321724 -81.07017140033982 0.0 0.0
-287.89906947281173 3.3374452030011197 -85.35795080810146 -75.8902786379112 0.0 0.0
-385.9887059941017 6.753051057231712 -113.36581390864325 -64.31845197237404 0.0 0.0
-477.96305422421597 3.7832387403972323 -150.3791589373471 -53.24406984450387 0.0 0.0
-545.7139868900346 -18.503352503438336 -203.3202828786762 -45.836435887247 0.0 0.0
-603.1444388608888 -34.26116766812968 -252.19486592841307 -44.31836722018774 0.0 0.0
-657.7144185595189 -55.03232984481997 -301.94441853007663 -43.132141533696824 0.0 0.0
-710.7607337464726 -77.05414803187612 -350.6347251965725 -41.97140277860167 0.0 0.0
-763.5858602882564 -98.48116778870424 -397.00788216794535 -40.90377757560006 0.0 0.0
-816.7802146553697 -119.17670410324946 -440.6705726843202 -39.81391547270082 0.0 0.0
-871.9993028345839 -138.64740813121642 -481.6182409042405 -39.18302681635879 0.0 0.0
-928.290681083562 -159.06437719295113 -521.3196485211645 -38.93703988057045 0.0 0.0
-985.8149194351887 -180.02569749142467 -560.6902583213965 -38.406783528855875 0.0 0.0
-1046.114857429877 -205.15805735587207 -602.9398733530059 -37.28623729689621 0.0 0.0
-1113.8689099290496 -241.7962362554674 -654.9228930864462 -36.18420831512663 0.0 0.0
-1202.7300974766606 -307.90252197458204 -732.4837344845075 -38.460739758044085 0.0 0.0
-1316.6516317016942 -418.7874859497913 -841.3910129754272 -57.71429162237778 0.0 0.0
-1419.5935351481944 -562.6536094384535 -955.6462787495544 -104.38335945192819 0.0 0.0
-1419.5935351482883 -562.6536094385738 -955.6462787496221 104.38335945198557 0.0 0.0
-1316.6516317015337 -418.7874859496492 -841.391012975297 57.71429162244512 0.0 0.0
-1202.730097475947 -307.90252197388145 -732.4837344839611 38.460739758101155 0.0 0.0
-1113.8689099283797 -241.79623625481344 -654.92289308591 36.184208315135095 0.0 0.0
-1046.1148574295667 -205.15805735560113 -602.9398733526895 37.28623729694894 0.0 0.0
-985.8149194344558 -180.02569749072623 -560.6902583207872 38.406783528848536 0.0 0.0
-928.2906810835261 -159.06437719298597 -521.3196485210422 38.937039880602214 0.0 0.0
-871.9993028341069 -138.64740813082156 -481.61824090382436 39.18302681640297 0.0 0.0
-816.780214654925 -119.17670410293108 -440.6705726839273 39.81391547273835 0.0 0.0
-763.5858602878645 -98.48116778842866 -397.00788216757667 40.90377757555345 0.0 0.0
-710.760733746255 -77.05414803182364 -350.63472519631875 41.971402778577044 0.0 0.0
-657.7144185591953 -55.03232984468056 -301.94441852974984 43.13214153371917 0.0 0.0
-603.144438860402 -34.26116766784523 -252.1948659279949 44.318367220184356 0.0 0.0
-545.7139868894888 -18.50335250313208 -203.32028287825582 45.836435887223075 0.0 0.0
-477.9630542238085 3.7832387404697823 -150.3791589371134 53.244069844503365 0.0 0.0
-385.98870599370434 6.753051057114481 -113.36581390856682 64.31845197233383 0.0 0.0
-287.89906947258027 3.3374452028839507 -85.35795080806919 75.89027863786674 0.0 0.0
-188.15407228878672 -0.16272188845530522 -56.495038253172595 81.07017140031635 0.0 0.0
-92.61100151567358 -11.789082522498601 -31.32002521145165 66.63532677963512 0.0 0.0
-22.836719095094267 -11.88501943568964 -10.41652155923517 24.362748740929295 0.0 0.0
-20.622386273118778 -2.2716402356964585 -6.86820795264457 -12.104624439590808 0.0 0.0
-93.11518818935235 -4.49375649374762 -29.28268340492999 -43.35597281195518 0.0 0.0
-203.81172122487447 0.7863177141551727 -60.90762105321577 -53.846526286555495 0.0 0.0
-321.5943361926804 -1.2004124201875221 -96.80620034591075 -49.30300611236447 0.0 0.0
-429.0233644442309 11.031477031118772 -124.93589248218754 -40.254742684712994 0.0 0.0
-509.0599934217156 -6.638542253107888 -174.53464525686104 -29.144373828673565 0.0 0.0
-576.2605253413143 -22.50271944822603 -226.84311843973882 -27.135854945916165 0.0 0.0
-632.8093721825551 -41.614511382334534 -277.7545516598531 -26.709771190455413 0.0 0.0
-687.655829532652 -64.29772902972013 -328.3915570604681 -26.15996423601846 0.0 0.0
-742.1020407501157 -88.46233719919167 -377.8052424409045 -25.69331722461434 0.0 0.0
-796.9762232794264 -112.37826805648064 -424.94472437662125 -25.128422796887055 0.0 0.0
-853.2954796241861 -135.1584093619801 -469.45026557560266 -24.569954657352454 0.0 0.0
-910.3013621090508 -157.8724355015118 -511.6270955862317 -24.274493465923992 0.0 0.0
-970.05977704103 -181.11927539943053 -553.6789866050794 -24.283627555941557 0.0 0.0
-1032.7574737695666 -207.0226324255936 -597.7962608423145 -23.985138567906017 0.0 0.0
-1096.9292938295566 -236.4751319201372 -644.148332484321 -22.62167379619806 0.0 0.0
-1163.624274474175 -272.7644460635092 -695.0737496008651 -20.580914211197268 0.0 0.0
-1234.7901289208403 -320.3132807936287 -755.0903903569983 -19.147740423004127 0.0 0.0
-1374.5504305524992 -452.11479978778397 -888.4964339145872 -36.422067776061446 0.0 0.0
-1524.2872767628287 -641.3147541211559 -1048.032908796797 -98.76205365096615 0.0 0.0
-1524.2872767629992 -641.3147541213568 -1048.0329087968917 98.76205365101175 0.0 0.0
-1374.5504305524112 -452.1147997877256 -888.4964339144683 36.422067776179134 0.0 0.0
-1234.790128920598 -320.3132807934106 -755.0903903567255 19.14774042308037 0.0 0.0
-1163.6242744735953 -272.7644460629504 -695.0737496003458 20.580914211217916 0.0 0.0
-1096.9292938294518 -236.47513192007452 -644.1483324841406 22.62167379623447 0.0 0.0
-1032.7574737692623 -207.0226324253359 -597.7962608419939 23.985138567942894 0.0 0.0
-970.059777040385 -181.11927539883644 -553.6789866045224 24.283627555966756 0.0 0.0
-910.301362108521 -157.8724355010579 -511.6270955857606 24.274493465922617 0.0 0.0
-853.2954796237424 -135.1584093616405 -469.45026557519736 24.56995465731464 0.0 0.0
-796.9762232790151 -112.3782680561968 -424.9447243762376 25.12842279685734 0.0 0.0
-742.1020407496467 -88.46233719886787 -377.8052424404881 25.693317224588327 0.0 0.0
-687.6558295323774 -64.29772902961848 -328.3915570601695 26.159964236047607 0.0 0.0
-632.8093721822343 -41.614511382230894 -277.75455165952735 26.709771190466867 0.0 0.0
-576.2605253409685 -22.50271944814012 -226.8431184394152 27.135854945901812 0.0 0.0
-509.0599934211898 -6.63854225282336 -174.53464525649616 29.144373828649634 0.0 0.0
-429.0233644437422 11.031477031217886 -124.93589248200675 40.25474268471074 0.0 0.0
-321.5943361923619 -1.2004124201526043 -96.80620034580707 49.30300611231467 0.0 0.0
-203.8117212247106 0.7863177141033919 -60.907621053182154 53.84652628650425 0.0 0.0
-93.11518818929092 -4.493756493724337 -29.282683404904574 43.35597281191996 0.0 0.0
-20.622386273091426 -2.271640235703797 -6.868207952638565 12.104624439553444 0.0 0.0
-14.207544314474422 2.253131092002242 -3.586323966741654 -1.161102011643314 0.0 0.0
-87.87191254151409 1.2136797852840702 -25.997469826868997 -17.704380307424238 0.0 0.0
-218.8001180049202 0.799089370875615 -65.40030859021337 -21.082097142196258 0.0 0.0
-356.7277492104273 -3.8060322985653867 -108.0773593983701 -19.439513579074653 0.0 0.0
-469.45231188530585 10.74535257053528 -139.51931705729396 -14.600461078048973 0.0 0.0
-542.2386888474882 -14.111930463763294 -197.52848851517552 -8.666322938001962 0.0 0.0
-600.4180438258027 -26.583273149343604 -247.93694310514275 -9.045085344241777 0.0 0.0
-657.5544738326446 -48.4398958580139 -300.27991100573945 -9.209311113386526 0.0 0.0
-713.6267581096761 -73.29301772681366 -351.92900573003396 -9.235404413901168 0.0 0.0
-770.2225475560257 -99.73602283453985 -402.3218734737271 -9.26968100705686 0.0 0.0
-827.379486886185 -125.43045752470844 -449.98481451942655 -9.20383065539357 0.0 0.0
-885.4689274488874 -151.59217313581442 -495.72328723409123 -9.175844965412683 0.0 0.0
-945.9288158784219 -176.8278128317198 -539.8687564342523 -9.269763053262281 0.0 0.0
-1009.4561239682331 -203.2686596526021 -584.9151140408112 -9.38301326403462 0.0 0.0
-1076.733853402694 -233.80880649813432 -633.4147472417735 -9.276672173850853 0.0 0.0
-1146.3757998457763 -269.151233064661 -685.4143032259645 -8.497255382694831 0.0 0.0
-1214.563577679689 -307.8747352103335 -738.3484836170508 -6.812692485104117 0.0 0.0
-1277.4165399965605 -348.3181315648442 -789.9740327795782 -4.054299934467735 0.0 0.0
-1335.5178218930148 -393.28155874990296 -842.5307769484955 -7.887674926256524 0.0 0.0
-1700.7901352095773 -787.7595378036444 -1209.657558562432 -83.05980487354857 0.0 0.0
-1700.7901352094227 -787.7595378034746 -1209.6575585623477 83.05980487353912 0.0 0.0
-1335.5178218927563 -393.2815587496564 -842.5307769482978 7.887674926313355 0.0 0.0
-1277.416539996444 -348.31813156475175 -789.9740327794062 4.054299934505464 0.0 0.0
-1214.563577679207 -307.8747352098774 -738.348483616585 6.812692485091341 0.0 0.0
-1146.3757998453857 -269.15123306430223 -685.4143032255337 8.49725538267679 0.0 0.0
-1076.7338534024025 -233.80880649788958 -633.4147472414344 9.27667217383379 0.0 0.0
-1009.4561239683566 -203.2686596527988 -584.9151140407604 9.383013264066228 0.0 0.0
-945.9288158784254 -176.82781283181606 -539.8687564341145 9.269763053280164 0.0 0.0
-885.4689274486759 -151.59217313572353 -495.7232872338342 9.17584496540712 0.0 0.0
-827.3794868858204 -125.43045752447874 -449.98481451907065 9.203830655426923 0.0 0.0
-770.2225475557785 -99.73602283445337 -402.32187347346684 9.269681007054949 0.0 0.0
-713.6267581096147 -73.29301772693937 -351.92900572987526 9.235404413919793 0.0 0.0
-657.5544738321549 -48.43989585770635 -300.27991100529334 9.20931111343769 0.0 0.0
-600.4180438252829 -26.583273149037275 -247.9369431046886 9.04508534426066 0.0 0.0
-542.238688847092 -14.111930463618293 -197.52848851484907 8.666322937983573 0.0 0.0
-469.45231188498553 10.745352570528429 -139.51931705715094 14.600461078021102 0.0 0.0
-356.72774921010716 -3.8060322985808277 -108.07735939828359 19.439513579019867 0.0 0.0
-218.80011800468938 0.7990893709867333 -65.4003085901108 21.082097142132206 0.0 0.0
-87.87191254145911 1.2136797852893242 -25.997469826850935 17.70438030739435 0.0 0.0
-14.207544314417392 2.253131092004761 -3.58632396672379 1.1611020116582593 0.0 0.0
SCALARS Strain float 6
LOOKUP_TABLE default
0.005115985468144631 -0.006242365605346772 0.0 -0.0031201111069572157 0.0 0.0
0.0016767433407428112 -0.000437452804765065 0.0 0.000973273581599779 0.0 0.0
0.0016307427638853908 -0.000755427503395828 0.0 -0.00013977234464147836 0.0 0.0
0.0018662528206374544 -0.000783632150477831 0.0 -0.00011855868047708218 0.0 0.0
0.0023171913793648994 -0.0010757154363901233 0.0 -0.00015892218998914132 0.0 0.0
0.0031492334977848693 -0.001645163677937156 0.0 -0.0001820074898849361 0.0 0.0
0.004178739042253897 -0.002431974915903079 0.0 -0.00023126856106699123 0.0 0.0
0.005422096222477476 -0.0034118894459574944 0.0 -0.00028069226060911667 0.0 0.0
0.006945375417173176 -0.004668220786743782 0.0 -0.00033850290803937033 0.0 0.0
0.008874139936890381 -0.006329775874049037 0.0 -0.00041291040915997224 0.0 0.0
0.011453875589270631 -0.008648912400171627 0.0 -0.0004977267834372356 0.0 0.0
0.015048687504684206 -0.011983996308571276 0.0 -0.0006284943584116826 0.0 0.0
0.020010827347905907 -0.016686311005249976 0.0 -0.000815834360273951 0.0 0.0
0.026596370418926252 -0.023003809983344503 0.0 -0.001058611362639808 0.0 0.0
0.03484466286841343 -0.03096525065257638 0.0 -0.0013714754376886046 0.0 0.0
0.04441794171102527 -0.04022898055242563 0.0 -0.0017108286104965537 0.0 0.0
0.054539641565821625 -0.0500284763221146 0.0 -0.001941324125419891 0.0 0.0
0.0640753280581298 -0.05925651928566977 0.0 -0.0018575532501240444 0.0 0.0
0.07175158331049952 -0.06667039541477648 0.0 -0.001391439579600473 0.0 0.0
0.07627069513312643 -0.07095716890741532 0.0 -0.0009678628738387651 0.0 0.0
0.07627069513312505 -0.07095716890741421 0.0 0.0009678628738401251 0.0 0.0
0.07175158331049461 -0.06667039541477249 0.0 0.0013914395796089107 0.0 0.0
0.06407532805812126 -0.059256519285660225 0.0 0.0018575532501283187 0.0 0.0
0.05453964156581166 -0.0500284763221035 0.0 0.0019413241254231384 0.0 0.0
0.04441794171101594 -0.04022898055241675 0.0 0.0017108286104943748 0.0 0.0
0.03484466286840318 -0.030965250652567944 0.0 0.0013714754376890625 0.0 0.0
0.026596370418914772 -0.0230038099833354 0.0 0.0010586113626393223 0.0 0.0
0.020010827347893598 -0.016686311005239096 0.0 0.000815834360273382 0.0 0.0
0.015048687504671907 -0.011983996308560285 0.0 0.0006284943584116409 0.0 0.0
0.011453875589258616 -0.0086489124001623 0.0 0.0004977267834362642 0.0 0.0
0.008874139936879952 -0.006329775874042043 0.0 0.0004129104091584179 0.0 0.0
0.00694537541716464 -0.004668220786738342 0.0 0.00033850290803924543 0.0 0.0
0.005422096222469933 -0.0034118894459528315 0.0 0.0002806922606086726 0.0 0.0
0.004178739042247442 -0.0024319749158986936 0.0 0.00023126856106661653 0.0 0.0
0.0031492334977801795 -0.0016451636779340473 0.0 0.0001820074898844226 0.0 0.0
0.002317191379362496 -0.0010757154363890686 0.0 0.00015892218998901642 0.0 0.0
0.0018662528206364187 -0.000783632150478164 0.0 0.00011855868047724871 0.0 0.0
0.0016307427638847516 -0.000755427503396161 0.0 0.0001397723446417698 0.0 0.0
0.001676743340742387 -0.00043745280476532866 0.0 -0.0009732735815979748 0.0 0.0
0.005115985468141376 -0.0062423656053401805 0.0 0.003120111106943921 0.0 0.0
0.0033977609764475353 -0.0048090900645428175 0.0 -0.0037615262481583978 0.0 0.0
0.0009323468861467035 -0.00018155134160754982 0.0 0.00031691673405875864 0.0 0.0
0.0014179413742607047 -0.0005716853943620315 0.0 -9.323403070182756e-05 0.0 0.0
0.00166984310701704 -0.0007129478922761057 0.0 -0.0003831674890883291 0.0 0.0
0.0020564922831716407 -0.0009102347614385886 0.0 -0.0003945753020851983 0.0 0.0
0.0027655440853457097 -0.0013716028090493548 0.0 -0.00047042769338945245 0.0 0.0
0.003705498005218289 -0.0020587718268406663 0.0 -0.0005981001428107813 0.0 0.0
0.004822465013955564 -0.0029196110840905565 0.0 -0.000713811364147332 0.0 0.0
0.0061745418922152275 -0.004014459332816522 0.0 -0.0008366458698641638 0.0 0.0
0.007875196885428664 -0.0054587168563225985 0.0 -0.0009879341130277774 0.0 0.0
0.010136104375338016 -0.007468052593254115 0.0 -0.001177573372664456 0.0 0.0
0.013279868016278156 -0.010365274041370331 0.0 -0.0014326188166385867 0.0 0.0
0.01767303386210831 -0.014514911594010527 0.0 -0.0018357264002338697 0.0 0.0
0.02358378916670809 -0.020174959577796026 0.0 -0.002416724315548263 0.0 0.0
0.031045842686559723 -0.027369312794930156 0.0 -0.0031418266435784964 0.0 0.0
0.03974690871805878 -0.035784731785099666 0.0 -0.003918195009948222 0.0 0.0
0.048982444049978376 -0.04472614016836429 0.0 -0.004443029005410604 0.0 0.0
0.05774184956407048 -0.053201818159927194 0.0 -0.00431729079366755 0.0 0.0
0.06483655569682752 -0.06003513240981584 0.0 -0.0034141940346650024 0.0 0.0
0.06898562829481442 -0.06400459283635085 0.0 -0.0018434884113738004 0.0 0.0
0.0689856282948133 -0.06400459283634952 0.0 0.0018434884113821548 0.0 0.0
0.06483655569682287 -0.06003513240981251 0.0 0.003414194034679574 0.0 0.0
0.05774184956406335 -0.05320181815992231 0.0 0.0043172907936762095 0.0 0.0
0.048982444049970236 -0.04472614016836074 0.0 0.004443029005416377 0.0 0.0
0.039746908718050755 -0.035784731785095225 0.0 0.003918195009946279 0.0 0.0
0.03104584268655043 -0.02736931279492305 0.0 0.003141826643578649 0.0 0.0
0.02358378916669794 -0.020174959577788365 0.0 0.002416724315549207 0.0 0.0
0.017673033862097384 -0.014514911594002311 0.0 0.0018357264002339668 0.0 0.0
0.01327986801626714 -0.010365274041362782 0.0 0.0014326188166380038 0.0 0.0
0.010136104375327429 -0.007468052593246566 0.0 0.0011775733726630822 0.0 0.0
0.007875196885419308 -0.005458716856314827 0.0 0.0009879341130248909 0.0 0.0
0.006174541892207494 -0.004014459332810083 0.0 0.000836645869863456 0.0 0.0
0.004822465013948771 -0.0029196110840857825 0.0 0.0007138113641464716 0.0 0.0
0.0037054980052125402 -0.002058771826836281 0.0 0.0005981001428100874 0.0 0.0
0.0027655440853419228 -0.0013716028090465793 0.0 0.00047042769338838386 0.0 0.0
0.002056492283169703 -0.0009102347614374784 0.0 0.0003945753020851428 0.0 0.0
0.0016698431070160946 -0.000712947892275384 0.0 0.00038316748908828746 0.0 0.0
0.0014179413742602398 -0.0005716853943622813 0.0 9.323403070143899e-05 0.0 0.0
0.0009323468861470452 -0.00018155134160802167 0.0 -0.0003169167340598411 0.0 0.0
0.0033977609764430927 -0.004809090064535917 0.0 0.0037615262481472123 0.0 0.0
0.002422916300556561 -0.0038838081848051736 0.0 -0.0035664498040086645 0.0 0.0
0.0005281821987515069 -0.00011206849393433083 0.0 -0.0003845828668346263 0.0 0.0
0.0011205212263244273 -0.0003953173835045676 0.0 -0.00028251808186557925 0.0 0.0
0.0014681995074480314 -0.0006218935017259231 0.0 -0.0006023271872504232 0.0 0.0
0.0018219758217897716 -0.000783932625062933 0.0 -0.0006551311054137782 0.0 0.0
0.0023813802452208946 -0.0011113276515962722 0.0 -0.000721868976635856 0.0 0.0
0.003224091342435037 -0.0016893538222811921 0.0 -0.0008891038819553304 0.0 0.0
0.004221376304439292 -0.002444218456428615 0.0 -0.0010729270266778834 0.0 0.0
0.005409416271917041 -0.0033807766524022176 0.0 -0.0012493612101115575 0.0 0.0
0.006890632276556806 -0.0046140528813691795 0.0 -0.0014579882538376804 0.0 0.0
0.008845777542482999 -0.0063280848544360335 0.0 -0.0017280718042831933 0.0 0.0
0.011558570933272387 -0.008806740955607295 0.0 -0.00209549949569518 0.0 0.0
0.015375948049335356 -0.012393586563606784 0.0 -0.0026384550475476165 0.0 0.0
0.02058479522153183 -0.01736646408458964 0.0 -0.0034610255301299048 0.0 0.0
0.02722773437216504 -0.023762477434806195 0.0 -0.004533641503459612 0.0 0.0
0.03502273569611246 -0.031297216161645824 0.0 -0.0056465452643941205 0.0 0.0
0.0433583493416151 -0.039368188280206384 0.0 -0.006404346235210467 0.0 0.0
0.05135109421000176 -0.04709669158136598 0.0 -0.006308769398404773 0.0 0.0
0.05789715777565889 -0.0534028093637442 0.0 -0.005047426610389011 0.0 0.0
0.06181194262564391 -0.05715944828110886 0.0 -0.0025465519585169405 0.0 0.0
0.061811942625642505 -0.05715944828110664 0.0 0.002546551958530874 0.0 0.0
0.05789715777565448 -0.053402809363741754 0.0 0.005047426610407524 0.0 0.0
0.051351094209995785 -0.04709669158136154 0.0 0.006308769398417513 0.0 0.0
0.043358349341608274 -0.0393681882802035 0.0 0.00640434623521785 0.0 0.0
0.035022735696105284 -0.03129721616164227 0.0 0.005646545264395064 0.0 0.0
0.027227734372156864 -0.023762477434799978 0.0 0.0045336415034598065 0.0 0.0
0.02058479522152308 -0.01736646408458309 0.0 0.003461025530130085 0.0 0.0
0.015375948049325697 -0.012393586563599235 0.0 0.0026384550475473945 0.0 0.0
0.011558570933262693 -0.00880674095559919 0.0 0.0020954994956936257 0.0 0.0
0.00884577754247351 -0.006328084854427596 0.0 0.0017280718042819165 0.0 0.0
0.006890632276548583 -0.004614052881362407 0.0 0.001457988253834197 0.0 0.0
0.005409416271910189 -0.0033807766523968885 0.0 0.0012493612101105445 0.0 0.0
0.004221376304433269 -0.002444218456423619 0.0 0.001072927026676912 0.0 0.0
0.0032240913424299855 -0.001689353822278361 0.0 0.0008891038819546365 0.0 0.0
0.0023813802452179456 -0.0011113276515944959 0.0 0.0007218689766351344 0.0 0.0
0.0018219758217882936 -0.0007839326250623224 0.0 0.0006551311054137088 0.0 0.0
0.0014681995074471016 -0.0006218935017257288 0.0 0.0006023271872498126 0.0 0.0
0.0011205212263241948 -0.0003953173835046231 0.0 0.0002825180818646772 0.0 0.0
0.0005281821987517948 -0.00011206849393397 0.0 0.00038458286683290543 0.0 0.0
0.0024229163005523996 -0.0038838081847988645 0.0 0.0035664498039997272 0.0 0.0
0.0017972942074992448 -0.003191540054740913 0.0 -0.0031160258445018657 0.0 0.0
0.00030906084769208655 -0.00011615153355878927 0.0 -0.0009748554175588175 0.0 0.0
0.0008404231590396077 -0.00025972686721562055 0.0 -0.0005878617302711719 0.0 0.0
0.0012442971289711342 -0.0005098600142858789 0.0 -0.0008213099447513389 0.0 0.0
0.0015945219822547964 -0.000679791430559129 0.0 -0.000931421585595088 0.0 0.0
0.00203385152573592 -0.0009022020419440224 0.0 -0.0009563818523371792 0.0 0.0
0.0027284739090430547 -0.0013389185676241366 0.0 -0.0011058003494446023 0.0 0.0
0.0036189858975706063 -0.001982247910098045 0.0 -0.001355607990609048 0.0 0.0
0.004649838673709456 -0.0027721513071583548 0.0 -0.0015754031918179118 0.0 0.0
0.005920703065458804 -0.003803087166704522 0.0 -0.0018279812118922878 0.0 0.0
0.007582632671583021 -0.005231733572064856 0.0 -0.0021494026381050496 0.0 0.0
0.009879857779587983 -0.007302883600554755 0.0 -0.002591242309111827 0.0 0.0
0.013131040678395989 -0.010337073072810066 0.0 -0.0032574012564361293 0.0 0.0
0.017620342585026285 -0.014602597316445198 0.0 -0.00422787157850775 0.0 0.0
0.02340897260711197 -0.0201628125459008 0.0 -0.005499888035122982 0.0 0.0
0.0302659270051853 -0.026788002793054044 0.0 -0.006867820205409908 0.0 0.0
0.037677886396251435 -0.033963457755148196 0.0 -0.007827442722306038 0.0 0.0
0.04488943286241682 -0.04093682349969141 0.0 -0.007793839224107035 0.0 0.0
0.050926188212709105 -0.04675471107928675 0.0 -0.006306961978769676 0.0 0.0
0.05468300325031295 -0.050364650530819066 0.0 -0.0031345588544081093 0.0 0.0
0.05468300325031084 -0.050364650530817734 0.0 0.003134558854425651 0.0 0.0
0.05092618821270505 -0.046754711079284084 0.0 0.006306961978791686 0.0 0.0
0.04488943286241172 -0.04093682349968719 0.0 0.007793839224123356 0.0 0.0
0.03767788639624532 -0.03396345775514131 0.0 0.007827442722313838 0.0 0.0
0.030265927005178855 -0.026788002793047605 0.0 0.006867820205409825 0.0 0.0
0.023408972607104894 -0.020162812545896358 0.0 0.005499888035123135 0.0 0.0
0.017620342585018656 -0.014602597316440424 0.0 0.004227871578507514 0.0 0.0
0.013131040678387704 -0.01033707307280296 0.0 0.0032574012564358656 0.0 0.0
0.009879857779579629 -0.007302883600546983 0.0 0.0025912423091095926 0.0 0.0
0.007582632671574774 -0.005231733572058861 0.0 0.0021494026381031484 0.0 0.0
0.005920703065451671 -0.0038030871666983046 0.0 0.0018279812118884575 0.0 0.0
0.00464983867370343 -0.0027721513071525816 0.0 0.0015754031918165101 0.0 0.0
0.003618985897565305 -0.0019822479100944923 0.0 0.0013556079906069662 0.0 0.0
0.0027284739090390336 -0.0013389185676223048 0.0 0.0011058003494434365 0.0 0.0
0.002033851525733696 -0.0009022020419424126 0.0 0.0009563818523356665 0.0 0.0
0.001594521982253544 -0.0006797914305585739 0.0 0.0009314215855938252 0.0 0.0
0.0012442971289702842 -0.0005098600142854626 0.0 0.0008213099447497291 0.0 0.0
0.0008404231590395245 -0.0002597268672153985 0.0 0.0005878617302692013 0.0 0.0
0.0003090608476922496 -0.00011615153355813701 0.0 0.0009748554175565693 0.0 0.0
0.001797294207495817 -0.0031915400547355526 0.0 0.0031160258444949546 0.0 0.0
0.0013609766667522921 -0.002635350534157699 0.0 -0.0026501214684331448 0.0 0.0
0.00018548334126713625 -0.0001464657045940898 0.0 -0.0014211764655691628 0.0 0.0
0.0006022407713676438 -0.000161834538738026 0.0 -0.0009262505499781221 0.0 0.0
0.0010110910096476008 -0.00039254190475740414 0.0 -0.001051580280768974 0.0 0.0
0.0013536505146356063 -0.0005747817502505526 0.0 -0.0011909492999336302 0.0 0.0
0.0017266299940045284 -0.0007468343834926006 0.0 -0.0012194810774920212 0.0 0.0
0.0022515011173341107 -0.0010269844653423288 0.0 -0.0012783916253894523 0.0 0.0
0.0030030660906924696 -0.0015252325525103583 0.0 -0.001516311368684714 0.0 0.0
0.0038955430335203094 -0.002191694872741623 0.0 -0.0018119417308304492 0.0 0.0
0.004964810592832686 -0.003027886778104394 0.0 -0.002094215713621575 0.0 0.0
0.006346619020376868 -0.004183249865632899 0.0 -0.0024475427108520548 0.0 0.0
0.008244385549452407 -0.005863386228906919 0.0 -0.0029291677123718246 0.0 0.0
0.01094087888238282 -0.008348702742713265 0.0 -0.0036443535234696872 0.0 0.0
0.014704843980378413 -0.011903419050914188 0.0 -0.00471747463830563 0.0 0.0
0.019617877191411365 -0.016606822827199164 0.0 -0.006108561344644742 0.0 0.0
0.025503132350339894 -0.02228162107188858 0.0 -0.0075698087760976696 0.0 0.0
0.03194830293398973 -0.028522173678739993 0.0 -0.008663599753865658 0.0 0.0
0.03835129607204893 -0.0347182166884894 0.0 -0.008757053459696379 0.0 0.0
0.04389444300678047 -0.04006375044152244 0.0 -0.007212105534466828 0.0 0.0
0.04754320861239434 -0.04357151372768597 0.0 -0.00362957758812002 0.0 0.0
0.0475432086123921 -0.04357151372768531 0.0 0.0036295775881370063 0.0 0.0
0.043894443006776536 -0.040063750441519774 0.0 0.007212105534488755 0.0 0.0
0.03835129607204452 -0.03471821668848296 0.0 0.008757053459712671 0.0 0.0
0.03194830293398404 -0.02852217367873533 0.0 0.008663599753872986 0.0 0.0
0.025503132350334426 -0.02228162107188325 0.0 0.007569808776097808 0.0 0.0
0.01961787719140526 -0.01660682282719317 0.0 0.006108561344645103 0.0 0.0
0.014704843980371973 -0.01190341905091008 0.0 0.0047174746383053245 0.0 0.0
0.010940878882375923 -0.008348702742708825 0.0 0.0036443535234698676 0.0 0.0
0.00824438554944533 -0.005863386228901479 0.0 0.002929167712369285 0.0 0.0
0.006346619020370037 -0.004183249865628791 0.0 0.0024475427108500147 0.0 0.0
0.004964810592826732 -0.0030278867781015073 0.0 0.0020942157136176753 0.0 0.0
0.0038955430335152197 -0.0021916948727378482 0.0 0.001811941730829436 0.0 0.0
0.0030030660906880946 -0.0015252325525078048 0.0 0.0015163113686828544 0.0 0.0
0.0022515011173310367 -0.0010269844653420512 0.0 0.0012783916253884253 0.0 0.0
0.0017266299940029012 -0.0007468343834921565 0.0 0.0012194810774908 0.0 0.0
0.0013536505146344718 -0.0005747817502506636 0.0 0.0011909492999324367 0.0 0.0
0.0010110910096469555 -0.0003925419047570988 0.0 0.0010515802807675445 0.0 0.0
0.0006022407713676403 -0.00016183453873816478 0.0 0.0009262505499760681 0.0 0.0
0.00018548334126719523 -0.00014646570459385388 0.0 0.0014211764655664566 0.0 0.0
0.0013609766667495027 -0.002635350534153246 0.0 0.0026501214684275104 0.0 0.0
0.0010455226029804157 -0.0021809652106453 0.0 -0.00225846007068789 0.0 0.0
0.00010848643945943204 -0.00018073286485364992 0.0 -0.001746584521470626 0.0 0.0
0.0004041688374219199 -9.047300953285431e-05 0.0 -0.0012481163148953672 0.0 0.0
0.0007798505568105858 -0.00028081750922975823 0.0 -0.0012824301424841228 0.0 0.0
0.001100197683545124 -0.00045897635798458625 0.0 -0.0014185038716096193 0.0 0.0
0.0014250939526386022 -0.0006171567101457276 0.0 -0.0014905798989360147 0.0 0.0
0.0018256145098806548 -0.0008014191546118488 0.0 -0.0015075251553534341 0.0 0.0
0.0023930977589980244 -0.001120422383167896 0.0 -0.0016289561038467792 0.0 0.0
0.0031352144950624328 -0.0016287300925871273 0.0 -0.0019173798027044553 0.0 0.0
0.004023407043283668 -0.002295682917726749 0.0 -0.0022526151053544052 0.0 0.0
0.005135919905707928 -0.0031911023737247746 0.0 -0.002614471196551893 0.0 0.0
0.006653088275475456 -0.004494428697573438 0.0 -0.00310369365395044 0.0 0.0
0.008810949031746458 -0.0064457721457006345 0.0 -0.0038322384552356703 0.0 0.0
0.011850255983527958 -0.009283086155687625 0.0 -0.0049021513350154255 0.0 0.0
0.015872996680316408 -0.013112328982801236 0.0 -0.006307651656391577 0.0 0.0
0.020761217887279755 -0.01781508250279451 0.0 -0.007815536188588462 0.0 0.0
0.02619376331072923 -0.023070925152120614 0.0 -0.00894184547701396 0.0 0.0
0.031732288184064594 -0.028437733765075635 0.0 -0.009136132506568972 0.0 0.0
0.03676348864291468 -0.03329685244457359 0.0 -0.007723948137194958 0.0 0.0
0.0403366174298071 -0.036731469287857976 0.0 -0.00403419824500284 0.0 0.0
0.04033661742980538 -0.036731469287855756 0.0 0.004034198245018938 0.0 0.0
0.03676348864291093 -0.03329685244456981 0.0 0.007723948137216496 0.0 0.0
0.03173228818406064 -0.028437733765072082 0.0 0.009136132506584904 0.0 0.0
0.02619376331072422 -0.02307092515211817 0.0 0.00894184547702126 0.0 0.0
0.020761217887275085 -0.017815082502792512 0.0 0.00781553618858799 0.0 0.0
0.015872996680311155 -0.013112328982798127 0.0 0.006307651656390856 0.0 0.0
0.01185025598352292 -0.009283086155682851 0.0 0.004902151335014676 0.0 0.0
0.008810949031740886 -0.006445772145696194 0.0 0.0038322384552356703 0.0 0.0
0.006653088275469732 -0.004494428697568775 0.0 0.003103693653948414 0.0 0.0
0.005135919905702335 -0.003191102373721111 0.0 0.002614471196549506 0.0 0.0
0.004023407043278887 -0.0022956829177233073 0.0 0.002252615105349881 0.0 0.0
0.0031352144950582833 -0.0016287300925845738 0.0 0.0019173798027020406 0.0 0.0
0.002393097758994614 -0.0011204223831667859 0.0 0.00162895610384442 0.0 0.0
0.001825614509878476 -0.0008014191546111271 0.0 0.00150752515535231 0.0 0.0
0.0014250939526374296 -0.000617156710145228 0.0 0.0014905798989342939 0.0 0.0
0.001100197683544163 -0.0004589763579844197 0.0 0.001418503871608412 0.0 0.0
0.0007798505568101244 -0.00028081750922956394 0.0 0.0012824301424823742 0.0 0.0
0.0004041688374218366 -9.04730095327988e-05 0.0 0.0012481163148929941 0.0 0.0
0.00010848643945941816 -0.00018073286485342788 0.0 0.0017465845214684056 0.0 0.0
0.0010455226029783965 -0.0021809652106420437 0.0 0.0022584600706840596 0.0 0.0
0.0008041940596072439 -0.0017957217465256886 0.0 -0.001953555792324174 0.0 0.0
5.8075232530145626e-05 -0.00021582026119518205 0.0 -0.0019810565827157595 0.0 0.0
0.0002370383649566224 -3.5287716579651685e-05 0.0 -0.0015276232836665682 0.0 0.0
0.0005568317745141757 -0.0001775126447195463 0.0 -0.0014995254230628918 0.0 0.0
0.0008404102171592626 -0.00033884685250484825 0.0 -0.001614688978865797 0.0 0.0
0.0011128201799441018 -0.0004782677366587107 0.0 -0.0017101531630330652 0.0 0.0
0.0014255547525971954 -0.0006200247674784665 0.0 -0.0017507137404228768 0.0 0.0
0.0018313501661599355 -0.0008095437759216839 0.0 -0.0017842720105346876 0.0 0.0
0.002380799687983867 -0.0011241798397192415 0.0 -0.0019395206713518631 0.0 0.0
0.0030871114405013472 -0.0016058665269149675 0.0 -0.002265069371937073 0.0 0.0
0.003949306799417504 -0.002265108437993879 0.0 -0.002652674035149738 0.0 0.0
0.005104801997174557 -0.0032100301997527447 0.0 -0.003121424249419441 0.0 0.0
0.006743483360902587 -0.004643137498197447 0.0 -0.003806546113619025 0.0 0.0
0.00907267648722717 -0.006773388447700146 0.0 -0.00481456089440413 0.0 0.0
0.012193982729015708 -0.00971451143848423 0.0 -0.0061272172579549256 0.0 0.0
0.016057821502497065 -0.013409043849177182 0.0 -0.007545812557052001 0.0 0.0
0.020437210733386675 -0.017640397125359808 0.0 -0.008670884989685906 0.0 0.0
0.02504407493422603 -0.02211369961170684 0.0 -0.00897675289269348 0.0 0.0
0.029495173565659963 -0.026424537180278485 0.0 -0.007823439824655526 0.0 0.0
0.032999559469789566 -0.029789595449233097 0.0 -0.00433871292563745 0.0 0.0
0.03299955946978848 -0.029789595449231543 0.0 0.004338712925652355 0.0 0.0
0.0294951735656565 -0.026424537180275598 0.0 0.00782343982467465 0.0 0.0
0.02504407493422247 -0.022113699611703286 0.0 0.00897675289270744 0.0 0.0
0.020437210733382435 -0.017640397125356477 0.0 0.008670884989691763 0.0 0.0
0.01605782150249329 -0.013409043849172742 0.0 0.00754581255705139 0.0 0.0
0.012193982729011399 -0.009714511438480455 0.0 0.006127217257954953 0.0 0.0
0.009072676487223277 -0.006773388447696593 0.0 0.0048145608944033524 0.0 0.0
0.006743483360898722 -0.004643137498195449 0.0 0.0038065461136189416 0.0 0.0
0.005104801997170033 -0.003210030199748415 0.0 0.003121424249418303 0.0 0.0
0.0039493067994132575 -0.002265108437989549 0.0 0.0026526740351472122 0.0 0.0
0.0030871114404976696 -0.001605866526912303 0.0 0.0022650693719334647 0.0 0.0
0.0023807996879808835 -0.00112417983971691 0.0 0.0019395206713506696 0.0 0.0
0.0018313501661574721 -0.0008095437759185753 0.0 0.0017842720105340493 0.0 0.0
0.0014255547525956758 -0.0006200247674770787 0.0 0.0017507137404216833 0.0 0.0
0.001112820179943269 -0.0004782677366577115 0.0 0.001710153163030581 0.0 0.0
0.0008404102171586797 -0.00033884685250484825 0.0 0.0016146889788639374 0.0 0.0
0.0005568317745137386 -0.00017751264472012918 0.0 0.0014995254230606853 0.0 0.0
0.00023703836495662933 -3.528771657951291e-05 0.0 0.001527623283663876 0.0 0.0
5.8075232530097054e-05 -0.00021582026119472408 0.0 0.001981056582713067 0.0 0.0
0.0008041940596057867 -0.0017957217465231568 0.0 0.001953555792321357 0.0 0.0
0.0006133811156424293 -0.001480966128550712 0.0 -0.0017264561264366818 0.0 0.0
1.8559898106437767e-05 -0.0002354377148673925 0.0 -0.00211239862077664 0.0 0.0
9.362981291967387e-05 8.169501615723496e-06 0.0 -0.0017596532035276946 0.0 0.0
0.0003442896237946802 -8.246374504788934e-05 0.0 -0.001688068802951942 0.0 0.0
0.0005784419403264129 -0.00021762993749618875 0.0 -0.0017777047312342448 0.0 0.0
0.0007922979523528051 -0.00033496441567881785 0.0 -0.0018843431217281936 0.0 0.0
0.0010229769636027689 -0.0004446181202674149 0.0 -0.0019572774257952674 0.0 0.0
0.0013068578795907698 -0.0005673277537756594 0.0 -0.0019876663419026996 0.0 0.0
0.0016701764201230776 -0.0007364275124608355 0.0 -0.0020254777721547823 0.0 0.0
0.002163652644469119 -0.0010063720049366953 0.0 -0.0022090223516687824 0.0 0.0
0.0027848417682047946 -0.0014230602058629138 0.0 -0.0025386964515887456 0.0 0.0
0.0035955618844051365 -0.00203593349017972 0.0 -0.0029692473236666017 0.0 0.0
0.004741151331330892 -0.002973737196458104 0.0 -0.003582297175524801 0.0 0.0
0.006377805573249719 -0.004409718027274634 0.0 -0.004454225630262848 0.0 0.0
0.008605643329624657 -0.006456089827157951 0.0 -0.0055788249125561795 0.0 0.0
0.011415901911226801 -0.009113038342250857 0.0 -0.006813199127191055 0.0 0.0
0.014698634334918935 -0.012266613011906236 0.0 -0.00781744071566054 0.0 0.0
0.018302560855820903 -0.01576699449825769 0.0 -0.008192699954552102 0.0 0.0
0.022058894464548576 -0.01943407251942575 0.0 -0.0074594205757543 0.0 0.0
0.025458366730248982 -0.022700462419386502 0.0 -0.0045350331770332986 0.0 0.0
0.02545836673024835 -0.022700462419386946 0.0 0.00453503317704515 0.0 0.0
0.02205889446454571 -0.019434072519426193 0.0 0.007459420575770759 0.0 0.0
0.018302560855817794 -0.015766994498258358 0.0 0.008192699954563926 0.0 0.0
0.014698634334915715 -0.012266613011903793 0.0 0.007817440715665203 0.0 0.0
0.011415901911224172 -0.009113038342247748 0.0 0.0068131991271898895 0.0 0.0
0.008605643329621465 -0.006456089827155065 0.0 0.005578824912555708 0.0 0.0
0.0063778055732469086 -0.0044097180272726355 0.0 0.004454225630262515 0.0 0.0
0.004741151331328679 -0.0029737371964572157 0.0 0.00358229717552469 0.0 0.0
0.00359556188440191 -0.002035933490179054 0.0 0.002969247323665297 0.0 0.0
0.002784841768202012 -0.0014230602058623587 0.0 0.002538696451586886 0.0 0.0
0.0021636526444666834 -0.001006372004935474 0.0 0.002209022351666118 0.0 0.0
0.0016701764201211694 -0.0007364275124599473 0.0 0.0020254777721541717 0.0 0.0
0.0013068578795891739 -0.0005673277537758814 0.0 0.001987666341902228 0.0 0.0
0.0010229769636016586 -0.0004446181202670818 0.0 0.0019572774257936992 0.0 0.0
0.0007922979523523263 -0.0003349644156784848 0.0 0.0018843431217259177 0.0 0.0
0.0005784419403261493 -0.00021762993749580017 0.0 0.0017777047312316774 0.0 0.0
0.00034428962379442346 -8.246374504744525e-05 0.0 0.001688068802949555 0.0 0.0
9.362981291973632e-05 8.169501615779007e-06 0.0 0.0017596532035257934 0.0 0.0
1.8559898106437767e-05 -0.0002354377148672815 0.0 0.002112398620774461 0.0 0.0
0.0006133811156413815 -0.0014809661285489564 0.0 0.0017264561264351136 0.0 0.0
0.000477181429284948 -0.0012587629554300928 0.0 -0.0016027422273811737 0.0 0.0
-2.2480986736836406e-05 -0.00023471269338593004 0.0 -0.0021778880359753228 0.0 0.0
-3.138652581607254e-05 4.497420530119589e-05 0.0 -0.0019338859130633435 0.0 0.0
0.00014253653919842763 4.86416125433653e-06 0.0 -0.0018399239425440361 0.0 0.0
0.0003170351146999234 -9.763353241248884e-05 0.0 -0.0019014651264556287 0.0 0.0
0.000466564692723645 -0.00018739098752473815 0.0 -0.002006168688842236 0.0 0.0
0.0006141769731815155 -0.0002639451908295065 0.0 -0.002095263982115139 0.0 0.0
0.000785707427442453 -0.0003411925599337007 0.0 -0.0021561836885425623 0.0 0.0
0.0009987635009867518 -0.00043590418017713795 0.0 -0.002184224037698357 0.0 0.0
0.001277142695670086 -0.0005634656719437636 0.0 -0.0022625330241591024 0.0 0.0
0.0016552450165307278 -0.0007540215083119417 0.0 -0.002438981356924247 0.0 0.0
0.0021285380084389294 -0.0010384852428970692 0.0 -0.0027162708081059084 0.0 0.0
0.002800857647056315 -0.0015012461892945916 0.0 -0.0031965829397314627 0.0 0.0
0.003773120564445731 -0.0022678673008476036 0.0 -0.003882831639128309 0.0 0.0
0.005115815527848726 -0.003425599410139757 0.0 -0.004759258315319731 0.0 0.0
0.006858317570913798 -0.005013138398327399 0.0 -0.005728998328636881 0.0 0.0
0.008995270019018523 -0.007036672194994598 0.0 -0.0065848663144372765 0.0 0.0
0.011544722935892801 -0.009481043253941612 0.0 -0.006945296392462663 0.0 0.0
0.014455390355070707 -0.012343936437599456 0.0 -0.0065434261539288885 0.0 0.0
0.017613021090513603 -0.015407870915572497 0.0 -0.004540434897280482 0.0 0.0
0.01761302109051345 -0.015407870915572719 0.0 0.004540434897289142 0.0 0.0
0.014455390355068647 -0.012343936437596792 0.0 0.006543426153941434 0.0 0.0
0.011544722935890414 -0.00948104325394028 0.0 0.0069452963924719335 0.0 0.0
0.008995270019016614 -0.0070366721949941535 0.0 0.006584866314440857 0.0 0.0
0.006858317570912237 -0.005013138398326733 0.0 0.0057289983286350765 0.0 0.0
0.005115815527846818 -0.0034255994101382026 0.0 0.004759258315318232 0.0 0.0
0.00377312056444426 -0.0022678673008460493 0.0 0.003882831639127615 0.0 0.0
0.0028008576470554686 -0.0015012461892927043 0.0 0.0031965829397318235 0.0 0.0
0.0021285380084372085 -0.0010384852428945157 0.0 0.0027162708081041875 0.0 0.0
0.0016552450165293817 -0.0007540215083108315 0.0 0.0024389813569228036 0.0 0.0
0.001277142695668941 -0.0005634656719433195 0.0 0.0022625330241570207 0.0 0.0
0.000998763500985815 -0.0004359041801764718 0.0 0.0021842240376976074 0.0 0.0
0.0007857074274415649 -0.0003411925599348109 0.0 0.002156183688541563 0.0 0.0
0.0006141769731809604 -0.00026394519082961754 0.0 0.0020952639821134322 0.0 0.0
0.00046656469272351314 -0.00018739098752468264 0.0 0.0020061686888399877 0.0 0.0
0.0003170351146999095 -9.763353241232231e-05 0.0 0.0019014651264533111 0.0 0.0
0.0001425365391984068 4.864161254281019e-06 0.0 0.0018399239425414826 0.0 0.0
-3.138652581601703e-05 4.497420530144569e-05 0.0 0.0019338859130610953 0.0 0.0
-2.2480986736773956e-05 -0.00023471269338555534 0.0 0.0021778880359730746 0.0 0.0
0.000477181429284379 -0.001258762955428861 0.0 0.0016027422273796471 0.0 0.0
0.00038142738859963526 -0.0010606705542448996 0.0 -0.001470302287048475 0.0 0.0
-6.344159087393053e-05 -0.00022165323380282653 0.0 -0.0021970920826791668 0.0 0.0
-0.00014389097446575877 7.940043425558319e-05 0.0 -0.002048179869531902 0.0 0.0
-4.88389296411304e-05 8.540682269092548e-05 0.0 -0.0019480559653740487 0.0 0.0
5.851682450599277e-05 1.967662522278646e-05 0.0 -0.001981869976842132 0.0 0.0
0.00013867205929873894 -3.896075563314394e-05 0.0 -0.002075747780849388 0.0 0.0
0.0002014505933253946 -8.09004861485052e-05 0.0 -0.0021701728458906194 0.0 0.0
0.000261883846855486 -0.00011256103789836214 0.0 -0.002230852895879265 0.0 0.0
0.0003346755939837229 -0.00014513728845955143 0.0 -0.0022667223105318213 0.0 0.0
0.0004228641837866892 -0.00018474802135182156 0.0 -0.002318770314464036 0.0 0.0
0.0005517084727020352 -0.00024375990122893487 0.0 -0.002461582000885393 0.0 0.0
0.0007039816721855427 -0.0003248639218330629 0.0 -0.002673240972322133 0.0 0.0
0.000921879581306316 -0.0004357148881223294 0.0 -0.002993757049457313 0.0 0.0
0.0012439250166194071 -0.0006156474688210345 0.0 -0.0034896110952750137 0.0 0.0
0.0017047166000033268 -0.0009201262612721361 0.0 -0.004205480922922167 0.0 0.0
0.002363217000280561 -0.0014022526666865875 0.0 -0.005078820199618916 0.0 0.0
0.0033231493126411465 -0.002214094387393839 0.0 -0.005928919406477384 0.0 0.0
0.0048008690236286886 -0.003546243780938374 0.0 -0.00632969829494448 0.0 0.0
0.006823817361435912 -0.0054155883174951125 0.0 -0.005831562285605912 0.0 0.0
0.009391080350666152 -0.008017379029650273 0.0 -0.004530487121230581 0.0 0.0
0.009391080350666332 -0.008017379029648941 0.0 0.004530487121237353 0.0 0.0
0.006823817361434802 -0.0054155883174951125 0.0 0.005831562285616709 0.0 0.0
0.004800869023627481 -0.003546243780938596 0.0 0.006329698294952835 0.0 0.0
0.003323149312640529 -0.0022140943873951713 0.0 0.0059289194064796324 0.0 0.0
0.00236321700028036 -0.0014022526666863655 0.0 0.005078820199617917 0.0 0.0
0.0017047166000028896 -0.0009201262612721361 0.0 0.004205480922921556 0.0 0.0
0.0012439250166191643 -0.0006156474688212565 0.0 0.0034896110952752357 0.0 0.0
0.0009218795813068226 -0.000435714888120442 0.0 0.002993757049458645 0.0 0.0
0.00070398167218539 -0.0003248639218319527 0.0 0.0026732409723217443 0.0 0.0
0.0005517084727021046 -0.00024375990122837976 0.0 0.0024615820008840883 0.0 0.0
0.00042286418378669616 -0.00018474802135215462 0.0 0.00231877031446176 0.0 0.0
0.0003346755939837229 -0.00014513728845877427 0.0 0.0022667223105313217 0.0 0.0
0.00026188384685536803 -0.00011256103789647476 0.0 0.002230852895878488 0.0 0.0
0.00020145059332535298 -8.090048614778356e-05 0.0 0.0021701728458891206 0.0 0.0
0.00013867205929895404 -3.896075563319945e-05 0.0 0.0020757477808472646 0.0 0.0
5.851682450624257e-05 1.967662522284197e-05 0.0 0.001981869976839634 0.0 0.0
-4.8838929640991624e-05 8.540682269062017e-05 0.0 0.001948055965371176 0.0 0.0
-0.00014389097446559224 7.940043425558319e-05 0.0 0.002048179869529404 0.0 0.0
-6.344159087384726e-05 -0.0002216532338027849 0.0 0.0021970920826769047 0.0 0.0
0.0003814273885992675 -0.001060670554243864 0.0 0.0014703022870465737 0.0 0.0
0.0003009036718190222 -0.0008765304093627524 0.0 -0.001335470034024372 0.0 0.0
-0.0001028427158344461 -0.00019730180025689936 0.0 -0.0021659363734396475 0.0 0.0
-0.00024769712617691425 0.00011264861895238232 0.0 -0.0021058156174264264 0.0 0.0
-0.0002308120952678877 0.00016046836306421453 0.0 -0.0020075443192121845 0.0 0.0
-0.00019519090990137433 0.00013313045564095072 0.0 -0.002014395612456185 0.0 0.0
-0.00018867494431688142 0.00010849352679370705 0.0 -0.0020881061745411378 0.0 0.0
-0.00021262344840992237 0.00010299478148745322 0.0 -0.0021735436700036637 0.0 0.0
-0.0002603485554515811 0.00011507637194207998 0.0 -0.0022309938550457986 0.0 0.0
-0.00033190724191849846 0.00014310697252262194 0.0 -0.002265981322120525 0.0 0.0
-0.00042108721850922515 0.00018284985551264565 0.0 -0.00231843110883026 0.0 0.0
-0.0005499757213704853 0.00024212836334147614 0.0 -0.002461257334651995 0.0 0.0
-0.000702512800412447 0.00032450696278607527 0.0 -0.0026725422237692253 0.0 0.0
-0.0009252460790828906 0.00044005558335180606 0.0 -0.0029907002582636733 0.0 0.0
-0.0012553439970331148 0.0006228038629223498 0.0 -0.0034860361543320173 0.0 0.0
-0.0016825266623080176 0.0008900632418809007 0.0 -0.00423005415734512 0.0 0.0
-0.002126430463785793 0.0011850100418036025 0.0 -0.005189192627569977 0.0 0.0
-0.0023717748437481548 0.0013505646792502102 0.0 -0.006314032842225009 0.0 0.0
-0.0020698281883626823 0.0010944501995957534 0.0 -0.0075442594953966935 0.0 0.0
-0.0009454762790513035 0.00037191572381134463 0.0 -0.008419268568707894 0.0 0.0
0.0013443769418009233 -0.0016297625669039473 0.0 -0.006783856415126771 0.0 0.0
0.0013443769418008678 -0.0016297625669055016 0.0 0.006783856415135042 0.0 0.0
-0.0009454762790516991 0.0003719157238097903 0.0 0.008419268568718358 0.0 0.0
-0.0020698281883626893 0.0010944501995961975 0.0 0.0075442594954030495 0.0 0.0
-0.002371774843747225 0.0013505646792491 0.0 0.00631403284222623 0.0 0.0
-0.0021264304637845094 0.001185010041800938 0.0 0.005189192627569311 0.0 0.0
-0.0016825266623069698 0.0008900632418795684 0.0 0.004230054157344176 0.0 0.0
-0.0012553439970321295 0.0006228038629210175 0.0 0.0034860361543324614 0.0 0.0
-0.0009252460790811351 0.000440055583351584 0.0 0.0029907002582648112 0.0 0.0
-0.0007025128004110592 0.00032450696278407687 0.0 0.002672542223768476 0.0 0.0
-0.000549975721369042 0.0002421283633392557 0.0 0.002461257334650385 0.0 0.0
-0.00042108721850808023 0.0001828498555123126 0.0 0.0023184311088284004 0.0 0.0
-0.0003319072419176103 0.00014310697252151172 0.0 0.002265981322120053 0.0 0.0
-0.0002603485554509774 0.00011507637194163589 0.0 0.002230993855044744 0.0 0.0
-0.00021262344840951297 0.00010299478148806385 0.0 0.0021735436700022898 0.0 0.0
-0.0001886749443163402 0.00010849352679365154 0.0 0.0020881061745387786 0.0 0.0
-0.00019519090990093024 0.00013313045564061765 0.0 0.002014395612453118 0.0 0.0
-0.00023081209526747137 0.00016046836306418677 0.0 0.0020075443192095893 0.0 0.0
-0.00024769712617669915 0.0001126486189523268 0.0 0.002105815617423956 0.0 0.0
-0.00010284271583425181 -0.00019730180025651078 0.0 0.002165936373437302 0.0 0.0
0.00030090367181870997 -0.0008765304093618599 0.0 0.0013354700340231923 0.0 0.0
0.0002273250832204171 -0.0007046121449909432 0.0 -0.0012005963441709955 0.0 0.0
-0.00014294346700553795 -0.00016305285709886097 0.0 -0.0020869597301541865 0.0 0.0
-0.0003449549315685946 0.00014605128695513447 0.0 -0.0021073408323360188 0.0 0.0
-0.0004043855817422379 0.0002307231183230618 0.0 -0.002015671866151897 0.0 0.0
-0.0004429561699595269 0.0002420983648844799 0.0 -0.0019977073421976743 0.0 0.0
-0.0005126267240833093 0.00025311213444795255 0.0 -0.0020456109506358094 0.0 0.0
-0.0006242412394516575 0.00028463556379809685 0.0 -0.002106382600978715 0.0 0.0
-0.0007842395990598217 0.00034336085811448314 0.0 -0.0021559593011117872 0.0 0.0
-0.0009962898928474462 0.0004339350381999951 0.0 -0.0021818676515590885 0.0 0.0
-0.0012755205630011132 0.0005617514488256425 0.0 -0.0022614294956405656 0.0 0.0
-0.001653675664850203 0.0007524868867321288 0.0 -0.002439197854722769 0.0 0.0
-0.0021268326263242793 0.0010374073257474192 0.0 -0.002715682069891673 0.0 0.0
-0.0028024385629094734 0.001505297739567868 0.0 -0.0031874152533433175 0.0 0.0
-0.00378429495460645 0.00227915931724465 0.0 -0.0038697937524181936 0.0 0.0
-0.005106552829545627 0.0033996190285807693 0.0 -0.004806225061456587 0.0 0.0
-0.006655098202309966 0.004760764397890194 0.0 -0.005998471747953704 0.0 0.0
-0.008129929177302639 0.0060639861163178654 0.0 -0.007403483891822743 0.0 0.0
-0.009077360980739753 0.006861651727688711 0.0 -0.008925915183498667 0.0 0.0
-0.008808564946856834 0.006377582861279096 0.0 -0.009716854635233807 0.0 0.0
-0.006252028260882246 0.003830687000467181 0.0 -0.007961603925111499 0.0 0.0
-0.006252028260882704 0.003830687000467181 0.0 0.007961603925118965 0.0 0.0
-0.008808564946856702 0.006377582861279096 0.0 0.00971685463524502 0.0 0.0
-0.009077360980738462 0.006861651727687157 0.0 0.008925915183506633 0.0 0.0
-0.008129929177300217 0.006063986116317421 0.0 0.007403483891823548 0.0 0.0
-0.006655098202306982 0.004760764397888639 0.0 0.005998471747952122 0.0 0.0
-0.005106552829543573 0.003399619028578993 0.0 0.004806225061457087 0.0 0.0
-0.003784294954604063 0.00227915931724465 0.0 0.003869793752416778 0.0 0.0
-0.002802438562906455 0.0015052977395654255 0.0 0.0031874152533428457 0.0 0.0
-0.002126832626321254 0.001037407325745754 0.0 0.002715682069890174 0.0 0.0
-0.0016536756648473303 0.0007524868867313517 0.0 0.002439197854721048 0.0 0.0
-0.0012755205629987054 0.0005617514488254205 0.0 0.002261429495638373 0.0 0.0
-0.000996289892845649 0.00043393503819866286 0.0 0.002181867651558589 0.0 0.0
-0.0007842395990584755 0.00034336085811403905 0.0 0.002155959301111343 0.0 0.0
-0.0006242412394507207 0.0002846355637984299 0.0 0.0021063826009772163 0.0 0.0
-0.0005126267240825114 0.00025311213444784153 0.0 0.0020456109506335612 0.0 0.0
-0.00044295616995881915 0.00024209836488431336 0.0 0.001997707342195121 0.0 0.0
-0.0004043855817415995 0.0002307231183227565 0.0 0.002015671866149399 0.0 0.0
-0.0003449549315683101 0.00014605128695485692 0.0 0.002107340832334159 0.0 0.0
-0.0001429434670052812 -0.00016305285709880546 0.0 0.002086959730151758 0.0 0.0
0.00022732508322020895 -0.0007046121449903195 0.0 0.001200596344169455 0.0 0.0
0.00015866752770823944 -0.0005459439705028241 0.0 -0.001065530049288374 0.0 0.0
-0.00018528954987027946 -0.0001207951635182336 0.0 -0.0019656222029229425 0.0 0.0
-0.000437544243251764 0.00018061266217472838 0.0 -0.002054962543776323 0.0 0.0
-0.0005703086358014031 0.0002968831903108482 0.0 -0.001972294945647657 0.0 0.0
-0.0006841110345254114 0.0003458186255568818 0.0 -0.0019294950011904677 0.0 0.0
-0.0008305167331027763 0.00039313089128839573 0.0 -0.0019450361106232578 0.0 0.0
-0.0010308989256000017 0.00046261118926571587 0.0 -0.001973285507379227 0.0 0.0
-0.0013057155123464281 0.0005689398816997038 0.0 -0.0019871272326695555 0.0 0.0
-0.001668211947291512 0.0007346558357763655 0.0 -0.002021960800583089 0.0 0.0
-0.002162318161323812 0.001004682483060404 0.0 -0.0022070493494374677 0.0 0.0
-0.0027837745910240796 0.0014214721503433836 0.0 -0.002538870213749822 0.0 0.0
-0.003593449562227999 0.0020339650876098903 0.0 -0.002969204440266243 0.0 0.0
-0.0047388725075134044 0.0029746788027096294 0.0 -0.0035674191040415137 0.0 0.0
-0.006384108043870164 0.0044195749992912425 0.0 -0.004413435906727742 0.0 0.0
-0.008609269533415898 0.006446523487861899 0.0 -0.0055854581316124585 0.0 0.0
-0.011275175485729504 0.008919814849894125 0.0 -0.007156352976776192 0.0 0.0
-0.013997207051657183 0.011455577521103155 0.0 -0.009197661524151135 0.0 0.0
-0.016134629915321698 0.013362178891908272 0.0 -0.011464476577308341 0.0 0.0
-0.01652772414218008 0.013468139850024707 0.0 -0.012769195002638317 0.0 0.0
-0.013451823675924728 0.010031953570218688 0.0 -0.010401879395850966 0.0 0.0
-0.013451823675924901 0.010031953570220242 0.0 0.010401879395860236 0.0 0.0
-0.016527724142179304 0.013468139850025374 0.0 0.012769195002652584 0.0 0.0
-0.016134629915319276 0.013362178891907162 0.0 0.011464476577317806 0.0 0.0
-0.013997207051653526 0.011455577521098936 0.0 0.009197661524153938 0.0 0.0
-0.011275175485724986 0.008919814849889685 0.0 0.007156352976774194 0.0 0.0
-0.008609269533412733 0.0064465234878576805 0.0 0.005585458131611903 0.0 0.0
-0.006384108043866479 0.004419574999288245 0.0 0.004413435906726132 0.0 0.0
-0.004738872507509061 0.0029746788027064097 0.0 0.003567419104041042 0.0 0.0
-0.0035934495622233983 0.0020339650876058935 0.0 0.0029692044402642725 0.0 0.0
-0.0027837745910198053 0.0014214721503397199 0.0 0.0025388702137464914 0.0 0.0
-0.0021623181613199677 0.0010046824830572954 0.0 0.002207049349435025 0.0 0.0
-0.0016682119472887294 0.0007346558357734789 0.0 0.0020219608005833667 0.0 0.0
-0.0013057155123442701 0.0005689398816981495 0.0 0.0019871272326698053 0.0 0.0
-0.0010308989255986 0.00046261118926549383 0.0 0.0019732855073786165 0.0 0.0
-0.00083051673310168 0.0003931308912877296 0.0 0.001945036110621648 0.0 0.0
-0.0006841110345243984 0.0003458186255568263 0.0 0.0019294950011882611 0.0 0.0
-0.000570308635800626 0.0002968831903109037 0.0 0.001972294945645492 0.0 0.0
-0.00043754424325130603 0.0001806126621748949 0.0 0.0020549625437741303 0.0 0.0
-0.00018528954987008517 -0.00012079516351808095 0.0 0.0019656222029209303 0.0 0.0
0.00015866752770817005 -0.0005459439705023297 0.0 0.001065530049287347 0.0 0.0
9.504856365767644e-05 -0.00040186578860759714 0.0 -0.0009277665445765887 0.0 0.0
-0.00023010795118906524 -7.276853621931978e-05 0.0 -0.001806930748503549 0.0 0.0
-0.0005268130196850879 0.0002167029638636686 0.0 -0.0019507437882102102 0.0 0.0
-0.0007294523175894463 0.00035918067781620655 0.0 -0.001877275560717373 0.0 0.0
-0.0009176463610089808 0.0004443820506533913 0.0 -0.0018094258045007056 0.0 0.0
-0.0011404660765495511 0.0005266842326417387 0.0 -0.0017890049408867126 0.0 0.0
-0.0014303547198381839 0.0006345515531744894 0.0 -0.0017726873030236567 0.0 0.0
-0.0018309573623641606 0.0008104316313926052 0.0 -0.0017828113878239626 0.0 0.0
-0.002379454819912072 0.0011225452476637532 0.0 -0.0019350613157411989 0.0 0.0
-0.003086333259654059 0.001604452732307693 0.0 -0.0022628675033871115 0.0 0.0
-0.003948807618368508 0.002264108336575754 0.0 -0.0026536028996281547 0.0 0.0
-0.005102560428437375 0.0032073483137187164 0.0 -0.0031231446297677323 0.0 0.0
-0.006735250558928194 0.004637345623305311 0.0 -0.0037897423568904465 0.0 0.0
-0.009064145101577659 0.00677068273533421 0.0 -0.004743261779462216 0.0 0.0
-0.012199074522095135 0.009713712645502692 0.0 -0.006058374600090177 0.0 0.0
-0.016007851295125754 0.013319532656522304 0.0 -0.007890895654713015 0.0 0.0
-0.02000430233171089 0.01709702019163517 0.0 -0.010404372777412324 0.0 0.0
-0.0232606475440272 0.020066185217329613 0.0 -0.01330531752057365 0.0 0.0
-0.02412829436834612 0.020553657165798045 0.0 -0.015193823915075483 0.0 0.0
-0.020103985965148417 0.016056813074258214 0.0 -0.013009616159710774 0.0 0.0
-0.020103985965148 0.016056813074257992 0.0 0.013009616159724263 0.0 0.0
-0.024128294368344586 0.02055365716579871 0.0 0.015193823915092053 0.0 0.0
-0.02326064754402394 0.020066185217326504 0.0 0.013305317520585308 0.0 0.0
-0.020004302331706192 0.017097020191630508 0.0 0.010404372777416349 0.0 0.0
-0.01600785129512019 0.013319532656519417 0.0 0.007890895654712377 0.0 0.0
-0.012199074522090701 0.00971371264550025 0.0 0.006058374600090705 0.0 0.0
-0.00906414510157287 0.006770682735332767 0.0 0.004743261779460245 0.0 0.0
-0.00673525055892242 0.004637345623301314 0.0 0.0037897423568891975 0.0 0.0
-0.005102560428431442 0.0032073483137141645 0.0 0.003123144629764929 0.0 0.0
-0.003948807618362797 0.00226410833657098 0.0 0.002653602899624602 0.0 0.0
-0.003086333259648813 0.0016044527323049174 0.0 0.002262867503383309 0.0 0.0
-0.002379454819908096 0.0011225452476613107 0.0 0.001935061315740061 0.0 0.0
-0.0018309573623611283 0.0008104316313912729 0.0 0.0017828113878235186 0.0 0.0
-0.001430354719836248 0.0006345515531738788 0.0 0.0017726873030228657 0.0 0.0
-0.0011404660765481078 0.0005266842326409615 0.0 0.0017890049408850472 0.0 0.0
-0.0009176463610077526 0.0004443820506522811 0.0 0.0018094258044984018 0.0 0.0
-0.0007294523175885512 0.0003591806778155404 0.0 0.0018772755607150693 0.0 0.0
-0.0005268130196845952 0.00021670296386300247 0.0 0.0019507437882082534 0.0 0.0
-0.00023010795118883626 -7.276853621934753e-05 0.0 0.001806930748501731 0.0 0.0
9.504856365771114e-05 -0.0004018657886073491 0.0 0.0009277665445758809 0.0 0.0
3.7375429317726416e-05 -0.00027406039103221314 0.0 -0.0007848396727764551 0.0 0.0
-0.0002764999669201268 -2.1304233149610496e-05 0.0 -0.0016149416616792478 0.0 0.0
-0.0006133777942173013 0.000254056125756158 0.0 -0.001797358827335005 0.0 0.0
-0.0008824966404337303 0.00041815695263630603 0.0 -0.001729475511528883 0.0 0.0
-0.0011428517230472612 0.0005359757544470267 0.0 -0.0016360029978605833 0.0 0.0
-0.0014400462022406552 0.0006517807444134105 0.0 -0.00157206149490835 0.0 0.0
-0.0018282143813918156 0.0008114763987535634 0.0 -0.0015278381300580096 0.0 0.0
-0.0023933845252219477 0.001121512926918089 0.0 -0.001627844239903281 0.0 0.0
-0.0031347892683354084 0.0016274857908108453 0.0 -0.0019120300300866921 0.0 0.0
-0.004023326366278376 0.0022948056406699724 0.0 -0.0022498408936506287 0.0 0.0
-0.00513607651548878 0.0031907367718009283 0.0 -0.0026153556567904968 0.0 0.0
-0.006650823988977525 0.0044912546048949675 0.0 -0.003106541073760488 0.0 0.0
-0.008795586655467855 0.0064310280341776105 0.0 -0.0038166540016041917 0.0 0.0
-0.01181776528010571 0.009257253873007798 0.0 -0.004814051537847447 0.0 0.0
-0.015863465618925487 0.013108366961186002 0.0 -0.00617095332444062 0.0 0.0
-0.020810229324029428 0.017839277843127777 0.0 -0.00806386861718289 0.0 0.0
-0.026070396091900053 0.022841426040401958 0.0 -0.010705851908012876 0.0 0.0
-0.030397893185586833 0.026822756699086403 0.0 -0.01398435695270156 0.0 0.0
-0.03159241957224047 0.027552624818618643 0.0 -0.01656129559736233 0.0 0.0
-0.026432882879501622 0.021896038266279838 0.0 -0.015556358642457885 0.0 0.0
-0.02643288287950092 0.021896038266280282 0.0 0.015556358642473345 0.0 0.0
-0.03159241957223825 0.027552624818615756 0.0 0.01656129559738037 0.0 0.0
-0.0303978931855828 0.026822756699084183 0.0 0.013984356952714883 0.0 0.0
-0.026070396091894557 0.02284142604039796 0.0 0.010705851908019148 0.0 0.0
-0.020810229324023072 0.017839277843124002 0.0 0.008063868617183056 0.0 0.0
-0.01586346561891979 0.01310836696118134 0.0 0.006170953324441175 0.0 0.0
-0.011817765280099951 0.009257253873003357 0.0 0.004814051537845532 0.0 0.0
-0.008795586655460676 0.006431028034171837 0.0 0.003816654001602915 0.0 0.0
-0.0066508239889702045 0.0044912546048897495 0.0 0.003106541073758212 0.0 0.0
-0.005136076515481751 0.003190736771794822 0.0 0.0026153556567869995 0.0 0.0
-0.004023326366272072 0.002294805640663977 0.0 0.002249840893645841 0.0 0.0
-0.0031347892683301244 0.0016274857908075147 0.0 0.0019120300300840415 0.0 0.0
-0.0023933845252179474 0.0011215129269173119 0.0 0.001627844239901588 0.0 0.0
-0.0018282143813889117 0.0008114763987532303 0.0 0.001527838130057177 0.0 0.0
-0.0014400462022389447 0.0006517807444131329 0.0 0.0015720614949077394 0.0 0.0
-0.0011428517230458353 0.0005359757544465826 0.0 0.0016360029978593066 0.0 0.0
-0.0008824966404327762 0.00041815695263597297 0.0 0.001729475511527384 0.0 0.0
-0.0006133777942166282 0.0002540561257560192 0.0 0.0017973588273334923 0.0 0.0
-0.00027649996691984924 -2.1304233149693763e-05 0.0 0.0016149416616781237 0.0 0.0
3.737542931765356e-05 -0.00027406039103200757 0.0 0.0007848396727756085 0.0 0.0
-1.283213179971432e-05 -0.0001644946861926594 0.0 -0.0006350508959473422 0.0 0.0
-0.0003225263172355053 3.115911110571079e-05 0.0 -0.0013927562032001878 0.0 0.0
-0.0006973108977294112 0.0002919800882137946 0.0 -0.001597026381896835 0.0 0.0
-0.0010301715827264607 0.00047408554750649756 0.0 -0.0015311645553830744 0.0 0.0
-0.0013593682337766089 0.0006217676065134459 0.0 -0.0014135372123432605 0.0 0.0
-0.0017282377929102727 0.0007708096507444417 0.0 -0.0013077431701175452 0.0 0.0
-0.002252646554950527 0.0010345425165737554 0.0 -0.0013002157512581047 0.0 0.0
-0.003004262579974437 0.0015264424882371896 0.0 -0.0015131637377958362 0.0 0.0
-0.003896411031700159 0.0021914633277307916 0.0 -0.0018063294375837702 0.0 0.0
-0.004965447557659444 0.0030279183917318875 0.0 -0.002091853763292184 0.0 0.0
-0.006347366545084873 0.004183543766449027 0.0 -0.0024485942409730455 0.0 0.0
-0.00824148296107069 0.005859261060262022 0.0 -0.00293118151074373 0.0 0.0
-0.010918262662495029 0.008324749126734976 0.0 -0.003630581338142813 0.0 0.0
-0.014646808511190906 0.011851235575157215 0.0 -0.004636981049906869 0.0 0.0
-0.01957908813446614 0.0165837695582296 0.0 -0.005940504610720987 0.0 0.0
-0.025616635166593224 0.022387359375456883 0.0 -0.007638909359075019 0.0 0.0
-0.03209835515540063 0.028576437280087408 0.0 -0.010096204624871596 0.0 0.0
-0.03745786923045623 0.03353619901917071 0.0 -0.013475104957342637 0.0 0.0
-0.03894927423897727 0.034497357690385755 0.0 -0.01693168335947784 0.0 0.0
-0.032696878933654104 0.02771886888285313 0.0 -0.018126775687280272 0.0 0.0
-0.03269687893365319 0.0277188688828518 0.0 0.018126775687296565 0.0 0.0
-0.03894927423897451 0.0344973576903822 0.0 0.01693168335949749 0.0 0.0
-0.0374578692304514 0.03353619901916827 0.0 0.013475104957357126 0.0 0.0
-0.03209835515539431 0.028576437280085187 0.0 0.01009620462487748 0.0 0.0
-0.02561663516658652 0.02238735937545333 0.0 0.007638909359077267 0.0 0.0
-0.01957908813445913 0.01658376955822516 0.0 0.005940504610721251 0.0 0.0
-0.014646808511183985 0.011851235575149555 0.0 0.0046369810499063 0.0 0.0
-0.010918262662486793 0.00832474912672665 0.0 0.003630581338141814 0.0 0.0
-0.00824148296106177 0.0058592610602539175 0.0 0.0029311815107415234 0.0 0.0
-0.006347366545076748 0.004183543766443587 0.0 0.002448594240969326 0.0 0.0
-0.0049654475576520855 0.0030279183917282237 0.0 0.0020918537632882844 0.0 0.0
-0.0038964110316938756 0.002191463327727128 0.0 0.0018063294375812722 0.0 0.0
-0.0030042625799691844 0.001526442488233526 0.0 0.0015131637377936158 0.0 0.0
-0.0022526465549465337 0.001034542516571313 0.0 0.001300215751256037 0.0 0.0
-0.0017282377929082257 0.0007708096507442752 0.0 0.0013077431701159214 0.0 0.0
-0.0013593682337750962 0.0006217676065127242 0.0 0.0014135372123418172 0.0 0.0
-0.0010301715827254233 0.00047408554750599796 0.0 0.0015311645553810066 0.0 0.0
-0.0006973108977285924 0.0002919800882134893 0.0 0.001597026381894892 0.0 0.0
-0.0003225263172351202 3.1159111105627524e-05 0.0 0.0013927562031985224 0.0 0.0
-1.2832131799801055e-05 -0.0001644946861925926 0.0 0.0006350508959468287 0.0 0.0
-5.333210529304133e-05 -7.544296905459547e-05 0.0 -0.00047821174608159156 0.0 0.0
-0.00036490569546536455 8.184214767148479e-05 0.0 -0.001142691226955872 0.0 0.0
-0.000778305832365267 0.0003295030065818272 0.0 -0.0013501435222489089 0.0 0.0
-0.0011739975113662787 0.0005274298399818855 0.0 -0.0012833419311349958 0.0 0.0
-0.001565121872537184 0.000697174805153522 0.0 -0.0011390190936394345 0.0 0.0
-0.002022773714963025 0.0009140516188026471 0.0 -0.0010378467079144027 0.0 0.0
-0.002728064902866395 0.001342760097756468 0.0 -0.001121226093235922 0.0 0.0
-0.003622246730521181 0.001984111023749957 0.0 -0.0013504911733425162 0.0 0.0
-0.004652200183246039 0.0027735172417817644 0.0 -0.0015703226689151306 0.0 0.0
-0.0059221411594646 0.0038040895286732823 0.0 -0.001826195581451584 0.0 0.0
-0.007583519260663238 0.005232205033273929 0.0 -0.0021502240955625362 0.0 0.0
-0.009874935979806848 0.007296548000142344 0.0 -0.0025910135770831344 0.0 0.0
-0.013101560514850022 0.010305280862836552 0.0 -0.00324501617942774 0.0 0.0
-0.017544701571267987 0.01453047700379062 0.0 -0.004173846193404995 0.0 0.0
-0.023334977503661078 0.020107190947644016 0.0 -0.005356543899740607 0.0 0.0
-0.030367614923141856 0.026900307712814486 0.0 -0.006739915003034114 0.0 0.0
-0.03796638217140373 0.03417733281227986 0.0 -0.008587842563709813 0.0 0.0
-0.04434140032395381 0.04011126319196201 0.0 -0.011659098956393166 0.0 0.0
-0.046280483487861575 0.04145727208813077 0.0 -0.016248564320284903 0.0 0.0
-0.039126622831779735 0.03371515919541945 0.0 -0.02072161672829609 0.0 0.0
-0.039126622831778694 0.0337151591954179 0.0 0.02072161672831102 0.0 0.0
-0.04628048348785807 0.04145727208812788 0.0 0.01624856432030325 0.0 0.0
-0.04434140032394828 0.040111263191956015 0.0 0.011659098956407293 0.0 0.0
-0.03796638217139666 0.03417733281227253 0.0 0.008587842563715226 0.0 0.0
-0.03036761492313459 0.02690030771280827 0.0 0.006739915003036015 0.0 0.0
-0.02333497750365293 0.02010719094763891 0.0 0.0053565438997412035 0.0 0.0
-0.01754470157125975 0.014530477003784958 0.0 0.0041738461934041765 0.0 0.0
-0.013101560514840873 0.01030528086282989 0.0 0.0032450161794262966 0.0 0.0
-0.009874935979796412 0.007296548000133685 0.0 0.0025910135770813303 0.0 0.0
-0.007583519260653905 0.005232205033266268 0.0 0.002150224095559386 0.0 0.0
-0.005922141159456145 0.003804089528665955 0.0 0.0018261955814486142 0.0 0.0
-0.004652200183239013 0.002773517241774881 0.0 0.0015703226689134098 0.0 0.0
-0.0036222467305147867 0.00198411102374374 0.0 0.00135049117334049 0.0 0.0
-0.0027280649028614025 0.0013427600977541365 0.0 0.0011212260932342566 0.0 0.0
-0.002022773714960218 0.0009140516188014258 0.0 0.0010378467079131398 0.0 0.0
-0.0015651218725355152 0.0006971748051523563 0.0 0.0011390190936386158 0.0 0.0
-0.0011739975113652032 0.0005274298399810529 0.0 0.0012833419311340521 0.0 0.0
-0.0007783058323644933 0.0003295030065811888 0.0 0.001350143522247882 0.0 0.0
-0.0003649056954649933 8.184214767124887e-05 0.0 0.001142691226954734 0.0 0.0
-5.3332105292954596e-05 -7.544296905452087e-05 0.0 0.0004782117460808283 0.0 0.0
-8.073128398318474e-05 -9.54523619713099e-06 0.0 -0.0003167157336326082 0.0 0.0
-0.00039839134597771664 0.00012695112747804216 0.0 -0.0008662592481355341 0.0 0.0
-0.0008557837212322672 0.000366160056371051 0.0 -0.0010539122282044178 0.0 0.0
-0.0013162114114962098 0.0005763722613403854 0.0 -0.0009863032824470042 0.0 0.0
-0.001761128935237305 0.0007759259975462784 0.0 -0.0008298337446301374 0.0 0.0
-0.0023582912301648717 0.0011091732813225397 0.0 -0.0007850582398172129 0.0 0.0
-0.0032249333620152087 0.0016898581174709104 0.0 -0.0008947312432835142 0.0 0.0
-0.004227665845689413 0.0024484649007745496 0.0 -0.001067902441675539 0.0 0.0
-0.005413221525923925 0.0033838391920550936 0.0 -0.0012455541160695804 0.0 0.0
-0.006892848652976166 0.004615949439026323 0.0 -0.001456619842059692 0.0 0.0
-0.008846174154651831 0.006328024334162019 0.0 -0.0017283121827037784 0.0 0.0
-0.011549961228128416 0.008796706245242536 0.0 -0.0020930210370665725 0.0 0.0
-0.01534026298640466 0.012355733082664577 0.0 -0.002628280434332747 0.0 0.0
-0.02050359813593955 0.01728624872234419 0.0 -0.0034360070313644853 0.0 0.0
-0.027127538273553242 0.02367447652305721 0.0 -0.004452836997883514 0.0 0.0
-0.03502724670750271 0.031318821131225194 0.0 -0.005419934104677171 0.0 0.0
-0.04353147869688115 0.03951030261833921 0.0 -0.00633760646648085 0.0 0.0
-0.05092541552546691 0.046439182817595404 0.0 -0.00856375704529222 0.0 0.0
-0.053654036103321284 0.048500375842067456 0.0 -0.014245142871830319 0.0 0.0
-0.045985069179700876 0.04010928233302846 0.0 -0.02316296533658191 0.0 0.0
-0.045985069179699675 0.040109282333026686 0.0 0.023162965336594593 0.0 0.0
-0.05365403610331687 0.0485003758420639 0.0 0.014245142871846583 0.0 0.0
-0.05092541552546075 0.04643918281759318 0.0 0.008563757045304765 0.0 0.0
-0.04353147869687321 0.03951030261833499 0.0 0.006337606466485221 0.0 0.0
-0.03502724670749448 0.031318821131218755 0.0 0.005419934104679586 0.0 0.0
-0.027127538273544048 0.0236744765230521 0.0 0.004452836997883583 0.0 0.0
-0.02050359813593008 0.017286248722334974 0.0 0.0034360070313642493 0.0 0.0
-0.01534026298639431 0.012355733082656806 0.0 0.0026282804343321503 0.0 0.0
-0.011549961228116669 0.008796706245233099 0.0 0.0020930210370657953 0.0 0.0
-0.008846174154641322 0.006328024334153581 0.0 0.0017283121827005032 0.0 0.0
-0.00689284865296657 0.004615949439017775 0.0 0.0014566198420566945 0.0 0.0
-0.005413221525916018 0.0033838391920487654 0.0 0.001245554116068262 0.0 0.0
-0.0042276658456821496 0.0024484649007696646 0.0 0.001067902441674068 0.0 0.0
-0.0032249333620091667 0.0016898581174674132 0.0 0.0008947312432817656 0.0 0.0
-0.002358291230161279 0.0011091732813203747 0.0 0.0007850582398162831 0.0 0.0
-0.0017611289352354263 0.0007759259975451127 0.0 0.000829833744629721 0.0 0.0
-0.001316211411494973 0.0005763722613394417 0.0 0.0009863032824464768 0.0 0.0
-0.0008557837212314918 0.0003661600563706624 0.0 0.0010539122282041125 0.0 0.0
-0.00039839134597744255 0.00012695112747819481 0.0 0.0008662592481352566 0.0 0.0
-8.073128398308413e-05 -9.545236196954049e-06 0.0 0.00031671573363208083 0.0 0.0
-8.940215908308236e-05 2.987769016016273e-05 0.0 -0.0001573601177146805 0.0 0.0
-0.0004149112810987454 0.0001611280249226854 0.0 -0.0005636276465554174 0.0 0.0
-0.0009288766511157814 0.00040101060198791116 0.0 -0.0007000048417252214 0.0 0.0
-0.0014602297294398492 0.0006210278315222917 0.0 -0.0006404516937779381 0.0 0.0
-0.001964956672181911 0.0008791011123913117 0.0 -0.000519919305274133 0.0 0.0
-0.0027361881327795656 0.0013557217709161962 0.0 -0.0005009905051007318 0.0 0.0
-0.0037113236932971166 0.0020601109668385575 0.0 -0.0005969127628220605 0.0 0.0
-0.00483176137088609 0.0029274045004366034 0.0 -0.0007111854676024321 0.0 0.0
-0.006179700426091089 0.004019010194845407 0.0 -0.0008338627200177862 0.0 0.0
-0.00787804711035231 0.005461307869571885 0.0 -0.000986887341059367 0.0 0.0
-0.010135254425499202 0.007466655994074145 0.0 -0.0011770928540205394 0.0 0.0
-0.013266269330426864 0.010350461021303325 0.0 -0.0014292290237067906 0.0 0.0
-0.017632153050053903 0.014472551263660316 0.0 -0.0018297584046050586 0.0 0.0
-0.023506414474000745 0.020096698395909662 0.0 -0.0024129984430842633 0.0 0.0
-0.0309347271877444 0.027259574453669444 0.0 -0.0031124894949895454 0.0 0.0
-0.03960803851413053 0.03565293299766248 0.0 -0.00371663185911858 0.0 0.0
-0.04874904272160893 0.044486117781331824 0.0 -0.0038769488283268982 0.0 0.0
-0.0569072737512044 0.052286886151061474 0.0 -0.004356746419806323 0.0 0.0
-0.061046047451667834 0.05561572412315807 0.0 -0.010102926264925038 0.0 0.0
-0.05368325336956647 0.04725598349020488 0.0 -0.0249375758847179 0.0 0.0
-0.05368325336956471 0.047255983490202214 0.0 0.024937575884725893 0.0 0.0
-0.061046047451662616 0.05561572412315341 0.0 0.010102926264938639 0.0 0.0
-0.05690727375119741 0.05228688615105592 0.0 0.004356746419817453 0.0 0.0
-0.04874904272159984 0.04448611778132605 0.0 0.00387694882832898 0.0 0.0
-0.03960803851412138 0.03565293299765404 0.0 0.0037166318591205505 0.0 0.0
-0.03093472718773419 0.027259574453661006 0.0 0.0031124894949899895 0.0 0.0
-0.023506414473989937 0.020096698395902446 0.0 0.002412998443084638 0.0 0.0
-0.017632153050042336 0.014472551263651656 0.0 0.0018297584046042398 0.0 0.0
-0.013266269330413942 0.010350461021292778 0.0 0.0014292290237056804 0.0 0.0
-0.010135254425487497 0.007466655994064597 0.0 0.0011770928540184994 0.0 0.0
-0.007878047110341676 0.00546130786956367 0.0 0.0009868873410573131 0.0 0.0
-0.006179700426082299 0.004019010194837969 0.0 0.0008338627200173698 0.0 0.0
-0.004831761370878039 0.002927404500430053 0.0 0.0007111854676016549 0.0 0.0
-0.0037113236932902766 0.0020601109668332285 0.0 0.0005969127628206866 0.0 0.0
-0.002736188132774939 0.0013557217709139202 0.0 0.0005009905050995522 0.0 0.0
-0.0019649566721797636 0.0008791011123907011 0.0 0.0005199193052740358 0.0 0.0
-0.0014602297294385187 0.0006210278315218754 0.0 0.0006404516937773275 0.0 0.0
-0.0009288766511149349 0.00040101060198735605 0.0 0.0007000048417245552 0.0 0.0
-0.00041491128109851123 0.00016112802492267153 0.0 0.0005636276465549594 0.0 0.0
-8.940215908294358e-05 2.9877690160075993e-05 0.0 0.00015736011771419478 0.0 0.0
-6.9037932260263e-05 3.7956457881835326e-05 0.0 -1.509432615136308e-05 0.0 0.0
-0.00040218387764519303 0.00017687247247899496 0.0 -0.0002301569439965151 0.0 0.0
-0.0009970987611955945 0.0004302960867470784 0.0 -0.0002740672628485513 0.0 0.0
-0.0016140227178232658 0.00067680043600854 0.0 -0.0002522554183380932 0.0 0.0
-0.002200829854420591 0.0010043773016764623 0.0 -0.0002002531071758351 0.0 0.0
-0.0031258304982692553 0.0016180722826164007 0.0 -0.00017922786678216396 0.0 0.0
-0.0041906773292251925 0.002440800809064614 0.0 -0.0002311472654216995 0.0 0.0
-0.005433823119803033 0.0034212745584102366 0.0 -0.00027925629083894177 0.0 0.0
-0.0069520777664717065 0.004674380203338657 0.0 -0.00033664097611285637 0.0 0.0
-0.008877243833966042 0.006332682946237456 0.0 -0.0004121899191881495 0.0 0.0
-0.011451044289075452 0.008645454771214811 0.0 -0.0004966836469672276 0.0 0.0
-0.015029584269896548 0.011964015494258962 0.0 -0.0006264608397954785 0.0 0.0
-0.01996592865304904 0.016640677882760246 0.0 -0.0008158328687511152 0.0 0.0
-0.026526445120407402 0.022931165325084102 0.0 -0.0010640588219620883 0.0 0.0
-0.03472907340903489 0.030841158594749674 0.0 -0.0013556063249978711 0.0 0.0
-0.044128947810655086 0.03992706513838229 0.0 -0.0015513227815653896 0.0 0.0
-0.05374288419406964 0.0492213106010555 0.0 -0.0014062726627623867 0.0 0.0
-0.06210570769928268 0.057274290290600716 0.0 -0.0006743131252108236 0.0 0.0
-0.06742097638704601 0.06227831607186318 0.0 -0.0022983204554797576 0.0 0.0
-0.06336545185413289 0.05596903739098158 0.0 -0.023224909232359592 0.0 0.0
-0.06336545185413073 0.05596903739098025 0.0 0.02322490923236295 0.0 0.0
-0.06742097638704016 0.06227831607185874 0.0 0.0022983204554864745 0.0 0.0
-0.06210570769927439 0.057274290290593166 0.0 0.0006743131252163748 0.0 0.0
-0.053742884194059065 0.04922131060104773 0.0 0.0014062726627613459 0.0 0.0
-0.044128947810644754 0.039927065138374296 0.0 0.0015513227815657088 0.0 0.0
-0.034729073409023356 0.030841158594739904 0.0 0.001355606324997538 0.0 0.0
-0.026526445120395273 0.022931165325071445 0.0 0.0010640588219629349 0.0 0.0
-0.019965928653036306 0.01664067788274759 0.0 0.0008158328687507543 0.0 0.0
-0.015029584269882443 0.011964015494245972 0.0 0.0006264608397954924 0.0 0.0
-0.011451044289062228 0.008645454771203487 0.0 0.0004966836469669639 0.0 0.0
-0.00887724383395464 0.006332682946227242 0.0 0.00041218991918749726 0.0 0.0
-0.00695207776646208 0.00467438020332922 0.0 0.0003366409761127176 0.0 0.0
-0.005433823119793996 0.0034212745584036863 0.0 0.0002792562908391083 0.0 0.0
-0.004190677329217747 0.002440800809059729 0.0 0.00023114726542160235 0.0 0.0
-0.0031258304982637454 0.001618072282612626 0.0 0.0001792278667815811 0.0 0.0
-0.0022008298544180685 0.0010043773016748525 0.0 0.00020025310717530775 0.0 0.0
-0.0016140227178218728 0.0006768004360079294 0.0 0.0002522554183373993 0.0 0.0
-0.000997098761194761 0.00043029608674713393 0.0 0.00027406726284771865 0.0 0.0
-0.0004021838776449532 0.0001768724724789117 0.0 0.00023015694399612652 0.0 0.0
-6.903793226000843e-05 3.795645788173558e-05 0.0 1.5094326151557369e-05 0.0 0.0
SCALARS Statev float 8
LOOKUP_TABLE default
0.0 0.004924061499870012 0.0036018694213959352 -0.003954573979529127 0.00035270455813319116 -0.0018693189758353201 0.0 0.0
0.0 8.096946609250196e-05 2.501879550889889e-06 -1.848343297341015e-06 -6.535362535487934e-07 3.6006467401873404e-06 0.0 0.0
0.0 3.342380937747103e-05 -4.754075056013673e-06 3.773145031487882e-06 9.80930024525693e-07 5.620332136169097e-07 0.0 0.0
0.0 5.964197818941148e-05 -8.875124403010095e-06 6.7718641644531875e-06 2.1032602385566872e-06 1.0945643523731552e-06 0.0 0.0
0.0 0.00032596124143408355 0.00012515820076677497 -9.793144470102523e-05 -2.7226756065749826e-05 -1.919058751043746e-05 0.0 0.0
0.0 0.000807854779262113 0.0007530044573132715 -0.0005961333432907533 -0.00015687111402251793 -6.505473118171358e-05 0.0 0.0
0.0 0.0017133781550930744 0.001589363576366792 -0.001292052889855305 -0.000297310686511487 -0.00011292123480526225 0.0 0.0
0.0 0.002889763437208615 0.002658972138970493 -0.002217866306410844 -0.0004411058325596494 -0.00016022435318363695 0.0 0.0
0.0 0.0044167069460444575 0.0040155702494963485 -0.0034368108636320346 -0.0005787593858643126 -0.00021787490168395817 0.0 0.0
0.0 0.00643938067580419 0.005776297285246727 -0.005069811061569811 -0.0007064862236769137 -0.000292238191578328 0.0 0.0
0.0 0.0092605893114423 0.008180204970104969 -0.007359735429350039 -0.0008204695407549292 -0.00037802826223884504 0.0 0.0
0.0 0.013016045911955017 0.011592031511058 -0.010669367553827871 -0.000922663957230122 -0.0005094323298734984 0.0 0.0
0.0 0.018409272323166928 0.016355425853330722 -0.015340540718955211 -0.001014885134375503 -0.0006962090742896334 0.0 0.0
0.0 0.02573562420058455 0.02273110324502945 -0.02162642986865967 -0.0011046733763697871 -0.000937411656012944 0.0 0.0
0.0 0.03498058535815481 0.030763385401283806 -0.029564562262014968 -0.0011988231392688331 -0.0012479241585253741 0.0 0.0
0.0 0.04579563469569889 0.04011975899718197 -0.03881948788631971 -0.0013002711108622644 -0.0015873273431535233 0.0 0.0
0.0 0.057264225325906894 0.05003365899124839 -0.048627291250595936 -0.0014063677406524408 -0.0018255967557148554 0.0 0.0
0.0 0.0680762965836896 0.05938505678151568 -0.05787697551812576 -0.0015080812633899018 -0.0017596960557315353 0.0 0.0
0.0 0.07677669529481337 0.06691485580930596 -0.06532007718474607 -0.0015947786245598884 -0.0013157202863688822 0.0 0.0
0.0 0.0817163670355055 0.07132512558171593 -0.06965450493625445 -0.001670620645461444 -0.0009025906170402503 0.0 0.0
0.0 0.08171636703550408 0.07132512558171467 -0.06965450493625322 -0.0016706206454614677 0.0009025906170417653 0.0 0.0
0.0 0.07677669529480824 0.0669148558093014 -0.06532007718474181 -0.001594778624559601 0.0013157202863764493 0.0 0.0
0.0 0.06807629658367925 0.05938505678150663 -0.05787697551811693 -0.0015080812633896695 0.0017596960557352504 0.0 0.0
0.0 0.057264225325894924 0.05003365899123771 -0.04862729125058582 -0.0014063677406518915 0.0018255967557173315 0.0 0.0
0.0 0.04579563469568852 0.04011975899717256 -0.038819487886311135 -0.0013002711108614376 0.0015873273431513408 0.0 0.0
0.0 0.03498058535814416 0.03076338540127422 -0.02956456226200612 -0.0011988231392681004 0.001247924158525736 0.0 0.0
0.0 0.025735624200572814 0.02273110324501894 -0.021626429868649946 -0.0011046733763689916 0.0009374116560126359 0.0 0.0
0.0 0.018409272323153772 0.01635542585331897 -0.015340540718944296 -0.0010148851343746745 0.0006962090742894042 0.0 0.0
0.0 0.013016045911941955 0.011592031511046267 -0.010669367553816983 -0.0009226639572292814 0.0005094323298729785 0.0 0.0
0.0 0.009260589311430674 0.008180204970094194 -0.007359735429340215 -0.0008204695407539772 0.000378028262238399 0.0 0.0
0.0 0.006439380675794531 0.005776297285237914 -0.005069811061561953 -0.000706486223675959 0.00029223819157710406 0.0 0.0
0.0 0.004416706946037332 0.004015570249489298 -0.0034368108636258763 -0.0005787593858634212 0.0002178749016839698 0.0 0.0
0.0 0.0028897634372027424 0.002658972138964374 -0.002217866306405642 -0.0004411058325587319 0.00016022435318308552 0.0 0.0
0.0 0.001713378155088147 0.0015893635763615127 -0.0012920528898508993 -0.00029731068651061307 0.00011292123480512527 0.0 0.0
0.0 0.0008078547792589079 0.0007530044573096818 -0.0005961333432878474 -0.00015687111402183432 6.505473118141015e-05 0.0 0.0
0.0 0.0003259612414322017 0.00012515820076560563 -9.793144470010475e-05 -2.7226756065501113e-05 1.919058751030518e-05 0.0 0.0
0.0 5.964197818879073e-05 -8.875124402918782e-06 6.771864164384042e-06 2.103260238534788e-06 -1.0945643523608391e-06 0.0 0.0
0.0 3.342380937689642e-05 -4.754075055925718e-06 3.7731450314176655e-06 9.80930024508012e-07 -5.620332136036602e-07 0.0 0.0
0.0 8.096946609180064e-05 2.5018795507997154e-06 -1.8483432972938387e-06 -6.535362535056392e-07 -3.600646740023211e-06 0.0 0.0
0.0 0.004924061499863218 0.0036018694213914484 -0.003954573979523679 0.0003527045581322296 0.0018693189758260131 0.0 0.0
0.0 0.0032251372017256955 0.002214167667598659 -0.0025888704723360865 0.0003747028047374271 -0.002021035999549706 0.0 0.0
0.0 0.0 0.0 0.0 0.0 0.0 0.0 0.0
0.0 0.0 0.0 0.0 0.0 0.0 0.0 0.0
0.0 2.818381018083203e-05 -3.89524483617999e-06 2.9799769798284316e-06 9.152678563517335e-07 1.0878372165257407e-06 0.0 0.0
0.0 0.00016936390279882044 -2.302575035716162e-07 -2.4737316367912953e-07 4.776306672506312e-07 -1.7680454796142668e-06 0.0 0.0
0.0 0.0005136296949123199 0.00048075295555392053 -0.0003775060351835383 -0.0001032469203703821 -0.00011692876496339007 0.0 0.0
0.0 0.0012971890538217086 0.0012002227503460827 -0.0009649822717550097 -0.00023524047859107278 -0.0002423997589194387 0.0 0.0
0.0 0.0023259735149764116 0.002137942341120552 -0.0017620509085567789 -0.0003758914325637725 -0.00036463891407316175 0.0 0.0
0.0 0.0036433609548285274 0.003325820413146819 -0.0028122505121994834 -0.000513569900947336 -0.0004953916106873385 0.0 0.0
0.0 0.005381328149488227 0.004864299381332523 -0.004221325675672413 -0.0006429737056601096 -0.0006536529531248273 0.0 0.0
0.0 0.007784469334750448 0.006957356397226964 -0.006196866820546681 -0.0007604895766802819 -0.0008509600599116831 0.0 0.0
0.0 0.011264871759692938 0.0099202571460703 -0.009056099442995697 -0.0008641577030745983 -0.0011136320592038038 0.0 0.0
0.0 0.01595673045744464 0.014125155811764756 -0.01316983164949859 -0.0009553241622661673 -0.001521718998459259 0.0 0.0
0.0 0.022457500931755574 0.019834461152326243 -0.01879311654937138 -0.0010413446029548562 -0.002102783590088186 0.0 0.0
0.0 0.030808919685337305 0.027087602668290675 -0.025957570465045234 -0.0011300322032454368 -0.0028256878242458794 0.0 0.0
0.0 0.040588618550439534 0.03558056367107312 -0.03435671973950835 -0.0012238439315647811 -0.003604862592119658 0.0 0.0
0.0 0.05100800477407787 0.04461772860687574 -0.04329731643722322 -0.0013204121696525103 -0.004148591496824143 0.0 0.0
0.0 0.06092035373991776 0.05319986269827134 -0.051786187485557245 -0.0014136752127140882 -0.004062343543060622 0.0 0.0
0.0 0.06893459182296363 0.06014734979130472 -0.05864775366134896 -0.0014995961299557547 -0.0032125012258632426 0.0 0.0
0.0 0.07360382663901363 0.06420350204335916 -0.06264458598111164 -0.0015589160622474997 -0.001720137243265532 0.0 0.0
0.0 0.07360382663901224 0.06420350204335787 -0.06264458598111051 -0.0015589160622473148 0.0017201372432737463 0.0 0.0
0.0 0.06893459182295927 0.0601473497913006 -0.05864775366134521 -0.001499596129955364 0.0032125012258767327 0.0 0.0
0.0 0.060920353739911025 0.05319986269826509 -0.05178618748555155 -0.0014136752127135465 0.004062343543069012 0.0 0.0
0.0 0.05100800477407133 0.04461772860686952 -0.04329731643721788 -0.001320412169651642 0.0041485914968288976 0.0 0.0
0.0 0.04058861855043233 0.03558056367106654 -0.03435671973950259 -0.0012238439315639328 0.0036048625921182853 0.0 0.0
0.0 0.03080891968532794 0.02708760266828223 -0.02595757046503749 -0.0011300322032447268 0.0028256878242461903 0.0 0.0
0.0 0.022457500931745467 0.01983446115231706 -0.018793116549363137 -0.001041344602953924 0.0021027835900884577 0.0 0.0
0.0 0.01595673045743386 0.014125155811754973 -0.01316983164948968 -0.0009553241622652847 0.0015217189984593176 0.0 0.0
0.0 0.011264871759682838 0.009920257146060815 -0.009056099442987173 -0.0008641577030736376 0.0011136320592028846 0.0 0.0
0.0 0.007784469334740505 0.0069573563972177704 -0.00619686682053843 -0.0007604895766793372 0.0008509600599105422 0.0 0.0
0.0 0.00538132814947922 0.004864299381323954 -0.0042213256756647045 -0.0006429737056592487 0.0006536529531229229 0.0 0.0
0.0 0.0036433609548215547 0.0033258204131397778 -0.0028122505121932796 -0.0005135699009464974 0.0004953916106866455 0.0 0.0
0.0 0.0023259735149707313 0.002137942341114879 -0.001762050908551935 -0.0003758914325629432 0.00036463891407219974 0.0 0.0
0.0 0.0012971890538173462 0.0012002227503412806 -0.000964982271750999 -0.00023524047859028145 0.00024239975891861707 0.0 0.0
0.0 0.0005136296949095087 0.00048075295555116227 -0.00037750603518132714 -0.00010324692036983507 0.00011692876496266236 0.0 0.0
0.0 0.00016936390279722197 -2.3025750402713883e-07 -2.473731633234642e-07 4.776306673506237e-07 1.7680454794568203e-06 0.0 0.0
0.0 2.8183810180206067e-05 -3.895244836085688e-06 2.979976979756023e-06 9.152678563296789e-07 -1.0878372164973423e-06 0.0 0.0
0.0 0.0 0.0 0.0 0.0 0.0 0.0 0.0
0.0 0.0 0.0 0.0 0.0 0.0 0.0 0.0
0.0 0.0032251372017176594 0.0022141676675935095 -0.002588870472330085 0.0003747028047365753 0.0020210359995412952 0.0 0.0
0.0 0.002225096704744697 0.0014244190562432016 -0.0017532474594547103 0.0003288284032115091 -0.0016444523577085531 0.0 0.0
0.0 0.0 0.0 0.0 0.0 0.0 0.0 0.0
0.0 0.0 0.0 0.0 0.0 0.0 0.0 0.0
0.0 1.4183303336775373e-06 -1.539621149661279e-07 1.1836444455633038e-07 3.5597670409800244e-08 1.0785418544746333e-07 0.0 0.0
0.0 6.980170519968023e-05 -9.923055304925273e-06 7.594641587451511e-06 2.328413717473512e-06 5.450096546984325e-06 0.0 0.0
0.0 0.0003836251177550193 0.0001948812671106816 -0.00015238925233861873 -4.249201477206319e-05 -8.852388239106472e-05 0.0 0.0
0.0 0.0009046529678255096 0.000828209329732944 -0.0006579612803686842 -0.0001702480493642597 -0.0002950786761838854 0.0 0.0
0.0 0.00178677307004141 0.0016369481335357793 -0.0013328290854765913 -0.00030411904805918764 -0.000492832189861927 0.0 0.0
0.0 0.0029201082945652487 0.002656892259564588 -0.0022167209697169107 -0.000440171289847677 -0.0006869106037107714 0.0 0.0
0.0 0.00440036543704333 0.003978596601822252 -0.0034073432500416364 -0.0005712533517806151 -0.000911909154570275 0.0 0.0
0.0 0.006464558952796821 0.005771246903560284 -0.005079470017259382 -0.0006917768863009001 -0.001196534870049384 0.0 0.0
0.0 0.009353512580869368 0.00831458044341045 -0.00751556717798442 -0.0007990132654260285 -0.0015786837648562703 0.0 0.0
0.0 0.01362694460094093 0.011945936891808031 -0.011054540396712005 -0.0008913964950960216 -0.002130845146949681 0.0 0.0
0.0 0.01928791648941834 0.01696175836109457 -0.015985993854190854 -0.000975764506903719 -0.0029556010503398013 0.0 0.0
0.0 0.026662665121455275 0.023404684139140895 -0.022345902208517864 -0.0010587819306230339 -0.004026182475736395 0.0 0.0
0.0 0.0354268516537547 0.031000355926626345 -0.029855729117539163 -0.0011446268090871785 -0.005144481881045609 0.0 0.0
0.0 0.044808009840813165 0.03914695368628388 -0.03791573108987701 -0.0012312225964068834 -0.005929869456480044 0.0 0.0
0.0 0.05377871906741758 0.04696757398268011 -0.04565001461934798 -0.0013175593633321222 -0.005891814433441106 0.0 0.0
0.0 0.061104971242519276 0.053371348898712014 -0.051974927312783956 -0.001396421585928051 -0.004721545334458628 0.0 0.0
0.0 0.06546459903215651 0.05719766612566364 -0.05574844500043549 -0.0014492211252281162 -0.002368060379314553 0.0 0.0
0.0 0.0654645990321547 0.05719766612566184 -0.05574844500043376 -0.0014492211252280945 0.002368060379327422 0.0 0.0
0.0 0.06110497124251581 0.053371348898708565 -0.05197492731278064 -0.0013964215859279079 0.004721545334476043 0.0 0.0
0.0 0.05377871906741205 0.046967573982674815 -0.04565001461934298 -0.0013175593633318237 0.005891814433453201 0.0 0.0
0.0 0.044808009840807864 0.039146953686278685 -0.0379157310898726 -0.0012312225964060878 0.005929869456486658 0.0 0.0
0.0 0.03542685165374859 0.03100035592662062 -0.02985572911753432 -0.0011446268090862946 0.005144481881045757 0.0 0.0
0.0 0.026662665121447077 0.02340468413913344 -0.022345902208511216 -0.0010587819306222214 0.004026182475736301 0.0 0.0
0.0 0.019287916489409713 0.016961758361086713 -0.015985993854183728 -0.0009757645069029828 0.002955601050339922 0.0 0.0
0.0 0.01362694460093146 0.011945936891799317 -0.011054540396703958 -0.0008913964950953556 0.0021308451469494193 0.0 0.0
0.0 0.009353512580859494 0.00831458044340155 -0.007515567177976166 -0.0007990132654253847 0.00157868376485443 0.0 0.0
0.0 0.006464558952787582 0.005771246903551391 -0.0050794700172512135 -0.0006917768863001758 0.0011965348700479115 0.0 0.0
0.0 0.004400365437035678 0.003978596601814777 -0.0034073432500348944 -0.0005712533517798817 0.0009119091545675923 0.0 0.0
0.0 0.0029201082945591573 0.0026568922595585887 -0.002216720969711764 -0.00044017128984682324 0.0006869106037096216 0.0 0.0
0.0 0.0017867730700362023 0.0016369481335305309 -0.0013328290854721452 -0.0003041190480583854 0.0004928321898603348 0.0 0.0
0.0 0.0009046529678219315 0.0008282093297293637 -0.0006579612803657806 -0.00017024804936358322 0.00029507867618284306 0.0 0.0
0.0 0.00038362511775253284 0.0001948812671089904 -0.00015238925233729148 -4.2492014771698776e-05 8.852388239032028e-05 0.0 0.0
0.0 6.980170519877595e-05 -9.923055304797832e-06 7.5946415873546394e-06 2.3284137174430674e-06 -5.450096546918415e-06 0.0 0.0
0.0 1.418330333417905e-06 -1.539621149372118e-07 1.1836444453399425e-07 3.5597670403225686e-08 -1.078541854267823e-07 0.0 0.0
0.0 0.0 0.0 0.0 0.0 0.0 0.0 0.0
0.0 0.0 0.0 0.0 0.0 0.0 0.0 0.0
0.0 0.002225096704738179 0.0014244190562387007 -0.0017532474594493567 0.00032882840321065646 0.0016444523577013152 0.0 0.0
0.0 0.001500949742548064 0.0008994030075697398 -0.0011553283390510027 0.00025592533148126285 -0.0011550759541359402 0.0 0.0
0.0 0.0 0.0 0.0 0.0 0.0 0.0 0.0
0.0 0.0 0.0 0.0 0.0 0.0 0.0 0.0
0.0 0.0 0.0 0.0 0.0 0.0 0.0 0.0
0.0 3.091413199917303e-05 -3.963852590723633e-06 3.0652197957721597e-06 8.986327949515943e-07 3.6211559148845185e-06 0.0 0.0
0.0 0.00018566496655826132 3.898022848399819e-05 -3.0514602171192446e-05 -8.465626312805568e-06 -2.7268086594888968e-05 0.0 0.0
0.0 0.0005837329307982077 0.0004741583836353756 -0.00037283712020484385 -0.00010132126343053173 -0.00026301482090325184 0.0 0.0
0.0 0.00128370854857561 0.0011600889212121897 -0.0009322125812103292 -0.00022787634000186034 -0.0005351345041819377 0.0 0.0
0.0 0.002233233103175503 0.002015138447032861 -0.001657311390632724 -0.0003578270564001366 -0.0007892084524967706 0.0 0.0
0.0 0.003462753970126628 0.003125915464766718 -0.0026374072750712774 -0.0004885081896954404 -0.001068942595250933 0.0 0.0
0.0 0.005176887156616346 0.004629214105288734 -0.004016555425532788 -0.0006126586797559445 -0.0014133396839784867 0.0 0.0
0.0 0.007641498600832061 0.00676106439283213 -0.006035799838633074 -0.0007252645541990563 -0.0018772909213615099 0.0 0.0
0.0 0.01119981043414841 0.009836851961460776 -0.009015857871675234 -0.0008209940897855419 -0.0025568593028851036 0.0 0.0
0.0 0.01621516855222677 0.014136909044379187 -0.0132307586467393 -0.0009061503976398818 -0.0035302440186006398 0.0 0.0
0.0 0.022729086414728653 0.019731939202509013 -0.018746762598190577 -0.0009851766043184342 -0.0048019978106292995 0.0 0.0
0.0 0.030264562670403186 0.026402375525751857 -0.025340034001812825 -0.0010623415239390322 -0.006178397089122699 0.0 0.0
0.0 0.038603386822906476 0.03363387113534466 -0.03249425348407598 -0.0011396176512686856 -0.0071709166733224805 0.0 0.0
0.0 0.04667436578336018 0.0406794118899497 -0.039462313182901984 -0.0012170987070477086 -0.007211130927664375 0.0 0.0
0.0 0.05337069858568172 0.046576768608970136 -0.04528766484957694 -0.0012891037593931582 -0.005854523257622953 0.0 0.0
0.0 0.057489721129257335 0.0502441947155068 -0.04890541288847711 -0.001338781827029702 -0.0028973163578587605 0.0 0.0
0.0 0.05748972112925571 0.0502441947155051 -0.04890541288847547 -0.0013387818270296436 0.00289731635787498 0.0 0.0
0.0 0.05337069858567866 0.04657676860896659 -0.04528766484957396 -0.001289103759392638 0.005854523257642985 0.0 0.0
0.0 0.04667436578335567 0.04067941188994496 -0.03946231318289774 -0.0012170987070472235 0.00721113092767834 0.0 0.0
0.0 0.03860338682289963 0.03363387113533818 -0.032494253484069854 -0.0011396176512683234 0.0071709166733287455 0.0 0.0
0.0 0.030264562670395904 0.0264023755257454 -0.02534003400180669 -0.0010623415239387082 0.006178397089122139 0.0 0.0
0.0 0.022729086414722148 0.019731939202503074 -0.01874676259818519 -0.0009851766043178839 0.004801997810629243 0.0 0.0
0.0 0.01621516855221986 0.014136909044372824 -0.013230758646733573 -0.0009061503976392514 0.0035302440186001493 0.0 0.0
0.0 0.01119981043414002 0.009836851961453055 -0.009015857871668084 -0.0008209940897849662 0.002556859302884503 0.0 0.0
0.0 0.00764149860082371 0.0067610643928241 -0.006035799838625693 -0.0007252645541984055 0.0018772909213591754 0.0 0.0
0.0 0.005176887156609061 0.004629214105281577 -0.0040165554255264585 -0.0006126586797551179 0.0014133396839764057 0.0 0.0
0.0 0.0034627539701196828 0.0031259154647600915 -0.002637407275065496 -0.0004885081896945949 0.0010689425952477812 0.0 0.0
0.0 0.0022332331031700843 0.0020151384470272517 -0.0016573113906277902 -0.00035782705639946096 0.0007892084524949888 0.0 0.0
0.0 0.0012837085485714217 0.0011600889212079945 -0.0009322125812068751 -0.00022787634000111934 0.000535134504180151 0.0 0.0
0.0 0.0005837329307953507 0.0004741583836328677 -0.00037283712020290383 -0.00010132126342996385 0.0002630148209020174 0.0 0.0
0.0 0.0001856649665563191 3.8980228483249305e-05 -3.0514602170609918e-05 -8.465626312639109e-06 2.726808659436806e-05 0.0 0.0
0.0 3.091413199829632e-05 -3.96385259060396e-06 3.0652197956813065e-06 8.986327949227772e-07 -3.621155914790049e-06 0.0 0.0
0.0 0.0 0.0 0.0 0.0 0.0 0.0 0.0
0.0 0.0 0.0 0.0 0.0 0.0 0.0 0.0
0.0 0.0 0.0 0.0 0.0 0.0 0.0 0.0
0.0 0.0015009497425423615 0.0008994030075662753 -0.001155328339046779 0.0002559253314805036 0.0011550759541303249 0.0 0.0
0.0 0.0009505399777840551 0.0005291241696756199 -0.000705878595351096 0.00017675442567547582 -0.0007090061748962753 0.0 0.0
0.0 0.0 0.0 0.0 0.0 0.0 0.0 0.0
0.0 0.0 0.0 0.0 0.0 0.0 0.0 0.0
0.0 0.0 0.0 0.0 0.0 0.0 0.0 0.0
0.0 1.2143276688027321e-05 -1.414772604235126e-06 1.0833367658665578e-06 3.314358383685867e-07 1.8758126077771184e-06 0.0 0.0
0.0 8.008329590063937e-05 -2.0282253031684743e-06 1.4646010699942724e-06 5.636242331740399e-07 1.5752547643332041e-06 0.0 0.0
0.0 0.0003851038271016544 0.00016928247927966173 -0.0001319246078403834 -3.735787143927832e-05 -0.00013545650647278705 0.0 0.0
0.0 0.0008557678114770106 0.0006960589043051348 -0.0005510109962439823 -0.00014504790806115267 -0.0004613501633465632 0.0 0.0
0.0 0.0015914518174233725 0.00140852567019357 -0.001141051198150058 -0.0002674744720435119 -0.0007923452400430912 0.0 0.0
0.0 0.0025886179655945436 0.0023107209520233864 -0.001916744456731026 -0.0003939764952923597 -0.001116694016333525 0.0 0.0
0.0 0.00397925064943648 0.0035333614946964067 -0.0030135894785311658 -0.0005197720161652409 -0.001503937673954556 0.0 0.0
0.0 0.0059742639191794535 0.005270953306517603 -0.00463304340137734 -0.0006379099051402627 -0.0020166503172411236 0.0 0.0
0.0 0.008963306539072435 0.007796418825868346 -0.007054842507832748 -0.0007415763180355985 -0.0027493454269672916 0.0 0.0
0.0 0.013064245438292902 0.011382286149576253 -0.010552738463223549 -0.0008295476863527035 -0.003827957218897954 0.0 0.0
0.0 0.018595713505045165 0.016109918151658832 -0.015203831044534457 -0.0009060871071243711 -0.005220351087128603 0.0 0.0
0.0 0.025334595236363933 0.021812229852601013 -0.02083455281432956 -0.00097767703827145 -0.006692419173145281 0.0 0.0
0.0 0.03244045894793997 0.028089106635886787 -0.027044139890769016 -0.0010449667451177566 -0.007823895831167483 0.0 0.0
0.0 0.039521030362979014 0.03433408401633262 -0.03322184890538088 -0.0011122351109517415 -0.008004674046396203 0.0 0.0
0.0 0.045621605117637895 0.03973862006037313 -0.038561195213308974 -0.0011774248470641526 -0.006626621769886228 0.0 0.0
0.0 0.049566454639995546 0.04329262448951715 -0.042066806921665666 -0.0012258175678514541 -0.0033258108607470455 0.0 0.0
0.0 0.04956645463999424 0.04329262448951572 -0.042066806921664215 -0.0012258175678515016 0.003325810860762792 0.0 0.0
0.0 0.04562160511763522 0.039738620060369934 -0.03856119521330588 -0.001177424847064053 0.006626621769905444 0.0 0.0
0.0 0.03952103036297395 0.03433408401632735 -0.03322184890537572 -0.0011122351109516206 0.008004674046410355 0.0 0.0
0.0 0.03244045894793465 0.028089106635881565 -0.027044139890764256 -0.0010449667451173047 0.007823895831173449 0.0 0.0
0.0 0.0253345952363579 0.02181222985259547 -0.0208345528143246 -0.0009776770382708723 0.00669241917314492 0.0 0.0
0.0 0.018595713505038518 0.016109918151652792 -0.015203831044528875 -0.0009060871071239169 0.00522035108712794 0.0 0.0
0.0 0.013064245438287103 0.011382286149570847 -0.010552738463218712 -0.0008295476863521337 0.003827957218897447 0.0 0.0
0.0 0.008963306539066598 0.0077964188258625835 -0.007054842507827711 -0.0007415763180348716 0.002749345426966505 0.0 0.0
0.0 0.005974263919172804 0.0052709533065112765 -0.004633043401371722 -0.0006379099051395513 0.0020166503172387865 0.0 0.0
0.0 0.00397925064943068 0.003533361494690938 -0.003013589478526422 -0.0005197720161645151 0.0015039376739521774 0.0 0.0
0.0 0.0025886179655897853 0.0023107209520188098 -0.001916744456727298 -0.00039397649529151167 0.001116694016330533 0.0 0.0
0.0 0.0015914518174192681 0.001408525670189439 -0.001141051198146676 -0.0002674744720427628 0.0007923452400412592 0.0 0.0
0.0 0.0008557678114734541 0.0006960589043020633 -0.000551010996241526 -0.0001450479080605373 0.0004613501633447647 0.0 0.0
0.0 0.0003851038270995008 0.00016928247927852844 -0.00013192460783950557 -3.735787143902315e-05 0.00013545650647197777 0.0 0.0
0.0 8.008329589952382e-05 -2.028225303184312e-06 1.464601070007651e-06 5.636242331768734e-07 -1.5752547643626042e-06 0.0 0.0
0.0 1.2143276687644073e-05 -1.414772604191538e-06 1.08333676583293e-06 3.314358383585568e-07 -1.875812607715943e-06 0.0 0.0
0.0 0.0 0.0 0.0 0.0 0.0 0.0 0.0
0.0 0.0 0.0 0.0 0.0 0.0 0.0 0.0
0.0 0.0 0.0 0.0 0.0 0.0 0.0 0.0
0.0 0.0009505399777794067 0.0005291241696729976 -0.000705878595347796 0.00017675442567479809 0.0007090061748921922 0.0 0.0
0.0 0.0005208088636718755 0.00027096483445190146 -0.00037582875098497894 0.00010486391653307742 -0.00036544172063902376 0.0 0.0
0.0 0.0 0.0 0.0 0.0 0.0 0.0 0.0
0.0 0.0 0.0 0.0 0.0 0.0 0.0 0.0
0.0 0.0 0.0 0.0 0.0 0.0 0.0 0.0
0.0 1.0042081989539105e-05 -9.329724215915323e-07 7.201815348681859e-07 2.1279088672333964e-07 1.7612736881498078e-06 0.0 0.0
0.0 2.309099090839782e-05 2.540330847839032e-06 -2.053016844018176e-06 -4.873140038208396e-07 -4.586059731167504e-06 0.0 0.0
0.0 0.0001566050378065556 4.596550510717105e-05 -3.556862907090129e-05 -1.0396876036269618e-05 -5.470958170837217e-05 0.0 0.0
0.0 0.0004956877166718659 0.00030421187490737857 -0.00023772450115414718 -6.648737375323145e-05 -0.0002910912069509324 0.0 0.0
0.0 0.001036725666622045 0.0008307496352202415 -0.0006613020766755649 -0.00016944755854467642 -0.0006586408919259626 0.0 0.0
0.0 0.0017887536038637558 0.001544577717535607 -0.001257463645127781 -0.0002871140724078254 -0.0010443280389730947 0.0 0.0
0.0 0.002848893412595587 0.002494424303269752 -0.002084746941838845 -0.0004096773614309065 -0.00145596187419918 0.0 0.0
0.0 0.004418142439845328 0.0038499522407519733 -0.0033175456641942732 -0.0005324065765576993 -0.001986247709418051 0.0 0.0
0.0 0.006749377692216855 0.005842827590278408 -0.00519704890685613 -0.0006457786834222756 -0.0027397105489422044 0.0 0.0
0.0 0.01012662123924263 0.008708858319791252 -0.007966463436292051 -0.0007423948834992006 -0.0038175029206138603 0.0 0.0
0.0 0.01470464955511986 0.012553714538727792 -0.011733180403655754 -0.0008205341350720353 -0.005227329053161831 0.0 0.0
0.0 0.020083760978986495 0.017273005529614645 -0.01638590819092469 -0.0008870973386899566 -0.006750773792059557 0.0 0.0
0.0 0.02628902009910162 0.022542865441780992 -0.021596172534372113 -0.0009466929074088898 -0.007917229557484697 0.0 0.0
0.0 0.03248326647980276 0.027930568490567076 -0.026927347851752402 -0.0010032206388146778 -0.008209276143655688 0.0 0.0
0.0 0.037805553280052084 0.03282528404494546 -0.031764887694560436 -0.001060396350385018 -0.0069956731491879875 0.0 0.0
0.0 0.04160780612138205 0.036293709134139374 -0.03518506317470725 -0.001108645959432109 -0.003651578827511293 0.0 0.0
0.0 0.04160780612138026 0.036293709134137486 -0.03518506317470528 -0.0011086459594322007 0.003651578827525987 0.0 0.0
0.0 0.03780555328004916 0.03282528404494197 -0.031764887694556904 -0.0010603963503850531 0.006995673149206302 0.0 0.0
0.0 0.03248326647979988 0.027930568490563558 -0.026927347851748905 -0.0010032206388146524 0.008209276143669031 0.0 0.0
0.0 0.026289020099098108 0.022542865441777294 -0.021596172534368713 -0.000946692907408583 0.007917229557490467 0.0 0.0
0.0 0.020083760978982703 0.017273005529611106 -0.016385908190921616 -0.0008870973386894824 0.006750773792059144 0.0 0.0
0.0 0.014704649555115263 0.012553714538723558 -0.01173318040365195 -0.0008205341350716068 0.005227329053160664 0.0 0.0
0.0 0.01012662123923736 0.008708858319786366 -0.007966463436287551 -0.0007423948834988118 0.003817502920612676 0.0 0.0
0.0 0.0067493776922116265 0.005842827590273552 -0.005197048906851675 -0.0006457786834218777 0.002739710548941154 0.0 0.0
0.0 0.004418142439839746 0.003849952240746887 -0.0033175456641896944 -0.0005324065765571918 0.0019862477094158013 0.0 0.0
0.0 0.0028488934125906373 0.002494424303265212 -0.002084746941834959 -0.0004096773614302515 0.0014559618741967018 0.0 0.0
0.0 0.0017887536038591354 0.0015445777175315276 -0.0012574636451243672 -0.00028711407240715996 0.001044328038969766 0.0 0.0
0.0 0.001036725666618553 0.0008307496352171554 -0.0006613020766730946 -0.0001694475585440606 0.0006586408919237722 0.0 0.0
0.0 0.0004956877166694633 0.0003042118749054773 -0.00023772450115267386 -6.648737375280357e-05 0.0002910912069493515 0.0 0.0
0.0 0.00015660503780528682 4.596550510665178e-05 -3.556862907049846e-05 -1.0396876036153267e-05 5.470958170771887e-05 0.0 0.0
0.0 2.3090990907598357e-05 2.540330848022662e-06 -2.053016844160065e-06 -4.873140038625771e-07 4.5860597314512235e-06 0.0 0.0
0.0 1.0042081989046382e-05 -9.329724215423734e-07 7.201815348297952e-07 2.1279088671252578e-07 -1.761273688053899e-06 0.0 0.0
0.0 0.0 0.0 0.0 0.0 0.0 0.0 0.0
0.0 0.0 0.0 0.0 0.0 0.0 0.0 0.0
0.0 0.0 0.0 0.0 0.0 0.0 0.0 0.0
0.0 0.0005208088636687585 0.00027096483445029646 -0.0003758287509828706 0.00010486391653257397 0.0003654417206365459 0.0 0.0
0.0 0.0002566866670485019 0.00010565369917117765 -0.00014884231617661012 4.3188617005432824e-05 -0.00014830341705932706 0.0 0.0
0.0 0.0 0.0 0.0 0.0 0.0 0.0 0.0
0.0 0.0 0.0 0.0 0.0 0.0 0.0 0.0
0.0 0.0 0.0 0.0 0.0 0.0 0.0 0.0
0.0 3.1613189766570845e-06 -2.2524151937945443e-07 1.7083701736800547e-07 5.44045020114313e-08 5.898380239007696e-07 0.0 0.0
0.0 2.658242930864141e-05 -2.457380404714994e-06 1.8939807852861015e-06 5.63399619428864e-07 5.6578118203109945e-06 0.0 0.0
0.0 6.474718776494107e-05 1.115856977380985e-05 -8.737531051104558e-06 -2.4210387227053123e-06 -2.125334582510768e-05 0.0 0.0
0.0 0.0002200735655337006 8.733626376810433e-05 -6.761403405963007e-05 -1.972222970847431e-05 -0.0001263375174871655 0.0 0.0
0.0 0.0005563904144594809 0.0003467290949478814 -0.0002713729955317755 -7.535609941610565e-05 -0.0004027945641192026 0.0 0.0
0.0 0.0010718759510963782 0.0008391686971049325 -0.0006686732481614532 -0.00017049544894347961 -0.0008114289627323737 0.0 0.0
0.0 0.0018278614917822495 0.0015291936410478124 -0.001248432057595977 -0.00028076158345183516 -0.001260115993509842 0.0 0.0
0.0 0.002965495792967056 0.0025149898537919937 -0.002113215705349408 -0.000401774148442585 -0.0017855132283413093 0.0 0.0
0.0 0.004715139607937605 0.003986616432694404 -0.0034630124290122664 -0.0005236040036821363 -0.0025064528363085564 0.0 0.0
0.0 0.0072512554379492306 0.006148901396988513 -0.005515129192381361 -0.0006337722046071501 -0.003529565787934828 0.0 0.0
0.0 0.010771459746093358 0.00910246421962242 -0.008382530652134174 -0.0007199335674882452 -0.0048518991951900054 0.0 0.0
0.0 0.015152346595417435 0.01280206367155277 -0.012013942478552107 -0.0007881211930006648 -0.006289658575021988 0.0 0.0
0.0 0.020032795033974517 0.017030731118776867 -0.016188638387091177 -0.0008420927316856927 -0.007461329726639666 0.0 0.0
0.0 0.02513346099725369 0.021496814302675964 -0.020608148699417947 -0.0008886656032580177 -0.007871703090180374 0.0 0.0
0.0 0.030037435605196002 0.02580839235244075 -0.024872040694252858 -0.0009363516581878859 -0.006938004902303373 0.0 0.0
0.0 0.03376725506239765 0.029191313741368463 -0.028205757209046563 -0.000985556532321895 -0.0038575430647950592 0.0 0.0
0.0 0.03376725506239666 0.02919131374136722 -0.02820575720904545 -0.0009855565323217642 0.0038575430648075952 0.0 0.0
0.0 0.03003743560519382 0.025808392352437808 -0.024872040694250103 -0.0009363516581877093 0.0069380049023189455 0.0 0.0
0.0 0.025133460997251122 0.02149681430267267 -0.020608148699414894 -0.0008886656032577756 0.0078717030901913 0.0 0.0
0.0 0.02003279503397097 0.017030731118773193 -0.01618863838708777 -0.0008420927316854156 0.007461329726643807 0.0 0.0
0.0 0.015152346595412789 0.012802063671548788 -0.012013942478548317 -0.0007881211930004637 0.00628965857502067 0.0 0.0
0.0 0.010771459746089078 0.009102464219618531 -0.008382530652130602 -0.0007199335674879272 0.004851899195188926 0.0 0.0
0.0 0.007251255437945289 0.006148901396984851 -0.005515129192378034 -0.0006337722046068174 0.0035295657879336477 0.0 0.0
0.0 0.004715139607934498 0.003986616432691454 -0.0034630124290097636 -0.0005236040036816899 0.0025064528363077303 0.0 0.0
0.0 0.002965495792962693 0.00251498985378794 -0.0021132157053458805 -0.0004017741484420587 0.0017855132283389947 0.0 0.0
0.0 0.0018278614917778776 0.00152919364104395 -0.00124843205759266 -0.00028076158345128965 0.0012601159935068103 0.0 0.0
0.0 0.0010718759510929007 0.0008391686971020425 -0.0006686732481590808 -0.00017049544894296153 0.0008114289627293207 0.0 0.0
0.0 0.0005563904144570121 0.0003467290949459713 -0.0002713729955302702 -7.535609941570123e-05 0.0004027945641175279 0.0 0.0
0.0 0.0002200735655318248 8.733626376719022e-05 -6.76140340589089e-05 -1.9722229708281197e-05 0.00012633751748598835 0.0 0.0
0.0 6.474718776391833e-05 1.1158569773637917e-05 -8.737531050965964e-06 -2.4210387226718312e-06 2.1253345824792564e-05 0.0 0.0
0.0 2.6582429308295138e-05 -2.4573804046819166e-06 1.8939807852611378e-06 5.633996194208481e-07 -5.657811820230416e-06 0.0 0.0
0.0 3.16131897615778e-06 -2.2524151934554124e-07 1.708370173418097e-07 5.440450200374948e-08 -5.898380238059186e-07 0.0 0.0
0.0 0.0 0.0 0.0 0.0 0.0 0.0 0.0
0.0 0.0 0.0 0.0 0.0 0.0 0.0 0.0
0.0 0.0 0.0 0.0 0.0 0.0 0.0 0.0
0.0 0.00025668666704637614 0.00010565369917040481 -0.0001488423161755324 4.318861700512779e-05 0.00014830341705826 0.0 0.0
0.0 9.800789229589619e-05 1.034843964630867e-05 -1.4671385896207047e-05 4.322946249898497e-06 -1.3951005383865028e-05 0.0 0.0
0.0 0.0 0.0 0.0 0.0 0.0 0.0 0.0
0.0 0.0 0.0 0.0 0.0 0.0 0.0 0.0
0.0 0.0 0.0 0.0 0.0 0.0 0.0 0.0
0.0 2.065938548616351e-06 -1.0464456525540416e-07 7.785947036631345e-08 2.678509488908012e-08 4.161819938727977e-07 0.0 0.0
0.0 1.7011890293375043e-05 -1.0712005918851233e-06 8.42342080148463e-07 2.2885851173667705e-07 3.948518221257476e-06 0.0 0.0
0.0 3.210530065836723e-05 2.7500765597877783e-06 -2.0141173230531087e-06 -7.35959236734642e-07 -6.215783069234843e-06 0.0 0.0
0.0 8.862456223122716e-05 2.2403210885525916e-05 -1.736940588096305e-05 -5.033805004563069e-06 -5.2578497712371646e-05 0.0 0.0
0.0 0.00025444271426545035 7.889207446013699e-05 -6.153618995684258e-05 -1.735588450329443e-05 -0.00016058323675965925 0.0 0.0
0.0 0.0004489087419482876 0.0002906542405479035 -0.00022713338976128487 -6.352085078661838e-05 -0.00046637761544747594 0.0 0.0
0.0 0.0009771238179066576 0.0006757489016722308 -0.0005375911484529425 -0.00013815775321928816 -0.0008676512889447647 0.0 0.0
0.0 0.001673321318586518 0.0013048303544608655 -0.0010632236273584725 -0.00024160672710239284 -0.0013848488348480908 0.0 0.0
0.0 0.002808044850910538 0.0022714896496982702 -0.0019096111100095185 -0.0003618785396887514 -0.002051438502335334 0.0 0.0
0.0 0.004571027728223527 0.003735735861642688 -0.00325169239703002 -0.00048404346461266803 -0.0029538519035542977 0.0 0.0
0.0 0.00710647907836634 0.005797310341822518 -0.005208856942151161 -0.000588453399671353 -0.004099136101064329 0.0 0.0
0.0 0.010283275640400711 0.008453322110272518 -0.007787213400971698 -0.0006661087093008237 -0.0053612578103016985 0.0 0.0
0.0 0.014030539909595309 0.011591034073596834 -0.010867688048759469 -0.0007233460248373651 -0.006418059670190976 0.0 0.0
0.0 0.01793778553770233 0.015061479742301175 -0.014294830248647495 -0.0007666494936536761 -0.006909021768548904 0.0 0.0
0.0 0.02191036468829762 0.018685530595245796 -0.017884385477844406 -0.0008011451174013814 -0.0064045181257757185 0.0 0.0
0.0 0.025411529496317507 0.021942206737594408 -0.021093060747730097 -0.0008491459898643 -0.003926079975829435 0.0 0.0
0.0 0.02541152949631799 0.021942206737594398 -0.02109306074773009 -0.0008491459898643024 0.003926079975838883 0.0 0.0
0.0 0.02191036468829778 0.018685530595244762 -0.017884385477843434 -0.0008011451174013259 0.006404518125788901 0.0 0.0
0.0 0.01793778553770234 0.015061479742300096 -0.014294830248646617 -0.0007666494936534769 0.00690902176855818 0.0 0.0
0.0 0.014030539909592677 0.01159103407359409 -0.010867688048757002 -0.0007233460248370863 0.006418059670193861 0.0 0.0
0.0 0.01028327564039736 0.008453322110269678 -0.007787213400969245 -0.0006661087093004294 0.005361257810299937 0.0 0.0
0.0 0.007106479078362973 0.005797310341819703 -0.005208856942148513 -0.00058845339967119 0.004099136101062905 0.0 0.0
0.0 0.0045710277282210825 0.003735735861640448 -0.0032516923970280763 -0.00048404346461237085 0.0029538519035532005 0.0 0.0
0.0 0.002808044850908974 0.0022714896496967224 -0.0019096111100083447 -0.0003618785396883778 0.0020514385023346167 0.0 0.0
0.0 0.00167332131858421 0.0013048303544589833 -0.0010632236273569878 -0.00024160672710199532 0.0013848488348465313 0.0 0.0
0.0 0.0009771238179045506 0.0006757489016706491 -0.0005375911484517521 -0.00013815775321889716 0.0008676512889430182 0.0 0.0
0.0 0.0004489087419463324 0.00029065424054654454 -0.00022713338976026532 -6.352085078627935e-05 0.00046637761544548854 0.0 0.0
0.0 0.0002544427142643931 7.889207445966248e-05 -6.153618995646373e-05 -1.7355884503198693e-05 0.00016058323675871588 0.0 0.0
0.0 8.862456223076239e-05 2.2403210885444275e-05 -1.7369405880904416e-05 -5.033805004539844e-06 5.257849771218867e-05 0.0 0.0
0.0 3.2105300657986895e-05 2.7500765597672208e-06 -2.014117323038232e-06 -7.359592367289879e-07 6.2157830691958875e-06 0.0 0.0
0.0 1.701189029290454e-05 -1.0712005918517917e-06 8.423420801224218e-07 2.2885851172940093e-07 -3.9485182211370824e-06 0.0 0.0
0.0 2.0659385483605244e-06 -1.0464456524151038e-07 7.785947035597605e-08 2.6785094885520385e-08 -4.16181993817204e-07 0.0 0.0
0.0 0.0 0.0 0.0 0.0 0.0 0.0 0.0
0.0 0.0 0.0 0.0 0.0 0.0 0.0 0.0
0.0 0.0 0.0 0.0 0.0 0.0 0.0 0.0
0.0 9.800789229448659e-05 1.0348439646117536e-05 -1.4671385895926737e-05 4.322946249809213e-06 1.3951005383642292e-05 0.0 0.0
0.0 2.1590473970472325e-05 -4.270482778733223e-07 6.325203514322527e-07 -2.054720735589795e-07 7.902098951808501e-07 0.0 0.0
0.0 1.4400916002750037e-06 -2.734609515630081e-09 6.875531268888254e-09 -4.14092175325815e-09 3.1032020111844965e-07 0.0 0.0
0.0 0.0 0.0 0.0 0.0 0.0 0.0 0.0
0.0 0.0 0.0 0.0 0.0 0.0 0.0 0.0
0.0 8.443312491096609e-07 -2.3778033051075243e-08 1.6840971289672045e-08 6.937061761402291e-09 1.7189214708897445e-07 0.0 0.0
0.0 1.669848219011466e-05 -6.754141313205313e-07 5.129785862102976e-07 1.624355451102145e-07 4.126874192673731e-06 0.0 0.0
0.0 2.565979989433878e-05 -1.2765519214255931e-06 9.81214558184713e-07 2.953373632408789e-07 6.537299624614174e-06 0.0 0.0
0.0 3.513823755895524e-05 8.039787788499067e-06 -6.253658240506017e-06 -1.7861295479930935e-06 -3.4033910172122394e-05 0.0 0.0
0.0 0.00010664067867349435 2.028489638347111e-05 -1.5701469815383684e-05 -4.583426568087495e-06 -6.981752212972029e-05 0.0 0.0
0.0 0.00020101044899454687 6.666971965860415e-05 -5.170861673916126e-05 -1.4961102919443006e-05 -0.00021012964941339045 0.0 0.0
0.0 0.0003402818372218456 0.00016406835444282938 -0.00012877387619320086 -3.52944782496285e-05 -0.00045263985392555566 0.0 0.0
0.0 0.0006644209596339956 0.00036093787949015017 -0.00028449133914556476 -7.644654034458547e-05 -0.0007959442362477964 0.0 0.0
0.0 0.001252542934619448 0.000802417693986828 -0.0006458989096763991 -0.00015651878431042893 -0.0013648290626412213 0.0 0.0
0.0 0.0022500780351879246 0.0015702217019492339 -0.0013041717519822961 -0.0002660499499669376 -0.0021235847418366286 0.0 0.0
0.0 0.0037301900693870824 0.002735280870592887 -0.0023540288088208317 -0.00038125206177205443 -0.0030527375361802857 0.0 0.0
0.0 0.00570268857070003 0.004322605548508072 -0.003842077147156052 -0.00048052840135202044 -0.004070067484715747 0.0 0.0
0.0 0.008171032955790912 0.006320127141576384 -0.005765737882650213 -0.0005543892589261702 -0.0049887147030279085 0.0 0.0
0.0 0.010988320511826431 0.008721460889104174 -0.008107443292196304 -0.0006140175969078679 -0.0054796417411784 0.0 0.0
0.0 0.014098802149326548 0.01149568684371757 -0.01084745151767861 -0.0006482353260389637 -0.005314583705993208 0.0 0.0
0.0 0.01722757431208293 0.014487270853695835 -0.013799858345545136 -0.0006874125081507035 -0.0037635799226575528 0.0 0.0
0.0 0.017227574312083528 0.014487270853695944 -0.013799858345545306 -0.0006874125081506364 0.0037635799226634196 0.0 0.0
0.0 0.014098802149325448 0.011495686843715769 -0.010847451517676812 -0.0006482353260389522 0.0053145837060017175 0.0 0.0
0.0 0.010988320511825751 0.008721460889102837 -0.008107443292195086 -0.000614017596907751 0.0054796417411838525 0.0 0.0
0.0 0.008171032955789912 0.006320127141575295 -0.005765737882649308 -0.000554389258925986 0.004988714703029466 0.0 0.0
0.0 0.00570268857069847 0.004322605548506962 -0.00384207714715512 -0.00048052840135184074 0.004070067484714042 0.0 0.0
0.0 0.003730190069384933 0.002735280870591068 -0.0023540288088192782 -0.00038125206177178967 0.0030527375361789795 0.0 0.0
0.0 0.002250078035186286 0.0015702217019478311 -0.0013041717519810454 -0.0002660499499667855 0.002123584741835725 0.0 0.0
0.0 0.0012525429346183783 0.000802417693985896 -0.0006458989096755444 -0.0001565187843103516 0.0013648290626404156 0.0 0.0
0.0 0.000664420959632369 0.0003609378794889463 -0.000284491339144563 -7.644654034438316e-05 0.0007959442362457668 0.0 0.0
0.0 0.0003402818372204805 0.00016406835444229712 -0.00012877387619278336 -3.5294478249513753e-05 0.0004526398539240887 0.0 0.0
0.0 0.00020101044899344122 6.666971965826375e-05 -5.1708616738883156e-05 -1.4961102919380681e-05 0.00021012964941220916 0.0 0.0
0.0 0.00010664067867311935 2.0284896383280927e-05 -1.570146981522991e-05 -4.583426568051037e-06 6.981752212907729e-05 0.0 0.0
0.0 3.5138237558586715e-05 8.03978778848527e-06 -6.2536582404997326e-06 -1.7861295479855595e-06 3.403391017208278e-05 0.0 0.0
0.0 2.5659799894061404e-05 -1.2765519214109056e-06 9.812145581733674e-07 2.953373632375001e-07 -6.5372996245374225e-06 0.0 0.0
0.0 1.6698482189689227e-05 -6.754141313023855e-07 5.129785861963078e-07 1.6243554510606457e-07 -4.126874192556078e-06 0.0 0.0
0.0 8.443312488530211e-07 -2.3778033043541017e-08 1.6840971284322026e-08 6.937061759219633e-09 -1.718921470344321e-07 0.0 0.0
0.0 0.0 0.0 0.0 0.0 0.0 0.0 0.0
0.0 0.0 0.0 0.0 0.0 0.0 0.0 0.0
0.0 1.4400916000606018e-06 -2.7346095151882377e-09 6.875531267780064e-09 -4.140921752592997e-09 -3.1032020106934037e-07 0.0 0.0
0.0 2.159047396987249e-05 -4.2704827778690896e-07 6.32520351311078e-07 -2.0547207352412292e-07 -7.902098950112195e-07 0.0 0.0
0.0 6.935391212700624e-06 -5.308503336795636e-07 7.686070645861012e-07 -2.3775673090646271e-07 1.049140728143854e-06 0.0 0.0
0.0 9.058458586408483e-07 7.524644947399427e-10 2.6921535547623604e-09 -3.4446180495020276e-09 1.904316725388036e-07 0.0 0.0
0.0 0.0 0.0 0.0 0.0 0.0 0.0 0.0
0.0 0.0 0.0 0.0 0.0 0.0 0.0 0.0
0.0 5.455561020486616e-06 -1.877319191674498e-08 9.400339741681261e-09 9.372852175065115e-09 1.2338249442516948e-06 0.0 0.0
0.0 1.2649162497041946e-05 -1.40816357743154e-07 1.0163524973838207e-07 3.9181108004787066e-08 3.1244596390112657e-06 0.0 0.0
0.0 1.4176057102563801e-05 -2.2486424485998372e-07 1.691391884958289e-07 5.572505636415627e-08 3.543479186671418e-06 0.0 0.0
0.0 4.344045398856406e-05 -8.629206305107163e-07 6.677074154137937e-07 1.9521321509690724e-07 1.1897076210419883e-05 0.0 0.0
0.0 5.4899329248044624e-05 3.197321511977752e-06 -2.4531232553144394e-06 -7.441982566632863e-07 -3.2568058383622885e-05 0.0 0.0
0.0 0.00013041516270582247 8.885192740475868e-06 -6.799034949225746e-06 -2.0861577912500966e-06 -7.825868555253176e-05 0.0 0.0
0.0 0.0001697876024376826 3.2561278586335684e-05 -2.537579928532849e-05 -7.185479301007201e-06 -0.0002790358709812175 0.0 0.0
0.0 0.0003000388720569724 6.415532264524467e-05 -5.0431221227856555e-05 -1.3724101417388086e-05 -0.0004978337635714479 0.0 0.0
0.0 0.0005137024735180069 0.00012239651196268209 -9.731229659772311e-05 -2.5084215364958976e-05 -0.0008454943604182725 0.0 0.0
0.0 0.0008678623811855049 0.00022635285337724252 -0.00018303186838315212 -4.3320984994090434e-05 -0.0013964069097907566 0.0 0.0
0.0 0.0014332437760258623 0.0004657832811307762 -0.00037982259662327675 -8.596068450749933e-05 -0.0022014011386214845 0.0 0.0
0.0 0.00226458028501935 0.0008869300539862267 -0.0007303990725949437 -0.000156530981391283 -0.003167891053673965 0.0 0.0
0.0 0.003362714741941273 0.0015886768755706254 -0.0013567726325935865 -0.0002319042429770386 -0.004123460322103341 0.0 0.0
0.0 0.0048957096196031715 0.002819144021240699 -0.0025012687048785714 -0.00031787531636212727 -0.004651857612882051 0.0 0.0
0.0 0.006820414412297272 0.004577190503673388 -0.004167280553757797 -0.00040990994991559044 -0.0044343644750193655 0.0 0.0
0.0 0.009226816534758776 0.0069418277839624854 -0.0065035857933454615 -0.00043824199061702295 -0.003570575918137813 0.0 0.0
0.0 0.009226816534758828 0.006941827783962135 -0.006503585793345184 -0.0004382419906169494 0.003570575918141384 0.0 0.0
0.0 0.006820414412298248 0.00457719050367336 -0.004167280553757851 -0.00040990994991550755 0.004434364475024761 0.0 0.0
0.0 0.004895709619603884 0.002819144021240446 -0.0025012687048784933 -0.00031787531636195233 0.004651857612886013 0.0 0.0
0.0 0.003362714741941432 0.001588676875570616 -0.0013567726325936266 -0.00023190424297698901 0.00412346032210425 0.0 0.0
0.0 0.00226458028501848 0.0008869300539858819 -0.000730399072594601 -0.0001565309813912817 0.003167891053672841 0.0 0.0
0.0 0.00143324377602511 0.00046578328113060924 -0.0003798225966231093 -8.596068450749983e-05 0.0022014011386203656 0.0 0.0
0.0 0.0008678623811853004 0.00022635285337718655 -0.0001830318683831075 -4.332098499407903e-05 0.0013964069097904836 0.0 0.0
0.0 0.000513702473517853 0.00012239651196269927 -9.731229659776935e-05 -2.5084215364929895e-05 0.0008454943604180403 0.0 0.0
0.0 0.0003000388720564885 6.415532264514726e-05 -5.043122122776261e-05 -1.3724101417384645e-05 0.0004978337635706011 0.0 0.0
0.0 0.00016978760243711334 3.256127858624566e-05 -2.537579928525393e-05 -7.185479300991735e-06 0.0002790358709802115 0.0 0.0
0.0 0.00013041516270491323 8.88519274038394e-06 -6.799034949152095e-06 -2.0861577912318316e-06 7.825868555158403e-05 0.0 0.0
0.0 5.489932924777809e-05 3.197321511936601e-06 -2.4531232552793142e-06 -7.441982566572828e-07 3.256805838321002e-05 0.0 0.0
0.0 4.3440453988372724e-05 -8.6292063050855e-07 6.677074154134513e-07 1.952132150950957e-07 -1.1897076210370125e-05 0.0 0.0
0.0 1.417605710230505e-05 -2.248642448555074e-07 1.6913918849185627e-07 5.57250563636424e-08 -3.5434791865988037e-06 0.0 0.0
0.0 1.2649162496547092e-05 -1.4081635773750347e-07 1.0163524973413121e-07 3.9181108003369014e-08 -3.12445963887376e-06 0.0 0.0
0.0 5.45556101996866e-06 -1.8773191914669415e-08 9.400339740582529e-09 9.372852174088403e-09 -1.2338249441241808e-06 0.0 0.0
0.0 0.0 0.0 0.0 0.0 0.0 0.0 0.0
0.0 0.0 0.0 0.0 0.0 0.0 0.0 0.0
0.0 9.058458584084025e-07 7.524644945423904e-10 2.6921535540279696e-09 -3.444618048570202e-09 -1.9043167248770486e-07 0.0 0.0
0.0 6.935391212252483e-06 -5.308503336457555e-07 7.686070645365576e-07 -2.3775673089073374e-07 -1.04914072807861e-06 0.0 0.0
0.0 0.0 0.0 0.0 0.0 0.0 0.0 0.0
0.0 0.0 0.0 0.0 0.0 0.0 0.0 0.0
0.0 1.0066126532131434e-06 1.880003715012459e-08 -1.6160969126220894e-08 -2.6390680239026013e-09 2.0557945421627096e-07 0.0 0.0
0.0 5.882163004564731e-07 1.2898098424744366e-08 -1.0604639765373514e-08 -2.293458659373757e-09 1.1924562051205424e-07 0.0 0.0
0.0 6.329568722991083e-06 1.2100159608131477e-07 -9.957492898929318e-08 -2.142666709203334e-08 1.4508070408241616e-06 0.0 0.0
0.0 1.6603222805849884e-05 2.923750411405768e-07 -2.3536244238526396e-07 -5.7012598755332366e-08 4.230645678688613e-06 0.0 0.0
0.0 1.535707491913172e-05 2.712026432218339e-07 -2.1013859332736445e-07 -6.106404989446863e-08 3.874607379288849e-06 0.0 0.0
0.0 4.3532176182915576e-05 8.663879479145466e-07 -6.733993046326267e-07 -1.929886432818682e-07 1.1918636471881699e-05 0.0 0.0
0.0 5.462703205447813e-05 -3.150098194293145e-06 2.4134545017959372e-06 7.366436924972108e-07 -3.2378725105384414e-05 0.0 0.0
0.0 0.0001301587908801191 -8.820793203263843e-06 6.738556255324353e-06 2.0822369479394773e-06 -7.806509087041985e-05 0.0 0.0
0.0 0.00017059088932929044 -3.214645320961324e-05 2.508830432645745e-05 7.058148883155761e-06 -0.00027832958918267125 0.0 0.0
0.0 0.0002998965775056991 -6.405189351777847e-05 5.043662765065729e-05 1.3615265867121173e-05 -0.0004974270612384464 0.0 0.0
0.0 0.0005133424031546079 -0.0001234889458062166 9.869290855553378e-05 2.479603725068284e-05 -0.0008442214033044414 0.0 0.0
0.0 0.000870139596883946 -0.00022970224552218549 0.0001859871471518578 4.3715098370327635e-05 -0.0013951276798970626 0.0 0.0
0.0 0.0014330570355837286 -0.00045552030664664075 0.00036570403406530457 8.9816272581336e-05 -0.0022137511570396256 0.0 0.0
0.0 0.002209029515556536 -0.0007523999768236421 0.0005972478236792714 0.00015515215314437065 -0.003224554540147115 0.0 0.0
0.0 0.003022018308347228 -0.0009719445223134193 0.0007609506208302884 0.00021099390148313044 -0.004364853153778461 0.0 0.0
0.0 0.00374982447136777 -0.0008875570876508369 0.000654403238443797 0.0002331538492070403 -0.0055769390939971915 0.0 0.0
0.0 0.004040239966785462 -0.00035468234021349154 0.00021218022312933526 0.00014250211708415636 -0.006528090185403619 0.0 0.0
0.0 0.0037457051763024763 0.0008249853718804382 -0.0008789139257719856 5.392855389154671e-05 -0.0054994942531612565 0.0 0.0
0.0 0.003745705176304543 0.0008249853718804911 -0.0008789139257722873 5.392855389179638e-05 0.005499494253165882 0.0 0.0
0.0 0.0040402399667877585 -0.0003546823402134238 0.00021218022312938163 0.00014250211708404225 0.006528090185408687 0.0 0.0
0.0 0.0037498244713689635 -0.0008875570876509821 0.0006544032384439319 0.00023315384920704975 0.005576939093999901 0.0 0.0
0.0 0.0030220183083464035 -0.0009719445223127232 0.0007609506208297791 0.00021099390148294396 0.004364853153778166 0.0 0.0
0.0 0.0022090295155552837 -0.0007523999768227726 0.0005972478236785179 0.0001551521531442547 0.0032245545401457182 0.0 0.0
0.0 0.0014330570355826399 -0.0004555203066460542 0.00036570403406480307 8.981627258125098e-05 0.0022137511570383206 0.0 0.0
0.0 0.0008701395968834717 -0.0002297022455219924 0.00018598714715170232 4.3715098370290054e-05 0.0013951276798963947 0.0 0.0
0.0 0.0005133424031542925 -0.0001234889458059688 9.869290855533472e-05 2.4796037250634043e-05 0.000844221403303995 0.0 0.0
0.0 0.00029989657750511113 -6.405189351756696e-05 5.043662765048223e-05 1.3615265867084717e-05 0.0004974270612374781 0.0 0.0
0.0 0.00017059088932854752 -3.214645320939448e-05 2.508830432628986e-05 7.0581488831046134e-06 0.00027832958918115055 0.0 0.0
0.0 0.00013015879087925516 -8.820793203152153e-06 6.738556255241951e-06 2.0822369479102526e-06 7.80650908694718e-05 0.0 0.0
0.0 5.462703205415711e-05 -3.1500981942520793e-06 2.413454501761059e-06 7.366436924910188e-07 3.23787251050685e-05 0.0 0.0
0.0 4.353217618270295e-05 8.663879479066889e-07 -6.733993046234226e-07 -1.9298864328323552e-07 -1.1918636471827977e-05 0.0 0.0
0.0 1.5357074918777994e-05 2.712026432142856e-07 -2.1013859332089264e-07 -6.106404989340121e-08 -3.874607379188645e-06 0.0 0.0
0.0 1.660322280540092e-05 2.923750411319481e-07 -2.353624423789323e-07 -5.7012598753028695e-08 -4.230645678559954e-06 0.0 0.0
0.0 6.329568722541222e-06 1.2100159607286122e-07 -9.95749289822081e-08 -2.1426667090650783e-08 -1.4508070407127971e-06 0.0 0.0
0.0 5.882163001919925e-07 1.2898098418745996e-08 -1.0604639760446469e-08 -2.293458658300146e-09 -1.1924562045659772e-07 0.0 0.0
0.0 1.0066126527697196e-06 1.88000371412546e-08 -1.616096911875171e-08 -2.639068022502714e-09 -2.0557945412396978e-07 0.0 0.0
0.0 0.0 0.0 0.0 0.0 0.0 0.0 0.0
0.0 0.0 0.0 0.0 0.0 0.0 0.0 0.0
0.0 0.0 0.0 0.0 0.0 0.0 0.0 0.0
0.0 0.0 0.0 0.0 0.0 0.0 0.0 0.0
0.0 1.1358547083792243e-06 2.9199022431756486e-08 -2.4414515401068504e-08 -4.784507030685914e-09 2.3110359978051093e-07 0.0 0.0
0.0 4.433390297601944e-06 1.6015753021163607e-07 -1.3149237797341269e-07 -2.8665152238211024e-08 9.616929248813422e-07 0.0 0.0
0.0 5.593573495796702e-06 2.2488050829672393e-07 -1.783306916581879e-07 -4.6549816638530954e-08 1.2502688499216848e-06 0.0 0.0
0.0 1.5193019753149584e-05 6.075697492807933e-07 -5.003829957410301e-07 -1.0718675353973588e-07 3.7538488162118154e-06 0.0 0.0
0.0 2.8874588975334116e-05 1.4761258872071086e-06 -1.1479462079847123e-06 -3.281796792223996e-07 7.406783622865839e-06 0.0 0.0
0.0 3.5223221876247516e-05 -7.916416819257417e-06 6.159618489721601e-06 1.7567983295358123e-06 -3.354456347837556e-05 0.0 0.0
0.0 0.00010575224408736198 -2.0045292635017396e-05 1.5506123414578186e-05 4.539169220439255e-06 -6.910562105804505e-05 0.0 0.0
0.0 0.00020000742778885315 -6.645610515857773e-05 5.1513094318475115e-05 1.4943010840102588e-05 -0.00020965997184510502 0.0 0.0
0.0 0.00033950074212605376 -0.00016382015376814076 0.00012853944045293863 3.528071331520207e-05 -0.00045253332540396617 0.0 0.0
0.0 0.0006633247174509918 -0.0003602712769127793 0.00028402734275197384 7.624393416080543e-05 -0.0007950671584932642 0.0 0.0
0.0 0.0012526654554375271 -0.000803330500907809 0.0006474857494268392 0.00015584475148096966 -0.001359734184173977 0.0 0.0
0.0 0.0022590592847027747 -0.0015795281932451252 0.001313148146218222 0.0002663800470269033 -0.0021148863591934617 0.0 0.0
0.0 0.003733952311230451 -0.0027265702763194476 0.0023391837197673307 0.0003873865565521162 -0.003080341000044056 0.0 0.0
0.0 0.005559522527146461 -0.004131569454644449 0.0036340067535142475 0.0004975627011302007 -0.004262991660121339 0.0 0.0
0.0 0.007450000561101178 -0.005501094690306086 0.004916452035694278 0.0005846426546118082 -0.005603653705817534 0.0 0.0
0.0 0.008887004467510383 -0.006401723652823147 0.0057595906893214924 0.0006421329635016537 -0.006984753540026171 0.0 0.0
0.0 0.008913858320429659 -0.006133261650123923 0.0054394573334733765 0.0006938043166505464 -0.007641286053710496 0.0 0.0
0.0 0.006433729847615017 -0.003827727310157264 0.0031829803987577614 0.0006447469113995025 -0.005976947920067294 0.0 0.0
0.0 0.006433729847617035 -0.003827727310157898 0.003182980398758269 0.0006447469113996284 0.00597694792007152 0.0 0.0
0.0 0.008913858320432181 -0.0061332616501245905 0.005439457333473812 0.0006938043166507761 0.00764128605371751 0.0 0.0
0.0 0.00888700446751044 -0.006401723652822365 0.00575959068932067 0.0006421329635016952 0.006984753540030579 0.0 0.0
0.0 0.007450000561099634 -0.005501094690304744 0.00491645203569308 0.0005846426546116595 0.005603653705817719 0.0 0.0
0.0 0.00555952252714348 -0.004131569454642043 0.0036340067535121645 0.0004975627011298779 0.0042629916601194424 0.0 0.0
0.0 0.003733952311228931 -0.0027265702763180394 0.0023391837197662196 0.00038738655655181893 0.003080341000042991 0.0 0.0
0.0 0.0022590592847008904 -0.0015795281932438035 0.0013131481462172428 0.0002663800470265606 0.0021148863591921863 0.0 0.0
0.0 0.001252665455435122 -0.0008033305009057923 0.0006474857494251677 0.0001558447514806244 0.001359734184172443 0.0 0.0
0.0 0.0006633247174486919 -0.000360271276911494 0.0002840273427509467 7.624393416054708e-05 0.0007950671584913893 0.0 0.0
0.0 0.00033950074212430153 -0.00016382015376745782 0.00012853944045235758 3.5280713315100185e-05 0.0004525333254024301 0.0 0.0
0.0 0.0002000074277874675 -6.645610515820632e-05 5.151309431818849e-05 1.4943010840017871e-05 0.00020965997184391188 0.0 0.0
0.0 0.00010575224408668908 -2.0045292634810846e-05 1.5506123414412628e-05 4.539169220398227e-06 6.910562105741765e-05 0.0 0.0
0.0 3.522322187595832e-05 -7.916416819194603e-06 6.159618489674347e-06 1.7567983295202854e-06 3.354456347815468e-05 0.0 0.0
0.0 2.887458897492783e-05 1.4761258871847999e-06 -1.147946207967182e-06 -3.281796792175629e-07 -7.406783622754122e-06 0.0 0.0
0.0 1.519301975257843e-05 6.07569749254635e-07 -5.003829957201351e-07 -1.0718675353450862e-07 -3.753848816058526e-06 0.0 0.0
0.0 5.593573495293337e-06 2.2488050827704833e-07 -1.7833069164221596e-07 -4.654981663483093e-08 -1.2502688498043295e-06 0.0 0.0
0.0 4.433390297185643e-06 1.6015753019653384e-07 -1.314923779608683e-07 -2.86651522356573e-08 -9.616929247861855e-07 0.0 0.0
0.0 1.1358547077892155e-06 2.9199022415728776e-08 -2.4414515387892006e-08 -4.78450702783608e-09 -2.3110359965855258e-07 0.0 0.0
0.0 0.0 0.0 0.0 0.0 0.0 0.0 0.0
0.0 0.0 0.0 0.0 0.0 0.0 0.0 0.0
0.0 0.0 0.0 0.0 0.0 0.0 0.0 0.0
0.0 0.0 0.0 0.0 0.0 0.0 0.0 0.0
0.0 2.3595770755575334e-06 8.103527066722901e-08 -6.628456757561009e-08 -1.4750703091619284e-08 4.821090556875273e-07 0.0 0.0
0.0 6.590687281837416e-06 3.10881542792901e-07 -2.570236217687858e-07 -5.385792102411917e-08 1.409381601992583e-06 0.0 0.0
0.0 7.627299154539806e-06 4.0935751532963017e-07 -3.3681363121879136e-07 -7.254388411084961e-08 1.667160813460528e-06 0.0 0.0
0.0 2.0386492939198233e-05 1.4262568685873572e-06 -1.1157064935075056e-06 -3.1055037507982356e-07 4.73426434119655e-06 0.0 0.0
0.0 3.623389645351917e-05 -2.363622049381659e-06 1.7197988423644188e-06 6.438232070172459e-07 -5.073181543062708e-06 0.0 0.0
0.0 8.911612531730728e-05 -2.216677294805135e-05 1.7186455306433002e-05 4.980317641618331e-06 -5.206681660159805e-05 0.0 0.0
0.0 0.00025222453417157053 -7.84198446940824e-05 6.114330107901889e-05 1.7276543615063607e-05 -0.00015956699148603952 0.0 0.0
0.0 0.0004469071159923062 -0.0002899205110064477 0.00022649291446326917 6.342759654317842e-05 -0.0004655015438881189 0.0 0.0
0.0 0.0009758644677328683 -0.0006749114732002159 0.0005368116658741615 0.00013809980732605449 -0.0008674325990048314 0.0 0.0
0.0 0.001671813958465167 -0.0013030788179268073 0.0010617635883329814 0.00024131522959382586 -0.0013840976036652798 0.0 0.0
0.0 0.002803845517973344 -0.0022697476428881497 0.0019090618583108376 0.00036068578457731156 -0.0020401845899616178 0.0 0.0
0.0 0.004570228543318703 -0.0037421352606593987 0.003259204323252099 0.0004829309374072982 -0.0029194784608386976 0.0 0.0
0.0 0.007107748441912051 -0.005799602512418214 0.005205776409637415 0.0005938261027807956 -0.004094635041141522 0.0 0.0
0.0 0.01018420947872612 -0.008311715441217614 0.007624347142793067 0.0006873682984245446 -0.005641455873464211 0.0 0.0
0.0 0.013496814248075039 -0.01090232090609788 0.010139070503310697 0.0007632504027871847 -0.007607442819650249 0.0 0.0
0.0 0.016058353961846492 -0.012931085845598163 0.012096312902318898 0.000834772943279259 -0.009735094893561981 0.0 0.0
0.0 0.01675432929824512 -0.013246489798628185 0.012336983226343235 0.000909506572284948 -0.01089432630964403 0.0 0.0
0.0 0.012937169469407601 -0.010161823968187992 0.00917941731304139 0.000982406655146598 -0.008507168632577614 0.0 0.0
0.0 0.012937169469410268 -0.01016182396818917 0.009179417313042403 0.000982406655146765 0.008507168632584355 0.0 0.0
0.0 0.016754329298247942 -0.013246489798628627 0.012336983226343749 0.0009095065722848799 0.010894326309654824 0.0 0.0
0.0 0.0160583539618463 -0.01293108584559675 0.012096312902317803 0.00083477294327894 0.00973509489356848 0.0 0.0
0.0 0.013496814248071143 -0.01090232090609415 0.010139070503307415 0.0007632504027867359 0.007607442819651082 0.0 0.0
0.0 0.010184209478721045 -0.008311715441213313 0.007624347142789105 0.0006873682984242084 0.00564145587346181 0.0 0.0
0.0 0.007107748441908102 -0.00579960251241479 0.00520577640963413 0.00059382610278066 0.004094635041140014 0.0 0.0
0.0 0.00457022854331499 -0.003742135260656216 0.0032592043232492 0.00048293093740701563 0.002919478460836825 0.0 0.0
0.0 0.002803845517969674 -0.002269747642884679 0.0019090618583077583 0.00036068578457692054 0.0020401845899601185 0.0 0.0
0.0 0.001671813958461027 -0.0013030788179230687 0.0010617635883297368 0.0002413152295933321 0.0013840976036625001 0.0 0.0
0.0 0.0009758644677284485 -0.0006749114731969523 0.0005368116658715258 0.00013809980732542622 0.0008674325990014346 0.0 0.0
0.0 0.0004469071159891507 -0.0002899205110043791 0.0002264929144616035 6.34275965427755e-05 0.0004655015438853477 0.0 0.0
0.0 0.0002522245341700372 -7.841984469348262e-05 6.114330107856205e-05 1.7276543614920692e-05 0.000159566991485078 0.0 0.0
0.0 8.911612531655198e-05 -2.216677294778508e-05 1.7186455306220943e-05 4.9803176415640786e-06 5.206681660100404e-05 0.0 0.0
0.0 3.623389645314486e-05 -2.3636220494238845e-06 1.719798842397246e-06 6.43823207026589e-07 5.073181543190717e-06 0.0 0.0
0.0 2.0386492938733195e-05 1.4262568685531833e-06 -1.1157064934812938e-06 -3.1055037507188146e-07 -4.73426434107734e-06 0.0 0.0
0.0 7.627299153988424e-06 4.0935751529703973e-07 -3.3681363119245467e-07 -7.254388410461007e-08 -1.6671608133338516e-06 0.0 0.0
0.0 6.590687281367154e-06 3.108815427685181e-07 -2.5702362174870477e-07 -5.385792101978286e-08 -1.40938160188229e-06 0.0 0.0
0.0 2.359577075132882e-06 8.103527065174102e-08 -6.628456756303808e-08 -1.4750703088705987e-08 -4.821090555965945e-07 0.0 0.0
0.0 0.0 0.0 0.0 0.0 0.0 0.0 0.0
0.0 0.0 0.0 0.0 0.0 0.0 0.0 0.0
0.0 0.0 0.0 0.0 0.0 0.0 0.0 0.0
0.0 0.0 0.0 0.0 0.0 0.0 0.0 0.0
0.0 0.0 0.0 0.0 0.0 0.0 0.0 0.0
0.0 4.567888438524369e-06 2.816642514147399e-07 -2.2557908395780664e-07 -5.608516745694391e-08 9.161147982631984e-07 0.0 0.0
0.0 1.0652708672248226e-05 8.226055347280341e-07 -6.478885821649108e-07 -1.7471695256313932e-07 2.1974362185297753e-06 0.0 0.0
0.0 2.625497467998461e-05 -1.7767810531149562e-07 9.450968685368606e-08 8.316841845781591e-08 4.636641295970423e-09 0.0 0.0
0.0 7.679632818530862e-05 -1.065561747900315e-05 8.368692399806219e-06 2.286925079197008e-06 -2.0805080183459883e-05 0.0 0.0
0.0 0.00022068312111521955 -8.684794070378453e-05 6.725079875160164e-05 1.9597141952182927e-05 -0.0001257473556454203 0.0 0.0
0.0 0.0005537467185461177 -0.00034551149670571617 0.0002703524109580104 7.515908574770577e-05 -0.0004011022228369755 0.0 0.0
0.0 0.0010679555855187604 -0.0008384900689531714 0.0006680061486923554 0.00017048392026081588 -0.0008107846745058472 0.0 0.0
0.0 0.0018273807119310445 -0.0015286536635111627 0.0012478879322016091 0.0002807657313095531 -0.0012605394959946206 0.0 0.0
0.0 0.00296357756938096 -0.00251291067003141 0.002111264265846997 0.0004016464041844115 -0.0017858994269592918 0.0 0.0
0.0 0.004704917174636461 -0.003979213448946036 0.00345669006663109 0.0005225233823149461 -0.002491954005495004 0.0 0.0
0.0 0.007232451995245385 -0.006141675235403926 0.0055098999115254935 0.0006317753238784319 -0.003466866228039868 0.0 0.0
0.0 0.010762470015404934 -0.009106818638719018 0.008384238725958731 0.0007225799127602833 -0.004781057769257632 0.0 0.0
0.0 0.015136517220074733 -0.012748252938273497 0.011943591684193271 0.0008046612540802212 -0.006585301260181666 0.0 0.0
0.0 0.0197692008903282 -0.01658964129914047 0.015706899809403048 0.0008827414897374269 -0.009034181452191967 0.0 0.0
0.0 0.023660896200309138 -0.0197005078228834 0.018730792809234682 0.0009697150136487125 -0.011805251727431737 0.0 0.0
0.0 0.02477124496339903 -0.020442695494227236 0.01936953685488506 0.0010731586393421685 -0.013545414113152012 0.0 0.0
0.0 0.01985585445104379 -0.016349873523873824 0.015160726727301304 0.0011891467965725155 -0.0113071950515878 0.0 0.0
0.0 0.01985585445104598 -0.016349873523874073 0.015160726727301576 0.0011891467965724914 0.011307195051597892 0.0 0.0
0.0 0.024771244963401395 -0.02044269549422698 0.019369536854885162 0.0010731586393418137 0.013545414113165798 0.0 0.0
0.0 0.02366089620030746 -0.01970050782288044 0.018730792809232004 0.0009697150136484338 0.011805251727440997 0.0 0.0
0.0 0.019769200890323697 -0.016589641299136045 0.015706899809398843 0.0008827414897371966 0.009034181452194251 0.0 0.0
0.0 0.015136517220069996 -0.01274825293826919 0.01194359168418932 0.0008046612540798725 0.0065853012601806964 0.0 0.0
0.0 0.010762470015401425 -0.009106818638715649 0.008384238725955796 0.0007225799127598471 0.004781057769256986 0.0 0.0
0.0 0.007232451995241801 -0.006141675235400585 0.005509899911522627 0.0006317753238779577 0.0034668662280384352 0.0 0.0
0.0 0.004704917174631222 -0.003979213448941231 0.003456690066626851 0.00052252338231438 0.0024919540054933044 0.0 0.0
0.0 0.0029635775693754992 -0.0025129106700262456 0.002111264265842573 0.0004016464041836716 0.0017858994269565455 0.0 0.0
0.0 0.0018273807119256601 -0.0015286536635062905 0.001247887932197483 0.00028076573130880744 0.0012605394959909247 0.0 0.0
0.0 0.0010679555855142976 -0.0008384900689494678 0.0006680061486893774 0.00017048392026009038 0.000810784674502579 0.0 0.0
0.0 0.0005537467185430758 -0.0003455114967035101 0.0002703524109562701 7.515908574723999e-05 0.00040110222283503566 0.0 0.0
0.0 0.00022068312111359263 -8.684794070306403e-05 6.725079875104429e-05 1.9597141952019802e-05 0.0001257473556444934 0.0 0.0
0.0 7.679632818402167e-05 -1.0655617478955005e-05 8.368692399768995e-06 2.2869250791860975e-06 2.0805080183364663e-05 0.0 0.0
0.0 2.6254974679270487e-05 -1.7767810545141106e-07 9.450968696204847e-08 8.316841848938245e-08 -4.63664100463937e-09 0.0 0.0
0.0 1.0652708671817191e-05 8.226055346933095e-07 -6.478885821374208e-07 -1.7471695255591085e-07 -2.197436218434703e-06 0.0 0.0
0.0 4.567888438027894e-06 2.8166425138388424e-07 -2.2557908393276395e-07 -5.608516745111872e-08 -9.161147981597317e-07 0.0 0.0
0.0 0.0 0.0 0.0 0.0 0.0 0.0 0.0
0.0 0.0 0.0 0.0 0.0 0.0 0.0 0.0
0.0 0.0 0.0 0.0 0.0 0.0 0.0 0.0
0.0 0.0 0.0 0.0 0.0 0.0 0.0 0.0
0.0 0.0 0.0 0.0 0.0 0.0 0.0 0.0
0.0 0.0 0.0 0.0 0.0 0.0 0.0 0.0
0.0 6.934682311029604e-06 5.04234701713622e-07 -4.0650678403662876e-07 -9.772791767698894e-08 1.3113344896194137e-06 0.0 0.0
0.0 2.402638926355761e-05 2.3696323169957966e-06 -1.8698820680238612e-06 -4.997502489718492e-07 4.7990365106419856e-06 0.0 0.0
0.0 3.708563210505083e-05 7.207807540427474e-07 -5.350784734243056e-07 -1.8570228061835675e-07 9.537847141922167e-07 0.0 0.0
0.0 0.0001673306352026096 -4.6542432585069005e-05 3.6111534471396564e-05 1.0430898113672513e-05 -5.6393852014026816e-05 0.0 0.0
0.0 0.0004968975692694457 -0.00030421082555505684 0.00023776598832492973 6.644483723012711e-05 -0.0002908759531888054 0.0 0.0
0.0 0.0010347418388208175 -0.0008297627052809599 0.0006604060817816638 0.00016935662349929571 -0.0006565340406011748 0.0 0.0
0.0 0.001787774758020211 -0.0015440844950199311 0.001256898688334116 0.00028718580668581523 -0.0010428755510433702 0.0 0.0
0.0 0.002848896015380572 -0.0024944443864546263 0.002084690941105779 0.0004097534453488468 -0.0014564556927027772 0.0 0.0
0.0 0.004415863941425259 -0.003847668476098292 0.0033152093152082436 0.0005324591608900492 -0.0019873625726000987 0.0 0.0
0.0 0.006731243624970646 -0.005828186195601149 0.005182868587825069 0.0006453176077760781 -0.002724877633610868 0.0 0.0
0.0 0.010082632637843338 -0.008678793704788905 0.00793852364098657 0.0007402700638023303 -0.003738337608256849 0.0 0.0
0.0 0.014678142599855549 -0.012546398670001804 0.011727360394234543 0.0008190382757672579 -0.005095739011928967 0.0 0.0
0.0 0.020156885149130714 -0.01731717065474192 0.016420010128506454 0.0008971605262354654 -0.0069665845283709005 0.0 0.0
0.0 0.026314861152449374 -0.022398217357044645 0.02141300838667798 0.000985208970366665 -0.009558623602189696 0.0 0.0
0.0 0.03141458168580895 -0.02654990302765815 0.02545757203187106 0.0010923309957870835 -0.01272733081175432 0.0 0.0
0.0 0.03282759649735796 -0.02758590572714056 0.026361476100564087 0.0012244296265764758 -0.015140056068119611 0.0 0.0
0.0 0.026753390052378645 -0.022355226172577302 0.021003503036210108 0.0013517231363671983 -0.013993676140769637 0.0 0.0
0.0 0.026753390052381098 -0.0223552261725775 0.021003503036210354 0.001351723136367136 0.013993676140782327 0.0 0.0
0.0 0.03282759649735776 -0.027585905727138343 0.026361476100561894 0.0012244296265764413 0.01514005606813491 0.0 0.0
0.0 0.0314145816858071 -0.026549903027655107 0.02545757203186833 0.001092330995786767 0.012727330811765681 0.0 0.0
0.0 0.02631486115244472 -0.02239821735703989 0.021413008386673628 0.0009852089703662604 0.00955862360219448 0.0 0.0
0.0 0.020156885149125156 -0.01731717065473678 0.01642001012850177 0.000897160526235013 0.006966584528370676 0.0 0.0
0.0 0.014678142599849942 -0.012546398669996604 0.01172736039422983 0.0008190382757667662 0.005095739011928394 0.0 0.0
0.0 0.01008263263783777 -0.008678793704783746 0.007938523640981935 0.0007402700638018072 0.003738337608254922 0.0 0.0
0.0 0.006731243624963836 -0.005828186195594785 0.005182868587819125 0.0006453176077756584 0.0027248776336091973 0.0 0.0
0.0 0.0044158639414184995 -0.0038476684760921174 0.0033152093152027727 0.0005324591608893444 0.00198736257259741 0.0 0.0
0.0 0.002848896015373599 -0.0024944443864483123 0.002084690941100271 0.00040975344534804084 0.0014564556926992794 0.0 0.0
0.0 0.0017877747580137809 -0.0015440844950141016 0.0012568986883291456 0.0002871858066849557 0.0010428755510393448 0.0 0.0
0.0 0.0010347418388163949 -0.0008297627052770429 0.0006604060817784828 0.00016935662349855962 0.0006565340405985498 0.0 0.0
0.0 0.0004968975692666931 -0.00030421082555319874 0.00023776598832349075 6.644483722970814e-05 0.00029087595318726844 0.0 0.0
0.0 0.00016733063520102731 -4.65424325845963e-05 3.6111534471038465e-05 1.0430898113558024e-05 5.639385201346702e-05 0.0 0.0
0.0 3.708563210408273e-05 7.207807539047443e-07 -5.350784733165199e-07 -1.8570228058810592e-07 -9.537847139890971e-07 0.0 0.0
0.0 2.4026389263126097e-05 2.3696323169496722e-06 -1.8698820679877623e-06 -4.997502489618451e-07 -4.799036510547863e-06 0.0 0.0
0.0 6.934682310525032e-06 5.04234701673154e-07 -4.065067840040159e-07 -9.772791766911185e-08 -1.311334489514374e-06 0.0 0.0
0.0 0.0 0.0 0.0 0.0 0.0 0.0 0.0
0.0 0.0 0.0 0.0 0.0 0.0 0.0 0.0
0.0 0.0 0.0 0.0 0.0 0.0 0.0 0.0
0.0 0.0 0.0 0.0 0.0 0.0 0.0 0.0
0.0 0.0 0.0 0.0 0.0 0.0 0.0 0.0
0.0 0.0 0.0 0.0 0.0 0.0 0.0 0.0
0.0 3.200659700653277e-06 2.5707668109785343e-07 -2.0547601315242337e-07 -5.1600667945449464e-08 5.112391326946205e-07 0.0 0.0
0.0 2.2580310055295434e-05 2.4758174598961964e-06 -1.9596739091670867e-06 -5.161435507290555e-07 3.7705172167393407e-06 0.0 0.0
0.0 8.565651925339265e-05 -3.20140692649104e-06 2.4665526095280104e-06 7.34854316963168e-07 -2.4384146310698405e-06 0.0 0.0
0.0 0.0003947761948544327 -0.00017225920940505985 0.00013444790609459724 3.7811303310462495e-05 -0.000139575569061453 0.0 0.0
0.0 0.0008570721184339022 -0.000696648706133179 0.0005515724610224344 0.0001450762451107449 -0.00046100963782502236 0.0 0.0
0.0 0.001591058281584994 -0.0014086034906871743 0.0011410004188162587 0.0002676030718709152 -0.0007899295162281182 0.0 0.0
0.0 0.0025886779010615047 -0.002311022444743485 0.0019168912947443609 0.0003941311499991235 -0.001115337879029785 0.0 0.0
0.0 0.0039799295890333005 -0.0035339487751254823 0.0030140651008679774 0.0005198836742575045 -0.001504566377777058 0.0 0.0
0.0 0.005970753164633812 -0.005267891262352997 0.004629782839318506 0.0006381084230344908 -0.0020170231197001783 0.0 0.0
0.0 0.008936452358797264 -0.007774236673304529 0.007032399481061132 0.0007418371922433952 -0.0027349381506775127 0.0 0.0
0.0 0.012994503352268793 -0.011327389141204508 0.010499513958205255 0.000827875182999253 -0.0037539710712231307 0.0 0.0
0.0 0.018543057858873013 -0.016076511424282947 0.015175540372359304 0.0009009710519236401 -0.005062161622942642 0.0 0.0
0.0 0.02546074843288495 -0.021922592780487343 0.02094208433806636 0.0009805084424209752 -0.006748159232024466 0.0 0.0
0.0 0.03269482353322188 -0.028211435765439965 0.027132341224859167 0.0010790945405807955 -0.009176342781548509 0.0 0.0
0.0 0.03879259722581738 -0.03337214037238888 0.03216581049203642 0.0012063298803524536 -0.012468714388166139 0.0 0.0
0.0 0.04060787556600773 -0.034680532926896226 0.03331839961028686 0.0013621333166093667 -0.015730081693990348 0.0 0.0
0.0 0.03377997486384527 -0.028354164785405835 0.026854052962896332 0.0015001118225095 -0.016655382245178988 0.0 0.0
0.0 0.03377997486384664 -0.028354164785404957 0.026854052962895485 0.001500111822509467 0.016655382245193244 0.0 0.0
0.0 0.04060787556600669 -0.034680532926893326 0.03331839961028417 0.001362133316609144 0.01573008169400702 0.0 0.0
0.0 0.03879259722581474 -0.03337214037238512 0.032165810492033264 0.0012063298803518434 0.01246871438817889 0.0 0.0
0.0 0.032694823533217496 -0.02821143576543539 0.027132341224855333 0.0010790945405800448 0.009176342781553635 0.0 0.0
0.0 0.025460748432879324 -0.02192259278048199 0.020942084338061818 0.0009805084424201645 0.0067481592320257685 0.0 0.0
0.0 0.0185430578588666 -0.016076511424277046 0.015175540372354007 0.0009009710519230417 0.005062161622942651 0.0 0.0
0.0 0.0129945033522608 -0.01132738914119731 0.01049951395819849 0.0008278751829988229 0.003753971071221648 0.0 0.0
0.0 0.008936452358788583 -0.007774236673296362 0.007032399481053551 0.0007418371922428113 0.0027349381506757645 0.0 0.0
0.0 0.0059707531646248655 -0.005267891262344643 0.004629782839310837 0.0006381084230338062 0.002017023119697481 0.0 0.0
0.0 0.003979929589026142 -0.0035339487751186657 0.0030140651008619965 0.0005198836742566702 0.0015045663777739078 0.0 0.0
0.0 0.002588677901055698 -0.002311022444737885 0.001916891294739621 0.0003941311499982635 0.0011153378790267998 0.0 0.0
0.0 0.0015910582815801687 -0.0014086034906823747 0.0011410004188122755 0.0002676030718700992 0.0007899295162259584 0.0 0.0
0.0 0.0008570721184294765 -0.0006966487061292359 0.0005515724610192322 0.0001450762451100037 0.000461009637822892 0.0 0.0
0.0 0.0003947761948508876 -0.00017225920940291695 0.00013444790609291684 3.7811303310000164e-05 0.00013957556905981093 0.0 0.0
0.0 8.565651925219085e-05 -3.2014069264690287e-06 2.4665526095060333e-06 7.348543169632374e-07 2.438414630961074e-06 0.0 0.0
0.0 2.258031005426644e-05 2.4758174597814336e-06 -1.9596739090780073e-06 -5.161435507033677e-07 -3.770517216587599e-06 0.0 0.0
0.0 3.200659700228882e-06 2.570766810613841e-07 -2.0547601312327432e-07 -5.1600667938105344e-08 -5.112391326224368e-07 0.0 0.0
0.0 0.0 0.0 0.0 0.0 0.0 0.0 0.0
0.0 0.0 0.0 0.0 0.0 0.0 0.0 0.0
0.0 0.0 0.0 0.0 0.0 0.0 0.0 0.0
0.0 0.0 0.0 0.0 0.0 0.0 0.0 0.0
0.0 0.0 0.0 0.0 0.0 0.0 0.0 0.0
0.0 0.0 0.0 0.0 0.0 0.0 0.0 0.0
0.0 2.618405318439777e-06 2.393682008394056e-07 -1.9194239063089624e-07 -4.742581020851728e-08 3.6423945028289323e-07 0.0 0.0
0.0 3.3624237427715145e-05 4.220013028408844e-06 -3.2472484748037782e-06 -9.727645536051238e-07 4.109539754910055e-06 0.0 0.0
0.0 0.00019845051975773473 -4.0563800903177015e-05 3.190633672394728e-05 8.65746417922964e-06 -3.0382534227888094e-05 0.0 0.0
0.0 0.0005877563998781933 -0.00047585686905834155 0.00037452583849185636 0.00010133103056648521 -0.0002678317584196419 0.0 0.0
0.0 0.0012868988268352748 -0.0011619849058585895 0.0009338119568372588 0.00022817294902133044 -0.0005342496087803836 0.0 0.0
0.0 0.0022351535219203647 -0.002016747813877113 0.001658601297254655 0.0003581465166224578 -0.0007867482941922037 0.0 0.0
0.0 0.0034640392356907524 -0.00312708548790202 0.0026383842549407223 0.0004887012329612982 -0.0010678201350588805 0.0 0.0
0.0 0.00517777553860147 -0.004629935699149046 0.004017147481096389 0.0006127882180526568 -0.0014138122032552039 0.0 0.0
0.0 0.00763531027166564 -0.006755927480258973 0.00603033866271224 0.000725588817546732 -0.0018758428692937123 0.0 0.0
0.0 0.011164791271264003 -0.009807685626948347 0.00898601127678627 0.0008216743501620735 -0.0025429558941952625 0.0 0.0
0.0 0.016128187789517325 -0.014064225438847722 0.013158965315890933 0.0009052601229567882 -0.0034787324980505817 0.0 0.0
0.0 0.022643843650699626 -0.019664554496108856 0.018685452872312394 0.0009791016237964607 -0.00466958839163739 0.0 0.0
0.0 0.030373954836964735 -0.026505259894899 0.025447262823496516 0.0010579970714024813 -0.006055640739161886 0.0 0.0
0.0 0.03894014841815834 -0.0338960998620494 0.03273064212883879 0.001165457733210621 -0.007895190226089352 0.0 0.0
0.0 0.04616534857919441 -0.04005356520925885 0.038743900916673124 0.0013096642925857166 -0.010905267231576712 0.0 0.0
0.0 0.048481374521857065 -0.04178525839480305 0.04029642191775636 0.0014888364770466846 -0.01526518293291039 0.0 0.0
0.0 0.04089490955071938 -0.03454546557074578 0.0328983920920755 0.0016470734786702813 -0.019312249130223655 0.0 0.0
0.0 0.04089490955072034 -0.034545465570744685 0.032898392092074326 0.0016470734786703449 0.019312249130237314 0.0 0.0
0.0 0.04848137452185532 -0.04178525839479987 0.04029642191775344 0.0014888364770464157 0.015265182932927111 0.0 0.0
0.0 0.04616534857918893 -0.04005356520925312 0.038743900916667635 0.0013096642925854848 0.010905267231589404 0.0 0.0
0.0 0.03894014841815055 -0.03389609986204226 0.032730642128831894 0.0011654577332103496 0.007895190226093583 0.0 0.0
0.0 0.030373954836957207 -0.026505259894892164 0.025447262823490135 0.0010579970714020249 0.006055640739163224 0.0 0.0
0.0 0.022643843650692212 -0.019664554496102018 0.018685452872306222 0.0009791016237957948 0.004669588391637828 0.0 0.0
0.0 0.016128187789509564 -0.014064225438840547 0.013158965315884516 0.0009052601229560331 0.0034787324980497508 0.0 0.0
0.0 0.011164791271255357 -0.009807685626940307 0.00898601127677898 0.0008216743501613254 0.002542955894193799 0.0 0.0
0.0 0.007635310271655594 -0.006755927480249494 0.0060303386627033944 0.0007255888175460993 0.0018758428692918308 0.0 0.0
0.0 0.005177775538592737 -0.004629935699140576 0.00401714748108875 0.0006127882180518249 0.0014138122032522913 0.0 0.0
0.0 0.003464039235682626 -0.0031270854878942787 0.002638384254933863 0.0004887012329604153 0.0010678201350559692 0.0 0.0
0.0 0.002235153521913825 -0.002016747813870479 0.0016586012972489078 0.0003581465166215713 0.0007867482941902293 0.0 0.0
0.0 0.0012868988268295418 -0.0011619849058527964 0.0009338119568324077 0.00022817294902038876 0.0005342496087781323 0.0 0.0
0.0 0.0005877563998746076 -0.00047585686905522956 0.00037452583848940823 0.0001013310305658213 0.00026783175841809065 0.0 0.0
0.0 0.00019845051975541587 -4.056380090240731e-05 3.190633672334961e-05 8.657464179057657e-06 3.0382534227313217e-05 0.0 0.0
0.0 3.3624237426677116e-05 4.220013028266174e-06 -3.247248474693658e-06 -9.72764553572584e-07 -4.109539754769875e-06 0.0 0.0
0.0 2.6184053179973456e-06 2.3936820079710257e-07 -1.9194239059710804e-07 -4.742581019997605e-08 -3.6423945021951685e-07 0.0 0.0
0.0 0.0 0.0 0.0 0.0 0.0 0.0 0.0
0.0 0.0 0.0 0.0 0.0 0.0 0.0 0.0
0.0 0.0 0.0 0.0 0.0 0.0 0.0 0.0
0.0 0.0 0.0 0.0 0.0 0.0 0.0 0.0
0.0 0.0 0.0 0.0 0.0 0.0 0.0 0.0
0.0 0.0 0.0 0.0 0.0 0.0 0.0 0.0
0.0 2.505328812516062e-06 2.531774601983128e-07 -2.0049509598987184e-07 -5.2682364208456706e-08 2.703398458413968e-07 0.0 0.0
0.0 6.436331433646125e-05 8.895450456086003e-06 -6.871037593997346e-06 -2.02441286208858e-06 6.306131010725169e-06 0.0 0.0
0.0 0.00037692685701276786 -0.0001883698393392164 0.0001477437678782089 4.0626071461007434e-05 -9.288533183866258e-05 0.0 0.0
0.0 0.0009055078838499104 -0.0008290988806382081 0.0006588234753350361 0.00017027540530317183 -0.00029885757674930324 0.0 0.0
0.0 0.0017934034793925578 -0.0016416277017797828 0.0013367617819312451 0.0003048659198485377 -0.0004917636678130983 0.0 0.0
0.0 0.0029240283896714136 -0.0026601145556886755 0.0022195125856448008 0.00044060197004387486 -0.0006848362761315217 0.0 0.0
0.0 0.004402865726828487 -0.003980578294086476 0.0034091269907711367 0.0005714513033153393 -0.0009109916059378705 0.0 0.0
0.0 0.006464925857362852 -0.005771478428145523 0.005079539559421238 0.0006919388687242861 -0.0011965630742209778 0.0 0.0
0.0 0.009342999038694635 -0.008305831070032922 0.007506413584749249 0.0007994174852836722 -0.001575440135921462 0.0 0.0
0.0 0.013585212547698572 -0.011910664945784924 0.011018543807712423 0.0008921211380725021 -0.002118901085720083 0.0 0.0
0.0 0.01919609673040267 -0.01688272076909291 0.015907155113901856 0.0009755656551910528 -0.0029298255129170695 0.0 0.0
0.0 0.02655180702027293 -0.02330953761009653 0.022254847243879456 0.0010546903662170628 -0.003953548812008387 0.0 0.0
0.0 0.03542500116112439 -0.031008819316416636 0.02987102932183023 0.001137789994586406 -0.00493521301981752 0.0 0.0
0.0 0.04497247103355036 -0.03930721284124877 0.0380660960950933 0.0012411167461554556 -0.005867211758384204 0.0 0.0
0.0 0.05326310011151714 -0.04647234442277224 0.04507587467952656 0.0013964697432456733 -0.008063767428437646 0.0 0.0
0.0 0.05643135146716059 -0.04896104569320064 0.04735724930480073 0.0016037963883999088 -0.013494857080739407 0.0 0.0
0.0 0.04860871657528037 -0.04116455133624192 0.03935969065937411 0.0018048606768678005 -0.02180598166370684 0.0 0.0
0.0 0.04860871657528057 -0.04116455133624053 0.03935969065937269 0.0018048606768678176 0.021805981663718783 0.0 0.0
0.0 0.056431351467157324 -0.04896104569319662 0.04735724930479691 0.0016037963883997108 0.013494857080754798 0.0 0.0
0.0 0.05326310011151291 -0.046472344422767785 0.04507587467952273 0.0013964697432450636 0.00806376742844945 0.0 0.0
0.0 0.04497247103354352 -0.0393072128412424 0.038066096095087626 0.0012411167461547604 0.0058672117583884655 0.0 0.0
0.0 0.03542500116111612 -0.03100881931640908 0.029871029321823374 0.0011377899945856954 0.0049352130198192495 0.0 0.0
0.0 0.02655180702026479 -0.023309537610089037 0.022254847243872868 0.0010546903662161631 0.003953548812008552 0.0 0.0
0.0 0.019196096730392152 -0.016882720769083495 0.01590715511389305 0.0009755656551904429 0.0029298255129164208 0.0 0.0
0.0 0.01358521254768854 -0.011910664945775746 0.011018543807704017 0.0008921211380717295 0.0021189010857189114 0.0 0.0
0.0 0.00934299903868299 -0.008305831070022331 0.007506413584739476 0.0007994174852828531 0.0015754401359201968 0.0 0.0
0.0 0.0064649258573529775 -0.005771478428136008 0.005079539559412562 0.0006919388687234438 0.0011965630742183085 0.0 0.0
0.0 0.0044028657268193085 -0.003980578294077508 0.0034091269907630325 0.0005714513033144761 0.000910991605935193 0.0 0.0
0.0 0.0029240283896644157 -0.002660114555681687 0.002219512585638751 0.0004406019700429354 0.0006848362761299129 0.0 0.0
0.0 0.001793403479386837 -0.001641627701773899 0.0013367617819262955 0.00030486591984760366 0.0004917636678116713 0.0 0.0
0.0 0.0009055078838454599 -0.000829098880633805 0.0006588234753314569 0.00017027540530234817 0.0002988575767478656 0.0 0.0
0.0 0.0003769268570097198 -0.000188369839337202 0.00014774376787664306 4.062607146055911e-05 9.288533183773932e-05 0.0 0.0
0.0 6.436331433524684e-05 8.895450455917108e-06 -6.8710375938664015e-06 -2.024412862050632e-06 -6.306131010618698e-06 0.0 0.0
0.0 2.505328812069941e-06 2.5317746015063734e-07 -2.0049509595215908e-07 -5.268236419847302e-08 -2.7033984579089287e-07 0.0 0.0
0.0 0.0 0.0 0.0 0.0 0.0 0.0 0.0
0.0 0.0 0.0 0.0 0.0 0.0 0.0 0.0
0.0 0.0 0.0 0.0 0.0 0.0 0.0 0.0
0.0 0.0 0.0 0.0 0.0 0.0 0.0 0.0
0.0 0.0 0.0 0.0 0.0 0.0 0.0 0.0
0.0 0.0 0.0 0.0 0.0 0.0 0.0 0.0
0.0 6.045045006529798e-06 7.320323744054415e-07 -5.709111846573905e-07 -1.6112118974801157e-07 4.873856828000473e-07 0.0 0.0
0.0 0.0001260316770978869 9.303526862640462e-06 -6.995158153909811e-06 -2.3083687087304852e-06 3.3923496271360295e-06 0.0 0.0
0.0 0.0004966660422763845 -0.00046264794693594063 0.0003635225241638707 9.912542277206998e-05 -0.00012211364532797552 0.0 0.0
0.0 0.0013002189800949933 -0.0012040398234224924 0.0009679690984081081 0.0002360707250143837 -0.0002441466485251504 0.0 0.0
0.0 0.0023281009119794508 -0.002146768104536596 0.0017696311715846638 0.00037713693295193145 -0.0003639584421265117 0.0 0.0
0.0 0.003649415348563841 -0.003330455207563111 0.002816427760104328 0.0005140274474587823 -0.0004937831849495462 0.0 0.0
0.0 0.005384757693172454 -0.004866938276061876 0.004223758630781314 0.0006431796452805619 -0.0006528742171393806 0.0 0.0
0.0 0.00778340979936179 -0.006956357797751721 0.006195665912872477 0.0007606918848792457 -0.0008504233576610077 0.0 0.0
0.0 0.011248855981013465 -0.009906704944712307 0.009042134450313542 0.0008645704943987644 -0.0011098196131612086 0.0 0.0
0.0 0.015909620607883507 -0.014084895536140264 0.013129020754624951 0.0009558747815153145 -0.0015141899895480468 0.0 0.0
0.0 0.022369970155342166 -0.01975831298180236 0.01871668662743765 0.0010416263543647072 -0.0020973112848570235 0.0 0.0
0.0 0.030682840679860837 -0.02697816815879843 0.025848857013879588 0.001129311144918833 -0.0028006826936067676 0.0 0.0
0.0 0.040422492290048545 -0.03544432724158943 0.03422369221779235 0.0012206350237970649 -0.0034225500997680045 0.0 0.0
0.0 0.05069194128345157 -0.04438267864273462 0.04306189297553681 0.0013207856671977993 -0.0036093969435813337 0.0 0.0
0.0 0.059859702146853114 -0.05234642861332613 0.05090363177611286 0.001442796837213288 -0.004107825794307269 0.0 0.0
0.0 0.06451706807307349 -0.056184212149458894 0.05448172782539636 0.001702484324062511 -0.009629439383836239 0.0 0.0
0.0 0.05720434234294879 -0.04859583848012926 0.046604076982471224 0.0019917614976580093 -0.02365366918725534 0.0 0.0
0.0 0.057204342342947426 -0.048595838480127086 0.046604076982469156 0.001991761497657925 0.023653669187262742 0.0 0.0
0.0 0.0645170680730685 -0.056184212149453856 0.05448172782539172 0.0017024843240621363 0.00962943938384831 0.0 0.0
0.0 0.059859702146846216 -0.052346428613319625 0.05090363177610699 0.0014427968372126147 0.004107825794317409 0.0 0.0
0.0 0.050691941283443114 -0.04438267864272681 0.04306189297552989 0.0013207856671969102 0.003609396943583147 0.0 0.0
0.0 0.04042249229003855 -0.03544432724158045 0.03422369221778403 0.0012206350237964141 0.0034225500997695025 0.0 0.0
0.0 0.03068284067985018 -0.026978168158788875 0.025848857013870803 0.0011293111449180721 0.002800682693606732 0.0 0.0
0.0 0.022369970155331906 -0.01975831298179305 0.018716686627429268 0.0010416263543637798 0.0020973112848570704 0.0 0.0
0.0 0.015909620607872123 -0.014084895536129962 0.013129020754615525 0.0009558747815144351 0.0015141899895472458 0.0 0.0
0.0 0.011248855981000568 -0.009906704944700487 0.009042134450302572 0.0008645704943979131 0.0011098196131605902 0.0 0.0
0.0 0.0077834097993501085 -0.0069563577977410735 0.0061956659128627025 0.0007606918848783704 0.0008504233576593541 0.0 0.0
0.0 0.005384757693162532 -0.004866938276052476 0.004223758630772807 0.0006431796452796685 0.0006528742171376648 0.0 0.0
0.0 0.003649415348555987 -0.003330455207555094 0.002816427760097241 0.0005140274474578538 0.000493783184948751 0.0 0.0
0.0 0.0023281009119724147 -0.0021467681045295043 0.0017696311715785654 0.0003771369329509392 0.00036395844212558565 0.0 0.0
0.0 0.0013002189800894813 -0.0012040398234167667 0.0009679690984033536 0.00023607072501341314 0.000244146648523963 0.0 0.0
0.0 0.0004966660422734274 -0.00046264794693296927 0.00036352252416150816 9.912542277146105e-05 0.00012211364532710694 0.0 0.0
0.0 0.00012603167709658616 9.303526862763929e-06 -6.9951581540115976e-06 -2.308368708752475e-06 -3.392349627203829e-06 0.0 0.0
0.0 6.0450450061054435e-06 7.320323743512644e-07 -5.70911184615012e-07 -1.611211897362353e-07 -4.873856827632469e-07 0.0 0.0
0.0 0.0 0.0 0.0 0.0 0.0 0.0 0.0
0.0 0.0 0.0 0.0 0.0 0.0 0.0 0.0
0.0 0.0 0.0 0.0 0.0 0.0 0.0 0.0
0.0 0.0 0.0 0.0 0.0 0.0 0.0 0.0
0.0 0.0 0.0 0.0 0.0 0.0 0.0 0.0
0.0 0.0 0.0 0.0 0.0 0.0 0.0 0.0
0.0 1.3220964968997595e-05 1.7909406834675475e-06 -1.377065411829079e-06 -4.1387527163845865e-07 4.582581898773336e-07 0.0 0.0
0.0 0.0002776876217084136 -4.672924172419981e-05 3.7193095409886285e-05 9.536146314313995e-06 -1.0447113161198467e-05 0.0 0.0
0.0 0.0007856471212391716 -0.0007320976825002224 0.0005789811688912218 0.00015311651360900053 -6.656566858813846e-05 0.0 0.0
0.0 0.0017164463818386314 -0.0016003674344779088 0.0013011846944149137 0.0002991827400629947 -0.0001135611559465564 0.0 0.0
0.0 0.002902805993417943 -0.00266913046093544 0.0022267224604427304 0.0004424080004927096 -0.00015953524636491695 0.0 0.0
0.0 0.0044248564374955515 -0.004021777011108597 0.0034425116462131603 0.0005792653648954355 -0.0002165807187321412 0.0 0.0
0.0 0.006443281104989046 -0.005779217940648314 0.005072546428865525 0.0007066715117827872 -0.0002916840660964104 0.0 0.0
0.0 0.009257268661756652 -0.008177269762710729 0.007356560606729936 0.0008207091559807929 -0.0003770338484471111 0.0 0.0
0.0 0.012993884934820864 -0.01157321282320697 0.010650188037913566 0.0009230247852934039 -0.0005071748552451137 0.0 0.0
0.0 0.01835806084981916 -0.016311329427555886 0.015296120588449834 0.0010152088391060488 -0.0006953259490587054 0.0 0.0
0.0 0.02565535910674925 -0.022661440161106355 0.021555951766333546 0.0011054883947728034 -0.0009420796495296383 0.0 0.0
0.0 0.034842125594457624 -0.03064623947263128 0.02944497972627365 0.0012012597463576249 -0.00123500958673781 0.0 0.0
0.0 0.04543962072573669 -0.039828917115862145 0.038525136149097985 0.0013037809667641672 -0.0014408584615903568 0.0 0.0
0.0 0.0562989796872751 -0.049239401133912265 0.04783131618516206 0.0014080849487502207 -0.001317707660456033 0.0 0.0
0.0 0.06570669612958503 -0.05742606324581652 0.055914795089260734 0.0015112681565557845 -0.0006216072260627431 0.0 0.0
0.0 0.07174584308531495 -0.06259710578112854 0.06097765096735044 0.001619454813778101 -0.0021957806814384227 0.0 0.0
0.0 0.06752649371772779 -0.05785762682263412 0.055542163539341785 0.0023154632832923286 -0.02214513176900346 0.0 0.0
0.0 0.0675264937177262 -0.05785762682263235 0.05554216353933997 0.0023154632832923933 0.02214513176900694 0.0 0.0
0.0 0.07174584308530901 -0.0625971057811233 0.06097765096734544 0.00161945481377787 0.002195780681444401 0.0 0.0
0.0 0.06570669612957596 -0.05742606324580841 0.05591479508925315 0.0015112681565552378 0.0006216072260678037 0.0 0.0
0.0 0.05629897968726464 -0.049239401133902724 0.04783131618515343 0.0014080849487492985 0.0013177076604551584 0.0 0.0
0.0 0.045439620725726236 -0.03982891711585258 0.03852513614908942 0.001303780966763137 0.0014408584615909104 0.0 0.0
0.0 0.034842125594445474 -0.03064623947262033 0.029444979726263594 0.0012012597463567343 0.0012350095867376988 0.0 0.0
0.0 0.02565535910673518 -0.02266144016109383 0.021555951766321763 0.0011054883947720696 0.0009420796495300739 0.0 0.0
0.0 0.01835806084980478 -0.016311329427543073 0.01529612058843786 0.0010152088391052107 0.0006953259490581123 0.0 0.0
0.0 0.012993884934805713 -0.011573212823193402 0.010650188037900825 0.0009230247852925721 0.0005071748552451998 0.0 0.0
0.0 0.009257268661743277 -0.008177269762698447 0.007356560606718543 0.0008207091559799046 0.00037703384844641385 0.0 0.0
0.0 0.006443281104977136 -0.005779217940637627 0.00507254642885564 0.0007066715117819867 0.00029168406609578293 0.0 0.0
0.0 0.004424856437485776 -0.004021777011099228 0.0034425116462046823 0.0005792653648945455 0.00021658071873176027 0.0 0.0
0.0 0.0029028059934103406 -0.002669130460927721 0.002226722460436046 0.00044240800049167515 0.00015953524636441832 0.0 0.0
0.0 0.0017164463818329222 -0.0016003674344719214 0.001301184694409958 0.00029918274006196277 0.0001135611559462138 0.0 0.0
0.0 0.0007856471212353201 -0.0007320976824959859 0.0005789811688878058 0.00015311651360818004 6.656566858779466e-05 0.0 0.0
0.0 0.0002776876217060228 -4.672924172307452e-05 3.719309540900571e-05 9.536146314069159e-06 1.0447113161033438e-05 0.0 0.0
0.0 1.3220964968241572e-05 1.7909406833667015e-06 -1.377065411752633e-06 -4.1387527161402535e-07 -4.582581898590264e-07 0.0 0.0
0.0 0.0 0.0 0.0 0.0 0.0 0.0 0.0
0.0 0.0 0.0 0.0 0.0 0.0 0.0 0.0
0.0 0.0 0.0 0.0 0.0 0.0 0.0 0.0