# vtk DataFile Version 3.0
Some data
ASCII
DATASET UNSTRUCTURED_GRID
POINTS 861 float
0.0 0.0 0.0
0.4 0.0 0.0
0.8 0.0 0.0
1.2000000000000002 0.0 0.0
1.6 0.0 0.0
2.0 0.0 0.0
2.4000000000000004 0.0 0.0
2.8000000000000003 0.0 0.0
3.2 0.0 0.0
3.6 0.0 0.0
4.0 0.0 0.0
4.4 0.0 0.0
4.800000000000001 0.0 0.0
5.2 0.0 0.0
5.6000000000000005 0.0 0.0
6.0 0.0 0.0
6.4 0.0 0.0
6.800000000000001 0.0 0.0
7.2 0.0 0.0
7.6000000000000005 0.0 0.0
8.0 0.0 0.0
8.4 0.0 0.0
8.8 0.0 0.0
9.200000000000001 0.0 0.0
9.600000000000001 0.0 0.0
10.0 0.0 0.0
10.4 0.0 0.0
10.8 0.0 0.0
11.200000000000001 0.0 0.0
11.600000000000001 0.0 0.0
12.0 0.0 0.0
12.4 0.0 0.0
12.8 0.0 0.0
13.200000000000001 0.0 0.0
13.600000000000001 0.0 0.0
14.0 0.0 0.0
14.4 0.0 0.0
14.8 0.0 0.0
15.200000000000001 0.0 0.0
15.600000000000001 0.0 0.0
16.0 0.0 0.0
0.0 0.1 0.0
0.4 0.1 0.0
0.8 0.1 0.0
1.2000000000000002 0.1 0.0
1.6 0.1 0.0
2.0 0.1 0.0
2.4000000000000004 0.1 0.0
2.8000000000000003 0.1 0.0
3.2 0.1 0.0
3.6 0.1 0.0
4.0 0.1 0.0
4.4 0.1 0.0
4.800000000000001 0.1 0.0
5.2 0.1 0.0
5.6000000000000005 0.1 0.0
6.0 0.1 0.0
6.4 0.1 0.0
6.800000000000001 0.1 0.0
7.2 0.1 0.0
7.6000000000000005 0.1 0.0
8.0 0.1 0.0
8.4 0.1 0.0
8.8 0.1 0.0
9.200000000000001 0.1 0.0
9.600000000000001 0.1 0.0
10.0 0.1 0.0
10.4 0.1 0.0
10.8 0.1 0.0
11.200000000000001 0.1 0.0
11.600000000000001 0.1 0.0
12.0 0.1 0.0
12.4 0.1 0.0
12.8 0.1 0.0
13.200000000000001 0.1 0.0
13.600000000000001 0.1 0.0
14.0 0.1 0.0
14.4 0.1 0.0
14.8 0.1 0.0
15.200000000000001 0.1 0.0
15.600000000000001 0.1 0.0
16.0 0.1 0.0
0.0 0.2 0.0
0.4 0.2 0.0
0.8 0.2 0.0
1.2000000000000002 0.2 0.0
1.6 0.2 0.0
2.0 0.2 0.0
2.4000000000000004 0.2 0.0
2.8000000000000003 0.2 0.0
3.2 0.2 0.0
3.6 0.2 0.0
4.0 0.2 0.0
4.4 0.2 0.0
4.800000000000001 0.2 0.0
5.2 0.2 0.0
5.6000000000000005 0.2 0.0
6.0 0.2 0.0
6.4 0.2 0.0
6.800000000000001 0.2 0.0
7.2 0.2 0.0
7.6000000000000005 0.2 0.0
8.0 0.2 0.0
8.4 0.2 0.0
8.8 0.2 0.0
9.200000000000001 0.2 0.0
9.600000000000001 0.2 0.0
10.0 0.2 0.0
10.4 0.2 0.0
10.8 0.2 0.0
11.200000000000001 0.2 0.0
11.600000000000001 0.2 0.0
12.0 0.2 0.0
12.4 0.2 0.0
12.8 0.2 0.0
13.200000000000001 0.2 0.0
13.600000000000001 0.2 0.0
14.0 0.2 0.0
14.4 0.2 0.0
14.8 0.2 0.0
15.200000000000001 0.2 0.0
15.600000000000001 0.2 0.0
16.0 0.2 0.0
0.0 0.30000000000000004 0.0
0.4 0.30000000000000004 0.0
0.8 0.30000000000000004 0.0
1.2000000000000002 0.30000000000000004 0.0
1.6 0.30000000000000004 0.0
2.0 0.30000000000000004 0.0
2.4000000000000004 0.30000000000000004 0.0
2.8000000000000003 0.30000000000000004 0.0
3.2 0.30000000000000004 0.0
3.6 0.30000000000000004 0.0
4.0 0.30000000000000004 0.0
4.4 0.30000000000000004 0.0
4.800000000000001 0.30000000000000004 0.0
5.2 0.30000000000000004 0.0
5.6000000000000005 0.30000000000000004 0.0
6.0 0.30000000000000004 0.0
6.4 0.30000000000000004 0.0
6.800000000000001 0.30000000000000004 0.0
7.2 0.30000000000000004 0.0
7.6000000000000005 0.30000000000000004 0.0
8.0 0.30000000000000004 0.0
8.4 0.30000000000000004 0.0
8.8 0.30000000000000004 0.0
9.200000000000001 0.30000000000000004 0.0
9.600000000000001 0.30000000000000004 0.0
10.0 0.30000000000000004 0.0
10.4 0.30000000000000004 0.0
10.8 0.30000000000000004 0.0
11.200000000000001 0.30000000000000004 0.0
11.600000000000001 0.30000000000000004 0.0
12.0 0.30000000000000004 0.0
12.4 0.30000000000000004 0.0
12.8 0.30000000000000004 0.0
13.200000000000001 0.30000000000000004 0.0
13.600000000000001 0.30000000000000004 0.0
14.0 0.30000000000000004 0.0
14.4 0.30000000000000004 0.0
14.8 0.30000000000000004 0.0
15.200000000000001 0.30000000000000004 0.0
15.600000000000001 0.30000000000000004 0.0
16.0 0.30000000000000004 0.0
0.0 0.4 0.0
0.4 0.4 0.0
0.8 0.4 0.0
1.2000000000000002 0.4 0.0
1.6 0.4 0.0
2.0 0.4 0.0
2.4000000000000004 0.4 0.0
2.8000000000000003 0.4 0.0
3.2 0.4 0.0
3.6 0.4 0.0
4.0 0.4 0.0
4.4 0.4 0.0
4.800000000000001 0.4 0.0
5.2 0.4 0.0
5.6000000000000005 0.4 0.0
6.0 0.4 0.0
6.4 0.4 0.0
6.800000000000001 0.4 0.0
7.2 0.4 0.0
7.6000000000000005 0.4 0.0
8.0 0.4 0.0
8.4 0.4 0.0
8.8 0.4 0.0
9.200000000000001 0.4 0.0
9.600000000000001 0.4 0.0
10.0 0.4 0.0
10.4 0.4 0.0
10.8 0.4 0.0
11.200000000000001 0.4 0.0
11.600000000000001 0.4 0.0
12.0 0.4 0.0
12.4 0.4 0.0
12.8 0.4 0.0
13.200000000000001 0.4 0.0
13.600000000000001 0.4 0.0
14.0 0.4 0.0
14.4 0.4 0.0
14.8 0.4 0.0
15.200000000000001 0.4 0.0
15.600000000000001 0.4 0.0
16.0 0.4 0.0
0.0 0.5 0.0
0.4 0.5 0.0
0.8 0.5 0.0
1.2000000000000002 0.5 0.0
1.6 0.5 0.0
2.0 0.5 0.0
2.4000000000000004 0.5 0.0
2.8000000000000003 0.5 0.0
3.2 0.5 0.0
3.6 0.5 0.0
4.0 0.5 0.0
4.4 0.5 0.0
4.800000000000001 0.5 0.0
5.2 0.5 0.0
5.6000000000000005 0.5 0.0
6.0 0.5 0.0
6.4 0.5 0.0
6.800000000000001 0.5 0.0
7.2 0.5 0.0
7.6000000000000005 0.5 0.0
8.0 0.5 0.0
8.4 0.5 0.0
8.8 0.5 0.0
9.200000000000001 0.5 0.0
9.600000000000001 0.5 0.0
10.0 0.5 0.0
10.4 0.5 0.0
10.8 0.5 0.0
11.200000000000001 0.5 0.0
11.600000000000001 0.5 0.0
12.0 0.5 0.0
12.4 0.5 0.0
12.8 0.5 0.0
13.200000000000001 0.5 0.0
13.600000000000001 0.5 0.0
14.0 0.5 0.0
14.4 0.5 0.0
14.8 0.5 0.0
15.200000000000001 0.5 0.0
15.600000000000001 0.5 0.0
16.0 0.5 0.0
0.0 0.6000000000000001 0.0
0.4 0.6000000000000001 0.0
0.8 0.6000000000000001 0.0
1.2000000000000002 0.6000000000000001 0.0
1.6 0.6000000000000001 0.0
2.0 0.6000000000000001 0.0
2.4000000000000004 0.6000000000000001 0.0
2.8000000000000003 0.6000000000000001 0.0
3.2 0.6000000000000001 0.0
3.6 0.6000000000000001 0.0
4.0 0.6000000000000001 0.0
4.4 0.6000000000000001 0.0
4.800000000000001 0.6000000000000001 0.0
5.2 0.6000000000000001 0.0
5.6000000000000005 0.6000000000000001 0.0
6.0 0.6000000000000001 0.0
6.4 0.6000000000000001 0.0
6.800000000000001 0.6000000000000001 0.0
7.2 0.6000000000000001 0.0
7.6000000000000005 0.6000000000000001 0.0
8.0 0.6000000000000001 0.0
8.4 0.6000000000000001 0.0
8.8 0.6000000000000001 0.0
9.200000000000001 0.6000000000000001 0.0
9.600000000000001 0.6000000000000001 0.0
10.0 0.6000000000000001 0.0
10.4 0.6000000000000001 0.0
10.8 0.6000000000000001 0.0
11.200000000000001 0.6000000000000001 0.0
11.600000000000001 0.6000000000000001 0.0
12.0 0.6000000000000001 0.0
12.4 0.6000000000000001 0.0
12.8 0.6000000000000001 0.0
13.200000000000001 0.6000000000000001 0.0
13.600000000000001 0.6000000000000001 0.0
14.0 0.6000000000000001 0.0
14.4 0.6000000000000001 0.0
14.8 0.6000000000000001 0.0
15.200000000000001 0.6000000000000001 0.0
15.600000000000001 0.6000000000000001 0.0
16.0 0.6000000000000001 0.0
0.0 0.7000000000000001 0.0
0.4 0.7000000000000001 0.0
0.8 0.7000000000000001 0.0
1.2000000000000002 0.7000000000000001 0.0
1.6 0.7000000000000001 0.0
2.0 0.7000000000000001 0.0
2.4000000000000004 0.7000000000000001 0.0
2.8000000000000003 0.7000000000000001 0.0
3.2 0.7000000000000001 0.0
3.6 0.7000000000000001 0.0
4.0 0.7000000000000001 0.0
4.4 0.7000000000000001 0.0
4.800000000000001 0.7000000000000001 0.0
5.2 0.7000000000000001 0.0
5.6000000000000005 0.7000000000000001 0.0
6.0 0.7000000000000001 0.0
6.4 0.7000000000000001 0.0
6.800000000000001 0.7000000000000001 0.0
7.2 0.7000000000000001 0.0
7.6000000000000005 0.7000000000000001 0.0
8.0 0.7000000000000001 0.0
8.4 0.7000000000000001 0.0
8.8 0.7000000000000001 0.0
9.200000000000001 0.7000000000000001 0.0
9.600000000000001 0.7000000000000001 0.0
10.0 0.7000000000000001 0.0
10.4 0.7000000000000001 0.0
10.8 0.7000000000000001 0.0
11.200000000000001 0.7000000000000001 0.0
11.600000000000001 0.7000000000000001 0.0
12.0 0.7000000000000001 0.0
12.4 0.7000000000000001 0.0
12.8 0.7000000000000001 0.0
13.200000000000001 0.7000000000000001 0.0
13.600000000000001 0.7000000000000001 0.0
14.0 0.7000000000000001 0.0
14.4 0.7000000000000001 0.0
14.8 0.7000000000000001 0.0
15.200000000000001 0.7000000000000001 0.0
15.600000000000001 0.7000000000000001 0.0
16.0 0.7000000000000001 0.0
0.0 0.8 0.0
0.4 0.8 0.0
0.8 0.8 0.0
1.2000000000000002 0.8 0.0
1.6 0.8 0.0
2.0 0.8 0.0
2.4000000000000004 0.8 0.0
2.8000000000000003 0.8 0.0
3.2 0.8 0.0
3.6 0.8 0.0
4.0 0.8 0.0
4.4 0.8 0.0
4.800000000000001 0.8 0.0
5.2 0.8 0.0
5.6000000000000005 0.8 0.0
6.0 0.8 0.0
6.4 0.8 0.0
6.800000000000001 0.8 0.0
7.2 0.8 0.0
7.6000000000000005 0.8 0.0
8.0 0.8 0.0
8.4 0.8 0.0
8.8 0.8 0.0
9.200000000000001 0.8 0.0
9.600000000000001 0.8 0.0
10.0 0.8 0.0
10.4 0.8 0.0
10.8 0.8 0.0
11.200000000000001 0.8 0.0
11.600000000000001 0.8 0.0
12.0 0.8 0.0
12.4 0.8 0.0
12.8 0.8 0.0
13.200000000000001 0.8 0.0
13.600000000000001 0.8 0.0
14.0 0.8 0.0
14.4 0.8 0.0
14.8 0.8 0.0
15.200000000000001 0.8 0.0
15.600000000000001 0.8 0.0
16.0 0.8 0.0
0.0 0.9 0.0
0.4 0.9 0.0
0.8 0.9 0.0
1.2000000000000002 0.9 0.0
1.6 0.9 0.0
2.0 0.9 0.0
2.4000000000000004 0.9 0.0
2.8000000000000003 0.9 0.0
3.2 0.9 0.0
3.6 0.9 0.0
4.0 0.9 0.0
4.4 0.9 0.0
4.800000000000001 0.9 0.0
5.2 0.9 0.0
5.6000000000000005 0.9 0.0
6.0 0.9 0.0
6.4 0.9 0.0
6.800000000000001 0.9 0.0
7.2 0.9 0.0
7.6000000000000005 0.9 0.0
8.0 0.9 0.0
8.4 0.9 0.0
8.8 0.9 0.0
9.200000000000001 0.9 0.0
9.600000000000001 0.9 0.0
10.0 0.9 0.0
10.4 0.9 0.0
10.8 0.9 0.0
11.200000000000001 0.9 0.0
11.600000000000001 0.9 0.0
12.0 0.9 0.0
12.4 0.9 0.0
12.8 0.9 0.0
13.200000000000001 0.9 0.0
13.600000000000001 0.9 0.0
14.0 0.9 0.0
14.4 0.9 0.0
14.8 0.9 0.0
15.200000000000001 0.9 0.0
15.600000000000001 0.9 0.0
16.0 0.9 0.0
0.0 1.0 0.0
0.4 1.0 0.0
0.8 1.0 0.0
1.2000000000000002 1.0 0.0
1.6 1.0 0.0
2.0 1.0 0.0
2.4000000000000004 1.0 0.0
2.8000000000000003 1.0 0.0
3.2 1.0 0.0
3.6 1.0 0.0
4.0 1.0 0.0
4.4 1.0 0.0
4.800000000000001 1.0 0.0
5.2 1.0 0.0
5.6000000000000005 1.0 0.0
6.0 1.0 0.0
6.4 1.0 0.0
6.800000000000001 1.0 0.0
7.2 1.0 0.0
7.6000000000000005 1.0 0.0
8.0 1.0 0.0
8.4 1.0 0.0
8.8 1.0 0.0
9.200000000000001 1.0 0.0
9.600000000000001 1.0 0.0
10.0 1.0 0.0
10.4 1.0 0.0
10.8 1.0 0.0
11.200000000000001 1.0 0.0
11.600000000000001 1.0 0.0
12.0 1.0 0.0
12.4 1.0 0.0
12.8 1.0 0.0
13.200000000000001 1.0 0.0
13.600000000000001 1.0 0.0
14.0 1.0 0.0
14.4 1.0 0.0
14.8 1.0 0.0
15.200000000000001 1.0 0.0
15.600000000000001 1.0 0.0
16.0 1.0 0.0
0.0 1.1 0.0
0.4 1.1 0.0
0.8 1.1 0.0
1.2000000000000002 1.1 0.0
1.6 1.1 0.0
2.0 1.1 0.0
2.4000000000000004 1.1 0.0
2.8000000000000003 1.1 0.0
3.2 1.1 0.0
3.6 1.1 0.0
4.0 1.1 0.0
4.4 1.1 0.0
4.800000000000001 1.1 0.0
5.2 1.1 0.0
5.6000000000000005 1.1 0.0
6.0 1.1 0.0
6.4 1.1 0.0
6.800000000000001 1.1 0.0
7.2 1.1 0.0
7.6000000000000005 1.1 0.0
8.0 1.1 0.0
8.4 1.1 0.0
8.8 1.1 0.0
9.200000000000001 1.1 0.0
9.600000000000001 1.1 0.0
10.0 1.1 0.0
10.4 1.1 0.0
10.8 1.1 0.0
11.200000000000001 1.1 0.0
11.600000000000001 1.1 0.0
12.0 1.1 0.0
12.4 1.1 0.0
12.8 1.1 0.0
13.200000000000001 1.1 0.0
13.600000000000001 1.1 0.0
14.0 1.1 0.0
14.4 1.1 0.0
14.8 1.1 0.0
15.200000000000001 1.1 0.0
15.600000000000001 1.1 0.0
16.0 1.1 0.0
0.0 1.2000000000000002 0.0
0.4 1.2000000000000002 0.0
0.8 1.2000000000000002 0.0
1.2000000000000002 1.2000000000000002 0.0
1.6 1.2000000000000002 0.0
2.0 1.2000000000000002 0.0
2.4000000000000004 1.2000000000000002 0.0
2.8000000000000003 1.2000000000000002 0.0
3.2 1.2000000000000002 0.0
3.6 1.2000000000000002 0.0
4.0 1.2000000000000002 0.0
4.4 1.2000000000000002 0.0
4.800000000000001 1.2000000000000002 0.0
5.2 1.2000000000000002 0.0
5.6000000000000005 1.2000000000000002 0.0
6.0 1.2000000000000002 0.0
6.4 1.2000000000000002 0.0
6.800000000000001 1.2000000000000002 0.0
7.2 1.2000000000000002 0.0
7.6000000000000005 1.2000000000000002 0.0
8.0 1.2000000000000002 0.0
8.4 1.2000000000000002 0.0
8.8 1.2000000000000002 0.0
9.200000000000001 1.2000000000000002 0.0
9.600000000000001 1.2000000000000002 0.0
10.0 1.2000000000000002 0.0
10.4 1.2000000000000002 0.0
10.8 1.2000000000000002 0.0
11.200000000000001 1.2000000000000002 0.0
11.600000000000001 1.2000000000000002 0.0
12.0 1.2000000000000002 0.0
12.4 1.2000000000000002 0.0
12.8 1.2000000000000002 0.0
13.200000000000001 1.2000000000000002 0.0
13.600000000000001 1.2000000000000002 0.0
14.0 1.2000000000000002 0.0
14.4 1.2000000000000002 0.0
14.8 1.2000000000000002 0.0
15.200000000000001 1.2000000000000002 0.0
15.600000000000001 1.2000000000000002 0.0
16.0 1.2000000000000002 0.0
0.0 1.3 0.0
0.4 1.3 0.0
0.8 1.3 0.0
1.2000000000000002 1.3 0.0
1.6 1.3 0.0
2.0 1.3 0.0
2.4000000000000004 1.3 0.0
2.8000000000000003 1.3 0.0
3.2 1.3 0.0
3.6 1.3 0.0
4.0 1.3 0.0
4.4 1.3 0.0
4.800000000000001 1.3 0.0
5.2 1.3 0.0
5.6000000000000005 1.3 0.0
6.0 1.3 0.0
6.4 1.3 0.0
6.800000000000001 1.3 0.0
7.2 1.3 0.0
7.6000000000000005 1.3 0.0
8.0 1.3 0.0
8.4 1.3 0.0
8.8 1.3 0.0
9.200000000000001 1.3 0.0
9.600000000000001 1.3 0.0
10.0 1.3 0.0
10.4 1.3 0.0
10.8 1.3 0.0
11.200000000000001 1.3 0.0
11.600000000000001 1.3 0.0
12.0 1.3 0.0
12.4 1.3 0.0
12.8 1.3 0.0
13.200000000000001 1.3 0.0
13.600000000000001 1.3 0.0
14.0 1.3 0.0
14.4 1.3 0.0
14.8 1.3 0.0
15.200000000000001 1.3 0.0
15.600000000000001 1.3 0.0
16.0 1.3 0.0
0.0 1.4000000000000001 0.0
0.4 1.4000000000000001 0.0
0.8 1.4000000000000001 0.0
1.2000000000000002 1.4000000000000001 0.0
1.6 1.4000000000000001 0.0
2.0 1.4000000000000001 0.0
2.4000000000000004 1.4000000000000001 0.0
2.8000000000000003 1.4000000000000001 0.0
3.2 1.4000000000000001 0.0
3.6 1.4000000000000001 0.0
4.0 1.4000000000000001 0.0
4.4 1.4000000000000001 0.0
4.800000000000001 1.4000000000000001 0.0
5.2 1.4000000000000001 0.0
5.6000000000000005 1.4000000000000001 0.0
6.0 1.4000000000000001 0.0
6.4 1.4000000000000001 0.0
6.800000000000001 1.4000000000000001 0.0
7.2 1.4000000000000001 0.0
7.6000000000000005 1.4000000000000001 0.0
8.0 1.4000000000000001 0.0
8.4 1.4000000000000001 0.0
8.8 1.4000000000000001 0.0
9.200000000000001 1.4000000000000001 0.0
9.600000000000001 1.4000000000000001 0.0
10.0 1.4000000000000001 0.0
10.4 1.4000000000000001 0.0
10.8 1.4000000000000001 0.0
11.200000000000001 1.4000000000000001 0.0
11.600000000000001 1.4000000000000001 0.0
12.0 1.4000000000000001 0.0
12.4 1.4000000000000001 0.0
12.8 1.4000000000000001 0.0
13.200000000000001 1.4000000000000001 0.0
13.600000000000001 1.4000000000000001 0.0
14.0 1.4000000000000001 0.0
14.4 1.4000000000000001 0.0
14.8 1.4000000000000001 0.0
15.200000000000001 1.4000000000000001 0.0
15.600000000000001 1.4000000000000001 0.0
16.0 1.4000000000000001 0.0
0.0 1.5 0.0
0.4 1.5 0.0
0.8 1.5 0.0
1.2000000000000002 1.5 0.0
1.6 1.5 0.0
2.0 1.5 0.0
2.4000000000000004 1.5 0.0
2.8000000000000003 1.5 0.0
3.2 1.5 0.0
3.6 1.5 0.0
4.0 1.5 0.0
4.4 1.5 0.0
4.800000000000001 1.5 0.0
5.2 1.5 0.0
5.6000000000000005 1.5 0.0
6.0 1.5 0.0
6.4 1.5 0.0
6.800000000000001 1.5 0.0
7.2 1.5 0.0
7.6000000000000005 1.5 0.0
8.0 1.5 0.0
8.4 1.5 0.0
8.8 1.5 0.0
9.200000000000001 1.5 0.0
9.600000000000001 1.5 0.0
10.0 1.5 0.0
10.4 1.5 0.0
10.8 1.5 0.0
11.200000000000001 1.5 0.0
11.600000000000001 1.5 0.0
12.0 1.5 0.0
12.4 1.5 0.0
12.8 1.5 0.0
13.200000000000001 1.5 0.0
13.600000000000001 1.5 0.0
14.0 1.5 0.0
14.4 1.5 0.0
14.8 1.5 0.0
15.200000000000001 1.5 0.0
15.600000000000001 1.5 0.0
16.0 1.5 0.0
0.0 1.6 0.0
0.4 1.6 0.0
0.8 1.6 0.0
1.2000000000000002 1.6 0.0
1.6 1.6 0.0
2.0 1.6 0.0
2.4000000000000004 1.6 0.0
2.8000000000000003 1.6 0.0
3.2 1.6 0.0
3.6 1.6 0.0
4.0 1.6 0.0
4.4 1.6 0.0
4.800000000000001 1.6 0.0
5.2 1.6 0.0
5.6000000000000005 1.6 0.0
6.0 1.6 0.0
6.4 1.6 0.0
6.800000000000001 1.6 0.0
7.2 1.6 0.0
7.6000000000000005 1.6 0.0
8.0 1.6 0.0
8.4 1.6 0.0
8.8 1.6 0.0
9.200000000000001 1.6 0.0
9.600000000000001 1.6 0.0
10.0 1.6 0.0
10.4 1.6 0.0
10.8 1.6 0.0
11.200000000000001 1.6 0.0
11.600000000000001 1.6 0.0
12.0 1.6 0.0
12.4 1.6 0.0
12.8 1.6 0.0
13.200000000000001 1.6 0.0
13.600000000000001 1.6 0.0
14.0 1.6 0.0
14.4 1.6 0.0
14.8 1.6 0.0
15.200000000000001 1.6 0.0
15.600000000000001 1.6 0.0
16.0 1.6 0.0
0.0 1.7000000000000002 0.0
0.4 1.7000000000000002 0.0
0.8 1.7000000000000002 0.0
1.2000000000000002 1.7000000000000002 0.0
1.6 1.7000000000000002 0.0
2.0 1.7000000000000002 0.0
2.4000000000000004 1.7000000000000002 0.0
2.8000000000000003 1.7000000000000002 0.0
3.2 1.7000000000000002 0.0
3.6 1.7000000000000002 0.0
4.0 1.7000000000000002 0.0
4.4 1.7000000000000002 0.0
4.800000000000001 1.7000000000000002 0.0
5.2 1.7000000000000002 0.0
5.6000000000000005 1.7000000000000002 0.0
6.0 1.7000000000000002 0.0
6.4 1.7000000000000002 0.0
6.800000000000001 1.7000000000000002 0.0
7.2 1.7000000000000002 0.0
7.6000000000000005 1.7000000000000002 0.0
8.0 1.7000000000000002 0.0
8.4 1.7000000000000002 0.0
8.8 1.7000000000000002 0.0
9.200000000000001 1.7000000000000002 0.0
9.600000000000001 1.7000000000000002 0.0
10.0 1.7000000000000002 0.0
10.4 1.7000000000000002 0.0
10.8 1.7000000000000002 0.0
11.200000000000001 1.7000000000000002 0.0
11.600000000000001 1.7000000000000002 0.0
12.0 1.7000000000000002 0.0
12.4 1.7000000000000002 0.0
12.8 1.7000000000000002 0.0
13.200000000000001 1.7000000000000002 0.0
13.600000000000001 1.7000000000000002 0.0
14.0 1.7000000000000002 0.0
14.4 1.7000000000000002 0.0
14.8 1.7000000000000002 0.0
15.200000000000001 1.7000000000000002 0.0
15.600000000000001 1.7000000000000002 0.0
16.0 1.7000000000000002 0.0
0.0 1.8 0.0
0.4 1.8 0.0
0.8 1.8 0.0
1.2000000000000002 1.8 0.0
1.6 1.8 0.0
2.0 1.8 0.0
2.4000000000000004 1.8 0.0
2.8000000000000003 1.8 0.0
3.2 1.8 0.0
3.6 1.8 0.0
4.0 1.8 0.0
4.4 1.8 0.0
4.800000000000001 1.8 0.0
5.2 1.8 0.0
5.6000000000000005 1.8 0.0
6.0 1.8 0.0
6.4 1.8 0.0
6.800000000000001 1.8 0.0
7.2 1.8 0.0
7.6000000000000005 1.8 0.0
8.0 1.8 0.0
8.4 1.8 0.0
8.8 1.8 0.0
9.200000000000001 1.8 0.0
9.600000000000001 1.8 0.0
10.0 1.8 0.0
10.4 1.8 0.0
10.8 1.8 0.0
11.200000000000001 1.8 0.0
11.600000000000001 1.8 0.0
12.0 1.8 0.0
12.4 1.8 0.0
12.8 1.8 0.0
13.200000000000001 1.8 0.0
13.600000000000001 1.8 0.0
14.0 1.8 0.0
14.4 1.8 0.0
14.8 1.8 0.0
15.200000000000001 1.8 0.0
15.600000000000001 1.8 0.0
16.0 1.8 0.0
0.0 1.9000000000000001 0.0
0.4 1.9000000000000001 0.0
0.8 1.9000000000000001 0.0
1.2000000000000002 1.9000000000000001 0.0
1.6 1.9000000000000001 0.0
2.0 1.9000000000000001 0.0
2.4000000000000004 1.9000000000000001 0.0
2.8000000000000003 1.9000000000000001 0.0
3.2 1.9000000000000001 0.0
3.6 1.9000000000000001 0.0
4.0 1.9000000000000001 0.0
4.4 1.9000000000000001 0.0
4.800000000000001 1.9000000000000001 0.0
5.2 1.9000000000000001 0.0
5.6000000000000005 1.9000000000000001 0.0
6.0 1.9000000000000001 0.0
6.4 1.9000000000000001 0.0
6.800000000000001 1.9000000000000001 0.0
7.2 1.9000000000000001 0.0
7.6000000000000005 1.9000000000000001 0.0
8.0 1.9000000000000001 0.0
8.4 1.9000000000000001 0.0
8.8 1.9000000000000001 0.0
9.200000000000001 1.9000000000000001 0.0
9.600000000000001 1.9000000000000001 0.0
10.0 1.9000000000000001 0.0
10.4 1.9000000000000001 0.0
10.8 1.9000000000000001 0.0
11.200000000000001 1.9000000000000001 0.0
11.600000000000001 1.9000000000000001 0.0
12.0 1.9000000000000001 0.0
12.4 1.9000000000000001 0.0
12.8 1.9000000000000001 0.0
13.200000000000001 1.9000000000000001 0.0
13.600000000000001 1.9000000000000001 0.0
14.0 1.9000000000000001 0.0
14.4 1.9000000000000001 0.0
14.8 1.9000000000000001 0.0
15.200000000000001 1.9000000000000001 0.0
15.600000000000001 1.9000000000000001 0.0
16.0 1.9000000000000001 0.0
0.0 2.0 0.0
0.4 2.0 0.0
0.8 2.0 0.0
1.2000000000000002 2.0 0.0
1.6 2.0 0.0
2.0 2.0 0.0
2.4000000000000004 2.0 0.0
2.8000000000000003 2.0 0.0
3.2 2.0 0.0
3.6 2.0 0.0
4.0 2.0 0.0
4.4 2.0 0.0
4.800000000000001 2.0 0.0
5.2 2.0 0.0
5.6000000000000005 2.0 0.0
6.0 2.0 0.0
6.4 2.0 0.0
6.800000000000001 2.0 0.0
7.2 2.0 0.0
7.6000000000000005 2.0 0.0
8.0 2.0 0.0
8.4 2.0 0.0
8.8 2.0 0.0
9.200000000000001 2.0 0.0
9.600000000000001 2.0 0.0
10.0 2.0 0.0
10.4 2.0 0.0
10.8 2.0 0.0
11.200000000000001 2.0 0.0
11.600000000000001 2.0 0.0
12.0 2.0 0.0
12.4 2.0 0.0
12.8 2.0 0.0
13.200000000000001 2.0 0.0
13.600000000000001 2.0 0.0
14.0 2.0 0.0
14.4 2.0 0.0
14.8 2.0 0.0
15.200000000000001 2.0 0.0
15.600000000000001 2.0 0.0
16.0 2.0 0.0
CELLS 800 4000
4 0 1 42 41
4 1 2 43 42
4 2 3 44 43
4 3 4 45 44
4 4 5 46 45
4 5 6 47 46
4 6 7 48 47
4 7 8 49 48
4 8 9 50 49
4 9 10 51 50
4 10 11 52 51
4 11 12 53 52
4 12 13 54 53
4 13 14 55 54
4 14 15 56 55
4 15 16 57 56
4 16 17 58 57
4 17 18 59 58
4 18 19 60 59
4 19 20 61 60
4 20 21 62 61
4 21 22 63 62
4 22 23 64 63
4 23 24 65 64
4 24 25 66 65
4 25 26 67 66
4 26 27 68 67
4 27 28 69 68
4 28 29 70 69
4 29 30 71 70
4 30 31 72 71
4 31 32 73 72
4 32 33 74 73
4 33 34 75 74
4 34 35 76 75
4 35 36 77 76
4 36 37 78 77
4 37 38 79 78
4 38 39 80 79
4 39 40 81 80
4 41 42 83 82
4 42 43 84 83
4 43 44 85 84
4 44 45 86 85
4 45 46 87 86
4 46 47 88 87
4 47 48 89 88
4 48 49 90 89
4 49 50 91 90
4 50 51 92 91
4 51 52 93 92
4 52 53 94 93
4 53 54 95 94
4 54 55 96 95
4 55 56 97 96
4 56 57 98 97
4 57 58 99 98
4 58 59 100 99
4 59 60 101 100
4 60 61 102 101
4 61 62 103 102
4 62 63 104 103
4 63 64 105 104
4 64 65 106 105
4 65 66 107 106
4 66 67 108 107
4 67 68 109 108
4 68 69 110 109
4 69 70 111 110
4 70 71 112 111
4 71 72 113 112
4 72 73 114 113
4 73 74 115 114
4 74 75 116 115
4 75 76 117 116
4 76 77 118 117
4 77 78 119 118
4 78 79 120 119
4 79 80 121 120
4 80 81 122 121
4 82 83 124 123
4 83 84 125 124
4 84 85 126 125
4 85 86 127 126
4 86 87 128 127
4 87 88 129 128
4 88 89 130 129
4 89 90 131 130
4 90 91 132 131
4 91 92 133 132
4 92 93 134 133
4 93 94 135 134
4 94 95 136 135
4 95 96 137 136
4 96 97 138 137
4 97 98 139 138
4 98 99 140 139
4 99 100 141 140
4 100 101 142 141
4 101 102 143 142
4 102 103 144 143
4 103 104 145 144
4 104 105 146 145
4 105 106 147 146
4 106 107 148 147
4 107 108 149 148
4 108 109 150 149
4 109 110 151 150
4 110 111 152 151
4 111 112 153 152
4 112 113 154 153
4 113 114 155 154
4 114 115 156 155
4 115 116 157 156
4 116 117 158 157
4 117 118 159 158
4 118 119 160 159
4 119 120 161 160
4 120 121 162 161
4 121 122 163 162
4 123 124 165 164
4 124 125 166 165
4 125 126 167 166
4 126 127 168 167
4 127 128 169 168
4 128 129 170 169
4 129 130 171 170
4 130 131 172 171
4 131 132 173 172
4 132 133 174 173
4 133 134 175 174
4 134 135 176 175
4 135 136 177 176
4 136 137 178 177
4 137 138 179 178
4 138 139 180 179
4 139 140 181 180
4 140 141 182 181
4 141 142 183 182
4 142 143 184 183
4 143 144 185 184
4 144 145 186 185
4 145 146 187 186
4 146 147 188 187
4 147 148 189 188
4 148 149 190 189
4 149 150 191 190
4 150 151 192 191
4 151 152 193 192
4 152 153 194 193
4 153 154 195 194
4 154 155 196 195
4 155 156 197 196
4 156 157 198 197
4 157 158 199 198
4 158 159 200 199
4 159 160 201 200
4 160 161 202 201
4 161 162 203 202
4 162 163 204 203
4 164 165 206 205
4 165 166 207 206
4 166 167 208 207
4 167 168 209 208
4 168 169 210 209
4 169 170 211 210
4 170 171 212 211
4 171 172 213 212
4 172 173 214 213
4 173 174 215 214
4 174 175 216 215
4 175 176 217 216
4 176 177 218 217
4 177 178 219 218
4 178 179 220 219
4 179 180 221 220
4 180 181 222 221
4 181 182 223 222
4 182 183 224 223
4 183 184 225 224
4 184 185 226 225
4 185 186 227 226
4 186 187 228 227
4 187 188 229 228
4 188 189 230 229
4 189 190 231 230
4 190 191 232 231
4 191 192 233 232
4 192 193 234 233
4 193 194 235 234
4 194 195 236 235
4 195 196 237 236
4 196 197 238 237
4 197 198 239 238
4 198 199 240 239
4 199 200 241 240
4 200 201 242 241
4 201 202 243 242
4 202 203 244 243
4 203 204 245 244
4 205 206 247 246
4 206 207 248 247
4 207 208 249 248
4 208 209 250 249
4 209 210 251 250
4 210 211 252 251
4 211 212 253 252
4 212 213 254 253
4 213 214 255 254
4 214 215 256 255
4 215 216 257 256
4 216 217 258 257
4 217 218 259 258
4 218 219 260 259
4 219 220 261 260
4 220 221 262 261
4 221 222 263 262
4 222 223 264 263
4 223 224 265 264
4 224 225 266 265
4 225 226 267 266
4 226 227 268 267
4 227 228 269 268
4 228 229 270 269
4 229 230 271 270
4 230 231 272 271
4 231 232 273 272
4 232 233 274 273
4 233 234 275 274
4 234 235 276 275
4 235 236 277 276
4 236 237 278 277
4 237 238 279 278
4 238 239 280 279
4 239 240 281 280
4 240 241 282 281
4 241 242 283 282
4 242 243 284 283
4 243 244 285 284
4 244 245 286 285
4 246 247 288 287
4 247 248 289 288
4 248 249 290 289
4 249 250 291 290
4 250 251 292 291
4 251 252 293 292
4 252 253 294 293
4 253 254 295 294
4 254 255 296 295
4 255 256 297 296
4 256 257 298 297
4 257 258 299 298
4 258 259 300 299
4 259 260 301 300
4 260 261 302 301
4 261 262 303 302
4 262 263 304 303
4 263 264 305 304
4 264 265 306 305
4 265 266 307 306
4 266 267 308 307
4 267 268 309 308
4 268 269 310 309
4 269 270 311 310
4 270 271 312 311
4 271 272 313 312
4 272 273 314 313
4 273 274 315 314
4 274 275 316 315
4 275 276 317 316
4 276 277 318 317
4 277 278 319 318
4 278 279 320 319
4 279 280 321 320
4 280 281 322 321
4 281 282 323 322
4 282 283 324 323
4 283 284 325 324
4 284 285 326 325
4 285 286 327 326
4 287 288 329 328
4 288 289 330 329
4 289 290 331 330
4 290 291 332 331
4 291 292 333 332
4 292 293 334 333
4 293 294 335 334
4 294 295 336 335
4 295 296 337 336
4 296 297 338 337
4 297 298 339 338
4 298 299 340 339
4 299 300 341 340
4 300 301 342 341
4 301 302 343 342
4 302 303 344 343
4 303 304 345 344
4 304 305 346 345
4 305 306 347 346
4 306 307 348 347
4 307 308 349 348
4 308 309 350 349
4 309 310 351 350
4 310 311 352 351
4 311 312 353 352
4 312 313 354 353
4 313 314 355 354
4 314 315 356 355
4 315 316 357 356
4 316 317 358 357
4 317 318 359 358
4 318 319 360 359
4 319 320 361 360
4 320 321 362 361
4 321 322 363 362
4 322 323 364 363
4 323 324 365 364
4 324 325 366 365
4 325 326 367 366
4 326 327 368 367
4 328 329 370 369
4 329 330 371 370
4 330 331 372 371
4 331 332 373 372
4 332 333 374 373
4 333 334 375 374
4 334 335 376 375
4 335 336 377 376
4 336 337 378 377
4 337 338 379 378
4 338 339 380 379
4 339 340 381 380
4 340 341 382 381
4 341 342 383 382
4 342 343 384 383
4 343 344 385 384
4 344 345 386 385
4 345 346 387 386
4 346 347 388 387
4 347 348 389 388
4 348 349 390 389
4 349 350 391 390
4 350 351 392 391
4 351 352 393 392
4 352 353 394 393
4 353 354 395 394
4 354 355 396 395
4 355 356 397 396
4 356 357 398 397
4 357 358 399 398
4 358 359 400 399
4 359 360 401 400
4 360 361 402 401
4 361 362 403 402
4 362 363 404 403
4 363 364 405 404
4 364 365 406 405
4 365 366 407 406
4 366 367 408 407
4 367 368 409 408
4 369 370 411 410
4 370 371 412 411
4 371 372 413 412
4 372 373 414 413
4 373 374 415 414
4 374 375 416 415
4 375 376 417 416
4 376 377 418 417
4 377 378 419 418
4 378 379 420 419
4 379 380 421 420
4 380 381 422 421
4 381 382 423 422
4 382 383 424 423
4 383 384 425 424
4 384 385 426 425
4 385 386 427 426
4 386 387 428 427
4 387 388 429 428
4 388 389 430 429
4 389 390 431 430
4 390 391 432 431
4 391 392 433 432
4 392 393 434 433
4 393 394 435 434
4 394 395 436 435
4 395 396 437 436
4 396 397 438 437
4 397 398 439 438
4 398 399 440 439
4 399 400 441 440
4 400 401 442 441
4 401 402 443 442
4 402 403 444 443
4 403 404 445 444
4 404 405 446 445
4 405 406 447 446
4 406 407 448 447
4 407 408 449 448
4 408 409 450 449
4 410 411 452 451
4 411 412 453 452
4 412 413 454 453
4 413 414 455 454
4 414 415 456 455
4 415 416 457 456
4 416 417 458 457
4 417 418 459 458
4 418 419 460 459
4 419 420 461 460
4 420 421 462 461
4 421 422 463 462
4 422 423 464 463
4 423 424 465 464
4 424 425 466 465
4 425 426 467 466
4 426 427 468 467
4 427 428 469 468
4 428 429 470 469
4 429 430 471 470
4 430 431 472 471
4 431 432 473 472
4 432 433 474 473
4 433 434 475 474
4 434 435 476 475
4 435 436 477 476
4 436 437 478 477
4 437 438 479 478
4 438 439 480 479
4 439 440 481 480
4 440 441 482 481
4 441 442 483 482
4 442 443 484 483
4 443 444 485 484
4 444 445 486 485
4 445 446 487 486
4 446 447 488 487
4 447 448 489 488
4 448 449 490 489
4 449 450 491 490
4 451 452 493 492
4 452 453 494 493
4 453 454 495 494
4 454 455 496 495
4 455 456 497 496
4 456 457 498 497
4 457 458 499 498
4 458 459 500 499
4 459 460 501 500
4 460 461 502 501
4 461 462 503 502
4 462 463 504 503
4 463 464 505 504
4 464 465 506 505
4 465 466 507 506
4 466 467 508 507
4 467 468 509 508
4 468 469 510 509
4 469 470 511 510
4 470 471 512 511
4 471 472 513 512
4 472 473 514 513
4 473 474 515 514
4 474 475 516 515
4 475 476 517 516
4 476 477 518 517
4 477 478 519 518
4 478 479 520 519
4 479 480 521 520
4 480 481 522 521
4 481 482 523 522
4 482 483 524 523
4 483 484 525 524
4 484 485 526 525
4 485 486 527 526
4 486 487 528 527
4 487 488 529 528
4 488 489 530 529
4 489 490 531 530
4 490 491 532 531
4 492 493 534 533
4 493 494 535 534
4 494 495 536 535
4 495 496 537 536
4 496 497 538 537
4 497 498 539 538
4 498 499 540 539
4 499 500 541 540
4 500 501 542 541
4 501 502 543 542
4 502 503 544 543
4 503 504 545 544
4 504 505 546 545
4 505 506 547 546
4 506 507 548 547
4 507 508 549 548
4 508 509 550 549
4 509 510 551 550
4 510 511 552 551
4 511 512 553 552
4 512 513 554 553
4 513 514 555 554
4 514 515 556 555
4 515 516 557 556
4 516 517 558 557
4 517 518 559 558
4 518 519 560 559
4 519 520 561 560
4 520 521 562 561
4 521 522 563 562
4 522 523 564 563
4 523 524 565 564
4 524 525 566 565
4 525 526 567 566
4 526 527 568 567
4 527 528 569 568
4 528 529 570 569
4 529 530 571 570
4 530 531 572 571
4 531 532 573 572
4 533 534 575 574
4 534 535 576 575
4 535 536 577 576
4 536 537 578 577
4 537 538 579 578
4 538 539 580 579
4 539 540 581 580
4 540 541 582 581
4 541 542 583 582
4 542 543 584 583
4 543 544 585 584
4 544 545 586 585
4 545 546 587 586
4 546 547 588 587
4 547 548 589 588
4 548 549 590 589
4 549 550 591 590
4 550 551 592 591
4 551 552 593 592
4 552 553 594 593
4 553 554 595 594
4 554 555 596 595
4 555 556 597 596
4 556 557 598 597
4 557 558 599 598
4 558 559 600 599
4 559 560 601 600
4 560 561 602 601
4 561 562 603 602
4 562 563 604 603
4 563 564 605 604
4 564 565 606 605
4 565 566 607 606
4 566 567 608 607
4 567 568 609 608
4 568 569 610 609
4 569 570 611 610
4 570 571 612 611
4 571 572 613 612
4 572 573 614 613
4 574 575 616 615
4 575 576 617 616
4 576 577 618 617
4 577 578 619 618
4 578 579 620 619
4 579 580 621 620
4 580 581 622 621
4 581 582 623 622
4 582 583 624 623
4 583 584 625 624
4 584 585 626 625
4 585 586 627 626
4 586 587 628 627
4 587 588 629 628
4 588 589 630 629
4 589 590 631 630
4 590 591 632 631
4 591 592 633 632
4 592 593 634 633
4 593 594 635 634
4 594 595 636 635
4 595 596 637 636
4 596 597 638 637
4 597 598 639 638
4 598 599 640 639
4 599 600 641 640
4 600 601 642 641
4 601 602 643 642
4 602 603 644 643
4 603 604 645 644
4 604 605 646 645
4 605 606 647 646
4 606 607 648 647
4 607 608 649 648
4 608 609 650 649
4 609 610 651 650
4 610 611 652 651
4 611 612 653 652
4 612 613 654 653
4 613 614 655 654
4 615 616 657 656
4 616 617 658 657
4 617 618 659 658
4 618 619 660 659
4 619 620 661 660
4 620 621 662 661
4 621 622 663 662
4 622 623 664 663
4 623 624 665 664
4 624 625 666 665
4 625 626 667 666
4 626 627 668 667
4 627 628 669 668
4 628 629 670 669
4 629 630 671 670
4 630 631 672 671
4 631 632 673 672
4 632 633 674 673
4 633 634 675 674
4 634 635 676 675
4 635 636 677 676
4 636 637 678 677
4 637 638 679 678
4 638 639 680 679
4 639 640 681 680
4 640 641 682 681
4 641 642 683 682
4 642 643 684 683
4 643 644 685 684
4 644 645 686 685
4 645 646 687 686
4 646 647 688 687
4 647 648 689 688
4 648 649 690 689
4 649 650 691 690
4 650 651 692 691
4 651 652 693 692
4 652 653 694 693
4 653 654 695 694
4 654 655 696 695
4 656 657 698 697
4 657 658 699 698
4 658 659 700 699
4 659 660 701 700
4 660 661 702 701
4 661 662 703 702
4 662 663 704 703
4 663 664 705 704
4 664 665 706 705
4 665 666 707 706
4 666 667 708 707
4 667 668 709 708
4 668 669 710 709
4 669 670 711 710
4 670 671 712 711
4 671 672 713 712
4 672 673 714 713
4 673 674 715 714
4 674 675 716 715
4 675 676 717 716
4 676 677 718 717
4 677 678 719 718
4 678 679 720 719
4 679 680 721 720
4 680 681 722 721
4 681 682 723 722
4 682 683 724 723
4 683 684 725 724
4 684 685 726 725
4 685 686 727 726
4 686 687 728 727
4 687 688 729 728
4 688 689 730 729
4 689 690 731 730
4 690 691 732 731
4 691 692 733 732
4 692 693 734 733
4 693 694 735 734
4 694 695 736 735
4 695 696 737 736
4 697 698 739 738
4 698 699 740 739
4 699 700 741 740
4 700 701 742 741
4 701 702 743 742
4 702 703 744 743
4 703 704 745 744
4 704 705 746 745
4 705 706 747 746
4 706 707 748 747
4 707 708 749 748
4 708 709 750 749
4 709 710 751 750
4 710 711 752 751
4 711 712 753 752
4 712 713 754 753
4 713 714 755 754
4 714 715 756 755
4 715 716 757 756
4 716 717 758 757
4 717 718 759 758
4 718 719 760 759
4 719 720 761 760
4 720 721 762 761
4 721 722 763 762
4 722 723 764 763
4 723 724 765 764
4 724 725 766 765
4 725 726 767 766
4 726 727 768 767
4 727 728 769 768
4 728 729 770 769
4 729 730 771 770
4 730 731 772 771
4 731 732 773 772
4 732 733 774 773
4 733 734 775 774
4 734 735 776 775
4 735 736 777 776
4 736 737 778 777
4 738 739 780 779
4 739 740 781 780
4 740 741 782 781
4 741 742 783 782
4 742 743 784 783
4 743 744 785 784
4 744 745 786 785
4 745 746 787 786
4 746 747 788 787
4 747 748 789 788
4 748 749 790 789
4 749 750 791 790
4 750 751 792 791
4 751 752 793 792
4 752 753 794 793
4 753 754 795 794
4 754 755 796 795
4 755 756 797 796
4 756 757 798 797
4 757 758 799 798
4 758 759 800 799
4 759 760 801 800
4 760 761 802 801
4 761 762 803 802
4 762 763 804 803
4 763 764 805 804
4 764 765 806 805
4 765 766 807 806
4 766 767 808 807
4 767 768 809 808
4 768 769 810 809
4 769 770 811 810
4 770 771 812 811
4 771 772 813 812
4 772 773 814 813
4 773 774 815 814
4 774 775 816 815
4 775 776 817 816
4 776 777 818 817
4 777 778 819 818
4 779 780 821 820
4 780 781 822 821
4 781 782 823 822
4 782 783 824 823
4 783 784 825 824
4 784 785 826 825
4 785 786 827 826
4 786 787 828 827
4 787 788 829 828
4 788 789 830 829
4 789 790 831 830
4 790 791 832 831
4 791 792 833 832
4 792 793 834 833
4 793 794 835 834
4 794 795 836 835
4 795 796 837 836
4 796 797 838 837
4 797 798 839 838
4 798 799 840 839
4 799 800 841 840
4 800 801 842 841
4 801 802 843 842
4 802 803 844 843
4 803 804 845 844
4 804 805 846 845
4 805 806 847 846
4 806 807 848 847
4 807 808 849 848
4 808 809 850 849
4 809 810 851 850
4 810 811 852 851
4 811 812 853 852
4 812 813 854 853
4 813 814 855 854
4 814 815 856 855
4 815 816 857 856
4 816 817 858 857
4 817 818 859 858
4 818 819 860 859
CELL_TYPES 800
9
9
9
9
9
9
9
9
9
9
9
9
9
9
9
9
9
9
9
9
9
9
9
9
9
9
9
9
9
9
9
9
9
9
9
9
9
9
9
9
9
9
9
9
9
9
9
9
9
9
9
9
9
9
9
9
9
9
9
9
9
9
9
9
9
9
9
9
9
9
9
9
9
9
9
9
9
9
9
9
9
9
9
9
9
9
9
9
9
9
9
9
9
9
9
9
9
9
9
9
9
9
9
9
9
9
9
9
9
9
9
9
9
9
9
9
9
9
9
9
9
9
9
9
9
9
9
9
9
9
9
9
9
9
9
9
9
9
9
9
9
9
9
9
9
9
9
9
9
9
9
9
9
9
9
9
9
9
9
9
9
9
9
9
9
9
9
9
9
9
9
9
9
9
9
9
9
9
9
9
9
9
9
9
9
9
9
9
9
9
9
9
9
9
9
9
9
9
9
9
9
9
9
9
9
9
9
9
9
9
9
9
9
9
9
9
9
9
9
9
9
9
9
9
9
9
9
9
9
9
9
9
9
9
9
9
9
9
9
9
9
9
9
9
9
9
9
9
9
9
9
9
9
9
9
9
9
9
9
9
9
9
9
9
9
9
9
9
9
9
9
9
9
9
9
9
9
9
9
9
9
9
9
9
9
9
9
9
9
9
9
9
9
9
9
9
9
9
9
9
9
9
9
9
9
9
9
9
9
9
9
9
9
9
9
9
9
9
9
9
9
9
9
9
9
9
9
9
9
9
9
9
9
9
9
9
9
9
9
9
9
9
9
9
9
9
9
9
9
9
9
9
9
9
9
9
9
9
9
9
9
9
9
9
9
9
9
9
9
9
9
9
9
9
9
9
9
9
9
9
9
9
9
9
9
9
9
9
9
9
9
9
9
9
9
9
9
9
9
9
9
9
9
9
9
9
9
9
9
9
9
9
9
9
9
9
9
9
9
9
9
9
9
9
9
9
9
9
9
9
9
9
9
9
9
9
9
9
9
9
9
9
9
9
9
9
9
9
9
9
9
9
9
9
9
9
9
9
9
9
9
9
9
9
9
9
9
9
9
9
9
9
9
9
9
9
9
9
9
9
9
9
9
9
9
9
9
9
9
9
9
9
9
9
9
9
9
9
9
9
9
9
9
9
9
9
9
9
9
9
9
9
9
9
9
9
9
9
9
9
9
9
9
9
9
9
9
9
9
9
9
9
9
9
9
9
9
9
9
9
9
9
9
9
9
9
9
9
9
9
9
9
9
9
9
9
9
9
9
9
9
9
9
9
9
9
9
9
9
9
9
9
9
9
9
9
9
9
9
9
9
9
9
9
9
9
9
9
9
9
9
9
9
9
9
9
9
9
9
9
9
9
9
9
9
9
9
9
9
9
9
9
9
9
9
9
9
9
9
9
9
9
9
9
9
9
9
9
9
9
9
9
9
9
9
9
9
9
9
9
9
9
9
9
9
9
9
9
9
9
9
9
9
9
9
9
9
9
9
9
9
9
9
9
9
9
9
9
9
9
9
9
9
9
9
9
9
9
9
9
9
9
9
9
9
9
9
9
9
9
9
9
9
9
9
9
9
9
9
9
9
9
9
9
9
9
9
9
9
9
9
9
9
9
9
9
9
9
9
9
9
9
9
9
9
9
9
9
9
9
9
9
9
9
9
9
9
9
9
9
9
9
9
9
9
9
9
9
9
9
9
9
9
9
9
9
9
9
9
9
9
9
9
9
9
9
9
9
9
9
9
9
9
9
9
9
9
9
9
9
9
9
9
9
9
9
9
9
9
9
9
9
9
9
9
9
9
9
9
9
POINT_DATA 861
SCALARS Disp float 2
LOOKUP_TABLE default
0.0 0.0
0.014101668873197146 -0.25771854626330115
0.025117371743282792 -0.4754813705873123
0.033953452354588826 -0.6895062810881766
0.04404832428512305 -0.8994148165450319
0.05618919637685129 -1.1051136373310997
0.07076319394288558 -1.305619787265181
0.08792568517959722 -1.4998712566699437
0.10772753002127584 -1.6867706120343118
0.130180516323152 -1.8652339126272959
0.15528288128151566 -2.034189770007951
0.1830305609585288 -2.192576620603141
0.2134210543201549 -2.3393394291037635
0.24645712992781726 -2.473428218001307
0.28215478563400154 -2.593794580938196
0.32055783057322046 -2.6993772655554404
0.3617525599929269 -2.789061029373113
0.4058532453139854 -2.861593793487666
0.45289537898882937 -2.9154796483668792
0.5025728466826673 -2.948965258695645
0.5539036032188863 -2.960380390799439
0.6052343597551055 -2.9489652586956443
0.6549118274489436 -2.915479648366879
0.7019539611237874 -2.861593793487665
0.7460546464448459 -2.789061029373112
0.7872493758645518 -2.69937726555544
0.8256524208037709 -2.5937945809381957
0.8613500765099557 -2.473428218001306
0.8943861521176178 -2.3393394291037635
0.9247766454792441 -2.1925766206031407
0.9525243251562567 -2.0341897700079503
0.9776266901146206 -1.8652339126272959
1.0000796764164968 -1.6867706120343111
1.0198815212581753 -1.4998712566699428
1.037044012494887 -1.3056197872651796
1.0516180100609211 -1.1051136373311001
1.0637588821526494 -0.8994148165450315
1.0738537540831834 -0.6895062810881771
1.0826898346944895 -0.4754813705873119
1.0937055375645752 -0.2577185462633002
1.1078072064377724 0.0
0.06384036484631166 -0.00875740937624248
0.07262150511180127 -0.25703587590682725
0.07869936011316588 -0.4767179441792757
0.08688682754443591 -0.690368417953199
0.09586486623983867 -0.9005507024376765
0.10682634675032454 -1.1064666319748553
0.11996106472249607 -1.3072347923875431
0.13541952525973228 -1.501752297964309
0.1532467177208942 -1.6889212731923573
0.17345647234295636 -1.8676542763663888
0.19604928107007827 -2.036879566456518
0.2210227960991711 -2.1955355059697315
0.2483757367328218 -2.342567368250949
0.27811138755750814 -2.476925966791157
0.31024400085506565 -2.597564750603476
0.3448091974974781 -2.7034258785252843
0.3818715441821316 -2.7933980729723284
0.4215040434826395 -2.866228307782439
0.46369042447263786 -2.920402082234534
0.5081115036635484 -2.954114799170198
0.5539036032188863 -2.965619988567012
0.5996957027742245 -2.954114799170198
0.6441167819651351 -2.9204020822345336
0.6863031629551333 -2.8662283077824386
0.7259356622556412 -2.793398072972328
0.7629980089402943 -2.7034258785252834
0.7975632055827069 -2.597564750603476
0.8296958188802648 -2.476925966791156
0.859431469704951 -2.3425673682509482
0.8867844103386016 -2.19553550596973
0.9117579253676942 -2.0368795664565176
0.9343507340948163 -1.8676542763663886
0.9545604887168783 -1.6889212731923566
0.9723876811780403 -1.501752297964308
0.9878461417152764 -1.3072347923875418
1.0009808596874479 -1.1064666319748555
1.011942340197934 -0.9005507024376762
1.0209203788933363 -0.6903684179531996
1.0291078463246066 -0.4767179441792752
1.0351857013259713 -0.2570358759068263
1.0439668415914607 -0.008757409376242505
0.12333385019569296 -0.01627978498263197
0.12963218179603453 -0.25653520717361045
0.132903250208577 -0.477399278790737
0.13945867579752838 -0.6912077335188967
0.1474197943479441 -0.9015340964011681
0.15712040001314048 -1.107681764424182
0.1688059039831047 -1.3086787915718838
0.18255267954754564 -1.5034361858080367
0.19840402833366155 -1.6908458538360798
0.21637064591662644 -1.8698200871506223
0.23645435442192453 -2.039286349680855
0.25865397666282947 -2.1981830553596513
0.28296902739900587 -2.3454556635923507
0.30940238047393737 -2.4800555433113134
0.33796482903014335 -2.6009374445481983
0.36868202548097245 -2.7070459920232635
0.4015985090863056 -2.79727292683703
0.43675930062023655 -2.8703647563712016
0.4741304556562609 -2.9247927806172855
0.513425960119026 -2.9587100806963553
0.5539036032188864 -2.97029947097327
0.5943812463187469 -2.9587100806963553
0.633676750781512 -2.9247927806172855
0.6710479058175363 -2.8703647563712016
0.7062086973514672 -2.7972729268370293
0.7391251809568001 -2.7070459920232626
0.7698423774076292 -2.6009374445481988
0.7984048259638354 -2.480055543311313
0.8248381790387668 -2.34545566359235
0.8491532297749431 -2.19818305535965
0.8713528520158481 -2.039286349680855
0.8914365605211462 -1.869820087150622
0.909403178104111 -1.6908458538360789
0.925254526890227 -1.5034361858080358
0.939001302454668 -1.3086787915718823
0.9506868064246321 -1.1076817644241825
0.9603874120898284 -0.9015340964011678
0.9683485306402441 -0.6912077335188974
0.9749039562291955 -0.4773992787907365
0.978175024641738 -0.25653520717360956
0.9844733562420794 -0.016279784982632016
0.1802589238371579 -0.02270910573930469
0.1852619178362651 -0.2563879957924482
0.18699639787025685 -0.4777009972480669
0.19187561079187593 -0.6919012065640419
0.19868299323584748 -0.9023898421191736
0.20712216310188425 -1.1087447670469606
0.2173350602824031 -1.3099524511982747
0.22936667369936373 -1.5049217326126152
0.24324001405133594 -1.6925444157833274
0.2589634509887825 -1.871731365500168
0.27653825591160014 -2.041410190248558
0.2959641007444813 -2.2005192687785344
0.31724085591422363 -2.348004153087667
0.3403702827110968 -2.482816405390886
0.3653585812082098 -2.603911424940381
0.3922206301722486 -2.710235567225908
0.4209834262201061 -2.8006838399175096
0.45167602977328214 -2.87400566939588
0.4842742744900519 -2.9286662135850836
0.5185581933929462 -2.962783666535773
0.5539036032188864 -2.9744615898647955
0.5892490130448266 -2.9627836665357727
0.6235329319477209 -2.9286662135850836
0.6561311766644907 -2.874005669395879
0.6868237802176665 -2.800683839917509
0.7155865762655239 -2.710235567225907
0.7424486252295628 -2.6039114249403807
0.7674369237266759 -2.4828164053908854
0.790566350523549 -2.348004153087666
0.8118431056932912 -2.200519268778534
0.8312689505261723 -2.0414101902485577
0.8488437554489902 -1.8717313655001675
0.8645671923864365 -1.692544415783327
0.8784405327384089 -1.5049217326126145
0.8904721461553695 -1.3099524511982734
0.9006850433358883 -1.1087447670469608
0.909124213201925 -0.9023898421191734
0.9159315956458965 -0.6919012065640424
0.9208108085675156 -0.4777009972480665
0.9225452886015073 -0.25638799579244737
0.9275482826006145 -0.022709105739304722
0.2355428540280401 -0.02818512655462987
0.2397654903218124 -0.25657614528076567
0.24068171629611937 -0.4777856148114566
0.24412035130504056 -0.6924136811259985
0.24969624684282962 -0.9031104238529263
0.25685959031708955 -1.109654932893537
0.26559052193062 -1.3110531290328675
0.27590137457527547 -1.5062087994400222
0.2877954096395105 -1.6940167243428796
0.3012752110412717 -1.873388153725928
0.31634116663894074 -2.0432511091330556
0.33299320720911174 -2.202544131484478
0.35123126195713306 -2.3502126933664393
0.3710555008991961 -2.485208142153446
0.39246693990646436 -2.606485834578438
0.4154696023090516 -2.7129933347112134
0.4400755552825432 -2.8036301230610903
0.46630772252275765 -2.877154165249961
0.4941727903100524 -2.932035217726111
0.5235411831003902 -2.9663627180222245
0.5539036032188864 -2.9781419759038226
0.5842660233373824 -2.9663627180222245
0.6136344161277203 -2.9320352177261104
0.6414994839150151 -2.8771541652499604
0.6677316511552294 -2.80363012306109
0.692337604128721 -2.712993334711213
0.7153402665313082 -2.606485834578438
0.7367517055385765 -2.485208142153446
0.7565759444806395 -2.3502126933664385
0.7748139992286607 -2.202544131484477
0.7914660397988317 -2.0432511091330556
0.8065319953965009 -1.8733881537259274
0.820011796798262 -1.694016724342879
0.8319058318624971 -1.5062087994400215
0.8422166845071526 -1.3110531290328662
0.850947616120683 -1.1096549328935374
0.858110959594943 -0.9031104238529262
0.8636868551327318 -0.6924136811259991
0.8671254901416531 -0.4777856148114562
0.86804171611596 -0.2565761452807649
0.8722643524097324 -0.028185126554629885
0.2897183141153897 -0.03283635595827948
0.2933877661610814 -0.2570224577230607
0.2938717741458632 -0.47776549588038625
0.29614556854486307 -0.692753985058357
0.3004931014761129 -0.903687159638445
0.306365972827312 -1.1104119181804568
0.31361098348788996 -1.3119796034495503
0.3221972467411219 -1.507296937404525
0.3321105791819539 -1.695262680346085
0.3433462873635747 -1.8747904180185084
0.35590325691726415 -2.044809112067706
0.3697813762710176 -2.204257615079328
0.3849803694251138 -2.352081177894321
0.40149859663920995 -2.487230497172556
0.41933178231904317 -2.6086602052168133
0.4384735416530546 -2.715318708062305
0.4589232803082235 -2.806111805961406
0.4807047917935053 -2.8798132217130266
0.5038708000177046 -2.93491028798189
0.5284017061015212 -2.969469733389703
0.5539036032188863 -2.9813712710909805
0.5794055003362515 -2.9694697333897024
0.6039364064200682 -2.9349102879818894
0.6271024146442672 -2.879813221713026
0.6488839261295491 -2.8061118059614056
0.6693336647847179 -2.7153187080623047
0.6884754241187294 -2.6086602052168124
0.7063086097985627 -2.4872304971725554
0.7228268370126585 -2.3520811778943207
0.7380258301667549 -2.204257615079327
0.7519039495205083 -2.0448091120677065
0.7644609190741978 -1.8747904180185078
0.7756966272558187 -1.6952626803460846
0.7856099596966506 -1.5072969374045244
0.7941962229498826 -1.311979603449549
0.8014412336104606 -1.1104119181804573
0.8073141049616597 -0.9036871596384448
0.8116616378929093 -0.6927539850583575
0.8139354322919092 -0.4777654958803857
0.814419440276691 -0.25702245772306
0.8180888923223828 -0.032836355958279495
0.3431174731040824 -0.03677453444147962
0.3463336708260899 -0.2576412419533775
0.34657842307250547 -0.4777075675225559
0.34792389176069244 -0.6929472801129996
0.35109686169416643 -0.9041179588781704
0.35567683174956183 -1.111015103995038
0.36143448235569836 -1.312731595220847
0.36829443537485695 -1.5081857966951753
0.376225861773206 -1.696282185438627
0.3852169755457795 -1.875938113429786
0.395264708794078 -2.0460841782588153
0.4063687136140001 -2.2056596891659614
0.4185283611690935 -2.3536095449176058
0.43174020791007706 -2.4888833767232343
0.4459950163274517 -2.6104344456322566
0.46127684158912224 -2.7172116994207967
0.4775740714666647 -2.8081293704615424
0.4949151787037896 -2.8819851449272753
0.5134086276918217 -2.93729911692028
0.5331621511430861 -2.9721230745595326
0.5539036032188863 -2.984176729655014
0.5746450552946863 -2.972123074559532
0.594398578745951 -2.9372991169202796
0.6128920277339828 -2.881985144927275
0.6302331349711079 -2.808129370461542
0.6465303648486502 -2.717211699420796
0.6618121901103209 -2.610434445632256
0.6760669985276956 -2.488883376723234
0.6892788452686788 -2.3536095449176053
0.7014384928237724 -2.2056596891659606
0.7125424976436945 -2.0460841782588157
0.7225902308919929 -1.875938113429785
0.7315813446645666 -1.6962821854386267
0.7395127710629156 -1.5081857966951744
0.7463727240820742 -1.3127315952208456
0.7521303746882108 -1.1110151039950384
0.7567103447436061 -0.9041179588781699
0.7598833146770801 -0.692947280113
0.761228783365267 -0.47770756752255533
0.7614735356116825 -0.25764124195337673
0.76468973333369 -0.036774534441479635
0.3959624152315445 -0.04009360549395934
0.3987687239032526 -0.25835656552619746
0.39885816587730377 -0.4776460258384267
0.39945468049561195 -0.6930209507275846
0.40152853624984325 -0.9044068709929437
0.404827477721081 -1.1114646868422107
0.4090993191616491 -1.3133092863208065
0.414232797230182 -1.5088752619615682
0.42018154624066306 -1.6970751459489015
0.42692753262570393 -1.876831186784147
0.43446569971000176 -2.0470762699377816
0.44279534499176826 -2.2067503242061135
0.45191545067844147 -2.3547977807716434
0.46182097630063007 -2.490166843168801
0.47249843121324575 -2.6118088137314697
0.4839235090949869 -2.7186728470709576
0.49607452563361215 -2.809683574755171
0.5089850562641793 -2.8836712241432916
0.5228235952445164 -2.9392062434505344
0.5378417936569296 -2.974337266166187
0.5539036032188862 -2.9865835588707834
0.5699654127808429 -2.9743372661661875
0.5849836111932561 -2.939206243450534
0.5988221501735932 -2.883671224143291
0.6117326808041604 -2.8096835747551707
0.6238836973427856 -2.7186728470709576
0.6353087752245268 -2.611808813731469
0.6459862301371425 -2.4901668431688
0.6558917557593308 -2.354797780771643
0.6650118614460042 -2.206750324206113
0.6733415067277708 -2.0470762699377816
0.6808796738120686 -1.8768311867841463
0.6876256601971095 -1.6970751459489013
0.6935744092075906 -1.5088752619615675
0.6987078872761234 -1.313309286320805
0.7029797287166915 -1.1114646868422111
0.7062786701879293 -0.9044068709929434
0.7083525259421606 -0.6930209507275852
0.7089490405604687 -0.47764602583842614
0.70903848253452 -0.2583565655261967
0.711844791206228 -0.040093605493959364
0.4484109883711334 -0.042871396498812386
0.450826616502349 -0.25910729198385724
0.45078523610178733 -0.477593852347873
0.45075915213521917 -0.692998555194851
0.45181222452946623 -0.904561659818314
0.45385294754234246 -1.1117622100124531
0.45664408129930106 -1.313713207519415
0.46005211173918137 -1.5093654197066477
0.46401784691826176 -1.6976415011442811
0.4685181875053975 -1.8774695759536568
0.4735463975659454 -2.047785338677762
0.479101406600153 -2.2075294939778654
0.4851818577510386 -2.355645916634015
0.4917814835364708 -2.4910810959838825
0.4988835656780047 -2.612783874252235
0.506457002075601 -2.719703158854335
0.514470435769472 -2.8107753782174467
0.5229595718294733 -2.88487155929495
0.53215139543834 -2.9406327359775517
0.5424577761666463 -2.9761230475694136
0.5539036032188862 -2.988616178739432
0.5653494302711263 -2.976123047569414
0.5756558109994324 -2.9406327359775513
0.5848476346082992 -2.8848715592949494
0.5933367706683005 -2.8107753782174463
0.6013502043621716 -2.7197031588543354
0.6089236407597678 -2.612783874252234
0.6160257229013019 -2.4910810959838816
0.6226253486867337 -2.3556459166340145
0.6287057998376195 -2.207529493977865
0.6342608088718271 -2.047785338677762
0.6392890189323751 -1.8774695759536564
0.6437893595195108 -1.697641501144281
0.6477550946985912 -1.509365419706647
0.6511631251384714 -1.3137132075194136
0.65395425889543 -1.1117622100124538
0.6559949819083064 -0.9045616598183137
0.6570480543025533 -0.6929985551948515
0.6570219703359852 -0.4775938523478724
0.6569805899354234 -0.25910729198385646
0.6593962180666391 -0.04287139649881238
0.500581697603972 -0.04517245630408011
0.5026169621088561 -0.2598469222346831
0.5024385892194795 -0.4775513308146153
0.5018737718189908 -0.692897978804901
0.5019773191108996 -0.9045915533956226
0.5027888074123936 -1.111910469253327
0.5041076033282401 -1.3139442420016283
0.5057922017468709 -1.5096565025273894
0.5077749228527442 -1.6979812308522477
0.5100291385563023 -1.877853214068275
0.5125469594091392 -2.048211328571882
0.5153270362712727 -2.2079971767090463
0.5183677881939824 -2.3561540205723617
0.5216622021617554 -2.4916264422552477
0.52519159684135 -2.6133604418002303
0.5289200671935744 -2.7203040681553645
0.5328068315540182 -2.8114059702121375
0.536883584556667 -2.885585064094326
0.5414274681200696 -2.9415758762687023
0.5470259626009238 -2.9774871329508783
0.5539036032188862 -2.9902995456900685
0.5607812438368486 -2.9774871329508787
0.5663797383177028 -2.941575876268702
0.5709236218811055 -2.8855850640943257
0.5750003748837542 -2.811405970212137
0.5788871392441979 -2.720304068155365
0.5826156095964224 -2.61336044180023
0.5861450042760171 -2.4916264422552468
0.58943941824379 -2.3561540205723612
0.5924801701664998 -2.207997176709046
0.5952602470286333 -2.0482113285718824
0.5977780678814703 -1.8778532140682747
0.6000322835850282 -1.6979812308522473
0.6020150046909016 -1.5096565025273887
0.6036996031095323 -1.3139442420016265
0.6050183990253788 -1.1119104692533277
0.6058298873268729 -0.9045915533956225
0.6059334346187817 -0.6928979788049014
0.605368617218293 -0.4775513308146147
0.6051902443289163 -0.2598469222346823
0.6072255088338006 -0.0451724563040801
0.552567900185582 -0.047051137885894614
0.5542315324736836 -0.260541643561761
0.5538958849875559 -0.4775118222635106
0.552844699997243 -0.6927315597572999
0.5520587653749081 -0.9045056952151815
0.5516719231068797 -1.1119131019966983
0.5515290413293343 -1.3140035936603787
0.5514929810920418 -1.5097488445994725
0.5514929047115095 -1.6980943469951837
0.5515005523850536 -1.8779820335454418
0.5515075295135436 -2.0483541787346127
0.5515123670541509 -2.208153354431752
0.5515134184545649 -2.3563221865028585
0.5515034634815054 -2.491803259555977
0.55146325758404 -2.6135395075726753
0.5513545664314702 -2.7204773906283255
0.5511279255084931 -2.811576898879154
0.5508023489579639 -2.885809669745989
0.5506884967206909 -2.9420288461013735
0.5515618190476956 -2.9784315939892503
0.5539036032188862 -2.9916606821972427
0.5562453873900768 -2.9784315939892503
0.5571187097170814 -2.942028846101373
0.5570048574798085 -2.8858096697459885
0.5566792809292793 -2.811576898879154
0.5564526400063021 -2.7204773906283255
0.5563439488537323 -2.613539507572675
0.5563037429562672 -2.4918032595559763
0.5562937879832075 -2.356322186502858
0.5562948393836216 -2.208153354431752
0.556299676924229 -2.0483541787346127
0.5563066540527187 -1.8779820335454414
0.5563143017262631 -1.698094346995183
0.5563142253457306 -1.5097488445994716
0.5562781651084381 -1.3140035936603771
0.5561352833308927 -1.1119131019966988
0.5557484410628644 -0.9045056952151813
0.5549625064405296 -0.6927315597573005
0.5539113214502165 -0.4775118222635099
0.5535756739640889 -0.2605416435617602
0.5552393062521905 -0.04705113788589457
0.6044461318715059 -0.04855448867752839
0.6057488318326493 -0.26116800395391176
0.6052309566029948 -0.4774654881190469
0.6037237888888978 -0.6925070128580498
0.6020964274116823 -0.9043122610323202
0.6005409156799195 -1.1117741014085571
0.5989480025786599 -1.313892687190801
0.5971944744349172 -1.5096428413213867
0.5952119114004735 -1.6979808791341202
0.5929725651585575 -1.8778559677179283
0.5904682375803578 -2.048213825711129
0.5876975233551056 -2.207998010994498
0.5846588855853314 -2.3561505213664002
0.5813454435841483 -2.4916119553157965
0.5777387938028464 -2.6133221487252842
0.5738012939246498 -2.7202252598176377
0.5694768891322909 -2.8112902835177707
0.5647620620119909 -2.885542780601871
0.5599741597937783 -2.9419804638775937
0.5560815084484678 -2.978952720932533
0.5539036032188862 -2.992730569920227
0.5517256979893046 -2.978952720932533
0.547833046643994 -2.9419804638775933
0.5430451444257814 -2.885542780601871
0.5383303173054815 -2.81129028351777
0.5340059125131226 -2.720225259817638
0.530068412634926 -2.613322148725284
0.5264617628536241 -2.4916119553157956
0.5231483208524411 -2.3561505213664
0.5201096830826668 -2.207998010994498
0.5173389688574147 -2.048213825711129
0.514834641279215 -1.877855967717928
0.5125952950372991 -1.6979808791341198
0.5106127320028552 -1.509642841321386
0.5088592038591125 -1.3138926871907997
0.5072662907578529 -1.1117741014085576
0.5057107790260902 -0.9043122610323199
0.5040834175488746 -0.6925070128580503
0.5025762498347777 -0.4774654881190463
0.5020583746051231 -0.261168003953911
0.5033610745662664 -0.04855448867752838
0.6562809976106962 -0.04972478361162483
0.6572372567099314 -0.26171076223723305
0.6565129885664801 -0.4774016124134326
0.6545659492439946 -0.692228574353415
0.6521341851899466 -0.9040180585742147
0.6494363045664554 -1.111497378164129
0.6464046513668031 -1.313613019357802
0.6429368266576119 -1.509338904106245
0.6389720548597231 -1.6976408591907732
0.6344852839907674 -1.8774749507089221
0.6294691978996615 -2.047790205812096
0.6239226201357382 -2.2075311293487188
0.6178442826970019 -2.3556391313441982
0.6112281642709264 -2.4910529278593643
0.6040579752475083 -2.6127094235103496
0.5962998109710264 -2.7195500098328416
0.5878953778282354 -2.810549069626553
0.5788101144557809 -2.8847820605913936
0.5693292903086802 -2.9414150916609434
0.5606034900944251 -2.9790391334610464
0.5539036032188862 -2.9935465905248964
0.5472037163433473 -2.9790391334610455
0.5384779161290921 -2.941415091660943
0.5289970919819914 -2.8847820605913936
0.5199118286095369 -2.8105490696265525
0.5115073954667461 -2.719550009832842
0.503749231190264 -2.612709423510349
0.4965790421668462 -2.4910529278593634
0.4899629237407706 -2.3556391313441982
0.4838845863020343 -2.2075311293487183
0.4783380085381111 -2.047790205812096
0.47332192244700516 -1.877474950708922
0.46883515157804934 -1.6976408591907726
0.4648703797801605 -1.509338904106244
0.4614025550709693 -1.3136130193578006
0.4583709018713171 -1.1114973781641293
0.45567302124782577 -0.9040180585742147
0.45324125719377795 -0.6922285743534153
0.45129421787129237 -0.47740161241343204
0.4505699497278411 -0.2617107622372323
0.4515262088270762 -0.04972478361162482
0.7081279051451457 -0.050601670288399445
0.7087571296992886 -0.26216109232735696
0.7078065161925052 -0.4773100331111813
0.7054275871828062 -0.6918981085030259
0.7022190765919376 -0.9036284242905307
0.6984004222638187 -1.111086409939379
0.6939397459580227 -1.3131659915783744
0.6887603002073587 -1.508837408969787
0.6828134360033469 -1.6970743071740007
0.6760787869128105 -1.876838916909407
0.6685505094270675 -2.0470832575415843
0.660227765533254 -2.2067526889535536
0.651109661444542 -2.354788107093438
0.6411915007363453 -2.4901265338230627
0.6304601668148144 -2.6117022648609463
0.6188883712971908 -2.71845396821262
0.6064227413365455 -2.8093572381193064
0.5929947381500718 -2.883526649851688
0.5788065931777899 -2.9403129654630735
0.5651511419249398 -2.9786687924998985
0.5539036032188861 -2.9941557209416976
0.5426560645128325 -2.9786687924998985
0.5290006132599825 -2.9403129654630735
0.5148124682877006 -2.883526649851688
0.5013844651012268 -2.809357238119306
0.48891883514058165 -2.7184539682126205
0.47734703962295805 -2.6117022648609463
0.46661570570142713 -2.490126533823062
0.45669754499323045 -2.3547881070934378
0.4475794409045184 -2.206752688953553
0.4392566970107051 -2.0470832575415847
0.431728419524962 -1.8768389169094069
0.42499377043442554 -1.697074307174
0.41904690623041374 -1.508837408969786
0.41386746047974976 -1.3131659915783729
0.4094067841739538 -1.1110864099393793
0.4055881298458348 -0.9036284242905304
0.4023796192549662 -0.6918981085030264
0.40000069024526724 -0.47731003311118075
0.3990500767384838 -0.2621610923273561
0.3996793012926268 -0.05060167028839941
0.7600343092883665 -0.051223947675312236
0.760361839440562 -0.26251517513445216
0.7591718376171954 -0.4771820603787716
0.7563658583047574 -0.691516072897052
0.7524006105497295 -0.9031472656826526
0.7474771817724746 -1.1105439746804218
0.7415945935364517 -1.3125527487863178
0.7347052540804591 -1.5081386435261592
0.7267761340953242 -1.6962812189295788
0.7177931214434682 -1.8759478012030042
0.7077522565873151 -2.046092924265901
0.6966530657730314 -2.205662664662439
0.6844950459418536 -2.3535975077231366
0.6712751871590295 -2.4888330619943235
0.6569844392657547 -2.610301399851655
0.6416040665199086 -2.716939135401046
0.6250949506289672 -2.807719795022602
0.6073634736284865 -2.8817788983079424
0.588469978707064 -2.93865145031409
0.56975740807237 -2.9778044004247755
0.5539036032188861 -2.9946186686060505
0.5380497983654022 -2.977804400424775
0.5193372277307085 -2.93865145031409
0.5004437328092859 -2.8817788983079424
0.4827122558088051 -2.807719795022602
0.4662031399178637 -2.716939135401046
0.45082276717201786 -2.6103013998516555
0.43653201927874286 -2.488833061994322
0.42331216049591874 -2.353597507723136
0.4111541406647408 -2.2056626646624387
0.4000549498504574 -2.046092924265901
0.3900140849943044 -1.8759478012030038
0.3810310723424482 -1.6962812189295784
0.37310195235731336 -1.5081386435261583
0.3662126129013206 -1.3125527487863167
0.3603300246652979 -1.110543974680422
0.35540659588804285 -0.9031472656826524
0.35144134813301503 -0.6915160728970524
0.348635368820577 -0.4771820603787711
0.34744536699721046 -0.26251517513445133
0.3477728971494062 -0.051223947675312215
0.8120397676383971 -0.05163100270537304
0.8120982475648094 -0.26277317894784186
0.8106657105729329 -0.47701116207688354
0.8074385706529927 -0.6910823039488259
0.8027302685714038 -0.9025771323698949
0.796711749055461 -1.1098719470976126
0.7894109291017354 -1.3117740416238777
0.7808121006427238 -1.507242759372653
0.7709001907625296 -1.6952615572282361
0.7596683022976171 -1.874801540881182
0.7471145116264353 -2.0448191569294036
0.7332386288511366 -2.2042610284340265
0.7180404621669538 -2.3520673461319093
0.7015188284047223 -2.4871727022965646
0.6836696383454491 -2.608507333335725
0.6644833498655462 -2.7150067889114955
0.6439435663519513 -2.8056422340351577
0.6219594446937659 -2.879546580256065
0.5983981624458791 -2.9364081975518266
0.574473540579939 -2.9763864826330564
0.5539036032188861 -2.995014954965076
0.5333336658578332 -2.9763864826330564
0.5094090439918932 -2.9364081975518266
0.4858477617440065 -2.8795465802560645
0.46386364008582104 -2.8056422340351577
0.44332385657222617 -2.7150067889114955
0.4241375680923233 -2.608507333335725
0.40628837803304996 -2.4871727022965633
0.38976674427081853 -2.352067346131909
0.3745685775866358 -2.204261028434026
0.3606926948113371 -2.0448191569294036
0.3481389041401554 -1.8748015408811813
0.3369070156752428 -1.695261557228236
0.32699510579504865 -1.507242759372652
0.31839627733603704 -1.3117740416238763
0.3110954573823114 -1.1098719470976128
0.30507693786636864 -0.9025771323698947
0.30036863578477974 -0.6910823039488264
0.2971414958648395 -0.477011162076883
0.29570895887296317 -0.2627731789478411
0.2957674387993754 -0.05163100270537298
0.8641748344697737 -0.05186389794955413
0.8640064647949178 -0.262938664928757
0.862342413875054 -0.4767936320457294
0.858704640455337 -0.6905965904362855
0.8532611395192223 -0.9019192249032021
0.8461501449452689 -1.1090711388101169
0.8374307337976518 -1.3108301227737018
0.8271212402871277 -1.506149736640507
0.8152255900375425 -1.6940152478994084
0.8017443083741324 -1.8734000800042712
0.786677340162699 -2.043261916928381
0.7700245655087355 -2.202547752249505
0.751785969887957 -2.3501975870062153
0.7319619758306624 -2.485145487044214
0.7105542710732093 -2.6063204064909735
0.6875629288604473 -2.712657212903068
0.6629958123786661 -2.803129015219288
0.6368138960934575 -2.876845106340493
0.6086867397623427 -2.933568102001753
0.5793864918417354 -2.9743233174023467
0.5539036032188862 -2.995448301517562
0.5284207145960369 -2.9743233174023462
0.49912046667542964 -2.933568102001753
0.47099331034431485 -2.876845106340493
0.44481139405910625 -2.803129015219288
0.42024427757732513 -2.712657212903068
0.397252935364563 -2.6063204064909735
0.37584523060710984 -2.485145487044213
0.3560212365498155 -2.350197587006215
0.3377826409290368 -2.2025477522495045
0.32112986627507334 -2.043261916928381
0.3060628980636402 -1.8734000800042707
0.29258161640022995 -1.694015247899408
0.2806859661506446 -1.506149736640506
0.2703764726401206 -1.3108301227737003
0.2616570614925037 -1.1090711388101173
0.25454606691855014 -0.9019192249032019
0.2491025659824354 -0.6905965904362861
0.24546479256271853 -0.4767936320457288
0.2438007416428546 -0.2629386649287563
0.24363237196799878 -0.05186389794955408
0.9164585315471765 -0.051966039075946296
0.9161190710475986 -0.26301855732572216
0.9142554776359562 -0.4765294109064684
0.9102250300554268 -0.690058962036693
0.9040475689653593 -0.9011732725521847
0.8958387894081332 -1.108141175268158
0.8856960108648684 -1.3097206833111572
0.8736729767261193 -1.5048593662240057
0.8597922368248655 -1.692542183148955
0.8440610802757037 -1.871743375705495
0.8264808060168911 -2.0414211820974137
0.8070510040336988 -2.200522804047072
0.7857716437842471 -2.3479881735835426
0.7626443589061067 -2.4827512103365073
0.7376762238127152 -2.6037407933183956
0.7108802189854819 -2.7098900513721684
0.6822782565277461 -2.800180685910053
0.6519337181581688 -2.873697882190626
0.6194420502247883 -2.9301377325383786
0.5846557711260765 -2.971477250590895
0.5539036032188861 -2.996049592543936
0.5231514353116958 -2.9714772505908944
0.488365156212984 -2.9301377325383786
0.4558734882796034 -2.8736978821906263
0.4255289499100264 -2.800180685910052
0.39692698745229055 -2.7098900513721684
0.3701309826250571 -2.603740793318395
0.3451628475316655 -2.482751210336507
0.3220355626535253 -2.347988173583542
0.3007562024040735 -2.200522804047071
0.2813264004208813 -2.0414211820974137
0.2637461261620688 -1.8717433757054944
0.24801496961290695 -1.6925421831489547
0.23413422971165312 -1.504859366224005
0.22211119557290407 -1.3097206833111559
0.21196841702963934 -1.1081411752681583
0.20375963747241305 -0.9011732725521845
0.19758217638234568 -0.6900589620366935
0.1935517288018163 -0.4765294109064679
0.19168813539017404 -0.2630185573257214
0.19134867489059607 -0.05196603907594627
0.968893700342938 -0.0519832410246154
0.968459892770115 -0.26302402799000424
0.966460734064561 -0.4762231715311577
0.9620640000740805 -0.6894695244532815
0.9551446509754651 -0.9003372498669935
0.945824017637869 -1.1070804201572386
0.9342485289488869 -1.3084448291261543
0.920507420648464 -1.503371254643092
0.9046399348122781 -1.6908422345030567
0.8866585253894114 -1.869831404164263
0.8665649606236134 -2.0392969588830425
0.8443581419241477 -2.1981861392058897
0.8200375049061029 -2.345439043748484
0.7936060506588528 -2.4799895014332076
0.7650733176815424 -2.600767972766991
0.7344706331817782 -2.706705908529236
0.701827536661892 -2.796790682532099
0.6672887769512922 -2.87012904147291
0.6307432284853802 -2.926174202411381
0.5905977918048697 -2.9676494660959793
0.5539036032188862 -2.996968203031829
0.5172094146329025 -2.9676494660959793
0.4770639779523922 -2.926174202411381
0.44051842948648 -2.8701290414729104
0.40597966977588035 -2.796790682532099
0.37333657325599434 -2.706705908529236
0.3427338887562299 -2.6007679727669903
0.3142011557789195 -2.4799895014332067
0.28776970153166936 -2.3454390437484838
0.26344906451362454 -2.1981861392058883
0.241242245814159 -2.039296958883042
0.22114868104836105 -1.8698314041642623
0.20316727162549436 -1.690842234503056
0.18729978578930837 -1.5033712546430913
0.17355867748888537 -1.308444829126153
0.16198318879990337 -1.1070804201572386
0.1526625554623073 -0.9003372498669933
0.14574320636369192 -0.6894695244532818
0.14134647237321143 -0.47622317153115706
0.1393473136676575 -0.2630240279900035
0.1389135060948346 -0.051983241024615365
1.021458718605944 -0.05196282459057967
1.0210426293283468 -0.2629730728950377
1.0190220289402572 -0.4758856354996329
1.0142900431017021 -0.6888275025041465
1.0066074593716796 -0.8994070077111981
0.9961516174588821 -1.1058859560485697
0.9831295212407534 -1.3070010937972263
0.9676643991967973 -1.5016848596206671
0.9498083697264255 -1.6889152711386697
0.929576513481201 -1.8676641772876867
0.9069698796452829 -2.0368892676679216
0.8819861378545483 -2.1955377762223716
0.8546239510712489 -2.342549928355563
0.8248862313990886 -2.476860412691095
0.7927871296091743 -2.5973995100535165
0.7583599460310536 -2.7031074541513886
0.7216994891386335 -2.7929498482201436
0.6828406119899805 -2.8661318887728173
0.6424874519429196 -2.921840573125585
0.5978980689155269 -2.962576527901706
0.5539036032188862 -2.998321513660594
0.5099091375222454 -2.962576527901705
0.4653197544948529 -2.921840573125585
0.4249665944477917 -2.866131888772817
0.3861077172991389 -2.7929498482201436
0.3494472604067188 -2.703107454151388
0.315020076828598 -2.5973995100535157
0.28292097503868363 -2.4768604126910945
0.25318325536652336 -2.342549928355563
0.22582106858322393 -2.19553777622237
0.2008373267924896 -2.0368892676679207
0.17823069295657148 -1.8676641772876863
0.15799883671134698 -1.6889152711386688
0.14014280724097514 -1.5016848596206664
0.1246776851970189 -1.307001093797225
0.11165558897889036 -1.10588595604857
0.10119974706609282 -0.8994070077111977
0.09351716333607035 -0.6888275025041468
0.0887851774975152 -0.4758856354996323
0.08676457710942574 -0.26297307289503696
0.08634848783182855 -0.05196282459057963
1.0740924275587187 -0.05195100950159228
1.0738700034235344 -0.262896490414577
1.0720226243297348 -0.4755346356584942
1.0669741419179342 -0.688128890522809
1.0584907430949069 -0.8983761975360294
1.0468661424777659 -1.1045535062959562
1.0323794216527342 -1.3053875350009017
1.015183367073867 -1.4997995443666765
0.9953370988143616 -1.686761192412096
0.9728548909697475 -1.8652417466065938
0.947735636843971 -2.0341981799288384
0.9199752580211096 -2.1925776833069426
0.8895711851291269 -2.3393208277927773
0.8565256580288771 -2.4733627746456652
0.8208538922465942 -2.5936368164100068
0.7825979912260217 -2.69908145164122
0.7418620853037429 -2.7886947991663305
0.6988406839045671 -2.8615673022300347
0.6537964765611045 -2.917501701419974
0.6082081281808382 -2.9559986838308117
0.5539036032188861 -3.0
0.499599078256934 -2.955998683830811
0.454010729876668 -2.9175017014199733
0.40896652253320515 -2.8615673022300347
0.36594512113402944 -2.788694799166331
0.3252092152117505 -2.6990814516412187
0.28695331419117814 -2.5936368164100054
0.2512815484088951 -2.473362774645665
0.2182360213086452 -2.339320827792777
0.1878319484166626 -2.1925776833069404
0.1600715695938017 -2.0341981799288376
0.1349523154680249 -1.8652417466065934
0.11247010762341073 -1.6867611924120955
0.09262383936390554 -1.4997995443666756
0.07542778478503799 -1.3053875350009003
0.06094106396000652 -1.1045535062959564
0.04931646334286576 -0.8983761975360288
0.040833064519838265 -0.6881288905228095
0.035784582108037664 -0.47553463565849363
0.033937203014238124 -0.2628964904145763
0.033714778879053636 -0.05195100950159224
SCALARS Stress float 6
LOOKUP_TABLE default
-613.1952310124897 -19509.85153030754 -6036.914028396011 -453.2859380874132 0.0 0.0
9240.658209536257 5460.656499634084 4410.3944127511 -704.1039113922609 0.0 0.0
5254.072988587537 -465.9985916237516 1436.4223190891353 -301.13729478948653 0.0 0.0
5376.220338093479 409.2881338589731 1735.652541585735 -44.85042682142372 0.0 0.0
6172.5455159790245 148.92413839818835 1896.4408963131636 -103.36736588444566 0.0 0.0
7429.433468952031 210.42831360440576 2291.9585347669304 -106.51612811180306 0.0 0.0
8817.081667429287 229.28747865172215 2713.9107438243013 -112.94741365000291 0.0 0.0
10269.488532882991 267.0526803229572 3160.962363961786 -115.39462769716617 0.0 0.0
11738.843760182315 304.2052201979728 3612.914694114088 -116.26484234664093 0.0 0.0
13211.477359780947 342.58098036077774 4066.2175020425184 -116.49132838501964 0.0 0.0
14682.461427021182 380.84292242327626 4518.991304833338 -116.49131416775958 0.0 0.0
16151.632811168198 419.0835859057741 4971.214919122193 -116.5171125647722 0.0 0.0
17620.93477175838 457.4574358410374 5423.517662279824 -116.74404777219974 0.0 0.0
19095.680203871387 496.5029668238218 5877.654951208564 -117.41257662555631 0.0 0.0
20587.540026495604 537.1442634876274 6337.405286994969 -118.78132554051476 0.0 0.0
22116.236020972647 580.3363829584185 6808.9717211793195 -120.7224077746256 0.0 0.0
23700.906577124268 625.5674358765997 7297.942203900258 -121.60138640261758 0.0 0.0
25325.547591190643 668.0604077124605 7798.082399670934 -116.560927359001 0.0 0.0
26870.134459473767 697.2359383349688 8270.21111934262 -97.22128245304108 0.0 0.0
28051.37491447784 704.3464478475934 8626.716408697634 -56.87371014533835 0.0 0.0
28503.857936794033 700.339626597388 8761.259269017422 8.162714948412031e-11 0.0 0.0
28051.3749144768 704.3464478450343 8626.71640869655 56.8737101454023 0.0 0.0
26870.134459473968 697.2359383354586 8270.21111934283 97.22128245298046 0.0 0.0
25325.547591189705 668.0604077104297 7798.082399670038 116.56092735899392 0.0 0.0
23700.9065771238 625.5674358757175 7297.942203899854 121.60138640261164 0.0 0.0
22116.23602097296 580.3363829592887 6808.971721179674 120.72240777474303 0.0 0.0
20587.54002649535 537.1442634867117 6337.405286994623 118.78132554047238 0.0 0.0
19095.68020387157 496.5029668239599 5877.65495120866 117.41257662556336 0.0 0.0
17620.934771759265 457.45743584303943 5423.51766228069 116.74404777210947 0.0 0.0
16151.632811169738 419.0835859095066 4971.214919123773 116.51711256471404 0.0 0.0
14682.461427020567 380.8429224220117 4518.991304832773 116.49131416766542 0.0 0.0
13211.477359781275 342.5809803615132 4066.217502042836 116.49132838501038 0.0 0.0
11738.843760182242 304.20522019782015 3612.9146941140184 116.26484234673404 0.0 0.0
10269.488532883011 267.0526803229668 3160.962363961794 115.39462769717872 0.0 0.0
8817.081667429236 229.2874786515369 2713.9107438242327 112.94741364988465 0.0 0.0
7429.433468952257 210.4283136050081 2291.95853476718 106.51612811182808 0.0 0.0
6172.545515978899 148.9241383980035 1896.4408963130704 103.36736588462878 0.0 0.0
5376.220338093419 409.28813385887054 1735.6525415856877 44.850426821398614 0.0 0.0
5254.072988587608 -465.9985916236454 1436.4223190891896 301.13729478966195 0.0 0.0
9240.658209536357 5460.656499634179 4410.394412751161 704.103911392417 0.0 0.0
-613.1952310124484 -19509.85153030756 -6036.914028396001 453.2859380873475 0.0 0.0
-3481.8007728235225 -19382.073938497975 -6859.162413396451 -309.7627190766913 0.0 0.0
5683.319035782148 3736.080784226157 2825.819946002492 -561.3926068926669 0.0 0.0
3694.344162853169 -524.3010768263518 951.0129258080451 -210.48347934566382 0.0 0.0
4795.245851830188 185.37741922376864 1494.1869813161873 -174.21773910024595 0.0 0.0
5487.753661903101 23.01546374272391 1653.2307376937474 -251.18593945885277 0.0 0.0
6627.685781808222 18.319078925990873 1993.801458220264 -284.5457119912934 0.0 0.0
7857.894129106748 6.125718295413313 2359.2059542206484 -299.5024835170181 0.0 0.0
9145.212564022651 1.8722657976301273 2744.1254489460857 -305.6253204827332 0.0 0.0
10449.794613526688 0.19571154683710834 3134.9970975220567 -307.30626466700704 0.0 0.0
11758.8389021331 -0.24983680741120384 3527.576719597707 -307.478354832953 0.0 0.0
13067.562991282042 -0.252864069297118 3920.193038163825 -307.2439463179866 0.0 0.0
14375.383296205435 -0.03875933058428771 4312.6033610624545 -307.12874781044314 0.0 0.0
15683.909920447964 0.5388795471486336 4705.334639998536 -307.55466404058507 0.0 0.0
16997.59351613594 1.9078695454533197 5099.850415704421 -309.26732385062655 0.0 0.0
18325.495493257877 4.483112492680927 5498.99358172517 -313.4363605346304 0.0 0.0
19681.15796517244 7.610042411322608 5906.630402275128 -320.82141710040844 0.0 0.0
21073.132323515554 7.279277202130626 6324.123480215303 -328.71470034992285 0.0 0.0
22475.02920341905 -6.265378244129913 6740.629147552476 -324.979618961604 0.0 0.0
23773.780493340822 -45.44819560787695 7118.499689319884 -283.286992118548 0.0 0.0
24738.19169303953 -106.51345101583014 7389.503472607112 -173.60121029265304 0.0 0.0
25099.059215806083 -143.3484391936829 7486.7132329837195 2.6489033189136535e-11 0.0 0.0
24738.191693039087 -106.51345101700186 7389.503472606626 173.60121029273117 0.0 0.0
23773.78049334066 -45.44819560827564 7118.499689319717 283.2869921185543 0.0 0.0
22475.02920341841 -6.26537824562034 6740.629147551836 324.97961896169113 0.0 0.0
21073.13232351562 7.27927720245431 6324.123480215423 328.7147003499906 0.0 0.0
19681.157965172413 7.610042411501702 5906.630402275173 320.8214171005752 0.0 0.0
18325.495493257822 4.48311249240615 5498.993581725067 313.436360534707 0.0 0.0
16997.593516135832 1.9078695450213985 5099.850415704255 309.2673238506386 0.0 0.0
15683.909920448421 0.5388795483235924 4705.334639999024 307.5546640405722 0.0 0.0
14375.383296206192 -0.03875932863300591 4312.6033610632685 307.1287478103197 0.0 0.0
13067.562991281322 -0.2528640710698795 3920.193038163076 307.24394631802585 0.0 0.0
11758.838902133288 -0.24983680700685085 3527.576719597885 307.4783548329077 0.0 0.0
10449.794613526663 0.19571154689820958 3134.997097522069 307.3062646670484 0.0 0.0
9145.212564022737 1.8722657979279091 2744.1254489462 305.6253204827651 0.0 0.0
7857.894129106737 6.125718295499844 2359.205954220672 299.5024835170486 0.0 0.0
6627.685781808342 18.319078926162057 1993.8014582203518 284.5457119914174 0.0 0.0
5487.753661903036 23.015463742698756 1653.230737693721 251.1859394588604 0.0 0.0
4795.245851830172 185.3774192236711 1494.1869813161527 174.21773910036796 0.0 0.0
3694.344162853357 -524.3010768262535 951.0129258081308 210.48347934574764 0.0 0.0
5683.319035782062 3736.080784226099 2825.819946002448 561.3926068927005 0.0 0.0
-3481.800772823764 -19382.07393849812 -6859.162413396566 309.7627190766501 0.0 0.0
-3809.7939399983006 -16964.303296331356 -6232.229170898898 -1426.596963324219 0.0 0.0
3594.248147246961 2252.348232753156 1753.9789140000348 -1015.1772029086258 0.0 0.0
2739.847172353982 93.94211915042929 850.1367874513235 -142.72839585792752 0.0 0.0
4001.074309877666 30.363043966416072 1209.431206153225 -401.89275198759145 0.0 0.0
4882.807371698098 71.59911369804801 1486.3219456188435 -500.14643473559863 0.0 0.0
5882.939739464298 17.814754159914443 1770.226348087264 -573.2144004304542 0.0 0.0
6991.060144810492 9.730379939124255 2100.2371574248846 -601.7729946371488 0.0 0.0
8132.387243953121 2.413600918270944 2440.440253461417 -613.3142793913651 0.0 0.0
9290.77180249641 0.2839692347059035 2787.316731519334 -616.4150020018076 0.0 0.0
10453.23139483128 -0.36141735713770284 3135.8609932422423 -616.5943520645285 0.0 0.0
11616.145659565023 -0.35932396558787794 3484.73590067983 -616.0643118213279 0.0 0.0
12778.728708361697 -0.06440938763607562 3833.599289692219 -615.7783971398487 0.0 0.0
13942.183107554874 0.7325002511820617 4182.874682341816 -616.5395409667908 0.0 0.0
15109.872510635172 2.65019716316872 4533.756812339503 -619.8269559128341 0.0 0.0
16288.337644537429 6.348730180197318 4888.405912415286 -628.0891634013483 0.0 0.0
17486.514230079214 11.045988029525862 5249.268065432621 -643.2453451682908 0.0 0.0
18707.29435734027 11.074565034983358 5615.510676712576 -660.6957880808036 0.0 0.0
19922.850318672714 -8.186801273446733 5974.399055219779 -656.9142901619794 0.0 0.0
21033.511552160464 -67.10092879835477 6289.9231870086305 -577.8773322593136 0.0 0.0
21845.462718820887 -163.88670904976829 6504.472802931334 -357.6857152301807 0.0 0.0
22143.64364541558 -225.91239128732713 6575.319376238479 4.5218939703772776e-11 0.0 0.0
21845.462718821134 -163.8867090490691 6504.472802931619 357.68571523010684 0.0 0.0
21033.51155216017 -67.10092879895784 6289.923187008362 577.8773322592951 0.0 0.0
19922.85031867306 -8.186801272666614 5974.399055220118 656.9142901621152 0.0 0.0
18707.294357340295 11.074565035067906 5615.510676712608 660.6957880807796 0.0 0.0
17486.51423007902 11.045988029225676 5249.268065432476 643.2453451682404 0.0 0.0
16288.337644538256 6.348730182025619 4888.405912416085 628.0891634013223 0.0 0.0
15109.87251063475 2.650197162142362 4533.756812339068 619.8269559129213 0.0 0.0
13942.183107555127 0.7325002519053143 4182.874682342109 616.5395409668729 0.0 0.0
12778.728708361494 -0.06440938825217302 3833.5992896919724 615.7783971397205 0.0 0.0
11616.145659564592 -0.3593239666512247 3484.7359006793827 616.0643118212729 0.0 0.0
10453.231394831315 -0.36141735687694876 3135.860993242332 616.5943520645379 0.0 0.0
9290.771802496167 0.2839692341170732 2787.3167315190854 616.4150020017512 0.0 0.0
8132.3872439532515 2.4136009185076404 2440.4402534615288 613.314279391358 0.0 0.0
6991.060144810379 9.730379938895869 2100.2371574247827 601.7729946371832 0.0 0.0
5882.93973946443 17.81475416028277 1770.226348087414 573.214400430508 0.0 0.0
4882.807371697998 71.599113697896 1486.3219456187685 500.1464347355509 0.0 0.0
4001.0743098776697 30.363043966509245 1209.4312061532535 401.8927519877117 0.0 0.0
2739.847172353904 93.94211915025875 850.1367874512487 142.72839585793207 0.0 0.0
3594.248147246883 2252.348232753049 1753.9789139999798 1015.1772029085262 0.0 0.0
-3809.7939399984407 -16964.303296331436 -6232.229170898962 1426.596963324211 0.0 0.0
-3501.0664844458333 -14583.250001023931 -5425.29494564093 -1780.9389208556101 0.0 0.0
2243.8010070110763 916.6420720649725 948.1329237228147 -1390.2555197741242 0.0 0.0
2002.8758865693167 433.83030224456365 731.0118566441643 -423.0140789831031 0.0 0.0
3237.2498208611964 62.17562970776345 989.8276351706878 -580.9752731786425 0.0 0.0
4221.631574469283 77.04270580761268 1289.602284083069 -744.0144714785416 0.0 0.0
5138.771523732143 34.01365373681376 1551.835553240687 -827.4853714716279 0.0 0.0
6116.3233005072625 12.119369466029516 1838.5328009919883 -869.0859399608767 0.0 0.0
7118.428499937747 3.9269043849752236 2136.706621296817 -884.344660974364 0.0 0.0
8131.105526169793 0.286426820032875 2439.417585896948 -888.8565061689624 0.0 0.0
9147.639140296913 -0.5355061432529329 2744.131090246098 -889.1840352547802 0.0 0.0
10164.780522283536 -0.5440093504846875 3049.270953879915 -888.5244625289669 0.0 0.0
11181.984928867068 -0.11209073547215453 3354.56185143948 -888.1769859595939 0.0 0.0
12199.947907559945 1.0438569889346816 3660.297529364664 -889.2498442156781 0.0 0.0
13220.812065015107 3.8657837620438897 3967.403354633145 -893.7298222769408 0.0 0.0
14248.641916595483 9.428920035661289 4277.421250989342 -904.8767624748572 0.0 0.0
15288.74052057069 16.775950628852712 4591.654941359864 -925.2026600780705 0.0 0.0
16341.415505697845 17.533871606876062 4907.684813191418 -948.2612870212752 0.0 0.0
17382.83804540905 -11.101144010751959 5211.52107041949 -941.2198132201166 0.0 0.0
18330.09134767985 -102.96866289053328 5468.136805436795 -827.7556273775292 0.0 0.0
19017.964095741154 -258.93552585692277 5627.708570965271 -512.9311879091381 0.0 0.0
19265.657615217733 -361.42687980007645 5671.269220625296 4.524736141320318e-11 0.0 0.0
19017.964095740965 -258.9355258572257 5627.708570965123 512.9311879090022 0.0 0.0
18330.091347680394 -102.96866288939025 5468.1368054373015 827.7556273775388 0.0 0.0
17382.8380454093 -11.101144010169847 5211.52107041974 941.2198132202132 0.0 0.0
16341.415505697427 17.53387160606021 4907.684813191046 948.2612870212122 0.0 0.0
15288.740520570396 16.775950628277073 4591.654941359601 925.2026600780491 0.0 0.0
14248.641916595769 9.428920036311432 4277.421250989626 904.8767624747179 0.0 0.0
13220.812065014796 3.86578376128746 3967.4033546328237 893.7298222768658 0.0 0.0
12199.947907560156 1.0438569894962484 3660.2975293648965 889.2498442155836 0.0 0.0
11181.984928867047 -0.11209073552956994 3354.561851439457 888.1769859595787 0.0 0.0
10164.780522283254 -0.5440093512237496 3049.270953879609 888.5244625289404 0.0 0.0
9147.63914029732 -0.5355061422830758 2744.1310902465107 889.1840352547857 0.0 0.0
8131.105526169575 0.2864268194592725 2439.41758589671 888.8565061688698 0.0 0.0
7118.428499937744 3.926904384896723 2136.7066212967925 884.3446609743794 0.0 0.0
6116.323300506963 12.119369465431745 1838.5328009917184 869.0859399609426 0.0 0.0
5138.771523732249 34.01365373714071 1551.8355532408168 827.4853714716376 0.0 0.0
4221.63157446903 77.04270580709198 1289.602284082837 744.0144714786121 0.0 0.0
3237.2498208612647 62.1756297079356 989.82763517076 580.9752731786514 0.0 0.0
2002.8758865692375 433.830302244363 731.0118566440804 423.01407898302887 0.0 0.0
2243.801007011018 916.6420720647998 948.1329237227457 1390.2555197741158 0.0 0.0
-3501.066484445782 -14583.250001023858 -5425.294945640893 1780.9389208556522 0.0 0.0
-3000.4853132156554 -12414.76867157024 -4624.576195435768 -1821.5842633984926 0.0 0.0
1363.389072557944 -112.9013102361195 375.1463286965472 -1643.951438227051 0.0 0.0
1428.3674660944853 541.2798675357512 590.8942000890711 -801.5414175776284 0.0 0.0
2541.7486488072627 152.20162496679592 808.1850821322176 -792.7863489924127 0.0 0.0
3538.7914833214727 91.0012738725375 1088.9378271582032 -961.6171929304641 0.0 0.0
4387.2169236817135 48.201611801924315 1330.6255606450918 -1054.5640652144764 0.0 0.0
5238.781864999583 17.55239129008336 1576.9002768869002 -1100.978242743995 0.0 0.0
6102.488291313109 5.23696890335994 1832.3175780649406 -1119.3560714403259 0.0 0.0
6971.042332157611 0.4856558061008327 2091.458396389113 -1124.720554176318 0.0 0.0
7841.907152688585 -0.7788228486091118 2352.3384989519923 -1125.2922395199423 0.0 0.0
8713.409199284237 -0.7606938752681938 2613.7945516226905 -1124.6128592205594 0.0 0.0
9585.120750856739 -0.1639647908857924 2875.4870358197563 -1124.2771276191115 0.0 0.0
10457.296064939355 1.4512732659721586 3137.624201461598 -1125.5727524429215 0.0 0.0
11330.800205061905 5.406921214143086 3400.8621378828147 -1130.758221110213 0.0 0.0
12207.372430375111 13.291177378131772 3666.199082325973 -1143.4988571571257 0.0 0.0
13089.54892287424 23.93763024578045 3934.0459659360067 -1166.6002460988748 0.0 0.0
13977.463892748994 25.543817884846145 4200.902313190152 -1192.4436717574522 0.0 0.0
14855.289297442669 -15.373067190912039 4451.974869075527 -1181.7352484737821 0.0 0.0
15658.910157776576 -150.658720080644 4652.475431308779 -1040.620255928118 0.0 0.0
16244.369620898458 -385.4535184383119 4757.674830738043 -647.375706097278 0.0 0.0
16449.88975695807 -543.1035395288504 4772.035865228764 -5.547917680814862e-11 0.0 0.0
16244.36962089822 -385.4535184386401 4757.674830737874 647.3757060972955 0.0 0.0
15658.910157777153 -150.6587200794266 4652.475431309318 1040.6202559281053 0.0 0.0
14855.289297442381 -15.373067191608811 4451.974869075232 1181.7352484736687 0.0 0.0
13977.463892749029 25.543817884973286 4200.9023131902 1192.443671757473 0.0 0.0
13089.548922873862 23.937630244845366 3934.0459659356134 1166.6002460988104 0.0 0.0
12207.372430375335 13.29117737872943 3666.1990823262186 1143.498857157083 0.0 0.0
11330.800205061949 5.406921214282406 3400.86213788287 1130.7582211102613 0.0 0.0
10457.296064939115 1.4512732654824134 3137.62420146138 1125.5727524429526 0.0 0.0
9585.120750856842 -0.16396479056500368 2875.4870358198837 1124.2771276190397 0.0 0.0
8713.409199283773 -0.7606938765193689 2613.7945516221757 1124.6128592205803 0.0 0.0
7841.90715268886 -0.7788228479720019 2352.3384989522665 1125.2922395199425 0.0 0.0
6971.042332157621 0.48565580616057247 2091.458396389135 1124.720554176332 0.0 0.0
6102.488291313163 5.236968903464479 1832.317578064988 1119.3560714402984 0.0 0.0
5238.781864999495 17.552391289936914 1576.9002768868297 1100.9782427439768 0.0 0.0
4387.216923681649 48.201611801765026 1330.625560645024 1054.5640652144523 0.0 0.0
3538.791483321353 91.0012738723428 1088.9378271581086 961.6171929305082 0.0 0.0
2541.748648807171 152.20162496666677 808.1850821321516 792.7863489924536 0.0 0.0
1428.367466094487 541.2798675358 590.8942000890863 801.5414175774904 0.0 0.0
1363.3890725578199 -112.9013102363503 375.1463286964407 1643.9514382271077 0.0 0.0
-3000.4853132156386 -12414.76867157018 -4624.576195435744 1821.584263398554 0.0 0.0
-2485.6041347361806 -10504.168680655901 -3896.931844617624 -1737.8583870570649 0.0 0.0
783.3201991333027 -834.7272471976291 -15.422114419298012 -1793.8863370189345 0.0 0.0
973.1338535230637 502.82361733479803 442.7872412573585 -1167.7596374761354 0.0 0.0
1920.485743641144 236.69280551537818 647.1535647469567 -1029.5674937933982 0.0 0.0
2858.2889266448556 117.7996221399593 892.8265646354447 -1159.1801650723785 0.0 0.0
3629.957733866809 61.0026535244707 1107.288116217384 -1252.2575078092589 0.0 0.0
4359.486689466967 23.88309990376463 1315.0109368112194 -1298.9593772840901 0.0 0.0
5085.250134452444 6.868458553167604 1527.6355779016835 -1318.349394058583 0.0 0.0
5810.468808086479 0.6832301166329504 1743.3456114609335 -1324.1992383847391 0.0 0.0
6536.020562542337 -1.0018510616234888 1960.5056134442134 -1324.9397791913595 0.0 0.0
7261.961194374247 -0.9936922568264706 2178.2902506352257 -1324.3296577183155 0.0 0.0
7988.129585439896 -0.20565182595626297 2396.377180084183 -1324.0423276021002 0.0 0.0
8714.34249823781 1.9143111494930416 2614.87704281619 -1325.4312735947867 0.0 0.0
9440.244010579214 7.099554217287082 2834.20306943895 -1330.7883922085489 0.0 0.0
10165.446271686857 17.486804548384324 3054.879922870574 -1343.8370390192736 0.0 0.0
10890.389875445462 31.744331693008295 3276.640262141542 -1367.5618869529249 0.0 0.0
11616.720297005846 34.36650041710408 3495.3260392268844 -1394.2739340611367 0.0 0.0
12339.465473009286 -20.426530594314904 3695.711682724492 -1381.601663111104 0.0 0.0
13014.981241638687 -206.65550541732938 3842.497720866408 -1222.4194374614292 0.0 0.0
13514.679998104537 -538.0564154367851 3892.9870748003264 -767.0298979141663 0.0 0.0
13683.149741770188 -767.3904965942168 3874.7277735527923 -1.1624479157035239e-11 0.0 0.0
13514.679998104775 -538.0564154362577 3892.9870748005555 767.0298979141427 0.0 0.0
13014.981241638705 -206.65550541723013 3842.4977208664427 1222.4194374614815 0.0 0.0
12339.465473009279 -20.426530594356095 3695.7116827244763 1381.6016631110576 0.0 0.0
11616.720297006117 34.36650041759418 3495.3260392271136 1394.273934061095 0.0 0.0
10890.389875445075 31.744331692134782 3276.640262141163 1367.561886952821 0.0 0.0
10165.446271687231 17.486804549229333 3054.8799228709395 1343.8370390192747 0.0 0.0
9440.244010579303 7.099554217694255 2834.2030694390987 1330.788392208638 0.0 0.0
8714.342498237516 1.9143111488689541 2614.877042815915 1325.4312735947467 0.0 0.0
7988.129585439931 -0.2056518259981175 2396.37718008418 1324.0423276020938 0.0 0.0
7261.96119437376 -0.9936922579091103 2178.2902506347555 1324.3296577183107 0.0 0.0
6536.020562542543 -1.0018510611847518 1960.5056134444078 1324.9397791913334 0.0 0.0
5810.468808086225 0.6832301160675343 1743.3456114606881 1324.1992383847942 0.0 0.0
5085.250134452556 6.8684585535265725 1527.6355779018245 1318.3493940585952 0.0 0.0
4359.486689467049 23.883099903880307 1315.0109368112792 1298.9593772841295 0.0 0.0
3629.9577338668314 61.00265352442494 1107.288116217377 1252.2575078092323 0.0 0.0
2858.288926645007 117.79962214042969 892.8265646356308 1159.1801650723066 0.0 0.0
1920.4857436410775 236.69280551538927 647.15356474694 1029.5674937934944 0.0 0.0
973.133853523089 502.8236173349242 442.7872412574039 1167.7596374761038 0.0 0.0
783.3201991333057 -834.7272471976305 -15.422114419297273 1793.8863370189508 0.0 0.0
-2485.604134736143 -10504.16868065587 -3896.931844617604 1737.8583870569955 0.0 0.0
-2022.1262653872216 -8841.625032066937 -3259.125389236248 -1611.2510153054493 0.0 0.0
395.0651991019738 -1296.7388741614695 -270.50210251784875 -1866.2694338838144 0.0 0.0
604.0955310447948 390.18384512851196 298.2838128519921 -1476.9683878711187 0.0 0.0
1366.609726966031 292.321015702205 497.6792228004709 -1266.7253415979806 0.0 0.0
2193.944407120141 149.37029041536758 702.9944092606527 -1339.0466141458626 0.0 0.0
2871.6404177730105 73.81439689860191 883.6364444014837 -1419.9631507308331 0.0 0.0
3479.184178941885 29.888965418786245 1052.7219433082014 -1463.20673125964 0.0 0.0
4067.29621336721 8.70435842882032 1222.8001715388089 -1481.5757943788115 0.0 0.0
4649.432402050881 0.8934439376088328 1395.0977537965468 -1487.3508172859592 0.0 0.0
5229.93769030984 -1.2011718872744943 1568.6209555267699 -1488.1742088145934 0.0 0.0
5810.397694069017 -1.2118344931970775 1742.7557578727462 -1487.6735158870424 0.0 0.0
6391.012360754052 -0.2355011991338607 1917.2330578664762 -1487.4511322872925 0.0 0.0
6971.21276657065 2.3847270771049196 2092.0792480943273 -1488.7848599963954 0.0 0.0
7549.540103536862 8.76334520251504 2267.491034621813 -1493.7867374011219 0.0 0.0
8123.708345069242 21.57993397872751 2443.5864837143918 -1505.9353000724377 0.0 0.0
8692.486436089555 39.484287277541085 2619.5912170101283 -1528.3706789958244 0.0 0.0
9259.958378725556 43.53293839338553 2791.0473951356826 -1554.6600197042708 0.0 0.0
9833.9357890825 -25.019200574828673 2942.674976552301 -1543.1431323117206 0.0 0.0
10393.14141592991 -266.62672135360225 3037.9544083728915 -1377.5719927894854 0.0 0.0
10819.924777482815 -711.8264980943836 3032.4294838165292 -876.6598570288969 0.0 0.0
10953.503639594624 -1033.4300663307365 2976.0220719791664 3.0183855415089056e-11 0.0 0.0
10819.924777482307 -711.8264980955994 3032.4294838160126 876.6598570288367 0.0 0.0
10393.141415929958 -266.62672135346924 3037.954408372947 1377.5719927893692 0.0 0.0
9833.93578908237 -25.01920057498201 2942.6749765522154 1543.143132311753 0.0 0.0
9259.958378725481 43.53293839319267 2791.0473951356016 1554.6600197041687 0.0 0.0
8692.486436089279 39.48428727688275 2619.591217009849 1528.3706789958119 0.0 0.0
8123.708345069232 21.579933978611198 2443.5864837143527 1505.9353000722317 0.0 0.0
7549.540103537024 8.76334520314142 2267.49103462205 1493.7867374010439 0.0 0.0
6971.212766570381 2.3847270765548316 2092.079248094082 1488.7848599963825 0.0 0.0
6391.012360754018 -0.23550119946432346 1917.2330578663662 1487.4511322873188 0.0 0.0
5810.397694069159 -1.2118344929210636 1742.7557578728713 1487.6735158870958 0.0 0.0
5229.93769030991 -1.201171887205092 1568.6209555268115 1488.174208814628 0.0 0.0
4649.43240205078 0.8934439372474614 1395.097753796408 1487.3508172859126 0.0 0.0
4067.296213367174 8.704358428709305 1222.8001715387652 1481.575794378989 0.0 0.0
3479.184178942106 29.888965419267855 1052.7219433084124 1463.206731259653 0.0 0.0
2871.6404177728655 73.81439689835246 883.6364444013652 1419.9631507307708 0.0 0.0
2193.9444071202934 149.37029041573615 702.9944092608088 1339.0466141458296 0.0 0.0
1366.6097269660238 292.32101570220163 497.6792228004676 1266.7253415979717 0.0 0.0
604.0955310447423 390.18384512856466 298.283812851992 1476.9683878711467 0.0 0.0
395.0651991019424 -1296.7388741615355 -270.50210251787803 1866.2694338838562 0.0 0.0
-2022.1262653871333 -8841.625032066851 -3259.1253892361956 1611.251015305433 0.0 0.0
-1628.5588117346174 -7397.8021911091 -2707.908300853115 -1476.1402881031033 0.0 0.0
128.7333728153051 -1555.8725440458843 -428.1417513691737 -1882.7536191760385 0.0 0.0
296.4556847456692 252.01416674030207 164.54095544579138 -1715.1089504095817 0.0 0.0
869.1005589211948 316.1254243164583 355.56779497129594 -1482.6734285009554 0.0 0.0
1552.1716007960263 177.63294963363748 518.9413651288992 -1498.296612829463 0.0 0.0
2116.836931425864 86.22020422072607 660.9171406939772 -1557.4953996865681 0.0 0.0
2598.93697023516 35.135296509639915 790.2216800234397 -1593.47878316791 0.0 0.0
3049.0439142032315 10.444082490938529 917.8463990082513 -1609.1494394997517 0.0 0.0
3488.046120230938 1.1233859735349885 1046.750851861342 -1614.2292540727074 0.0 0.0
3923.630961486568 -1.3697240561720427 1176.6783712291192 -1615.0265529238554 0.0 0.0
4358.690458417353 -1.396857323847307 1307.1880803280517 -1614.6521475477464 0.0 0.0
4793.778799818978 -0.2539340375621819 1438.0574597344248 -1614.4941239663333 0.0 0.0
5228.026854092408 2.811820534994787 1569.2516023882213 -1615.6281379718105 0.0 0.0
5659.049644993112 10.230880109365096 1700.784157530743 -1619.8010052164482 0.0 0.0
6082.912794267073 25.17293383034649 1832.4257184292267 -1629.9813942254991 0.0 0.0
6496.882102889438 46.51053471231175 1963.0177912805248 -1649.4345267101532 0.0 0.0
6907.631591995277 52.71270876310447 2088.103290227514 -1674.3192174138096 0.0 0.0
7336.851676164917 -27.518916451179066 2192.7998279141216 -1667.7977108296195 0.0 0.0
7788.160243364792 -325.5346839118316 2238.787667835888 -1509.1318304636309 0.0 0.0
8151.941331828014 -901.8855939204414 2175.016721372272 -980.2707044238606 0.0 0.0
8249.612733383065 -1342.9671630762098 2071.993671092056 -1.0942358130705543e-10 0.0 0.0
8151.941331827398 -901.8855939219457 2175.016721371635 980.270704423915 0.0 0.0
7788.160243365039 -325.53468391133777 2238.7876678361094 1509.1318304636975 0.0 0.0
7336.8516761649125 -27.518916451344978 2192.79982791407 1667.797710829699 0.0 0.0
6907.631591994914 52.71270876225117 2088.1032902271495 1674.3192174138571 0.0 0.0
6496.88210288931 46.5105347120796 1963.0177912804168 1649.4345267103633 0.0 0.0
6082.912794267409 25.17293383102255 1832.4257184295293 1629.9813942255314 0.0 0.0
5659.049644993038 10.230880109329256 1700.784157530711 1619.8010052165246 0.0 0.0
5228.026854092246 2.811820534698505 1569.2516023880833 1615.6281379718503 0.0 0.0
4793.778799818747 -0.25393403829260563 1438.057459734136 1614.4941239664004 0.0 0.0
4358.690458417817 -1.396857322775098 1307.1880803285123 1614.6521475479062 0.0 0.0
3923.630961486323 -1.369724056667291 1176.6783712288968 1615.0265529239218 0.0 0.0
3488.046120230993 1.1233859736746155 1046.7508518614004 1614.229254072618 0.0 0.0
3049.0439142031564 10.444082490788059 917.8463990081832 1609.1494394998508 0.0 0.0
2598.936970235174 35.135296509735596 790.2216800234729 1593.4787831678964 0.0 0.0
2116.836931425826 86.22020422055556 660.9171406939145 1557.4953996864674 0.0 0.0
1552.1716007960301 177.63294963359934 518.941365128889 1498.2966128295257 0.0 0.0
869.100558921097 316.1254243162997 355.5677949712189 1482.6734285008765 0.0 0.0
296.4556847457023 252.0141667403219 164.54095544580727 1715.1089504095946 0.0 0.0
128.73337281531343 -1555.8725440459202 -428.1417513691821 1882.7536191760073 0.0 0.0
-1628.5588117346194 -7397.802191109052 -2707.908300853102 1476.1402881031158 0.0 0.0
-1304.202686751486 -6140.098745004188 -2233.2904295267017 -1345.6405269596346 0.0 0.0
-60.79549938707329 -1663.809838732594 -517.3816014359002 -1858.6060602545056 0.0 0.0
31.927390184048313 117.74363294855655 44.90130693978149 -1881.689407912587 0.0 0.0
416.566445478673 313.662457604789 219.06867092503862 -1662.638670858222 0.0 0.0
934.6336066209868 197.60956472891849 339.67295140497157 -1631.5887859015763 0.0 0.0
1368.9234834349054 96.81071145398708 439.7202584666678 -1664.0604746010026 0.0 0.0
1719.936596539018 39.362188822503725 527.7896356084564 -1689.4300988298671 0.0 0.0
2030.8400260995634 11.85389489852455 612.8081762994261 -1701.0264959722065 0.0 0.0
2326.4188232385873 1.3389425463532767 698.3273297354821 -1704.8701729504323 0.0 0.0
2617.0926502041166 -1.4957698337589527 784.6790641111076 -1705.52055875838 0.0 0.0
2906.818752599931 -1.5377149305837925 871.5843113008043 -1705.2768488133281 0.0 0.0
3196.4418875223387 -0.26391955886263574 958.8533903890425 -1705.1743113687437 0.0 0.0
3484.887545461927 3.1498263869653123 1046.411211554668 -1705.9857638320875 0.0 0.0
3769.0753101635423 11.36295001872903 1134.1314780546813 -1708.9475167036514 0.0 0.0
4043.706391768501 27.931235196861394 1221.4912880896086 -1716.2884959650103 0.0 0.0
4304.492193624292 52.23172649037743 1307.0171760344008 -1731.276112582792 0.0 0.0
4560.05974968811 61.56906089260485 1386.4886431742145 -1753.7669960567332 0.0 0.0
4846.184532195286 -26.184597228885508 1445.9999804899205 -1756.0812105918321 0.0 0.0
5194.799833758939 -377.64932198110466 1445.1451535333506 -1618.845843485731 0.0 0.0
5503.223704208606 -1102.8676264275482 1320.1068233343176 -1081.4199024906638 0.0 0.0
5560.08350480443 -1700.609068584583 1157.8423308659542 -2.4556356947869062e-11 0.0 0.0
5503.223704208467 -1102.8676264278536 1320.1068233341841 1081.4199024907193 0.0 0.0
5194.799833759057 -377.649321980819 1445.1451535334713 1618.8458434857125 0.0 0.0
4846.184532195268 -26.184597229062547 1445.9999804898612 1756.0812105917248 0.0 0.0
4560.059749687925 61.569060892082156 1386.4886431740024 1753.7669960566373 0.0 0.0
4304.492193624244 52.231726490335305 1307.0171760343735 1731.2761125827994 0.0 0.0
4043.706391768154 27.93123519606406 1221.4912880892653 1716.2884959651067 0.0 0.0
3769.07531016326 11.362950018217791 1134.1314780544433 1708.9475167036917 0.0 0.0
3484.8875454619124 3.1498263870042464 1046.411211554675 1705.9857638321091 0.0 0.0
3196.4418875223787 -0.26391955893775787 958.8533903890325 1705.1743113687544 0.0 0.0
2906.8187525997437 -1.5377149311126388 871.5843113005895 1705.2768488133813 0.0 0.0
2617.092650204161 -1.4957698337094953 784.6790641111352 1705.5205587584092 0.0 0.0
2326.4188232387282 1.3389425467534295 698.3273297356443 1704.8701729504114 0.0 0.0
2030.8400260994565 11.85389489838099 612.8081762993515 1701.0264959721121 0.0 0.0
1719.936596539206 39.36218882302684 527.7896356086699 1689.430098829809 0.0 0.0
1368.9234834349238 96.81071145394745 439.72025846666145 1664.0604746009867 0.0 0.0
934.6336066208315 197.60956472851848 339.672951404805 1631.5887859016636 0.0 0.0
416.5664454787355 313.66245760497264 219.06867092511249 1662.638670858222 0.0 0.0
31.92739018397956 117.74363294842422 44.90130693972108 1881.6894079125968 0.0 0.0
-60.79549938698365 -1663.8098387323946 -517.3816014358134 1858.6060602544494 0.0 0.0
-1304.2026867514232 -6140.0987450041775 -2233.290429526681 1345.6405269595834 0.0 0.0
-1041.4996911831347 -5039.47941389409 -1824.2937315231677 -1223.2004426356964 0.0 0.0
-202.59507818720687 -1663.0369872493125 -559.6896196309557 -1803.7702524227727 0.0 0.0
-202.78706811092306 3.2342063727690284 -59.86585852144621 -1981.5827910714572 0.0 0.0
-1.1993033387730883 292.8875925812685 87.50648677274862 -1797.8876089338603 0.0 0.0
340.2319418946848 207.31325326529242 164.26355854799317 -1733.300679486392 0.0 0.0
629.8695053097299 104.12870640185325 220.199463513475 -1738.1525334476917 0.0 0.0
843.2272427776724 42.2774546368229 265.6514092243485 -1750.5954955700606 0.0 0.0
1012.9874018092972 12.791421847294808 307.7336470969776 -1757.068407613235 0.0 0.0
1164.6349738073 1.4964712994701692 349.839433532031 -1759.2769584514397 0.0 0.0
1310.325230449216 -1.5722548460791224 392.625892680941 -1759.676750097093 0.0 0.0
1454.7693905089723 -1.626367639592953 435.9429068608138 -1759.5610433055963 0.0 0.0
1599.0132715031496 -0.26953626393605035 479.6231205717642 -1759.5048254315252 0.0 0.0
1741.871288810224 3.362564606782904 523.5701560251022 -1759.9060319323094 0.0 0.0
1879.8412339633137 12.059900166001597 567.5703402387946 -1761.3943699741178 0.0 0.0
2006.6084316083347 29.60875592006147 610.8651562585189 -1765.2748342283892 0.0 0.0
2116.1471971535125 56.11608010926071 651.6789831788318 -1774.5452873490628 0.0 0.0
2217.6141154404 69.61411353229907 686.1684686918096 -1793.368940661247 0.0 0.0
2359.958199514015 -19.479948602871552 702.1434752733429 -1807.5766867886302 0.0 0.0
2607.852154996877 -416.5360256848063 657.3948387936215 -1707.0830506873938 0.0 0.0
2866.8456083500987 -1308.2160797578906 467.5888585776623 -1183.413259343086 0.0 0.0
2872.736882583683 -2114.4352457180826 227.49049105968004 -4.7492676458205096e-11 0.0 0.0
2866.845608350422 -1308.2160797571432 467.58885857798373 1183.4132593431482 0.0 0.0
2607.852154996752 -416.5360256851054 657.394838793494 1707.0830506873592 0.0 0.0
2359.958199513987 -19.479948602914178 702.143475273322 1807.576686788597 0.0 0.0
2217.614115440018 69.61411353157115 686.1684686914767 1793.3689406611422 0.0 0.0
2116.147197153774 56.11608010993376 651.6789831791125 1774.5452873490647 0.0 0.0
2006.6084316079366 29.608755918983803 610.8651562580762 1765.2748342285036 0.0 0.0
1879.841233963489 12.059900166358052 567.570340238954 1761.3943699740694 0.0 0.0
1741.8712888102862 3.3625646068501 523.5701560251409 1759.9060319322907 0.0 0.0
1599.0132715028951 -0.2695362646582886 479.6231205714711 1759.5048254314702 0.0 0.0
1454.7693905087156 -1.6263676402183762 435.9429068605491 1759.5610433056368 0.0 0.0
1310.3252304492407 -1.5722548459105816 392.6258926809992 1759.6767500969945 0.0 0.0
1164.6349738075025 1.4964712999726082 349.8394335322426 1759.2769584514315 0.0 0.0
1012.9874018092995 12.791421847286198 307.73364709697563 1757.068407613228 0.0 0.0
843.2272427779374 42.27745463744054 265.65140922461336 1750.5954955701427 0.0 0.0
629.8695053099549 104.12870640223828 220.19946351365795 1738.1525334476505 0.0 0.0
340.2319418946607 207.31325326513536 164.26355854793883 1733.3006794863668 0.0 0.0
-1.1993033387628032 292.88759258122974 87.50648677274009 1797.8876089338821 0.0 0.0
-202.78706811102984 3.2342063725707817 -59.86585852153772 1981.5827910714836 0.0 0.0
-202.59507818706388 -1663.036987248979 -559.689619630813 1803.7702524228007 0.0 0.0
-1041.499691183033 -5039.4794138940615 -1824.2937315231288 1223.2004426357541 0.0 0.0
-831.420021536352 -4072.8419580741165 -1471.278593883141 -1108.007142461232 0.0 0.0
-315.2445681215 -1586.8429679078076 -570.6262608087922 -1724.3466810041796 0.0 0.0
-417.1978359742049 -84.46644006754893 -150.4992828125262 -2021.1967943728855 0.0 0.0
-392.70413107310645 261.33113816781406 -39.4118978715877 -1884.0196800041308 0.0 0.0
-233.5543208132309 206.81997602761504 -8.020303435684713 -1798.568176564172 0.0 0.0
-99.59875873921966 107.16959215575122 2.2712500249594676 -1777.833209143595 0.0 0.0
-30.477710285553954 43.5917624349311 3.9342156448131576 -1776.360153951437 0.0 0.0
-4.279896766286882 13.178072817659013 2.6694528154116455 -1777.0829406364949 0.0 0.0
2.7509456063619098 1.5654801252858874 1.2949277194943463 -1777.4264187550084 0.0 0.0
3.333164346204228 -1.5974896242759336 0.5207024165785086 -1777.5120510007873 0.0 0.0
2.535433303773374 -1.6574947894626177 0.2633815542932183 -1777.5200193687951 0.0 0.0
1.5005366215127083 -0.27371007627055377 0.3680479635726712 -1777.505714703261 0.0 0.0
-0.9776219704167772 3.426300431549077 0.7346035383396838 -1777.4534191181651 0.0 0.0
-8.523212512167987 12.266908320935148 1.1231087426301087 -1777.3418634852276 0.0 0.0
-28.0174255235967 30.07283405719614 0.6166225600797617 -1777.436848688657 0.0 0.0
-67.38579212048987 57.72294373611751 -2.8988545153117258 -1780.046575209301 0.0 0.0
-119.10009529547989 76.0853375838982 -12.904427313474557 -1793.4662312089285 0.0 0.0
-123.49036563259796 -6.459066090074856 -38.984829516801796 -1820.9651347042634 0.0 0.0
22.174967376276754 -435.0982105654365 -123.876972956748 -1772.6113027333722 0.0 0.0
236.4754667074787 -1509.1896149871661 -381.81424448390624 -1289.3896832397297 0.0 0.0
173.686905517528 -2597.017952754689 -726.9993141711483 -2.8848035071860068e-11 0.0 0.0
236.47546670774443 -1509.1896149865909 -381.81424448365385 1289.389683239787 0.0 0.0
22.174967376275845 -435.09821056547264 -123.87697295675905 1772.611302733399 0.0 0.0
-123.49036563280282 -6.4590660905804995 -38.98482951701493 1820.9651347042097 0.0 0.0
-119.10009529543095 76.08533758403951 -12.904427313417386 1793.4662312088203 0.0 0.0
-67.38579212055501 57.72294373604076 -2.8988545153542873 1780.0465752094608 0.0 0.0
-28.017425523757566 30.072834056691526 0.6166225598801702 1777.4368486886995 0.0 0.0
-8.523212511954057 12.266908321369684 1.1231087428246695 1777.3418634850777 0.0 0.0
-0.9776219705068172 3.4263004313462346 0.7346035382517755 1777.4534191181954 0.0 0.0
1.5005366214056153 -0.27371007664971003 0.3680479634267968 1777.505714703284 0.0 0.0
2.535433303821293 -1.6574947892754004 0.2633815543637823 1777.5200193689404 0.0 0.0
3.3331643460416274 -1.5974896246789747 0.5207024164087954 1777.5120510007962 0.0 0.0
2.750945606352758 1.5654801251736536 1.2949277194579096 1777.4264187550955 0.0 0.0
-4.279896766382905 13.17807281749825 2.6694528153346013 1777.0829406364728 0.0 0.0
-30.47771028577381 43.59176243443032 3.93421564459695 1776.3601539514143 0.0 0.0
-99.59875873909468 107.16959215607017 2.2712500250926375 1777.8332091436112 0.0 0.0
-233.55432081305105 206.81997602796307 -8.020303435526397 1798.5681765641482 0.0 0.0
-392.7041310730449 261.3311381678871 -39.4118978715473 1884.019680004058 0.0 0.0
-417.1978359742931 -84.46644006784567 -150.49928281264167 2021.1967943728773 0.0 0.0
-315.2445681214214 -1586.8429679076398 -570.6262608087185 1724.3466810041575 0.0 0.0
-831.420021536447 -4072.841958074167 -1471.2785938831844 1108.0071424611629 0.0 0.0
-665.67063715177 -3223.359641999345 -1166.7090837453345 -997.561620414406 0.0 0.0
-410.3678358290115 -1460.6177268630872 -561.2956688076296 -1623.8560092814917 0.0 0.0
-617.9222310251895 -143.71408793602404 -228.4908956883641 -2006.7879411963381 0.0 0.0
-764.7057448349506 225.00017955976125 -161.91166958255678 -1919.401531371757 0.0 0.0
-789.8304216944857 197.36568846818216 -177.73941996789122 -1823.5970471493386 0.0 0.0
-819.7253769387825 105.52850061883436 -214.25906289598436 -1781.0481077094669 0.0 0.0
-900.8748598122612 43.113304670257506 -257.3284665426012 -1765.9903618225442 0.0 0.0
-1020.8342465660803 12.983667106320148 -302.3551738379279 -1760.8470847153026 0.0 0.0
-1159.2072731534126 1.5351295393264905 -347.30164308422576 -1759.2813272776261 0.0 0.0
-1303.8808991620988 -1.5722133554225834 -391.63593375525636 -1759.0403994378019 0.0 0.0
-1449.8854593249775 -1.6290182634927817 -435.4543432765412 -1759.1701665478888 0.0 0.0
-1596.094373499401 -0.27661827655324345 -478.91129753278625 -1759.200320088628 0.0 0.0
-1743.648869844941 3.3319773856779022 -522.095067737779 -1758.7007068798787 0.0 0.0
-1895.9933710595697 11.971738351344644 -565.2064898124675 -1757.002327038504 0.0 0.0
-2060.00186868151 29.322344549830948 -609.2038572395038 -1753.310946919961 0.0 0.0
-2245.4213051963225 56.77635874423029 -656.593483935628 -1748.7650609867017 0.0 0.0
-2449.070786413462 79.88092956033354 -710.7569570559383 -1754.5876447368305 0.0 0.0
-2605.1824766559785 12.734053515972647 -777.7345269420018 -1794.1459969764364 0.0 0.0
-2567.251041322367 -425.79501723741123 -897.9138175679336 -1812.1890364138671 0.0 0.0
-2393.479311817048 -1693.4026411038408 -1226.0645858762664 -1402.2521015110804 0.0 0.0
-2553.9217858645934 -3166.9646419127557 -1716.2659283332055 -7.787548383930698e-12 0.0 0.0
-2393.4793118164616 -1693.4026411024252 -1226.0645858756657 1402.2521015111379 0.0 0.0
-2567.251041322308 -425.79501723731573 -897.9138175678872 1812.189036413874 0.0 0.0
-2605.182476656186 12.73405351534565 -777.7345269422524 1794.1459969763816 0.0 0.0
-2449.0707864130804 79.88092956108036 -710.7569570556002 1754.5876447368134 0.0 0.0
-2245.421305196686 56.77635874330129 -656.5934839360152 1748.7650609867856 0.0 0.0
-2060.0018686816074 29.322344549620063 -609.2038572395965 1753.310946920107 0.0 0.0
-1895.993371059224 11.971738352160344 -565.2064898121193 1757.0023270385068 0.0 0.0
-1743.6488698455166 3.3319773844085674 -522.0950677383323 1758.7007068798498 0.0 0.0
-1596.0943734989817 -0.27661827558646834 -478.91129753237044 1759.2003200887611 0.0 0.0
-1449.8854593249412 -1.629018263412906 -435.45434327650617 1759.1701665479957 0.0 0.0
-1303.8808991624846 -1.5722133562700513 -391.6359337556264 1759.040399437949 0.0 0.0
-1159.2072731533044 1.535129539637932 -347.30164308409985 1759.2813272776098 0.0 0.0
-1020.8342465661729 12.983667106271259 -302.3551738379705 1760.8470847152537 0.0 0.0
-900.8748598124199 43.11330466991388 -257.32846654275187 1765.9903618225437 0.0 0.0
-819.7253769385868 105.52850061914496 -214.25906289583259 1781.0481077095287 0.0 0.0
-789.8304216946336 197.36568846783084 -177.73941996804086 1823.5970471493197 0.0 0.0
-764.7057448348414 225.00017956006738 -161.91166958243215 1919.4015313718255 0.0 0.0
-617.9222310253141 -143.7140879362909 -228.49089568848152 2006.7879411963227 0.0 0.0
-410.36783582906367 -1460.6177268631225 -561.2956688076559 1623.8560092815114 0.0 0.0
-665.6706371517967 -3223.3596419993705 -1166.7090837453502 997.5616204143776 0.0 0.0
-537.4303817865404 -2479.9774283162706 -905.2223430308434 -888.9292458324044 0.0 0.0
-494.86172071421606 -1303.3894994766915 -539.4753660572721 -1504.1958976202113 0.0 0.0
-809.3121234216087 -176.01837392171353 -295.59914920299667 -1943.8051690519505 0.0 0.0
-1122.3447776656647 188.12076014769187 -280.2672052553919 -1903.9666331872825 0.0 0.0
-1331.8015308317724 180.69686237916565 -345.3314005357822 -1805.5968355474088 0.0 0.0
-1531.4634198012586 99.36344555566632 -429.6299922736778 -1745.8590815375437 0.0 0.0
-1768.0768275376001 40.81939526062349 -518.1772296830928 -1718.7069639100796 0.0 0.0
-2036.6820831904338 12.226746324885752 -607.3366010596643 -1708.1285330005055 0.0 0.0
-2321.246882041987 1.4128309049198648 -695.9502153411203 -1704.802710690696 0.0 0.0
-2611.316779720134 -1.4975116151017076 -783.8442874005708 -1704.2749619528693 0.0 0.0
-2902.491776474736 -1.542443165875028 -871.2102658921838 -1704.528005092091 0.0 0.0
-3193.7760541963225 -0.2754068044632234 -958.2154383002356 -1704.6112326450414 0.0 0.0
-3486.1644124103486 3.088079255175913 -1044.9228999465518 -1703.7206801734424 0.0 0.0
-3782.6487612333235 11.19612731042239 -1131.4357901768703 -1700.583034361899 0.0 0.0
-4089.4166695788153 27.48501450844579 -1218.579496521111 -1693.4221082313356 0.0 0.0
-4417.436667052694 53.28714820579481 -1309.2448556540696 -1681.859290965364 0.0 0.0
-4770.737058901288 79.62411592608484 -1407.3338828925614 -1677.7540328397506 0.0 0.0
-5085.050174744483 36.22107915723037 -1514.6487286761762 -1724.549757891039 0.0 0.0
-5165.211036310076 -381.24603257235617 -1663.9371206647297 -1819.9364743852043 0.0 0.0
-5027.532136391646 -1842.6473632510194 -2061.0538498928 -1524.3235536601233 0.0 0.0
-5331.741755537981 -3851.132204538762 -2754.862188023024 3.780087354243733e-11 0.0 0.0
-5027.532136391628 -1842.647363250976 -2061.0538498927804 1524.3235536600935 0.0 0.0
-5165.211036310398 -381.24603257299174 -1663.9371206650171 1819.9364743852466 0.0 0.0
-5085.050174744505 36.22107915723075 -1514.648728676182 1724.549757891026 0.0 0.0
-4770.7370589012835 79.6241159260563 -1407.3338828925687 1677.7540328396512 0.0 0.0
-4417.436667052874 53.28714820541478 -1309.2448556542379 1681.8592909653262 0.0 0.0
-4089.416669579059 27.485014507790098 -1218.5794965213809 1693.4221082314027 0.0 0.0
-3782.6487612329024 11.196127311314857 -1131.435790176476 1700.5830343619186 0.0 0.0
-3486.164412410437 3.0880792550533904 -1044.9228999466152 1703.7206801732805 0.0 0.0
-3193.776054196308 -0.2754068044882487 -958.215438300239 1704.611232645139 0.0 0.0
-2902.491776474847 -1.542443166199341 -871.2102658923137 1704.528005092187 0.0 0.0
-2611.316779720266 -1.4975116154067827 -783.8442874007018 1704.2749619530166 0.0 0.0
-2321.2468820419394 1.4128309051202308 -695.9502153410459 1704.8027106907189 0.0 0.0
-2036.6820831904145 12.226746324978537 -607.336601059631 1708.1285330005053 0.0 0.0
-1768.0768275376035 40.81939526057073 -518.1772296831099 1718.706963910091 0.0 0.0
-1531.4634198013105 99.36344555558296 -429.62999227371824 1745.8590815375248 0.0 0.0
-1331.801530831697 180.69686237937043 -345.33140053569804 1805.5968355473656 0.0 0.0
-1122.3447776657335 188.12076014754004 -280.267205255458 1903.9666331873318 0.0 0.0
-809.312123421671 -176.01837392180713 -295.59914920304345 1943.805169051921 0.0 0.0
-494.86172071417985 -1303.3894994765685 -539.4753660572246 1504.1958976202482 0.0 0.0
-537.4303817865772 -2479.977428316269 -905.2223430308542 888.9292458325122 0.0 0.0
-441.38581760806187 -1836.5983874225897 -683.3952615091954 -779.3843622340239 0.0 0.0
-572.2441074573068 -1129.2176913488427 -510.438539641845 -1366.3492211787582 0.0 0.0
-993.8544807425294 -184.671662449007 -353.5578429574608 -1836.6942281545969 0.0 0.0
-1469.3297945970203 153.2558642528975 -394.82217910323686 -1838.3418207977609 0.0 0.0
-1862.5307564504335 158.68779840251443 -511.15288741437587 -1742.5576920404912 0.0 0.0
-2236.2727227363803 89.29354048361995 -644.0937546758278 -1670.5825445928806 0.0 0.0
-2632.5772854522615 36.885088085798735 -778.707659209939 -1633.7721492128146 0.0 0.0
-3051.9732077738836 10.979152806967083 -912.2982164900749 -1618.712106176691 0.0 0.0
-3483.4091311300285 1.2205495093961538 -1044.6565744861898 -1613.9606728091699 0.0 0.0
-3918.9755751413763 -1.3746905355373684 -1176.105079703074 -1613.230822767263 0.0 0.0
-4355.2774568539735 -1.402925251282305 -1307.004114631577 -1613.6093551473512 0.0 0.0
-4791.555752034619 -0.2659967182592169 -1437.5465246258639 -1613.7564425654803 0.0 0.0
-5228.575486808554 2.7243749521798577 -1567.7553335569125 -1612.5761432789764 0.0 0.0
-5668.657309019469 9.988477497826317 -1697.6006494564926 -1608.2755976053859 0.0 0.0
-6116.616450468528 24.77279451869918 -1827.5530967849486 -1598.228684285809 0.0 0.0
-6583.2444791504695 47.70229112893451 -1960.6626564064607 -1580.5722175799015 0.0 0.0
-7081.929653001149 73.98026294540736 -2102.3848170167234 -1564.8452342442606 0.0 0.0
-7561.302389897652 59.62016636424147 -2250.5046670600227 -1609.8356397061416 0.0 0.0
-7776.032567965615 -295.61687324535546 -2421.4948323632907 -1786.4797167957763 0.0 0.0
-7668.467946013292 -1929.636772169556 -2879.431415454856 -1656.4503429658798 0.0 0.0
-8188.965329740459 -4687.66435137697 -3862.9889043352296 -5.786660040030256e-11 0.0 0.0
-7668.467946013563 -1929.6367721704185 -2879.431415455195 1656.4503429657782 0.0 0.0
-7776.032567965662 -295.61687324562735 -2421.494832363387 1786.4797167958848 0.0 0.0
-7561.30238989767 59.62016636411562 -2250.504667060066 1609.835639706254 0.0 0.0
-7081.929653001383 73.98026294475129 -2102.3848170169895 1564.8452342442317 0.0 0.0
-6583.244479150147 47.70229112963379 -1960.662656406154 1580.57221757985 0.0 0.0
-6116.616450469035 24.77279451742859 -1827.5530967854818 1598.228684285973 0.0 0.0
-5668.657309019181 9.988477498584999 -1697.6006494561784 1608.275597605435 0.0 0.0
-5228.575486808262 2.724374953007313 -1567.7553335565772 1612.576143278951 0.0 0.0
-4791.555752035028 -0.26599671927946744 -1437.5465246262918 1613.756442565309 0.0 0.0
-4355.277456853792 -1.402925250850803 -1307.0041146313927 1613.6093551472718 0.0 0.0
-3918.9755751412313 -1.3746905349354819 -1176.1050797028502 1613.2308227674248 0.0 0.0
-3483.4091311303155 1.220549508926089 -1044.656574486417 1613.9606728091912 0.0 0.0
-3051.973207773996 10.979152806654948 -912.2982164902025 1618.7121061766316 0.0 0.0
-2632.5772854523975 36.88508808537616 -778.7076592101065 1633.7721492127694 0.0 0.0
-2236.2727227364776 89.2935404834657 -644.0937546759037 1670.5825445929104 0.0 0.0
-1862.5307564501636 158.68779840321028 -511.15288741408597 1742.5576920405076 0.0 0.0
-1469.3297945970496 153.2558642527359 -394.822179103294 1838.3418207978011 0.0 0.0
-993.8544807425686 -184.67166244910524 -353.5578429575022 1836.6942281545212 0.0 0.0
-572.2441074572598 -1129.21769134872 -510.438539641794 1366.3492211787423 0.0 0.0
-441.3858176080466 -1836.5983874225965 -683.3952615091929 779.3843622340715 0.0 0.0
-373.39263812236965 -1291.159940484993 -499.3657735822088 -666.8273985840125 0.0 0.0
-643.3817857700191 -948.3577109177929 -477.5218490063436 -1210.927042439942 0.0 0.0
-1172.3757470702044 -174.0170407248974 -403.9178363385306 -1688.8577154700718 0.0 0.0
-1808.121866435602 121.57914976945544 -505.962814999844 -1723.1991753012915 0.0 0.0
-2384.8669556899804 133.18000869955472 -675.5060840971279 -1632.9936409139145 0.0 0.0
-2935.9887015264044 76.29367930875883 -857.9085066652937 -1553.8630708745195 0.0 0.0
-3495.1968456800773 31.673829320573383 -1039.0569049078515 -1510.570795277521 0.0 0.0
-4066.991390494395 9.365884441021745 -1217.287651816012 -1492.4296540192202 0.0 0.0
-4645.765822584915 0.9904120396213756 -1393.4326231635885 -1486.744100010929 0.0 0.0
-5226.857221988627 -1.2069102753231036 -1568.4192396791852 -1485.927288182218 0.0 0.0
-5808.229920523584 -1.218743762235576 -1742.8345992857462 -1486.428332881105 0.0 0.0
-6389.449436725983 -0.2469898853274799 -1916.9089279833936 -1486.6471332408719 0.0 0.0
-6970.96244036867 2.2918788846400275 -2090.6011684452096 -1485.307157907352 0.0 0.0
-7554.243673784151 8.435707387598228 -2263.742389918965 -1480.248216827901 0.0 0.0
-8142.243565922721 21.380807155187423 -2436.2588276302604 -1468.0949311714728 0.0 0.0
-8743.282155962335 40.988198131078796 -2610.6881873493776 -1446.0077786081627 0.0 0.0
-9380.004866834839 62.41998470713453 -2795.275464638312 -1418.890658199354 0.0 0.0
-10029.51770701184 75.3381207564662 -2986.2538758766127 -1449.3104919914863 0.0 0.0
-10403.13672874307 -167.5334208386748 -3171.201044874524 -1698.0024081227746 0.0 0.0
-10316.197596881788 -1913.1947208153163 -3668.817695309131 -1795.9253530733797 0.0 0.0
-11166.542126409366 -5729.874123821999 -5068.924875069408 -3.467448550509289e-12 0.0 0.0
-10316.197596881802 -1913.194720815469 -3668.8176953091815 1795.9253530733633 0.0 0.0
-10403.13672874293 -167.53342083835332 -3171.2010448743868 1698.002408122664 0.0 0.0
-10029.51770701178 75.3381207567458 -2986.2538758765104 1449.3104919915281 0.0 0.0
-9380.004866835256 62.41998470628468 -2795.275464638692 1418.8906581993851 0.0 0.0
-8743.282155961788 40.988198132257686 -2610.688187348859 1446.0077786081295 0.0 0.0
-8142.243565922836 21.3808071549473 -2436.2588276303673 1468.0949311716413 0.0 0.0
-7554.2436737841845 8.4357073876186 -2263.74238991897 1480.2482168279405 0.0 0.0
-6970.96244036885 2.291878884270421 -2090.6011684453742 1485.307157907275 0.0 0.0
-6389.4494367261805 -0.24698988584759718 -1916.9089279836082 1486.6471332408291 0.0 0.0
-5808.229920523386 -1.2187437619886374 -1742.8345992856123 1486.428332881016 0.0 0.0
-5226.857221988167 -1.2069102742351614 -1568.4192396787207 1485.9272881822972 0.0 0.0
-4645.76582258501 0.9904120394495806 -1393.4326231636685 1486.7441000109084 0.0 0.0
-4066.99139049439 9.365884441019475 -1217.2876518160112 1492.4296540192368 0.0 0.0
-3495.196845680199 31.67382932022521 -1039.0569049079925 1510.5707952774837 0.0 0.0
-2935.9887015263225 76.293679308993 -857.9085066651987 1553.8630708745302 0.0 0.0
-2384.866955689918 133.18000869973142 -675.5060840970558 1632.9936409138909 0.0 0.0
-1808.1218664357052 121.57914976916726 -505.9628149999615 1723.1991753014179 0.0 0.0
-1172.3757470701523 -174.0170407248462 -403.9178363384997 1688.8577154700465 0.0 0.0
-643.3817857699555 -948.3577109178207 -477.5218490063329 1210.9270424400238 0.0 0.0
-373.3926381222757 -1291.1599404849135 -499.36577358215686 666.827398583989 0.0 0.0
-329.8405923621085 -844.6023134759738 -352.3328717514247 -550.2165153181079 0.0 0.0
-706.7440860532732 -768.2637229292538 -442.50234269475817 -1038.6209571237387 0.0 0.0
-1344.06723010625 -149.18449087829518 -447.9755162953638 -1502.5788432259365 0.0 0.0
-2140.110792380027 93.22994696525103 -614.0642536244327 -1558.7347779511972 0.0 0.0
-2901.502972563386 105.99408807761705 -838.6526653457306 -1475.7237760399958 0.0 0.0
-3632.757011731781 61.60509420814638 -1071.3455752570906 -1394.7169771927902 0.0 0.0
-4357.0205162388 25.701111299953247 -1299.3958214816546 -1348.6780029077206 0.0 0.0
-5082.129122433294 7.55662406960748 -1522.3717495091057 -1329.1894978541259 0.0 0.0
-5808.410387197215 0.7593177620941205 -1742.295320830536 -1323.1690134285 0.0 0.0
-6534.956709993628 -1.00210787330888 -1960.7876453600811 -1322.3896133182893 0.0 0.0
-7261.328176688583 -1.0007158114386598 -2178.6986677500063 -1322.9955049335356 0.0 0.0
-7987.471022170956 -0.22119309022735933 -2396.3076645783553 -1323.2875249700826 0.0 0.0
-8713.440121242755 1.8451314683565556 -2613.4784969323205 -1321.9209690504424 0.0 0.0
-9439.65708409672 6.712843200400002 -2829.8832722688962 -1316.6185112773758 0.0 0.0
-10167.136031060236 17.373965459546312 -3044.928619680207 -1303.3422485685053 0.0 0.0
-10899.011248978506 34.40451744629998 -3259.3820194596615 -1278.793397815121 0.0 0.0
-11662.402815513899 46.640335455084276 -3484.7287440176437 -1243.8792640166387 0.0 0.0
-12481.361717938158 72.59439280599192 -3722.6301975396495 -1246.5647746907696 0.0 0.0
-13048.132165805106 -5.959595963968795 -3916.227528530723 -1535.8517457573444 0.0 0.0
-12965.813380759964 -1731.4112044700323 -4409.167375568999 -1931.771378441186 0.0 0.0
-14323.784518888262 -7050.4493119534245 -6412.270149252507 -3.581135388230905e-12 0.0 0.0
-12965.813380760052 -1731.4112044703504 -4409.167375569121 1931.771378441145 0.0 0.0
-13048.13216580488 -5.959595963539719 -3916.227528530525 1535.8517457573416 0.0 0.0
-12481.361717938074 72.59439280614268 -3722.63019753958 1246.5647746908783 0.0 0.0
-11662.402815513924 46.64033545493949 -3484.7287440176956 1243.8792640167308 0.0 0.0
-10899.01124897836 34.40451744649632 -3259.38201945956 1278.7933978151896 0.0 0.0
-10167.136031060158 17.373965459716484 -3044.928619680133 1303.3422485685464 0.0 0.0
-9439.657084097173 6.712843199397174 -2829.8832722693323 1316.6185112773535 0.0 0.0
-8713.440121242988 1.8451314677701909 -2613.478496932565 1321.9209690503938 0.0 0.0
-7987.471022171019 -0.2211930904143582 -2396.307664578431 1323.2875249701578 0.0 0.0
-7261.3281766889195 -1.00071581234954 -2178.6986677503814 1322.9955049335445 0.0 0.0
-6534.956709993419 -1.0021078729189927 -1960.787645359902 1322.3896133183116 0.0 0.0
-5808.410387197103 0.7593177623527305 -1742.2953208304255 1323.1690134284352 0.0 0.0
-5082.129122433324 7.556624069455734 -1522.371749509161 1329.189497854215 0.0 0.0
-4357.020516238642 25.70111130034575 -1299.3958214814886 1348.6780029077051 0.0 0.0
-3632.7570117317846 61.60509420813331 -1071.3455752570958 1394.7169771928436 0.0 0.0
-2901.502972563255 105.99408807782424 -838.6526653456293 1475.7237760399291 0.0 0.0
-2140.110792380241 93.22994696479391 -614.064253624634 1558.734777951222 0.0 0.0
-1344.0672301061463 -149.1844908780762 -447.97551629526697 1502.5788432259808 0.0 0.0
-706.7440860532716 -768.2637229293464 -442.5023426947854 1038.6209571237403 0.0 0.0
-329.8405923620907 -844.6023134759204 -352.33287175140333 550.2165153180891 0.0 0.0
-306.61595648371997 -499.57867428781753 -241.85838923146122 -430.23830031621685 0.0 0.0
-758.2444566154285 -594.6084790772256 -405.8558807077962 -850.6192466364249 0.0 0.0
-1506.3344390425402 -116.17501188077557 -486.75283527699463 -1278.7362745611847 0.0 0.0
-2465.8085358282524 67.77646501086525 -719.4096212452164 -1344.2072353592641 0.0 0.0
-3415.151478747869 79.06674834995685 -1000.8254191193737 -1269.7448844241264 0.0 0.0
-4329.018177766409 46.65356057746607 -1284.709385156683 -1192.5708134433673 0.0 0.0
-5219.328502612494 19.582633738317003 -1559.923760662253 -1147.910651717186 0.0 0.0
-6097.850410432713 5.748888547645066 -1827.6304565655205 -1129.001999242742 0.0 0.0
-6971.44396344203 0.5614654272053698 -2091.2647494044472 -1123.2845302328196 0.0 0.0
-7843.258029599209 -0.7752262164947794 -2353.2099767447107 -1122.6497227525626 0.0 0.0
-8714.543368937684 -0.7660240617998682 -2614.5928178998456 -1123.3167964818665 0.0 0.0
-9585.620157679565 -0.18403795613791374 -2875.7412586907108 -1123.6701295755674 0.0 0.0
-10456.156594524915 1.397226924687324 -3136.4278102800695 -1122.4046466862114 0.0 0.0
-11325.191739545124 5.128771027806508 -3396.0188905551972 -1117.374757617452 0.0 0.0
-12192.060028055348 12.78747954715395 -3653.7817645524588 -1104.3638451721279 0.0 0.0
-13053.286557205563 28.52283738139875 -3907.4291159472496 -1078.9550239011332 0.0 0.0
-13928.108262868753 32.511980863712914 -4168.6788846015115 -1043.1858398312652 0.0 0.0
-14902.84286197057 40.20807612209782 -4458.790435754541 -1013.6531658512833 0.0 0.0
-15708.954307724995 158.21190487385613 -4665.222720855343 -1279.1019179054124 0.0 0.0
-15604.383235493107 -1292.8323293194128 -5069.164669443758 -2033.776666467306 0.0 0.0
-17748.850560875195 -8743.61461274815 -7947.739552087003 8.913048077374697e-11 0.0 0.0
-15604.383235493007 -1292.8323293192714 -5069.164669443684 2033.7766664673031 0.0 0.0
-15708.954307724749 158.2119048743 -4665.222720855135 1279.1019179053014 0.0 0.0
-14902.84286197112 40.20807612086954 -4458.790435755075 1013.6531658511755 0.0 0.0
-13928.108262868263 32.51198086489614 -4168.678884601011 1043.1858398314066 0.0 0.0
-13053.286557205673 28.52283738113642 -3907.4291159473623 1078.955023901165 0.0 0.0
-12192.060028055133 12.787479547838766 -3653.7817645521877 1104.3638451721447 0.0 0.0
-11325.191739545773 5.128771026281131 -3396.0188905558475 1117.374757617399 0.0 0.0
-10456.156594524751 1.397226925006386 -3136.4278102799226 1122.4046466861382 0.0 0.0
-9585.620157679556 -0.18403795606027806 -2875.7412586906853 1123.6701295755647 0.0 0.0
-8714.543368937693 -0.766024061874452 -2614.5928178998706 1123.3167964818815 0.0 0.0
-7843.258029599062 -0.7752262161725278 -2353.2099767445707 1122.6497227525583 0.0 0.0
-6971.443963442047 0.5614654272310831 -2091.2647494044445 1123.2845302328267 0.0 0.0
-6097.850410432659 5.748888547745745 -1827.630456565474 1129.0019992428083 0.0 0.0
-5219.328502612591 19.582633737931015 -1559.9237606623976 1147.9106517171201 0.0 0.0
-4329.018177766242 46.65356057784898 -1284.7093851565178 1192.5708134434392 0.0 0.0
-3415.1514787478613 79.0667483500567 -1000.8254191193414 1269.7448844239937 0.0 0.0
-2465.8085358282483 67.7764650107606 -719.4096212452461 1344.2072353593326 0.0 0.0
-1506.3344390425127 -116.17501188074515 -486.75283527697746 1278.7362745611636 0.0 0.0
-758.2444566154335 -594.6084790771996 -405.85588070778994 850.6192466364804 0.0 0.0
-306.6159564837007 -499.5786742878505 -241.85838923146542 430.23830031626574 0.0 0.0
-297.3348026358401 -258.57543746071576 -166.7730720289668 -310.5358660476527 0.0 0.0
-790.6602939187154 -432.65997348953636 -366.9960802224755 -649.0057624744016 0.0 0.0
-1654.4596524203741 -82.17445040913506 -520.9902308488525 -1016.0696108599033 0.0 0.0
-2785.1235047176992 44.90968809252191 -822.0641449875533 -1077.5406894943799 0.0 0.0
-3928.845389257325 54.643224613452155 -1162.2606493931619 -1014.2468660091961 0.0 0.0
-5027.513599466331 32.954229765129206 -1498.3678109103607 -947.299998901129 0.0 0.0
-6083.517548246243 13.980004100902626 -1820.8612632436025 -908.3663798949217 0.0 0.0
-7114.645880338439 4.14297151976816 -2133.1508726456013 -891.9979223512726 0.0 0.0
-8134.957422917629 0.4175839714802905 -2440.3619516838453 -887.1759983218351 0.0 0.0
-9151.726229602067 -0.5465819083372594 -2745.6818434531215 -886.7433545522014 0.0 0.0
-10167.83832451821 -0.5482431033988533 -3050.515970286482 -887.3987017229957 0.0 0.0
-11183.88361082341 -0.1116094572382309 -3355.1985660841956 -887.7582523538478 0.0 0.0
-12199.23061540281 0.926722772994431 -3659.491167788946 -886.7563670050112 0.0 0.0
-13211.351560992409 3.910441999761062 -3962.232335697794 -882.338502124154 0.0 0.0
-14217.296863297322 8.448293732459675 -4262.654570869459 -871.4090963778017 0.0 0.0
-15210.101851384517 21.27983713435833 -4556.646604275047 -847.0264717629492 0.0 0.0
-16181.03430504439 30.4717672766369 -4845.168761330327 -815.4743928416498 0.0 0.0
-17272.147389889724 -22.05781810305153 -5188.261562397834 -774.7618458641493 0.0 0.0
-18375.905487508735 249.77631894903772 -5437.838750567913 -918.5974527037715 0.0 0.0
-18205.909296389724 -468.63002112585417 -5602.361795254672 -2025.6403993288907 0.0 0.0
-21575.44081114741 -10916.83893474094 -9747.683923766504 4.672529030358419e-11 0.0 0.0
-18205.90929638994 -468.6300211264945 -5602.361795254931 2025.640399328842 0.0 0.0
-18375.90548750886 249.77631894886593 -5437.838750567998 918.5974527037056 0.0 0.0
-17272.147389889964 -22.057818103784264 -5188.261562398125 774.7618458642062 0.0 0.0
-16181.034305044308 30.471767276651477 -4845.1687613302975 815.474392841787 0.0 0.0
-15210.101851384774 21.27983713377703 -4556.646604275299 847.0264717628094 0.0 0.0
-14217.296863297044 8.448293733146679 -4262.65457086917 871.4090963777828 0.0 0.0
-13211.351560992536 3.910441999384595 -3962.232335697946 882.3385021242339 0.0 0.0
-12199.2306154026 0.9267227734539922 -3659.4911677887458 886.756367004998 0.0 0.0
-11183.88361082319 -0.11160945663635857 -3355.1985660839478 887.7582523538586 0.0 0.0
-10167.838324517757 -0.5482431024683523 -3050.5159702860674 887.3987017231013 0.0 0.0
-9151.726229601934 -0.5465819081501881 -2745.681843453026 886.7433545521955 0.0 0.0
-8134.9574229176205 0.41758397147327087 -2440.361951683844 887.1759983217999 0.0 0.0
-7114.645880338439 4.1429715197888255 -2133.1508726455954 891.9979223512876 0.0 0.0
-6083.517548246582 13.980004100146123 -1820.8612632439313 908.3663798949624 0.0 0.0
-5027.51359946606 32.95422976577065 -1498.3678109100877 947.2999989011553 0.0 0.0
-3928.8453892572516 54.64322461362657 -1162.260649393087 1014.246866009039 0.0 0.0
-2785.123504717635 44.90968809267413 -822.0641449874882 1077.540689494492 0.0 0.0
-1654.4596524202402 -82.17445040899509 -520.9902308487707 1016.0696108598851 0.0 0.0
-790.6602939186562 -432.6599734895284 -366.99608022245525 649.005762474469 0.0 0.0
-297.33480263591315 -258.57543746075265 -166.77307202899974 310.5358660476223 0.0 0.0
-290.1313555347728 -120.80960801309311 -123.2822890643598 -200.07939381810866 0.0 0.0
-792.5457105973769 -289.6795565368418 -324.6675801402656 -437.08628687979564 0.0 0.0
-1781.0549995295792 -55.86378349562741 -551.075634907562 -709.5472351993064 0.0 0.0
-3097.8397708227835 25.60661750073994 -921.6699459966136 -755.1948221859444 0.0 0.0
-4446.37975777119 35.3590499514772 -1323.3062123459135 -708.782122949709 0.0 0.0
-5731.260747643479 22.008272535815777 -1712.775742532299 -659.2564477081638 0.0 0.0
-6951.01465185881 9.55362605069817 -2082.4383077424336 -630.4608636839181 0.0 0.0
-8132.984601740347 2.9039655602446217 -2439.0241908540315 -618.4341821337649 0.0 0.0
-9299.00589855494 0.329351482464574 -2789.6029641217433 -614.9632610510532 0.0 0.0
-10460.309533988067 -0.3541763153288855 -3138.19911309102 -614.7107267304516 0.0 0.0
-11621.139956872037 -0.36280625035102076 -3486.4508289367177 -615.2346661596565 0.0 0.0
-12782.300775296748 -0.07634908314778954 -3834.7131373139705 -615.533613658004 0.0 0.0
-13942.58154429418 0.7015667077246661 -4182.563993275936 -614.8204883952677 0.0 0.0
-15099.025905143306 2.392903743006052 -4528.989900420087 -611.6768314018751 0.0 0.0
-16242.909767354693 7.196105066469727 -4870.71409868647 -603.1522990569649 0.0 0.0
-17371.600985009383 8.431688600135558 -5208.950788922775 -586.9039983482803 0.0 0.0
-18437.64141031167 44.12916471241877 -5518.053673679774 -551.7502403965536 0.0 0.0
-19557.607510667545 -67.55330917836058 -5887.548245953774 -553.4562069263933 0.0 0.0
-21022.643416896044 108.05327494921079 -6274.37704258405 -513.3478606292983 0.0 0.0
-20724.456951691478 899.1038220109683 -5947.605938904151 -1713.9239867929132 0.0 0.0
-26008.73526940732 -13643.217441458564 -11895.585813259764 3.115019353572279e-11 0.0 0.0
-20724.456951691114 899.103822011686 -5947.605938903829 1713.9239867929189 0.0 0.0
-21022.64341689616 108.05327494901704 -6274.377042584141 513.3478606292916 0.0 0.0
-19557.60751066711 -67.55330917716597 -5887.548245953282 553.456206926425 0.0 0.0
-18437.641410312193 44.12916471112253 -5518.053673680322 551.7502403965638 0.0 0.0
-17371.600985009187 8.431688600675344 -5208.9507889225515 586.9039983482392 0.0 0.0
-16242.90976735442 7.196105067115762 -4870.714098686191 603.15229905702 0.0 0.0
-15099.02590514333 2.3929037428755837 -4528.989900420135 611.6768314019354 0.0 0.0
-13942.58154429435 0.7015667074391931 -4182.563993276072 614.8204883952976 0.0 0.0
-12782.300775296353 -0.07634908223003478 -3834.7131373135758 615.5336136580036 0.0 0.0
-11621.139956871582 -0.36280624932113037 -3486.450828936271 615.2346661595672 0.0 0.0
-10460.309533988284 -0.3541763158528466 -3138.1991130912415 614.7107267304541 0.0 0.0
-9299.0058985547 0.3293514830477733 -2789.6029641214955 614.9632610510594 0.0 0.0
-8132.984601740423 2.9039655601237664 -2439.0241908540893 618.4341821337005 0.0 0.0
-6951.014651858865 9.553626050501071 -2082.4383077425096 630.4608636839555 0.0 0.0
-5731.260747643599 22.008272535548574 -1712.7757425324148 659.2564477081353 0.0 0.0
-4446.379757771066 35.35904995177519 -1323.3062123457876 708.7821229496082 0.0 0.0
-3097.8397708226094 25.60661750100043 -921.6699459964827 755.1948221860088 0.0 0.0
-1781.054999529529 -55.86378349559031 -551.0756349075357 709.5472351993029 0.0 0.0
-792.545710597348 -289.6795565368837 -324.66758014026965 437.08628687973817 0.0 0.0
-290.1313555346434 -120.8096080130187 -123.28228906429862 200.07939381807287 0.0 0.0
-261.4649812539547 -76.63716446801403 -101.43064371659064 -117.84497555696726 0.0 0.0
-746.4604208981673 -179.76042716827502 -277.8662544199327 -219.45848993987374 0.0 0.0
-1875.2727458918312 -47.055492565119145 -576.6984715370852 -346.81428350127146 0.0 0.0
-3404.537491075674 14.136603244896865 -1017.1202663492332 -373.154311168197 0.0 0.0
-4972.901515777443 23.759054737261117 -1484.7427383120541 -353.27741025534294 0.0 0.0
-6443.394258706417 15.373736689062977 -1928.406156605206 -329.3833390808489 0.0 0.0
-7823.221073632734 6.854842347239021 -2344.90986938565 -314.93584199108295 0.0 0.0
-9153.24698477461 2.13621137714145 -2745.3332320192403 -308.69150382985987 0.0 0.0
-10463.5911018099 0.26545192833130216 -3138.99769496447 -306.79439025820045 0.0 0.0
-11768.92018634448 -0.24320330221927122 -3530.7490168940103 -306.58982768332373 0.0 0.0
-13074.388554621026 -0.25558472297942103 -3922.393241803202 -306.8167358898412 0.0 0.0
-14380.770636099785 -0.04906498026843309 -4314.245910324015 -306.9419519032088 0.0 0.0
-15686.574698064343 0.49650929835571134 -4705.823456629797 -306.5303439064277 0.0 0.0
-16987.357153077683 1.8214261998781183 -5095.660718063342 -304.91848248621136 0.0 0.0
-18274.52506213664 4.496244780523028 -5481.008645206836 -300.45607693134923 0.0 0.0
-19525.00003065344 10.666896770742738 -5854.29994016481 -292.3948066973886 0.0 0.0
-20744.45855280217 6.092890303283802 -6221.509698749667 -277.52308211774476 0.0 0.0
-21718.432185360412 100.60515448838817 -6485.348109261612 -257.9901050328497 0.0 0.0
-23583.066808860123 -576.8077626905712 -7247.962371465208 -406.8891178837813 0.0 0.0
-23090.2670137605 2907.2287140674675 -6054.911489907908 -580.730291455229 0.0 0.0
-31360.773238991704 -16771.976408107865 -14439.82489412987 1.5006662579253316e-11 0.0 0.0
-23090.267013760193 2907.2287140680014 -6054.911489907658 580.7302914552611 0.0 0.0
-23583.066808859687 -576.8077626894807 -7247.962371464752 406.88911788376925 0.0 0.0
-21718.43218536036 100.6051544886597 -6485.348109261509 257.99010503291083 0.0 0.0
-20744.45855280256 6.092890302318445 -6221.509698750073 277.5230821178102 0.0 0.0
-19525.00003065229 10.666896773435926 -5854.299940163656 292.3948066973188 0.0 0.0
-18274.525062136214 4.496244781579726 -5481.0086452063915 300.4560769313874 0.0 0.0
-16987.357153077894 1.8214261994647938 -5095.660718063528 304.91848248605345 0.0 0.0
-15686.574698064189 0.49650929880521577 -4705.823456629614 306.5303439065393 0.0 0.0
-14380.77063609922 -0.04906497906371898 -4314.245910323485 306.94195190330504 0.0 0.0
-13074.388554620817 -0.255584722598729 -3922.3932418030245 306.81673588979686 0.0 0.0
-11768.920186344825 -0.2432033029334124 -3530.7490168943277 306.589827683345 0.0 0.0
-10463.591101810092 0.2654519279290737 -3138.997694964649 306.7943902581323 0.0 0.0
-9153.246984774532 2.1362113773848748 -2745.333232019143 308.69150382991734 0.0 0.0
-7823.221073632904 6.854842346829491 -2344.9098693858223 314.93584199109705 0.0 0.0
-6443.394258706328 15.373736689161742 -1928.406156605151 329.38333908081825 0.0 0.0
-4972.901515777282 23.759054737630006 -1484.742738311895 353.27741025545293 0.0 0.0
-3404.5374910757246 14.136603244868496 -1017.1202663492564 373.15431116825494 0.0 0.0
-1875.2727458918714 -47.055492565282655 -576.6984715371464 346.81428350124435 0.0 0.0
-746.4604208980644 -179.76042716814376 -277.86625441986246 219.45848993990566 0.0 0.0
-261.4649812540026 -76.637164468058 -101.43064371661819 117.84497555690848 0.0 0.0
-136.07575754239704 -32.350953260140614 -50.52801324076131 -78.97021190096198 0.0 0.0
-608.203993838034 -92.34571063250881 -210.16491134116282 -92.75321109602532 0.0 0.0
-1915.7228053784254 -49.595837164959846 -589.5955927630157 -118.0420185009648 0.0 0.0
-3747.9077447931354 -70.83522834560407 -1145.622891941622 -131.61262958425334 0.0 0.0
-5577.718840246511 -124.93406303151147 -1710.7958709834063 -130.61019108914343 0.0 0.0
-7250.021924638685 -178.69125866166877 -2228.613954990107 -124.53243401935836 0.0 0.0
-8800.673880552933 -225.43430853441146 -2707.8324567262043 -119.88795912233223 0.0 0.0
-10290.802585232386 -266.7939563290075 -3167.278962468418 -117.4917687147884 0.0 0.0
-11759.684773608933 -305.62594347253446 -3619.5932151244406 -116.57399388720859 0.0 0.0
-13224.610454158628 -343.6667197094756 -4070.483152160431 -116.34303926619612 0.0 0.0
-14690.92908184926 -381.63391621368436 -4521.768899418884 -116.33452988866668 0.0 0.0
-16159.083270847234 -419.622686564014 -4973.611787223374 -116.31601263921709 0.0 0.0
-17627.345501863652 -457.65232984062084 -5425.499349511281 -116.0787380477932 0.0 0.0
-19090.275821510386 -494.4301972854126 -5875.411805638738 -115.43995951156546 0.0 0.0
-20537.93366229598 -532.3152101935457 -6321.074661746858 -113.90152848022649 0.0 0.0
-21938.393670957157 -553.8115509184698 -6747.661566562689 -110.92511505575112 0.0 0.0
-23277.883363397304 -624.4795649434825 -7170.708878502235 -113.95012191708463 0.0 0.0
-24370.63385440797 -412.4990303889583 -7434.939865439079 -77.5314362451769 0.0 0.0
-25494.950439011092 -1390.4255604304426 -8065.612799832461 -380.6908322401839 0.0 0.0
-26027.97383144588 3301.95422804841 -6817.805881019243 -1.7138901475636885 0.0 0.0
-38487.83757755184 -20183.768498964386 -17601.48182295487 -3.001332515850663e-11 0.0 0.0
-26027.973831446194 3301.9542280472983 -6817.805881019669 1.7138901475782404 0.0 0.0
-25494.95043901025 -1390.4255604284947 -8065.612799831622 380.69083224012616 0.0 0.0
-24370.633854408854 -412.49903039080334 -7434.9398654398965 77.53143624509005 0.0 0.0
-23277.88336339815 -624.4795649452872 -7170.708878503029 113.95012191727312 0.0 0.0
-21938.393670955662 -553.8115509149852 -6747.661566561197 110.92511505556172 0.0 0.0
-20537.933662295713 -532.315210193035 -6321.074661746624 113.90152848025798 0.0 0.0
-19090.27582151019 -494.4301972847276 -5875.411805638477 115.43995951155193 0.0 0.0
-17627.34550186313 -457.65232983925154 -5425.499349510713 116.07873804794383 0.0 0.0
-16159.083270846393 -419.62268656238996 -4973.611787222635 116.31601263927939 0.0 0.0
-14690.929081849248 -381.6339162138165 -4521.768899418919 116.33452988876422 0.0 0.0
-13224.610454159047 -343.6667197102778 -4070.4831521607985 116.34303926610653 0.0 0.0
-11759.684773609471 -305.6259434738079 -3619.5932151249826 116.57399388710246 0.0 0.0
-10290.802585232212 -266.79395632859587 -3167.2789624682437 117.49176871502675 0.0 0.0
-8800.673880553122 -225.43430853480436 -2707.8324567263785 119.88795912223782 0.0 0.0
-7250.021924638083 -178.69125866046141 -2228.6139549895643 124.5324340192646 0.0 0.0
-5577.718840246424 -124.93406303125744 -1710.7958709833044 130.6101910893298 0.0 0.0
-3747.9077447932923 -70.83522834584045 -1145.62289194174 131.61262958428873 0.0 0.0
-1915.7228053784397 -49.59583716500822 -589.5955927630346 118.04201850096896 0.0 0.0
-608.2039938380449 -92.34571063234394 -210.16491134111672 92.75321109608791 0.0 0.0
-136.0757575425878 -32.35095326028583 -50.52801324086209 78.970211900853 0.0 0.0
SCALARS Strain float 6
LOOKUP_TABLE default
0.0352541721829929 -0.08757409376242498 0.0 -0.005892717195136374 0.0 0.0
0.03139671467910351 0.006826703564739381 0.0 -0.009153350848099387 0.0 0.0
0.024814729351739607 -0.012365735919633766 0.0 -0.003914784832263326 0.0 0.0
0.02366369067730033 -0.008621368650223957 0.0 -0.0005830555486785079 0.0 0.0
0.027794680027828096 -0.011358858926447338 0.0 -0.001343775756497794 0.0 0.0
0.033393587072203156 -0.013529946437556412 0.0 -0.0013847096654534402 0.0 0.0
0.039670611003432395 -0.016150051223621772 0.0 -0.0014683163774500386 0.0 0.0
0.046205420097987865 -0.018810412943652384 0.0 -0.0015001301600631588 0.0 0.0
0.052818538929443506 -0.02150661158045475 0.0 -0.001511442950506332 0.0 0.0
0.059444189075299816 -0.024203637390931315 0.0 -0.0015143872690052554 0.0 0.0
0.06606255579422102 -0.026897964485665414 0.0 -0.0015143870841808748 0.0 0.0
0.07267271629829906 -0.029588853665906724 0.0 -0.0015147224633420392 0.0 0.0
0.07928321121161061 -0.032279391471852124 0.0 -0.001517672621038595 0.0 0.0
0.08591716414230839 -0.03497748789850083 0.0 -0.0015263634961322325 0.0 0.0
0.09262587580675416 -0.03770169665279774 0.0 -0.001544157232026691 0.0 0.0
0.09949721794865665 -0.040486129698435874 0.0 -0.0015693913010701326 0.0 0.0
0.10661926842595607 -0.0433704359921538 0.0 -0.0015808180232340296 0.0 0.0
0.11392852374487816 -0.04634514294773008 0.0 -0.001515292055667014 0.0 0.0
0.12089950171085245 -0.04922433867654974 0.0 -0.0012638766718895348 0.0 0.0
0.1262602802875714 -0.05149540474552526 0.0 -0.0007393582318893982 0.0 0.0
0.12832689134054792 -0.05239597767573023 0.0 1.0625181290357943e-15 0.0 0.0
0.1262602802875717 -0.05149540474553488 0.0 0.0007393582318902334 0.0 0.0
0.12089950171085243 -0.04922433867654791 0.0 0.0012638766718887475 0.0 0.0
0.11392852374487783 -0.04634514294773748 0.0 0.0015152920556669213 0.0 0.0
0.10661926842595568 -0.043370435992156904 0.0 0.0015808180232339524 0.0 0.0
0.09949721794865636 -0.0404861296984325 0.0 0.0015693913010716596 0.0 0.0
0.09262587580675483 -0.03770169665280142 0.0 0.0015441572320261422 0.0 0.0
0.08591716414230896 -0.034977487898500546 0.0 0.0015263634961323255 0.0 0.0
0.07928321121161074 -0.03227939147184473 0.0 0.0015176726210374236 0.0 0.0
0.0726727162982988 -0.029588853665892742 0.0 0.0015147224633412846 0.0 0.0
0.06606255579422067 -0.026897964485669945 0.0 0.0015143870841796496 0.0 0.0
0.05944418907529986 -0.024203637390928602 0.0 0.0015143872690051344 0.0 0.0
0.052818538929443465 -0.021506611580455297 0.0 0.0015114429505075416 0.0 0.0
0.046205420097987955 -0.018810412943652384 0.0 0.0015001301600633212 0.0 0.0
0.039670611003432554 -0.016150051223622522 0.0 0.0014683163774485003 0.0 0.0
0.03339358707220301 -0.013529946437554119 0.0 0.0013847096654537666 0.0 0.0
0.02779468002782788 -0.01135885892644794 0.0 0.001343775756500174 0.0 0.0
0.023663690677300273 -0.008621368650224311 0.0 0.0005830555486781817 0.0 0.0
0.02481472935173973 -0.012365735919633431 0.0 0.003914784832265605 0.0 0.0
0.03139671467910378 0.006826703564739626 0.0 0.009153350848101422 0.0 0.0
0.035254172182993114 -0.08757409376242514 0.0 0.005892717195135521 0.0 0.0
0.021952850663724037 -0.08139892491315995 0.0 -0.004026915347996987 0.0 0.0
0.01857374408356777 0.005916695448453825 0.0 -0.007298103889604659 0.0 0.0
0.01783165304079331 -0.009589541017123584 0.0 -0.00273628523149363 0.0 0.0
0.02145688265834101 -0.00850726215360072 0.0 -0.0022648306083031975 0.0 0.0
0.024924399007360803 -0.010596399280681656 0.0 -0.0032654172129650853 0.0 0.0
0.03012024810332173 -0.012840635465412776 0.0 -0.0036990942558868135 0.0 0.0
0.03574147313675965 -0.01529502153351403 0.0 -0.0038935322857212365 0.0 0.0
0.04160706624799769 -0.017824645690464967 0.0 -0.003973129166275532 0.0 0.0
0.047546183854030095 -0.020376209008838943 0.0 -0.0039949814406710915 0.0 0.0
0.053503204186480066 -0.022930872616633274 0.0 -0.003997218612828389 0.0 0.0
0.05945790469526844 -0.025482898364515297 0.0 -0.003994171302133825 0.0 0.0
0.06540806957842936 -0.028032173782554758 0.0 -0.003992673721535759 0.0 0.0
0.07136073932292131 -0.030581172442934013 0.0 -0.003998210632527604 0.0 0.0
0.07733533015280494 -0.03313662655003329 0.0 -0.004020475210058143 0.0 0.0
0.08337226242496264 -0.03571431805001117 0.0 -0.004074672686950196 0.0 0.0
0.08953442915883253 -0.03834363233911474 0.0 -0.004170678422305308 0.0 0.0
0.0958685574814516 -0.04105948731958564 0.0 -0.004273291104548998 0.0 0.0
0.10227360036313275 -0.043854814417677954 0.0 -0.004224735046500852 0.0 0.0
0.10825932522613613 -0.04656566125203046 0.0 -0.003682730897541127 0.0 0.0
0.11276647343281077 -0.048724110003549134 0.0 -0.0022568157338044904 0.0 0.0
0.11448024888834535 -0.04959540086915312 0.0 3.46077333457373e-16 0.0 0.0
0.11276647343281102 -0.04872411000355359 0.0 0.0022568157338055043 0.0 0.0
0.10825932522613614 -0.046565661252031945 0.0 0.0036827308975412062 0.0 0.0
0.10227360036313272 -0.04385481441768347 0.0 0.004224735046501985 0.0 0.0
0.0958685574814513 -0.0410594873195843 0.0 0.004273291104549878 0.0 0.0
0.08953442915883206 -0.03834363233911387 0.0 0.004170678422307476 0.0 0.0
0.08337226242496289 -0.03571431805001231 0.0 0.0040746726869511935 0.0 0.0
0.07733533015280522 -0.03313662655003502 0.0 0.004020475210058301 0.0 0.0
0.0713607393229211 -0.030581172442929558 0.0 0.0039982106325274405 0.0 0.0
0.06540806957842904 -0.02803217378254736 0.0 0.0039926737215341575 0.0 0.0
0.05945790469526861 -0.025482898364521948 0.0 0.00399417130213434 0.0 0.0
0.05350320418648012 -0.0229308726166318 0.0 0.003997218612827799 0.0 0.0
0.04754618385402987 -0.02037620900883861 0.0 0.003994981440671631 0.0 0.0
0.041607066247997496 -0.017824645690463766 0.0 0.0039731291662759485 0.0 0.0
0.03574147313675943 -0.015295021533513614 0.0 0.0038935322857216303 0.0 0.0
0.03012024810332195 -0.012840635465412234 0.0 0.003699094255888426 0.0 0.0
0.024924399007360563 -0.010596399280681646 0.0 0.003265417212965186 0.0 0.0
0.021456882658341125 -0.008507262153601132 0.0 0.002264830608304784 0.0 0.0
0.017831653040793975 -0.009589541017123502 0.0 0.0027362852314947186 0.0 0.0
0.018573744083567496 0.005916695448453727 0.0 0.007298103889605109 0.0 0.0
0.02195285066372323 -0.08139892491316014 0.0 0.004026915347996455 0.0 0.0
0.015745829000853875 -0.069758481815311 0.0 -0.01854576052321485 0.0 0.0
0.011961750016105019 0.0032394005718952876 0.0 -0.013197303637812133 0.0 0.0
0.012283117501867282 -0.004915265343955813 0.0 -0.0018554691461530584 0.0 0.0
0.018145680174208877 -0.007663943054214259 0.0 -0.005224605775838686 0.0 0.0
0.02207715526951515 -0.009195698407485174 0.0 -0.006501903651562781 0.0 0.0
0.026732637043950725 -0.011390675360527772 0.0 -0.007451787205595906 0.0 0.0
0.03179034941800645 -0.013588294053657446 0.0 -0.007823048930282935 0.0 0.0
0.036997655438196074 -0.015847173241530458 0.0 -0.007973085632087746 0.0 0.0
0.04227245796135099 -0.018115712954850094 0.0 -0.008013395026023499 0.0 0.0
0.047562907610328733 -0.02038544566889598 0.0 -0.008015726576838867 0.0 0.0
0.052854163432753766 -0.022653118960195225 0.0 -0.00800883605367726 0.0 0.0
0.05814334122135163 -0.024918814044019057 0.0 -0.008005119162818035 0.0 0.0
0.06343550476388488 -0.02718392418358913 0.0 -0.00801501403256828 0.0 0.0
0.06874475203892186 -0.02945219299864618 0.0 -0.008057750426866845 0.0 0.0
0.07409955625879391 -0.03173337168452809 0.0 -0.008165159124217532 0.0 0.0
0.07954210007020283 -0.034048443503120134 0.0 -0.008362189487187782 0.0 0.0
0.08509659392408 -0.03642883472590436 0.0 -0.00858904524505045 0.0 0.0
0.09066493321244408 -0.03888680806720597 0.0 -0.00853988577210573 0.0 0.0
0.0958333243734869 -0.04132065675274542 0.0 -0.007512405319371075 0.0 0.0
0.0997164344532821 -0.04334433682787719 0.0 -0.0046499142979923485 0.0 0.0
0.10119410774965124 -0.04420800648891774 0.0 5.898059818321144e-16 0.0 0.0
0.09971643445328186 -0.04334433682787448 0.0 0.0046499142979913935 0.0 0.0
0.09583332437348674 -0.04132065675274758 0.0 0.007512405319370834 0.0 0.0
0.09066493321244413 -0.0388868080672031 0.0 0.008539885772107497 0.0 0.0
0.08509659392407996 -0.03642883472590401 0.0 0.008589045245050133 0.0 0.0
0.07954210007020257 -0.034048443503121126 0.0 0.008362189487187126 0.0 0.0
0.07409955625879414 -0.031733371684521394 0.0 0.008165159124217194 0.0 0.0
0.06874475203892194 -0.02945219299865002 0.0 0.00805775042686798 0.0 0.0
0.06343550476388463 -0.027183924183586335 0.0 0.008015014032569347 0.0 0.0
0.058143341221351896 -0.02491881404402146 0.0 0.008005119162816368 0.0 0.0
0.052854163432753884 -0.022653118960199222 0.0 0.008008836053676551 0.0 0.0
0.047562907610328393 -0.020385445668894858 0.0 0.008015726576838996 0.0 0.0
0.04227245796135103 -0.01811571295485229 0.0 0.008013395026022765 0.0 0.0
0.03699765543819621 -0.015847173241529636 0.0 0.007973085632087653 0.0 0.0
0.03179034941800638 -0.013588294053658266 0.0 0.007823048930283384 0.0 0.0
0.02673263704395061 -0.011390675360526355 0.0 0.007451787205596607 0.0 0.0
0.022077155269515 -0.009195698407485674 0.0 0.006501903651562165 0.0 0.0
0.018145680174208707 -0.0076639430542138395 0.0 0.005224605775840251 0.0 0.0
0.012283117501867257 -0.004915265343956436 0.0 0.001855469146153117 0.0 0.0
0.011961750016104876 0.0032394005718949523 0.0 0.01319730363781084 0.0 0.0
0.015745829000853397 -0.06975848181531108 0.0 0.018545760523214744 0.0 0.0
0.012507484997768136 -0.05952670785998952 0.0 -0.023152205971122934 0.0 0.0
0.008421842541373707 -0.000204690535775978 0.0 -0.018073321757063616 0.0 0.0
0.008267116194513494 -0.0019316801035974048 0.0 -0.005499183026780337 0.0 0.0
0.014608244206988308 -0.00602973803550901 0.0 -0.007552678551322354 0.0 0.0
0.0190581903875104 -0.007881637258790469 0.0 -0.009672188129221044 0.0 0.0
0.023315083808194467 -0.009865842346775178 0.0 -0.010757309829131161 0.0 0.0
0.0278056382468493 -0.011871687304918735 0.0 -0.011298117219491395 0.0 0.0
0.032381192211166046 -0.013863068159926972 0.0 -0.011496480592666732 0.0 0.0
0.036995971611773495 -0.015854352533999947 0.0 -0.01155513458019651 0.0 0.0
0.04162280232533031 -0.017840332876530786 0.0 -0.011559392458312142 0.0 0.0
0.046250812194623535 -0.019823797260997603 0.0 -0.011550818012876572 0.0 0.0
0.050878250003279335 -0.02180538062413719 0.0 -0.011546300817474724 0.0 0.0
0.05550772745826934 -0.023785148870442255 0.0 -0.011560247974803818 0.0 0.0
0.06014715661748274 -0.02576299421066216 0.0 -0.011618487689600231 0.0 0.0
0.0648129343264399 -0.02774195015119893 0.0 -0.011763397912173148 0.0 0.0
0.0695310562648704 -0.02973671343975158 0.0 -0.012027634581014914 0.0 0.0
0.0743192495012918 -0.031785981120299525 0.0 -0.012327396731276575 0.0 0.0
0.07911356033743215 -0.033947044393796595 0.0 -0.012235857571861516 0.0 0.0
0.08360270452457987 -0.03621218554412765 0.0 -0.01076082315590788 0.0 0.0
0.08703666091104326 -0.03826318662934427 0.0 -0.006668105442818798 0.0 0.0
0.08836352456485083 -0.039212524652764924 0.0 5.91107024439097e-16 0.0 0.0
0.08703666091104303 -0.03826318662934527 0.0 0.006668105442817029 0.0 0.0
0.0836027045245801 -0.0362121855441235 0.0 0.010760823155908001 0.0 0.0
0.07911356033743216 -0.033947044393794416 0.0 0.012235857571862772 0.0 0.0
0.0743192495012915 -0.03178598112030242 0.0 0.01232739673127576 0.0 0.0
0.06953105626487019 -0.029736713439753627 0.0 0.012027634581014638 0.0 0.0
0.06481293432643997 -0.027741950151196543 0.0 0.011763397912171333 0.0 0.0
0.06014715661748281 -0.025762994210664997 0.0 0.011618487689599253 0.0 0.0
0.0555077274582692 -0.023785148870440104 0.0 0.011560247974802589 0.0 0.0
0.05087825000327936 -0.021805380624137408 0.0 0.011546300817474524 0.0 0.0
0.04625081219462369 -0.019823797261000416 0.0 0.011550818012876224 0.0 0.0
0.04162280232533026 -0.017840332876527164 0.0 0.011559392458312214 0.0 0.0
0.03699597161177362 -0.015854352534002136 0.0 0.011555134580195307 0.0 0.0
0.0323811922111662 -0.013863068159927326 0.0 0.011496480592666935 0.0 0.0
0.0278056382468491 -0.011871687304920865 0.0 0.011298117219492256 0.0 0.0
0.02331508380819431 -0.009865842346773897 0.0 0.010757309829131286 0.0 0.0
0.019058190387510256 -0.007881637258792344 0.0 0.009672188129221958 0.0 0.0
0.014608244206988284 -0.006029738035508361 0.0 0.007552678551322467 0.0 0.0
0.008267116194513528 -0.0019316801035981629 0.0 0.0054991830267793786 0.0 0.0
0.008421842541373776 -0.0002046905357766483 0.0 0.01807332175706351 0.0 0.0
0.012507484997768215 -0.05952670785998929 0.0 0.02315220597112348 0.0 0.0
0.010556590734430736 -0.05063625109487406 0.0 -0.023680595424180405 0.0 0.0
0.006423577835099077 -0.003172309653062335 0.0 -0.021371368696951675 0.0 0.0
0.005443576229035195 -0.00032249316159657816 0.0 -0.010420038428509169 0.0 0.0
0.011268163183387794 -0.004263892471575242 0.0 -0.010306222536901364 0.0 0.0
0.01592404876506126 -0.006486587596356829 0.0 -0.012501023508096032 0.0 0.0
0.019867843859738055 -0.00833575566748059 0.0 -0.013709332847788202 0.0 0.0
0.023802230322732442 -0.010135761256379308 0.0 -0.014312717155671936 0.0 0.0
0.027756109636113104 -0.011876023959550279 0.0 -0.014551628928724237 0.0 0.0
0.03171729558249524 -0.013591322813789584 0.0 -0.014621367204292135 0.0 0.0
0.03568219624928785 -0.015295262591703912 0.0 -0.01462879911375925 0.0 0.0
0.03964749520980006 -0.01699460909573674 0.0 -0.014619967169867278 0.0 0.0
0.04361261914774039 -0.018691731503969168 0.0 -0.014615602659048455 0.0 0.0
0.04757786711260543 -0.020385124033271574 0.0 -0.014632445781757979 0.0 0.0
0.05154459743666409 -0.02207045890834637 0.0 -0.014699856874432767 0.0 0.0
0.055517626762319416 -0.023743901382160978 0.0 -0.014865485143042631 0.0 0.0
0.05951076922009853 -0.025415704181986475 0.0 -0.015165803199285371 0.0 0.0
0.06354765026713248 -0.027139830219484493 0.0 -0.015501767732846873 0.0 0.0
0.06762154378438645 -0.029037761585731868 0.0 -0.015362558230159168 0.0 0.0
0.0715418257220407 -0.031220371984031256 0.0 -0.01352806332706553 0.0 0.0
0.07466351613604272 -0.03343033426964632 0.0 -0.008415884179264614 0.0 0.0
0.07590605029624048 -0.034548406130924504 0.0 -7.199102425303749e-16 0.0 0.0
0.07466351613604226 -0.03343033426964735 0.0 0.008415884179264841 0.0 0.0
0.07154182572204097 -0.03122037198402685 0.0 0.013528063327065364 0.0 0.0
0.0676215437843865 -0.02903776158573447 0.0 0.015362558230157693 0.0 0.0
0.0635476502671324 -0.027139830219483983 0.0 0.015501767732847154 0.0 0.0
0.05951076922009865 -0.025415704181989997 0.0 0.015165803199284535 0.0 0.0
0.055517626762319264 -0.023743901382158684 0.0 0.01486548514304208 0.0 0.0
0.05154459743666402 -0.02207045890834582 0.0 0.014699856874433401 0.0 0.0
0.047577867112605296 -0.02038512403327334 0.0 0.014632445781758388 0.0 0.0
0.043612619147740235 -0.01869173150396792 0.0 0.014615602659047516 0.0 0.0
0.03964749520980038 -0.01699460909574152 0.0 0.014619967169867548 0.0 0.0
0.03568219624928786 -0.015295262591701553 0.0 0.01462879911375925 0.0 0.0
0.03171729558249516 -0.01359132281378933 0.0 0.014621367204292319 0.0 0.0
0.027756109636113135 -0.011876023959549903 0.0 0.01455162892872388 0.0 0.0
0.023802230322732324 -0.010135761256379803 0.0 0.014312717155671697 0.0 0.0
0.01986784385973806 -0.008335755667481187 0.0 0.01370933284778788 0.0 0.0
0.015924048765061087 -0.006486587596357479 0.0 0.012501023508096605 0.0 0.0
0.01126816318338763 -0.004263892471575651 0.0 0.010306222536901893 0.0 0.0
0.00544357622903511 -0.0003224931615963603 0.0 0.010420038428507375 0.0 0.0
0.006423577835098965 -0.003172309653063144 0.0 0.021371368696952397 0.0 0.0
0.010556590734430691 -0.050636251094873824 0.0 0.023680595424181192 0.0 0.0
0.009173630114229381 -0.042947039434248796 0.0 -0.022592159031741846 0.0 0.0
0.005191825038091904 -0.005325483363059155 0.0 -0.023320522381246146 0.0 0.0
0.0034472529797270847 0.0003902364445033561 0.0 -0.015180875287189761 0.0 0.0
0.008276659162812219 -0.002667994935005261 0.0 -0.013384377419314183 0.0 0.0
0.012775505353061175 -0.005037675126220654 0.0 -0.015069342145940919 0.0 0.0
0.016397352514721263 -0.00680085550750394 0.0 -0.016279347601520368 0.0 0.0
0.019789092392262352 -0.008392330939898458 0.0 -0.016886471904693164 0.0 0.0
0.023124494617579948 -0.009884986275765355 0.0 -0.017138542122761575 0.0 0.0
0.02643630077806604 -0.011327305478737953 0.0 -0.017214590099001614 0.0 0.0
0.029740847169137795 -0.012749798519287944 0.0 -0.01722421712948768 0.0 0.0
0.03304386113430364 -0.014165345628798343 0.0 -0.017216285550338103 0.0 0.0
0.036346390634812153 -0.015577788407415902 0.0 -0.017212550258827307 0.0 0.0
0.039646525460240514 -0.016984257755833537 0.0 -0.01723060655673223 0.0 0.0
0.04293926611741171 -0.018376172848940813 0.0 -0.01730024909871113 0.0 0.0
0.046218681267305876 -0.019743055269094235 0.0 -0.017469881507250554 0.0 0.0
0.049489372486475496 -0.02109182354791547 0.0 -0.017778304530388023 0.0 0.0
0.05278906267556326 -0.02249623700226358 0.0 -0.01812556114279478 0.0 0.0
0.0561843996368512 -0.024154898386572258 0.0 -0.017960821620444354 0.0 0.0
0.05962114288501985 -0.026319495970844303 0.0 -0.015891452686998583 0.0 0.0
0.06254100400147738 -0.02880178268654123 0.0 -0.009971388672884158 0.0 0.0
0.06375474279341309 -0.03017376875595556 0.0 -1.452830911130576e-16 0.0 0.0
0.06254100400147743 -0.028801782686539296 0.0 0.009971388672883854 0.0 0.0
0.05962114288501971 -0.02631949597084387 0.0 0.015891452686999256 0.0 0.0
0.05618439963685121 -0.02415489838657241 0.0 0.017960821620443747 0.0 0.0
0.05278906267556352 -0.022496237002261874 0.0 0.018125561142794237 0.0 0.0
0.04948937248647543 -0.02109182354791869 0.0 0.01777830453038668 0.0 0.0
0.04621868126730593 -0.019743055269091123 0.0 0.017469881507250564 0.0 0.0
0.04293926611741133 -0.018376172848939134 0.0 0.017300249098712302 0.0 0.0
0.03964652546024039 -0.0169842577558358 0.0 0.01723060655673171 0.0 0.0
0.03634639063481239 -0.015577788407416162 0.0 0.017212550258827213 0.0 0.0
0.033043861134303534 -0.014165345628802319 0.0 0.017216285550338037 0.0 0.0
0.029740847169137892 -0.012749798519286355 0.0 0.01722421712948733 0.0 0.0
0.026436300778066 -0.011327305478740037 0.0 0.017214590099002322 0.0 0.0
0.02312449461757975 -0.009884986275763938 0.0 0.01713854212276174 0.0 0.0
0.019789092392262512 -0.008392330939898093 0.0 0.016886471904693678 0.0 0.0
0.016397352514721457 -0.006800855507504187 0.0 0.016279347601520017 0.0 0.0
0.012775505353060948 -0.00503767512621881 0.0 0.015069342145939985 0.0 0.0
0.008276659162811895 -0.0026679949350050807 0.0 0.013384377419315426 0.0 0.0
0.0034472529797269533 0.00039023644450388137 0.0 0.015180875287189349 0.0 0.0
0.005191825038091921 -0.005325483363059163 0.0 0.023320522381246364 0.0 0.0
0.009173630114229503 -0.042947039434248734 0.0 0.022592159031740933 0.0 0.0
0.008040494305018676 -0.0362862476783995 0.0 -0.020946263198970843 0.0 0.0
0.004326187460528846 -0.006670539015683534 0.0 -0.024261502640489593 0.0 0.0
0.001987776168253218 0.00059735020979738 0.0 -0.019200589042324544 0.0 0.0
0.005648048277076143 -0.0013348283461387285 0.0 -0.016467429440773753 0.0 0.0
0.00969117498608668 -0.0035985567724943534 0.0 -0.017407605983896218 0.0 0.0
0.012922025826914929 -0.0052638433087687335 0.0 -0.018459520959500826 0.0 0.0
0.01577200453161895 -0.006648414356281201 0.0 -0.019021687506375323 0.0 0.0
0.018489224271884614 -0.00789162278521493 0.0 -0.019260485326924547 0.0 0.0
0.02115317521365317 -0.009062328014083097 0.0 -0.01933556062471747 0.0 0.0
0.023798558776089964 -0.01020384382819129 0.0 -0.01934626471458972 0.0 0.0
0.026439672585275766 -0.011335789350378635 0.0 -0.01933975570653155 0.0 0.0
0.029079565468769254 -0.012463545633926465 0.0 -0.019336864719734802 0.0 0.0
0.03171436787009611 -0.013583014386611945 0.0 -0.019354203179953143 0.0 0.0
0.03433331894794781 -0.014681729981225442 0.0 -0.01941922758621458 0.0 0.0
0.03692079209880655 -0.01574304257328182 0.0 -0.01957715890094169 0.0 0.0
0.039473818924016274 -0.016770695043261827 0.0 -0.019868818826945713 0.0 0.0
0.04204792139333418 -0.01785884396882493 0.0 -0.02021058025615553 0.0 0.0
0.04479319528144628 -0.01929001215132634 0.0 -0.020060860720052368 0.0 0.0
0.04780871554912063 -0.021479777343222217 0.0 -0.01790843590626331 0.0 0.0
0.05061871940883086 -0.02433766388242094 0.0 -0.01139657814137566 0.0 0.0
0.05185363018950048 -0.026061438899014373 0.0 3.924811864397526e-16 0.0 0.0
0.050618719408830934 -0.024337663882425486 0.0 0.011396578141374878 0.0 0.0
0.047808715549120584 -0.021479777343221707 0.0 0.017908435906261802 0.0 0.0
0.044793195281446006 -0.01929001215132679 0.0 0.020060860720052795 0.0 0.0
0.04204792139333421 -0.01785884396882566 0.0 0.020210580256154194 0.0 0.0
0.03947381892401631 -0.016770695043264283 0.0 0.01986881882694555 0.0 0.0
0.03692079209880672 -0.015743042573282323 0.0 0.019577158900939008 0.0 0.0
0.03433331894794735 -0.014681729981222913 0.0 0.01941922758621357 0.0 0.0
0.031714367870095975 -0.013583014386613928 0.0 0.01935420317995297 0.0 0.0
0.029079565468769747 -0.012463545633927903 0.0 0.019336864719735142 0.0 0.0
0.026439672585275867 -0.011335789350377653 0.0 0.019339755706532246 0.0 0.0
0.023798558776090144 -0.01020384382819111 0.0 0.019346264714590167 0.0 0.0
0.021153175213653414 -0.009062328014084546 0.0 0.019335560624716863 0.0 0.0
0.018489224271884666 -0.007891622785215364 0.0 0.019260485326926854 0.0 0.0
0.015772004531619012 -0.006648414356279439 0.0 0.019021687506375493 0.0 0.0
0.012922025826914747 -0.0052638433087695835 0.0 0.018459520959500018 0.0 0.0
0.009691174986086652 -0.0035985567724929725 0.0 0.017407605983895787 0.0 0.0
0.0056480482770761165 -0.0013348283461387302 0.0 0.01646742944077364 0.0 0.0
0.001987776168252878 0.000597350209797721 0.0 0.01920058904232491 0.0 0.0
0.004326187460528833 -0.0066705390156837786 0.0 0.024261502640490134 0.0 0.0
0.008040494305018912 -0.036286247678399275 0.0 0.02094626319897063 0.0 0.0
0.007015771679270238 -0.0304843102866639 0.0 -0.019189823745340347 0.0 0.0
0.0036196883071991145 -0.0073302501523986215 0.0 -0.024475797049288497 0.0 0.0
0.000857445740449206 0.0005685758734143194 0.0 -0.022296416355324564 0.0 0.0
0.003337962965674343 -0.00025637540925644474 0.0 -0.019274754570512424 0.0 0.0
0.006715996531836329 -0.0022185047007192015 0.0 -0.019477855966783014 0.0 0.0
0.009463478639757267 -0.0037355300870761327 0.0 -0.020247440195925392 0.0 0.0
0.01175664938637618 -0.0049080614928397005 0.0 -0.020715224181182827 0.0 0.0
0.013852783848767376 -0.0058981150573625355 0.0 -0.020918942713496765 0.0 0.0
0.015868419244402375 -0.006796578528270744 0.0 -0.020984980302945197 0.0 0.0
0.017855191836673428 -0.007657312619354395 0.0 -0.020995345188010123 0.0 0.0
0.019834765457580457 -0.008505802094737343 0.0 -0.020990477918120712 0.0 0.0
0.0218121887105496 -0.009349024059517918 0.0 -0.02098842361156233 0.0 0.0
0.023782039136077227 -0.010181858582045972 0.0 -0.021003165793633538 0.0 0.0
0.025728725668505398 -0.01098859630323896 0.0 -0.021057413067813835 0.0 0.0
0.027628165992946027 -0.011747143099892724 0.0 -0.021189758124931492 0.0 0.0
0.029470118025457938 -0.012457297167693386 0.0 -0.021442648847232 0.0 0.0
0.031326933961490465 -0.013230038779518666 0.0 -0.02176614982637953 0.0 0.0
0.033436337013630184 -0.014432071838374458 0.0 -0.021681370240785057 0.0 0.0
0.036070921740937886 -0.016668095286360176 0.0 -0.01961871379602721 0.0 0.0
0.03885000996796233 -0.019999865049402637 0.0 -0.012743519157510185 0.0 0.0
0.040154523904891555 -0.022197245422093732 0.0 -1.425075335514947e-15 0.0 0.0
0.03885000996796245 -0.01999986504940828 0.0 0.012743519157510895 0.0 0.0
0.03607092174093804 -0.016668095286358417 0.0 0.01961871379602807 0.0 0.0
0.03343633701363049 -0.014432071838375204 0.0 0.02168137024078609 0.0 0.0
0.03132693396149047 -0.013230038779521842 0.0 0.02176614982638014 0.0 0.0
0.029470118025457806 -0.012457297167694193 0.0 0.021442648847234718 0.0 0.0
0.02762816599294622 -0.011747143099890294 0.0 0.021189758124931908 0.0 0.0
0.02572872566850514 -0.01098859630323898 0.0 0.021057413067814817 0.0 0.0
0.023782039136077057 -0.010181858582047001 0.0 0.02100316579363406 0.0 0.0
0.02181218871054997 -0.009349024059520789 0.0 0.020988423611563205 0.0 0.0
0.019834765457580474 -0.008505802094733372 0.0 0.02099047791812278 0.0 0.0
0.017855191836673272 -0.007657312619356168 0.0 0.020995345188010987 0.0 0.0
0.015868419244402358 -0.0067965785282702185 0.0 0.02098498030294403 0.0 0.0
0.013852783848767326 -0.005898115057363069 0.0 0.020918942713498066 0.0 0.0
0.01175664938637606 -0.004908061492839293 0.0 0.020715224181182653 0.0 0.0
0.009463478639757423 -0.0037355300870768335 0.0 0.020247440195924078 0.0 0.0
0.00671599653183642 -0.0022185047007193823 0.0 0.019477855966783836 0.0 0.0
0.0033379629656742063 -0.00025637540925697557 0.0 0.019274754570511393 0.0 0.0
0.0008574457404493182 0.0005685758734143451 0.0 0.02229641635532474 0.0 0.0
0.003619688307199221 -0.007330250152398802 0.0 0.024475797049288095 0.0 0.0
0.0070157716792701354 -0.030484310286663686 0.0 0.019189823745340506 0.0 0.0
0.006039070328038906 -0.025394254050603658 0.0 -0.01749332685047525 0.0 0.0
0.002967809663317377 -0.007451783542428512 0.0 -0.02416187878330858 0.0 0.0
-8.433045891226545e-05 0.0004734751190570382 0.0 -0.024461962302863634 0.0 0.0
0.0012837355345986239 0.0006148596134183777 0.0 -0.02161430272115688 0.0 0.0
0.0038672442589040993 -0.0009234120133943459 0.0 -0.021210654216720495 0.0 0.0
0.006039820962293547 -0.0022289120555824254 0.0 -0.021632786169813033 0.0 0.0
0.00774895524604865 -0.003174778404108693 0.0 -0.021962591284788276 0.0 0.0
0.00921720702370089 -0.003906202829105862 0.0 -0.022113344447638683 0.0 0.0
0.010582594707770183 -0.004530424516729338 0.0 -0.02216331224835562 0.0 0.0
0.011910688309604563 -0.005110136420641633 0.0 -0.02217176726385895 0.0 0.0
0.01322902386844433 -0.005675293170504024 0.0 -0.022168599034573265 0.0 0.0
0.014544325231366426 -0.0062342625146613855 0.0 -0.022167266047793666 0.0 0.0
0.01585009617039719 -0.006781199003590068 0.0 -0.022177814929817144 0.0 0.0
0.017127134908707597 -0.007297995432233691 0.0 -0.022216317717147466 0.0 0.0
0.0183443981739128 -0.00775814034380286 0.0 -0.02231175044754513 0.0 0.0
0.019483587614334292 -0.008156105422036155 0.0 -0.0225065894635763 0.0 0.0
0.020628212192340317 -0.008611977284830463 0.0 -0.02279897094873753 0.0 0.0
0.022101199586084887 -0.00956919975517224 0.0 -0.022829055737693813 0.0 0.0
0.02437275542146633 -0.01184816409084396 0.0 -0.021044995965314495 0.0 0.0
0.027190259725682887 -0.015749333923452135 0.0 -0.014058458732378631 0.0 0.0
0.028614567630600104 -0.0185799340964285 0.0 -3.187554387107383e-16 0.0 0.0
0.027190259725682845 -0.01574933392345325 0.0 0.014058458732379354 0.0 0.0
0.024372755421466302 -0.011848164090842887 0.0 0.02104499596531427 0.0 0.0
0.02210119958608514 -0.009569199755173008 0.0 0.022829055737692422 0.0 0.0
0.0206282121923405 -0.008611977284832484 0.0 0.022798970948736282 0.0 0.0
0.019483587614334157 -0.00815610542203625 0.0 0.022506589463576393 0.0 0.0
0.018344398173912778 -0.00775814034380581 0.0 0.022311750447546384 0.0 0.0
0.01712713490870731 -0.007297995432235468 0.0 0.022216317717147993 0.0 0.0
0.01585009617039704 -0.006781199003589861 0.0 0.022177814929817415 0.0 0.0
0.014544325231366756 -0.006234262514661807 0.0 0.02216726604779381 0.0 0.0
0.01322902386844451 -0.0056752931705060655 0.0 0.022168599034573962 0.0 0.0
0.011910688309604666 -0.005110136420641492 0.0 0.02217176726385932 0.0 0.0
0.010582594707770043 -0.004530424516727792 0.0 0.022163312248355348 0.0 0.0
0.009217207023700689 -0.003906202829106309 0.0 0.02211334444763746 0.0 0.0
0.007748955246048487 -0.0031747784041066818 0.0 0.021962591284787517 0.0 0.0
0.006039820962293709 -0.0022289120555826418 0.0 0.021632786169812825 0.0 0.0
0.003867244258904172 -0.0009234120133958624 0.0 0.021210654216721633 0.0 0.0
0.0012837355345985504 0.0006148596134190913 0.0 0.02161430272115688 0.0 0.0
-8.433045891231997e-05 0.00047347511905656994 0.0 0.024461962302863762 0.0 0.0
0.0029678096633173946 -0.007451783542427778 0.0 0.02416187878330784 0.0 0.0
0.006039070328039174 -0.02539425405060374 0.0 0.017493326850474583 0.0 0.0
0.005088161262210216 -0.020898706935411005 0.0 -0.015901605754264053 0.0 0.0
0.0023211145193843684 -0.007171757889519318 0.0 -0.023449013281496046 0.0 0.0
-0.0009289878623315994 0.0004101504218123992 0.0 -0.025760576283928943 0.0 0.0
-0.0005765876357248915 0.0013349771877553794 0.0 -0.023372538916140186 0.0 0.0
0.0011437944917534958 0.00027982301566244504 0.0 -0.022532908833323095 0.0 0.0
0.0026628552716756577 -0.0007544599212255413 0.0 -0.022595982934819993 0.0 0.0
0.003754242918096606 -0.0014519307048189176 0.0 -0.022757741442410793 0.0 0.0
0.004584149405630078 -0.0019171244641229385 0.0 -0.02284188929897205 0.0 0.0
0.005296171011789248 -0.0022642292545116457 0.0 -0.022870600459868714 0.0 0.0
0.005965045695493788 -0.0025622879589256315 0.0 -0.02287579775126221 0.0 0.0
0.0066223721437130316 -0.0028442002842526447 0.0 -0.022874293562972752 0.0 0.0
0.007276035981054009 -0.0031193022694320518 0.0 -0.022873562730609833 0.0 0.0
0.007918957363103295 -0.0033813493442190756 0.0 -0.022878778415120024 0.0 0.0
0.008529760809209376 -0.003610817860473155 0.0 -0.02289812680966354 0.0 0.0
0.009072331289773807 -0.0037781666021999734 0.0 -0.022948572844969067 0.0 0.0
0.009519043390835426 -0.003871158869952214 0.0 -0.02306908873553781 0.0 0.0
0.009954396703865838 -0.004007603308536819 0.0 -0.023313796228596216 0.0 0.0
0.010775795707564366 -0.004690552255195396 0.0 -0.023498496928252195 0.0 0.0
0.012677972555321168 -0.006980550619109781 0.0 -0.022192079658936124 0.0 0.0
0.015595168873520839 -0.011542732099181096 0.0 -0.015384372371460116 0.0 0.0
0.01719410154490602 -0.015222517289055462 0.0 -6.175615574477433e-16 0.0 0.0
0.015595168873520856 -0.011542732099178327 0.0 0.015384372371460928 0.0 0.0
0.012677972555321179 -0.0069805506191108965 0.0 0.022192079658935673 0.0 0.0
0.010775795707564328 -0.004690552255195536 0.0 0.023498496928251754 0.0 0.0
0.009954396703865517 -0.004007603308539387 0.0 0.02331379622859485 0.0 0.0
0.009519043390835303 -0.003871158869949662 0.0 0.023069088735537847 0.0 0.0
0.009072331289774097 -0.003778166602204102 0.0 0.022948572844970552 0.0 0.0
0.00852976080920948 -0.0036108178604718766 0.0 0.022898126809662904 0.0 0.0
0.007918957363103449 -0.0033813493442188913 0.0 0.022878778415119785 0.0 0.0
0.007276035981054259 -0.003119302269434841 0.0 0.022873562730609115 0.0 0.0
0.006622372143713083 -0.0028442002842549896 0.0 0.022874293562973273 0.0 0.0
0.005965045695493574 -0.0025622879589249133 0.0 0.022875797751260925 0.0 0.0
0.005296171011789191 -0.002264229254509756 0.0 0.022870600459868613 0.0 0.0
0.004584149405630105 -0.0019171244641229823 0.0 0.02284188929897196 0.0 0.0
0.0037542429180966066 -0.001451930704816624 0.0 0.022757741442411848 0.0 0.0
0.002662855271675931 -0.0007544599212242279 0.0 0.02259598293481945 0.0 0.0
0.001143794491753693 0.00027982301566177765 0.0 0.022532908833322773 0.0 0.0
-0.0005765876357247692 0.0013349771877551831 0.0 0.023372538916140467 0.0 0.0
-0.0009289878623316991 0.00041015042181170543 0.0 0.025760576283929276 0.0 0.0
0.0023211145193843693 -0.007171757889518083 0.0 0.0234490132814964 0.0 0.0
0.005088161262210621 -0.02089870693541107 0.0 0.015901605754264803 0.0 0.0
0.004159080720254128 -0.016910161867241348 0.0 -0.014404092851996012 0.0 0.0
0.0016599810024673998 -0.0066054085961436 0.0 -0.022416506853054335 0.0 0.0
-0.0017335405955509124 0.00042921347784235185 0.0 -0.02627555832684751 0.0 0.0
-0.0022963995158098724 0.0019548297342561116 0.0 -0.0244922558400537 0.0 0.0
-0.0014659711129540501 0.0013964618165114493 0.0 -0.023381386295334233 0.0 0.0
-0.0006621550569671644 0.0006818392238501465 0.0 -0.023111831718866736 0.0 0.0
-0.00022367751854738573 0.0002577740541357667 0.0 -0.023092682001368686 0.0 0.0
-4.517077228104031e-05 6.830603001460784e-05 0.0 -0.023102078228274436 0.0 0.0
9.464116264639344e-06 1.7585906376447829e-06 0.0 -0.023106543443815103 0.0 0.0
1.8281002542567702e-05 -1.376824826555405e-05 0.0 -0.023107656663010234 0.0 0.0
1.4768336371620843e-05 -1.248569623441291e-05 0.0 -0.02310776025179433 0.0 0.0
7.3611762766104955e-06 -4.17142725898077e-06 0.0 -0.023107574291142387 0.0 0.0
-1.112946580691704e-05 1.7496029805861402e-05 0.0 -0.02310689444853615 0.0 0.0
-6.270108815618815e-05 7.24346972589824e-05 0.0 -0.023105444225307952 0.0 0.0
-0.00018612131254389726 0.00019146537473125615 0.0 -0.023106679032952538 0.0 0.0
-0.0004191650944336577 0.00039404168863428987 0.0 -0.023140605477720906 0.0 0.0
-0.0006902718418830345 0.0005784334718329225 0.0 -0.023315061005716068 0.0 0.0
-0.0005492859847526731 0.00021141746227372504 0.0 -0.02367254675115543 0.0 0.0
0.0009493376121646607 -0.002022938044456476 0.0 -0.02304394693553384 0.0 0.0
0.0040188831227440025 -0.0073279399082711895 0.0 -0.016762065882116487 0.0 0.0
0.005854460427976396 -0.012155121150793015 0.0 -3.7730235602495554e-16 0.0 0.0
0.00401888312274409 -0.007327939908269089 0.0 0.016762065882117233 0.0 0.0
0.0009493376121647278 -0.0020229380444566386 0.0 0.023043946935534177 0.0 0.0
-0.0005492859847526202 0.0002114174622718235 0.0 0.02367254675115473 0.0 0.0
-0.0006902718418830861 0.0005784334718334696 0.0 0.02331506100571467 0.0 0.0
-0.0004191650944338043 0.0003940416886340675 0.0 0.023140605477722988 0.0 0.0
-0.0001861213125436453 0.00019146537472927402 0.0 0.023106679032953104 0.0 0.0
-6.270108815606195e-05 7.243469726054245e-05 0.0 0.02310544422530601 0.0 0.0
-1.1129465806931135e-05 1.749602980511371e-05 0.0 0.023106894448536537 0.0 0.0
7.3611762768631146e-06 -4.171427260497325e-06 0.0 0.0231075742911427 0.0 0.0
1.47683363714748e-05 -1.2485696233654727e-05 0.0 0.02310776025179622 0.0 0.0
1.8281002542613672e-05 -1.3768248267070335e-05 0.0 0.023107656663010345 0.0 0.0
9.464116264816394e-06 1.7585906371522027e-06 0.0 0.023106543443816234 0.0 0.0
-4.51707722811638e-05 6.830603001406382e-05 0.0 0.023102078228274144 0.0 0.0
-0.00022367751854741023 0.00025777405413391686 0.0 0.023092682001368388 0.0 0.0
-0.0006621550569672179 0.0006818392238513542 0.0 0.02311183171886694 0.0 0.0
-0.00146597111295391 0.0013964618165126814 0.0 0.02338138629533393 0.0 0.0
-0.002296399515809734 0.0019548297342563245 0.0 0.024492255840052754 0.0 0.0
-0.001733540595550735 0.00042921347784117376 0.0 0.026275558326847408 0.0 0.0
0.0016599810024674317 -0.006605408596142994 0.0 0.02241650685305405 0.0 0.0
0.004159080720253793 -0.016910161867241393 0.0 0.014404092851995114 0.0 0.0
0.0032567499028581704 -0.013368228628651072 0.0 -0.012968301065387277 0.0 0.0
0.000981030914361019 -0.005845593377360477 0.0 -0.021110128120659395 0.0 0.0
-0.0025313036796893655 0.0005510492503902097 0.0 -0.026088243235552398 0.0 0.0
-0.00391816148914056 0.0025149270194250676 0.0 -0.02495221990783285 0.0 0.0
-0.003978591511222868 0.002438183204834478 0.0 -0.023706761612941402 0.0 0.0
-0.003935531041278188 0.0020786191628463227 0.0 -0.023153625400223074 0.0 0.0
-0.004183051556252792 0.001952871512883582 0.0 -0.022957874703693065 0.0 0.0
-0.00467011397273299 0.0020497024661376134 0.0 -0.022891012101298926 0.0 0.0
-0.005277386595449714 0.0022674390220530907 0.0 -0.022870657254609145 0.0 0.0
-0.005929592275144476 0.00253541418259892 0.0 -0.02286752519269142 0.0 0.0
-0.006593802254314839 0.002819864612584815 0.0 -0.022869212165122558 0.0 0.0
-0.007261689993783 0.0031111254151655167 0.0 -0.022869604161152166 0.0 0.0
-0.007940099713696556 0.0034152757933024703 0.0 -0.02286310918943842 0.0 0.0
-0.008650114728106166 0.0037516584830647797 0.0 -0.02284103025150055 0.0 0.0
-0.009430187074373044 0.004150420311630676 0.0 -0.0227930423099595 0.0 0.0
-0.010327380838194525 0.00463690397741908 0.0 -0.022733945792827132 0.0 0.0
-0.011299039890823903 0.00513914626300577 0.0 -0.0228096393815788 0.0 0.0
-0.011878411673140854 0.005138045772976836 0.0 -0.023323897960693677 0.0 0.0
-0.010850691954403819 0.003068772202148396 0.0 -0.02355845747338027 0.0 0.0
-0.007588195718615081 -0.0030376973589792333 0.0 -0.018229277319644042 0.0 0.0
-0.0054447630739540235 -0.009429541638267086 0.0 -1.0495077029659683e-16 0.0 0.0
-0.0075881957186151715 -0.0030376973589739354 0.0 0.018229277319644792 0.0 0.0
-0.010850691954403736 0.0030687722021487136 0.0 0.02355845747338037 0.0 0.0
-0.011878411673140571 0.005138045772974386 0.0 0.02332389796069296 0.0 0.0
-0.011299039890823624 0.005139146263008424 0.0 0.02280963938157857 0.0 0.0
-0.010327380838194358 0.004636903977415558 0.0 0.022733945792828215 0.0 0.0
-0.009430187074373077 0.004150420311629908 0.0 0.022793042309961393 0.0 0.0
-0.008650114728106187 0.00375165848306782 0.0 0.022841030251500596 0.0 0.0
-0.007940099713696698 0.003415275793297816 0.0 0.022863109189438048 0.0 0.0
-0.007261689993782976 0.0031111254151690963 0.0 0.02286960416115389 0.0 0.0
-0.006593802254314829 0.002819864612585108 0.0 0.022869212165123953 0.0 0.0
-0.005929592275144581 0.002535414182595817 0.0 0.022867525192693337 0.0 0.0
-0.005277386595449828 0.0022674390220542955 0.0 0.02287065725460893 0.0 0.0
-0.0046701139727333175 0.0020497024661375726 0.0 0.022891012101298302 0.0 0.0
-0.004183051556252844 0.0019528715128823274 0.0 0.02295787470369307 0.0 0.0
-0.003935531041277904 0.002078619162847355 0.0 0.023153625400223875 0.0 0.0
-0.003978591511222855 0.002438183204833167 0.0 0.02370676161294116 0.0 0.0
-0.003918161489140659 0.0025149270194262476 0.0 0.024952219907833723 0.0 0.0
-0.002531303679689412 0.0005510492503892388 0.0 0.026088243235552196 0.0 0.0
0.0009810309143608502 -0.005845593377360535 0.0 0.021110128120659648 0.0 0.0
0.0032567499028580992 -0.013368228628651134 0.0 0.012968301065386906 0.0 0.0
0.00239064774808797 -0.010235908054355279 0.0 -0.011556080195821257 0.0 0.0
0.0002899886947298648 -0.004965441867226225 0.0 -0.019554546669062742 0.0 0.0
-0.0033391343324209784 0.0007772750393283401 0.0 -0.025269467197675356 0.0 0.0
-0.005473504220666774 0.0030445217751200442 0.0 -0.02475156623143467 0.0 0.0
-0.006412055846923941 0.0034191837089471615 0.0 -0.023472758862116305 0.0 0.0
-0.007161917278929279 0.0034384573458907377 0.0 -0.022696168059988066 0.0 0.0
-0.008124347386054298 0.003633478062134158 0.0 -0.022343190530831038 0.0 0.0
-0.009290745633850002 0.004027161757999578 0.0 -0.022205670929006573 0.0 0.0
-0.010564428333555639 0.004532859800599265 0.0 -0.02216243523897905 0.0 0.0
-0.011878571200077166 0.005085254042605551 0.0 -0.022155574505387306 0.0 0.0
-0.013203329818786603 0.0056528408477210055 0.0 -0.022158864066197183 0.0 0.0
-0.014531144003324566 0.006226610204722521 0.0 -0.02215994602438553 0.0 0.0
-0.015868069831014686 0.006812071364811231 0.0 -0.022148368842254754 0.0 0.0
-0.017232884311866953 0.007427107463667404 0.0 -0.022107579446704696 0.0 0.0
-0.018660441624875086 0.00809941932169212 0.0 -0.02201448740700737 0.0 0.0
-0.020203246774091063 0.008856458025089121 0.0 -0.02186417078254973 0.0 0.0
-0.021862120644056737 0.009665226992321207 0.0 -0.021810802426916756 0.0 0.0
-0.023207609399444 0.010080653750917143 0.0 -0.022419146852583508 0.0 0.0
-0.022758280451694753 0.008337492072600433 0.0 -0.023659174167007666 0.0 0.0
-0.019282108862242502 0.0014196421631715716 0.0 -0.019816206197581607 0.0 0.0
-0.01674971718884723 -0.007125755107352306 0.0 4.930951480464074e-16 0.0 0.0
-0.019282108862242502 0.0014196421631717344 0.0 0.019816206197581218 0.0 0.0
-0.022758280451694982 0.008337492072598167 0.0 0.023659174167008214 0.0 0.0
-0.023207609399444096 0.010080653750917185 0.0 0.022419146852583338 0.0 0.0
-0.02186212064405665 0.009665226992321065 0.0 0.021810802426915465 0.0 0.0
-0.020203246774091143 0.008856458025087745 0.0 0.021864170782549243 0.0 0.0
-0.01866044162487492 0.008099419321689614 0.0 0.022014487407008235 0.0 0.0
-0.017232884311866776 0.007427107463670644 0.0 0.02210757944670494 0.0 0.0
-0.015868069831014842 0.006812071364810846 0.0 0.022148368842252644 0.0 0.0
-0.014531144003324458 0.006226610204722382 0.0 0.02215994602438681 0.0 0.0
-0.013203329818786467 0.005652840847719744 0.0 0.022158864066198436 0.0 0.0
-0.011878571200077166 0.00508525404260442 0.0 0.02215557450538921 0.0 0.0
-0.010564428333555812 0.004532859800600081 0.0 0.02216243523897934 0.0 0.0
-0.009290745633850097 0.004027161757999962 0.0 0.022205670929006563 0.0 0.0
-0.008124347386054212 0.0036334780621339246 0.0 0.02234319053083118 0.0 0.0
-0.00716191727892935 0.0034384573458904593 0.0 0.02269616805998783 0.0 0.0
-0.006412055846923995 0.003419183708947945 0.0 0.02347275886211575 0.0 0.0
-0.005473504220666791 0.0030445217751194882 0.0 0.024751566231435318 0.0 0.0
-0.00333913433242108 0.0007772750393280368 0.0 0.02526946719767497 0.0 0.0
0.0002899886947297909 -0.004965441867225738 0.0 0.019554546669063227 0.0 0.0
0.0023906477480877997 -0.010235908054355203 0.0 0.011556080195822655 0.0 0.0
0.0015730613853573686 -0.007495820318437062 0.0 -0.010131996709042312 0.0 0.0
-0.00040173619080050184 -0.004022064486095488 0.0 -0.017762539875323856 0.0 0.0
-0.004161928145602945 0.0010977601733049508 0.0 -0.023877024966009748 0.0 0.0
-0.006984299500709593 0.003562507281814874 0.0 -0.02389844367037089 0.0 0.0
-0.00878395614873438 0.0043539644578097884 0.0 -0.02265324999652639 0.0 0.0
-0.01034916329239359 0.004767017418536415 0.0 -0.021717573079707446 0.0 0.0
-0.012050152570575099 0.005301352857422297 0.0 -0.021239037939766597 0.0 0.0
-0.013907887443344761 0.006001302900430773 0.0 -0.02104325738029698 0.0 0.0
-0.015851891618184955 0.006798201305971309 0.0 -0.02098148874651921 0.0 0.0
-0.017828658220348965 0.007635747529588989 0.0 -0.020972000695974425 0.0 0.0
-0.019813776724445585 0.008486407730971918 0.0 -0.02097692161691556 0.0 0.0
-0.021801059978156918 0.009342323431399431 0.0 -0.020978833753351238 0.0 0.0
-0.02379533099613568 0.010208118105309104 0.0 -0.020963489862626687 0.0 0.0
-0.025811868287159343 0.011099329325203076 0.0 -0.02090758276887002 0.0 0.0
-0.02787891179894328 0.012040118293473717 0.0 -0.020776972895715517 0.0 0.0
-0.03004678184783606 0.013054372158980069 0.0 -0.020547438828538718 0.0 0.0
-0.03236704143389878 0.014146373019753845 0.0 -0.020342988045175387 0.0 0.0
-0.03452018519844459 0.015015811417257725 0.0 -0.02092786331617985 0.0 0.0
-0.034804495281415104 0.013818206734266585 0.0 -0.023224236318345092 0.0 0.0
-0.03112873744862986 0.006173665181354446 0.0 -0.02153385445855644 0.0 0.0
-0.028118846765134008 -0.005360390405771317 0.0 -7.563394355258879e-16 0.0 0.0
-0.0311287374486294 0.006173665181351049 0.0 0.021533854458555123 0.0 0.0
-0.034804495281414785 0.013818206734265433 0.0 0.023224236318346504 0.0 0.0
-0.03452018519844442 0.015015811417257184 0.0 0.020927863316181305 0.0 0.0
-0.032367041433898555 0.014146373019751319 0.0 0.020342988045175016 0.0 0.0
-0.030046781847835963 0.01305437215898262 0.0 0.020547438828538052 0.0 0.0
-0.0278789117989431 0.012040118293468917 0.0 0.020776972895717654 0.0 0.0
-0.025811868287159517 0.011099329325205968 0.0 0.020907582768870652 0.0 0.0
-0.02379533099613597 0.010208118105312303 0.0 0.020963489862626368 0.0 0.0
-0.021801059978156786 0.009342323431395587 0.0 0.020978833753349017 0.0 0.0
-0.019813776724445595 0.008486407730973526 0.0 0.020976921616914532 0.0 0.0
-0.017828658220349482 0.007635747529591449 0.0 0.020972000695976517 0.0 0.0
-0.015851891618185343 0.006798201305969731 0.0 0.020981488746519478 0.0 0.0
-0.01390788744334466 0.006001302900429574 0.0 0.021043257380296214 0.0 0.0
-0.012050152570574894 0.005301352857420638 0.0 0.021239037939766007 0.0 0.0
-0.01034916329239373 0.0047670174185359005 0.0 0.02171757307970783 0.0 0.0
-0.008783956148734506 0.004353964457812428 0.0 0.022653249996526594 0.0 0.0
-0.006984299500709411 0.0035625072818141956 0.0 0.023898443670371416 0.0 0.0
-0.004161928145602933 0.0010977601733045798 0.0 0.023877024966008777 0.0 0.0
-0.00040173619080052835 -0.00402206448609502 0.0 0.01776253987532365 0.0 0.0
0.001573061385357451 -0.007495820318437124 0.0 0.01013199670904293 0.0 0.0
0.0008188253804889548 -0.005146662084868098 0.0 -0.008668756181592163 0.0 0.0
-0.001078089588963891 -0.00306043310242442 0.0 -0.015742051551719243 0.0 0.0
-0.00499497641975588 0.0014943551714886151 0.0 -0.02195515030111093 0.0 0.0
-0.008464033834332432 0.004079022771000448 0.0 -0.02240158927891678 0.0 0.0
-0.011110845665353544 0.0052564596031784375 0.0 -0.021228917331880884 0.0 0.0
-0.013507521266597225 0.006072314208831343 0.0 -0.020200219921368754 0.0 0.0
-0.015964909615019472 0.006959749772484761 0.0 -0.019637420338607766 0.0 0.0
-0.01852307430140949 0.007973247985670721 0.0 -0.019401585502249866 0.0 0.0
-0.021140165796238636 0.009063749728820868 0.0 -0.01932767330014208 0.0 0.0
-0.02377984688501138 0.010186880141125107 0.0 -0.019317054746368835 0.0 0.0
-0.026425069588045958 0.011320503060902822 0.0 -0.01932356832745437 0.0 0.0
-0.02907151330682685 0.012458302597637428 0.0 -0.01932641273213134 0.0 0.0
-0.03172234826750251 0.013603804807644027 0.0 -0.019308993052795573 0.0 0.0
-0.03438825834512369 0.014769157632492667 0.0 -0.01924322681876271 0.0 0.0
-0.037088900798901 0.01597465762610541 0.0 -0.019085234105229148 0.0 0.0
-0.03986186079598425 0.01723589650562297 0.0 -0.01879810112190611 0.0 0.0
-0.04280074111427744 0.01857502042074541 0.0 -0.018445578556591607 0.0 0.0
-0.04578121490237898 0.01990034797811502 0.0 -0.018841036395889323 0.0 0.0
-0.04700758194514557 0.019523839556233026 0.0 -0.022074031305596077 0.0 0.0
-0.04320796936022227 0.011411549334209797 0.0 -0.023347029589953935 0.0 0.0
-0.03963451213370972 -0.004296170116891836 0.0 -4.597017211338539e-17 0.0 0.0
-0.043207969360222045 0.011411549334209133 0.0 0.02334702958995372 0.0 0.0
-0.047007581945145566 0.019523839556234216 0.0 0.022074031305594634 0.0 0.0
-0.04578121490237925 0.019900347978116174 0.0 0.01884103639588987 0.0 0.0
-0.042800741114277674 0.018575020420742352 0.0 0.01844557855659201 0.0 0.0
-0.03986186079598405 0.017235896505627266 0.0 0.018798101121905685 0.0 0.0
-0.037088900798901064 0.01597465762610454 0.0 0.019085234105231337 0.0 0.0
-0.0343882583451239 0.014769157632492827 0.0 0.01924322681876323 0.0 0.0
-0.0317223482675026 0.013603804807642691 0.0 0.01930899305279457 0.0 0.0
-0.029071513306826717 0.012458302597635446 0.0 0.019326412732130777 0.0 0.0
-0.02642506958804553 0.011320503060903559 0.0 0.01932356832745321 0.0 0.0
-0.023779846885011408 0.010186880141129161 0.0 0.019317054746369862 0.0 0.0
-0.021140165796238727 0.00906374972882027 0.0 0.01932767330014181 0.0 0.0
-0.018523074301409474 0.007973247985670702 0.0 0.01940158550225008 0.0 0.0
-0.01596490961501935 0.006959749772483415 0.0 0.019637420338607287 0.0 0.0
-0.013507521266597305 0.006072314208832247 0.0 0.02020021992136889 0.0 0.0
-0.011110845665353601 0.005256459603179118 0.0 0.021228917331880585 0.0 0.0
-0.008464033834332335 0.004079022770999338 0.0 0.022401589278918436 0.0 0.0
-0.004994976419755745 0.0014943551714887478 0.0 0.0219551503011106 0.0 0.0
-0.0010780895889635472 -0.0030604331024246707 0.0 0.015742051551720305 0.0 0.0
0.0008188253804892276 -0.005146662084867921 0.0 0.008668756181591858 0.0 0.0
0.00014619981603055515 -0.0031997513712095694 0.0 -0.007152814699135403 0.0 0.0
-0.0017175713318303481 -0.002117448971524223 0.0 -0.0135020724426086 0.0 0.0
-0.005824596139770764 0.001942141665210945 0.0 -0.019533524961937172 0.0 0.0
-0.009919302501911365 0.004597412303832947 0.0 -0.020263552113365564 0.0 0.0
-0.01340852699691476 0.006140203897251761 0.0 -0.019184409088519944 0.0 0.0
-0.01664917433708549 0.007364179351524041 0.0 -0.018131320703506284 0.0 0.0
-0.019874560515921458 0.008613130063080452 0.0 -0.017532814037800364 0.0 0.0
-0.023138422924007217 0.009944534428261638 0.0 -0.01727946347210364 0.0 0.0
-0.02642974793138341 0.011329855150852098 0.0 -0.017201197174570502 0.0 0.0
-0.029732098920118057 0.012738605993664021 0.0 -0.01719106497313776 0.0 0.0
-0.03303709180810076 0.014155036687600698 0.0 -0.017198941564135966 0.0 0.0
-0.036342561824351916 0.015574562064672833 0.0 -0.017202737824611077 0.0 0.0
-0.03964975055801785 0.01699960358460441 0.0 -0.017184972597655758 0.0 0.0
-0.04296352977688085 0.018437874750550424 0.0 -0.01711604064660589 0.0 0.0
-0.04629434817397019 0.019904966803408395 0.0 -0.01694344923139057 0.0 0.0
-0.0496575899918725 0.021409612489888763 0.0 -0.016624314171596575 0.0 0.0
-0.05315488146472566 0.022953899016572736 0.0 -0.016170430432216304 0.0 0.0
-0.05693175488259031 0.024668959837246675 0.0 -0.016205342070980008 0.0 0.0
-0.05935738014228349 0.025416741561683904 0.0 -0.01996607269484548 0.0 0.0
-0.05561819903374127 0.017405415112143288 0.0 -0.025113027919735412 0.0 0.0
-0.051424843402632425 -0.004148164557555964 0.0 -4.597017211338539e-17 0.0 0.0
-0.05561819903374107 0.017405415112142015 0.0 0.025113027919734885 0.0 0.0
-0.059357380142283325 0.025416741561685417 0.0 0.019966072694845443 0.0 0.0
-0.05693175488259024 0.024668959837247203 0.0 0.01620534207098142 0.0 0.0
-0.053154881464725495 0.022953899016572132 0.0 0.0161704304322175 0.0 0.0
-0.04965758999187222 0.021409612489889367 0.0 0.016624314171597467 0.0 0.0
-0.046294348173970185 0.019904966803409023 0.0 0.016943449231391104 0.0 0.0
-0.04296352977688096 0.018437874750546746 0.0 0.017116040646605594 0.0 0.0
-0.03964975055801774 0.016999603584602185 0.0 0.01718497259765512 0.0 0.0
-0.036342561824351825 0.015574562064672105 0.0 0.017202737824612055 0.0 0.0
-0.033037091808100515 0.014155036687597211 0.0 0.017198941564136077 0.0 0.0
-0.02973209892011787 0.012738605993665391 0.0 0.017191064973138055 0.0 0.0
-0.02642974793138342 0.011329855150853059 0.0 0.01720119717456966 0.0 0.0
-0.023138422924007068 0.009944534428261008 0.0 0.017279463472104795 0.0 0.0
-0.0198745605159215 0.008613130063081929 0.0 0.017532814037800163 0.0 0.0
-0.016649174337085487 0.007364179351523989 0.0 0.018131320703506967 0.0 0.0
-0.013408526996914567 0.006140203897252449 0.0 0.01918440908851907 0.0 0.0
-0.009919302501911444 0.004597412303831283 0.0 0.020263552113365883 0.0 0.0
-0.005824596139770721 0.0019421416652117404 0.0 0.019533524961937748 0.0 0.0
-0.0017175713318301612 -0.0021174489715246464 0.0 0.013502072442608622 0.0 0.0
0.0001461998160305321 -0.0031997513712093617 0.0 0.007152814699135158 0.0 0.0
-0.00042092418713968134 -0.0016751818528663166 0.0 -0.00559309790411082 0.0 0.0
-0.0022905257433996095 -0.0012268918894012912 0.0 -0.011058050206273524 0.0 0.0
-0.006627280424476049 0.0024087558520754252 0.0 -0.016623571569295403 0.0 0.0
-0.011351592944789742 0.005116709560664531 0.0 -0.01747469405967043 0.0 0.0
-0.015693119387585223 0.007019299088550649 0.0 -0.016506683497513646 0.0 0.0
-0.019788007151963223 0.00865385914727197 0.0 -0.015503420574763772 0.0 0.0
-0.023786130822676565 0.010266791563603706 0.0 -0.014922838472323414 0.0 0.0
-0.027756429700136753 0.011916965743235574 0.0 -0.014677025990155645 0.0 0.0
-0.0317211648912443 0.013596870396405742 0.0 -0.014602698893026655 0.0 0.0
-0.035685312343554244 0.01529082587843341 0.0 -0.014594446395783316 0.0 0.0
-0.03964967858174595 0.016989874159947304 0.0 -0.014603118354264262 0.0 0.0
-0.04361421284342754 0.01869112193477472 0.0 -0.014607711684482381 0.0 0.0
-0.04757823709759154 0.02039586274183093 0.0 -0.014591260406920749 0.0 0.0
-0.051539623518434566 0.02210745980028952 0.0 -0.014525871849026878 0.0 0.0
-0.0554988087127688 0.023832700086647483 0.0 -0.014356729987237664 0.0 0.0
-0.05944807336817906 0.025583687696636225 0.0 -0.014026415310714736 0.0 0.0
-0.06343629095873708 0.02730774062552397 0.0 -0.013561415917806447 0.0 0.0
-0.06788634077040419 0.02924349032719816 0.0 -0.013177491156066683 0.0 0.0
-0.07178425531465275 0.0313523250672398 0.0 -0.016628324932770357 0.0 0.0
-0.0684789206793208 0.024546160210808243 0.0 -0.026439096664074988 0.0 0.0
-0.06370722155712322 -0.005173187894297465 0.0 1.1587952819525071e-15 0.0 0.0
-0.06847892067932061 0.024546160210808677 0.0 0.026439096664074943 0.0 0.0
-0.0717842553146525 0.03135232506724134 0.0 0.01662832493276892 0.0 0.0
-0.0678863407704043 0.02924349032719365 0.0 0.013177491156065282 0.0 0.0
-0.06343629095873717 0.0273077406255284 0.0 0.013561415917808288 0.0 0.0
-0.05944807336817905 0.025583687696635247 0.0 0.014026415310715145 0.0 0.0
-0.055498808712769146 0.02383270008665017 0.0 0.014356729987237884 0.0 0.0
-0.051539623518434524 0.02210745980028384 0.0 0.014525871849026189 0.0 0.0
-0.04757823709759138 0.02039586274183204 0.0 0.014591260406919795 0.0 0.0
-0.04361421284342767 0.018691121934775068 0.0 0.014607711684482345 0.0 0.0
-0.03964967858174585 0.01698987415994697 0.0 0.01460311835426446 0.0 0.0
-0.03568531234355421 0.015290825878434593 0.0 0.014594446395783257 0.0 0.0
-0.03172116489124442 0.013596870396405896 0.0 0.014602698893026744 0.0 0.0
-0.027756429700136705 0.011916965743235931 0.0 0.014677025990156505 0.0 0.0
-0.023786130822676253 0.010266791563602141 0.0 0.014922838472322557 0.0 0.0
-0.019788007151963206 0.00865385914727338 0.0 0.015503420574764708 0.0 0.0
-0.015693119387585382 0.007019299088551088 0.0 0.016506683497511918 0.0 0.0
-0.011351592944789511 0.005116709560664044 0.0 0.017474694059671326 0.0 0.0
-0.00662728042447598 0.0024087558520755094 0.0 0.016623571569295125 0.0 0.0
-0.002290525743399683 -0.0012268918894011637 0.0 0.011058050206274244 0.0 0.0
-0.00042092418713952977 -0.0016751818528665037 0.0 0.005593097904111454 0.0 0.0
-0.0008486512489446771 -0.0005967153753063685 0.0 -0.004036966258619485 0.0 0.0
-0.0027538173890255596 -0.00042681530623589573 0.0 -0.008437074912167223 0.0 0.0
-0.00736755124021489 0.0028523025728581656 0.0 -0.013208904941178743 0.0 0.0
-0.01275988583824595 0.00563532991502049 0.0 -0.014008028963426938 0.0 0.0
-0.017982800809117058 0.007909875181042993 0.0 -0.013185209258119552 0.0 0.0
-0.022939447625613812 0.009953593264390687 0.0 -0.012314899985714679 0.0 0.0
-0.027707265852517177 0.011926468237739286 0.0 -0.011808762938633983 0.0 0.0
-0.032379717550003455 0.01389240998707491 0.0 -0.011595972990566543 0.0 0.0
-0.03701487056301961 0.01586506698175962 0.0 -0.011533287978183857 0.0 0.0
-0.04163928850996816 0.017843379200041105 0.0 -0.01152766360917862 0.0 0.0
-0.04626259530250623 0.01982479022669005 0.0 -0.011536183122398944 0.0 0.0
-0.05088645279080493 0.021808065218075226 0.0 -0.01154085728060002 0.0 0.0
-0.055508306409490143 0.023792716288652618 0.0 -0.011527832771065146 0.0 0.0
-0.060119274964415007 0.025779928055034106 0.0 -0.011470400527614008 0.0 0.0
-0.06470517490078113 0.027762168619912472 0.0 -0.011328318252911418 0.0 0.0
-0.06924745910621156 0.029756521869161147 0.0 -0.011011344132918339 0.0 0.0
-0.07368312603414144 0.03169166343594526 0.0 -0.01060116710694145 0.0 0.0
-0.0785452578786973 0.03358032433791609 0.0 -0.010071903996233943 0.0 0.0
-0.08409743379011542 0.03696949795186018 0.0 -0.011941766885149032 0.0 0.0
-0.08192305875737782 0.03336925653183733 0.0 -0.026333325191275587 0.0 0.0
-0.07688041976797588 -0.007599507571333834 0.0 6.062858548538941e-16 0.0 0.0
-0.08192305875737757 0.03336925653183484 0.0 0.02633332519127495 0.0 0.0
-0.08409743379011558 0.03696949795185963 0.0 0.011941766885148171 0.0 0.0
-0.07854525787869698 0.03358032433791322 0.0 0.010071903996234685 0.0 0.0
-0.07368312603414108 0.03169166343594517 0.0 0.010601167106943232 0.0 0.0
-0.06924745910621159 0.029756521869159003 0.0 0.011011344132916524 0.0 0.0
-0.06470517490078122 0.027762168619915067 0.0 0.011328318252911177 0.0 0.0
-0.060119274964414854 0.025779928055032656 0.0 0.011470400527615042 0.0 0.0
-0.05550830640949009 0.023792716288654297 0.0 0.011527832771064972 0.0 0.0
-0.05088645279080508 0.021808065218077523 0.0 0.011540857280600161 0.0 0.0
-0.04626259530250599 0.0198247902266934 0.0 0.011536183122400318 0.0 0.0
-0.04163928850996792 0.017843379200041698 0.0 0.011527663609178541 0.0 0.0
-0.03701487056301954 0.015865066981759567 0.0 0.011533287978183395 0.0 0.0
-0.032379717550003496 0.013892409987074996 0.0 0.01159597299056674 0.0 0.0
-0.02770726585251724 0.011926468237736505 0.0 0.011808762938634513 0.0 0.0
-0.022939447625613833 0.009953593264393077 0.0 0.012314899985715024 0.0 0.0
-0.017982800809117065 0.007909875181043642 0.0 0.013185209258117508 0.0 0.0
-0.012759885838245956 0.005635329915021057 0.0 0.014008028963428402 0.0 0.0
-0.007367551240214555 0.002852302572858541 0.0 0.013208904941178504 0.0 0.0
-0.002753817389025305 -0.00042681530623597504 0.0 0.008437074912168094 0.0 0.0
-0.0008486512489449374 -0.0005967153753063938 0.0 0.004036966258619088 0.0 0.0
-0.001084518932057685 1.6072426833233354e-05 0.0 -0.0026010321196354123 0.0 0.0
-0.0030412078479712247 0.0002274221534222551 0.0 -0.005682121729437342 0.0 0.0
-0.007994865870043114 0.003218877034177576 0.0 -0.009224114057590983 0.0 0.0
-0.014145103861370113 0.006157297662732797 0.0 -0.009817532688417278 0.0 0.0
-0.020299978045264296 0.008831324204933043 0.0 -0.009214167598346219 0.0 0.0
-0.026120152533222675 0.011276096097942747 0.0 -0.00857033382020613 0.0 0.0
-0.03164574623675645 0.013597947569655357 0.0 -0.008195991227890935 0.0 0.0
-0.037010742670761064 0.015872533016692794 0.0 -0.008039644367738946 0.0 0.0
-0.0423111190738158 0.018134560051427353 0.0 -0.007994522393663694 0.0 0.0
-0.04759371773583082 0.020395992089041994 0.0 -0.007991239447495873 0.0 0.0
-0.0528754793315796 0.022659572147461376 0.0 -0.007998050660075532 0.0 0.0
-0.058159319646888086 0.02492513912350035 0.0 -0.008001936977554051 0.0 0.0
-0.06344011408161858 0.0271912261398938 0.0 -0.007992666349138481 0.0 0.0
-0.0687052340307009 0.02945398822706012 0.0 -0.007951798808224378 0.0 0.0
-0.07391927184634349 0.0317064163243941 0.0 -0.007840979887740542 0.0 0.0
-0.07905722627456298 0.033912986103898916 0.0 -0.0076297519785276414 0.0 0.0
-0.08397732028810732 0.03615418844954926 0.0 -0.007172753125155199 0.0 0.0
-0.08885538522063954 0.03782996708904019 0.0 -0.007194930690043113 0.0 0.0
-0.095863731433028 0.04148579706396621 0.0 -0.0066735221881808774 0.0 0.0
-0.09604953158311762 0.04450361344594829 0.0 -0.02228101182830787 0.0 0.0
-0.0917354714649591 -0.011359605583292194 0.0 4.0419056990259605e-16 0.0 0.0
-0.09604953158311738 0.044503613445950864 0.0 0.022281011828307946 0.0 0.0
-0.09586373143302812 0.04148579706396554 0.0 0.006673522188180792 0.0 0.0
-0.08885538522063986 0.03782996708904476 0.0 0.007194930690043528 0.0 0.0
-0.0839773202881072 0.0361541884495444 0.0 0.0071727531251553275 0.0 0.0
-0.07905722627456312 0.03391298610390098 0.0 0.007629751978527109 0.0 0.0
-0.07391927184634349 0.0317064163243965 0.0 0.00784097988774126 0.0 0.0
-0.06870523403070077 0.029453988227059587 0.0 0.007951798808225158 0.0 0.0
-0.0634401140816188 0.027191226139892832 0.0 0.00799266634913887 0.0 0.0
-0.05815931964688806 0.024925139123503748 0.0 0.008001936977554044 0.0 0.0
-0.052875479331579524 0.022659572147465175 0.0 0.007998050660074372 0.0 0.0
-0.047593717735830786 0.020395992089040027 0.0 0.007991239447495902 0.0 0.0
-0.042311119073815816 0.018134560051429535 0.0 0.007994522393663776 0.0 0.0
-0.03701074267076117 0.015872533016692388 0.0 0.008039644367738104 0.0 0.0
-0.03164574623675632 0.01359794756965457 0.0 0.00819599122789142 0.0 0.0
-0.026120152533222703 0.011276096097941767 0.0 0.008570333820205759 0.0 0.0
-0.020299978045264316 0.008831324204934161 0.0 0.009214167598344907 0.0 0.0
-0.014145103861369822 0.0061572976627336405 0.0 0.009817532688418115 0.0 0.0
-0.007994865870042956 0.0032188770341776457 0.0 0.00922411405759094 0.0 0.0
-0.003041207847971011 0.0002274221534220083 0.0 0.005682121729436597 0.0 0.0
-0.0010845189320572409 1.6072426833319497e-05 0.0 0.002601032119634948 0.0 0.0
-0.0010402231939928668 0.00016115761511574788 0.0 -0.001531984682240574 0.0 0.0
-0.0030458620821085256 0.0006376878771357751 0.0 -0.0028529603692183584 0.0 0.0
-0.008440732783305852 0.00344267936331778 0.0 -0.0045085856855165305 0.0 0.0
-0.01551821196072187 0.006703169652361846 0.0 -0.004851006045186563 0.0 0.0
-0.022673032053525024 0.009805261654820551 0.0 -0.004592606333319459 0.0 0.0
-0.029347422663657877 0.012634569306412755 0.0 -0.004281983408051034 0.0 0.0
-0.03560902282760607 0.015286470626263777 0.0 -0.004094165945884078 0.0 0.0
-0.041651439392909904 0.01785855138207649 0.0 -0.0040129895497881774 0.0 0.0
-0.04760985714449529 0.020405210454803212 0.0 -0.003988327073356605 0.0 0.0
-0.05354811260142807 0.022948287788346646 0.0 -0.003985667759883209 0.0 0.0
-0.05948796953331588 0.02549389477102145 0.0 -0.003988617566567935 0.0 0.0
-0.0654324107175425 0.02804227949473436 0.0 -0.003990245374741714 0.0 0.0
-0.07137488306932456 0.030591079778533002 0.0 -0.003984894470783558 0.0 0.0
-0.07729602682759322 0.03313363393771092 0.0 -0.003963940272320748 0.0 0.0
-0.08315785671004373 0.03565578178491784 0.0 -0.0039059290001075405 0.0 0.0
-0.0888595505881761 0.038122284440081096 0.0 -0.0038011324870660546 0.0 0.0
-0.09439916755134133 0.040479416828844206 0.0 -0.0036078000675306794 0.0 0.0
-0.09901504649464228 0.042808696214375004 0.0 -0.0033538713654270476 0.0 0.0
-0.10617817884306696 0.043362504957035156 0.0 -0.005289558532489159 0.0 0.0
-0.11072981090504183 0.05825391132583996 0.0 -0.007549493788917976 0.0 0.0
-0.10998616424160196 -0.015158984840856947 0.0 2.0296264668928643e-16 0.0 0.0
-0.11072981090504151 0.0582539113258418 0.0 0.00754949378891839 0.0 0.0
-0.10617817884306713 0.04336250495703928 0.0 0.005289558532488999 0.0 0.0
-0.09901504649464252 0.04280869621437611 0.0 0.003353871365427839 0.0 0.0
-0.09439916755134117 0.04047941682884055 0.0 0.0036078000675315333 0.0 0.0
-0.08885955058817611 0.038122284440091116 0.0 0.003801132487065147 0.0 0.0
-0.08315785671004385 0.03565578178492181 0.0 0.0039059290001080354 0.0 0.0
-0.07729602682759337 0.03313363393770946 0.0 0.0039639402723186945 0.0 0.0
-0.07137488306932474 0.030591079778534737 0.0 0.003984894470785012 0.0 0.0
-0.0654324107175423 0.028042279494738746 0.0 0.003990245374742965 0.0 0.0
-0.05948796953331566 0.02549389477102277 0.0 0.003988617566567358 0.0 0.0
-0.05354811260142824 0.022948287788344065 0.0 0.003985667759883484 0.0 0.0
-0.04760985714449538 0.02040521045480176 0.0 0.00398832707335572 0.0 0.0
-0.04165143939291002 0.017858551382077443 0.0 0.004012989549788926 0.0 0.0
-0.03560902282760604 0.015286470626262236 0.0 0.004094165945884262 0.0 0.0
-0.029347422663657672 0.012634569306413029 0.0 0.004281983408050638 0.0 0.0
-0.022673032053525013 0.009805261654821918 0.0 0.004592606333320887 0.0 0.0
-0.015518211960722044 0.006703169652361816 0.0 0.004851006045187314 0.0 0.0
-0.008440732783305717 0.0034426793633171144 0.0 0.004508585685516177 0.0 0.0
-0.0030458620821083126 0.0006376878771361715 0.0 0.002852960369218773 0.0 0.0
-0.0010402231939929995 0.00016115761511564127 0.0 0.0015319846822398103 0.0 0.0
-0.0005560603379606323 0.00011815088987403451 0.0 -0.0010266127547125057 0.0 0.0
-0.0025872540362296623 0.0007658248046062513 0.0 -0.0012057917442483295 0.0 0.0
-0.008619826882000168 0.0035099984113873637 0.0 -0.001534546240512542 0.0 0.0
-0.01691485154353484 0.006986119813374117 0.0 -0.001710964184595294 0.0 0.0
-0.02513499930021018 0.010308101751687322 0.0 -0.0016979324841588646 0.0 0.0
-0.032639151802715774 0.01332449752613485 0.0 -0.0016189216422516594 0.0 0.0
-0.03960346925487375 0.016135587963246652 0.0 -0.0015585434685903184 0.0 0.0
-0.04630290354796579 0.018853152539906173 0.0 -0.001527392993292249 0.0 0.0
-0.052910595130149216 0.021540787265737393 0.0 -0.001515461920533711 0.0 0.0
-0.05950182746298829 0.024224306810931212 0.0 -0.0015124595104605495 0.0 0.0
-0.06609954118579747 0.026910877390833803 0.0 -0.0015123488885526674 0.0 0.0
-0.07270556464355513 0.029600929154285853 0.0 -0.0015121081643098225 0.0 0.0
-0.07931199999029043 0.032291005627859304 0.0 -0.0015090235946213096 0.0 0.0
-0.08589661610316571 0.03497638045429663 0.0 -0.0015007194736503535 0.0 0.0
-0.0924095835035693 0.03762693643509653 0.0 -0.001480719870242942 0.0 0.0
-0.09873975867856408 0.04026002510168743 0.0 -0.0014420264957247624 0.0 0.0
-0.10469663415181794 0.042550490538131897 0.0 -0.0014813515849220974 0.0 0.0
-0.11008201092829781 0.045645865427825796 0.0 -0.0010079086711873003 0.0 0.0
-0.11329069465466113 0.043388717056113135 0.0 -0.00494898081912239 0.0 0.0
-0.1248660916777732 0.06577844070893976 0.0 -2.228057191832472e-05 0.0 0.0
-0.13576131240488037 -0.016784863394061853 0.0 -3.7470027081099033e-16 0.0 0.0
-0.12486609167777243 0.0657784407089353 0.0 2.2280571918514673e-05 0.0 0.0
-0.11329069465466107 0.04338871705612034 0.0 0.004948980819121639 0.0 0.0
-0.11008201092829822 0.045645865427819114 0.0 0.001007908671186171 0.0 0.0
-0.10469663415181828 0.04255049053812533 0.0 0.0014813515849245503 0.0 0.0
-0.09873975867856408 0.040260025101700375 0.0 0.0014420264957223025 0.0 0.0
-0.0924095835035691 0.03762693643509834 0.0 0.0014807198702433567 0.0 0.0
-0.08589661610316617 0.03497638045429937 0.0 0.001500719473650174 0.0 0.0
-0.0793119999902907 0.03229100562786452 0.0 0.001509023594623269 0.0 0.0
-0.07270556464355443 0.029600929154291595 0.0 0.0015121081643106327 0.0 0.0
-0.06609954118579714 0.02691087739083317 0.0 0.0015123488885539355 0.0 0.0
-0.059501827462988634 0.024224306810928388 0.0 0.0015124595104593847 0.0 0.0
-0.05291059513014916 0.021540787265732643 0.0 0.0015154619205323327 0.0 0.0
-0.04630290354796582 0.01885315253990771 0.0 0.0015273929932953468 0.0 0.0
-0.039603469254873847 0.016135587963245233 0.0 0.001558543468589091 0.0 0.0
-0.032639151802715385 0.013324497526139168 0.0 0.00161892164225044 0.0 0.0
-0.025134999300210282 0.01030810175168831 0.0 0.0016979324841612867 0.0 0.0
-0.016914851543535094 0.0069861198133733485 0.0 0.0017109641845957533 0.0 0.0
-0.00861982688200014 0.003509998411387172 0.0 0.0015345462405125963 0.0 0.0
-0.0025872540362300352 0.0007658248046070234 0.0 0.0012057917442491431 0.0 0.0
-0.0005560603379612173 0.00011815088987374573 0.0 0.0010266127547110889 0.0 0.0