# vtk DataFile Version 3.0
Some data
ASCII
DATASET UNSTRUCTURED_GRID
POINTS 861 float
0.0 0.0 0.0
0.4 0.0 0.0
0.8 0.0 0.0
1.2000000000000002 0.0 0.0
1.6 0.0 0.0
2.0 0.0 0.0
2.4000000000000004 0.0 0.0
2.8000000000000003 0.0 0.0
3.2 0.0 0.0
3.6 0.0 0.0
4.0 0.0 0.0
4.4 0.0 0.0
4.800000000000001 0.0 0.0
5.2 0.0 0.0
5.6000000000000005 0.0 0.0
6.0 0.0 0.0
6.4 0.0 0.0
6.800000000000001 0.0 0.0
7.2 0.0 0.0
7.6000000000000005 0.0 0.0
8.0 0.0 0.0
8.4 0.0 0.0
8.8 0.0 0.0
9.200000000000001 0.0 0.0
9.600000000000001 0.0 0.0
10.0 0.0 0.0
10.4 0.0 0.0
10.8 0.0 0.0
11.200000000000001 0.0 0.0
11.600000000000001 0.0 0.0
12.0 0.0 0.0
12.4 0.0 0.0
12.8 0.0 0.0
13.200000000000001 0.0 0.0
13.600000000000001 0.0 0.0
14.0 0.0 0.0
14.4 0.0 0.0
14.8 0.0 0.0
15.200000000000001 0.0 0.0
15.600000000000001 0.0 0.0
16.0 0.0 0.0
0.0 0.1 0.0
0.4 0.1 0.0
0.8 0.1 0.0
1.2000000000000002 0.1 0.0
1.6 0.1 0.0
2.0 0.1 0.0
2.4000000000000004 0.1 0.0
2.8000000000000003 0.1 0.0
3.2 0.1 0.0
3.6 0.1 0.0
4.0 0.1 0.0
4.4 0.1 0.0
4.800000000000001 0.1 0.0
5.2 0.1 0.0
5.6000000000000005 0.1 0.0
6.0 0.1 0.0
6.4 0.1 0.0
6.800000000000001 0.1 0.0
7.2 0.1 0.0
7.6000000000000005 0.1 0.0
8.0 0.1 0.0
8.4 0.1 0.0
8.8 0.1 0.0
9.200000000000001 0.1 0.0
9.600000000000001 0.1 0.0
10.0 0.1 0.0
10.4 0.1 0.0
10.8 0.1 0.0
11.200000000000001 0.1 0.0
11.600000000000001 0.1 0.0
12.0 0.1 0.0
12.4 0.1 0.0
12.8 0.1 0.0
13.200000000000001 0.1 0.0
13.600000000000001 0.1 0.0
14.0 0.1 0.0
14.4 0.1 0.0
14.8 0.1 0.0
15.200000000000001 0.1 0.0
15.600000000000001 0.1 0.0
16.0 0.1 0.0
0.0 0.2 0.0
0.4 0.2 0.0
0.8 0.2 0.0
1.2000000000000002 0.2 0.0
1.6 0.2 0.0
2.0 0.2 0.0
2.4000000000000004 0.2 0.0
2.8000000000000003 0.2 0.0
3.2 0.2 0.0
3.6 0.2 0.0
4.0 0.2 0.0
4.4 0.2 0.0
4.800000000000001 0.2 0.0
5.2 0.2 0.0
5.6000000000000005 0.2 0.0
6.0 0.2 0.0
6.4 0.2 0.0
6.800000000000001 0.2 0.0
7.2 0.2 0.0
7.6000000000000005 0.2 0.0
8.0 0.2 0.0
8.4 0.2 0.0
8.8 0.2 0.0
9.200000000000001 0.2 0.0
9.600000000000001 0.2 0.0
10.0 0.2 0.0
10.4 0.2 0.0
10.8 0.2 0.0
11.200000000000001 0.2 0.0
11.600000000000001 0.2 0.0
12.0 0.2 0.0
12.4 0.2 0.0
12.8 0.2 0.0
13.200000000000001 0.2 0.0
13.600000000000001 0.2 0.0
14.0 0.2 0.0
14.4 0.2 0.0
14.8 0.2 0.0
15.200000000000001 0.2 0.0
15.600000000000001 0.2 0.0
16.0 0.2 0.0
0.0 0.30000000000000004 0.0
0.4 0.30000000000000004 0.0
0.8 0.30000000000000004 0.0
1.2000000000000002 0.30000000000000004 0.0
1.6 0.30000000000000004 0.0
2.0 0.30000000000000004 0.0
2.4000000000000004 0.30000000000000004 0.0
2.8000000000000003 0.30000000000000004 0.0
3.2 0.30000000000000004 0.0
3.6 0.30000000000000004 0.0
4.0 0.30000000000000004 0.0
4.4 0.30000000000000004 0.0
4.800000000000001 0.30000000000000004 0.0
5.2 0.30000000000000004 0.0
5.6000000000000005 0.30000000000000004 0.0
6.0 0.30000000000000004 0.0
6.4 0.30000000000000004 0.0
6.800000000000001 0.30000000000000004 0.0
7.2 0.30000000000000004 0.0
7.6000000000000005 0.30000000000000004 0.0
8.0 0.30000000000000004 0.0
8.4 0.30000000000000004 0.0
8.8 0.30000000000000004 0.0
9.200000000000001 0.30000000000000004 0.0
9.600000000000001 0.30000000000000004 0.0
10.0 0.30000000000000004 0.0
10.4 0.30000000000000004 0.0
10.8 0.30000000000000004 0.0
11.200000000000001 0.30000000000000004 0.0
11.600000000000001 0.30000000000000004 0.0
12.0 0.30000000000000004 0.0
12.4 0.30000000000000004 0.0
12.8 0.30000000000000004 0.0
13.200000000000001 0.30000000000000004 0.0
13.600000000000001 0.30000000000000004 0.0
14.0 0.30000000000000004 0.0
14.4 0.30000000000000004 0.0
14.8 0.30000000000000004 0.0
15.200000000000001 0.30000000000000004 0.0
15.600000000000001 0.30000000000000004 0.0
16.0 0.30000000000000004 0.0
0.0 0.4 0.0
0.4 0.4 0.0
0.8 0.4 0.0
1.2000000000000002 0.4 0.0
1.6 0.4 0.0
2.0 0.4 0.0
2.4000000000000004 0.4 0.0
2.8000000000000003 0.4 0.0
3.2 0.4 0.0
3.6 0.4 0.0
4.0 0.4 0.0
4.4 0.4 0.0
4.800000000000001 0.4 0.0
5.2 0.4 0.0
5.6000000000000005 0.4 0.0
6.0 0.4 0.0
6.4 0.4 0.0
6.800000000000001 0.4 0.0
7.2 0.4 0.0
7.6000000000000005 0.4 0.0
8.0 0.4 0.0
8.4 0.4 0.0
8.8 0.4 0.0
9.200000000000001 0.4 0.0
9.600000000000001 0.4 0.0
10.0 0.4 0.0
10.4 0.4 0.0
10.8 0.4 0.0
11.200000000000001 0.4 0.0
11.600000000000001 0.4 0.0
12.0 0.4 0.0
12.4 0.4 0.0
12.8 0.4 0.0
13.200000000000001 0.4 0.0
13.600000000000001 0.4 0.0
14.0 0.4 0.0
14.4 0.4 0.0
14.8 0.4 0.0
15.200000000000001 0.4 0.0
15.600000000000001 0.4 0.0
16.0 0.4 0.0
0.0 0.5 0.0
0.4 0.5 0.0
0.8 0.5 0.0
1.2000000000000002 0.5 0.0
1.6 0.5 0.0
2.0 0.5 0.0
2.4000000000000004 0.5 0.0
2.8000000000000003 0.5 0.0
3.2 0.5 0.0
3.6 0.5 0.0
4.0 0.5 0.0
4.4 0.5 0.0
4.800000000000001 0.5 0.0
5.2 0.5 0.0
5.6000000000000005 0.5 0.0
6.0 0.5 0.0
6.4 0.5 0.0
6.800000000000001 0.5 0.0
7.2 0.5 0.0
7.6000000000000005 0.5 0.0
8.0 0.5 0.0
8.4 0.5 0.0
8.8 0.5 0.0
9.200000000000001 0.5 0.0
9.600000000000001 0.5 0.0
10.0 0.5 0.0
10.4 0.5 0.0
10.8 0.5 0.0
11.200000000000001 0.5 0.0
11.600000000000001 0.5 0.0
12.0 0.5 0.0
12.4 0.5 0.0
12.8 0.5 0.0
13.200000000000001 0.5 0.0
13.600000000000001 0.5 0.0
14.0 0.5 0.0
14.4 0.5 0.0
14.8 0.5 0.0
15.200000000000001 0.5 0.0
15.600000000000001 0.5 0.0
16.0 0.5 0.0
0.0 0.6000000000000001 0.0
0.4 0.6000000000000001 0.0
0.8 0.6000000000000001 0.0
1.2000000000000002 0.6000000000000001 0.0
1.6 0.6000000000000001 0.0
2.0 0.6000000000000001 0.0
2.4000000000000004 0.6000000000000001 0.0
2.8000000000000003 0.6000000000000001 0.0
3.2 0.6000000000000001 0.0
3.6 0.6000000000000001 0.0
4.0 0.6000000000000001 0.0
4.4 0.6000000000000001 0.0
4.800000000000001 0.6000000000000001 0.0
5.2 0.6000000000000001 0.0
5.6000000000000005 0.6000000000000001 0.0
6.0 0.6000000000000001 0.0
6.4 0.6000000000000001 0.0
6.800000000000001 0.6000000000000001 0.0
7.2 0.6000000000000001 0.0
7.6000000000000005 0.6000000000000001 0.0
8.0 0.6000000000000001 0.0
8.4 0.6000000000000001 0.0
8.8 0.6000000000000001 0.0
9.200000000000001 0.6000000000000001 0.0
9.600000000000001 0.6000000000000001 0.0
10.0 0.6000000000000001 0.0
10.4 0.6000000000000001 0.0
10.8 0.6000000000000001 0.0
11.200000000000001 0.6000000000000001 0.0
11.600000000000001 0.6000000000000001 0.0
12.0 0.6000000000000001 0.0
12.4 0.6000000000000001 0.0
12.8 0.6000000000000001 0.0
13.200000000000001 0.6000000000000001 0.0
13.600000000000001 0.6000000000000001 0.0
14.0 0.6000000000000001 0.0
14.4 0.6000000000000001 0.0
14.8 0.6000000000000001 0.0
15.200000000000001 0.6000000000000001 0.0
15.600000000000001 0.6000000000000001 0.0
16.0 0.6000000000000001 0.0
0.0 0.7000000000000001 0.0
0.4 0.7000000000000001 0.0
0.8 0.7000000000000001 0.0
1.2000000000000002 0.7000000000000001 0.0
1.6 0.7000000000000001 0.0
2.0 0.7000000000000001 0.0
2.4000000000000004 0.7000000000000001 0.0
2.8000000000000003 0.7000000000000001 0.0
3.2 0.7000000000000001 0.0
3.6 0.7000000000000001 0.0
4.0 0.7000000000000001 0.0
4.4 0.7000000000000001 0.0
4.800000000000001 0.7000000000000001 0.0
5.2 0.7000000000000001 0.0
5.6000000000000005 0.7000000000000001 0.0
6.0 0.7000000000000001 0.0
6.4 0.7000000000000001 0.0
6.800000000000001 0.7000000000000001 0.0
7.2 0.7000000000000001 0.0
7.6000000000000005 0.7000000000000001 0.0
8.0 0.7000000000000001 0.0
8.4 0.7000000000000001 0.0
8.8 0.7000000000000001 0.0
9.200000000000001 0.7000000000000001 0.0
9.600000000000001 0.7000000000000001 0.0
10.0 0.7000000000000001 0.0
10.4 0.7000000000000001 0.0
10.8 0.7000000000000001 0.0
11.200000000000001 0.7000000000000001 0.0
11.600000000000001 0.7000000000000001 0.0
12.0 0.7000000000000001 0.0
12.4 0.7000000000000001 0.0
12.8 0.7000000000000001 0.0
13.200000000000001 0.7000000000000001 0.0
13.600000000000001 0.7000000000000001 0.0
14.0 0.7000000000000001 0.0
14.4 0.7000000000000001 0.0
14.8 0.7000000000000001 0.0
15.200000000000001 0.7000000000000001 0.0
15.600000000000001 0.7000000000000001 0.0
16.0 0.7000000000000001 0.0
0.0 0.8 0.0
0.4 0.8 0.0
0.8 0.8 0.0
1.2000000000000002 0.8 0.0
1.6 0.8 0.0
2.0 0.8 0.0
2.4000000000000004 0.8 0.0
2.8000000000000003 0.8 0.0
3.2 0.8 0.0
3.6 0.8 0.0
4.0 0.8 0.0
4.4 0.8 0.0
4.800000000000001 0.8 0.0
5.2 0.8 0.0
5.6000000000000005 0.8 0.0
6.0 0.8 0.0
6.4 0.8 0.0
6.800000000000001 0.8 0.0
7.2 0.8 0.0
7.6000000000000005 0.8 0.0
8.0 0.8 0.0
8.4 0.8 0.0
8.8 0.8 0.0
9.200000000000001 0.8 0.0
9.600000000000001 0.8 0.0
10.0 0.8 0.0
10.4 0.8 0.0
10.8 0.8 0.0
11.200000000000001 0.8 0.0
11.600000000000001 0.8 0.0
12.0 0.8 0.0
12.4 0.8 0.0
12.8 0.8 0.0
13.200000000000001 0.8 0.0
13.600000000000001 0.8 0.0
14.0 0.8 0.0
14.4 0.8 0.0
14.8 0.8 0.0
15.200000000000001 0.8 0.0
15.600000000000001 0.8 0.0
16.0 0.8 0.0
0.0 0.9 0.0
0.4 0.9 0.0
0.8 0.9 0.0
1.2000000000000002 0.9 0.0
1.6 0.9 0.0
2.0 0.9 0.0
2.4000000000000004 0.9 0.0
2.8000000000000003 0.9 0.0
3.2 0.9 0.0
3.6 0.9 0.0
4.0 0.9 0.0
4.4 0.9 0.0
4.800000000000001 0.9 0.0
5.2 0.9 0.0
5.6000000000000005 0.9 0.0
6.0 0.9 0.0
6.4 0.9 0.0
6.800000000000001 0.9 0.0
7.2 0.9 0.0
7.6000000000000005 0.9 0.0
8.0 0.9 0.0
8.4 0.9 0.0
8.8 0.9 0.0
9.200000000000001 0.9 0.0
9.600000000000001 0.9 0.0
10.0 0.9 0.0
10.4 0.9 0.0
10.8 0.9 0.0
11.200000000000001 0.9 0.0
11.600000000000001 0.9 0.0
12.0 0.9 0.0
12.4 0.9 0.0
12.8 0.9 0.0
13.200000000000001 0.9 0.0
13.600000000000001 0.9 0.0
14.0 0.9 0.0
14.4 0.9 0.0
14.8 0.9 0.0
15.200000000000001 0.9 0.0
15.600000000000001 0.9 0.0
16.0 0.9 0.0
0.0 1.0 0.0
0.4 1.0 0.0
0.8 1.0 0.0
1.2000000000000002 1.0 0.0
1.6 1.0 0.0
2.0 1.0 0.0
2.4000000000000004 1.0 0.0
2.8000000000000003 1.0 0.0
3.2 1.0 0.0
3.6 1.0 0.0
4.0 1.0 0.0
4.4 1.0 0.0
4.800000000000001 1.0 0.0
5.2 1.0 0.0
5.6000000000000005 1.0 0.0
6.0 1.0 0.0
6.4 1.0 0.0
6.800000000000001 1.0 0.0
7.2 1.0 0.0
7.6000000000000005 1.0 0.0
8.0 1.0 0.0
8.4 1.0 0.0
8.8 1.0 0.0
9.200000000000001 1.0 0.0
9.600000000000001 1.0 0.0
10.0 1.0 0.0
10.4 1.0 0.0
10.8 1.0 0.0
11.200000000000001 1.0 0.0
11.600000000000001 1.0 0.0
12.0 1.0 0.0
12.4 1.0 0.0
12.8 1.0 0.0
13.200000000000001 1.0 0.0
13.600000000000001 1.0 0.0
14.0 1.0 0.0
14.4 1.0 0.0
14.8 1.0 0.0
15.200000000000001 1.0 0.0
15.600000000000001 1.0 0.0
16.0 1.0 0.0
0.0 1.1 0.0
0.4 1.1 0.0
0.8 1.1 0.0
1.2000000000000002 1.1 0.0
1.6 1.1 0.0
2.0 1.1 0.0
2.4000000000000004 1.1 0.0
2.8000000000000003 1.1 0.0
3.2 1.1 0.0
3.6 1.1 0.0
4.0 1.1 0.0
4.4 1.1 0.0
4.800000000000001 1.1 0.0
5.2 1.1 0.0
5.6000000000000005 1.1 0.0
6.0 1.1 0.0
6.4 1.1 0.0
6.800000000000001 1.1 0.0
7.2 1.1 0.0
7.6000000000000005 1.1 0.0
8.0 1.1 0.0
8.4 1.1 0.0
8.8 1.1 0.0
9.200000000000001 1.1 0.0
9.600000000000001 1.1 0.0
10.0 1.1 0.0
10.4 1.1 0.0
10.8 1.1 0.0
11.200000000000001 1.1 0.0
11.600000000000001 1.1 0.0
12.0 1.1 0.0
12.4 1.1 0.0
12.8 1.1 0.0
13.200000000000001 1.1 0.0
13.600000000000001 1.1 0.0
14.0 1.1 0.0
14.4 1.1 0.0
14.8 1.1 0.0
15.200000000000001 1.1 0.0
15.600000000000001 1.1 0.0
16.0 1.1 0.0
0.0 1.2000000000000002 0.0
0.4 1.2000000000000002 0.0
0.8 1.2000000000000002 0.0
1.2000000000000002 1.2000000000000002 0.0
1.6 1.2000000000000002 0.0
2.0 1.2000000000000002 0.0
2.4000000000000004 1.2000000000000002 0.0
2.8000000000000003 1.2000000000000002 0.0
3.2 1.2000000000000002 0.0
3.6 1.2000000000000002 0.0
4.0 1.2000000000000002 0.0
4.4 1.2000000000000002 0.0
4.800000000000001 1.2000000000000002 0.0
5.2 1.2000000000000002 0.0
5.6000000000000005 1.2000000000000002 0.0
6.0 1.2000000000000002 0.0
6.4 1.2000000000000002 0.0
6.800000000000001 1.2000000000000002 0.0
7.2 1.2000000000000002 0.0
7.6000000000000005 1.2000000000000002 0.0
8.0 1.2000000000000002 0.0
8.4 1.2000000000000002 0.0
8.8 1.2000000000000002 0.0
9.200000000000001 1.2000000000000002 0.0
9.600000000000001 1.2000000000000002 0.0
10.0 1.2000000000000002 0.0
10.4 1.2000000000000002 0.0
10.8 1.2000000000000002 0.0
11.200000000000001 1.2000000000000002 0.0
11.600000000000001 1.2000000000000002 0.0
12.0 1.2000000000000002 0.0
12.4 1.2000000000000002 0.0
12.8 1.2000000000000002 0.0
13.200000000000001 1.2000000000000002 0.0
13.600000000000001 1.2000000000000002 0.0
14.0 1.2000000000000002 0.0
14.4 1.2000000000000002 0.0
14.8 1.2000000000000002 0.0
15.200000000000001 1.2000000000000002 0.0
15.600000000000001 1.2000000000000002 0.0
16.0 1.2000000000000002 0.0
0.0 1.3 0.0
0.4 1.3 0.0
0.8 1.3 0.0
1.2000000000000002 1.3 0.0
1.6 1.3 0.0
2.0 1.3 0.0
2.4000000000000004 1.3 0.0
2.8000000000000003 1.3 0.0
3.2 1.3 0.0
3.6 1.3 0.0
4.0 1.3 0.0
4.4 1.3 0.0
4.800000000000001 1.3 0.0
5.2 1.3 0.0
5.6000000000000005 1.3 0.0
6.0 1.3 0.0
6.4 1.3 0.0
6.800000000000001 1.3 0.0
7.2 1.3 0.0
7.6000000000000005 1.3 0.0
8.0 1.3 0.0
8.4 1.3 0.0
8.8 1.3 0.0
9.200000000000001 1.3 0.0
9.600000000000001 1.3 0.0
10.0 1.3 0.0
10.4 1.3 0.0
10.8 1.3 0.0
11.200000000000001 1.3 0.0
11.600000000000001 1.3 0.0
12.0 1.3 0.0
12.4 1.3 0.0
12.8 1.3 0.0
13.200000000000001 1.3 0.0
13.600000000000001 1.3 0.0
14.0 1.3 0.0
14.4 1.3 0.0
14.8 1.3 0.0
15.200000000000001 1.3 0.0
15.600000000000001 1.3 0.0
16.0 1.3 0.0
0.0 1.4000000000000001 0.0
0.4 1.4000000000000001 0.0
0.8 1.4000000000000001 0.0
1.2000000000000002 1.4000000000000001 0.0
1.6 1.4000000000000001 0.0
2.0 1.4000000000000001 0.0
2.4000000000000004 1.4000000000000001 0.0
2.8000000000000003 1.4000000000000001 0.0
3.2 1.4000000000000001 0.0
3.6 1.4000000000000001 0.0
4.0 1.4000000000000001 0.0
4.4 1.4000000000000001 0.0
4.800000000000001 1.4000000000000001 0.0
5.2 1.4000000000000001 0.0
5.6000000000000005 1.4000000000000001 0.0
6.0 1.4000000000000001 0.0
6.4 1.4000000000000001 0.0
6.800000000000001 1.4000000000000001 0.0
7.2 1.4000000000000001 0.0
7.6000000000000005 1.4000000000000001 0.0
8.0 1.4000000000000001 0.0
8.4 1.4000000000000001 0.0
8.8 1.4000000000000001 0.0
9.200000000000001 1.4000000000000001 0.0
9.600000000000001 1.4000000000000001 0.0
10.0 1.4000000000000001 0.0
10.4 1.4000000000000001 0.0
10.8 1.4000000000000001 0.0
11.200000000000001 1.4000000000000001 0.0
11.600000000000001 1.4000000000000001 0.0
12.0 1.4000000000000001 0.0
12.4 1.4000000000000001 0.0
12.8 1.4000000000000001 0.0
13.200000000000001 1.4000000000000001 0.0
13.600000000000001 1.4000000000000001 0.0
14.0 1.4000000000000001 0.0
14.4 1.4000000000000001 0.0
14.8 1.4000000000000001 0.0
15.200000000000001 1.4000000000000001 0.0
15.600000000000001 1.4000000000000001 0.0
16.0 1.4000000000000001 0.0
0.0 1.5 0.0
0.4 1.5 0.0
0.8 1.5 0.0
1.2000000000000002 1.5 0.0
1.6 1.5 0.0
2.0 1.5 0.0
2.4000000000000004 1.5 0.0
2.8000000000000003 1.5 0.0
3.2 1.5 0.0
3.6 1.5 0.0
4.0 1.5 0.0
4.4 1.5 0.0
4.800000000000001 1.5 0.0
5.2 1.5 0.0
5.6000000000000005 1.5 0.0
6.0 1.5 0.0
6.4 1.5 0.0
6.800000000000001 1.5 0.0
7.2 1.5 0.0
7.6000000000000005 1.5 0.0
8.0 1.5 0.0
8.4 1.5 0.0
8.8 1.5 0.0
9.200000000000001 1.5 0.0
9.600000000000001 1.5 0.0
10.0 1.5 0.0
10.4 1.5 0.0
10.8 1.5 0.0
11.200000000000001 1.5 0.0
11.600000000000001 1.5 0.0
12.0 1.5 0.0
12.4 1.5 0.0
12.8 1.5 0.0
13.200000000000001 1.5 0.0
13.600000000000001 1.5 0.0
14.0 1.5 0.0
14.4 1.5 0.0
14.8 1.5 0.0
15.200000000000001 1.5 0.0
15.600000000000001 1.5 0.0
16.0 1.5 0.0
0.0 1.6 0.0
0.4 1.6 0.0
0.8 1.6 0.0
1.2000000000000002 1.6 0.0
1.6 1.6 0.0
2.0 1.6 0.0
2.4000000000000004 1.6 0.0
2.8000000000000003 1.6 0.0
3.2 1.6 0.0
3.6 1.6 0.0
4.0 1.6 0.0
4.4 1.6 0.0
4.800000000000001 1.6 0.0
5.2 1.6 0.0
5.6000000000000005 1.6 0.0
6.0 1.6 0.0
6.4 1.6 0.0
6.800000000000001 1.6 0.0
7.2 1.6 0.0
7.6000000000000005 1.6 0.0
8.0 1.6 0.0
8.4 1.6 0.0
8.8 1.6 0.0
9.200000000000001 1.6 0.0
9.600000000000001 1.6 0.0
10.0 1.6 0.0
10.4 1.6 0.0
10.8 1.6 0.0
11.200000000000001 1.6 0.0
11.600000000000001 1.6 0.0
12.0 1.6 0.0
12.4 1.6 0.0
12.8 1.6 0.0
13.200000000000001 1.6 0.0
13.600000000000001 1.6 0.0
14.0 1.6 0.0
14.4 1.6 0.0
14.8 1.6 0.0
15.200000000000001 1.6 0.0
15.600000000000001 1.6 0.0
16.0 1.6 0.0
0.0 1.7000000000000002 0.0
0.4 1.7000000000000002 0.0
0.8 1.7000000000000002 0.0
1.2000000000000002 1.7000000000000002 0.0
1.6 1.7000000000000002 0.0
2.0 1.7000000000000002 0.0
2.4000000000000004 1.7000000000000002 0.0
2.8000000000000003 1.7000000000000002 0.0
3.2 1.7000000000000002 0.0
3.6 1.7000000000000002 0.0
4.0 1.7000000000000002 0.0
4.4 1.7000000000000002 0.0
4.800000000000001 1.7000000000000002 0.0
5.2 1.7000000000000002 0.0
5.6000000000000005 1.7000000000000002 0.0
6.0 1.7000000000000002 0.0
6.4 1.7000000000000002 0.0
6.800000000000001 1.7000000000000002 0.0
7.2 1.7000000000000002 0.0
7.6000000000000005 1.7000000000000002 0.0
8.0 1.7000000000000002 0.0
8.4 1.7000000000000002 0.0
8.8 1.7000000000000002 0.0
9.200000000000001 1.7000000000000002 0.0
9.600000000000001 1.7000000000000002 0.0
10.0 1.7000000000000002 0.0
10.4 1.7000000000000002 0.0
10.8 1.7000000000000002 0.0
11.200000000000001 1.7000000000000002 0.0
11.600000000000001 1.7000000000000002 0.0
12.0 1.7000000000000002 0.0
12.4 1.7000000000000002 0.0
12.8 1.7000000000000002 0.0
13.200000000000001 1.7000000000000002 0.0
13.600000000000001 1.7000000000000002 0.0
14.0 1.7000000000000002 0.0
14.4 1.7000000000000002 0.0
14.8 1.7000000000000002 0.0
15.200000000000001 1.7000000000000002 0.0
15.600000000000001 1.7000000000000002 0.0
16.0 1.7000000000000002 0.0
0.0 1.8 0.0
0.4 1.8 0.0
0.8 1.8 0.0
1.2000000000000002 1.8 0.0
1.6 1.8 0.0
2.0 1.8 0.0
2.4000000000000004 1.8 0.0
2.8000000000000003 1.8 0.0
3.2 1.8 0.0
3.6 1.8 0.0
4.0 1.8 0.0
4.4 1.8 0.0
4.800000000000001 1.8 0.0
5.2 1.8 0.0
5.6000000000000005 1.8 0.0
6.0 1.8 0.0
6.4 1.8 0.0
6.800000000000001 1.8 0.0
7.2 1.8 0.0
7.6000000000000005 1.8 0.0
8.0 1.8 0.0
8.4 1.8 0.0
8.8 1.8 0.0
9.200000000000001 1.8 0.0
9.600000000000001 1.8 0.0
10.0 1.8 0.0
10.4 1.8 0.0
10.8 1.8 0.0
11.200000000000001 1.8 0.0
11.600000000000001 1.8 0.0
12.0 1.8 0.0
12.4 1.8 0.0
12.8 1.8 0.0
13.200000000000001 1.8 0.0
13.600000000000001 1.8 0.0
14.0 1.8 0.0
14.4 1.8 0.0
14.8 1.8 0.0
15.200000000000001 1.8 0.0
15.600000000000001 1.8 0.0
16.0 1.8 0.0
0.0 1.9000000000000001 0.0
0.4 1.9000000000000001 0.0
0.8 1.9000000000000001 0.0
1.2000000000000002 1.9000000000000001 0.0
1.6 1.9000000000000001 0.0
2.0 1.9000000000000001 0.0
2.4000000000000004 1.9000000000000001 0.0
2.8000000000000003 1.9000000000000001 0.0
3.2 1.9000000000000001 0.0
3.6 1.9000000000000001 0.0
4.0 1.9000000000000001 0.0
4.4 1.9000000000000001 0.0
4.800000000000001 1.9000000000000001 0.0
5.2 1.9000000000000001 0.0
5.6000000000000005 1.9000000000000001 0.0
6.0 1.9000000000000001 0.0
6.4 1.9000000000000001 0.0
6.800000000000001 1.9000000000000001 0.0
7.2 1.9000000000000001 0.0
7.6000000000000005 1.9000000000000001 0.0
8.0 1.9000000000000001 0.0
8.4 1.9000000000000001 0.0
8.8 1.9000000000000001 0.0
9.200000000000001 1.9000000000000001 0.0
9.600000000000001 1.9000000000000001 0.0
10.0 1.9000000000000001 0.0
10.4 1.9000000000000001 0.0
10.8 1.9000000000000001 0.0
11.200000000000001 1.9000000000000001 0.0
11.600000000000001 1.9000000000000001 0.0
12.0 1.9000000000000001 0.0
12.4 1.9000000000000001 0.0
12.8 1.9000000000000001 0.0
13.200000000000001 1.9000000000000001 0.0
13.600000000000001 1.9000000000000001 0.0
14.0 1.9000000000000001 0.0
14.4 1.9000000000000001 0.0
14.8 1.9000000000000001 0.0
15.200000000000001 1.9000000000000001 0.0
15.600000000000001 1.9000000000000001 0.0
16.0 1.9000000000000001 0.0
0.0 2.0 0.0
0.4 2.0 0.0
0.8 2.0 0.0
1.2000000000000002 2.0 0.0
1.6 2.0 0.0
2.0 2.0 0.0
2.4000000000000004 2.0 0.0
2.8000000000000003 2.0 0.0
3.2 2.0 0.0
3.6 2.0 0.0
4.0 2.0 0.0
4.4 2.0 0.0
4.800000000000001 2.0 0.0
5.2 2.0 0.0
5.6000000000000005 2.0 0.0
6.0 2.0 0.0
6.4 2.0 0.0
6.800000000000001 2.0 0.0
7.2 2.0 0.0
7.6000000000000005 2.0 0.0
8.0 2.0 0.0
8.4 2.0 0.0
8.8 2.0 0.0
9.200000000000001 2.0 0.0
9.600000000000001 2.0 0.0
10.0 2.0 0.0
10.4 2.0 0.0
10.8 2.0 0.0
11.200000000000001 2.0 0.0
11.600000000000001 2.0 0.0
12.0 2.0 0.0
12.4 2.0 0.0
12.8 2.0 0.0
13.200000000000001 2.0 0.0
13.600000000000001 2.0 0.0
14.0 2.0 0.0
14.4 2.0 0.0
14.8 2.0 0.0
15.200000000000001 2.0 0.0
15.600000000000001 2.0 0.0
16.0 2.0 0.0
CELLS 800 4000
4 0 1 42 41
4 1 2 43 42
4 2 3 44 43
4 3 4 45 44
4 4 5 46 45
4 5 6 47 46
4 6 7 48 47
4 7 8 49 48
4 8 9 50 49
4 9 10 51 50
4 10 11 52 51
4 11 12 53 52
4 12 13 54 53
4 13 14 55 54
4 14 15 56 55
4 15 16 57 56
4 16 17 58 57
4 17 18 59 58
4 18 19 60 59
4 19 20 61 60
4 20 21 62 61
4 21 22 63 62
4 22 23 64 63
4 23 24 65 64
4 24 25 66 65
4 25 26 67 66
4 26 27 68 67
4 27 28 69 68
4 28 29 70 69
4 29 30 71 70
4 30 31 72 71
4 31 32 73 72
4 32 33 74 73
4 33 34 75 74
4 34 35 76 75
4 35 36 77 76
4 36 37 78 77
4 37 38 79 78
4 38 39 80 79
4 39 40 81 80
4 41 42 83 82
4 42 43 84 83
4 43 44 85 84
4 44 45 86 85
4 45 46 87 86
4 46 47 88 87
4 47 48 89 88
4 48 49 90 89
4 49 50 91 90
4 50 51 92 91
4 51 52 93 92
4 52 53 94 93
4 53 54 95 94
4 54 55 96 95
4 55 56 97 96
4 56 57 98 97
4 57 58 99 98
4 58 59 100 99
4 59 60 101 100
4 60 61 102 101
4 61 62 103 102
4 62 63 104 103
4 63 64 105 104
4 64 65 106 105
4 65 66 107 106
4 66 67 108 107
4 67 68 109 108
4 68 69 110 109
4 69 70 111 110
4 70 71 112 111
4 71 72 113 112
4 72 73 114 113
4 73 74 115 114
4 74 75 116 115
4 75 76 117 116
4 76 77 118 117
4 77 78 119 118
4 78 79 120 119
4 79 80 121 120
4 80 81 122 121
4 82 83 124 123
4 83 84 125 124
4 84 85 126 125
4 85 86 127 126
4 86 87 128 127
4 87 88 129 128
4 88 89 130 129
4 89 90 131 130
4 90 91 132 131
4 91 92 133 132
4 92 93 134 133
4 93 94 135 134
4 94 95 136 135
4 95 96 137 136
4 96 97 138 137
4 97 98 139 138
4 98 99 140 139
4 99 100 141 140
4 100 101 142 141
4 101 102 143 142
4 102 103 144 143
4 103 104 145 144
4 104 105 146 145
4 105 106 147 146
4 106 107 148 147
4 107 108 149 148
4 108 109 150 149
4 109 110 151 150
4 110 111 152 151
4 111 112 153 152
4 112 113 154 153
4 113 114 155 154
4 114 115 156 155
4 115 116 157 156
4 116 117 158 157
4 117 118 159 158
4 118 119 160 159
4 119 120 161 160
4 120 121 162 161
4 121 122 163 162
4 123 124 165 164
4 124 125 166 165
4 125 126 167 166
4 126 127 168 167
4 127 128 169 168
4 128 129 170 169
4 129 130 171 170
4 130 131 172 171
4 131 132 173 172
4 132 133 174 173
4 133 134 175 174
4 134 135 176 175
4 135 136 177 176
4 136 137 178 177
4 137 138 179 178
4 138 139 180 179
4 139 140 181 180
4 140 141 182 181
4 141 142 183 182
4 142 143 184 183
4 143 144 185 184
4 144 145 186 185
4 145 146 187 186
4 146 147 188 187
4 147 148 189 188
4 148 149 190 189
4 149 150 191 190
4 150 151 192 191
4 151 152 193 192
4 152 153 194 193
4 153 154 195 194
4 154 155 196 195
4 155 156 197 196
4 156 157 198 197
4 157 158 199 198
4 158 159 200 199
4 159 160 201 200
4 160 161 202 201
4 161 162 203 202
4 162 163 204 203
4 164 165 206 205
4 165 166 207 206
4 166 167 208 207
4 167 168 209 208
4 168 169 210 209
4 169 170 211 210
4 170 171 212 211
4 171 172 213 212
4 172 173 214 213
4 173 174 215 214
4 174 175 216 215
4 175 176 217 216
4 176 177 218 217
4 177 178 219 218
4 178 179 220 219
4 179 180 221 220
4 180 181 222 221
4 181 182 223 222
4 182 183 224 223
4 183 184 225 224
4 184 185 226 225
4 185 186 227 226
4 186 187 228 227
4 187 188 229 228
4 188 189 230 229
4 189 190 231 230
4 190 191 232 231
4 191 192 233 232
4 192 193 234 233
4 193 194 235 234
4 194 195 236 235
4 195 196 237 236
4 196 197 238 237
4 197 198 239 238
4 198 199 240 239
4 199 200 241 240
4 200 201 242 241
4 201 202 243 242
4 202 203 244 243
4 203 204 245 244
4 205 206 247 246
4 206 207 248 247
4 207 208 249 248
4 208 209 250 249
4 209 210 251 250
4 210 211 252 251
4 211 212 253 252
4 212 213 254 253
4 213 214 255 254
4 214 215 256 255
4 215 216 257 256
4 216 217 258 257
4 217 218 259 258
4 218 219 260 259
4 219 220 261 260
4 220 221 262 261
4 221 222 263 262
4 222 223 264 263
4 223 224 265 264
4 224 225 266 265
4 225 226 267 266
4 226 227 268 267
4 227 228 269 268
4 228 229 270 269
4 229 230 271 270
4 230 231 272 271
4 231 232 273 272
4 232 233 274 273
4 233 234 275 274
4 234 235 276 275
4 235 236 277 276
4 236 237 278 277
4 237 238 279 278
4 238 239 280 279
4 239 240 281 280
4 240 241 282 281
4 241 242 283 282
4 242 243 284 283
4 243 244 285 284
4 244 245 286 285
4 246 247 288 287
4 247 248 289 288
4 248 249 290 289
4 249 250 291 290
4 250 251 292 291
4 251 252 293 292
4 252 253 294 293
4 253 254 295 294
4 254 255 296 295
4 255 256 297 296
4 256 257 298 297
4 257 258 299 298
4 258 259 300 299
4 259 260 301 300
4 260 261 302 301
4 261 262 303 302
4 262 263 304 303
4 263 264 305 304
4 264 265 306 305
4 265 266 307 306
4 266 267 308 307
4 267 268 309 308
4 268 269 310 309
4 269 270 311 310
4 270 271 312 311
4 271 272 313 312
4 272 273 314 313
4 273 274 315 314
4 274 275 316 315
4 275 276 317 316
4 276 277 318 317
4 277 278 319 318
4 278 279 320 319
4 279 280 321 320
4 280 281 322 321
4 281 282 323 322
4 282 283 324 323
4 283 284 325 324
4 284 285 326 325
4 285 286 327 326
4 287 288 329 328
4 288 289 330 329
4 289 290 331 330
4 290 291 332 331
4 291 292 333 332
4 292 293 334 333
4 293 294 335 334
4 294 295 336 335
4 295 296 337 336
4 296 297 338 337
4 297 298 339 338
4 298 299 340 339
4 299 300 341 340
4 300 301 342 341
4 301 302 343 342
4 302 303 344 343
4 303 304 345 344
4 304 305 346 345
4 305 306 347 346
4 306 307 348 347
4 307 308 349 348
4 308 309 350 349
4 309 310 351 350
4 310 311 352 351
4 311 312 353 352
4 312 313 354 353
4 313 314 355 354
4 314 315 356 355
4 315 316 357 356
4 316 317 358 357
4 317 318 359 358
4 318 319 360 359
4 319 320 361 360
4 320 321 362 361
4 321 322 363 362
4 322 323 364 363
4 323 324 365 364
4 324 325 366 365
4 325 326 367 366
4 326 327 368 367
4 328 329 370 369
4 329 330 371 370
4 330 331 372 371
4 331 332 373 372
4 332 333 374 373
4 333 334 375 374
4 334 335 376 375
4 335 336 377 376
4 336 337 378 377
4 337 338 379 378
4 338 339 380 379
4 339 340 381 380
4 340 341 382 381
4 341 342 383 382
4 342 343 384 383
4 343 344 385 384
4 344 345 386 385
4 345 346 387 386
4 346 347 388 387
4 347 348 389 388
4 348 349 390 389
4 349 350 391 390
4 350 351 392 391
4 351 352 393 392
4 352 353 394 393
4 353 354 395 394
4 354 355 396 395
4 355 356 397 396
4 356 357 398 397
4 357 358 399 398
4 358 359 400 399
4 359 360 401 400
4 360 361 402 401
4 361 362 403 402
4 362 363 404 403
4 363 364 405 404
4 364 365 406 405
4 365 366 407 406
4 366 367 408 407
4 367 368 409 408
4 369 370 411 410
4 370 371 412 411
4 371 372 413 412
4 372 373 414 413
4 373 374 415 414
4 374 375 416 415
4 375 376 417 416
4 376 377 418 417
4 377 378 419 418
4 378 379 420 419
4 379 380 421 420
4 380 381 422 421
4 381 382 423 422
4 382 383 424 423
4 383 384 425 424
4 384 385 426 425
4 385 386 427 426
4 386 387 428 427
4 387 388 429 428
4 388 389 430 429
4 389 390 431 430
4 390 391 432 431
4 391 392 433 432
4 392 393 434 433
4 393 394 435 434
4 394 395 436 435
4 395 396 437 436
4 396 397 438 437
4 397 398 439 438
4 398 399 440 439
4 399 400 441 440
4 400 401 442 441
4 401 402 443 442
4 402 403 444 443
4 403 404 445 444
4 404 405 446 445
4 405 406 447 446
4 406 407 448 447
4 407 408 449 448
4 408 409 450 449
4 410 411 452 451
4 411 412 453 452
4 412 413 454 453
4 413 414 455 454
4 414 415 456 455
4 415 416 457 456
4 416 417 458 457
4 417 418 459 458
4 418 419 460 459
4 419 420 461 460
4 420 421 462 461
4 421 422 463 462
4 422 423 464 463
4 423 424 465 464
4 424 425 466 465
4 425 426 467 466
4 426 427 468 467
4 427 428 469 468
4 428 429 470 469
4 429 430 471 470
4 430 431 472 471
4 431 432 473 472
4 432 433 474 473
4 433 434 475 474
4 434 435 476 475
4 435 436 477 476
4 436 437 478 477
4 437 438 479 478
4 438 439 480 479
4 439 440 481 480
4 440 441 482 481
4 441 442 483 482
4 442 443 484 483
4 443 444 485 484
4 444 445 486 485
4 445 446 487 486
4 446 447 488 487
4 447 448 489 488
4 448 449 490 489
4 449 450 491 490
4 451 452 493 492
4 452 453 494 493
4 453 454 495 494
4 454 455 496 495
4 455 456 497 496
4 456 457 498 497
4 457 458 499 498
4 458 459 500 499
4 459 460 501 500
4 460 461 502 501
4 461 462 503 502
4 462 463 504 503
4 463 464 505 504
4 464 465 506 505
4 465 466 507 506
4 466 467 508 507
4 467 468 509 508
4 468 469 510 509
4 469 470 511 510
4 470 471 512 511
4 471 472 513 512
4 472 473 514 513
4 473 474 515 514
4 474 475 516 515
4 475 476 517 516
4 476 477 518 517
4 477 478 519 518
4 478 479 520 519
4 479 480 521 520
4 480 481 522 521
4 481 482 523 522
4 482 483 524 523
4 483 484 525 524
4 484 485 526 525
4 485 486 527 526
4 486 487 528 527
4 487 488 529 528
4 488 489 530 529
4 489 490 531 530
4 490 491 532 531
4 492 493 534 533
4 493 494 535 534
4 494 495 536 535
4 495 496 537 536
4 496 497 538 537
4 497 498 539 538
4 498 499 540 539
4 499 500 541 540
4 500 501 542 541
4 501 502 543 542
4 502 503 544 543
4 503 504 545 544
4 504 505 546 545
4 505 506 547 546
4 506 507 548 547
4 507 508 549 548
4 508 509 550 549
4 509 510 551 550
4 510 511 552 551
4 511 512 553 552
4 512 513 554 553
4 513 514 555 554
4 514 515 556 555
4 515 516 557 556
4 516 517 558 557
4 517 518 559 558
4 518 519 560 559
4 519 520 561 560
4 520 521 562 561
4 521 522 563 562
4 522 523 564 563
4 523 524 565 564
4 524 525 566 565
4 525 526 567 566
4 526 527 568 567
4 527 528 569 568
4 528 529 570 569
4 529 530 571 570
4 530 531 572 571
4 531 532 573 572
4 533 534 575 574
4 534 535 576 575
4 535 536 577 576
4 536 537 578 577
4 537 538 579 578
4 538 539 580 579
4 539 540 581 580
4 540 541 582 581
4 541 542 583 582
4 542 543 584 583
4 543 544 585 584
4 544 545 586 585
4 545 546 587 586
4 546 547 588 587
4 547 548 589 588
4 548 549 590 589
4 549 550 591 590
4 550 551 592 591
4 551 552 593 592
4 552 553 594 593
4 553 554 595 594
4 554 555 596 595
4 555 556 597 596
4 556 557 598 597
4 557 558 599 598
4 558 559 600 599
4 559 560 601 600
4 560 561 602 601
4 561 562 603 602
4 562 563 604 603
4 563 564 605 604
4 564 565 606 605
4 565 566 607 606
4 566 567 608 607
4 567 568 609 608
4 568 569 610 609
4 569 570 611 610
4 570 571 612 611
4 571 572 613 612
4 572 573 614 613
4 574 575 616 615
4 575 576 617 616
4 576 577 618 617
4 577 578 619 618
4 578 579 620 619
4 579 580 621 620
4 580 581 622 621
4 581 582 623 622
4 582 583 624 623
4 583 584 625 624
4 584 585 626 625
4 585 586 627 626
4 586 587 628 627
4 587 588 629 628
4 588 589 630 629
4 589 590 631 630
4 590 591 632 631
4 591 592 633 632
4 592 593 634 633
4 593 594 635 634
4 594 595 636 635
4 595 596 637 636
4 596 597 638 637
4 597 598 639 638
4 598 599 640 639
4 599 600 641 640
4 600 601 642 641
4 601 602 643 642
4 602 603 644 643
4 603 604 645 644
4 604 605 646 645
4 605 606 647 646
4 606 607 648 647
4 607 608 649 648
4 608 609 650 649
4 609 610 651 650
4 610 611 652 651
4 611 612 653 652
4 612 613 654 653
4 613 614 655 654
4 615 616 657 656
4 616 617 658 657
4 617 618 659 658
4 618 619 660 659
4 619 620 661 660
4 620 621 662 661
4 621 622 663 662
4 622 623 664 663
4 623 624 665 664
4 624 625 666 665
4 625 626 667 666
4 626 627 668 667
4 627 628 669 668
4 628 629 670 669
4 629 630 671 670
4 630 631 672 671
4 631 632 673 672
4 632 633 674 673
4 633 634 675 674
4 634 635 676 675
4 635 636 677 676
4 636 637 678 677
4 637 638 679 678
4 638 639 680 679
4 639 640 681 680
4 640 641 682 681
4 641 642 683 682
4 642 643 684 683
4 643 644 685 684
4 644 645 686 685
4 645 646 687 686
4 646 647 688 687
4 647 648 689 688
4 648 649 690 689
4 649 650 691 690
4 650 651 692 691
4 651 652 693 692
4 652 653 694 693
4 653 654 695 694
4 654 655 696 695
4 656 657 698 697
4 657 658 699 698
4 658 659 700 699
4 659 660 701 700
4 660 661 702 701
4 661 662 703 702
4 662 663 704 703
4 663 664 705 704
4 664 665 706 705
4 665 666 707 706
4 666 667 708 707
4 667 668 709 708
4 668 669 710 709
4 669 670 711 710
4 670 671 712 711
4 671 672 713 712
4 672 673 714 713
4 673 674 715 714
4 674 675 716 715
4 675 676 717 716
4 676 677 718 717
4 677 678 719 718
4 678 679 720 719
4 679 680 721 720
4 680 681 722 721
4 681 682 723 722
4 682 683 724 723
4 683 684 725 724
4 684 685 726 725
4 685 686 727 726
4 686 687 728 727
4 687 688 729 728
4 688 689 730 729
4 689 690 731 730
4 690 691 732 731
4 691 692 733 732
4 692 693 734 733
4 693 694 735 734
4 694 695 736 735
4 695 696 737 736
4 697 698 739 738
4 698 699 740 739
4 699 700 741 740
4 700 701 742 741
4 701 702 743 742
4 702 703 744 743
4 703 704 745 744
4 704 705 746 745
4 705 706 747 746
4 706 707 748 747
4 707 708 749 748
4 708 709 750 749
4 709 710 751 750
4 710 711 752 751
4 711 712 753 752
4 712 713 754 753
4 713 714 755 754
4 714 715 756 755
4 715 716 757 756
4 716 717 758 757
4 717 718 759 758
4 718 719 760 759
4 719 720 761 760
4 720 721 762 761
4 721 722 763 762
4 722 723 764 763
4 723 724 765 764
4 724 725 766 765
4 725 726 767 766
4 726 727 768 767
4 727 728 769 768
4 728 729 770 769
4 729 730 771 770
4 730 731 772 771
4 731 732 773 772
4 732 733 774 773
4 733 734 775 774
4 734 735 776 775
4 735 736 777 776
4 736 737 778 777
4 738 739 780 779
4 739 740 781 780
4 740 741 782 781
4 741 742 783 782
4 742 743 784 783
4 743 744 785 784
4 744 745 786 785
4 745 746 787 786
4 746 747 788 787
4 747 748 789 788
4 748 749 790 789
4 749 750 791 790
4 750 751 792 791
4 751 752 793 792
4 752 753 794 793
4 753 754 795 794
4 754 755 796 795
4 755 756 797 796
4 756 757 798 797
4 757 758 799 798
4 758 759 800 799
4 759 760 801 800
4 760 761 802 801
4 761 762 803 802
4 762 763 804 803
4 763 764 805 804
4 764 765 806 805
4 765 766 807 806
4 766 767 808 807
4 767 768 809 808
4 768 769 810 809
4 769 770 811 810
4 770 771 812 811
4 771 772 813 812
4 772 773 814 813
4 773 774 815 814
4 774 775 816 815
4 775 776 817 816
4 776 777 818 817
4 777 778 819 818
4 779 780 821 820
4 780 781 822 821
4 781 782 823 822
4 782 783 824 823
4 783 784 825 824
4 784 785 826 825
4 785 786 827 826
4 786 787 828 827
4 787 788 829 828
4 788 789 830 829
4 789 790 831 830
4 790 791 832 831
4 791 792 833 832
4 792 793 834 833
4 793 794 835 834
4 794 795 836 835
4 795 796 837 836
4 796 797 838 837
4 797 798 839 838
4 798 799 840 839
4 799 800 841 840
4 800 801 842 841
4 801 802 843 842
4 802 803 844 843
4 803 804 845 844
4 804 805 846 845
4 805 806 847 846
4 806 807 848 847
4 807 808 849 848
4 808 809 850 849
4 809 810 851 850
4 810 811 852 851
4 811 812 853 852
4 812 813 854 853
4 813 814 855 854
4 814 815 856 855
4 815 816 857 856
4 816 817 858 857
4 817 818 859 858
4 818 819 860 859
CELL_TYPES 800
9
9
9
9
9
9
9
9
9
9
9
9
9
9
9
9
9
9
9
9
9
9
9
9
9
9
9
9
9
9
9
9
9
9
9
9
9
9
9
9
9
9
9
9
9
9
9
9
9
9
9
9
9
9
9
9
9
9
9
9
9
9
9
9
9
9
9
9
9
9
9
9
9
9
9
9
9
9
9
9
9
9
9
9
9
9
9
9
9
9
9
9
9
9
9
9
9
9
9
9
9
9
9
9
9
9
9
9
9
9
9
9
9
9
9
9
9
9
9
9
9
9
9
9
9
9
9
9
9
9
9
9
9
9
9
9
9
9
9
9
9
9
9
9
9
9
9
9
9
9
9
9
9
9
9
9
9
9
9
9
9
9
9
9
9
9
9
9
9
9
9
9
9
9
9
9
9
9
9
9
9
9
9
9
9
9
9
9
9
9
9
9
9
9
9
9
9
9
9
9
9
9
9
9
9
9
9
9
9
9
9
9
9
9
9
9
9
9
9
9
9
9
9
9
9
9
9
9
9
9
9
9
9
9
9
9
9
9
9
9
9
9
9
9
9
9
9
9
9
9
9
9
9
9
9
9
9
9
9
9
9
9
9
9
9
9
9
9
9
9
9
9
9
9
9
9
9
9
9
9
9
9
9
9
9
9
9
9
9
9
9
9
9
9
9
9
9
9
9
9
9
9
9
9
9
9
9
9
9
9
9
9
9
9
9
9
9
9
9
9
9
9
9
9
9
9
9
9
9
9
9
9
9
9
9
9
9
9
9
9
9
9
9
9
9
9
9
9
9
9
9
9
9
9
9
9
9
9
9
9
9
9
9
9
9
9
9
9
9
9
9
9
9
9
9
9
9
9
9
9
9
9
9
9
9
9
9
9
9
9
9
9
9
9
9
9
9
9
9
9
9
9
9
9
9
9
9
9
9
9
9
9
9
9
9
9
9
9
9
9
9
9
9
9
9
9
9
9
9
9
9
9
9
9
9
9
9
9
9
9
9
9
9
9
9
9
9
9
9
9
9
9
9
9
9
9
9
9
9
9
9
9
9
9
9
9
9
9
9
9
9
9
9
9
9
9
9
9
9
9
9
9
9
9
9
9
9
9
9
9
9
9
9
9
9
9
9
9
9
9
9
9
9
9
9
9
9
9
9
9
9
9
9
9
9
9
9
9
9
9
9
9
9
9
9
9
9
9
9
9
9
9
9
9
9
9
9
9
9
9
9
9
9
9
9
9
9
9
9
9
9
9
9
9
9
9
9
9
9
9
9
9
9
9
9
9
9
9
9
9
9
9
9
9
9
9
9
9
9
9
9
9
9
9
9
9
9
9
9
9
9
9
9
9
9
9
9
9
9
9
9
9
9
9
9
9
9
9
9
9
9
9
9
9
9
9
9
9
9
9
9
9
9
9
9
9
9
9
9
9
9
9
9
9
9
9
9
9
9
9
9
9
9
9
9
9
9
9
9
9
9
9
9
9
9
9
9
9
9
9
9
9
9
9
9
9
9
9
9
9
9
9
9
9
9
9
9
9
9
9
9
9
9
9
9
9
9
9
9
9
9
9
9
9
9
9
9
9
9
9
9
9
9
9
9
9
9
9
9
9
9
9
9
9
9
9
9
9
9
9
9
9
9
9
9
9
9
9
9
9
9
9
9
9
9
9
9
9
9
9
9
9
9
9
9
9
9
9
9
9
9
9
9
9
9
9
9
9
9
9
9
9
9
9
9
9
9
9
9
9
9
9
9
9
9
9
9
9
9
9
9
9
9
9
9
9
9
9
9
9
9
9
9
9
9
9
9
9
9
9
POINT_DATA 861
SCALARS Disp float 2
LOOKUP_TABLE default
0.0 0.0
0.005875695363832142 -0.1073827276097088
0.010465571559701138 -0.19811723774471357
0.014147271814412006 -0.2872942837867405
0.01835346845213461 -0.3747561735604302
0.023412165157021377 -0.46046401555462524
0.029484664142869033 -0.5440082446938257
0.03663570215816554 -0.6249463569458102
0.044886470842198316 -0.7028210883476304
0.054241881801313445 -0.7771807969280404
0.06470120053396497 -0.8475790708366466
0.07626273373272041 -0.9135735919179758
0.08892543930006457 -0.9747247621265686
0.10269047080325723 -1.0305950908338786
0.11756449401416752 -1.080747742057582
0.133565762738842 -1.124740527314767
0.15073023333038618 -1.162108762238797
0.16910551888082737 -1.1923307472865279
0.1887064079120124 -1.2147831868195336
0.20940535278444494 -1.2287355244565192
0.23079316800786945 -1.2334918294997665
0.25218098323129406 -1.228735524456519
0.2728799281037266 -1.2147831868195333
0.2924808171349116 -1.1923307472865272
0.31085610268535263 -1.1621087622387967
0.32802057327689677 -1.124740527314767
0.3440218420015713 -1.0807477420575817
0.3588958652124816 -1.0305950908338777
0.37266089671567415 -0.9747247621265681
0.38532360228301843 -0.9135735919179756
0.3968851354817738 -0.8475790708366462
0.40734445421442533 -0.7771807969280401
0.41669986517354035 -0.70282108834763
0.42495063385757326 -0.6249463569458098
0.4321016718728698 -0.5440082446938251
0.4381741708587175 -0.4604640155546252
0.44323286756360414 -0.3747561735604298
0.4474390642013267 -0.2872942837867405
0.4511207644560375 -0.19811723774471326
0.45571064065190653 -0.10738272760970848
0.46158633601573873 0.0
0.026600152019296525 -0.003648920573434361
0.03025896046325054 -0.10709828162784468
0.032791400047152454 -0.19863247674136497
0.036202844810181635 -0.2876535074804998
0.03994369426659947 -0.3752294593490322
0.04451097781263525 -0.46102776332285667
0.04998377696770675 -0.54468116349481
0.05642480219155515 -0.6257301241517957
0.06385279905037267 -0.7037171971634826
0.07227353014289856 -0.778189281819329
0.08168720044586603 -0.8486998193568829
0.09209283170798807 -0.9148064608207215
0.10348989030534243 -0.976069736771229
0.11587974481562842 -1.0320524861629825
0.12926833368961085 -1.082318646084782
0.14367049895728262 -1.126427449385535
0.15911314340922153 -1.1639158637384706
0.17562668478443325 -1.19426179490935
0.1932043435302659 -1.2168342009310564
0.21171312652647864 -1.2308811663209163
0.23079316800786942 -1.2356749952362551
0.24987320948926037 -1.2308811663209163
0.26838199248547306 -1.2168342009310562
0.2859596512313056 -1.1942617949093495
0.3024731926065173 -1.1639158637384701
0.3179158370584561 -1.1264274493855349
0.332318002326128 -1.0823186460847816
0.3457065912001104 -1.032052486162982
0.35809644571039634 -0.9760697367712287
0.36949350430775074 -0.9148064608207213
0.3798991355698727 -0.8486998193568824
0.38931280587284023 -0.7781892818193288
0.39773353696536606 -0.7037171971634824
0.40516153382418363 -0.6257301241517954
0.41160255904803206 -0.5446811634948094
0.41707535820310354 -0.4610277633228566
0.42164264174913924 -0.37522945934903185
0.4253834912055571 -0.28765350748049984
0.4287949359685862 -0.19863247674136467
0.4313273755524882 -0.10709828162784436
0.4349861839964422 -0.003648920573434378
0.05138910424820542 -0.006783243742763314
0.05401340908168108 -0.10688966965567104
0.05537635425357377 -0.19891636616280717
0.058107781582303515 -0.28800322229954056
0.06142491431164342 -0.3756392068338203
0.06546683333880857 -0.4615340685100762
0.07033579332629368 -0.5452828298216187
0.07606361647814404 -0.6264317440866822
0.08266834513902573 -0.7045191057650335
0.09015443579859443 -0.7790917029794263
0.09852264767580197 -0.8497026457003567
0.10777249027617904 -0.9159096063998549
0.11790376141625249 -0.9772731931634796
0.12891765853080728 -1.0333564763797145
0.14081867876255985 -1.0837239352284165
0.15361751061707196 -1.127935830009693
0.1673327121192941 -1.1655303861820963
0.18198304192509865 -1.195985315154668
0.19755435652344214 -1.2186636585905362
0.21392748338292758 -1.2327958669568153
0.23079316800786942 -1.237624779572196
0.24765885263281134 -1.232795866956815
0.26403197949229684 -1.218663658590536
0.2796032940906401 -1.1959853151546675
0.2942536238964447 -1.165530386182096
0.30796882539866677 -1.1279358300096929
0.320767657253179 -1.083723935228416
0.3326686774849315 -1.033356476379714
0.3436825745994863 -0.9772731931634793
0.3538138457395597 -0.9159096063998546
0.3630636883399368 -0.8497026457003564
0.37143190021714434 -0.7790917029794261
0.378917990876713 -0.7045191057650333
0.3855227195375947 -0.6264317440866819
0.3912505426894451 -0.545282829821618
0.39611950267693014 -0.46153406851007617
0.4001614217040953 -0.37563920683381996
0.40347855443343517 -0.2880032222995406
0.40620998176216494 -0.1989163661628069
0.4075729269340576 -0.10688966965567069
0.4101972317675332 -0.006783243742763342
0.07510788493214914 -0.009462127391376945
0.0771924657651105 -0.1068283315801868
0.07791516577927372 -0.19904208218669467
0.07994817116328166 -0.2882921694016843
0.08278458051493649 -0.37599576754965597
0.08630090129245181 -0.4619769862695671
0.09055627511766802 -0.5458135213326148
0.09556944737473495 -0.6270507219219232
0.10135000585472335 -0.7052268399097201
0.10790143791199275 -0.7798880689584037
0.11522427329650013 -0.850587579270233
0.12331837531020064 -0.9168830286577229
0.13218368996425986 -0.9783350637865279
0.14182095112962376 -1.0345068355795362
0.15223274217008756 -1.0849630937251593
0.16342526257177037 -1.129264819677462
0.17540976092504432 -1.1669515999656295
0.18819834573886765 -1.1975023622482839
0.20178094770418842 -1.2202775889937854
0.21606591391372762 -1.2344931943899058
0.23079316800786942 -1.2393589957769984
0.24552042210201122 -1.2344931943899058
0.2598053883115505 -1.2202775889937851
0.27338799027687116 -1.1975023622482832
0.28617657509069444 -1.1669515999656292
0.2981610734439684 -1.1292648196774615
0.30935359384565125 -1.0849630937251589
0.31976538488611506 -1.0345068355795355
0.3294026460514789 -0.9783350637865278
0.3382679607055381 -0.9168830286577225
0.34636206271923864 -0.8505875792702329
0.353684898103746 -0.7798880689584033
0.3602363301610154 -0.7052268399097199
0.36601688864100385 -0.6270507219219229
0.3710300608980707 -0.5458135213326141
0.3752854347232869 -0.4619769862695671
0.37880175550080225 -0.37599576754965564
0.381638164852457 -0.28829216940168434
0.38367117023646496 -0.19904208218669436
0.3843938702506282 -0.10682833158018645
0.3864784510835896 -0.009462127391376966
0.09814285584501675 -0.011743802731095765
0.09990228763408855 -0.1069067272003191
0.10028404845671646 -0.19907733950477371
0.10171681304376695 -0.28850570046916624
0.10404010285117905 -0.37629600993871953
0.10702482929878739 -0.462356222038974
0.11066271747109174 -0.5462721370970285
0.11495890607303147 -0.6275869997666761
0.1199147540164628 -0.7058403018095335
0.12553133793386326 -0.7805783973858036
0.13180881943289208 -0.8513546288054403
0.13874716967046333 -0.917726721451866
0.1463463591488055 -0.9792552889026832
0.1546064587079985 -1.0355033925639365
0.1635278916276936 -1.086035764407683
0.17311233429543826 -1.1304138894630058
0.18336481470105984 -1.1681792179421213
0.1942948843844825 -1.1988142355208176
0.20590532929585526 -1.2216813407192133
0.21814215962516265 -1.235984465842594
0.23079316800786942 -1.2408924899599265
0.2434441763905762 -1.2359844658425938
0.25568100671988353 -1.221681340719213
0.2672914516312563 -1.1988142355208171
0.278221521314679 -1.1681792179421209
0.2884740017203005 -1.1304138894630056
0.29805844438804524 -1.0860357644076826
0.30697987730774035 -1.0355033925639356
0.3152399768669333 -0.9792552889026829
0.32283916634527543 -0.9177267214518656
0.32977751658284665 -0.8513546288054402
0.33605499808187544 -0.7805783973858033
0.34167158199927594 -0.7058403018095333
0.3466274299427073 -0.6275869997666758
0.350923618544647 -0.5462721370970277
0.35456150671695136 -0.462356222038974
0.3575462331645597 -0.3762960099387192
0.3598695229719718 -0.2885057004691663
0.3613022875590223 -0.19907733950477344
0.36168404838165014 -0.10690672720031873
0.3634434801707219 -0.011743802731095796
0.12071596421474574 -0.013681814982616437
0.12224490256711734 -0.10709269071794204
0.12244657256077641 -0.1990689566168277
0.123393986893693 -0.28864749377431553
0.12520545894838042 -0.37653631651601893
0.12765248867804674 -0.4626716325751906
0.13067124311995423 -0.5466581681039795
0.1342488528088008 -0.6280403905852191
0.13837940799248086 -0.7063594501442025
0.14306095306815617 -0.7811626741743788
0.1482930237155268 -0.852003796694878
0.1540755734462574 -0.9184406729497201
0.1604084872604642 -0.9800338241226343
0.1672910819330043 -1.0363460404885654
0.17472157596626808 -1.0869417521736726
0.18269730902210618 -1.1313827950259607
0.1912180334617599 -1.1692132524839196
0.20029366324729408 -1.1999221757137615
0.20994616667404362 -1.222879286659121
0.22016737754230056 -1.2372790555790432
0.23079316800786945 -1.242238029621242
0.24141895847343828 -1.237279055579043
0.25164016934169514 -1.2228792866591207
0.26129267276844476 -1.199922175713761
0.27036830255397887 -1.1692132524839194
0.2788890269936326 -1.1313827950259607
0.28686476004947076 -1.0869417521736722
0.29429525408273455 -1.0363460404885645
0.30117784875527465 -0.980033824122634
0.30751076256948134 -0.9184406729497196
0.31329331230021196 -0.8520037966948779
0.31852538294758254 -0.7811626741743786
0.3232069280232579 -0.7063594501442022
0.3273374832069379 -0.6280403905852187
0.3309150928957845 -0.5466581681039788
0.333933847337692 -0.46267163257519056
0.3363808770673583 -0.37653631651601865
0.33819234912204577 -0.2886474937743156
0.33913976345496233 -0.19906895661682739
0.3393414334486214 -0.10709269071794167
0.340870371800993 -0.013681814982616471
0.14296561379336775 -0.015322722683949836
0.14430569617753752 -0.10735051748057403
0.1444076762802107 -0.19904481980106503
0.1449682882336219 -0.2887280333804166
0.1462903590392361 -0.3767158161992378
0.1481986798956508 -0.4629229599979328
0.15059770098154107 -0.5469714980086864
0.1534560147395238 -0.62841074862299
0.1567607757388359 -0.7067842439327615
0.16050707314407486 -0.7816408805957444
0.16469362866419923 -0.8525350742745066
0.16932029733916681 -0.9190248704858176
0.17438681715378906 -0.9806706437156697
0.17989175329586554 -1.037034740301348
0.18583125680310497 -1.0876810190134407
0.19219868399546772 -1.1321715414253322
0.1989891964444437 -1.1700539043589764
0.20621465779324585 -1.2008271437196982
0.21392026153825913 -1.223874632050117
0.22215089630961932 -1.2383846143998054
0.23079316800786942 -1.2434069706895894
0.23943543970611944 -1.2383846143998052
0.24766607447747963 -1.2238746320501168
0.255371678222493 -1.200827143719698
0.26259713957129505 -1.1700539043589762
0.26938765202027104 -1.1321715414253322
0.2757550792126338 -1.0876810190134405
0.2816945827198733 -1.0370347403013476
0.2871995188619497 -0.9806706437156694
0.29226603867657197 -0.919024870485817
0.29689270735153955 -0.8525350742745066
0.30107926287166387 -0.7816408805957441
0.30482556027690283 -0.7067842439327613
0.308130321276215 -0.6284107486229895
0.3109886350341977 -0.5469714980086856
0.3133876561200879 -0.46292295999793276
0.31529597697650263 -0.37671581619923755
0.31661804778211683 -0.2887280333804167
0.31717865973552806 -0.19904481980106473
0.3172806398382012 -0.10735051748057367
0.318620722222371 -0.015322722683949859
0.1649843396798103 -0.01670566895581639
0.16615363495968866 -0.107648568969249
0.16619090244887663 -0.1990191774326779
0.16643945020650505 -0.28875872946982706
0.1673035567707681 -0.37683619624706
0.1686781157171172 -0.46311028618425476
0.17045804965068723 -0.5472122026336695
0.17259699884590923 -0.6286980258173204
0.17507564426694303 -0.707114644145376
0.17788647192737667 -0.782012994493395
0.18102737487916745 -0.8529484458074091
0.18449806041323688 -0.9194793017525477
0.1882981044493507 -0.9811657419881852
0.19242540679192932 -1.0375695179870006
0.1968743463388525 -1.0882536723881129
0.2016347954562446 -1.1327803529462326
0.20669771901400516 -1.1707014894813217
0.21207710677674152 -1.2015296767263717
0.2178431646852153 -1.2246692681043896
0.2241007473570541 -1.2393071942359115
0.2307931680078694 -1.2444098161961603
0.23748558865868466 -1.2393071942359113
0.2437431713305235 -1.2246692681043894
0.24950922923899732 -1.2015296767263717
0.25488861700173365 -1.1707014894813215
0.2599515405594941 -1.1327803529462328
0.2647119896768863 -1.0882536723881124
0.2691609292238095 -1.0375695179870004
0.2732882315663881 -0.9811657419881848
0.2770882756025019 -0.9194793017525472
0.2805589611365713 -0.8529484458074093
0.283699864088362 -0.7820129944933946
0.28651069174879573 -0.7071146441453757
0.2889893371698295 -0.6286980258173199
0.29112828636505156 -0.5472122026336688
0.2929082202986215 -0.46311028618425465
0.29428277924497065 -0.3768361962470598
0.29514688580923365 -0.28875872946982717
0.2953954335668621 -0.19901917743267755
0.2954327010560501 -0.10764856896924865
0.29660199633592843 -0.016705668955816412
0.1868379118213057 -0.01786308187450515
0.18784442354264552 -0.10796137165994056
0.18782718170907814 -0.1989974384782805
0.18781631338967475 -0.28874939799785476
0.18825509355394437 -0.37690069159096434
0.18910539480930946 -0.4632342541718558
0.1902683672080422 -0.5473805031330897
0.1916883798913257 -0.6289022582111035
0.19334076954927584 -0.7073506254767842
0.19521591146058234 -0.7822789899806906
0.19731099898581064 -0.8532438911157344
0.19962558608339723 -0.919803955824111
0.20215910739626616 -0.9815191319308402
0.2049089514735296 -1.0379504566599516
0.20786815236583542 -1.0886599476050982
0.2110237508648338 -1.1332096495226402
0.21436268157061347 -1.1711564075906034
0.21789982159561389 -1.2020298163728962
0.22172974809930845 -1.2252636399906467
0.2260240734027694 -1.2400512698205892
0.2307931680078693 -1.2452567411414304
0.2355622626129694 -1.2400512698205892
0.23985658791643033 -1.2252636399906467
0.24368651442012487 -1.2020298163728957
0.24722365444512534 -1.1711564075906031
0.25056258515090496 -1.13320964952264
0.2537181836499034 -1.088659947605098
0.25667738454220923 -1.0379504566599511
0.25942722861947254 -0.9815191319308397
0.2619607499323416 -0.9198039558241105
0.2642753370299281 -0.8532438911157344
0.2663704245551564 -0.7822789899806905
0.2682455664664629 -0.7073506254767838
0.2698979561244131 -0.628902258211103
0.27131796880769654 -0.547380503133089
0.2724809412064293 -0.46323425417185576
0.2733312424617944 -0.3769006915909641
0.273770022626064 -0.2887493979978548
0.2737591543066606 -0.19899743847828016
0.27374191247309326 -0.1079613716599402
0.274748424194433 -0.017863081874505166
0.20857570733498842 -0.018821856793366707
0.20942373421202348 -0.10826955093111802
0.20934941217478323 -0.19897972117275647
0.2091140715912463 -0.2887074911687089
0.20915721629620826 -0.37691314724817626
0.2094953364218308 -0.4632960288555532
0.21004483472010016 -0.5474767675006786
0.21074675072786303 -0.6290235427197459
0.21157288452197684 -0.7074921795217701
0.21251214106512606 -0.7824388391951148
0.2135612330871414 -0.8534213869049512
0.21471959844636382 -0.9199988236287697
0.2159865784141594 -0.9817308419051511
0.21735925090073155 -1.0381776842730204
0.21882983201722933 -1.0889001840834296
0.22038336133065614 -1.1334600283980691
0.22200284648084107 -1.1714191542550576
0.22370149356527796 -1.202327110039303
0.22559477838336245 -1.2256566151119597
0.22792748441705174 -1.240619638729533
0.23079316800786936 -1.245958144037529
0.233658851598687 -1.240619638729533
0.2359915576323763 -1.2256566151119594
0.23788484245046082 -1.2023271100393027
0.2395834895348977 -1.1714191542550574
0.24120297468508262 -1.133460028398069
0.2427565039985095 -1.0889001840834294
0.24422708511500724 -1.03817768427302
0.24559975760157934 -0.9817308419051506
0.246866737569375 -0.9199988236287692
0.24802510292859736 -0.8534213869049511
0.2490741949506127 -0.7824388391951147
0.25001345149376186 -0.7074921795217699
0.25083958528787575 -0.6290235427197454
0.2515415012956386 -0.5474767675006779
0.252090999593908 -0.46329602885555327
0.25242911971953047 -0.37691314724817604
0.2524722644244925 -0.2887074911687089
0.25223692384095553 -0.19897972117275614
0.2521626018037153 -0.10826955093111766
0.2530106286807503 -0.018821856793366704
0.23023662507732595 -0.019604640785789405
0.23092980519736828 -0.10855901815073381
0.23078995207814842 -0.19896325927646283
0.23035195833218466 -0.28863814989887515
0.23002448557287852 -0.37687737300632584
0.22986330129453333 -0.46329712583195787
0.22980376722055615 -0.5475014973584913
0.22978874212168424 -0.6290620185831137
0.2297887102964624 -0.7075393112479934
0.22979189682710577 -0.7824925139772676
0.2297948039639766 -0.8534809078060891
0.22979681960589635 -0.9200638976798974
0.22979725768940218 -0.9818009110428582
0.2297931097839607 -1.0382513581483244
0.22977635732668358 -1.0889747948219484
0.22973106934644608 -1.1335322460951363
0.22963663562853892 -1.171490374532981
0.22950097873248507 -1.2024206957274957
0.229453540300288 -1.2258453525422393
0.22981742460320667 -1.241013164162188
0.23079316800786936 -1.2465252842488515
0.23176891141253203 -1.2410131641621878
0.23213279571545076 -1.2258453525422393
0.23208535728325372 -1.2024206957274954
0.2319497003871998 -1.171490374532981
0.23185526666929268 -1.133532246095136
0.23180997868905534 -1.0889747948219481
0.23179322623177806 -1.038251358148324
0.2317890783263366 -0.9818009110428577
0.23178951640984244 -0.9200638976798968
0.2317915320517622 -0.8534809078060889
0.23179443918863296 -0.7824925139772675
0.23179762571927637 -0.7075393112479931
0.23179759389405455 -0.6290620185831134
0.23178256879518264 -0.5475014973584906
0.23172303472120542 -0.46329712583195787
0.23156185044286026 -0.3768773730063256
0.2312343776835541 -0.2886381498988752
0.23079638393759033 -0.1989632592764625
0.2306565308183705 -0.10855901815073345
0.23134971093841286 -0.0196046407857894
0.25185255494646097 -0.02023103694897015
0.25239534659693735 -0.1088200016474633
0.25217956525124796 -0.1989439533829363
0.2515515787037076 -0.28854458869085425
0.2508735114215344 -0.3767967754301336
0.25022538153329993 -0.4632392089202323
0.2495616677411084 -0.5474552863295006
0.24883103101454898 -0.6290178505505781
0.2480049630835307 -0.7074920329725504
0.2470719021493991 -0.782439986549137
0.2460284323251492 -0.8534224273796374
0.2448739680646275 -0.9199991712477082
0.2436078689938882 -0.9817293839026674
0.24222726816006193 -1.0381716480482488
0.24072449741785287 -1.0888842286355356
0.2390838724686042 -1.1334271915906828
0.23728203713845467 -1.171370951465738
0.23531752583832968 -1.2023094919174468
0.23332256658074108 -1.225825193282331
0.23170062852019502 -1.2412303003885559
0.23079316800786936 -1.246971070800095
0.2298857074955437 -1.2412303003885556
0.22826376943499768 -1.225825193282331
0.2262688101774091 -1.2023094919174464
0.22430429887728412 -1.1713709514657378
0.22250246354713457 -1.1334271915906828
0.220861838597886 -1.0888842286355354
0.2193590678556768 -1.0381716480482484
0.21797846702185056 -0.9817293839026667
0.21671236795111132 -0.9199991712477077
0.21555790369058958 -0.8534224273796372
0.2145144338663397 -0.7824399865491368
0.21358137293220802 -0.70749203297255
0.2127553050011898 -0.6290178505505778
0.21202466827463037 -0.5474552863294999
0.21136095448243886 -0.4632392089202324
0.21071282459420435 -0.3767967754301334
0.21003475731203122 -0.2885445886908543
0.20940677076449082 -0.198943953382936
0.20919098941880146 -0.10882000164746293
0.20973378106927787 -0.02023103694897015
0.2734504156711236 -0.020718659838176993
0.2738488569624716 -0.10904615093218051
0.27354707856936683 -0.198917338505597
0.2727358121849979 -0.28842857264725635
0.2717225771624779 -0.3766741910725897
0.2705984602360232 -0.4631239075683872
0.2693352714028348 -0.5473387580657509
0.2678903444406718 -0.628891210044269
0.26623835619155145 -0.7073503579961559
0.26436886832948653 -0.7822812294620513
0.2622788324581924 -0.8532459190883737
0.2599677583898911 -0.9198046372286335
0.2574351177904176 -0.9815163047267498
0.25467840177955275 -1.0379387199414023
0.2516908230197953 -1.0886289264626459
0.2484582545712611 -1.1331458374303514
0.24495640742843158 -1.1710621123443974
0.2411708810232422 -1.2019925252464145
0.23722053762861686 -1.2255896215253934
0.23358478753934392 -1.2412663056087698
0.23079316800786936 -1.2473110793853737
0.22800154847639484 -1.2412663056087696
0.22436579838712187 -1.2255896215253932
0.22041545499249654 -1.2019925252464143
0.21662992858730717 -1.1710621123443972
0.21312808144447773 -1.1331458374303514
0.2098955129959435 -1.0886289264626456
0.206907934236186 -1.0379387199414016
0.20415121822532117 -0.9815163047267491
0.20161857762584776 -0.9198046372286329
0.19930750355754634 -0.8532459190883736
0.19721746768625223 -0.782281229462051
0.19534797982418733 -0.7073503579961554
0.19369599157506698 -0.6288912100442686
0.19225106461290398 -0.5473387580657503
0.1909878757797156 -0.46312390756838745
0.18986375885326087 -0.3766741910725894
0.18885052383074094 -0.2884285726472565
0.18803925744637195 -0.1989173385055967
0.18773747905326726 -0.10904615093218015
0.18813592034461524 -0.020718659838176993
0.2950532938104775 -0.02108402928683308
0.2953154707080371 -0.1092337884697321
0.2949193817468773 -0.19887918046299227
0.29392816132616945 -0.2882908785429276
0.29259128191330747 -0.376511843454388
0.29100017594325794 -0.4629526708080747
0.28914156081584297 -0.5471524964909894
0.28698345841973294 -0.6286822537374114
0.28450559833472805 -0.7071142946558339
0.28169949454700455 -0.7820162153789199
0.27856271226127827 -0.8529513573089939
0.27509490230552275 -0.9194802870639813
0.27129569226855926 -0.981161711288933
0.26716312530681063 -1.0375527224262766
0.2626917361728395 -1.0882092770253946
0.2578701547071629 -1.1326891534219254
0.2526761422235608 -1.1705655158830446
0.2470811408958634 -1.2014694374382038
0.24116941382407925 -1.2251304022762808
0.23547964246872508 -1.2411119968749582
0.2307931680078694 -1.2475648837257078
0.2261066935470137 -1.2411119968749582
0.22041692219165948 -1.2251304022762808
0.2145051951198753 -1.2014694374382033
0.20891019379217798 -1.1705655158830446
0.20371618130857588 -1.1326891534219252
0.19889459984289926 -1.0882092770253944
0.19442321070892807 -1.037552722426276
0.1902906437471795 -0.9811617112889326
0.1864914337102161 -0.9194802870639809
0.1830236237544605 -0.8529513573089937
0.17988684146873424 -0.7820162153789196
0.17708073768101074 -0.7071142946558335
0.17460287759600585 -0.628682253737411
0.17244477519989584 -0.5471524964909888
0.17058616007248087 -0.4629526708080748
0.16899505410243132 -0.37651184345438776
0.1676581746895694 -0.2882908785429278
0.16666695426886147 -0.198879180462992
0.16627086530770172 -0.10923378846973175
0.1665330422052613 -0.021084029286833072
0.3166809622034862 -0.02134331153138009
0.31681743310023436 -0.10938132297268839
0.3163215990071649 -0.19882585849115492
0.3151524409603158 -0.28813169704043845
0.3135002543957208 -0.3763113607011054
0.3114488257385312 -0.46272665611684244
0.3089977473068551 -0.546896978660966
0.30612718920019144 -0.6283911014692332
0.3028233892063853 -0.7067838412206581
0.2990804672681118 -0.7816449171679188
0.2948967735780481 -0.8525387184441259
0.2902721107387633 -0.9190261102760169
0.28520626914243913 -0.980665628217974
0.27969799464959577 -1.0370137758309685
0.27374351636073124 -1.0876255832715234
0.26733502771662876 -1.1320579730837697
0.2604562294287365 -1.1698832479260848
0.2530681140118695 -1.2007412076283097
0.24519582446127677 -1.224438104297538
0.23739892003015436 -1.2407518335103234
0.23079316800786942 -1.2477577785858547
0.2241874159855844 -1.2407518335103234
0.2163905115544619 -1.2244381042975376
0.2085182220038692 -1.2007412076283097
0.2011301065870023 -1.1698832479260846
0.19425130829911 -1.1320579730837692
0.1878428196550075 -1.0876255832715231
0.18188834136614296 -1.0370137758309679
0.17638006687329963 -0.9806656282179735
0.17131422527697548 -0.9190261102760162
0.16668956243769065 -0.8525387184441257
0.1625058687476269 -0.7816449171679185
0.1587629468093535 -0.7067838412206577
0.15545914681554732 -0.6283911014692328
0.1525885887088837 -0.5468969786609653
0.15013751027720756 -0.4627266561168425
0.14808608162001796 -0.37631136070110527
0.14643389505542304 -0.2881316970404386
0.1452647370085739 -0.19882585849115467
0.14476890291550448 -0.10938132297268806
0.1449053738122527 -0.021343311531380065
0.33834990318266567 -0.021512917793905417
0.33837426981867075 -0.10948882456160079
0.3377773794053889 -0.19875465086536823
0.3364327377720805 -0.2879509599786776
0.334470945238085 -0.3760738051541231
0.3319632287731089 -0.46244664462400537
0.3289212204590566 -0.5465725173432826
0.32533837526780174 -0.6280178164052722
0.32120841281772083 -0.706358982178432
0.31652845929067397 -0.7811673087004928
0.31129771317768157 -0.8520079820539185
0.3055160953546404 -0.9184420951808449
0.2991835259028976 -0.9800280608882961
0.2922995118353011 -1.0363219592902355
0.28486234931060395 -1.0868780555565525
0.27686806244397777 -1.1312528287131234
0.26830981931331316 -1.1690175975146497
0.2591497686224026 -1.1998110751066942
0.2493325676857831 -1.2235034156465951
0.23936397524164144 -1.2401610344304406
0.2307931680078694 -1.2479228979021155
0.2222223607740973 -1.2401610344304406
0.2122537683299556 -1.223503415646595
0.20243656739333615 -1.199811075106694
0.19327651670242557 -1.1690175975146493
0.184718273571761 -1.1312528287131232
0.17672398670513478 -1.0868780555565523
0.16928682418043758 -1.036321959290235
0.16240281011284116 -0.9800280608882956
0.15607024066109837 -0.9184420951808442
0.15028862283805722 -0.8520079820539184
0.1450578767250648 -0.7811673087004926
0.14037792319801792 -0.7063589821784318
0.13624796074793705 -0.6280178164052718
0.13266511555668217 -0.546572517343282
0.12962310724262988 -0.4624466446240054
0.12711539077765371 -0.3760738051541229
0.12515359824365835 -0.28795095997867776
0.12380895661034992 -0.19875465086536795
0.12321206619706809 -0.10948882456160046
0.12323643283307319 -0.02151291779390539
0.3600728476957392 -0.02160995747898088
0.3600026936645493 -0.10955777705364873
0.35930933911460594 -0.19866401335238731
0.35779360018972395 -0.2877485793484524
0.3555254747996761 -0.375799677043001
0.3525625603938622 -0.4621129745042155
0.34892947241568845 -0.5461792178223759
0.34463385011963676 -0.6275623902668781
0.33967732918230953 -0.7058396866247537
0.33406012848922195 -0.7805833666684467
0.3277822250677914 -0.8513591320534923
0.32084356896197336 -0.9177282301039609
0.3132441541199822 -0.9792489945859234
0.3049841565961095 -1.035477286268423
0.2960642796138374 -1.085966836037906
0.2864845536918532 -1.1302738387096123
0.2762482551577777 -1.167970423008037
0.26533912337227405 -1.1986854609752062
0.25361947490097625 -1.222320042500731
0.2414110382673899 -1.2393013822509782
0.23079316800786934 -1.2481034589656514
0.22017529774834882 -1.239301382250978
0.20796686111476245 -1.222320042500731
0.19624721264346462 -1.198685460975206
0.18533808085796105 -1.1679704230080368
0.17510178232388554 -1.1302738387096118
0.1655220564019014 -1.0859668360379058
0.15660217941962923 -1.0354772862684225
0.14834218189575657 -0.979248994585923
0.14074276705376546 -0.9177282301039602
0.13380411094794736 -0.851359132053492
0.1275262075265168 -0.7805833666684464
0.12190900683342924 -0.7058396866247535
0.11695248589610202 -0.6275623902668778
0.11265686360005035 -0.5461792178223753
0.10902377562187661 -0.4621129745042157
0.10606086121606269 -0.3757996770430009
0.10379273582601486 -0.2877485793484526
0.10227699690113282 -0.19866401335238704
0.10158364235118952 -0.10955777705364844
0.1015134883199996 -0.02160995747898084
0.38185772147799035 -0.021652516281644288
0.3817162796031662 -0.10959106555238421
0.3809397823483152 -0.19855392121102858
0.37926042918976133 -0.2875245675152889
0.3766864870688999 -0.37548886356341044
0.373266162253389 -0.46172548969506594
0.3690400045270286 -0.545716951379649
0.3640304069692165 -0.6270247359266692
0.3582467653436941 -0.7052259096453982
0.3516921167815434 -0.7798930732106232
0.3443670025070381 -0.850592159207256
0.33627125168070804 -0.9168845016862801
0.3274048515767698 -0.9783284056598099
0.31776848287754467 -1.0344796709735449
0.3073650932552982 -1.0848919972159987
0.29620009124395097 -1.129120854738404
0.28428260688656104 -1.1667419524625222
0.27163904923257054 -1.1973741175794281
0.2581008542603285 -1.2208907218909917
0.24360657130253202 -1.23811552107954
0.2307931680078693 -1.248353996893307
0.2179797647132067 -1.2381155210795396
0.20348548175541012 -1.2208907218909915
0.18994728678316822 -1.1973741175794281
0.17730372912917772 -1.166741952462522
0.16538624477178782 -1.1291208547384037
0.15422124276044055 -1.0848919972159983
0.1438178531381941 -1.0344796709735444
0.13418148443896893 -0.9783284056598095
0.12531508433503075 -0.9168845016862797
0.11721933350870065 -0.8505921592072556
0.1098942192341954 -0.7798930732106228
0.10333957067204466 -0.7052259096453979
0.09755592904652224 -0.627024735926669
0.09254633148871014 -0.5457169513796485
0.08832017376234982 -0.46172548969506616
0.08489984894683889 -0.3754888635634103
0.08232590682597746 -0.28752456751528904
0.08064655366742356 -0.1985539212110283
0.07987005641257261 -0.10959106555238392
0.07972861453774846 -0.02165251628164426
0.4037057084762243 -0.021659683760256405
0.4035249553208814 -0.1095933449958351
0.4026919725269006 -0.19842632147131575
0.400860000030867 -0.2872789685222007
0.39797693790644406 -0.3751405207779141
0.39409334068244567 -0.4612835083988495
0.38927022039536974 -0.5451853454692311
0.3835447586035268 -0.6264046894346219
0.3769333061717827 -0.7045175977096072
0.36944105224558826 -0.7790964184017766
0.36106873359317243 -0.8497070662012678
0.3518158924683951 -0.9159108913357874
0.3416822937108764 -0.9772662682285355
0.3306691877745222 -1.0333289589305035
0.31878054903397623 -1.0836533219862468
0.3060294304924077 -1.1277941285538489
0.29242814027578856 -1.1653294510550418
0.27803699039637186 -1.195887100613713
0.2628096785355752 -1.2192392510047427
0.2460824132520292 -1.236520610873325
0.23079316800786934 -1.2487367512632626
0.21550392276370947 -1.2365206108733249
0.19877665748016352 -1.2192392510047425
0.18354934561936678 -1.195887100613713
0.1691581957399502 -1.1653294510550416
0.1555569055233311 -1.1277941285538486
0.14280578698176255 -1.0836533219862463
0.13091714824121656 -1.0333289589305028
0.11990404230486235 -0.977266268228535
0.10977044354734367 -0.915910891335787
0.10051760242256634 -0.8497070662012676
0.09214528377015055 -0.7790964184017761
0.08465302984395605 -0.7045175977096069
0.07804157741221195 -0.6264046894346216
0.07231611562036905 -0.5451853454692306
0.06749299533329317 -0.46128350839884974
0.0636093981092948 -0.37514052077791404
0.06072633598487173 -0.28727896852220086
0.0588943634888382 -0.1984263214713155
0.0580613806948574 -0.1095933449958348
0.0578806275395145 -0.02165968376025639
0.42560779941914345 -0.021651176912741522
0.42543442888681127 -0.1095721137062657
0.4245925120584407 -0.19828568145818043
0.4226208512923761 -0.2870114593767278
0.4194197747382 -0.37475291987966597
0.41506317394120107 -0.46078581502023747
0.4096373005169808 -0.5445837890821777
0.40319349966533236 -0.6257020248419448
0.39575348738601085 -0.7037146963077793
0.3873235472838339 -0.7781934072032032
0.377904116518868 -0.8487038615283008
0.367494224106062 -0.9148074067593216
0.35609331294635393 -0.9760624701481517
0.3437025964162871 -1.0320251719546234
0.3303279706704895 -1.082249795855632
0.31598331084627246 -1.1262947725630792
0.3007081204744308 -1.1637291034250603
0.284516921662492 -1.1942216203220075
0.2677031049762166 -1.217433572135661
0.24912419538146963 -1.2344068866257107
0.23079316800786936 -1.2493006306919143
0.212462140634269 -1.2344068866257107
0.19388323103952218 -1.2174335721356608
0.1770694143532467 -1.1942216203220075
0.16087821554130785 -1.1637291034250603
0.14560302516946624 -1.1262947725630787
0.13125836534524926 -1.0822497958556316
0.11788373959945163 -1.0320251719546227
0.10549302306938484 -0.9760624701481514
0.09409211190967677 -0.914807406759321
0.08368221949687076 -0.8487038615283005
0.07426278873190492 -0.7781934072032027
0.06583284862972798 -0.7037146963077788
0.05839283635040644 -0.6257020248419446
0.05194903549875802 -0.5445837890821772
0.04652316207453773 -0.46078581502023774
0.04216656127753877 -0.3747529198796659
0.038965484723362726 -0.28701145937672795
0.03699382395729808 -0.1982856814581802
0.03615190712892747 -0.1095721137062654
0.03597853659659532 -0.02165117691274151
0.44753851148279966 -0.021646253958996785
0.44744583475980604 -0.10954020433940707
0.446676093470723 -0.1981394315243727
0.4445725591324728 -0.28672037105117054
0.441037809622878 -0.37432341564001226
0.43619422603240265 -0.4602306276233151
0.4301580923553061 -0.5439114729170426
0.4229930696141114 -0.6249164768194487
0.4147237911726509 -0.7028171635050403
0.4053562045707283 -0.777184061086081
0.394889848684988 -0.8475825749703498
0.3833230241754625 -0.9135740347112259
0.3706546604704698 -0.9747170115803244
0.3568856908453656 -1.0305678227690276
0.3420224551027478 -1.080682006837503
0.32608249634417596 -1.1246172715171754
0.309109202209893 -1.161956166319305
0.2911836182935698 -1.192319709262515
0.27241519856712687 -1.2156257089249896
0.25342005340868257 -1.2316661182628386
0.23079316800786934 -1.25
0.20816628260705597 -1.2316661182628386
0.18917113744861183 -1.2156257089249893
0.17040271772216894 -1.1923197092625146
0.15247713380584557 -1.161956166319305
0.13550383967156274 -1.124617271517175
0.11956388091299093 -1.0806820068375025
0.10470064517037309 -1.030567822769027
0.09093167554526896 -0.9747170115803239
0.07826331184027624 -0.9135740347112256
0.06669648733075077 -0.8475825749703495
0.05623013144501048 -0.7771840610860805
0.046862544843087904 -0.70281716350504
0.03859326640162741 -0.6249164768194484
0.03142824366043261 -0.5439114729170419
0.025392109983336165 -0.4602306276233153
0.02054852639286082 -0.3743234156400123
0.017013776883265986 -0.2867203710511707
0.014910242545015768 -0.19813943152437238
0.014140501255932622 -0.1095402043394068
0.014047824532939098 -0.021646253958996758
SCALARS Stress float 6
LOOKUP_TABLE default
-255.4980129218623 -8129.104804294788 -2515.3808451649957 -188.86914086974616 0.0 0.0
3850.2742539734077 2275.2735415141415 1837.6643386462652 -293.3766297467707 0.0 0.0
2189.197078578113 -194.16607984329198 598.5092996204464 -125.47387282895134 0.0 0.0
2240.0918075389704 170.5367224412708 723.1885589940725 -18.68767784226006 0.0 0.0
2571.8939649912627 62.05172433257911 790.1837067971525 -43.069735785176874 0.0 0.0
3095.59727873015 87.67846400213013 954.9827228196846 -44.381720046572234 0.0 0.0
3673.784028095397 95.53644943786999 1130.7961432599805 -47.061422354150004 0.0 0.0
4278.953555368051 111.27195013488219 1317.0676516508804 -48.081094873829954 0.0 0.0
4891.184900076031 126.7521750825934 1505.3811225475881 -48.443684311090394 0.0 0.0
5504.782233242337 142.742075150925 1694.2572925179788 -48.53805349379369 0.0 0.0
6117.692261258654 158.68455100931197 1882.9130436803903 -48.53804756989942 0.0 0.0
6729.847004653908 174.61816079526633 2071.339549634753 -48.54879690198449 0.0 0.0
7342.056154899312 190.60726493374432 2259.7990259499165 -48.64335323844108 0.0 0.0
7956.533418280049 206.87623617716446 2449.022896337164 -48.92190692728812 0.0 0.0
8578.141677706153 223.81010978562375 2640.5855362475327 -49.492218975206725 0.0 0.0
9215.098342072079 241.80682623311696 2837.0715504915593 -50.30100323946075 0.0 0.0
9875.377740468002 260.6530982808709 3040.8092516246616 -50.667244334446416 0.0 0.0
10552.311496329885 278.3585032144721 3249.2009998633066 -48.56705306632414 0.0 0.0
11195.889358113853 290.51497430566974 3445.9212997258574 -40.50886768878661 0.0 0.0
11688.0728810324 293.47768660309004 3594.465170290647 -23.697379227247126 0.0 0.0
11876.607473664237 291.8081777491302 3650.524695424011 1.5546675058430992e-11 0.0 0.0
11688.072881032112 293.477686602432 3594.4651702903648 23.69737922726307 0.0 0.0
11195.889358114056 290.5149743061512 3445.9212997260615 40.50886768876242 0.0 0.0
10552.31149632933 278.35850321324483 3249.200999862774 48.5670530662229 0.0 0.0
9875.377740468064 260.6530982811357 3040.809251624761 50.66724433438354 0.0 0.0
9215.09834207235 241.80682623374503 2837.0715504918294 50.30100323935646 0.0 0.0
8578.14167770643 223.81010978624596 2640.5855362478037 49.492218975276856 0.0 0.0
7956.533418279596 206.87623617620534 2449.0228963367404 48.921906927248145 0.0 0.0
7342.056154899207 190.60726493351075 2259.7990259498165 48.64335323841138 0.0 0.0
6729.847004653805 174.61816079497095 2071.3395496346325 48.54879690198307 0.0 0.0
6117.692261258637 158.68455100927557 1882.9130436803734 48.538047569891404 0.0 0.0
5504.782233242188 142.74207515065407 1694.2572925178533 48.53805349378297 0.0 0.0
4891.184900075851 126.75217508217199 1505.3811225474071 48.44368431113551 0.0 0.0
4278.953555367973 111.2719501346264 1317.06765165078 48.081094873763526 0.0 0.0
3673.784028095554 95.53644943816462 1130.7961432601155 47.0614223542251 0.0 0.0
3095.5972787300334 87.6784640019079 954.9827228195824 44.381720046499055 0.0 0.0
2571.893964991093 62.05172433235031 790.1837067970332 43.06973578518161 0.0 0.0
2240.0918075389336 170.53672244125224 723.1885589940557 18.687677842315342 0.0 0.0
2189.197078578113 -194.16607984328962 598.509299620447 125.47387282891063 0.0 0.0
3850.2742539734522 2275.2735415141688 1837.664338646287 293.37662974681274 0.0 0.0
-255.49801292183434 -8129.104804294799 -2515.3808451649907 188.86914086982614 0.0 0.0
-1450.7503220097933 -8075.8641410408145 -2857.984338915183 -129.06779961528332 0.0 0.0
2368.0495982425387 1556.7003267608452 1177.4249775010153 -233.9135862052756 0.0 0.0
1539.3100678554742 -218.4587820110012 396.255385753342 -87.70144972735575 0.0 0.0
1998.0191049292307 77.24059134319701 622.5779088817284 -72.59072462511051 0.0 0.0
2286.5640257930177 9.58977655959232 688.846140705783 -104.66080810785425 0.0 0.0
2761.5357424201698 7.632949552650462 830.7506075918459 -118.56071332970978 0.0 0.0
3274.1225537943665 2.5523826228159066 983.0024809251544 -124.79270146542659 0.0 0.0
3810.505235009526 0.7801107491997212 1143.3856037276178 -127.34388353448479 0.0 0.0
4354.081088969496 0.08154647793004344 1306.2487906342276 -128.04427694456692 0.0 0.0
4899.516209222286 -0.10409866938044932 1469.8236331658718 -128.11598118042966 0.0 0.0
5444.817913033994 -0.10536002933144584 1633.4137659013988 -128.01831096580608 0.0 0.0
5989.743040085934 -0.01614972025314776 1796.9180671097042 -127.9703115876505 0.0 0.0
6534.962466853369 0.22453314481679687 1960.5560999994561 -128.14777668359173 0.0 0.0
7082.330631723472 0.7949456442455416 2124.9376732103156 -128.8613849377687 0.0 0.0
7635.623122190405 1.8679635377273947 2291.24732571844 -130.59848355609455 0.0 0.0
8200.482485488592 3.170851005005967 2461.0960009480796 -133.67559045850885 0.0 0.0
8780.471801464664 3.033032167196743 2635.0514500895583 -136.96445847912906 0.0 0.0
9364.59550142471 -2.610574268186639 2808.5954781469563 -135.40817456735778 0.0 0.0
9905.741872225208 -18.936748170252446 2966.041537216487 -118.03624671607261 0.0 0.0
10307.57987209965 -44.380604590281976 3078.9597802528106 -72.33383762195861 0.0 0.0
10457.941339919158 -59.72851633081181 3119.4638470765044 -2.3462121134798508e-11 0.0 0.0
10307.579872099675 -44.380604590247195 3078.9597802528288 72.3338376219197 0.0 0.0
9905.741872225277 -18.936748170036253 2966.041537216572 118.03624671611637 0.0 0.0
9364.595501424363 -2.6105742689802085 2808.595478146615 135.4081745673539 0.0 0.0
8780.471801464562 3.033032166963313 2635.051450089457 136.96445847914805 0.0 0.0
8200.482485488725 3.170851005281314 2461.0960009482023 133.67559045849075 0.0 0.0
7635.623122190612 1.867963538188235 2291.2473257186407 130.59848355614653 0.0 0.0
7082.330631723198 0.7949456436463898 2124.9376732100545 128.86138493775405 0.0 0.0
6534.962466853307 0.22453314464549834 1960.5560999993859 128.14777668360853 0.0 0.0
5989.743040085801 -0.016149720592128602 1796.918067109562 127.97031158767871 0.0 0.0
5444.8179130338885 -0.10536002961824309 1633.4137659012808 128.0183109658313 0.0 0.0
4899.516209222227 -0.10409866951563274 1469.8236331658131 128.11598118036665 0.0 0.0
4354.081088969402 0.08154647774222568 1306.2487906341435 128.04427694461614 0.0 0.0
3810.505235009514 0.7801107491873402 1143.3856037276105 127.34388353444623 0.0 0.0
3274.122553794488 2.5523826231097626 983.0024809252793 124.79270146545545 0.0 0.0
2761.5357424200756 7.632949552504916 830.7506075917743 118.56071332965033 0.0 0.0
2286.5640257928785 9.589776559364793 688.8461407056728 104.66080810785945 0.0 0.0
1998.0191049291975 77.24059134318097 622.5779088817138 72.59072462510032 0.0 0.0
1539.3100678554597 -218.45878201103162 396.2553857533284 87.70144972737047 0.0 0.0
2368.04959824256 1556.7003267608634 1177.4249775010271 233.91358620529235 0.0 0.0
-1450.7503220098133 -8075.864141040837 -2857.984338915195 129.06779961528994 0.0 0.0
-1587.4141416659568 -7068.459706804738 -2596.7621545412085 -594.4154013851031 0.0 0.0
1497.6033946862126 938.4784303137601 730.8245474999918 -422.9905012119279 0.0 0.0
1141.6029884807765 39.1425496458911 354.2236614380005 -59.47016494080854 0.0 0.0
1667.1142957823743 12.651268319357087 503.9296692305194 -167.45531332816992 0.0 0.0
2034.5030715408757 29.832964040865 619.3008106745222 -208.39434780649003 0.0 0.0
2451.224891443557 7.422814233522484 737.5943117031239 -238.8393335126971 0.0 0.0
2912.941727004376 4.054324974653012 875.0988155937087 -250.73874776546947 0.0 0.0
3388.494684980486 1.0056670493084858 1016.8501056089381 -255.54761641304 0.0 0.0
3871.1549177068086 0.11832051434016555 1161.381971466345 -256.83958416743116 0.0 0.0
4355.513081179763 -0.1505905653326458 1306.6087471843293 -256.91431336025107 0.0 0.0
4840.060691485179 -0.14971831958506066 1451.9732919496787 -256.6934632588502 0.0 0.0
5324.470295150878 -0.02683724443851876 1597.3330373719314 -256.574332141591 0.0 0.0
5809.242961481289 0.3052084382397737 1742.864450975859 -256.8914754028878 0.0 0.0
6295.780212764927 1.1042488185512207 1889.0653384750433 -258.2612316303718 0.0 0.0
6786.807351890604 2.64530424171757 2036.8357968396967 -261.7038180838541 0.0 0.0
7286.047595866243 4.602495012121839 2187.19502726351 -268.0188938200592 0.0 0.0
7794.705982225033 4.614402097762674 2339.7961152968383 -275.2899117003422 0.0 0.0
8301.187632780164 -3.4111671975604825 2489.3329396747813 -273.7142875675265 0.0 0.0
8763.963146733417 -27.95872033286678 2620.8013279201646 -240.78222177471721 0.0 0.0
9102.276132842191 -68.28612877033788 2710.1970012215575 -149.03571467920676 0.0 0.0
9226.518185589772 -94.13016303654928 2739.7164067659673 3.502975687297294e-11 0.0 0.0
9102.276132842208 -68.28612877033967 2710.197001221561 149.03571467917618 0.0 0.0
8763.963146733306 -27.958720333032993 2620.8013279200823 240.7822217747388 0.0 0.0
8301.187632780195 -3.411167197418422 2489.3329396748336 273.71428756752726 0.0 0.0
7794.705982224861 4.614402097301049 2339.796115296648 275.28991170033265 0.0 0.0
7286.047595866439 4.602495012518595 2187.195027263688 268.0188938201095 0.0 0.0
6786.807351890584 2.645304241701087 2036.835796839686 261.70381808382416 0.0 0.0
6295.780212764895 1.1042488185196788 1889.0653384750242 258.2612316303293 0.0 0.0
5809.242961481305 0.3052084382873588 1742.8644509758783 256.89147540286496 0.0 0.0
5324.4702951508725 -0.026837244425994555 1597.3330373719339 256.57433214161347 0.0 0.0
4840.060691484909 -0.1497183201849026 1451.973291949418 256.69346325892116 0.0 0.0
4355.513081179822 -0.15059056512310676 1306.6087471844094 256.91431336016666 0.0 0.0
3871.1549177068287 0.11832051439927938 1161.3819714663687 256.8395841674593 0.0 0.0
3388.4946849805033 1.005667049318074 1016.8501056089465 255.54761641306473 0.0 0.0
2912.9417270044996 4.054324974933632 875.0988155938298 250.73874776546302 0.0 0.0
2451.2248914435113 7.4228142334250045 737.5943117030811 238.8393335127221 0.0 0.0
2034.5030715408275 29.832964040743605 619.3008106744716 208.39434780649316 0.0 0.0
1667.1142957823865 12.651268319362744 503.9296692305246 167.4553133281281 0.0 0.0
1141.602988480815 39.14254964594874 354.223661438029 59.47016494081376 0.0 0.0
1497.603394686223 938.4784303137612 730.8245474999953 422.9905012119273 0.0 0.0
-1587.4141416659402 -7068.459706804718 -2596.762154541198 594.4154013850618 0.0 0.0
-1458.7777018524116 -6076.354167093281 -2260.5395606837074 -742.0578836898487 0.0 0.0
934.9170862545889 381.93419669365477 395.055384884473 -579.2731332392189 0.0 0.0
834.5316194038204 180.76262593508147 304.5882736016706 -176.25586624296017 0.0 0.0
1348.8540920255193 25.906512378278336 412.4281813211393 -242.07303049110408 0.0 0.0
1759.0131560288178 32.10112741970699 537.3342850345572 -310.00602978272 0.0 0.0
2141.15480155518 14.17235572393555 646.5981471837348 -344.78557144649017 0.0 0.0
2548.4680418780763 5.049737277610514 766.0553337467062 -362.11914165036364 0.0 0.0
2966.011874974151 1.6362101606304877 890.2944255404344 -368.47694207265545 0.0 0.0
3387.9606359039844 0.11934450815323361 1016.4239941236416 -370.35687757038977 0.0 0.0
3811.5163084572796 -0.22312755915296822 1143.3879542694376 -370.4933480228341 0.0 0.0
4235.325217617816 -0.2266705634859294 1270.529564116299 -370.2185260537218 0.0 0.0
4659.1603870281815 -0.04670447253529453 1397.734104766694 -370.07374414977807 0.0 0.0
5083.3116281499315 0.43494041195500177 1525.1239705685666 -370.5207684231888 0.0 0.0
5508.671693756198 1.61074323388552 1653.0847310970246 -372.38742594871917 0.0 0.0
5936.934131914981 3.928716681980749 1782.2588545790888 -377.03198436450805 0.0 0.0
6370.308550237742 6.989979428604355 1913.189558899904 -385.5011083658247 0.0 0.0
6808.923127374013 7.305779835996244 2044.868672163003 -395.1088695921952 0.0 0.0
7242.84918558721 -4.625476670921117 2171.4671126748863 -392.1749221750356 0.0 0.0
7637.5380615333215 -42.90360953758331 2278.3903355987222 -344.89817807398646 0.0 0.0
7924.15170655871 -107.8898024405841 2344.8785712354393 -213.72132829546786 0.0 0.0
8027.357339674003 -150.5945332501789 2363.0288419271474 -2.8563817977556027e-12 0.0 0.0
7924.151706558684 -107.88980244064848 2344.878571235412 213.72132829546698 0.0 0.0
7637.5380615332815 -42.903609537717394 2278.3903355986695 344.89817807398316 0.0 0.0
7242.8491855871325 -4.625476671027037 2171.4671126748317 392.17492217500507 0.0 0.0
6808.923127374066 7.30577983615926 2044.8686721630681 395.1088695922132 0.0 0.0
6370.308550237825 6.989979428783009 1913.189558899983 385.5011083658837 0.0 0.0
5936.934131914833 3.928716681636697 1782.2588545789406 377.03198436452004 0.0 0.0
5508.671693756319 1.6107432341664243 1653.0847310971458 372.3874259486774 0.0 0.0
5083.31162815015 0.4349404124803584 1525.1239705687894 370.5207684232019 0.0 0.0
4659.160387028218 -0.046704472445014744 1397.7341047667323 370.07374414982485 0.0 0.0
4235.325217617658 -0.22667056387004791 1270.5295641161367 370.21852605374363 0.0 0.0
3811.5163084573796 -0.22312755892063407 1143.387954269538 370.4933480227843 0.0 0.0
3387.960635904074 0.11934450834478127 1016.4239941237255 370.3568775704041 0.0 0.0
2966.011874973955 1.6362101602164394 890.2944255402516 368.4769420726937 0.0 0.0
2548.468041878093 5.049737277698785 766.0553337467376 362.11914165036615 0.0 0.0
2141.154801555171 14.172355723898026 646.5981471837204 344.78557144653996 0.0 0.0
1759.0131560288005 32.10112741968363 537.334285034545 310.0060297827092 0.0 0.0
1348.8540920255118 25.90651237828303 412.4281813211383 242.07303049112784 0.0 0.0
834.5316194038508 180.76262593513448 304.58827360169573 176.25586624294203 0.0 0.0
934.9170862545907 381.9341966936873 395.05538488448343 579.2731332392232 0.0 0.0
-1458.7777018524557 -6076.3541670933 -2260.539560683727 742.0578836898128 0.0 0.0
-1250.2022138398488 -5172.82027982091 -1926.9067480982276 -758.993443082721 0.0 0.0
568.0787802324488 -47.04221259844113 156.3109702902023 -684.9797659279355 0.0 0.0
595.1531108727189 225.53327813993354 246.20591670379574 -333.97559065734566 0.0 0.0
1059.061937003019 63.41734373615073 336.74378422175096 -330.32764541350303 0.0 0.0
1474.496451383972 37.91719744694344 453.7240946492746 -400.67383038770333 0.0 0.0
1828.007051534043 20.084004917446723 554.4273169354469 -439.40169383935535 0.0 0.0
2182.8257770832843 7.313496371198564 657.0417820363449 -458.74093447664586 0.0 0.0
2542.7034547138414 2.182070376490521 763.4656575270997 -466.3983631001482 0.0 0.0
2904.6009717323354 0.20235658584613514 871.4409984954543 -468.6335642401458 0.0 0.0
3267.4613136204016 -0.32450951987993815 980.1410412301565 -468.8717664666518 0.0 0.0
3630.5871663682456 -0.3169557818240172 1089.081063175927 -468.5886913419114 0.0 0.0
3993.8003128570963 -0.06831866255397401 1198.119598258363 -468.44880317459257 0.0 0.0
4357.206693724529 0.6046971936695318 1307.3434172754598 -468.98864685129405 0.0 0.0
4721.166752108875 2.252883838599658 1417.0258907842428 -471.1492587959618 0.0 0.0
5086.4051793230265 5.537990574389125 1527.582950969225 -476.4578571487803 0.0 0.0
5453.978717864355 9.974012602587928 1639.1858191400827 -486.0834358745061 0.0 0.0
5823.9432886455625 10.643257452342684 1750.3759638293716 -496.85152989902264 0.0 0.0
6189.703873934572 -6.405444662539857 1854.9895287816098 -492.38968686408214 0.0 0.0
6524.545899073708 -62.774466699900636 1938.5314297121422 -433.5917733034152 0.0 0.0
6768.4873420408585 -160.60563268299157 1982.3645128073604 -269.7398775405031 0.0 0.0
6854.1207320659 -226.29314147032227 1988.348277178673 1.595878984517185e-11 0.0 0.0
6768.487342040986 -160.6056326826329 1982.364512807506 269.73987754052496 0.0 0.0
6524.545899073676 -62.77446669994165 1938.5314297121204 433.59177330337025 0.0 0.0
6189.703873934364 -6.405444663059505 1854.9895287813908 492.3896868640682 0.0 0.0
5823.943288645561 10.643257452262969 1750.3759638293473 496.8515298989896 0.0 0.0
5453.978717864205 9.974012602158215 1639.1858191399097 486.0834358745073 0.0 0.0
5086.405179322913 5.537990574073227 1527.582950969096 476.4578571488772 0.0 0.0
4721.166752108965 2.2528838388351566 1417.0258907843402 471.14925879590163 0.0 0.0
4357.206693724637 0.6046971939559818 1307.343417275578 468.9886468512704 0.0 0.0
3993.8003128571645 -0.0683186623896681 1198.1195982584322 468.4488031746126 0.0 0.0
3630.587166368154 -0.3169557819803188 1089.0810631758525 468.5886913419423 0.0 0.0
3267.461313620408 -0.3245095198696504 980.1410412301614 468.8717664666096 0.0 0.0
2904.6009717324464 0.20235658605709617 871.4409984955511 468.6335642401345 0.0 0.0
2542.703454713793 2.182070376408234 763.4656575270604 466.3983631001524 0.0 0.0
2182.825777083148 7.313496370854825 657.0417820362009 458.74093447667167 0.0 0.0
1828.0070515340913 20.0840049175514 554.4273169354926 439.401693839361 0.0 0.0
1474.4964513839157 37.917197446860825 453.72409464923294 400.6738303876693 0.0 0.0
1059.0619370029888 63.41734373614294 336.74378422173953 330.32764541350525 0.0 0.0
595.1531108727004 225.5332781399357 246.2059167037908 333.97559065733327 0.0 0.0
568.0787802324669 -47.04221259840233 156.3109702902194 684.9797659279786 0.0 0.0
-1250.202213839856 -5172.820279820933 -1926.9067480982364 758.9934430826675 0.0 0.0
-1035.6683894733787 -4376.736950273277 -1623.721601923997 -724.1076612737822 0.0 0.0
326.38341630556505 -347.80301966566384 -6.425881008029641 -747.452640424558 0.0 0.0
405.47243896797306 209.5098405562505 184.4946838572671 -486.5665156150516 0.0 0.0
800.2023931838303 98.62200229816858 269.64731864459964 -428.98645574725714 0.0 0.0
1190.953719435427 49.08317589180844 372.0110685981706 -482.9917354468221 0.0 0.0
1512.4823891111323 25.417772301733095 461.37004842385966 -521.7739615872064 0.0 0.0
1816.4527872780789 9.951291627009155 547.9212236715264 -541.2330738683827 0.0 0.0
2118.8542226884542 2.861857730352161 636.5148241256419 -549.3122475243957 0.0 0.0
2421.028670036116 0.2846792154384472 726.3940047754664 -551.749682660335 0.0 0.0
2723.3419010592133 -0.4174379425753738 816.8773389349911 -552.05824132974 0.0 0.0
3025.817164322712 -0.4140384401009207 907.6209377647833 -551.8040240493243 0.0 0.0
3328.387327266482 -0.08568826114821881 998.4904917016004 -551.684303167522 0.0 0.0
3630.9760409321398 0.7976296449201907 1089.532101173118 -552.2630306645376 0.0 0.0
3933.4350044081993 2.9581475909718904 1180.9179455997512 -554.4951634202349 0.0 0.0
4235.602613202834 7.286168561811158 1272.8666345293934 -559.9320995913713 0.0 0.0
4537.6624481023355 13.226804872254274 1365.2667758923767 -569.8174528970526 0.0 0.0
4840.300123752555 14.319375173992409 1456.3858496779642 -580.9474725254921 0.0 0.0
5141.443947087398 -8.511054413837268 1539.8798678020682 -575.6673596295682 0.0 0.0
5422.908850682632 -86.10646059083987 1601.0407170275373 -509.34143227554944 0.0 0.0
5631.116665877332 -224.19017309768162 1622.0779478338955 -319.5957907975529 0.0 0.0
5701.312392404273 -319.74604024755035 1614.4699056470163 2.722799763432704e-11 0.0 0.0
5631.116665877253 -224.19017309773335 1622.0779478338566 319.5957907975293 0.0 0.0
5422.908850682592 -86.10646059094853 1601.0407170274925 509.3414322755948 0.0 0.0
5141.443947087341 -8.511054414014332 1539.8798678019982 575.6673596296522 0.0 0.0
4840.300123752389 14.319375173610368 1456.3858496778 580.9474725254246 0.0 0.0
4537.662448102245 13.226804871991417 1365.2667758922712 569.8174528970243 0.0 0.0
4235.60261320269 7.286168561466136 1272.866634529247 559.9320995914171 0.0 0.0
3933.4350044079556 2.9581475904211416 1180.917945599513 554.495163420178 0.0 0.0
3630.976040932117 0.7976296449361904 1089.5321011731157 552.2630306645035 0.0 0.0
3328.387327266613 -0.08568826081319258 998.49049170174 551.6843031675633 0.0 0.0
3025.817164322594 -0.4140384403591746 907.6209377646708 551.8040240493001 0.0 0.0
2723.341901059269 -0.41743794242148624 816.8773389350545 552.058241329729 0.0 0.0
2421.0286700361617 0.2846792155509945 726.394004775514 551.749682660351 0.0 0.0
2118.8542226885643 2.861857730599125 636.514824125749 549.3122475243997 0.0 0.0
1816.45278727801 9.951291626777888 547.9212236714363 541.2330738683844 0.0 0.0
1512.4823891111641 25.41777230179534 461.3700484238881 521.7739615872123 0.0 0.0
1190.9537194353752 49.083175891673 372.01106859811443 482.9917354468164 0.0 0.0
800.2023931838008 98.62200229808832 269.6473186445667 428.9864557472073 0.0 0.0
405.47243896798494 209.5098405563207 184.49468385729168 486.5665156150579 0.0 0.0
326.383416305544 -347.80301966568055 -6.425881008041024 747.45264042459 0.0 0.0
-1035.6683894733883 -4376.736950273289 -1623.7216019240036 724.1076612737573 0.0 0.0
-842.5526105780059 -3684.0104300278726 -1357.968912181764 -671.3545897105861 0.0 0.0
164.61049962582138 -540.3078642339524 -112.70920938243921 -777.6122641182669 0.0 0.0
251.70647126866686 162.57660213690062 124.28492202167023 -615.403494946319 0.0 0.0
569.4207195691794 121.80042320923786 207.36634283352518 -527.8022256658211 0.0 0.0
914.1435029667877 62.23762100654021 292.91433719199836 -557.9360892274422 0.0 0.0
1196.5168407387077 30.755998707646867 368.18185183390636 -591.6513128045157 0.0 0.0
1449.6600745591998 12.453735591312785 438.6341430451538 -609.6694713581898 0.0 0.0
1694.7067555696806 3.6268160120457873 509.50007147451805 -617.3232476578394 0.0 0.0
1937.2635008546056 0.37226830753143325 581.2907307486412 -619.7295072024825 0.0 0.0
2179.1407042955975 -0.5004882867564238 653.5920648026523 -620.0725870060672 0.0 0.0
2420.999039195646 -0.5049310383405423 726.1482324471917 -619.8639649529379 0.0 0.0
2662.9218169806813 -0.09812550009749543 798.8471074441753 -619.7713051197227 0.0 0.0
2904.671986071156 0.9936362822466069 871.6996867060207 -620.3270249985084 0.0 0.0
3145.6417098071006 3.6513938345781893 944.7879310925036 -622.4111405837399 0.0 0.0
3384.8784771121427 8.991639157695817 1018.1610348809514 -627.4730416967792 0.0 0.0
3621.8693483706897 16.451786365753996 1091.4963404209334 -636.821116248293 0.0 0.0
3858.315991135655 18.138724330562937 1162.936414639865 -647.7750082100838 0.0 0.0
4097.473245451195 -10.424666905799004 1226.1145735636192 -642.9763051298667 0.0 0.0
4330.475589970723 -111.0944672307694 1265.814336821986 -573.988330328836 0.0 0.0
4508.3019906178515 -296.5943742059606 1263.512284923567 -365.27494042866823 0.0 0.0
4563.959849831055 -430.5958609712072 1240.0091966579548 1.5702994460298214e-11 0.0 0.0
4508.301990617863 -296.59437420587363 1263.5122849235968 365.2749404286459 0.0 0.0
4330.475589970675 -111.09446723097156 1265.8143368219114 573.9883303288937 0.0 0.0
4097.4732454511195 -10.424666905966419 1226.114573563546 642.9763051299213 0.0 0.0
3858.3159911355397 18.13872433039851 1162.9364146397816 647.7750082100544 0.0 0.0
3621.8693483706375 16.451786365606544 1091.4963404208727 636.8211162482276 0.0 0.0
3384.8784771122373 8.991639157852514 1018.1610348810271 627.4730416967923 0.0 0.0
3145.6417098067564 3.651393833772687 944.7879310921587 622.4111405837775 0.0 0.0
2904.6719860711464 0.9936362822385156 871.6996867060157 620.3270249985247 0.0 0.0
2662.921816980704 -0.09812550005383969 798.8471074441952 619.7713051197384 0.0 0.0
2420.999039195497 -0.5049310386489019 726.1482324470546 619.8639649529226 0.0 0.0
2179.1407042956876 -0.5004882865300093 653.5920648027472 620.0725870060544 0.0 0.0
1937.2635008546654 0.3722683076239903 581.290730748687 619.7295072025074 0.0 0.0
1694.7067555696824 3.6268160120618855 509.50007147452334 617.3232476578354 0.0 0.0
1449.6600745591845 12.453735591348698 438.63414304515993 609.6694713581797 0.0 0.0
1196.5168407387348 30.755998707735635 368.1818518339411 591.6513128044946 0.0 0.0
914.1435029667367 62.23762100642297 292.91433719194794 557.9360892274584 0.0 0.0
569.42071956918 121.80042320921821 207.36634283351952 527.8022256657664 0.0 0.0
251.70647126869244 162.57660213696383 124.28492202169689 615.4034949463231 0.0 0.0
164.61049962580265 -540.3078642339489 -112.70920938244379 777.6122641182673 0.0 0.0
-842.5526105780191 -3684.010430027892 -1357.9689121817732 671.3545897105855 0.0 0.0
-678.5661715560914 -3082.4175796287736 -1128.2951253554597 -615.0584533762742 0.0 0.0
53.638905339711194 -648.2802266857634 -178.3923964038156 -784.4806746566745 0.0 0.0
123.52320197737215 105.00590280847685 68.55873143575471 -714.6287293373302 0.0 0.0
362.12523288376974 131.7189267983592 148.1532479046387 -617.7805952087061 0.0 0.0
646.7381669983477 74.01372901399536 216.22556880370294 -624.2902553456338 0.0 0.0
882.0153880941068 35.92508509192091 275.3821419558083 -648.9564165360389 0.0 0.0
1082.8904042646302 14.639706878981018 329.25903334308333 -663.9494929866437 0.0 0.0
1270.4349642513764 4.35170103795519 382.4359995867996 -670.4789331248855 0.0 0.0
1453.3525500961796 0.468077488857114 436.1461882755111 -672.5955225302831 0.0 0.0
1634.8462339527682 -0.5707183566419207 490.2826546788378 -672.9277303849358 0.0 0.0
1816.1210243408127 -0.582023884387505 544.6617001369275 -672.7717281449021 0.0 0.0
1997.4078332577478 -0.10580584937402193 599.1906082225123 -672.7058849859776 0.0 0.0
2178.344522538617 1.1715918898339108 653.8548343285356 -673.1783908215976 0.0 0.0
2357.937352080175 4.262866711540403 708.6600656375147 -674.9170855068986 0.0 0.0
2534.546997611339 10.48872242948552 763.5107160122473 -679.1589142606219 0.0 0.0
2707.0342095372366 19.379389463404415 817.9240797001922 -687.264386129261 0.0 0.0
2878.1798299977763 21.963628650662343 870.0430375945317 -697.6330072557478 0.0 0.0
3057.0215317352845 -11.466215188244458 913.666594964112 -694.9157128457631 0.0 0.0
3245.0667680688616 -135.63945162941891 932.828194931833 -628.8049293598184 0.0 0.0
3396.642221594775 -375.78566413405 906.2569672382174 -408.44612684331753 0.0 0.0
3437.338638909972 -559.569651280957 863.3306962887045 -2.297895207448164e-11 0.0 0.0
3396.6422215946122 -375.78566413442314 906.2569672380569 408.44612684335436 0.0 0.0
3245.066768068711 -135.63945162982554 932.8281949316658 628.8049293598264 0.0 0.0
3057.021531735512 -11.466215187758085 913.6665949643259 694.9157128457151 0.0 0.0
2878.1798299976613 21.963628650454833 870.0430375944351 697.6330072557801 0.0 0.0
2707.034209537491 19.379389463980075 817.9240797004413 687.2643861293465 0.0 0.0
2534.546997611375 10.488722429505152 763.5107160122641 679.1589142606305 0.0 0.0
2357.937352080248 4.26286671175999 708.6600656376024 674.9170855068694 0.0 0.0
2178.3445225385385 1.1715918897092834 653.8548343284742 673.178390821569 0.0 0.0
1997.4078332578326 -0.10580584915766167 599.1906082226026 672.7058849859683 0.0 0.0
1816.1210243408207 -0.5820238843426093 544.6617001369434 672.7717281449272 0.0 0.0
1634.8462339526118 -0.5707183569966254 490.28265467868465 672.9277303849423 0.0 0.0
1453.3525500962464 0.4680774890168671 436.1461882755789 672.5955225303046 0.0 0.0
1270.4349642514371 4.351701038079959 382.4359995868551 670.478933124878 0.0 0.0
1082.8904042646254 14.639706878968818 329.2590333430784 663.9494929866312 0.0 0.0
882.0153880941182 35.92508509196919 275.3821419558262 648.9564165360454 0.0 0.0
646.7381669983604 74.01372901401176 216.22556880371158 624.2902553456308 0.0 0.0
362.12523288379134 131.7189267984406 148.15324790466963 617.780595208704 0.0 0.0
123.52320197736593 105.00590280848226 68.55873143575448 714.6287293373117 0.0 0.0
53.638905339733455 -648.2802266857288 -178.3923964037986 784.4806746566874 0.0 0.0
-678.566171556062 -3082.417579628764 -1128.2951253554481 615.0584533762545 0.0 0.0
-543.4177861464559 -2558.3744770850954 -930.5376789694656 -560.6835528998372 0.0 0.0
-25.331458077940425 -693.2540994718804 -215.57566726494616 -774.4191917726996 0.0 0.0
13.303079243337624 49.05984706186951 18.708877891562125 -784.037253296893 0.0 0.0
173.5693522827699 130.69269066862023 91.27861288541708 -692.7661128575992 0.0 0.0
389.43066942534733 82.3373186369096 141.53039641867707 -679.8286607923734 0.0 0.0
570.3847847645853 40.33779643927613 183.21677436115843 -693.3585310837353 0.0 0.0
716.6402485579025 16.400912009297716 219.91234817016007 -703.9292078457764 0.0 0.0
846.1833442081415 4.939122874346591 255.33674012474643 -708.7610399883847 0.0 0.0
969.3411763493431 0.5578927275374417 290.96972072306426 -710.3625720626702 0.0 0.0
1090.4552709185934 -0.6232374302090964 326.9496100465153 -710.633566149294 0.0 0.0
1211.1744802499777 -0.6407145544556556 363.1601297086568 -710.5320203389119 0.0 0.0
1331.8507864674896 -0.10996648323762592 399.5222459952757 -710.4892964036674 0.0 0.0
1452.0364772757716 1.3124276611694086 436.0046714810824 -710.8274015967181 0.0 0.0
1570.4480459013234 4.734562507409519 472.5547825226199 -712.0614652932213 0.0 0.0
1684.877663236818 11.638014665262581 508.95470337062415 -715.1202066520796 0.0 0.0
1793.5384140101462 21.76321937106175 544.5904900143626 -721.3650469095377 0.0 0.0
1900.0248957032466 25.653775371612404 577.7036013224576 -730.7362483569271 0.0 0.0
2019.2435550812138 -10.910248845764396 602.4999918706349 -731.700504413222 0.0 0.0
2164.4999307330445 -157.35388415849482 602.1438139723649 -674.519101452344 0.0 0.0
2293.009876753364 -459.52817767861535 550.0445097224246 -450.59162603781516 0.0 0.0
2316.701460335351 -708.5871119098339 482.4343045276551 -1.6726175999792758e-11 0.0 0.0
2293.0098767531545 -459.52817767920277 550.0445097221855 450.59162603780646 0.0 0.0
2164.4999307330863 -157.35388415838364 602.143813972411 674.519101452383 0.0 0.0
2019.2435550812925 -10.910248845590697 602.4999918707105 731.70050441323 0.0 0.0
1900.024895703215 25.65377537153428 577.7036013224249 730.7362483568929 0.0 0.0
1793.5384140104252 21.763219371737247 544.5904900146488 721.3650469095155 0.0 0.0
1684.877663236653 11.638014664827288 508.9547033704442 715.1202066520574 0.0 0.0
1570.4480459014735 4.734562507817802 472.5547825227874 712.0614652932086 0.0 0.0
1452.0364772758824 1.3124276614338406 436.0046714811948 710.8274015967088 0.0 0.0
1331.8507864676685 -0.10996648287683009 399.52224599543763 710.4892964036426 0.0 0.0
1211.1744802500746 -0.6407145541998993 363.16012970876227 710.5320203388978 0.0 0.0
1090.4552709183367 -0.6232374307946706 326.9496100462627 710.6335661493151 0.0 0.0
969.3411763493385 0.557892727548861 290.9697207230662 710.3625720626927 0.0 0.0
846.1833442082443 4.9391228746362135 255.3367401248642 708.7610399884102 0.0 0.0
716.6402485578759 16.40091200927862 219.9123481701464 703.9292078457661 0.0 0.0
570.3847847644968 40.33779643902982 183.21677436105793 693.3585310837595 0.0 0.0
389.43066942539224 82.33731863698499 141.5303964187132 679.8286607923332 0.0 0.0
173.56935228282165 130.6926906687809 91.27861288548077 692.7661128575978 0.0 0.0
13.303079243313766 49.05984706183053 18.70887789154329 784.0372532969135 0.0 0.0
-25.33145807794116 -693.2540994718722 -215.57566726494414 774.4191917727044 0.0 0.0
-543.4177861464817 -2558.374477085081 -930.537678969469 560.6835528998184 0.0 0.0
-433.95820465962794 -2099.78308912254 -760.1223881346505 -509.6668510982211 0.0 0.0
-84.41461591130347 -692.9320780204732 -233.20400817953302 -751.5709385094873 0.0 0.0
-84.49461171291001 1.3475859886031936 -24.944107717292056 -825.6594962797681 0.0 0.0
-0.4997097245588691 122.03649690871613 36.46103615524717 -749.1198370557788 0.0 0.0
141.76330912277191 86.38052219384466 68.44314939498494 -722.2086164526511 0.0 0.0
262.44562721247894 43.38696100099103 91.74977646404098 -724.2302222698771 0.0 0.0
351.3446844906801 17.615606098645507 110.68808717679774 -729.4147898208357 0.0 0.0
422.0780840872652 5.329759103179936 128.22235295713355 -732.1118365055141 0.0 0.0
485.2645724197408 0.6235297082064406 145.76643063838424 -733.0320660214143 0.0 0.0
545.9688460206193 -0.6551061855704425 163.59412195051468 -733.1986458737777 0.0 0.0
606.1539127119186 -0.6776531835753996 181.64287785850289 -733.1504347106747 0.0 0.0
666.2555297926616 -0.11230677740357287 199.84296690457742 -733.1270105964928 0.0 0.0
725.7797036711531 1.40106858671275 218.15423167735977 -733.2941799717903 0.0 0.0
783.2671808181441 5.024958402647789 236.48764176623757 -733.9143208225005 0.0 0.0
836.0868465033398 12.336981633055775 254.52714844091867 -735.5311809284782 0.0 0.0
881.7279988138476 23.381700045321722 271.5329096577508 -739.3938697287603 0.0 0.0
924.0058814337026 29.00588063903436 285.9035286218211 -747.2370586088535 0.0 0.0
983.315916464313 -8.116645250816141 292.55978136404906 -753.1569528285895 0.0 0.0
1086.605064581988 -173.55667736880156 273.914516163956 -711.2846044530223 0.0 0.0
1194.5190034789675 -545.0900332329844 194.82869107379506 -493.0888580596112 0.0 0.0
1196.9737010766469 -881.0146857155555 94.7877046083275 3.7132963370822836e-11 0.0 0.0
1194.5190034790098 -545.0900332329085 194.8286910738304 493.0888580596114 0.0 0.0
1086.6050645820715 -173.55667736863666 273.9145161640304 711.2846044530665 0.0 0.0
983.3159164640776 -8.116645251363309 292.5597813638144 753.1569528286157 0.0 0.0
924.0058814335628 29.00588063873039 285.90352862168794 747.2370586087875 0.0 0.0
881.7279988139188 23.38170004543924 271.5329096578074 739.393869728731 0.0 0.0
836.0868465033944 12.33698163318579 254.52714844097406 735.5311809285184 0.0 0.0
783.2671808181586 5.024958402733786 236.48764176626773 733.9143208225129 0.0 0.0
725.779703671128 1.4010685866393988 218.1542316773303 733.2941799718324 0.0 0.0
666.2555297927976 -0.11230677704766023 199.84296690472496 733.1270105964439 0.0 0.0
606.1539127119888 -0.6776531833598813 181.64287785858866 733.1504347106768 0.0 0.0
545.9688460204949 -0.6551061858216585 163.59412195040196 733.1986458737421 0.0 0.0
485.2645724197564 0.623529708245524 145.76643063840058 733.0320660214455 0.0 0.0
422.0780840872572 5.329759103108962 128.22235295710985 732.1118365055306 0.0 0.0
351.34468449065656 17.615606098533956 110.68808717675718 729.4147898208555 0.0 0.0
262.44562721238316 43.38696100077719 91.74977646394811 724.230222269888 0.0 0.0
141.7633091227652 86.38052219384849 68.44314939498415 722.2086164526681 0.0 0.0
-0.4997097245002209 122.03649690882264 36.46103615529672 749.1198370557792 0.0 0.0
-84.4946117128943 1.3475859886029546 -24.944107717287405 825.6594962797911 0.0 0.0
-84.41461591132709 -692.9320780205278 -233.20400817955647 751.5709385094954 0.0 0.0
-433.95820465965085 -2099.7830891225267 -760.1223881346533 509.66685109825204 0.0 0.0
-346.42500897350465 -1697.017482530889 -613.0327474513181 -461.6696426921775 0.0 0.0
-131.35190338393704 -661.1845699615301 -237.76094200364025 -718.4777837517148 0.0 0.0
-173.83243165593137 -35.19435002818123 -62.70803450523377 -842.165330988686 0.0 0.0
-163.62672128048857 108.88797423649771 -16.421624113197282 -785.008200001711 0.0 0.0
-97.31430033885329 86.17499001147124 -3.3417930982146054 -749.4034069017434 0.0 0.0
-41.4994828079376 44.653996731700126 0.9463541771287556 -740.7638371431624 0.0 0.0
-12.699045952309369 18.163234347870503 1.6392565186683363 -740.150064146418 0.0 0.0
-1.783290319311753 5.4908636740313375 1.1122720064158784 -740.4512252652295 0.0 0.0
1.1462273359127266 0.6522833854037735 0.5395532163949426 -740.5943411479359 0.0 0.0
1.3888184776020367 -0.6656206767540223 0.21695934025439811 -740.6300212503407 0.0 0.0
1.0564305433007632 -0.6906228288346128 0.10974231433984016 -740.6333414037108 0.0 0.0
0.6252235920766225 -0.1140458656571397 0.1533533179258484 -740.6273811263541 0.0 0.0
-0.40734248757010505 1.4276251800647835 0.30608480774840885 -740.6055912992308 0.0 0.0
-3.551338546748539 5.111211800302302 0.4679619760661424 -740.5591097854892 0.0 0.0
-11.673927301551757 12.530347523713129 0.2569260666484041 -740.5986869536476 0.0 0.0
-28.077413383563524 24.051226556728597 -1.2078560480504734 -741.6860730038537 0.0 0.0
-49.625039706355025 31.70222399352271 -5.376844713849671 -747.2775963370107 0.0 0.0
-51.454319013516425 -2.691277537365341 -16.24367896526453 -758.735472793435 0.0 0.0
9.2395697400828 -181.29092106904503 -51.61540539868872 -738.5880428055632 0.0 0.0
98.53144446121976 -628.8290062452074 -159.0892685351963 -537.2457013499455 0.0 0.0
72.36954396569398 -1082.0908136475898 -302.9163809045686 9.805489753489383e-13 0.0 0.0
98.53144446126133 -628.8290062451383 -159.08926853516311 537.2457013499023 0.0 0.0
9.239569740095249 -181.29092106907302 -51.615405398693326 738.5880428055729 0.0 0.0
-51.45431901342056 -2.691277537121838 -16.24367896516273 758.7354727934116 0.0 0.0
-49.625039706461564 31.702223993268134 -5.376844713958043 747.2775963370399 0.0 0.0
-28.077413383561634 24.051226556587125 -1.2078560480923528 741.6860730039251 0.0 0.0
-11.673927301474862 12.53034752386398 0.2569260667167299 740.598686953668 0.0 0.0
-3.5513385466415315 5.11121180061482 0.46796197619200086 740.5591097854883 0.0 0.0
-0.40734248756214697 1.4276251800532584 0.3060848077473288 740.6055912992458 0.0 0.0
0.6252235921895704 -0.11404586542214723 0.15335331803022356 740.6273811263836 0.0 0.0
1.0564305432626924 -0.6906228288821623 0.1097423143141647 740.6333414036885 0.0 0.0
1.388818477594313 -0.6656206767430604 0.21695934025538222 740.6300212503608 0.0 0.0
1.1462273360242747 0.6522833855974621 0.5395532164865244 740.5943411479427 0.0 0.0
-1.7832903194054808 5.490863673782581 1.112272006313118 740.4512252652096 0.0 0.0
-12.699045952378981 18.163234347744254 1.6392565186095833 740.1500641464477 0.0 0.0
-41.499482808031146 44.65399673151556 0.946354177045313 740.7638371431658 0.0 0.0
-97.3143003388386 86.17499001153425 -3.3417930981913067 749.4034069017526 0.0 0.0
-163.626721280499 108.88797423648435 -16.421624113204413 785.0082000017254 0.0 0.0
-173.83243165591705 -35.19435002817396 -62.70803450522729 842.1653309887037 0.0 0.0
-131.35190338393494 -661.1845699615652 -237.76094200365006 718.4777837517263 0.0 0.0
-346.4250089734832 -1697.0174825308868 -613.0327474513111 461.6696426922018 0.0 0.0
-277.36276547988587 -1343.0665174997118 -486.12878489387936 -415.6506751726648 0.0 0.0
-170.98659826208666 -608.5907195262796 -233.87319533650992 -676.606670533944 0.0 0.0
-257.46759626050783 -59.88086997339511 -95.20453987017086 -836.1616421651249 0.0 0.0
-318.62739368121015 93.75007481662924 -67.46319565937429 -799.7506380715868 0.0 0.0
-329.0960090394528 82.23570352823631 -74.05809165336495 -759.8321029789123 0.0 0.0
-341.5522403911044 43.97020859126135 -89.2746095399529 -742.1033782122638 0.0 0.0
-375.3645249217485 17.963876946003438 -107.22019439272356 -735.8293174260709 0.0 0.0
-425.3476027358747 5.409861294292986 -125.98132243247451 -733.686285298047 0.0 0.0
-483.00303048073584 0.639637307703369 -144.70901795190966 -733.0338863656399 0.0 0.0
-543.2837079843522 -0.6550888984020116 -163.1816390648263 -732.9334997657786 0.0 0.0
-604.1189413853832 -0.6787576097449239 -181.43930969853847 -732.9875693950066 0.0 0.0
-665.0393222913858 -0.11525761515170707 -199.54637397196132 -733.000133370294 0.0 0.0
-726.5203624354397 1.3883239106259406 -217.5396115574441 -732.7919611999044 0.0 0.0
-789.9972379414729 4.988224313045311 -235.50270408852822 -732.0843029327268 0.0 0.0
-858.3341119505907 12.217643562532562 -253.8349405164175 -730.5462278834067 0.0 0.0
-935.5922104985465 23.656816143258933 -273.5806183065863 -728.6521087444722 0.0 0.0
-1020.4461610056215 33.28372065003215 -296.1487321066768 -731.0781853070328 0.0 0.0
-1085.49269860673 5.305855631469161 -324.0560528925783 -747.5608320734638 0.0 0.0
-1069.6879338843942 -177.41459051571044 -374.13075732003136 -755.0787651724511 0.0 0.0
-997.2830465905759 -705.5844337935689 -510.86024411524346 -584.2717089629983 0.0 0.0
-1064.1340774436637 -1319.5686007971974 -715.1108034722581 2.3732127374387346e-11 0.0 0.0
-997.2830465905947 -705.584433793633 -510.86024411526824 584.2717089630207 0.0 0.0
-1069.6879338841723 -177.41459051522662 -374.1307573198196 755.0787651725154 0.0 0.0
-1085.4926986066375 5.305855631672861 -324.05605289248956 747.5608320735063 0.0 0.0
-1020.4461610056524 33.28372064996767 -296.14873210670544 731.0781853070001 0.0 0.0
-935.5922104985893 23.656816143107285 -273.5806183066447 728.6521087444935 0.0 0.0
-858.3341119506952 12.217643562336555 -253.83494051650763 730.5462278833616 0.0 0.0
-789.9972379412793 4.988224313585933 -235.5027040883081 732.0843029327389 0.0 0.0
-726.520362435251 1.3883239110008123 -217.5396115572751 732.7919611998959 0.0 0.0
-665.0393222914042 -0.11525761522435651 -199.54637397198866 733.0001333702915 0.0 0.0
-604.1189413853626 -0.6787576096937151 -181.43930969851692 732.987569394967 0.0 0.0
-543.2837079843598 -0.6550888984088985 -163.18163906483062 732.9334997657918 0.0 0.0
-483.0030304806821 0.6396373078307604 -144.70901795185546 733.0338863656401 0.0 0.0
-425.34760273584175 5.409861294332691 -125.98132243245273 733.6862852980262 0.0 0.0
-375.36452492178375 17.963876945927915 -107.22019439275675 735.8293174260855 0.0 0.0
-341.5522403912273 43.970208590991604 -89.27460954007071 742.1033782122845 0.0 0.0
-329.0960090394052 82.23570352830531 -74.05809165332994 759.8321029789136 0.0 0.0
-318.62739368123886 93.75007481652112 -67.4631956594153 799.7506380716125 0.0 0.0
-257.4675962605231 -59.88086997343811 -95.20453987018837 836.1616421651285 0.0 0.0
-170.9865982620687 -608.5907195262613 -233.87319533649907 676.6066705339555 0.0 0.0
-277.3627654798858 -1343.0665174997332 -486.12878489388595 415.6506751726785 0.0 0.0
-223.92932574442352 -1033.3239284651106 -377.17597626286016 -370.3871857635375 0.0 0.0
-206.19238363093768 -543.0789581152446 -224.78140252385467 -626.7482906751015 0.0 0.0
-337.2133847590127 -73.34098913402704 -123.16631216791195 -809.9188204383051 0.0 0.0
-467.6436573607235 78.38365006149152 -116.77800218976962 -793.3194304947378 0.0 0.0
-554.9173045132675 75.29035932464846 -143.88808355658574 -752.3320148114094 0.0 0.0
-638.1097582504992 41.4014356482808 -179.01249678066554 -727.4412839739524 0.0 0.0
-736.6986781407317 17.008081358449992 -215.90717903468456 -716.1279016292018 0.0 0.0
-848.6175346626782 5.094477635403125 -253.05691710818257 -711.7202220835717 0.0 0.0
-967.1862008508435 0.5886795436675296 -289.9792563921528 -710.334462787785 0.0 0.0
-1088.048658216627 -0.6239631727766319 -326.60178641682126 -710.1145674803793 0.0 0.0
-1209.3715735310848 -0.6426846523839078 -363.00427745504055 -710.2200021217011 0.0 0.0
-1330.7400225817414 -0.11475283509004797 -399.25643262504934 -710.2546802687428 0.0 0.0
-1452.568505170953 1.2866996898122913 -435.3845416443422 -709.8836167388814 0.0 0.0
-1576.103650513916 4.665053045966387 -471.43157924038485 -708.5762643174264 0.0 0.0
-1703.923612324475 11.452089378577385 -507.7414568837692 -705.5925450964266 0.0 0.0
-1840.598611271965 22.202978419086158 -545.5186898558636 -700.7747045688983 0.0 0.0
-1987.8071078755345 33.176714969220775 -586.3891178718943 -699.0641803498464 0.0 0.0
-2118.770906143546 15.092116315530868 -631.1036369484048 -718.5623991212983 0.0 0.0
-2152.1712651291596 -158.85251357170557 -693.3071336102597 -758.3068643271815 0.0 0.0
-2094.8050568298218 -767.7697346878481 -858.7724374553011 -635.1348140249981 0.0 0.0
-2221.5590648075804 -1604.6384185580232 -1147.8592450096817 2.093258899549255e-11 0.0 0.0
-2094.8050568300278 -767.7697346883473 -858.7724374555124 635.1348140250504 0.0 0.0
-2152.1712651291405 -158.85251357167095 -693.3071336102435 758.3068643271522 0.0 0.0
-2118.7709061434102 15.09211631580321 -631.1036369482822 718.5623991212444 0.0 0.0
-1987.8071078756666 33.17671496885549 -586.3891178720434 699.0641803498793 0.0 0.0
-1840.5986112718997 22.202978419207675 -545.5186898558073 700.7747045689373 0.0 0.0
-1703.9236123245873 11.452089378342237 -507.74145688387364 705.5925450964305 0.0 0.0
-1576.1036505137613 4.665053046304099 -471.43157924023717 708.5762643175021 0.0 0.0
-1452.5685051710218 1.286699689557425 -435.38454164443914 709.8836167388888 0.0 0.0
-1330.7400225818628 -0.11475283536788083 -399.2564326251692 710.2546802687353 0.0 0.0
-1209.371573530939 -0.6426846519755429 -363.00427745487434 710.2200021217036 0.0 0.0
-1088.0486582167482 -0.6239631730307398 -326.6017864169336 710.114567480416 0.0 0.0
-967.1862008509044 0.5886795435592678 -289.9792563922035 710.3344627877844 0.0 0.0
-848.6175346626367 5.094477635475451 -253.05691710814833 711.7202220835652 0.0 0.0
-736.6986781407193 17.008081358455282 -215.90717903467916 716.1279016291712 0.0 0.0
-638.1097582504764 41.401435648321176 -179.0124967806466 727.441283973976 0.0 0.0
-554.9173045132488 75.29035932462885 -143.88808355658597 752.3320148114243 0.0 0.0
-467.6436573607886 78.38365006131895 -116.77800218984089 793.3194304947308 0.0 0.0
-337.21338475904196 -73.34098913414017 -123.16631216795464 809.918820438299 0.0 0.0
-206.19238363089346 -543.0789581152292 -224.7814025238368 626.7482906750917 0.0 0.0
-223.92932574439925 -1033.3239284651067 -377.1759762628519 370.387185763527 0.0 0.0
-183.91075733665238 -765.249328092737 -284.7480256288167 -324.74348426417816 0.0 0.0
-238.43504477384582 -470.50737139528434 -212.68272485073913 -569.3121754911786 0.0 0.0
-414.1060336426998 -76.94652602036466 -147.31576789891932 -765.2892617310649 0.0 0.0
-612.2207477487459 63.85661010539763 -164.5092412930044 -765.9757586657663 0.0 0.0
-776.0544818543045 66.11991600120132 -212.980369755931 -726.0657050168454 0.0 0.0
-931.7803011401259 37.20564186824777 -268.3723977815634 -696.0760602470106 0.0 0.0
-1096.9072022719288 15.36878670201632 -324.4615246709739 -680.7383955053457 0.0 0.0
-1271.6555032392157 4.574647002648193 -380.12425687097027 -674.4633775736035 0.0 0.0
-1451.4204713040444 0.5085622959346185 -435.2735727024331 -672.4836136704694 0.0 0.0
-1632.9064896422437 -0.5727877230491849 -490.0437832095879 -672.179509486411 0.0 0.0
-1814.6989403557427 -0.5845521878758184 -544.5850477630855 -672.3372313113949 0.0 0.0
-1996.4815633477317 -0.11083196584464261 -598.9777185940727 -672.398517735615 0.0 0.0
-2178.5731195035655 1.135156230246654 -653.2313889819959 -671.906726366242 0.0 0.0
-2361.940545424567 4.161865624603589 -707.3336039399893 -670.1148323355162 0.0 0.0
-2548.5901876953617 10.321997715763331 -761.4804569938793 -665.9286184524192 0.0 0.0
-2743.018532979053 19.875954637752656 -816.94277350239 -658.5717573249608 0.0 0.0
-2950.8040220841485 30.825109559740262 -875.9936737573221 -652.0188476017906 0.0 0.0
-3150.542662457385 24.841735985037033 -937.7102779417042 -670.7648498776008 0.0 0.0
-3240.0135699857938 -123.17369718589426 -1008.956180151507 -744.3665486648976 0.0 0.0
-3195.1949775053017 -804.0153217368223 -1199.7630897726372 -690.187642902429 0.0 0.0
-3412.0688873919025 -1953.1934797404738 -1609.5787101397123 6.792788553866558e-12 0.0 0.0
-3195.194977505601 -804.0153217374863 -1199.7630897729264 690.1876429024372 0.0 0.0
-3240.0135699857174 -123.17369718563839 -1008.9561801514067 744.3665486648938 0.0 0.0
-3150.542662457411 24.841735984976566 -937.7102779417307 670.7648498775831 0.0 0.0
-2950.8040220841062 30.82510955981583 -875.9936737572871 652.0188476017747 0.0 0.0
-2743.0185329790675 19.875954637785988 -816.9427735023845 658.5717573248872 0.0 0.0
-2548.590187695454 10.321997715608095 -761.4804569939536 665.9286184524026 0.0 0.0
-2361.940545424601 4.16186562448782 -707.3336039400341 670.1148323355503 0.0 0.0
-2178.573119503746 1.1351562297198505 -653.2313889822078 671.9067263662423 0.0 0.0
-1996.4815633477208 -0.11083196581914656 -598.9777185940623 672.3985177355707 0.0 0.0
-1814.6989403556101 -0.5845521875313828 -544.5850477629424 672.337231311411 0.0 0.0
-1632.9064896421987 -0.5727877229887346 -490.04378320955624 672.1795094864153 0.0 0.0
-1451.4204713041463 0.5085622956885443 -435.2735727025374 672.4836136704632 0.0 0.0
-1271.655503239086 4.574647002970504 -380.12425687083453 674.4633775736306 0.0 0.0
-1096.9072022719104 15.36878670208728 -324.4615246709469 680.738395505334 0.0 0.0
-931.7803011399956 37.20564186856803 -268.3723977814282 696.0760602470375 0.0 0.0
-776.054481854374 66.11991600101597 -212.9803697560074 726.0657050168396 0.0 0.0
-612.2207477487375 63.856610105407405 -164.50924129299904 765.975758665747 0.0 0.0
-414.1060336427595 -76.94652602051164 -147.31576789898136 765.2892617310667 0.0 0.0
-238.43504477383829 -470.5073713952705 -212.6827248507327 569.3121754911376 0.0 0.0
-183.9107573366621 -765.2493280927293 -284.74802562881746 324.74348426422205 0.0 0.0
-155.58026588429533 -537.9833085353944 -208.06907232590692 -277.84474940996694 0.0 0.0
-268.07574407083234 -395.149046215769 -198.9674370859804 -504.55293435002733 0.0 0.0
-488.489894612518 -72.50710030199058 -168.29909847435255 -703.6907147791918 0.0 0.0
-753.3841110148247 50.65797907055027 -210.81783958328234 -717.9996563755745 0.0 0.0
-993.6945648707965 55.491670291564205 -281.4608683737697 -680.414017047458 0.0 0.0
-1223.328625636033 31.78903304522327 -357.46187777724293 -647.442946197718 0.0 0.0
-1456.3320190334898 13.19742888326423 -432.9403770450676 -629.4044980323105 0.0 0.0
-1694.5797460393585 3.902451850325983 -507.20318825670984 -621.8456891746796 0.0 0.0
-1935.7357594103612 0.41267168328711 -580.5969263181221 -619.4767083378972 0.0 0.0
-2177.8571758286403 -0.5028792814333016 -653.5080165330221 -619.1363700759571 0.0 0.0
-2420.095800218053 -0.5078099007552517 -726.1810830356426 -619.3451387004546 0.0 0.0
-2662.270598635777 -0.1029124520720508 -798.7120533263546 -619.4363055170498 0.0 0.0
-2904.5676834869355 0.9549495352836956 -871.0838201854958 -618.8779824613537 0.0 0.0
-3147.601530743171 3.514878078662168 -943.2259957993529 -616.7700903449613 0.0 0.0
-3392.6014858011577 8.908669647955378 -1015.1078448459607 -611.7062213214753 0.0 0.0
-3643.034231650717 17.07841588856591 -1087.7867447286449 -602.503241086727 0.0 0.0
-3908.335361181722 26.00832696009218 -1164.698110266489 -591.2044409163733 0.0 0.0
-4178.965711254822 31.390883648785515 -1244.272448281811 -603.8793716631321 0.0 0.0
-4334.640303643244 -69.80559201683762 -1321.3337686980244 -707.5010033844263 0.0 0.0
-4298.415665367169 -797.1644670058389 -1528.6740397119022 -748.3022304472092 0.0 0.0
-4652.725886004088 -2387.4475515928953 -2112.0520312790954 1.2505552149377763e-11 0.0 0.0
-4298.4156653673 -797.1644670060646 -1528.6740397120093 748.3022304472441 0.0 0.0
-4334.640303643164 -69.8055920166222 -1321.3337686979357 707.5010033844288 0.0 0.0
-4178.96571125488 31.39088364858248 -1244.2724482818896 603.8793716631125 0.0 0.0
-3908.3353611814823 26.008326960659225 -1164.698110266247 591.2044409164303 0.0 0.0
-3643.0342316508327 17.078415888347834 -1087.7867447287454 602.5032410867383 0.0 0.0
-3392.601485801198 8.908669647865596 -1015.1078448459998 611.7062213214751 0.0 0.0
-3147.6015307435514 3.514878077789165 -943.2259957997286 616.7700903449753 0.0 0.0
-2904.5676834870287 0.9549495350711457 -871.0838201855871 618.8779824613639 0.0 0.0
-2662.2705986356164 -0.10291245169557328 -798.7120533261938 619.4363055170074 0.0 0.0
-2420.095800218156 -0.5078099009640722 -726.1810830357359 619.3451387004399 0.0 0.0
-2177.8571758285784 -0.5028792813430671 -653.5080165329766 619.1363700759348 0.0 0.0
-1935.7357594104865 0.41267168296103707 -580.5969263182575 619.4767083378953 0.0 0.0
-1694.5797460391225 3.902451850878345 -507.2031882564733 621.8456891746846 0.0 0.0
-1456.3320190335164 13.197428883159457 -432.940377045107 629.4044980322806 0.0 0.0
-1223.3286256359515 31.78903304542142 -357.4618777771591 647.4429461977095 0.0 0.0
-993.6945648708395 55.49167029145082 -281.46086837381654 680.4140170474294 0.0 0.0
-753.3841110148117 50.65797907060485 -210.81783958326199 717.9996563755831 0.0 0.0
-488.48989461257366 -72.50710030205693 -168.2990984743892 703.6907147791837 0.0 0.0
-268.0757440708075 -395.14904621573373 -198.96743708596233 504.5529343500033 0.0 0.0
-155.5802658842525 -537.9833085353615 -208.06907232588426 277.8447494100035 0.0 0.0
-137.43358015087438 -351.9176306149776 -146.80536322975559 -229.25688138258243 0.0 0.0
-294.4767025222026 -320.10988455385893 -184.37597612281843 -432.75873213490996 0.0 0.0
-560.0280125442455 -62.16020453255996 -186.65646512304164 -626.0745180108479 0.0 0.0
-891.7128301583755 38.84581123545651 -255.8601056768757 -649.472824146365 0.0 0.0
-1208.9595719013194 44.16420336583596 -349.4386105606449 -614.8849066833308 0.0 0.0
-1513.6487548882242 25.668789253337884 -446.3939896904658 -581.132073830334 0.0 0.0
-1815.4252150994457 10.708796375068173 -541.4149256173132 -561.9491678782126 0.0 0.0
-2117.55380101393 3.1485933622011046 -634.3215622955187 -553.8289574392501 0.0 0.0
-2420.1709946655337 0.3163824007932412 -725.9563836794225 -551.3204222618446 0.0 0.0
-2722.8986291639394 -0.4175449470868493 -816.9948522333079 -550.9956722159566 0.0 0.0
-3025.55340695343 -0.41696492109518957 -907.7911115623576 -551.2481270556573 0.0 0.0
-3328.11292590458 -0.09216378763109034 -998.4615269076634 -551.3698020708865 0.0 0.0
-3630.600050517679 0.7688047788158023 -1088.9493737216587 -550.8004037710139 0.0 0.0
-3933.1904517070698 2.7970179999515743 -1179.1180301121353 -548.591046365535 0.0 0.0
-4236.306679608381 7.239152274920123 -1268.7202582000382 -543.0592702368419 0.0 0.0
-4541.254687074415 14.335215602508866 -1358.075841441572 -532.8305824230046 0.0 0.0
-4859.334506464071 19.433473106333047 -1451.9703100073214 -518.2830266736361 0.0 0.0
-5200.567382474339 30.247663668884407 -1551.0959156416363 -519.4019894545137 0.0 0.0
-5436.721735752107 -2.483164984945411 -1631.7614702211156 -639.9382273988475 0.0 0.0
-5402.422241983341 -721.4213351959278 -1837.153073153781 -804.9047410171606 0.0 0.0
-5968.24354953714 -2937.687213314743 -2671.7792288555647 -4.2234660213580355e-11 0.0 0.0
-5402.422241983261 -721.4213351957005 -1837.153073153689 804.9047410171472 0.0 0.0
-5436.721735752337 -2.483164985484464 -1631.7614702213468 639.9382273989529 0.0 0.0
-5200.567382474207 30.247663669194935 -1551.095915641503 519.4019894545347 0.0 0.0
-4859.334506464091 19.43347310631773 -1451.9703100073318 518.2830266736242 0.0 0.0
-4541.254687074319 14.335215602707716 -1358.0758414414836 532.830582423007 0.0 0.0
-4236.306679608329 7.239152275033883 -1268.7202581999888 543.0592702368846 0.0 0.0
-3933.1904517074504 2.7970179990239945 -1179.1180301125282 548.5910463655645 0.0 0.0
-3630.6000505176166 0.7688047788897237 -1088.949373721618 550.8004037710166 0.0 0.0
-3328.1129259045533 -0.09216378757743549 -998.4615269076392 551.3698020709071 0.0 0.0
-3025.553406953518 -0.41696492130080287 -907.7911115624457 551.2481270556448 0.0 0.0
-2722.898629163918 -0.4175449470463737 -816.9948522332895 550.995672215949 0.0 0.0
-2420.1709946655515 0.3163824007203504 -725.9563836794496 551.3204222618824 0.0 0.0
-2117.5538010138607 3.148593362349951 -634.3215622954531 553.8289574392434 0.0 0.0
-1815.425215099573 10.70879637480947 -541.4149256174292 561.9491678781891 0.0 0.0
-1513.6487548883422 25.668789253125667 -446.39398969056504 581.1320738303637 0.0 0.0
-1208.9595719013294 44.164203365814544 -349.43861056065435 614.8849066833275 0.0 0.0
-891.7128301583969 38.84581123540358 -255.86010567689806 649.4728241463409 0.0 0.0
-560.0280125442305 -62.16020453254441 -186.65646512303243 626.0745180107942 0.0 0.0
-294.4767025221972 -320.10988455390435 -184.37597612283045 432.75873213489785 0.0 0.0
-137.43358015086005 -351.91763061495476 -146.80536322974444 229.25688138252008 0.0 0.0
-127.75664853488993 -208.1577809532735 -100.77432884644904 -179.26595846512993 0.0 0.0
-315.9351902564388 -247.75353294882802 -169.10661696158007 -354.42468609854996 0.0 0.0
-627.6393496010354 -48.40625495030045 -202.81368136540087 -532.8067810671583 0.0 0.0
-1027.4202232617238 28.240193754587906 -299.75400885214094 -560.0863480664108 0.0 0.0
-1422.9797828116018 32.94447847919236 -417.01059129972293 -529.0603685099682 0.0 0.0
-1803.7575740691886 19.438983574207054 -535.2955771484943 -496.9045056014092 0.0 0.0
-2174.720209421864 8.159430724204737 -649.9682336092977 -478.2961048821723 0.0 0.0
-2540.7710043468983 2.3953702283229354 -761.5126902355727 -470.4174996845427 0.0 0.0
-2904.768318100948 0.2339439278347264 -871.360312251934 -468.0352209303494 0.0 0.0
-3268.0241789996517 -0.3230109234453806 -980.5041569769289 -467.77071781357904 0.0 0.0
-3631.0597370570595 -0.31917669176759134 -1089.4136741246484 -468.04866520079304 0.0 0.0
-3994.0083990330004 -0.07668248138042699 -1198.2255244543146 -468.1958873231112 0.0 0.0
-4356.731914385218 0.5821778856711184 -1306.8449209498642 -467.668602785937 0.0 0.0
-4718.8298914772395 2.136987928005418 -1415.0078710647708 -465.5728156738804 0.0 0.0
-5080.025011689721 5.328116478030612 -1522.4090685635072 -460.15160215504875 0.0 0.0
-5438.869398835893 11.88451557501649 -1628.0954649782627 -449.56459329215636 0.0 0.0
-5803.378442861839 13.546658693603167 -1736.949535250471 -434.66076659638986 0.0 0.0
-6209.517859154665 16.75336505026944 -1857.8293482313188 -422.3554857713373 0.0 0.0
-6545.397628218512 65.92162703123039 -1943.8428003561849 -532.9591324605913 0.0 0.0
-6501.82634812218 -538.6801372165364 -2112.151945601615 -847.4069443613799 0.0 0.0
-7395.354400364863 -3643.172755312165 -3311.5581467031075 -2.2737367544323206e-11 0.0 0.0
-6501.826348122015 -538.6801372161973 -2112.151945601464 847.4069443613487 0.0 0.0
-6545.39762821853 65.92162703125243 -1943.8428003561833 532.9591324605977 0.0 0.0
-6209.517859154907 16.75336504969473 -1857.8293482315637 422.35548577137894 0.0 0.0
-5803.3784428618 13.546658693675656 -1736.949535250437 434.660766596434 0.0 0.0
-5438.869398835897 11.88451557500923 -1628.095464978267 449.56459329218694 0.0 0.0
-5080.0250116895395 5.328116478448774 -1522.409068563327 460.1516021550467 0.0 0.0
-4718.829891477343 2.1369879277925357 -1415.007871064865 465.5728156739366 0.0 0.0
-4356.731914385102 0.5821778859102507 -1306.8449209497576 467.66860278591355 0.0 0.0
-3994.0083990332673 -0.07668248199706262 -1198.2255244545795 468.19588732316396 0.0 0.0
-3631.059737057021 -0.31917669160704065 -1089.4136741245884 468.04866520076746 0.0 0.0
-3268.024178999599 -0.3230109233363807 -980.5041569768805 467.77071781357085 0.0 0.0
-2904.7683181007424 0.2339439282653838 -871.3603122517427 468.03522093034456 0.0 0.0
-2540.771004346982 2.3953702281072293 -761.5126902356626 470.4174996844953 0.0 0.0
-2174.720209421953 8.159430724039705 -649.9682336093742 478.29610488216434 0.0 0.0
-1803.7575740692987 19.43898357398803 -535.2955771485929 496.9045056014344 0.0 0.0
-1422.9797828116189 32.94447847912874 -417.01059129974703 529.0603685100245 0.0 0.0
-1027.42022326173 28.240193754593854 -299.7540088521407 560.0863480663673 0.0 0.0
-627.6393496010387 -48.40625495029247 -202.8136813653994 532.8067810671523 0.0 0.0
-315.93519025644105 -247.75353294885633 -169.10661696158934 354.4246860985299 0.0 0.0
-127.75664853488925 -208.15778095327917 -100.77432884645053 179.26595846510756 0.0 0.0
-123.88950109828917 -107.73976560863773 -69.48878001207807 -129.3899441865103 0.0 0.0
-329.4417891328238 -180.27498895405483 -152.91503342606362 -270.4190676977137 0.0 0.0
-689.3581885084371 -34.23935433708252 -217.0792628536559 -423.3623378582602 0.0 0.0
-1160.468126965699 18.712370038555974 -342.52672707814276 -448.9752872894085 0.0 0.0
-1637.0189121905905 22.768010255477737 -484.2752705805339 -422.6028608370538 0.0 0.0
-2094.797333110877 13.730929069010088 -624.3199212125602 -394.7083328754761 0.0 0.0
-2534.798978436127 5.825001708374167 -758.6921930183258 -378.4859916229089 0.0 0.0
-2964.4357834743378 1.7262381333388035 -888.8128636022998 -371.6658009797226 0.0 0.0
-3389.5655928823726 0.1739933213226479 -1016.8174798683149 -369.6566659674528 0.0 0.0
-3813.21926233421 -0.2277424618642634 -1144.0341014388227 -369.4763977300593 0.0 0.0
-4236.599301882419 -0.22843462599019304 -1271.0483209525228 -369.7494590512702 0.0 0.0
-4659.951504509443 -0.04650393977001954 -1397.9994025347642 -369.89927181409297 0.0 0.0
-5083.012756417655 0.38613448915744186 -1524.787986578549 -369.48181958544944 0.0 0.0
-5504.729817080128 1.6293508332861926 -1650.9301398740527 -367.64104255174504 0.0 0.0
-5923.873693040419 3.5201223888583044 -1776.1060711954688 -363.08712349077166 0.0 0.0
-6337.5424380769455 8.866598805849492 -1898.6027517813286 -352.92769656783906 0.0 0.0
-6742.097627102068 12.69656969796417 -2018.8203172212316 -339.7809970173513 0.0 0.0
-7196.728079120655 -9.190757542759279 -2161.775650999024 -322.81743577672506 0.0 0.0
-7656.627286461892 104.07346622901977 -2265.7661460698614 -382.74893862650396 0.0 0.0
-7585.795540162402 -195.26250880246877 -2334.3174146894603 -844.0168330536417 0.0 0.0
-8989.767004644733 -4548.682889475301 -4061.5349682360093 7.113953870430123e-11 0.0 0.0
-7585.7955401624495 -195.26250880265263 -2334.317414689531 844.0168330536588 0.0 0.0
-7656.627286461813 104.07346622917545 -2265.766146069792 382.7489386265069 0.0 0.0
-7196.728079120834 -9.190757543203235 -2161.775650999211 322.8174357767358 0.0 0.0
-6742.097627101906 12.696569698392565 -2018.8203172210544 339.78099701740547 0.0 0.0
-6337.542438077182 8.866598805283843 -1898.6027517815687 352.92769656787607 0.0 0.0
-5923.873693040299 3.5201223891074163 -1776.1060711953576 363.0871234907643 0.0 0.0
-5504.729817080059 1.6293508334738886 -1650.9301398739753 367.6410425517685 0.0 0.0
-5083.0127564175655 0.3861344893815666 -1524.7879865784548 369.48181958539584 0.0 0.0
-4659.951504509594 -0.04650394013860559 -1397.9994025349201 369.89927181413924 0.0 0.0
-4236.599301882487 -0.2284346262062633 -1271.048320952608 369.74945905125475 0.0 0.0
-3813.2192623340707 -0.22774246156646982 -1144.0341014386913 369.47639773007734 0.0 0.0
-3389.565592882295 0.1739933215293204 -1016.8174798682294 369.6566659674105 0.0 0.0
-2964.4357834743164 1.7262381333197594 -888.8128636022993 371.6658009797126 0.0 0.0
-2534.7989784360975 5.825001708361101 -758.692193018321 378.4859916229078 0.0 0.0
-2094.7973331108888 13.730929069006773 -624.3199212125646 394.708332875467 0.0 0.0
-1637.0189121906353 22.768010255418986 -484.2752705805649 422.60286083709497 0.0 0.0
-1160.468126965683 18.712370038618815 -342.5267270781192 448.97528728937203 0.0 0.0
-689.3581885084461 -34.23935433711648 -217.07926285366872 423.3623378583008 0.0 0.0
-329.44178913278216 -180.27498895399344 -152.9150334260327 270.4190676976879 0.0 0.0
-123.88950109830826 -107.73976560868283 -69.48878001209734 129.3899441865107 0.0 0.0
-120.88806480614491 -50.33733667212311 -51.367620443480405 -83.36641409088536 0.0 0.0
-330.22737941556034 -120.69981522368244 -135.27815839177288 -182.1192861999153 0.0 0.0
-742.1062498039556 -23.276576456447568 -229.6148478781209 -295.64468133304416 0.0 0.0
-1290.7665711760912 10.669423958706133 -384.0291441652155 -314.6645092441695 0.0 0.0
-1852.658232404634 14.73293747982357 -551.3775884774432 -295.3258845623466 0.0 0.0
-2388.025311518184 9.170113556513423 -713.6565593885011 -274.6901865450732 0.0 0.0
-2896.256104941241 3.9806775209711738 -867.682628226081 -262.6920265349639 0.0 0.0
-3388.7435840584358 1.2099856501991582 -1016.2600795224712 -257.68090922237457 0.0 0.0
-3874.585791064474 0.13722978453168366 -1162.3345683839832 -256.23469210457574 0.0 0.0
-4358.462305828463 -0.1475734649942133 -1307.5829637880374 -256.12946947099414 0.0 0.0
-4842.141648696705 -0.15116927113481893 -1452.6878453903514 -256.3477775664728 0.0 0.0
-5325.958656373584 -0.03181211785123139 -1597.7971405474302 -256.4723390242012 0.0 0.0
-5809.4089767889545 0.29231946223702465 -1742.7349971980157 -256.17520349806495 0.0 0.0
-6291.260793809754 0.9970432260275928 -1887.0791251751184 -254.86534641744868 0.0 0.0
-6767.879069730836 2.9983771116839577 -2029.4642077857459 -251.31345794040809 0.0 0.0
-7238.16707708727 3.513203583342836 -2170.3961620511777 -244.54333264514673 0.0 0.0
-7682.350587630157 18.38715196287489 -2299.189030700185 -229.89593349855198 0.0 0.0
-8149.003129444612 -28.147212157060526 -2453.145102480501 -230.60675288608462 0.0 0.0
-8759.434757039942 45.02219789566058 -2614.323767743285 -213.89494192878522 0.0 0.0
-8635.190396538073 374.6265925046563 -2478.169141210026 -714.1349944970864 0.0 0.0
-10836.973028919254 -5684.673933939949 -4956.494088857761 1.5234036254696548e-11 0.0 0.0
-8635.190396538403 374.626592503846 -2478.1691412103664 714.1349944970127 0.0 0.0
-8759.434757039984 45.0221978956016 -2614.323767743314 213.89494192886616 0.0 0.0
-8149.003129444558 -28.147212156968454 -2453.145102480458 230.60675288604605 0.0 0.0
-7682.350587630152 18.38715196276746 -2299.1890307002163 229.89593349852464 0.0 0.0
-7238.167077087303 3.5132035832514514 -2170.396162051215 244.5433326450938 0.0 0.0
-6767.879069730896 2.9983771115770703 -2029.4642077857961 251.31345794044907 0.0 0.0
-6291.26079380966 0.997043226321809 -1887.079125175001 254.86534641745683 0.0 0.0
-5809.408976789013 0.29231946212231863 -1742.7349971980664 256.1752034980409 0.0 0.0
-5325.958656373508 -0.03181211765708403 -1597.79714054735 256.472339024231 0.0 0.0
-4842.141648696761 -0.15116927120194013 -1452.687845390389 256.3477775664881 0.0 0.0
-4358.462305828352 -0.1475734646973127 -1307.5829637879156 256.1294694710268 0.0 0.0
-3874.5857910644054 0.13722978471371206 -1162.334568383908 256.2346921045895 0.0 0.0
-3388.7435840584694 1.2099856500937922 -1016.2600795225127 257.6809092223809 0.0 0.0
-2896.2561049411893 3.9806775210737477 -867.6826282260346 262.6920265349889 0.0 0.0
-2388.0253115181754 9.170113556478464 -713.6565593885095 274.69018654505436 0.0 0.0
-1852.6582324046685 14.732937479761455 -551.377588477472 295.3258845623541 0.0 0.0
-1290.7665711761047 10.669423958707169 -384.02914416521935 314.664509244178 0.0 0.0
-742.1062498039912 -23.276576456536368 -229.6148478781583 295.6446813330449 0.0 0.0
-330.2273794155752 -120.69981522371187 -135.27815839178612 182.11928619989118 0.0 0.0
-120.88806480613559 -50.33733667213856 -51.367620443482245 83.36641409085524 0.0 0.0
-108.94374218919552 -31.93215186172025 -42.262768215274725 -49.10207314874879 0.0 0.0
-311.025175374179 -74.90017798668576 -115.77760600825943 -91.44103747498963 0.0 0.0
-781.3636441216015 -19.60645523555137 -240.2910298071458 -144.50595145884773 0.0 0.0
-1418.5572879481938 5.890251352035023 -423.80011097884767 -155.48096298676032 0.0 0.0
-2072.042298240471 9.899606140805743 -618.6428076298995 -147.19892093979576 0.0 0.0
-2684.7476077943656 6.405723620347024 -803.5025652522055 -137.2430579503584 0.0 0.0
-3259.675447347027 2.8561843112288727 -977.0457789107395 -131.22326749631338 0.0 0.0
-3813.852910322636 0.8900880740684549 -1143.88884667457 -128.62145992915052 0.0 0.0
-4359.829625754174 0.11060497006239345 -1307.9157062352338 -127.83099594088448 0.0 0.0
-4903.716744310182 -0.1013347091003034 -1471.1454237057844 -127.74576153472526 0.0 0.0
-5447.661897759112 -0.10649363541321932 -1634.3305174183577 -127.84030662077613 0.0 0.0
-5991.9877650413255 -0.020443741252751835 -1797.6024626347737 -127.89247995971883 0.0 0.0
-6536.072790860223 0.20687887417947692 -1960.7597735958127 -127.72097662769724 0.0 0.0
-7078.06548044924 0.7589275828412241 -2123.19196585992 -127.04936770261665 0.0 0.0
-7614.385442556635 1.8734353259927623 -2283.753602169192 -125.19003205474615 0.0 0.0
-8135.416679438879 4.4445403213071195 -2439.291641735272 -121.83116945725475 0.0 0.0
-8643.524397000878 2.53870429307322 -2592.295707812342 -115.63461754905865 0.0 0.0
-9049.346743900296 41.91881436995408 -2702.228378859103 -107.49587709706114 0.0 0.0
-9826.277837024974 -240.33656778748835 -3019.9843214437396 -169.5371324515327 0.0 0.0
-9620.944589066905 1211.3452975280532 -2522.8797874616557 -241.9709547730759 0.0 0.0
-13066.988849579471 -6988.323503377307 -6016.593705887033 -1.8417267710901797e-11 0.0 0.0
-9620.944589067149 1211.3452975273856 -2522.879787461929 241.9709547730107 0.0 0.0
-9826.277837024872 -240.3365677873229 -3019.9843214436573 169.53713245158477 0.0 0.0
-9049.34674390011 41.91881437048306 -2702.2283788588893 107.49587709703866 0.0 0.0
-8643.524397001005 2.538704292812719 -2592.295707812459 115.63461754904752 0.0 0.0
-8135.416679438752 4.44454032148602 -2439.2916417351807 121.83116945721878 0.0 0.0
-7614.385442556638 1.8734353259072734 -2283.7536021692194 125.19003205474483 0.0 0.0
-7078.065480449132 0.7589275830866411 -2123.191965859814 127.04936770255269 0.0 0.0
-6536.072790860134 0.20687887436323305 -1960.759773595732 127.72097662769055 0.0 0.0
-5991.987765041438 -0.020443741487955025 -1797.602462634878 127.89247995973048 0.0 0.0
-5447.661897759006 -0.10649363519354871 -1634.3305174182606 127.84030662076938 0.0 0.0
-4903.716744310218 -0.10133470924963262 -1471.14542370584 127.74576153472239 0.0 0.0
-4359.829625754129 0.11060497015662962 -1307.915706235192 127.83099594088503 0.0 0.0
-3813.8529103226615 0.8900880740016195 -1143.888846674598 128.62145992912923 0.0 0.0
-3259.6754473469705 2.8561843113824725 -977.0457789106767 131.2232674962889 0.0 0.0
-2684.7476077942906 6.405723620553324 -803.5025652521214 137.24305795033587 0.0 0.0
-2072.0422982405607 9.899606140613875 -618.6428076299842 147.1989209397843 0.0 0.0
-1418.5572879482008 5.890251352074653 -423.8001109788379 155.48096298676364 0.0 0.0
-781.3636441216075 -19.60645523551649 -240.29102980713722 144.50595145884742 0.0 0.0
-311.0251753741994 -74.90017798674832 -115.77760600828434 91.44103747496143 0.0 0.0
-108.94374218915631 -31.932151861687295 -42.26276821525309 49.10207314870165 0.0 0.0
-56.698232309450546 -13.479563858471462 -21.053338850376605 -32.90425495873449 0.0 0.0
-253.41833076583217 -38.47737943013974 -87.56871305879156 -38.64717129008791 0.0 0.0
-798.2178355743699 -20.6649321522211 -245.66483031797736 -49.18417437538287 0.0 0.0
-1561.628226997198 -29.514678477389396 -477.34287164237645 -54.83859566015336 0.0 0.0
-2324.049516769285 -52.05585959613751 -712.8316129096268 -54.420912953873795 0.0 0.0
-3020.8424685994933 -74.45469110917296 -928.5891479126 -51.88851417471653 0.0 0.0
-3666.9474502303333 -93.93096188929317 -1128.263523635888 -49.95331630098762 0.0 0.0
-4287.834410513468 -111.16414847040114 -1319.699567695161 -48.95490363123095 0.0 0.0
-4899.868655670573 -127.34414311393822 -1508.1638396353533 -48.57249745300979 0.0 0.0
-5510.254355899321 -143.19446654525962 -1696.034646733374 -48.47626636092278 0.0 0.0
-6121.220450771121 -159.01413175710897 -1884.0703747584694 -48.472720787003595 0.0 0.0
-6732.951362852364 -174.84278606693968 -2072.338244675791 -48.46500526635427 0.0 0.0
-7344.727292443547 -190.68847076771408 -2260.624728963378 -48.36614085329404 0.0 0.0
-7954.281592296099 -206.0125822024833 -2448.0882523495748 -48.09998312983353 0.0 0.0
-8557.472359289664 -221.7980042466416 -2633.781109060893 -47.45897020003963 0.0 0.0
-9140.997362898728 -230.75481288244 -2811.525652734351 -46.21879793976376 0.0 0.0
-9699.118068082398 -260.19981872679 -2987.7953660427565 -47.479217465478484 0.0 0.0
-10154.43077267052 -171.87459599646147 -3097.8916106000947 -32.304765102115596 0.0 0.0
-10622.896016254554 -579.343983512406 -3360.6719999300876 -158.62118010003428 0.0 0.0
-10844.989096435902 1375.8142616864109 -2840.752450424848 -0.7141208949436759 0.0 0.0
-16036.598990646353 -8409.903541234697 -7333.9507595643145 -5.047695594839752e-11 0.0 0.0
-10844.989096435993 1375.8142616861712 -2840.752450424947 0.7141208948520443 0.0 0.0
-10622.896016254417 -579.3439835122381 -3360.6719999299967 158.621180100103 0.0 0.0
-10154.430772670006 -171.87459599528273 -3097.8916105995877 32.304765102139925 0.0 0.0
-9699.11806808237 -260.199818726721 -2987.7953660427274 47.47921746549042 0.0 0.0
-9140.997362898599 -230.7548128822192 -2811.5256527342453 46.218797939834076 0.0 0.0
-8557.472359289648 -221.79800424660812 -2633.7811090608766 47.45897020009954 0.0 0.0
-7954.2815922959935 -206.0125822021936 -2448.0882523494565 48.099983129838336 0.0 0.0
-7344.727292443235 -190.68847076697787 -2260.6247289630633 48.36614085328438 0.0 0.0
-6732.9513628525965 -174.84278606746867 -2072.3382446760197 48.46500526633656 0.0 0.0
-6121.220450771104 -159.01413175708953 -1884.070374758458 48.47272078701383 0.0 0.0
-5510.254355899412 -143.19446654552962 -1696.0346467334825 48.47626636091519 0.0 0.0
-4899.868655670603 -127.34414311407058 -1508.1638396354024 48.572497452968776 0.0 0.0
-4287.834410513378 -111.16414847015314 -1319.6995676950592 48.95490363123642 0.0 0.0
-3666.947450230322 -93.9309618891738 -1128.2635236358487 49.95331630093534 0.0 0.0
-3020.8424685992604 -74.4546911086454 -928.5891479123715 51.88851417469532 0.0 0.0
-2324.0495167694253 -52.05585959649663 -712.8316129097767 54.42091295388569 0.0 0.0
-1561.6282269971657 -29.514678477328275 -477.3428716423483 54.838595660119 0.0 0.0
-798.2178355743333 -20.664932152064537 -245.66483031791938 49.184174375405675 0.0 0.0
-253.41833076586275 -38.477379430172704 -87.56871305881063 38.6471712900523 0.0 0.0
-56.69823230938927 -13.47956385841294 -21.05333885034067 32.90425495868161 0.0 0.0
SCALARS Strain float 6
LOOKUP_TABLE default
0.014689238409580366 -0.036489205734343666 0.0 -0.0024552988313066987 0.0 0.0
0.013081964449626433 0.0028444598186412005 0.0 -0.003813896186708019 0.0 0.0
0.010339470563224836 -0.0051523899665142986 0.0 -0.0016311603467763672 0.0 0.0
0.009859871115541843 -0.0035922369375932127 0.0 -0.00024293981194938082 0.0 0.0
0.011581116678261717 -0.004732857886019728 0.0 -0.0005599065652072989 0.0 0.0
0.013913994613418027 -0.005637477682314103 0.0 -0.0005769623606054387 0.0 0.0
0.01652942125143022 -0.006729188009843718 0.0 -0.00061179849060395 0.0 0.0
0.019252258374161623 -0.007837672059853988 0.0 -0.0006250542333597893 0.0 0.0
0.022007724553934894 -0.008961088158522467 0.0 -0.0006297678960441751 0.0 0.0
0.024768412114708337 -0.010084848912885849 0.0 -0.0006309946954193172 0.0 0.0
0.02752606491425872 -0.011207485202362014 0.0 -0.0006309946184086922 0.0 0.0
0.030280298457624512 -0.012328689027456659 0.0 -0.0006311343597257984 0.0 0.0
0.033034671338171055 -0.01344974644660512 0.0 -0.000632363592099734 0.0 0.0
0.03579881839262875 -0.014573953291039998 0.0 -0.0006359847900547458 0.0 0.0
0.03859411491948103 -0.015709040272002407 0.0 -0.0006433988466776878 0.0 0.0
0.041457174145273404 -0.016869220707679877 0.0 -0.0006539130421129894 0.0 0.0
0.044424695177481696 -0.018071014996734632 0.0 -0.0006586741763478032 0.0 0.0
0.04747021822703276 -0.019310476228217428 0.0 -0.0006313716898622148 0.0 0.0
0.050374792379522 -0.02051014111523123 0.0 -0.0005266152799542266 0.0 0.0
0.052608450119821404 -0.021456418643969133 0.0 -0.0003080659299542147 0.0 0.0
0.053469538058561486 -0.02183165736488673 0.0 2.0339632755828063e-16 0.0 0.0
0.052608450119821376 -0.02145641864397156 0.0 0.0003080659299544205 0.0 0.0
0.05037479237952197 -0.02051014111522943 0.0 0.000526615279953911 0.0 0.0
0.047470218227032644 -0.019310476228221938 0.0 0.0006313716898608975 0.0 0.0
0.04442469517748149 -0.018071014996733567 0.0 0.0006586741763469862 0.0 0.0
0.04145717414527341 -0.016869220707677556 0.0 0.000653913042111635 0.0 0.0
0.03859411491948108 -0.01570904027200012 0.0 0.0006433988466785993 0.0 0.0
0.035798818392628565 -0.014573953291043475 0.0 0.0006359847900542258 0.0 0.0
0.03303467133817107 -0.013449746446605987 0.0 0.0006323635920993469 0.0 0.0
0.030280298457624623 -0.012328689027457804 0.0 0.0006311343597257804 0.0 0.0
0.027526064914258713 -0.01120748520236214 0.0 0.0006309946184085873 0.0 0.0
0.02476841211470819 -0.0100848489128868 0.0 0.0006309946954191781 0.0 0.0
0.0220077245539349 -0.00896108815852403 0.0 0.0006297678960447617 0.0 0.0
0.01925225837416176 -0.007837672059855002 0.0 0.0006250542333589256 0.0 0.0
0.01652942125143035 -0.006729188009842681 0.0 0.0006117984906049261 0.0 0.0
0.013913994613417937 -0.005637477682314886 0.0 0.0005769623606044879 0.0 0.0
0.011581116678261396 -0.00473285788602044 0.0 0.0005599065652073613 0.0 0.0
0.009859871115541704 -0.0035922369375932213 0.0 0.00024293981195009934 0.0 0.0
0.010339470563224828 -0.005152389966514291 0.0 0.0016311603467758385 0.0 0.0
0.013081964449626577 0.002844459818641238 0.0 0.0038138961867085677 0.0 0.0
0.01468923840958052 -0.03648920573434378 0.0 0.0024552988313077395 0.0 0.0
0.009147021109885035 -0.03391621871381662 0.0 -0.0016778813949986822 0.0 0.0
0.007739060034819906 0.0024652897701888964 0.0 -0.003040876620668582 0.0 0.0
0.007429855433663863 -0.003995642090468232 0.0 -0.0011401188464556246 0.0 0.0
0.008940367774308766 -0.0035446925640004534 0.0 -0.0009436794201264365 0.0 0.0
0.010385166253067027 -0.004415166366950241 0.0 -0.0013605905054021056 0.0 0.0
0.012550103376384104 -0.0053502647772547705 0.0 -0.001541289273286227 0.0 0.0
0.014892280473649877 -0.0063729256389652034 0.0 -0.0016223051190505458 0.0 0.0
0.017336277603332402 -0.007426935704359717 0.0 -0.0016554704859483022 0.0 0.0
0.019810909939179253 -0.008490087087015936 0.0 -0.0016645756002793702 0.0 0.0
0.022293001744366697 -0.009554530256929141 0.0 -0.0016655077553455865 0.0 0.0
0.02477412695636188 -0.010617874318549752 0.0 -0.0016642380425554786 0.0 0.0
0.027253362324345495 -0.011680072409394726 0.0 -0.0016636140506394576 0.0 0.0
0.02973364138455045 -0.01274215518455516 0.0 -0.0016659210968866932 0.0 0.0
0.03222305423033553 -0.013806927729179456 0.0 -0.0016751980041909919 0.0 0.0
0.034738442677067785 -0.014880965854174637 0.0 -0.0016977802862292288 0.0 0.0
0.037306012149513346 -0.015976513474629982 0.0 -0.0017377826759606139 0.0 0.0
0.039945232283938197 -0.017108119716495354 0.0 -0.0017805379602286774 0.0 0.0
0.042614000151305384 -0.018272839340698434 0.0 -0.0017603062693756512 0.0 0.0
0.04510805217755669 -0.019402358855013808 0.0 -0.0015344712073089438 0.0 0.0
0.04698603059700446 -0.020301712501480107 0.0 -0.0009403398890854619 0.0 0.0
0.04770010370347728 -0.020664750362147558 0.0 -3.0552817220641515e-16 0.0 0.0
0.0469860305970045 -0.020301712501479996 0.0 0.0009403398890849562 0.0 0.0
0.045108052177556576 -0.019402358855012958 0.0 0.001534471207309513 0.0 0.0
0.04261400015130536 -0.01827283934070137 0.0 0.0017603062693756011 0.0 0.0
0.03994523228393817 -0.01710811971649621 0.0 0.001780537960228924 0.0 0.0
0.03730601214951341 -0.015976513474628994 0.0 0.0017377826759603792 0.0 0.0
0.034738442677067834 -0.014880965854172944 0.0 0.0016977802862299044 0.0 0.0
0.03222305423033545 -0.01380692772918165 0.0 0.001675198004190803 0.0 0.0
0.029733641384550487 -0.012742155184555811 0.0 0.0016659210968869105 0.0 0.0
0.027253362324345554 -0.011680072409396008 0.0 0.001663614050639824 0.0 0.0
0.02477412695636194 -0.010617874318550847 0.0 0.0016642380425558074 0.0 0.0
0.02229300174436669 -0.009554530256929641 0.0 0.0016655077553447664 0.0 0.0
0.019810909939179184 -0.00849008708701661 0.0 0.0016645756002800103 0.0 0.0
0.017336277603332378 -0.007426935704359752 0.0 0.0016554704859478011 0.0 0.0
0.014892280473649856 -0.006372925638964103 0.0 0.0016223051190509216 0.0 0.0
0.012550103376383964 -0.005350264777255252 0.0 0.0015412892732854545 0.0 0.0
0.010385166253066834 -0.004415166366951003 0.0 0.0013605905054021729 0.0 0.0
0.00894036777430865 -0.003544692564000463 0.0 0.0009436794201263044 0.0 0.0
0.007429855433663856 -0.003995642090468341 0.0 0.0011401188464558163 0.0 0.0
0.007739060034819962 0.0024652897701889407 0.0 0.003040876620668802 0.0 0.0
0.009147021109884985 -0.033916218713816684 0.0 0.001677881394998769 0.0 0.0
0.006560762083689137 -0.029066034089712943 0.0 -0.007727400218006341 0.0 0.0
0.004984062506710435 0.0013497502382894936 0.0 -0.005498876515755058 0.0 0.0
0.005117965625778048 -0.0020480272266487107 0.0 -0.0007731121442305107 0.0 0.0
0.007560700072587058 -0.0031933096059225553 0.0 -0.0021769190732662093 0.0 0.0
0.009198814695631297 -0.0038315410031187725 0.0 -0.002709126521484371 0.0 0.0
0.011138598768312823 -0.004746114733552411 0.0 -0.0031049113356650627 0.0 0.0
0.013245978924169339 -0.005661789189023863 0.0 -0.0032596037209511037 0.0 0.0
0.01541568976591506 -0.006602988850637595 0.0 -0.0033221190133695196 0.0 0.0
0.017613524150563022 -0.007548213731188032 0.0 -0.003338914594176605 0.0 0.0
0.01981787817097033 -0.008493935695372806 0.0 -0.0033398860736832633 0.0 0.0
0.02202256809698076 -0.009438799566750214 0.0 -0.003337015022365052 0.0 0.0
0.02422639217556315 -0.010382839185006409 0.0 -0.0033354663178406826 0.0 0.0
0.026431460318285308 -0.011326635076494528 0.0 -0.0033395891802375397 0.0 0.0
0.028643646682884244 -0.012271747082767204 0.0 -0.003357396011194835 0.0 0.0
0.030874815107830904 -0.013222238201886862 0.0 -0.0034021496350901013 0.0 0.0
0.03314254169591778 -0.014186851459634022 0.0 -0.0034842456196607684 0.0 0.0
0.03545691413503327 -0.015178681135793997 0.0 -0.0035787688521044486 0.0 0.0
0.037777055505185 -0.016202836694670222 0.0 -0.0035582857383778437 0.0 0.0
0.03993055182228614 -0.01721694031364471 0.0 -0.0031301688830713235 0.0 0.0
0.04154851435553414 -0.018060140344947316 0.0 -0.0019374642908296887 0.0 0.0
0.042164211562354725 -0.018420002703716357 0.0 4.574248965716343e-16 0.0 0.0
0.041548514355534215 -0.018060140344947358 0.0 0.0019374642908292882 0.0 0.0
0.03993055182228595 -0.017216940313645245 0.0 0.0031301688830716054 0.0 0.0
0.037777055505184856 -0.01620283669466964 0.0 0.003558285738377856 0.0 0.0
0.0354569141350334 -0.015178681135795766 0.0 0.003578768852104325 0.0 0.0
0.0331425416959179 -0.014186851459632603 0.0 0.003484245619661424 0.0 0.0
0.030874815107830855 -0.0132222382018869 0.0 0.0034021496350897145 0.0 0.0
0.02864364668288416 -0.012271747082767286 0.0 0.0033573960111942793 0.0 0.0
0.02643146031828528 -0.011326635076494338 0.0 0.003339589180237245 0.0 0.0
0.0242263921755631 -0.01038283918500634 0.0 0.0033354663178409754 0.0 0.0
0.0220225680969807 -0.009438799566752417 0.0 0.003337015022365976 0.0 0.0
0.01981787817097018 -0.008493935695371964 0.0 0.0033398860736821674 0.0 0.0
0.017613524150563 -0.007548213731187803 0.0 0.0033389145941769708 0.0 0.0
0.015415689765915123 -0.006602988850637584 0.0 0.0033221190133698427 0.0 0.0
0.013245978924169354 -0.005661789189022826 0.0 0.003259603720951019 0.0 0.0
0.0111385987683128 -0.0047461147335527655 0.0 0.003104911335665388 0.0 0.0
0.00919881469563132 -0.0038315410031192314 0.0 0.002709126521484412 0.0 0.0
0.007560700072587101 -0.0031933096059225535 0.0 0.002176919073265665 0.0 0.0
0.005117965625778108 -0.002048027226648522 0.0 0.0007731121442305788 0.0 0.0
0.004984062506710482 0.0013497502382894791 0.0 0.005498876515755055 0.0 0.0
0.006560762083689177 -0.029066034089712894 0.0 0.0077274002180058015 0.0 0.0
0.005211452082403427 -0.024802794941662223 0.0 -0.009646752487968036 0.0 0.0
0.003509101058905753 -8.528772324031894e-05 0.0 -0.007530550732109845 0.0 0.0
0.003444631747713975 -0.0008048667098328297 0.0 -0.002291326261158482 0.0 0.0
0.006086768419578471 -0.0025123908481285966 0.0 -0.003146949396384353 0.0 0.0
0.00794091266146269 -0.0032840155244965277 0.0 -0.0040300783871753615 0.0 0.0
0.009714618253414397 -0.0041107676444886955 0.0 -0.004482212428804373 0.0 0.0
0.01158568260285391 -0.004946536377049123 0.0 -0.004707548841454727 0.0 0.0
0.01349216342131916 -0.005776278399968728 0.0 -0.004790200246944521 0.0 0.0
0.015414988171572233 -0.006605980222500676 0.0 -0.004814639408415065 0.0 0.0
0.017342834302220972 -0.007433472031885845 0.0 -0.004816413524296842 0.0 0.0
0.01927117174775986 -0.008259915525418602 0.0 -0.004812840838698385 0.0 0.0
0.02119927083469967 -0.009085575260054993 0.0 -0.004810958673947116 0.0 0.0
0.023128219774278883 -0.009910478696017975 0.0 -0.004816769989501455 0.0 0.0
0.025061315257284614 -0.010734580921110407 0.0 -0.00484103653733335 0.0 0.0
0.027005389302683314 -0.011559145896331207 0.0 -0.004901415796738606 0.0 0.0
0.02897127344369596 -0.01239029726656345 0.0 -0.00501151440875572 0.0 0.0
0.030966353958871574 -0.013244158800125543 0.0 -0.00513641530469854 0.0 0.0
0.03296398347393011 -0.014144601830747752 0.0 -0.005098273988275465 0.0 0.0
0.03483446021857492 -0.01508841064338599 0.0 -0.004483676314961823 0.0 0.0
0.03626527537960128 -0.015942994428894148 0.0 -0.0027783772678410816 0.0 0.0
0.03681813523535457 -0.01633855193865262 0.0 -3.642919299551295e-17 0.0 0.0
0.0362652753796013 -0.015942994428894394 0.0 0.0027783772678410716 0.0 0.0
0.03483446021857498 -0.015088410643386514 0.0 0.004483676314961783 0.0 0.0
0.03296398347392996 -0.014144601830748085 0.0 0.005098273988275065 0.0 0.0
0.030966353958871498 -0.01324415880012491 0.0 0.005136415304698771 0.0 0.0
0.02897127344369599 -0.012390297266562803 0.0 0.005011514408756488 0.0 0.0
0.02700538930268331 -0.01155914589633248 0.0 0.004901415796738763 0.0 0.0
0.025061315257284632 -0.010734580921109366 0.0 0.004841036537332807 0.0 0.0
0.023128219774278848 -0.009910478696016007 0.0 0.004816769989501624 0.0 0.0
0.021199270834699666 -0.009085575260054652 0.0 0.004810958673947723 0.0 0.0
0.019271171747759896 -0.008259915525420047 0.0 0.004812840838698668 0.0 0.0
0.017342834302220982 -0.007433472031884984 0.0 0.004816413524296196 0.0 0.0
0.015414988171572264 -0.006605980222499976 0.0 0.004814639408415251 0.0 0.0
0.013492163421319075 -0.005776278399970228 0.0 0.004790200246945016 0.0 0.0
0.011585682602853812 -0.004946536377048753 0.0 0.00470754884145476 0.0 0.0
0.009714618253414423 -0.004110767644488847 0.0 0.004482212428805019 0.0 0.0
0.007940912661462662 -0.0032840155244966006 0.0 0.004030078387175219 0.0 0.0
0.006086768419578426 -0.00251239084812856 0.0 0.0031469493963846625 0.0 0.0
0.0034446317477140097 -0.0008048667098326477 0.0 0.0022913262611582467 0.0 0.0
0.0035091010589056977 -8.528772324017464e-05 0.0 0.007530550732109904 0.0 0.0
0.005211452082403263 -0.024802794941662227 0.0 0.009646752487967567 0.0 0.0
0.004398579472679465 -0.021098437956197442 0.0 -0.009866914760075375 0.0 0.0
0.002676490764624603 -0.0013217956887761838 0.0 -0.008904736957063168 0.0 0.0
0.002268156762098002 -0.00013437215066510459 0.0 -0.004341682678545493 0.0 0.0
0.004695067993078243 -0.0017766218631564013 0.0 -0.004294259390375541 0.0 0.0
0.006635020318775536 -0.0027027448318151545 0.0 -0.0052087597950401425 0.0 0.0
0.008278268274890876 -0.0034732315281170018 0.0 -0.005712222019911619 0.0 0.0
0.009917595967805108 -0.004223233856823452 0.0 -0.005963632148196397 0.0 0.0
0.011565045681713827 -0.004948343316478961 0.0 -0.006063178720301925 0.0 0.0
0.013215539826039726 -0.0056630511724124555 0.0 -0.006092236335121898 0.0 0.0
0.01486758177053659 -0.006373026079875237 0.0 -0.006095332964066474 0.0 0.0
0.01651978967075008 -0.007081087123225381 0.0 -0.006091652987444849 0.0 0.0
0.018171924644891774 -0.0077882214599859605 0.0 -0.0060898344412697045 0.0 0.0
0.019824111296918957 -0.008493801680531637 0.0 -0.006096852409066823 0.0 0.0
0.021476915598610122 -0.009196024545146682 0.0 -0.006124940364347506 0.0 0.0
0.023132344484299718 -0.009893292242566435 0.0 -0.006193952142934142 0.0 0.0
0.02479615384170777 -0.010589876742493717 0.0 -0.006319084666368578 0.0 0.0
0.026478187611305243 -0.011308262591450688 0.0 -0.0064590698886872935 0.0 0.0
0.028175643243494253 -0.012099067327386973 0.0 -0.006401065929233068 0.0 0.0
0.029809094050850193 -0.013008488326678282 0.0 -0.0056366930529444 0.0 0.0
0.03110979839001775 -0.013929305945687292 0.0 -0.0035066184080265383 0.0 0.0
0.03162752095676697 -0.014395169221218473 0.0 2.0751629581372555e-16 0.0 0.0
0.03110979839001763 -0.013929305945685906 0.0 0.0035066184080268254 0.0 0.0
0.029809094050850117 -0.013008488326678403 0.0 0.0056366930529438124 0.0 0.0
0.028175643243494322 -0.012099067327388932 0.0 0.006401065929232886 0.0 0.0
0.026478187611305395 -0.01130826259145105 0.0 0.006459069888686865 0.0 0.0
0.02479615384170793 -0.010589876742495383 0.0 0.006319084666368595 0.0 0.0
0.02313234448429981 -0.00989329224256765 0.0 0.006193952142935406 0.0 0.0
0.021476915598610063 -0.009196024545145785 0.0 0.0061249403643467235 0.0 0.0
0.019824111296918884 -0.008493801680530544 0.0 0.006096852409066515 0.0 0.0
0.018171924644891754 -0.007788221459985346 0.0 0.006089834441269965 0.0 0.0
0.016519789670749966 -0.007081087123225914 0.0 0.006091652987445248 0.0 0.0
0.014867581770536598 -0.006373026079875202 0.0 0.006095332964065923 0.0 0.0
0.013215539826039822 -0.0056630511724117105 0.0 0.006092236335121749 0.0 0.0
0.011565045681713761 -0.004948343316479238 0.0 0.006063178720301981 0.0 0.0
0.00991759596780516 -0.00422323385682475 0.0 0.005963632148196731 0.0 0.0
0.008278268274890891 -0.0034732315281166192 0.0 0.005712222019911694 0.0 0.0
0.0066350203187754385 -0.002702744831815419 0.0 0.005208759795039699 0.0 0.0
0.004695067993078121 -0.0017766218631563783 0.0 0.004294259390375569 0.0 0.0
0.0022681567620979125 -0.00013437215066505824 0.0 0.004341682678545334 0.0 0.0
0.00267649076462461 -0.0013217956887760416 0.0 0.008904736957063727 0.0 0.0
0.004398579472679473 -0.021098437956197525 0.0 0.009866914760074674 0.0 0.0
0.003822345880929021 -0.017894599764270328 0.0 -0.00941339959655917 0.0 0.0
0.002163260432538366 -0.002218951401274623 0.0 -0.009716884325519258 0.0 0.0
0.0014363554082195897 0.0001625985185433925 0.0 -0.00632536470299567 0.0 0.0
0.0034486079845049995 -0.0011116645562518023 0.0 -0.005576823924714343 0.0 0.0
0.0053231272304421675 -0.0020990313025913547 0.0 -0.006278892560808686 0.0 0.0
0.006832230214467275 -0.002833689794793823 0.0 -0.006783061500633682 0.0 0.0
0.008245455163442592 -0.0034968045582893627 0.0 -0.007036029960288976 0.0 0.0
0.00963520609065828 -0.004118744281569385 0.0 -0.007141059217817146 0.0 0.0
0.011015125324194226 -0.004719710616140183 0.0 -0.007172745874584354 0.0 0.0
0.01239201965380744 -0.005312416049704185 0.0 -0.007176757137286622 0.0 0.0
0.013768275472626537 -0.005902227345331746 0.0 -0.007173452312641215 0.0 0.0
0.015144329431171732 -0.006490745169757866 0.0 -0.007171895941177787 0.0 0.0
0.016519385608433645 -0.007076774064933287 0.0 -0.007179419398638986 0.0 0.0
0.01789136088225491 -0.007656738687057067 0.0 -0.007208437124463053 0.0 0.0
0.019257783861377355 -0.008226273028789286 0.0 -0.007279117294687824 0.0 0.0
0.020620571869364734 -0.008788259811630799 0.0 -0.007407626887661686 0.0 0.0
0.021995442781484846 -0.00937343208427582 0.0 -0.007552317142831397 0.0 0.0
0.02341016651535465 -0.010064540994403386 0.0 -0.007483675675184389 0.0 0.0
0.02484214286875812 -0.010966456654519457 0.0 -0.006621438619582144 0.0 0.0
0.02605875166728235 -0.012000742786055252 0.0 -0.00415474528036819 0.0 0.0
0.026564476163922168 -0.01257240364831469 0.0 3.5496779127175415e-16 0.0 0.0
0.02605875166728209 -0.012000742786055335 0.0 0.004154745280367881 0.0 0.0
0.02484214286875815 -0.010966456654519873 0.0 0.006621438619582733 0.0 0.0
0.023410166515354734 -0.010064540994404082 0.0 0.007483675675185479 0.0 0.0
0.02199544278148483 -0.009373432084277235 0.0 0.007552317142830519 0.0 0.0
0.020620571869364834 -0.008788259811631819 0.0 0.007407626887661318 0.0 0.0
0.019257783861377383 -0.008226273028790577 0.0 0.007279117294688423 0.0 0.0
0.017891360882254882 -0.007656738687059099 0.0 0.007208437124462315 0.0 0.0
0.0165193856084335 -0.0070767740649331674 0.0 0.007179419398638545 0.0 0.0
0.015144329431171676 -0.006490745169756596 0.0 0.007171895941178322 0.0 0.0
0.013768275472626506 -0.005902227345332694 0.0 0.007173452312640901 0.0 0.0
0.012392019653807398 -0.005312416049703592 0.0 0.007176757137286478 0.0 0.0
0.011015125324194212 -0.004719710616139759 0.0 0.007172745874584566 0.0 0.0
0.009635206090658299 -0.004118744281568475 0.0 0.007141059217817198 0.0 0.0
0.00824545516344273 -0.003496804558290281 0.0 0.0070360299602889986 0.0 0.0
0.006832230214467299 -0.002833689794793602 0.0 0.006783061500633758 0.0 0.0
0.005323127230442195 -0.00209903130259187 0.0 0.006278892560808614 0.0 0.0
0.0034486079845050224 -0.0011116645562521104 0.0 0.005576823924713698 0.0 0.0
0.0014363554082195056 0.00016259851854368896 0.0 0.006325364702995754 0.0 0.0
0.0021632604325383027 -0.0022189514012746574 0.0 0.009716884325519669 0.0 0.0
0.003822345880928996 -0.017894599764270356 0.0 0.009413399596558845 0.0 0.0
0.003350205960424427 -0.015119269865999714 0.0 -0.008727609666237621 0.0 0.0
0.0018025781085536942 -0.002779391256534835 0.0 -0.010108959433537472 0.0 0.0
0.0008282400701054779 0.0002488959207489976 0.0 -0.008000245434302148 0.0 0.0
0.002353353448781753 -0.0005561784775578677 0.0 -0.006861428933655672 0.0 0.0
0.004037989577536131 -0.0014993986552054783 0.0 -0.0072531691599567495 0.0 0.0
0.00538417742788121 -0.0021932680453206877 0.0 -0.007691467066458705 0.0 0.0
0.0065716685548413015 -0.0027701726484499673 0.0 -0.00792570312765647 0.0 0.0
0.007703843446618562 -0.00328817616050607 0.0 -0.008025202219551915 0.0 0.0
0.00881382300568877 -0.003775970005867214 0.0 -0.008056483593632273 0.0 0.0
0.009916066156704144 -0.004251601595081157 0.0 -0.008060943631078876 0.0 0.0
0.011016530243864956 -0.004723245562655962 0.0 -0.008058231544388195 0.0 0.0
0.012116485611987294 -0.005193144014137774 0.0 -0.008057026966556394 0.0 0.0
0.01321431994587338 -0.005659589327754532 0.0 -0.008064251324980606 0.0 0.0
0.014305549561644888 -0.006117387492176517 0.0 -0.00809134482758862 0.0 0.0
0.015383663374502747 -0.006559601072201165 0.0 -0.008157149542058128 0.0 0.0
0.016447424551673424 -0.006987789601358668 0.0 -0.008278674511227812 0.0 0.0
0.017519967247222632 -0.007441184987010465 0.0 -0.00842107510673109 0.0 0.0
0.018663831367269252 -0.008037505063051219 0.0 -0.008358691966688267 0.0 0.0
0.01992029814546679 -0.008949907226342911 0.0 -0.007461848294274868 0.0 0.0
0.02109113308701285 -0.010140693284341935 0.0 -0.004748574225572687 0.0 0.0
0.02160567924562516 -0.010858932874589555 0.0 2.0339632755828063e-16 0.0 0.0
0.021091133087012735 -0.010140693284341558 0.0 0.004748574225572396 0.0 0.0
0.019920298145466975 -0.008949907226343739 0.0 0.007461848294275616 0.0 0.0
0.01866383136726923 -0.008037505063051833 0.0 0.008358691966688982 0.0 0.0
0.017519967247222438 -0.007441184987010992 0.0 0.008421075106730706 0.0 0.0
0.01644742455167347 -0.006987789601359234 0.0 0.00827867451122696 0.0 0.0
0.015383663374502872 -0.006559601072200635 0.0 0.0081571495420583 0.0 0.0
0.014305549561644888 -0.006117387492179509 0.0 0.008091344827589109 0.0 0.0
0.013214319945873356 -0.005659589327754551 0.0 0.008064251324980821 0.0 0.0
0.012116485611987313 -0.00519314401413762 0.0 0.0080570269665566 0.0 0.0
0.011016530243864878 -0.004723245562657073 0.0 0.008058231544387994 0.0 0.0
0.009916066156704111 -0.004251601595080303 0.0 0.008060943631078704 0.0 0.0
0.008813823005688863 -0.0037759700058669094 0.0 0.008056483593632598 0.0 0.0
0.007703843446618536 -0.0032881761605059994 0.0 0.00802520221955186 0.0 0.0
0.00657166855484116 -0.0027701726484497743 0.0 0.007925703127656338 0.0 0.0
0.00538417742788116 -0.002193268045320337 0.0 0.007691467066458431 0.0 0.0
0.004037989577536129 -0.001499398655205913 0.0 0.007253169159956958 0.0 0.0
0.002353353448781795 -0.0005561784775579584 0.0 0.006861428933654962 0.0 0.0
0.0008282400701054713 0.0002488959207492352 0.0 0.008000245434302198 0.0 0.0
0.0018025781085536027 -0.002779391256534782 0.0 0.010108959433537472 0.0 0.0
0.003350205960424403 -0.015119269865999778 0.0 0.008727609666237613 0.0 0.0
0.002923238199695895 -0.012701795952776547 0.0 -0.007995759893891567 0.0 0.0
0.0015082034613329242 -0.0030542708968326593 0.0 -0.010198248770536772 0.0 0.0
0.0003572690585205136 0.00023690661392269393 0.0 -0.009290173481385295 0.0 0.0
0.0013908179023643522 -0.00010682308719081672 0.0 -0.00803114773771318 0.0 0.0
0.0027983318882651917 -0.0009243769586330993 0.0 -0.00811577331949324 0.0 0.0
0.003943116099898941 -0.0015564708696152684 0.0 -0.008436433414968504 0.0 0.0
0.004898603910990057 -0.0020450256220166654 0.0 -0.008631343408826368 0.0 0.0
0.005771993270319751 -0.002457547940567488 0.0 -0.008716226130623513 0.0 0.0
0.0066118413518343475 -0.0028319077201132514 0.0 -0.00874374179289368 0.0 0.0
0.007439663265280547 -0.0031905469247306187 0.0 -0.008748060495004165 0.0 0.0
0.008264485607325253 -0.0035440842061385484 0.0 -0.008746032465883727 0.0 0.0
0.009088411962729033 -0.0038954266914672615 0.0 -0.008745176504817707 0.0 0.0
0.009909182973365533 -0.0042424410758515625 0.0 -0.008751319080680772 0.0 0.0
0.010720302361877298 -0.004578581793018835 0.0 -0.008773922111589682 0.0 0.0
0.0115117358303941 -0.004894642958287954 0.0 -0.008829065885388086 0.0 0.0
0.012279215843940788 -0.005190540486539122 0.0 -0.008934437019680393 0.0 0.0
0.013052889150621094 -0.005512516158135151 0.0 -0.00906922909432472 0.0 0.0
0.013931807089012626 -0.006013363265990319 0.0 -0.009033904266994918 0.0 0.0
0.015029550725390688 -0.0069450397026481385 0.0 -0.008174464081677643 0.0 0.0
0.01618750415331762 -0.00833327710391974 0.0 -0.005309799648963128 0.0 0.0
0.01673105162703824 -0.009248852259202802 0.0 -2.985892783025079e-16 0.0 0.0
0.016187504153317617 -0.008333277103921122 0.0 0.005309799648963607 0.0 0.0
0.015029550725390799 -0.0069450397026496954 0.0 0.008174464081677742 0.0 0.0
0.013931807089012708 -0.006013363265988547 0.0 0.009033904266994297 0.0 0.0
0.013052889150620976 -0.005512516158135872 0.0 0.009069229094325141 0.0 0.0
0.012279215843940825 -0.005190540486536999 0.0 0.008934437019681503 0.0 0.0
0.011511735830394224 -0.0048946429582879345 0.0 0.008829065885388199 0.0 0.0
0.010720302361877196 -0.004578581793017977 0.0 0.008773922111589302 0.0 0.0
0.009909182973365415 -0.004242441075851974 0.0 0.008751319080680397 0.0 0.0
0.009088411962728997 -0.003895426691466441 0.0 0.008745176504817587 0.0 0.0
0.008264485607325203 -0.0035440842061383597 0.0 0.008746032465884051 0.0 0.0
0.007439663265280529 -0.003190546924731928 0.0 0.00874806049500425 0.0 0.0
0.006611841351834339 -0.002831907720112654 0.0 0.008743741792893958 0.0 0.0
0.005771993270319783 -0.0024575479405670388 0.0 0.008716226130623414 0.0 0.0
0.0048986039109900565 -0.0020450256220167122 0.0 0.008631343408826203 0.0 0.0
0.0039431160998989 -0.0015564708696150715 0.0 0.008436433414968593 0.0 0.0
0.0027983318882652164 -0.0009243769586330494 0.0 0.008115773319493204 0.0 0.0
0.0013908179023642922 -0.00010682308719048843 0.0 0.008031147737713152 0.0 0.0
0.00035726905852047466 0.00023690661392273085 0.0 0.00929017348138505 0.0 0.0
0.001508203461332959 -0.0030542708968325475 0.0 0.010198248770536938 0.0 0.0
0.002923238199696009 -0.012701795952776561 0.0 0.007995759893891308 0.0 0.0
0.002516279303349563 -0.010580939187751598 0.0 -0.007288886187697883 0.0 0.0
0.0012365873597155377 -0.003104909809345071 0.0 -0.010067449493045093 0.0 0.0
-3.513769121345934e-05 0.00019728129960699785 0.0 -0.010192484292859611 0.0 0.0
0.0005348898060827938 0.0002561915055908207 0.0 -0.00900595946714879 0.0 0.0
0.0016113517745433568 -0.00038475500558148875 0.0 -0.008837772590300857 0.0 0.0
0.0025165920676222756 -0.0009287133564922349 0.0 -0.009013660904088559 0.0 0.0
0.0032287313525203266 -0.0013228243350456056 0.0 -0.009151079701995095 0.0 0.0
0.0038405029265420687 -0.0016275845121275995 0.0 -0.009213893519849003 0.0 0.0
0.004409414461570814 -0.0018876768819709243 0.0 -0.009234713436814711 0.0 0.0
0.00496278679566851 -0.0021292235085987087 0.0 -0.009238236359940824 0.0 0.0
0.00551209327851859 -0.00236470548771023 0.0 -0.009236916264405854 0.0 0.0
0.006060135513069394 -0.002597609381110337 0.0 -0.009236360853247675 0.0 0.0
0.006604206737665483 -0.0028254995848294353 0.0 -0.009240756220757337 0.0 0.0
0.007136306211961574 -0.0030408314300988688 0.0 -0.009256799048811878 0.0 0.0
0.0076434992391302605 -0.0032325584765848505 0.0 -0.009296562686477036 0.0 0.0
0.008118161505972596 -0.003398377259181455 0.0 -0.00937774560982399 0.0 0.0
0.008595088413475128 -0.0035883238686804956 0.0 -0.009499571228640053 0.0 0.0
0.009208833160868766 -0.003987166564656596 0.0 -0.009512106557371882 0.0 0.0
0.01015531475894442 -0.004936735037850589 0.0 -0.008768748318880476 0.0 0.0
0.011329274885701106 -0.0065622224681067595 0.0 -0.005857691138491596 0.0 0.0
0.011922736512750023 -0.007741639206843679 0.0 -2.174909558005922e-16 0.0 0.0
0.011329274885701299 -0.006562222468109025 0.0 0.005857691138491484 0.0 0.0
0.01015531475894439 -0.004936735037850165 0.0 0.008768748318880982 0.0 0.0
0.009208833160868785 -0.0039871665646559595 0.0 0.009512106557371992 0.0 0.0
0.008595088413475139 -0.0035883238686807897 0.0 0.009499571228639606 0.0 0.0
0.00811816150597255 -0.0033983772591789255 0.0 0.0093777456098237 0.0 0.0
0.007643499239130361 -0.0032325584765865115 0.0 0.009296562686476745 0.0 0.0
0.007136306211961462 -0.003040831430097303 0.0 0.009256799048811713 0.0 0.0
0.006604206737665469 -0.0028254995848284465 0.0 0.009240756220757214 0.0 0.0
0.006060135513069504 -0.0025976093811090444 0.0 0.009236360853247352 0.0 0.0
0.005512093278518528 -0.0023647054877092544 0.0 0.009236916264405672 0.0 0.0
0.004962786795668484 -0.0021292235086008728 0.0 0.009238236359941098 0.0 0.0
0.004409414461570772 -0.0018876768819708636 0.0 0.009234713436815005 0.0 0.0
0.0038405029265419716 -0.0016275845121264826 0.0 0.009213893519849334 0.0 0.0
0.0032287313525202433 -0.001322824335045641 0.0 0.009151079701994962 0.0 0.0
0.0025165920676223515 -0.0009287133564931829 0.0 0.009013660904088873 0.0 0.0
0.001611351774543415 -0.0003847550055812336 0.0 0.00883777259030033 0.0 0.0
0.0005348898060827156 0.000256191505591451 0.0 0.009005959467148774 0.0 0.0
-3.513769121349195e-05 0.00019728129960686714 0.0 0.010192484292859875 0.0 0.0
0.001236587359715519 -0.003104909809345035 0.0 0.010067449493045156 0.0 0.0
0.0025162793033494165 -0.01058093918775148 0.0 0.007288886187697641 0.0 0.0
0.002120067192587647 -0.008707794556421284 0.0 -0.0066256690642768745 0.0 0.0
0.0009671310497434923 -0.0029882324539661116 0.0 -0.009770422200623335 0.0 0.0
-0.000387078275971517 0.00017089600908831923 0.0 -0.010733573451636986 0.0 0.0
-0.0002402448482187393 0.0005562404948975482 0.0 -0.009738557881725124 0.0 0.0
0.0004765810382306152 0.00011659292319258788 0.0 -0.009388712013884465 0.0 0.0
0.0011095230298648468 -0.0003143583005098248 0.0 -0.009414992889508403 0.0 0.0
0.0015642678825402362 -0.0006049711270079892 0.0 -0.009482392267670867 0.0 0.0
0.0019100622523458561 -0.0007988018600506987 0.0 -0.009517453874571683 0.0 0.0
0.0022067379215788187 -0.0009434288560461555 0.0 -0.00952941685827839 0.0 0.0
0.0024854357064556807 -0.0010676199828845532 0.0 -0.00953158239635911 0.0 0.0
0.0027593217265472012 -0.0011850834517735094 0.0 -0.009530955651238772 0.0 0.0
0.0030316816587725474 -0.0012997092789328766 0.0 -0.009530651137754404 0.0 0.0
0.0032995655679596576 -0.0014088955600892062 0.0 -0.009532824339633277 0.0 0.0
0.003554067003837394 -0.001504507441863334 0.0 -0.009540886170692504 0.0 0.0
0.003780138037405738 -0.001574236084251109 0.0 -0.009561905352070214 0.0 0.0
0.0039662680795146295 -0.0016129828624807893 0.0 -0.009612120306473883 0.0 0.0
0.004147665293277232 -0.0016698347118881142 0.0 -0.009714081761915096 0.0 0.0
0.0044899148781517165 -0.001954396772996624 0.0 -0.009791040386771662 0.0 0.0
0.00528248856471721 -0.002908562757962925 0.0 -0.009246699857889288 0.0 0.0
0.006497987030633624 -0.004809471707994067 0.0 -0.006410155154774945 0.0 0.0
0.00716420897704408 -0.00634271553710524 0.0 4.822531263215524e-16 0.0 0.0
0.006497987030633668 -0.004809471707993804 0.0 0.006410155154774947 0.0 0.0
0.005282488564717268 -0.002908562757962336 0.0 0.009246699857889866 0.0 0.0
0.004489914878151714 -0.0019543967729986553 0.0 0.009791040386772002 0.0 0.0
0.004147665293277188 -0.0016698347118892245 0.0 0.009714081761914234 0.0 0.0
0.003966268079514725 -0.001612982862480394 0.0 0.009612120306473503 0.0 0.0
0.003780138037405733 -0.0015742360842506242 0.0 0.00956190535207074 0.0 0.0
0.003554067003837292 -0.001504507441862971 0.0 0.009540886170692668 0.0 0.0
0.0032995655679596866 -0.0014088955600894907 0.0 0.009532824339633818 0.0 0.0
0.0030316816587724724 -0.0012997092789315226 0.0 0.00953065113775377 0.0 0.0
0.0027593217265471015 -0.001185083451772666 0.0 0.009530955651238798 0.0 0.0
0.0024854357064556048 -0.0010676199828854541 0.0 0.009531582396358646 0.0 0.0
0.002206737921578813 -0.000943428856046008 0.0 0.00952941685827879 0.0 0.0
0.001910062252345958 -0.000798801860051006 0.0 0.009517453874571898 0.0 0.0
0.0015642678825403464 -0.000604971127008451 0.0 0.00948239226767112 0.0 0.0
0.001109523029864828 -0.00031435830051061085 0.0 0.009414992889508547 0.0 0.0
0.00047658103823057746 0.00011659292319261836 0.0 0.009388712013884686 0.0 0.0
-0.00024024484821868024 0.0005562404948979185 0.0 0.00973855788172513 0.0 0.0
-0.00038707827597144487 0.00017089600908828739 0.0 0.010733573451637281 0.0 0.0
0.0009671310497434919 -0.002988232453966315 0.0 0.009770422200623439 0.0 0.0
0.002120067192587517 -0.00870779455642118 0.0 0.006625669064277275 0.0 0.0
0.001732950300105788 -0.007045900778017212 0.0 -0.006001705354998308 0.0 0.0
0.0006916587510280707 -0.002752253581726286 0.0 -0.00934021118877229 0.0 0.0
-0.0007223085814795345 0.0001788389491008416 0.0 -0.010948149302852917 0.0 0.0
-0.0009568331315873942 0.0008145123892730177 0.0 -0.010205106600022246 0.0 0.0
-0.0006108212970641517 0.0005818590902129583 0.0 -0.009742244289722665 0.0 0.0
-0.0002758979404029314 0.000284099676604714 0.0 -0.00962992988286111 0.0 0.0
-9.319896606135514e-05 0.00010740585588981401 0.0 -0.009621950833903431 0.0 0.0
-1.8821155117229582e-05 2.8460845839500554e-05 0.0 -0.00962586592844798 0.0 0.0
3.943381776865424e-06 7.327460985574399e-07 0.0 -0.009627726434923167 0.0 0.0
7.617084392759564e-06 -5.7367701105547135e-06 0.0 -0.00962819027625443 0.0 0.0
6.153473488245797e-06 -5.202373430633999e-06 0.0 -0.009628233438248238 0.0 0.0
3.067156781979966e-06 -1.7380946932893723e-06 0.0 -0.009628155954642602 0.0 0.0
-4.637277419570216e-06 7.290012420056513e-06 0.0 -0.009627872686889997 0.0 0.0
-2.612545339829547e-05 3.018112385753526e-05 0.0 -0.00962726842721136 0.0 0.0
-7.755054689330106e-05 7.977723947092096e-05 0.0 -0.009627782930397417 0.0 0.0
-0.00017465212268083443 0.0001641840369310637 0.0 -0.009641918949050098 0.0 0.0
-0.0002876132674512846 0.00024101394659792062 0.0 -0.00971460875238114 0.0 0.0
-0.0002288691603136374 8.809060928134481e-05 0.0 -0.009863561146314655 0.0 0.0
0.0003955573384020145 -0.0008428908518573166 0.0 -0.009601644556472323 0.0 0.0
0.0016745346344767046 -0.0030533082951150724 0.0 -0.006984194117549293 0.0 0.0
0.002439358511656708 -0.005064633812829637 0.0 1.3444106938820255e-17 0.0 0.0
0.001674534634476759 -0.003053308295114839 0.0 0.00698419411754873 0.0 0.0
0.000395557338402126 -0.000842890851857468 0.0 0.009601644556472447 0.0 0.0
-0.00022886916031367545 8.809060928226568e-05 0.0 0.00986356114631435 0.0 0.0
-0.000287613267451273 0.0002410139465969701 0.0 0.009714608752381518 0.0 0.0
-0.00017465212268054993 0.00016418403693041643 0.0 0.009641918949051025 0.0 0.0
-7.755054689324511e-05 7.977723947145716e-05 0.0 0.009627782930397686 0.0 0.0
-2.6125453398417604e-05 3.018112385874848e-05 0.0 0.009627268427211347 0.0 0.0
-4.637277419511669e-06 7.290012419988547e-06 0.0 0.009627872686890193 0.0 0.0
3.0671567820354773e-06 -1.738094692440415e-06 0.0 0.009628155954642989 0.0 0.0
6.1534734881656746e-06 -5.202373430776314e-06 0.0 0.009628233438247947 0.0 0.0
7.617084392703077e-06 -5.73677011048981e-06 0.0 0.00962819027625469 0.0 0.0
3.943381776995528e-06 7.327460992210801e-07 0.0 0.009627726434923252 0.0 0.0
-1.8821155117171035e-05 2.8460845838551376e-05 0.0 0.009625865928447724 0.0 0.0
-9.319896606142561e-05 0.00010740585588937534 0.0 0.009621950833903822 0.0 0.0
-0.0002758979404029971 0.0002840996766040566 0.0 0.009629929882861153 0.0 0.0
-0.0006108212970642073 0.0005818590902132161 0.0 0.009742244289722785 0.0 0.0
-0.0009568331315874153 0.000814512389272977 0.0 0.010205106600022433 0.0 0.0
-0.0007223085814794831 0.00017883894910084675 0.0 0.010948149302853151 0.0 0.0
0.0006916587510281483 -0.0027522535817264483 0.0 0.009340211188772441 0.0 0.0
0.0017329503001058807 -0.007045900778017243 0.0 0.006001705354998625 0.0 0.0
0.0013569791261909578 -0.005570095261937912 0.0 -0.0054034587772446435 0.0 0.0
0.00040876288098375157 -0.002435663907233504 0.0 -0.008795886716941276 0.0 0.0
-0.0010547098665371903 0.00022960385432904256 0.0 -0.010870101348146624 0.0 0.0
-0.0016325672871419338 0.0010478862580940232 0.0 -0.01039675829493063 0.0 0.0
-0.0016577464630095715 0.0010159096686804085 0.0 -0.009877817338725867 0.0 0.0
-0.0016398046005324852 0.0008660913178528929 0.0 -0.009647343916759428 0.0 0.0
-0.0017429381484386631 0.0008136964637017256 0.0 -0.009565781126538922 0.0 0.0
-0.001945880821972102 0.0008540426942239892 0.0 -0.009537921708874613 0.0 0.0
-0.002198911081437369 0.0009447662591874854 0.0 -0.009529440522753322 0.0 0.0
-0.002470663447976919 0.0010564225760817576 0.0 -0.009528135496955121 0.0 0.0
-0.0027474176059644924 0.0011749435885771585 0.0 -0.009528838402135087 0.0 0.0
-0.0030257041640762592 0.0012963022563192623 0.0 -0.009529001733813823 0.0 0.0
-0.003308374880706971 0.0014230315805424559 0.0 -0.00952629549559876 0.0 0.0
-0.0036042144700441404 0.0015631910346102292 0.0 -0.009517095938125449 0.0 0.0
-0.003929244614322128 0.0017293417965131763 0.0 -0.009497100962484288 0.0 0.0
-0.0043030753492477435 0.0019320433239239953 0.0 -0.009472477413678139 0.0 0.0
-0.004707933287843143 0.002141310942918609 0.0 -0.009504016408991426 0.0 0.0
-0.004949338197141988 0.0021408524054063087 0.0 -0.009718290816955036 0.0 0.0
-0.004521121647668359 0.0012786550842280864 0.0 -0.009816023947241865 0.0 0.0
-0.0031617482160896616 -0.0012657072329091163 0.0 -0.0075955322165189776 0.0 0.0
-0.002268651280814135 -0.003928975682612104 0.0 3.0791341698588326e-16 0.0 0.0
-0.0031617482160896217 -0.0012657072329093709 0.0 0.007595532216519272 0.0 0.0
-0.004521121647668293 0.0012786550842298547 0.0 0.0098160239472427 0.0 0.0
-0.004949338197141967 0.002140852405407056 0.0 0.009718290816955582 0.0 0.0
-0.004707933287843158 0.002141310942918376 0.0 0.009504016408991001 0.0 0.0
-0.004303075349247641 0.0019320433239233882 0.0 0.009472477413678416 0.0 0.0
-0.003929244614322221 0.001729341796512488 0.0 0.009497100962483698 0.0 0.0
-0.003604214470044315 0.0015631910346123115 0.0 0.009517095938125605 0.0 0.0
-0.0033083748807068436 0.0014230315805437933 0.0 0.009526295495598644 0.0 0.0
-0.003025704164076204 0.0012963022563189683 0.0 0.00952900173381379 0.0 0.0
-0.002747417605964498 0.0011749435885773506 0.0 0.00952883840213457 0.0 0.0
-0.00247066344797694 0.0010564225760817413 0.0 0.009528135496955295 0.0 0.0
-0.002198911081437375 0.0009447662591879607 0.0 0.00952944052275332 0.0 0.0
-0.0019458808219720292 0.0008540426942241055 0.0 0.00953792170887434 0.0 0.0
-0.0017429381484386757 0.0008136964637014505 0.0 0.009565781126539111 0.0 0.0
-0.0016398046005325182 0.000866091317851905 0.0 0.009647343916759697 0.0 0.0
-0.0016577464630094887 0.0010159096686806293 0.0 0.009877817338725878 0.0 0.0
-0.0016325672871418532 0.0010478862580935873 0.0 0.010396758294930962 0.0 0.0
-0.001054709866537176 0.00022960385432887665 0.0 0.01087010134814667 0.0 0.0
0.0004087628809837972 -0.0024356639072334557 0.0 0.008795886716941422 0.0 0.0
0.0013569791261910003 -0.005570095261938012 0.0 0.00540345877724482 0.0 0.0
0.0009961032283698386 -0.004264961689314628 0.0 -0.0048150334149259875 0.0 0.0
0.00012082862280396075 -0.0020689341113440353 0.0 -0.008147727778776322 0.0 0.0
-0.0013913059718421556 0.0003238645997202519 0.0 -0.010528944665697969 0.0 0.0
-0.0022806267586112008 0.0012685507396331978 0.0 -0.01031315259643159 0.0 0.0
-0.002671689936218432 0.0014246598787280224 0.0 -0.009780316192548322 0.0 0.0
-0.0029841321995539194 0.001432690560788151 0.0 -0.009456736691661385 0.0 0.0
-0.003385144744189308 0.0015139491925553745 0.0 -0.009309662721179623 0.0 0.0
-0.003871144014104223 0.0016779840658333073 0.0 -0.009252362887086434 0.0 0.0
-0.004401845138981492 0.0018886915835828327 0.0 -0.009234348016241206 0.0 0.0
-0.004949404666698741 0.0021188558510862906 0.0 -0.009231489377244929 0.0 0.0
-0.005501387424494289 0.002355350353217269 0.0 -0.009232860027582121 0.0 0.0
-0.006054643334718497 0.002594420918634736 0.0 -0.009233310843493657 0.0 0.0
-0.006611695762922972 0.002838363068672004 0.0 -0.009228487017605458 0.0 0.0
-0.007180368463277952 0.0030946281098612836 0.0 -0.009211491436126549 0.0 0.0
-0.00777518401036459 0.0033747580507052536 0.0 -0.009172703086253547 0.0 0.0
-0.008418019489204662 0.003690190843787174 0.0 -0.009110071159395678 0.0 0.0
-0.009109216935023668 0.00402717791346725 0.0 -0.009087834344548006 0.0 0.0
-0.009669837249768424 0.0042002723962155835 0.0 -0.00934131118857688 0.0 0.0
-0.009482616854872852 0.0034739550302506014 0.0 -0.00985798923625336 0.0 0.0
-0.008034212025934392 0.0005915175679884466 0.0 -0.008256752582324977 0.0 0.0
-0.00697904882868635 -0.0029690646280642248 0.0 2.717010644248674e-16 0.0 0.0
-0.008034212025934354 0.0005915175679865748 0.0 0.008256752582325656 0.0 0.0
-0.009482616854872833 0.003473955030250723 0.0 0.009857989236252977 0.0 0.0
-0.009669837249768337 0.004200272396216555 0.0 0.009341311188576177 0.0 0.0
-0.009109216935023551 0.004027177913465843 0.0 0.009087834344548427 0.0 0.0
-0.008418019489204601 0.003690190843787599 0.0 0.009110071159396188 0.0 0.0
-0.007775184010364642 0.003374758050704404 0.0 0.009172703086253599 0.0 0.0
-0.0071803684632779086 0.003094628109862519 0.0 0.009211491436127527 0.0 0.0
-0.006611695762922786 0.002838363068670978 0.0 0.009228487017605555 0.0 0.0
-0.006054643334718509 0.0025944209186337095 0.0 0.009233310843493561 0.0 0.0
-0.005501387424494421 0.002355350353218844 0.0 0.009232860027582144 0.0 0.0
-0.0049494046666987935 0.00211885585108537 0.0 0.00923148937724541 0.0 0.0
-0.004401845138981558 0.0018886915835824585 0.0 0.009234348016241196 0.0 0.0
-0.0038711440141041753 0.001677984065833555 0.0 0.009252362887086349 0.0 0.0
-0.00338514474418926 0.0015139491925553745 0.0 0.009309662721179226 0.0 0.0
-0.0029841321995538947 0.0014326905607882907 0.0 0.009456736691661688 0.0 0.0
-0.0026716899362183087 0.0014246598787278966 0.0 0.009780316192548514 0.0 0.0
-0.002280626758611161 0.00126855073963254 0.0 0.010313152596431497 0.0 0.0
-0.0013913059718420684 0.00032386459971979427 0.0 0.010528944665697888 0.0 0.0
0.00012082862280413148 -0.0020689341113440504 0.0 0.008147727778776193 0.0 0.0
0.0009961032283699418 -0.004264961689314659 0.0 0.0048150334149258504 0.0 0.0
0.0006554422438990688 -0.0031232584660154813 0.0 -0.004221665295434318 0.0 0.0
-0.00016739007950019395 -0.0016758602025395452 0.0 -0.00740105828138532 0.0 0.0
-0.0017341367273345735 0.0004574000722106056 0.0 -0.009948760402503842 0.0 0.0
-0.00291012479196232 0.0014843780340896135 0.0 -0.00995768486265496 0.0 0.0
-0.0036599817286394297 0.0018141518574213604 0.0 -0.009438854165218993 0.0 0.0
-0.004312151371830656 0.001986257257723773 0.0 -0.009048988783211136 0.0 0.0
-0.005020896904406209 0.002208897023924437 0.0 -0.008849599141569495 0.0 0.0
-0.005794953101393595 0.0025005428751785205 0.0 -0.008768023908456846 0.0 0.0
-0.006604954840910478 0.00283258387748939 0.0 -0.008742286977716101 0.0 0.0
-0.007428607591812266 0.003181561470662502 0.0 -0.008738333623323343 0.0 0.0
-0.008255740301852272 0.0035360032212388643 0.0 -0.008740384007048133 0.0 0.0
-0.009083774990898782 0.0038926347630834843 0.0 -0.008741180730562995 0.0 0.0
-0.00991472124839021 0.004253382543879577 0.0 -0.008734787442761148 0.0 0.0
-0.010754945119649762 0.004624720552169856 0.0 -0.00871149282036171 0.0 0.0
-0.011616213249559634 0.00501671595561268 0.0 -0.008657072039881447 0.0 0.0
-0.012519492436598308 0.005439321732910927 0.0 -0.008561432845224488 0.0 0.0
-0.013486267264124368 0.005894322091560908 0.0 -0.00847624501882328 0.0 0.0
-0.014383410499351927 0.0062565880905238215 0.0 -0.008719943048408809 0.0 0.0
-0.01450187303392288 0.005757586139276483 0.0 -0.00967676513264367 0.0 0.0
-0.01297030727026232 0.0025723604922327963 0.0 -0.008972439357731577 0.0 0.0
-0.011716186152139233 -0.0022334960024049445 0.0 8.782037597132586e-17 0.0 0.0
-0.012970307270262386 0.00257236049223036 0.0 0.008972439357731685 0.0 0.0
-0.014501873033923023 0.005757586139277497 0.0 0.00967676513264362 0.0 0.0
-0.014383410499351934 0.006256588090523599 0.0 0.008719943048408578 0.0 0.0
-0.013486267264124326 0.0058943220915611706 0.0 0.00847624501882307 0.0 0.0
-0.012519492436598443 0.005439321732911109 0.0 0.008561432845223534 0.0 0.0
-0.011616213249559752 0.005016715955612153 0.0 0.008657072039881232 0.0 0.0
-0.01075494511964969 0.004624720552169394 0.0 0.008711492820362154 0.0 0.0
-0.00991472124839 0.00425338254387753 0.0 0.008734787442761153 0.0 0.0
-0.009083774990898788 0.0038926347630835805 0.0 0.008741180730562419 0.0 0.0
-0.00825574030185234 0.003536003221240173 0.0 0.008740384007048347 0.0 0.0
-0.007428607591812178 0.0031815614706626892 0.0 0.008738333623323399 0.0 0.0
-0.006604954840910461 0.0028325838774884695 0.0 0.00874228697771602 0.0 0.0
-0.005794953101393633 0.002500542875179735 0.0 0.008768023908457198 0.0 0.0
-0.005020896904406263 0.0022088970239247238 0.0 0.008849599141569341 0.0 0.0
-0.004312151371830689 0.001986257257724976 0.0 0.009048988783211488 0.0 0.0
-0.003659981728639382 0.0018141518574206522 0.0 0.009438854165218915 0.0 0.0
-0.0029101247919623005 0.001484378034089642 0.0 0.009957684862654711 0.0 0.0
-0.0017341367273345583 0.0004574000722100531 0.0 0.00994876040250387 0.0 0.0
-0.0001673900795001864 -0.0016758602025394973 0.0 0.007401058281384791 0.0 0.0
0.0006554422438990097 -0.0031232584660154275 0.0 0.004221665295434886 0.0 0.0
0.00034117724187047543 -0.002144442535361669 0.0 -0.0036119817423295704 0.0 0.0
-0.00044920399540153747 -0.0012751804593436264 0.0 -0.006559188146550357 0.0 0.0
-0.002081240174898075 0.000622647988120353 0.0 -0.009147979292129495 0.0 0.0
-0.0035266807643050254 0.0016995928212499125 0.0 -0.009333995532882468 0.0 0.0
-0.004629519027230676 0.002190191501324671 0.0 -0.008845382221616955 0.0 0.0
-0.005628133861082137 0.002530130920346031 0.0 -0.008416758300570334 0.0 0.0
-0.006652045672924744 0.002899895738534157 0.0 -0.008182258474420038 0.0 0.0
-0.0077179476255872185 0.0033221866606957333 0.0 -0.00808399395927084 0.0 0.0
-0.008808402415099554 0.0037765623870091624 0.0 -0.008053197208392664 0.0 0.0
-0.009908269535421522 0.0042445333921353285 0.0 -0.008048772810987443 0.0 0.0
-0.01101044566168567 0.0047168762753767675 0.0 -0.008051486803105912 0.0 0.0
-0.012113130544511247 0.0051909594156828364 0.0 -0.008052671971721648 0.0 0.0
-0.013217645111459364 0.005668252003185067 0.0 -0.008045413771997599 0.0 0.0
-0.01432844097713483 0.006153815680207101 0.0 -0.008018011174484498 0.0 0.0
-0.015453708666208786 0.006656107344210457 0.0 -0.007952180877179181 0.0 0.0
-0.016609108664993467 0.007181623544011874 0.0 -0.007832542134127452 0.0 0.0
-0.017833642130949023 0.007739591841972777 0.0 -0.007685657731912855 0.0 0.0
-0.019075506209324574 0.008291811657548881 0.0 -0.007850431831620718 0.0 0.0
-0.019586492477143936 0.008134933148427718 0.0 -0.009197513043997541 0.0 0.0
-0.01800332056675923 0.004754812222589412 0.0 -0.009727928995813718 0.0 0.0
-0.016514380055712465 -0.0017900708820396977 0.0 1.6263032587282567e-16 0.0 0.0
-0.018003320566759393 0.004754812222588643 0.0 0.009727928995814178 0.0 0.0
-0.019586492477143985 0.00813493314842854 0.0 0.009197513043997577 0.0 0.0
-0.019075506209324453 0.008291811657548071 0.0 0.00785043183162046 0.0 0.0
-0.01783364213094904 0.00773959184197489 0.0 0.007685657731913594 0.0 0.0
-0.016609108664993568 0.007181623544011105 0.0 0.007832542134127598 0.0 0.0
-0.01545370866620879 0.006656107344210125 0.0 0.007952180877179178 0.0 0.0
-0.014328440977134854 0.006153815680203867 0.0 0.008018011174484679 0.0 0.0
-0.013217645111459368 0.005668252003184278 0.0 0.00804541377199773 0.0 0.0
-0.012113130544511252 0.005190959415684239 0.0 0.008052671971721097 0.0 0.0
-0.011010445661685731 0.004716876275376019 0.0 0.00805148680310572 0.0 0.0
-0.009908269535421416 0.004244533392135618 0.0 0.008048772810987155 0.0 0.0
-0.008808402415099491 0.003776562387007922 0.0 0.00805319720839264 0.0 0.0
-0.00771794762558722 0.003322186660697787 0.0 0.008083993959270896 0.0 0.0
-0.006652045672924661 0.0028998957385337333 0.0 0.008182258474419647 0.0 0.0
-0.005628133861082153 0.0025301309203467743 0.0 0.00841675830057022 0.0 0.0
-0.0046295190272306495 0.002190191501324239 0.0 0.008845382221616585 0.0 0.0
-0.003526680764305073 0.0016995928212501354 0.0 0.009333995532882581 0.0 0.0
-0.0020812401748982 0.0006226479881201597 0.0 0.009147979292129387 0.0 0.0
-0.00044920399540149367 -0.0012751804593435136 0.0 0.006559188146550043 0.0 0.0
0.0003411772418706062 -0.0021444425353616026 0.0 0.0036119817423300453 0.0 0.0
6.0916590012728105e-05 -0.0013332297380039438 0.0 -0.002980339457973573 0.0 0.0
-0.0007156547215959967 -0.0008822704048017633 0.0 -0.0056258635177538294 0.0 0.0
-0.002426915058237825 0.000809225693838131 0.0 -0.008138968734141022 0.0 0.0
-0.00413304270912975 0.0019155884599301597 0.0 -0.008443146713902745 0.0 0.0
-0.005586886248714384 0.0025584182905221274 0.0 -0.007993503786883299 0.0 0.0
-0.006937155973785428 0.0030684080631347248 0.0 -0.007554716959794344 0.0 0.0
-0.00828106688163386 0.0035888041929504795 0.0 -0.007305339182416763 0.0 0.0
-0.009641009551669674 0.00414355601177518 0.0 -0.007199776446710251 0.0 0.0
-0.01101239497140973 0.004720772979521402 0.0 -0.0071671654894039805 0.0 0.0
-0.012388374550049106 0.005307752497360437 0.0 -0.007162943738807434 0.0 0.0
-0.013765454920041973 0.005897931953168207 0.0 -0.007166225651723545 0.0 0.0
-0.015142734093479961 0.006489400860280211 0.0 -0.007167807426921527 0.0 0.0
-0.016520729399174136 0.007083168160253086 0.0 -0.0071604052490231804 0.0 0.0
-0.017901470740367072 0.007682447812728565 0.0 -0.007131683602751953 0.0 0.0
-0.019289311739154227 0.008293736168087231 0.0 -0.007059770513078946 0.0 0.0
-0.02069066249661349 0.008920671870786531 0.0 -0.006926797571499062 0.0 0.0
-0.022147867276968873 0.009564124590238756 0.0 -0.006737679346757268 0.0 0.0
-0.02372156453441256 0.010278733265518385 0.0 -0.0067522258629086765 0.0 0.0
-0.024732241725951443 0.010590308984035108 0.0 -0.00831919695618502 0.0 0.0
-0.02317424959739214 0.007252256296726045 0.0 -0.01046376163322309 0.0 0.0
-0.021427018084430233 -0.001728401898984662 0.0 -5.494736610156536e-16 0.0 0.0
-0.02317424959739223 0.007252256296726926 0.0 0.010463761633222914 0.0 0.0
-0.024732241725951447 0.010590308984033106 0.0 0.008319196956186386 0.0 0.0
-0.02372156453441257 0.010278733265519539 0.0 0.00675222586290895 0.0 0.0
-0.022147867276968932 0.009564124590238726 0.0 0.006737679346757116 0.0 0.0
-0.020690662496613443 0.008920671870787246 0.0 0.006926797571499093 0.0 0.0
-0.019289311739154217 0.00829373616808765 0.0 0.007059770513079499 0.0 0.0
-0.017901470740367006 0.007682447812725091 0.0 0.007131683602752339 0.0 0.0
-0.016520729399173987 0.007083168160253303 0.0 0.007160405249023215 0.0 0.0
-0.01514273409347994 0.006489400860280404 0.0 0.007167807426921793 0.0 0.0
-0.013765454920041973 0.005897931953167445 0.0 0.007166225651723378 0.0 0.0
-0.012388374550049088 0.0053077524973605805 0.0 0.0071629437388073345 0.0 0.0
-0.011012394971409668 0.004720772979521106 0.0 0.0071671654894044715 0.0 0.0
-0.009641009551669648 0.004143556011775721 0.0 0.007199776446710165 0.0 0.0
-0.00828106688163394 0.0035888041929495514 0.0 0.0073053391824164544 0.0 0.0
-0.006937155973785553 0.0030684080631339906 0.0 0.007554716959794726 0.0 0.0
-0.005586886248714387 0.0025584182905220494 0.0 0.007993503786883255 0.0 0.0
-0.004133042709129745 0.0019155884599299606 0.0 0.008443146713902429 0.0 0.0
-0.002426915058237786 0.0008092256938381723 0.0 0.008138968734140325 0.0 0.0
-0.0007156547215958838 -0.0008822704048019803 0.0 0.005625863517753674 0.0 0.0
6.091659001274856e-05 -0.001333229738003867 0.0 0.0029803394579727602 0.0 0.0
-0.000175385077974866 -0.000697992438694359 0.0 -0.0023304574600466884 0.0 0.0
-0.0009543857264165819 -0.0005112049539171121 0.0 -0.004607520919281151 0.0 0.0
-0.002761366843531627 0.001003648271698153 0.0 -0.006926488153873061 0.0 0.0
-0.004729830393662293 0.0021319623169437376 0.0 -0.0072811225248633395 0.0 0.0
-0.006538799744827215 0.0029247079535629503 0.0 -0.0068777847906295875 0.0 0.0
-0.008245002979984511 0.003605774644697561 0.0 -0.006459758572818318 0.0 0.0
-0.009910887842781683 0.0042778298181677665 0.0 -0.006217849363468242 0.0 0.0
-0.011565179041723618 0.004965402393015322 0.0 -0.006115427495899057 0.0 0.0
-0.013217152038018595 0.005665362665168497 0.0 -0.006084457872094542 0.0 0.0
-0.0148688801431477 0.006371177449347645 0.0 -0.006081019331576527 0.0 0.0
-0.016520699409060684 0.007079114233313729 0.0 -0.006084632647610311 0.0 0.0
-0.018172588684761466 0.007787967472824073 0.0 -0.0060865465352004456 0.0 0.0
-0.019824265457329807 0.008498276142430981 0.0 -0.006079691836217181 0.0 0.0
-0.02147484313268106 0.009211441583453045 0.0 -0.006052446603760446 0.0 0.0
-0.0231245036303204 0.00993029170277 0.0 -0.005981970828015635 0.0 0.0
-0.02477003057007459 0.010659869873596317 0.0 -0.0058443397127980355 0.0 0.0
-0.026431787899473903 0.011378225260636482 0.0 -0.005650589965753069 0.0 0.0
-0.028285975321001758 0.012184787636330324 0.0 -0.005490621315027384 0.0 0.0
-0.02991010638110514 0.013063468778018204 0.0 -0.006928468721987684 0.0 0.0
-0.028532883616383675 0.01022756675450301 0.0 -0.01101629027669794 0.0 0.0
-0.026544675648801412 -0.002155494955958865 0.0 -2.957703526540456e-16 0.0 0.0
-0.028532883616383585 0.010227566754504234 0.0 0.011016290276697533 0.0 0.0
-0.029910106381105257 0.013063468778018337 0.0 0.00692846872198777 0.0 0.0
-0.02828597532100173 0.01218478763632818 0.0 0.005490621315027926 0.0 0.0
-0.02643178789947386 0.011378225260636737 0.0 0.005650589965753641 0.0 0.0
-0.024770030570074607 0.010659869873596295 0.0 0.0058443397127984275 0.0 0.0
-0.02312450363032038 0.009930291702771548 0.0 0.005981970828015605 0.0 0.0
-0.021474843132681103 0.009211441583452277 0.0 0.006052446603761174 0.0 0.0
-0.019824265457329748 0.008498276142431843 0.0 0.006079691836216877 0.0 0.0
-0.018172588684761477 0.007787967472821785 0.0 0.00608654653520113 0.0 0.0
-0.016520699409060816 0.007079114233314379 0.0 0.006084632647609979 0.0 0.0
-0.014868880143147668 0.0063711774493480375 0.0 0.006081019331576421 0.0 0.0
-0.013217152038018496 0.005665362665170054 0.0 0.0060844578720944805 0.0 0.0
-0.01156517904172358 0.0049654023930145045 0.0 0.0061154274958984366 0.0 0.0
-0.009910887842781772 0.00427782981816719 0.0 0.006217849363468133 0.0 0.0
-0.008245002979984586 0.0036057746446967777 0.0 0.006459758572818647 0.0 0.0
-0.006538799744827166 0.0029247079535626927 0.0 0.006877784790630318 0.0 0.0
-0.004729830393662329 0.0021319623169437753 0.0 0.0072811225248627775 0.0 0.0
-0.002761366843531657 0.001003648271698195 0.0 0.006926488153872979 0.0 0.0
-0.0009543857264165373 -0.0005112049539172362 0.0 0.00460752091928089 0.0 0.0
-0.00017538507797485147 -0.0006979924386943863 0.0 0.0023304574600463983 0.0 0.0
-0.00035360468706037234 -0.00024863140637763773 0.0 -0.0016820692744246336 0.0 0.0
-0.0011474239120939417 -0.00017783971093194315 0.0 -0.0035154478800702776 0.0 0.0
-0.0030698130167560785 0.001188459405357727 0.0 -0.005503710392157382 0.0 0.0
-0.0053166190992691145 0.0023480541312585427 0.0 -0.0058366787347623105 0.0 0.0
-0.00749283367046537 0.003295781325434076 0.0 -0.005493837190881701 0.0 0.0
-0.00955810317733906 0.004147330526830207 0.0 -0.00513120832738119 0.0 0.0
-0.011544694105215705 0.004969361765723551 0.0 -0.0049203178910978175 0.0 0.0
-0.013491548979168249 0.005788504161281651 0.0 -0.004831655412736394 0.0 0.0
-0.01542286273459138 0.0066104445757326465 0.0 -0.004805536657576888 0.0 0.0
-0.017349703545820022 0.007434741333350231 0.0 -0.004803193170490774 0.0 0.0
-0.01927608137604433 0.008260329261122464 0.0 -0.004806742967666515 0.0 0.0
-0.02120268866283542 0.009086693840867462 0.0 -0.004808690533583209 0.0 0.0
-0.023128461003954184 0.009913631786940094 0.0 -0.004803263654610842 0.0 0.0
-0.025049697901839495 0.010741636689597702 0.0 -0.004779333553172685 0.0 0.0
-0.026960489541992188 0.011567570258298123 0.0 -0.004720132605380031 0.0 0.0
-0.02885310796092152 0.012398550778816662 0.0 -0.004588060055381907 0.0 0.0
-0.030701302514225447 0.013204859764974774 0.0 -0.004417152961225568 0.0 0.0
-0.0327271907827906 0.013991801807465721 0.0 -0.004196626665097425 0.0 0.0
-0.035040597412548204 0.015403957479942734 0.0 -0.004975736202144551 0.0 0.0
-0.034134607815574106 0.01390385688826545 0.0 -0.01097221882969734 0.0 0.0
-0.03203350823665669 -0.0031664614880553945 0.0 9.246076126956382e-16 0.0 0.0
-0.03413460781557398 0.013903856888264711 0.0 0.010972218829697568 0.0 0.0
-0.035040597412548155 0.015403957479943293 0.0 0.004975736202144591 0.0 0.0
-0.032727190782790544 0.013991801807464056 0.0 0.004196626665097566 0.0 0.0
-0.030701302514225544 0.013204859764976406 0.0 0.004417152961226272 0.0 0.0
-0.028853107960921484 0.012398550778814547 0.0 0.004588060055382389 0.0 0.0
-0.026960489541992132 0.011567570258299024 0.0 0.0047201326053799356 0.0 0.0
-0.02504969790183954 0.010741636689598422 0.0 0.004779333553172992 0.0 0.0
-0.023128461003954215 0.009913631786940939 0.0 0.004803263654610147 0.0 0.0
-0.021202688662835378 0.009086693840866078 0.0 0.00480869053358381 0.0 0.0
-0.019276081376044217 0.008260329261121616 0.0 0.004806742967666311 0.0 0.0
-0.01734970354581997 0.007434741333351312 0.0 0.0048031931704910075 0.0 0.0
-0.015422862734591428 0.006610444575733434 0.0 0.004805536657576336 0.0 0.0
-0.013491548979168119 0.005788504161281523 0.0 0.004831655412736263 0.0 0.0
-0.011544694105215551 0.004969361765723435 0.0 0.004920317891097803 0.0 0.0
-0.009558103177339109 0.004147330526830214 0.0 0.005131208327381072 0.0 0.0
-0.007492833670465462 0.003295781325433896 0.0 0.005493837190882234 0.0 0.0
-0.005316619099269166 0.0023480541312587977 0.0 0.005836678734761836 0.0 0.0
-0.003069813016756052 0.0011884594053575893 0.0 0.0055037103921579105 0.0 0.0
-0.0011474239120938718 -0.000177839710931745 0.0 0.0035154478800699424 0.0 0.0
-0.00035360468706037093 -0.00024863140637780594 0.0 0.001682069274424639 0.0 0.0
-0.00045188288835731926 6.696844513822397e-06 0.0 -0.0010837633831815097 0.0 0.0
-0.0012671699366546194 9.475923059258774e-05 0.0 -0.002367550720598899 0.0 0.0
-0.0033311941125179255 0.0013411987642408772 0.0 -0.003843380857329575 0.0 0.0
-0.0058937932755706935 0.0025655406928054903 0.0 -0.0040906386201742025 0.0 0.0
-0.008458324185526743 0.003679718418722234 0.0 -0.0038392364993105046 0.0 0.0
-0.010883396888842939 0.004698373374142595 0.0 -0.003570972425085949 0.0 0.0
-0.013185727598648543 0.00566581148735584 0.0 -0.003414996344954531 0.0 0.0
-0.015421142779483771 0.0066135554236223595 0.0 -0.0033498518198908683 0.0 0.0
-0.0176296329474232 0.007556066688095348 0.0 -0.0033310509973594853 0.0 0.0
-0.019830715723262768 0.008498330037099783 0.0 -0.0033296831031229233 0.0 0.0
-0.022031449721491292 0.009441488394774909 0.0 -0.003332521108364147 0.0 0.0
-0.02423304985287 0.010385474634792268 0.0 -0.003334140407314615 0.0 0.0
-0.026433380867341115 0.011329677558291644 0.0 -0.003330277645474845 0.0 0.0
-0.028627180846125144 0.012272495094607452 0.0 -0.0033132495034268344 0.0 0.0
-0.030799696602643083 0.013211006801833292 0.0 -0.003267074953225306 0.0 0.0
-0.032940510947734605 0.014130410876624387 0.0 -0.003179063324386907 0.0 0.0
-0.03499055012004483 0.01506424518730989 0.0 -0.002988647135481176 0.0 0.0
-0.037023077175266705 0.01576248628710237 0.0 -0.0029978877875190997 0.0 0.0
-0.03994322143042829 0.01728574877665315 0.0 -0.0027806342450742063 0.0 0.0
-0.04002063815963233 0.01854317226914544 0.0 -0.009283754928462121 0.0 0.0
-0.03822311311039972 -0.004733168993034217 0.0 1.9992688060632702e-16 0.0 0.0
-0.040020638159632235 0.018543172269142382 0.0 0.009283754928461166 0.0 0.0
-0.03994322143042835 0.01728574877665296 0.0 0.0027806342450752606 0.0 0.0
-0.03702307717526666 0.01576248628710268 0.0 0.0029978877875185992 0.0 0.0
-0.03499055012004461 0.01506424518730939 0.0 0.00298864713548082 0.0 0.0
-0.03294051094773457 0.014130410876624033 0.0 0.0031790633243862203 0.0 0.0
-0.030799696602643156 0.013211006801832929 0.0 0.0032670749532258377 0.0 0.0
-0.02862718084612528 0.012272495094608602 0.0 0.003313249503426939 0.0 0.0
-0.026433380867341143 0.01132967755829123 0.0 0.003330277645474531 0.0 0.0
-0.024233049852870035 0.010385474634793007 0.0 0.003334140407315004 0.0 0.0
-0.02203144972149142 0.009441488394774716 0.0 0.003332521108364346 0.0 0.0
-0.01983071572326285 0.008498330037100918 0.0 0.0033296831031233492 0.0 0.0
-0.01762963294742324 0.007556066688096039 0.0 0.003331050997359662 0.0 0.0
-0.015421142779483718 0.006613555423621943 0.0 0.003349851819890952 0.0 0.0
-0.013185727598648505 0.005665811487356204 0.0 0.0034149963449548555 0.0 0.0
-0.010883396888842836 0.0046983733741424215 0.0 0.0035709724250857057 0.0 0.0
-0.008458324185526778 0.003679718418722019 0.0 0.0038392364993106035 0.0 0.0
-0.005893793275570756 0.002565540692805523 0.0 0.004090638620174315 0.0 0.0
-0.003331194112517914 0.0013411987642405424 0.0 0.0038433808573295836 0.0 0.0
-0.001267169936654629 9.475923059248256e-05 0.0 0.0023675507205985855 0.0 0.0
-0.0004518828883572467 6.696844513733946e-06 0.0 0.0010837633831811183 0.0 0.0
-0.00043342633083048507 6.714900629810412e-05 0.0 -0.0006383269509337342 0.0 0.0
-0.0012691092008784775 0.00026570328214022893 0.0 -0.001188733487174865 0.0 0.0
-0.003516971993043961 0.0014344497347153647 0.0 -0.0018785773689650206 0.0 0.0
-0.006465921650300752 0.0027929873551507376 0.0 -0.0020212525188278833 0.0 0.0
-0.009447096688968716 0.004085525689509585 0.0 -0.001913585972217345 0.0 0.0
-0.012228092776524039 0.005264403877671593 0.0 -0.0017841597533546597 0.0 0.0
-0.014837092844835875 0.006369362760942796 0.0 -0.001705902477452074 0.0 0.0
-0.017354766413712426 0.007441063075866151 0.0 -0.0016720789790789566 0.0 0.0
-0.01983744047687312 0.008502171022834425 0.0 -0.0016618029472314983 0.0 0.0
-0.02231171358392858 0.00956178657847845 0.0 -0.0016606948999514277 0.0 0.0
-0.02478665397221491 0.01062245615458914 0.0 -0.0016619239860700896 0.0 0.0
-0.0272635044656426 0.011684283122807887 0.0 -0.0016626022394763446 0.0 0.0
-0.02973953461221867 0.012746283241054954 0.0 -0.0016603726961600643 0.0 0.0
-0.032206677844830583 0.013805680807377946 0.0 -0.0016516417801340161 0.0 0.0
-0.03464910696251837 0.014856575743718705 0.0 -0.0016274704167116992 0.0 0.0
-0.03702481274507346 0.015884285183367767 0.0 -0.0015838052029443122 0.0 0.0
-0.0393329864797255 0.0168664236786852 0.0 -0.0015032500281377623 0.0 0.0
-0.041256269372767766 0.017836956755988877 0.0 -0.0013974464022617952 0.0 0.0
-0.04424090785127804 0.018067710398765636 0.0 -0.002203982721869926 0.0 0.0
-0.046137421210434126 0.024272463052433114 0.0 -0.0031456224120499877 0.0 0.0
-0.045827568434000855 -0.0063162436836867765 0.0 -2.419939248987646e-16 0.0 0.0
-0.04613742121043393 0.024272463052430544 0.0 0.0031456224120491377 0.0 0.0
-0.044240907851277884 0.018067710398766184 0.0 0.0022039827218706017 0.0 0.0
-0.04125626937276795 0.017836956755990913 0.0 0.0013974464022615024 0.0 0.0
-0.03933298647972557 0.01686642367868427 0.0 0.001503250028137618 0.0 0.0
-0.03702481274507323 0.015884285183368332 0.0 0.0015838052029438433 0.0 0.0
-0.03464910696251824 0.01485657574371833 0.0 0.0016274704167116832 0.0 0.0
-0.03220667784483058 0.013805680807378857 0.0 0.0016516417801331852 0.0 0.0
-0.029739534612218614 0.012746283241055619 0.0 0.0016603726961599767 0.0 0.0
-0.027263504465642654 0.011684283122807037 0.0 0.0016626022394764968 0.0 0.0
-0.02478665397221486 0.010622456154589933 0.0 0.0016619239860700017 0.0 0.0
-0.022311713583928458 0.009561786578477845 0.0 0.001660694899951391 0.0 0.0
-0.019837440476873094 0.008502171022834765 0.0 0.001661802947231505 0.0 0.0
-0.01735476641371242 0.007441063075865898 0.0 0.0016720789790786797 0.0 0.0
-0.014837092844835914 0.006369362760943386 0.0 0.0017059024774517565 0.0 0.0
-0.012228092776524105 0.005264403877672386 0.0 0.0017841597533543667 0.0 0.0
-0.00944709668896875 0.004085525689508888 0.0 0.0019135859722171954 0.0 0.0
-0.00646592165030086 0.0027929873551509315 0.0 0.002021252518827928 0.0 0.0
-0.003516971993044058 0.001434449734715535 0.0 0.0018785773689650163 0.0 0.0
-0.0012691092008784478 0.0002657032821399839 0.0 0.0011887334871744984 0.0 0.0
-0.0004334263308303712 6.714900629817768e-05 0.0 0.0006383269509331216 0.0 0.0
-0.00023169180748398074 4.922953744738347e-05 0.0 -0.00042775531446354823 0.0 0.0
-0.0010780225150957639 0.00031909366858623683 0.0 -0.0005024132267711428 0.0 0.0
-0.003591594534166553 0.001462499338077416 0.0 -0.0006393942668799773 0.0 0.0
-0.007047854809806344 0.002910883255572415 0.0 -0.0007129017435819936 0.0 0.0
-0.01047291637508778 0.004295042396537681 0.0 -0.0007074718684003594 0.0 0.0
-0.013599646584464806 0.005551873969222276 0.0 -0.0006745506842713147 0.0 0.0
-0.016501445522863895 0.0067231616513528675 0.0 -0.0006493931119128389 0.0 0.0
-0.019292876478319 0.00785548022496094 0.0 -0.0006364137472060023 0.0 0.0
-0.022046081304228932 0.008975328027389203 0.0 -0.0006314424668891268 0.0 0.0
-0.024792428109578657 0.010093461171222748 0.0 -0.0006301914626919963 0.0 0.0
-0.027541475494082243 0.011212865579508846 0.0 -0.0006301453702310467 0.0 0.0
-0.030293985268147722 0.012333720480957534 0.0 -0.0006300450684626055 0.0 0.0
-0.0330466666626211 0.013454585678271819 0.0 -0.0006287598310928226 0.0 0.0
-0.03579025670965242 0.014573491855956097 0.0 -0.0006252997806878362 0.0 0.0
-0.03850399312648703 0.015677890181292634 0.0 -0.0006169666126005151 0.0 0.0
-0.041141566116068465 0.016775010459037426 0.0 -0.0006008443732169284 0.0 0.0
-0.04362359756325769 0.01772937105755379 0.0 -0.0006172298270512213 0.0 0.0
-0.04586750455345777 0.01901911059492362 0.0 -0.0004199619463275024 0.0 0.0
-0.04720445610610903 0.018078632106714936 0.0 -0.0020620753413004445 0.0 0.0
-0.05202753819907187 0.027407683628723183 0.0 -9.283571634268253e-06 0.0 0.0
-0.05656721350203325 -0.0069936930808574774 0.0 -6.522560269672795e-16 0.0 0.0
-0.052027538199071834 0.027407683628722278 0.0 9.283571633077366e-06 0.0 0.0
-0.047204456106108746 0.01807863210671544 0.0 0.0020620753413013396 0.0 0.0
-0.04586750455345775 0.019019110594927984 0.0 0.00041996194632781814 0.0 0.0
-0.04362359756325769 0.01772937105755405 0.0 0.0006172298270513757 0.0 0.0
-0.04114156611606829 0.01677501045903817 0.0 0.0006008443732178426 0.0 0.0
-0.038503993126487016 0.01567789018129275 0.0 0.0006169666126012953 0.0 0.0
-0.035790256709652496 0.01457349185595721 0.0 0.0006252997806878973 0.0 0.0
-0.03304666666262111 0.01345458567827456 0.0 0.0006287598310926977 0.0 0.0
-0.030293985268147753 0.012333720480955584 0.0 0.0006300450684623756 0.0 0.0
-0.0275414754940822 0.011212865579508895 0.0 0.0006301453702311798 0.0 0.0
-0.024792428109578546 0.010093461171221698 0.0 0.000630191462691897 0.0 0.0
-0.022046081304228814 0.008975328027388658 0.0 0.000631442466888594 0.0 0.0
-0.019292876478319076 0.007855480224961891 0.0 0.0006364137472060737 0.0 0.0
-0.016501445522864082 0.00672316165135339 0.0 0.0006493931119121595 0.0 0.0
-0.013599646584464775 0.0055518739692242206 0.0 0.0006745506842710392 0.0 0.0
-0.010472916375087718 0.004295042396536321 0.0 0.0007074718684005137 0.0 0.0
-0.007047854809806317 0.0029108832555726303 0.0 0.000712901743581547 0.0 0.0
-0.0035915945341666914 0.0014624993380780566 0.0 0.0006393942668802739 0.0 0.0
-0.0010780225150958391 0.0003190936685861467 0.0 0.0005024132267706798 0.0 0.0
-0.00023169180748381605 4.9229537447530245e-05 0.0 0.000427755314462861 0.0 0.0