# vtk DataFile Version 3.0
Some data
ASCII
DATASET UNSTRUCTURED_GRID
POINTS 861 float
0.0 0.0 0.0
0.4 0.0 0.0
0.8 0.0 0.0
1.2000000000000002 0.0 0.0
1.6 0.0 0.0
2.0 0.0 0.0
2.4000000000000004 0.0 0.0
2.8000000000000003 0.0 0.0
3.2 0.0 0.0
3.6 0.0 0.0
4.0 0.0 0.0
4.4 0.0 0.0
4.800000000000001 0.0 0.0
5.2 0.0 0.0
5.6000000000000005 0.0 0.0
6.0 0.0 0.0
6.4 0.0 0.0
6.800000000000001 0.0 0.0
7.2 0.0 0.0
7.6000000000000005 0.0 0.0
8.0 0.0 0.0
8.4 0.0 0.0
8.8 0.0 0.0
9.200000000000001 0.0 0.0
9.600000000000001 0.0 0.0
10.0 0.0 0.0
10.4 0.0 0.0
10.8 0.0 0.0
11.200000000000001 0.0 0.0
11.600000000000001 0.0 0.0
12.0 0.0 0.0
12.4 0.0 0.0
12.8 0.0 0.0
13.200000000000001 0.0 0.0
13.600000000000001 0.0 0.0
14.0 0.0 0.0
14.4 0.0 0.0
14.8 0.0 0.0
15.200000000000001 0.0 0.0
15.600000000000001 0.0 0.0
16.0 0.0 0.0
0.0 0.1 0.0
0.4 0.1 0.0
0.8 0.1 0.0
1.2000000000000002 0.1 0.0
1.6 0.1 0.0
2.0 0.1 0.0
2.4000000000000004 0.1 0.0
2.8000000000000003 0.1 0.0
3.2 0.1 0.0
3.6 0.1 0.0
4.0 0.1 0.0
4.4 0.1 0.0
4.800000000000001 0.1 0.0
5.2 0.1 0.0
5.6000000000000005 0.1 0.0
6.0 0.1 0.0
6.4 0.1 0.0
6.800000000000001 0.1 0.0
7.2 0.1 0.0
7.6000000000000005 0.1 0.0
8.0 0.1 0.0
8.4 0.1 0.0
8.8 0.1 0.0
9.200000000000001 0.1 0.0
9.600000000000001 0.1 0.0
10.0 0.1 0.0
10.4 0.1 0.0
10.8 0.1 0.0
11.200000000000001 0.1 0.0
11.600000000000001 0.1 0.0
12.0 0.1 0.0
12.4 0.1 0.0
12.8 0.1 0.0
13.200000000000001 0.1 0.0
13.600000000000001 0.1 0.0
14.0 0.1 0.0
14.4 0.1 0.0
14.8 0.1 0.0
15.200000000000001 0.1 0.0
15.600000000000001 0.1 0.0
16.0 0.1 0.0
0.0 0.2 0.0
0.4 0.2 0.0
0.8 0.2 0.0
1.2000000000000002 0.2 0.0
1.6 0.2 0.0
2.0 0.2 0.0
2.4000000000000004 0.2 0.0
2.8000000000000003 0.2 0.0
3.2 0.2 0.0
3.6 0.2 0.0
4.0 0.2 0.0
4.4 0.2 0.0
4.800000000000001 0.2 0.0
5.2 0.2 0.0
5.6000000000000005 0.2 0.0
6.0 0.2 0.0
6.4 0.2 0.0
6.800000000000001 0.2 0.0
7.2 0.2 0.0
7.6000000000000005 0.2 0.0
8.0 0.2 0.0
8.4 0.2 0.0
8.8 0.2 0.0
9.200000000000001 0.2 0.0
9.600000000000001 0.2 0.0
10.0 0.2 0.0
10.4 0.2 0.0
10.8 0.2 0.0
11.200000000000001 0.2 0.0
11.600000000000001 0.2 0.0
12.0 0.2 0.0
12.4 0.2 0.0
12.8 0.2 0.0
13.200000000000001 0.2 0.0
13.600000000000001 0.2 0.0
14.0 0.2 0.0
14.4 0.2 0.0
14.8 0.2 0.0
15.200000000000001 0.2 0.0
15.600000000000001 0.2 0.0
16.0 0.2 0.0
0.0 0.30000000000000004 0.0
0.4 0.30000000000000004 0.0
0.8 0.30000000000000004 0.0
1.2000000000000002 0.30000000000000004 0.0
1.6 0.30000000000000004 0.0
2.0 0.30000000000000004 0.0
2.4000000000000004 0.30000000000000004 0.0
2.8000000000000003 0.30000000000000004 0.0
3.2 0.30000000000000004 0.0
3.6 0.30000000000000004 0.0
4.0 0.30000000000000004 0.0
4.4 0.30000000000000004 0.0
4.800000000000001 0.30000000000000004 0.0
5.2 0.30000000000000004 0.0
5.6000000000000005 0.30000000000000004 0.0
6.0 0.30000000000000004 0.0
6.4 0.30000000000000004 0.0
6.800000000000001 0.30000000000000004 0.0
7.2 0.30000000000000004 0.0
7.6000000000000005 0.30000000000000004 0.0
8.0 0.30000000000000004 0.0
8.4 0.30000000000000004 0.0
8.8 0.30000000000000004 0.0
9.200000000000001 0.30000000000000004 0.0
9.600000000000001 0.30000000000000004 0.0
10.0 0.30000000000000004 0.0
10.4 0.30000000000000004 0.0
10.8 0.30000000000000004 0.0
11.200000000000001 0.30000000000000004 0.0
11.600000000000001 0.30000000000000004 0.0
12.0 0.30000000000000004 0.0
12.4 0.30000000000000004 0.0
12.8 0.30000000000000004 0.0
13.200000000000001 0.30000000000000004 0.0
13.600000000000001 0.30000000000000004 0.0
14.0 0.30000000000000004 0.0
14.4 0.30000000000000004 0.0
14.8 0.30000000000000004 0.0
15.200000000000001 0.30000000000000004 0.0
15.600000000000001 0.30000000000000004 0.0
16.0 0.30000000000000004 0.0
0.0 0.4 0.0
0.4 0.4 0.0
0.8 0.4 0.0
1.2000000000000002 0.4 0.0
1.6 0.4 0.0
2.0 0.4 0.0
2.4000000000000004 0.4 0.0
2.8000000000000003 0.4 0.0
3.2 0.4 0.0
3.6 0.4 0.0
4.0 0.4 0.0
4.4 0.4 0.0
4.800000000000001 0.4 0.0
5.2 0.4 0.0
5.6000000000000005 0.4 0.0
6.0 0.4 0.0
6.4 0.4 0.0
6.800000000000001 0.4 0.0
7.2 0.4 0.0
7.6000000000000005 0.4 0.0
8.0 0.4 0.0
8.4 0.4 0.0
8.8 0.4 0.0
9.200000000000001 0.4 0.0
9.600000000000001 0.4 0.0
10.0 0.4 0.0
10.4 0.4 0.0
10.8 0.4 0.0
11.200000000000001 0.4 0.0
11.600000000000001 0.4 0.0
12.0 0.4 0.0
12.4 0.4 0.0
12.8 0.4 0.0
13.200000000000001 0.4 0.0
13.600000000000001 0.4 0.0
14.0 0.4 0.0
14.4 0.4 0.0
14.8 0.4 0.0
15.200000000000001 0.4 0.0
15.600000000000001 0.4 0.0
16.0 0.4 0.0
0.0 0.5 0.0
0.4 0.5 0.0
0.8 0.5 0.0
1.2000000000000002 0.5 0.0
1.6 0.5 0.0
2.0 0.5 0.0
2.4000000000000004 0.5 0.0
2.8000000000000003 0.5 0.0
3.2 0.5 0.0
3.6 0.5 0.0
4.0 0.5 0.0
4.4 0.5 0.0
4.800000000000001 0.5 0.0
5.2 0.5 0.0
5.6000000000000005 0.5 0.0
6.0 0.5 0.0
6.4 0.5 0.0
6.800000000000001 0.5 0.0
7.2 0.5 0.0
7.6000000000000005 0.5 0.0
8.0 0.5 0.0
8.4 0.5 0.0
8.8 0.5 0.0
9.200000000000001 0.5 0.0
9.600000000000001 0.5 0.0
10.0 0.5 0.0
10.4 0.5 0.0
10.8 0.5 0.0
11.200000000000001 0.5 0.0
11.600000000000001 0.5 0.0
12.0 0.5 0.0
12.4 0.5 0.0
12.8 0.5 0.0
13.200000000000001 0.5 0.0
13.600000000000001 0.5 0.0
14.0 0.5 0.0
14.4 0.5 0.0
14.8 0.5 0.0
15.200000000000001 0.5 0.0
15.600000000000001 0.5 0.0
16.0 0.5 0.0
0.0 0.6000000000000001 0.0
0.4 0.6000000000000001 0.0
0.8 0.6000000000000001 0.0
1.2000000000000002 0.6000000000000001 0.0
1.6 0.6000000000000001 0.0
2.0 0.6000000000000001 0.0
2.4000000000000004 0.6000000000000001 0.0
2.8000000000000003 0.6000000000000001 0.0
3.2 0.6000000000000001 0.0
3.6 0.6000000000000001 0.0
4.0 0.6000000000000001 0.0
4.4 0.6000000000000001 0.0
4.800000000000001 0.6000000000000001 0.0
5.2 0.6000000000000001 0.0
5.6000000000000005 0.6000000000000001 0.0
6.0 0.6000000000000001 0.0
6.4 0.6000000000000001 0.0
6.800000000000001 0.6000000000000001 0.0
7.2 0.6000000000000001 0.0
7.6000000000000005 0.6000000000000001 0.0
8.0 0.6000000000000001 0.0
8.4 0.6000000000000001 0.0
8.8 0.6000000000000001 0.0
9.200000000000001 0.6000000000000001 0.0
9.600000000000001 0.6000000000000001 0.0
10.0 0.6000000000000001 0.0
10.4 0.6000000000000001 0.0
10.8 0.6000000000000001 0.0
11.200000000000001 0.6000000000000001 0.0
11.600000000000001 0.6000000000000001 0.0
12.0 0.6000000000000001 0.0
12.4 0.6000000000000001 0.0
12.8 0.6000000000000001 0.0
13.200000000000001 0.6000000000000001 0.0
13.600000000000001 0.6000000000000001 0.0
14.0 0.6000000000000001 0.0
14.4 0.6000000000000001 0.0
14.8 0.6000000000000001 0.0
15.200000000000001 0.6000000000000001 0.0
15.600000000000001 0.6000000000000001 0.0
16.0 0.6000000000000001 0.0
0.0 0.7000000000000001 0.0
0.4 0.7000000000000001 0.0
0.8 0.7000000000000001 0.0
1.2000000000000002 0.7000000000000001 0.0
1.6 0.7000000000000001 0.0
2.0 0.7000000000000001 0.0
2.4000000000000004 0.7000000000000001 0.0
2.8000000000000003 0.7000000000000001 0.0
3.2 0.7000000000000001 0.0
3.6 0.7000000000000001 0.0
4.0 0.7000000000000001 0.0
4.4 0.7000000000000001 0.0
4.800000000000001 0.7000000000000001 0.0
5.2 0.7000000000000001 0.0
5.6000000000000005 0.7000000000000001 0.0
6.0 0.7000000000000001 0.0
6.4 0.7000000000000001 0.0
6.800000000000001 0.7000000000000001 0.0
7.2 0.7000000000000001 0.0
7.6000000000000005 0.7000000000000001 0.0
8.0 0.7000000000000001 0.0
8.4 0.7000000000000001 0.0
8.8 0.7000000000000001 0.0
9.200000000000001 0.7000000000000001 0.0
9.600000000000001 0.7000000000000001 0.0
10.0 0.7000000000000001 0.0
10.4 0.7000000000000001 0.0
10.8 0.7000000000000001 0.0
11.200000000000001 0.7000000000000001 0.0
11.600000000000001 0.7000000000000001 0.0
12.0 0.7000000000000001 0.0
12.4 0.7000000000000001 0.0
12.8 0.7000000000000001 0.0
13.200000000000001 0.7000000000000001 0.0
13.600000000000001 0.7000000000000001 0.0
14.0 0.7000000000000001 0.0
14.4 0.7000000000000001 0.0
14.8 0.7000000000000001 0.0
15.200000000000001 0.7000000000000001 0.0
15.600000000000001 0.7000000000000001 0.0
16.0 0.7000000000000001 0.0
0.0 0.8 0.0
0.4 0.8 0.0
0.8 0.8 0.0
1.2000000000000002 0.8 0.0
1.6 0.8 0.0
2.0 0.8 0.0
2.4000000000000004 0.8 0.0
2.8000000000000003 0.8 0.0
3.2 0.8 0.0
3.6 0.8 0.0
4.0 0.8 0.0
4.4 0.8 0.0
4.800000000000001 0.8 0.0
5.2 0.8 0.0
5.6000000000000005 0.8 0.0
6.0 0.8 0.0
6.4 0.8 0.0
6.800000000000001 0.8 0.0
7.2 0.8 0.0
7.6000000000000005 0.8 0.0
8.0 0.8 0.0
8.4 0.8 0.0
8.8 0.8 0.0
9.200000000000001 0.8 0.0
9.600000000000001 0.8 0.0
10.0 0.8 0.0
10.4 0.8 0.0
10.8 0.8 0.0
11.200000000000001 0.8 0.0
11.600000000000001 0.8 0.0
12.0 0.8 0.0
12.4 0.8 0.0
12.8 0.8 0.0
13.200000000000001 0.8 0.0
13.600000000000001 0.8 0.0
14.0 0.8 0.0
14.4 0.8 0.0
14.8 0.8 0.0
15.200000000000001 0.8 0.0
15.600000000000001 0.8 0.0
16.0 0.8 0.0
0.0 0.9 0.0
0.4 0.9 0.0
0.8 0.9 0.0
1.2000000000000002 0.9 0.0
1.6 0.9 0.0
2.0 0.9 0.0
2.4000000000000004 0.9 0.0
2.8000000000000003 0.9 0.0
3.2 0.9 0.0
3.6 0.9 0.0
4.0 0.9 0.0
4.4 0.9 0.0
4.800000000000001 0.9 0.0
5.2 0.9 0.0
5.6000000000000005 0.9 0.0
6.0 0.9 0.0
6.4 0.9 0.0
6.800000000000001 0.9 0.0
7.2 0.9 0.0
7.6000000000000005 0.9 0.0
8.0 0.9 0.0
8.4 0.9 0.0
8.8 0.9 0.0
9.200000000000001 0.9 0.0
9.600000000000001 0.9 0.0
10.0 0.9 0.0
10.4 0.9 0.0
10.8 0.9 0.0
11.200000000000001 0.9 0.0
11.600000000000001 0.9 0.0
12.0 0.9 0.0
12.4 0.9 0.0
12.8 0.9 0.0
13.200000000000001 0.9 0.0
13.600000000000001 0.9 0.0
14.0 0.9 0.0
14.4 0.9 0.0
14.8 0.9 0.0
15.200000000000001 0.9 0.0
15.600000000000001 0.9 0.0
16.0 0.9 0.0
0.0 1.0 0.0
0.4 1.0 0.0
0.8 1.0 0.0
1.2000000000000002 1.0 0.0
1.6 1.0 0.0
2.0 1.0 0.0
2.4000000000000004 1.0 0.0
2.8000000000000003 1.0 0.0
3.2 1.0 0.0
3.6 1.0 0.0
4.0 1.0 0.0
4.4 1.0 0.0
4.800000000000001 1.0 0.0
5.2 1.0 0.0
5.6000000000000005 1.0 0.0
6.0 1.0 0.0
6.4 1.0 0.0
6.800000000000001 1.0 0.0
7.2 1.0 0.0
7.6000000000000005 1.0 0.0
8.0 1.0 0.0
8.4 1.0 0.0
8.8 1.0 0.0
9.200000000000001 1.0 0.0
9.600000000000001 1.0 0.0
10.0 1.0 0.0
10.4 1.0 0.0
10.8 1.0 0.0
11.200000000000001 1.0 0.0
11.600000000000001 1.0 0.0
12.0 1.0 0.0
12.4 1.0 0.0
12.8 1.0 0.0
13.200000000000001 1.0 0.0
13.600000000000001 1.0 0.0
14.0 1.0 0.0
14.4 1.0 0.0
14.8 1.0 0.0
15.200000000000001 1.0 0.0
15.600000000000001 1.0 0.0
16.0 1.0 0.0
0.0 1.1 0.0
0.4 1.1 0.0
0.8 1.1 0.0
1.2000000000000002 1.1 0.0
1.6 1.1 0.0
2.0 1.1 0.0
2.4000000000000004 1.1 0.0
2.8000000000000003 1.1 0.0
3.2 1.1 0.0
3.6 1.1 0.0
4.0 1.1 0.0
4.4 1.1 0.0
4.800000000000001 1.1 0.0
5.2 1.1 0.0
5.6000000000000005 1.1 0.0
6.0 1.1 0.0
6.4 1.1 0.0
6.800000000000001 1.1 0.0
7.2 1.1 0.0
7.6000000000000005 1.1 0.0
8.0 1.1 0.0
8.4 1.1 0.0
8.8 1.1 0.0
9.200000000000001 1.1 0.0
9.600000000000001 1.1 0.0
10.0 1.1 0.0
10.4 1.1 0.0
10.8 1.1 0.0
11.200000000000001 1.1 0.0
11.600000000000001 1.1 0.0
12.0 1.1 0.0
12.4 1.1 0.0
12.8 1.1 0.0
13.200000000000001 1.1 0.0
13.600000000000001 1.1 0.0
14.0 1.1 0.0
14.4 1.1 0.0
14.8 1.1 0.0
15.200000000000001 1.1 0.0
15.600000000000001 1.1 0.0
16.0 1.1 0.0
0.0 1.2000000000000002 0.0
0.4 1.2000000000000002 0.0
0.8 1.2000000000000002 0.0
1.2000000000000002 1.2000000000000002 0.0
1.6 1.2000000000000002 0.0
2.0 1.2000000000000002 0.0
2.4000000000000004 1.2000000000000002 0.0
2.8000000000000003 1.2000000000000002 0.0
3.2 1.2000000000000002 0.0
3.6 1.2000000000000002 0.0
4.0 1.2000000000000002 0.0
4.4 1.2000000000000002 0.0
4.800000000000001 1.2000000000000002 0.0
5.2 1.2000000000000002 0.0
5.6000000000000005 1.2000000000000002 0.0
6.0 1.2000000000000002 0.0
6.4 1.2000000000000002 0.0
6.800000000000001 1.2000000000000002 0.0
7.2 1.2000000000000002 0.0
7.6000000000000005 1.2000000000000002 0.0
8.0 1.2000000000000002 0.0
8.4 1.2000000000000002 0.0
8.8 1.2000000000000002 0.0
9.200000000000001 1.2000000000000002 0.0
9.600000000000001 1.2000000000000002 0.0
10.0 1.2000000000000002 0.0
10.4 1.2000000000000002 0.0
10.8 1.2000000000000002 0.0
11.200000000000001 1.2000000000000002 0.0
11.600000000000001 1.2000000000000002 0.0
12.0 1.2000000000000002 0.0
12.4 1.2000000000000002 0.0
12.8 1.2000000000000002 0.0
13.200000000000001 1.2000000000000002 0.0
13.600000000000001 1.2000000000000002 0.0
14.0 1.2000000000000002 0.0
14.4 1.2000000000000002 0.0
14.8 1.2000000000000002 0.0
15.200000000000001 1.2000000000000002 0.0
15.600000000000001 1.2000000000000002 0.0
16.0 1.2000000000000002 0.0
0.0 1.3 0.0
0.4 1.3 0.0
0.8 1.3 0.0
1.2000000000000002 1.3 0.0
1.6 1.3 0.0
2.0 1.3 0.0
2.4000000000000004 1.3 0.0
2.8000000000000003 1.3 0.0
3.2 1.3 0.0
3.6 1.3 0.0
4.0 1.3 0.0
4.4 1.3 0.0
4.800000000000001 1.3 0.0
5.2 1.3 0.0
5.6000000000000005 1.3 0.0
6.0 1.3 0.0
6.4 1.3 0.0
6.800000000000001 1.3 0.0
7.2 1.3 0.0
7.6000000000000005 1.3 0.0
8.0 1.3 0.0
8.4 1.3 0.0
8.8 1.3 0.0
9.200000000000001 1.3 0.0
9.600000000000001 1.3 0.0
10.0 1.3 0.0
10.4 1.3 0.0
10.8 1.3 0.0
11.200000000000001 1.3 0.0
11.600000000000001 1.3 0.0
12.0 1.3 0.0
12.4 1.3 0.0
12.8 1.3 0.0
13.200000000000001 1.3 0.0
13.600000000000001 1.3 0.0
14.0 1.3 0.0
14.4 1.3 0.0
14.8 1.3 0.0
15.200000000000001 1.3 0.0
15.600000000000001 1.3 0.0
16.0 1.3 0.0
0.0 1.4000000000000001 0.0
0.4 1.4000000000000001 0.0
0.8 1.4000000000000001 0.0
1.2000000000000002 1.4000000000000001 0.0
1.6 1.4000000000000001 0.0
2.0 1.4000000000000001 0.0
2.4000000000000004 1.4000000000000001 0.0
2.8000000000000003 1.4000000000000001 0.0
3.2 1.4000000000000001 0.0
3.6 1.4000000000000001 0.0
4.0 1.4000000000000001 0.0
4.4 1.4000000000000001 0.0
4.800000000000001 1.4000000000000001 0.0
5.2 1.4000000000000001 0.0
5.6000000000000005 1.4000000000000001 0.0
6.0 1.4000000000000001 0.0
6.4 1.4000000000000001 0.0
6.800000000000001 1.4000000000000001 0.0
7.2 1.4000000000000001 0.0
7.6000000000000005 1.4000000000000001 0.0
8.0 1.4000000000000001 0.0
8.4 1.4000000000000001 0.0
8.8 1.4000000000000001 0.0
9.200000000000001 1.4000000000000001 0.0
9.600000000000001 1.4000000000000001 0.0
10.0 1.4000000000000001 0.0
10.4 1.4000000000000001 0.0
10.8 1.4000000000000001 0.0
11.200000000000001 1.4000000000000001 0.0
11.600000000000001 1.4000000000000001 0.0
12.0 1.4000000000000001 0.0
12.4 1.4000000000000001 0.0
12.8 1.4000000000000001 0.0
13.200000000000001 1.4000000000000001 0.0
13.600000000000001 1.4000000000000001 0.0
14.0 1.4000000000000001 0.0
14.4 1.4000000000000001 0.0
14.8 1.4000000000000001 0.0
15.200000000000001 1.4000000000000001 0.0
15.600000000000001 1.4000000000000001 0.0
16.0 1.4000000000000001 0.0
0.0 1.5 0.0
0.4 1.5 0.0
0.8 1.5 0.0
1.2000000000000002 1.5 0.0
1.6 1.5 0.0
2.0 1.5 0.0
2.4000000000000004 1.5 0.0
2.8000000000000003 1.5 0.0
3.2 1.5 0.0
3.6 1.5 0.0
4.0 1.5 0.0
4.4 1.5 0.0
4.800000000000001 1.5 0.0
5.2 1.5 0.0
5.6000000000000005 1.5 0.0
6.0 1.5 0.0
6.4 1.5 0.0
6.800000000000001 1.5 0.0
7.2 1.5 0.0
7.6000000000000005 1.5 0.0
8.0 1.5 0.0
8.4 1.5 0.0
8.8 1.5 0.0
9.200000000000001 1.5 0.0
9.600000000000001 1.5 0.0
10.0 1.5 0.0
10.4 1.5 0.0
10.8 1.5 0.0
11.200000000000001 1.5 0.0
11.600000000000001 1.5 0.0
12.0 1.5 0.0
12.4 1.5 0.0
12.8 1.5 0.0
13.200000000000001 1.5 0.0
13.600000000000001 1.5 0.0
14.0 1.5 0.0
14.4 1.5 0.0
14.8 1.5 0.0
15.200000000000001 1.5 0.0
15.600000000000001 1.5 0.0
16.0 1.5 0.0
0.0 1.6 0.0
0.4 1.6 0.0
0.8 1.6 0.0
1.2000000000000002 1.6 0.0
1.6 1.6 0.0
2.0 1.6 0.0
2.4000000000000004 1.6 0.0
2.8000000000000003 1.6 0.0
3.2 1.6 0.0
3.6 1.6 0.0
4.0 1.6 0.0
4.4 1.6 0.0
4.800000000000001 1.6 0.0
5.2 1.6 0.0
5.6000000000000005 1.6 0.0
6.0 1.6 0.0
6.4 1.6 0.0
6.800000000000001 1.6 0.0
7.2 1.6 0.0
7.6000000000000005 1.6 0.0
8.0 1.6 0.0
8.4 1.6 0.0
8.8 1.6 0.0
9.200000000000001 1.6 0.0
9.600000000000001 1.6 0.0
10.0 1.6 0.0
10.4 1.6 0.0
10.8 1.6 0.0
11.200000000000001 1.6 0.0
11.600000000000001 1.6 0.0
12.0 1.6 0.0
12.4 1.6 0.0
12.8 1.6 0.0
13.200000000000001 1.6 0.0
13.600000000000001 1.6 0.0
14.0 1.6 0.0
14.4 1.6 0.0
14.8 1.6 0.0
15.200000000000001 1.6 0.0
15.600000000000001 1.6 0.0
16.0 1.6 0.0
0.0 1.7000000000000002 0.0
0.4 1.7000000000000002 0.0
0.8 1.7000000000000002 0.0
1.2000000000000002 1.7000000000000002 0.0
1.6 1.7000000000000002 0.0
2.0 1.7000000000000002 0.0
2.4000000000000004 1.7000000000000002 0.0
2.8000000000000003 1.7000000000000002 0.0
3.2 1.7000000000000002 0.0
3.6 1.7000000000000002 0.0
4.0 1.7000000000000002 0.0
4.4 1.7000000000000002 0.0
4.800000000000001 1.7000000000000002 0.0
5.2 1.7000000000000002 0.0
5.6000000000000005 1.7000000000000002 0.0
6.0 1.7000000000000002 0.0
6.4 1.7000000000000002 0.0
6.800000000000001 1.7000000000000002 0.0
7.2 1.7000000000000002 0.0
7.6000000000000005 1.7000000000000002 0.0
8.0 1.7000000000000002 0.0
8.4 1.7000000000000002 0.0
8.8 1.7000000000000002 0.0
9.200000000000001 1.7000000000000002 0.0
9.600000000000001 1.7000000000000002 0.0
10.0 1.7000000000000002 0.0
10.4 1.7000000000000002 0.0
10.8 1.7000000000000002 0.0
11.200000000000001 1.7000000000000002 0.0
11.600000000000001 1.7000000000000002 0.0
12.0 1.7000000000000002 0.0
12.4 1.7000000000000002 0.0
12.8 1.7000000000000002 0.0
13.200000000000001 1.7000000000000002 0.0
13.600000000000001 1.7000000000000002 0.0
14.0 1.7000000000000002 0.0
14.4 1.7000000000000002 0.0
14.8 1.7000000000000002 0.0
15.200000000000001 1.7000000000000002 0.0
15.600000000000001 1.7000000000000002 0.0
16.0 1.7000000000000002 0.0
0.0 1.8 0.0
0.4 1.8 0.0
0.8 1.8 0.0
1.2000000000000002 1.8 0.0
1.6 1.8 0.0
2.0 1.8 0.0
2.4000000000000004 1.8 0.0
2.8000000000000003 1.8 0.0
3.2 1.8 0.0
3.6 1.8 0.0
4.0 1.8 0.0
4.4 1.8 0.0
4.800000000000001 1.8 0.0
5.2 1.8 0.0
5.6000000000000005 1.8 0.0
6.0 1.8 0.0
6.4 1.8 0.0
6.800000000000001 1.8 0.0
7.2 1.8 0.0
7.6000000000000005 1.8 0.0
8.0 1.8 0.0
8.4 1.8 0.0
8.8 1.8 0.0
9.200000000000001 1.8 0.0
9.600000000000001 1.8 0.0
10.0 1.8 0.0
10.4 1.8 0.0
10.8 1.8 0.0
11.200000000000001 1.8 0.0
11.600000000000001 1.8 0.0
12.0 1.8 0.0
12.4 1.8 0.0
12.8 1.8 0.0
13.200000000000001 1.8 0.0
13.600000000000001 1.8 0.0
14.0 1.8 0.0
14.4 1.8 0.0
14.8 1.8 0.0
15.200000000000001 1.8 0.0
15.600000000000001 1.8 0.0
16.0 1.8 0.0
0.0 1.9000000000000001 0.0
0.4 1.9000000000000001 0.0
0.8 1.9000000000000001 0.0
1.2000000000000002 1.9000000000000001 0.0
1.6 1.9000000000000001 0.0
2.0 1.9000000000000001 0.0
2.4000000000000004 1.9000000000000001 0.0
2.8000000000000003 1.9000000000000001 0.0
3.2 1.9000000000000001 0.0
3.6 1.9000000000000001 0.0
4.0 1.9000000000000001 0.0
4.4 1.9000000000000001 0.0
4.800000000000001 1.9000000000000001 0.0
5.2 1.9000000000000001 0.0
5.6000000000000005 1.9000000000000001 0.0
6.0 1.9000000000000001 0.0
6.4 1.9000000000000001 0.0
6.800000000000001 1.9000000000000001 0.0
7.2 1.9000000000000001 0.0
7.6000000000000005 1.9000000000000001 0.0
8.0 1.9000000000000001 0.0
8.4 1.9000000000000001 0.0
8.8 1.9000000000000001 0.0
9.200000000000001 1.9000000000000001 0.0
9.600000000000001 1.9000000000000001 0.0
10.0 1.9000000000000001 0.0
10.4 1.9000000000000001 0.0
10.8 1.9000000000000001 0.0
11.200000000000001 1.9000000000000001 0.0
11.600000000000001 1.9000000000000001 0.0
12.0 1.9000000000000001 0.0
12.4 1.9000000000000001 0.0
12.8 1.9000000000000001 0.0
13.200000000000001 1.9000000000000001 0.0
13.600000000000001 1.9000000000000001 0.0
14.0 1.9000000000000001 0.0
14.4 1.9000000000000001 0.0
14.8 1.9000000000000001 0.0
15.200000000000001 1.9000000000000001 0.0
15.600000000000001 1.9000000000000001 0.0
16.0 1.9000000000000001 0.0
0.0 2.0 0.0
0.4 2.0 0.0
0.8 2.0 0.0
1.2000000000000002 2.0 0.0
1.6 2.0 0.0
2.0 2.0 0.0
2.4000000000000004 2.0 0.0
2.8000000000000003 2.0 0.0
3.2 2.0 0.0
3.6 2.0 0.0
4.0 2.0 0.0
4.4 2.0 0.0
4.800000000000001 2.0 0.0
5.2 2.0 0.0
5.6000000000000005 2.0 0.0
6.0 2.0 0.0
6.4 2.0 0.0
6.800000000000001 2.0 0.0
7.2 2.0 0.0
7.6000000000000005 2.0 0.0
8.0 2.0 0.0
8.4 2.0 0.0
8.8 2.0 0.0
9.200000000000001 2.0 0.0
9.600000000000001 2.0 0.0
10.0 2.0 0.0
10.4 2.0 0.0
10.8 2.0 0.0
11.200000000000001 2.0 0.0
11.600000000000001 2.0 0.0
12.0 2.0 0.0
12.4 2.0 0.0
12.8 2.0 0.0
13.200000000000001 2.0 0.0
13.600000000000001 2.0 0.0
14.0 2.0 0.0
14.4 2.0 0.0
14.8 2.0 0.0
15.200000000000001 2.0 0.0
15.600000000000001 2.0 0.0
16.0 2.0 0.0
CELLS 800 4000
4 0 1 42 41
4 1 2 43 42
4 2 3 44 43
4 3 4 45 44
4 4 5 46 45
4 5 6 47 46
4 6 7 48 47
4 7 8 49 48
4 8 9 50 49
4 9 10 51 50
4 10 11 52 51
4 11 12 53 52
4 12 13 54 53
4 13 14 55 54
4 14 15 56 55
4 15 16 57 56
4 16 17 58 57
4 17 18 59 58
4 18 19 60 59
4 19 20 61 60
4 20 21 62 61
4 21 22 63 62
4 22 23 64 63
4 23 24 65 64
4 24 25 66 65
4 25 26 67 66
4 26 27 68 67
4 27 28 69 68
4 28 29 70 69
4 29 30 71 70
4 30 31 72 71
4 31 32 73 72
4 32 33 74 73
4 33 34 75 74
4 34 35 76 75
4 35 36 77 76
4 36 37 78 77
4 37 38 79 78
4 38 39 80 79
4 39 40 81 80
4 41 42 83 82
4 42 43 84 83
4 43 44 85 84
4 44 45 86 85
4 45 46 87 86
4 46 47 88 87
4 47 48 89 88
4 48 49 90 89
4 49 50 91 90
4 50 51 92 91
4 51 52 93 92
4 52 53 94 93
4 53 54 95 94
4 54 55 96 95
4 55 56 97 96
4 56 57 98 97
4 57 58 99 98
4 58 59 100 99
4 59 60 101 100
4 60 61 102 101
4 61 62 103 102
4 62 63 104 103
4 63 64 105 104
4 64 65 106 105
4 65 66 107 106
4 66 67 108 107
4 67 68 109 108
4 68 69 110 109
4 69 70 111 110
4 70 71 112 111
4 71 72 113 112
4 72 73 114 113
4 73 74 115 114
4 74 75 116 115
4 75 76 117 116
4 76 77 118 117
4 77 78 119 118
4 78 79 120 119
4 79 80 121 120
4 80 81 122 121
4 82 83 124 123
4 83 84 125 124
4 84 85 126 125
4 85 86 127 126
4 86 87 128 127
4 87 88 129 128
4 88 89 130 129
4 89 90 131 130
4 90 91 132 131
4 91 92 133 132
4 92 93 134 133
4 93 94 135 134
4 94 95 136 135
4 95 96 137 136
4 96 97 138 137
4 97 98 139 138
4 98 99 140 139
4 99 100 141 140
4 100 101 142 141
4 101 102 143 142
4 102 103 144 143
4 103 104 145 144
4 104 105 146 145
4 105 106 147 146
4 106 107 148 147
4 107 108 149 148
4 108 109 150 149
4 109 110 151 150
4 110 111 152 151
4 111 112 153 152
4 112 113 154 153
4 113 114 155 154
4 114 115 156 155
4 115 116 157 156
4 116 117 158 157
4 117 118 159 158
4 118 119 160 159
4 119 120 161 160
4 120 121 162 161
4 121 122 163 162
4 123 124 165 164
4 124 125 166 165
4 125 126 167 166
4 126 127 168 167
4 127 128 169 168
4 128 129 170 169
4 129 130 171 170
4 130 131 172 171
4 131 132 173 172
4 132 133 174 173
4 133 134 175 174
4 134 135 176 175
4 135 136 177 176
4 136 137 178 177
4 137 138 179 178
4 138 139 180 179
4 139 140 181 180
4 140 141 182 181
4 141 142 183 182
4 142 143 184 183
4 143 144 185 184
4 144 145 186 185
4 145 146 187 186
4 146 147 188 187
4 147 148 189 188
4 148 149 190 189
4 149 150 191 190
4 150 151 192 191
4 151 152 193 192
4 152 153 194 193
4 153 154 195 194
4 154 155 196 195
4 155 156 197 196
4 156 157 198 197
4 157 158 199 198
4 158 159 200 199
4 159 160 201 200
4 160 161 202 201
4 161 162 203 202
4 162 163 204 203
4 164 165 206 205
4 165 166 207 206
4 166 167 208 207
4 167 168 209 208
4 168 169 210 209
4 169 170 211 210
4 170 171 212 211
4 171 172 213 212
4 172 173 214 213
4 173 174 215 214
4 174 175 216 215
4 175 176 217 216
4 176 177 218 217
4 177 178 219 218
4 178 179 220 219
4 179 180 221 220
4 180 181 222 221
4 181 182 223 222
4 182 183 224 223
4 183 184 225 224
4 184 185 226 225
4 185 186 227 226
4 186 187 228 227
4 187 188 229 228
4 188 189 230 229
4 189 190 231 230
4 190 191 232 231
4 191 192 233 232
4 192 193 234 233
4 193 194 235 234
4 194 195 236 235
4 195 196 237 236
4 196 197 238 237
4 197 198 239 238
4 198 199 240 239
4 199 200 241 240
4 200 201 242 241
4 201 202 243 242
4 202 203 244 243
4 203 204 245 244
4 205 206 247 246
4 206 207 248 247
4 207 208 249 248
4 208 209 250 249
4 209 210 251 250
4 210 211 252 251
4 211 212 253 252
4 212 213 254 253
4 213 214 255 254
4 214 215 256 255
4 215 216 257 256
4 216 217 258 257
4 217 218 259 258
4 218 219 260 259
4 219 220 261 260
4 220 221 262 261
4 221 222 263 262
4 222 223 264 263
4 223 224 265 264
4 224 225 266 265
4 225 226 267 266
4 226 227 268 267
4 227 228 269 268
4 228 229 270 269
4 229 230 271 270
4 230 231 272 271
4 231 232 273 272
4 232 233 274 273
4 233 234 275 274
4 234 235 276 275
4 235 236 277 276
4 236 237 278 277
4 237 238 279 278
4 238 239 280 279
4 239 240 281 280
4 240 241 282 281
4 241 242 283 282
4 242 243 284 283
4 243 244 285 284
4 244 245 286 285
4 246 247 288 287
4 247 248 289 288
4 248 249 290 289
4 249 250 291 290
4 250 251 292 291
4 251 252 293 292
4 252 253 294 293
4 253 254 295 294
4 254 255 296 295
4 255 256 297 296
4 256 257 298 297
4 257 258 299 298
4 258 259 300 299
4 259 260 301 300
4 260 261 302 301
4 261 262 303 302
4 262 263 304 303
4 263 264 305 304
4 264 265 306 305
4 265 266 307 306
4 266 267 308 307
4 267 268 309 308
4 268 269 310 309
4 269 270 311 310
4 270 271 312 311
4 271 272 313 312
4 272 273 314 313
4 273 274 315 314
4 274 275 316 315
4 275 276 317 316
4 276 277 318 317
4 277 278 319 318
4 278 279 320 319
4 279 280 321 320
4 280 281 322 321
4 281 282 323 322
4 282 283 324 323
4 283 284 325 324
4 284 285 326 325
4 285 286 327 326
4 287 288 329 328
4 288 289 330 329
4 289 290 331 330
4 290 291 332 331
4 291 292 333 332
4 292 293 334 333
4 293 294 335 334
4 294 295 336 335
4 295 296 337 336
4 296 297 338 337
4 297 298 339 338
4 298 299 340 339
4 299 300 341 340
4 300 301 342 341
4 301 302 343 342
4 302 303 344 343
4 303 304 345 344
4 304 305 346 345
4 305 306 347 346
4 306 307 348 347
4 307 308 349 348
4 308 309 350 349
4 309 310 351 350
4 310 311 352 351
4 311 312 353 352
4 312 313 354 353
4 313 314 355 354
4 314 315 356 355
4 315 316 357 356
4 316 317 358 357
4 317 318 359 358
4 318 319 360 359
4 319 320 361 360
4 320 321 362 361
4 321 322 363 362
4 322 323 364 363
4 323 324 365 364
4 324 325 366 365
4 325 326 367 366
4 326 327 368 367
4 328 329 370 369
4 329 330 371 370
4 330 331 372 371
4 331 332 373 372
4 332 333 374 373
4 333 334 375 374
4 334 335 376 375
4 335 336 377 376
4 336 337 378 377
4 337 338 379 378
4 338 339 380 379
4 339 340 381 380
4 340 341 382 381
4 341 342 383 382
4 342 343 384 383
4 343 344 385 384
4 344 345 386 385
4 345 346 387 386
4 346 347 388 387
4 347 348 389 388
4 348 349 390 389
4 349 350 391 390
4 350 351 392 391
4 351 352 393 392
4 352 353 394 393
4 353 354 395 394
4 354 355 396 395
4 355 356 397 396
4 356 357 398 397
4 357 358 399 398
4 358 359 400 399
4 359 360 401 400
4 360 361 402 401
4 361 362 403 402
4 362 363 404 403
4 363 364 405 404
4 364 365 406 405
4 365 366 407 406
4 366 367 408 407
4 367 368 409 408
4 369 370 411 410
4 370 371 412 411
4 371 372 413 412
4 372 373 414 413
4 373 374 415 414
4 374 375 416 415
4 375 376 417 416
4 376 377 418 417
4 377 378 419 418
4 378 379 420 419
4 379 380 421 420
4 380 381 422 421
4 381 382 423 422
4 382 383 424 423
4 383 384 425 424
4 384 385 426 425
4 385 386 427 426
4 386 387 428 427
4 387 388 429 428
4 388 389 430 429
4 389 390 431 430
4 390 391 432 431
4 391 392 433 432
4 392 393 434 433
4 393 394 435 434
4 394 395 436 435
4 395 396 437 436
4 396 397 438 437
4 397 398 439 438
4 398 399 440 439
4 399 400 441 440
4 400 401 442 441
4 401 402 443 442
4 402 403 444 443
4 403 404 445 444
4 404 405 446 445
4 405 406 447 446
4 406 407 448 447
4 407 408 449 448
4 408 409 450 449
4 410 411 452 451
4 411 412 453 452
4 412 413 454 453
4 413 414 455 454
4 414 415 456 455
4 415 416 457 456
4 416 417 458 457
4 417 418 459 458
4 418 419 460 459
4 419 420 461 460
4 420 421 462 461
4 421 422 463 462
4 422 423 464 463
4 423 424 465 464
4 424 425 466 465
4 425 426 467 466
4 426 427 468 467
4 427 428 469 468
4 428 429 470 469
4 429 430 471 470
4 430 431 472 471
4 431 432 473 472
4 432 433 474 473
4 433 434 475 474
4 434 435 476 475
4 435 436 477 476
4 436 437 478 477
4 437 438 479 478
4 438 439 480 479
4 439 440 481 480
4 440 441 482 481
4 441 442 483 482
4 442 443 484 483
4 443 444 485 484
4 444 445 486 485
4 445 446 487 486
4 446 447 488 487
4 447 448 489 488
4 448 449 490 489
4 449 450 491 490
4 451 452 493 492
4 452 453 494 493
4 453 454 495 494
4 454 455 496 495
4 455 456 497 496
4 456 457 498 497
4 457 458 499 498
4 458 459 500 499
4 459 460 501 500
4 460 461 502 501
4 461 462 503 502
4 462 463 504 503
4 463 464 505 504
4 464 465 506 505
4 465 466 507 506
4 466 467 508 507
4 467 468 509 508
4 468 469 510 509
4 469 470 511 510
4 470 471 512 511
4 471 472 513 512
4 472 473 514 513
4 473 474 515 514
4 474 475 516 515
4 475 476 517 516
4 476 477 518 517
4 477 478 519 518
4 478 479 520 519
4 479 480 521 520
4 480 481 522 521
4 481 482 523 522
4 482 483 524 523
4 483 484 525 524
4 484 485 526 525
4 485 486 527 526
4 486 487 528 527
4 487 488 529 528
4 488 489 530 529
4 489 490 531 530
4 490 491 532 531
4 492 493 534 533
4 493 494 535 534
4 494 495 536 535
4 495 496 537 536
4 496 497 538 537
4 497 498 539 538
4 498 499 540 539
4 499 500 541 540
4 500 501 542 541
4 501 502 543 542
4 502 503 544 543
4 503 504 545 544
4 504 505 546 545
4 505 506 547 546
4 506 507 548 547
4 507 508 549 548
4 508 509 550 549
4 509 510 551 550
4 510 511 552 551
4 511 512 553 552
4 512 513 554 553
4 513 514 555 554
4 514 515 556 555
4 515 516 557 556
4 516 517 558 557
4 517 518 559 558
4 518 519 560 559
4 519 520 561 560
4 520 521 562 561
4 521 522 563 562
4 522 523 564 563
4 523 524 565 564
4 524 525 566 565
4 525 526 567 566
4 526 527 568 567
4 527 528 569 568
4 528 529 570 569
4 529 530 571 570
4 530 531 572 571
4 531 532 573 572
4 533 534 575 574
4 534 535 576 575
4 535 536 577 576
4 536 537 578 577
4 537 538 579 578
4 538 539 580 579
4 539 540 581 580
4 540 541 582 581
4 541 542 583 582
4 542 543 584 583
4 543 544 585 584
4 544 545 586 585
4 545 546 587 586
4 546 547 588 587
4 547 548 589 588
4 548 549 590 589
4 549 550 591 590
4 550 551 592 591
4 551 552 593 592
4 552 553 594 593
4 553 554 595 594
4 554 555 596 595
4 555 556 597 596
4 556 557 598 597
4 557 558 599 598
4 558 559 600 599
4 559 560 601 600
4 560 561 602 601
4 561 562 603 602
4 562 563 604 603
4 563 564 605 604
4 564 565 606 605
4 565 566 607 606
4 566 567 608 607
4 567 568 609 608
4 568 569 610 609
4 569 570 611 610
4 570 571 612 611
4 571 572 613 612
4 572 573 614 613
4 574 575 616 615
4 575 576 617 616
4 576 577 618 617
4 577 578 619 618
4 578 579 620 619
4 579 580 621 620
4 580 581 622 621
4 581 582 623 622
4 582 583 624 623
4 583 584 625 624
4 584 585 626 625
4 585 586 627 626
4 586 587 628 627
4 587 588 629 628
4 588 589 630 629
4 589 590 631 630
4 590 591 632 631
4 591 592 633 632
4 592 593 634 633
4 593 594 635 634
4 594 595 636 635
4 595 596 637 636
4 596 597 638 637
4 597 598 639 638
4 598 599 640 639
4 599 600 641 640
4 600 601 642 641
4 601 602 643 642
4 602 603 644 643
4 603 604 645 644
4 604 605 646 645
4 605 606 647 646
4 606 607 648 647
4 607 608 649 648
4 608 609 650 649
4 609 610 651 650
4 610 611 652 651
4 611 612 653 652
4 612 613 654 653
4 613 614 655 654
4 615 616 657 656
4 616 617 658 657
4 617 618 659 658
4 618 619 660 659
4 619 620 661 660
4 620 621 662 661
4 621 622 663 662
4 622 623 664 663
4 623 624 665 664
4 624 625 666 665
4 625 626 667 666
4 626 627 668 667
4 627 628 669 668
4 628 629 670 669
4 629 630 671 670
4 630 631 672 671
4 631 632 673 672
4 632 633 674 673
4 633 634 675 674
4 634 635 676 675
4 635 636 677 676
4 636 637 678 677
4 637 638 679 678
4 638 639 680 679
4 639 640 681 680
4 640 641 682 681
4 641 642 683 682
4 642 643 684 683
4 643 644 685 684
4 644 645 686 685
4 645 646 687 686
4 646 647 688 687
4 647 648 689 688
4 648 649 690 689
4 649 650 691 690
4 650 651 692 691
4 651 652 693 692
4 652 653 694 693
4 653 654 695 694
4 654 655 696 695
4 656 657 698 697
4 657 658 699 698
4 658 659 700 699
4 659 660 701 700
4 660 661 702 701
4 661 662 703 702
4 662 663 704 703
4 663 664 705 704
4 664 665 706 705
4 665 666 707 706
4 666 667 708 707
4 667 668 709 708
4 668 669 710 709
4 669 670 711 710
4 670 671 712 711
4 671 672 713 712
4 672 673 714 713
4 673 674 715 714
4 674 675 716 715
4 675 676 717 716
4 676 677 718 717
4 677 678 719 718
4 678 679 720 719
4 679 680 721 720
4 680 681 722 721
4 681 682 723 722
4 682 683 724 723
4 683 684 725 724
4 684 685 726 725
4 685 686 727 726
4 686 687 728 727
4 687 688 729 728
4 688 689 730 729
4 689 690 731 730
4 690 691 732 731
4 691 692 733 732
4 692 693 734 733
4 693 694 735 734
4 694 695 736 735
4 695 696 737 736
4 697 698 739 738
4 698 699 740 739
4 699 700 741 740
4 700 701 742 741
4 701 702 743 742
4 702 703 744 743
4 703 704 745 744
4 704 705 746 745
4 705 706 747 746
4 706 707 748 747
4 707 708 749 748
4 708 709 750 749
4 709 710 751 750
4 710 711 752 751
4 711 712 753 752
4 712 713 754 753
4 713 714 755 754
4 714 715 756 755
4 715 716 757 756
4 716 717 758 757
4 717 718 759 758
4 718 719 760 759
4 719 720 761 760
4 720 721 762 761
4 721 722 763 762
4 722 723 764 763
4 723 724 765 764
4 724 725 766 765
4 725 726 767 766
4 726 727 768 767
4 727 728 769 768
4 728 729 770 769
4 729 730 771 770
4 730 731 772 771
4 731 732 773 772
4 732 733 774 773
4 733 734 775 774
4 734 735 776 775
4 735 736 777 776
4 736 737 778 777
4 738 739 780 779
4 739 740 781 780
4 740 741 782 781
4 741 742 783 782
4 742 743 784 783
4 743 744 785 784
4 744 745 786 785
4 745 746 787 786
4 746 747 788 787
4 747 748 789 788
4 748 749 790 789
4 749 750 791 790
4 750 751 792 791
4 751 752 793 792
4 752 753 794 793
4 753 754 795 794
4 754 755 796 795
4 755 756 797 796
4 756 757 798 797
4 757 758 799 798
4 758 759 800 799
4 759 760 801 800
4 760 761 802 801
4 761 762 803 802
4 762 763 804 803
4 763 764 805 804
4 764 765 806 805
4 765 766 807 806
4 766 767 808 807
4 767 768 809 808
4 768 769 810 809
4 769 770 811 810
4 770 771 812 811
4 771 772 813 812
4 772 773 814 813
4 773 774 815 814
4 774 775 816 815
4 775 776 817 816
4 776 777 818 817
4 777 778 819 818
4 779 780 821 820
4 780 781 822 821
4 781 782 823 822
4 782 783 824 823
4 783 784 825 824
4 784 785 826 825
4 785 786 827 826
4 786 787 828 827
4 787 788 829 828
4 788 789 830 829
4 789 790 831 830
4 790 791 832 831
4 791 792 833 832
4 792 793 834 833
4 793 794 835 834
4 794 795 836 835
4 795 796 837 836
4 796 797 838 837
4 797 798 839 838
4 798 799 840 839
4 799 800 841 840
4 800 801 842 841
4 801 802 843 842
4 802 803 844 843
4 803 804 845 844
4 804 805 846 845
4 805 806 847 846
4 806 807 848 847
4 807 808 849 848
4 808 809 850 849
4 809 810 851 850
4 810 811 852 851
4 811 812 853 852
4 812 813 854 853
4 813 814 855 854
4 814 815 856 855
4 815 816 857 856
4 816 817 858 857
4 817 818 859 858
4 818 819 860 859
CELL_TYPES 800
9
9
9
9
9
9
9
9
9
9
9
9
9
9
9
9
9
9
9
9
9
9
9
9
9
9
9
9
9
9
9
9
9
9
9
9
9
9
9
9
9
9
9
9
9
9
9
9
9
9
9
9
9
9
9
9
9
9
9
9
9
9
9
9
9
9
9
9
9
9
9
9
9
9
9
9
9
9
9
9
9
9
9
9
9
9
9
9
9
9
9
9
9
9
9
9
9
9
9
9
9
9
9
9
9
9
9
9
9
9
9
9
9
9
9
9
9
9
9
9
9
9
9
9
9
9
9
9
9
9
9
9
9
9
9
9
9
9
9
9
9
9
9
9
9
9
9
9
9
9
9
9
9
9
9
9
9
9
9
9
9
9
9
9
9
9
9
9
9
9
9
9
9
9
9
9
9
9
9
9
9
9
9
9
9
9
9
9
9
9
9
9
9
9
9
9
9
9
9
9
9
9
9
9
9
9
9
9
9
9
9
9
9
9
9
9
9
9
9
9
9
9
9
9
9
9
9
9
9
9
9
9
9
9
9
9
9
9
9
9
9
9
9
9
9
9
9
9
9
9
9
9
9
9
9
9
9
9
9
9
9
9
9
9
9
9
9
9
9
9
9
9
9
9
9
9
9
9
9
9
9
9
9
9
9
9
9
9
9
9
9
9
9
9
9
9
9
9
9
9
9
9
9
9
9
9
9
9
9
9
9
9
9
9
9
9
9
9
9
9
9
9
9
9
9
9
9
9
9
9
9
9
9
9
9
9
9
9
9
9
9
9
9
9
9
9
9
9
9
9
9
9
9
9
9
9
9
9
9
9
9
9
9
9
9
9
9
9
9
9
9
9
9
9
9
9
9
9
9
9
9
9
9
9
9
9
9
9
9
9
9
9
9
9
9
9
9
9
9
9
9
9
9
9
9
9
9
9
9
9
9
9
9
9
9
9
9
9
9
9
9
9
9
9
9
9
9
9
9
9
9
9
9
9
9
9
9
9
9
9
9
9
9
9
9
9
9
9
9
9
9
9
9
9
9
9
9
9
9
9
9
9
9
9
9
9
9
9
9
9
9
9
9
9
9
9
9
9
9
9
9
9
9
9
9
9
9
9
9
9
9
9
9
9
9
9
9
9
9
9
9
9
9
9
9
9
9
9
9
9
9
9
9
9
9
9
9
9
9
9
9
9
9
9
9
9
9
9
9
9
9
9
9
9
9
9
9
9
9
9
9
9
9
9
9
9
9
9
9
9
9
9
9
9
9
9
9
9
9
9
9
9
9
9
9
9
9
9
9
9
9
9
9
9
9
9
9
9
9
9
9
9
9
9
9
9
9
9
9
9
9
9
9
9
9
9
9
9
9
9
9
9
9
9
9
9
9
9
9
9
9
9
9
9
9
9
9
9
9
9
9
9
9
9
9
9
9
9
9
9
9
9
9
9
9
9
9
9
9
9
9
9
9
9
9
9
9
9
9
9
9
9
9
9
9
9
9
9
9
9
9
9
9
9
9
9
9
9
9
9
9
9
9
9
9
9
9
9
9
9
9
9
9
9
9
9
9
9
9
9
9
9
9
9
9
9
9
9
9
9
9
9
9
9
9
9
9
9
9
9
9
9
9
9
9
9
9
9
9
9
9
9
9
9
9
9
9
9
9
9
9
9
9
9
9
9
9
9
9
9
9
9
9
9
9
9
9
9
9
9
9
9
9
9
9
9
9
9
9
9
9
9
9
9
9
9
9
9
9
9
9
9
9
9
9
9
9
9
9
9
9
9
9
9
9
9
9
9
9
9
9
9
9
9
9
9
9
9
9
9
POINT_DATA 861
SCALARS Disp float 2
LOOKUP_TABLE default
0.0 0.0
0.006229483768806259 -0.2948869010839706
0.007668402655228542 -0.5799659765550024
0.008477316102998286 -0.8638780698419465
0.009555356052517781 -1.1473855225934426
0.011385572303030283 -1.4300081143338905
0.014706906720802515 -1.7110997981514795
0.02043826102905436 -1.9898445353645176
0.02966517341299843 -2.2652158923387193
0.04356900096394211 -2.5358633490574314
0.06331930462146726 -2.7999567931638416
0.08999873613650167 -3.0551087480736636
0.12456872814572877 -3.298424308245074
0.16785875678543255 -3.526637456964699
0.22055733496289007 -3.736204781096338
0.28314074918268123 -3.9233861993407952
0.35575106037883814 -4.084353422353444
0.43805602219296935 -4.21536021802332
0.529135811734228 -4.313001704852498
0.627444615651378 -4.374468371606359
0.7305424504553918 -4.397883499177638
0.8336402852593995 -4.37446837160622
0.9319490891765281 -4.313001704852216
1.0230288787177504 -4.215360218022912
1.1053338405318354 -4.084353422352933
1.1779441517279428 -3.9233861993402126
1.2405275659476835 -3.7362047810956995
1.2932261441250903 -3.526637456964022
1.3365161727647432 -3.2984243082443814
1.3710861647739225 -3.055108748072976
1.3977655962889144 -2.799956793163179
1.4175158999464044 -2.5358633490568083
1.4314197274973208 -2.2652158923381442
1.4406466398812445 -1.9898445353639986
1.4463779941894828 -1.711099798151023
1.4496993286072464 -1.4300081143335037
1.451529544857755 -1.1473855225931264
1.4526075848072733 -0.863878069841705
1.4534164982550428 -0.579965976554834
1.4548554171414634 -0.2948869010838783
1.4610849009102664 0.0
0.07355298119593635 -0.0025644891397348306
0.07795319180027566 -0.29519390614961827
0.07869457827888264 -0.5800299059436572
0.07940775691930671 -0.8639716013587557
0.0803460966401095 -1.1475499349598752
0.08189287863200147 -1.430388449918926
0.08474283599317432 -1.7119025433069723
0.0897632457164544 -1.9913171572662982
0.09797209936324462 -2.267635101377375
0.11044649912552795 -2.539510719979211
0.12822955812237516 -2.80509799881905
0.15227270130040743 -3.061983444270322
0.18342687861636547 -3.307244413481132
0.22244496511929046 -3.537585549616179
0.26995448253126136 -3.7494253419527594
0.3263999087707302 -3.9389624050335508
0.3919358051217346 -4.102274657479896
0.4663023720615062 -4.235490180379022
0.548709579988481 -4.3350526677764885
0.6376680217666892 -4.3979714922068185
0.7305424504553748 -4.421990446798123
0.8234168791440539 -4.3979714922066755
0.9123753209222427 -4.3350526677762
0.9947825288491854 -4.235490180378605
1.069149095788917 -4.102274657479375
1.1346849921398772 -3.9389624050329566
1.1911304183793003 -3.7494253419521093
1.2386399357912254 -3.5375855496154904
1.2776580222941047 -3.3072444134804275
1.3088121996100202 -3.0619834442696243
1.3328553427880139 -2.805097998818378
1.3506384017848292 -2.5395107199785802
1.3631128015470877 -2.267635101376794
1.3713216551938596 -1.9913171572657755
1.3763420649171272 -1.7119025433065134
1.3791920222782927 -1.4303884499185384
1.3807388042701816 -1.1475499349595588
1.3816771439909834 -0.8639716013585141
1.3823903226314074 -0.5800299059434888
1.3831317091100142 -0.2951939061495256
1.3875319197143476 -0.002564489139732307
0.14607006522809726 -0.004611936989840521
0.14931877263218613 -0.295348180875769
0.14974035423743826 -0.5800610178387563
0.1503205811466933 -0.8640534677710738
0.1511305193401488 -1.1476792553478299
0.15242243511512066 -1.4306894337743254
0.15481368976538773 -1.7125691961615923
0.15912615989026582 -1.9925838439550974
0.16629831623315355 -2.2697580292487203
0.17730611869180218 -2.542743440405095
0.19307261658635216 -2.809674698461941
0.21442847468874077 -3.0681137347732848
0.2421159086663242 -3.3151161553817463
0.27680012535218884 -3.547364269336014
0.3190522848056702 -3.7612436748891716
0.36928843331309513 -3.95290119219733
0.4276881207301039 -4.118335374361216
0.4940793897183366 -4.253563017793717
0.5677833428943143 -4.354879528847313
0.6473719245469748 -4.419070474393408
0.730542450455358 -4.443628330049369
0.8137129763637354 -4.419070474393261
0.8933015580163784 -4.354879528847017
0.9670055111923278 -4.253563017793291
1.0333967801805253 -4.118335374360684
1.0917964675974952 -3.952901192196725
1.1420326161048793 -3.76124367488851
1.1842847755583195 -3.5473642693353145
1.2189689922441438 -3.3151161553810318
1.2466564262216897 -3.0681137347725773
1.268012284324044 -2.8096746984612606
1.2837787822185656 -2.542743440404458
1.294786584677192 -2.2697580292481345
1.301958741020063 -1.992583843954571
1.3062712111449302 -1.7125691961611311
1.308662465795191 -1.4306894337739366
1.3099543815701604 -1.147679255347513
1.3107643197636154 -0.8640534677708323
1.3113445466728704 -0.5800610178385881
1.3117661282781226 -0.29534818087567594
1.3150148356822056 -0.004611936989835166
0.21803767361104653 -0.0062627899643842005
0.22050751696243176 -0.29545341867971464
0.22076347166033433 -0.5800778102488351
0.22121663308956924 -0.8641186962076604
0.22190401409482155 -1.1477825175938456
0.22297118867613844 -1.4309200671132423
0.22493034268160844 -1.713104378294103
0.22854387894435446 -1.9936453928367652
0.23467285699380128 -2.2715803735560685
0.24419270684335118 -2.5455537735106795
0.2579116337770731 -2.813677337264078
0.2765439651258161 -3.0734900630854463
0.30072733268182744 -3.322029388537646
0.3310383193909907 -3.5559609382651525
0.36798212156972954 -3.7716454306904126
0.4119534921231393 -3.9651882515427777
0.4631611782837533 -4.13252340904597
0.5215184729711779 -4.269569477514894
0.5864687474608092 -4.37247275533301
0.6567910252240579 -4.4378213805089555
0.7305424504553419 -4.4629233200385805
0.8042938756866207 -4.437821380508806
0.8746161534498532 -4.372472755332709
0.9395664279394598 -4.26956947751446
0.9979237226268538 -4.13252340904543
1.0491314087874337 -3.965188251542163
1.0931027793408075 -3.7716454306897416
1.1300465815195104 -3.5559609382644437
1.1603575682286384 -3.3220293885369223
1.184540935784617 -3.0734900630847304
1.2031732671333302 -2.813677337263391
1.216892194067027 -2.5455537735100364
1.2264120439165573 -2.271580373555478
1.2325410219659894 -1.993645392836236
1.2361545582287257 -1.7131043782936397
1.238113712234191 -1.430920067112853
1.2391808868155059 -1.1477825175935288
1.239868267820758 -0.8641186962074189
1.240321429249993 -0.5800778102486668
1.2405773839478957 -0.29545341867962116
1.2430472272992754 -0.006262789964376207
0.28969304580969724 -0.007600696446694418
0.29157711692946064 -0.29553461912080803
0.2917436234240541 -0.5800873810307325
0.29209047999628635 -0.86416897171592
0.2926625767658909 -1.147864932428178
0.29353169788174777 -1.4310932066667446
0.29510038618443635 -1.7135169267291794
0.2980320676311785 -1.9945049161793198
0.30312503020882764 -2.2731019091063387
0.3111509076078896 -2.5479382786920004
0.3228078395674357 -2.8171010023240344
0.33869813281743344 -3.078106470278417
0.359354335975592 -3.32797769564187
0.38526635690132877 -3.5633685051236585
0.41687735424542366 -3.780621529016577
0.45454775277880477 -3.975812483406906
0.49850995976068796 -4.14482543072005
0.5487656135881811 -4.2834944299319
0.6049250570852946 -4.38783479084579
0.6660405874720519 -4.45426666470092
0.7305424504553262 -4.479943348461614
0.7950443134385956 -4.454266664700769
0.8561598438253379 -4.387834790845485
0.91231928732243 -4.283494429931459
0.9625749411498972 -4.144825430719503
1.0065371481317507 -3.975812483406283
1.0442075466651006 -3.7806215290158978
1.0758185440091645 -3.563368505122942
1.1017305649348714 -3.3279776956411387
1.1223867680930018 -3.078106470277694
1.1382770613429745 -2.8171010023233407
1.1499339933024988 -2.5479382786913525
1.1579598707015437 -2.2731019091057445
1.1630528332791803 -1.994504916178788
1.1659845147259147 -1.713516926728715
1.1675532030285996 -1.4310932066663549
1.1684223241444551 -1.1478649324278611
1.1689944209140595 -0.8641689717156785
1.1693412774862917 -0.5800873810305642
1.1695077839808852 -0.2955346191207142
1.1713918551006441 -0.0076006964466841
0.3611428217484799 -0.008678685190365087
0.3625639790427268 -0.2956002222637333
0.3626788366940054 -0.5800944229611337
0.3629386445771874 -0.864206277390601
0.3634007675462639 -1.1479307027408914
0.36409786959017654 -1.4312209461915848
0.36531735590032527 -1.7138211555920924
0.36761273385161775 -1.9951691812153742
0.3716841318829849 -2.2743258618618376
0.3782251589857321 -2.5498979442864194
0.3878220345757162 -2.8199449721766765
0.4009676592875784 -3.0819615376773517
0.4180924403854881 -3.3329589050552606
0.4395984911359502 -3.5695841869142466
0.4658642119780181 -3.7881688411905703
0.497220017726309 -3.9847674270875455
0.5339015909328599 -4.155228513018064
0.5759910095226135 -4.295323098659499
0.6233028141413339 -4.400963413602358
0.675212687900932 -4.46842825661353
0.7305424504553102 -4.4947287809982965
0.7858722130096841 -4.468428256613375
0.8377820867692692 -4.400963413602049
0.8850938913879713 -4.295323098659053
0.9271833099777029 -4.1552285130175095
0.9638648831842284 -3.984767427086916
0.9952206889324934 -3.788168841189884
1.0214864097745353 -3.5695841869135227
1.0429924605249727 -3.3329589050545225
1.0601172416228593 -3.0819615376766225
1.0732628663347006 -2.819944972175978
1.0828597419246666 -2.5498979442857665
1.0894007690273995 -2.2743258618612403
1.0934721670587566 -1.9951691812148402
1.0957675450100428 -1.713821155591627
1.0969870313201888 -1.4312209461911947
1.0976841333641005 -1.1479307027405743
1.098146256333177 -0.8642062773903595
1.0984060642163591 -0.5800944229609655
1.0985209218676373 -0.29560022226363913
1.0999420791618808 -0.008678685190352817
0.4324422916037366 -0.009537263291870003
0.4334928225483632 -0.2956536349142724
0.433574668922711 -0.5801012861528477
0.43376090390166094 -0.8642321688540406
0.43411607097577937 -1.147982494836677
0.4346612855341799 -1.4313140296023863
0.4355726218387698 -1.7140345446855167
0.437285852560315 -1.9956536344010039
0.4403826358260337 -2.2752596314810356
0.4454605481437736 -2.5514378930295716
0.4530155992787066 -2.822213184968883
0.4634311529733294 -3.0850583884201384
0.4770368285060495 -3.3369757618114337
0.4941480640366625 -3.5746102750233035
0.5150784822370758 -3.79428847342781
0.5401192542005284 -3.9920519017021374
0.5695045618413607 -4.163724791553504
0.603380582264118 -4.305040426821097
0.6417638724799182 -4.411845976010471
0.6843980220429018 -4.480307753406313
0.7305424504552941 -4.507297457533455
0.7766868788676827 -4.480307753406158
0.8193210284306555 -4.411845976010158
0.8577043186464401 -4.3050404268206455
0.8915803390691797 -4.163724791552944
0.9209656467099911 -3.992051901701502
0.9460064186734226 -3.7942884734271183
0.9669368368738152 -3.5746102750225743
0.9840480724044091 -3.3369757618106903
0.9976537479371106 -3.0850583884194047
1.0080693016317168 -2.82221318496818
1.0156243527666353 -2.5514378930289157
1.020702265084364 -2.2752596314804356
1.023799048350075 -1.9956536344004685
1.0255122790716154 -1.7140345446850502
1.0264236153762034 -1.431314029601996
1.0269688299346036 -1.1479824948363602
1.0273239970087218 -0.864232168853799
1.0275102319876717 -0.5801012861526793
1.0275920783620194 -0.2956536349141782
1.0286426093066432 -0.009537263291856104
0.503627980690561 -0.010209175495134728
0.5043820285277453 -0.2956974116445797
0.5044391428907936 -0.5801084594418981
0.5045593446851078 -0.8642478969628755
0.5048090982470319 -1.148020985980404
0.5052127500926651 -1.4313810789413899
0.5058603374239948 -1.7141748368707044
0.5070488609559605 -1.9959795005647385
0.5092374451367321 -2.275919672363704
0.5129050802268346 -2.5525684526221015
0.5184519928912787 -2.8239141930663787
0.5261671631772384 -3.0874050939351396
0.5362851548139697 -3.3400364203849273
0.5490324845860278 -3.5784544383663657
0.5646526320649878 -3.7989870677823885
0.5833988536103348 -3.997670205996531
0.6054973215355822 -4.170312817793144
0.6311288930641593 -4.312633192900029
0.6604850725141022 -4.42045856103697
0.6936984961607224 -4.489884558746601
0.7305424504552773 -4.517644609772898
0.7673864047498297 -4.489884558746444
0.8005998283964416 -4.420458561036654
0.8299560078463724 -4.312633192899575
0.8555875793749351 -4.170312817792581
0.8776860473001667 -3.9976702059958904
0.8964322688454973 -3.7989870677816917
0.9120524163244423 -3.5784544383656325
0.924799746096487 -3.340036420384179
0.9349177377332041 -3.0874050939344024
0.9426329080191513 -2.823914193065673
0.948179820683585 -2.5525684526214425
0.9518474557736794 -2.275919672363102
0.9540360399544454 -1.995979500564202
0.955224563486408 -1.714174836870237
0.9558721508177365 -1.4313810789409995
0.9562758026633693 -1.1480209859800874
0.9565255562252934 -0.8642478969626338
0.9566457580196074 -0.5801084594417296
0.9567028723826556 -0.2956974116444854
0.9574569202198379 -0.010209175495119491
0.5747226530421615 -0.010724936079955909
0.5752484326666368 -0.2957338831544673
0.5752796660751525 -0.5801151033954348
0.5753374197738982 -0.8642544414171682
0.5754838321890201 -1.1480456271977897
0.5757464878479999 -1.4314272538744746
0.5761644076472916 -1.7142609312269173
0.5768971692294742 -1.9961730602801167
0.5782567412226747 -2.276331757239187
0.5805935545553222 -2.5533096120502665
0.5841953915263296 -2.8250630701020514
0.5892608853122232 -3.089015759091189
0.5959379130675823 -3.342155232211228
0.6043705359995234 -3.5811309892798837
0.6147274244987176 -3.8022771330577183
0.6272125336982083 -4.001632741563401
0.6420499888626392 -4.175000399533287
0.659450786191586 -4.318094463040554
0.67968343012757 -4.426767654717789
0.7032430010426286 -4.497112610441385
0.7305424504552601 -4.525739939931343
0.75784189986789 -4.497112610441227
0.7814014707829431 -4.426767654717471
0.8016341147189188 -4.318094463040098
0.8190349120478546 -4.175000399532721
0.8338723672122751 -4.001632741562757
0.8463574764117547 -3.8022771330570184
0.8567143649109396 -3.5811309892791474
0.8651469878428721 -3.3421552322104775
0.8718240155982224 -3.0890157590904486
0.8768895093841079 -2.825063070101343
0.8804913463551084 -2.553309612049606
0.8828281596877507 -2.2763317572385837
0.8841877316809479 -1.9961730602795795
0.8849204932631287 -1.71426093122645
0.88533841306242 -1.431427253874084
0.8856010687213994 -1.1480456271974728
0.8857474811365214 -0.8642544414169265
0.885805234835267 -0.5801151033952664
0.8858364682437825 -0.29573388315437293
0.8863622478682565 -0.010724936079939653
0.6457430177098165 -0.011114755609638188
0.6461028148157246 -0.2957659277461479
0.6461032049899993 -0.5801193613149923
0.6460992384058425 -0.8642525410522354
0.64614509932519 -1.1480560100281672
0.6462629066808085 -1.4314535688512424
0.6464677275912156 -1.7143080935130393
0.6468138382228213 -1.9962667772313112
0.6474407018920272 -2.276533752767436
0.6485496435242156 -2.553695213533474
0.6502983276683018 -2.825687821460732
0.6527916590358197 -3.089914808077865
0.6560931064799 -3.3433555317238204
0.6602736927567976 -3.5826637337977596
0.6654300983465955 -3.8041811109392403
0.6717038225673532 -4.003957473795263
0.6793034458665463 -4.177803446196993
0.6884998605945322 -4.321435975242671
0.6996074125241649 -4.430744442908403
0.713228670077292 -4.501915151126726
0.7305424504552427 -4.5315170167656875
0.7478562308331923 -4.501915151126567
0.7614774883863168 -4.430744442908084
0.7725850403159441 -4.321435975242213
0.7817814550439232 -4.1778034461964255
0.7893810783431114 -4.0039574737946175
0.7956548025638644 -3.8041811109385386
0.8008112081536584 -3.5826637337970224
0.8049917944305528 -3.343355531723069
0.8082932418746294 -3.0899148080771233
0.8107865732421439 -2.8256878214600225
0.8125352573862269 -2.553695213532812
0.8136441990184134 -2.276533752766832
0.8142710626876175 -1.9962667772307736
0.8146171733192227 -1.7143080935125723
0.8148219942296296 -1.4314535688508516
0.814939801585248 -1.14805601002785
0.8149856625045955 -0.8642525410519937
0.8149816959204387 -0.5801193613148239
0.8149820860947132 -0.2957659277460535
0.8153418832006205 -0.011114755609621194
0.7167071143539765 -0.01140502815671536
0.7169494167144036 -0.2957968508130598
0.7169149307618642 -0.5801191610778103
0.7168494934202139 -0.8642426391685342
0.7167972846624616 -1.148052174608951
0.7167702957690867 -1.431459238650479
0.7167596106127903 -1.714322817118212
0.7167555078843223 -1.9962939117113145
0.7167537930098623 -2.2765854364893277
0.7167535669555295 -2.553791987595584
0.7167536106433621 -2.8258490951874133
0.716751478656427 -3.0901566889035346
0.7167405845678261 -3.343689414611852
0.7167194687871189 -3.58310292496574
0.7167099217944225 -3.804746916070174
0.7167932059394773 -4.004686556678339
0.7171566836494404 -4.178756685095254
0.7181411317827067 -4.3226988782947116
0.7202079855794044 -4.432417999144518
0.7238735028200971 -4.5042148030732125
0.7305424504552244 -4.534861031440204
0.7372113980903514 -4.5042148030730536
0.7408769153310438 -4.4324179991441985
0.74294376912774 -4.322698878294252
0.7439282172610049 -4.178756685094685
0.7442916949709694 -4.004686556677694
0.7443749791160251 -3.804746916069471
0.7443654321233301 -3.583102924965002
0.7443443163426249 -3.3436894146111005
0.7443334222540257 -3.0901566889027925
0.7443312902670923 -2.8258490951867032
0.7443313339549257 -2.553791987594922
0.7443311079005935 -2.276585436488724
0.7443293930261337 -1.9962939117107767
0.7443252902976658 -1.7143228171177454
0.7443146051413696 -1.4314592386500884
0.7442876162479948 -1.1480521746086338
0.7442354074902426 -0.8642426391682925
0.7441699701485924 -0.5801191610776417
0.7441354841960527 -0.2957968508129654
0.7443777865564795 -0.011405028156697831
0.7876263861570492 -0.011621865952003898
0.7877870322786957 -0.29582795275811175
0.7877194506172428 -0.580113520926894
0.787593486079364 -0.864224904986038
0.7874458483687848 -1.1480344839625591
0.787276293178148 -1.4314439741416247
0.787050530488786 -1.7143055560380385
0.7866958546995525 -1.9962658936893938
0.7860662106633451 -2.2765334840613787
0.7849573759553158 -2.55369519947374
0.7832089346952787 -2.8256875371769348
0.7807097004285335 -3.0899117945555648
0.777385808866222 -3.343347643150979
0.7731647943905997 -3.58265417341763
0.7679948832918962 -3.8041910548489914
0.7618948689806555 -4.004045472914785
0.7550140494521562 -4.178087308724094
0.7476930505828555 -4.322103271472338
0.7404456769787858 -4.432001401620859
0.7340130615844392 -4.504126604088231
0.7305424504552055 -4.535859265132595
0.727071839325971 -4.504126604088071
0.7206392239316249 -4.432001401620539
0.7133918503275594 -4.322103271471879
0.7060708514582644 -4.178087308723526
0.6991900319297727 -4.00404547291414
0.6930900176185385 -3.80419105484829
0.687920106519842 -3.582654173416893
0.6836990920442266 -3.3433476431502287
0.6803752004819227 -3.0899117945548245
0.677875966215184 -2.825687537176225
0.6761275249551523 -2.5536951994730783
0.6750186902471259 -2.2765334840607756
0.6743890462109206 -1.996265893688856
0.674034370421688 -1.7143055560375717
0.6738086077323268 -1.431443974141234
0.67363905254169 -1.148034483962242
0.673491414831111 -0.8642249049857965
0.6733654502932322 -0.5801135209267254
0.6732978686317793 -0.29582795275801743
0.6734585147534256 -0.011621865951986091
0.8585115359112305 -0.011786421370084444
0.8586176039940778 -0.29585780788446925
0.8585205862149448 -0.5801027384662572
0.8583367610596121 -0.8641994661843606
0.8580970897482461 -1.148003542320992
0.8577886413264554 -1.4314082115005926
0.8573498498751806 -1.7142555471243541
0.8566094901496629 -1.9961710582813772
0.8552490784802981 -2.276331344548583
0.8529135655003351 -2.5533097291945945
0.8493111920157568 -2.8250620606405272
0.8442390352751149 -3.0890093497232702
0.8375425215196828 -3.342139498701321
0.8290776117126186 -3.5811128580828653
0.8187181415091374 -3.8022996664863786
0.8064113097542175 -4.001813168518323
0.7922627447845946 -4.175567465757268
0.7765977048144365 -4.3194028321231
0.7600280972762458 -4.429286895365371
0.7438127153470442 -4.5017702973911895
0.7305424504551874 -4.5346904786902416
0.7172721855633308 -4.5017702973910305
0.7010568036341318 -4.429286895365053
0.6844871960959483 -4.319402832122643
0.6688221561258018 -4.175567465756704
0.6546735911561921 -4.001813168517681
0.6423667594012846 -3.802299666485679
0.6320072891978157 -3.5811128580821316
0.6235423793907637 -3.3421394987005733
0.6168458656353437 -3.0890093497225317
0.6117737088947132 -2.8250620606398194
0.6081713354101443 -2.5533097291939337
0.6058358224301879 -2.2763313445479803
0.6044754107608268 -1.9961710582808396
0.6037350510353113 -1.7142555471238874
0.6032962595840374 -1.431408211500202
0.6029878111622471 -1.1480035423206751
0.6027481398508813 -0.8641994661841188
0.6025643146955487 -0.5801027384660886
0.6024672969164158 -0.2958578078843749
0.6025733649992631 -0.01178642137006643
0.9293802062234945 -0.011909178514303832
0.9294458394163896 -0.2958847401552911
0.9293230301588908 -0.5800874017336127
0.9290848434984008 -0.8641666693871207
0.9287570055203372 -1.147960176558896
0.9283147022878622 -1.4313527286419878
0.9276478810767668 -1.7141659679747474
0.9264547863935568 -1.9959767964490351
0.9242684363394185 -2.275919622366799
0.9206021163527328 -2.5525686087450716
0.9150533686964024 -2.8239121678623365
0.907332173016588 -3.0873957964196275
0.8972029624535184 -3.3400151699799916
0.8844422646030247 -3.5784315512358797
0.8688387684156144 -3.7990244116548118
0.8502550861093591 -3.9979357316206015
0.828728608993845 -4.1711318625001015
0.8045941865845098 -4.314527853673808
0.7787024390338004 -4.424228440716929
0.7528026425964627 -4.497038687515687
0.7305424504551699 -4.531424996260213
0.7082822583138783 -4.497038687515529
0.6823824618765455 -4.424228440716613
0.6564907143258465 -4.314527853673354
0.6323562919165274 -4.171131862499541
0.6108298148010316 -3.9979357316199633
0.5922461324947944 -3.7990244116541163
0.576642636307402 -3.57843155123515
0.5638819384569256 -3.3400151699792477
0.553752727893873 -3.087395796418892
0.5460315322140744 -2.8239121678616317
0.5404827845577576 -2.552568608744414
0.5368164645710813 -2.2759196223661973
0.5346301145169491 -1.9959767964484985
0.5334370198337428 -1.7141659679742811
0.5327701986226491 -1.4313527286415975
0.5323278953901743 -1.147960176558579
0.5320000574121111 -0.8641666693868791
0.5317618707516213 -0.5800874017334441
0.5316390614941224 -0.2958847401551968
0.5317046946870176 -0.011909178514285648
1.0002460594474305 -0.011996793902215256
1.0002779148518632 -0.2959072593973839
1.000131359865568 -0.5800679176361901
0.9998424608374276 -0.8641270701352564
0.9994308188613907 -1.147905437426899
0.9988562633594483 -1.4312764538970608
0.9979295159933648 -1.7140223627161613
0.9962172589878778 -1.9956513783479688
0.9931239836991123 -2.2752601769178837
0.9880463961654841 -2.5514377730066764
0.9804882118357485 -2.8222099721988148
0.9700688669353387 -3.085047458575473
0.9564650466362975 -3.3369533624443695
0.9393695335218711 -3.574589504117823
0.9184834182408511 -3.794342641442319
0.8935721971056914 -3.992383722584526
0.8645972896404353 -4.164743449516189
0.8319461760295909 -4.307455019037438
0.7967559354449796 -4.4168251385552
0.7614444334274637 -4.490022047285518
0.730542450455153 -4.526167534525931
0.6996404674828443 -4.49002204728536
0.6643289654653358 -4.416825138554886
0.6291387248807382 -4.307455019036987
0.5964876112699139 -4.164743449515634
0.5675127038046804 -3.992383722583892
0.542601482669544 -3.7943426414416286
0.5217153673885471 -3.574589504117098
0.5046198542741437 -3.3369533624436305
0.4910160339751246 -3.085047458574743
0.4805966890747346 -2.8222099721981144
0.4730385047450163 -2.5514377730060214
0.467960917211401 -2.2752601769172847
0.46486764192264407 -1.9956513783474337
0.46315538491716224 -1.7140223627156954
0.46222863755108096 -1.431276453896671
0.4616540820491393 -1.1479054374265822
0.4612424400731027 -0.8641270701350148
0.4609535410449627 -0.5800679176360213
0.4608069860586676 -0.2959072593972896
0.46083884146310006 -0.011996793902196932
1.071117517221691 -0.012055259472668263
1.0711202550806802 -0.2959241144067863
1.070950825588845 -0.5800444856821457
1.0706147129356471 -0.8640813499952764
1.0701244022530596 -1.1478404864712952
1.0694101787254007 -1.4311752836054437
1.0681833575808355 -1.7138071337839016
1.065891422955166 -1.9951681578151212
1.0618233314504684 -2.274326846586616
1.0552811718565558 -2.549897189031037
1.0456805463986487 -2.819940633612729
1.0325349489828195 -3.0819508327768297
1.0154279172195577 -3.3329411283174752
0.9939716194125 -3.5695746511858433
0.9677841595426675 -3.7882424796507266
0.9365318538272251 -3.98514344133309
0.9001121620367422 -4.1563907942181
0.8589765103151578 -4.2981824127200765
0.8145951850947409 -4.407107352099095
0.7700310258632574 -4.480773922181877
0.7305424504551362 -4.518937417783017
0.6910538750470178 -4.480773922181721
0.6464897158155445 -4.407107352098784
0.6021083905951449 -4.2981824127196315
0.5609727388735839 -4.1563907942175495
0.5245530470831284 -3.985143441332463
0.49330074136771423 -3.7882424796500413
0.4671132814979101 -3.5695746511851247
0.4456569836908804 -3.3329411283167425
0.42854995192764556 -3.081950832776105
0.41540435451184055 -2.8199406336120334
0.40580372905395445 -2.5498971890303865
0.39926156946005786 -2.2743268465860202
0.3951934779553713 -1.9951681578145872
0.39290154332970867 -1.7138071337834362
0.39167472218514676 -1.4311752836050537
0.39096049865748883 -1.1478404864709784
0.3904701879749018 -0.8640813499950349
0.3901340753217041 -0.5800444856819771
0.3899646458298689 -0.29592411440669203
0.3899673836888584 -0.012055259472649857
1.1420002958763693 -0.012090294950670365
1.1419784660161414 -0.2959345337817097
1.1417869957641624 -0.580017126010933
1.1414064822520502 -0.8640302945763768
1.1408399016416435 -1.1477652717211908
1.1399697618029383 -1.4310417860590945
1.1384019393624842 -1.7135027060950077
1.1354744508795358 -1.9945051021555245
1.130382929625637 -2.273102976331353
1.1223545136822641 -2.5479366128397203
1.1106942377327789 -2.817095928655426
1.094809529020643 -3.0780982719323
1.0741870868659682 -3.32797053072548
1.0483559768527582 -3.5633798161540087
1.016862623992956 -3.780720376541262
0.9793060725247401 -3.9762186492144003
0.9355209343786157 -4.1460847200113
0.8860139260413527 -4.286729967617841
0.8325560395250521 -4.395100440726394
0.778759510991319 -4.46929810341665
0.7305424504551196 -4.5097008016740805
0.6823253899189237 -4.469298103416497
0.6285288613852036 -4.395100440726087
0.5750709748689239 -4.2867299676174015
0.5255639665316879 -4.146084720010757
0.48177882838559527 -3.9762186492137808
0.444222276917413 -3.7807203765405846
0.41272892405764394 -3.5633798161532972
0.38689781404446705 -3.327970530724755
0.36627537188982395 -3.078098271931582
0.3503906631777165 -2.8170959286547372
0.33873038722825566 -2.5479366128390746
0.3307019712849019 -2.27310297633076
0.3256104500310162 -1.9945051021549924
0.3226829615480769 -1.7135027060945434
0.3211151391076272 -1.431041786058705
0.3202449992689236 -1.1477652717208742
0.31967841865851704 -0.8640302945761353
0.3192979051464051 -0.5800171260107644
0.3191064348944263 -0.29593453378161555
0.31908460503419844 -0.012090294950651899
1.212898085909794 -0.012107557794478007
1.2128571888221062 -0.2959382799893776
1.2126455520632171 -0.5799858493166459
1.2122228557761596 -0.8639745773786083
1.211578973785079 -1.1476787269217257
1.2105292339666223 -1.430866628029502
1.2085766804847562 -1.7130909885974555
1.2049653631801744 -1.9936461862818995
1.1988352137710465 -2.2715810489449217
1.1893116500609566 -2.5455510937359302
1.1755911028631252 -2.813672311096639
1.1569712302329302 -3.073486856653913
1.1328355063660143 -3.3220378795757304
1.1026285040531925 -3.5560014267074465
1.0658431202212162 -3.7717800652299425
1.022047887591242 -3.9656284383899605
0.9710560214651978 -4.133859483675421
0.9133767540900164 -4.273132986238395
0.8509497584582181 -4.380813432562763
0.7878101873783803 -4.455555100860766
0.7305424504551031 -4.498380700300811
0.6732747135318302 -4.455555100860615
0.6101351424520076 -4.380813432562461
0.5477081468202335 -4.273132986237961
0.4900288794450838 -4.133859483674887
0.4390370133190758 -3.9656284383893485
0.39524178068913984 -3.7717800652292746
0.3584563968572021 -3.556001426706744
0.32824939454441804 -3.322037879575014
0.30411367067753864 -3.073486856653203
0.28549379804737646 -2.813672311095957
0.2717732508495727 -2.5455510937352908
0.26224968713950464 -2.271581048944333
0.2561195377303926 -1.9936461862813706
0.25250822042582155 -1.713090988596993
0.250555666943961 -1.4308666280291131
0.24950592712550626 -1.147678726921409
0.24886204513442609 -0.8639745773783667
0.248439348847369 -0.5799858493164773
0.2482277120884799 -0.29593827998928346
0.24818681500079223 -0.012107557794459498
1.2838125161964526 -0.012112759122097805
1.2837600085104197 -0.2959357274528591
1.2835326147306079 -0.5799508134036446
1.2830692997761166 -0.8639147484471243
1.2823408634347808 -1.1475776038736003
1.2810817580507343 -1.4306378999147444
1.2786993456625193 -1.7125565385809378
1.2743857856240541 -1.9925843799929506
1.2672094232203264 -2.2697578049782834
1.2561973142320746 -2.542739863651594
1.2404320583417896 -2.809670840187547
1.2190960113523241 -3.068117936997462
1.191467137214549 -3.3151439484158822
1.1569020044586735 -3.5474400788462415
1.1148450738494406 -3.761428187895567
1.064889695060994 -3.953402067253349
1.0069034252138438 -4.119774015706812
0.9413626592162826 -4.257445011158023
0.8701047620006519 -4.364243054739959
0.7974130100025555 -4.4394630524466745
0.7305424504550863 -4.484847714219465
0.6636718909076222 -4.439463052446526
0.5909801389095432 -4.364243054739664
0.5197222416939408 -4.257445011157597
0.4541814756964156 -4.119774015706287
0.39619520584930673 -3.9534020672527475
0.3462398270609033 -3.761428187894909
0.3041828964517133 -3.5474400788455487
0.2696177636958808 -3.315143948415176
0.24198888955814682 -3.0681179369967606
0.22065284256871828 -2.8096708401868735
0.20488758667846443 -2.54273986365096
0.19387547769023683 -2.269757804977699
0.18669911528652747 -1.9925843799924254
0.18238555524807507 -1.712556538580477
0.18000314285986646 -1.4306378999143565
0.1787440374758227 -1.1475776038732841
0.1780156011344877 -0.8639147484468827
0.17755228617999658 -0.5799508134034761
0.17732489240018504 -0.295935727452765
0.17727238471415235 -0.012112759122079262
1.3547425332719523 -0.012111680652020281
1.354689369174191 -0.2959280628243166
1.354455351742357 -0.5799126268227957
1.353951327504639 -0.8638503951927862
1.3531221458524991 -1.147456755335695
1.3516183427329949 -1.4303412727406308
1.3487767800471044 -1.7118899419717715
1.3437507490050953 -1.991316425268407
1.335535099009406 -2.2676335600886777
1.323056465551658 -2.5395065629310647
1.3052780555984493 -2.805096592591786
1.2812616884447892 -3.0619972056639315
1.25017455026054 -3.307294025797999
1.2112865183540222 -3.537701135554093
1.1640064867241768 -3.749674960407757
1.1079638958194271 -3.9395679577100773
1.0431560641304833 -4.103896716129012
0.9701510410817453 -4.239763388354809
0.8905016890349172 -4.345401776884512
0.8079371899922554 -4.420881421667147
0.730542450455069 -4.4688912491436525
0.6531477109178894 -4.420881421667001
0.5705832118752467 -4.345401776884223
0.49093385982845084 -4.239763388354391
0.41792883677975423 -4.103896716128496
0.3531210050908569 -3.9395679577094866
0.2970784141861554 -3.7496749604071096
0.2497983825563578 -3.537701135553411
0.21091035064988808 -3.307294025797304
0.17982321246568425 -3.0619972056632405
0.1558068453120652 -2.8050965925911218
0.13802843535889106 -2.539506562930438
0.12554980190117 -2.2676335600880986
0.1173341519055011 -1.9913164252678854
0.1123081208635062 -1.711889941971313
0.10946655817762362 -1.430341272740244
0.10796275505812251 -1.1474567553353787
0.10713357340598373 -0.8638503951925446
0.1066295491682661 -0.5799126268226271
0.1063955317364324 -0.29592806282422246
0.10634236763867118 -0.01211168065200174
1.425683067883183 -0.012109988564322662
1.4256464299605365 -0.2959178453047849
1.4254233343342477 -0.5798726006945868
1.424873557618759 -0.8637790632359758
1.4239167049244894 -1.1473071197991658
1.4221358986193138 -1.4299664972768888
1.4188181953559598 -1.7110859474189812
1.41307701120458 -1.9898417162866044
1.4038416501443582 -2.265212782557422
1.3899341051482852 -2.53585903046495
1.3701917442723601 -2.799959076285887
1.343545029131452 -3.0551338927637253
1.3090494959209844 -3.298497777216353
1.2659014742962604 -3.5267970878880157
1.213471154718476 -3.736535579116735
1.151419281701065 -3.9241470084458374
1.0798810654953102 -4.086276340799449
0.9996704217101675 -4.220208476467234
0.9124139251053569 -4.324453851920925
0.8207135953148188 -4.399636658683649
0.7305424504550515 -4.449999999999992
0.6403713055952914 -4.399636658683506
0.5486709758047746 -4.324453851920642
0.461414479200001 -4.220208476466826
0.38120383541490593 -4.086276340798944
0.30966561920920244 -3.924147008445259
0.24761374619184484 -3.7365355791161003
0.19518342661411353 -3.526797087887347
0.15203540498944174 -3.29849777721567
0.11753987177902461 -3.055133892763046
0.09089315663816157 -2.7999590762852318
0.0711507957622738 -2.5358590304643314
0.05724325076623039 -2.2652127825568495
0.048007889706030996 -1.9898417162860869
0.04226670555466738 -1.7110859474185254
0.03894900229132207 -1.4299664972765032
0.03716819598615053 -1.14730711979885
0.03621134329188225 -0.8637790632357343
0.03566156657639408 -0.5798726006944184
0.03543847095010541 -0.2959178453046907
0.03540183302745907 -0.012109988564304142
SCALARS Stress float 6
LOOKUP_TABLE default
-1300.928963051967 -2106.6123307154367 -1628.0496938989613 -29.955025576940823 0.0 0.0
1390.0474550676636 820.1916458114222 1047.4872304004837 -19.625595209265025 0.0 0.0
638.1300998707428 178.9977307372185 268.1204349877404 -42.474462167959636 0.0 0.0
506.31720550684383 35.27715186589618 170.09393188714859 -0.6215994755821717 0.0 0.0
636.9135211289072 89.21740824820903 269.46736347961263 3.3003168665673344 0.0 0.0
766.2730143770308 146.3060516122627 405.46217651095725 1.730740364516845 0.0 0.0
903.4427987791704 207.8009555133678 532.9609220082924 0.2943367923233571 0.0 0.0
1045.6481358310389 287.1776512153961 652.981386672689 -1.2194949107877244 0.0 0.0
1198.6109179103091 382.83737784974613 779.2189702663202 -3.0175093095123877 0.0 0.0
1370.2457253612404 501.93940780113485 924.7922632326928 -4.981885581266793 0.0 0.0
1566.2468009742215 649.8578173066545 1096.4515885276355 -6.809819159953178 0.0 0.0
1786.3561269644124 826.5994614337085 1294.453130973217 -8.175799791494496 0.0 0.0
2024.6543252594397 1024.9817972512767 1512.3506027839107 -9.008426494035241 0.0 0.0
2273.2691276227088 1236.9319782070966 1742.214897493201 -9.63775211500345 0.0 0.0
2522.2081995905514 1452.2760026658243 1973.9567639166462 -10.025691907711995 0.0 0.0
2759.7776466171263 1659.3488961106477 2195.9233784615067 -10.067945682408997 0.0 0.0
2973.665663366731 1846.1887983444628 2396.0155374608803 -9.598044100713526 0.0 0.0
3151.88882609758 2001.2764881173528 2562.492504389106 -8.600859694986024 0.0 0.0
3293.7888690830587 2124.457577715444 2694.809844754286 -7.573328143535619 0.0 0.0
3384.1285800511223 2201.298634898094 2778.1189834819993 -10.295898156856321 0.0 0.0
3375.739123259321 2192.2565204607554 2769.5597588666014 -1.2715162256426993e-11 0.0 0.0
3384.1285800510736 2201.298634898119 2778.118983481797 10.295898156911058 0.0 0.0
3293.7888690809896 2124.4575777133978 2694.8098447526445 7.573328143643987 0.0 0.0
3151.8888260970343 2001.2764881169192 2562.4925043883704 8.60085969489426 0.0 0.0
2973.665663362951 1846.1887983407887 2396.0155374576375 9.598044100782149 0.0 0.0
2759.777646614967 1659.34889610861 2195.923378459678 10.067945682358022 0.0 0.0
2522.2081995892445 1452.2760026646838 1973.956763915228 10.025691907662656 0.0 0.0
2273.2691276219275 1236.9319782064922 1742.2148974923546 9.637752114785215 0.0 0.0
2024.6543252580266 1024.981797250097 1512.3506027825983 9.008426493877671 0.0 0.0
1786.3561269627746 826.5994614322776 1294.4531309719819 8.17579979149033 0.0 0.0
1566.246800972715 649.8578173054074 1096.4515885262988 6.809819159799927 0.0 0.0
1370.2457253613609 501.9394078015419 924.7922632325424 4.981885581328932 0.0 0.0
1198.6109179110097 382.83737785078347 779.2189702665131 3.0175093093374166 0.0 0.0
1045.6481358300305 287.1776512146429 652.9813866719065 1.2194949110792859 0.0 0.0
903.4427987783325 207.8009555128537 532.9609220075786 -0.29433679245079425 0.0 0.0
766.2730143754765 146.30605161087163 405.4621765097738 -1.730740364342136 0.0 0.0
636.9135211283791 89.21740824793397 269.46736347915373 -3.3003168665957077 0.0 0.0
506.31720550632787 35.2771518654709 170.0939318868428 0.6215994756471783 0.0 0.0
638.1300998702933 178.99773073702053 268.1204349874782 42.474462167875274 0.0 0.0
1390.0474550671877 820.1916458108506 1047.4872303999311 19.62559520943595 0.0 0.0
-1300.9289630490634 -2106.61233071259 -1628.0496938961455 29.955025576389684 0.0 0.0
-1656.5206636276191 -2433.8856792712813 -1939.1728762783005 -32.61001775193802 0.0 0.0
948.8433615762764 452.2488535778446 659.2064821913657 -27.302402650402314 0.0 0.0
446.99316774922806 70.08849032386708 154.41833193669157 -37.25810166842242 0.0 0.0
445.5384225359575 8.627397031082912 139.5383333816618 -15.547179164723081 0.0 0.0
563.0909373262829 40.36154445718279 215.41670268197316 -17.104002398237995 0.0 0.0
668.682111430579 58.419093574833305 317.56228957301505 -23.126308867924838 0.0 0.0
759.8211874232641 79.39591581476478 406.2672992631261 -24.45665936737355 0.0 0.0
846.7979001606561 101.90799273865466 471.3122369452336 -24.76316132347673 0.0 0.0
925.6591788509681 122.91229073273259 523.1196360848137 -25.508441871474453 0.0 0.0
997.960685037712 142.99584713601172 569.7268231232631 -26.433078111243873 0.0 0.0
1066.9297017910949 164.57772260763403 615.1056896532308 -26.96061305009394 0.0 0.0
1135.0372659292464 189.28403277650634 661.5372609849454 -26.989736214740667 0.0 0.0
1201.8820878413217 217.21892091604076 708.9460363657183 -26.60668627336911 0.0 0.0
1264.8665270390516 244.00887130267458 753.8461201804203 -26.022296121352856 0.0 0.0
1318.7155076203358 264.73862224999806 791.1511701946788 -25.232644291291173 0.0 0.0
1359.1641584059237 275.1036536947886 816.5766656101458 -23.993412372790406 0.0 0.0
1383.6757161656487 272.79342052113606 827.6904006168479 -22.068098235191997 0.0 0.0
1392.713567221181 258.72106881498985 825.1752296846824 -19.568374894739044 0.0 0.0
1379.458427854855 226.8071797376216 802.7054711110287 -17.399213362499218 0.0 0.0
1296.1297391338878 130.53455818679072 713.6227768657242 -18.55717775255565 0.0 0.0
1159.205214925947 -6.153531696967505 577.906998296475 5.851319428984425e-11 0.0 0.0
1296.129739134542 130.53455818750132 713.6227768661556 18.557177752600946 0.0 0.0
1379.458427854458 226.80717973728076 802.7054711107487 17.39921336262686 0.0 0.0
1392.7135672222362 258.72106881612467 825.1752296854777 19.568374894624554 0.0 0.0
1383.6757161666537 272.7934205222935 827.6904006176321 22.068098235188156 0.0 0.0
1359.1641584049482 275.1036536939398 816.5766656094743 23.993412372742846 0.0 0.0
1318.7155076205363 264.7386222503673 791.1511701948108 25.232644291256946 0.0 0.0
1264.8665270385522 244.00887130232803 753.8461201801301 26.022296121205223 0.0 0.0
1201.8820878400822 217.21892091499663 708.9460363648993 26.606686273268277 0.0 0.0
1135.037265929705 189.28403277722123 661.5372609854035 26.989736214759123 0.0 0.0
1066.9297017909018 164.57772260768743 615.1056896530661 26.96061305007236 0.0 0.0
997.960685037982 142.99584713655992 569.7268231234538 26.433078111255288 0.0 0.0
925.6591788510665 122.91229073310873 523.1196360848235 25.508441871426548 0.0 0.0
846.7979001604083 101.90799273870566 471.3122369450466 24.763161323631273 0.0 0.0
759.8211874229556 79.39591581474897 406.26729926281524 24.456659367205685 0.0 0.0
668.6821114295724 58.41909357408699 317.5622895722254 23.126308867991476 0.0 0.0
563.0909373262373 40.36154445758484 215.41670268186888 17.10400239814281 0.0 0.0
445.53842253555456 8.627397030916182 139.53833338148675 15.547179164814278 0.0 0.0
446.9931677488421 70.08849032336103 154.4183319364338 37.25810166828401 0.0 0.0
948.8433615756364 452.2488535772306 659.2064821906624 27.302402650490276 0.0 0.0
-1656.5206636256057 -2433.8856792692445 -1939.172876276209 32.610017751443 0.0 0.0
-1395.7077241956854 -2138.0345385425 -1651.1255437741395 -71.03641333428305 0.0 0.0
768.8901451887854 360.029901803747 516.2292586046307 -95.33145824461798 0.0 0.0
309.2827511281752 80.1894263851465 116.89738110914011 -41.36796122824068 0.0 0.0
382.6046451795434 2.646332841788169 115.86508891102412 -37.40658498437452 0.0 0.0
517.8388149718409 30.233155690096616 184.13017467941972 -39.625413604866544 0.0 0.0
634.7574601837374 52.46062379774989 285.72044600186746 -43.377672687503065 0.0 0.0
729.3591376614525 73.63095998464277 382.2504189933477 -45.190293699755884 0.0 0.0
815.7574755329335 92.17948428520808 449.36565636791954 -46.049410951072716 0.0 0.0
891.2590934012137 109.31780540485661 498.71690542081706 -47.55414748730826 0.0 0.0
959.5254916288436 125.37569117841201 541.4027092698507 -48.849703649547266 0.0 0.0
1025.203139171391 144.18039873657636 583.7428476087159 -49.200089503188806 0.0 0.0
1090.4420167418884 167.1759951414918 627.892500288104 -48.70676808737771 0.0 0.0
1154.7353550876376 192.41067134391855 672.6979969391257 -47.799194243306324 0.0 0.0
1214.5600740005823 217.180323907581 715.023066750437 -46.59302309149701 0.0 0.0
1266.9284517592698 236.94454612604574 751.097633547203 -45.03791456882497 0.0 0.0
1307.7196324705242 248.02390480224386 777.037642432867 -42.82614664282555 0.0 0.0
1334.2840653804158 247.9040580446976 790.2807146625628 -39.6448086697517 0.0 0.0
1342.0965038885201 232.56607303432338 786.6084360267157 -35.803102775369915 0.0 0.0
1316.7540520461139 188.61515215106738 752.2461724017282 -32.4220592666337 0.0 0.0
1270.3185865268597 129.5492061066108 699.8536776757186 -30.64516730490231 0.0 0.0
1113.1599530006429 -26.612549826466264 544.4268811575362 8.696865450019686e-11 0.0 0.0
1270.318586526933 129.54920610673986 699.8536776756703 30.645167305160264 0.0 0.0
1316.7540520457976 188.6151521507802 752.2461724015973 32.42205926665656 0.0 0.0
1342.0965038902448 232.56607303617594 786.6084360279722 35.803102775420186 0.0 0.0
1334.284065382153 247.90405804653602 790.2807146639105 39.6448086698677 0.0 0.0
1307.7196324708098 248.02390480270958 777.037642433038 42.826146642873 0.0 0.0
1266.9284517591932 236.9445461261109 751.0976335471369 45.037914568787784 0.0 0.0
1214.5600739994331 217.18032390658942 715.0230667497086 46.59302309140243 0.0 0.0
1154.7353550872203 192.41067134374796 672.6979969388541 47.79919424340308 0.0 0.0
1090.4420167424994 167.17599514233564 627.8925002885783 48.706768087349566 0.0 0.0
1025.203139170493 144.18039873589987 583.7428476081196 49.20008950315476 0.0 0.0
959.5254916294103 125.37569117923785 541.4027092702247 48.84970364952259 0.0 0.0
891.2590934006558 109.31780540462975 498.71690542043905 47.554147487353085 0.0 0.0
815.7574755323733 92.17948428487767 449.36565636753505 46.04941095105912 0.0 0.0
729.3591376612518 73.6309599847381 382.2504189930879 45.19029369952079 0.0 0.0
634.7574601832151 52.46062379752962 285.72044600135666 43.37767268748316 0.0 0.0
517.8388149715136 30.23315569006424 184.13017467918417 39.62541360475273 0.0 0.0
382.6046451792737 2.646332841796675 115.86508891094772 37.406584984273586 0.0 0.0
309.28275112796933 80.18942638477179 116.89738110896151 41.367961228168156 0.0 0.0
768.8901451880785 360.02990180347683 516.2292586039855 95.33145824459675 0.0 0.0
-1395.7077241936481 -2138.034538540451 -1651.125543771986 71.03641333392127 0.0 0.0
-1146.1597654947254 -1857.7677493696463 -1380.6669380387468 -84.81879553333287 0.0 0.0
589.4672276213995 264.6883063898519 383.37263419600833 -145.860293312145 0.0 0.0
223.4353166465317 66.78745221532338 87.06683065855653 -62.71161360410377 0.0 0.0
318.09668075439197 8.304208335135698 97.67827034898677 -60.4653281145216 0.0 0.0
461.9947897631006 18.034173489494403 152.37557748360393 -64.71544939720171 0.0 0.0
588.6915758311923 44.98342115458424 248.3481387073923 -64.84139836457095 0.0 0.0
695.2353494875213 66.00409641756204 352.365552762502 -67.22947474516023 0.0 0.0
779.8499614991734 82.6328406245408 423.9080824404232 -67.50924968520519 0.0 0.0
852.7331522145063 95.99828829966953 472.0863523132478 -69.18408437964747 0.0 0.0
917.3405975330747 108.38834214787283 511.4108325992767 -70.46373958612953 0.0 0.0
979.3497524964006 124.06153404522115 550.3654847659485 -70.48531226853171 0.0 0.0
1041.7569075662861 144.42700131578704 591.7891437576044 -69.58641908480371 0.0 0.0
1103.0083340666981 167.89028370896165 634.2221476495316 -68.15553329491199 0.0 0.0
1160.1717504234248 189.72351492875836 673.7583204757186 -66.42258533180717 0.0 0.0
1210.697243510391 208.32835569700325 708.322039870795 -64.16929086001988 0.0 0.0
1252.4038955697213 220.84354851960444 735.4349782340797 -61.129609918248846 0.0 0.0
1280.5461863648673 222.19632912893073 750.2296174466597 -57.13868468268932 0.0 0.0
1287.4049672272722 205.71393622530826 745.5814867485815 -52.42962151513082 0.0 0.0
1269.5899854213746 169.02667107587854 718.5735053593655 -47.290678634721885 0.0 0.0
1242.3010899966953 128.44862506932705 684.8388877374828 -41.07453247942959 0.0 0.0
1022.9495932003599 -89.3699395915229 468.15585488276065 1.1009859690602752e-10 0.0 0.0
1242.3010899947808 128.44862506741842 684.8388877361568 41.074532479746225 0.0 0.0
1269.5899854215318 169.02667107610029 718.5735053594778 47.29067863461203 0.0 0.0
1287.4049672290435 205.7139362271385 745.5814867498093 52.429621515093274 0.0 0.0
1280.54618636354 222.19632912775077 750.2296174456822 57.13868468269335 0.0 0.0
1252.4038955710507 220.84354852106875 735.4349782350093 61.12960991832626 0.0 0.0
1210.6972435107805 208.3283556975301 708.3220398710415 64.16929085988116 0.0 0.0
1160.171750422552 189.72351492806342 673.758320475062 66.4225853317804 0.0 0.0
1103.008334067299 167.89028370978863 634.2221476499059 68.15553329503433 0.0 0.0
1041.756907566359 144.42700131603812 591.7891437576354 69.58641908466957 0.0 0.0
979.3497524957887 124.06153404489586 550.365484765536 70.48531226860659 0.0 0.0
917.340597534 108.38834214911381 511.4108325998879 70.46373958619638 0.0 0.0
852.7331522137135 95.99828829910902 472.0863523127361 69.18408437961324 0.0 0.0
779.8499614985238 82.632840624165 423.9080824399607 67.50924968507732 0.0 0.0
695.2353494869269 66.00409641721015 352.3655527619548 67.22947474503763 0.0 0.0
588.6915758307027 44.98342115444131 248.34813870694083 64.84139836444548 0.0 0.0
461.9947897621128 18.03417348853166 152.37557748299244 64.7154493971857 0.0 0.0
318.0966807545197 8.304208335413461 97.67827034910684 60.4653281144398 0.0 0.0
223.43531664676775 66.78745221547659 87.06683065867328 62.7116136039405 0.0 0.0
589.4672276209612 264.688306389717 383.37263419551726 145.86029331198534 0.0 0.0
-1146.1597654930515 -1857.767749367827 -1380.6669380368378 84.81879553316878 0.0 0.0
-928.1333297946671 -1614.0632500484369 -1142.4525854048884 -83.25758509247332 0.0 0.0
456.7656848758298 179.26679833390375 278.56956571673436 -178.9326239577405 0.0 0.0
163.18215962494023 51.6794834673244 64.45849292767937 -93.5473519641975 0.0 0.0
258.8064981573244 14.586321144206295 82.0000619946146 -85.58548815566917 0.0 0.0
396.141869010547 10.29030371210627 123.86613807602363 -91.2698170976966 0.0 0.0
533.0541029286004 32.14261515856374 206.23647264701248 -90.03803381421321 0.0 0.0
649.8870199591765 57.07305587188634 313.8277725901856 -89.53042013491421 0.0 0.0
738.1320636213098 73.66147456454078 394.1380305361249 -89.36897578559712 0.0 0.0
809.467230211863 83.29416498957843 442.79282582017066 -90.3213652229311 0.0 0.0
870.4930755339215 91.76986290289096 479.06597134181357 -91.23915748664501 0.0 0.0
929.143258956377 104.06473342968526 514.7204820829743 -90.8414949726403 0.0 0.0
988.1957576395441 121.60555271288571 553.0724649807145 -89.5293906100145 0.0 0.0
1046.5132749583852 142.2035746619251 592.6319087790393 -87.74458155178655 0.0 0.0
1100.924678271349 162.68991391866476 630.1502037189713 -85.46401910194609 0.0 0.0
1149.7366959094634 179.59443779049542 663.0150393281453 -82.55931442243504 0.0 0.0
1191.1169432448128 191.61906043347915 689.7035814412986 -78.94480439271467 0.0 0.0
1221.3110811946276 195.3598292375264 706.7321651951737 -74.50989463546534 0.0 0.0
1233.7177986224915 184.15621657514927 707.5089511707124 -69.13129066794554 0.0 0.0
1225.0971314358726 155.84733322817544 689.2685393845293 -61.98702439781577 0.0 0.0
1206.9392703148687 122.88646382341247 663.8548606953548 -51.742337359424106 0.0 0.0
911.5397831221891 -170.26896404346942 372.40551072267624 1.4496670530661504e-10 0.0 0.0
1206.939270315212 122.88646382386784 663.8548606959649 51.74233735977071 0.0 0.0
1225.0971314349752 155.84733322730878 689.2685393838202 61.987024397936864 0.0 0.0
1233.7177986216248 184.15621657431032 707.5089511701711 69.13129066795662 0.0 0.0
1221.3110811942588 195.35982923733945 706.7321651947407 74.50989463553454 0.0 0.0
1191.1169432450201 191.61906043376723 689.7035814415437 78.94480439266233 0.0 0.0
1149.7366959099388 179.59443779115952 663.0150393285276 82.55931442248273 0.0 0.0
1100.9246782712721 162.6899139187825 630.1502037188658 85.4640191019958 0.0 0.0
1046.513274957724 142.20357466144554 592.6319087786316 87.7445815517532 0.0 0.0
988.1957576399831 121.60555271360488 553.0724649810321 89.52939061014789 0.0 0.0
929.1432589564088 104.06473342994443 514.7204820829279 90.84149497268147 0.0 0.0
870.4930755346768 91.7698629039397 479.06597134233385 91.23915748660785 0.0 0.0
809.4672302107722 83.29416498869458 442.7928258194573 90.32136522281787 0.0 0.0
738.1320636211914 73.66147456476216 394.1380305359672 89.36897578561135 0.0 0.0
649.8870199584928 57.07305587142787 313.82777258956344 89.53042013481236 0.0 0.0
533.0541029283299 32.142615158745436 206.23647264677405 90.03803381422003 0.0 0.0
396.1418690100449 10.290303711913111 123.8661380758048 91.26981709761723 0.0 0.0
258.8064981574131 14.58632114441313 82.00006199469935 85.585488155723 0.0 0.0
163.1821596247825 51.679483466920175 64.4584929275108 93.54735196408508 0.0 0.0
456.7656848753428 179.26679833373055 278.5695657162694 178.93262395744821 0.0 0.0
-928.1333297932146 -1614.0632500467482 -1142.4525854031713 83.25758509244484 0.0 0.0
-735.9841169114918 -1398.8157211370224 -930.1706570818727 -78.48783472095319 0.0 0.0
352.4601971448973 112.60473263453622 197.40492751315068 -198.6139847955787 0.0 0.0
118.06717672321551 35.31986462302303 46.016112403871574 -123.25703194614606 0.0 0.0
206.47912459636106 19.065660920175823 67.66915184315462 -111.00287535826902 0.0 0.0
325.0935191826662 6.555230431304069 98.96086225596476 -117.95690605159746 0.0 0.0
462.52958285715084 19.50724145736722 163.7735578695472 -116.66546454349782 0.0 0.0
588.6805640660524 47.35229590428801 266.7124125872447 -113.04247789460925 0.0 0.0
688.911078777129 62.39843352789325 356.12992264687455 -112.17237781141625 0.0 0.0
758.6655520094032 70.92840592484129 408.8658141443127 -110.96936888724946 0.0 0.0
818.1644103345632 75.3288346986386 443.6600939956048 -111.16834293587515 0.0 0.0
873.3682162616326 84.15278115429811 476.08507911664816 -110.23476703833491 0.0 0.0
929.0630520903791 98.80177368849466 511.3434510246127 -108.47916077065634 0.0 0.0
984.1208815502625 116.92216948969121 548.0614302855064 -106.34162924610706 0.0 0.0
1035.6599337404712 134.5346999628879 582.73786251582 -103.73315580821661 0.0 0.0
1082.309857788403 149.96864705132853 613.8145860526613 -100.28656800363729 0.0 0.0
1122.952839416476 161.81072243682934 640.0525468430388 -96.07501237249332 0.0 0.0
1156.0379430779726 167.81463790409148 659.6152080732849 -91.47350720847345 0.0 0.0
1177.021726029998 164.93129598200676 668.8192602942854 -85.76347374204732 0.0 0.0
1178.8795358704015 146.11320061105707 660.5933382666976 -77.06821086938275 0.0 0.0
1166.2361748751593 116.29545564259672 639.5193022319164 -63.43336460247514 0.0 0.0
781.4069716671545 -265.0335714063591 260.55711310611764 1.7216272851783287e-10 0.0 0.0
1166.2361748767455 116.29545564429924 639.5193022333121 63.43336460280803 0.0 0.0
1178.8795358688624 146.11320060962066 660.5933382656077 77.06821086963345 0.0 0.0
1177.0217260290315 164.93129598113833 668.8192602936226 85.76347374210508 0.0 0.0
1156.0379430783842 167.81463790459594 659.6152080734367 91.47350720854523 0.0 0.0
1122.952839416553 161.8107224369948 640.0525468431435 96.07501237232309 0.0 0.0
1082.309857787726 149.96864705083212 613.8145860521226 100.28656800367865 0.0 0.0
1035.6599337400476 134.53469996260208 582.737862515525 103.73315580826309 0.0 0.0
984.1208815488324 116.92216948838794 548.0614302844889 106.34162924598397 0.0 0.0
929.0630520907254 98.80177368905217 511.3434510248915 108.47916077071339 0.0 0.0
873.3682162611954 84.15278115409042 476.08507911633956 110.23476703823879 0.0 0.0
818.1644103336055 75.32883469789493 443.66009399499546 111.16834293591533 0.0 0.0
758.6655520093577 70.92840592513524 408.86581414427167 110.96936888722787 0.0 0.0
688.9110787766572 62.39843352770433 356.1299226464979 112.17237781138185 0.0 0.0
588.680564065958 47.352295904635454 266.7124125869975 113.04247789454202 0.0 0.0
462.52958285666415 19.507241457331638 163.77355786923988 116.66546454352451 0.0 0.0
325.0935191822526 6.555230431280187 98.96086225585252 117.95690605142784 0.0 0.0
206.47912459658812 19.065660920557765 67.66915184333547 111.00287535819987 0.0 0.0
118.06717672310029 35.319864622938205 46.016112403811555 123.25703194599578 0.0 0.0
352.4601971443678 112.60473263422197 197.40492751270853 198.61398479529745 0.0 0.0
-735.984116909857 -1398.8157211352282 -930.1706570801831 78.48783472083791 0.0 0.0
-569.2414170701004 -1202.9924863341655 -740.8281777366788 -73.85460693177458 0.0 0.0
269.77107387812123 60.15274493622363 134.8385534286506 -211.13026054442972 0.0 0.0
82.12160655914504 19.77032851454571 30.56770882644129 -147.82068803815417 0.0 0.0
158.19035237455287 22.061389850766407 54.075610255630814 -134.465260231835 0.0 0.0
252.9964968771342 6.6660345388170255 77.36789012689867 -141.42838195248294 0.0 0.0
380.57332656047925 6.62214165324738 122.81694664294419 -146.39560903869068 0.0 0.0
512.3275719499418 32.58944363395743 211.23417922014434 -139.6026068472401 0.0 0.0
622.0220953058117 51.89859715476741 306.5396761687429 -134.79426510348446 0.0 0.0
700.969183696166 56.11678701701385 367.57251428246303 -132.69937561811844 0.0 0.0
757.2216919873792 58.99547356711424 403.11415316156575 -130.13198066595768 0.0 0.0
810.6296302126182 64.42014580008936 433.5260182049227 -128.5578988459248 0.0 0.0
862.8538349164274 75.93196294167892 465.5918247611334 -126.36609394215581 0.0 0.0
914.1792375945479 91.09059224243228 499.0112605809035 -123.90896679715426 0.0 0.0
962.6675070254488 106.59640550989823 531.1410390602081 -121.0656783687737 0.0 0.0
1006.636071462947 119.91108239539477 559.8802190117511 -117.32298018486098 0.0 0.0
1045.6029035755278 129.55481616866058 584.1947604694207 -112.72694444684016 0.0 0.0
1081.3631730958625 139.3008551647086 606.9040737808206 -107.64074264197941 0.0 0.0
1113.4693668755472 146.64510941613472 626.7190714804539 -102.0924598785993 0.0 0.0
1128.4043596671434 138.9782509711854 630.6486645710058 -92.97554245457123 0.0 0.0
1120.9782991162765 111.44587641966123 613.4317263952095 -76.99521532479898 0.0 0.0
630.9901618272136 -372.4929677869901 132.46638494542037 1.1949197187277605e-10 0.0 0.0
1120.978299115552 111.44587641901668 613.4317263948288 76.99521532501407 0.0 0.0
1128.4043596668846 138.97825097110635 630.6486645708273 92.97554245488055 0.0 0.0
1113.4693668766 146.64510941722006 626.7190714813287 102.09245987868867 0.0 0.0
1081.3631730948887 139.30085516373578 606.9040737801345 107.64074264191592 0.0 0.0
1045.6029035768186 129.5548161701758 584.194760470448 112.72694444687934 0.0 0.0
1006.6360714622498 119.91108239480684 559.8802190111596 117.3229801848548 0.0 0.0
962.667507024671 106.59640550928012 531.1410390596709 121.06567836877282 0.0 0.0
914.1792375937785 91.09059224190017 499.01126058025574 123.90896679728019 0.0 0.0
862.8538349156574 75.93196294093973 465.5918247606268 126.36609394197491 0.0 0.0
810.6296302118345 64.42014579938515 433.5260182044219 128.55789884572857 0.0 0.0
757.221691985663 58.99547356551511 403.1141531604514 130.13198066573833 0.0 0.0
700.9691836959056 56.11678701710316 367.5725142823052 132.6993756182117 0.0 0.0
622.0220953052635 51.89859715453259 306.5396761683123 134.7942651034071 0.0 0.0
512.3275719501186 32.58944363474914 211.2341792201604 139.6026068473509 0.0 0.0
380.5733265602295 6.622141653157918 122.8169466427561 146.395609038409 0.0 0.0
252.9964968765762 6.666034537853381 77.36789012645882 141.42838195219392 0.0 0.0
158.19035237484584 22.06138985148724 54.07561025593523 134.4652602315962 0.0 0.0
82.12160655916354 19.770328514625078 30.567708826470625 147.82068803789372 0.0 0.0
269.7710738775088 60.15274493587613 134.83855342821903 211.13026054427505 0.0 0.0
-569.2414170689999 -1202.9924863328217 -740.8281777353405 73.8546069317276 0.0 0.0
-422.14364062984424 -1031.7499718704757 -572.7285612341662 -76.72584893742989 0.0 0.0
199.8659663198467 20.463557374560736 86.02625096370727 -215.74477368843114 0.0 0.0
51.68967090400961 6.98713744718534 17.602683532891085 -166.26852456383108 0.0 0.0
111.65259080903117 23.37835969646524 40.50973932458258 -154.4494562884931 0.0 0.0
184.46276723085234 8.464948556792473 57.619761154337176 -161.43726812426178 0.0 0.0
287.269642359749 -0.31469828706737446 87.00886130914512 -174.01167599398863 0.0 0.0
414.3315100414819 15.691389476053784 151.5800365402599 -168.573761483566 0.0 0.0
534.4678305777437 36.27272111406707 241.38707098728747 -158.77124222655544 0.0 0.0
624.0477509282488 42.82610363957634 312.948794350739 -153.1798460773166 0.0 0.0
685.7817128015142 40.445668744061955 353.5674133094962 -149.33391585740162 0.0 0.0
736.553494966503 43.97824260097948 383.55727351341113 -145.65627097915527 0.0 0.0
785.7882036858589 53.11181370376087 413.3995066660128 -142.9177609873409 0.0 0.0
833.3909037014616 65.21319901520928 443.54577829092676 -140.15987573336255 0.0 0.0
877.83021359008 77.81812524680376 472.2393016001438 -137.22215250744122 0.0 0.0
919.2718978688231 89.24489917709074 498.81476837399276 -133.57935434931193 0.0 0.0
956.216790516308 97.8870653254153 521.7274101207914 -128.74215443999006 0.0 0.0
991.9864390856727 106.41984235535851 543.8484277413529 -123.11853528451579 0.0 0.0
1034.491245190174 123.98625336746812 573.7763143730659 -117.6392513474786 0.0 0.0
1069.3151783125577 135.3070769071014 597.1829118347149 -109.66032088290717 0.0 0.0
1071.9032948474774 113.61875370969815 588.1965769980903 -93.48965953676958 0.0 0.0
454.7293725997797 -491.86662338736505 -14.125875741382899 -3.7054803669889225e-12 0.0 0.0
1071.9032948476015 113.61875371001554 588.1965769982581 93.48965953694567 0.0 0.0
1069.3151783117248 135.30707690627162 597.1829118341261 109.66032088311236 0.0 0.0
1034.4912451895486 123.98625336689832 573.7763143728406 117.63925134758682 0.0 0.0
991.9864390843003 106.41984235419122 543.8484277402555 123.11853528454317 0.0 0.0
956.2167905170071 97.88706532632958 521.7274101212981 128.74215444026575 0.0 0.0
919.2718978690035 89.24489917750182 498.81476837413817 133.57935434941015 0.0 0.0
877.8302135895603 77.81812524644886 472.239301599809 137.2221525075069 0.0 0.0
833.3909037007857 65.21319901457102 443.5457782904564 140.1598757333912 0.0 0.0
785.7882036856308 53.111813703730384 413.3995066658563 142.91776098723264 0.0 0.0
736.5534949665989 43.97824260132935 383.5572735133518 145.65627097906713 0.0 0.0
685.7817128006229 40.44566874322539 353.5674133089495 149.33391585725863 0.0 0.0
624.0477509276978 42.826103639269675 312.94879435031567 153.1798460772412 0.0 0.0
534.4678305773582 36.272721114074876 241.3870709869508 158.77124222651398 0.0 0.0
414.331510040864 15.691389475705488 151.58003653981547 168.57376148355183 0.0 0.0
287.2696423594007 -0.31469828695077906 87.00886130905673 174.0116759937761 0.0 0.0
184.46276723061294 8.464948556614413 57.619761154222125 161.43726812399498 0.0 0.0
111.6525908089892 23.37835969662955 40.50973932462442 154.44945628824945 0.0 0.0
51.68967090384557 6.987137446969005 17.60268353277533 166.26852456363838 0.0 0.0
199.86596631948993 20.463557374404132 86.02625096345851 215.74477368829645 0.0 0.0
-422.14364062882044 -1031.74997186921 -572.7285612329943 76.72584893739096 0.0 0.0
-305.9759732701354 -868.0833336156977 -432.66644877862706 -81.04762075436828 0.0 0.0
139.9988272987973 -11.695003863784416 48.539068263727174 -214.06327565668875 0.0 0.0
23.65407733818169 -1.8370532026111634 6.545235167584091 -179.24116731745966 0.0 0.0
66.05766406045227 23.174626154658622 26.76130755211774 -170.37087692587787 0.0 0.0
117.94067954113554 11.468721635819152 38.69802572904462 -176.98860764717986 0.0 0.0
188.48526007734228 -0.5593973130194758 56.20902402461758 -194.72358851714938 0.0 0.0
292.11548276819815 0.3624301316829639 93.55634468354567 -200.50498449665113 0.0 0.0
415.2290112816379 14.00140001244784 160.2864068883432 -187.2142334924058 0.0 0.0
518.2344067249329 23.39368250880615 233.4117300918498 -173.37186450892526 0.0 0.0
588.893457704888 21.88548610692401 283.97521754248964 -166.14863153627815 0.0 0.0
641.628810785309 23.166275030691267 318.2156513617531 -160.88573324999675 0.0 0.0
688.4642051486545 29.320798507591604 347.00560281325613 -157.61461779828255 0.0 0.0
732.0877941916909 39.02792124525262 374.6376168929155 -154.62461912616817 0.0 0.0
771.8579331156963 48.64208014524481 399.7060527154518 -151.7354110155302 0.0 0.0
809.5579518244236 58.06061549754516 423.52210222582573 -148.56290191738933 0.0 0.0
845.7042541448691 66.5762206299756 446.1527558447723 -144.26974308078866 0.0 0.0
880.6300782192212 74.01455580044093 467.692164722122 -138.27575226721606 0.0 0.0
924.4591866745624 91.31162557922018 498.1741217232603 -131.85309950722967 0.0 0.0
984.5824729923185 125.49056007286677 545.3565702522714 -126.3721958127335 0.0 0.0
1017.094552039569 128.8006629059592 564.5115395492937 -114.73679300679227 0.0 0.0
243.1608668937312 -618.5669393338433 -181.2996437461598 7.30544513771747e-11 0.0 0.0
1017.0945520396117 128.8006629059685 564.5115395494925 114.73679300696733 0.0 0.0
984.5824729910872 125.49056007156628 545.3565702514916 126.3721958128806 0.0 0.0
924.459186673376 91.31162557816138 498.1741217227018 131.85309950731994 0.0 0.0
880.6300782186539 74.01455579972804 467.69216472161276 138.2757522670873 0.0 0.0
845.7042541445055 66.57622062966004 446.152755844559 144.26974308071289 0.0 0.0
809.5579518243339 58.060615497709165 423.5221022258908 148.56290191744944 0.0 0.0
771.8579331142688 48.642080143590135 399.70605271444396 151.73541101544188 0.0 0.0
732.0877941905135 39.027921243948896 374.6376168921071 154.6246191259046 0.0 0.0
688.4642051487396 29.320798508009204 347.00560281340876 157.61461779835835 0.0 0.0
641.6288107863865 23.16627503216902 318.2156513624556 160.88573325014366 0.0 0.0
588.8934577042061 21.885486106529488 283.97521754202836 166.1486315361903 0.0 0.0
518.2344067247769 23.39368250922735 233.41173009176873 173.37186450912654 0.0 0.0
415.2290112815324 14.00140001286875 160.2864068882739 187.21423349243307 0.0 0.0
292.1154827673513 0.36243013067142815 93.55634468295284 200.5049844964458 0.0 0.0
188.48526007744087 -0.559397312325304 56.20902402486544 194.7235885168935 0.0 0.0
117.9406795412306 11.468721636161229 38.69802572918623 176.98860764685995 0.0 0.0
66.05766406056601 23.17462615482635 26.761307552200684 170.37087692572547 0.0 0.0
23.654077338038913 -1.8370532027827418 6.545235167489 179.2411673172479 0.0 0.0
139.99882729842523 -11.695003863973248 48.53906826349703 214.06327565652705 0.0 0.0
-305.9759732694183 -868.0833336146733 -432.6664487777467 81.04762075435067 0.0 0.0
-211.37714901167115 -722.0596476304884 -317.0470128712295 -93.49829573902268 0.0 0.0
86.26265010964235 -37.48756465438407 18.92281817794895 -206.34292728453642 0.0 0.0
-3.5554581192486046 -5.954344034571125 -2.86965996092733 -186.7241230969144 0.0 0.0
20.93468747216886 21.905914446009152 12.848979160707835 -181.32122511000597 0.0 0.0
51.50898971515492 14.61775593254769 19.797398303848134 -187.9564576026192 0.0 0.0
90.75172415135265 2.921760576567875 28.00724152737341 -207.81909250887404 0.0 0.0
148.12995780101352 -2.6884630944508694 44.17599081341892 -223.18576132059798 0.0 0.0
239.26643404769408 -6.797442664872998 73.51136863004609 -221.2064076046192 0.0 0.0
349.49827542598786 -13.272405289103721 114.45431788370638 -200.97737756951167 0.0 0.0
434.367252553614 -12.609022473392347 158.3190167974255 -178.34675937025966 0.0 0.0
492.0239857427468 -3.621103500176801 197.7940991035327 -170.1296876962006 0.0 0.0
535.576396970132 4.376449453219642 229.4593799623693 -168.07333337541226 0.0 0.0
572.5236384479379 12.202194496415949 256.08924110846783 -167.24590135072333 0.0 0.0
606.169975006708 20.029613997673692 279.58111304024374 -166.38773988589648 0.0 0.0
638.8139676634502 28.13773680160918 302.4218959917517 -165.07234536977833 0.0 0.0
673.1480599094605 36.631360263625794 326.5249924497366 -162.6373452593678 0.0 0.0
710.2561444938441 44.454098518236975 352.09961905890805 -157.52159899560053 0.0 0.0
749.7749231614781 50.99687726270926 378.16922519232594 -149.75917829220737 0.0 0.0
817.4882847154848 83.61441539262626 428.5421597941614 -143.84862858286834 0.0 0.0
919.1446675590805 146.23581490558396 513.5366448908418 -143.4394908698965 0.0 0.0
-37.06151388702105 -744.1114787965089 -379.33030703055937 3.203837195542292e-11 0.0 0.0
919.1446675585283 146.2358149052323 513.5366448905658 143.439490870053 0.0 0.0
817.4882847145491 83.61441539175635 428.5421597936353 143.84862858326377 0.0 0.0
749.7749231625301 50.99687726467397 378.1692251931774 149.7591782925246 0.0 0.0
710.2561444945013 44.45409851926581 352.09961905924496 157.5215989956898 0.0 0.0
673.1480599086321 36.631360262557195 326.52499244927617 162.6373452594358 0.0 0.0
638.8139676643983 28.1377368029828 302.42189599235354 165.07234536977614 0.0 0.0
606.1699750058838 20.02961399671191 279.5811130396331 166.38773988568886 0.0 0.0
572.5236384474736 12.202194495647305 256.0892411079799 167.2459013506747 0.0 0.0
535.5763969696183 4.3764494525619995 229.45937996199314 168.0733333751799 0.0 0.0
492.02398574304715 -3.621103499566395 197.79409910377103 170.12968769623473 0.0 0.0
434.36725255351445 -12.609022473319895 158.3190167973629 178.34675937016004 0.0 0.0
349.49827542541135 -13.272405289336225 114.45431788341452 200.977377569637 0.0 0.0
239.26643404735194 -6.797442664766913 73.51136862995943 221.20640760469345 0.0 0.0
148.12995780060388 -2.6884630950892863 44.17599081310042 223.18576132040178 0.0 0.0
90.7517241514208 2.921760576944237 28.007241527516168 207.81909250852675 0.0 0.0
51.50898971494158 14.61775593219168 19.797398303681145 187.95645760248522 0.0 0.0
20.93468747221759 21.905914446206868 12.84897916078149 181.3212251098125 0.0 0.0
-3.5554581192354666 -5.954344034442899 -2.869659960887234 186.72412309675337 0.0 0.0
86.26265010929876 -37.48756465464825 18.922818177739874 206.34292728434656 0.0 0.0
-211.3771490111994 -722.0596476295447 -317.04701287058805 93.49829573913209 0.0 0.0
-146.64013967703113 -587.203759744512 -231.0540059590428 -106.77035463969952 0.0 0.0
36.477034714529864 -56.91031444771415 -4.743995246549073 -191.94865379338256 0.0 0.0
-30.28576678108159 -6.523001648539174 -11.042320193319236 -190.61754012825298 0.0 0.0
-23.586364240517742 20.18247264638676 -1.0347550389876434 -187.65711588784288 0.0 0.0
-14.144170980697204 17.46626697762664 0.994536068412732 -193.65623503349633 0.0 0.0
-6.908374373295228 7.239743783940235 0.10912358892967333 -212.79729174997357 0.0 0.0
-3.174542332208599 0.9458135693759036 -0.6700117137997736 -230.01326745216247 0.0 0.0
-1.2089702341873974 0.11403797118438863 -0.3322147730894578 -232.78065838356454 0.0 0.0
-0.4054866333463494 -0.004587736052203084 -0.1312409812124713 -226.1482327570618 0.0 0.0
-0.04904418635489094 -0.013726230917548321 -0.016059311224836392 -222.23365823677307 0.0 0.0
-0.4862059955211038 0.00732019639929149 -0.11559164729011684 -213.35986175487216 0.0 0.0
-1.0641411020592528 0.1893561673462969 0.2672934754280192 -200.18056869730327 0.0 0.0
-1.8332731167842837 1.0125457932730981 0.5359911096327608 -191.24802289396612 0.0 0.0
0.5402740384945162 3.0538814463729267 1.1425614611272579 -184.46867109197606 0.0 0.0
10.980584512801016 7.555209462261132 2.6901518708093164 -179.60706103349483 0.0 0.0
36.54835216525342 15.695510197698937 6.984498217691595 -175.35628626469642 0.0 0.0
86.90624539009083 29.379228399214128 16.511860478350144 -169.85099571293892 0.0 0.0
176.03276500716908 39.92320546611718 22.86716158416749 -160.64548434268036 0.0 0.0
399.25717940060076 -0.1955558877530308 41.27349371635705 -156.25197787706364 0.0 0.0
634.9044837035555 38.15322070774807 257.3504392114973 -204.34575050868864 0.0 0.0
-733.5191155867493 -998.5639750935106 -787.3532826798431 5.016431714466307e-12 0.0 0.0
634.904483704369 38.1532207089912 257.35043921207796 204.3457505084952 0.0 0.0
399.25717940063373 -0.19555588719853745 41.27349371647256 156.25197787794548 0.0 0.0
176.03276500857612 39.92320546849831 22.867161585563593 160.64548434329345 0.0 0.0
86.90624539015887 29.37922839906082 16.511860478189277 169.8509957135432 0.0 0.0
36.54835216513922 15.695510197138319 6.984498217444283 175.35628626432714 0.0 0.0
10.98058451353441 7.555209462945982 2.690151871333356 179.60706103369193 0.0 0.0
0.5402740386638385 3.053881446632893 1.1425614612260944 184.46867109189876 0.0 0.0
-1.833273115703932 1.0125457943253267 0.535991110350281 191.2480228939424 0.0 0.0
-1.06414110246196 0.18935616586688298 0.2672934747755491 200.18056869740482 0.0 0.0
-0.48620599487107796 0.007320197099698333 -0.1155916469200804 213.35986175484348 0.0 0.0
-0.04904418579598513 -0.013726231045417592 -0.016059311087570194 222.2336582363925 0.0 0.0
-0.40548663360612736 -0.004587737252860435 -0.1312409816601825 226.14823275694351 0.0 0.0
-1.2089702341546342 0.11403797110766245 -0.33221477309629677 232.78065838367988 0.0 0.0
-3.174542332096147 0.9458135693762038 -0.6700117137637935 230.01326745189183 0.0 0.0
-6.9083743731924265 7.239743784053763 0.1091235889954345 212.79729174978812 0.0 0.0
-14.144170980642498 17.46626697782866 0.9945360684884279 193.65623503329488 0.0 0.0
-23.58636424063799 20.182472646051355 -1.0347550391254237 187.65711588762167 0.0 0.0
-30.285766781105266 -6.523001648392745 -11.042320193284013 190.61754012817084 0.0 0.0
36.47703471419694 -56.91031444793864 -4.743995246733764 191.9486537931337 0.0 0.0
-146.64013967656024 -587.2037597436153 -231.05400595857378 106.77035463980378 0.0 0.0
-112.4021693134732 -466.23373676724833 -174.0394752838391 -114.4855425711684 0.0 0.0
-3.74160960414841 -68.79517451097011 -21.690606787401087 -175.15943454726812 0.0 0.0
-55.68873093121542 -5.769011807181042 -18.452102961575285 -189.66558155786538 0.0 0.0
-67.09306849602498 18.594874175221122 -14.57075053132808 -189.10237910360473 0.0 0.0
-78.56365384240242 19.598242565576378 -17.69943208665808 -193.649832033754 0.0 0.0
-103.25575029726977 11.330121728751143 -27.580171714843473 -209.286719060676 0.0 0.0
-153.7840358003748 4.602173659808652 -45.41720233733679 -224.22233372685199 0.0 0.0
-240.75493592401722 6.824053295170255 -74.1354334286141 -221.61024356161587 0.0 0.0
-349.76717644697493 13.113824077624429 -114.66601091517921 -201.032929933876 0.0 0.0
-434.38609496123036 12.574115857775958 -158.33949846516774 -178.31225410039508 0.0 0.0
-492.55132411110367 3.478827491173611 -198.1383404035878 -170.14408893318512 0.0 0.0
-536.431203750531 -4.2616273615619065 -230.41286138881756 -167.88194727709578 0.0 0.0
-573.4933666775628 -10.600091397715161 -256.68303930575564 -166.5438039191976 0.0 0.0
-603.7527739082655 -14.370040340815962 -276.03846251878366 -165.63644255679307 0.0 0.0
-624.4894176654354 -14.343348953394553 -286.74665510644843 -165.82387718629278 0.0 0.0
-633.6780253875042 -9.259895959025215 -286.6128284511003 -167.79790900830224 0.0 0.0
-629.9899844586523 0.6564168923038949 -273.75458609329064 -172.2811117621945 0.0 0.0
-622.1148914582833 8.154565220488138 -251.15704059176255 -181.5824215614729 0.0 0.0
-597.6626697722049 61.59687595720466 -186.1678823265085 -195.310234729393 0.0 0.0
-321.253279610769 188.5551812024834 54.44572622693002 -165.49147953219423 0.0 0.0
-1309.7473644680122 -1274.8420731430256 -1327.2925990268836 -1.8271606450070976e-10 0.0 0.0
-321.2532796103576 188.5551812032437 54.44572622731013 165.49147953292172 0.0 0.0
-597.66266977239 61.59687595690306 -186.1678823266613 195.31023472966075 0.0 0.0
-622.1148914572498 8.154565221666786 -251.15704059116794 181.58242156136964 0.0 0.0
-629.9899844606468 0.6564168895892379 -273.7545860946533 172.28111176247353 0.0 0.0
-633.6780253869696 -9.259895958561358 -286.61282845078017 167.79790900814635 0.0 0.0
-624.4894176659195 -14.343348954563567 -286.74665510676914 165.82387718644225 0.0 0.0
-603.7527739091815 -14.370040342022179 -276.0384625193798 165.6364425569741 0.0 0.0
-573.4933666769722 -10.600091396978321 -256.6830393054087 166.54380391924627 0.0 0.0
-536.4312037501494 -4.2616273617044165 -230.4128613884805 167.8819472769049 0.0 0.0
-492.55132411069724 3.478827491476938 -198.1383404032357 170.14408893313478 0.0 0.0
-434.38609496004744 12.574115859184566 -158.33949846426634 178.3122541002289 0.0 0.0
-349.7671764468625 13.113824076829161 -114.66601091527149 201.03292993399995 0.0 0.0
-240.75493592302402 6.824053295875322 -74.13543342807212 221.6102435616294 0.0 0.0
-153.78403579954065 4.6021736607007595 -45.4172023368168 224.22233372665195 0.0 0.0
-103.25575029713475 11.330121728452834 -27.580171714902434 209.28671906040086 0.0 0.0
-78.56365384206528 19.598242566033672 -17.699432086421645 193.64983203341927 0.0 0.0
-67.09306849588333 18.594874175247632 -14.570750531281162 189.10237910335724 0.0 0.0
-55.68873093109017 -5.769011807033251 -18.452102961495765 189.66558155777764 0.0 0.0
-3.7416096042099145 -68.79517451104306 -21.690606787439567 175.1594345472137 0.0 0.0
-112.40216931339921 -466.2337367666018 -174.039475283653 114.48554257109066 0.0 0.0
-94.34712375898896 -356.19880265080997 -135.15037578079966 -108.43381951438992 0.0 0.0
-29.724218674153853 -75.1350986593188 -31.452735793357448 -161.69564520040254 0.0 0.0
-79.53008144415271 -5.272690917780821 -25.426078475893593 -185.55715340320197 0.0 0.0
-108.81124162246033 17.224479060244843 -27.50953183129482 -185.52387302698074 0.0 0.0
-141.8148066792852 21.14464275585588 -36.1361601423081 -189.00795363732513 0.0 0.0
-197.88278956909832 14.288134018700521 -55.316516023049786 -199.18953190287294 0.0 0.0
-294.0215124167266 0.6142536493179218 -94.59206850040678 -200.32241146844075 0.0 0.0
-415.4110777146234 -14.209324470682436 -160.61861872017025 -187.86687512888224 0.0 0.0
-518.2088878826062 -23.586848176106813 -233.5029333228028 -173.5014037506895 0.0 0.0
-588.817124872518 -21.91073781899761 -283.97435597491386 -166.15377544466074 0.0 0.0
-641.7117430318356 -23.150354242133943 -318.29600699313426 -160.79165674151866 0.0 0.0
-688.9730319988797 -29.162711887950536 -347.28797631668175 -157.0499010008498 0.0 0.0
-732.435265391803 -37.8448068652453 -374.4267268334771 -153.40662346205244 0.0 0.0
-768.7598722469718 -43.842976876944476 -396.07920309195595 -150.62554801613314 0.0 0.0
-795.338578949094 -44.51775574535239 -409.9744038569114 -149.7181492754228 0.0 0.0
-809.1557481170646 -37.644660614824744 -413.4693086484652 -151.07602844125876 0.0 0.0
-811.3017488517964 -25.51523764126378 -408.07054088915845 -154.92386999193917 0.0 0.0
-802.2493909570287 -10.436327194005287 -395.4244782434003 -161.12008882732616 0.0 0.0
-751.1436829980426 38.21104554406011 -345.28351984410136 -168.2720718829069 0.0 0.0
-625.441766332969 146.7726515511222 -230.0687170198743 -176.00694904098984 0.0 0.0
-2113.902061143863 -1574.7643670484238 -1813.4925056749946 1.0608403044898296e-11 0.0 0.0
-625.4417663326853 146.77265155122467 -230.06871701971738 176.0069490412146 0.0 0.0
-751.1436829985994 38.21104554323739 -345.28351984452604 168.2720718831094 0.0 0.0
-802.2493909566323 -10.436327193462972 -395.42447824320425 161.12008882742742 0.0 0.0
-811.3017488524267 -25.515237642283026 -408.07054088969653 154.92386999206914 0.0 0.0
-809.1557481171551 -37.64466061506579 -413.4693086484801 151.0760284413573 0.0 0.0
-795.3385789491576 -44.517755745812465 -409.97440385692795 149.71814927565327 0.0 0.0
-768.7598722484244 -43.84297687909523 -396.0792030929573 150.6255480164894 0.0 0.0
-732.4352653927684 -37.844806866494615 -374.4267268341159 153.40662346222706 0.0 0.0
-688.9730319974417 -29.16271188660642 -347.2879763157255 157.04990100072462 0.0 0.0
-641.7117430314461 -23.150354241925243 -318.29600699289676 160.7916567414564 0.0 0.0
-588.8171248724532 -21.910737819237454 -283.9743559749001 166.15377544461893 0.0 0.0
-518.208887881455 -23.586848175119147 -233.50293332192476 173.5014037505402 0.0 0.0
-415.41107771390284 -14.209324470365933 -160.61861871968563 187.8668751289477 0.0 0.0
-294.0215124162471 0.6142536493444632 -94.59206850017958 200.32241146838444 0.0 0.0
-197.88278956906288 14.2881340179554 -55.31651602325888 199.1895319027061 0.0 0.0
-141.81480667875405 21.14464275647626 -36.13616014197805 189.00795363703915 0.0 0.0
-108.81124162236434 17.22447906022561 -27.509531831275687 185.52387302677786 0.0 0.0
-79.53008144402568 -5.272690917638686 -25.426078475818475 185.5571534030309 0.0 0.0
-29.72421867417776 -75.13509865933351 -31.452735793367374 161.6956452001972 0.0 0.0
-94.34712375887169 -356.19880265034976 -135.15037578062547 108.43381951436778 0.0 0.0
-77.19258101143421 -264.2611414563272 -102.43611674032842 -97.4066478051483 0.0 0.0
-47.77129116638071 -74.81676867971206 -36.775762818032526 -147.78589756987822 0.0 0.0
-101.49511215727392 -5.116559439208375 -31.95870197860426 -177.070648202839 0.0 0.0
-148.89982529539725 15.969159275171457 -39.844610315315975 -177.98881770154364 0.0 0.0
-202.62020115978459 21.01059883468098 -54.46641903010465 -177.48768048542803 0.0 0.0
-288.9592541465555 11.0939270214269 -85.94344127668094 -177.5420925790109 0.0 0.0
-414.30913755298786 -13.797288042460139 -151.379987863505 -171.27373213626305 0.0 0.0
-534.5651620792701 -36.79673696713379 -241.59122827541125 -159.413619836689 0.0 0.0
-623.9704896363016 -43.011247364219685 -313.0179617674821 -153.2608712790137 0.0 0.0
-685.6512790653999 -40.36869871803782 -353.50682930531434 -149.37304231155272 0.0 0.0
-736.3766787377592 -43.73452409343113 -383.3822779788251 -145.54826439717834 0.0 0.0
-785.8315629654672 -52.68483807695995 -413.2596312677348 -142.26692836179487 0.0 0.0
-833.471960811886 -64.20236436688802 -443.1777909189907 -138.6658140322123 0.0 0.0
-875.5191338451222 -74.22867938739628 -469.48854785153196 -135.6591360343867 0.0 0.0
-908.0043779146856 -78.37576254453361 -488.0438079341088 -134.57427546690164 0.0 0.0
-926.5381967709313 -73.63442178695709 -495.0621855539798 -136.37492759602458 0.0 0.0
-929.8496420604749 -58.81577446138962 -489.35618381363736 -140.9662454779362 0.0 0.0
-908.4833516116025 -26.071816776660228 -462.2683424852803 -146.5139295626206 0.0 0.0
-849.3443245089181 36.11270826126972 -402.09135085741354 -150.60572514380232 0.0 0.0
-681.113277004723 193.66756332701803 -241.92188379065374 -150.8796372204326 0.0 0.0
-2555.61850537564 -1804.843296387944 -2157.417964074732 1.4940582104827627e-10 0.0 0.0
-681.1132770039494 193.66756332781299 -241.92188379000402 150.87963722053496 0.0 0.0
-849.3443245079577 36.112708262243956 -402.0913508568424 150.60572514373325 0.0 0.0
-908.4833516112144 -26.07181677623791 -462.26834248473415 146.51392956263982 0.0 0.0
-929.8496420597437 -58.815774460689084 -489.3561838131547 140.96624547776076 0.0 0.0
-926.5381967705905 -73.63442178680639 -495.0621855537681 136.37492759598018 0.0 0.0
-908.0043779144256 -78.37576254441316 -488.04380793387776 134.5742754669444 0.0 0.0
-875.5191338449799 -74.22867938753971 -469.4885478514697 135.65913603439367 0.0 0.0
-833.4719608125554 -64.20236436782588 -443.1777909194739 138.66581403230217 0.0 0.0
-785.8315629648409 -52.68483807672466 -413.2596312673794 142.26692836198674 0.0 0.0
-736.3766787373354 -43.73452409313095 -383.38227797863914 145.54826439710914 0.0 0.0
-685.6512790657987 -40.36869871892853 -353.50682930559555 149.37304231158086 0.0 0.0
-623.9704896356162 -43.01124736372137 -313.01796176694006 153.26087127898492 0.0 0.0
-534.565162079123 -36.79673696761779 -241.5912282752294 159.41361983681875 0.0 0.0
-414.30913755264135 -13.797288042704206 -151.3799878632579 171.27373213623244 0.0 0.0
-288.959254146268 11.093927020987858 -85.94344127670134 177.54209257900428 0.0 0.0
-202.6202011593042 21.0105988350812 -54.466419029856254 177.4876804852058 0.0 0.0
-148.8998252953076 15.969159274931526 -39.84461031536586 177.98881770135816 0.0 0.0
-101.49511215709008 -5.116559438882733 -31.9587019784497 177.07064820274203 0.0 0.0
-47.77129116640265 -74.81676867981854 -36.775762818072174 147.7858975697825 0.0 0.0
-77.19258101118054 -264.26114145588014 -102.43611674011818 97.40664780498088 0.0 0.0
-62.8363383805045 -187.45838498114298 -75.08841700849423 -83.8160574567682 0.0 0.0
-61.316302653262895 -69.54730599651484 -39.259258752288666 -132.06172821366968 0.0 0.0
-121.85407941025856 -4.9812480967024495 -38.033302847904764 -164.42805303618513 0.0 0.0
-186.66962588323514 13.92675322207374 -51.796775338688 -165.2540109053559 0.0 0.0
-262.96799792874015 19.05823520350617 -73.23844200959196 -161.54453745402458 0.0 0.0
-377.1633113337043 3.062448826095528 -120.6008386480439 -152.7276644407708 0.0 0.0
-510.17730790197317 -31.6700453087113 -210.4449019067893 -140.64046697928802 0.0 0.0
-622.2793261755534 -52.70905728349482 -306.87271566385016 -135.1302680785083 0.0 0.0
-700.9330788870379 -56.24302216614163 -367.67371248684304 -132.77122501805218 0.0 0.0
-757.0244224892381 -58.81496492697684 -402.9687421001518 -130.17256176844404 0.0 0.0
-810.1746376668798 -63.87893766416593 -433.0665694915404 -128.44492780934794 0.0 0.0
-862.2238024536358 -74.99820238650398 -464.84713782189374 -125.70564676224014 0.0 0.0
-913.7445853416417 -89.96455278168165 -498.2700890017894 -122.36729696232611 0.0 0.0
-961.6870786398464 -104.75653933007146 -529.824004092008 -119.2939143107248 0.0 0.0
-1000.48753943818 -113.9765364029169 -554.0411740594624 -117.96322891329712 0.0 0.0
-1023.2590018338703 -110.81530492474712 -564.030349721317 -119.76232515581717 0.0 0.0
-1021.5552313458986 -89.40371026951374 -552.633525945311 -123.99298475259016 0.0 0.0
-986.6311852594731 -39.97095471491312 -510.6418478575234 -128.728184909395 0.0 0.0
-897.3609086030865 55.49551560712861 -419.002188748217 -130.50979850403394 0.0 0.0
-712.9757454635152 231.7165923123062 -240.2556309641967 -128.0518368042016 0.0 0.0
-2906.0608356795697 -2044.5593128815517 -2457.912373833851 9.754330676514655e-11 0.0 0.0
-712.9757454647073 231.71659231088552 -240.255630964935 128.05183680461514 0.0 0.0
-897.3609086027968 55.495515607316236 -419.00218874801715 130.50979850425384 0.0 0.0
-986.6311852602618 -39.97095471584929 -510.6418478579061 128.72818490967404 0.0 0.0
-1021.5552313445713 -89.40371026823904 -552.6335259445505 123.99298475246587 0.0 0.0
-1023.2590018336645 -110.81530492468337 -564.030349721279 119.76232515593286 0.0 0.0
-1000.4875394368845 -113.97653640172116 -554.041174058507 117.96322891320241 0.0 0.0
-961.6870786393927 -104.75653932980835 -529.8240040917731 119.29391431073802 0.0 0.0
-913.7445853424482 -89.9645527827787 -498.2700890024119 122.36729696247818 0.0 0.0
-862.223802453867 -74.9982023870221 -464.84713782201135 125.7056467622479 0.0 0.0
-810.1746376663593 -63.87893766383917 -433.0665694911729 128.44492780926313 0.0 0.0
-757.0244224889083 -58.814964926780455 -402.96874209997264 130.17256176826453 0.0 0.0
-700.933078887465 -56.24302216706313 -367.67371248704245 132.77122501809663 0.0 0.0
-622.2793261746197 -52.70905728293893 -306.8727156631118 135.13026807850358 0.0 0.0
-510.17730790092537 -31.670045307881296 -210.4449019059829 140.64046697918872 0.0 0.0
-377.1633113331389 3.0624488262136955 -120.60083864775513 152.7276644407507 0.0 0.0
-262.96799792857524 19.058235203090568 -73.23844200968206 161.5445374539154 0.0 0.0
-186.6696258831222 13.926753221876464 -51.79677533872746 165.2540109051816 0.0 0.0
-121.85407941005414 -4.981248096601756 -38.03330284781224 164.42805303600858 0.0 0.0
-61.316302653319866 -69.54730599666995 -39.25925875235227 132.06172821355332 0.0 0.0
-62.83633838055848 -187.4583849809045 -75.08841700843888 83.81605745668048 0.0 0.0
-52.10012286599059 -125.07702898117206 -53.153145554148786 -69.30424543090494 0.0 0.0
-71.83336739567324 -60.757579791186544 -39.77728415605793 -114.13668772737435 0.0 0.0
-140.84996850315682 -4.526882633261906 -43.60792636637627 -147.59663579823297 0.0 0.0
-222.80970296663241 11.498940785048877 -63.264925485396965 -148.582662585665 0.0 0.0
-321.76969020393494 13.075635689626687 -93.72556261810328 -138.8069694604473 0.0 0.0
-456.2935103502974 -10.355530923492775 -159.8342839503456 -124.14294909685039 0.0 0.0
-587.6313397289167 -46.71387908133298 -265.73558470210327 -114.14786141324898 0.0 0.0
-689.4137721726329 -63.233595087998495 -356.6784831081685 -112.32948212942546 0.0 0.0
-758.5919012287907 -70.92338443247499 -408.89018464457547 -111.03776262010747 0.0 0.0
-817.885484097983 -75.0377525865292 -443.417003311772 -111.2017057557095 0.0 0.0
-872.6158258553008 -83.32715283461712 -475.3374589240084 -110.09143233923982 0.0 0.0
-927.7037786399109 -97.28480480825641 -509.93804554973343 -107.85118384861926 0.0 0.0
-982.8944431979389 -115.41096756175702 -546.6962734648237 -104.98751799748183 0.0 0.0
-1035.8953793556652 -134.423421078794 -582.809838087544 -102.11919099917043 0.0 0.0
-1081.5617847688627 -149.35475136487574 -613.2747020197647 -100.44899613598601 0.0 0.0
-1107.6587121688929 -148.5089077978812 -626.1473959225837 -101.41603876191819 0.0 0.0
-1099.9638865904647 -118.00797035801989 -607.2940758703264 -105.087819511079 0.0 0.0
-1044.5326949349112 -46.70505089887206 -544.244293927889 -108.95673451724356 0.0 0.0
-928.9837858842913 75.65724656720403 -425.85667110480284 -110.15669977060523 0.0 0.0
-739.4063715266388 257.32118479861833 -241.01429085103118 -109.65917222523366 0.0 0.0
-3202.8898543843693 -2268.867085161946 -2722.1301909750764 3.468869635980809e-11 0.0 0.0
-739.4063715303093 257.3211847947431 -241.01429085347553 109.65917222551715 0.0 0.0
-928.9837858846645 75.65724656664477 -425.8566711050853 110.15669977083319 0.0 0.0
-1044.5326949359078 -46.7050509001634 -544.2442939285949 108.95673451761544 0.0 0.0
-1099.9638865893926 -118.00797035690613 -607.2940758696816 105.08781951105175 0.0 0.0
-1107.658712169662 -148.50890779890096 -626.1473959231466 101.41603876195364 0.0 0.0
-1081.5617847682154 -149.35475136431486 -613.2747020192628 100.44899613603326 0.0 0.0
-1035.8953793546643 -134.42342107804663 -582.8098380867717 102.11919099919564 0.0 0.0
-982.8944431989198 -115.41096756301901 -546.6962734655444 104.98751799765384 0.0 0.0
-927.703778640034 -97.28480480864947 -509.93804554982563 107.85118384858681 0.0 0.0
-872.6158258549923 -83.32715283447362 -475.33745892380983 110.09143233915265 0.0 0.0
-817.885484098068 -75.03775258689387 -443.4170033118575 111.20170575563262 0.0 0.0
-758.5919012280672 -70.92338443207575 -408.8901846440382 111.03776262005772 0.0 0.0
-689.4137721710669 -63.2335950865255 -356.6784831070527 112.32948212922331 0.0 0.0
-587.6313397279212 -46.713879080605636 -265.7355847012843 114.14786141311464 0.0 0.0
-456.29351034983245 -10.355530923487311 -159.83428395006734 124.14294909692946 0.0 0.0
-321.7696902037371 13.075635689170959 -93.7255626181781 138.80696946041974 0.0 0.0
-222.80970296643284 11.498940785063416 -63.264925485335716 148.5826625853785 0.0 0.0
-140.84996850325717 -4.526882633543146 -43.60792636648945 147.5966357981849 0.0 0.0
-71.83336739569468 -60.75757979142887 -39.77728415613706 114.13668772716831 0.0 0.0
-52.100122865713935 -125.0770289808824 -53.15314555397889 69.30424543073839 0.0 0.0
-44.86528388982699 -76.69866211732483 -36.46918380214554 -54.44258746815617 0.0 0.0
-79.95614310313131 -49.83349274896546 -38.93689075562902 -94.14385524601627 0.0 0.0
-158.66395001857106 -3.565612526532198 -48.669376262004505 -126.6181951902638 0.0 0.0
-257.64015388867017 7.547688327368043 -74.90981934255694 -126.93181324741278 0.0 0.0
-382.2992345347591 5.096702204864989 -116.34887444158585 -113.02216150264424 0.0 0.0
-522.1040366605686 -27.69477679168888 -202.28867116777502 -93.9511560253982 0.0 0.0
-649.366731567899 -56.78217239215631 -313.05745705050106 -90.11371544109937 0.0 0.0
-738.41091893534 -74.07388229720794 -394.4674512427785 -89.40136184571587 0.0 0.0
-809.4170497078683 -83.25277097699865 -442.79682337399674 -90.37722251532489 0.0 0.0
-870.1163943012331 -91.36303975223501 -478.71476121626847 -91.26020423892656 0.0 0.0
-928.1166259897371 -102.98515761444699 -513.7073396850105 -90.66559272168386 0.0 0.0
-986.2516966526694 -119.63419615733858 -551.1430916551075 -88.97182343546184 0.0 0.0
-1044.4854946792925 -140.2372565778074 -590.625499308214 -86.74329413094829 0.0 0.0
-1101.1825991257133 -163.09089179406456 -630.4546087232009 -84.29255486368805 0.0 0.0
-1152.2002131821448 -182.28054886374719 -665.6733910048387 -82.26715148115136 0.0 0.0
-1183.4175448417159 -184.82527593157346 -682.8058303671387 -82.02755843258245 0.0 0.0
-1171.2980615411564 -148.89046226928994 -659.1266716105716 -84.4079615676498 0.0 0.0
-1096.5812736950534 -56.82793600291316 -576.0838695784098 -88.00628789308014 0.0 0.0
-956.7614935784529 90.45397661463193 -432.90304847545383 -90.89510860279069 0.0 0.0
-756.4804759566255 282.23890092435636 -237.1982908995063 -94.28658467328907 0.0 0.0
-3457.3399845011168 -2469.748927106434 -2952.443053125149 -2.213340621892712e-11 0.0 0.0
-756.4804759573149 282.2389009235158 -237.1982909000315 94.28658467338349 0.0 0.0
-956.761493579992 90.45397661296794 -432.9030484765156 90.89510860316992 0.0 0.0
-1096.581273693558 -56.827936001528826 -576.0838695773444 88.0062878931192 0.0 0.0
-1171.2980615411298 -148.89046226937256 -659.1266716104661 84.40796156782741 0.0 0.0
-1183.4175448402818 -184.8252759302458 -682.8058303661487 82.02755843240283 0.0 0.0
-1152.2002131831177 -182.28054886491302 -665.6733910054185 82.26715148122209 0.0 0.0
-1101.182599124324 -163.09089179287983 -630.4546087222035 84.29255486373015 0.0 0.0
-1044.4854946793077 -140.23725657806588 -590.6254993082298 86.74329413102052 0.0 0.0
-986.251696652459 -119.6341961573669 -551.1430916550112 88.97182343541378 0.0 0.0
-928.1166259896694 -102.98515761463895 -513.7073396849728 90.66559272166239 0.0 0.0
-870.1163943011045 -91.36303975238599 -478.7147612162097 91.26020423887115 0.0 0.0
-809.4170497067025 -83.25277097600872 -442.79682337323806 90.37722251511181 0.0 0.0
-738.4109189346699 -74.07388229690832 -394.4674512423255 89.40136184577064 0.0 0.0
-649.3667315676112 -56.78217239222937 -313.05745705010634 90.11371544094791 0.0 0.0
-522.1040366602449 -27.694776791908634 -202.2886711674756 93.95115602541654 0.0 0.0
-382.2992345340973 5.096702205240351 -116.34887444126062 113.02216150260321 0.0 0.0
-257.64015388839175 7.54768832757123 -74.90981934242095 126.93181324722825 0.0 0.0
-158.66395001851973 -3.5656125267845282 -48.669376262064745 126.61819519025373 0.0 0.0
-79.95614310308042 -49.83349274908613 -38.936890755649955 94.14385524597492 0.0 0.0
-44.86528388966923 -76.69866211713676 -36.46918380204178 54.44258746779806 0.0 0.0
-40.486984843966596 -42.0374676006262 -24.757335733377836 -39.66952975652575 0.0 0.0
-85.67600864564973 -38.03001595745064 -37.1118073809301 -72.31937933215775 0.0 0.0
-175.21937514797958 -2.224021019617176 -53.23323932798329 -101.32817072143094 0.0 0.0
-293.03628743730536 2.3354537519125262 -87.0452670193904 -100.64653744664612 0.0 0.0
-439.89734786318 -7.029609899048021 -142.4170542229306 -82.82057454671356 0.0 0.0
-582.1165792154732 -40.63095421779365 -243.97041839318544 -68.48410546851355 0.0 0.0
-694.5180372641589 -65.73350315348975 -351.7489159369282 -67.36419135697224 0.0 0.0
-779.9338805827786 -82.69459689000315 -423.98281216122194 -67.47741833665155 0.0 0.0
-852.6775669488942 -95.90852688839992 -472.0562229992768 -69.2265845775743 0.0 0.0
-916.8649011732855 -107.87723271269306 -510.9542132487363 -70.46823253938906 0.0 0.0
-978.100726862392 -122.79771323213751 -549.1427827253407 -70.2934129135472 0.0 0.0
-1039.5178584541516 -142.27636042088216 -589.6162547226916 -69.14058080306809 0.0 0.0
-1100.4050939653998 -165.58086261513756 -631.762131761996 -67.54028431669833 0.0 0.0
-1159.0155283655981 -189.051721107826 -672.830821608459 -65.77114977711409 0.0 0.0
-1212.12313493085 -210.24791812164398 -710.042621429948 -63.70651537316931 0.0 0.0
-1249.3096804915526 -218.30371446724885 -732.8684249240114 -62.02559335840318 0.0 0.0
-1242.650761805953 -186.1890557860331 -713.8578594557691 -62.55355674780498 0.0 0.0
-1155.6006363240706 -80.53092769049127 -617.8916658019193 -66.26218392383893 0.0 0.0
-986.7644460321096 96.39912133703208 -445.27390398609634 -72.09453925425613 0.0 0.0
-759.7570303891591 315.23097706231687 -222.414023683166 -80.4458597655949 0.0 0.0
-3669.5526361971956 -2637.781501962182 -3144.618379400057 -5.610800712929631e-11 0.0 0.0
-759.7570303876121 315.23097706375484 -222.41402368214153 80.44585976577704 0.0 0.0
-986.7644460362536 96.39912133269101 -445.27390398903225 72.0945392547241 0.0 0.0
-1155.6006363240695 -80.53092769047751 -617.8916658019366 66.26218392377054 0.0 0.0
-1242.6507618059572 -186.18905578626726 -713.8578594556809 62.55355674790426 0.0 0.0
-1249.309680491322 -218.30371446705317 -732.868424923916 62.025593358460824 0.0 0.0
-1212.123134931274 -210.24791812227608 -710.0426214302572 63.706515373093126 0.0 0.0
-1159.0155283646611 -189.0517211070779 -672.8308216078152 65.77114977713958 0.0 0.0
-1100.4050939651559 -165.5808626151238 -631.7621317618791 67.54028431673467 0.0 0.0
-1039.517858454179 -142.2763604211911 -589.6162547228056 69.14058080314611 0.0 0.0
-978.1007268625079 -122.79771323251563 -549.1427827253955 70.29341291359573 0.0 0.0
-916.8649011723833 -107.87723271206568 -510.9542132481494 70.46823253933317 0.0 0.0
-852.6775669480965 -95.90852688779646 -472.0562229987949 69.2265845773536 0.0 0.0
-779.9338805828 -82.69459689041516 -423.9828121611727 67.4774183367151 0.0 0.0
-694.5180372640785 -65.73350315380779 -351.7489159366643 67.36419135689933 0.0 0.0
-582.1165792150639 -40.63095421776437 -243.9704183927379 68.48410546841151 0.0 0.0
-439.89734786270253 -7.029609898851799 -142.417054222653 82.82057454656722 0.0 0.0
-293.0362874368051 2.3354537522823993 -87.04526701915603 100.64653744662428 0.0 0.0
-175.21937514789934 -2.224021019741022 -53.23323932799608 101.32817072129934 0.0 0.0
-85.67600864571347 -38.03001595744461 -37.11180738094742 72.31937933213408 0.0 0.0
-40.48698484402439 -42.03746760057493 -24.757335733379787 39.669529756348034 0.0 0.0
-37.720283412041695 -20.696448431848538 -17.52501955316707 -25.78338585481754 0.0 0.0
-88.30309039333888 -26.61652768390023 -34.47588542317172 -48.974314731545675 0.0 0.0
-190.20630836156627 -1.0527103416997052 -57.37770561097978 -71.13675747170694 0.0 0.0
-330.5788456354892 -3.724940824939505 -100.08530887590047 -69.13787608326335 0.0 0.0
-492.9269338523568 -22.135728239804095 -172.22195119526907 -51.893374359970196 0.0 0.0
-629.7185348327343 -50.321218769440854 -282.52063188359 -45.30142683447804 0.0 0.0
-728.2956789141751 -72.75660110940383 -381.3139224407067 -45.136842062592166 0.0 0.0
-815.6659791027969 -91.94247737373115 -449.1905361631166 -45.99333144689523 0.0 0.0
-891.2010411843582 -109.20224538377312 -498.6691928082163 -47.58919116527782 0.0 0.0
-958.9375185812069 -124.75791413958558 -540.8306042019151 -48.83752796801621 0.0 0.0
-1023.8076436566957 -142.82039267385537 -582.3900013800624 -49.02683523268357 0.0 0.0
-1088.1585713143502 -165.0732911570855 -625.7163670989416 -48.403000377919255 0.0 0.0
-1151.7858732627687 -189.87076863714688 -669.9632223044919 -47.496150523664305 0.0 0.0
-1211.3262063329921 -214.59955026462046 -712.135963211116 -46.34014447295574 0.0 0.0
-1263.1578359629784 -233.97937861049226 -747.7941035131555 -44.672618607106806 0.0 0.0
-1300.3960757543805 -241.60591091357242 -770.326710871121 -42.35278427643083 0.0 0.0
-1308.364042373178 -223.58181752973871 -765.5326770177971 -40.74130335469828 0.0 0.0
-1244.1082855510683 -139.3367405481677 -691.7247731813857 -43.256881941387746 0.0 0.0
-1036.9322668649165 77.58880059301288 -480.04809667752073 -52.31918401987326 0.0 0.0
-734.4915368232992 373.1888676433824 -180.94406275371577 -66.963746781856 0.0 0.0
-3825.863647336056 -2755.422397656904 -3283.2854964428743 -9.190337380005076e-11 0.0 0.0
-734.4915368221523 373.18886764449144 -180.94406275279806 66.96374678190769 0.0 0.0
-1036.9322668678185 77.58880058998699 -480.04809667984296 52.319184019914495 0.0 0.0
-1244.1082855509353 -139.33674054810766 -691.7247731811966 43.25688194136767 0.0 0.0
-1308.3640423720587 -223.58181752875117 -765.532677017102 40.74130335461288 0.0 0.0
-1300.3960757549007 -241.60591091428776 -770.3267108714404 42.35278427664075 0.0 0.0
-1263.157835962523 -233.9793786101671 -747.7941035128983 44.672618607019324 0.0 0.0
-1211.3262063320049 -214.5995502637768 -712.135963210313 46.34014447272725 0.0 0.0
-1151.785873262606 -189.87076863722535 -669.9632223044341 47.496150523709986 0.0 0.0
-1088.158571314077 -165.07329115703595 -625.7163670987863 48.403000377822394 0.0 0.0
-1023.8076436582801 -142.82039267573361 -582.3900013810821 49.02683523268902 0.0 0.0
-958.9375185787527 -124.75791413738509 -540.8306042002813 48.83752796794415 0.0 0.0
-891.2010411836275 -109.20224538327383 -498.6691928077308 47.58919116513503 0.0 0.0
-815.6659791020464 -91.94247737328934 -449.19053616257514 45.993331446760706 0.0 0.0
-728.2956789137156 -72.75660110926427 -381.31392244024954 45.13684206257239 0.0 0.0
-629.7185348323945 -50.32121876949158 -282.5206318831732 45.30142683438903 0.0 0.0
-492.9269338518116 -22.13572823967516 -172.22195119492216 51.89337435989698 0.0 0.0
-330.57884563505667 -3.724940824652278 -100.08530887570271 69.13787608324202 0.0 0.0
-190.20630836131792 -1.0527103413540013 -57.37770561080157 71.13675747156651 0.0 0.0
-88.30309039313003 -26.616527683811395 -34.475885423082424 48.974314731511555 0.0 0.0
-37.72028341177169 -20.696448431721876 -17.525019553048068 25.783385854755775 0.0 0.0
-34.1851286228177 -11.60620042609257 -13.737398714673077 -14.476692083666295 0.0 0.0
-86.3310062632512 -17.348290514737002 -31.103789033396453 -24.54426637578541 0.0 0.0
-203.25669125818018 -1.1619786075750045 -61.32560095972653 -34.5628801836451 0.0 0.0
-369.73648402200644 -9.799155727871849 -114.50501354001027 -32.15350846280504 0.0 0.0
-543.3265679148202 -34.82903466584397 -203.7496936104243 -23.626563880991185 0.0 0.0
-664.5522774395248 -57.34050635608761 -315.4542499366978 -23.76731797692719 0.0 0.0
-758.1922450072182 -77.84249256762754 -404.7334374708447 -24.37577604175127 0.0 0.0
-846.6236696143769 -101.66357329732038 -471.10413978467 -24.741778952548792 0.0 0.0
-925.6004411659649 -122.73914735383573 -523.0315177252596 -25.530477466276324 0.0 0.0
-997.2555123008023 -142.2746887964404 -569.0389641427279 -26.411293258463 0.0 0.0
-1065.4528671037783 -163.18526199126535 -613.6878085456025 -26.846523900518235 0.0 0.0
-1132.8190550982283 -187.3068342746276 -659.4543624797194 -26.832761721407795 0.0 0.0
-1198.6485069075284 -214.43964005834226 -705.9651609397911 -26.500962669993072 0.0 0.0
-1259.4398729197346 -239.29350378220494 -748.8289379592067 -25.954691951562708 0.0 0.0
-1308.3298720958098 -255.39644740388485 -781.3908175427573 -24.969715487829458 0.0 0.0
-1339.3364482892155 -256.84040248964726 -797.6902515014428 -23.117092760735478 0.0 0.0
-1350.5660357114239 -242.24520579178312 -796.0357011385397 -20.62068136556699 0.0 0.0
-1337.1918365703739 -208.06257352701138 -772.3932976629915 -20.272083045178242 0.0 0.0
-1207.6219714308088 -65.88865818905404 -637.1392537234976 -28.712615801395614 0.0 0.0
-705.2546014608034 433.3431595595948 -136.62826294286037 -50.87082012017827 0.0 0.0
-3763.3659625972923 -2656.4863189307366 -3204.2865912648285 -8.188294486899395e-11 0.0 0.0
-705.2546014592972 433.3431595610748 -136.62826294155695 50.87082012013904 0.0 0.0
-1207.6219714314147 -65.88865818973711 -637.1392537239832 28.71261580137168 0.0 0.0
-1337.191836568568 -208.06257352529096 -772.3932976617893 20.27208304515203 0.0 0.0
-1350.566035709585 -242.2452057900494 -796.0357011373669 20.620681365603787 0.0 0.0
-1339.3364482878442 -256.8404024884249 -797.690251500502 23.11709276078721 0.0 0.0
-1308.3298720961184 -255.39644740435347 -781.3908175429644 24.969715487830783 0.0 0.0
-1259.439872920092 -239.293503782748 -748.8289379593978 25.954691951481394 0.0 0.0
-1198.6485069072337 -214.43964005827368 -705.9651609396493 26.500962669942307 0.0 0.0
-1132.8190550973773 -187.3068342740096 -659.4543624791926 26.83276172140476 0.0 0.0
-1065.452867104344 -163.18526199216538 -613.6878085459929 26.846523900567323 0.0 0.0
-997.2555122991322 -142.27468879502533 -569.0389641416277 26.41129325852966 0.0 0.0
-925.6004411656226 -122.73914735379353 -523.0315177250229 25.53047746633724 0.0 0.0
-846.6236696129721 -101.66357329621464 -471.10413978375846 24.74177895247768 0.0 0.0
-758.1922450065422 -77.84249256727264 -404.7334374702895 24.375776041832673 0.0 0.0
-664.5522774390394 -57.340506355931055 -315.454249936204 23.767317976747663 0.0 0.0
-543.3265679143897 -34.82903466575973 -203.74969361009462 23.62656388106269 0.0 0.0
-369.7364840216063 -9.799155727893435 -114.5050135398937 32.15350846271035 0.0 0.0
-203.2566912579714 -1.161978607487598 -61.32560095963769 34.562880183603504 0.0 0.0
-86.33100626310521 -17.348290514598236 -31.103789033311017 24.54426637565599 0.0 0.0
-34.18512862288031 -11.606200426178573 -13.737398714717669 14.476692083605787 0.0 0.0
-22.707731361049923 -6.01301080827152 -8.61622265079643 -8.791979911149927 0.0 0.0
-75.62088335513826 -9.952863126444317 -25.67212394447477 -10.204407644178383 0.0 0.0
-213.91727478022662 -3.7093195015922795 -65.28797828454566 -11.284345775391465 0.0 0.0
-417.09192006179745 -30.246503941510674 -137.64517304415898 -6.951595296736062 0.0 0.0
-618.1911883395954 -86.35686327580476 -258.31114039149986 0.8610704487312759 0.0 0.0
-767.3803924283043 -142.2015730977234 -403.10919609476593 1.4467792215544684 0.0 0.0
-902.6091935191639 -207.06190128686907 -532.1607754524078 0.3487350937797693 0.0 0.0
-1046.0882257812032 -287.40854553222175 -653.2990769245965 -1.2326931828955274 0.0 0.0
-1198.5638201764282 -382.6980339991848 -779.1667747308518 -3.044696247536134 0.0 0.0
-1369.0831332537432 -500.77302357485877 -923.6726825968011 -4.987874458644988 0.0 0.0
-1563.8597160137087 -647.5830618973309 -1094.148203112103 -6.7724521009266105 0.0 0.0
-1782.8599434737052 -823.3708775989096 -1291.109897506606 -8.135292249255 0.0 0.0
-2019.0701356054312 -1019.8602129802865 -1507.048515176891 -9.037927528332006 0.0 0.0
-2260.786244438133 -1225.1819593517835 -1730.2567173904781 -9.721932629618477 0.0 0.0
-2490.1659924670353 -1421.4249462531297 -1942.8729781666207 -9.96932544210448 0.0 0.0
-2683.2063058894973 -1584.825532291201 -2121.0276050988286 -9.476124292708835 0.0 0.0
-2813.33606404038 -1689.4495725315628 -2238.3752099247827 -7.954423404576016 0.0 0.0
-2874.214548750978 -1729.7060984471198 -2288.4826586521294 -6.86054105340618 0.0 0.0
-2953.8549744151874 -1795.0327043193677 -2359.5040004181674 -14.378080607498989 0.0 0.0
-3067.751013546652 -1907.5999859311412 -2470.505739473112 -40.89583641698132 0.0 0.0
-6661.1828222825725 -5526.326133568462 -6070.176400551495 -1.0345502232667059e-11 0.0 0.0
-3067.751013544791 -1907.5999859293252 -2470.505739471385 40.89583641704321 0.0 0.0
-2953.8549744143984 -1795.0327043186596 -2359.504000417158 14.378080607625627 0.0 0.0
-2874.2145487487123 -1729.706098444918 -2288.482658650616 6.8605410533814535 0.0 0.0
-2813.3360640376086 -1689.4495725289062 -2238.3752099225094 7.95442340469954 0.0 0.0
-2683.2063058875974 -1584.825532289437 -2121.0276050972657 9.476124292650073 0.0 0.0
-2490.1659924671126 -1421.4249462534224 -1942.8729781663676 9.969325442271845 0.0 0.0
-2260.7862444384054 -1225.1819593522837 -1730.2567173904033 9.721932629825513 0.0 0.0
-2019.0701356041172 -1019.8602129791684 -1507.0485151757252 9.037927528150952 0.0 0.0
-1782.8599434720918 -823.3708775975588 -1291.1098975053226 8.135292249453904 0.0 0.0
-1563.859716012155 -647.5830618960372 -1094.1482031108703 6.772452100849321 0.0 0.0
-1369.083133252892 -500.7730235742969 -923.6726825960039 4.987874458596199 0.0 0.0
-1198.5638201759841 -382.6980339990634 -779.1667747303468 3.0446962477006103 0.0 0.0
-1046.0882257794206 -287.4085455307475 -653.2990769233372 1.2326931828253578 0.0 0.0
-902.6091935180082 -207.06190128601241 -532.1607754514431 -0.34873509350941134 0.0 0.0
-767.3803924272177 -142.20157309691973 -403.1091960938785 -1.4467792217473772 0.0 0.0
-618.1911883394835 -86.35686327615733 -258.31114039125663 -0.8610704485378875 0.0 0.0
-417.0919200613442 -30.24650394141518 -137.64517304395133 6.951595296741182 0.0 0.0
-213.91727478013962 -3.7093195018448384 -65.28797828459531 11.284345775380556 0.0 0.0
-75.62088335490166 -9.952863126178073 -25.672123944323925 10.204407643952562 0.0 0.0
-22.70773136088457 -6.0130108082939735 -8.616222650753562 8.791979911143898 0.0 0.0
SCALARS Strain float 6
LOOKUP_TABLE default
0.015573709422015648 -0.025644891397348386 0.0 -0.0016874407505632115 0.0 0.0
0.009585503319035673 -0.003070050656476534 0.0 -0.007720390379058962 0.0 0.0
0.0028097904177400287 -0.0006392938865486251 0.0 -0.0009772047109287564 0.0 0.0
0.002358691746611545 -0.0009353151680917683 0.0 2.9975615033857925e-05 0.0 0.0
0.0036353202500399974 -0.0016441236643265377 0.0 0.0002448502609870186 0.0 0.0
0.006439438335355914 -0.0038033558503554133 0.0 0.0004302188421661901 0.0 0.0
0.011315860907530093 -0.008027451554928428 0.0 0.0005637664354346395 0.0 0.0
0.018697833365244908 -0.014726219017806654 0.0 0.000604729139950425 0.0 0.0
0.028913424918609695 -0.024192090386556925 0.0 0.000545742386319588 0.0 0.0
0.04206766401058607 -0.03647370921779596 0.0 0.00034885558445579384 0.0 0.0
0.05803716896569951 -0.05141205655208242 0.0 4.578623878882186e-05 0.0 0.0
0.07656177940532692 -0.06874696196658409 0.0 -0.00034474221248351883 0.0 0.0
0.09732502581116367 -0.08820105236057442 0.0 -0.0008293814074275799 0.0 0.0
0.11998575852145182 -0.10948092651480565 0.0 -0.0013635077255016496 0.0 0.0
0.14410249049656115 -0.13220560856421504 0.0 -0.001964452286407848 0.0 0.0
0.16899215676993523 -0.1557620569275565 0.0 -0.002594205690892895 0.0 0.0
0.19364409126286003 -0.17921235126451604 0.0 -0.003120075924191595 0.0 0.0
0.2167309391942372 -0.20129962355702907 0.0 -0.003346854438449373 0.0 0.0
0.23673574182301083 -0.2205096292399047 0.0 -0.0031475094362693745 0.0 0.0
0.25175829840145514 -0.23503120600459304 0.0 -0.003868181753311205 0.0 0.0
0.2577445870100273 -0.24106947620485358 0.0 2.914335439641036e-15 0.0 0.0
0.2517582984014202 -0.23503120600455846 0.0 0.0038681817533217835 0.0 0.0
0.23673574182293866 -0.22050962923984418 0.0 0.0031475094362803293 0.0 0.0
0.21673093919413428 -0.20129962355692954 0.0 0.003346854438452689 0.0 0.0
0.19364409126274068 -0.17921235126441817 0.0 0.003120075924192082 0.0 0.0
0.16899215676981022 -0.15576205692744363 0.0 0.002594205690885816 0.0 0.0
0.14410249049643434 -0.13220560856409583 0.0 0.001964452286406619 0.0 0.0
0.11998575852132481 -0.10948092651468341 0.0 0.0013635077254980131 0.0 0.0
0.0973250258110405 -0.08820105236045891 0.0 0.0008293814074215068 0.0 0.0
0.07656177940521401 -0.0687469619664798 0.0 0.00034474221247914614 0.0 0.0
0.05803716896560239 -0.05141205655199353 0.0 -4.5786238797314305e-05 0.0 0.0
0.0420676640105081 -0.036473709217717316 0.0 -0.0003488555844580719 0.0 0.0
0.02891342491855038 -0.024192090386493736 0.0 -0.000545742386321927 0.0 0.0
0.018697833365202345 -0.014726219017769156 0.0 -0.0006047291399469724 0.0 0.0
0.011315860907502258 -0.008027451554904726 0.0 -0.0005637664354357739 0.0 0.0
0.0064394383353407565 -0.0038033558503485186 0.0 -0.0004302188421628383 0.0 0.0
0.0036353202500339094 -0.0016441236643229733 0.0 -0.0002448502609865769 0.0 0.0
0.002358691746609813 -0.0009353151680925292 0.0 -2.997561503275958e-05 0.0 0.0
0.002809790417737672 -0.0006392938865480862 0.0 0.000977204710925916 0.0 0.0
0.009585503319029388 -0.0030700506564734485 0.0 0.007720390379052552 0.0 0.0
0.015573709422007354 -0.025644891397322976 0.0 0.0016874407505115489 0.0 0.0
0.011000526510848294 -0.023059684949202703 0.0 -0.001223216384222353 0.0 0.0
0.006426996353682879 -0.0023063989589918975 0.0 -0.006385326688003501 0.0 0.0
0.0018182063987888246 -0.00047520641876925077 0.0 -0.0006123611003730719 0.0 0.0
0.0020643979515335906 -0.0008769896456361855 0.0 -0.0001837110517970764 0.0 0.0
0.0031064021408684604 -0.0014686637719375816 0.0 -0.0001452442620577843 0.0 0.0
0.0054959241913310405 -0.0034065972021741883 0.0 -0.00025644637341941493 0.0 0.0
0.009837958855566166 -0.007346990050563856 0.0 -0.0006269689612889913 0.0 0.0
0.01653657921258788 -0.013696542952898792 0.0 -0.001226203281945563 0.0 0.0
0.025854066761341953 -0.02271068455000492 0.0 -0.0020762392903650915 0.0 0.0
0.03782182344891318 -0.03440045673831921 0.0 -0.0031430331627937884 0.0 0.0
0.05228275271859931 -0.04858952649049545 0.0 -0.00432434553946408 0.0 0.0
0.06899665061748786 -0.06502493349810641 0.0 -0.0055343255664066695 0.0 0.0
0.08771532977360384 -0.08345923568335767 0.0 -0.006766729079344411 0.0 0.0
0.1081595048936199 -0.10363406185657559 0.0 -0.00801931775575308 0.0 0.0
0.1299436795642999 -0.12519446896416958 0.0 -0.00924632005781414 0.0 0.0
0.15247665323809165 -0.14757496428267003 0.0 -0.010323223756851673 0.0 0.0
0.17487807911346984 -0.16990976003886246 0.0 -0.010974417425510202 0.0 0.0
0.19596721858343294 -0.1910139988519913 0.0 -0.010855675243904305 0.0 0.0
0.21420706213147866 -0.20938911997407147 0.0 -0.009863983984313337 0.0 0.0
0.22729108808361748 -0.22301051393524463 0.0 -0.009035679299057572 0.0 0.0
0.23218607172170616 -0.2287241543586554 0.0 1.056706805391272e-14 0.0 0.0
0.22729108808358459 -0.22301051393520804 0.0 0.009035679299083391 0.0 0.0
0.2142070621314145 -0.20938911997400925 0.0 0.009863983984339703 0.0 0.0
0.19596721858334284 -0.19101399885189518 0.0 0.010855675243917017 0.0 0.0
0.17487807911336484 -0.16990976003875183 0.0 0.010974417425510474 0.0 0.0
0.1524766532379795 -0.14757496428256237 0.0 0.01032322375684434 0.0 0.0
0.12994367956418518 -0.12519446896405376 0.0 0.009246320057811216 0.0 0.0
0.10815950489350541 -0.10363406185646329 0.0 0.008019317755747539 0.0 0.0
0.08771532977349344 -0.08345923568325354 0.0 0.006766729079334982 0.0 0.0
0.06899665061738686 -0.0650249334980022 0.0 0.005534325566398674 0.0 0.0
0.05228275271851177 -0.048589526490408486 0.0 0.004324345539452398 0.0 0.0
0.0378218234488421 -0.03440045673824605 0.0 0.0031430331627855775 0.0 0.0
0.02585406676128771 -0.022710684549949702 0.0 0.002076239290359806 0.0 0.0
0.016536579212549512 -0.013696542952861213 0.0 0.001226203281943214 0.0 0.0
0.009837958855541774 -0.00734699005054072 0.0 0.0006269689612844473 0.0 0.0
0.005495924191318059 -0.0034065972021662845 0.0 0.00025644637341982183 0.0 0.0
0.0031064021408631526 -0.0014686637719317705 0.0 0.00014524426205668898 0.0 0.0
0.0020643979515321794 -0.000876989645636264 0.0 0.00018371105179850253 0.0 0.0
0.001818206398788491 -0.0004752064187712173 0.0 0.0006123611003708791 0.0 0.0
0.006426996353675294 -0.002306398958988231 0.0 0.006385326687993522 0.0 0.0
0.011000526510833606 -0.02305968494917574 0.0 0.0012232163841820723 0.0 0.0
0.008121768510222154 -0.018491504123246804 0.0 -0.0044171476392705295 0.0 0.0
0.004587861261676221 -0.0012975626504818974 0.0 -0.006539725250364295 0.0 0.0
0.001252260643133968 -0.00023952152588904387 0.0 -0.0005371417118727115 0.0 0.0
0.00173770637838817 -0.0007354742445234591 0.0 -0.0004784160350295017 0.0 0.0
0.002627317460534176 -0.001162913169851461 0.0 -0.0005053702305043227 0.0 0.0
0.004603963031548665 -0.002658085971581953 0.0 -0.0007208757965176186 0.0 0.0
0.008379655968931476 -0.006009174935652588 0.0 -0.0014304792837940763 0.0 0.0
0.01435578308470729 -0.011641177852335163 0.0 -0.0025828752194097045 0.0 0.0
0.02272494850192043 -0.01972636089346663 0.0 -0.00419570740971387 0.0 0.0
0.03346787544149825 -0.03021526765734405 0.0 -0.006164797927410324 0.0 0.0
0.04640294499617325 -0.042896692225139824 0.0 -0.008302489686747742 0.0 0.0
0.06130411509996511 -0.05753309407562214 0.0 -0.010445502022713295 0.0 0.0
0.07796456332931011 -0.07392487528256862 0.0 -0.012560897876101358 0.0 0.0
0.0961704701741826 -0.09187694324486546 0.0 -0.01469262802578113 0.0 0.0
0.11561038495113309 -0.11110044368826821 0.0 -0.016782958384304804 0.0 0.0
0.1357947949055421 -0.1311292325461307 0.0 -0.01859670757801006 0.0 0.0
0.15598869550655156 -0.15124375783037622 0.0 -0.019700416185390705 0.0 0.0
0.17511902770526278 -0.17039648567936386 0.0 -0.019599688559262612 0.0 0.0
0.19161566853579773 -0.18710043778259963 0.0 -0.018088483387972098 0.0 0.0
0.20344888445130496 -0.19924944151068608 0.0 -0.015320984215725955 0.0 0.0
0.20792631477095108 -0.2046643662022877 0.0 1.9532986339498848e-14 0.0 0.0
0.20344888445127535 -0.19924944151065643 0.0 0.015320984215773261 0.0 0.0
0.19161566853574047 -0.18710043778254426 0.0 0.018088483388014547 0.0 0.0
0.17511902770518367 -0.17039648567927473 0.0 0.01959968855928968 0.0 0.0
0.15598869550645933 -0.1512437578302743 0.0 0.019700416185394434 0.0 0.0
0.13579479490544266 -0.13112923254602948 0.0 0.01859670757800265 0.0 0.0
0.11561038495103007 -0.11110044368816523 0.0 0.01678295838429813 0.0 0.0
0.0961704701740806 -0.09187694324476918 0.0 0.01469262802577324 0.0 0.0
0.07796456332921287 -0.07392487528247325 0.0 0.012560897876090583 0.0 0.0
0.06130411509987484 -0.057533094075527966 0.0 0.010445502022698137 0.0 0.0
0.04640294499609461 -0.042896692225065584 0.0 0.008302489686731144 0.0 0.0
0.03346787544143516 -0.03021526765727739 0.0 0.0061647979273963555 0.0 0.0
0.0227249485018719 -0.019726360893420447 0.0 0.004195707409705563 0.0 0.0
0.014355783084672419 -0.011641177852302823 0.0 0.0025828752194017165 0.0 0.0
0.00837965596890997 -0.006009174935631815 0.0 0.0014304792837861523 0.0 0.0
0.004603963031538018 -0.0026580859715738137 0.0 0.0007208757965159395 0.0 0.0
0.0026273174605302837 -0.0011629131698487588 0.0 0.0005053702305027503 0.0 0.0
0.0017377063783870267 -0.0007354742445229906 0.0 0.000478416035028309 0.0 0.0
0.0012522606431336803 -0.00023952152589027498 0.0 0.0005371417118717329 0.0 0.0
0.004587861261668769 -0.001297562650477682 0.0 0.006539725250350058 0.0 0.0
0.008121768510207268 -0.01849150412321946 0.0 0.004417147639243314 0.0 0.0
0.00617460837846307 -0.014943797284269339 0.0 -0.004861668880326419 0.0 0.0
0.003407247561609729 -0.0009321912251951999 0.0 -0.005977053869191468 0.0 0.0
0.0008863951589218387 -0.0001318159598810153 0.0 -0.0008152509768533491 0.0 0.0
0.0014256780431090592 -0.0005775197242320302 0.0 -0.0007813899332978322 0.0 0.0
0.0021931944832115345 -0.0009283854017391356 0.0 -0.0008414265032664062 0.0 0.0
0.0037829107334836493 -0.0020188644620973096 0.0 -0.0011060120421854064 0.0 0.0
0.006965862835270068 -0.004738652837934898 0.0 -0.0019731750591599428 0.0 0.0
0.012178142890241052 -0.009605361121112776 0.0 -0.003565455372893527 0.0 0.0
0.019561034873745883 -0.016719399288091033 0.0 -0.005751905964022508 0.0 0.0
0.02904847097908978 -0.02597419143452931 0.0 -0.008397260054575266 0.0 0.0
0.04043907285308105 -0.03713151931046586 0.0 -0.0112442470630411 0.0 0.0
0.0535196236309429 -0.04996367752566351 0.0 -0.014091773448497056 0.0 0.0
0.06811794283146833 -0.06430770130061794 0.0 -0.016896457428293862 0.0 0.0
0.08406848610987763 -0.0800211789382218 0.0 -0.01968889494525848 0.0 0.0
0.10114396591518586 -0.09688927063702944 0.0 -0.0224087943982648 0.0 0.0
0.11897382089252974 -0.11455645604788289 0.0 -0.024800875615900334 0.0 0.0
0.13695622606004806 -0.1324502817941672 0.0 -0.02636733731222471 0.0 0.0
0.15413446147131984 -0.14965706069091733 0.0 -0.0265055635095759 0.0 0.0
0.16909069031609983 -0.16477630999238668 0.0 -0.02460630778767574 0.0 0.0
0.18009212874316613 -0.1759809515375596 0.0 -0.0197198912565779 0.0 0.0
0.18437856307820386 -0.18157509206122052 0.0 2.6766783234322133e-14 0.0 0.0
0.18009212874313887 -0.1759809515375423 0.0 0.01971989125664015 0.0 0.0
0.1690906903160487 -0.16477630999233436 0.0 0.02460630778773127 0.0 0.0
0.15413446147125062 -0.14965706069083862 0.0 0.026505563509606436 0.0 0.0
0.13695622605996746 -0.13245028179409352 0.0 0.02636733731222899 0.0 0.0
0.11897382089244227 -0.11455645604778794 0.0 0.02480087561589047 0.0 0.0
0.10114396591509597 -0.09688927063693734 0.0 0.02240879439825362 0.0 0.0
0.08406848610978884 -0.08002117893813755 0.0 0.019688894945249478 0.0 0.0
0.06811794283138353 -0.06430770130052944 0.0 0.01689645742828029 0.0 0.0
0.05351962363086498 -0.049963677525585 0.0 0.014091773448474083 0.0 0.0
0.04043907285301239 -0.03713151931039991 0.0 0.011244247063021427 0.0 0.0
0.029048470979033847 -0.02597419143446783 0.0 0.008397260054557026 0.0 0.0
0.019561034873703108 -0.016719399288051984 0.0 0.005751905964009668 0.0 0.0
0.01217814289021036 -0.009605361121085057 0.0 0.0035654553728819774 0.0 0.0
0.006965862835251837 -0.00473865283791965 0.0 0.0019731750591522753 0.0 0.0
0.003782910733475103 -0.0020188644620909328 0.0 0.001106012042181757 0.0 0.0
0.0021931944832088257 -0.0009283854017415514 0.0 0.0008414265032667405 0.0 0.0
0.001425678043109058 -0.0005775197242309782 0.0 0.0007813899332967173 0.0 0.0
0.0008863951589226141 -0.00013181595988077865 0.0 0.0008152509768512266 0.0 0.0
0.0034072475616034907 -0.0009321912251911013 0.0 0.005977053869176585 0.0 0.0
0.006174608378449317 -0.014943797284244756 0.0 0.004861668880308449 0.0 0.0
0.004710177799408433 -0.012079476129904405 0.0 -0.004309065998117195 0.0 0.0
0.0025632220179460496 -0.0007340179200931128 0.0 -0.005326045328572593 0.0 0.0
0.0006417038335321955 -8.306356149230733e-05 0.0 -0.001216115575534567 0.0 0.0
0.0011486916772960735 -0.00043790591470378227 0.0 -0.0011118818087161675 0.0 0.0
0.0018015223568267737 -0.0007409257352294204 0.0 -0.0011715264313187923 0.0 0.0
0.0030472617731817156 -0.0015043953917133627 0.0 -0.0014315883060608222 0.0 0.0
0.005625462186788356 -0.003583886489945852 0.0 -0.002329570797134655 0.0 0.0
0.010030805030489046 -0.007618941893045107 0.0 -0.004136953435132794 0.0 0.0
0.016398549970888854 -0.01372744152884563 0.0 -0.006735328694932681 0.0 0.0
0.024603511698260094 -0.021720853878702834 0.0 -0.009836605810215763 0.0 0.0
0.03443403151192982 -0.03133817456299174 0.0 -0.01315823548980566 0.0 0.0
0.045683120510195456 -0.04235737295952917 0.0 -0.016477395838482567 0.0 0.0
0.058210280104869144 -0.054647582588070405 0.0 -0.01975200503824839 0.0 0.0
0.07190377283728958 -0.0681162432454716 0.0 -0.023003932993586596 0.0 0.0
0.0866017448468451 -0.08261705250078888 0.0 -0.026144520812617148 0.0 0.0
0.10204075689408044 -0.09789587772384127 0.0 -0.028922249113492473 0.0 0.0
0.1177723260117203 -0.11352551986046566 0.0 -0.030900369910707937 0.0 0.0
0.13301887165575832 -0.12876810572302153 0.0 -0.031399017399997495 0.0 0.0
0.14659371735483845 -0.14245329134674106 0.0 -0.029294960058651516 0.0 0.0
0.15702174171253974 -0.15303438052287244 0.0 -0.02302738363540816 0.0 0.0
0.16125465745818007 -0.1590273047985773 0.0 3.0889353574981016e-14 0.0 0.0
0.15702174171251457 -0.1530343805228444 0.0 0.023027383635478904 0.0 0.0
0.14659371735479282 -0.14245329134670048 0.0 0.02929496005871795 0.0 0.0
0.13301887165569917 -0.128768105722967 0.0 0.031399017400035166 0.0 0.0
0.11777232601165091 -0.11352551986039819 0.0 0.030900369910716013 0.0 0.0
0.10204075689400433 -0.09789587772376365 0.0 0.028922249113479494 0.0 0.0
0.0866017448467673 -0.0826170525007081 0.0 0.026144520812604884 0.0 0.0
0.07190377283721344 -0.06811624324539549 0.0 0.023003932993575685 0.0 0.0
0.05821028010479656 -0.054647582588000884 0.0 0.019752005038231317 0.0 0.0
0.04568312051012868 -0.04235737295945941 0.0 0.01647739583846013 0.0 0.0
0.0344340315118714 -0.03133817456293285 0.0 0.013158235489779877 0.0 0.0
0.024603511698211507 -0.021720853878649596 0.0 0.009836605810192006 0.0 0.0
0.016398549970851745 -0.01372744152881389 0.0 0.006735328694916637 0.0 0.0
0.01003080503046395 -0.007618941893020103 0.0 0.004136953435121397 0.0 0.0
0.005625462186774332 -0.003583886489935362 0.0 0.0023295707971277696 0.0 0.0
0.0030472617731755803 -0.0015043953917078818 0.0 0.001431588306058748 0.0 0.0
0.0018015223568248894 -0.0007409257352293636 0.0 0.0011715264313181973 0.0 0.0
0.001148691677295994 -0.0004379059147029426 0.0 0.0011118818087167688 0.0 0.0
0.0006417038335322663 -8.306356149383903e-05 0.0 0.0012161155755331062 0.0 0.0
0.002563222017940292 -0.0007340179200896043 0.0 0.005326045328557642 0.0 0.0
0.004710177799396932 -0.012079476129883209 0.0 0.004309065998106096 0.0 0.0
0.0035528932356172355 -0.009682834225878015 0.0 -0.003557613713224268 0.0 0.0
0.0019200186819068711 -0.0005950789673217013 0.0 -0.00469114411894821 0.0 0.0
0.00046833191807573577 -6.952561057551544e-05 0.0 -0.001602341415299899 0.0 0.0
0.0009024135653231222 -0.0003159856906037391 0.0 -0.001443230197824519 0.0 0.0
0.0014490312662364757 -0.0005878120424966054 0.0 -0.0015008649517872993 0.0 0.0
0.0023957354425767313 -0.0011041146782086004 0.0 -0.0017151278018405244 0.0 0.0
0.004393580326801457 -0.0025880897816862873 0.0 -0.0025741155080692395 0.0 0.0
0.007958469978324438 -0.005743591108420637 0.0 -0.0043619581915002705 0.0 0.0
0.013265531417642846 -0.010788611873485742 0.0 -0.007122925752775865 0.0 0.0
0.02017237836591405 -0.017498071687856435 0.0 -0.010475685214128474 0.0 0.0
0.028428125377307843 -0.025560913224242705 0.0 -0.014040693182311206 0.0 0.0
0.03783800726221489 -0.03475959070860785 0.0 -0.017602315318750693 0.0 0.0
0.04828853981046475 -0.04499033084781386 0.0 -0.02111584889383167 0.0 0.0
0.059714714490662596 -0.056208849498224245 0.0 -0.024603884492469325 0.0 0.0
0.0720269082379487 -0.06833472205616402 0.0 -0.027973410258364178 0.0 0.0
0.08504672369355239 -0.0811970914761596 0.0 -0.03096708267575011 0.0 0.0
0.09846373974538052 -0.09449680416726974 0.0 -0.033221579061578806 0.0 0.0
0.1117515290105924 -0.10772998444597995 0.0 -0.03409378235068322 0.0 0.0
0.12402709797289801 -0.12005592582340169 0.0 -0.03218737046941935 0.0 0.0
0.13404954539247038 -0.13020544352697092 0.0 -0.025419536390672487 0.0 0.0
0.13832440638594024 -0.13677054535920635 0.0 3.1977025194418474e-14 0.0 0.0
0.13404954539244868 -0.1302054435269399 0.0 0.025419536390745817 0.0 0.0
0.12402709797285913 -0.1200559258233711 0.0 0.03218737046949055 0.0 0.0
0.11175152901054212 -0.10772998444593442 0.0 0.0340937823507249 0.0 0.0
0.09846373974532126 -0.09449680416720835 0.0 0.033221579061585446 0.0 0.0
0.08504672369348812 -0.08119709147609484 0.0 0.03096708267573476 0.0 0.0
0.07202690823788353 -0.06833472205610212 0.0 0.02797341025835099 0.0 0.0
0.0597147144905993 -0.05620884949816295 0.0 0.02460388449245653 0.0 0.0
0.048288539810405 -0.044990330847761606 0.0 0.021115848893814647 0.0 0.0
0.037838007262159884 -0.03475959070855054 0.0 0.01760231531872692 0.0 0.0
0.028428125377259306 -0.025560913224196048 0.0 0.01404069318228236 0.0 0.0
0.020172378365873447 -0.01749807168782045 0.0 0.010475685214105458 0.0 0.0
0.013265531417612268 -0.010788611873454755 0.0 0.007122925752758214 0.0 0.0
0.007958469978303923 -0.005743591108402201 0.0 0.004361958191488537 0.0 0.0
0.004393580326790024 -0.0025880897816748408 0.0 0.002574115508061618 0.0 0.0
0.0023957354425718155 -0.001104114678205343 0.0 0.0017151278018389606 0.0 0.0
0.0014490312662350812 -0.0005878120424963106 0.0 0.0015008649517858244 0.0 0.0
0.0009024135653233683 -0.00031598569060240525 0.0 0.0014432301978235399 0.0 0.0
0.0004683319180753769 -6.952561057567672e-05 0.0 0.0016023414152979455 0.0 0.0
0.0019200186819024025 -0.000595078967319805 0.0 0.004691144118936281 0.0 0.0
0.003552893235609545 -0.009682834225860085 0.0 0.0035576137132153946 0.0 0.0
0.002626327361566488 -0.007652451523848384 0.0 -0.0028651343456008145 0.0 0.0
0.001415471648717988 -0.0004859469042319967 0.0 -0.004114781151130005 0.0 0.0
0.0003351016916221614 -7.018240382189721e-05 0.0 -0.001921636440769009 0.0 0.0
0.0006767525663354197 -0.0002080978613735193 0.0 -0.0017480103151851132 0.0 0.0
0.0011254770406486012 -0.0004514161975629011 0.0 -0.0018106724315921675 0.0 0.0
0.0018206885787380523 -0.0008006637490247104 0.0 -0.0019906597986073943 0.0 0.0
0.0032807087826689485 -0.00176840639306086 0.0 -0.0027095983799238794 0.0 0.0
0.006012517484079943 -0.004051596746821294 0.0 -0.004350722972685268 0.0 0.0
0.010218369479323364 -0.007969052509332082 0.0 -0.006963757016973428 0.0 0.0
0.01579120431584123 -0.013352541678409114 0.0 -0.01029233565429727 0.0 0.0
0.022463256036944754 -0.01984610444850951 0.0 -0.013875827660395381 0.0 0.0
0.030026536534178583 -0.027217781288940125 0.0 -0.017455701604889087 0.0 0.0
0.038396138829166405 -0.03538757664833058 0.0 -0.02097628611154849 0.0 0.0
0.047552067163782824 -0.044351257260591775 0.0 -0.024470922270083535 0.0 0.0
0.05746398770483245 -0.05409113295909219 0.0 -0.027859932913694194 0.0 0.0
0.06803259950535627 -0.0645138945449291 0.0 -0.030901218236989124 0.0 0.0
0.07907666007948692 -0.07542152387540417 0.0 -0.03325700338508813 0.0 0.0
0.09032413829819673 -0.08655047120265233 0.0 -0.03446206286348017 0.0 0.0
0.10127179972347962 -0.09747573717306113 0.0 -0.03317286636767889 0.0 0.0
0.11097322246922006 -0.1072815106653578 0.0 -0.02688531060477725 0.0 0.0
0.11536107103097637 -0.11457914387300511 0.0 3.089195566019498e-14 0.0 0.0
0.11097322246920176 -0.10728151066534301 0.0 0.026885310604849645 0.0 0.0
0.10127179972344691 -0.0974757371730293 0.0 0.03317286636775042 0.0 0.0
0.09032413829815523 -0.08655047120260495 0.0 0.03446206286352205 0.0 0.0
0.07907666007943884 -0.0754215238753613 0.0 0.03325700338509151 0.0 0.0
0.06803259950530369 -0.06451389454486885 0.0 0.030901218236974212 0.0 0.0
0.05746398770477987 -0.05409113295904343 0.0 0.027859932913679317 0.0 0.0
0.04755206716373317 -0.044351257260545895 0.0 0.024470922270071034 0.0 0.0
0.03839613882911948 -0.03538757664828764 0.0 0.020976286111534567 0.0 0.0
0.030026536534134764 -0.02721778128890033 0.0 0.017455701604864152 0.0 0.0
0.022463256036906007 -0.019846104448474722 0.0 0.013875827660365575 0.0 0.0
0.015791204315808802 -0.013352541678385545 0.0 0.010292335654272258 0.0 0.0
0.010218369479299308 -0.00796905250930868 0.0 0.006963757016958477 0.0 0.0
0.00601251748406419 -0.004051596746807966 0.0 0.004350722972673868 0.0 0.0
0.003280708782660689 -0.0017684063930506321 0.0 0.0027095983799182814 0.0 0.0
0.0018206885787357082 -0.0008006637490234216 0.0 0.0019906597986023506 0.0 0.0
0.0011254770406483043 -0.00045141619756652754 0.0 0.0018106724315890667 0.0 0.0
0.0006767525663353491 -0.00020809786137081232 0.0 0.0017480103151820531 0.0 0.0
0.00033510169162209236 -7.018240382157381e-05 0.0 0.0019216364407656779 0.0 0.0
0.0014154716487140907 -0.0004859469042308821 0.0 0.004114781151121641 0.0 0.0
0.0026263273615590777 -0.007652451523833406 0.0 0.00286513434559432 0.0 0.0
0.001885119592960623 -0.005938363940429597 0.0 -0.0023187831814882064 0.0 0.0
0.0010139527502907783 -0.00040124120097454857 0.0 -0.0035960543420858627 0.0 0.0
0.0002216451967031808 -6.908621293500872e-05 0.0 -0.002163120885662365 0.0 0.0
0.00046244419529792215 -0.00011136281563776419 0.0 -0.002008078811945783 0.0 0.0
0.0008167567594466558 -0.00031566180556269176 0.0 -0.0020776714069390464 0.0 0.0
0.0013140489712036817 -0.0005661213604400277 0.0 -0.002266302043774427 0.0 0.0
0.0022951385791192933 -0.0011319327070037004 0.0 -0.0027890979865760833 0.0 0.0
0.004221384640921572 -0.002597129395563375 0.0 -0.004124461020453296 0.0 0.0
0.007320274088592604 -0.005360628790755475 0.0 -0.0063656630884985415 0.0 0.0
0.011518184693183293 -0.009358595103473137 0.0 -0.00932811882060026 0.0 0.0
0.016577603688004827 -0.01424942566584303 0.0 -0.012646840403181727 0.0 0.0
0.022291452403363776 -0.01978685335525251 0.0 -0.016004122453716043 0.0 0.0
0.02858165176098685 -0.025897351998971658 0.0 -0.01930625773136843 0.0 0.0
0.03545934656377272 -0.0326035712828986 0.0 -0.022575949432522464 0.0 0.0
0.04295796128038373 -0.03994329814954392 0.0 -0.025774998229496818 0.0 0.0
0.05105586183824285 -0.047904199306317764 0.0 -0.028690790025045036 0.0 0.0
0.05966254931728045 -0.05637803989891569 0.0 -0.030976598522979487 0.0 0.0
0.06873468872314993 -0.06527018109728841 0.0 -0.032331159417441316 0.0 0.0
0.07821200387070389 -0.07460839353659508 0.0 -0.03196641906995452 0.0 0.0
0.0875717224264691 -0.08402428517535851 0.0 -0.027257665921275986 0.0 0.0
0.09210988573638422 -0.09221241198944222 0.0 2.5292268279741847e-14 0.0 0.0
0.08757172242645526 -0.0840242851753435 0.0 0.027257665921341753 0.0 0.0
0.07821200387067834 -0.0746083935365741 0.0 0.03196641907002389 0.0 0.0
0.068734688723117 -0.06527018109725836 0.0 0.03233115941748218 0.0 0.0
0.05966254931724302 -0.056378039898885506 0.0 0.03097659852298111 0.0 0.0
0.05105586183820271 -0.04790419930627351 0.0 0.028690790025032553 0.0 0.0
0.04295796128034434 -0.03994329814950302 0.0 0.025774998229482204 0.0 0.0
0.035459346563736886 -0.03260357128286528 0.0 0.02257594943251365 0.0 0.0
0.028581651760952072 -0.025897351998940436 0.0 0.019306257731352777 0.0 0.0
0.02229145240333036 -0.019786853355219916 0.0 0.016004122453692798 0.0 0.0
0.016577603687975992 -0.014249425665813411 0.0 0.012646840403155252 0.0 0.0
0.011518184693160067 -0.009358595103454471 0.0 0.009328118820578195 0.0 0.0
0.007320274088575604 -0.005360628790741043 0.0 0.0063656630884843576 0.0 0.0
0.004221384640910736 -0.002597129395553969 0.0 0.004124461020443815 0.0 0.0
0.00229513857911372 -0.0011319327070009493 0.0 0.0027890979865710444 0.0 0.0
0.0013140489712015577 -0.0005661213604385438 0.0 0.002266302043771341 0.0 0.0
0.0008167567594461025 -0.0003156618055632037 0.0 0.0020776714069363207 0.0 0.0
0.00046244419529747595 -0.00011136281563698954 0.0 0.0020080788119436845 0.0 0.0
0.00022164519670285889 -6.908621293567907e-05 0.0 0.00216312088566011 0.0 0.0
0.0010139527502883402 -0.0004012412009736353 0.0 0.003596054342079445 0.0 0.0
0.001885119592955804 -0.005938363940417852 0.0 0.0023187831814835114 0.0 0.0
0.0013144490611882928 -0.004527900572517214 0.0 -0.001947182590002042 0.0 0.0
0.0006962662912387144 -0.0003425805078412339 0.0 -0.003133777704451842 0.0 0.0
0.00011123388407667542 -5.450936547036617e-05 0.0 -0.002330387332347711 0.0 0.0
0.00025520764233432134 -2.322044679986403e-05 0.0 -0.002213686149270014 0.0 0.0
0.0005113350926268863 -0.0001751202388148876 0.0 -0.002286010180843022 0.0 0.0
0.0008507193228391833 -0.0003624495492613024 0.0 -0.002518347095692148 0.0 0.0
0.0014383517268426779 -0.0006662832116758245 0.0 -0.0028953071709485897 0.0 0.0
0.002615416969228717 -0.0014363833328638578 0.0 -0.0037636461810328665 0.0 0.0
0.004620481657310108 -0.0030704020186589293 0.0 -0.005404405936211141 0.0 0.0
0.00742331287956877 -0.005633804556860171 0.0 -0.0076913245916751805 0.0 0.0
0.010834163446126208 -0.008868141971770702 0.0 -0.010401009916037452 0.0 0.0
0.014678151926565776 -0.012548570713626769 0.0 -0.013242723343563455 0.0 0.0
0.01888706335912511 -0.016595556694465382 0.0 -0.01610427940621741 0.0 0.0
0.023486889288919156 -0.02104647715696639 0.0 -0.01894633520426425 0.0 0.0
0.02855249712335624 -0.025970215784260644 0.0 -0.021739858946358808 0.0 0.0
0.03415320545490195 -0.031436338993662695 0.0 -0.024379238309370842 0.0 0.0
0.040297815616722125 -0.03745314201923855 0.0 -0.02654653019162176 0.0 0.0
0.04704180158116365 -0.044013911713209605 0.0 -0.02785423132876467 0.0 0.0
0.054740268563803186 -0.05142940935716824 0.0 -0.028160984200725107 0.0 0.0
0.06357377540961263 -0.060152961900623025 0.0 -0.026064486934094133 0.0 0.0
0.06824862353157686 -0.06936203496394949 0.0 2.56175289314875e-14 0.0 0.0
0.06357377540960371 -0.06015296190061352 0.0 0.0260644869341531 0.0 0.0
0.05474026856378603 -0.05142940935715773 0.0 0.028160984200787664 0.0 0.0
0.04704180158113941 -0.044013911713190905 0.0 0.02785423132879654 0.0 0.0
0.04029781561669542 -0.03745314201921546 0.0 0.02654653019161579 0.0 0.0
0.03415320545487513 -0.031436338993637666 0.0 0.024379238309353197 0.0 0.0
0.0285524971233305 -0.02597021578423463 0.0 0.021739858946347133 0.0 0.0
0.02348688928889676 -0.021046477156952167 0.0 0.01894633520425673 0.0 0.0
0.01888706335910356 -0.01659555669445041 0.0 0.01610427940620242 0.0 0.0
0.014678151926544699 -0.012548570713604375 0.0 0.013242723343545086 0.0 0.0
0.01083416344610755 -0.008868141971745517 0.0 0.010401009916015825 0.0 0.0
0.0074233128795535095 -0.005633804556847985 0.0 0.007691324591658593 0.0 0.0
0.004620481657299354 -0.0030704020186478054 0.0 0.005404405936203629 0.0 0.0
0.0026154169692224226 -0.0014363833328570723 0.0 0.0037636461810261774 0.0 0.0
0.0014383517268400162 -0.0006662832116780648 0.0 0.0028953071709439085 0.0 0.0
0.0008507193228384749 -0.00036244954925851295 0.0 0.002518347095689386 0.0 0.0
0.0005113350926268388 -0.00017512023881368271 0.0 0.002286010180840334 0.0 0.0
0.0002552076423344747 -2.3220446799288605e-05 0.0 0.0022136861492679702 0.0 0.0
0.00011123388407639275 -5.450936547090242e-05 0.0 0.0023303873323460224 0.0 0.0
0.0006962662912368119 -0.0003425805078409135 0.0 0.003133777704446958 0.0 0.0
0.0013144490611848708 -0.004527900572508549 0.0 0.0019471825899987382 0.0 0.0
0.0008994927647705221 -0.0034004603837973005 0.0 -0.001705623782199536 0.0 0.0
0.00045023410022860513 -0.00031483829296219065 0.0 -0.002750836892859074 0.0 0.0
-4.4705123525997854e-06 -2.0288411876894315e-05 0.0 -0.0024319431990503107 0.0 0.0
5.23679189885392e-05 5.9011243169232507e-05 0.0 -0.0023604426598900184 0.0 0.0
0.0002045853437076217 -3.2737055804520146e-05 0.0 -0.002434022381550431 0.0 0.0
0.00040328533253193875 -0.00015992388002135084 0.0 -0.002696064750655603 0.0 0.0
0.0006886644275159116 -0.0003094294564759483 0.0 -0.003040495647591991 0.0 0.0
0.0012162178760145431 -0.0006042571559888088 0.0 -0.0034903807937561727 0.0 0.0
0.00216975662674297 -0.0012683962507017879 0.0 -0.004300286441765244 0.0 0.0
0.0035720322203432074 -0.0024118777265879133 0.0 -0.005642523865584987 0.0 0.0
0.00530251938950498 -0.003930125426812771 0.0 -0.0074833975953275626 0.0 0.0
0.007243473514497857 -0.005704649061726421 0.0 -0.00963167110784193 0.0 0.0
0.009352542151222358 -0.007670912003116712 0.0 -0.011922799648649715 0.0 0.0
0.011671239833369141 -0.009859678429279886 0.0 -0.014287310081297242 0.0 0.0
0.014287662263194464 -0.012348915062280849 0.0 -0.016704688518356697 0.0 0.0
0.01734168439993861 -0.015269075574692956 0.0 -0.01912455786584617 0.0 0.0
0.020995047533973677 -0.01878142780983171 0.0 -0.021314652875252624 0.0 0.0
0.025379958322023062 -0.02302207627079005 0.0 -0.022724517933658494 0.0 0.0
0.030911011853449667 -0.02825172213364512 0.0 -0.022976192595896748 0.0 0.0
0.03866879741384722 -0.03551096315913616 0.0 -0.022813208434263117 0.0 0.0
0.04328445094487544 -0.04560545754430357 0.0 1.97385510714021e-14 0.0 0.0
0.03866879741384261 -0.03551096315913402 0.0 0.02281320843431281 0.0 0.0
0.03091101185343966 -0.028251722133639766 0.0 0.0229761925959465 0.0 0.0
0.025379958322007828 -0.02302207627076706 0.0 0.022724517933678887 0.0 0.0
0.020995047533958963 -0.01878142780981297 0.0 0.02131465287524723 0.0 0.0
0.017341684399926404 -0.015269075574685466 0.0 0.019124557865831157 0.0 0.0
0.014287662263183565 -0.012348915062264104 0.0 0.01670468851834471 0.0 0.0
0.011671239833360415 -0.00985967842927596 0.0 0.01428731008129015 0.0 0.0
0.009352542151213802 -0.007670912003111607 0.0 0.011922799648638087 0.0 0.0
0.007243473514489018 -0.005704649061720669 0.0 0.009631671107824846 0.0 0.0
0.005302519389496953 -0.003930125426802448 0.0 0.007483397595311497 0.0 0.0
0.0035720322203368926 -0.002411877726581777 0.0 0.00564252386557343 0.0 0.0
0.0021697566267383692 -0.001268396250699389 0.0 0.004300286441761256 0.0 0.0
0.0012162178760117643 -0.0006042571559866747 0.0 0.003490380793753702 0.0 0.0
0.0006886644275152827 -0.00030942945647805263 0.0 0.0030404956475885646 0.0 0.0
0.0004032853325317078 -0.00015992388001994525 0.0 0.0026960647506519726 0.0 0.0
0.0002045853437073895 -3.2737055805760636e-05 0.0 0.002434022381549958 0.0 0.0
5.236791898835469e-05 5.901124317005719e-05 0.0 0.0023604426598881467 0.0 0.0
-4.470512352782553e-06 -2.0288411876348646e-05 0.0 0.0024319431990489156 0.0 0.0
0.00045023410022734616 -0.00031483829296256524 0.0 0.0027508368928549033 0.0 0.0
0.0008994927647682176 -0.0034004603837908824 0.0 0.0017056237821988685 0.0 0.0
0.0006057559010674133 -0.0025355517118285857 0.0 -0.0015627144046976853 0.0 0.0
0.00025977050985949223 -0.0003101250598189591 0.0 -0.0024715788365137635 0.0 0.0
-0.00012490411773716 2.920194049127999e-05 0.0 -0.0024760073081245776 0.0 0.0
-0.00014705762425319278 0.00013818033098695557 0.0 -0.002445028546318873 0.0 0.0
-9.899706390881268e-05 0.00010763032803949704 0.0 -0.002517004134456862 0.0 0.0
-4.709256208911679e-05 4.79735480882662e-05 0.0 -0.002771370649878869 0.0 0.0
-1.8484855955619176e-05 1.2687375002354258e-05 0.0 -0.003129326838192519 0.0 0.0
-7.272003660031677e-06 4.417709587846708e-06 0.0 -0.0034181918302390777 0.0 0.0
-2.426160991048597e-06 1.343530289826594e-06 0.0 -0.003745050998747141 0.0 0.0
-2.2795812531904323e-07 7.029866832484457e-08 0.0 -0.004540911217105528 0.0 0.0
-2.610373878146762e-06 1.4214189853227943e-06 0.0 -0.005902841500053375 0.0 0.0
-1.6282594420034954e-05 1.5067611501465034e-05 0.0 -0.007710192316978627 0.0 0.0
-4.001233663504544e-05 3.944286420729079e-05 0.0 -0.009719283146147645 0.0 0.0
-3.8328466754298856e-05 4.780190064628963e-05 0.0 -0.011866368653892899 0.0 0.0
9.217144044800689e-05 -4.9719548756264e-05 0.0 -0.014155614914246165 0.0 0.0
0.0005584523187722587 -0.00043999559761097415 0.0 -0.016556979214838886 0.0 0.0
0.0016849073040365837 -0.0014193126355012697 0.0 -0.018962384092415362 0.0 0.0
0.003814127412454838 -0.0033364811483399294 0.0 -0.021110692619962963 0.0 0.0
0.007165463796738127 -0.006284793562279708 0.0 -0.02270358370002107 0.0 0.0
0.012918081094775151 -0.011057264807529558 0.0 -0.024131832833869927 0.0 0.0
0.016672369087817978 -0.021711241834538188 0.0 1.0748346657152297e-14 0.0 0.0
0.012918081094774311 -0.011057264807523417 0.0 0.02413183283390017 0.0 0.0
0.0071654637967356535 -0.006284793562275843 0.0 0.022703583700041843 0.0 0.0
0.0038141274124513457 -0.0033364811483260646 0.0 0.021110692619968674 0.0 0.0
0.0016849073040369434 -0.0014193126355021267 0.0 0.018962384092403847 0.0 0.0
0.0005584523187754345 -0.00043999559761599086 0.0 0.016556979214821743 0.0 0.0
9.217144045087634e-05 -4.97195487552468e-05 0.0 0.014155614914234158 0.0 0.0
-3.83284667502331e-05 4.780190064327804e-05 0.0 0.01186636865388185 0.0 0.0
-4.0012336630588065e-05 3.9442864208531444e-05 0.0 0.009719283146132266 0.0 0.0
-1.628259441580483e-05 1.5067611492164694e-05 0.0 0.007710192316964808 0.0 0.0
-2.6103738749553586e-06 1.4214189855722421e-06 0.0 0.005902841500039139 0.0 0.0
-2.2795812353834958e-07 7.029866768029993e-08 0.0 0.004540911217100186 0.0 0.0
-2.4261609901149634e-06 1.3435302850764333e-06 0.0 0.0037450509987426274 0.0 0.0
-7.272003659754514e-06 4.417709587467942e-06 0.0 0.003418191830238177 0.0 0.0
-1.848485595509968e-05 1.2687375002132224e-05 0.0 0.003129326838188169 0.0 0.0
-4.70925620888748e-05 4.797354808858836e-05 0.0 0.0027713706498770922 0.0 0.0
-9.899706390898742e-05 0.00010763032804033662 0.0 0.0025170041344550038 0.0 0.0
-0.0001470576242531312 0.00013818033098570709 0.0 0.00244502854631662 0.0 0.0
-0.0001249041177375632 2.92019404919991e-05 0.0 0.0024760073081242064 0.0 0.0
0.0002597705098587429 -0.00031012505981969387 0.0 0.0024715788365118345 0.0 0.0
0.0006057559010670184 -0.0025355517118245165 0.0 0.0015627144046979733 0.0 0.0
0.0004016153041163557 -0.0019069660668454775 0.0 -0.0014931092289998346 0.0 0.0
0.00011633057524198487 -0.0003047853570470242 0.0 -0.0022736323202418827 0.0 0.0
-0.00024193274916470574 8.211305776476212e-05 0.0 -0.002467913019504673 0.0 0.0
-0.00034200281057255254 0.00021586492086828865 0.0 -0.0024648655975911637 0.0 0.0
-0.0003964911265202368 0.00024316143979326852 0.0 -0.0025248110155619828 0.0 0.0
-0.0004941473499986218 0.00025513574943189765 0.0 -0.002747112307505889 0.0 0.0
-0.0007255480982442538 0.00033634996928844774 0.0 -0.003076203122759487 0.0 0.0
-0.0012303997818010112 0.0006142671496860887 0.0 -0.0035149987024725225 0.0 0.0
-0.0021730984302958433 0.0012704597037267833 0.0 -0.0043102048782544256 0.0 0.0
-0.0035715949600829827 0.0024112920049457385 0.0 -0.005642573670417052 0.0 0.0
-0.005309594408477928 0.003935172734430888 0.0 -0.007482836990308181 0.0 0.0
-0.007278907286321044 0.005736695901319224 0.0 -0.009637349374116592 0.0 0.0
-0.009431132547417221 0.007749579552655147 0.0 -0.011918288818298565 0.0 0.0
-0.011738656967907097 0.00995033441437137 0.0 -0.014263549995017796 0.0 0.0
-0.014087406762430137 0.012236247918979584 0.0 -0.01669802579787109 0.0 0.0
-0.016226042299674892 0.014366940800079615 0.0 -0.019279798270178047 0.0 0.0
-0.017752272997249924 0.015946096689930654 0.0 -0.02204194252117143 0.0 0.0
-0.01821046559171296 0.01648023085805384 0.0 -0.02510975096230758 0.0 0.0
-0.017099986248020452 0.015655518895737432 0.0 -0.028428607285658814 0.0 0.0
-0.012379033154475597 0.012222528410112881 0.0 -0.030126266754934624 0.0 0.0
-0.008676527823085294 0.0008527637498094379 0.0 1.3409412469300719e-14 0.0 0.0
-0.012379033154475683 0.012222528410116076 0.0 0.030126266754967698 0.0 0.0
-0.017099986248014672 0.01565551889573036 0.0 0.028428607285680196 0.0 0.0
-0.018210465591700732 0.016480230858047232 0.0 0.025109750962308434 0.0 0.0
-0.017752272997233448 0.01594609668990204 0.0 0.022041942521157994 0.0 0.0
-0.016226042299657358 0.014366940800064738 0.0 0.01927979827015899 0.0 0.0
-0.014087406762413195 0.012236247918958686 0.0 0.01669802579785696 0.0 0.0
-0.011738656967889782 0.009950334414348614 0.0 0.014263549995005849 0.0 0.0
-0.009431132547399159 0.007749579552640438 0.0 0.011918288818280935 0.0 0.0
-0.007278907286303425 0.005736695901302749 0.0 0.009637349374096044 0.0 0.0
-0.0053095944084630186 0.003935172734418108 0.0 0.007482836990287964 0.0 0.0
-0.0035715949600726316 0.0024112920049423753 0.0 0.005642573670405068 0.0 0.0
-0.002173098430289772 0.0012704597037191624 0.0 0.004310204878248595 0.0 0.0
-0.0012303997817972026 0.0006142671496867606 0.0 0.003514998702469245 0.0 0.0
-0.0007255480982421282 0.0003363499692908148 0.0 0.0030762031227562882 0.0 0.0
-0.0004941473499975467 0.00025513574943037803 0.0 0.002747112307503077 0.0 0.0
-0.00039649112651966736 0.00024316143979476082 0.0 0.0025248110155582054 0.0 0.0
-0.0003420028105720614 0.00021586492086822772 0.0 0.0024648655975888674 0.0 0.0
-0.00024193274916443528 8.211305776519679e-05 0.0 0.002467913019504089 0.0 0.0
0.00011633057524177714 -0.0003047853570471622 0.0 0.002273632320241037 0.0 0.0
0.00040161530411579046 -0.0019069660668430987 0.0 0.0014931092289995338 0.0 0.0
0.0002651702071185309 -0.0014365628114997283 0.0 -0.0014093659537350847 0.0 0.0
1.1312879642918709e-05 -0.00028393698589657893 0.0 -0.002101360681747044 0.0 0.0
-0.00035105366808216624 0.000130595966406512 0.0 -0.002409175166624494 0.0 0.0
-0.0005293705833733474 0.00029117799458632665 0.0 -0.002419217723234814 0.0 0.0
-0.0006851496664459118 0.0003715370183144368 0.0 -0.002455145887528243 0.0 0.0
-0.0009340498413319567 0.00045622749818506137 0.0 -0.002622960455630883 0.0 0.0
-0.0014739389709906956 0.0006979403164550647 0.0 -0.0029668055360764526 0.0 0.0
-0.002625964243603216 0.001445486201792263 0.0 -0.0038000883102643533 0.0 0.0
-0.004619905811659732 0.0030693084728967003 0.0 -0.005412210261154671 0.0 0.0
-0.00742235808067656 0.0056329536433436965 0.0 -0.007689693127845173 0.0 0.0
-0.010843162781525206 0.008876846572990997 0.0 -0.010402355655226419 0.0 0.0
-0.014710838120092364 0.012579990679685342 0.0 -0.013234434635719227 0.0 0.0
-0.018951779453120342 0.016662365854939284 0.0 -0.016043617513011938 0.0 0.0
-0.023530475013181843 0.021113110908750066 0.0 -0.018812858669197557 0.0 0.0
-0.0283328774480014 0.025833215970898674 0.0 -0.021655962425733002 0.0 0.0
-0.033069245905678384 0.030548706470917668 0.0 -0.024783663445094167 0.0 0.0
-0.037267006174726204 0.03477723111996176 0.0 -0.02841428179752664 0.0 0.0
-0.04029330938543604 0.037877088992647204 0.0 -0.032643607001854924 0.0 0.0
-0.0409812368342403 0.038864804519644094 0.0 -0.03667552131003879 0.0 0.0
-0.03685705852632297 0.03543958286271949 0.0 -0.037806574095971865 0.0 0.0
-0.03317566222964184 0.02217134436190727 0.0 2.111852359654165e-14 0.0 0.0
-0.03685705852631944 0.035439582862717096 0.0 0.03780657409602349 0.0 0.0
-0.040981236834228114 0.03886480451962834 0.0 0.03667552131008715 0.0 0.0
-0.04029330938541261 0.03787708899262597 0.0 0.032643607001871584 0.0 0.0
-0.037267006174695215 0.03477723111992638 0.0 0.02841428179751824 0.0 0.0
-0.03306924590564639 0.030548706470884972 0.0 0.0247836634450759 0.0 0.0
-0.02833287744797052 0.025833215970866748 0.0 0.02165596242571617 0.0 0.0
-0.023530475013151204 0.021113110908710212 0.0 0.01881285866918309 0.0 0.0
-0.018951779453090054 0.016662365854903306 0.0 0.016043617512995625 0.0 0.0
-0.014710838120063224 0.012579990679663679 0.0 0.013234434635695833 0.0 0.0
-0.010843162781499108 0.008876846572966567 0.0 0.010402355655199742 0.0 0.0
-0.0074223580806565635 0.005632953643323382 0.0 0.007689693127825007 0.0 0.0
-0.004619905811646923 0.0030693084728899253 0.0 0.005412210261143887 0.0 0.0
-0.0026259642435956026 0.0014454862017876922 0.0 0.00380008831025736 0.0 0.0
-0.0014739389709867382 0.0006979403164525738 0.0 0.0029668055360720313 0.0 0.0
-0.0009340498413302762 0.00045622749818154335 0.0 0.002622960455628177 0.0 0.0
-0.0006851496664451398 0.00037153701831662796 0.0 0.002455145887526281 0.0 0.0
-0.0005293705833729768 0.00029117799458614775 0.0 0.0024192177232328924 0.0 0.0
-0.00035105366808191514 0.0001305959664069494 0.0 0.00240917516662324 0.0 0.0
1.1312879642858143e-05 -0.00028393698589661547 0.0 0.0021013606817440605 0.0 0.0
0.0002651702071181543 -0.001436562811497849 0.0 0.0014093659537347664 0.0 0.0
0.0001640829822378123 -0.0010518626606539922 0.0 -0.001266286421466928 0.0 0.0
-7.147008075457704e-05 -0.00024725756457367364 0.0 -0.0019212247352088417 0.0 0.0
-0.00045124489748601883 0.0001741041503358455 0.0 -0.002298543286671248 0.0 0.0
-0.0007075307981920754 0.0003619802455209917 0.0 -0.0023124696425261392 0.0 0.0
-0.0009626765131734503 0.0004905244704630334 0.0 -0.0023139285028603235 0.0 0.0
-0.0013864055544632078 0.0006587880176595885 0.0 -0.0024191291048478673 0.0 0.0
-0.002324894867881737 0.0011659220409638306 0.0 -0.0028817541678880796 0.0 0.0
-0.004224305921685355 0.0025983996670417217 0.0 -0.0041532237989889255 0.0 0.0
-0.007315837551030055 0.005355838153494041 0.0 -0.006365239275974155 0.0 0.0
-0.011518834553770053 0.009359780939592556 0.0 -0.009326528543675784 0.0 0.0
-0.016587429170180912 0.014260442208560879 0.0 -0.012648885493236449 0.0 0.0
-0.02231300780360504 0.019809455738984707 0.0 -0.015979594345949588 0.0 0.0
-0.02861238551695429 0.02593068128475878 0.0 -0.019182067937241278 0.0 0.0
-0.035455242547380174 0.03261676982521203 0.0 -0.022301943047262258 0.0 0.0
-0.04273397311708214 0.03978512522029552 0.0 -0.02555384182233432 0.0 0.0
-0.05013769927721162 0.04714722966898782 0.0 -0.029329876799243246 0.0 0.0
-0.05707612440606141 0.05412008120539033 0.0 -0.03406742828730604 0.0 0.0
-0.0625327124500557 0.05973906542830862 0.0 -0.03962836669526324 0.0 0.0
-0.0647394299850589 0.06230878405084869 0.0 -0.04449935145868006 0.0 0.0
-0.060199985723288385 0.05874125052835168 0.0 -0.04583710402700719 0.0 0.0
-0.05565048035323064 0.042614720821554035 0.0 2.6050342438743712e-14 0.0 0.0
-0.06019998572328045 0.05874125052834819 0.0 0.04583710402706679 0.0 0.0
-0.06473942998503986 0.06230878405083469 0.0 0.044499351458737596 0.0 0.0
-0.0625327124500226 0.059739065428278226 0.0 0.039628366695288464 0.0 0.0
-0.057076124406018475 0.05412008120535138 0.0 0.03406742828729934 0.0 0.0
-0.05013769927716631 0.047147229668943955 0.0 0.029329876799222915 0.0 0.0
-0.042733973117037125 0.0397851252202517 0.0 0.025553841822312403 0.0 0.0
-0.03545524254733612 0.03261676982516812 0.0 0.02230194304724236 0.0 0.0
-0.028612385516911247 0.025930681284711522 0.0 0.019182067937221877 0.0 0.0
-0.022313007803563906 0.019809455738946012 0.0 0.015979594345925996 0.0 0.0
-0.016587429170144233 0.01426044220852601 0.0 0.012648885493205404 0.0 0.0
-0.01151883455374121 0.009359780939560554 0.0 0.009326528543652164 0.0 0.0
-0.007315837551010515 0.005355838153477961 0.0 0.006365239275959762 0.0 0.0
-0.004224305921673263 0.002598399667029325 0.0 0.004153223798980295 0.0 0.0
-0.0023248948678751347 0.0011659220409579276 0.0 0.0028817541678818437 0.0 0.0
-0.0013864055544605435 0.0006587880176565801 0.0 0.0024191291048470138 0.0 0.0
-0.0009626765131724136 0.000490524470464255 0.0 0.002313928502858532 0.0 0.0
-0.0007075307981913313 0.00036198024551984743 0.0 0.002312469642524524 0.0 0.0
-0.0004512448974857779 0.00017410415033693288 0.0 0.002298543286669678 0.0 0.0
-7.147008075447337e-05 -0.0002472575645741134 0.0 0.0019212247352076973 0.0 0.0
0.00016408298223809462 -0.0010518626606524524 0.0 0.001266286421464752 0.0 0.0
7.963851108193324e-05 -0.0007304047918222168 0.0 -0.0010896087469379864 0.0 0.0
-0.00014337447732832995 -0.00019687125747580299 0.0 -0.001716826346014519 0.0 0.0
-0.0005443175180446833 0.0002145802573349516 0.0 -0.0021357862725690075 0.0 0.0
-0.0008756762552213381 0.0004265969592216392 0.0 -0.002147552552154197 0.0 0.0
-0.0012327468474740034 0.0005984504380043513 0.0 -0.0020997460386419867 0.0 0.0
-0.0018766285850324582 0.000887225182721152 0.0 -0.0021687744238832476 0.0 0.0
-0.0032987554644630683 0.0017941709542281191 0.0 -0.0027912730432896717 0.0 0.0
-0.006006915367815753 0.004043193169569955 0.0 -0.004364084944105825 0.0 0.0
-0.010213578527992349 0.007963878900912302 0.0 -0.006958517768133991 0.0 0.0
-0.0157947148292047 0.013357098570171979 0.0 -0.010291966582048678 0.0 0.0
-0.022471911537681712 0.01985767124803653 0.0 -0.013876218449764225 0.0 0.0
-0.030028956499313766 0.027224818213989685 0.0 -0.01741535797578525 0.0 0.0
-0.03837416676683432 0.03537020831258409 0.0 -0.020802783097738503 0.0 0.0
-0.04747703549430791 0.04428450025018405 0.0 -0.024089824700060092 0.0 0.0
-0.05724667052022481 0.0539096600204237 0.0 -0.02751581744811325 0.0 0.0
-0.06735766075051988 0.06396145143756 0.0 -0.031617171503006435 0.0 0.0
-0.07703252634512561 0.07370534141000404 0.0 -0.0369213553516532 0.0 0.0
-0.08480169274431947 0.08172720476865558 0.0 -0.04319049264552375 0.0 0.0
-0.08812717825265887 0.08560544308917048 0.0 -0.04874505500539657 0.0 0.0
-0.0827668562372833 0.08132382666905255 0.0 -0.050536078629439915 0.0 0.0
-0.07725495743077428 0.0624378923859842 0.0 2.8416505259976077e-14 0.0 0.0
-0.08276685623727137 0.08132382666903386 0.0 0.050536078629503635 0.0 0.0
-0.08812717825263269 0.0856054430891456 0.0 0.04874505500546154 0.0 0.0
-0.08480169274427753 0.08172720476860937 0.0 0.04319049264555732 0.0 0.0
-0.07703252634507225 0.07370534140995758 0.0 0.03692135535165079 0.0 0.0
-0.06735766075046233 0.06396145143750304 0.0 0.03161717150299035 0.0 0.0
-0.057246670520166465 0.05390966002037226 0.0 0.027515817448091076 0.0 0.0
-0.047477035494250364 0.044284500250128395 0.0 0.024089824700039123 0.0 0.0
-0.03837416676677812 0.035370208312522834 0.0 0.02080278309771747 0.0 0.0
-0.030028956499261378 0.027224818213935596 0.0 0.01741535797575751 0.0 0.0
-0.022471911537635506 0.019857671247992755 0.0 0.013876218449732018 0.0 0.0
-0.015794714829167056 0.013357098570135747 0.0 0.010291966582020043 0.0 0.0
-0.010213578527965278 0.007963878900882135 0.0 0.006958517768115881 0.0 0.0
-0.0060069153677984955 0.004043193169557152 0.0 0.004364084944095619 0.0 0.0
-0.0032987554644539198 0.0017941709542243392 0.0 0.0027912730432831847 0.0 0.0
-0.0018766285850286358 0.0008872251827192754 0.0 0.002168774423881279 0.0 0.0
-0.0012327468474727975 0.0005984504380024638 0.0 0.0020997460386413865 0.0 0.0
-0.0008756762552207436 0.0004265969592207972 0.0 0.0021475525521529874 0.0 0.0
-0.0005443175180439192 0.00021458025733498283 0.0 0.002135786272566581 0.0 0.0
-0.00014337447732828658 -0.00019687125747639764 0.0 0.0017168263460130059 0.0 0.0
7.963851108122264e-05 -0.0007304047918210266 0.0 0.0010896087469368463 0.0 0.0
6.8446474730282556e-06 -0.00046750524227565126 0.0 -0.0009009551906017643 0.0 0.0
-0.00020836454105749948 -0.00013637192162833597 0.0 -0.0014837769404558664 0.0 0.0
-0.0006319276812911858 0.0002539581262855957 0.0 -0.0019183649926390344 0.0 0.0
-0.001033029169731674 0.0004838777943977126 0.0 -0.0019248939133253988 0.0 0.0
-0.0015056677628079139 0.0007008285285430903 0.0 -0.0018220031114447657 0.0 0.0
-0.002426305840279714 0.001173339189831443 0.0 -0.0018908169233062353 0.0 0.0
-0.004398444712793261 0.002598283105768554 0.0 -0.0026289759164994796 0.0 0.0
-0.00795003266295898 0.005731380962221379 0.0 -0.004363681545102296 0.0 0.0
-0.013262813873262815 0.010786002932651128 0.0 -0.007116559387270573 0.0 0.0
-0.02017848131477452 0.01750580083478197 0.0 -0.010476646198740695 0.0 0.0
-0.028432778592170263 0.02557021771694238 0.0 -0.014036925197090077 0.0 0.0
-0.0378157864738636 0.034745933215867816 0.0 -0.017547307954411732 0.0 0.0
-0.04820416196289935 0.044914158594450186 0.0 -0.020919571862911664 0.0 0.0
-0.05955469709611287 0.05604843981906894 0.0 -0.024194472512129524 0.0 0.0
-0.07179970698159369 0.06811132450528665 0.0 -0.027564958923534066 0.0 0.0
-0.08458999688240681 0.08082536685062806 0.0 -0.03151601611397324 0.0 0.0
-0.09694417939008407 0.09329364752444651 0.0 -0.036680490542830055 0.0 0.0
-0.10689622117750143 0.10362525709797789 0.0 -0.0430569472924342 0.0 0.0
-0.1111818555648752 0.1086234891440314 0.0 -0.049238866426886366 0.0 0.0
-0.10506591829950594 0.10361971934434791 0.0 -0.05321219428562702 0.0 0.0
-0.0987214385202997 0.08233366425925694 0.0 2.813721478034381e-14 0.0 0.0
-0.10506591829948948 0.10361971934431145 0.0 0.0532121942856878 0.0 0.0
-0.11118185556484106 0.10862348914399483 0.0 0.049238866426949926 0.0 0.0
-0.10689622117745072 0.10362525709792136 0.0 0.04305694729247117 0.0 0.0
-0.09694417939002058 0.09329364752438853 0.0 0.036680490542830346 0.0 0.0
-0.08458999688233713 0.08082536685055369 0.0 0.031516016113958496 0.0 0.0
-0.07179970698152298 0.06811132450521941 0.0 0.02756495892351659 0.0 0.0
-0.05955469709604237 0.056048439819003426 0.0 0.024194472512109242 0.0 0.0
-0.048204161962830706 0.04491415859437569 0.0 0.020919571862892224 0.0 0.0
-0.03781578647379986 0.03474593321580279 0.0 0.017547307954384035 0.0 0.0
-0.028432778592113912 0.025570217716887354 0.0 0.014036925197057855 0.0 0.0
-0.020178481314728373 0.017505800834734728 0.0 0.010476646198713222 0.0 0.0
-0.013262813873228986 0.010786002932620626 0.0 0.007116559387252953 0.0 0.0
-0.007950032662936415 0.005731380962207123 0.0 0.004363681545089072 0.0 0.0
-0.00439844471278065 0.0025982831057610265 0.0 0.002628975916491601 0.0 0.0
-0.002426305840274797 0.0011733391898280225 0.0 0.0018908169233053012 0.0 0.0
-0.001505667762806155 0.0007008285285406663 0.0 0.001822003111444607 0.0 0.0
-0.0010330291697308689 0.00048387779439745815 0.0 0.001924893913321974 0.0 0.0
-0.0006319276812910649 0.00025395812628448546 0.0 0.001918364992638312 0.0 0.0
-0.00020836454105712456 -0.00013637192162939675 0.0 0.0014837769404531882 0.0 0.0
6.844647473722232e-06 -0.0004675052422748729 0.0 0.0009009551905995991 0.0 0.0
-5.4574650569929406e-05 -0.0002614916090486654 0.0 -0.0007077536370860303 0.0 0.0
-0.0002666251402587648 -7.082791295668686e-05 0.0 -0.0012238701181982118 0.0 0.0
-0.0007149797051141698 0.00029318182749995424 0.0 -0.0016460686214732696 0.0 0.0
-0.0011838676531488268 0.0005338630833411085 0.0 -0.0016444679352612427 0.0 0.0
-0.0017959005613899359 0.000808797747846976 0.0 -0.0014915066933007882 0.0 0.0
-0.0030474528489493236 0.0015432778797092581 0.0 -0.0015765167611629654 0.0 0.0
-0.005619138654253504 0.0035807259322323893 0.0 -0.002362530600936091 0.0 0.0
-0.010023762171059393 0.007609857666108739 0.0 -0.0041306366703885425 0.0 0.0
-0.016399921496589576 0.013728988208471831 0.0 -0.006729976752355149 0.0 0.0
-0.024610864866072696 0.021730476475533254 0.0 -0.009838799383087469 0.0 0.0
-0.03443123082702666 0.031341612580448264 0.0 -0.013149291543344432 0.0 0.0
-0.045633938583513584 0.042319880614583326 0.0 -0.01641184633701518 0.0 0.0
-0.058066940209856366 0.054516243708725716 0.0 -0.019563984544852954 0.0 0.0
-0.07165557859126549 0.06786612239197953 0.0 -0.022652884066266348 0.0 0.0
-0.08631238041002269 0.08231207210392132 0.0 -0.025753737932747427 0.0 0.0
-0.10167711201792529 0.09757501471564436 0.0 -0.029125260517465678 0.0 0.0
-0.11661518310423422 0.11265655271339209 0.0 -0.03341985086202338 0.0 0.0
-0.12870611856695444 0.1252471324084017 0.0 -0.039268432019575916 0.0 0.0
-0.13406801881254204 0.13146959768166336 0.0 -0.0464373029311259 0.0 0.0
-0.1275169863374159 0.12609410660555223 0.0 -0.05435464360899413 0.0 0.0
-0.12054265134049438 0.10278358741102907 0.0 2.4690319233577895e-14 0.0 0.0
-0.12751698633739494 0.12609410660552714 0.0 0.054354643609053774 0.0 0.0
-0.13406801881249983 0.13146959768161265 0.0 0.04643730293118689 0.0 0.0
-0.1287061185668946 0.12524713240834978 0.0 0.0392684320196074 0.0 0.0
-0.11661518310416083 0.11265655271331879 0.0 0.03341985086202719 0.0 0.0
-0.10167711201784375 0.09757501471557035 0.0 0.029125260517453365 0.0 0.0
-0.08631238040993908 0.08231207210383218 0.0 0.025753737932732598 0.0 0.0
-0.07165557859118249 0.06786612239190358 0.0 0.022652884066248886 0.0 0.0
-0.05806694020977504 0.05451624370864383 0.0 0.01956398454483374 0.0 0.0
-0.04563393858343821 0.04231988061450853 0.0 0.016411846336988997 0.0 0.0
-0.03443123082696039 0.03134161258038185 0.0 0.013149291543315218 0.0 0.0
-0.024610864866018194 0.02173047647547876 0.0 0.009838799383063125 0.0 0.0
-0.016399921496549317 0.013728988208437421 0.0 0.006729976752337075 0.0 0.0
-0.010023762171031242 0.007609857666083427 0.0 0.0041306366703769155 0.0 0.0
-0.0056191386542362365 0.003580725932216343 0.0 0.0023625306009261403 0.0 0.0
-0.0030474528489416145 0.0015432778797023552 0.0 0.0015765167611605105 0.0 0.0
-0.0017959005613876634 0.0008087977478474283 0.0 0.0014915066933006763 0.0 0.0
-0.001183867653148113 0.0005338630833416299 0.0 0.0016444679352590583 0.0 0.0
-0.0007149797051134425 0.0002931818274987045 0.0 0.0016460686214731343 0.0 0.0
-0.00026662514025829797 -7.082791295733509e-05 0.0 0.0012238701181976743 0.0 0.0
-5.4574650569578375e-05 -0.0002614916090481172 0.0 0.0007077536370813748 0.0 0.0
-0.00010224271921882691 -0.00011232085713711439 0.0 -0.0005157038868348347 0.0 0.0
-0.00031566730822067766 -5.96835574738345e-06 0.0 -0.0009401519313180509 0.0 0.0
-0.0007929163074333469 0.0003315630364421868 0.0 -0.0013172769043113745 0.0 0.0
-0.0013332228476726222 0.0005777306462630556 0.0 -0.0013020093860179151 0.0 0.0
-0.0021170272619216155 0.0009383392379512972 0.0 -0.0011102543479311997 0.0 0.0
-0.0037528666254037146 0.002019430721750811 0.0 -0.001205345855682331 0.0 0.0
-0.006954838483059984 0.004730837570350829 0.0 -0.001987416315322956 0.0 0.0
-0.0121768333921372 0.009603610812869187 0.0 -0.0035559017117411944 0.0 0.0
-0.019567141399022173 0.01672585676534902 0.0 -0.005748666344091797 0.0 0.0
-0.029055138634901542 0.025983745940632092 0.0 -0.008400074940594346 0.0 0.0
-0.04042552478503271 0.03712544233939295 0.0 -0.011230600602425598 0.0 0.0
-0.05344449562138831 0.0499016746741929 0.0 -0.01402454894045757 0.0 0.0
-0.06792840772467218 0.06413291154798711 0.0 -0.016742960824012186 0.0 0.0
-0.08374048268099751 0.07969868653883368 0.0 -0.019447594038189287 0.0 0.0
-0.10072577057743823 0.09646094322847332 0.0 -0.022121515320719782 0.0 0.0
-0.11848387344502317 0.11408290980525757 0.0 -0.024681160375578933 0.0 0.0
-0.13583891687653177 0.13155352152243627 0.0 -0.027468230634401954 0.0 0.0
-0.15013282875872463 0.14642478229909162 0.0 -0.031948770234529016 0.0 0.0
-0.15695820838954516 0.15428692993218276 0.0 -0.04028403089996491 0.0 0.0
-0.15050913500389382 0.14917525484987398 0.0 -0.05369158961637591 0.0 0.0
-0.14316934230818762 0.1242654372730686 0.0 2.1647614256714576e-14 0.0 0.0
-0.15050913500386912 0.1491752548498572 0.0 0.05369158961643036 0.0 0.0
-0.15695820838949598 0.1542869299321107 0.0 0.0402840309000164 0.0 0.0
-0.1501328287586549 0.14642478229902192 0.0 0.03194877023455128 0.0 0.0
-0.13583891687644725 0.13155352152235122 0.0 0.02746823063440492 0.0 0.0
-0.11848387344493001 0.11408290980516547 0.0 0.024681160375573094 0.0 0.0
-0.10072577057734206 0.09646094322837431 0.0 0.02212151532070634 0.0 0.0
-0.08374048268090233 0.07969868653874325 0.0 0.01944759403817489 0.0 0.0
-0.0679284077245795 0.06413291154789529 0.0 0.016742960823996973 0.0 0.0
-0.05344449562130204 0.04990167467410569 0.0 0.014024548940437483 0.0 0.0
-0.04042552478495745 0.03712544233931662 0.0 0.011230600602401764 0.0 0.0
-0.029055138634839744 0.02598374594057455 0.0 0.008400074940574107 0.0 0.0
-0.019567141398975155 0.01672585676530577 0.0 0.00574866634407483 0.0 0.0
-0.012176833392103808 0.009603610812835029 0.0 0.003555901711730607 0.0 0.0
-0.0069548384830394865 0.004730837570330383 0.0 0.001987416315315192 0.0 0.0
-0.0037528666253941545 0.002019430721743024 0.0 0.0012053458556787458 0.0 0.0
-0.002117027261918629 0.0009383392379502141 0.0 0.0011102543479292605 0.0 0.0
-0.0013332228476715764 0.0005777306462642188 0.0 0.0013020093860181179 0.0 0.0
-0.000792916307432734 0.0003315630364414609 0.0 0.0013172769043096502 0.0 0.0
-0.0003156673082209794 -5.968355747231694e-06 0.0 0.0009401519313177429 0.0 0.0
-0.00010224271921918982 -0.0001123208571367684 0.0 0.0005157038868325245 0.0 0.0
-0.0001312692150826851 -2.0614287711429567e-05 0.0 -0.0003351840161126281 0.0 0.0
-0.00034987683230608646 5.1085825305264684e-05 0.0 -0.000636666091510094 0.0 0.0
-0.0008633859178788122 0.0003661124692503205 0.0 -0.0009247778471321905 0.0 0.0
-0.00148968911978372 0.0006209109291110614 0.0 -0.0008911294450482726 0.0 0.0
-0.0024844271567279635 0.0011098579301531046 0.0 -0.0006880789974245659 0.0 0.0
-0.004551897215326983 0.0026267764443554517 0.0 -0.0007781245523096145 0.0 0.0
-0.00836996553335006 0.006005233128421482 0.0 -0.001432602286016773 0.0 0.0
-0.014362403052740867 0.011648805067461602 0.0 -0.0025746538720788593 0.0 0.0
-0.022735589239974388 0.019737444281221667 0.0 -0.004194928381507553 0.0 0.0
-0.03347170609817107 0.030222654024325682 0.0 -0.0061672165580744474 0.0 0.0
-0.04637662859968793 0.04287859252426663 0.0 -0.008287828005713599 0.0 0.0
-0.06120615140905063 0.05744825494990981 0.0 -0.010389094226123241 0.0 0.0
-0.07774250861706336 0.0737192688886546 0.0 -0.012457457838346142 0.0 0.0
-0.0957775792063856 0.09150145576676813 0.0 -0.014565227845458316 0.0 0.0
-0.11501538674709946 0.11052552411092614 0.0 -0.016635652994083233 0.0 0.0
-0.134927060794496 0.13030240339941784 0.0 -0.018352243623131387 0.0 0.0
-0.1544087948058891 0.14981383773204784 0.0 -0.019553466554413552 0.0 0.0
-0.17099832901648984 0.16684798941792872 0.0 -0.02171486383278812 0.0 0.0
-0.17993706151715874 0.17705827839125968 0.0 -0.02976289872731868 0.0 0.0
-0.1744528894319572 0.17336839596808984 0.0 -0.05012081128000671 0.0 0.0
-0.16717639886866686 0.14744725578579504 0.0 1.5383527784962325e-14 0.0 0.0
-0.1744528894319288 0.17336839596806775 0.0 0.0501208112800484 0.0 0.0
-0.17993706151710193 0.17705827839118685 0.0 0.029762898727356962 0.0 0.0
-0.17099832901640946 0.16684798941784895 0.0 0.02171486383280583 0.0 0.0
-0.1544087948057925 0.14981383773195703 0.0 0.01955346655441353 0.0 0.0
-0.1349270607943904 0.13030240339930918 0.0 0.018352243623129715 0.0 0.0
-0.11501538674699169 0.1105255241108206 0.0 0.01663565299407598 0.0 0.0
-0.09577757920627826 0.0915014557666661 0.0 0.014565227845445405 0.0 0.0
-0.07774250861695824 0.07371926888854961 0.0 0.012457457838335963 0.0 0.0
-0.06120615140895318 0.057448254949813315 0.0 0.010389094226106491 0.0 0.0
-0.046376628599603044 0.042878592524172816 0.0 0.008287828005694515 0.0 0.0
-0.033471706098101774 0.030222654024268922 0.0 0.0061672165580590795 0.0 0.0
-0.022735589239921195 0.019737444281171947 0.0 0.004194928381495365 0.0 0.0
-0.014362403052702206 0.011648805067426379 0.0 0.002574653872068954 0.0 0.0
-0.00836996553332626 0.006005233128399811 0.0 0.0014326022860113616 0.0 0.0
-0.0045518972153154435 0.002626776444345322 0.0 0.00077812455230662 0.0 0.0
-0.0024844271567234432 0.0011098579301506242 0.0 0.0006880789974236848 0.0 0.0
-0.0014896891197826634 0.0006209109291118399 0.0 0.00089112944504818 0.0 0.0
-0.0008633859178783558 0.0003661124692514092 0.0 0.0009247778471303644 0.0 0.0
-0.0003498768323053096 5.108582530526174e-05 0.0 0.0006366660915096504 0.0 0.0
-0.0001312692150817035 -2.061428771137977e-05 0.0 0.00033518401611182507 0.0 0.0
-0.00013291024440294 1.3852788875773286e-05 0.0 -0.00018819699708766185 0.0 0.0
-0.0003589769119940558 8.941074037128643e-05 0.0 -0.0003190754628852103 0.0 0.0
-0.000922552086939949 0.00039106354528898506 0.0 -0.00044931744238738624 0.0 0.0
-0.0016665073623223247 0.0006784260557425471 0.0 -0.0004088714279119191 0.0 0.0
-0.0029162309645549694 0.0013524203721727924 0.0 -0.00023438948626104813 0.0 0.0
-0.005431707256742942 0.0033570131892783186 0.0 -0.00027078045219915896 0.0 0.0
-0.009834492159874574 0.007352955809783195 0.0 -0.0006246921925155606 0.0 0.0
-0.016552101297123277 0.01371331853173052 0.0 -0.0012233947435025942 0.0 0.0
-0.025867854316796626 0.022725112104306507 0.0 -0.0020765374581611703 0.0 0.0
-0.037821304263695815 0.03440416593321585 0.0 -0.003144836047832235 0.0 0.0
-0.05224347138358628 0.04855881950830503 0.0 -0.004314873763230067 0.0 0.0
-0.06887938167238711 0.06492022116868197 0.0 -0.005501702612125785 0.0 0.0
-0.08746896261345884 0.08323085599764746 0.0 -0.006718118830525135 0.0 0.0
-0.10771007942045399 0.10321495479113162 0.0 -0.007978819074263687 0.0 0.0
-0.12915327816824418 0.12446304389415933 0.0 -0.009203123349803938 0.0 0.0
-0.15106302824211698 0.1462752940375561 0.0 -0.010129261451211919 0.0 0.0
-0.17226606842210204 0.16748837453681875 0.0 -0.010356086898580872 0.0 0.0
-0.19081796886945757 0.18618267345393677 0.0 -0.010342513474950663 0.0 0.0
-0.20276731386186242 0.19894601409517554 0.0 -0.01485172611689717 0.0 0.0
-0.19994904822481058 0.19913196881512227 0.0 -0.037858913762608776 0.0 0.0
-0.19348684884295786 0.17423857109737206 0.0 8.014422459012849e-15 0.0 0.0
-0.19994904822477777 0.19913196881509812 0.0 0.03785891376263287 0.0 0.0
-0.2027673138617983 0.19894601409510804 0.0 0.014851726116919428 0.0 0.0
-0.19081796886936567 0.18618267345385436 0.0 0.010342513474958459 0.0 0.0
-0.1722660684219924 0.16748837453671833 0.0 0.010356086898581241 0.0 0.0
-0.15106302824199866 0.14627529403744494 0.0 0.010129261451210384 0.0 0.0
-0.12915327816812386 0.12446304389403706 0.0 0.009203123349801038 0.0 0.0
-0.10771007942033424 0.10321495479100964 0.0 0.007978819074258073 0.0 0.0
-0.08746896261334208 0.08323085599753183 0.0 0.006718118830517908 0.0 0.0
-0.0688793816722787 0.06492022116857753 0.0 0.0055017026121173184 0.0 0.0
-0.05224347138349155 0.04855881950820657 0.0 0.0043148737632201 0.0 0.0
-0.03782130426361899 0.034404165933147456 0.0 0.0031448360478243315 0.0 0.0
-0.02586785431673741 0.022725112104248525 0.0 0.0020765374581565407 0.0 0.0
-0.016552101297079697 0.013713318531693806 0.0 0.0012233947434975177 0.0 0.0
-0.009834492159846869 0.007352955809758649 0.0 0.0006246921925139198 0.0 0.0
-0.005431707256729619 0.0033570131892672705 0.0 0.00027078045219642145 0.0 0.0
-0.0029162309645498438 0.0013524203721693535 0.0 0.00023438948626233958 0.0 0.0
-0.0016665073623205121 0.0006784260557417251 0.0 0.0004088714279108035 0.0 0.0
-0.0009225520869391691 0.00039106354528897563 0.0 0.0004493174423868456 0.0 0.0
-0.0003589769119936622 8.941074037163317e-05 0.0 0.0003190754628835279 0.0 0.0
-0.00013291024440305725 1.385278887550411e-05 0.0 0.00018819699708687526 0.0 0.0
-9.159480661664765e-05 1.6920876976411907e-05 0.0 -0.00011429573884494906 0.0 0.0
-0.0003246669361693127 0.00010217519531719794 0.0 -0.00013265729937431896 0.0 0.0
-0.0009660904272219262 0.00040026128208919695 0.0 -0.000146696495080089 0.0 0.0
-0.001883286762197986 0.0007133195681030516 0.0 -7.084773952157665e-05 0.0 0.0
-0.003422073749306839 0.0014963553652930384 0.0 0.00021129816876441787 0.0 0.0
-0.006373136960662438 0.0037477546374208477 0.0 0.0004520243384204699 0.0 0.0
-0.01132360926841706 0.008039945527900189 0.0 0.0005701293264136556 0.0 0.0
-0.018720681514501732 0.014747089818025689 0.0 0.0006040780717992647 0.0 0.0
-0.028928632570368783 0.02420777531255583 0.0 0.0005438686265947846 0.0 0.0
-0.04206238233999768 0.036475324661146794 0.0 0.00034352880569381945 0.0 0.0
-0.057986345021041316 0.051375163058995005 0.0 4.3308865640632674e-05 0.0 0.0
-0.0764278104392194 0.06863312900206092 0.0 -0.0003399692964509843 0.0 0.0
-0.09705444354398934 0.08796248581646408 0.0 -0.0008295373009180439 0.0 0.0
-0.11947292650313562 0.10904047666077492 0.0 -0.0013976929530943455 0.0 0.0
-0.14310274074399434 0.13139381291022068 0.0 -0.0020407207542835985 0.0 0.0
-0.16698761152895691 0.154209492642398 0.0 -0.002622093287011549 0.0 0.0
-0.18968607498862122 0.1762037532956275 0.0 -0.0028268213784762193 0.0 0.0
-0.20933392548744117 0.19554911887574042 0.0 -0.0025280826176232347 0.0 0.0
-0.22369603299418558 0.20947924963588016 0.0 -0.00516286706612004 0.0 0.0
-0.22733934331288175 0.21244762983498003 0.0 -0.0291686318731995 0.0 0.0
-0.22542786214940938 0.18891249143660382 0.0 3.427813588530171e-15 0.0 0.0
-0.2273393433128458 0.2124476298349547 0.0 0.029168631873209335 0.0 0.0
-0.22369603299411295 0.20947924963581216 0.0 0.005162867066129135 0.0 0.0
-0.20933392548733593 0.19554911887564774 0.0 0.002528082617622867 0.0 0.0
-0.18968607498849815 0.1762037532955198 0.0 0.0028268213784762124 0.0 0.0
-0.16698761152882627 0.1542094926422772 0.0 0.002622093287009089 0.0 0.0
-0.14310274074386092 0.131393812910087 0.0 0.0020407207542833643 0.0 0.0
-0.11947292650300394 0.10904047666064168 0.0 0.0013976929530941234 0.0 0.0
-0.09705444354386125 0.08796248581634318 0.0 0.0008295373009113653 0.0 0.0
-0.07642781043910027 0.06863312900195018 0.0 0.0003399692964500857 0.0 0.0
-0.05798634502093859 0.05137516305890046 0.0 -4.33088656447856e-05 0.0 0.0
-0.04206238233991392 0.03647532466106747 0.0 -0.00034352880569725464 0.0 0.0
-0.028928632570303477 0.024207775312492682 0.0 -0.0005438686265936401 0.0 0.0
-0.018720681514453715 0.014747089817986697 0.0 -0.0006040780717997724 0.0 0.0
-0.01132360926838617 0.008039945527875242 0.0 -0.0005701293264091113 0.0 0.0
-0.006373136960646087 0.003747754637410056 0.0 -0.00045202433842198996 0.0 0.0
-0.0034220737492997744 0.001496355365285982 0.0 -0.0002112981687606828 0.0 0.0
-0.001883286762195569 0.0007133195681021476 0.0 7.084773952189237e-05 0.0 0.0
-0.0009660904272210378 0.0004002612820878781 0.0 0.00014669649507994718 0.0 0.0
-0.00032466693616875535 0.00010217519531794799 0.0 0.00013265729937138332 0.0 0.0
-9.159480661585152e-05 1.692087697598732e-05 0.0 0.00011429573884487069 0.0 0.0
SCALARS Statev float 8
LOOKUP_TABLE default
0.0 0.020471752661013358 0.016476361200353888 -0.019505297729197596 0.003028936528843702 -0.0012980254180629798 0.0 0.0
0.0 0.007304870354938112 0.005436784358015213 -0.003514706857331425 -0.00192207750068379 -0.007465257641338518 0.0 0.0
0.0 0.00023286879746488108 0.0002898171669737528 -0.00017490673794699258 -0.00011491042902676009 -0.00042503670274528097 0.0 0.0
0.0 0.00022164809324415625 0.000135162344706893 -9.708422133026025e-05 -3.807812337663324e-05 3.805640821642613e-05 0.0 0.0
0.0 0.0013197055449134544 0.0009887798019871921 -0.0007306393786548028 -0.0002581404233323888 0.00020194614172164326 0.0 0.0
0.0 0.003540828820333121 0.003435725605655588 -0.002777283322084744 -0.0006584422835708461 0.00040771921742747123 0.0 0.0
0.0 0.008677904109221198 0.007909789729916733 -0.006911850751314072 -0.0009979389786026552 0.0005599400571344362 0.0 0.0
0.0 0.016572987502939986 0.014879831242921839 -0.013614162990128045 -0.0012656682527937926 0.0006205825737906653 0.0 0.0
0.0 0.027736687883704675 0.02466345485123224 -0.023139532443540712 -0.001523922407691519 0.0005849700073432491 0.0 0.0
0.0 0.04231190092937878 0.037356532890330606 -0.03554084927391074 -0.0018156836164199034 0.00041362009701226206 0.0 0.0
0.0 0.060136577173515365 0.0528253990695798 -0.05066729805436291 -0.002158101015216864 0.0001343138878682139 0.0 0.0
0.0 0.08058089014897632 0.07081157765911524 -0.06825874538684618 -0.0025528322722689033 -0.00023845681519409046 0.0 0.0
0.0 0.10364952145964666 0.09100775278491927 -0.0880204539547658 -0.0029872988301534787 -0.0007122718630051224 0.0 0.0
0.0 0.12890825071408687 0.11308813319688873 -0.10964236036816725 -0.003445772828721297 -0.0012382169480066028 0.0 0.0
0.0 0.15587758655339742 0.1366307986484821 -0.13272274113228336 -0.003908057516198668 -0.0018341182916075897 0.0 0.0
0.0 0.18384372357849887 0.16097617694870797 -0.15662524987049176 -0.004350927078215874 -0.0024633223970215792 0.0 0.0
0.0 0.2116366883643189 0.18513906944973435 -0.18038877345499693 -0.004750295994737612 -0.002995301350882321 0.0 0.0
0.0 0.23774140110606862 0.20781714855250893 -0.20273443400188573 -0.005082714550623137 -0.0032350432624145557 0.0 0.0
0.0 0.2603899198710131 0.22749569861130017 -0.22214901905772597 -0.005346679553573678 -0.0030490561704034115 0.0 0.0
0.0 0.2771925893412958 0.2423067819287697 -0.23679432783378387 -0.0055124540949861725 -0.003734335077272073 0.0 0.0
0.0 0.28449649030233826 0.24830861581272168 -0.24281281048396847 -0.005495805328752895 3.084338340286763e-15 0.0 0.0
0.0 0.27719258934125585 0.24230678192873467 -0.23679432783374965 -0.005512454094985195 0.003734335077281936 0.0 0.0
0.0 0.2603899198709372 0.22749569861123273 -0.22214901905766068 -0.0053466795535716425 0.0030490561704129646 0.0 0.0
0.0 0.237741401105952 0.20781714855240702 -0.202734434001786 -0.005082714550620921 0.0032350432624190587 0.0 0.0
0.0 0.2116366883641929 0.18513906944962358 -0.18038877345489124 -0.0047502959947325766 0.0029953013508819135 0.0 0.0
0.0 0.18384372357836248 0.16097617694858785 -0.15662524987037466 -0.00435092707821303 0.0024633223970151625 0.0 0.0
0.0 0.15587758655325562 0.13663079864835795 -0.1327227411321625 -0.0039080575161952475 0.0018341182916070025 0.0 0.0
0.0 0.12890825071394335 0.11308813319676347 -0.10964236036804445 -0.0034457728287191434 0.0012382169480058026 0.0 0.0
0.0 0.1036495214595093 0.09100775278479939 -0.08802045395464844 -0.0029872988301508064 0.000712271863001099 0.0 0.0
0.0 0.08058089014885164 0.07081157765900654 -0.06825874538673904 -0.0025528322722673316 0.00023845681518977176 0.0 0.0
0.0 0.06013657717340861 0.052825399069486384 -0.050667298054272045 -0.0021581010152143102 -0.0001343138878747126 0.0 0.0
0.0 0.04231190092928926 0.037356532890252425 -0.03554084927383416 -0.0018156836164183567 -0.0004136200970153482 0.0 0.0
0.0 0.027736687883635376 0.024663454851171277 -0.023139532443481374 -0.0015239224076898758 -0.0005849700073433134 0.0 0.0
0.0 0.016572987502895365 0.014879831242882018 -0.013614162990089464 -0.0012656682527925234 -0.0006205825737910032 0.0 0.0
0.0 0.008677904109193512 0.007909789729891245 -0.00691185075129013 -0.0009979389786011134 -0.0005599400571339136 0.0 0.0
0.0 0.003540828820321808 0.0034357256056443417 -0.0027772833220750014 -0.000658442283569347 -0.00040771921742639055 0.0 0.0
0.0 0.001319705544907495 0.000988779801982645 -0.0007306393786513439 -0.00025814042333129907 -0.0002019461417208326 0.0 0.0
0.0 0.00022164809324305958 0.00013516234470664436 -9.708422133012775e-05 -3.807812337651591e-05 -3.8056408216172924e-05 0.0 0.0
0.0 0.00023286879746391005 0.0002898171669729532 -0.00017490673794653185 -0.00011491042902642041 0.0004250367027435375 0.0 0.0
0.0 0.007304870354927063 0.005436784358009624 -0.0035147068573270243 -0.0019220775006825966 0.007465257641329885 0.0 0.0
0.0 0.02047175266099163 0.016476361200339566 -0.01950529772917784 0.0030289365288382482 0.0012980254180184824 0.0 0.0
0.0 0.016845231314758652 0.012723541995662016 -0.016283796862705174 0.003560254867043153 -0.0007992861534471579 0.0 0.0
0.0 0.004652273510211164 0.0033499625494553134 -0.0021555684612296574 -0.0011943940882256476 -0.006030395453548274 0.0 0.0
0.0 -9.704027895968065e-05 -7.99992065664779e-05 7.646837914029315e-05 3.5308274261847064e-06 -0.0001280057786835806 0.0 0.0
0.0 6.782870398377817e-05 5.8954434472919405e-05 -4.251149691517093e-05 -1.6442937557748393e-05 1.8402277344323737e-05 0.0 0.0
0.0 0.0007952865675246714 0.00067461482494578 -0.0005027100342111119 -0.00017190479073466762 7.710776911930974e-05 0.0 0.0
0.0 0.003070446719159588 0.002716485708899918 -0.0022193260685429636 -0.0004971596403569563 4.4195641863607986e-05 0.0 0.0
0.0 0.0074518872084505085 0.006767347741066684 -0.005994836899608095 -0.0007725108414585873 -0.0003090323895131355 0.0 0.0
0.0 0.01478461658683193 0.01316242005631043 -0.012228917710933228 -0.0009335023453772021 -0.0009042821847403653 0.0 0.0
0.0 0.02520294537504206 0.022194818757313432 -0.02115207778126491 -0.001042740976048517 -0.0017446295460359237 0.0 0.0
0.0 0.03871899432310688 0.03390110402911353 -0.0327639047117578 -0.001137199317355729 -0.0027994031473476183 0.0 0.0
0.0 0.05517628415444237 0.04811762932803512 -0.046889362016367134 -0.0012282673116680606 -0.003973857569812857 0.0 0.0
0.0 0.07438729744202924 0.06459769622848383 -0.06327649187161763 -0.0013212043568660982 -0.00518345899561504 0.0 0.0
0.0 0.09547520559053418 0.08309516677031988 -0.08167908810162731 -0.001416078668692548 -0.006420842157790612 0.0 0.0
0.0 0.11886145823147531 0.1033319547456493 -0.10182603724225975 -0.0015059175033895124 -0.00768102790617549 0.0 0.0
0.0 0.14381535638581944 0.12493393671486516 -0.12335336205869701 -0.001580574656167894 -0.008918295682027361 0.0 0.0
0.0 0.1696970952936655 0.1473183529250194 -0.14568687131511987 -0.0016314816098996613 -0.0100113093960054 0.0 0.0
0.0 0.19551991826032628 0.16961042626434852 -0.16795667796629438 -0.001653748298054064 -0.0106875321484527 0.0 0.0
0.0 0.21990778841689268 0.19062949519507652 -0.18898077100070743 -0.001648724194369156 -0.010601286370272696 0.0 0.0
0.0 0.24105135189801008 0.20885403896847737 -0.20724991002431073 -0.0016041289441664271 -0.009637794210600854 0.0 0.0
0.0 0.2564901124923992 0.22207667539052678 -0.2206485579521792 -0.0014281174383476054 -0.00879443598827435 0.0 0.0
0.0 0.2632941226972407 0.2272476758469756 -0.22608771838033692 -0.0011599574666389069 9.807259171434879e-15 0.0 0.0
0.0 0.2564901124923599 0.2220766753904924 -0.2206485579521445 -0.001428117438347713 0.00879443598829958 0.0 0.0
0.0 0.24105135189793736 0.20885403896841426 -0.20724991002424786 -0.001604128944166138 0.009637794210625552 0.0 0.0
0.0 0.21990778841678504 0.1906294951949841 -0.18898077100061425 -0.0016487241943698443 0.010601286370286893 0.0 0.0
0.0 0.1955199182602016 0.16961042626424144 -0.16795667796618685 -0.001653748298054739 0.010687532148453029 0.0 0.0
0.0 0.16969709529353877 0.14731835292490988 -0.1456868713150104 -0.0016314816098990416 0.01001130939599868 0.0 0.0
0.0 0.14381535638568727 0.12493393671475023 -0.12335336205858259 -0.0015805746561677004 0.008918295682024874 0.0 0.0
0.0 0.11886145823134465 0.10333195474553633 -0.10182603724214692 -0.0015059175033893311 0.007681027906171873 0.0 0.0
0.0 0.09547520559041055 0.08309516677021292 -0.08167908810152107 -0.0014160786686918793 0.006420842157782497 0.0 0.0
0.0 0.0743872974419119 0.06459769622838227 -0.06327649187151566 -0.0013212043568666281 0.005183458995606805 0.0 0.0
0.0 0.05517628415434206 0.048117629327948386 -0.04688936201628096 -0.0012282673116674474 0.003973857569801457 0.0 0.0
0.0 0.038718994323025106 0.03390110402904221 -0.03276390471168669 -0.0011371993173554568 0.0027994031473392578 0.0 0.0
0.0 0.025202945374980665 0.022194818757259267 -0.02115207778121142 -0.001042740976047854 0.0017446295460312605 0.0 0.0
0.0 0.01478461658678979 0.013162420056273098 -0.012228917710896563 -0.0009335023453765617 0.0009042821847360073 0.0 0.0
0.0 0.007451887208424644 0.006767347741043342 -0.005994836899585812 -0.0007725108414575198 0.0003090323895107733 0.0 0.0
0.0 0.003070446719147909 0.0027164857088896642 -0.0022193260685340237 -0.0004971596403556385 -4.419564186406749e-05 0.0 0.0
0.0 0.0007952865675188605 0.0006746148249411468 -0.0005027100342075357 -0.00017190479073361133 -7.710776911916752e-05 0.0 0.0
0.0 6.78287039832683e-05 5.8954434473011284e-05 -4.251149691528327e-05 -1.6442937557727888e-05 -1.840227734408306e-05 0.0 0.0
0.0 -9.704027895988097e-05 -7.999920656602717e-05 7.646837913989141e-05 3.530827426135555e-06 0.00012800577868318677 0.0 0.0
0.0 0.004652273510199523 0.0033499625494489505 -0.002155568461224936 -0.0011943940882240113 0.00603039545353715 0.0 0.0
0.0 0.01684523131473431 0.012723541995643458 -0.016283796862682238 0.0035602548670387694 0.0007992861534133124 0.0 0.0
0.0 0.012734161414684432 0.009416567007725625 -0.012371581332489045 0.0029550143247634207 -0.0034936742659248494 0.0 0.0
0.0 0.003209618070262684 0.0020577992763448605 -0.0011700330538105081 -0.0008877662225343547 -0.0053004162931842595 0.0 0.0
0.0 5.062157144174127e-07 1.4770987345213412e-06 -1.1984594588032949e-06 -2.786392757180426e-07 6.417840944173823e-07 0.0 0.0
0.0 3.948221486173385e-06 2.4502851196718775e-06 -1.001307596548726e-06 -1.4489775231232807e-06 7.86956976736701e-06 0.0 0.0
0.0 0.0003999909302559865 0.0003596683812292465 -0.0002611254638250538 -9.854291740419254e-05 9.760146358942389e-06 0.0 0.0
0.0 0.0022420843238820693 0.0019374473353294033 -0.0015396722312922954 -0.0003977751040371068 -0.00015696605158007864 0.0 0.0
0.0 0.0058892897786594406 0.0054166823490912 -0.004709915400593602 -0.0007067669484975964 -0.0008430054656972503 0.0 0.0
0.0 0.012458041144529763 0.011089313418022318 -0.010204390575909925 -0.0008849228421123858 -0.0019842328770457588 0.0 0.0
0.0 0.021793231979577447 0.019180705101152874 -0.018187985922257868 -0.0009927191788949802 -0.0035775034923788613 0.0 0.0
0.0 0.03399509986321558 0.02967041558402643 -0.028590753811888067 -0.0010796617721383693 -0.0055297517799662126 0.0 0.0
0.0 0.0487617641914117 0.04236881416983423 -0.04120417523865255 -0.0011646389311816279 -0.007662888523206284 0.0 0.0
0.0 0.06570540475022268 0.05704450775940006 -0.05579147227578461 -0.0012530354836154496 -0.009812314037577385 0.0 0.0
0.0 0.0849329646733913 0.07348854955629647 -0.07214577861124807 -0.0013427709450482953 -0.011939508350938374 0.0 0.0
0.0 0.10550499368142044 0.0914959748901667 -0.09006847015327685 -0.0014275047368899408 -0.01408691872559167 0.0 0.0
0.0 0.12780249044447592 0.11075780596184659 -0.1092581272909387 -0.0014996786709080422 -0.016197465494910076 0.0 0.0
0.0 0.1509854942608631 0.13079378906404213 -0.12924221615778683 -0.0015515729062551833 -0.018039967671653327 0.0 0.0
0.0 0.17422201104496923 0.15087455233871033 -0.14929643095053532 -0.0015781213881751425 -0.019185033672683937 0.0 0.0
0.0 0.19626949609859456 0.16993730694941178 -0.16836625863466265 -0.0015710483147493137 -0.0191342482231828 0.0 0.0
0.0 0.21539600145300947 0.18644319026239634 -0.18494001320668327 -0.00150317705571287 -0.017666996617505856 0.0 0.0
0.0 0.22924019226818912 0.19834139584434415 -0.19694192914491526 -0.0013994666994283868 -0.014922597040762223 0.0 0.0
0.0 0.2356455369669472 0.20313723650294446 -0.20204492320191816 -0.0010923133010264162 1.8402813994899958e-14 0.0 0.0
0.0 0.22924019226815687 0.19834139584431434 -0.19694192914488629 -0.0013994666994278442 0.01492259704080617 0.0 0.0
0.0 0.21539600145294488 0.18644319026234005 -0.18494001320662706 -0.001503177055713119 0.01766699661754801 0.0 0.0
0.0 0.19626949609849825 0.16993730694932865 -0.16836625863457838 -0.0015710483147502309 0.019134248223209215 0.0 0.0
0.0 0.17422201104485638 0.15087455233861427 -0.14929643095043785 -0.001578121388176518 0.019185033672686154 0.0 0.0
0.0 0.15098549426074792 0.13079378906394223 -0.1292422161576873 -0.0015515729062549107 0.018039967671645306 0.0 0.0
0.0 0.12780249044435738 0.110757805961744 -0.10925812729083628 -0.0014996786709077284 0.01619746549490389 0.0 0.0
0.0 0.10550499368130621 0.0914959748900679 -0.09006847015317841 -0.00142750473688951 0.014086918725585009 0.0 0.0
0.0 0.0849329646732804 0.07348854955620066 -0.07214577861115287 -0.0013427709450478198 0.01193950835092634 0.0 0.0
0.0 0.06570540475011638 0.057044507759308735 -0.05579147227569302 -0.001253035483615638 0.009812314037562594 0.0 0.0
0.0 0.048761764191324185 0.04236881416975818 -0.041204175238577175 -0.0011646389311810088 0.0076628885231901315 0.0 0.0
0.0 0.033995099863142204 0.0296704155839623 -0.028590753811824132 -0.001079661772138152 0.005529751779952561 0.0 0.0
0.0 0.021793231979524225 0.019180705101106227 -0.018187985922211956 -0.0009927191788942674 0.0035775034923699726 0.0 0.0
0.0 0.012458041144491701 0.011089313417989173 -0.01020439057587735 -0.0008849228421117991 0.001984232877037948 0.0 0.0
0.0 0.005889289778636455 0.005416682349070448 -0.004709915400573998 -0.0007067669484964545 0.000843005465692382 0.0 0.0
0.0 0.002242084323871445 0.001937447335320271 -0.0015396722312846047 -0.00039777510403566653 0.00015696605157865853 0.0 0.0
0.0 0.0003999909302523552 0.0003596683812265874 -0.0002611254638230335 -9.854291740355405e-05 -9.760146359035051e-06 0.0 0.0
0.0 3.948221486105276e-06 2.450285119775495e-06 -1.0013075966420964e-06 -1.4489775231333822e-06 -7.869569767247463e-06 0.0 0.0
0.0 5.062157145011649e-07 1.477098734433756e-06 -1.198459458737747e-06 -2.7863927569600954e-07 -6.417840944532348e-07 0.0 0.0
0.0 0.0032096180702535365 0.0020577992763395688 -0.0011700330538069706 -0.000887766222532595 0.0053004162931703 0.0 0.0
0.0 0.012734161414659086 0.009416567007706858 -0.012371581332465657 0.002955014324758782 0.0034936742659023375 0.0 0.0
0.0 0.00977138242867526 0.007047755174824109 -0.009445198592721317 0.002397443417897177 -0.0037590245383930902 0.0 0.0
0.0 0.0023745970740417996 0.001432002834381521 -0.0007963729644183474 -0.0006356298699631647 -0.004080870056133583 0.0 0.0
0.0 0.0 0.0 0.0 0.0 0.0 0.0 0.0
0.0 -6.2190794502373455e-06 -5.831642636717221e-06 4.62166074735944e-06 1.2099818893577794e-06 4.65933219094856e-06 0.0 0.0
0.0 0.00016247650029617127 0.00013883516085567846 -9.700071831655066e-05 -4.183444253912721e-05 -1.2566110278403239e-07 0.0 0.0
0.0 0.00142239724053955 0.001279450194120651 -0.0009882219960623535 -0.00029122819805829615 -0.00026307386344598404 0.0 0.0
0.0 0.004655249333376442 0.004117240561602559 -0.003497271966647673 -0.0006199685949548849 -0.001099191887472859 0.0 0.0
0.0 0.010187011791238106 0.009038704467342628 -0.008212888258326083 -0.000825816209016544 -0.0026878351269858593 0.0 0.0
0.0 0.01845637414497189 0.01614949607359273 -0.015212161472797752 -0.0009373346007949762 -0.004852512867087088 0.0 0.0
0.0 0.029263036624703215 0.025391466753545127 -0.024373006000070148 -0.0010184607534749618 -0.007481231439955584 0.0 0.0
0.0 0.042250930034397366 0.0365539646188158 -0.03545725412479845 -0.0010967104940173098 -0.010327938003550186 0.0 0.0
0.0 0.05728963714756648 0.04941516331072155 -0.04823549345525662 -0.001179669855464912 -0.013187150000394603 0.0 0.0
0.0 0.07387341767721196 0.06380606980817258 -0.0625413069965884 -0.001264762811584168 -0.01601043549546 0.0 0.0
0.0 0.09239684825060211 0.07956285011086722 -0.0782189014065169 -0.0013439487043503191 -0.01882540133594499 0.0 0.0
0.0 0.11189473867458524 0.0964654552909856 -0.09505238349044269 -0.0014130718005428847 -0.02157459361708454 0.0 0.0
0.0 0.1321922124172314 0.11414621920481166 -0.11267891547977522 -0.0014673037250364097 -0.02400619068696309 0.0 0.0
0.0 0.1529429645358332 0.13201213404808712 -0.13051509973409453 -0.0014970343139926005 -0.02562453441134975 0.0 0.0
0.0 0.17272784286033227 0.14912437976964432 -0.14763615069108013 -0.0014882290785640368 -0.0258239784298792 0.0 0.0
0.0 0.18998039912930556 0.16407414065364584 -0.16263919811159497 -0.0014349425420509489 -0.02399152896542435 0.0 0.0
0.0 0.20266205804208787 0.17510055456239296 -0.17373248469630495 -0.0013680698660883802 -0.019185922334345313 0.0 0.0
0.0 0.20908381082681282 0.1798319939851389 -0.17889158419113826 -0.0009404097940005482 2.5337371090117244e-14 0.0 0.0
0.0 0.20266205804206494 0.17510055456237034 -0.173732484696283 -0.001368069866087487 0.01918592233440345 0.0 0.0
0.0 0.18998039912924808 0.16407414065359444 -0.1626391981115434 -0.0014349425420509402 0.023991528965481315 0.0 0.0
0.0 0.17272784286024773 0.14912437976957085 -0.14763615069100597 -0.0014882290785647745 0.02582397842991022 0.0 0.0
0.0 0.15294296453574374 0.13201213404800988 -0.13051509973401842 -0.0014970343139914736 0.025624534411353976 0.0 0.0
0.0 0.13219221241712634 0.11414621920472116 -0.1126789154796842 -0.001467303725036869 0.02400619068695223 0.0 0.0
0.0 0.11189473867448073 0.09646545529089495 -0.09505238349035225 -0.0014130718005427425 0.021574593617075158 0.0 0.0
0.0 0.0923968482505029 0.07956285011078078 -0.07821890140643144 -0.0013439487043493863 0.018825401335936326 0.0 0.0
0.0 0.07387341767711166 0.06380606980808656 -0.0625413069965026 -0.001264762811583898 0.01601043549544484 0.0 0.0
0.0 0.05728963714747637 0.04941516331064369 -0.04823549345517919 -0.0011796698554645821 0.013187150000373373 0.0 0.0
0.0 0.04225093003432013 0.0365539646187491 -0.03545725412473241 -0.0010967104940166534 0.010327938003529541 0.0 0.0
0.0 0.029263036624636158 0.025391466753487343 -0.02437300600001257 -0.0010184607534747699 0.007481231439936473 0.0 0.0
0.0 0.01845637414492516 0.01614949607355231 -0.01521216147275785 -0.0009373346007944468 0.004852512867074696 0.0 0.0
0.0 0.010187011791205819 0.009038704467313932 -0.008212888258298155 -0.00082581620901577 0.002687835126975972 0.0 0.0
0.0 0.004655249333356644 0.00411724056158595 -0.003497271966632378 -0.0006199685949535688 0.0010991918874667854 0.0 0.0
0.0 0.0014223972405309562 0.0012794501941136623 -0.0009882219960566738 -0.00029122819805698806 0.00026307386344396553 0.0 0.0
0.0 0.00016247650029537953 0.00013883516085554828 -9.700071831655229e-05 -4.18344425389957e-05 1.2566110332617656e-07 0.0 0.0
0.0 -6.219079450658534e-06 -5.831642636759714e-06 4.621660747394392e-06 1.2099818893653453e-06 -4.659332191000033e-06 0.0 0.0
0.0 0.0 0.0 0.0 0.0 0.0 0.0 0.0
0.0 0.0023745970740332635 0.0014320028343765355 -0.0007963729644149695 -0.0006356298699615694 0.004080870056120776 0.0 0.0
0.0 0.009771382428653958 0.007047755174807577 -0.009445198592700458 0.0023974434178928735 0.003759024538377253 0.0 0.0
0.0 0.007275216054805134 0.005216070695201779 -0.007115038752461554 0.0018989680572597874 -0.0032267173919150417 0.0 0.0
0.0 0.0019025761773031273 0.0009661481396428578 -0.000527349035873786 -0.00043879910376907143 -0.0029999212171219693 0.0 0.0
0.0 0.0 0.0 0.0 0.0 0.0 0.0 0.0
0.0 -1.0737477097667714e-06 -4.6123878231789315e-07 3.723198030948198e-07 8.891897922307403e-08 7.295373075318849e-07 0.0 0.0
0.0 9.371411669174937e-06 2.2047674456234237e-05 -1.2365243160095858e-05 -9.68243129613834e-06 1.4981190951263417e-05 0.0 0.0
0.0 0.0008583585796810619 0.0007395598902470781 -0.0005561726041427619 -0.0001833872861043164 -0.00026109386647605074 0.0 0.0
0.0 0.0034650988552297033 0.002932378329685581 -0.002423679580481241 -0.0005086987492043336 -0.0011656753353807704 0.0 0.0
0.0 0.008011383436243394 0.0070418439700334935 -0.00628884412463166 -0.0007529998454018488 -0.002975156749920032 0.0 0.0
0.0 0.015166018926141465 0.01314034430604416 -0.012265522269745475 -0.0008748220362986911 -0.005561150947034576 0.0 0.0
0.0 0.02452882224068455 0.021107300071957543 -0.02015536462290369 -0.0009519354490538489 -0.008650496762889374 0.0 0.0
0.0 0.035822694569221894 0.030716493040416924 -0.029692702618581136 -0.0010237904218357784 -0.01197729605516134 0.0 0.0
0.0 0.04878093381294794 0.04175415874853815 -0.040653498389163205 -0.001100660359374929 -0.015313513760552375 0.0 0.0
0.0 0.06329017369620689 0.05407996695523865 -0.052899882685773905 -0.0011800842694647316 -0.018611325478075168 0.0 0.0
0.0 0.07883251547296574 0.06758840962238927 -0.06633308049207945 -0.0012553291303098364 -0.02189290074526129 0.0 0.0
0.0 0.09585078968330579 0.08211697558297577 -0.08079589708688495 -0.001321078496090789 -0.02507124972512549 0.0 0.0
0.0 0.11370266000001655 0.09740715614066854 -0.09603274223897952 -0.0013744139016890551 -0.027895966656387196 0.0 0.0
0.0 0.1316354039706146 0.11301890859739623 -0.11161025413706858 -0.00140865446032764 -0.029931741280446886 0.0 0.0
0.0 0.1491359558408455 0.12818778041426465 -0.12677704668120746 -0.0014107337330571015 -0.030500310621314208 0.0 0.0
0.0 0.16471455432101015 0.14173590550657814 -0.14036097950665136 -0.0013749259999265755 -0.028489128741479908 0.0 0.0
0.0 0.17660859458859968 0.15216715734774353 -0.15084262164547418 -0.001324535702269352 -0.022354733249735644 0.0 0.0
0.0 0.18328953622728542 0.15700016336258799 -0.15625004203759257 -0.000750121324995302 2.901151541223612e-14 0.0 0.0
0.0 0.17660859458857325 0.1521671573477183 -0.15084262164544698 -0.0013245357022712051 0.022354733249801886 0.0 0.0
0.0 0.16471455432096405 0.14173590550653467 -0.1403609795066089 -0.001374925999925676 0.028489128741544772 0.0 0.0
0.0 0.14913595584078143 0.12818778041420778 -0.12677704668115095 -0.0014107337330569532 0.030500310621351737 0.0 0.0
0.0 0.13163540397053558 0.11301890859732772 -0.11161025413700139 -0.0014086544603263056 0.029931741280454054 0.0 0.0
0.0 0.11370265999992793 0.0974071561405922 -0.09603274223890265 -0.0013744139016895382 0.027895966656374886 0.0 0.0
0.0 0.0958507896832146 0.08211697558289713 -0.08079589708680622 -0.00132107849609099 0.025071249725112606 0.0 0.0
0.0 0.07883251547287831 0.06758840962231356 -0.0663330804920042 -0.0012553291303092483 0.02189290074524973 0.0 0.0
0.0 0.06329017369612482 0.05407996695516806 -0.052899882685703586 -0.0011800842694644044 0.01861132547805852 0.0 0.0
0.0 0.04878093381286916 0.04175415874847073 -0.04065349838909593 -0.001100660359374779 0.015313513760528202 0.0 0.0
0.0 0.03582269456915327 0.03071649304035867 -0.029692702618523574 -0.0010237904218351112 0.011977296055135015 0.0 0.0
0.0 0.024528822240625674 0.021107300071907538 -0.020155364622853778 -0.0009519354490537448 0.008650496762866104 0.0 0.0
0.0 0.01516601892610192 0.01314034430601011 -0.01226552226971202 -0.0008748220362980858 0.005561150947020006 0.0 0.0
0.0 0.008011383436215115 0.0070418439700090825 -0.0062888441246081745 -0.0007529998454009064 0.0029751567499084483 0.0 0.0
0.0 0.003465098855214601 0.0029323783296733553 -0.002423679580470418 -0.0005086987492029366 0.0011656753353752084 0.0 0.0
0.0 0.0008583585796746721 0.0007395598902422101 -0.0005561726041389533 -0.00018338728610325738 0.00026109386647388754 0.0 0.0
0.0 9.371411668629965e-06 2.2047674456241684e-05 -1.236524316015477e-05 -9.68243129608707e-06 -1.4981190950826827e-05 0.0 0.0
0.0 -1.0737477096227727e-06 -4.612387824027563e-07 3.723198031603384e-07 8.891897924241127e-08 -7.295373076303192e-07 0.0 0.0
0.0 0.0 0.0 0.0 0.0 0.0 0.0 0.0
0.0 0.0019025761772947724 0.0009661481396385774 -0.0005273490358708387 -0.00043879910376773683 0.0029999212171108146 0.0 0.0
0.0 0.007275216054787814 0.005216070695188126 -0.0071150387524440495 0.0018989680572559123 0.0032267173919043133 0.0 0.0
0.0 0.005375711955998389 0.00373933425284635 -0.005187987781182948 0.0014486535283365933 -0.002537271861851876 0.0 0.0
0.0 0.0012174259993955646 0.0006227321864039153 -0.00033330494350731105 -0.0002894272428966035 -0.002109162316605686 0.0 0.0
0.0 0.0 0.0 0.0 0.0 0.0 0.0 0.0
0.0 -3.1118529314273405e-07 1.2016148631222402e-07 -9.158054534448882e-08 -2.8580940967735106e-08 -1.9281816702195588e-07 0.0 0.0
0.0 -2.596009766810372e-05 -1.8162190645951987e-05 1.5493377504820564e-05 2.6688131411314276e-06 3.257482688346754e-05 0.0 0.0
0.0 0.00039221883744849917 0.0003580087272813482 -0.0002621961744053895 -9.58125528759591e-05 -0.00019847676277505235 0.0 0.0
0.0 0.002180003978033836 0.0019212745692084943 -0.001541761796227782 -0.0003795127729807135 -0.0011045632954393184 0.0 0.0
0.0 0.006234622753938588 0.005141707118700944 -0.0044880217739240984 -0.0006536853447768401 -0.002903717279951858 0.0 0.0
0.0 0.011822558917648723 0.010191894987699564 -0.009391956853879373 -0.0007999381338201969 -0.00568032395724162 0.0 0.0
0.0 0.019882566973899 0.0168600397072826 -0.01598197910485438 -0.0008780606024282213 -0.009030496755962097 0.0 0.0
0.0 0.02940672162920427 0.024901641086406107 -0.023957497186946772 -0.0009441438994593444 -0.01260764121081285 0.0 0.0
0.0 0.040274058094507674 0.03410790983883265 -0.03309298982237784 -0.001014920016454754 -0.016192086228732163 0.0 0.0
0.0 0.052353660783719065 0.04436541080237622 -0.04327666822750867 -0.0010887425748676018 -0.019733407713632273 0.0 0.0
0.0 0.06564947035489048 0.05561232366567831 -0.05445392630365424 -0.001158397362024062 -0.023255353466962513 0.0 0.0
0.0 0.07982165293231777 0.06776103379866268 -0.06654037862565905 -0.0012206551730037103 -0.0266696848743169 0.0 0.0
0.0 0.09469851039959015 0.0806347544003898 -0.07936163700895447 -0.001273117391435236 -0.029718107514907686 0.0 0.0
0.0 0.1104220252934249 0.09392469479895672 -0.09261239763006332 -0.001312297168893328 -0.03203242346786865 0.0 0.0
0.0 0.12556576428018476 0.10711704621485688 -0.10578587944640354 -0.0013311667684534204 -0.03297885719203661 0.0 0.0
0.0 0.1393846481133168 0.11934276010186266 -0.11802728251525132 -0.0013154775866113019 -0.031185483728117372 0.0 0.0
0.0 0.15075262737187894 0.1293520866549064 -0.1280782875895233 -0.0012737990653829492 -0.024594902650840304 0.0 0.0
0.0 0.15792228751065437 0.1344106568401541 -0.13388243137501465 -0.0005282254651393951 2.9738364548670404e-14 0.0 0.0
0.0 0.15075262737185438 0.12935208665488143 -0.12807828758949635 -0.0012737990653849938 0.024594902650909314 0.0 0.0
0.0 0.13938464811328186 0.11934276010182769 -0.11802728251521745 -0.0013154775866103137 0.031185483728185307 0.0 0.0
0.0 0.12556576428013244 0.10711704621480915 -0.10578587944635615 -0.0013311667684528588 0.03297885719207754 0.0 0.0
0.0 0.11042202529335479 0.0939246947988964 -0.09261239763000362 -0.0013122971688927154 0.032032423467874355 0.0 0.0
0.0 0.09469851039951553 0.08063475440032558 -0.07936163700889029 -0.0012731173914353946 0.02971810751489457 0.0 0.0
0.0 0.07982165293224465 0.06776103379859934 -0.06654037862559653 -0.0012206551730027766 0.02666968487430317 0.0 0.0
0.0 0.06564947035481897 0.05561232366561624 -0.0544539263035926 -0.001158397362023652 0.023255353466949107 0.0 0.0
0.0 0.05235366078365367 0.04436541080232016 -0.04327666822745357 -0.0010887425748666135 0.019733407713616855 0.0 0.0
0.0 0.04027405809444183 0.03410790983877718 -0.03309298982232236 -0.0010149200164547912 0.016192086228707648 0.0 0.0
0.0 0.029406721629147526 0.02490164108635897 -0.023957497186900198 -0.0009441438994587687 0.012607641210785253 0.0 0.0
0.0 0.01988256697385412 0.016860039707244753 -0.015981979104817023 -0.0008780606024277259 0.009030496755938559 0.0 0.0
0.0 0.01182255891761372 0.010191894987669594 -0.009391956853849987 -0.0007999381338196194 0.005680323957224253 0.0 0.0
0.0 0.006234622753914938 0.005141707118681938 -0.0044880217739059905 -0.0006536853447759476 0.0029037172799405734 0.0 0.0
0.0 0.0021800039780204973 0.001921274569197684 -0.0015417617962185854 -0.00037951277297909776 0.0011045632954325723 0.0 0.0
0.0 0.0003922188374443332 0.00035800872727835136 -0.00026219617440314527 -9.581255287520563e-05 0.00019847676277314193 0.0 0.0
0.0 -2.5960097668470464e-05 -1.8162190645482748e-05 1.5493377504446132e-05 2.6688131410365998e-06 -3.257482688273733e-05 0.0 0.0
0.0 -3.1118529304492525e-07 1.2016148626738615e-07 -9.15805453087425e-08 -2.85809409586405e-08 1.928181669411218e-07 0.0 0.0
0.0 0.0 0.0 0.0 0.0 0.0 0.0 0.0
0.0 0.0012174259993893383 0.0006227321864009595 -0.00033330494350530034 -0.0002894272428956581 0.0021091623165974127 0.0 0.0
0.0 0.005375711955984928 0.0037393342528357137 -0.005187987781169005 0.0014486535283332886 0.0025372718618445022 0.0 0.0
0.0 0.003664340926176411 0.002556803450810724 -0.003602593484387724 0.0010457900335769947 -0.0019050244554877447 0.0 0.0
0.0 0.000787704315216872 0.00035910322687469334 -0.00017979618795295723 -0.00017930703892173595 -0.0013700877640524176 0.0 0.0
0.0 1.5734592941222573e-07 7.148379167026532e-10 -7.331624633568543e-11 -6.415216703671971e-10 3.250372699491736e-08 0.0 0.0
0.0 1.5712585741700463e-07 6.304622250958064e-09 -5.866682075806125e-09 -4.379401751547683e-10 3.806782874179354e-08 0.0 0.0
0.0 -2.070664957553178e-05 -1.3454556738496308e-05 1.080021024906291e-05 2.6543464894334574e-06 2.7896533790111473e-05 0.0 0.0
0.0 0.00012911252500660565 0.00011198057837994341 -7.868904748581227e-05 -3.3291530894131184e-05 -8.751688110441523e-05 0.0 0.0
0.0 0.0013159814397217303 0.0010848063572003912 -0.0008460109844755183 -0.00023879537272487273 -0.0008947644909097566 0.0 0.0
0.0 0.00409500114936879 0.0034400644175361494 -0.0029182470753832987 -0.0005218173421528464 -0.00259839752633997 0.0 0.0
0.0 0.009151469058745693 0.007349057512791749 -0.006646823897449209 -0.0007022336153425452 -0.0052386651339378885 0.0 0.0
0.0 0.015176098060745467 0.012698260295997356 -0.011907015278521269 -0.0007912450174760882 -0.008600619905639817 0.0 0.0
0.0 0.023063559924684108 0.019157027131889187 -0.018301971704883645 -0.0008550554270055531 -0.012204574975398357 0.0 0.0
0.0 0.03187090530107896 0.026524553041150666 -0.02560477261413218 -0.000919780427018508 -0.015812942383641067 0.0 0.0
0.0 0.041592206867842554 0.034710395420428655 -0.03372324386227956 -0.0009871515581490482 -0.019365469543185482 0.0 0.0
0.0 0.052240766977615274 0.043695335795510735 -0.04264352646901279 -0.0010518093264980204 -0.022897068451289478 0.0 0.0
0.0 0.06371339460555456 0.053450494299628434 -0.05234091393535712 -0.0011095803642712434 -0.02633473417129101 0.0 0.0
0.0 0.07620140786399965 0.06387520935243576 -0.06271697212970498 -0.0011582372227308217 -0.029435767959180202 0.0 0.0
0.0 0.08857431433100195 0.07478915160742591 -0.0735856272809127 -0.001203524326513247 -0.03185767373074239 0.0 0.0
0.0 0.10165312313788868 0.0859168377351639 -0.084673414092199 -0.0012434236429647466 -0.033134860885058376 0.0 0.0
0.0 0.11423987070656312 0.09678421829845721 -0.09553204889155983 -0.001252169406897536 -0.031964184315769466 0.0 0.0
0.0 0.12504011827490707 0.10645564737786097 -0.10523712500918883 -0.0012185223686721413 -0.02588437280555486 0.0 0.0
0.0 0.13297660155867702 0.11184608034757793 -0.1115714942139112 -0.0002745861336667663 2.933243925529183e-14 0.0 0.0
0.0 0.1250401182748949 0.10645564737784477 -0.10523712500917252 -0.0012185223686722924 0.02588437280562446 0.0 0.0
0.0 0.11423987070653209 0.0967842182984254 -0.09553204889152828 -0.0012521694068971505 0.03196418431583696 0.0 0.0
0.0 0.10165312313784078 0.08591683773512007 -0.08467341409215418 -0.0012434236429659145 0.0331348608850991 0.0 0.0
0.0 0.08857431433094837 0.07478915160738016 -0.07358562728086745 -0.0012035243265127364 0.0318576737307466 0.0 0.0
0.0 0.07620140786393444 0.06387520935238054 -0.06271697212964884 -0.0011582372227317483 0.02943576795916477 0.0 0.0
0.0 0.0637133946054963 0.05345049429957757 -0.05234091393530735 -0.001109580364270214 0.026334734171276197 0.0 0.0
0.0 0.05224076697756036 0.04369533579546324 -0.04264352646896578 -0.001051809326497429 0.022897068451276988 0.0 0.0
0.0 0.041592206867790006 0.03471039542038384 -0.033723243862236095 -0.0009871515581477616 0.01936546954316993 0.0 0.0
0.0 0.03187090530102842 0.02652455304110883 -0.025604772614090613 -0.000919780427018238 0.015812942383618477 0.0 0.0
0.0 0.023063559924638682 0.019157027131852546 -0.018301971704847264 -0.0008550554270052801 0.012204574975371106 0.0 0.0
0.0 0.015176098060711511 0.012698260295969441 -0.011907015278493947 -0.0007912450174754906 0.00860061990561766 0.0 0.0
0.0 0.009151469058716402 0.007349057512768893 -0.00664682389742688 -0.0007022336153420134 0.005238665133921724 0.0 0.0
0.0 0.004095001149351241 0.003440064417522139 -0.002918247075370265 -0.0005218173421518681 0.0025983975263295755 0.0 0.0
0.0 0.0013159814397109598 0.001084806357192461 -0.0008460109844689597 -0.00023879537272350097 0.0008947644909027198 0.0 0.0
0.0 0.00012911252500395152 0.00011198057837843282 -7.868904748473319e-05 -3.329153089369971e-05 8.75168811030338e-05 0.0 0.0
0.0 -2.070664957564417e-05 -1.3454556738107864e-05 1.0800210248757775e-05 2.654346489350096e-06 -2.789653378945385e-05 0.0 0.0
0.0 1.5712585721141057e-07 6.304622253475461e-09 -5.866682076920911e-09 -4.379401765531699e-10 -3.806782869747957e-08 0.0 0.0
0.0 1.5734592914948445e-07 7.148379181953433e-10 -7.331624793983198e-11 -6.415216702555217e-10 -3.250372694055046e-08 0.0 0.0
0.0 0.0007877043152120692 0.00035910322687268947 -0.00017979618795167102 -0.00017930703892101793 0.0013700877640460648 0.0 0.0
0.0 0.003664340926164982 0.002556803450801835 -0.003602593484375808 0.0010457900335739715 0.00190502445548186 0.0 0.0
0.0 0.0027648252185275826 0.001589119996452882 -0.0022719223838732344 0.0006828023874203514 -0.0013213471453016178 0.0 0.0
0.0 0.00035953219101235114 0.00017435763119894634 -7.472066192202119e-05 -9.963696927692514e-05 -0.0007913722841362583 0.0 0.0
0.0 1.1512180122047107e-06 8.157365324743162e-08 -8.336851558441713e-08 1.7948623369858918e-09 -1.6300663325610292e-06 0.0 0.0
0.0 -7.371851248457987e-07 1.3389784338193136e-08 -1.1118919669795397e-08 -2.270864668397892e-09 -2.3588019537290476e-07 0.0 0.0
0.0 -1.0612804514392963e-05 -6.430012140911378e-06 5.137244231130118e-06 1.2927679097812599e-06 2.1013078676357493e-05 0.0 0.0
0.0 7.961176507036216e-06 7.742003938052714e-06 -3.130113501349541e-06 -4.611890436703226e-06 -4.1502558525747214e-06 0.0 0.0
0.0 0.0006299549671791137 0.0004743881679363532 -0.00036152233451135647 -0.00011286583342499603 -0.0005976390872897249 0.0 0.0
0.0 0.0024571311787064064 0.0019655351761848857 -0.0016147106487861644 -0.0003508245273987213 -0.0020604348715080744 0.0 0.0
0.0 0.005940464574471766 0.004733697680936832 -0.004169264491034875 -0.0005644331899019575 -0.004374325089493425 0.0 0.0
0.0 0.011091314803631167 0.008680295752256057 -0.008001799758026932 -0.000678495994229116 -0.007386777914454038 0.0 0.0
0.0 0.01682674879505399 0.013536139487343897 -0.012789150726128058 -0.0007469887612158319 -0.010753308880452703 0.0 0.0
0.0 0.023496457529681863 0.019062278365489134 -0.01825363085824351 -0.0008086475072456349 -0.014146191560880615 0.0 0.0
0.0 0.030923990532751692 0.02517783570843875 -0.02430801297105912 -0.0008698227373796279 -0.01748417934683472 0.0 0.0
0.0 0.038994794852140253 0.031895281636092745 -0.030967557636347287 -0.0009277239997453945 -0.020792061449925726 0.0 0.0
0.0 0.04787302489698688 0.03924369129236625 -0.03826239264606516 -0.0009812986463010945 -0.024038466622955754 0.0 0.0
0.0 0.057295147606924696 0.047204199598830605 -0.04617671833198919 -0.001027481266841373 -0.027017142017325167 0.0 0.0
0.0 0.06744176820097138 0.055678019526997156 -0.054606386810451935 -0.0010716327165452187 -0.02937605756428078 0.0 0.0
0.0 0.07775460808912808 0.06460887634880985 -0.06347771102478089 -0.0011311653240288681 -0.030801849149924083 0.0 0.0
0.0 0.08831700224378106 0.07396416296225383 -0.07278518178590968 -0.0011789811763440884 -0.030540834898476726 0.0 0.0
0.0 0.09888812112335249 0.08326492894829342 -0.08210222913613864 -0.001162699812154688 -0.026042300347297986 0.0 0.0
0.0 0.10797865958718275 0.08907725012469221 -0.08909217362721782 1.4923502525536773e-05 2.5341707898807186e-14 0.0 0.0
0.0 0.09888812112334458 0.08326492894827967 -0.08210222913612476 -0.0011626998121548652 0.026042300347361463 0.0 0.0
0.0 0.08831700224376138 0.07396416296223032 -0.07278518178588665 -0.0011789811763436358 0.03054083489854342 0.0 0.0
0.0 0.07775460808909514 0.06460887634877885 -0.06347771102474928 -0.001131165324029533 0.030801849149963548 0.0 0.0
0.0 0.06744176820093147 0.055678019526963184 -0.05460638681041961 -0.0010716327165435405 0.02937605756428204 0.0 0.0
0.0 0.0572951476068749 0.04720419959878912 -0.04617671833194768 -0.001027481266841487 0.0270171420173091 0.0 0.0
0.0 0.0478730248969403 0.03924369129232679 -0.03826239264602583 -0.0009812986463009332 0.02403846662293987 0.0 0.0
0.0 0.038994794852100466 0.03189528163605848 -0.030967557636313463 -0.0009277239997450308 0.02079206144991606 0.0 0.0
0.0 0.030923990532711346 0.025177835708405694 -0.024308012971026426 -0.0008698227373792474 0.017484179346818694 0.0 0.0
0.0 0.023496457529642027 0.019062278365456584 -0.01825363085821134 -0.0008086475072452399 0.014146191560858773 0.0 0.0
0.0 0.016826748795017277 0.013536139487315019 -0.01278915072610013 -0.0007469887612148672 0.010753308880427376 0.0 0.0
0.0 0.011091314803603949 0.008680295752235216 -0.008001799758006238 -0.0006784959942289749 0.007386777914433831 0.0 0.0
0.0 0.005940464574451949 0.004733697680921496 -0.00416926449102037 -0.0005644331899011275 0.004374325089480222 0.0 0.0
0.0 0.0024571311786941406 0.001965535176175482 -0.0016147106487778792 -0.0003508245273976039 0.0020604348714991345 0.0 0.0
0.0 0.0006299549671737419 0.0004743881679326817 -0.0003615223345084578 -0.00011286583342422338 0.0005976390872848702 0.0 0.0
0.0 7.961176505582316e-06 7.742003937712625e-06 -3.1301135011037442e-06 -4.61189043660883e-06 4.150255852252073e-06 0.0 0.0
0.0 -1.0612804515384023e-05 -6.43001214070708e-06 5.1372442309767665e-06 1.2927679097302905e-06 -2.1013078675615153e-05 0.0 0.0
0.0 -7.37185124896692e-07 1.3389784410854708e-08 -1.111891971684212e-08 -2.270864694013077e-09 2.358801964417517e-07 0.0 0.0
0.0 1.151218011941834e-06 8.157365324750079e-08 -8.336851559269903e-08 1.7948623451986782e-09 1.6300663328111936e-06 0.0 0.0
0.0 0.00035953219100913947 0.00017435763119768438 -7.472066192123336e-05 -9.96369692764513e-05 0.0007913722841315921 0.0 0.0
0.0 0.002764825218517548 0.0015891199964466003 -0.0022719223838645265 0.0006828023874179266 0.0013213471452974284 0.0 0.0
0.0 0.0014716438882585083 0.000893204253947483 -0.0012954475375118687 0.00040224328356438583 -0.0008935635201952543 0.0 0.0
0.0 0.00014101835524432901 5.1538251344642406e-05 -1.2986451785255102e-06 -5.023960616611661e-05 -0.00035095512091488804 0.0 0.0
0.0 2.4278479190161742e-06 2.577033322631761e-08 -2.513069866165031e-08 -6.396345646664193e-10 -2.521572207364624e-07 0.0 0.0
0.0 1.2843698951021309e-06 -1.767774077755152e-07 1.348798456979007e-07 4.189756207761436e-08 1.1352507663973022e-06 0.0 0.0
0.0 -7.248539791716815e-06 -3.118184031495798e-06 2.49421091128688e-06 6.239731202089181e-07 1.4841718570315896e-05 0.0 0.0
0.0 -1.789763640716139e-05 -8.232537480131262e-06 7.388863456734867e-06 8.436740233964251e-07 1.305955503079331e-05 0.0 0.0
0.0 0.0002333755311456398 0.00011865247522453023 -8.958762115662378e-05 -2.9064854067906836e-05 -0.00028874237249212475 0.0 0.0
0.0 0.0012488251754990919 0.0008007036231717133 -0.0006431172056711259 -0.0001575864175005874 -0.0013298611456315922 0.0 0.0
0.0 0.003334821478534058 0.002414517742586428 -0.0020599012259777862 -0.00035461651660864056 -0.0031505716975951136 0.0 0.0
0.0 0.006678557413804243 0.0049376366465184495 -0.004433928974523725 -0.0005037076719947303 -0.005531392381703563 0.0 0.0
0.0 0.010639720557171996 0.008138092281788328 -0.007544206653703566 -0.0005938856280847648 -0.008309495383787495 0.0 0.0
0.0 0.015318161463817852 0.011800320502803772 -0.01114196999422186 -0.0006583505085819113 -0.011193733312185785 0.0 0.0
0.0 0.02040587659516931 0.01584712269537391 -0.015130608184064734 -0.0007165145113091625 -0.014094159357577222 0.0 0.0
0.0 0.025949157440770525 0.020300121822631717 -0.01953234157894589 -0.0007677802436858469 -0.01697377486106236 0.0 0.0
0.0 0.03208246875326816 0.025227081440819175 -0.024410898780672995 -0.0008161826601461754 -0.019808541221432743 0.0 0.0
0.0 0.03885030370692927 0.030693777648889725 -0.029831434581828107 -0.0008623430670615949 -0.022503731649320586 0.0 0.0
0.0 0.046151326681515725 0.03670722530640986 -0.035800731433828746 -0.0009064938725811175 -0.024748945412147942 0.0 0.0
0.0 0.05378538696462518 0.04330373426874457 -0.04233651987850898 -0.0009672143902356291 -0.02614014103517067 0.0 0.0
0.0 0.06242456814074168 0.05082362689432929 -0.04976195359266567 -0.0010616733016635782 -0.02651814565515958 0.0 0.0
0.0 0.07255580035096862 0.059528270953097685 -0.05842455607776953 -0.001103714875328176 -0.024572908625005826 0.0 0.0
0.0 0.08302897823509825 0.0658330193224882 -0.06617640843255893 0.00034338911007063115 2.4665165743176232e-14 0.0 0.0
0.0 0.07255580035096747 0.05952827095308885 -0.05842455607775973 -0.0011037148753290922 0.02457290862506252 0.0 0.0
0.0 0.06242456814073278 0.05082362689431518 -0.0497619535926517 -0.001061673301663478 0.02651814565522021 0.0 0.0
0.0 0.05378538696460276 0.04330373426872382 -0.0423365198784876 -0.0009672143902362037 0.02614014103520138 0.0 0.0
0.0 0.04615132668148307 0.03670722530638417 -0.0358007314338037 -0.0009064938725804898 0.02474894541214365 0.0 0.0
0.0 0.03885030370689708 0.03069377764886394 -0.029831434581802364 -0.0008623430670615463 0.02250373164930393 0.0 0.0
0.0 0.03208246875323761 0.025227081440794233 -0.02441089878064785 -0.0008161826601463884 0.01980854122142029 0.0 0.0
0.0 0.02594915744074781 0.020300121822612472 -0.019532341578927054 -0.0007677802436854319 0.016973774861055984 0.0 0.0
0.0 0.020405876595145395 0.01584712269535508 -0.015130608184046221 -0.0007165145113088424 0.014094159357565665 0.0 0.0
0.0 0.015318161463789831 0.011800320502783129 -0.0111419699942012 -0.0006583505085819208 0.011193733312166429 0.0 0.0
0.0 0.010639720557143897 0.00813809228176755 -0.0075442066536830985 -0.0005938856280844445 0.008309495383763955 0.0 0.0
0.0 0.006678557413785973 0.004937636646505315 -0.004433928974511281 -0.0005037076719940384 0.00553139238168812 0.0 0.0
0.0 0.0033348214785210196 0.002414517742576963 -0.0020599012259691235 -0.00035461651660783765 0.0031505716975849837 0.0 0.0
0.0 0.0012488251754913555 0.000800703623166474 -0.0006431172056667063 -0.00015758641749976792 0.0013298611456245475 0.0 0.0
0.0 0.00023337553114248359 0.00011865247522369627 -8.958762115596582e-05 -2.9064854067730273e-05 0.00028874237249011306 0.0 0.0
0.0 -1.789763640768578e-05 -8.232537479919036e-06 7.3888634565729594e-06 8.43674023346021e-07 -1.3059555030229208e-05 0.0 0.0
0.0 -7.248539792730138e-06 -3.118184031292989e-06 2.49421091113643e-06 6.239731201565668e-07 -1.484171856884568e-05 0.0 0.0
0.0 1.2843698946317923e-06 -1.76777407814785e-07 1.348798457296817e-07 4.18975620851042e-08 -1.1352507664605596e-06 0.0 0.0
0.0 2.4278479192097886e-06 2.5770333257616662e-08 -2.5130698696857736e-08 -6.396345607585273e-10 2.521572217991499e-07 0.0 0.0
0.0 0.00014101835524154944 5.153825134397159e-05 -1.298645178163888e-06 -5.023960616580728e-05 0.0003509551209121061 0.0 0.0
0.0 0.0014716438882513782 0.0008932042539433328 -0.001295447537505931 0.00040224328356259657 0.0008935635201921799 0.0 0.0
0.0 0.0007291797125758683 0.00039771851907630107 -0.0005827983884692091 0.0001850798693929086 -0.0004901459375922414 0.0 0.0
0.0 1.8628986605505365e-06 -8.926270034259389e-06 3.0377732741116583e-05 -2.14514627068573e-05 -6.837883816009976e-05 0.0 0.0
0.0 3.796639098746272e-06 7.077225039554808e-08 -1.5436882430262435e-07 8.35965739070767e-08 -4.5295987904237e-06 0.0 0.0
0.0 2.1389645613050905e-06 -1.731779622296393e-07 1.57170888501797e-07 1.6007073727840323e-08 -3.266733459940601e-06 0.0 0.0
0.0 -4.347803951104546e-06 -1.3368735135592076e-06 1.1337465612459966e-06 2.031269523132178e-07 9.4115672836181e-06 0.0 0.0
0.0 -1.4733521270026773e-06 -4.0797850689125644e-06 3.605765613898835e-06 4.740194550137007e-07 5.5834519597589e-06 0.0 0.0
0.0 9.375063945687457e-05 1.0245930089295836e-05 -7.5282180820452616e-06 -2.7177120072505408e-06 -0.00013908075042421653 0.0 0.0
0.0 0.0004056574598352143 0.00011995659472383266 -0.00010110323864783364 -1.8853356075998982e-05 -0.0006146974948961223 0.0 0.0
0.0 0.0012391432797048266 0.0005740381185049342 -0.000506105334291728 -6.793278421320586e-05 -0.0016875805333615918 0.0 0.0
0.0 0.0028372415856601028 0.0016187609490611872 -0.001459803210194392 -0.00015895773886679483 -0.0033240159937716132 0.0 0.0
0.0 0.005167370266313674 0.00313365895419628 -0.002877292782042468 -0.000256366172153809 -0.005271711655276954 0.0 0.0
0.0 0.007616396240289352 0.004916345273770579 -0.0045789776435937665 -0.000337367630176819 -0.0074467177739615704 0.0 0.0
0.0 0.010477487416968613 0.006892361112389994 -0.006489003656264184 -0.00040335745612580853 -0.009748602931090313 0.0 0.0
0.0 0.013662638981824099 0.009089806048892477 -0.008631199867197827 -0.00045860618169464676 -0.012124269462780588 0.0 0.0
0.0 0.017193292198679575 0.011589431874067253 -0.011077749950806093 -0.0005116819232611696 -0.01455874802854958 0.0 0.0
0.0 0.021215646031542083 0.014520678629461353 -0.013952722797472294 -0.0005679558319890543 -0.01701027237747438 0.0 0.0
0.0 0.025888256588993616 0.018038597387870177 -0.017410164657093764 -0.0006284327307764185 -0.019266872088309815 0.0 0.0
0.0 0.0312335701054971 0.022274832859898227 -0.021585144434572885 -0.00068968842532535 -0.020777648615859803 0.0 0.0
0.0 0.037389188448584514 0.02759180529265243 -0.026800748543843785 -0.0007910567488086412 -0.02110616042431947 0.0 0.0
0.0 0.0457448896127608 0.03506273276574645 -0.0340931202649892 -0.0009696125007572127 -0.020948495052954458 0.0 0.0
0.0 0.059268653209818487 0.04178459583556993 -0.0425094878816974 0.0007248920461275026 1.9321350075429677e-14 0.0 0.0
0.0 0.04574488961276884 0.03506273276574366 -0.034093120264986544 -0.0009696125007571888 0.020948495053002125 0.0 0.0
0.0 0.03738918844858138 0.027591805292645 -0.02680074854383627 -0.0007910567488087178 0.02110616042436407 0.0 0.0
0.0 0.031233570105476303 0.02227483285988195 -0.02158514443455687 -0.0006896884253250809 0.020777648615876068 0.0 0.0
0.0 0.025888256588969073 0.018038597387854228 -0.017410164657078682 -0.0006284327307755752 0.019266872088303265 0.0 0.0
0.0 0.021215646031525565 0.014520678629450992 -0.01395272279746139 -0.0005679558319895972 0.01701027237745849 0.0 0.0
0.0 0.017193292198662266 0.011589431874054576 -0.011077749950793891 -0.0005116819232606959 0.014558748028537622 0.0 0.0
0.0 0.013662638981813722 0.009089806048885514 -0.008631199867191245 -0.0004586061816942724 0.012124269462776194 0.0 0.0
0.0 0.010477487416954853 0.0068923611123818725 -0.006489003656256662 -0.00040335745612521824 0.009748602931079315 0.0 0.0
0.0 0.007616396240275527 0.004916345273762759 -0.004578977643586063 -0.0003373676301766957 0.007446717773947506 0.0 0.0
0.0 0.0051673702662988225 0.0031336589541880256 -0.002877292782034389 -0.0002563661721536344 0.005271711655260445 0.0 0.0
0.0 0.0028372415856499117 0.0016187609490553843 -0.0014598032101888615 -0.00015895773886652283 0.003324015993761347 0.0 0.0
0.0 0.0012391432797002125 0.0005740381185024297 -0.0005061053342894692 -6.793278421296003e-05 0.0016875805333559741 0.0 0.0
0.0 0.0004056574598324095 0.00011995659472279289 -0.0001011032386468731 -1.8853356075919615e-05 0.0006146974948926853 0.0 0.0
0.0 9.375063945540047e-05 1.0245930089279998e-05 -7.5282180820497745e-06 -2.717712007230249e-06 0.00013908075042334204 0.0 0.0
0.0 -1.4733521276116804e-06 -4.0797850687057164e-06 3.605765613738986e-06 4.740194549667335e-07 -5.583451958875988e-06 0.0 0.0
0.0 -4.347803951408029e-06 -1.3368735135091418e-06 1.1337465612150315e-06 2.0312695229410728e-07 -9.411567282349283e-06 0.0 0.0
0.0 2.138964561216771e-06 -1.7317796225067205e-07 1.5717088852145134e-07 1.6007073729221278e-08 3.2667334605841735e-06 0.0 0.0
0.0 3.796639098614413e-06 7.077225039956762e-08 -1.5436882431820754e-07 8.359657391863638e-08 4.5295987911220144e-06 0.0 0.0
0.0 1.8628986589122456e-06 -8.926270034510266e-06 3.0377732741233948e-05 -2.1451462706723612e-05 6.837883815839845e-05 0.0 0.0
0.0 0.0007291797125712923 0.00039771851907401557 -0.0005827983884658405 0.00018507986939182448 0.0004901459375901519 0.0 0.0
0.0 0.00019420109834569383 0.00011156995089723667 -0.00016607413156013626 5.4504180662899366e-05 -0.00017469979438159103 0.0 0.0
0.0 -2.5785219890412646e-05 -1.5096128254551806e-05 2.2026071621582904e-05 -6.929943367031056e-06 2.3753662800209832e-05 0.0 0.0
0.0 3.954514642808561e-06 1.76733405460347e-07 -1.75181727625377e-07 -1.5516778349739959e-09 2.020713542710765e-06 0.0 0.0
0.0 4.176316133542482e-06 -4.0422663950541953e-07 3.3628883576366665e-07 6.79378037417558e-08 -5.486039776915642e-06 0.0 0.0
0.0 2.3272630942949128e-07 -5.850044362676201e-07 5.745407829371249e-07 1.0463653330492366e-08 5.269209785911237e-07 0.0 0.0
0.0 7.403816662453809e-06 -1.5273891633358718e-06 1.5759529920166905e-06 -4.8563828680818834e-08 -5.005857129212536e-06 0.0 0.0
0.0 9.387637411950134e-05 -2.19844151121205e-06 2.1914760864622136e-06 6.9654247498325145e-09 -0.00013915436131440619 0.0 0.0
0.0 0.00022635019741494013 -1.5544176919521944e-06 1.5357422210094657e-06 1.8675470942767878e-08 -0.0003920432712527383 0.0 0.0
0.0 0.000493555921359734 -6.024709002139796e-07 5.613775482493611e-07 4.109335196453721e-08 -0.0008051239729053392 0.0 0.0
0.0 0.0008367892012871679 -2.7415506758521465e-08 4.127457654281262e-08 -1.3859069784470727e-08 -0.0016518736600274783 0.0 0.0
0.0 0.0016606979775456044 -3.417510768775336e-07 4.821215391097766e-07 -1.4037046223203977e-07 -0.003129163297240036 0.0 0.0
0.0 0.002759474091316095 -1.0276914445577238e-05 1.2925559224786273e-05 -2.6486447792095088e-06 -0.0051078449239136845 0.0 0.0
0.0 0.004181758266855918 -2.8523165696765578e-05 3.243421223019817e-05 -3.9110465334307786e-06 -0.007233058848526084 0.0 0.0
0.0 0.005789426182306274 -3.473517258552089e-05 3.5056746663856176e-05 -3.215740783347684e-07 -0.009468275929697208 0.0 0.0
0.0 0.007555332568899004 5.2636559883607794e-05 -6.698949149215486e-05 1.4352931608546654e-05 -0.011820723120810736 0.0 0.0
0.0 0.009433830252584909 0.0004097305705690758 -0.0004531738730250511 4.344330245597015e-05 -0.01427734749339783 0.0 0.0
0.0 0.01146099928363796 0.001319212710402475 -0.0014110816186946786 9.186890829220712e-05 -0.016754321148147157 0.0 0.0
0.0 0.013559958169987809 0.0030281491379944197 -0.00323774728578351 0.00020959814778909164 -0.019022301323508108 0.0 0.0
0.0 0.016413155818879255 0.005230794806478029 -0.005623019773165507 0.0003922249666874863 -0.020672307987619244 0.0 0.0
0.0 0.023603010269282302 0.01018681416613624 -0.00990964852669572 -0.0002771656394405323 -0.02147533807725698 0.0 0.0
0.0 0.04222872633070872 0.017661088779091692 -0.018999730556470522 0.0013386417773788262 1.0677222994637248e-14 0.0 0.0
0.0 0.02360301026929085 0.010186814166134074 -0.009909648526693706 -0.00027716563944034996 0.021475338077289734 0.0 0.0
0.0 0.01641315581887282 0.005230794806476397 -0.0056230197731641915 0.00039222496668778916 0.02067230798762856 0.0 0.0
0.0 0.013559958169974072 0.0030281491379895577 -0.0032377472857773476 0.00020959814778779396 0.01902230132350586 0.0 0.0
0.0 0.011460999283614123 0.0013192127104020234 -0.0014110816186949063 9.186890829288263e-05 0.016754321148127783 0.0 0.0
0.0 0.009433830252579965 0.0004097305705716126 -0.00045317387302780637 4.344330245619499e-05 0.014277347493385495 0.0 0.0
0.0 0.007555332568883848 5.2636559884623475e-05 -6.698949149267408e-05 1.435293160805356e-05 0.01182072312079616 0.0 0.0
0.0 0.0057894261822969036 -3.473517258176402e-05 3.505674665994795e-05 -3.2157407818541955e-07 0.009468275929687164 0.0 0.0
0.0 0.004181758266845785 -2.8523165695054707e-05 3.2434212228874795e-05 -3.911046533819357e-06 0.007233058848511014 0.0 0.0
0.0 0.0027594740913043075 -1.0276914442531714e-05 1.2925559221301376e-05 -2.6486447787703256e-06 0.005107844923898547 0.0 0.0
0.0 0.0016606979775360066 -3.4175107533064813e-07 4.821215373873046e-07 -1.4037046205656842e-07 0.0031291632972261724 0.0 0.0
0.0 0.0008367892012862324 -2.7415507757708635e-08 4.127457758204751e-08 -1.385906982423723e-08 0.0016518736600270837 0.0 0.0
0.0 0.0004935559213580365 -6.024709004538763e-07 5.613775484413394e-07 4.1093352012418286e-08 0.0008051239729023617 0.0 0.0
0.0 0.00022635019741357594 -1.5544176919643045e-06 1.5357422210532556e-06 1.8675470911025953e-08 0.00039204327125033763 0.0 0.0
0.0 9.387637411804769e-05 -2.19844151120036e-06 2.1914760864613195e-06 6.965424739076943e-09 0.00013915436131357558 0.0 0.0
0.0 7.403816661742583e-06 -1.5273891633388974e-06 1.5759529920240587e-06 -4.856382868517244e-08 5.005857129846713e-06 0.0 0.0
0.0 2.3272630854073614e-07 -5.850044362993351e-07 5.745407829622231e-07 1.0463653337116577e-08 -5.269209778298968e-07 0.0 0.0
0.0 4.176316133466531e-06 -4.0422663955240254e-07 3.362888358052233e-07 6.793780374717926e-08 5.486039777539064e-06 0.0 0.0
0.0 3.954514642042818e-06 1.7673340544810005e-07 -1.751817276211144e-07 -1.551677826976907e-09 -2.020713542015472e-06 0.0 0.0
0.0 -2.5785219890331046e-05 -1.5096128254250305e-05 2.2026071621194038e-05 -6.92994336694376e-06 -2.3753662798904344e-05 0.0 0.0
0.0 0.00019420109834351467 0.00011156995089653672 -0.00016607413155914254 5.450418066260601e-05 0.00017469979438052442 0.0 0.0
0.0 8.660773800019693e-06 3.2163326070904557e-06 -5.459849905203638e-06 2.243517298113151e-06 -4.797175574644832e-06 0.0 0.0
0.0 -2.0629705619783296e-06 -6.900486848299248e-07 1.0421909205022883e-06 -3.5214223567236383e-07 3.4403288726030464e-06 0.0 0.0
0.0 1.2414286377862347e-06 1.7923333823705827e-07 -2.531340385187527e-07 7.390070028169442e-08 -2.260459252423268e-06 0.0 0.0
0.0 6.38251299573097e-06 -5.012826265880729e-07 3.9482145115344744e-07 1.0646117543462572e-07 -6.534669244301567e-06 0.0 0.0
0.0 4.349505332045963e-06 -8.24641589847234e-07 7.75598071795871e-07 4.904351805136011e-08 -7.3631991231805505e-06 0.0 0.0
0.0 1.2494489393943858e-05 -2.2436734914112843e-06 2.2312577699719683e-06 1.2415721439364768e-08 -2.6384959717100807e-05 0.0 0.0
0.0 0.00012764819458528865 -1.7850462258671957e-05 1.4537243782837114e-05 3.3132184758347536e-06 -0.00016131278431041104 0.0 0.0
0.0 0.00042417834521969917 -0.00012759217238109073 0.00010781132918129052 1.9780843199799995e-05 -0.0006340655361715166 0.0 0.0
0.0 0.0012446730131856374 -0.0005765908283173 0.0005082408022954294 6.835002602187032e-05 -0.0016967767891140362 0.0 0.0
0.0 0.0028361073527730964 -0.001618312559187918 0.001459333035517261 0.00015897952367065698 -0.003324514367111917 0.0 0.0
0.0 0.005184609823487251 -0.0031388270572910303 0.002881744100202985 0.00025708295708804375 -0.005270963834176776 0.0 0.0
0.0 0.007663738741625773 -0.004948763000693958 0.00460773794041801 0.00034102506027594863 -0.007454884059514344 0.0 0.0
0.0 0.010555634480215093 -0.0069645904100846135 0.006557315400668742 0.0004072750094158611 -0.009753219367348995 0.0 0.0
0.0 0.013719769475869241 -0.00915550585265517 0.008702497761434877 0.0004530080912202964 -0.012110276241779487 0.0 0.0
0.0 0.016956082180039894 -0.011416594680192724 0.010941110554588731 0.0004754841256039968 -0.014542315394449286 0.0 0.0
0.0 0.020070969508102804 -0.013501461259352556 0.013032803999116833 0.00046865726023570813 -0.01709842545307011 0.0 0.0
0.0 0.02262723063974645 -0.015011970328758138 0.014587197749641219 0.0004247725791169299 -0.019802288068262893 0.0 0.0
0.0 0.02439785083938743 -0.015464394847478451 0.015129550133876332 0.00033484471360212053 -0.02274917948200843 0.0 0.0
0.0 0.02443258364263916 -0.014298529408713376 0.014171788687803338 0.0001267407209100417 -0.025889574234176697 0.0 0.0
0.0 0.019930761556888214 -0.01040826539527763 0.010879541174024704 -0.0004712757787470786 -0.027974877521016104 0.0 0.0
0.0 0.04085579863652945 -0.006030993009000093 0.003271414170282221 0.002759578838717862 1.5786850993126933e-14 0.0 0.0
0.0 0.019930761556897585 -0.010408265395278062 0.010879541174025287 -0.0004712757787472214 0.027974877521039714 0.0 0.0
0.0 0.024432583642634415 -0.01429852940870735 0.014171788687797266 0.00012674072091007667 0.025889574234194614 0.0 0.0
0.0 0.02439785083937285 -0.015464394847468732 0.015129550133866273 0.0003348447136024647 0.022749179482010627 0.0 0.0
0.0 0.02262723063971776 -0.015011970328737802 0.01458719774962115 0.0004247725791166797 0.019802288068245837 0.0 0.0
0.0 0.020070969508080683 -0.01350146125933652 0.013032803999100919 0.0004686572602356035 0.017098425453053085 0.0 0.0
0.0 0.016956082180018088 -0.011416594680175597 0.010941110554572468 0.00047548412560312206 0.014542315394433215 0.0 0.0
0.0 0.013719769475844853 -0.009155505852635975 0.008702497761415883 0.00045300809122009265 0.01211027624176518 0.0 0.0
0.0 0.010555634480190978 -0.006964590410067878 0.006557315400651758 0.00040727500941611846 0.009753219367330736 0.0 0.0
0.0 0.007663738741603381 -0.004948763000677953 0.004607737940403324 0.00034102506027462124 0.00745488405949628 0.0 0.0
0.0 0.0051846098234654995 -0.0031388270572771707 0.002881744100189824 0.00025708295708734823 0.005270963834157212 0.0 0.0
0.0 0.0028361073527611385 -0.0016183125591800176 0.001459333035509983 0.0001589795236700375 0.003324514367102091 0.0 0.0
0.0 0.001244673013178611 -0.0005765908283131227 0.0005082408022918155 6.835002602130746e-05 0.0016967767891065961 0.0 0.0
0.0 0.00042417834521685 -0.00012759217238037765 0.00010781132918073992 1.9780843199637717e-05 0.0006340655361680628 0.0 0.0
0.0 0.00012764819458363632 -1.7850462258598932e-05 1.453724378277483e-05 3.313218475824115e-06 0.00016131278430981327 0.0 0.0
0.0 1.249448939309614e-05 -2.2436734915473983e-06 2.231257770058081e-06 1.241572148932166e-08 2.6384959717866027e-05 0.0 0.0
0.0 4.349505331406842e-06 -8.24641589922841e-07 7.755980718619943e-07 4.904351806083467e-08 7.363199123754263e-06 0.0 0.0
0.0 6.382512995222168e-06 -5.01282626695105e-07 3.9482145124279475e-07 1.0646117545230857e-07 6.534669245223881e-06 0.0 0.0
0.0 1.2414286373463572e-06 1.7923333822220116e-07 -2.531340385158717e-07 7.390070029366598e-08 2.2604592529789585e-06 0.0 0.0
0.0 -2.0629705621165087e-06 -6.90048684897241e-07 1.0421909205788679e-06 -3.5214223568162995e-07 -3.4403288727407287e-06 0.0 0.0
0.0 8.660773798443834e-06 3.2163326074044936e-06 -5.459849905667911e-06 2.243517298263437e-06 4.797175575354762e-06 0.0 0.0
0.0 2.034611343575935e-06 -1.1794173393863115e-07 1.8495244463876623e-07 -6.701071070005743e-08 2.736999519842078e-07 0.0 0.0
0.0 5.078532177722741e-07 5.2221334673532385e-08 -2.692430125178564e-08 -2.5297033421761738e-08 6.82705858190026e-07 0.0 0.0
0.0 -1.164084703698201e-06 5.485850480856666e-07 -4.748188846533422e-07 -7.376616343233396e-08 3.0678276171320382e-06 0.0 0.0
0.0 3.6933731482685125e-06 -7.419544176207295e-07 5.74439104469768e-07 1.6751531315095061e-07 -7.407373884064095e-06 0.0 0.0
0.0 7.609523519068988e-06 1.437090870836119e-06 -1.1126456972325728e-06 -3.2444517360347957e-07 1.9575097569840335e-06 0.0 0.0
0.0 4.168414665272292e-05 -6.178466492988958e-06 4.98786970333661e-06 1.1905967896522816e-06 -3.3496540893534924e-05 0.0 0.0
0.0 0.0002600081894847255 -0.00014479813118369609 0.00011194867683277546 3.284945435092101e-05 -0.0003626141869867228 0.0 0.0
0.0 0.0012722303646313918 -0.000811150769816378 0.0006524882794934847 0.00015866249032289284 -0.0013578189335888833 0.0 0.0
0.0 0.0033362488525133724 -0.002414496044495065 0.0020596749819691194 0.0003548210625259444 -0.003156692012395705 0.0 0.0
0.0 0.006676811827178638 -0.004937100097004836 0.004433320111167537 0.0005037799858372961 -0.00552969404706458 0.0 0.0
0.0 0.010649768382941984 -0.00814677360821893 0.007552586719164211 0.0005941868890547177 -0.008312064117586676 0.0 0.0
0.0 0.01535290366173766 -0.011830648992404907 0.011171412726651755 0.0006592362657531635 -0.011192785922708183 0.0 0.0
0.0 0.02046505307744606 -0.01590801042670941 0.015191296900927586 0.0007167135257818131 -0.014049331408005261 0.0 0.0
0.0 0.025969482273158533 -0.020346558921900335 0.0195850671801264 0.0007614917417739062 -0.01685472654498782 0.0 0.0
0.0 0.0318241891481766 -0.02503792279265932 0.024247835275416418 0.0007900875172428873 -0.0197096264851525 0.0 0.0
0.0 0.03773348185189854 -0.029700138118987994 0.0289029921888435 0.0007971459301444923 -0.022819675075357808 0.0 0.0
0.0 0.0431431608750109 -0.03386087609826285 0.033075748873556646 0.0007851272247062018 -0.02640027148763143 0.0 0.0
0.0 0.04721128636453761 -0.036890853638807 0.036132759824816583 0.0007580938139904504 -0.030549045847099682 0.0 0.0
0.0 0.04917271812113454 -0.03768612713070016 0.03702910848766057 0.0006570186430395344 -0.034487984375561 0.0 0.0
0.0 0.04593208750873204 -0.03385479379286125 0.033422453879934616 0.00043233991292660113 -0.035518483758438996 0.0 0.0
0.0 0.05012116954777217 -0.02768853723300765 0.024154074346921097 0.0035344628860865426 2.097627627151155e-14 0.0 0.0
0.0 0.045932087508742336 -0.03385479379285875 0.03342245387993236 0.0004323399129263965 0.03551848375848769 0.0 0.0
0.0 0.04917271812112811 -0.03768612713068705 0.03702910848764747 0.000657018643039588 0.03448798437560672 0.0 0.0
0.0 0.0472112863645123 -0.03689085363878444 0.036132759824793526 0.0007580938139908784 0.030549045847115014 0.0 0.0
0.0 0.043143160874971484 -0.033860876098231026 0.033075748873524616 0.0007851272247064187 0.02640027148762133 0.0 0.0
0.0 0.03773348185185919 -0.029700138118955915 0.028902992188811847 0.0007971459301440705 0.022819675075338254 0.0 0.0
0.0 0.03182418914813892 -0.025037922792628845 0.024247835275386674 0.0007900875172421849 0.019709626485132685 0.0 0.0
0.0 0.025969482273119158 -0.020346558921867163 0.019585067180093615 0.0007614917417735073 0.016854726544968727 0.0 0.0
0.0 0.02046505307740613 -0.015908010426677124 0.015191296900895452 0.000716713525781685 0.014049331407986664 0.0 0.0
0.0 0.015352903661704689 -0.011830648992379508 0.011171412726626959 0.0006592362657525551 0.01119278592268641 0.0 0.0
0.0 0.010649768382909153 -0.008146773608194106 0.007552586719139678 0.0005941868890544272 0.00831206411756081 0.0 0.0
0.0 0.0066768118271525925 -0.004937100096985504 0.004433320111148538 0.0005037799858369646 0.00552969404704496 0.0 0.0
0.0 0.0033362488525004283 -0.0024144960444852145 0.002059674981960452 0.00035482106252476305 0.0031566920123868632 0.0 0.0
0.0 0.00127223036462331 -0.0008111507698111653 0.000652488279489139 0.00015866249032202545 0.0013578189335810406 0.0 0.0
0.0 0.0002600081894802589 -0.0001447981311817549 0.00011194867683121119 3.28494543505438e-05 0.00036261418698303293 0.0 0.0
0.0 4.1684146651206386e-05 -6.178466492917023e-06 4.987869703283733e-06 1.1905967896331908e-06 3.349654089299731e-05 0.0 0.0
0.0 7.609523518815783e-06 1.437090870377996e-06 -1.112645696851565e-06 -3.244451735264303e-07 -1.957509755226414e-06 0.0 0.0
0.0 3.6933731479301758e-06 -7.419544177299781e-07 5.744391045596287e-07 1.6751531317035487e-07 7.407373884780299e-06 0.0 0.0
0.0 -1.1640847040202631e-06 5.485850480276195e-07 -4.7481888462342667e-07 -7.376616340418792e-08 -3.0678276161610336e-06 0.0 0.0
0.0 5.078532173521482e-07 5.222133469564516e-08 -2.692430126563043e-08 -2.5297033430012037e-08 -6.82705858503356e-07 0.0 0.0
0.0 2.034611343773175e-06 -1.1794173394994551e-07 1.849524446547311e-07 -6.701071070482646e-08 -2.7369995201493404e-07 0.0 0.0
0.0 0.0 0.0 0.0 0.0 0.0 0.0 0.0
0.0 1.4706690513174692e-07 -2.422169290272382e-09 5.697848266755254e-09 -3.275678976487091e-09 -8.066800424055217e-09 0.0 0.0
0.0 -5.626776537111669e-07 6.177711736320008e-07 -4.937736719298782e-07 -1.2399750170211555e-07 3.3751399656586767e-06 0.0 0.0
0.0 1.8237879426327e-06 1.1551517246941975e-06 -9.822042709353892e-07 -1.7294745375880866e-07 1.3849875939276113e-06 0.0 0.0
0.0 7.570891799741593e-06 2.407623323374573e-07 -1.584539952053491e-07 -8.230833713215207e-08 -6.588656549758826e-06 0.0 0.0
0.0 7.142577019219022e-05 -5.388355511331123e-05 4.096433941759964e-05 1.2919215695711759e-05 -0.00011108190132072532 0.0 0.0
0.0 0.0007193666192557705 -0.0005011150939757455 0.0003863747930513919 0.00011474030092435309 -0.0006551956501166594 0.0 0.0
0.0 0.00247467450024639 -0.001969062059152821 0.0016181487663453683 0.0003509132928074508 -0.0020808467411119686 0.0 0.0
0.0 0.0059366311719754525 -0.0047300289165461 0.004165411713209463 0.000564617203336629 -0.004372847949346978 0.0 0.0
0.0 0.011092668685151002 -0.008681391450478077 0.008002887270626678 0.0006785041798514156 -0.007384678993625595 0.0 0.0
0.0 0.016834594202407044 -0.013546220979600494 0.012799476393953152 0.0007467445856473398 -0.010756758056073129 0.0 0.0
0.0 0.023519067757694908 -0.01908276669279475 0.01827424313801971 0.0008085235547750328 -0.014130124277246258 0.0 0.0
0.0 0.0309403825200688 -0.025206095945823688 0.024336718478996905 0.0008693774668267931 -0.017379412354822512 0.0 0.0
0.0 0.038946197843737616 -0.031893222719012966 0.030970401699604036 0.0009228210194088828 -0.020538374278815236 0.0 0.0
0.0 0.047581553731735844 -0.03904358058322667 0.03808293175424499 0.000960648828981715 -0.023804376241264597 0.0 0.0
0.0 0.056348203719078574 -0.046358053204368366 0.04538300120443523 0.000975051999933066 -0.027557002740494933 0.0 0.0
0.0 0.06500078879216727 -0.05324913413317157 0.052285351338886135 0.000963782794285391 -0.03223486709609286 0.0 0.0
0.0 0.07199069852900816 -0.0587228059308906 0.05781329697104659 0.0009095089598440071 -0.03772368561094916 0.0 0.0
0.0 0.07549103785664556 -0.06104167632640852 0.06025106699649285 0.0007906093299155947 -0.04254147703181062 0.0 0.0
0.0 0.07137583450648644 -0.05686680081896022 0.05638835997052352 0.00047844084843671125 -0.043875668743141555 0.0 0.0
0.0 0.06930220116080865 -0.04881577971704646 0.04456938259931821 0.004246397117728287 2.4110921592601642e-14 0.0 0.0
0.0 0.07137583450649264 -0.05686680081895398 0.056388359970518206 0.00047844084843581553 0.04387566874319985 0.0 0.0
0.0 0.07549103785663648 -0.06104167632639201 0.06025106699647627 0.0007906093299156426 0.04254147703186907 0.0 0.0
0.0 0.07199069852897427 -0.05872280593085798 0.05781329697101549 0.0009095089598424924 0.037723685610974146 0.0 0.0
0.0 0.06500078879211894 -0.053249134133130524 0.05228535133884548 0.0009637827942851251 0.03223486709608846 0.0 0.0
0.0 0.056348203719025956 -0.04635805320432422 0.045383001204391434 0.0009750519999327453 0.027557002740475168 0.0 0.0
0.0 0.047581553731682616 -0.03904358058318243 0.03808293175420131 0.0009606488289811302 0.023804376241242122 0.0 0.0
0.0 0.03894619784368644 -0.03189322271896973 0.030970401699561154 0.0009228210194085695 0.02053837427879525 0.0 0.0
0.0 0.030940382520015467 -0.02520609594577941 0.024336718478952607 0.0008693774668267979 0.01737941235480195 0.0 0.0
0.0 0.023519067757646617 -0.019082766692755854 0.018274243137981303 0.0008085235547745486 0.014130124277220164 0.0 0.0
0.0 0.016834594202362052 -0.013546220979565203 0.012799476393917708 0.0007467445856474965 0.010756758056042983 0.0 0.0
0.0 0.011092668685114293 -0.008681391450449 0.008002887270598105 0.0006785041798508867 0.007384678993601616 0.0 0.0
0.0 0.005936631171952712 -0.004730028916528428 0.004165411713192733 0.0005646172033356942 0.004372847949332955 0.0 0.0
0.0 0.0024746745002322125 -0.0019690620591419202 0.0016181487663358847 0.0003509132928060365 0.002080846741101652 0.0 0.0
0.0 0.0007193666192484759 -0.0005011150939708715 0.00038637479304759996 0.00011474030092327141 0.0006551956501108222 0.0 0.0
0.0 7.142577019021255e-05 -5.388355511277366e-05 4.096433941718706e-05 1.291921569558653e-05 0.00011108190131995812 0.0 0.0
0.0 7.570891799606992e-06 2.4076233194479424e-07 -1.5845399489157187e-07 -8.230833705321405e-08 6.5886565508565115e-06 0.0 0.0
0.0 1.8237879419398193e-06 1.155151724555208e-06 -9.822042708204458e-07 -1.7294745373476037e-07 -1.3849875931319415e-06 0.0 0.0
0.0 -5.626776542979774e-07 6.177711736738828e-07 -4.937736719631191e-07 -1.2399750171077072e-07 -3.3751399659681067e-06 0.0 0.0
0.0 1.4706690487851115e-07 -2.422169296243891e-09 5.697848267077609e-09 -3.275678970830829e-09 8.066800524781565e-09 0.0 0.0
0.0 0.0 0.0 0.0 0.0 0.0 0.0 0.0
0.0 0.0 0.0 0.0 0.0 0.0 0.0 0.0
0.0 -1.2025212151614905e-07 -2.8111852206668733e-09 1.9303984439410896e-09 8.807867767261456e-10 -2.3879236813071873e-08 0.0 0.0
0.0 -5.084581700327342e-07 4.310525896988803e-07 -3.4457556878114077e-07 -8.647702091774197e-08 1.778416901399733e-06 0.0 0.0
0.0 -2.7095029977492784e-06 8.668410199162417e-07 -7.364087216141429e-07 -1.3043229830208804e-07 7.495896154310455e-07 0.0 0.0
0.0 9.350322073179087e-06 8.228319605692314e-07 -1.1503979206780009e-06 3.275659601087764e-07 3.329482603329017e-07 0.0 0.0
0.0 0.00024754101980516727 -0.00016711961309685862 0.00012526671361805225 4.185289947880621e-05 -0.00018331478615322695 0.0 0.0
0.0 0.0013401272618092427 -0.001111041345776452 0.000871587866058532 0.0002394534797179201 -0.0009629469725589278 0.0 0.0
0.0 0.004098198735856439 -0.0034348913963590027 0.0029130103932283246 0.0005218810031306787 -0.002607391459085216 0.0 0.0
0.0 0.009145782603479232 -0.007344788235536637 0.006642183824682187 0.000702604410854446 -0.005232491842899312 0.0 0.0
0.0 0.015179681029804482 -0.012702268277299197 0.011911183647922777 0.0007910846293764366 -0.008599723279058903 0.0 0.0
0.0 0.023076241824713118 -0.01916645661008088 0.018312204125619732 0.0008542524844611335 -0.0122064343882427 0.0 0.0
0.0 0.03187245055728442 -0.02652760549735819 0.025609202815508908 0.0009184026818492587 -0.015781184567876128 0.0 0.0
0.0 0.0415489679116032 -0.03468779580280132 0.03370200906497735 0.0009857867378239614 -0.019212008237228264 0.0 0.0
0.0 0.052105133026827226 -0.04362047091624179 0.042571016322736625 0.0010494545935051636 -0.022539003814020672 0.0 0.0
0.0 0.06340836013506945 -0.05324625938872746 0.05214774963219181 0.0010985097565356676 -0.025982295472240395 0.0 0.0
0.0 0.07549918670647188 -0.06325363422331962 0.06213459393485096 0.001119040288468659 -0.030060261275980816 0.0 0.0
0.0 0.0867183412470861 -0.07288780604271833 0.0717910768254148 0.0010967292173034375 -0.035309446549869526 0.0 0.0
0.0 0.09659404899725592 -0.08069445602188074 0.07968114999255463 0.0010133060293260384 -0.041517026241701616 0.0 0.0
0.0 0.1015925987268779 -0.08418563371935509 0.0833534208651079 0.0008322128542471487 -0.04704842762484414 0.0 0.0
0.0 0.09645550287954487 -0.07921478606794358 0.0787353966428494 0.000479389425094171 -0.0488714047509853 0.0 0.0
0.0 0.09041667438233161 -0.06947836078244955 0.0646147291361218 0.004863631646327572 2.7151891845988985e-14 0.0 0.0
0.0 0.09645550287953912 -0.07921478606792892 0.07873539664283498 0.0004793894250939428 0.04887140475104364 0.0 0.0
0.0 0.10159259872685797 -0.0841856337193298 0.08335342086508282 0.0008322128542468647 0.047048427624906235 0.0 0.0
0.0 0.09659404899720868 -0.08069445602183686 0.07968114999251134 0.0010133060293253638 0.04151702624173155 0.0 0.0
0.0 0.08671834124702862 -0.07288780604266856 0.07179107682536508 0.0010967292173035379 0.03530944654986873 0.0 0.0
0.0 0.07549918670640506 -0.06325363422326295 0.06213459393479403 0.0011190402884688738 0.030060261275963226 0.0 0.0
0.0 0.06340836013500507 -0.05324625938867239 0.052147749632137794 0.0010985097565346274 0.025982295472219447 0.0 0.0
0.0 0.052105133026761535 -0.04362047091618576 0.042571016322680705 0.0010494545935050646 0.022539003813999526 0.0 0.0
0.0 0.04154896791153456 -0.034687795802743664 0.03370200906491942 0.0009857867378242186 0.019212008237205255 0.0 0.0
0.0 0.031872450557221564 -0.026527605497305595 0.025609202815456884 0.0009184026818487224 0.015781184567848282 0.0 0.0
0.0 0.023076241824658967 -0.019166456610036225 0.01831220412557565 0.0008542524844605674 0.012206434388211592 0.0 0.0
0.0 0.01517968102976014 -0.012702268277262644 0.011911183647886327 0.0007910846293763308 0.008599723279032606 0.0 0.0
0.0 0.009145782603444516 -0.00734478823550911 0.00664218382465569 0.0007026044108534204 0.0052324918428806235 0.0 0.0
0.0 0.0040981987358382444 -0.003434891396344471 0.0029130103932152505 0.000521881003129221 0.002607391459075073 0.0 0.0
0.0 0.0013401272618004927 -0.0011110413457700889 0.0008715878660533829 0.00023945347971670447 0.0009629469725537312 0.0 0.0
0.0 0.0002475410198020805 -0.00016711961309525433 0.00012526671361686638 4.185289947838806e-05 0.00018331478615152004 0.0 0.0
0.0 9.350322072509772e-06 8.228319601917923e-07 -1.1503979203750684e-06 3.2756596018326884e-07 -3.3294825951370395e-07 0.0 0.0
0.0 -2.709502997717539e-06 8.668410195908845e-07 -7.36408721359624e-07 -1.3043229823124207e-07 -7.495896143726716e-07 0.0 0.0
0.0 -5.084581702556607e-07 4.310525897305867e-07 -3.445755688079788e-07 -8.6477020922608e-08 -1.7784169015305912e-06 0.0 0.0
0.0 -1.2025212151506954e-07 -2.8111852205958148e-09 1.930398443898689e-09 8.807867766964716e-10 2.387923681280424e-08 0.0 0.0
0.0 0.0 0.0 0.0 0.0 0.0 0.0 0.0
0.0 0.0 0.0 0.0 0.0 0.0 0.0 0.0
0.0 0.0 0.0 0.0 0.0 0.0 0.0 0.0
0.0 -4.4954593814620946e-07 1.1994772514123164e-07 -9.430285239450017e-08 -2.5644872746732806e-08 3.9127273799434914e-07 0.0 0.0
0.0 -4.343205610642724e-06 3.3703680509662027e-06 -2.7288522055758113e-06 -6.415158453903658e-07 6.680700288246233e-06 0.0 0.0
0.0 1.1678717215459558e-05 -1.7794202180953504e-05 1.2207470861899413e-05 5.586731319054043e-06 -1.7512508458950024e-05 0.0 0.0
0.0 0.0005179198169873959 -0.00040012301083898396 0.0003009251529979417 9.919785784104244e-05 -0.00027695858504718 0.0 0.0
0.0 0.002219728132441619 -0.0019289622098238313 0.0015518021145286887 0.0003771600952951419 -0.0011450537181272426 0.0 0.0
0.0 0.006229320579692799 -0.005132831919390064 0.004478410554740167 0.0006544213646498959 -0.0029033982774197636 0.0 0.0
0.0 0.011819947536782935 -0.010189574720734434 0.009389396726003453 0.0008001779947309783 -0.005673068473209177 0.0 0.0
0.0 0.019889938713952175 -0.016866736028132056 0.015989035866599978 0.0008777001615320919 -0.009031024023916465 0.0 0.0
0.0 0.029414404702750762 -0.024907696380531696 0.023964923553946502 0.0009427728265851651 -0.01260573657667996 0.0 0.0
0.0 0.04024879109338553 -0.03408810185620103 0.03307589450362463 0.0010122073525764155 -0.01614524256437968 0.0 0.0
0.0 0.0522432768724586 -0.04428285060844953 0.04319682735726483 0.001086023251184575 -0.0195547341289444 0.0 0.0
0.0 0.06542137961619508 -0.05545107008808404 0.05429249909829813 0.0011585709897860314 -0.02286692302914031 0.0 0.0
0.0 0.07949800841950344 -0.06753584223782633 0.06631584353192807 0.001219998705898216 -0.026259121973766255 0.0 0.0
0.0 0.0942059242625291 -0.08021368777714305 0.07896720222748024 0.0012464855496627575 -0.03019760761006831 0.0 0.0
0.0 0.1090525623370393 -0.09253231302647427 0.09132280043254543 0.0012095125939289054 -0.03531434888918604 0.0 0.0
0.0 0.121083783889878 -0.10255998172006703 0.10147561686917803 0.0010843648508887702 -0.04164050974371002 0.0 0.0
0.0 0.1267991211714677 -0.10706223577226016 0.10621294222571173 0.0008492935465483837 -0.04780682932986848 0.0 0.0
0.0 0.1211465673775121 -0.10134442610095136 0.1008624824267883 0.00048194367416312537 -0.05178662504669897 0.0 0.0
0.0 0.11304676074718067 -0.09019348516258338 0.0847904696170275 0.005403015545555912 2.768098250616191e-14 0.0 0.0
0.0 0.12114656737749172 -0.10134442610092603 0.10086248242676206 0.0004819436741640285 0.05178662504675607 0.0 0.0
0.0 0.12679912117143494 -0.10706223577222537 0.106212942225677 0.0008492935465483971 0.04780682932992911 0.0 0.0
0.0 0.12108378388982029 -0.10255998172001432 0.10147561686912542 0.0010843648508888685 0.04164050974374218 0.0 0.0
0.0 0.10905256233696917 -0.09253231302641349 0.09132280043248443 0.0012095125939289588 0.03531434888918666 0.0 0.0
0.0 0.09420592426244606 -0.0802136877770719 0.07896720222740898 0.001246485549662889 0.030197607610053093 0.0 0.0
0.0 0.07949800841942306 -0.0675358422377573 0.06631584353185976 0.0012199987058975194 0.026259121973748162 0.0 0.0
0.0 0.06542137961611699 -0.05545107008801628 0.0542924990982315 0.0011585709897847926 0.022866923029119707 0.0 0.0
0.0 0.05224327687237601 -0.04428285060837896 0.0431968273571941 0.001086023251184815 0.019554734128922727 0.0 0.0
0.0 0.04024879109331015 -0.0340881018561374 0.03307589450356126 0.0010122073525761033 0.01614524256435241 0.0 0.0
0.0 0.029414404702684548 -0.02490769638047638 0.023964923553891522 0.0009427728265848512 0.012605736576648872 0.0 0.0
0.0 0.019889938713897305 -0.016866736028086162 0.015989035866554306 0.0008777001615318452 0.009031024023889996 0.0 0.0
0.0 0.011819947536746887 -0.01018957472070282 0.009389396725972846 0.0008001779947299769 0.005673068473192201 0.0 0.0
0.0 0.00622932057966949 -0.005132831919371445 0.004478410554722572 0.0006544213646488756 0.0029033982774091696 0.0 0.0
0.0 0.0022197281324293086 -0.0019289622098138794 0.001551802114520246 0.0003771600952936316 0.0011450537181211101 0.0 0.0
0.0 0.0005179198169826414 -0.0004001230108359666 0.0003009251529956096 9.919785784035701e-05 0.0002769585850452178 0.0 0.0
0.0 1.167871721455105e-05 -1.7794202180980212e-05 1.2207470861938892e-05 5.586731319041321e-06 1.751250845914986e-05 0.0 0.0
0.0 -4.34320561122854e-06 3.370368050887257e-06 -2.728852205511689e-06 -6.415158453755629e-07 -6.680700287945989e-06 0.0 0.0
0.0 -4.495459379715922e-07 1.1994772517178836e-07 -9.430285241877944e-08 -2.5644872753007543e-08 -3.912727380921158e-07 0.0 0.0
0.0 0.0 0.0 0.0 0.0 0.0 0.0 0.0
0.0 0.0 0.0 0.0 0.0 0.0 0.0 0.0
0.0 0.0 0.0 0.0 0.0 0.0 0.0 0.0
0.0 0.0 0.0 0.0 0.0 0.0 0.0 0.0
0.0 -1.9259891853480113e-07 -1.2438204119640457e-08 9.900711751953166e-09 2.537492367688598e-09 -3.208399983975565e-08 0.0 0.0
0.0 -5.835475001758818e-06 3.289919771740613e-06 -2.7003181425722793e-06 -5.896016291683622e-07 5.64563695512284e-06 0.0 0.0
0.0 7.187469180610815e-05 -5.128264707122146e-05 3.534207335813364e-05 1.5940573713087854e-05 -2.22185937664129e-05 0.0 0.0
0.0 0.0008325063444095727 -0.0007819078375856771 0.0005951627019251872 0.00018674513566048931 -0.000355151732832789 0.0 0.0
0.0 0.003490316661500229 -0.0029270644405779934 0.0024210005112655715 0.0005060639293124221 -0.0011910523002017991 0.0 0.0
0.0 0.008003389266643495 -0.00703451957669267 0.006280909522327604 0.0007536100543650709 -0.0029684189663942363 0.0 0.0
0.0 0.015167903992944778 -0.013141910639576725 0.012266931253734025 0.0008749793858426839 -0.0055550728596559275 0.0 0.0
0.0 0.024538651507051625 -0.02111539959601929 0.02016404494101817 0.0009513546550011403 -0.008652416727981421 0.0 0.0
0.0 0.035822494563032235 -0.030715686443027152 0.029693802420008377 0.001021884023018776 -0.01197063883796254 0.0 0.0
0.0 0.0487265034180648 -0.04170884603196891 0.04061195941290835 0.001096886619060526 -0.015255212632354175 0.0 0.0
0.0 0.06311879033647887 -0.053940806870288946 0.052764763500633485 0.0011760433696554207 -0.018436321721150624 0.0 0.0
0.0 0.07851852376980074 -0.06733998384641283 0.06608412103917649 0.001255862807236338 -0.0215570808530384 0.0 0.0
0.0 0.09546649149342906 -0.08182331025391484 0.0804966644419596 0.0013266458119553554 -0.024684264963492457 0.0 0.0
0.0 0.11327283190030592 -0.09706147095316482 0.09569980603248895 0.0013616649206757616 -0.0280589022578421 0.0 0.0
0.0 0.13053671571590456 -0.1119707184973482 0.11065536792501095 0.001315350572337189 -0.03232254736164393 0.0 0.0
0.0 0.14500103255059932 -0.12417257990685118 0.12302227437350605 0.0011503055333450993 -0.038124350276965875 0.0 0.0
0.0 0.15214241877905355 -0.12979788495244104 0.12893283098550937 0.0008650539669315372 -0.04525566651928962 0.0 0.0
0.0 0.14603477240833884 -0.1236670230425955 0.12319239395064627 0.00047462909194912904 -0.053128918008241356 0.0 0.0
0.0 0.13633521165215234 -0.11138923938833617 0.10551765749012183 0.005871581898214421 2.4980018054066022e-14 0.0 0.0
0.0 0.14603477240832122 -0.12366702304257313 0.12319239395062359 0.00047462909194945875 0.0531289180082998 0.0 0.0
0.0 0.15214241877900583 -0.12979788495239516 0.12893283098546307 0.0008650539669320422 0.045255666519345684 0.0 0.0
0.0 0.14500103255053703 -0.12417257990679509 0.12302227437345109 0.0011503055333440925 0.038124350276996836 0.0 0.0
0.0 0.13053671571582048 -0.11197071849727497 0.1106553679249383 0.001315350572336579 0.032322547361645415 0.0 0.0
0.0 0.11327283190021636 -0.09706147095308695 0.09569980603241193 0.001361664920674952 0.02805890225783213 0.0 0.0
0.0 0.09546649149332917 -0.08182331025382898 0.08049666444187396 0.0013266458119550462 0.024684264963476706 0.0 0.0
0.0 0.07851852376970897 -0.0673399838463335 0.06608412103909818 0.0012558628072352118 0.02155708085302039 0.0 0.0
0.0 0.06311879033638529 -0.05394080687020795 0.05276476350055285 0.0011760433696550894 0.018436321721130477 0.0 0.0
0.0 0.04872650341797759 -0.041708846031894495 0.04061195941283416 0.0010968866190603172 0.015255212632328624 0.0 0.0
0.0 0.03582249456295516 -0.03071568644296145 0.02969380241994309 0.001021884023018401 0.011970638837933605 0.0 0.0
0.0 0.024538651506988887 -0.02111539959596556 0.020164044940964722 0.000951354655000813 0.008652416727957801 0.0 0.0
0.0 0.015167903992902002 -0.013141910639539671 0.012266931253697554 0.0008749793858421241 0.00555507285964062 0.0 0.0
0.0 0.008003389266613127 -0.007034519576666741 0.006280909522302476 0.0007536100543642602 0.002968418966381897 0.0 0.0
0.0 0.0034903166614800394 -0.0029270644405616822 0.002421000511250913 0.0005060639293107712 0.0011910523001938168 0.0 0.0
0.0 0.0008325063444017259 -0.0007819078375794668 0.0005951627019203183 0.00018674513565914786 0.00035515173283009587 0.0 0.0
0.0 7.18746918050501e-05 -5.12826470712076e-05 3.534207335818969e-05 1.5940573713017875e-05 2.2218593766834508e-05 0.0 0.0
0.0 -5.8354750018207475e-06 3.289919771570943e-06 -2.7003181424450525e-06 -5.896016291258922e-07 -5.645636954908922e-06 0.0 0.0
0.0 -1.9259891850927365e-07 -1.243820411784055e-08 9.900711750511593e-09 2.5374923673294314e-09 3.208399983580417e-08 0.0 0.0
0.0 0.0 0.0 0.0 0.0 0.0 0.0 0.0
0.0 0.0 0.0 0.0 0.0 0.0 0.0 0.0
0.0 0.0 0.0 0.0 0.0 0.0 0.0 0.0
0.0 0.0 0.0 0.0 0.0 0.0 0.0 0.0
0.0 -7.18462332870173e-08 -5.322214849680892e-09 4.219826328331633e-09 1.102388521349622e-09 -1.0684932772376604e-08 0.0 0.0
0.0 -6.903216748431048e-06 4.893869612687669e-06 -4.068954181550507e-06 -8.24915431137153e-07 6.395600788484445e-06 0.0 0.0
0.0 0.0001732865339748212 -0.00014171051878868258 0.0001000156843173715 4.1694834471311194e-05 -3.358687882392344e-05 0.0 0.0
0.0 0.001440212648223074 -0.0012691857882428177 0.0009834549964267908 0.00028573079181602707 -0.00031505248459165475 0.0 0.0
0.0 0.004653041673332329 -0.004108471925374817 0.003490104656316648 0.0006183672690581684 -0.0011116818276823161 0.0 0.0
0.0 0.010186361340566347 -0.009037180102800144 0.008211208758203203 0.0008259713445969366 -0.002678695273364724 0.0 0.0
0.0 0.018463753314656647 -0.016155700689109216 0.015218298714868765 0.0009374019742404428 -0.00484872074458333 0.0 0.0
0.0 0.02927277197669914 -0.025399061297977258 0.024381403432562523 0.0010176578654147144 -0.007483987917582288 0.0 0.0
0.0 0.04223911939280177 -0.03654293189465697 0.03544856564117204 0.0010943662534849093 -0.010316786234549482 0.0 0.0
0.0 0.057207099842774826 -0.04934474525183292 0.04816935530653203 0.0011753899453009063 -0.013125721390017683 0.0 0.0
0.0 0.07365567532559097 -0.06362239674641088 0.0623625650224717 0.001259831723939174 -0.01586493712789511 0.0 0.0
0.0 0.09201002188735924 -0.079238228853244 0.07789617561941171 0.0013420532338321589 -0.01859256909108681 0.0 0.0
0.0 0.11138809509891034 -0.09604559071211136 0.09462893418454034 0.0014166565275710004 -0.02129333062086858 0.0 0.0
0.0 0.1316052395456947 -0.1136640832516523 0.11220116121947046 0.001462922032181853 -0.023874827661919697 0.0 0.0
0.0 0.15175231222390273 -0.13097573344036473 0.12954970386947384 0.0014260295708908666 -0.026655034396680485 0.0 0.0
0.0 0.16864511822548853 -0.14540245946734287 0.1441671984843551 0.0012352609829877547 -0.031087361843519113 0.0 0.0
0.0 0.17743379248372515 -0.1525476983333582 0.15165687680047024 0.0008908215328878656 -0.039346801889659576 0.0 0.0
0.0 0.1717141762058193 -0.14657112442187933 0.1461258433834539 0.0004452810384255669 -0.05264579343942318 0.0 0.0
0.0 0.16132433643527117 -0.13349517894924498 0.12723308825948357 0.0062620906897612235 2.2388341180956672e-14 0.0 0.0
0.0 0.17171417620580204 -0.14657112442185863 0.14612584338343376 0.0004452810384249202 0.052645793439475265 0.0 0.0
0.0 0.177433792483659 -0.15254769833329926 0.15165687680040932 0.000890821532889818 0.039346801889704984 0.0 0.0
0.0 0.16864511822540856 -0.1454024594672732 0.14416719848428527 0.0012352609829878636 0.031087361843542275 0.0 0.0
0.0 0.1517523122238056 -0.13097573344028035 0.1295497038693901 0.0014260295708900686 0.02665503439668216 0.0 0.0
0.0 0.1316052395455878 -0.11366408325155986 0.11220116121937791 0.0014629220321820172 0.023874827661913105 0.0 0.0
0.0 0.11138809509879778 -0.09604559071201445 0.09462893418444339 0.0014166565275709616 0.021293330620856126 0.0 0.0
0.0 0.09201002188725255 -0.07923822885315138 0.07789617561931991 0.0013420532338314676 0.01859256909107207 0.0 0.0
0.0 0.07365567532548459 -0.06362239674631923 0.06236256502238036 0.0012598317239389761 0.015864937127879425 0.0 0.0
0.0 0.057207099842675385 -0.049344745251747126 0.048169355306446164 0.0011753899453009738 0.013125721389996584 0.0 0.0
0.0 0.04223911939271446 -0.03654293189458179 0.03544856564109734 0.0010943662534844425 0.010316786234525019 0.0 0.0
0.0 0.02927277197663077 -0.025399061297918153 0.024381403432504074 0.0010176578654140754 0.007483987917562777 0.0 0.0
0.0 0.01846375331460519 -0.016155700689064554 0.01521829871482441 0.000937401974240135 0.004848720744569233 0.0 0.0
0.0 0.010186361340528992 -0.009037180102767188 0.008211208758171147 0.0008259713445960413 0.00267869527335331 0.0 0.0
0.0 0.00465304167330893 -0.004108471925354802 0.0034901046562983077 0.0006183672690564921 0.0011116818276755004 0.0 0.0
0.0 0.0014402126482129921 -0.0012691857882345889 0.0009834549964201423 0.0002857307918144478 0.00031505248458939614 0.0 0.0
0.0 0.00017328653397259596 -0.0001417105187873736 0.00010001568431644018 4.169483447093354e-05 3.3586878823886114e-05 0.0 0.0
0.0 -6.903216748663915e-06 4.893869612138625e-06 -4.068954181134814e-06 -8.249154310038001e-07 -6.395600787997439e-06 0.0 0.0
0.0 -7.184623319621463e-08 -5.322214842869262e-09 4.219826322927047e-09 1.1023885199412321e-09 1.0684932758656047e-08 0.0 0.0
0.0 0.0 0.0 0.0 0.0 0.0 0.0 0.0
0.0 0.0 0.0 0.0 0.0 0.0 0.0 0.0
0.0 0.0 0.0 0.0 0.0 0.0 0.0 0.0
0.0 0.0 0.0 0.0 0.0 0.0 0.0 0.0
0.0 0.0 0.0 0.0 0.0 0.0 0.0 0.0
0.0 -8.363184790985498e-06 7.489733842465965e-06 -6.46059853132544e-06 -1.0291353111405506e-06 7.662944034151024e-06 0.0 0.0
0.0 0.0003171967256078938 -0.0003113290066187907 0.00022281324378068643 8.851576283810437e-05 -1.3465130744953398e-05 0.0 0.0
0.0 0.0022015708955670336 -0.001902567317142858 0.0015100237881281698 0.0003925435290146874 -0.00018920600346139984 0.0 0.0
0.0 0.005883038614100563 -0.005409592924104348 0.004704601731936175 0.0007049911921681651 -0.000845823339203075 0.0 0.0
0.0 0.01247419660044594 -0.011095772677532159 0.010211232681431386 0.0008845399961007912 -0.001976740563269222 0.0 0.0
0.0 0.021804765827835748 -0.01919139119134058 0.018198650157151674 0.000992741034188885 -0.0035762688963589416 0.0 0.0
0.0 0.03400223549548531 -0.02967540128277729 0.028596791410848917 0.0010786098719283868 -0.005532328694490237 0.0 0.0
0.0 0.04873604808271767 -0.042345405972485324 0.04118339802008077 0.0011620079524044841 -0.007650479147688712 0.0 0.0
0.0 0.06559821129825437 -0.056951543039862926 0.055702808998075296 0.0012487340417875557 -0.009759855221210293 0.0 0.0
0.0 0.08468346075550022 -0.07327333023716198 0.07193599908848945 0.0013373311486725875 -0.011840007881538505 0.0 0.0
0.0 0.1050596056251437 -0.09111105144493423 0.08968926026377508 0.0014217911811591627 -0.013962805967309887 0.0 0.0
0.0 0.12712527895658493 -0.11017225779047006 0.10867899309476436 0.0014932646957055702 -0.01605490895219085 0.0 0.0
0.0 0.14999234891297009 -0.12994297934840116 0.12840434877404747 0.001538630574353676 -0.017801657427537795 0.0 0.0
0.0 0.17243079404731887 -0.14935064633584452 0.14782090174061008 0.0015297445952346098 -0.019023829610802477 0.0 0.0
0.0 0.1917448121496649 -0.16602437985932889 0.16464092353257084 0.001383456326758075 -0.02115252436755008 0.0 0.0
0.0 0.20289709512675666 -0.1753560891269609 0.17439486384298097 0.0009612252839797477 -0.029082749335060328 0.0 0.0
0.0 0.19852852115149566 -0.1704920645405062 0.17012929823050738 0.00036276630999870524 -0.04925028257184257 0.0 0.0
0.0 0.18818895194291846 -0.15710514247313623 0.15056064405841119 0.006544498414724938 1.6590895324242183e-14 0.0 0.0
0.0 0.1985285211514702 -0.17049206454048044 0.1701292982304828 0.0003627663099974979 0.04925028257188361 0.0 0.0
0.0 0.2028970951266844 -0.17535608912689762 0.17439486384291547 0.0009612252839824675 0.02908274933509807 0.0 0.0
0.0 0.19174481214957223 -0.16602437985924876 0.16464092353249132 0.001383456326757418 0.021152524367568048 0.0 0.0
0.0 0.17243079404721096 -0.14935064633575101 0.14782090174051707 0.0015297445952342952 0.019023829610803563 0.0 0.0
0.0 0.14999234891284677 -0.12994297934829452 0.12840434877394105 0.0015386305743534203 0.017801657427533386 0.0 0.0
0.0 0.127125278956462 -0.1101722577903637 0.10867899309465831 0.0014932646957054579 0.016054908952184723 0.0 0.0
0.0 0.10505960562502294 -0.0911110514448294 0.0896892602636715 0.0014217911811578918 0.013962805967299948 0.0 0.0
0.0 0.08468346075537964 -0.07327333023705772 0.07193599908838516 0.001337331148672425 0.011840007881527732 0.0 0.0
0.0 0.06559821129814256 -0.05695154303976654 0.0557028089979792 0.0012487340417872627 0.009759855221194798 0.0 0.0
0.0 0.04873604808261582 -0.04234540597239688 0.041183398019992434 0.0011620079524043904 0.007650479147669557 0.0 0.0
0.0 0.03400223549541395 -0.02967540128271452 0.028596791410787303 0.0010786098719272007 0.005532328694475806 0.0 0.0
0.0 0.021804765827777694 -0.019191391191289563 0.01819865015710128 0.0009927410341883023 0.00357626889634861 0.0 0.0
0.0 0.012474196600404875 -0.011095772677495768 0.010211232681395892 0.0008845399960998716 0.0019767405632610652 0.0 0.0
0.0 0.005883038614075665 -0.005409592924081954 0.004704601731915184 0.0007049911921667787 0.0008458233391979202 0.0 0.0
0.0 0.002201570895554942 -0.0019025673171324687 0.0015100237881194285 0.00039254352901303723 0.00018920600345956258 0.0 0.0
0.0 0.00031719672560427204 -0.00031132900661627974 0.0002228132437788993 8.851576283738025e-05 1.3465130745023973e-05 0.0 0.0
0.0 -8.36318479093159e-06 7.489733842087435e-06 -6.460598531037584e-06 -1.0291353110498918e-06 -7.662944033966043e-06 0.0 0.0
0.0 0.0 0.0 0.0 0.0 0.0 0.0 0.0
0.0 0.0 0.0 0.0 0.0 0.0 0.0 0.0
0.0 0.0 0.0 0.0 0.0 0.0 0.0 0.0
0.0 0.0 0.0 0.0 0.0 0.0 0.0 0.0
0.0 0.0 0.0 0.0 0.0 0.0 0.0 0.0
0.0 0.0 0.0 0.0 0.0 0.0 0.0 0.0
0.0 2.06748450801605e-06 -4.281196114114821e-06 1.0595880388810413e-06 3.2216080752337772e-06 9.12418210454644e-06 0.0 0.0
0.0 0.000643623001958665 -0.0005574662173952707 0.00040595115321414546 0.00015151506418112538 7.275584419183717e-05 0.0 0.0
0.0 0.0029677026827930626 -0.0026681380039844963 0.0021737059299944232 0.0004944320739900703 3.819468150089441e-05 0.0 0.0
0.0 0.007445264117378956 -0.00676739482989619 0.00599777974890424 0.0007696150809919549 -0.0003078071039727943 0.0 0.0
0.0 0.014790956356047002 -0.013178134518674374 0.012245044684118554 0.0009330898345558045 -0.0009017516171194604 0.0 0.0
0.0 0.025224952381596246 -0.02220850810858544 0.02116585990273885 0.0010426482058465965 -0.0017446412510995779 0.0 0.0
0.0 0.03872154171876842 -0.03390199718160056 0.03276609766253275 0.0011358995190677752 -0.0028014892354722163 0.0 0.0
0.0 0.05513625540130099 -0.04808151665387269 0.04685603480478728 0.0012254818490854472 -0.003965868952523329 0.0 0.0
0.0 0.07425921265811797 -0.06448542819202747 0.06316834521368818 0.0013170829783393124 -0.005152876709747482 0.0 0.0
0.0 0.09520137232146139 -0.08285632728041838 0.0814461336961682 0.0014101935842501493 -0.006373606315815226 0.0 0.0
0.0 0.1183621090676471 -0.10289506371846745 0.10139901909372423 0.0014960446247431233 -0.00764140807889337 0.0 0.0
0.0 0.14294084852158456 -0.12416680970518505 0.12260544509672092 0.001561364608464246 -0.008878517048462157 0.0 0.0
0.0 0.16812763507173759 -0.14594814198165754 0.14435395600031836 0.0015941859813389206 -0.009828739245322364 0.0 0.0
0.0 0.19257097053212896 -0.16707065960394038 0.16547969796050271 0.001590961643437889 -0.010088018040828498 0.0 0.0
0.0 0.214004330314819 -0.18560269349339073 0.18405860862022178 0.0015440848731688795 -0.010078976395363348 0.0 0.0
0.0 0.2281408998249557 -0.19778374587257722 0.19650831554838932 0.0012754303241876955 -0.014478462111479027 0.0 0.0
0.0 0.22699893975319912 -0.19597770287258154 0.19570242872071875 0.00027527415186248883 -0.037197593101046464 0.0 0.0
0.0 0.21826928212560087 -0.18346117839526474 0.17706952386123254 0.006391654534032098 9.088216290642492e-15 0.0 0.0
0.0 0.22699893975316843 -0.195977702872552 0.1957024287206915 0.0002752741518604496 0.03719759310107106 0.0 0.0
0.0 0.22814089982488048 -0.1977837458725118 0.1965083155483236 0.001275430324188188 0.014478462111501597 0.0 0.0
0.0 0.21400433031471827 -0.18560269349330347 0.1840586086201353 0.001544084873168159 0.010078976395371482 0.0 0.0
0.0 0.19257097053200783 -0.16707065960383566 0.16547969796039821 0.001590961643437383 0.010088018040828392 0.0 0.0
0.0 0.16812763507160605 -0.1459481419815429 0.1443539560002046 0.0015941859813381077 0.00982873924532015 0.0 0.0
0.0 0.1429408485214448 -0.12416680970506422 0.12260544509660021 0.0015613646084641157 0.008878517048459232 0.0 0.0
0.0 0.11836210906750783 -0.10289506371834702 0.10139901909360413 0.0014960446247427284 0.007641408078888815 0.0 0.0
0.0 0.09520137232132786 -0.08285632728030283 0.08144613369605286 0.0014101935842499864 0.006373606315808657 0.0 0.0
0.0 0.07425921265799564 -0.0644854281919216 0.0631683452135827 0.0013170829783388832 0.005152876709739057 0.0 0.0
0.0 0.05513625540119046 -0.048081516653777086 0.0468560348046919 0.0012254818490852013 0.003965868952512724 0.0 0.0
0.0 0.03872154171868601 -0.03390199718152831 0.032766097662461434 0.001135899519066903 0.0028014892354634455 0.0 0.0
0.0 0.025224952381530517 -0.022208508108527526 0.02116585990268153 0.0010426482058459915 0.0017446412510941564 0.0 0.0
0.0 0.014790956356002525 -0.013178134518634801 0.01224504468407978 0.0009330898345550134 0.0009017516171153078 0.0 0.0
0.0 0.007445264117350597 -0.006767394829870499 0.0059977797488797654 0.0007696150809907257 0.000307807103970095 0.0 0.0
0.0 0.0029677026827795274 -0.002668138003972626 0.0021737059299840613 0.0004944320739885642 -3.8194681501298205e-05 0.0 0.0
0.0 0.0006436230019538496 -0.0005574662173916749 0.00040595115321142563 0.00015151506418024883 -7.275584419147535e-05 0.0 0.0
0.0 2.067484507577158e-06 -4.281196114160983e-06 1.0595880389422945e-06 3.221608075218789e-06 -9.124182104431037e-06 0.0 0.0
0.0 0.0 0.0 0.0 0.0 0.0 0.0 0.0
0.0 0.0 0.0 0.0 0.0 0.0 0.0 0.0
0.0 0.0 0.0 0.0 0.0 0.0 0.0 0.0
0.0 0.0 0.0 0.0 0.0 0.0 0.0 0.0
0.0 0.0 0.0 0.0 0.0 0.0 0.0 0.0
0.0 0.0 0.0 0.0 0.0 0.0 0.0 0.0
0.0 5.098742666280473e-05 -4.9664677367503306e-05 3.2446448151670444e-05 1.721822921583291e-05 1.9522999335992244e-05 0.0 0.0
0.0 0.001028581510009498 -0.0008481198131098188 0.0006133861885754194 0.00023473362453439912 0.00020010425293091137 0.0 0.0
0.0 0.0037261831526008305 -0.0033542011523096512 0.00270302812012486 0.0006511730321847888 0.0004332162085402619 0.0 0.0
0.0 0.008669954511042625 -0.007919397315930153 0.006923100080877176 0.0009962972350529902 0.0005655957701945186 0.0 0.0
0.0 0.016603836068551807 -0.014901301819280944 0.013635051591628101 0.0012662502276528462 0.0006201030831769062 0.0 0.0
0.0 0.027755792132571927 -0.024678610682581696 0.023154669590190836 0.0015239410923908406 0.0005834496778127545 0.0 0.0
0.0 0.042310484145019076 -0.03735363523298646 0.035540056055245274 0.0018135791777411042 0.0004083711736562047 0.0 0.0
0.0 0.06008642372684761 -0.05277964333848693 0.05062606648979295 0.0021535768486939553 0.00013135074295267824 0.0 0.0
0.0 0.08043822720827752 -0.07068523188450915 0.06813902862858501 0.002546203255924109 -0.00023421049721066966 0.0 0.0
0.0 0.10335661162611129 -0.09074945595819796 0.08777260890519202 0.0029768470530058787 -0.0007120442430497273 0.0 0.0
0.0 0.12836017112244674 -0.11260215329605835 0.10917982201479091 0.0034223312812675173 -0.0012713078289093068 0.0 0.0
0.0 0.15483246979534399 -0.13569835766828878 0.13185137918553583 0.003846978482752856 -0.0019111195235362415 0.0 0.0
0.0 0.18178189692265115 -0.15913035970559447 0.1549272694373715 0.004203090268223099 -0.0024989036712063355 0.0 0.0
0.0 0.2075814546447006 -0.18151113184210382 0.1770734342473376 0.004437697594765998 -0.002723413874216738 0.0 0.0
0.0 0.230045925945762 -0.20099013587933517 0.19645360355687136 0.004536532322463505 -0.0024388955839289538 0.0 0.0
0.0 0.2461183060892858 -0.21515856317921597 0.21048437469522696 0.004674188483989007 -0.004975952018222549 0.0 0.0
0.0 0.2494373228806746 -0.2185677468332549 0.21367824463510612 0.004889502198148872 -0.028636985999778746 0.0 0.0
0.0 0.24551078819237634 -0.20951670183917642 0.197447083270195 0.012069618568980929 3.552713678800501e-15 0.0 0.0
0.0 0.24943732288063974 -0.21856774683322291 0.21367824463507706 0.004889502198145752 0.028636985999787777 0.0 0.0
0.0 0.24611830608920462 -0.21515856317914467 0.21048437469515813 0.0046741884839862045 0.0049759520182300065 0.0 0.0
0.0 0.23004592594564727 -0.20099013587923567 0.19645360355677333 0.004536532322462634 0.0024388955839289087 0.0 0.0
0.0 0.20758145464456787 -0.18151113184198725 0.1770734342472242 0.004437697594762776 0.002723413874215118 0.0 0.0
0.0 0.1817818969225063 -0.15913035970546835 0.1549272694372471 0.0042030902682207785 0.0024989036712046372 0.0 0.0
0.0 0.15483246979519055 -0.13569835766815505 0.13185137918540388 0.0038469784827510354 0.0019111195235338302 0.0 0.0
0.0 0.12836017112229456 -0.11260215329592595 0.10917982201465988 0.0034223312812659843 0.001271307828906389 0.0 0.0
0.0 0.10335661162596797 -0.09074945595807299 0.08777260890506926 0.0029768470530036977 0.0007120442430454035 0.0 0.0
0.0 0.08043822720814532 -0.07068523188439413 0.06813902862847185 0.002546203255922137 0.0002342104972071872 0.0 0.0
0.0 0.060086423726734686 -0.05277964333838818 0.050626066489696114 0.002153576848692065 -0.0001313507429558285 0.0 0.0
0.0 0.04231048414492561 -0.0373536352329049 0.03554005605516561 0.0018135791777392353 -0.00040837117365900583 0.0 0.0
0.0 0.027755792132499194 -0.02467861068251767 0.023154669590128504 0.0015239410923891632 -0.0005834496778137476 0.0 0.0
0.0 0.016603836068503443 -0.014901301819237739 0.013635051591586298 0.0012662502276514342 -0.0006201030831765018 0.0 0.0
0.0 0.00866995451101218 -0.007919397315902311 0.006923100080851126 0.0009962972350511844 -0.000565595770193489 0.0 0.0
0.0 0.003726183152586406 -0.003354201152296196 0.0027030281201130095 0.0006511730321831864 -0.0004332162085392742 0.0 0.0
0.0 0.0010285815100018558 -0.0008481198131034778 0.0006133861885706585 0.00023473362453282193 -0.0002001042529296902 0.0 0.0
0.0 5.098742666198293e-05 -4.966467736689808e-05 3.244644815128035e-05 1.7218229215617715e-05 -1.9522999335742898e-05 0.0 0.0
0.0 0.0 0.0 0.0 0.0 0.0 0.0 0.0
0.0 0.0 0.0 0.0 0.0 0.0 0.0 0.0
0.0 0.0 0.0 0.0 0.0 0.0 0.0 0.0
SCALARS Wm float 4
LOOKUP_TABLE default
14.234561238412766 2.083452964922372 6.123872788856223 6.027235484634157
7.447988523949614 3.512528172579378 1.7946157175540924 2.140844633816145
0.8599286968278205 0.7623381679995416 0.021031131149093142 0.07655939767918571
0.6147680722326818 0.5561392039834552 0.016483006709258133 0.042145861539968354
1.3669336645591352 0.8786841928113424 0.17935195400538442 0.3088975177424075
3.1426938763468355 1.335875994785838 0.7079970620849263 1.09882081947607
6.69752767280879 1.9825789299104215 2.121421087289511 2.5935276556088556
12.574333609858733 2.8441859147886333 4.762247300873199 4.967900394196899
21.367424756421695 3.9881127904051294 9.061594919241378 8.31771704677518
33.4619347243969 5.4343887823648975 15.355262272603728 12.6722836694283
48.9683020393114 7.1730237702439865 23.813920617940873 17.981357651126572
67.67206228047215 9.175608670732199 34.34305595997546 24.15339764976447
89.52614907411075 11.396819316894797 47.04461452650325 31.084715230712703
114.23049192906781 13.782258754658727 61.78069467351904 38.66753850089006
141.2274375129493 16.14094555818338 78.33656448818586 46.74992746657998
169.56060947423524 18.17273245678865 96.28477616747786 55.103100849968705
197.76521422669248 19.55351781534423 114.79667843626204 63.41501797508623
224.05032266221224 20.078622111499413 132.74881150163833 71.22288904907427
246.61689362888598 19.888160464115206 148.7297412816662 77.9989918831048
262.45217060632206 18.53304468864281 160.81489950340745 83.10422641427155
267.3914085372377 15.892663472469126 166.12962631135815 85.36911875341039
262.45217060629346 18.533044688654506 160.81489950337846 83.10422641426057
246.61689362879292 19.888160464100018 148.7297412816115 77.99899188308136
224.0503226621089 20.07862211151276 132.748811501557 71.22288904903913
197.7652142265369 19.553517815311373 114.79667843617686 63.41501797504863
169.56060947408 18.172732456763963 96.28477616738844 55.10310084992768
141.2274375128067 16.14094555817242 78.33656448809694 46.749927466537365
114.23049192893266 13.78225875465285 61.78069467343303 38.667538500846824
89.52614907398434 11.396819316887592 47.04461452642535 31.08471523067144
67.67206228035359 9.175608670717486 34.343055959909 24.15339764972714
48.96830203920955 7.173023770226975 23.81392061788796 17.981357651094598
33.461934724324834 5.434388782360237 15.355262272563133 12.672283669401468
21.367424756372337 3.988112790404966 9.061594919213094 8.31771704675428
12.574333609823519 2.844185914783011 4.762247300857193 4.96790039418332
6.697527672787513 1.9825789299062018 2.121421087281039 2.59352765560027
3.1426938763355894 1.3358759947810983 0.7079970620823195 1.098820819472169
1.3669336645550403 0.8786841928096732 0.1793519540043903 0.30889751774097735
0.6147680722316986 0.5561392039826101 0.016483006709197365 0.04214586153989124
0.8599286968264315 0.7623381679984469 0.021031131148993666 0.07655939767899012
7.447988523943857 3.512528172580218 1.7946157175508453 2.140844633812791
14.234561238382234 2.083452964906617 6.1238727888479945 6.027235484627635
17.190137082751434 7.393431070562346 4.803690990926968 4.993015021262131
3.14524169318947 0.6924330793472495 1.0552986574259178 1.3975099564162998
0.3008564885232805 0.35656007208964263 -0.02013005231312527 -0.03557353125323688
0.46966973349319296 0.44691636405314866 0.004863606708622879 0.017889762731421455
1.0215599627531438 0.7107237982226897 0.10099518522115089 0.20984097930930315
2.5009308181645364 1.0713758741135189 0.5605741075193247 0.8689808365316929
5.494638919524659 1.5117727535210967 1.7511838249581058 2.231682341045458
10.634135753502523 2.0813379026852674 4.124116323898847 4.428681526918405
18.360259812633082 2.778102959900675 8.033678817821505 7.548478034910907
28.9232153502815 3.5843342408045826 13.738897069227901 11.599984040249009
42.38800439272193 4.4738227262828865 21.389117733975883 16.525063932463162
58.73795928339621 5.447796564402804 31.05710072006304 22.233061998930356
77.59788338560912 6.502719147962857 42.454962734517025 28.640201503129234
99.06220011049231 7.588911098523245 55.82320053801695 35.650088473952124
122.59588024834835 8.626310590053423 70.83003032632747 43.13953933196756
147.46473362258723 9.46342065880907 87.10008301583679 50.90122994794133
172.52418666202797 9.928065761944218 103.97869908392755 58.617421816156124
196.2389365328511 9.906922893970117 120.43383809210512 65.89817554677586
216.56438987067386 9.275502640038635 135.0690124043959 72.21987482623923
230.93487648896183 8.14665333067948 145.9618591326271 76.8263640256553
236.52629339491804 6.8589596363206855 150.8158158007007 78.85151795789676
230.934876488937 8.146653330694013 145.96185913259936 76.82636402564358
216.5643898706125 9.275502640050211 135.06901240434502 72.21987482621736
196.2389365327607 9.906922893985769 120.43383809203127 65.89817554674383
172.5241866619421 9.928065761978631 103.97869908384467 58.61742181611869
147.4647336224668 9.463420658807635 87.10008301575539 50.90122994790378
122.59588024822649 8.626310590052931 70.83003032624595 43.13953933192764
99.06220011036909 7.588911098515975 55.82320053794016 35.65008847391297
77.59788338549201 6.502719147951714 42.45496273444825 28.640201503092044
58.73795928330024 5.447796564403663 31.0571007200017 22.233061998894897
42.38800439263764 4.47382272627737 21.38911773392728 16.525063932433007
28.923215350215514 3.584334240799508 13.738897069191589 11.599984040224406
18.360259812586012 2.778102959896878 8.033678817796964 7.548478034892162
10.634135753472476 2.081337902682777 4.124116323884156 4.428681526905541
5.494638919507127 1.5117727535190473 1.7511838249505678 2.23168234103751
2.500930818155923 1.0713758741109107 0.5605741075166409 0.8689808365283733
1.0215599627500827 0.7107237982219778 0.10099518522026024 0.2098409793078444
0.4696697334925718 0.4469163640525119 0.0048636067086034905 0.017889762731456413
0.30085648852320424 0.35656007208927437 -0.020130052313029313 -0.03557353125304061
3.1452416931808305 0.69243307934526 1.0552986574226726 1.3975099564128997
17.1901370827242 7.393431070551188 4.803690990918218 4.993015021254779
13.125215143461126 5.9368777896123355 3.391178821600386 3.7971585322484005
1.9798853261699239 0.3102354268433356 0.7073286284769588 0.9623212708496309
0.18502023453310226 0.18440143667718767 0.00014555157253056642 0.00047324628338402645
0.3436661259008137 0.3438053864495005 -0.0005198808310141918 0.0003806202823274631
0.7647167449045221 0.6113278104797806 0.04315183877999124 0.11023709564475045
1.9472980686085866 0.9574945243369685 0.3740051077218032 0.6157984365498155
4.46624497900112 1.37529495585163 1.3104348663923733 1.780515156757116
8.950366574797783 1.892409874309748 3.3260082276011533 3.7319484728868835
15.738384567703164 2.5037107065800384 6.696744578042011 6.537929283081115
25.048206046478036 3.193325701652385 11.671927072869414 10.182953271956237
36.86788885354517 3.95228124341432 18.319741388697004 14.595866221433862
51.08522454124315 4.786449339353963 26.605064175788442 19.693711026100736
67.75822364514167 5.706798425759945 36.6531197311759 25.398305488205857
86.42890739304427 6.687885319488672 48.09270839755203 31.648313676003532
107.09568329218189 7.6515504305003095 61.112543383222494 38.33158947845908
129.04388197109563 8.492939801410634 75.26438820197741 45.2865539677076
151.31591211102284 9.056651149548655 89.9960930058348 52.26316795563939
172.47144844907507 9.153130992575301 104.45490536522489 58.86341209127491
190.553633921923 8.642988533820107 117.33747970454283 64.57316568356005
203.33166675651853 7.790103411989403 126.85110425460579 68.69045908992328
208.0314841564603 6.129929726932865 131.29281958777023 70.60873484175715
203.33166675647507 7.790103411978642 126.85110425458335 68.69045908991306
190.55363392185225 8.642988533812977 117.33747970449892 64.57316568354037
172.471448448994 9.153130992587121 104.45490536516085 58.86341209124602
151.3159121108949 9.056651149527697 89.99609300576178 52.263167955605404
129.04388197100167 8.492939801423043 75.26438820190569 45.28655396767299
107.09568329206797 7.651550430492617 61.11254338315157 38.33158947842375
86.42890739293998 6.687885319483747 48.092708397486945 31.648313675969227
67.75822364504822 5.706798425759737 36.65311973111602 25.398305488172486
51.0852245411563 4.786449339352791 26.60506417573468 19.693711026068854
36.86788885346751 3.9522812434043946 18.319741388655792 14.595866221407308
25.048206046421058 3.1933257016492544 11.671927072837851 10.182953271933943
15.738384567664594 2.503710706578106 6.6967445780215575 6.537929283064932
8.950366574769324 1.8924098743054576 3.3260082275884786 3.73194847287539
4.466244978985286 1.3752949558492447 1.3104348663861056 1.7805151567499362
1.9472980686016934 0.9574945243352491 0.3740051077195931 0.6157984365468504
0.7647167449021144 0.6113278104786637 0.04315183877953583 0.11023709564391483
0.34366612590034845 0.34380538644898523 -0.0005198808310012241 0.0003806202823643202
0.185020234533132 0.1844014366772501 0.00014555157252651885 0.00047324628335539457
1.9798853261633655 0.31023542684213407 0.7073286284744099 0.9623212708468195
13.125215143433671 5.936877789601165 3.3911788215918253 3.7971585322406836
9.990378172878131 4.637055801004513 2.4347753215823666 2.918547050291252
1.3451282213449656 0.1401484440530642 0.4857339005128189 0.7192458767790806
0.12881736792909812 0.12881736792909812 0.0 0.0
0.25382798115467237 0.25630090223244223 -0.0004461604304329278 -0.0020267606473368996
0.5665192397501536 0.5129329783194387 0.012442964185757048 0.04114329724495787
1.4508427068588614 0.8296276345662099 0.21509894933646526 0.4061161229561863
3.546011984041902 1.2389328949269793 0.9525810727585177 1.3544980163564049
7.334700383406454 1.7013415228046942 2.582075114480808 3.0512837461209537
13.202279367483387 2.2334136775639277 5.434669480080654 5.534196209838806
21.257782085661034 2.8191276589012917 9.672453894585548 8.766200532174185
31.43818983108556 3.4584101302141645 15.313591823819692 12.666187877051705
43.728132463583066 4.173076380721786 22.40330440757836 17.15175167528291
57.933050261292124 4.96954524522727 30.801041433015207 22.16246358304962
74.19809170821765 5.837093773450863 40.720403698836314 27.640594235930475
92.00194060470562 6.7403646906831405 51.74130525819527 33.520270655827225
111.00376731416623 7.586962050552181 63.74707266790565 39.669732595708375
130.58246923638893 8.232011356497212 76.47925983073546 45.87119804915632
149.30695853153955 8.47134421076176 89.03174350924763 51.80387081153014
165.42565634415536 8.170751823269788 100.27080101941979 56.98410350146568
176.9771395751442 7.481859480243331 108.70156240643107 60.79371768846987
181.24513654343158 5.502961902103631 113.03947397775026 62.702700663577644
176.97713957511345 7.4818594802343705 108.70156240641569 60.79371768846331
165.4256563441175 8.170751823287047 100.27080101938178 56.984103501448615
149.30695853146094 8.4713442107629 89.03174350919303 51.803870811504964
130.5824692362972 8.232011356488222 76.4792598306796 45.87119804912937
111.00376731407742 7.586962050558069 63.74707266784226 39.6697325956771
92.00194060461713 6.74036469068678 51.74130525813481 33.52027065579548
74.19809170813086 5.837093773448808 40.7204036987815 27.64059423590055
57.933050261203256 4.96954524522067 30.801041432962943 22.162463583019623
43.728132463509404 4.1730763807196745 22.403304407534208 17.15175167525553
31.43818983102731 3.458410130214394 15.313591823784632 12.666187877028305
21.257782085611215 2.8191276588994794 9.672453894557805 8.766200532153922
13.202279367448584 2.2334136775604807 5.4346694800634525 5.534196209824659
7.3347003833834545 1.7013415228019033 2.58207511447065 3.051283746110899
3.5460119840275985 1.2389328949233949 0.9525810727534575 1.354498016350748
1.4508427068536809 0.8296276345648584 0.21509894933490661 0.4061161229539155
0.5665192397487311 0.5129329783180646 0.01244296418570858 0.041143297244957466
0.25382798115460375 0.25630090223239166 -0.0004461604304342118 -0.002026760647353619
0.12881736792914442 0.12881736792914442 0.0 0.0
1.3451282213393734 0.1401484440522764 0.485733900510563 0.7192458767765333
9.990378172855973 4.637055800995955 2.4347753215756045 2.918547050284419
7.498220874591181 3.5957732559878357 1.6951068329470143 2.207340785656336
0.9859237786611816 0.12158677093164268 0.35153613597637573 0.5128008717531626
0.11711257454388667 0.11711257454388667 0.0 0.0
0.20258969897443757 0.2028019520762898 -1.9388122316890857e-05 -0.00019286497953533796
0.4186909255342568 0.41571560687429776 -0.001812509320340694 0.004787827980299938
1.0553591865515664 0.7111241900531293 0.10872558979792317 0.23550940670051337
2.7030074759031506 1.0828205888785316 0.6501846675587601 0.9700022194658598
5.81177251344152 1.5112750540215294 1.9059859738970766 2.394511485522915
10.756256098693886 1.9683767647840174 4.244756144309339 4.543123189600529
17.570179373637405 2.4611484503637238 7.753182363450021 7.355848559823663
26.188848733273616 2.9971823081040654 12.45256151026222 10.73910491490732
36.53026258156303 3.599397678901948 18.31920013382478 14.61166476883631
48.575407314498804 4.2889678564063844 25.3624156756341 18.92402378245832
62.09865997192213 5.05964565807836 33.39666765557391 23.64234665826983
77.22567120780899 5.881160796670849 42.6354923571515 28.709018053986636
93.53135330833857 6.719011764997656 52.77647808574789 34.03586345759302
110.31329344380056 7.450005924955152 63.3941142492905 39.46917326955491
126.69391329789727 7.867378552648497 74.10201378015321 44.72452096509555
141.0803260416124 7.785222764430487 83.89891063860526 49.39619263857676
151.74207056851913 7.242780917865444 91.537013641794 52.96227600885957
155.7769253174635 4.925236344356097 95.88531679474252 54.966372178364885
151.7420705685282 7.242780917899656 91.5370136417771 52.9622760088514
141.0803260415402 7.7852227644020795 83.89891063857556 49.39619263856258
126.69391329780744 7.8673785526180735 74.10201378011342 44.72452096507593
110.31329344373543 7.450005924961053 63.39411424924292 39.469173269531474
93.5313533082505 6.7190117649879175 52.77647808569629 34.03586345756628
77.22567120772577 5.881160796665867 42.635492357100716 28.709018053959223
62.09865997185096 5.059645658079678 33.3966676555276 23.642346658243667
48.57540731442613 4.2889678563997045 25.362415675592874 18.92402378243355
36.530262581500594 3.599397678900427 18.319200133787703 14.61166476881246
26.18884873321899 2.9971823081001085 12.45256151023235 10.73910491488653
17.570179373595412 2.4611484503627485 7.75318236342676 7.355848559805906
10.756256098664013 1.9683767647799923 4.2447561442955655 4.54312318958845
5.811772513422389 1.511275054019399 1.9059859738886393 2.3945114855143492
2.7030074758931244 1.0828205888761975 0.6501846675552501 0.970002219461677
1.0553591865481091 0.7111241900522625 0.10872558979692937 0.23550940669891698
0.41869092553340925 0.4157156068734148 -0.0018125093203440875 0.004787827980338632
0.2025896989744566 0.2028019520763425 -1.9388122319198588e-05 -0.0001928649795666757
0.11711257454379816 0.11711257454379816 0.0 0.0
0.9859237786564834 0.12158677093110426 0.3515361359744109 0.5128008717509693
7.498220874573407 3.5957732559807694 1.6951068329418635 2.2073407856507705
5.5279264253638445 2.763597808885991 1.1521056831763639 1.6122229333014895
0.7010543087342307 0.14558953272371347 0.20489651097353312 0.35056826503698446
0.1326697640600031 0.1326697640600031 0.0 0.0
0.1802769662904794 0.18022189938472322 5.571989508849352e-06 4.9494916247259485e-05
0.3245630153453368 0.33601549325439994 -0.0033746633226923394 -0.00807781458637085
0.7434252222052113 0.5883440328332087 0.03919798533686445 0.11588320403513819
1.9294090141544225 0.914179984867593 0.36833062389947746 0.6468984053873517
4.4487126316897285 1.3114717592076308 1.3641384347646708 1.7731024377174263
8.398421450649387 1.7093357023130271 3.118175794650568 3.5709099536857933
14.031532154340322 2.1208156979353805 5.953107366038554 5.957609090366386
21.1072113495293 2.564558022542228 9.72344601793365 8.819207309053418
29.560403491912748 3.069927716381647 14.413006626195301 12.07746914933581
39.36041337331975 3.6599063707138324 20.009226466311173 15.691280536294748
50.53368030382696 4.339100155083458 26.55025374366552 19.64432640507799
62.902572936736604 5.096094817702544 33.902303444783854 23.9041746742502
76.30038815326263 5.891441921470979 42.004332933760644 28.40461329803102
90.58622949191871 6.680616657220273 50.874831842799274 33.030780991899185
104.66413733330059 7.301309805205245 59.749320801511566 37.61350672658378
117.39143627804057 7.466577198259098 68.10031322789906 41.824545851882384
127.39200826100327 7.072022801741795 75.11112987631603 45.20885558294544
131.36305419544823 4.400864763660923 79.60425938343555 47.35793004835184
127.39200826097074 7.0720228017323 75.11112987630058 45.208855582937815
117.39143627802116 7.466577198271555 68.10031322787776 41.82454585187192
104.66413733326804 7.301309805219417 59.749320801480266 37.6135067265683
90.58622949185771 6.680616657220548 50.874831842758816 33.03078099187832
76.30038815320293 5.891441921475332 42.004332933719326 28.40461329800833
62.90257293666993 5.096094817696509 33.90230344474497 23.904174674228454
50.53368030375714 4.3391001550714865 26.55025374362927 19.644326405056354
39.36041337326207 3.6599063707071293 20.009226466279884 15.69128053627507
29.56040349185858 3.069927716376903 14.413006626165785 12.077469149315894
21.107211349487088 2.5645580225406293 9.723446017910195 8.819207309036265
14.031532154301676 2.120815697927212 5.953107366021728 5.95760909035273
8.398421450625747 1.7093357023117515 3.118175794638994 3.570909953675005
4.448712631674319 1.3114717592055114 1.364138434758165 1.7731024377106408
1.9294090141469673 0.9141799848667026 0.3683306238966772 0.6468984053835871
0.7434252222025917 0.5883440328321098 0.03919798533634155 0.11588320403414044
0.3245630153445738 0.3360154932533968 -0.0033746633226460136 -0.008077814586176986
0.18027696629042386 0.18022189938468952 5.57198950661067e-06 4.949491622772526e-05
0.13266976405975686 0.13266976405975686 0.0 0.0
0.7010543087312661 0.14558953272365377 0.20489651097221429 0.3505682650353981
5.527926425348743 2.763597808878934 1.1521056831726746 1.6122229332971358
3.939211314398193 2.0924584169699845 0.7224457540711728 1.1243071433570369
0.521032044121311 0.18873650381127444 0.11467690294641347 0.21761863736362294
0.1598695051940017 0.15987500336120455 -2.8514702602354354e-07 -5.213020176798422e-06
0.17711062608302175 0.17711595260890267 -1.9737344837264589e-07 -5.12915243257676e-06
0.2702817762628063 0.2786102535447924 -0.0018547063655120258 -0.00647377091647415
0.5254434615946395 0.48256781221879325 0.005654147357535253 0.03722150201831136
1.3233291310964932 0.7544912009386874 0.1882057660185769 0.38063216413922923
3.124543921342735 1.0912930371431375 0.8133553153692131 1.2198955688303863
6.303498013790451 1.454336898310181 2.2146185442990562 2.634542571181216
10.622903292338918 1.794492885556176 4.2525042872256735 4.575906119557065
16.238535489436487 2.1604463828561826 7.165526833467567 6.912562273112735
22.882357875405376 2.5804613908906413 10.748239870947671 9.553656613567066
30.550234144308952 3.081459154426846 14.999343925008507 12.469431064873604
39.285662434024104 3.678319185200439 19.950853957962856 15.656489290860799
49.0504957355554 4.362166704011801 25.5812012681253 19.10712776341832
59.86525468872084 5.115748773243775 31.97435665979379 22.775149255683267
71.15580119526571 5.923773522766257 38.63486360365287 26.597164068846624
83.05572377495415 6.717656803973593 45.88553397415015 30.45253299683037
94.45831524260053 7.179953758332304 53.0863562966616 34.192005187606604
103.87861504176956 6.98095625520036 59.442450295646154 37.455208490923056
107.97362388970694 3.944582778591639 64.198208875531 39.830832235584225
103.87861504174991 6.98095625519154 59.44245029563882 37.4552084909195
94.45831524256666 7.17995375832579 53.08635629664353 34.19200518759738
83.05572377490917 6.717656803970177 45.88553397412302 30.452532996815968
71.15580119520823 5.923773522754353 38.63486360362353 26.597164068830352
59.86525468867067 5.115748773247289 31.97435665975951 22.77514925566388
49.050495735507766 4.362166704011095 25.581201268096 19.10712776340067
39.285662433980036 3.6783191851991464 19.950853957936616 15.656489290844272
30.550234144270078 3.08145915442757 14.999343924984775 12.469431064857744
22.882357875362867 2.5804613908847123 10.748239870926305 9.553656613551855
16.238535489399638 2.160446382850776 7.165526833449901 6.912562273098955
10.622903292312744 1.79449288555214 4.252504287213783 4.5759061195468185
6.3034980137696275 1.454336898306703 2.214618544290129 2.6345425711727954
3.1245439213313433 1.0912930371412228 0.8133553153648235 1.2198955688252981
1.323329131090872 0.7544912009379372 0.1882057660166038 0.3806321641363301
0.5254434615929481 0.48256781221782996 0.005654147357334233 0.03722150201778454
0.27028177626228445 0.2786102535440613 -0.00185470636547107 -0.006473770916305917
0.17711062608262698 0.1771159526085005 -1.9737344783652903e-07 -5.129152425718009e-06
0.15986950519349682 0.1598750033606903 -2.851470254176852e-07 -5.213020168041371e-06
0.5210320441189936 0.188736503810964 0.11467690294554078 0.21761863736248832
3.9392113143875305 2.0924584169658726 0.7224457540683352 1.1243071433533245
2.773557590095627 1.5924421512355564 0.4635181201213955 0.7175973187386754
0.37996884330822345 0.21856869120148678 0.043391363704322665 0.11800878840241395
0.1880926592574029 0.18777397191968592 3.464944285571404e-05 0.000284037894861247
0.18548724118555635 0.18544752374558596 8.861115609211474e-07 3.88313284094886e-05
0.24279033711876566 0.2480072753189086 -0.001050683199981952 -0.004166255000160951
0.3914210869906597 0.3939320724497216 -0.0046751225797141685 0.002164137120652015
0.8520162998383135 0.5984556107801672 0.06914441337467134 0.18441627568347432
2.036468432587937 0.8718594023848758 0.4240782519802801 0.7405307782227817
4.239080397932577 1.1770167588380749 1.2953733727285504 1.7666902663659516
7.537175643592266 1.476161534221205 2.8290547448301164 3.2319593645409457
11.617381168605124 1.7758106340459237 4.816539526816408 5.025031007742799
16.50982190716292 2.1239986579929226 7.336418354679057 7.049404894490945
22.160522066262207 2.5453464961763625 10.347149797186443 9.268025772899408
28.58704383112032 3.0604789916474617 13.835899164222141 11.690665675250708
35.891313724941945 3.682590175916219 17.880752076029335 14.327971472996396
43.94538997590962 4.38636175897196 22.391868087258555 17.167160129679104
52.76564669976366 5.160372483083979 27.45300179997058 20.15227241670909
62.13693907859622 6.068859702992373 32.79522496806301 23.272854407540855
71.85841917387295 6.8716346571507865 38.4898950402461 26.49688947647607
80.94477258292928 6.97761085647533 44.33279537354854 29.63436635290539
85.40587569214273 3.574513289790121 49.4942433326645 32.33711906968812
80.94477258293905 6.977610856491817 44.33279537354414 29.634366352903104
71.85841917385196 6.87163465714661 38.489895040235226 26.496889476470137
62.1369390785545 6.0688597029781475 32.79522496804551 23.272854407530836
52.76564669972873 5.160372483081447 27.453001799950215 20.152272416697063
43.945389975862795 4.3863617589644655 22.391868087234116 17.16716012966417
35.89131372490644 3.6825901759165016 17.880752076007543 14.32797147298242
28.58704383108521 3.060478991642017 13.835899164204468 11.69066567523873
22.160522066226665 2.545346496169918 10.347149797169477 9.26802577288726
16.509821907136686 2.123998657994373 7.336418354663471 7.049404894478839
11.617381168583963 1.7758106340490325 4.81653952680326 5.02503100773167
7.537175643571908 1.4761615342175807 2.8290547448213728 3.231959364532958
4.2390803979198335 1.1770167588365146 1.2953733727231362 1.7666902663601838
2.0364684325803424 0.8718594023835001 0.4240782519776031 0.7405307782192383
0.8520162998347426 0.5984556107788841 0.06914441337386738 0.18441627568199148
0.39142108698940287 0.3939320724486438 -0.0046751225797774945 0.0021641371205363175
0.2427903371183509 0.2480072753183171 -0.0010506831999464567 -0.004166255000019687
0.1854872411851585 0.18544752374499054 8.86111573030073e-07 3.883132859489395e-05
0.1880926592570081 0.18777397191924552 3.4649442858896805e-05 0.00028403789490368794
0.3799688433067957 0.21856869120135575 0.04339136370382672 0.11800878840161297
2.773557590087226 1.5924421512319242 0.4635181201192773 0.7175973187360241
1.8205143016470609 1.1792691260501535 0.22155265900996934 0.41969251658693774
0.2916377195387054 0.23608263528987983 0.010513811356708688 0.045041272892116874
0.21142162901009082 0.21135994017452658 1.1244783816488917e-05 5.044405174783878e-05
0.20021867672109728 0.200441914514491 -2.44978010739605e-05 -0.00019873999231970587
0.2313460795642187 0.23488192861434976 -0.0007998480564682703 -0.002736000993662816
0.32223652602306924 0.3295046984513459 -0.0041028019590259816 -0.003165370469250722
0.5459816430370716 0.4690638719664683 0.01314057852108759 0.06377719254951578
1.181633600259395 0.6586632697408895 0.16831261139040296 0.3546577191281027
2.500647152002 0.8901494789875478 0.6190030540514063 0.9914946189630456
4.592181924131419 1.1328195434757673 1.4947732691528772 1.964589111502775
7.288003681811299 1.382402643954285 2.7136384805605664 3.1919625572964483
10.544960897495672 1.6725234606027255 4.285935181521716 4.586502255371227
14.287711560959487 2.0260327008471624 6.147449433035802 6.11422942707652
18.554238083783442 2.461868909472804 8.311231962940202 7.781137211370437
23.45844840146222 3.0093249246455445 10.839653322085864 9.609470154730804
29.06100886246291 3.6746624599362097 13.769895077773324 11.616451324753385
35.27596916870119 4.410213266881988 17.076646628966433 13.789109272852766
42.063848576005576 5.2509626570872125 20.699906419379374 16.112979499538973
50.031910516479456 6.374912434987801 24.93864356714526 18.718354514346412
58.850786823906866 7.078937795646888 30.07825899834331 21.693590029916663
63.921264673881986 3.353659888475864 35.62822815718945 24.939376628216678
58.850786823889855 7.0789377956308694 30.078258998342616 21.69359002991639
50.031910516464045 6.374912434979678 24.93864356714073 18.718354514343638
42.06384857598891 5.250962657088046 20.699906419368528 16.11297949953232
35.275969168669064 4.410213266874874 17.076646628951245 13.789109272842943
29.061008862434935 3.6746624599321884 13.769895077758997 11.616451324743762
23.458448401431617 3.0093249246369664 10.839653322072955 9.609470154721683
18.554238083760495 2.4618689094657857 8.31123196293107 7.781137211363645
14.287711560938568 2.0260327008427654 6.147449433026664 6.11422942706914
10.544960897472716 1.672523460597968 4.285935181511829 4.58650225536292
7.28800368179336 1.3824026439540373 2.71363848055147 3.1919625572878503
4.592181924120329 1.132819543475004 1.4947732691477862 1.9645891114975411
2.500647151994323 0.890149478986699 0.6190030540483238 0.9914946189592999
1.1816336002554704 0.6586632697404972 0.16831261138902817 0.35465771912594524
0.545981643035069 0.46906387196520966 0.013140578520804937 0.06377719254905465
0.3222365260223927 0.32950469845054886 -0.004102801959020443 -0.0031653704691356676
0.23134607956370692 0.23488192861354196 -0.0007998480564323131 -0.0027360009934027205
0.20021867672080773 0.2004419145142115 -2.4497801070244677e-05 -0.00019873999233355004
0.2114216290097941 0.21135994017402662 1.1244783836441042e-05 5.0444051930997365e-05
0.2916377195377041 0.23608263528960216 0.010513811356429401 0.04504127289167237
1.8205143016415322 1.1792691260477555 0.22155265900866827 0.41969251658510875
1.163866377079593 0.8791701706161176 0.08830456995158296 0.19639163651189248
0.23244039128718239 0.23438208473611555 -0.0037906619997880296 0.001848968550854899
0.2276777604110296 0.226767862484066 0.00012221701055418848 0.0007876809164094846
0.21736317365028554 0.21672430421384167 7.279142654126578e-05 0.0005660780099025723
0.2324949513417764 0.2348120328842857 -0.0006575728809679335 -0.0016595086615413068
0.29370681430881845 0.2970025212126064 -0.002112171566353523 -0.0011835353374343059
0.39915976883159043 0.37207441746435527 0.002996987860264949 0.02408836350697012
0.6084105859671018 0.4557942151756791 0.03758198031260516 0.11503439047881758
1.11834075331541 0.5814057040401263 0.1730633768726795 0.3638716724026041
2.080599687206458 0.7336631504370869 0.5060097231135214 0.8409268136558499
3.4965302252045074 0.9146259637876422 1.0817209397478729 1.5001833216689917
5.191339355375512 1.1282228761778035 1.7873297854164172 2.275786693781292
7.209283047041848 1.3983414377872732 2.6748825779008056 3.1360590313537693
9.564432223751124 1.7462987608452447 3.733372268999532 4.084761193906346
12.324379660259217 2.198293978734667 4.981516501303107 5.144569180221442
15.624312539421178 2.7890002303175265 6.480212918973004 6.355099390130641
19.56171938742557 3.5065839390229048 8.304724114633302 7.750411333769363
24.039615500199037 4.227142248884023 10.492292430904826 9.32018082041019
29.47359414114406 5.203821356408961 13.117644974268135 11.152127810466943
37.491861191976184 6.919568699297889 16.883637723463362 13.688654769214954
44.572446793330876 3.484487246314201 23.33924212961897 17.748717417397696
37.49186119199189 6.919568699307515 16.8836377234671 13.688654769217262
29.47359414114462 5.203821356411859 13.117644974266693 11.152127810466066
24.03961550020132 4.227142248901309 10.492292430896056 9.320180820403964
19.561719387419615 3.5065839390339697 8.304724114623527 7.750411333762117
15.624312539400577 2.7890002303083916 6.48021291896658 6.355099390125602
12.324379660257542 2.1982939787445064 4.981516501296892 5.144569180216149
9.564432223746747 1.7462987608472376 3.7333722689961197 4.084761193903387
7.209283047032819 1.3983414377868797 2.6748825778963217 3.1360590313496135
5.191339355365485 1.1282228761760633 1.7873297854122714 2.275786693777152
3.496530225195331 0.9146259637869827 1.081720939743801 1.500183321664549
2.0805996872004466 0.7336631504360582 0.5060097231113131 0.8409268136530764
1.1183407533123049 0.5814057040392165 0.1730633768718394 0.36387167240124857
0.6084105859654421 0.4557942151750989 0.03758198031223711 0.11503439047810637
0.39915976883075666 0.37207441746375897 0.0029969878601788236 0.02408836350681863
0.29370681430792617 0.29700252121156284 -0.0021121715663640875 -0.0011835353372724377
0.2324949513417218 0.23481203288397234 -0.0006575728809263857 -0.0016595086613241457
0.2173631736499059 0.21672430421334324 7.279142654941515e-05 0.0005660780100131124
0.22767776041077464 0.22676786248367908 0.000122217010566396 0.0007876809165290902
0.23244039128649077 0.23438208473577243 -0.0037906619998749665 0.0018489685505934392
1.1638663770762507 0.8791701706144911 0.0883045699509259 0.19639163651083313
0.719503675233627 0.6429329215945221 0.017318663740115123 0.059252089898989876
0.2016433564803174 0.21234772318008802 -0.002717671707850788 -0.007986694991919879
0.23699361464175228 0.23737574661711036 -4.11321847956918e-05 -0.0003409997905625044
0.23399790140615961 0.23289456241590006 0.0001427571094066959 0.0009605818808529007
0.24423914949184938 0.2447005487794096 -0.0003845355131007425 -7.686377445953167e-05
0.2903813858771119 0.2907984333078214 -0.0013035930833219492 0.0008865456526124116
0.3654209748480863 0.3359426528258501 0.005387946240270881 0.024090375781965625
0.4224831446741825 0.3319024988069657 0.02334440052914719 0.06723624533806963
0.4852160362264363 0.2870034438791516 0.06557687273066543 0.13263571961661938
0.6662345204123941 0.2804200391903564 0.1389040387559109 0.24691044246612753
1.083997778905021 0.3088598062181062 0.30786805830125685 0.46726991438565724
1.70170478341544 0.3108429165386154 0.5653594359801549 0.8255024308966694
2.513481541768395 0.3297730983985536 0.9315273377298114 1.25218110564003
3.50412112776377 0.3911344163330385 1.3820514986593027 1.7309352127714317
4.695417354329688 0.5189231760008002 1.9173784754791032 2.259115702849781
6.086278927056858 0.7355214682225465 2.521543789267335 2.8292136695669754
7.723414015576004 1.0657337420557906 3.2253340211826713 3.432346252337544
9.563135956895035 1.4733882144370634 4.027729894256317 4.062017848201654
12.071879021348277 2.080640046408904 5.097883849050699 4.893355125888679
18.80661905496951 4.399739233684613 7.356864270083031 7.05001555120187
31.441489221654006 3.867312586596489 14.9479792600239 12.626197375033616
18.806619054978775 4.399739233688022 7.356864270086568 7.050015551204188
12.071879021346739 2.0806400464111645 5.0978838490485465 4.89335512588703
9.563135956873063 1.4733882144237773 4.027729894251408 4.0620178481978755
7.723414015540366 1.0657337420349584 3.2253340211748527 3.4323462523305492
6.08627892705812 0.7355214682274365 2.521543789265385 2.829213669565297
4.695417354309592 0.5189231759893314 1.9173784754747563 2.2591157028455036
3.5041211277582294 0.3911344163327337 1.3820514986568126 1.7309352127686832
2.5134815417656315 0.3297730984016626 0.931527337726863 1.2521811056371073
1.7017047834078942 0.31084291653664986 0.5653594359775249 0.8255024308937201
1.0839977789008435 0.30885980621814413 0.3078680582993498 0.46726991438334886
0.666234520411951 0.28042003918955755 0.13890403875593704 0.24691044246645666
0.48521603622552595 0.2870034438790025 0.06557687273033534 0.1326357196161878
0.4224831446741213 0.3319024988075392 0.023344400528926938 0.0672362453376553
0.36542097484711367 0.33594265282514957 0.005387946240144916 0.024090375781819114
0.2903813858768136 0.29079843330738525 -0.0013035930832884135 0.0008865456527167837
0.24423914949151376 0.24470054877893493 -0.0003845355130911757 -7.686377432998049e-05
0.23399790140568552 0.23289456241530737 0.00014275710941730738 0.0009605818809607162
0.23699361464167745 0.23737574661689584 -4.113218477283445e-05 -0.000340999790445665
0.20164335648024465 0.21234772317969663 -0.002717671707801254 -0.007986694991650728
0.7195036752316172 0.6429329215930971 0.01731866373990107 0.05925208989861934
0.455151866152782 0.45322967391590063 9.109476424528847e-05 0.0018310974726361729
0.18641819581209465 0.187264146259874 -8.613583878540452e-05 -0.0007598146089940083
0.23970409225300848 0.23931603839453863 8.846652829356337e-06 0.00037920720564051504
0.2479275371731112 0.24661676653699785 0.0001642865188431297 0.0011464841172702349
0.26242617370113563 0.2612618484743889 -0.00013900598478522127 0.0013033312115319615
0.31294507235023755 0.30918758744138636 -0.0008371452462525975 0.004594630155103797
0.4138306491890054 0.37946574606398503 0.005859312588998486 0.028505590536022005
0.6174803924527961 0.458125963505938 0.04025217029478596 0.11910225865207179
1.1213258478750876 0.5813968955861579 0.17429497181752512 0.36563398047140444
2.0801660958211725 0.7333497472947555 0.5058722684736179 0.8409440800527985
3.5036469575145297 0.9169094082380536 1.0845067600009715 1.502230789275507
5.220184000391001 1.1329219390020706 1.8008210627479333 2.286440998640996
7.2620447511462185 1.4045015593429124 2.699020958022427 3.158522233780878
9.59322339016786 1.7411426745247625 3.7528463488024735 4.099234366840628
12.119626405054163 2.1435501712339002 4.902940503718965 5.073135730101298
14.685651369253616 2.610653892543006 6.067348463944562 6.00764901276605
16.971784878846396 3.1195093605795687 7.072755854670703 6.779519663596118
18.790216205273243 3.7235092654556636 7.812640918797251 7.254066021020328
19.411859287491282 4.144342166944037 7.977697439280402 7.289819681266835
15.924863975902905 3.0981566020299005 6.841717984406107 5.984989389466892
31.854276136977635 5.78068819234418 13.89162181012316 12.181966134510278
15.924863975905183 3.0981566020242566 6.841717984410694 5.98498938947023
19.411859287475263 4.144342166931731 7.977697439278154 7.28981968126538
18.790216205258055 3.7235092654509714 7.81264091879115 7.254066021015924
16.971784878828167 3.1195093605814885 7.072755854659282 6.779519663587411
14.685651369233401 2.610653892537808 6.067348463936215 6.0076490127593685
12.11962640504065 2.143550171235261 4.902940503710944 5.073135730094453
9.593223390145251 1.7411426745178167 3.752846348794065 4.099234366833373
7.262044751122006 1.4045015593339167 2.699020958014498 3.158522233773593
5.220184000380763 1.1329219390051781 1.8008210627412986 2.2864409986342866
3.5036469574994897 0.9169094082350101 1.0845067599951586 1.5022307892693214
2.080166095814265 0.7333497472935452 0.5058722684711321 0.8409440800495878
1.1213258478714585 0.5813968955857142 0.17429497181630246 0.36563398046944207
0.6174803924510064 0.45812596350519 0.0402521702944045 0.1191022586514117
0.4138306491880449 0.3794657460631985 0.0058593125889344596 0.028505590535911684
0.3129450723493458 0.3091875874403876 -0.0008371452462811011 0.004594630155239249
0.26242617370037485 0.2612618484735223 -0.00013900598477902887 0.00130333121163165
0.2479275371726612 0.24661676653637024 0.00016428651885967127 0.0011464841174313356
0.23970409225286415 0.2393160383942954 8.846652833068872e-06 0.00037920720573546773
0.18641819581203684 0.18726414625985574 -8.61358387901949e-05 -0.0007598146090286192
0.45515186615184505 0.4532296739147675 9.109476425792037e-05 0.0018310974728195386
0.2928527264315206 0.29292634295866915 -5.074825948644306e-06 -6.854170119983136e-05
0.17209228991340658 0.17221690940088838 -1.0553668875124635e-05 -0.0001140658186067104
0.2360469460263037 0.2367203268993511 -0.00011727220284500206 -0.0005561086702024137
0.257605964617193 0.25619292372547375 0.00012171160975627175 0.0012913292819629408
0.2851976157259717 0.2861259879987946 -0.00047625249551658787 -0.000452119777306241
0.36117069929335716 0.3553443090192382 -0.00038848100914222244 0.006214871283260677
0.5686927682596672 0.47080037465005176 0.018757274456554722 0.07913511915306086
1.1926312934714915 0.6594756789670382 0.1726835008895223 0.3604721136149318
2.5013474517365237 0.8897405817649124 0.6194509553300952 0.9921559146415152
4.591664698707918 1.132910497787197 1.4943185587954944 1.964435642125224
7.295990581287706 1.3839501519156134 2.7168492121700547 3.1951912172020354
10.571095986362064 1.6761153433695049 4.298074013923903 4.596906629068655
14.329488382131043 2.027972053874265 6.169780619635547 6.131735708621241
18.551748625819744 2.4453280449552093 8.319866819629656 7.786553761234867
23.195210093421043 2.932240996620715 10.73272244507593 9.530246651724397
28.039627138146233 3.47721701289954 13.282983364487029 11.279426760759662
32.694991806532954 4.089360240503096 15.714004432196838 12.891627133833016
36.59899738120012 4.785445716593517 17.636825836511154 14.176725828095426
38.49509351988104 5.14279228516596 18.595275210503182 14.757026024211907
35.90362171750638 5.035881899524493 17.18924887689392 13.67849094108798
44.33476991313316 10.400618950755774 18.88788993233214 15.04626103004523
35.90362171751189 5.035881899522012 17.18924887689887 13.67849094109101
38.49509351988256 5.142792285172353 18.595275210500166 14.757026024210015
36.59899738117092 4.785445716583889 17.636825836499163 14.176725828087879
32.694991806511005 4.089360240510931 15.71400443217882 12.891627133821231
28.039627138110053 3.477217012892592 13.282983364469635 11.279426760747832
23.195210093391367 2.932240996618318 10.732722445059963 9.530246651713078
18.551748625795636 2.4453280449589463 8.319866819613795 7.786553761222896
14.329488382105826 2.027972053876167 6.169780619620433 6.131735708609229
10.571095986335775 1.6761153433646403 4.298074013912316 4.596906629058819
7.295990581266306 1.3839501519147228 2.7168492121594747 3.195191217192106
4.591664698688306 1.1329104977824778 1.4943185587881156 1.9644356421177127
2.5013474517286953 0.8897405817637495 0.6194509553271097 0.9921559146378367
1.1926312934660468 0.6594756789653502 0.17268350088803036 0.3604721136126665
0.5686927682571544 0.47080037464892627 0.01875727445607596 0.07913511915215257
0.3611706992924161 0.3553443090184435 -0.0003884810091909069 0.006214871283163241
0.2851976157255591 0.286125987997986 -0.00047625249545575865 -0.00045211977697127916
0.2576059646167458 0.25619292372489194 0.0001217116097638132 0.0012913292820900231
0.23604694602604734 0.2367203268989101 -0.00011727220282735006 -0.0005561086700353914
0.17209228991298275 0.1722169094005244 -1.0553668879763487e-05 -0.00011406581866186901
0.2928527264309583 0.2929263429581138 -5.074825949206164e-06 -6.854170120644613e-05
0.182078702784186 0.182078702784186 0.0 0.0
0.15309857568230006 0.1530964504633813 5.461180655241734e-07 1.579100853299744e-06
0.2257021420585979 0.22642141399610707 -0.00010434524458696279 -0.0006149266929222495
0.2635121888314359 0.26403416334596874 -0.00016062474860932172 -0.00036134976592361453
0.3118808225584699 0.3113497819152026 -0.0004544598399248293 0.0009855004831921558
0.4387621368062937 0.4108504004887912 0.0019188368748399671 0.025992899442663003
0.8836745563330438 0.6050217743121202 0.08075043813175989 0.19790234388916356
2.0430720207598734 0.8719560046751634 0.4275595140242362 0.7435565020604751
4.236977560484696 1.1770755533021122 1.294266241388889 1.7656357657936934
7.5385719700180065 1.4767491294229782 2.829725925549888 3.2320969150451404
11.62544223296053 1.7768854079451906 4.8190491120148815 5.02950771300046
16.526729372770042 2.125293025876574 7.345351169364436 7.056085177529038
22.16960331923604 2.542324610244588 10.354329863258778 9.272948845732664
28.52564300618844 3.0348116500269953 13.81485485493604 11.675976501225414
35.58134810829505 3.595800994358031 17.745453240012246 14.240093873924774
43.02305903145256 4.209367291191345 21.931761505565692 16.88193023469551
50.50683676446574 4.865917998396284 26.22197387189828 19.418944894171183
56.744836525755616 5.3937108241888865 29.80376018593585 21.547365515630904
59.84912549793642 5.559431301659697 31.673706585526908 22.615987610749816
56.00541104725182 4.9801037047731525 29.621420516792334 21.403886825686335
62.63809094388998 13.469767464517723 28.4101804891216 20.758142990250636
56.00541104725809 4.9801037047742005 29.62142051679566 21.403886825688215
59.849125497933976 5.559431301664812 31.673706585522133 22.615987610747055
56.74483652573229 5.393710824193311 29.803760185918218 21.547365515620765
50.50683676442644 4.865917998395894 26.221973871873885 19.418944894156652
43.023059031414505 4.209367291194759 21.931761505540038 16.8819302346797
35.58134810825173 3.595800994355579 17.745453239987384 14.24009387390877
28.52564300615304 3.034811650029653 13.814854854913307 11.675976501210073
22.169603319198817 2.5423246102457484 10.35432986323641 9.272948845716671
16.526729372732 2.125293025871887 7.345351169345527 7.056085177514573
11.625442232926607 1.7768854079409397 4.819049111998689 5.029507712986988
7.538571969997006 1.4767491294245598 2.8297259255381055 3.2320969150343406
4.236977560468131 1.1770755532983437 1.2942662413826507 1.7656357657871375
2.043072020751766 0.8719560046742695 0.4275595140211267 0.7435565020563704
0.8836745563293791 0.6050217743114109 0.08075043813068346 0.19790234388728456
0.43876213680512677 0.4108504004879712 0.0019188368747105897 0.025992899442444817
0.3118808225579164 0.31134978191438895 -0.0004544598398904812 0.0009855004834179676
0.26351218883103555 0.2640341633454063 -0.0001606247485882225 -0.0003613497657824663
0.22570214205828137 0.22642141399585405 -0.00010434524459420405 -0.0006149266929785477
0.15309857568220264 0.1530964504632654 5.461180670791017e-07 1.579100870192907e-06
0.1820787027836137 0.1820787027836137 0.0 0.0
0.10691895203370574 0.10691895203370574 0.0 0.0
0.12933026495819244 0.129326038884465 2.3276924337965782e-07 3.99330448403657e-06
0.20951226397964978 0.2098998735578767 -5.110089903823868e-05 -0.00033650867918861915
0.2658689408334681 0.26633808535094117 -0.00021153929263041912 -0.0002576052248425374
0.34343016891094597 0.3448665751303932 -0.0012798671985231182 -0.00015653902092404746
0.5773860733588968 0.49744067716338564 0.018082363190495134 0.061863033005016124
1.3412470390444686 0.7510887566717884 0.19561207892513305 0.3945462034475469
3.1249256222009336 1.0919330955381075 0.8137258286554493 1.219266698007376
6.30088879508773 1.4551186403088385 2.2128344552669343 2.6329356995119544
10.626334859979767 1.7953043236903758 4.253717094494323 4.57731344179507
16.246731654209263 2.160194428179479 7.170571396326293 6.915965829703492
22.879739451208394 2.5765545637110585 10.7490748547395 9.554110032757835
30.505590788413915 3.0689827728651196 14.980222980161287 12.456385035387537
39.14937819440774 3.647217909279778 19.886548152625526 15.615612132502406
48.74145959218626 4.2974800666586415 25.42843624113125 19.015543284396372
59.15842516306978 4.98679663824073 31.606599802727636 22.565028722101427
69.25446242124501 5.587030481190746 37.62703789883151 26.04039404122276
77.88557888516046 5.892617452457451 43.056965241504436 28.935996191198548
81.85371986228584 5.585965556089908 45.876134591078404 30.391619715117535
76.99663235952431 5.051752489036809 43.05796086927423 28.886919001213293
83.30555268792891 16.543481338226993 39.643902639543086 27.118168710158816
76.99663235949342 5.051752489010985 43.05796086927102 28.886919001211425
81.85371986224874 5.585965556070101 45.876134591067014 30.391619715111585
77.88557888510219 5.8926174524397785 43.05696524147801 28.935996191184397
69.2544624211914 5.587030481185584 37.62703789880028 26.04039404120555
59.15842516300371 4.986796638229829 31.60659980269255 22.565028722081337
48.741459592132934 4.297480066657086 25.428436241098957 19.015543284376882
39.14937819434687 3.647217909270128 19.88654815259408 15.615612132482648
30.50559078836128 3.068982772864086 14.980222980130268 12.45638503536692
22.879739451161175 2.5765545637094673 10.749074854712951 9.55411003273877
16.246731654170482 2.160194428178216 7.170571396305238 6.915965829687024
10.626334859946082 1.795304323685745 4.253717094478715 4.577313441781622
6.300888795067381 1.4551186403090288 2.2128344552563877 2.6329356995019673
3.124925622189384 1.0919330955362492 0.8137258286509579 1.2192666980021771
1.3412470390384903 0.7510887566696528 0.1956120789235573 0.3945462034452799
0.5773860733570111 0.49744067716237395 0.01808236319021083 0.061863033004426464
0.34343016891042494 0.3448665751296537 -0.0012798671984871294 -0.0001565390207415242
0.2658689408331373 0.2663380853503823 -0.00021153929261270862 -0.0002576052246324439
0.20951226397913658 0.2098998735573912 -5.110089904104478e-05 -0.00033650867921350267
0.12933026495800856 0.1293260388842812 2.3276924336996675e-07 3.9933044839934034e-06
0.10691895203345932 0.10691895203345932 0.0 0.0
0.05901366419078219 0.05901366419078219 0.0 0.0
0.10316481058220296 0.10316481058220296 0.0 0.0
0.18868456640966733 0.18877369336211575 -1.1042148517446846e-05 -7.808480393104009e-05
0.2658611107700816 0.26781697368017016 -0.0003808493985557591 -0.001575013511532825
0.3861142609868348 0.3810020260804816 -0.0011584400077231534 0.006270674914076182
0.7850855648722963 0.5971229090840664 0.05303799047999594 0.13492466530823397
1.9416096455006913 0.9135951918710044 0.3751239085381423 0.6528905450915448
4.445619875157654 1.31303060029639 1.3620820054874363 1.7705072693738277
8.397742493538928 1.7106131011432368 3.117294257555451 3.5698351348402424
14.037311182033223 2.1214552774988924 5.95589588451271 5.959960020021617
21.110241476423923 2.5619956093689713 9.726692532343245 8.821553334711716
29.529722893269437 3.057936071369398 14.401879026908967 12.06990779499108
39.24882006576392 3.6339154221186756 19.956807266619535 15.658097377025705
50.31917272503922 4.308059008935195 26.435321670141107 19.57579204596292
62.60993193700729 5.071851022432338 33.73083831233217 23.807242602242805
75.79668804202726 5.808329179752007 41.731040422637875 28.257318439637405
89.01606414427113 6.308572687386793 50.0868784336274 32.620613023256915
99.61309221886745 6.248785338134834 57.09647152829496 36.26783535243766
104.10636129246338 5.529879396579145 60.51962510074337 38.05685679514085
98.80093223624861 5.291865777368764 57.21045408749093 36.29861237138889
105.86551288465336 19.628085936410553 52.4105693982384 33.82685755000442
98.80093223623822 5.291865777376516 57.21045408747895 36.298612371382745
104.10636129244027 5.529879396585392 60.51962510072383 38.056856795131054
99.6130922188356 6.2487853381545175 57.09647152826085 36.26783535242024
89.01606414420206 6.308572687379282 50.08687843358697 32.62061302323584
75.7966880419572 5.808329179752673 41.73104042259188 28.257318439612618
62.60993193692936 5.071851022421323 33.73083831228942 23.807242602218594
50.3191727249767 4.308059008935801 26.435321670101562 19.57579204593932
39.24882006570141 3.633915422120598 19.95680726658004 15.658097377000782
29.52972289321125 3.057936071367692 14.401879026875173 12.069907794968374
21.110241476370607 2.561995609363077 9.726692532315825 8.82155333469171
14.037311181995477 2.1214552774981925 5.955895884492171 5.95996002000511
8.397742493513446 1.7106131011409094 3.1172942575435334 3.5698351348290025
4.445619875140327 1.3130306002920533 1.362082005481046 1.7705072693672277
1.9416096454916911 0.91359519186806 0.3751239085355439 0.6528905450880883
0.7850855648694985 0.5971229090828846 0.05303799047939554 0.1349246653072185
0.38611426098616813 0.38100202607981226 -0.0011584400077465503 0.006270674914102453
0.26586111076936786 0.26781697367939133 -0.00038084939854584964 -0.0015750135114776208
0.18868456640955664 0.18877369336202587 -1.1042148519222738e-05 -7.808480395001285e-05
0.10316481058193831 0.10316481058193831 0.0 0.0
0.05901366419053456 0.05901366419053456 0.0 0.0
0.030519648384402485 0.030519648384402485 0.0 0.0
0.07772696158852681 0.07772696158852681 0.0 0.0
0.16566790130722212 0.16566108454355422 3.960330448053176e-07 6.420730623111643e-06
0.26619768674163613 0.2680254390720073 -0.0003856892836487829 -0.0014420630467224392
0.45546653594735664 0.4369374606336133 0.002605221734715107 0.015923853579028334
1.0634556235452344 0.6980778538238879 0.11119594072781933 0.2541818289935271
2.7070082094963697 1.0832064177441016 0.653302924090885 0.970498867661382
5.808725752261005 1.5130920762074949 1.9033816647876274 2.392252011265883
10.758569816751493 1.969815451854669 4.245470059285443 4.543284305611381
17.57698190662744 2.4611379495250443 7.757085390907436 7.358758566194966
26.182730125846163 2.991141744495348 12.452536992276567 10.739051389074243
36.46738045456775 3.578296005243674 18.29376856662002 14.59531588270404
48.398860990274756 4.249565520414916 25.27674023248873 18.872555237371117
61.80471188477687 5.025808957395816 33.23080069448588 23.54810223289521
76.90115868208522 5.885026828271636 42.42223946687259 28.593892386940965
93.1155578486299 6.680218757221603 52.52745523083527 33.907883860573016
108.90003605637989 7.0267201954754075 62.732883265206645 39.140432595697845
121.57286298795461 6.547738581013904 71.54155002451478 43.483574382425935
127.11229816306306 5.509937441515174 75.97870851956256 45.62365220198537
121.63448796197733 5.601454238996787 72.23101928481336 43.80201443816718
129.84940520552877 22.689864654416297 66.25552041819422 40.904020132918255
121.63448796198523 5.60145423902064 72.23101928480257 43.80201443816199
127.1122981630016 5.509937441498041 75.97870851953269 45.623652201970906
121.57286298790105 6.547738581017532 71.54155002447631 43.483574382407134
108.90003605629792 7.026720195469212 62.732883265156005 39.140432595672685
93.11555784856257 6.680218757233256 52.52745523078322 33.907883860546114
76.90115868199535 5.885026828267238 42.42223946681708 28.593892386911026
61.80471188468781 5.025808957382736 33.230800694437306 23.548102232867787
48.39886099020174 4.24956552041721 25.276740232441703 18.872555237342816
36.46738045449674 3.57829600524008 18.293768566579008 14.595315882677637
26.182730125788353 2.9911417444944672 12.452536992242992 10.739051389050882
17.57698190658161 2.461137949523019 7.757085390882597 7.3587585661759976
10.758569816717532 1.96981545184881 4.245470059270511 4.54328430559821
5.8087257522390665 1.5130920762037627 1.9033816647785238 2.3922520112567804
2.7070082094834715 1.0832064177415608 0.6533029240861428 0.9704988676557657
1.063455623540933 0.6980778538228977 0.1111959407265459 0.25418182899148906
0.45546653594641656 0.4369374606326523 0.0026052217347004446 0.015923853579063642
0.26619768674111105 0.2680254390714148 -0.00038568928364580534 -0.0014420630466578912
0.16566790130709003 0.16566108454342296 3.960330447626668e-07 6.4207306222634735e-06
0.07772696158843417 0.07772696158843417 0.0 0.0
0.030519648384088584 0.030519648384088584 0.0 0.0
0.014943367660528284 0.014943367660528284 0.0 0.0
0.055614527270635344 0.055614527270635344 0.0 0.0
0.1434522550513454 0.14344975272667365 1.22441077168008e-07 2.379883594554421e-06
0.27132078747617044 0.2737757820680645 -0.0005327310616438083 -0.0019222635302504067
0.5595987094656539 0.5028781301800309 0.01324521090395431 0.043475368381669016
1.4471881896130565 0.82519302230155 0.2163125895216416 0.40568257778986483
3.5440651017385654 1.2394217034736594 0.9515096352652801 1.3531337629996258
7.33540976014557 1.7028292505810496 2.581939698274136 3.0506408112903833
13.208214592512954 2.2346961910618512 5.437354977529693 5.536163423921408
21.263135959267327 2.8176549108660707 9.676472897024798 8.769008151376465
31.41896531205705 3.448096276397561 15.308271503800398 12.66259753185911
43.63428212448759 4.144324112256412 22.363006310983288 17.126951701247897
57.70532203516643 4.9204835853309685 30.687720792631694 22.097117657203807
73.82213401597122 5.789987224245852 40.5075400122307 27.52460677949461
91.54737761034409 6.729839600634716 51.44903999025117 33.36849801945818
110.43631369529038 7.548532204576931 63.394092021866825 39.49368946884663
129.01106325169775 7.7606434695591116 75.73609224191809 45.51432754022054
143.8829995889941 6.898201615091571 86.40654524290757 50.578252730994976
150.82196460403065 5.543627468762273 92.05514151472043 53.22319562054795
145.82168309345994 5.914936375332341 88.40998262233676 51.4967640957909
155.83257666958636 25.688582715153373 81.76623487107318 48.37775908335979
145.82168309342984 5.914936375318481 88.40998262232554 51.49676409578582
150.82196460397566 5.543627468770169 92.0551415146775 53.22319562052795
143.88299958890082 6.898201615073372 86.40654524285617 50.57825273097133
129.0110632516097 7.760643469560558 75.73609224185763 45.514327540191466
110.43631369517088 7.548532204553848 63.394092021802365 39.49368946881457
91.54737761024765 6.729839600636951 51.449039990186186 33.36849801942452
73.82213401587754 5.789987224243131 40.50754001217191 27.524606779462513
57.70532203507628 4.920483585328233 30.68772079257626 22.09711765717175
43.634282124404926 4.144324112252631 22.36300631093453 17.12695170121776
31.41896531198637 3.44809627639294 15.308271503760796 12.662597531832638
21.263135959215965 2.817654910863612 9.67647289699652 8.769008151355827
13.2082145924726 2.2346961910561616 5.437354977510704 5.536163423905741
7.335409760120541 1.7028292505793603 2.581939698262447 3.050640811278734
3.5440651017243185 1.2394217034722075 0.9515096352592671 1.3531337629928428
1.4471881896071999 0.8251930223002195 0.21631258951978422 0.405682577787196
0.55959870946394 0.5028781301789027 0.01324521090375272 0.04347536838128442
0.27132078747589755 0.27377578206758574 -0.0005327310616286621 -0.0019222635300593155
0.14345225505102474 0.14344975272635627 1.2244107697319608e-07 2.3798835915387224e-06
0.05561452727061614 0.05561452727061614 0.0 0.0
0.014943367660413973 0.014943367660413973 0.0 0.0
0.007205481479777617 0.007205481479777617 0.0 0.0
0.03849760236970567 0.03849760236970567 0.0 0.0
0.12535321104948066 0.12535321104948066 0.0 0.0
0.2887799461650386 0.29246137937059924 -0.0009353693731006957 -0.0027460638324599503
0.7094895765883261 0.580385126990104 0.034051660541764395 0.09505278905645795
1.9253021484918658 0.9533579294697904 0.3661483234445581 0.6057958955775181
4.463913964179026 1.3757421994201937 1.3082724754223187 1.7798992893365124
8.958844409768671 1.8936501537936725 3.3313398139502723 3.733854442024729
15.746995884595727 2.504172807273703 6.701279746888945 6.541543330433077
25.049498744544856 3.1896642098859456 11.67494427099113 10.18489026366778
36.83327165031967 3.9375830505178753 18.307640722958727 14.588047876843046
50.96497918290166 4.75267132659799 26.550813758737963 19.661494097565715
67.49393167281522 5.652038204871218 36.518496822421326 25.323396645522656
85.9730979460404 6.6192689469912445 47.839144298286456 31.514684700762732
106.40661422508902 7.569803264756487 60.708360533892474 38.12845042644001
127.97164373175592 8.336050831324592 74.64701247266808 44.988580427763196
149.08548305664635 8.51832892358192 88.84508237125843 51.72207176180599
166.40329784301107 7.445682439508786 101.4432338906235 57.514381512878856
175.2923544505911 5.58942413176845 108.884406035153 60.81852428366963
171.67377817639206 6.180869987265671 105.990279232175 59.50262895695125
184.07318821821065 28.5205766728096 99.10630258829339 56.446308957107696
171.67377817636074 6.180869987258408 105.99027923215823 59.50262895694408
175.29235445054894 5.589424131797396 108.88440603510412 60.8185242836475
166.4032978429466 7.445682439533002 101.44323389056255 57.51438151285103
149.085483056544 8.518328923581535 88.84508237118881 51.72207176177372
127.97164373166038 8.336050831342765 74.6470124725914 44.98858042772621
106.40661422497683 7.569803264754744 60.70836053381898 38.1284504264031
85.9730979459289 6.6192689469848505 47.839144298217704 31.514684700726374
67.49393167270995 5.652038204867114 36.51849682235629 25.323396645486547
50.96497918280843 4.7526713265950855 26.550813758681322 19.661494097532017
36.83327165023972 3.9375830505167366 18.307640722910804 14.58804787681218
25.04949874448468 3.1896642098781487 11.674944270960465 10.184890263646075
15.74699588454964 2.5041728072676865 6.701279746866612 6.541543330415347
8.95884440973928 1.8936501537905868 3.3313398139365447 3.7338544420121456
4.463913964161133 1.3757421994168377 1.3082724754156037 1.7798992893286938
1.925302148484608 0.953357929468422 0.3661483234420492 0.6057958955741376
0.7094895765859811 0.5803851269889708 0.03405166054132137 0.09505278905568892
0.2887799461646132 0.29246137937002753 -0.0009353693730771533 -0.0027460638323372286
0.12535321104925354 0.12535321104925354 0.0 0.0
0.038497602369616093 0.038497602369616093 0.0 0.0
0.007205481479723728 0.007205481479723728 0.0 0.0
0.0034218793023353808 0.0034218793023353808 0.0 0.0
0.026784113848846332 0.026784113848846332 0.0 0.0
0.11598684664599346 0.11598684664599346 0.0 0.0
0.3308115348563385 0.3307537738066264 -0.0007629556948137799 0.0008207167445256642
0.9313421202008226 0.6799944619684194 0.07946676631946639 0.17188089191293668
2.464559156447486 1.0679317477629207 0.5429629058492981 0.8536645028352677
5.493945321227623 1.5120002263297079 1.7495580329951896 2.2323870619027235
10.642389430267055 2.0814799224951788 4.126638890087599 4.434270617684277
18.37258609295359 2.777436259807107 8.041920227175297 7.553229605971188
28.91861424883666 3.5781550106270856 13.739955930917104 11.600503307292472
42.337703165877585 4.455115151909814 21.369658902605014 16.512929111362723
58.595711303658796 5.411023687994215 30.990148084587254 22.194539531077318
77.3043220418825 6.443513517262711 42.30276660528787 28.558041919331934
98.52275380635442 7.492303480051477 55.53017425286992 35.500276073433014
121.60632499981875 8.437109184961297 70.2923626797657 42.87685313509178
145.58052112334968 9.054943221625557 86.09450784438046 50.43107005734365
168.86020241846072 9.100360408411548 102.02066920765124 57.73917280239792
188.78360081391088 8.240748186000907 116.40718690035646 64.13566572755349
200.2272722386383 5.79224274402379 126.08230820499692 68.35272128961758
199.47038099988188 6.1928874787003725 125.30196688113143 67.97552664004996
215.13371202114982 30.389711687539386 119.32384424947747 65.42015608413297
199.4703809998424 6.192887478692092 125.30196688111016 67.97552664004013
200.22727223857575 5.792242744036094 126.0823082049449 68.3527212895948
188.7836008137989 8.240748185988073 116.40718690028783 64.13566572752305
168.86020241833464 9.100360408401905 102.020669207571 57.739172802361665
145.5805211232111 9.054943221611174 86.094507844296 50.431070057303984
121.60632499968408 8.437109184954567 70.29236267967975 42.87685313504974
98.52275380622545 7.492303480045794 55.530174252788264 35.50027607339136
77.30432204176235 6.443513517256935 42.302766605213655 28.558041919291732
58.59571130355064 5.411023687986623 30.990148084523426 22.194539531040576
42.33770316579109 4.455115151910096 21.369658902551485 16.512929111329512
28.91861424876341 3.5781550106154616 13.739955930880466 11.600503307267491
18.37258609290378 2.7774362598036237 8.041920227149012 7.553229605951136
10.64238943023225 2.081479922489529 4.126638890072086 4.434270617670632
5.493945321206988 1.5120002263261196 1.7495580329868958 2.232387061893972
2.464559156438475 1.0679317477608605 0.542962905846195 0.8536645028314204
0.9313421201979244 0.679994461967339 0.07946676631877234 0.1718808919118126
0.33081153485549636 0.33075377380577486 -0.0007629556948231227 0.0008207167445446889
0.11598684664585626 0.11598684664585626 0.0 0.0
0.02678411384874499 0.02678411384874499 0.0 0.0
0.003421879302321397 0.003421879302321397 0.0 0.0
0.0011121718832793864 0.0011121718832793864 0.0 0.0
0.019802818070194905 0.019802818070194905 0.0 0.0
0.12300652398526188 0.12300652398526188 0.0 0.0
0.41864012731034295 0.40044277328572697 0.0033998460480357037 0.014797507976580356
1.2465939980382534 0.8428754387885493 0.1401691373768876 0.26354942187281677
3.146126765964067 1.3525152156740292 0.7228779947264055 1.0707335555636308
6.699959792188444 1.9830208777126261 2.1194268047922593 2.597512109683555
12.592437491062887 2.844231059984651 4.772877876166312 4.975328554911932
21.377433643656538 3.9851938767507296 9.069270882270127 8.322968884635694
33.44731627249323 5.421220949456956 15.354503860219264 12.671591462817002
48.89619965886171 7.1410637299745074 23.78896548669826 17.966170442188982
67.49618532370532 9.118652612441927 34.26696326884213 24.110569442421244
89.16869112778296 11.293519380481401 46.87833578002983 30.99683596727174
113.49907507492871 13.543684994843257 61.452287590475805 38.503102489609674
139.65578662654764 15.538313679075925 77.67929813624231 46.4381748112293
166.2081641843142 16.784126314070335 94.93652592028818 54.48751194995575
191.0802834886601 16.822669727954036 112.05418149736941 62.20343226333658
212.04462415194212 15.72206556775575 127.40075805379755 68.92180053038888
226.4003574410542 14.057061214921378 138.61204259449875 73.73125363163413
222.10987071674558 6.365496553814957 140.9434490547957 74.80092510813498
303.0568064498208 91.43532061309195 138.16529941122872 73.45618642550008
222.1098707166874 6.365496553791193 140.9434490547711 74.80092510812504
226.40035744097491 14.057061214922888 138.61204259444162 73.7312536316104
212.0446241518112 15.722065567739602 127.40075805371833 68.92180053035337
191.08028348850414 16.822669727927952 112.05418149727979 62.20343226329649
166.2081641841598 16.78412631405289 94.9365259201935 54.48751194991327
139.65578662640684 15.538313679077767 77.67929813614592 46.43817481118324
113.49907507479682 13.543684994848228 61.45228759038467 38.50310248956393
89.1686911276485 11.29351938047082 46.87833577994867 30.99683596722905
67.49618532358105 9.118652612427681 34.2669632687718 24.110569442381546
48.896199658756835 7.141063729959483 23.788965486642294 17.966170442155054
33.44731627241477 5.421220949448804 15.35450386017689 12.671591462789072
21.37743364360136 3.985193876747236 9.069270882240389 8.322968884613754
12.592437491022846 2.8442310599767233 4.772877876148921 4.975328554897202
6.699959792164213 1.9830208777070382 2.1194268047829685 2.5975121096742053
3.1461267659523466 1.3525152156702476 0.7228779947229622 1.070733555559137
1.2465939980339433 0.8428754387875238 0.1401691373755957 0.2635494218708238
0.418640127309285 0.40044277328491207 0.003399846047973356 0.01479750797639898
0.12300652398504583 0.12300652398504583 0.0 0.0
0.019802818070130474 0.019802818070130474 0.0 0.0
0.0011121718832518691 0.0011121718832518691 0.0 0.0
CELL_DATA 800
SCALARS Stress float 6
LOOKUP_TABLE default
171.40088865834008 -524.622627277666 -181.95479162092943 -110.81631166797666 0.0 0.0
404.4372303894903 -84.7367472464799 115.65423424403926 54.403033348128254 0.0 0.0
421.1110601922808 7.762744408457784 128.781486860225 -2.623250664115692 0.0 0.0
480.1372004394687 -16.90821669203151 152.14860209942364 -15.764166261440703 0.0 0.0
558.5578828140417 -23.705404735503244 213.9015447539929 -11.685267281908578 0.0 0.0
634.3063869486534 -20.275513177712263 285.3246367488026 -10.467390676957177 0.0 0.0
707.5385802138156 -14.77173561884942 338.6680319285284 -11.453249652076764 0.0 0.0
782.0370667296445 -0.870324362211818 386.60967575024563 -13.461053359928819 0.0 0.0
859.9381220125308 21.985868512405787 438.01817915375966 -15.357353760240551 0.0 0.0
940.4966352370113 52.38885965349266 494.0247216230249 -16.548916511731555 0.0 0.0
1021.5797213148116 87.68074360761176 552.5940885777451 -17.01599320135132 0.0 0.0
1101.7574946031596 126.47953910583337 612.3652127419898 -16.995123178995676 0.0 0.0
1181.214912589551 167.87266615202861 672.989666555912 -16.814070452321992 0.0 0.0
1260.7963541739796 212.4313135616362 735.1983059024435 -16.482374551734434 0.0 0.0
1340.9762077504072 260.6391031500716 799.4936031940999 -15.84915184573194 0.0 0.0
1420.899555793897 311.7740701108196 865.1040430541809 -14.716076289946535 0.0 0.0
1498.1024839164006 363.81419151938337 929.7950903662652 -12.987406685277893 0.0 0.0
1570.340886875006 415.11274007048036 991.6065914665908 -11.055985048115257 0.0 0.0
1638.207198491719 467.115615885146 1051.4969340976486 -10.831477255782577 0.0 0.0
1742.9450737211125 563.1555025837598 1151.3935542700124 -18.062163378753816 0.0 0.0
1742.9450737220798 563.1555025847463 1151.3935542706963 18.06216337868042 0.0 0.0
1638.207198490991 467.1156158844698 1051.49693409704 10.831477255999152 0.0 0.0
1570.340886874388 415.11274006994256 991.6065914659987 11.055985048049871 0.0 0.0
1498.1024839150878 363.81419151816664 929.7950903651229 12.987406685262185 0.0 0.0
1420.8995557914336 311.77407010848435 865.104043052191 14.716076289979664 0.0 0.0
1340.9762077495643 260.6391031493775 799.4936031933455 15.84915184564834 0.0 0.0
1260.7963541736435 212.43131356147688 735.1983059021212 16.482374551631434 0.0 0.0
1181.214912589503 167.87266615217248 672.989666555836 16.814070452135557 0.0 0.0
1101.757494602197 126.47953910508687 612.3652127413154 16.99512317901912 0.0 0.0
1021.5797213138862 87.68074360693322 552.5940885770805 17.015993201282484 0.0 0.0
940.4966352372132 52.388859653964374 494.024721623116 16.548916511685523 0.0 0.0
859.9381220132682 21.985868513444103 438.0181791541946 15.357353760194986 0.0 0.0
782.037066729817 -0.870324361769292 386.60967575033203 13.461053360093493 0.0 0.0
707.5385802133171 -14.77173561904847 338.6680319282192 11.453249652074385 0.0 0.0
634.3063869478876 -20.275513178236793 285.32463674827284 10.467390677038637 0.0 0.0
558.5578828133 -23.705404736015456 213.90154475347074 11.685267281921929 0.0 0.0
480.1372004390816 -16.90821669217307 152.14860209921312 15.764166261428262 0.0 0.0
421.1110601921307 7.762744408465404 128.78148686019392 2.6232506641439812 0.0 0.0
404.43723038939333 -84.7367472465749 115.65423424394186 -54.40303334799965 0.0 0.0
171.40088865875896 -524.6226272772511 -181.9547916204687 110.81631166766488 0.0 0.0
70.61196459065562 -550.8301799786957 -243.51446998530446 -161.47804048277828 0.0 0.0
281.2298572142025 -78.92102364101524 61.079665714461946 8.236954571262284 0.0 0.0
370.0510423293046 34.50045374868412 121.38120392855673 -9.582115335882492 0.0 0.0
445.34274619760237 -15.428672293703928 134.7926218251644 -36.264337525779425 0.0 0.0
531.1879288783014 -23.702573322870826 190.94014034936146 -33.68981108678913 0.0 0.0
611.1662479556289 -20.857606869488244 266.35709101541175 -30.97743558338005 0.0 0.0
688.0068992721053 -14.66450783919273 326.358655118698 -32.39171815072368 0.0 0.0
763.4440624571041 -0.8320993457396213 376.48288007608653 -35.430619398351155 0.0 0.0
839.8147145940163 20.57739641365427 426.86353400071283 -38.231549407877196 0.0 0.0
916.9467216340545 48.095147149869064 479.8810164022325 -39.604060828936404 0.0 0.0
993.2880978668336 79.4373037518078 534.1750340105173 -39.66334768786739 0.0 0.0
1068.4000634104962 113.46935345087294 589.0566326592054 -39.06987720076253 0.0 0.0
1142.545839364036 150.41482421772366 644.8247782888975 -38.22745273299602 0.0 0.0
1216.5068987865097 190.09714855420415 701.8123529505293 -37.163175327087416 0.0 0.0
1290.4609334339598 232.5719898763508 760.1510430215766 -35.60675956961214 0.0 0.0
1363.928399022579 277.5724620299019 819.4788812065989 -33.17366872217787 0.0 0.0
1436.0354022480735 324.61458048297106 879.1117322324643 -29.84616884358785 0.0 0.0
1506.6469854407258 374.3184693806947 939.264020725918 -26.661045329522892 0.0 0.0
1583.4786397181192 435.6165051536019 1008.1863558875093 -25.440028881443084 0.0 0.0
1640.7953503528242 484.1380871942652 1060.9995910315806 -26.328395890604263 0.0 0.0
1640.795350353718 484.1380871951976 1060.9995910322866 26.328395890700172 0.0 0.0
1583.4786397187904 435.61650515434076 1008.1863558879357 25.440028881690914 0.0 0.0
1506.6469854419865 374.31846938204836 939.2640207268844 26.661045329543896 0.0 0.0
1436.0354022493455 324.6145804843554 879.1117322334054 29.846168843554146 0.0 0.0
1363.9283990249046 277.5724620323662 819.4788812083152 33.173668722140604 0.0 0.0
1290.4609334334598 232.57198987600543 760.1510430212957 35.60675956962327 0.0 0.0
1216.5068987861557 190.09714855402353 701.8123529503903 37.1631753270961 0.0 0.0
1142.5458393626113 150.41482421645634 644.8247782879713 38.227452732835616 0.0 0.0
1068.400063410109 113.4693534506975 589.0566326589062 39.069877200623644 0.0 0.0
993.2880978669418 79.43730375215912 534.1750340106155 39.66334768782576 0.0 0.0
916.9467216338726 48.095147149938015 479.8810164021447 39.604060828875696 0.0 0.0
839.8147145940577 20.577396413952812 426.86353400076746 38.231549407852256 0.0 0.0
763.4440624567475 -0.8320993457848544 376.48288007586996 35.43061939844946 0.0 0.0
688.006899272132 -14.66450783887359 326.3586551186592 32.391718150570185 0.0 0.0
611.1662479553288 -20.857606869483632 266.3570910151522 30.977435583406454 0.0 0.0
531.1879288784414 -23.702573322314045 190.94014034938627 33.689811086789575 0.0 0.0
445.3427461978001 -15.428672293025894 134.79262182536388 36.26433752571669 0.0 0.0
370.0510423290172 34.5004537482101 121.38120392833285 9.58211533582998 0.0 0.0
281.22985721418735 -78.92102364097043 61.079665714480896 -8.23695457134008 0.0 0.0
70.61196459086636 -550.8301799784784 -243.5144699850439 161.4780404825291 0.0 0.0
15.307097410009106 -560.9709580328487 -270.4688634292108 -177.22145406788695 0.0 0.0
157.61497854758707 -66.54985977017215 27.31953563322447 -47.094376878976405 0.0 0.0
300.4552023771643 38.63371677109435 101.7266757444776 -34.29407962066785 0.0 0.0
400.70550686985735 -6.156501945761587 120.04878776271472 -56.88394615730594 0.0 0.0
495.224384823299 -22.460930300756825 166.9290558266032 -57.75271536227655 0.0 0.0
584.3528019831851 -22.56245045096502 242.67637973406352 -53.06717364607129 0.0 0.0
664.4360048433714 -13.706027190200516 311.19647916611507 -53.70114376572475 0.0 0.0
740.3969965933586 -0.7059505783805449 363.78497665452915 -57.23203318455329 0.0 0.0
815.4398896353173 19.16302322760778 413.4862474295227 -60.51584416929464 0.0 0.0
889.0762487925122 43.500963514866925 463.38353605825637 -61.83009485942617 0.0 0.0
960.906552192226 70.80970638683705 513.4843626312586 -61.48009816204023 0.0 0.0
1030.9567279843163 100.62440174438348 563.7661586142156 -60.342566008892405 0.0 0.0
1099.9911999179849 132.68808954187855 614.5676198382168 -58.960521410817556 0.0 0.0
1168.127205516078 167.19803711734681 666.0889515550041 -57.2009005921246 0.0 0.0
1235.6684476304504 203.71982867559268 718.2732699928924 -54.78603932945994 0.0 0.0
1302.8786256966828 242.58297945085081 771.411805360598 -51.35839913162594 0.0 0.0
1370.3501685840456 284.91522498149203 826.3508888909269 -47.01211500137925 0.0 0.0
1440.2313888746958 333.76623618797896 885.6791487607304 -42.68395993703527 0.0 0.0
1506.285062498628 383.935828488572 943.7347408445374 -38.45408932023528 0.0 0.0
1553.6715923125764 421.6117032330321 986.1959048490369 -33.24712086556293 0.0 0.0
1553.6715923121887 421.6117032326787 986.1959048486024 33.2471208658782 0.0 0.0
1506.2850624976406 383.9358284876518 943.7347408437251 38.454089320304305 0.0 0.0
1440.2313888739216 333.7662361872537 885.6791487600772 42.68395993694453 0.0 0.0
1370.3501685841636 284.9152249816988 826.3508888909471 47.01211500137474 0.0 0.0
1302.8786256969847 242.58297945129794 771.4118053606346 51.358399131724546 0.0 0.0
1235.668447630195 203.71982867548041 718.2732699925429 54.7860393293882 0.0 0.0
1168.127205515852 167.19803711727553 666.0889515547126 57.20090059210355 0.0 0.0
1099.9911999173696 132.6880895414791 614.5676198376991 58.96052141095069 0.0 0.0
1030.9567279851442 100.62440174549056 563.76615861472 60.34256600906667 0.0 0.0
960.9065521910491 70.8097063858894 513.4843626304344 61.48009816206056 0.0 0.0
889.0762487917531 43.500963514354 463.3835360577329 61.8300948594054 0.0 0.0
815.4398896358628 19.163023228473378 413.48624742986146 60.51584416939279 0.0 0.0
740.3969965925131 -0.705950578930441 363.78497665399516 57.23203318460892 0.0 0.0
664.436004842528 -13.7060271908135 311.19647916553674 53.70114376548511 0.0 0.0
584.3528019832906 -22.562450450566914 242.67637973402137 53.0671736459255 0.0 0.0
495.22438482260515 -22.460930301286687 166.92905582613747 57.752715362146816 0.0 0.0
400.70550686955164 -6.15650194591081 120.04878776258687 56.88394615710342 0.0 0.0
300.45520237727806 38.63371677133828 101.72667574458487 34.29407962058245 0.0 0.0
157.61497854802928 -66.54985976942142 27.319535633582355 47.09437687886538 0.0 0.0
15.30709741010017 -560.970958032618 -270.4688634289908 177.22145406774575 0.0 0.0
-6.090442551500615 -550.9922869796693 -269.48803450990204 -179.22892928948409 0.0 0.0
89.8064265184103 -61.260128185264705 8.56388949994368 -94.05255346639497 0.0 0.0
234.71012155691795 34.82489807691416 80.86050589014962 -67.93095791009976 0.0 0.0
346.4938444734417 3.672239607958412 105.2816687239434 -79.40192802821284 0.0 0.0
449.5589689728209 -20.56856092191653 142.30843309574556 -84.38424182755062 0.0 0.0
548.2275805638985 -22.47509153306044 214.92898212107076 -76.91947420101334 0.0 0.0
634.2748718882549 -13.883834089490314 290.19058655423584 -75.66759906899867 0.0 0.0
712.7105933666968 -0.012091054413815527 348.3671575605131 -78.9407121501813 0.0 0.0
786.0896583640902 17.557769283575055 397.3302737561544 -82.18092271014898 0.0 0.0
856.4621461185122 38.69488037718256 444.329178603573 -83.24030327822592 0.0 0.0
923.9670942090991 62.07323081970546 490.41941686547295 -82.4737403287842 0.0 0.0
989.2407824517041 87.52224817443629 536.1829227432236 -80.87867843314896 0.0 0.0
1052.857845783733 114.8789912615825 581.95802794179 -78.93827412296503 0.0 0.0
1115.4418418590085 144.06592152685442 628.0789767089167 -76.56351532509348 0.0 0.0
1176.6943189958047 174.48535768367844 674.1005268323003 -73.4428486257545 0.0 0.0
1237.414442277573 207.20251343437485 720.9324128282019 -69.32444890776233 0.0 0.0
1300.106100068675 244.56418087002635 770.987313170282 -64.32049650251572 0.0 0.0
1364.390193869076 287.25837424528373 824.4553491346643 -58.573758039225105 0.0 0.0
1424.2903761143502 330.2001934444489 875.8402623321135 -51.09116080041042 0.0 0.0
1468.229019342938 362.7635848610806 914.0309924024494 -40.524283423488754 0.0 0.0
1468.2290193418403 362.76358486004017 914.0309924018605 40.52428342387203 0.0 0.0
1424.2903761133493 330.2001934435068 875.8402623315096 51.091160800447426 0.0 0.0
1364.3901938697193 287.25837424601656 824.4553491349927 58.57375803929416 0.0 0.0
1300.1061000692737 244.5641808707266 770.9873131705866 64.32049650249463 0.0 0.0
1237.4144422775787 207.20251343454174 720.9324128282534 69.32444890786019 0.0 0.0
1176.6943189965473 174.48535768459823 674.1005268328383 73.44284862581628 0.0 0.0
1115.4418418594228 144.06592152742758 628.078976709125 76.5635153250405 0.0 0.0
1052.8578457831381 114.87899126115241 581.958027941313 78.93827412289741 0.0 0.0
989.2407824512434 87.5222481741726 536.1829227428943 80.87867843309203 0.0 0.0
923.9670942100215 62.07323082088274 490.41941686600467 82.47374032884926 0.0 0.0
856.4621461188455 38.69488037779459 444.32917860378814 83.24030327819739 0.0 0.0
786.0896583638831 17.55776928360396 397.3302737560239 82.18092271008635 0.0 0.0
712.7105933659952 -0.012091054929967981 348.36715756003326 78.9407121499261 0.0 0.0
634.2748718876051 -13.883834089863555 290.19058655376716 75.66759906896604 0.0 0.0
548.2275805636672 -22.475091532995833 214.92898212082812 76.91947420089792 0.0 0.0
449.55896897224807 -20.56856092216486 142.3084330954289 84.3842418275487 0.0 0.0
346.49384447320335 3.672239607738528 105.28166872381873 79.40192802822101 0.0 0.0
234.7101215570434 34.82489807711433 80.8605058902473 67.93095790997167 0.0 0.0
89.80642651866438 -61.260128184899614 8.563889500129424 94.05255346609606 0.0 0.0
-6.090442551492401 -550.9922869795221 -269.488034509742 179.22892928938498 0.0 0.0
-11.37559818447835 -528.9283181324901 -252.90804141642653 -176.38153820858813 0.0 0.0
52.77923755713969 -57.21007766926563 -1.3292520336377827 -130.64048792838383 0.0 0.0
178.5807657170563 27.8009819203915 61.91452429123433 -101.9167030043481 0.0 0.0
288.4702444198202 10.500321995729571 89.72680177382533 -103.27511213596662 0.0 0.0
392.63295822047553 -16.258426939411834 118.74034969070883 -112.01669658910947 0.0 0.0
501.3502979998914 -21.960594315941854 183.29845995663885 -103.83845426482172 0.0 0.0
596.9280973711957 -14.304394279583573 263.0536732618527 -99.03911426568759 0.0 0.0
678.6987507917825 0.20989732978159026 328.27225362973746 -100.61404225651718 0.0 0.0
751.1992432392951 16.022221198650165 378.0479743974558 -103.24656166136265 0.0 0.0
818.4593436300927 33.720524920732764 422.36123225191596 -103.88859410238476 0.0 0.0
881.9267604320441 53.24487509453583 464.6839616934416 -102.65201003966006 0.0 0.0
942.2681915225971 74.2913094621519 505.86362824575355 -100.61711980692611 0.0 0.0
1000.616084032958 96.81070392894154 546.6399997152017 -98.25645525827734 0.0 0.0
1057.3884883396756 120.79134687750988 587.2841196815775 -95.25465693953056 0.0 0.0
1112.6818628207197 145.53241514712698 627.5237614957174 -91.51142194584467 0.0 0.0
1167.3038731804857 171.8524102216715 668.1413877359915 -87.01558543501194 0.0 0.0
1222.9728724836868 202.14813758178556 711.1716866830945 -81.53660529632843 0.0 0.0
1280.8590497974342 237.61062274705134 757.831689437882 -74.52725551975266 0.0 0.0
1336.596572382731 274.590857996928 804.1534881489127 -64.13732530021417 0.0 0.0
1380.8554918962948 304.9596060142438 841.3897398894102 -48.78659449943844 0.0 0.0
1380.8554918976524 304.95960601567583 841.3897398903888 48.78659449973205 0.0 0.0
1336.596572382457 274.5908579967969 804.1534881487917 64.13732530062767 0.0 0.0
1280.8590497941534 237.61062274384307 757.8316894355426 74.52725551986893 0.0 0.0
1222.972872482348 202.1481375804862 711.171686682052 81.53660529620743 0.0 0.0
1167.303873180424 171.85241022173528 668.1413877357986 87.01558543497862 0.0 0.0
1112.6818628201522 145.5324151466234 627.5237614952912 91.51142194570592 0.0 0.0
1057.3884883393496 120.79134687739793 587.2841196813384 95.25465693967467 0.0 0.0
1000.6160840329552 96.81070392912574 546.6399997152137 98.25645525827397 0.0 0.0
942.2681915223504 74.2913094621394 505.8636282455698 100.61711980704388 0.0 0.0
881.9267604318741 53.24487509460715 464.6839616932672 102.65201003965149 0.0 0.0
818.4593436297012 33.72052492059544 422.3612322515653 103.88859410239628 0.0 0.0
751.1992432393097 16.02222119899497 378.0479743974972 103.24656166142742 0.0 0.0
678.6987507915443 0.2098973298984248 328.27225362956057 100.61404225660351 0.0 0.0
596.9280973708615 -14.30439427953469 263.0536732615831 99.03911426573208 0.0 0.0
501.35029799958824 -21.960594315857197 183.29845995639243 103.83845426484511 0.0 0.0
392.6329582201844 -16.258426939121303 118.7403496906677 112.01669658913704 0.0 0.0
288.470244419956 10.500321996238391 89.72680177402724 103.2751121358877 0.0 0.0
178.58076571702904 27.800981920135822 61.914524291149455 101.91670300430964 0.0 0.0
52.779237557043075 -57.21007766918503 -1.329252033642586 130.64048792817033 0.0 0.0
-11.375598184235486 -528.9283181321076 -252.90804141611412 176.38153820846512 0.0 0.0
-9.377318244221527 -498.7084638564303 -227.0859487134651 -172.31353929018212 0.0 0.0
31.423945785909495 -52.76978395237475 -6.403751449939575 -157.99509602001723 0.0 0.0
131.21366216720537 20.240300100451314 45.43618868029699 -131.76643441764614 0.0 0.0
230.2454975613136 13.294006586104713 73.05787478564193 -127.37151673953002 0.0 0.0
326.3072838016413 -9.274858248103031 97.22668442385705 -137.82632895547357 0.0 0.0
438.21875076161894 -21.01704312303562 148.38116600838566 -134.09924947560728 0.0 0.0
546.3435815926852 -13.747697134550592 228.17883843005092 -124.72477482436244 0.0 0.0
634.9225750313238 -0.7479959092320705 300.3817194866447 -122.90128260007985 0.0 0.0
709.194623923341 14.159927375595977 354.1866806299706 -123.97456302641395 0.0 0.0
773.9589655776085 28.737008953159418 396.8543901468269 -123.77956851575848 0.0 0.0
833.3331036083011 44.27355346772715 435.4710094938646 -122.03241959280226 0.0 0.0
888.9517085247965 61.025370024693395 472.28956819670066 -119.57390901706127 0.0 0.0
941.7652924308751 78.71229586171407 507.9641743053246 -116.80996924149703 0.0 0.0
992.8510501896848 97.31901877415778 543.1159668469137 -113.41803568802095 0.0 0.0
1042.7382253737028 116.80043239918817 578.0552824865601 -109.12579240195272 0.0 0.0
1090.6660000870381 136.94932073557914 612.3023337120444 -104.13616262249683 0.0 0.0
1138.4260879245096 158.76577554068 647.1907767578526 -98.47818998105713 0.0 0.0
1188.7193948776353 185.36121995336515 685.6272324661381 -90.79447834765413 0.0 0.0
1240.97825657113 216.5842083984094 727.3041094018723 -78.19408210945855 0.0 0.0
1288.4489440997606 246.5767445822332 765.9103456947929 -58.723583751345195 0.0 0.0
1288.4489440991051 246.57674458165786 765.9103456943877 58.72358375163366 0.0 0.0
1240.9782565705232 216.58420839791472 727.3041094015887 78.19408210970391 0.0 0.0
1188.7193948784789 185.3612199543923 685.6272324667319 90.7944783479108 0.0 0.0
1138.4260879266421 158.76577554296108 647.1907767592365 98.47818998120188 0.0 0.0
1090.6660000863494 136.949320734963 612.3023337115606 104.13616262239992 0.0 0.0
1042.7382253739097 116.80043239957695 578.0552824865508 109.12579240202516 0.0 0.0
992.8510501879263 97.3190187725167 543.1159668456826 113.4180356879921 0.0 0.0
941.765292429852 78.71229586080545 507.96417430452254 116.8099692414284 0.0 0.0
888.951708523308 61.0253700233161 472.28956819559124 119.5739090169314 0.0 0.0
833.3331036080137 44.27355346755641 435.4710094936709 122.03241959264032 0.0 0.0
773.9589655763215 28.737008952021853 396.85439014602224 123.77956851562841 0.0 0.0
709.1946239224071 14.159927374842425 354.18668062929635 123.97456302628203 0.0 0.0
634.9225750313512 -0.747995908845553 300.3817194866346 122.90128260007484 0.0 0.0
546.3435815925791 -13.747697134246508 228.1788384298803 124.72477482434076 0.0 0.0
438.21875076172984 -21.017043122500354 148.38116600843347 134.0992494754707 0.0 0.0
326.30728380126334 -9.274858248348988 97.2266844236691 137.82632895523938 0.0 0.0
230.2454975613072 13.294006586254175 73.05787478568627 127.3715167393492 0.0 0.0
131.21366216748504 20.24030010096159 45.43618868053399 131.7664344173771 0.0 0.0
31.423945785888144 -52.769783952054496 -6.403751449849905 157.9950960197226 0.0 0.0
-9.377318244189325 -498.70846385626265 -227.08594871325374 172.313539290066 0.0 0.0
-3.9477767420353587 -461.9753231641357 -195.43749539208335 -168.58392954830313 0.0 0.0
17.372986414437552 -48.54590158156636 -9.35167235459702 -177.31607771547033 0.0 0.0
89.91708499513706 13.367612346645616 30.984791235360667 -155.6462064808694 0.0 0.0
172.3090998066023 14.252738424250893 55.96542789156877 -149.78301222432896 0.0 0.0
254.78830787395705 -2.3093742664270946 76.71136208747319 -160.0728458291826 0.0 0.0
359.5924131267886 -17.24134249100096 113.62239133632414 -165.5200910507478 0.0 0.0
477.3617332649951 -13.699354928562183 184.53815780192468 -154.3175942724673 0.0 0.0
577.5825977614971 -1.47547986044769 262.47992014862496 -146.6852294153246 0.0 0.0
655.9162318549756 11.373158124914585 322.1765519263489 -144.78003884768063 0.0 0.0
720.2821076674825 23.581912207327576 365.94412967239975 -143.1229326217083 0.0 0.0
775.8254824567896 35.15636927520521 401.4366048901833 -140.634605018792 0.0 0.0
826.8373708069685 47.833427195834304 434.2109616676611 -137.7321803475728 0.0 0.0
874.0744244056781 60.65654708501947 464.81755128945076 -134.6407060744516 0.0 0.0
919.010976233817 73.90028178083044 494.29804749183063 -131.01022930578262 0.0 0.0
963.0578214018099 87.94768040648572 523.618818762337 -126.3539920452716 0.0 0.0
1005.9894152583437 102.7718865708808 552.7720918845376 -120.79484789338039 0.0 0.0
1045.1262749749453 115.97422054737243 579.1636776280702 -114.82038184440553 0.0 0.0
1085.3388509215508 131.4337697173528 607.0181568720525 -107.28294325039847 0.0 0.0
1133.4955968555207 155.0067926777514 642.7549495015556 -93.86858283712087 0.0 0.0
1187.0996145174954 185.9478654772588 684.7977625210854 -71.35626590262929 0.0 0.0
1187.0996145169452 185.94786547674641 684.7977625206701 71.35626590275672 0.0 0.0
1133.4955968553693 155.00679267775377 642.7549495014002 93.86858283746696 0.0 0.0
1085.3388509210085 131.43376971691583 607.0181568717808 107.28294325055185 0.0 0.0
1045.1262749737705 115.97422054620989 579.1636776273195 114.82038184432932 0.0 0.0
1005.9894152582608 102.77188657088158 552.772091884533 120.79484789337242 0.0 0.0
963.0578214020052 87.94768040688018 523.6188187625646 126.35399204536658 0.0 0.0
919.0109762339392 73.9002817811525 494.2980474918726 131.01022930589556 0.0 0.0
874.0744244055285 60.65654708515282 464.81755128931184 134.6407060746988 0.0 0.0
826.8373708061997 47.83342719528389 434.21096166713994 137.73218034757775 0.0 0.0
775.8254824552027 35.156369273573574 401.4366048890477 140.63460501848851 0.0 0.0
720.2821076661825 23.58191220607084 365.9441296715275 143.12293262148623 0.0 0.0
655.9162318542036 11.373158124272535 322.17655192585227 144.78003884756205 0.0 0.0
577.5825977607981 -1.4754798609172184 262.47992014810126 146.68522941525114 0.0 0.0
477.3617332648352 -13.699354928095918 184.53815780182566 154.31759427262415 0.0 0.0
359.5924131265687 -17.24134249061884 113.62239133628653 165.52009105072534 0.0 0.0
254.78830787364683 -2.309374266881857 76.71136208723905 160.07284582884975 0.0 0.0
172.30909980632148 14.252738423719642 55.965427891326144 149.78301222410937 0.0 0.0
89.9170849950776 13.367612346597838 30.984791235329133 155.64620648070488 0.0 0.0
17.372986414511658 -48.54590158128806 -9.351672354491457 177.31607771523693 0.0 0.0
-3.9477767419598706 -461.97532316379255 -195.43749539180732 168.58392954823688 0.0 0.0
1.530308221977144 -420.1059890057048 -162.11239245096385 -166.097360519705 0.0 0.0
4.847769549749195 -45.28726756214351 -12.131803320732043 -188.78151896567383 0.0 0.0
52.27993086289041 7.91313430072795 18.058098425664042 -173.50010740950506 0.0 0.0
115.2907965825819 15.191718415894169 39.157041458986534 -168.41923996227885 0.0 0.0
181.31597053711747 2.409355142755004 55.676488527704066 -179.27106575708953 0.0 0.0
264.3039291270375 -9.852194172811657 80.81699844003566 -192.0556688761868 0.0 0.0
380.1263493831881 -12.199366116720512 133.74103409834692 -188.17832858429563 0.0 0.0
496.488911013583 -2.619885306582618 209.61710587290227 -174.3867675358728 0.0 0.0
584.8948405330545 8.179146474476763 276.59551809168255 -166.60350581751422 0.0 0.0
650.6408365896209 17.82441045784498 324.41211551579494 -162.21306135777192 0.0 0.0
704.0229584539028 25.826533194941845 359.21007395311256 -158.70558956413268 0.0 0.0
750.1956952230903 34.56120898015163 388.4377599777207 -155.170084836903 0.0 0.0
791.765011599738 42.928252771318625 414.3703260829733 -151.67205203751038 0.0 0.0
830.2341593395381 50.76163108793976 438.1112237990581 -147.9760870564109 0.0 0.0
867.824912941614 58.91486349626577 461.3398335863886 -143.3642618108577 0.0 0.0
905.7944354491119 68.48328625899997 485.3809418075568 -137.21144476414344 0.0 0.0
940.2390168871641 76.07927594603774 506.78254145164874 -130.38373424147454 0.0 0.0
967.6492228580395 77.86441862636647 521.5914213572264 -123.42020131530921 0.0 0.0
1006.1151621859044 88.34034342271923 545.8026564310092 -111.42180393250419 0.0 0.0
1068.2344958859117 120.48074047226669 592.4574475594416 -88.20090273691231 0.0 0.0
1068.2344958863246 120.48074047270234 592.4574475597796 88.20090273699118 0.0 0.0
1006.1151621855934 88.34034342255035 545.8026564309499 111.42180393282045 0.0 0.0
967.6492228562561 77.86441862460458 521.5914213560243 123.42020131539917 0.0 0.0
940.2390168855645 76.07927594456675 506.78254145047094 130.38373424152462 0.0 0.0
905.794435449671 68.48328625981026 485.3809418076827 137.21144476438994 0.0 0.0
867.8249129411249 58.91486349595152 461.33983358598056 143.36426181092992 0.0 0.0
830.2341593397267 50.76163108842786 438.1112237992499 147.97608705657913 0.0 0.0
791.7650115984743 42.928252770076824 414.3703260821766 151.67205203739692 0.0 0.0
750.1956952228469 34.561208979815575 388.4377599774763 155.1700848366521 0.0 0.0
704.0229584553989 25.826533196972434 359.21007395406366 158.70558956436577 0.0 0.0
650.6408365896118 17.824410458266712 324.4121155157957 162.213061357894 0.0 0.0
584.8948405323326 8.179146473974143 276.59551809117465 166.60350581746434 0.0 0.0
496.48891101344844 -2.6198853064531704 209.61710587271335 174.3867675357623 0.0 0.0
380.12634938246384 -12.199366117225974 133.7410340978696 188.17832858417609 0.0 0.0
264.30392912667344 -9.852194173062053 80.81699843981752 192.05566887588043 0.0 0.0
181.31597053718627 2.4093551432724203 55.67648852788109 179.27106575681174 0.0 0.0
115.29079658285711 15.191718416521901 39.157041459263205 168.41923996205776 0.0 0.0
52.2799308627027 7.913134300485847 18.05809842553873 173.5001074092516 0.0 0.0
4.84776954960322 -45.28726756230608 -12.13180332082596 188.78151896547035 0.0 0.0
1.5303082219905804 -420.1059890054178 -162.1123924507469 166.09736051962926 0.0 0.0
3.779304659953162 -373.8414941214143 -131.11265745604032 -163.41931220191165 0.0 0.0
-10.307612502100344 -44.298829125865886 -16.385097223281516 -194.37204652380052 0.0 0.0
16.73685189904363 4.586027010342367 6.400181146817395 -185.52825884092078 0.0 0.0
59.74687396003134 16.36014358329232 22.85765288883748 -182.43636531140072 0.0 0.0
105.62082422489478 6.448312235020963 33.97572980079812 -194.11540957408704 0.0 0.0
159.78304349611562 -3.1309567580590185 48.86769959882908 -211.1714952613045 0.0 0.0
247.28941415991255 -5.93207699409358 80.73970316059697 -219.1074004410845 0.0 0.0
367.34218951216025 -2.7419527697872486 137.64085365274926 -208.65328649585027 0.0 0.0
474.6645706321329 4.989410021954747 204.95034372735563 -192.5629143812396 0.0 0.0
548.1938989808099 11.147388056233417 258.85230517613314 -182.24566705412167 0.0 0.0
600.7865702981089 16.759810724087444 297.21847646769965 -176.4069767544975 0.0 0.0
642.225881934289 21.08008619861309 324.8697833464103 -172.05546768953278 0.0 0.0
677.8654630283214 25.352480987723723 347.4277353376307 -168.01093152866596 0.0 0.0
709.5058395522523 28.336950750317683 366.1600168233393 -164.13478489691965 0.0 0.0
739.410511450514 30.259574715693816 382.8255180279596 -159.7703459796557 0.0 0.0
770.7243316108983 32.86506981181071 400.13739942315647 -153.91423758993605 0.0 0.0
804.9236786840705 37.235357246695855 419.7013350949171 -145.71133375685957 0.0 0.0
829.0674435581533 32.66113017023875 430.14286045583856 -137.69799431404772 0.0 0.0
844.5181398536929 15.85592473001006 429.3215381498854 -129.8691610495847 0.0 0.0
913.7579538249425 43.81864644642752 476.6482196304348 -111.97633609247468 0.0 0.0
913.7579538233558 43.81864644495897 476.6482196294508 111.97633609281621 0.0 0.0
844.5181398517725 15.855924728088269 429.32153814870543 129.8691610498341 0.0 0.0
829.0674435570712 32.66113016910248 430.1428604552236 137.69799431397342 0.0 0.0
804.9236786834589 37.235357246127535 419.70133509475386 145.71133375685798 0.0 0.0
770.7243316100046 32.86506981069931 400.13739942268637 153.91423758969756 0.0 0.0
739.4105114499722 30.259574715042163 382.82551802764044 159.77034597946647 0.0 0.0
709.5058395513323 28.336950749410505 366.16001682276953 164.13478489689112 0.0 0.0
677.8654630269316 25.352480986036795 347.4277353366147 168.01093152843742 0.0 0.0
642.2258819334778 21.080086197724 324.86978334579663 172.05546768938993 0.0 0.0
600.7865702978761 16.75981072386125 297.21847646749376 176.40697675439162 0.0 0.0
548.1938989807805 11.147388056452257 258.85230517608045 182.24566705403615 0.0 0.0
474.66457063218814 4.9894100226603655 204.9503437274411 192.56291438148259 0.0 0.0
367.34218951196794 -2.741952769035212 137.6408536527864 208.65328649605644 0.0 0.0
247.28941415941054 -5.932076994304889 80.73970316035292 219.1074004410449 0.0 0.0
159.78304349608678 -3.130956757871692 48.86769959887875 211.1714952611456 0.0 0.0
105.620824225033 6.448312235556763 33.975729800998394 194.1154095739217 0.0 0.0
59.746873960002674 16.360143583265017 22.85765288882407 182.43636531126958 0.0 0.0
16.736851899072267 4.586027010526319 6.400181146882359 185.52825884066078 0.0 0.0
-10.307612502132114 -44.298829125810435 -16.38509722327743 194.37204652363562 0.0 0.0
3.7793046599522206 -373.8414941211552 -131.1126574558663 163.41931220177503 0.0 0.0
1.5016768557724909 -323.92179647412115 -104.25674889462195 -158.32551022606208 0.0 0.0
-29.19805986344889 -46.27139006732983 -22.64748580910492 -196.14280150329787 0.0 0.0
-17.491266285870402 3.5527437909797257 -4.1836289262442525 -192.58482869674552 0.0 0.0
5.814060881288861 17.541035561718523 7.020761847666405 -191.4011343165911 0.0 0.0
29.21310974537573 10.830535456233697 12.131943649956819 -202.88214585712288 0.0 0.0
51.41158022188755 2.2615582128032528 16.678196860166782 -222.0703686820329 0.0 0.0
83.3571860071823 -0.8695381615567994 26.62207867533901 -237.07327708363437 0.0 0.0
144.00384782948373 1.0974522779449174 48.57119187260327 -238.92776203084244 0.0 0.0
232.21241770444206 5.157328869870479 84.43302958047649 -224.77040193101212 0.0 0.0
314.76828595572033 7.110189275816246 125.95694773892107 -208.0100598342953 0.0 0.0
375.84762957898454 8.482105193147234 164.78349721538433 -195.72159008981916 0.0 0.0
414.7183080206936 8.733910113074572 193.73434478955585 -188.24425901236697 0.0 0.0
442.5124776147147 8.811450462772996 215.6599920120678 -182.917943726569 0.0 0.0
465.6073434559733 6.667295596959121 232.0212368502024 -178.46030987752385 0.0 0.0
488.56186296909686 2.4053754435216206 244.94295519312777 -174.2178281206392 0.0 0.0
516.6122955659212 -3.0776008005771303 257.5989826144811 -169.45879910919612 0.0 0.0
554.3162998986761 -6.324817311737547 274.6929299406583 -162.21775966539437 0.0 0.0
600.7967044731117 -5.877877592850609 297.93653168492517 -151.07529802388243 0.0 0.0
617.9187834525834 -38.060560380983645 291.35556656067035 -142.60306253425574 0.0 0.0
656.1449256742783 -68.11346429473838 292.00699428696385 -142.93453095419616 0.0 0.0
656.1449256741344 -68.11346429492573 292.00699428687716 142.9345309541588 0.0 0.0
617.9187834526217 -38.060560380727566 291.35556656072873 142.60306253475275 0.0 0.0
600.7967044746576 -5.877877590925664 297.93653168594966 151.07529802421746 0.0 0.0
554.316299900491 -6.324817308470358 274.69292994211344 162.21775966604804 0.0 0.0
516.6122955664592 -3.0776007993098915 257.5989826149656 169.458799109366 0.0 0.0
488.56186297037095 2.40537544492949 244.9429551939169 174.2178281207058 0.0 0.0
465.6073434567803 6.667295598295738 232.0212368508487 178.46030987759704 0.0 0.0
442.5124776151612 8.811450463344428 215.65999201236843 182.91794372669028 0.0 0.0
414.71830802023896 8.733910112153183 193.73434478910008 188.2442590121512 0.0 0.0
375.84762957915314 8.482105193183529 164.78349721536028 195.72159008973205 0.0 0.0
314.7682859554599 7.110189275678849 125.95694773870858 208.01005983412338 0.0 0.0
232.21241770416503 5.157328869557308 84.43302958026186 224.7704019309919 0.0 0.0
144.00384782851023 1.0974522765521435 48.57119187187476 238.92776203082602 0.0 0.0
83.35718600682031 -0.8695381622818203 26.62207867501045 237.07327708338136 0.0 0.0
51.41158022188234 2.261558212690945 16.678196860131642 222.07036868173222 0.0 0.0
29.213109745230266 10.830535455974102 12.131943649834525 202.88214585688104 0.0 0.0
5.814060881220183 17.5410355616374 7.020761847621912 191.40113431649564 0.0 0.0
-17.49126628586151 3.552743790928677 -4.183628926257608 192.58482869659647 0.0 0.0
-29.198059863575317 -46.27139006729738 -22.64748580913585 196.14280150318376 0.0 0.0
1.5016768557871778 -323.92179647379464 -104.25674889447916 158.3255102259504 0.0 0.0
-9.477167368839728 -272.7219911290724 -85.80739105738195 -148.91014337927024 0.0 0.0
-49.022004545567924 -49.00328826699457 -29.421451272054135 -195.82482656494048 0.0 0.0
-50.779633235044784 3.731745887904172 -14.142453827672634 -195.30454588347354 0.0 0.0
-46.501735067986615 18.583184327699236 -8.423419747342606 -195.0726401086418 0.0 0.0
-46.25245602725738 15.25641306320212 -9.456121428690533 -205.03995076949028 0.0 0.0
-58.000777961783946 7.36619851039706 -15.831351515584936 -223.02856209046635 0.0 0.0
-86.51024749108154 2.608337462106694 -27.136908298716236 -237.23276201339849 0.0 0.0
-145.14449659716814 -0.6713790635046788 -48.85731883139482 -239.12497385410254 0.0 0.0
-232.10299100824562 -4.882885874811922 -84.32572511006902 -224.89411668783086 0.0 0.0
-314.4975702236902 -6.671472773970265 -125.71410882379286 -207.98371100148282 0.0 0.0
-376.0987190093783 -6.9118536880453405 -164.21243973274375 -195.53390106230302 0.0 0.0
-416.6264480345115 -7.116637420633097 -193.83342426046602 -187.7594431958368 0.0 0.0
-447.181162061035 -9.805669170743215 -218.03705651885377 -182.58863468768575 0.0 0.0
-471.1812414699079 -15.587199294298102 -238.8609431274656 -179.37134338863416 0.0 0.0
-486.8993571675883 -24.636776102500164 -256.5577587534879 -177.94846388733342 0.0 0.0
-491.0371576111727 -35.949119287663876 -270.20202290005835 -177.80345866774883 0.0 0.0
-474.74283467660075 -46.778852638935604 -276.3645388719606 -177.75413316257087 0.0 0.0
-408.79759363816214 -39.72225992227996 -258.79416096553297 -177.44572355254755 0.0 0.0
-227.16251546995085 -40.38584799885092 -199.89671096366737 -180.4918033558068 0.0 0.0
-28.118536105542887 -175.72416746135795 -72.28374877672024 -175.55059053205974 0.0 0.0
-28.11853610515476 -175.72416746045224 -72.28374877633797 175.55059053248962 0.0 0.0
-227.1625154689106 -40.38584799702983 -199.89671096286514 180.49180335632192 0.0 0.0
-408.79759363766294 -39.722259921673185 -258.7941609650994 177.445723552772 0.0 0.0
-474.74283467766895 -46.778852640164075 -276.3645388726185 177.754133162784 0.0 0.0
-491.0371576109428 -35.949119288072865 -270.20202290005835 177.80345866756875 0.0 0.0
-486.8993571683733 -24.636776103868215 -256.5577587541226 177.94846388735414 0.0 0.0
-471.1812414704618 -15.587199295624373 -238.86094312798832 179.37134338876297 0.0 0.0
-447.18116205980334 -9.805669169445295 -218.0370565180249 182.58863468761336 0.0 0.0
-416.626448033908 -7.1166374198441105 -193.83342425991592 187.75944319568504 0.0 0.0
-376.0987190088581 -6.911853688611174 -164.21243973260104 195.53390106236728 0.0 0.0
-314.49757022265413 -6.671472773504995 -125.7141088231982 207.9837110013232 0.0 0.0
-232.1029910077145 -4.8828858748739385 -84.32572510985814 224.8941166878399 0.0 0.0
-145.1444965968759 -0.6713790638258388 -48.85731883137973 239.1249738541888 0.0 0.0
-86.51024749061406 2.6083374624900877 -27.136908298443018 237.23276201322997 0.0 0.0
-58.00077796134319 7.366198510883379 -15.831351515304661 223.0285620903335 0.0 0.0
-46.25245602690353 15.256413063883954 -9.456121428380056 205.03995076927305 0.0 0.0
-46.50173506799301 18.58318432754598 -8.423419747391119 195.072640108387 0.0 0.0
-50.779633235044955 3.7317458876712317 -14.142453827744832 195.30454588327984 0.0 0.0
-49.02200454567037 -49.00328826702555 -29.421451272101102 195.8248265648924 0.0 0.0
-9.477167368885073 -272.72199112878326 -85.80739105731617 148.9101433791387 0.0 0.0
-22.389071207624244 -223.255219622107 -73.68569245660314 -136.03178412225517 0.0 0.0
-66.36990465946673 -49.42985206851104 -34.75655794001831 -192.39723238190672 0.0 0.0
-83.0941942800464 3.8576759832852816 -23.828884174849854 -194.18558642437722 0.0 0.0
-97.16855532040445 19.48279200009035 -23.43126728417483 -193.5731928045777 0.0 0.0
-119.96138200439218 18.833270299938405 -30.86343956457458 -200.39547114360536 0.0 0.0
-165.13104199022607 12.256324186762779 -48.042733303655424 -213.45748545601933 0.0 0.0
-248.7878074991583 7.540889311723758 -81.03947428007326 -220.07137027617887 0.0 0.0
-366.8997132683101 3.10481238544369 -137.5526130682781 -209.22359660290647 0.0 0.0
-474.2189014050764 -4.761615307332775 -204.71230843065484 -192.76015237301024 0.0 0.0
-547.7791641013639 -10.64024000333876 -258.4727723977752 -182.20538856934343 0.0 0.0
-600.3021148191621 -15.543491831003294 -296.4703512118704 -176.07035784164438 0.0 0.0
-642.4023210149196 -19.635895810340486 -324.24190188248303 -171.20323742229186 0.0 0.0
-680.2040385957669 -26.098483602521696 -348.75069342279966 -167.08577598475475 0.0 0.0
-715.6275508490595 -35.857207448775995 -372.6193121239993 -164.80752821018183 0.0 0.0
-748.8819322326914 -49.288347974393275 -396.8766134565301 -164.78010646703433 0.0 0.0
-777.778589811085 -65.10113857787033 -420.11717471773034 -166.91466677593485 0.0 0.0
-797.2901965180105 -79.95906167107648 -438.3192263141172 -171.6895427487234 0.0 0.0
-805.4953403836676 -92.97346881472527 -449.78039290088145 -179.1722114902121 0.0 0.0
-837.7594070655775 -146.28250687329756 -493.9240319543941 -188.63101148224328 0.0 0.0
-857.1929494537744 -240.61304106950996 -552.5086741721977 -207.50793456220043 0.0 0.0
-857.1929494535158 -240.6130410692399 -552.5086741720816 207.50793456239717 0.0 0.0
-837.7594070664904 -146.2825068745998 -493.9240319551073 188.63101148263124 0.0 0.0
-805.495340383391 -92.97346881468724 -449.7803929008326 179.17221149040995 0.0 0.0
-797.2901965183121 -79.95906167123246 -438.31922631435674 171.6895427486421 0.0 0.0
-777.7785898122175 -65.10113857944322 -420.1171747185681 166.9146667761506 0.0 0.0
-748.8819322325546 -49.28834797437264 -396.87661345637673 164.78010646711016 0.0 0.0
-715.6275508496378 -35.85720744975009 -372.6193121243746 164.80752821036765 0.0 0.0
-680.204038596974 -26.098483604496266 -348.7506934236657 167.0857759851863 0.0 0.0
-642.4023210147981 -19.635895810680907 -324.24190188243085 171.2032374222992 0.0 0.0
-600.3021148184419 -15.543491830430973 -296.47035121133064 176.07035784156557 0.0 0.0
-547.7791641003412 -10.640240002405918 -258.4727723970257 182.2053885690894 0.0 0.0
-474.2189014040498 -4.761615306225249 -204.71230842984778 192.76015237286174 0.0 0.0
-366.8997132673864 3.1048123858650083 -137.5526130677498 209.22359660298315 0.0 0.0
-248.78780749834817 7.540889312331705 -81.03947427957628 220.0713702760215 0.0 0.0
-165.13104198970845 12.256324187018093 -48.042733303415304 213.45748545575586 0.0 0.0
-119.96138200442499 18.833270299571215 -30.863439564688058 200.39547114337316 0.0 0.0
-97.16855532017483 19.48279200035261 -23.431267284028323 193.57319280437767 0.0 0.0
-83.09419427982549 3.857675983632544 -23.82888417468251 194.18558642419652 0.0 0.0
-66.36990465936665 -49.4298520683611 -34.756557939949154 192.3972323817574 0.0 0.0
-22.389071207604243 -223.255219621819 -73.685692456513 136.03178412216957 0.0 0.0
-28.575194725868656 -176.7403747080936 -61.59467083018867 -121.08896317973677 0.0 0.0
-80.67033026918841 -47.3160250791521 -38.39438798984976 -185.0893867237786 0.0 0.0
-114.0037673825772 3.722344574655858 -33.142137370430405 -189.07407675002213 0.0 0.0
-146.09255939529413 19.879476034477854 -38.07382419371481 -186.89954025352168 0.0 0.0
-191.27875966826832 21.215037473049637 -52.03450996915622 -189.5081686178116 0.0 0.0
-266.22687878496384 17.762579963588795 -79.88859463148219 -195.37116316794064 0.0 0.0
-379.05120192734535 13.63980926701182 -133.39515792237526 -189.69607226169452 0.0 0.0
-495.5944036347512 3.005687767450901 -209.1773260085006 -175.01675360207918 0.0 0.0
-584.6003099086374 -8.033671146653745 -276.40504483228005 -166.6890827466203 0.0 0.0
-650.3364504751228 -17.456835841877137 -324.1243574662983 -162.1905926540008 0.0 0.0
-703.6516443896801 -24.94760596379541 -358.6308078482447 -158.3529555053954 0.0 0.0
-750.1903017425805 -33.35933367745454 -387.8230012141995 -154.1051265989072 0.0 0.0
-793.4335398256283 -43.25720912959656 -415.22511623047114 -150.18748699854956 0.0 0.0
-835.5096160050863 -56.55437223827329 -443.3858096830832 -147.86365099257634 0.0 0.0
-877.1748003387845 -74.21889089587683 -473.44827377974434 -148.06293249810363 0.0 0.0
-916.0068497819684 -94.72634106085087 -503.5677251467181 -151.13658389297026 0.0 0.0
-950.0483713870017 -116.35891746249396 -531.8024321877147 -156.63075530243964 0.0 0.0
-987.9388107892485 -149.26088486235005 -567.5644905784798 -162.67405387923668 0.0 0.0
-1032.3742821990056 -199.4338470597341 -615.0170399701394 -167.79476835253607 0.0 0.0
-1138.0351366491332 -338.7300403538229 -737.0397048895293 -172.11687619979023 0.0 0.0
-1138.0351366493499 -338.7300403541303 -737.0397048897823 172.1168761999204 0.0 0.0
-1032.3742821988685 -199.43384705960887 -615.0170399701294 167.7947683525906 0.0 0.0
-987.9388107897528 -149.2608848630403 -567.5644905788224 162.6740538794908 0.0 0.0
-950.0483713867043 -116.35891746219227 -531.8024321873754 156.63075530232686 0.0 0.0
-916.0068497816284 -94.72634106060033 -503.5677251464325 151.13658389293818 0.0 0.0
-877.1748003388415 -74.21889089621556 -473.44827377981505 148.0629324982795 0.0 0.0
-835.5096160057833 -56.55437223932475 -443.38580968357235 147.86365099278015 0.0 0.0
-793.4335398270524 -43.25720913157842 -415.2251162314842 150.18748699891083 0.0 0.0
-750.1903017418349 -33.35933367687454 -387.8230012137217 154.10512659889253 0.0 0.0
-703.6516443884444 -24.94760596283379 -358.63080784752174 158.35295550542634 0.0 0.0
-650.3364504751032 -17.456835842093888 -324.1243574662964 162.19059265394657 0.0 0.0
-584.6003099086715 -8.033671147236973 -276.4050448323693 166.68908274671523 0.0 0.0
-495.59440363393946 3.0056877681531797 -209.17732600782216 175.01675360194304 0.0 0.0
-379.0512019272625 13.639809266338014 -133.39515792235312 189.69607226170427 0.0 0.0
-266.22687878472425 17.76257996302007 -79.88859463154165 195.37116316793762 0.0 0.0
-191.27875966796606 21.215037473094576 -52.03450996905933 189.5081686176307 0.0 0.0
-146.09255939490697 19.879476034906116 -38.07382419347551 186.89954025336164 0.0 0.0
-114.00376738253996 3.722344574473296 -33.14213737047936 189.07407674991512 0.0 0.0
-80.67033026921231 -47.31602507926484 -38.3943879898935 185.08938672358687 0.0 0.0
-28.57519472579353 -176.74037470793255 -61.59467083011781 121.08896317948059 0.0 0.0
-30.730547055565545 -134.1973003911269 -49.478354234007725 -105.22235562652705 0.0 0.0
-92.40378464355018 -42.93547772427853 -40.60125167907294 -173.2461784963369 0.0 0.0
-143.1103748175024 3.360204712310587 -41.97001207138388 -179.83687128763492 0.0 0.0
-193.08931497437968 19.22844947437284 -52.468146159774705 -175.33444797455448 0.0 0.0
-258.88562788057015 23.390298942167217 -72.50668776248934 -173.28423477412608 0.0 0.0
-357.1367441975897 23.2696544148059 -112.41326217173055 -169.57486000010357 0.0 0.0
-475.27451229949673 15.346897915935472 -183.3587919206717 -156.03187745583077 0.0 0.0
-577.0912954390346 1.635219778161897 -262.1508887005416 -146.97734528643764 0.0 0.0
-655.7977398586011 -11.330655450245388 -322.110836611084 -144.8171711170973 0.0 0.0
-720.1162277020267 -23.36385373614182 -365.77390506088557 -143.1098252198075 0.0 0.0
-775.7014355209037 -34.66144302770894 -401.14121490205036 -140.27884751409027 0.0 0.0
-826.9115001836906 -47.028456480070474 -433.8408827142483 -136.5731775724051 0.0 0.0
-874.9499798810659 -60.458895885002875 -465.0863431119358 -132.80794545185793 0.0 0.0
-922.0468662914377 -77.13738772360472 -497.2795873793589 -130.34059847135228 0.0 0.0
-969.5001613099608 -98.45872764431931 -531.9076405094414 -130.60171575817893 0.0 0.0
-1017.5853644089495 -125.17023581583504 -569.5547127884907 -133.9172916772359 0.0 0.0
-1067.341617488277 -158.94549778829253 -611.5538466319572 -139.053982865398 0.0 0.0
-1121.5136353468592 -203.39382383724399 -660.9931301462786 -143.37748005489595 0.0 0.0
-1195.4744702115381 -277.07324580579916 -734.6578385228411 -143.4416318834625 0.0 0.0
-1294.4929368882988 -400.6285133023979 -845.9830846842333 -141.92511596310538 0.0 0.0
-1294.4929368878857 -400.62851330223225 -845.9830846839495 141.9251159634794 0.0 0.0
-1195.4744702101311 -277.0732458044616 -734.6578385218365 143.4416318835604 0.0 0.0
-1121.513635345207 -203.39382383557034 -660.9931301449772 143.37748005488356 0.0 0.0
-1067.3416174868687 -158.9454977868428 -611.5538466307962 139.05398286520844 0.0 0.0
-1017.5853644078923 -125.17023581484753 -569.5547127877387 133.9172916771685 0.0 0.0
-969.5001613088863 -98.45872764328823 -531.9076405087154 130.60171575804895 0.0 0.0
-922.0468662906046 -77.13738772279301 -497.2795873788358 130.3405984711341 0.0 0.0
-874.9499798805273 -60.458895884585196 -465.08634311153014 132.80794545181016 0.0 0.0
-826.9115001838857 -47.028456480598415 -433.8408827143585 136.57317757254486 0.0 0.0
-775.7014355208056 -34.66144302801794 -401.1412149020086 140.27884751423142 0.0 0.0
-720.1162277017679 -23.36385373607123 -365.77390506067275 143.10982521963024 0.0 0.0
-655.7977398587778 -11.330655450670355 -322.1108366111167 144.81717111701715 0.0 0.0
-577.09129543902 1.635219777599323 -262.1508887004788 146.97734528662724 0.0 0.0
-475.2745122990599 15.346897915770125 -183.35879192038803 156.0318774559225 0.0 0.0
-357.13674419710054 23.269654414830594 -112.41326217148807 169.57486000001634 0.0 0.0
-258.88562788060307 23.390298941482982 -72.50668776269497 173.28423477400997 0.0 0.0
-193.0893149742412 19.228449474229247 -52.468146159783466 175.3344479743632 0.0 0.0
-143.1103748171637 3.3602047126967833 -41.970012071171986 179.8368712874359 0.0 0.0
-92.40378464336133 -42.93547772400288 -40.60125167893376 173.2461784962537 0.0 0.0
-30.730547055572146 -134.19730039103558 -49.47835423398231 105.2223556264929 0.0 0.0
-31.81221703413496 -96.40367527325955 -38.46476769221835 -88.85850163236748 0.0 0.0
-102.54653900051125 -36.721105019986524 -41.780293206149324 -157.09670247971727 0.0 0.0
-170.3524431758435 2.8680376185565812 -50.2676602179749 -166.10193020395187 0.0 0.0
-238.44376691102786 17.873515397914304 -66.47242116709083 -159.46741083705237 0.0 0.0
-323.3140981478627 25.906404675877276 -92.77608197573673 -152.30410115886866 0.0 0.0
-434.3016204131599 25.82594794866284 -146.50658699926814 -138.74043348254014 0.0 0.0
-544.6897271935593 15.07599739947532 -226.88237691047286 -125.60186558107924 0.0 0.0
-634.8276026026319 0.6691196908595174 -300.3186027157477 -122.969492917534 0.0 0.0
-709.1803708409552 -14.17509443885524 -354.2007221670861 -124.01057043528287 0.0 0.0
-773.9626805576934 -28.664512969132787 -396.82251943727044 -123.75653886295956 0.0 0.0
-833.4966356195741 -44.18051215561957 -435.5008380504179 -121.67621100495842 0.0 0.0
-889.1773944494944 -60.708344346960445 -472.24698629785775 -118.46350944363643 0.0 0.0
-941.6660878992918 -77.96308576499632 -507.5350050766871 -114.97248027718055 0.0 0.0
-992.8585742438432 -97.46884335203984 -543.120242756318 -112.4444184796776 0.0 0.0
-1046.0350669419581 -122.63442229531111 -582.4271848190352 -112.38571734157377 0.0 0.0
-1103.7243832691802 -156.98534180005828 -628.5734359537306 -115.2602293504224 0.0 0.0
-1167.7943466470908 -202.36625907921808 -683.4136884139604 -119.7533355619014 0.0 0.0
-1241.426344097903 -263.8375592604325 -750.9827911174298 -122.48843747960768 0.0 0.0
-1325.7290022079078 -347.05115902308455 -834.729220025534 -121.4228247671505 0.0 0.0
-1411.3994476376902 -455.28532760883957 -931.8095961332189 -120.88495713446622 0.0 0.0
-1411.3994476387657 -455.28532760998155 -931.8095961339171 120.88495713466011 0.0 0.0
-1325.729002210187 -347.0511590256818 -834.7292200270159 121.42282476764603 0.0 0.0
-1241.4263440997247 -263.8375592625856 -750.9827911186289 122.48843748012362 0.0 0.0
-1167.7943466474253 -202.36625907983918 -683.4136884143222 119.75333556219637 0.0 0.0
-1103.7243832687445 -156.9853417996809 -628.5734359534173 115.2602293503636 0.0 0.0
-1046.035066941401 -122.63442229502155 -582.4271848187198 112.38571734180522 0.0 0.0
-992.8585742429003 -97.46884335120649 -543.120242755633 112.44441847958865 0.0 0.0
-941.6660879001967 -77.96308576625293 -507.5350050773561 114.97248027744362 0.0 0.0
-889.1773944497534 -60.70834434742412 -472.2469862980176 118.46350944353401 0.0 0.0
-833.4966356190228 -44.18051215533436 -435.500838049997 121.6762110049784 0.0 0.0
-773.9626805570092 -28.66451296861206 -396.8225194367876 123.75653886277993 0.0 0.0
-709.1803708411599 -14.1750944393502 -354.2007221672086 124.01057043520734 0.0 0.0
-634.827602601936 0.6691196912039494 -300.31860271529746 122.96949291755256 0.0 0.0
-544.6897271922527 15.075997400643818 -226.88237690950677 125.60186558088384 0.0 0.0
-434.30162041201504 25.825947949615305 -146.50658699852053 138.74043348244786 0.0 0.0
-323.31409814744745 25.9064046759232 -92.77608197558716 152.3041011587863 0.0 0.0
-238.44376691106993 17.87351539731882 -66.47242116728592 159.46741083699214 0.0 0.0
-170.35244317592938 2.8680376180105926 -50.267660218168736 166.10193020386617 0.0 0.0
-102.54653900051605 -36.72110502023259 -41.780293206224584 157.09670247942694 0.0 0.0
-31.812217034127357 -96.4036752731991 -38.46476769219793 88.85850163219666 0.0 0.0
-32.649146335396765 -63.942879116754334 -28.977607635645324 -72.03225044226487 0.0 0.0
-111.68339669364502 -29.248602660618925 -42.27959980627919 -137.0614482181146 0.0 0.0
-195.94145403560128 2.2062116175715216 -58.11838561958843 -147.92311185903685 0.0 0.0
-281.10510138709355 16.146591694363323 -79.92312591843586 -139.28660160759057 0.0 0.0
-382.7821042532338 28.058704910856157 -113.72296350088897 -126.66694550611317 0.0 0.0
-496.7558800072662 25.697345844835702 -180.78061836626887 -107.67961188122254 0.0 0.0
-596.1393790916893 14.943364361455309 -262.2350569299222 -99.23226986756195 0.0 0.0
-678.7532750753976 -0.34308179434773933 -328.3468301031592 -100.59255723775247 0.0 0.0
-751.2762791105351 -16.09122688493032 -378.1260883584073 -103.28102097246114 0.0 0.0
-818.6096846315522 -33.78988920823426 -422.46093423045716 -103.8376325713066 0.0 0.0
-882.3146254924991 -53.48087952174308 -464.98132038199213 -102.30200401147279 0.0 0.0
-942.570495244085 -74.3844333137863 -506.07017884023526 -99.69421283726854 0.0 0.0
-999.6847882116839 -95.7066785590734 -545.6568613221039 -96.75101281234201 0.0 0.0
-1054.8631415730006 -118.46391306772088 -584.8355481345992 -94.1414741571288 0.0 0.0
-1112.8997924828852 -147.1403207472809 -628.2575561703773 -93.34951025963524 0.0 0.0
-1179.8549676613306 -188.53927504990781 -682.4586539445788 -95.32760450083406 0.0 0.0
-1258.0653063672462 -246.6490516381935 -750.6499061882181 -98.92493284512602 0.0 0.0
-1346.400093890923 -322.1255520828623 -832.590502134946 -101.58048165106968 0.0 0.0
-1435.934010754143 -410.8781784607996 -921.7923192257479 -102.3502003925723 0.0 0.0
-1513.905671406351 -510.35334449057405 -1010.6762638940918 -105.32167573491397 0.0 0.0
-1513.9056714077167 -510.3533444919455 -1010.6762638950403 105.32167573489934 0.0 0.0
-1435.9340107546573 -410.8781784614333 -921.7923192261759 102.35020039277441 0.0 0.0
-1346.400093890596 -322.12555208264257 -832.590502134779 101.58048165118305 0.0 0.0
-1258.0653063667266 -246.64905163789777 -750.6499061877446 98.92493284548118 0.0 0.0
-1179.8549676611574 -188.5392750497852 -682.4586539443414 95.32760450060971 0.0 0.0
-1112.8997924831901 -147.14032074775548 -628.257556170438 93.34951025970066 0.0 0.0
-1054.863141572191 -118.4639130670736 -584.8355481338988 94.14147415711766 0.0 0.0
-999.6847882109354 -95.70667855855342 -545.656861321517 96.75101281242729 0.0 0.0
-942.5704952438944 -74.3844333138687 -506.07017884008053 99.69421283733041 0.0 0.0
-882.3146254928204 -53.48087952237759 -464.9813203822117 102.30200401154377 0.0 0.0
-818.6096846320114 -33.789889208971665 -422.46093423073324 103.83763257126066 0.0 0.0
-751.2762791092024 -16.091226883765636 -378.1260883574939 103.28102097225809 0.0 0.0
-678.7532750742732 -0.3430817934306276 -328.3468301024014 100.59255723759708 0.0 0.0
-596.139379090343 14.943364362623196 -262.2350569289533 99.23226986733468 0.0 0.0
-496.7558800070842 25.697345844476143 -180.78061836610465 107.67961188130485 0.0 0.0
-382.7821042531549 28.05870491027363 -113.72296350098895 126.6669455061909 0.0 0.0
-281.1051013868078 16.1465916944257 -79.92312591833986 139.28660160745267 0.0 0.0
-195.94145403552739 2.2062116174769457 -58.118385619595486 147.9231118588014 0.0 0.0
-111.6833966936082 -29.248602660725144 -42.279599806300006 137.06144821802494 0.0 0.0
-32.64914633532163 -63.94287911682814 -28.977607635644926 72.0322504421026 0.0 0.0
-33.23063716903923 -37.328571397300124 -21.167762569901804 -54.70285272900755 0.0 0.0
-119.77804022329036 -21.080163810777137 -42.25746121022024 -113.56203234753359 0.0 0.0
-220.12513466338746 1.2619386437570963 -65.65819832179999 -125.21240484246299 0.0 0.0
-322.9313039510707 15.02759499861413 -92.98042389337904 -115.46136922146587 0.0 0.0
-437.66967135756414 28.497857158734927 -136.4958988837911 -97.45995526463722 0.0 0.0
-545.3452288784492 24.920237721177642 -212.62114243024615 -79.11355737556835 0.0 0.0
-634.1449011481918 13.95305904346013 -289.97834715772336 -75.47966811523384 0.0 0.0
-712.8333638505379 -0.11173418555344483 -348.4909162148414 -78.89814886918228 0.0 0.0
-786.2419119064034 -17.670339524077377 -397.4588064314914 -82.20122787253702 0.0 0.0
-856.7308420590763 -38.894282913504696 -444.54768565923814 -83.16089026873506 0.0 0.0
-924.4363560858096 -62.49443073580275 -490.85045920094024 -82.1523891158372 0.0 0.0
-989.4538777430005 -87.79637641549863 -536.4374389945187 -80.22014775237326 0.0 0.0
-1051.5773891337053 -113.81611194846636 -580.8252119079074 -77.93644175617605 0.0 0.0
-1111.8825677147502 -140.8672294479986 -624.7087404961833 -75.53067602716727 0.0 0.0
-1174.119783332391 -172.66613737010027 -671.7738012708315 -73.79609814099737 0.0 0.0
-1246.8922656548812 -218.90360386793407 -731.2138997871165 -74.18626293296809 0.0 0.0
-1337.2813739583696 -287.7754806444465 -810.8211773635953 -77.12567505756665 0.0 0.0
-1438.0498109652724 -375.10125338709827 -904.9264205149835 -81.0260829075078 0.0 0.0
-1535.644823152982 -472.0848821457598 -1002.3057543964828 -85.21773661515196 0.0 0.0
-1611.9225560282125 -569.1633202018226 -1089.1527130622326 -92.86898818781512 0.0 0.0
-1611.9225560274385 -569.1633202010576 -1089.1527130616987 92.86898818784735 0.0 0.0
-1535.6448231538589 -472.0848821467842 -1002.3057543970772 85.21773661556631 0.0 0.0
-1438.0498109656887 -375.10125338769257 -904.9264205151007 81.0260829077859 0.0 0.0
-1337.2813739566775 -287.77548064278847 -810.8211773622609 77.12567505742862 0.0 0.0
-1246.8922656538125 -218.9036038670584 -731.2138997862588 74.1862629331932 0.0 0.0
-1174.1197833303345 -172.6661373681161 -671.7738012693462 73.79609814077699 0.0 0.0
-1111.8825677149255 -140.8672294483699 -624.7087404963271 75.53067602723046 0.0 0.0
-1051.5773891339363 -113.81611194894325 -580.8252119080504 77.93644175627493 0.0 0.0
-989.4538777422696 -87.79637641497945 -536.437438993957 80.22014775231287 0.0 0.0
-924.4363560851014 -62.49443073537843 -490.8504592004757 82.1523891159353 0.0 0.0
-856.7308420584908 -38.894282913173576 -444.5476856588395 83.16089026864934 0.0 0.0
-786.241911905944 -17.67033952389511 -397.4588064312854 82.2012278724595 0.0 0.0
-712.8333638502049 -0.1117341855218612 -348.49091621461537 78.89814886916042 0.0 0.0
-634.1449011485689 13.953059042575376 -289.97834715788287 75.47966811529156 0.0 0.0
-545.3452288787137 24.920237720426734 -212.62114243031226 79.1135573755571 0.0 0.0
-437.66967135675475 28.497857159331673 -136.49589888330274 97.45995526451881 0.0 0.0
-322.9313039505835 15.027594999217147 -92.98042389307453 115.46136922137426 0.0 0.0
-220.12513466328636 1.26193864340582 -65.65819832187593 125.21240484240819 0.0 0.0
-119.77804022339338 -21.080163811053097 -42.257461210333936 113.56203234745672 0.0 0.0
-33.230637169004794 -37.3285713972198 -21.167762569867374 54.702852728875186 0.0 0.0
-32.96244756058864 -17.037522692231033 -14.999991075845902 -36.98948324737383 0.0 0.0
-126.06501810911888 -12.72187642073484 -41.63606835895611 -86.8390245420104 0.0 0.0
-243.4471421644226 -0.08740764722056138 -73.06036494349294 -97.94581115873518 0.0 0.0
-364.7614945256692 15.352082971298177 -105.90959718223324 -87.78340414130386 0.0 0.0
-484.94290938734764 27.345878118793397 -160.80331308895143 -67.05824601425529 0.0 0.0
-583.1270376314137 23.174900300491338 -241.45620328164682 -53.89658220195325 0.0 0.0
-664.6048010133843 13.549331291120495 -311.35210601580155 -53.44348002437468 0.0 0.0
-740.5842887491569 0.5795825786309194 -363.9395378952913 -57.17558494712056 0.0 0.0
-815.6449988875618 -19.312350875743192 -413.6529592628082 -60.52063593673322 0.0 0.0
-889.4052117298496 -43.79074125057144 -463.6784935208493 -61.73763790550687 0.0 0.0
-961.3087993994334 -71.26171619668037 -513.9028328329091 -61.22298365524815 0.0 0.0
-1030.9696854679187 -100.87218383082165 -563.9048428837945 -59.94485402996392 0.0 0.0
-1098.8065978963991 -131.95138271903352 -613.6288846902169 -58.42624027392535 0.0 0.0
-1165.160337579257 -164.80444268466024 -663.4187565406398 -56.456481967841235 0.0 0.0
-1232.3070941723145 -201.02768612561147 -715.1761787461285 -54.1017754637645 0.0 0.0
-1307.2312788397046 -248.30395982138742 -776.2019815337919 -52.671717888448825 0.0 0.0
-1400.898647668931 -319.49583680852834 -858.5187510329046 -54.504052741646305 0.0 0.0
-1517.4584918204587 -421.7500901857711 -967.96718969327 -60.15534971046283 0.0 0.0
-1628.5030025149817 -531.5142084503346 -1078.4941205036407 -68.8061821911966 0.0 0.0
-1713.8228389784886 -636.3054568778626 -1173.720759768852 -82.10019619477478 0.0 0.0
-1713.8228389780002 -636.3054568773412 -1173.720759768444 82.10019619468872 0.0 0.0
-1628.5030025166166 -531.5142084520625 -1078.4941205048508 68.80618219135653 0.0 0.0
-1517.4584918238602 -421.7500901893295 -967.9671896957577 60.155349710722255 0.0 0.0
-1400.8986476697278 -319.4958368094178 -858.5187510333842 54.50405274153107 0.0 0.0
-1307.2312788406887 -248.30395982253924 -776.2019815344128 52.671717888618545 0.0 0.0
-1232.3070941730896 -201.0276861265403 -715.1761787466685 54.10177546372442 0.0 0.0
-1165.1603375790037 -164.80444268458513 -663.4187565404695 56.45648196782261 0.0 0.0
-1098.806597895475 -131.95138271829188 -613.6288846895409 58.42624027386549 0.0 0.0
-1030.9696854676451 -100.87218383079657 -563.9048428836481 59.94485403000292 0.0 0.0
-961.308799399525 -71.26171619704273 -513.9028328329637 61.22298365523271 0.0 0.0
-889.4052117294764 -43.79074125045666 -463.67849352054975 61.7376379054637 0.0 0.0
-815.6449988860896 -19.31235087451985 -413.6529592617917 60.5206359366437 0.0 0.0
-740.5842887491903 0.5795825783578792 -363.9395378952511 57.17558494684533 0.0 0.0
-664.6048010127588 13.54933129144085 -311.3521060153524 53.443480024296434 0.0 0.0
-583.127037631273 23.17490030027536 -241.45620328142252 53.896582201856305 0.0 0.0
-484.94290938737413 27.345878118283423 -160.80331308893204 67.05824601414437 0.0 0.0
-364.76149452548344 15.352082971099641 -105.90959718224474 87.7834041412309 0.0 0.0
-243.44714216399905 -0.08740764664863354 -73.0603649431943 97.94581115859427 0.0 0.0
-126.06501810900252 -12.721876420562968 -41.63606835886964 86.83902454185241 0.0 0.0
-32.96244756047021 -17.0375226921433 -14.999991075784052 36.98948324736529 0.0 0.0
-30.5185241884135 -3.4715668279270897 -10.197027304902177 -19.407648651407293 0.0 0.0
-128.82999850118682 -4.826912114378112 -40.09707318466947 -56.85185069066627 0.0 0.0
-266.38924630860964 -1.4856822782699712 -80.36247857606386 -65.63888965239056 0.0 0.0
-407.49077964095795 16.76006878528851 -119.77605445835877 -56.39893446093512 0.0 0.0
-523.5067895884454 25.756854285166746 -185.3785993685884 -38.528031085309834 0.0 0.0
-611.1436451299663 20.403105630523925 -266.1844236158481 -31.147478691623068 0.0 0.0
-688.419949052837 14.332964698610354 -326.7791066667601 -32.17421490474357 0.0 0.0
-763.6082897107503 0.7165233433484843 -376.61694789556896 -35.36746279488354 0.0 0.0
-840.0470801753427 -20.750213079385418 -427.0527101590362 -38.22690237252361 0.0 0.0
-917.2817797265718 -48.431598798333255 -480.2069829335762 -39.52408160421771 0.0 0.0
-993.5288530284926 -79.80596325064283 -534.4766999455095 -39.500014758581685 0.0 0.0
-1068.220571644766 -113.61186039436234 -589.0403906921235 -38.87992447636569 0.0 0.0
-1141.7015425232848 -150.11056465673974 -644.2510317363293 -37.99342710412825 0.0 0.0
-1215.0595951288697 -189.3905470285224 -700.7243073701532 -36.69941953348027 0.0 0.0
-1289.0585307548072 -232.1394388333519 -759.1905109564696 -34.61475401887257 0.0 0.0
-1365.4666050492256 -280.66672191384714 -821.6573304143144 -31.991359732164725 0.0 0.0
-1452.423882800421 -344.476140751932 -896.9121778493746 -31.516391059164135 0.0 0.0
-1565.6471846963427 -441.98386665068665 -1002.1480910381854 -37.57824445114287 0.0 0.0
-1723.341382769886 -596.2614045269102 -1158.2825257433103 -51.468599014879544 0.0 0.0
-1828.8585292821294 -719.0607205006016 -1272.6530397762383 -71.99529366404332 0.0 0.0
-1828.858529281537 -719.0607204999814 -1272.6530397757995 71.99529366391855 0.0 0.0
-1723.3413827693903 -596.2614045264573 -1158.2825257429347 51.468599014822615 0.0 0.0
-1565.6471846950656 -441.98386664948606 -1002.1480910372096 37.57824445115446 0.0 0.0
-1452.4238827979943 -344.4761407495949 -896.9121778474575 31.516391059089983 0.0 0.0
-1365.4666050473616 -280.66672191211325 -821.6573304129986 31.99135973225605 0.0 0.0
-1289.0585307537294 -232.1394388324467 -759.190510955698 34.61475401888328 0.0 0.0
-1215.0595951277428 -189.3905470275443 -700.7243073692205 36.69941953326453 0.0 0.0
-1141.7015425224665 -150.1105646560857 -644.2510317356638 37.99342710396235 0.0 0.0
-1068.220571644306 -113.6118603941485 -589.0403906917271 38.87992447636429 0.0 0.0
-993.5288530286404 -79.80596325104122 -534.4766999455135 39.5000147584863 0.0 0.0
-917.2817797260533 -48.43159879810115 -480.20698293328047 39.524081604329794 0.0 0.0
-840.0470801739687 -20.750213078299197 -427.0527101581282 38.22690237253323 0.0 0.0
-763.6082897094764 0.7165233443476069 -376.6169478947259 35.367462794799515 0.0 0.0
-688.4199490519317 14.332964699197376 -326.779106666159 32.174214904659436 0.0 0.0
-611.1436451298927 20.403105630250174 -266.1844236157054 31.147478691543064 0.0 0.0
-523.5067895880867 25.756854285168085 -185.37859936832768 38.52803108543063 0.0 0.0
-407.4907796401913 16.760068785771775 -119.77605445799182 56.39893446085864 0.0 0.0
-266.38924630848453 -1.4856822782895827 -80.36247857603223 65.63888965227099 0.0 0.0
-128.8299985008915 -4.826912114092952 -40.097073184495336 56.85185069070043 0.0 0.0
-30.518524188297807 -3.471566827886657 -10.19702730485534 19.40764865132189 0.0 0.0
-23.350906543409756 3.079949096034521 -6.081287234212569 -3.2555117741797432 0.0 0.0
-124.84940547942946 1.7059116523810793 -36.943048148114514 -22.99479570535471 0.0 0.0
-290.39950251033775 -2.0854076480840256 -87.74547304752653 -27.248085320713116 0.0 0.0
-447.29188448077923 18.83845262691465 -135.39930130322952 -22.51850651598887 0.0 0.0
-555.4084208717372 23.47596325876105 -209.92093213360607 -13.014937054289218 0.0 0.0
-635.2912954096006 18.966310420585614 -286.2911919585473 -10.448780655336403 0.0 0.0
-708.007481542904 14.385777688331572 -339.12895553166584 -11.323306172533623 0.0 0.0
-782.2304701944629 0.802217527381174 -386.73737463218015 -13.414123330570359 0.0 0.0
-860.1840883356592 -22.17855276010505 -438.22389911689004 -15.342335688083292 0.0 0.0
-940.7956133366768 -52.72658439892726 -494.33764043741326 -16.509896669038525 0.0 0.0
-1021.6576147681313 -87.93532959013675 -552.7604744826165 -16.95985524960718 0.0 0.0
-1101.4699322100164 -126.54635355891185 -612.2496312972651 -16.939025926375173 0.0 0.0
-1180.8444417926717 -168.06590616769637 -672.8824897569807 -16.694552546335963 0.0 0.0
-1261.0377805416892 -213.52668671435424 -735.832644763838 -16.107945695543588 0.0 0.0
-1342.6748537150038 -263.71039811597785 -801.8283113647525 -14.913466300823824 0.0 0.0
-1424.7954011772028 -318.05709821812167 -870.1159502841856 -12.865841540232257 0.0 0.0
-1505.9243266466947 -376.006680424029 -939.642721261913 -10.607155066916324 0.0 0.0
-1593.5856192135068 -446.7759289713211 -1018.7017311840186 -12.837012818589525 0.0 0.0
-1722.0706348365995 -568.2681923563488 -1143.459325842379 -28.84910490464346 0.0 0.0
-2034.3013003818087 -892.3303731765146 -1462.0157566422115 -59.8883109442399 0.0 0.0
-2034.3013003805636 -892.3303731752736 -1462.0157566412495 59.88831094420668 0.0 0.0
-1722.0706348356796 -568.2681923554769 -1143.4593258414611 28.849104904653267 0.0 0.0
-1593.5856192123822 -446.7759289702838 -1018.7017311831382 12.837012818736376 0.0 0.0
-1505.9243266453143 -376.00668042274884 -939.6427212609879 10.607155066970734 0.0 0.0
-1424.7954011758468 -318.0570982169023 -870.1159502832072 12.86584154022268 0.0 0.0
-1342.6748537148392 -263.7103981159746 -801.8283113646378 14.913466300829093 0.0 0.0
-1261.037780542614 -213.52668671548363 -735.8326447644927 16.107945695683934 0.0 0.0
-1180.8444417927785 -168.0659061680336 -672.882489757059 16.694552546445838 0.0 0.0
-1101.4699322094664 -126.54635355858021 -612.249631296862 16.93902592633855 0.0 0.0
-1021.657614767238 -87.93532958951454 -552.7604744820324 16.959855249592117 0.0 0.0
-940.7956133362447 -52.72658439878664 -494.3376404371003 16.509896669118675 0.0 0.0
-860.1840883356806 -22.178552760426015 -438.22389911686616 15.342335688172495 0.0 0.0
-782.2304701936882 0.8022175278496348 -386.7373746316868 13.414123330566696 0.0 0.0
-708.0074815417393 14.38577768918465 -339.1289555309154 11.323306172605733 0.0 0.0
-635.2912954088308 18.9663104210411 -286.29119195801246 10.448780655311015 0.0 0.0
-555.4084208716497 23.475963258507146 -209.92093213345103 13.014937054329604 0.0 0.0
-447.2918844806469 18.83845262651721 -135.39930130324356 22.518506516010856 0.0 0.0
-290.3995025102017 -2.0854076482941313 -87.74547304754874 27.248085320619175 0.0 0.0
-124.84940547929175 1.7059116524034952 -36.943048148066474 22.99479570517537 0.0 0.0
-23.350906543289593 3.079949096148545 -6.081287234142313 3.2555117741071515 0.0 0.0
SCALARS Strain float 6
LOOKUP_TABLE default
0.01328711796643197 -0.014357471026912483 0.0 -0.008011951480288826 0.0 0.0
0.0027253817062865802 -0.0018546722715124808 0.0 0.0013555741942790078 0.0 0.0
0.00190261511024227 -0.0007873045273203427 0.0 -3.4153677740345056e-05 0.0 0.0
0.002520474587902867 -0.0012897194162091452 0.0 -0.00025132592126891895 0.0 0.0
0.00422124780300559 -0.0027237397573405264 0.0 -0.0003361487915589101 0.0 0.0
0.0077141147236813624 -0.005915403702641875 0.0 -0.0005410435003285752 0.0 0.0
0.013439705039414898 -0.011376835286367903 0.0 -0.0008946191665956116 0.0 0.0
0.021794707538417873 -0.019459154702182513 0.0 -0.0014520731683669297 0.0 0.0
0.032972784141533755 -0.03033289980217635 0.0 -0.0022317235915246814 0.0 0.0
0.046916703317965464 -0.04394288288493842 0.0 -0.0031621453703435942 0.0 0.0
0.06340321836633328 -0.06007950925933292 0.0 -0.004125657127298399 0.0 0.0
0.08215521165648146 -0.07847400716357944 0.0 -0.005060083555063877 0.0 0.0
0.102885143928286 -0.09884098943769093 0.0 -0.005971062045867281 0.0 0.0
0.12526011948678567 -0.12084326753950947 0.0 -0.006842116074128768 0.0 0.0
0.14878605057407526 -0.143983832745886 0.0 -0.007616565874459802 0.0 0.0
0.1726827594339515 -0.1674872040960338 0.0 -0.008129822669014908 0.0 0.0
0.19583941094237814 -0.1902559874107741 0.0 -0.008122425154086066 0.0 0.0
0.21685874683529183 -0.21090462639846752 0.0 -0.007404377169356602 0.0 0.0
0.23408405711919744 -0.22777041762224837 0.0 -0.00649599213241614 0.0 0.0
0.24496532936587498 -0.23805034110472523 0.0 -0.008175572126757902 0.0 0.0
0.2449653293658582 -0.23805034110470302 0.0 0.008175572126768338 0.0 0.0
0.23408405711914643 -0.2277704176222013 0.0 0.006495992132445116 0.0 0.0
0.21685874683520653 -0.2109046263983858 0.0 0.007404377169371257 0.0 0.0
0.19583941094227048 -0.19025598741067373 0.0 0.008122425154093893 0.0 0.0
0.17268275943383493 -0.16748720409593076 0.0 0.008129822669004971 0.0 0.0
0.14878605057395472 -0.1439838327457701 0.0 0.007616565874456249 0.0 0.0
0.12526011948666455 -0.12084326753939001 0.0 0.006842116074128324 0.0 0.0
0.10288514392816561 -0.09884098943757058 0.0 0.0059710620458629515 0.0 0.0
0.08215521165636835 -0.07847400716347108 0.0 0.0050600835550553835 0.0 0.0
0.06340321836623236 -0.06007950925923655 0.0 0.004125657127290738 0.0 0.0
0.046916703317881725 -0.04394288288485315 0.0 0.003162145370330327 0.0 0.0
0.032972784141468425 -0.030332899802106628 0.0 0.0022317235915207956 0.0 0.0
0.02179470753836954 -0.019459154702132775 0.0 0.0014520731683645982 0.0 0.0
0.013439705039382244 -0.011376835286337261 0.0 0.0008946191665935022 0.0 0.0
0.007714114723661736 -0.005915403702625888 0.0 0.0005410435003277425 0.0 0.0
0.00422124780299693 -0.0027237397573354194 0.0 0.000336148791558466 0.0 0.0
0.0025204745878999457 -0.001289719416207702 0.0 0.00025132592126841935 0.0 0.0
0.001902615110241812 -0.0007873045273202317 0.0 3.4153677740733634e-05 0.0 0.0
0.002725381706284169 -0.001854672271510649 0.0 -0.001355574194274789 0.0 0.0
0.013287117966420403 -0.014357471026898327 0.0 0.008011951480252744 0.0 0.0
0.009561147510535217 -0.01100861288128191 0.0 -0.00979375179940789 0.0 0.0
0.0014537101048238826 -0.0009269331062485842 0.0 0.00012073800604761598 0.0 0.0
0.0016167569370989232 -0.0005648915370858321 0.0 -0.0001246807545585149 0.0 0.0
0.002185347392822848 -0.0010559340013647223 0.0 -0.0005189168352150442 0.0 0.0
0.0035483722085797864 -0.0021515212167702025 0.0 -0.0007409708161404405 0.0 0.0
0.006551515014299902 -0.004838183550096797 0.0 -0.0012402684424776544 0.0 0.0
0.01166609981019772 -0.009666697717094497 0.0 -0.0021177374609145927 0.0 0.0
0.019226262487097426 -0.016948072800722525 0.0 -0.00341950653727241 0.0 0.0
0.02935275277616494 -0.026778241486148158 0.0 -0.0051471050168475085 0.0 0.0
0.041936946114246476 -0.03904710034387415 0.0 -0.007134780969601073 0.0 0.0
0.056748751600526046 -0.05353495072926773 0.0 -0.009161442941717113 0.0 0.0
0.07355201411692688 -0.07001016201788568 0.0 -0.011105220082629097 0.0 0.0
0.09212787898598701 -0.08825230810224571 0.0 -0.01301561119735789 0.0 0.0
0.1122020960818155 -0.10798526328123303 0.0 -0.01488418482563686 0.0 0.0
0.1333519684336174 -0.12878560050095356 0.0 -0.016561591402318887 0.0 0.0
0.15491947971001632 -0.14999752022549817 0.0 -0.017728842509117992 0.0 0.0
0.175947294910005 -0.17066777148007795 0.0 -0.01790729158853599 0.0 0.0
0.19513895137869072 -0.18949849242759598 0.0 -0.016844845250508778 0.0 0.0
0.21068377928858567 -0.2046292162870671 0.0 -0.014998884039935545 0.0 0.0
0.2200561932463368 -0.2136843271891795 0.0 -0.012201498907737363 0.0 0.0
0.22005619324632048 -0.2136843271891582 0.0 0.01220149890776745 0.0 0.0
0.21068377928853954 -0.20462921628701736 0.0 0.014998884039985061 0.0 0.0
0.19513895137861534 -0.18949849242751338 0.0 0.01684484525054164 0.0 0.0
0.17594729490991112 -0.1706677714799767 0.0 0.017907291588550978 0.0 0.0
0.15491947970991304 -0.14999752022538182 0.0 0.017728842509104448 0.0 0.0
0.133351968433509 -0.12878560050084742 0.0 0.01656159140231328 0.0 0.0
0.11220209608170628 -0.10798526328112512 0.0 0.014884184825632807 0.0 0.0
0.09212787898587987 -0.0882523081021458 0.0 0.013015611197348398 0.0 0.0
0.07355201411682655 -0.07001016201778709 0.0 0.011105220082612832 0.0 0.0
0.05674875160043524 -0.0535349507291758 0.0 0.009161442941703402 0.0 0.0
0.041936946114171036 -0.0390471003437991 0.0 0.0071347809695818665 0.0 0.0
0.029352752776106217 -0.02677824148608865 0.0 0.005147105016838904 0.0 0.0
0.019226262487053558 -0.016948072800679892 0.0 0.0034195065372654154 0.0 0.0
0.011666099810168362 -0.00966669771706452 0.0 0.002117737460906821 0.0 0.0
0.006551515014283249 -0.004838183550081254 0.0 0.0012402684424743238 0.0 0.0
0.003548372208572792 -0.0021515212167617648 0.0 0.0007409708161388862 0.0 0.0
0.00218534739282078 -0.0010559340013605034 0.0 0.0005189168352135454 0.0 0.0
0.001616756937098618 -0.0005648915370874974 0.0 0.00012468075455784877 0.0 0.0
0.0014537101048237577 -0.0009269331062483621 0.0 -0.00012073800604850415 0.0 0.0
0.009561147510520507 -0.011008612881265825 0.0 0.00979375179937697 0.0 0.0
0.00714818844434259 -0.008780453892446693 0.0 -0.00912682718559954 0.0 0.0
0.0008469203789433569 -0.000610151070122078 0.0 -0.0006122268994266933 0.0 0.0
0.001291735423112464 -0.0004101042333269911 0.0 -0.00044582303506868204 0.0 0.0
0.0018716489983847673 -0.0008424534130111461 0.0 -0.0007642777159335701 0.0 0.0
0.002948862945360946 -0.0016694779246626545 0.0 -0.0010734183539125586 0.0 0.0
0.005438010819671345 -0.003829077357138777 0.0 -0.0017530595739660981 0.0 0.0
0.009907507984530176 -0.007983655070891604 0.0 -0.003022718068662833 0.0 0.0
0.01662641799041817 -0.014419465945079146 0.0 -0.004925158442475985 0.0 0.0
0.025659565385248155 -0.023163387064663254 0.0 -0.007392869327748797 0.0 0.0
0.03685678103533989 -0.034064859538608605 0.0 -0.010190500551457315 0.0 0.0
0.04998523681391441 -0.046894835571493765 0.0 -0.013042164526908318 0.0 0.0
0.0648385019169936 -0.06144780734030775 0.0 -0.015792610312934774 0.0 0.0
0.08124400424378483 -0.07754951042518865 0.0 -0.01847648933069157 0.0 0.0
0.09899495204027538 -0.09499212365189846 0.0 -0.021114718458717152 0.0 0.0
0.11775939882604351 -0.11344407573344562 0.0 -0.0235259448301382 0.0 0.0
0.1370092169720283 -0.13237547015101203 0.0 -0.025271092765380865 0.0 0.0
0.1559357045945713 -0.15097247202965836 0.0 -0.025781435844327127 0.0 0.0
0.17331778458201133 -0.16799843103436451 0.0 -0.024652296992958678 0.0 0.0
0.18738857426988625 -0.1817206630062227 0.0 -0.02140193718466077 0.0 0.0
0.1961524389245849 -0.1902294805237954 0.0 -0.014979240596647347 0.0 0.0
0.19615243892456996 -0.19022948052378297 0.0 0.01497924059669864 0.0 0.0
0.18738857426984423 -0.18172066300618628 0.0 0.021401937184726383 0.0 0.0
0.17331778458194505 -0.16799843103430234 0.0 0.024652296993004308 0.0 0.0
0.15593570459448924 -0.15097247202957575 0.0 0.02578143584434689 0.0 0.0
0.13700921697193752 -0.13237547015091966 0.0 0.025271092765370318 0.0 0.0
0.11775939882594744 -0.11344407573335102 0.0 0.023525944830129597 0.0 0.0
0.09899495204017866 -0.09499212365180298 0.0 0.02111471845871149 0.0 0.0
0.08124400424369077 -0.07754951042509761 0.0 0.018476489330685353 0.0 0.0
0.0648385019169056 -0.06144780734021493 0.0 0.015792610312917676 0.0 0.0
0.04998523681383438 -0.0468948355714196 0.0 0.013042164526890332 0.0 0.0
0.03685678103527279 -0.0340648595385451 0.0 0.010190500551435 0.0 0.0
0.025659565385196148 -0.023163387064607743 0.0 0.007392869327736307 0.0 0.0
0.016626417990378783 -0.014419465945043619 0.0 0.004925158442464883 0.0 0.0
0.009907507984504127 -0.007983655070869622 0.0 0.0030227180686522304 0.0 0.0
0.005438010819657835 -0.003829077357124344 0.0 0.0017530595739586041 0.0 0.0
0.002948862945355346 -0.001669477924660434 0.0 0.0010734183539088948 0.0 0.0
0.0018716489983838236 -0.0008424534130113681 0.0 0.0007642777159310166 0.0 0.0
0.0012917354231125056 -0.0004101042333261029 0.0 0.0004458230350675718 0.0 0.0
0.000846920378943905 -0.0006101510701195245 0.0 0.00061222689942525 0.0 0.0
0.007148188444328352 -0.008780453892431376 0.0 0.009126827185574782 0.0 0.0
0.005442393088935751 -0.007095534617017896 0.0 -0.007780828408407159 0.0 0.0
0.000528076490620033 -0.00045385611495385447 0.0 -0.0012226831950631345 0.0 0.0
0.0010000225018339942 -0.00029923145078603053 0.0 -0.000883102452831297 0.0 0.0
0.0015743472185711371 -0.00066345171296045 0.0 -0.0010376797341214439 0.0 0.0
0.002420369621467189 -0.0012777719391738884 0.0 -0.0013619203140599612 0.0 0.0
0.004409802885198197 -0.0029284399428943786 0.0 -0.002107275511932294 0.0 0.0
0.008181522136860228 -0.006360358888154227 0.0 -0.003620094042743549 0.0 0.0
0.01402742578386984 -0.01190529446412425 0.0 -0.005963157548650622 0.0 0.0
0.021932159060764844 -0.019530203657957212 0.0 -0.008960342027516943 0.0 0.0
0.03171982361658501 -0.029040851206386442 0.0 -0.01233582645728637 0.0 0.0
0.04315328074842589 -0.04020036126463733 0.0 -0.01577087480978806 0.0 0.0
0.056049463392712454 -0.05282357148597372 0.0 -0.019107333592656595 0.0 0.0
0.07027875954362496 -0.06677936981365074 0.0 -0.022377744991105175 0.0 0.0
0.08569349940354223 -0.08191832592335269 0.0 -0.02555554446756303 0.0 0.0
0.10205221135848877 -0.09800165095146518 0.0 -0.028469752396569847 0.0 0.0
0.11896236642812139 -0.11463126769104104 0.0 -0.030719920357419994 0.0 0.0
0.13576618564364695 -0.13113487045542893 0.0 -0.03166422413127623 0.0 0.0
0.15138714748343116 -0.14643493964893306 0.0 -0.03053729720756526 0.0 0.0
0.1642972601875071 -0.1590365985237252 0.0 -0.026196264426447513 0.0 0.0
0.17281661026819867 -0.16732656307498583 0.0 -0.017225467873007272 0.0 0.0
0.1728166102681852 -0.16732656307497784 0.0 0.017225467873070333 0.0 0.0
0.1642972601874683 -0.15903659852369145 0.0 0.02619626442652423 0.0 0.0
0.1513871474833733 -0.14643493964887178 0.0 0.03053729720761922 0.0 0.0
0.13576618564357643 -0.1311348704553552 0.0 0.031664224131297436 0.0 0.0
0.11896236642804187 -0.1146312676909611 0.0 0.03071992035741089 0.0 0.0
0.10205221135840481 -0.0980016509513768 0.0 0.028469752396559023 0.0 0.0
0.0856934994034585 -0.08191832592326653 0.0 0.025555544467551483 0.0 0.0
0.07027875954354379 -0.06677936981357258 0.0 0.022377744991091686 0.0 0.0
0.05604946339263617 -0.052823571485899556 0.0 0.019107333592632836 0.0 0.0
0.04315328074835745 -0.04020036126456361 0.0 0.015770874809763358 0.0 0.0
0.03171982361652648 -0.029040851206325602 0.0 0.012335826457257393 0.0 0.0
0.021932159060718937 -0.019530203657911915 0.0 0.008960342027498625 0.0 0.0
0.014027425783835812 -0.011905294464093608 0.0 0.005963157548633191 0.0 0.0
0.00818152213683837 -0.0063603588881353534 0.0 0.00362009404273389 0.0 0.0
0.00440980288518783 -0.0029284399428848307 0.0 0.002107275511925244 0.0 0.0
0.0024203696214629145 -0.00127777193917189 0.0 0.0013619203140581848 0.0 0.0
0.0015743472185707486 -0.0006634517129612272 0.0 0.0010376797341218325 0.0 0.0
0.0010000225018341746 -0.0002992314507853644 0.0 0.0008831024528296316 0.0 0.0
0.0005280764906204771 -0.00045385611495268874 0.0 0.0012226831950592487 0.0 0.0
0.0054423930889231364 -0.007095534617004651 0.0 0.00778082840838723 0.0 0.0
0.004131535517512858 -0.005717959432979647 0.0 -0.006386134424108347 0.0 0.0
0.00035170518234005355 -0.000363225366631581 0.0 -0.0016983263430689899 0.0 0.0
0.0007583305692678427 -0.00022173802541047838 0.0 -0.001324917139056525 0.0 0.0
0.0012927746733513434 -0.0005153799369725931 0.0 -0.0013437057718155843 0.0 0.0
0.001957778949711858 -0.0009675491877683129 0.0 -0.001626334667566065 0.0 0.0
0.003485218266046572 -0.0021598419387653944 0.0 -0.002364204707088813 0.0 0.0
0.006533824247543285 -0.0048424694948363545 0.0 -0.00393183916013734 0.0 0.0
0.011455450761270233 -0.00944108895776763 0.0 -0.006493252493870727 0.0 0.0
0.018208630627261482 -0.01591809174959069 0.0 -0.009843799752805305 0.0 0.0
0.026567259436912682 -0.024018177235307192 0.0 -0.013569957472249428 0.0 0.0
0.03629489745232496 -0.033495186257884946 0.0 -0.017358934426695338 0.0 0.0
0.04722623032008534 -0.04418138406162431 0.0 -0.021047586526496964 0.0 0.0
0.05927258959524853 -0.055984456019894324 0.0 -0.024668920953380857 0.0 0.0
0.07234589773270364 -0.06881496982290614 0.0 -0.02820213787547432 0.0 0.0
0.08628275535209017 -0.08251127927316304 0.0 -0.03144131195863753 0.0 0.0
0.10080472523554265 -0.0967901298932663 0.0 -0.03402306095619667 0.0 0.0
0.11543134052155823 -0.11115875512806106 0.0 -0.035369345533584284 0.0 0.0
0.12933906014479252 -0.12478645742082772 0.0 -0.034460079868577576 0.0 0.0
0.141281755182944 -0.1364510733458868 0.0 -0.02962160865827812 0.0 0.0
0.14978953192206612 -0.14473512224646612 0.0 -0.019111008037504984 0.0 0.0
0.1497895319220541 -0.14473512224644658 0.0 0.019111008037571042 0.0 0.0
0.14128175518290914 -0.13645107334585305 0.0 0.02962160865836294 0.0 0.0
0.12933906014474283 -0.12478645742079575 0.0 0.03446007986864008 0.0 0.0
0.11543134052149845 -0.11115875512800866 0.0 0.03536934553361071 0.0 0.0
0.10080472523547379 -0.09679012989319791 0.0 0.03402306095618446 0.0 0.0
0.08628275535201874 -0.08251127927309465 0.0 0.031441311958622986 0.0 0.0
0.07234589773263211 -0.06881496982283597 0.0 0.02820213787546455 0.0 0.0
0.05927258959518056 -0.055984456019825934 0.0 0.02466892095336759 0.0 0.0
0.047226230320020934 -0.0441813840615608 0.0 0.021047586526475315 0.0 0.0
0.036294897452267605 -0.0334951862578281 0.0 0.01735893442666847 0.0 0.0
0.026567259436862944 -0.02401817723525923 0.0 0.013569957472218452 0.0 0.0
0.01820863062722189 -0.01591809174955028 0.0 0.009843799752785376 0.0 0.0
0.011455450761242103 -0.009441088957740096 0.0 0.0064932524938556835 0.0 0.0
0.0065338242475257435 -0.004842469494819923 0.0 0.0039318391601280145 0.0 0.0
0.0034852182660385367 -0.002159841938758289 0.0 0.0023642047070836503 0.0 0.0
0.001957778949708888 -0.0009675491877654263 0.0 0.0016263346675651214 0.0 0.0
0.0012927746733511492 -0.0005153799369707057 0.0 0.0013437057718148626 0.0 0.0
0.0007583305692682174 -0.0002217380254115886 0.0 0.0013249171390560255 0.0 0.0
0.0003517051823394568 -0.0003632253666310259 0.0 0.0016983263430662143 0.0 0.0
0.004131535517503171 -0.005717959432968087 0.0 0.006386134424092138 0.0 0.0
0.0030896102985918245 -0.004559953760220059 0.0 -0.005155819065248202 0.0 0.0
0.000245880032033019 -0.00030137921126582867 0.0 -0.002053936248260224 0.0 0.0
0.0005575535776649043 -0.00016377327576899692 0.0 -0.0017129636474293997 0.0 0.0
0.0010216125539936477 -0.000388417796127527 0.0 -0.001655625396213778 0.0 0.0
0.0015528957528914283 -0.0007243775329366375 0.0 -0.0018836259029099134 0.0 0.0
0.002663528268423365 -0.0015323625211294267 0.0 -0.0025574961923076067 0.0 0.0
0.005010760841047068 -0.003489211395270697 0.0 -0.0040669709377529895 0.0 0.0
0.008960226621357342 -0.007091114024139866 0.0 -0.0065952338993894855 0.0 0.0
0.014523674275608911 -0.012368591811751095 0.0 -0.010018464460945287 0.0 0.0
0.02143990840614636 -0.01904080767679117 0.0 -0.013883130481801453 0.0 0.0
0.029451473008106216 -0.02682531767496643 0.0 -0.017791919246206933 0.0 0.0
0.038413070788287304 -0.03556853749479494 0.0 -0.021604016929943626 0.0 0.0
0.04827160785134388 -0.04521472432614804 0.0 -0.025354938732201848 0.0 0.0
0.058995173803101486 -0.055728601731479976 0.0 -0.02900935005218952 0.0 0.0
0.07049572213967964 -0.06702053425916077 0.0 -0.032384984047743814 0.0 0.0
0.08258360105922902 -0.07890376575015967 0.0 -0.03515643281375669 0.0 0.0
0.09495679876563842 -0.09106803348519232 0.0 -0.03680005788625973 0.0 0.0
0.10711886854315078 -0.1029994528485565 0.0 -0.03630417476484715 0.0 0.0
0.11818002915322692 -0.113810296004484 0.0 -0.03167631310599639 0.0 0.0
0.12684273870846358 -0.1222408666397099 0.0 -0.020686114930118404 0.0 0.0
0.1268427387084531 -0.1222408666397028 0.0 0.020686114930186017 0.0 0.0
0.11818002915319742 -0.11381029600445736 0.0 0.031676313106081766 0.0 0.0
0.10711886854310862 -0.10299945284850942 0.0 0.03630417476490999 0.0 0.0
0.09495679876558877 -0.09106803348513104 0.0 0.03680005788628482 0.0 0.0
0.08258360105917126 -0.07890376575010549 0.0 0.0351564328137437 0.0 0.0
0.07049572213962046 -0.06702053425910037 0.0 0.03238498404772927 0.0 0.0
0.05899517380304292 -0.05572860173143068 0.0 0.029009350052176974 0.0 0.0
0.04827160785128953 -0.04521472432609919 0.0 0.025354938732188637 0.0 0.0
0.03841307078823497 -0.03556853749475053 0.0 0.02160401692992009 0.0 0.0
0.029451473008059614 -0.026825317674921134 0.0 0.017791919246177734 0.0 0.0
0.021439908406105712 -0.019040807676756977 0.0 0.013883130481769257 0.0 0.0
0.014523674275576659 -0.012368591811723562 0.0 0.010018464460924026 0.0 0.0
0.008960226621335055 -0.007091114024116774 0.0 0.006595233899372999 0.0 0.0
0.005010760841033135 -0.0034892113952567083 0.0 0.004066970937742109 0.0 0.0
0.0026635282684176476 -0.0015323625211223213 0.0 0.0025574961922992245 0.0 0.0
0.0015528957528900267 -0.0007243775329368596 0.0 0.0018836259029064162 0.0 0.0
0.0010216125539933563 -0.0003884177961268609 0.0 0.001655625396211502 0.0 0.0
0.0005575535776651819 -0.00016377327576722056 0.0 0.0017129636474259025 0.0 0.0
0.00024588003203229736 -0.00030137921126432987 0.0 0.002053936248256394 0.0 0.0
0.0030896102985842333 -0.004559953760211646 0.0 0.005155819065236378 0.0 0.0
0.0022557234772636048 -0.0035784446678601145 0.0 -0.004131284383776801 0.0 0.0
0.0001737009217452068 -0.00025475009678865845 0.0 -0.0023049740575434297 0.0 0.0
0.00038304596658012 -0.00011450698942583326 0.0 -0.0020233265200653716 0.0 0.0
0.0007561507950531454 -0.00027109626280830135 0.0 -0.0019469284767094086 0.0 0.0
0.0011860830050420823 -0.0005277024136520758 0.0 -0.002142075509679986 0.0 0.0
0.0019486545448996473 -0.0010367076209554238 0.0 -0.002696940547003701 0.0 0.0
0.0036271928168885303 -0.0023307917446118154 0.0 -0.004026071857548941 0.0 0.0
0.0066067093081129125 -0.00492953523201356 0.0 -0.006343622567026919 0.0 0.0
0.010931934259802989 -0.008953002375990504 0.0 -0.009537095289870456 0.0 0.0
0.016377454749221504 -0.01415783845012708 0.0 -0.013246662001320075 0.0 0.0
0.022663404975728052 -0.020238568062483697 0.0 -0.01705811131761381 0.0 0.0
0.02965458396181428 -0.027036820442473353 0.0 -0.020764192242207602 0.0 0.0
0.037323206628338934 -0.03452410958277863 0.0 -0.024401929705207825 0.0 0.0
0.04568820709921659 -0.04271378848820362 0.0 -0.0279706828892754 0.0 0.0
0.05473374188599964 -0.051584493244858365 0.0 -0.031289461921994 0.0 0.0
0.06435471945759946 -0.061031652670171965 0.0 -0.03403258153983513 0.0 0.0
0.07438448993916785 -0.07090396159286705 0.0 -0.03583966049678211 0.0 0.0
0.08467433708217878 -0.08102675552715688 0.0 -0.03594109248676658 0.0 0.0
0.09480946651200467 -0.09094695183393497 0.0 -0.03225134812181685 0.0 0.0
0.10373547838368438 -0.09961978789865267 0.0 -0.021934823352779298 0.0 0.0
0.10373547838367611 -0.09961978789864734 0.0 0.021934823352840804 0.0 0.0
0.09480946651198083 -0.09094695183391188 0.0 0.032251348121902446 0.0 0.0
0.08467433708214439 -0.0810267555271249 0.0 0.03594109248682964 0.0 0.0
0.07438448993912788 -0.0709039615928333 0.0 0.035839660496806314 0.0 0.0
0.06435471945755403 -0.06103165267012667 0.0 0.03403258153982347 0.0 0.0
0.054733741885952425 -0.051584493244809515 0.0 0.03128946192197868 0.0 0.0
0.04568820709917182 -0.04271378848815788 0.0 0.027970682889263077 0.0 0.0
0.03732320662829822 -0.034524109582738216 0.0 0.024401929705199166 0.0 0.0
0.029654583961773284 -0.02703682044243605 0.0 0.02076419224218462 0.0 0.0
0.02266340497569183 -0.020238568062456164 0.0 0.017058111317585167 0.0 0.0
0.016377454749190223 -0.014157838450102656 0.0 0.013246662001288212 0.0 0.0
0.01093193425977873 -0.008953002375970076 0.0 0.00953709528985025 0.0 0.0
0.006606709308096204 -0.004929535232000237 0.0 0.006343622567012375 0.0 0.0
0.0036271928168787326 -0.0023307917446016013 0.0 0.004026071857541502 0.0 0.0
0.0019486545448956782 -0.001036707620951205 0.0 0.0026969405469992602 0.0 0.0
0.0011860830050414162 -0.0005277024136534081 0.0 0.0021420755096752675 0.0 0.0
0.0007561507950529234 -0.0002710962628101887 0.0 0.001946928476706633 0.0 0.0
0.0003830459665799535 -0.00011450698942594428 0.0 0.0020233265200633177 0.0 0.0
0.0001737009217450125 -0.00025475009678754823 0.0 0.002304974057540543 0.0 0.0
0.002255723477257554 -0.0035784446678526743 0.0 0.004131284383767753 0.0 0.0
0.0015997843270744716 -0.0027611604735438555 0.0 -0.003316096577484995 0.0 0.0
0.00011043471445504327 -0.00021557731712129602 0.0 -0.0024556984316054797 0.0 0.0
0.00022244436632479214 -6.594203914622732e-05 0.0 -0.0022554780626418136 0.0 0.0
0.000495207471307435 -0.00015592835839250974 0.0 -0.002191298343794612 0.0 0.0
0.0008328843807661468 -0.0003540807523509937 0.0 -0.0023847910604735123 0.0 0.0
0.0013318839132767102 -0.0006613464464881869 0.0 -0.0028452542090378063 0.0 0.0
0.0024016063926852182 -0.0013982703579555888 0.0 -0.003884098449989659 0.0 0.0
0.004435195217465077 -0.0030282229543052708 0.0 -0.005785564150262434 0.0 0.0
0.007505560528437677 -0.005766221518239245 0.0 -0.00849444176469416 0.0 0.0
0.011435937044314448 -0.009450182319187928 0.0 -0.011714633302384314 0.0 0.0
0.015975830089816623 -0.013797710958612708 0.0 -0.015118883472192923 0.0 0.0
0.020993774240112922 -0.018647384911750997 0.0 -0.01848109751929672 0.0 0.0
0.026474940879999048 -0.023976813699090993 0.0 -0.021788170477076596 0.0 0.0
0.03247129497269283 -0.029833080944239754 0.0 -0.02503424725619574 0.0 0.0
0.03903916343104716 -0.036263004210998595 0.0 -0.028106070791765747 0.0 0.0
0.046169903862097655 -0.043250586535066304 0.0 -0.030681100133472472 0.0 0.0
0.05379046107190488 -0.05074425940333516 0.0 -0.03239524599527144 0.0 0.0
0.06198602923240862 -0.05885181910672532 0.0 -0.033021946063247154 0.0 0.0
0.0709662432020984 -0.0676857268780191 0.0 -0.03099937931466279 0.0 0.0
0.08017925463398334 -0.07661690926614817 0.0 -0.0227617012358744 0.0 0.0
0.08017925463397776 -0.07661690926614018 0.0 0.022761701235928467 0.0 0.0
0.07096624320208131 -0.06768572687800312 0.0 0.03099937931474117 0.0 0.0
0.06198602923238311 -0.058851819106709335 0.0 0.03302194606330411 0.0 0.0
0.05379046107187324 -0.050744259403312064 0.0 0.032395245995291644 0.0 0.0
0.046169903862065126 -0.04325058653503078 0.0 0.030681100133459815 0.0 0.0
0.03903916343101271 -0.03626300421096662 0.0 0.02810607079174965 0.0 0.0
0.03247129497266213 -0.029833080944207335 0.0 0.02503424725618486 0.0 0.0
0.02647494087997157 -0.02397681369907012 0.0 0.021788170477067825 0.0 0.0
0.020993774240084195 -0.018647384911723908 0.0 0.01848109751927296 0.0 0.0
0.01597583008979095 -0.013797710958578069 0.0 0.015118883472170497 0.0 0.0
0.011435937044292632 -0.009450182319165279 0.0 0.011714633302359223 0.0 0.0
0.007505560528420885 -0.0057662215182259224 0.0 0.008494441764678062 0.0 0.0
0.00443519521745403 -0.0030282229542946126 0.0 0.0057855641502478905 0.0 0.0
0.0024016063926791398 -0.0013982703579529243 0.0 0.003884098449981055 0.0 0.0
0.0013318839132746008 -0.0006613464464877428 0.0 0.002845254209030923 0.0 0.0
0.0008328843807654529 -0.00035408075234877323 0.0 0.002384791060469904 0.0 0.0
0.0004952074713075738 -0.0001559283583902893 0.0 0.0021912983437925027 0.0 0.0
0.00022244436632445908 -6.594203914700447e-05 0.0 0.0022554780626392046 0.0 0.0
0.00011043471445473796 -0.00021557731712179562 0.0 0.0024556984316038144 0.0 0.0
0.0015997843270703083 -0.0027611604735386566 0.0 0.0033160965774785 0.0 0.0
0.0011069709129793437 -0.0021093206068143466 0.0 -0.0027014149300633727 0.0 0.0
3.9529478487870806e-05 -0.00018151255619036633 0.0 -0.0025287119425920213 0.0 0.0
6.723389323623485e-05 -1.178777312382806e-05 0.0 -0.0024138594647649114 0.0 0.0
0.00024034166808678536 -4.241232722246302e-05 0.0 -0.0023778896051209752 0.0 0.0
0.00047557876824783074 -0.00018348903572640296 0.0 -0.002585552029807703 0.0 0.0
0.0007784258871233185 -0.00036738631444954706 0.0 -0.0030115586341350475 0.0 0.0
0.0013485902672353 -0.0007043961865824677 0.0 -0.003738571277983882 0.0 0.0
0.00248304457800802 -0.0014785623972177753 0.0 -0.005028942305495998 0.0 0.0
0.004307193706045043 -0.0029379850572821553 0.0 -0.0069738962801684234 0.0 0.0
0.006688151393866887 -0.005051764209440535 0.0 -0.00938745691947751 0.0 0.0
0.00944853144176433 -0.007619001726784536 0.0 -0.012056045179994479 0.0 0.0
0.012473093999299328 -0.010496742496340694 0.0 -0.01479541027792275 0.0 0.0
0.015766511511048187 -0.01366522015234084 0.0 -0.01756319808028406 0.0 0.0
0.019391617611240197 -0.01718361199698837 0.0 -0.020300248123384823 0.0 0.0
0.023448541775310527 -0.021143550566922187 0.0 -0.022945150617020293 0.0 0.0
0.02804634807953002 -0.025638894477838292 0.0 -0.025293308599259712 0.0 0.0
0.033246515071165744 -0.0307227943291144 0.0 -0.026895583656914357 0.0 0.0
0.03917524483202092 -0.03659150196365246 0.0 -0.02761179018100446 0.0 0.0
0.046476035585232 -0.043896644379764815 0.0 -0.027346322771106713 0.0 0.0
0.055766537238228 -0.052898087598424404 0.0 -0.022858148737920136 0.0 0.0
0.05576653723822436 -0.052898087598428845 0.0 0.022858148737971984 0.0 0.0
0.04647603558522198 -0.043896644379764815 0.0 0.027346322771178655 0.0 0.0
0.039175244832003714 -0.036591501963640916 0.0 0.0276117901810512 0.0 0.0
0.03324651507114354 -0.03072279432909486 0.0 0.026895583656925237 0.0 0.0
0.02804634807951087 -0.02563889447782408 0.0 0.025293308599241837 0.0 0.0
0.023448541775290627 -0.02114355056690531 0.0 0.022945150617002086 0.0 0.0
0.019391617611223405 -0.017183611996976378 0.0 0.020300248123376163 0.0 0.0
0.01576651151103378 -0.013665220152334623 0.0 0.017563198080277842 0.0 0.0
0.012473093999283591 -0.010496742496329592 0.0 0.014795410277905763 0.0 0.0
0.009448531441750119 -0.007619001726771657 0.0 0.012056045179974162 0.0 0.0
0.006688151393854286 -0.005051764209427656 0.0 0.009387456919454973 0.0 0.0
0.004307193706036078 -0.002937985057271497 0.0 0.0069738962801588755 0.0 0.0
0.002483044578001664 -0.0014785623972102258 0.0 0.005028942305490558 0.0 0.0
0.0013485902672324968 -0.0007043961865815795 0.0 0.0037385712779799407 0.0 0.0
0.0007784258871228467 -0.0003673863144486589 0.0 0.0030115586341327716 0.0 0.0
0.0004755787682473589 -0.00018348903572418251 0.0 0.002585552029805094 0.0 0.0
0.0002403416680867576 -4.241232722257404e-05 0.0 0.002377889605120087 0.0 0.0
6.723389323601281e-05 -1.1787773123050904e-05 0.0 0.002413859464762247 0.0 0.0
3.952947848764876e-05 -0.00018151255619008877 0.0 0.0025287119425908555 0.0 0.0
0.0011069709129765681 -0.002109320606810707 0.0 0.002701414930057877 0.0 0.0
0.0007526243329189497 -0.0016059780699448911 0.0 -0.0022502507768722424 0.0 0.0
-4.261972283087223e-05 -0.0001536141486488951 0.0 -0.0025530414392740397 0.0 0.0
-8.675490725890134e-05 5.0510604416631466e-05 0.0 -0.0025109183537765922 0.0 0.0
-7.934798005787558e-06 6.868651458713515e-05 0.0 -0.002504053762219738 0.0 0.0
0.00011352307780454485 -9.171900101412334e-06 0.0 -0.0027079064530045605 0.0 0.0
0.00024266969263828098 -0.00010196702204856578 0.0 -0.003151268362647064 0.0 0.0
0.0004275098789220666 -0.00020929042588013758 0.0 -0.0037444594738405 0.0 0.0
0.0007814359934324722 -0.00039409100947240816 0.0 -0.004424321495992256 0.0 0.0
0.0013858944723195155 -0.000742288920009937 0.0 -0.005374942094622304 0.0 0.0
0.002185909789898438 -0.0012902389439575224 0.0 -0.006766112366989319 0.0 0.0
0.0031139992257283866 -0.002015772761753354 0.0 -0.008592712438229122 0.0 0.0
0.004113191694349344 -0.0028788185685026946 0.0 -0.010680323150174531 0.0 0.0
0.005199338120237956 -0.003865370280058844 0.0 -0.012935869943546896 0.0 0.0
0.006433573246376917 -0.005024981494570646 0.0 -0.01532371291665291 0.0 0.0
0.007946260457265542 -0.006474440070054044 0.0 -0.017798970230480493 0.0 0.0
0.009953876261445338 -0.008411608906685686 0.0 -0.020182020248213806 0.0 0.0
0.012726078576564964 -0.011080709751509765 0.0 -0.02199585795107495 0.0 0.0
0.01646800715791305 -0.014682296440782672 0.0 -0.022575264427353803 0.0 0.0
0.021608468492274796 -0.019866040913010252 0.0 -0.022482361193547296 0.0 0.0
0.029978410016347545 -0.028218333105014537 0.0 -0.022085953793509194 0.0 0.0
0.029978410016345824 -0.02821833310501365 0.0 0.022085953793541835 0.0 0.0
0.02160846849227105 -0.01986604091300581 0.0 0.02248236119360325 0.0 0.0
0.01646800715790428 -0.014682296440764908 0.0 0.022575264427386 0.0 0.0
0.012726078576554944 -0.011080709751486673 0.0 0.021995857951081277 0.0 0.0
0.009953876261441036 -0.008411608906676804 0.0 0.020182020248196708 0.0 0.0
0.007946260457260934 -0.0064744400700424976 0.0 0.017798970230468614 0.0 0.0
0.006433573246373614 -0.005024981494561764 0.0 0.015323712916641585 0.0 0.0
0.005199338120236596 -0.0038653702800548473 0.0 0.012935869943539902 0.0 0.0
0.0041131916943465685 -0.0028788185685035828 0.0 0.010680323150157434 0.0 0.0
0.003113999225726527 -0.0020157727617511334 0.0 0.008592712438214023 0.0 0.0
0.0021859097898954405 -0.001290238943955746 0.0 0.0067661123669737755 0.0 0.0
0.0013858944723179056 -0.000742288920009937 0.0 0.00537494209461542 0.0 0.0
0.0007814359934302795 -0.00039409100947640496 0.0 0.004424321495987593 0.0 0.0
0.000427509878921678 -0.00020929042588258007 0.0 0.003744459473834949 0.0 0.0
0.00024266969263841975 -0.00010196702204900987 0.0 0.0031512683626415683 0.0 0.0
0.00011352307780437831 -9.171900102300512e-06 0.0 0.0027079064530008967 0.0 0.0
-7.934798005954091e-06 6.86865145869131e-05 0.0 0.0025040537622192383 0.0 0.0
-8.675490725879031e-05 5.051060441640942e-05 0.0 0.002510918353775371 0.0 0.0
-4.261972283151061e-05 -0.00015361414864850653 0.0 0.002553041439273318 0.0 0.0
0.0007526243329176452 -0.0016059780699426186 0.0 0.002250250776869578 0.0 0.0
0.0005036856025920078 -0.0012396987017025962 0.0 -0.0019629499912422466 0.0 0.0
-0.00012758451749042554 -0.00012730897067880775 0.0 -0.0025491709435624954 0.0 0.0
-0.0002392523494114951 0.00011687166706186858 0.0 -0.0025510151146915794 0.0 0.0
-0.00024980808541430477 0.00017712414443904478 0.0 -0.0025611111938073083 0.0 0.0
-0.00024568010501480053 0.00016477577622930895 0.0 -0.002747887198820187 0.0 0.0
-0.00029555980707293705 0.00016262794513899337 0.0 -0.0031718640298987744 0.0 0.0
-0.00044847314712692654 0.00022639551047154427 0.0 -0.003757956849442856 0.0 0.0
-0.0007891986383341543 0.00039985224935001895 0.0 -0.004435071593932527 0.0 0.0
-0.001386325952952766 0.0007437027489665127 0.0 -0.005379199881926144 0.0 0.0
-0.0021854969652556067 0.0012917306616127 0.0 -0.00676614136026632 0.0 0.0
-0.003126707817100477 0.002032261792240142 0.0 -0.00859708474832288 0.0 0.0
-0.004168482063640511 0.0029333290442092874 0.0 -0.010693487527153711 0.0 0.0
-0.00530266282041178 0.003952615044910512 0.0 -0.0129473012662904 0.0 0.0
-0.0064743226142496835 0.005023063846466336 0.0 -0.015324655164972834 0.0 0.0
-0.007520912707732447 0.005984724923685292 0.0 -0.017809450649190595 0.0 0.0
-0.008146677273170172 0.0065523006735723754 0.0 -0.02034481106331054 0.0 0.0
-0.007920688420043148 0.006324915967668154 0.0 -0.022901271920303 0.0 0.0
-0.006475649759214941 0.0050610217301629845 0.0 -0.0255735127502581 0.0 0.0
-0.0034588726920673496 0.0025239825432024077 0.0 -0.028016257176464388 0.0 0.0
0.003997920632366869 -0.004550173537054114 0.0 -0.027275817942578273 0.0 0.0
0.003997920632365787 -0.004550173537049673 0.0 0.027275817942595704 0.0 0.0
-0.0034588726920671276 0.002523982543209513 0.0 0.02801625717648737 0.0 0.0
-0.00647564975921186 0.0050610217301629845 0.0 0.02557351275026043 0.0 0.0
-0.007920688420037514 0.006324915967656608 0.0 0.022901271920295563 0.0 0.0
-0.008146677273158986 0.006552300673560829 0.0 0.020344811063286117 0.0 0.0
-0.0075209127077229265 0.005984724923670193 0.0 0.017809450649174274 0.0 0.0
-0.006474322614239386 0.005023063846451237 0.0 0.015324655164959289 0.0 0.0
-0.005302662820400622 0.0039526150449060715 0.0 0.012947301266278632 0.0 0.0
-0.004168482063629075 0.002933329044201738 0.0 0.010693487527134393 0.0 0.0
-0.0031267078170900686 0.002032261792229928 0.0 0.008597084748307005 0.0 0.0
-0.002185496965247863 0.0012917306616091473 0.0 0.006766141360250888 0.0 0.0
-0.0013863259529482974 0.000743702748963404 0.0 0.005379199881920704 0.0 0.0
-0.0007891986383315175 0.0003998522493473544 0.0 0.004435071593929529 0.0 0.0
-0.0004484731471253445 0.0002263955104722104 0.0 0.0037579568494381377 0.0 0.0
-0.0002955598070718546 0.00016262794514032564 0.0 0.0031718640298962764 0.0 0.0
-0.00024568010501455073 0.00016477577623175144 0.0 0.002747887198817911 0.0 0.0
-0.00024980808541405497 0.00017712414443837865 0.0 0.0025611111938041997 0.0 0.0
-0.0002392523494111065 0.00011687166706086938 0.0 0.002551015114689803 0.0 0.0
-0.00012758451749084188 -0.00012730897067875224 0.0 0.002549170943562995 0.0 0.0
0.0005036856025913694 -0.0012396987017013385 0.0 0.00196294999124097 0.0 0.0
0.00033339275561741766 -0.0009720527221900865 0.0 -0.0017682343027982106 0.0 0.0
-0.00020574930073249953 -9.536332860349273e-05 0.0 -0.002504586872792758 0.0 0.0
-0.0003872371165143107 0.0001811063115710887 0.0 -0.0025380868318088945 0.0 0.0
-0.00048413627743157384 0.0002819022162225959 0.0 -0.0025444870928945096 0.0 0.0
-0.0005975045155345304 0.00033352141299647364 0.0 -0.002699751559489205 0.0 0.0
-0.000830692675796052 0.00042885777358181443 0.0 -0.00307780922670825 0.0 0.0
-0.0013687943934389546 0.0007242216085039388 0.0 -0.003780036827948252 0.0 0.0
-0.0024875696319652807 0.0014848746040629912 0.0 -0.005052329463671623 0.0 0.0
-0.004305434609990305 0.002938048959704176 0.0 -0.006979838263103999 0.0 0.0
-0.0066885184307692025 0.005054734077764245 0.0 -0.009388602108923227 0.0 0.0
-0.009464238759233912 0.0076396068435098385 0.0 -0.012056472241418259 0.0 0.0
-0.012525506647179496 0.010552946409764008 0.0 -0.014777259466621118 0.0 0.0
-0.015857405353358084 0.013747298922115903 0.0 -0.017502212182845533 0.0 0.0
-0.019411726627730913 0.01716351848688724 0.0 -0.0202242345972945 0.0 0.0
-0.023008557582700706 0.020618463795373465 0.0 -0.023011405168158583 0.0 0.0
-0.026286730622652577 0.0237607368164392 0.0 -0.025919485780315665 0.0 0.0
-0.0287325485493235 0.02610141158031709 0.0 -0.02904741357249796 0.0 0.0
-0.02977122642782551 0.02707472802362698 0.0 -0.03229236909328348 0.0 0.0
-0.028309996654435232 0.025354064762648676 0.0 -0.03385038531616502 0.0 0.0
-0.020926095026363306 0.01762546569697232 0.0 -0.03181778411633618 0.0 0.0
-0.020926095026363778 0.017625465696974096 0.0 0.03181778411637737 0.0 0.0
-0.02830999665443132 0.025354064762638906 0.0 0.0338503853162222 0.0 0.0
-0.029771226427811492 0.02707472802361366 0.0 0.0322923690933169 0.0 0.0
-0.028732548549301795 0.026101411580294 0.0 0.029047413572495517 0.0 0.0
-0.02628673062262679 0.023760736816406336 0.0 0.025919485780296236 0.0 0.0
-0.023008557582676975 0.020618463795350372 0.0 0.023011405168142707 0.0 0.0
-0.019411726627706793 0.017163518486859264 0.0 0.02022423459727929 0.0 0.0
-0.015857405353334214 0.013747298922083928 0.0 0.017502212182834764 0.0 0.0
-0.01252550664715496 0.010552946409739139 0.0 0.014777259466598025 0.0 0.0
-0.009464238759211596 0.007639606843491187 0.0 0.01205647224139339 0.0 0.0
-0.0066885184307504675 0.005054734077750922 0.0 0.009388602108896027 0.0 0.0
-0.004305434609978648 0.0029380489596984027 0.0 0.006979838263089899 0.0 0.0
-0.002487569631957981 0.0014848746040594385 0.0 0.005052329463665073 0.0 0.0
-0.0013687943934349023 0.0007242216085037168 0.0 0.003780036827940758 0.0 0.0
-0.0008306926757940258 0.00042885777358181443 0.0 0.0030778092267039203 0.0 0.0
-0.000597504515533781 0.0003335214129946973 0.0 0.002699751559485042 0.0 0.0
-0.00048413627743107424 0.0002819022162233731 0.0 0.0025444870928921226 0.0 0.0
-0.0003872371165140609 0.00018110631157230994 0.0 0.0025380868318071736 0.0 0.0
-0.00020574930073236075 -9.536332860299312e-05 0.0 0.002504586872791592 0.0 0.0
0.00033339275561697357 -0.0009720527221888462 0.0 0.0017682343027971559 0.0 0.0
0.0002146265946780801 -0.0007484470752063821 0.0 -0.0015741565213365782 0.0 0.0
-0.0002747837957898236 -5.797769088655702e-05 0.0 -0.0024060933688487274 0.0 0.0
-0.0005275147697783589 0.0002406676494216553 0.0 -0.0024673623008399925 0.0 0.0
-0.0007093866117870717 0.0003808127966780095 0.0 -0.0024569880811093903 0.0 0.0
-0.0009384395678322943 0.0004942431035035444 0.0 -0.0025666429108758826 0.0 0.0
-0.0013820158279628514 0.0007253100410571367 0.0 -0.0029552578806855134 0.0 0.0
-0.0024168180109095383 0.0014192049097441206 0.0 -0.0039412873117387615 0.0 0.0
-0.004433452154379014 0.003029920070627412 0.0 -0.005805619716140797 0.0 0.0
-0.0075022912083107796 0.005764213156535636 0.0 -0.008494670222764067 0.0 0.0
-0.011438901426135878 0.00945506613856928 0.0 -0.011716225538781044 0.0 0.0
-0.015991690525570257 0.013817230409166825 0.0 -0.015112074939447884 0.0 0.0
-0.021032155398127167 0.018689410124858696 0.0 -0.018419009796475483 0.0 0.0
-0.026532009571947457 0.02402817784157607 0.0 -0.0216117066755821 0.0 0.0
-0.032453707988614494 0.029782808392761595 0.0 -0.024798187043642006 0.0 0.0
-0.038613142576469 0.03576345864644015 0.0 -0.028209011189075817 0.0 0.0
-0.04459380260642093 0.04156520077444181 0.0 -0.03213983232609585 0.0 0.0
-0.04974932797436665 0.046552908532292214 0.0 -0.036727467027804384 0.0 0.0
-0.053076693861125096 0.0496671654886649 0.0 -0.0411266952185988 0.0 0.0
-0.05264397295817411 0.048950322619716324 0.0 -0.04329571599585569 0.0 0.0
-0.044413071291437234 0.039985461527652255 0.0 -0.03918347630746788 0.0 0.0
-0.044413071291435235 0.0399854615276487 0.0 0.039183476307519394 0.0 0.0
-0.05264397295816467 0.04895032261970744 0.0 0.04329571599592186 0.0 0.0
-0.05307669386110331 0.04966716548864003 0.0 0.041126695218645426 0.0 0.0
-0.049749327974331875 0.04655290853225935 0.0 0.0367274670278076 0.0 0.0
-0.04459380260638182 0.04156520077440451 0.0 0.03213983232607798 0.0 0.0
-0.03861314257643081 0.03576345864640107 0.0 0.028209011189057054 0.0 0.0
-0.032453707988576774 0.029782808392719406 0.0 0.024798187043621467 0.0 0.0
-0.02653200957191057 0.02402817784153033 0.0 0.021611706675568443 0.0 0.0
-0.021032155398090696 0.018689410124825834 0.0 0.018419009796451946 0.0 0.0
-0.01599169052553645 0.013817230409138848 0.0 0.015112074939420794 0.0 0.0
-0.011438901426106957 0.00945506613853997 0.0 0.01171622553875118 0.0 0.0
-0.007502291208290879 0.0057642131565143195 0.0 0.008494670222746303 0.0 0.0
-0.004433452154366635 0.0030299200706194185 0.0 0.005805619716127808 0.0 0.0
-0.0024168180109022386 0.001419204909735683 0.0 0.0039412873117288805 0.0 0.0
-0.0013820158279596317 0.0007253100410531399 0.0 0.002955257880682516 0.0 0.0
-0.0009384395678311841 0.0004942431035033223 0.0 0.0025666429108740507 0.0 0.0
-0.0007093866117862946 0.00038081279667934176 0.0 0.0024569880811080025 0.0 0.0
-0.0005275147697779703 0.00024066764942087815 0.0 0.0024673623008394374 0.0 0.0
-0.0002747837957897403 -5.797769088700111e-05 0.0 0.0024060933688466735 0.0 0.0
0.00021462659467810785 -0.0007484470752057958 0.0 0.0015741565213332476 0.0 0.0
0.00012186074665987423 -0.0005506731500212747 0.0 -0.0013678906231448518 0.0 0.0
-0.00033670530474272375 -1.517572335107964e-05 0.0 -0.002252124060655891 0.0 0.0
-0.0006588571107878916 0.00029541674643474014 0.0 -0.0023432899621970704 0.0 0.0
-0.0009243499426255242 0.000471691919305961 0.0 -0.0023076896788703505 0.0 0.0
-0.0012710734180219063 0.0006550693846201217 0.0 -0.0023775886283673997 0.0 0.0
-0.001991960721473618 0.001099400017564589 0.0 -0.0028329552489025356 0.0 0.0
-0.003631689610871125 0.0023451167982626586 0.0 -0.004079267578022905 0.0 0.0
-0.006599531678630033 0.004924317749907203 0.0 -0.006349430839522996 0.0 0.0
-0.010929884400392387 0.008951405936552526 0.0 -0.009534092221605395 0.0 0.0
-0.016383664982582313 0.014165157009584206 0.0 -0.013249083126266825 0.0 0.0
-0.022675675725280287 0.020252667538378955 0.0 -0.017043708376951905 0.0 0.0
-0.029666288577638478 0.027050726898882438 0.0 -0.02066270627892597 0.0 0.0
-0.03732026370615013 0.0345192732683941 0.0 -0.024118888153548235 0.0 0.0
-0.04561201433553794 0.04261908665274916 0.0 -0.027572903458869535 0.0 0.0
-0.05436862930176889 0.05116889624284138 0.0 -0.03138169727715101 0.0 0.0
-0.06312673072596256 0.05970211009993598 0.0 -0.03601586404934132 0.0 0.0
-0.07098192002522444 0.06730623810140735 0.0 -0.04153110041033903 0.0 0.0
-0.07635248516915075 0.07238068399048991 0.0 -0.04681095391980272 0.0 0.0
-0.076514123068567 0.07209971195948661 0.0 -0.04903250820044336 0.0 0.0
-0.06645271889200463 0.06137050982225478 0.0 -0.044955790826254116 0.0 0.0
-0.06645271889200027 0.06137050982225212 0.0 0.04495579082631507 0.0 0.0
-0.07651412306855149 0.07209971195947862 0.0 0.04903250820051852 0.0 0.0
-0.07635248516912105 0.07238068399046949 0.0 0.046810953919857234 0.0 0.0
-0.07098192002517908 0.06730623810137004 0.0 0.041531100410347466 0.0 0.0
-0.06312673072591163 0.05970211009989068 0.0 0.03601586404932633 0.0 0.0
-0.054368629301717014 0.05116889624279519 0.0 0.031381697277129916 0.0 0.0
-0.045612014335486534 0.04261908665270209 0.0 0.027572903458843778 0.0 0.0
-0.037320263706099865 0.034519273268346584 0.0 0.02411888815352936 0.0 0.0
-0.029666288577589517 0.02705072689883181 0.0 0.020662706278901544 0.0 0.0
-0.022675675725235767 0.0202526675383341 0.0 0.017043708376921596 0.0 0.0
-0.016383664982543927 0.014165157009546903 0.0 0.013249083126231354 0.0 0.0
-0.01092988440036434 0.008951405936523216 0.0 0.009534092221582191 0.0 0.0
-0.006599531678611464 0.004924317749887663 0.0 0.006349430839509562 0.0 0.0
-0.0036316896108602448 0.0023451167982528887 0.0 0.0040792675780136345 0.0 0.0
-0.0019919607214687746 0.0010994000175612584 0.0 0.0028329552488967624 0.0 0.0
-0.0012710734180204214 0.000655069384616791 0.0 0.0023775886283650682 0.0 0.0
-0.0009243499426247748 0.00047169191930518384 0.0 0.002307689678868352 0.0 0.0
-0.0006588571107872393 0.0002954167464359614 0.0 0.0023432899621951275 0.0 0.0
-0.00033670530474240457 -1.5175723350191461e-05 0.0 0.0022521240606548365 0.0 0.0
0.00012186074665966606 -0.0005506731500208462 0.0 0.0013678906231444077 0.0 0.0
4.324157927754202e-05 -0.0003766028992767678 0.0 -0.0011551605212207772 0.0 0.0
-0.00039498059766335247 3.28847232100582e-05 0.0 -0.0020422571322363248 0.0 0.0
-0.0007812646016726599 0.0003457604701221362 0.0 -0.00216143190776219 0.0 0.0
-0.0011274408232804234 0.0005533554779200145 0.0 -0.002092702260133694 0.0 0.0
-0.001610973787001535 0.0008306062361060906 0.0 -0.0021447732172800715 0.0 0.0
-0.0026919606383107864 0.0015819961193832555 0.0 -0.0026834139798299628 0.0 0.0
-0.0050052395389456605 0.003492247325536546 0.0 -0.00409752180498868 0.0 0.0
-0.00895170849182908 0.007082754320574036 0.0 -0.0065918005835396976 0.0 0.0
-0.014524683909426017 0.01236957153453222 0.0 -0.010014305954376912 0.0 0.0
-0.02144851223455324 0.01904961280862505 0.0 -0.013884003447428794 0.0 0.0
-0.029456177895298807 0.02682982192364758 0.0 -0.01776752387404268 0.0 0.0
-0.038388565077878634 0.03554429962769001 0.0 -0.021475486108221364 0.0 0.0
-0.04818976365185512 0.04513543529437314 0.0 -0.02501229830782936 0.0 0.0
-0.05884196893856569 0.05557507361786129 0.0 -0.02851207127449773 0.0 0.0
-0.0702044085632528 0.06670221521514019 0.0 -0.03237556341396075 0.0 0.0
-0.08174324906967387 0.07796468274762791 0.0 -0.03713620418163732 0.0 0.0
-0.09223345666553578 0.08812630807725519 0.0 -0.0429029516196614 0.0 0.0
-0.09946445725628503 0.09495196386733351 0.0 -0.04852090394433295 0.0 0.0
-0.09984457656124901 0.09482955779873592 0.0 -0.05145013808859833 0.0 0.0
-0.08798819797554025 0.08239120923278076 0.0 -0.04995326637305719 0.0 0.0
-0.0879881979755337 0.08239120923276833 0.0 0.04995326637311681 0.0 0.0
-0.09984457656122711 0.09482955779870128 0.0 0.051450138088674935 0.0 0.0
-0.09946445725624664 0.09495196386728466 0.0 0.04852090394439168 0.0 0.0
-0.09223345666548158 0.08812630807719835 0.0 0.04290295161967739 0.0 0.0
-0.08174324906961122 0.07796468274756752 0.0 0.03713620418162533 0.0 0.0
-0.0702044085631883 0.06670221521507802 0.0 0.032375563413945985 0.0 0.0
-0.05884196893850126 0.055575073617801785 0.0 0.02851207127447436 0.0 0.0
-0.04818976365179149 0.04513543529430386 0.0 0.02501229830781182 0.0 0.0
-0.03838856507781735 0.03554429962762695 0.0 0.021475486108193553 0.0 0.0
-0.029456177895243907 0.026829821923595176 0.0 0.017767523874010482 0.0 0.0
-0.02144851223450546 0.01904961280858064 0.0 0.0138840034473936 0.0 0.0
-0.014524683909389907 0.012369571534494472 0.0 0.010014305954352487 0.0 0.0
-0.008951708491804336 0.007082754320552276 0.0 0.006591800583523988 0.0 0.0
-0.0050052395389305615 0.0034922473255283304 0.0 0.004097521804976467 0.0 0.0
-0.0026919606383039862 0.0015819961193821452 0.0 0.0026834139798246337 0.0 0.0
-0.0016109737869994256 0.0008306062361052025 0.0 0.0021447732172785172 0.0 0.0
-0.0011274408232795352 0.000553355477917461 0.0 0.002092702260133139 0.0 0.0
-0.0007812646016720909 0.00034576047011991573 0.0 0.0021614319077614685 0.0 0.0
-0.0003949805976628945 3.2884723208947975e-05 0.0 0.00204225713223255 0.0 0.0
4.324157927745875e-05 -0.0003766028992765076 0.0 0.0011551605212185567 0.0 0.0
-2.3865001548384335e-05 -0.00022727426462720857 0.0 -0.0009364192557494433 0.0 0.0
-0.00045112467976787807 8.470148144679168e-05 0.0 -0.00178179882683549 0.0 0.0
-0.0008957827066375379 0.0003920754505623014 0.0 -0.0019228436396168669 0.0 0.0
-0.0013211141162429718 0.0006313508450206395 0.0 -0.0018312985011069705 0.0 0.0
-0.001980454207954896 0.0010435614822683625 0.0 -0.00188872700945808 0.0 0.0
-0.003493304481274273 0.0021896261762168745 0.0 -0.0024751384720313463 0.0 0.0
-0.006524278885772616 0.004837416742452305 0.0 -0.003946226584577994 0.0 0.0
-0.011449515948245781 0.009434629574299969 0.0 -0.006482573186462726 0.0 0.0
-0.01821321942160664 0.015922232232898903 0.0 -0.009840273686600676 0.0 0.0
-0.026576126759240593 0.02402640574310011 0.0 -0.013568284697556332 0.0 0.0
-0.036287882659956305 0.03348632900916382 0.0 -0.01732432119145144 0.0 0.0
-0.04716184239742077 0.044115792182624514 0.0 -0.02090944449611165 0.0 0.0
-0.05910925977533488 0.05582716311914915 0.0 -0.024335874937778 0.0 0.0
-0.07210101591204349 0.06858469070649287 0.0 -0.02769637661243818 0.0 0.0
-0.08601107147957293 0.08223447614077184 0.0 -0.031235627205362215 0.0 0.0
-0.1002560374207592 0.09615433162744758 0.0 -0.03547682440544542 0.0 0.0
-0.11330332507355909 0.1087925965451717 0.0 -0.04081514229530492 0.0 0.0
-0.1222990146708968 0.11729678237467933 0.0 -0.046627914826934846 0.0 0.0
-0.12295085970652048 0.11741365068963905 0.0 -0.05138359317443353 0.0 0.0
-0.1096320449304013 0.10356217437081927 0.0 -0.05456531668299003 0.0 0.0
-0.10963204493039275 0.10356217437080328 0.0 0.05456531668304465 0.0 0.0
-0.12295085970649164 0.11741365068960707 0.0 0.05138359317450847 0.0 0.0
-0.1222990146708492 0.11729678237463315 0.0 0.04662791482698825 0.0 0.0
-0.11330332507349611 0.10879259654511131 0.0 0.040815142295324125 0.0 0.0
-0.10025603742068534 0.09615433162737475 0.0 0.035476824405433316 0.0 0.0
-0.08601107147949559 0.08223447614069279 0.0 0.031235627205349614 0.0 0.0
-0.0721010159119664 0.06858469070642004 0.0 0.027696376612417917 0.0 0.0
-0.059109259775258396 0.05582716311907632 0.0 0.024335874937760626 0.0 0.0
-0.04716184239734737 0.04411579218255168 0.0 0.020909444496089113 0.0 0.0
-0.03628788265989069 0.03348632900909587 0.0 0.017324321191419745 0.0 0.0
-0.026576126759183596 0.024026405743040158 0.0 0.013568284697522581 0.0 0.0
-0.018213219421562968 0.015922232232862044 0.0 0.009840273686577528 0.0 0.0
-0.01144951594821532 0.0094346295742751 0.0 0.006482573186445517 0.0 0.0
-0.006524278885752327 0.0048374167424389825 0.0 0.0039462265845645605 0.0 0.0
-0.003493304481264531 0.0021896261762071045 0.0 0.0024751384720255176 0.0 0.0
-0.0019804542079518844 0.0010435614822641437 0.0 0.0018887270094572473 0.0 0.0
-0.0013211141162419726 0.0006313508450205285 0.0 0.0018312985011055272 0.0 0.0
-0.0008957827066370383 0.0003920754505617463 0.0 0.0019228436396138693 0.0 0.0
-0.00045112467976750337 8.470148144623657e-05 0.0 0.0017817988268343243 0.0 0.0
-2.3865001547898612e-05 -0.00022727426462769082 0.0 0.0009364192557473339 0.0 0.0
-7.840868489439323e-05 -0.00010504525737808912 0.0 -0.0007111370854770982 0.0 0.0
-0.0005038837635849558 0.0001376524330963802 0.0 -0.0014763064205179366 0.0 0.0
-0.0010040122489624048 0.000434969460279544 0.0 -0.0016277216684384976 0.0 0.0
-0.0015130782518589792 0.0007113099861673078 0.0 -0.0015216800221897753 0.0 0.0
-0.0023998495714525614 0.0013085141452873206 0.0 -0.0015877977715038072 0.0 0.0
-0.0044004699029003835 0.0029343776357253493 0.0 -0.0021855343250541392 0.0 0.0
-0.008173507234412958 0.006353166855888048 0.0 -0.0036187250666488424 0.0 0.0
-0.014027088328783466 0.0119042163002816 0.0 -0.00594993881832373 0.0 0.0
-0.021939974566828224 0.01953723245110428 0.0 -0.008957499003709568 0.0 0.0
-0.03172602893414589 0.029045683312882264 0.0 -0.012330658925325921 0.0 0.0
-0.043130726677913234 0.040175164185868084 0.0 -0.01572827932951748 0.0 0.0
-0.055947707526988466 0.05272033214068239 0.0 -0.018978498582081227 0.0 0.0
-0.07004764040753991 0.0665552029815597 0.0 -0.022111307197905883 0.0 0.0
-0.085348420864723 0.08159350378940511 0.0 -0.025133881493715537 0.0 0.0
-0.1016897301227378 0.09765261067879116 0.0 -0.028071750817636798 0.0 0.0
-0.11847125534021058 0.11407723580159068 0.0 -0.031236884337530357 0.0 0.0
-0.13398284464055532 0.12911108857662246 0.0 -0.03540886203566629 0.0 0.0
-0.14485610268512372 0.13941994771538901 0.0 -0.041280914382003875 0.0 0.0
-0.14617012451696337 0.14015005359757282 0.0 -0.04895218713418492 0.0 0.0
-0.13185599682434626 0.1253155196457616 0.0 -0.058781990186620114 0.0 0.0
-0.13185599682433574 0.12531551964575538 0.0 0.058781990186674404 0.0 0.0
-0.14617012451692826 0.14015005359753285 0.0 0.048952187134259306 0.0 0.0
-0.1448561026850675 0.1394199477153304 0.0 0.04128091438205106 0.0 0.0
-0.133982844640482 0.1291110885765585 0.0 0.035408862035675615 0.0 0.0
-0.11847125534012597 0.11407723580151163 0.0 0.031236884337527082 0.0 0.0
-0.10168973012264773 0.09765261067871212 0.0 0.028071750817624863 0.0 0.0
-0.08534842086463337 0.08159350378931407 0.0 0.025133881493698218 0.0 0.0
-0.07004764040745143 0.06655520298146955 0.0 0.02211130719788973 0.0 0.0
-0.055947707526903076 0.05272033214060068 0.0 0.01897849858205919 0.0 0.0
-0.04313072667783717 0.040175164185795254 0.0 0.01572827932949017 0.0 0.0
-0.03172602893408066 0.029045683312819648 0.0 0.012330658925297 0.0 0.0
-0.021939974566777237 0.019537232451054987 0.0 0.008957499003690417 0.0 0.0
-0.014027088328747203 0.011904216300246517 0.0 0.005949938818308631 0.0 0.0
-0.008173507234387825 0.006353166855860071 0.0 0.0036187250666380733 0.0 0.0
-0.0044004699028878935 0.0029343776357106943 0.0 0.0021855343250468673 0.0 0.0
-0.0023998495714478846 0.0013085141452864324 0.0 0.001587797771500421 0.0 0.0
-0.0015130782518584102 0.0007113099861695282 0.0 0.0015216800221892202 0.0 0.0
-0.0010040122489612807 0.0004349694602777676 0.0 0.0016277216684378315 0.0 0.0
-0.0005038837635848864 0.0001376524330953255 0.0 0.0014763064205169374 0.0 0.0
-7.840868489439323e-05 -0.00010504525737779075 0.0 0.0007111370854753774 0.0 0.0
-0.00011675596715082781 -1.3243955506503369e-05 0.0 -0.00048086328221585983 0.0 0.0
-0.000548788173376058 0.00018794224759843825 0.0 -0.0011289073190461352 0.0 0.0
-0.0011075140519360427 0.00047432422242577044 0.0 -0.0012732955450635575 0.0 0.0
-0.001715397915520167 0.0008047598980469584 0.0 -0.0011670879636983544 0.0 0.0
-0.0028860565031293417 0.0016492558144143299 0.0 -0.0012381777670820715 0.0 0.0
-0.005418707337601247 0.0038158906563761086 0.0 -0.0018028027333076846 0.0 0.0
-0.009906096678808707 0.007981281527332573 0.0 -0.0030133607623574754 0.0 0.0
-0.016633139766069338 0.0144252512779377 0.0 -0.004912200094646213 0.0 0.0
-0.025669590872927195 0.023172370254874952 0.0 -0.00739076122840876 0.0 0.0
-0.03685725386014549 0.034063504967142944 0.0 -0.010182144121915648 0.0 0.0
-0.049944899524575426 0.04685195282771737 0.0 -0.01299836996869319 0.0 0.0
-0.06470574750586389 0.06131425408149882 0.0 -0.015689233085652288 0.0 0.0
-0.08096516883587174 0.07727639510526041 0.0 -0.01829894068251381 0.0 0.0
-0.09855289305151138 0.09456612597790226 0.0 -0.020831164296249538 0.0 0.0
-0.11718826427302631 0.11289124235493819 0.0 -0.023059010157368887 0.0 0.0
-0.1362226699664929 0.13155919552610307 0.0 -0.024807686081663727 0.0 0.0
-0.15402504171592807 0.1488672152449073 0.0 -0.027014078143168363 0.0 0.0
-0.16710611605928638 0.16129176451588734 0.0 -0.03239356903938173 0.0 0.0
-0.1697891538474175 0.16331213118447963 0.0 -0.04366295167285128 0.0 0.0
-0.1551728705884335 0.14812517247718304 0.0 -0.062248713395253286 0.0 0.0
-0.1551728705884209 0.14812517247717327 0.0 0.062248713395293476 0.0 0.0
-0.16978915384737692 0.1633121311844299 0.0 0.043662951672909234 0.0 0.0
-0.1671061160592209 0.16129176451580296 0.0 0.03239356903942259 0.0 0.0
-0.15402504171584347 0.1488672152448185 0.0 0.027014078143173692 0.0 0.0
-0.13622266996639626 0.13155919552600093 0.0 0.024807686081662172 0.0 0.0
-0.11718826427292416 0.11289124235483161 0.0 0.02305901015736167 0.0 0.0
-0.09855289305140957 0.09456612597780145 0.0 0.02083116429623655 0.0 0.0
-0.08096516883577105 0.07727639510516449 0.0 0.018298940682500042 0.0 0.0
-0.06470574750576666 0.06131425408140245 0.0 0.015689233085637133 0.0 0.0
-0.04994489952448852 0.04685195282762944 0.0 0.012998369968668877 0.0 0.0
-0.036857253860071965 0.034063504967071 0.0 0.010182144121891334 0.0 0.0
-0.025669590872869567 0.02317237025482477 0.0 0.007390761228392884 0.0 0.0
-0.01663313976602679 0.014425251277894624 0.0 0.004912200094629338 0.0 0.0
-0.009906096678779265 0.007981281527305928 0.0 0.0030133607623474834 0.0 0.0
-0.005418707337586516 0.0038158906563616757 0.0 0.0018028027333009122 0.0 0.0
-0.002886056503123048 0.0016492558144070024 0.0 0.0012381777670778527 0.0 0.0
-0.0017153979155189944 0.0008047598980457371 0.0 0.0011670879636974107 0.0 0.0
-0.0011075140519352308 0.0004743242224275468 0.0 0.0012732955450617256 0.0 0.0
-0.0005487881733758637 0.00018794224759899336 0.0 0.0011289073190440813 0.0 0.0
-0.00011675596715046005 -1.32439555063351e-05 0.0 0.0004808632822157488 0.0 0.0
-0.00013208972974282363 4.3715493100338065e-05 0.0 -0.0002522994324682948 0.0 0.0
-0.0005767640145573627 0.00022925604695689383 0.0 -0.0007390740589786615 0.0 0.0
-0.0012091739902615473 0.0005126991759356603 0.0 -0.0008533055654810773 0.0 0.0
-0.0019470224918446966 0.00092600896121664 0.0 -0.0007699687305278147 0.0 0.0
-0.0034536356294382897 0.002087378560094555 0.0 -0.0008416813077054552 0.0 0.0
-0.006529968842631684 0.004816118916401102 0.0 -0.0012640395374394209 0.0 0.0
-0.011674488850593023 0.009672756668551052 0.0 -0.0021059170576808173 0.0 0.0
-0.01924001549927118 0.016960998070745248 0.0 -0.0034100039064018928 0.0 0.0
-0.029363428057499863 0.02678772805067231 0.0 -0.005144691351308572 0.0 0.0
-0.041929582304367 0.039037741581450014 0.0 -0.0071255148646302 0.0 0.0
-0.05669051767890715 0.05347489464645783 0.0 -0.009126265606950401 0.0 0.0
-0.07339501540253046 0.06985326975706796 0.0 -0.011038088748331232 0.0 0.0
-0.09181645582799164 0.08794432955015896 0.0 -0.012919415526370992 0.0 0.0
-0.1116712027988479 0.10746085389979276 0.0 -0.014722783528314132 0.0 0.0
-0.13249746211649555 0.12793668515540624 0.0 -0.016155527659282853 0.0 0.0
-0.15349262692011723 0.14855704560536243 0.0 -0.01674168521513364 0.0 0.0
-0.17318223630787372 0.1677946119050704 0.0 -0.016716980685747007 0.0 0.0
-0.18863406157807353 0.1826145032933031 0.0 -0.019618995640910297 0.0 0.0
-0.19407031380094752 0.1871145431748671 0.0 -0.03376901799186083 0.0 0.0
-0.1803316238558202 0.1726904792767021 0.0 -0.06412221161320641 0.0 0.0
-0.18033162385580445 0.17269047927668968 0.0 0.06412221161323661 0.0 0.0
-0.19407031380090206 0.18711454317482445 0.0 0.03376901799190557 0.0 0.0
-0.18863406157799814 0.1826145032932347 0.0 0.019618995640940606 0.0 0.0
-0.17318223630777702 0.1677946119049869 0.0 0.01671698068574823 0.0 0.0
-0.1534926269200079 0.14855704560526295 0.0 0.016741685215131974 0.0 0.0
-0.13249746211638116 0.12793668515529744 0.0 0.016155527659280966 0.0 0.0
-0.11167120279873431 0.1074608538996853 0.0 0.014722783528306305 0.0 0.0
-0.09181645582787813 0.08794432955004972 0.0 0.012919415526360556 0.0 0.0
-0.07339501540242219 0.06985326975696182 0.0 0.011038088748322461 0.0 0.0
-0.05669051767880966 0.05347489464635924 0.0 0.009126265606931527 0.0 0.0
-0.04192958230428495 0.03903774158137008 0.0 0.007125514864614435 0.0 0.0
-0.029363428057435817 0.026787728050615023 0.0 0.005144691351299302 0.0 0.0
-0.01924001549922278 0.01696099807070306 0.0 0.003410003906392567 0.0 0.0
-0.011674488850559085 0.009672756668521298 0.0 0.0021059170576731567 0.0 0.0
-0.006529968842614035 0.0048161189163833384 0.0 0.0012640395374343139 0.0 0.0
-0.0034536356294310525 0.0020873785600885597 0.0 0.0008416813077053442 0.0 0.0
-0.0019470224918422402 0.0009260089612174172 0.0 0.000769968730526871 0.0 0.0
-0.00120917399026094 0.0005126991759353272 0.0 0.000853305565479523 0.0 0.0
-0.0005767640145565751 0.00022925604695761548 0.0 0.0007390740589791056 0.0 0.0
-0.00013208972974237607 4.371549310029643e-05 0.0 0.00025229943246718456 0.0 0.0
-0.00011225252550978171 5.954803614660609e-05 0.0 -4.232165306433666e-05 0.0 0.0
-0.0005713913226535472 0.00025121823870322135 0.0 -0.00029893234416961123 0.0 0.0
-0.001317251191508273 0.0005567904250963762 0.0 -0.0003542251091692705 0.0 0.0
-0.0022325429330119495 0.0011048374666977612 0.0 -0.0003340749520702735 0.0 0.0
-0.00410576178084987 0.0026220550013567046 0.0 -0.0003692938117758615 0.0 0.0
-0.007699082436555538 0.005893850082660412 0.0 -0.0005402932406669558 0.0 0.0
-0.013459018991736071 0.011393517672963593 0.0 -0.0008894276636197684 0.0 0.0
-0.021813763819888976 0.019477432565290442 0.0 -0.0014461846916721255 0.0 0.0
-0.032982723067276454 0.030341549986851124 0.0 -0.002228109779492393 0.0 0.0
-0.04690096353641704 0.04392524386007102 0.0 -0.003155952999380096 0.0 0.0
-0.0633288528682105 0.06000414603052873 0.0 -0.004109140134609168 0.0 0.0
-0.08197833924339593 0.07829780740926351 0.0 -0.005034448997831564 0.0 0.0
-0.1025450669140523 0.09850148123861757 0.0 -0.0059335175212805735 0.0 0.0
-0.1246379390095374 0.12021714478549761 0.0 -0.006742275420291044 0.0 0.0
-0.14761807990270126 0.14280165277630985 0.0 -0.0072802639095918 0.0 0.0
-0.1704325598683728 0.16520662296901367 0.0 -0.00717067723335707 0.0 0.0
-0.19151958354235055 0.18587643608568527 0.0 -0.006026599900731178 0.0 0.0
-0.2086323108145484 0.20251418425581047 0.0 -0.005196621484932384 0.0 0.0
-0.21783103604149975 0.21096343973542897 0.0 -0.014884857466681556 0.0 0.0
-0.2094573554961928 0.2006800606357917 0.0 -0.05908443437833133 0.0 0.0
-0.20945735549617456 0.20068006063578014 0.0 0.05908443437834354 0.0 0.0
-0.21783103604144913 0.21096343973538367 0.0 0.014884857466703982 0.0 0.0
-0.20863231081446226 0.20251418425573053 0.0 0.005196621484948427 0.0 0.0
-0.1915195835422394 0.18587643608558135 0.0 0.00602659990072929 0.0 0.0
-0.1704325598682512 0.1652066229688991 0.0 0.007170677233354017 0.0 0.0
-0.14761807990257386 0.14280165277618284 0.0 0.007280263909592133 0.0 0.0
-0.12463793900941096 0.12021714478536571 0.0 0.006742275420289268 0.0 0.0
-0.10254506691392724 0.09850148123849145 0.0 0.00593351752127641 0.0 0.0
-0.08197833924327612 0.07829780740914627 0.0 0.0050344489978274565 0.0 0.0
-0.06332885286810284 0.060004146030425254 0.0 0.004109140134599454 0.0 0.0
-0.04690096353632733 0.04392524385998309 0.0 0.0031559529993733237 0.0 0.0
-0.03298272306720558 0.030341549986779626 0.0 0.002228109779489118 0.0 0.0
-0.021813763819835325 0.01947743256524026 0.0 0.0014461846916680732 0.0 0.0
-0.013459018991698114 0.011393517672931175 0.0 0.0008894276636183807 0.0 0.0
-0.0076990824365349205 0.005893850082643315 0.0 0.000540293240665124 0.0 0.0
-0.004105761780840787 0.0026220550013476007 0.0 0.000369293811775806 0.0 0.0
-0.0022325429330088443 0.0011048374666940974 0.0 0.00033407495207010696 0.0 0.0
-0.0013172511915072443 0.000556790425095155 0.0 0.0003542251091680493 0.0 0.0
-0.0005713913226529643 0.0002512182387030548 0.0 0.00029893234416727976 0.0 0.0
-0.00011225252550945732 5.954803614689058e-05 0.0 4.232165306339297e-05 0.0 0.0
SCALARS Statev float 8
LOOKUP_TABLE default
0.0 0.01463169129297682 0.011370247394792376 -0.011750188744968037 0.0003799413501756586 -0.0065713394286051295 0.0 0.0
0.0 0.0010282615922722052 0.0007495717848354679 -0.000650851338329787 -9.872044650568086e-05 0.0006483347607533405 0.0 0.0
0.0 4.038880179599054e-05 1.8761561838903247e-06 -1.27942878387311e-06 -5.967274000172448e-07 -5.141910684106455e-08 0.0 0.0
0.0 0.00041262160014899236 0.0003226491638166116 -0.0002567496289406492 -6.58995348759626e-05 -4.639175987018979e-05 0.0 0.0
0.0 0.0020556146178437535 0.0017137525989631157 -0.0014465235923109584 -0.0002672290066521569 -0.00018424031689409857 0.0 0.0
0.0 0.005494203223828858 0.004940156474294731 -0.004434579601207129 -0.0005055768730876014 -0.0004049674215281319 0.0 0.0
0.0 0.011733047281229137 0.010387856582810339 -0.00973366669006014 -0.000654189892750193 -0.0007457269211186136 0.0 0.0
0.0 0.021033725008072462 0.0184631312318517 -0.01770183296665162 -0.0007612982652000792 -0.001277079474687855 0.0 0.0
0.0 0.033618305117806474 0.02936309960297035 -0.028495894692988945 -0.0008672049099813936 -0.002032077992641554 0.0 0.0
0.0 0.049427872019380634 0.04303384051369519 -0.04205304514791583 -0.0009807953657793693 -0.0029470094556910843 0.0 0.0
0.0 0.06823293775082045 0.05925573200803726 -0.05815665226253214 -0.0010990797455050906 -0.0039044492156808316 0.0 0.0
0.0 0.08943059192829048 0.07775469131123738 -0.07653522079809089 -0.0012194705131464598 -0.004839146953736933 0.0 0.0
0.0 0.11299406925417321 0.09824036286440015 -0.09689904589973289 -0.0013413169646671903 -0.005752479129987095 0.0 0.0
0.0 0.13853338616621652 0.12037758214511189 -0.11891143211720301 -0.0014661500279087938 -0.00662784520495622 0.0 0.0
0.0 0.16541272116665712 0.14367136859483948 -0.1420763235452196 -0.0015950450496197814 -0.007410526900465286 0.0 0.0
0.0 0.192767193645498 0.1673435788247295 -0.16561706904831577 -0.0017265097764138306 -0.007938513677245603 0.0 0.0
0.0 0.21928651217589706 0.19028931244562458 -0.18843321200694702 -0.00185610043867765 -0.007953588867177452 0.0 0.0
0.0 0.24334557421011802 0.2111171213982224 -0.20913726888130751 -0.0019798525169147253 -0.007260649363731103 0.0 0.0
0.0 0.26304227005562203 0.22817093995171306 -0.22607143950279004 -0.002099500448922947 -0.006355182928090966 0.0 0.0
0.0 0.2751970379727714 0.23882242758255007 -0.23652461067565733 -0.002297816906892755 -0.007940764002834102 0.0 0.0
0.0 0.27519703797274925 0.23882242758253094 -0.2365246106756376 -0.0022978169068932418 0.007940764002845492 0.0 0.0
0.0 0.26304227005556585 0.22817093995166374 -0.22607143950274158 -0.0020995004489220087 0.0063551829281171274 0.0 0.0
0.0 0.24334557421002176 0.21111712139813849 -0.2091372688812249 -0.0019798525169134984 0.0072606493637466085 0.0 0.0
0.0 0.21928651217577727 0.19028931244551997 -0.18843321200684426 -0.0018561004386757325 0.007953588867185484 0.0 0.0
0.0 0.19276719364537143 0.16734357882461878 -0.16561706904820775 -0.0017265097764110782 0.007938513677235236 0.0 0.0
0.0 0.16541272116652114 0.143671368594721 -0.1420763235451026 -0.0015950450496183151 0.007410526900462821 0.0 0.0
0.0 0.13853338616607808 0.12037758214499172 -0.11891143211708376 -0.0014661500279079258 0.006627845204957115 0.0 0.0
0.0 0.11299406925403474 0.09824036286428012 -0.09689904589961344 -0.0013413169646666677 0.005752479129985189 0.0 0.0
0.0 0.08943059192816322 0.07775469131112697 -0.07653522079798125 -0.0012194705131456512 0.004839146953728135 0.0 0.0
0.0 0.06823293775070759 0.059255732007938954 -0.058156652262434765 -0.0010990797455041738 0.0039044492156740662 0.0 0.0
0.0 0.04942787201928364 0.043033840513611275 -0.04205304514783248 -0.000980795365778814 0.002947009455678415 0.0 0.0
0.0 0.033618305117730056 0.02936309960290354 -0.028495894692922654 -0.0008672049099809051 0.002032077992638261 0.0 0.0
0.0 0.021033725008017576 0.0184631312318033 -0.017701832966603704 -0.0007612982651995887 0.0012770794746833829 0.0 0.0
0.0 0.011733047281194349 0.010387856582779414 -0.009733666690029716 -0.0006541898927496931 0.0007457269211165352 0.0 0.0
0.0 0.005494203223809744 0.004940156474277352 -0.004434579601190463 -0.0005055768730868881 0.00040496742152624024 0.0 0.0
0.0 0.0020556146178358783 0.0017137525989566133 -0.0014465235923051861 -0.00026722900665142714 0.00018424031689348092 0.0 0.0
0.0 0.0004126216001463022 0.00032264916381509755 -0.00025674962893939445 -6.589953487570292e-05 4.6391759869851954e-05 0.0 0.0
0.0 4.038880179566547e-05 1.8761561841476643e-06 -1.2794287840718949e-06 -5.967274000757241e-07 5.1419106861872256e-08 0.0 0.0
0.0 0.0010282615922685267 0.0007495717848332526 -0.0006508513383277719 -9.872044650548172e-05 -0.0006483347607507934 0.0 0.0
0.0 0.014631691292958004 0.011370247394780028 -0.011750188744954638 0.0003799413501746054 0.0065713394285731 0.0 0.0
0.0 0.01101118966505109 0.008016570712635939 -0.008513815739480405 0.0004972450268444621 -0.007694537273131773 0.0 0.0
0.0 2.620633207495749e-05 2.0798781863040138e-05 -1.886370365051129e-05 -1.935078212528856e-06 1.3657596621206295e-05 0.0 0.0
0.0 9.169815971314337e-07 3.242119682612372e-07 -2.4543644246065756e-07 -7.877552580058185e-08 -1.1325519204252955e-07 0.0 0.0
0.0 0.00018069199361984476 0.00013767958613202674 -0.00010858758786205254 -2.9091998269974374e-05 -4.7480447379911674e-05 0.0 0.0
0.0 0.0014154642380920547 0.0011432889147280155 -0.0009498162463143541 -0.00019347266841366164 -0.00030300327201218186 0.0 0.0
0.0 0.0042940495065689425 0.0038639330007406436 -0.003417610507292795 -0.000446322493447848 -0.0008375617798937139 0.0 0.0
0.0 0.00983047458055223 0.00869360653475645 -0.008071826846312328 -0.000621779688444121 -0.0016966451249551848 0.0 0.0
0.0 0.018235123372213318 0.015972518345907426 -0.01523402189019404 -0.0007384964557133864 -0.002958908485093845 0.0 0.0
0.0 0.029629828723263148 0.02582484059881641 -0.024981111095324332 -0.0008437295034920584 -0.004650094874545105 0.0 0.0
0.0 0.043891624602949056 0.03814417675140436 -0.03719233447256907 -0.0009518422788352772 -0.0066199281788249 0.0 0.0
0.0 0.06075574682024966 0.05270272961783537 -0.05164094255021075 -0.0010617870676246245 -0.008645819421774838 0.0 0.0
0.0 0.07999066038047849 0.06926380277903951 -0.06809132374103549 -0.0011724790380039738 -0.010597311679019186 0.0 0.0
0.0 0.10104830242204864 0.08760800919292677 -0.08632332629685494 -0.001284682896071848 -0.012518654311828942 0.0 0.0
0.0 0.1239068981788542 0.10745742584014005 -0.1060582701463985 -0.0013991556937415755 -0.014401063546384723 0.0 0.0
0.0 0.14807261527323154 0.1283887483157945 -0.126872542485652 -0.0015162058301424176 -0.016098703527913927 0.0 0.0
0.0 0.17270835585464633 0.14974541472975816 -0.1481102716153039 -0.001635143114454274 -0.017297584815729676 0.0 0.0
0.0 0.19672081713614226 0.17057270736783778 -0.168818123680772 -0.0017545836870657555 -0.01751929139356935 0.0 0.0
0.0 0.21863098647745308 0.189576090186647 -0.1877012182652495 -0.0018748719213974607 -0.016498251661224983 0.0 0.0
0.0 0.236320112810331 0.20493209038155671 -0.20291980131942666 -0.0020122890621299657 -0.014668163664476784 0.0 0.0
0.0 0.2469306355982001 0.21416992301191146 -0.2120523252130742 -0.002117597798837269 -0.011859229761159506 0.0 0.0
0.0 0.2469306355981789 0.2141699230118931 -0.21205232521305517 -0.00211759779883806 0.011859229761188347 0.0 0.0
0.0 0.23632011281027673 0.204932090381509 -0.20291980131937898 -0.0020122890621299817 0.01466816366452308 0.0 0.0
0.0 0.2186309864773629 0.1895760901865688 -0.1877012182651703 -0.0018748719213983697 0.016498251661257568 0.0 0.0
0.0 0.19672081713603023 0.17057270736774105 -0.16881812368067434 -0.0017545836870664763 0.017519291393584775 0.0 0.0
0.0 0.17270835585451944 0.14974541472964953 -0.14811027161519383 -0.0016351431144556697 0.01729758481571662 0.0 0.0
0.0 0.14807261527310803 0.12838874831568764 -0.1268725424855453 -0.0015162058301422805 0.016098703527908178 0.0 0.0
0.0 0.12390689817872932 0.10745742584003212 -0.10605827014629042 -0.0013991556937416817 0.014401063546380558 0.0 0.0
0.0 0.10104830242192943 0.08760800919282347 -0.0863233262967522 -0.0012846828960712555 0.012518654311821534 0.0 0.0
0.0 0.07999066038036418 0.06926380277894041 -0.06809132374093707 -0.001172479038003322 0.010597311679004726 0.0 0.0
0.0 0.0607557468201448 0.0527027296177447 -0.05164094255012026 -0.0010617870676244267 0.008645819421761666 0.0 0.0
0.0 0.04389162460286286 0.0381441767513298 -0.037192334472494766 -0.0009518422788350078 0.006619928178806482 0.0 0.0
0.0 0.029629828723196434 0.025824840598758007 -0.024981111095266177 -0.0008437295034918215 0.004650094874536825 0.0 0.0
0.0 0.01823512337216482 0.015972518345864946 -0.015234021890152043 -0.0007384964557129062 0.002958908485085572 0.0 0.0
0.0 0.009830474580519478 0.00869360653472738 -0.008071826846283965 -0.0006217796884434084 0.0016966451249494088 0.0 0.0
0.0 0.004294049506551227 0.0038639330007251074 -0.0034176105072781142 -0.00044632249344699336 0.0008375617798900398 0.0 0.0
0.0 0.0014154642380835207 0.0011432889147211934 -0.0009498162463084532 -0.00019347266841274047 0.00030300327201062164 0.0 0.0
0.0 0.0001806919936172399 0.00013767958613028624 -0.00010858758786062806 -2.9091998269658085e-05 4.748044737922836e-05 0.0 0.0
0.0 9.169815969993301e-07 3.242119683462823e-07 -2.4543644252285625e-07 -7.877552582342852e-08 1.1325519205901321e-07 0.0 0.0
0.0 2.6206332074622438e-05 2.0798781863086786e-05 -1.8863703650507563e-05 -1.9350782125792203e-06 -1.365759662108315e-05 0.0 0.0
0.0 0.011011189665028152 0.008016570712620892 -0.0085138157394647 0.0004972450268438013 0.007694537273104093 0.0 0.0
0.0 0.008437729372352433 0.005824493225099456 -0.006358341751311253 0.0005338485262117945 -0.006822948282717009 0.0 0.0
0.0 0.0 0.0 0.0 0.0 0.0 0.0 0.0
0.0 0.0 0.0 0.0 0.0 0.0 0.0 0.0
0.0 4.668386455874434e-05 3.895989276091003e-05 -3.053946133348003e-05 -8.420431427430021e-06 -2.4786415888592746e-05 0.0 0.0
0.0 0.0008439057570667654 0.0006894432095332204 -0.0005639431121840173 -0.0001255000973492028 -0.0003226330542029635 0.0 0.0
0.0 0.0033572226430521497 0.0028464177036800664 -0.002475721332308079 -0.0003706963713719875 -0.0010631863165671714 0.0 0.0
0.0 0.00799457007739422 0.007031563638277191 -0.006451676208926373 -0.0005798874293508193 -0.0023246031997084114 0.0 0.0
0.0 0.015461004147274146 0.0134690515465656 -0.012759663232315411 -0.0007093883142501791 -0.004181142011076793 0.0 0.0
0.0 0.02565819850393341 0.022231339843057266 -0.02141581297520403 -0.0008155268678532259 -0.006606163353547966 0.0 0.0
0.0 0.03837920244437288 0.033171726540737016 -0.03225367467890679 -0.000918051861830214 -0.009386709318284775 0.0 0.0
0.0 0.05337342117878375 0.04605714515648042 -0.04503729773119272 -0.0010198474252876987 -0.012242923250801794 0.0 0.0
0.0 0.07030821817631693 0.06068030411760991 -0.05955884501913187 -0.0011214590984780282 -0.015008156954819172 0.0 0.0
0.0 0.0891515512967564 0.07686493180826506 -0.07564111264326374 -0.0012238191650012894 -0.017710002552350942 0.0 0.0
0.0 0.10932770838976913 0.09440424649570352 -0.09307678960187857 -0.0013274568938248838 -0.02037110675101953 0.0 0.0
0.0 0.1307241750176215 0.11296404623589398 -0.11153176230038855 -0.0014322839355053972 -0.02281372631885522 0.0 0.0
0.0 0.1527114531261431 0.13201581602076207 -0.13047694940168036 -0.0015388666190816894 -0.02460343357666973 0.0 0.0
0.0 0.1742710892271585 0.1507508529224597 -0.14910199656835335 -0.0016488563541063276 -0.025170278349309193 0.0 0.0
0.0 0.19398815072595454 0.16794579571506094 -0.1661783964088513 -0.00176739930620964 -0.02409740551377722 0.0 0.0
0.0 0.2098683429189075 0.18184865481139278 -0.17996531244365083 -0.001883342367741887 -0.02090203402349771 0.0 0.0
0.0 0.2196449296369496 0.19049579237514513 -0.18852773779421814 -0.0019680545809267714 -0.01454702802539503 0.0 0.0
0.0 0.2196449296369349 0.19049579237513092 -0.18852773779420517 -0.001968054580925711 0.014547028025442223 0.0 0.0
0.0 0.2098683429188647 0.1818486548113531 -0.1799653124436125 -0.0018833423677406867 0.020902034023562426 0.0 0.0
0.0 0.19398815072588252 0.16794579571499646 -0.16617839640878762 -0.001767399306208623 0.024097405513824027 0.0 0.0
0.0 0.1742710892270647 0.15075085292237742 -0.14910199656827158 -0.0016488563541059418 0.025170278349329018 0.0 0.0
0.0 0.1527114531260374 0.13201581602067047 -0.13047694940158971 -0.0015388666190807492 0.024603433576657896 0.0 0.0
0.0 0.13072417501751185 0.11296404623579849 -0.11153176230029432 -0.0014322839355042022 0.022813726318847552 0.0 0.0
0.0 0.10932770838965881 0.0944042464956074 -0.09307678960178352 -0.0013274568938238722 0.020371106751014143 0.0 0.0
0.0 0.08915155129665027 0.07686493180817269 -0.0756411126431724 -0.0012238191650002232 0.017710002552342993 0.0 0.0
0.0 0.07030821817621274 0.0606803041175202 -0.059558845019042586 -0.0011214590984776475 0.01500815695479981 0.0 0.0
0.0 0.053373421178695396 0.04605714515640361 -0.045037297731116824 -0.0010198474252867639 0.012242923250783546 0.0 0.0
0.0 0.03837920244429797 0.03317172654067215 -0.032253674678842645 -0.0009180518618295046 0.009386709318262729 0.0 0.0
0.0 0.02565819850387247 0.02223133984300434 -0.02141581297515152 -0.0008155268678528037 0.0066061633535342 0.0 0.0
0.0 0.01546100414723196 0.013469051546528815 -0.012759663232279204 -0.0007093883142496022 0.004181142011064967 0.0 0.0
0.0 0.007994570077367341 0.007031563638253572 -0.006451676208903458 -0.0005798874293501118 0.002324603199700924 0.0 0.0
0.0 0.0033572226430359326 0.002846417703666563 -0.0024757213322955415 -0.00037069637137102134 0.0010631863165615726 0.0 0.0
0.0 0.0008439057570618497 0.0006894432095295967 -0.0005639431121808868 -0.0001255000973487098 0.0003226330542009861 0.0 0.0
0.0 4.6683864558336563e-05 3.8959892761079646e-05 -3.053946133360648e-05 -8.420431427473198e-06 2.478641588867208e-05 0.0 0.0
0.0 0.0 0.0 0.0 0.0 0.0 0.0 0.0
0.0 0.0 0.0 0.0 0.0 0.0 0.0 0.0
0.0 0.008437729372331967 0.005824493225085437 -0.006358341751296623 0.0005338485262111773 0.006822948282694087 0.0 0.0
0.0 0.006395576226656471 0.004242124819458897 -0.004753940897711653 0.0005118160782527554 -0.005450852327643866 0.0 0.0
0.0 0.0 0.0 0.0 0.0 0.0 0.0 0.0
0.0 0.0 0.0 0.0 0.0 0.0 0.0 0.0
0.0 8.869252206681049e-06 5.308858701781462e-06 -4.149641204164516e-06 -1.159217497616932e-06 -5.454669754676864e-06 0.0 0.0
0.0 0.0004450457805714583 0.00035518458486382754 -0.0002871280314614561 -6.805655340237124e-05 -0.00026492517030180315 0.0 0.0
0.0 0.002371948660371173 0.0019573458182607193 -0.0016713296412016224 -0.0002860161770590966 -0.0011073223473191203 0.0 0.0
0.0 0.006294238417507852 0.005424607906116072 -0.004904241530043039 -0.0005203663760730324 -0.0026364152548465666 0.0 0.0
0.0 0.012744239219075285 0.010986405416795506 -0.010313617382461365 -0.000672788034334141 -0.004936928290698265 0.0 0.0
0.0 0.021707330626042864 0.01862404283350399 -0.017842862606194724 -0.0007811802273092743 -0.007891990032285006 0.0 0.0
0.0 0.032868636140945366 0.028162048974463585 -0.027283138621189227 -0.000878910353274323 -0.011253702514669433 0.0 0.0
0.0 0.04596413902410794 0.039362184248908166 -0.038389147652124 -0.0009730365967841583 -0.014698716185513865 0.0 0.0
0.0 0.06075677066010501 0.052038817236830424 -0.05097304716905351 -0.0010657700677769075 -0.018055910773025655 0.0 0.0
0.0 0.07707194532628886 0.06605972584351136 -0.06490154095937037 -0.001158184884140977 -0.02135154742750663 0.0 0.0
0.0 0.09477639879754363 0.08127450754160084 -0.08002337430313508 -0.001251133238465789 -0.024560218768336813 0.0 0.0
0.0 0.11354287722305963 0.09744161859028372 -0.09609788547114143 -0.0013437331191422774 -0.027514995364435038 0.0 0.0
0.0 0.13268171794371358 0.11416749660612739 -0.11272975997555425 -0.0014377366305730879 -0.02981870252161908 0.0 0.0
0.0 0.15179585282092461 0.13078898238436404 -0.12925105123992062 -0.001537931144443358 -0.030828057676743525 0.0 0.0
0.0 0.16943526226117653 0.1462327670991557 -0.14458796320565387 -0.001644803893501782 -0.029775838353055334 0.0 0.0
0.0 0.18383988139901386 0.1589848689906002 -0.15723740353327775 -0.0017474654573223698 -0.025532079336042176 0.0 0.0
0.0 0.19314461472286862 0.1673906570373793 -0.16556699098167316 -0.0018236660557062198 -0.01669865218850192 0.0 0.0
0.0 0.19314461472285793 0.16739065703736886 -0.1655669909816625 -0.0018236660557064824 0.016698652188559995 0.0 0.0
0.0 0.1838398813989759 0.15898486899056408 -0.1572374035332417 -0.0017474654573222648 0.02553207933611841 0.0 0.0
0.0 0.16943526226111136 0.14623276709909622 -0.14458796320559478 -0.0016448038935013608 0.029775838353108396 0.0 0.0
0.0 0.15179585282084335 0.13078898238429204 -0.12925105123984904 -0.0015379311444429324 0.030828057676765004 0.0 0.0
0.0 0.13268171794362182 0.11416749660604816 -0.11272975997547506 -0.0014377366305730853 0.029818702521608707 0.0 0.0
0.0 0.11354287722296037 0.09744161859019823 -0.09609788547105572 -0.001343733119142474 0.027514995364423412 0.0 0.0
0.0 0.09477639879744604 0.0812745075415162 -0.08002337430305084 -0.0012511332384653492 0.024560218768325957 0.0 0.0
0.0 0.07707194532619739 0.0660597258434318 -0.06490154095929167 -0.00115818488414013 0.02135154742749402 0.0 0.0
0.0 0.06075677066001818 0.05203881723675555 -0.05097304716897921 -0.0010657700677763476 0.01805591077300264 0.0 0.0
0.0 0.04596413902402592 0.039362184248837674 -0.038389147652053986 -0.0009730365967836669 0.014698716185488316 0.0 0.0
0.0 0.0328686361408759 0.02816204897440462 -0.027283138621130625 -0.0008789103532739804 0.011253702514640827 0.0 0.0
0.0 0.021707330625990468 0.018624042833458962 -0.017842862606150076 -0.000781180227308889 0.007891990032267503 0.0 0.0
0.0 0.0127442392190381 0.01098640541676349 -0.010313617382429916 -0.0006727880343335686 0.004936928290684152 0.0 0.0
0.0 0.006294238417484472 0.005424607906096201 -0.004904241530023978 -0.000520366376072224 0.0026364152548373314 0.0 0.0
0.0 0.0023719486603589173 0.001957345818251243 -0.0016713296411931086 -0.0002860161770581338 0.001107322347313571 0.0 0.0
0.0 0.000445045780567782 0.0003551845848615701 -0.00028712803145955034 -6.805655340201978e-05 0.00026492517030005173 0.0 0.0
0.0 8.869252206426126e-06 5.3088587020676724e-06 -4.149641204386782e-06 -1.1592174976808784e-06 5.454669754959311e-06 0.0 0.0
0.0 0.0 0.0 0.0 0.0 0.0 0.0 0.0
0.0 0.0 0.0 0.0 0.0 0.0 0.0 0.0
0.0 0.0063955762266381475 0.004242124819446702 -0.0047539408976988926 0.0005118160782521884 0.0054508523276252255 0.0 0.0
0.0 0.004708050378999977 0.0030156589691118746 -0.003469743301718554 0.00045408433260668037 -0.004093174427396702 0.0 0.0
0.0 0.0 0.0 0.0 0.0 0.0 0.0 0.0
0.0 0.0 0.0 0.0 0.0 0.0 0.0 0.0
0.0 1.3804045528254543e-06 7.641369065748521e-07 -5.859776607727702e-07 -1.7815924580208122e-07 -1.129314048018248e-06 0.0 0.0
0.0 0.00020197343574497625 0.000148337042736426 -0.00011919709120447727 -2.913995153194876e-05 -0.00017011761190764192 0.0 0.0
0.0 0.001530979844115551 0.0012204735745081601 -0.0010230658302508898 -0.00019740774425726997 -0.0010143048016461303 0.0 0.0
0.0 0.004798355458033565 0.00392230767916071 -0.0034809748674888646 -0.0004413328116718456 -0.0026443306746834015 0.0 0.0
0.0 0.010157801166760658 0.008554680233750599 -0.007931681937784258 -0.0006229982959663416 -0.005185269944536003 0.0 0.0
0.0 0.017802886771410068 0.015043739704459165 -0.014304332029128815 -0.0007394076753303609 -0.00850159445120759 0.0 0.0
0.0 0.027396220301641114 0.02315908535452119 -0.022325548996087845 -0.0008335363584333418 -0.012219405748918426 0.0 0.0
0.0 0.038597547769875826 0.03266215690534671 -0.0317414945501694 -0.0009206623551773382 -0.01602445829617976 0.0 0.0
0.0 0.05117861691750671 0.04338512176903421 -0.042380642879282546 -0.0010044788897516446 -0.019739563969006925 0.0 0.0
0.0 0.06510599241748127 0.05523468523054996 -0.054147625413916795 -0.0010870598166331593 -0.023391587035023254 0.0 0.0
0.0 0.08006935033915305 0.06812106849084389 -0.06695191764526182 -0.00116915084558211 -0.026963827335260423 0.0 0.0
0.0 0.09609324288753883 0.08187893030295083 -0.08062863291242402 -0.0012502973905268175 -0.03025166347334155 0.0 0.0
0.0 0.11281814315533317 0.09622819656657672 -0.09489622405299993 -0.0013319725135767216 -0.032891858345541515 0.0 0.0
0.0 0.12929586792381667 0.11068645589553713 -0.10926827897721982 -0.001418176918317265 -0.03430936966473202 0.0 0.0
0.0 0.1448573228932776 0.12442792836408276 -0.12291647442571002 -0.0015114539383726826 -0.033491225546820796 0.0 0.0
0.0 0.1580122956040801 0.1362168888402491 -0.13461290254507396 -0.0016039862951750762 -0.028787823429375338 0.0 0.0
0.0 0.16709851170181303 0.14460477848144013 -0.1429265524288588 -0.0016782260525812433 -0.018476782309012285 0.0 0.0
0.0 0.16709851170179751 0.14460477848142494 -0.1429265524288429 -0.0016782260525819515 0.018476782309074527 0.0 0.0
0.0 0.15801229560404606 0.13621688884021524 -0.13461290254504016 -0.0016039862951750783 0.02878782342945478 0.0 0.0
0.0 0.14485732289323555 0.12442792836404115 -0.12291647442567041 -0.0015114539383707182 0.03349122554688178 0.0 0.0
0.0 0.12929586792375486 0.11068645589548051 -0.10926827897716448 -0.0014181769183160102 0.03430936966476001 0.0 0.0
0.0 0.11281814315525411 0.09622819656650797 -0.09489622405293224 -0.0013319725135757538 0.03289185834552974 0.0 0.0
0.0 0.09609324288745802 0.08187893030288085 -0.08062863291235461 -0.0012502973905262928 0.03025166347332881 0.0 0.0
0.0 0.08006935033907193 0.06812106849077347 -0.06695191764519193 -0.0011691508455815717 0.026963827335248776 0.0 0.0
0.0 0.06510599241740334 0.05523468523048229 -0.05414762541384931 -0.0010870598166329473 0.023391587035010028 0.0 0.0
0.0 0.05117861691743273 0.04338512176897075 -0.04238064287921962 -0.0010044788897511146 0.019739563968983742 0.0 0.0
0.0 0.03859754776980926 0.03266215690529005 -0.03174149455011343 -0.0009206623551766142 0.016024458296153 0.0 0.0
0.0 0.027396220301582924 0.02315908535447268 -0.022325548996040306 -0.0008335363584323817 0.0122194057488873 0.0 0.0
0.0 0.01780288677136376 0.015043739704420078 -0.014304332029090042 -0.0007394076753300291 0.008501594451186818 0.0 0.0
0.0 0.010157801166728181 0.00855468023372357 -0.00793168193775793 -0.000622998295965639 0.005185269944519838 0.0 0.0
0.0 0.004798355458013579 0.003922307679144509 -0.003480974867473583 -0.0004413328116709258 0.0026443306746734975 0.0 0.0
0.0 0.0015309798441064907 0.0012204735745013984 -0.001023065830245032 -0.0001974077442563657 0.0010143048016406637 0.0 0.0
0.0 0.0002019734357427143 0.00014833704273528562 -0.00011919709120354168 -2.913995153174388e-05 0.00017011761190633998 0.0 0.0
0.0 1.3804045527567938e-06 7.641369067675004e-07 -5.859776609228711e-07 -1.7815924584462686e-07 1.129314048322567e-06 0.0 0.0
0.0 0.0 0.0 0.0 0.0 0.0 0.0 0.0
0.0 0.0 0.0 0.0 0.0 0.0 0.0 0.0
0.0 0.0047080503789848 0.0030156589691020157 -0.0034697433017080725 0.000454084332606056 0.004093174427382091 0.0 0.0
0.0 0.0032925876955562563 0.002047805270958089 -0.0024211063413744375 0.00037330107041634776 -0.0029157430544758337 0.0 0.0
0.0 0.0 0.0 0.0 0.0 0.0 0.0 0.0
0.0 0.0 0.0 0.0 0.0 0.0 0.0 0.0
0.0 1.2459832782016668e-06 -8.711175530045244e-08 6.722946238267231e-08 1.9882292917777628e-08 2.0432140011233723e-07 0.0 0.0
0.0 8.992468094475181e-05 5.328707314685299e-05 -4.270228935787498e-05 -1.0584783788978008e-05 -9.188362648875677e-05 0.0 0.0
0.0 0.0008768476542422853 0.0006634806989432953 -0.0005473774303592417 -0.00011610326858405334 -0.0008142059491247118 0.0 0.0
0.0 0.0032945730536914812 0.0026006896450268924 -0.00225868927956384 -0.0003420003654630527 -0.002445548865036278 0.0 0.0
0.0 0.007698146027167683 0.006235064331566842 -0.005684417602816752 -0.0005506467287500863 -0.004997517225588447 0.0 0.0
0.0 0.014021905959499842 0.011530221068000555 -0.010844319491799108 -0.0006859015762014475 -0.008406795141601905 0.0 0.0
0.0 0.021984780471787622 0.018208500676908296 -0.017428272687970318 -0.0007802279889379827 -0.012273996091096594 0.0 0.0
0.0 0.03125875750339632 0.026004424334507097 -0.025143479272651818 -0.0008609450618552806 -0.016205497791500503 0.0 0.0
0.0 0.0416520358745851 0.03476828465299542 -0.033831802429836154 -0.000936482223159269 -0.020049556112721828 0.0 0.0
0.0 0.05308107671581796 0.04444279609444006 -0.043433691605352306 -0.0010091044890877395 -0.023836409132062385 0.0 0.0
0.0 0.06550117018278782 0.05499157103058468 -0.053911246299795865 -0.001080324730788805 -0.02753491558824525 0.0 0.0
0.0 0.07882008176748144 0.06632431458513975 -0.06517334615936632 -0.001150968425773465 -0.030966348746518428 0.0 0.0
0.0 0.09254160770986436 0.07825414854046527 -0.07703405985313895 -0.0012200886873262968 -0.03380266269966423 0.0 0.0
0.0 0.10670656735351294 0.09047360315446368 -0.08918343706587217 -0.0012901660885914804 -0.035519841416505986 0.0 0.0
0.0 0.12034791881160468 0.10248175424739187 -0.10111473900730766 -0.0013670152400841907 -0.03512384654632765 0.0 0.0
0.0 0.13220113627184513 0.1133909703470717 -0.11194079349751655 -0.001450176849555053 -0.03065979003857343 0.0 0.0
0.0 0.14124303977570019 0.12191922462338031 -0.12039221142792923 -0.0015270131954509747 -0.019922708341350917 0.0 0.0
0.0 0.14124303977569336 0.12191922462337167 -0.12039221142792084 -0.0015270131954507942 0.01992270834141478 0.0 0.0
0.0 0.13220113627181962 0.11339097034704405 -0.11194079349748877 -0.0014501768495552869 0.030659790038655613 0.0 0.0
0.0 0.12034791881156007 0.1024817542473479 -0.10111473900726356 -0.0013670152400843526 0.03512384654638715 0.0 0.0
0.0 0.10670656735345269 0.09047360315440886 -0.08918343706581702 -0.0012901660885917786 0.035519841416529196 0.0 0.0
0.0 0.09254160770979945 0.0782541485404093 -0.07703405985308344 -0.001220088687325835 0.0338026626996525 0.0 0.0
0.0 0.07882008176741251 0.0663243145850801 -0.06517334615930756 -0.0011509684257725243 0.03096634874650294 0.0 0.0
0.0 0.065501170182726 0.05499157103053059 -0.05391124629974285 -0.0010803247307877486 0.027534915588233077 0.0 0.0
0.0 0.053081076715758554 0.04444279609438827 -0.04343369160530165 -0.001009104489086627 0.023836409132050068 0.0 0.0
0.0 0.04165203587452809 0.03476828465294679 -0.03383180242978876 -0.0009364822231580209 0.02004955611269998 0.0 0.0
0.0 0.03125875750334134 0.026004424334461387 -0.02514347927260639 -0.0008609450618549998 0.01620549779147341 0.0 0.0
0.0 0.021984780471741804 0.018208500676871173 -0.01742827268793357 -0.0007802279889375966 0.012273996091066088 0.0 0.0
0.0 0.01402190595946426 0.01153022106797083 -0.010844319491770218 -0.0006859015762006076 0.008406795141582359 0.0 0.0
0.0 0.007698146027140543 0.006235064331544983 -0.005684417602795568 -0.0005506467287494147 0.004997517225572026 0.0 0.0
0.0 0.003294573053674717 0.00260068964501369 -0.0022586892795517866 -0.0003420003654619025 0.0024455488650256796 0.0 0.0
0.0 0.0008768476542342872 0.0006634806989378982 -0.0005473774303545747 -0.00011610326858332337 0.0008142059491181053 0.0 0.0
0.0 8.992468094354192e-05 5.328707314668994e-05 -4.2702289357715914e-05 -1.058478378897403e-05 9.188362648830449e-05 0.0 0.0
0.0 1.245983277765114e-06 -8.711175526903953e-08 6.722946235833695e-08 1.9882292910690027e-08 -2.0432140003799813e-07 0.0 0.0
0.0 0.0 0.0 0.0 0.0 0.0 0.0 0.0
0.0 0.0 0.0 0.0 0.0 0.0 0.0 0.0
0.0 0.0032925876955448175 0.0020478052709509056 -0.0024211063413664973 0.0003733010704155911 0.00291574305446552 0.0 0.0
0.0 0.002166896157911864 0.001289343133139453 -0.0015676459602406135 0.00027830282710116026 -0.0019396932996488603 0.0 0.0
0.0 6.808126749334917e-07 -1.0371231226033877e-08 1.1382208934150606e-08 -1.010977708115995e-09 1.3495275768488005e-07 0.0 0.0
0.0 3.7869285625906513e-07 -1.0853022555903305e-08 7.76318668522007e-09 3.0898358706842675e-09 7.416418593090768e-08 0.0 0.0
0.0 1.343535810957597e-06 -6.745450613659108e-08 5.1836617700734505e-08 1.5617888435866596e-08 2.5068220686766373e-07 0.0 0.0
0.0 4.804868824751399e-05 2.3744447403866025e-05 -1.8906037377795e-05 -4.838410026071043e-06 -6.11285139006121e-05 0.0 0.0
0.0 0.0004817456708455174 0.0002952640525336893 -0.00024067870180575004 -5.458535072793938e-05 -0.00054517936334398 0.0 0.0
0.0 0.0020623200671909033 0.0014966423548735987 -0.0012694451333686249 -0.0002271972215049743 -0.002019943132006866 0.0 0.0
0.0 0.005361250711566771 0.004110302979737692 -0.0036620640558461385 -0.00044823892389155083 -0.004436714584627699 0.0 0.0
0.0 0.01035488006826598 0.008152677665605006 -0.00754272899094309 -0.000609948674661909 -0.007654954784850608 0.0 0.0
0.0 0.016666809808352473 0.013360333273703683 -0.012646408655153896 -0.0007139246185497838 -0.011386063877237866 0.0 0.0
0.0 0.024001108898644513 0.019439167024692186 -0.018648456777839266 -0.0007907102468529244 -0.015229861452369514 0.0 0.0
0.0 0.032179400610919576 0.026243463691074678 -0.02538441507974058 -0.0008590486113341017 -0.018973673897689156 0.0 0.0
0.0 0.04117165494510523 0.033741045653872245 -0.03281905435466104 -0.0009219912992112077 -0.022651600526239952 0.0 0.0
0.0 0.05091370018904149 0.041945449711956496 -0.040963326361519295 -0.0009821233504371824 -0.026267549908300228 0.0 0.0
0.0 0.06143074264652752 0.05083580252774382 -0.04979421668664458 -0.0010415858410992424 -0.02964686002540547 0.0 0.0
0.0 0.07251870162369951 0.06030808834899087 -0.05920736984231205 -0.0011007185066788517 -0.03246224851722118 0.0 0.0
0.0 0.0838950944153458 0.07020156541155628 -0.0690473977666994 -0.0011541676448568743 -0.03434699553280484 0.0 0.0
0.0 0.09538730321894599 0.08035532071745513 -0.07914538886405324 -0.0012099318534019071 -0.03454641422451141 0.0 0.0
0.0 0.10637935682612132 0.09033863114099602 -0.08905760997778811 -0.0012810211632078709 -0.031031056544934276 0.0 0.0
0.0 0.11556914025643937 0.09910609875309442 -0.09774168116048108 -0.0013644175926132954 -0.021007191896045115 0.0 0.0
0.0 0.11556914025643508 0.09910609875308751 -0.09774168116047464 -0.0013644175926128134 0.02100719189610497 0.0 0.0
0.0 0.1063793568261028 0.09033863114097272 -0.08905760997776549 -0.0012810211632073173 0.031031056545015374 0.0 0.0
0.0 0.09538730321891574 0.08035532071742238 -0.0791453888640203 -0.001209931853402018 0.03454641422457246 0.0 0.0
0.0 0.08389509441530767 0.07020156541151933 -0.06904739776666272 -0.0011541676448566273 0.034346995532830035 0.0 0.0
0.0 0.0725187016236469 0.060308088348945854 -0.059207369842266884 -0.0011007185066789526 0.03246224851720963 0.0 0.0
0.0 0.06143074264647186 0.050835802527696566 -0.049794216686597066 -0.0010415858410994963 0.02964686002538891 0.0 0.0
0.0 0.05091370018898932 0.04194544971191166 -0.04096332636147492 -0.0009821233504367253 0.026267549908286433 0.0 0.0
0.0 0.0411716549450591 0.03374104565383227 -0.03281905435462172 -0.0009219912992105374 0.022651600526228083 0.0 0.0
0.0 0.032179400610873 0.02624346369103592 -0.02538441507970246 -0.0008590486113334744 0.01897367389766611 0.0 0.0
0.0 0.024001108898604625 0.01943916702465975 -0.018648456777807656 -0.0007907102468520743 0.015229861452344817 0.0 0.0
0.0 0.016666809808316235 0.013360333273675707 -0.012646408655126444 -0.0007139246185492577 0.01138606387720889 0.0 0.0
0.0 0.010354880068237692 0.008152677665582902 -0.007542728990921356 -0.0006099486746615475 0.007654954784831944 0.0 0.0
0.0 0.0053612507115476295 0.004110302979722989 -0.0036620640558323024 -0.0004482389238906851 0.004436714584614109 0.0 0.0
0.0 0.0020623200671793475 0.0014966423548651512 -0.0012694451333611306 -0.0002271972215040195 0.002019943131997388 0.0 0.0
0.0 0.00048174567084106987 0.00029526405253133605 -0.00024067870180382797 -5.4585350727507915e-05 0.0005451793633398307 0.0 0.0
0.0 4.8048688246049526e-05 2.374444740371795e-05 -1.8906037377670063e-05 -4.8384100260478996e-06 6.112851390022077e-05 0.0 0.0
0.0 1.343535810551308e-06 -6.74545061154224e-08 5.1836617684484416e-08 1.561788843093987e-08 -2.5068220678900275e-07 0.0 0.0
0.0 3.786928558295237e-07 -1.0853022544114866e-08 7.763186676628835e-09 3.0898358674860974e-09 -7.416418584570931e-08 0.0 0.0
0.0 6.808126741997652e-07 -1.0371231215047161e-08 1.1382208922371451e-08 -1.0109777073237724e-09 -1.34952757536912e-07 0.0 0.0
0.0 0.0021668961579024326 0.0012893431331339536 -0.0015676459602343622 0.000278302827100408 0.001939693299640673 0.0 0.0
0.0 0.0012850719888944065 0.0007188052137795829 -0.000901503654858811 0.00018269844107922769 -0.0011568308907288299 0.0 0.0
0.0 1.7212458601043247e-06 6.726038198397385e-08 -6.7029967052717e-08 -2.3041493125817984e-10 -1.5386850517197542e-06 0.0 0.0
0.0 6.92004181702381e-07 1.5610999281087134e-09 -6.667170354157076e-10 -8.943828926924752e-10 2.333368175205502e-08 0.0 0.0
0.0 2.080730358057222e-06 2.766282068465309e-07 -2.1519340962794035e-07 -6.143479721858831e-08 -1.8482242849869898e-06 0.0 0.0
0.0 3.847888030544645e-05 1.3433293586248121e-05 -1.0638839467536458e-05 -2.7944541187116816e-06 -5.4267205631348504e-05 0.0 0.0
0.0 0.0002581529131933405 0.00011681147404235832 -9.440408427351877e-05 -2.240738976883952e-05 -0.00034853051364737826 0.0 0.0
0.0 0.0011495865894733863 0.0006832871477417171 -0.0005664724521496838 -0.00011681469559203316 -0.0014377801783938158 0.0 0.0
0.0 0.003297141022594523 0.002263246493246641 -0.00195596450244263 -0.00030728199080401095 -0.0035185361722960876 0.0 0.0
0.0 0.0068800261249087405 0.005008248322621643 -0.004514881712674524 -0.000493366609947116 -0.006328596189066476 0.0 0.0
0.0 0.011438581163448348 0.008696087650326804 -0.008076724943319027 -0.000619362707007776 -0.009605863504733279 0.0 0.0
0.0 0.016908783195831455 0.01303327020826919 -0.012331994075976894 -0.0007012761322922961 -0.013055710807859198 0.0 0.0
0.0 0.022835792302650627 0.01787729421743428 -0.01711224077385054 -0.0007650534435837404 -0.01646388641641698 0.0 0.0
0.0 0.02934191792823171 0.023202063690281795 -0.022382251956423523 -0.0008198117338582822 -0.019816433800588958 0.0 0.0
0.0 0.03646506980047212 0.02905343345832563 -0.02818437102497156 -0.000869062433354074 -0.0231105581244624 0.0 0.0
0.0 0.04425675450894155 0.035480420911963066 -0.03456383140868792 -0.0009165895032751243 -0.026242335388224597 0.0 0.0
0.0 0.05253017467196802 0.04247172802695193 -0.041506239900476305 -0.0009654881264756164 -0.02889735135153861 0.0 0.0
0.0 0.06127947392448094 0.049963558713565594 -0.04895412344555712 -0.0010094352680084411 -0.03070025745013227 0.0 0.0
0.0 0.07039862262518998 0.05804696687809381 -0.057007280233534255 -0.0010396866445595231 -0.031417483446148135 0.0 0.0
0.0 0.079982725207603 0.06688688189094948 -0.06579955186720733 -0.0010873300237421101 -0.029550895863540233 0.0 0.0
0.0 0.08926851181862942 0.07590748943660135 -0.07472827505334147 -0.0011792143832599405 -0.02161508950029454 0.0 0.0
0.0 0.08926851181862588 0.07590748943659487 -0.07472827505333453 -0.001179214383260357 0.02161508950034758 0.0 0.0
0.0 0.07998272520759343 0.06688688189093359 -0.06579955186719105 -0.001087330023742535 0.029550895863614507 0.0 0.0
0.0 0.07039862262517446 0.05804696687807277 -0.05700728023351394 -0.00103968664455883 0.03141748344620392 0.0 0.0
0.0 0.06127947392445363 0.04996355871353798 -0.048954123445530844 -0.001009435268007158 0.030700257450151824 0.0 0.0
0.0 0.05253017467192768 0.04247172802691801 -0.0415062399004438 -0.0009654881264741918 0.028897351351522743 0.0 0.0
0.0 0.04425675450890177 0.03548042091192998 -0.034563831408655724 -0.000916589503274289 0.026242335388207562 0.0 0.0
0.0 0.03646506980043547 0.02905343345829501 -0.02818437102494101 -0.0008690624333540181 0.023110558124449333 0.0 0.0
0.0 0.029341917928203603 0.02320206369025758 -0.022382251956399528 -0.0008198117338580565 0.019816433800581665 0.0 0.0
0.0 0.022835792302615315 0.017877294217405897 -0.0171122407738225 -0.0007650534435833879 0.016463886416396484 0.0 0.0
0.0 0.01690878319579486 0.013033270208240508 -0.012331994075948736 -0.0007012761322917617 0.01305571080783374 0.0 0.0
0.0 0.011438581163419064 0.008696087650305667 -0.008076724943298502 -0.0006193627070071609 0.009605863504706602 0.0 0.0
0.0 0.0068800261248890895 0.0050082483226069445 -0.004514881712660532 -0.0004933666099464131 0.006328596189051025 0.0 0.0
0.0 0.0032971410225800463 0.0022632464932361776 -0.0019559645024331044 -0.0003072819908030738 0.0035185361722829805 0.0 0.0
0.0 0.0011495865894666237 0.0006832871477377861 -0.0005664724521462944 -0.00011681469559149125 0.0014377801783867661 0.0 0.0
0.0 0.0002581529131903713 0.00011681147404136675 -9.44040842726961e-05 -2.240738976867061e-05 0.00034853051364447743 0.0 0.0
0.0 3.847888030406145e-05 1.3433293586251733e-05 -1.0638839467534295e-05 -2.7944541187174266e-06 5.4267205631351655e-05 0.0 0.0
0.0 2.0807303579216127e-06 2.766282069658467e-07 -2.1519340971831998e-07 -6.143479724752965e-08 1.8482242857518223e-06 0.0 0.0
0.0 6.920041814406474e-07 1.5610999823950748e-09 -6.667170715567183e-10 -8.943829108373987e-10 -2.333368106610299e-08 0.0 0.0
0.0 1.7212458595576998e-06 6.726038202380986e-08 -6.702996709932148e-08 -2.3041492448844892e-10 1.5386850526997424e-06 0.0 0.0
0.0 0.0012850719888875977 0.0007188052137761082 -0.0009015036548547017 0.0001826984410785937 0.00115683089072332 0.0 0.0
0.0 0.0006024017289366815 0.00033064316231339605 -0.00043111316540140585 0.00010047000308801006 -0.0005769638714385216 0.0 0.0
0.0 3.40901684394303e-06 4.165147465143036e-08 -5.747514910967474e-08 1.5823674458244562e-08 -1.8753377826142483e-06 0.0 0.0
0.0 2.0600046846515473e-06 2.894597675633748e-08 -1.2358606748356493e-08 -1.6587370007981324e-08 -1.9920998329410614e-06 0.0 0.0
0.0 5.180326340675587e-06 4.339929948233226e-07 -3.0625486562137834e-07 -1.2773812920194104e-07 -6.216856072765665e-06 0.0 0.0
0.0 4.091154968650647e-05 8.110710177085491e-06 -6.335765862968455e-06 -1.77494431411704e-06 -6.205170534457124e-05 0.0 0.0
0.0 0.00018166436892430948 4.8115783903895365e-05 -3.8755416016834904e-05 -9.360367887060464e-06 -0.00026632919573808914 0.0 0.0
0.0 0.0006006934306788675 0.00022435463568549232 -0.0001826921256312356 -4.166251005425654e-05 -0.0008901750722497836 0.0 0.0
0.0 0.0016608076234270004 0.0008486819817716617 -0.0007073780686214748 -0.00014130391315018672 -0.0023164495810499446 0.0 0.0
0.0 0.0037223276715155525 0.0022487804835083437 -0.0019435097358526966 -0.00030527074765564677 -0.004470578393212308 0.0 0.0
0.0 0.006574784524129658 0.004352181438811387 -0.0038969318434862875 -0.00045524959532510065 -0.007018263247773928 0.0 0.0
0.0 0.009952747313079015 0.006915566021061466 -0.0063557932102562605 -0.0005597728108052037 -0.009762754482186012 0.0 0.0
0.0 0.013779225988054537 0.009780889393945419 -0.00915149942941271 -0.0006293899645326984 -0.012558689197958823 0.0 0.0
0.0 0.017910501819210743 0.012936354520394612 -0.012254042759730532 -0.0006823117606640858 -0.015379055970411401 0.0 0.0
0.0 0.022443257355124032 0.01643583386483942 -0.01571179796617657 -0.0007240358986628413 -0.018166495919724867 0.0 0.0
0.0 0.027442874760456083 0.020371116857173435 -0.019611494396282944 -0.0007596224608904861 -0.020868136119284772 0.0 0.0
0.0 0.032949819660019156 0.024842230125327977 -0.024046927230346266 -0.0007953028949817192 -0.02329242351059054 0.0 0.0
0.0 0.03897264750558762 0.029907301716257814 -0.0290720335946794 -0.0008352681215784362 -0.025001336318075183 0.0 0.0
0.0 0.04563890006170851 0.03572411360016928 -0.03486599215848267 -0.0008581214416866055 -0.02582171625492184 0.0 0.0
0.0 0.05362942700640848 0.04292121108028338 -0.0420651644864095 -0.0008560465938738718 -0.02565802367746211 0.0 0.0
0.0 0.06288721879659809 0.051978447768218576 -0.05103157157047347 -0.0009468761977451186 -0.021402456368717966 0.0 0.0
0.0 0.06288721879660429 0.051978447768219194 -0.05103157157047443 -0.0009468761977447824 0.021402456368765373 0.0 0.0
0.0 0.053629427006412704 0.04292121108027831 -0.042065164486404544 -0.0008560465938737363 0.02565802367753081 0.0 0.0
0.0 0.045638900061700426 0.035724113600154844 -0.03486599215846799 -0.0008581214416868579 0.025821716254969544 0.0 0.0
0.0 0.03897264750556653 0.029907301716237567 -0.02907203359465818 -0.0008352681215793897 0.025001336318086084 0.0 0.0
0.0 0.03294981965999605 0.024842230125310925 -0.024046927230328544 -0.0007953028949823761 0.02329242351057577 0.0 0.0
0.0 0.027442874760431158 0.020371116857154786 -0.0196114943962641 -0.0007596224608906805 0.02086813611926902 0.0 0.0
0.0 0.02244325735510576 0.01643583386482501 -0.015711797966162278 -0.000724035898662733 0.01816649591971658 0.0 0.0
0.0 0.01791050181919728 0.012936354520383102 -0.012254042759719487 -0.0006823117606636212 0.015379055970408156 0.0 0.0
0.0 0.013779225988035205 0.009780889393931482 -0.0091514994293993 -0.0006293899645321803 0.012558689197943694 0.0 0.0
0.0 0.009952747313058808 0.006915566021047771 -0.006355793210242908 -0.0005597728108048629 0.009762754482167072 0.0 0.0
0.0 0.006574784524110011 0.004352181438799182 -0.0038969318434746254 -0.0004552495953245529 0.007018263247752503 0.0 0.0
0.0 0.0037223276715033136 0.002248780483500289 -0.0019435097358453555 -0.00030527074765493277 0.004470578393199602 0.0 0.0
0.0 0.0016608076234198364 0.0008486819817674512 -0.0007073780686179182 -0.00014130391314953302 0.0023164495810418244 0.0 0.0
0.0 0.0006006934306759003 0.00022435463568451624 -0.00018269212563041002 -4.1662510054106164e-05 0.0008901750722463571 0.0 0.0
0.0 0.0001816643689230166 4.8115783903923384e-05 -3.875541601685219e-05 -9.360367887071179e-06 0.000266329195737879 0.0 0.0
0.0 4.091154968548496e-05 8.110710177026607e-06 -6.335765862919281e-06 -1.774944314107329e-06 6.205170534411159e-05 0.0 0.0
0.0 5.180326340597739e-06 4.339929948778867e-07 -3.062548656590424e-07 -1.2773812921884165e-07 6.216856073582185e-06 0.0 0.0
0.0 2.0600046845622548e-06 2.894597676447866e-08 -1.2358606750563306e-08 -1.6587370013914886e-08 1.9920998336567183e-06 0.0 0.0
0.0 3.4090168437192132e-06 4.1651474677537346e-08 -5.7475149150882695e-08 1.5823674473345e-08 1.8753377835926037e-06 0.0 0.0
0.0 0.0006024017289319431 0.0003306431623112749 -0.0004311131653988024 0.00010047000308752713 0.0005769638714348019 0.0 0.0
0.0 0.00019611341970199986 0.00010284813058697263 -0.00014050169563255946 3.765356504558681e-05 -0.00019201914393343568 0.0 0.0
0.0 4.461812395390584e-06 -7.737328279903242e-09 -2.5516821076624015e-08 3.325414935652848e-08 -3.185019731167358e-06 0.0 0.0
0.0 6.0593996352758155e-06 -2.4490353244610115e-07 2.3454264356085552e-07 1.0360888885246253e-08 -7.3155807189002135e-06 0.0 0.0
0.0 1.0308974394913932e-05 -1.6240629815447208e-07 2.335708719754218e-07 -7.116457382094893e-08 -1.5839016104053463e-05 0.0 0.0
0.0 4.77395115138566e-05 1.9012477369519543e-06 -1.306997289582001e-06 -5.9425044736996e-07 -7.043855686196301e-05 0.0 0.0
0.0 0.0001688199565776888 1.4021424138298305e-05 -1.1140147489500568e-05 -2.8812766487977185e-06 -0.00026435356978063597 0.0 0.0
0.0 0.00040576226327953716 4.935275965682844e-05 -3.9973838048571645e-05 -9.37892160825682e-06 -0.0006625068717532533 0.0 0.0
0.0 0.0008315941231124147 0.00013591972051087584 -0.00011071571130900229 -2.5204009201873436e-05 -0.0013182605895913043 0.0 0.0
0.0 0.0015240079406340058 0.00035921792147282545 -0.00029310739343191153 -6.611052804091366e-05 -0.002452926869519146 0.0 0.0
0.0 0.0026820895026408633 0.0008116690656419423 -0.0006647020397946415 -0.0001469670258473005 -0.00406198158914348 0.0 0.0
0.0 0.004097525366098199 0.0014946594814462613 -0.0012472365975275367 -0.0002474228839187241 -0.006048331767061472 0.0 0.0
0.0 0.0058800452374338005 0.0023433025365998217 -0.002009809139852693 -0.0003334933967471272 -0.008233147783013761 0.0 0.0
0.0 0.007883562064568876 0.0033234828958766437 -0.0029221688279325356 -0.0004013140679441076 -0.010557936675101498 0.0 0.0
0.0 0.010146696717316222 0.004463569327767793 -0.004011875102096178 -0.0004516942256716137 -0.013003728888245098 0.0 0.0
0.0 0.012685510120018242 0.00587447363837503 -0.005386209720028316 -0.00048826391834671124 -0.015534138464912185 0.0 0.0
0.0 0.015635599193715037 0.007752596856336588 -0.007234903985412197 -0.0005176928709243891 -0.017979055859794254 0.0 0.0
0.0 0.019025206785477672 0.010357049246014965 -0.009805571820192076 -0.0005514774258228836 -0.019887027075424824 0.0 0.0
0.0 0.02293862320565957 0.013902111616685605 -0.013304807198581365 -0.0005973044181042341 -0.02061128555304333 0.0 0.0
0.0 0.02830737766832244 0.01889881708428141 -0.018311826586085454 -0.0005869904981959525 -0.02062852138060197 0.0 0.0
0.0 0.03665285863536756 0.027033525682964493 -0.02645553790359898 -0.0005779877793655094 -0.020227804891104647 0.0 0.0
0.0 0.03665285863537027 0.02703352568296308 -0.026455537903597504 -0.0005779877793655732 0.02022780489113777 0.0 0.0
0.0 0.028307377668327346 0.01889881708427794 -0.018311826586082148 -0.0005869904981958019 0.020628521380651466 0.0 0.0
0.0 0.022938623205650748 0.013902111616673528 -0.01330480719856937 -0.0005973044181041509 0.020611285553071172 0.0 0.0
0.0 0.01902520678546142 0.010357049246002954 -0.009805571820180414 -0.0005514774258225362 0.019887027075422652 0.0 0.0
0.0 0.015635599193702096 0.0077525968563322235 -0.007234903985408117 -0.000517692870924104 0.01797905585977495 0.0 0.0
0.0 0.012685510120003646 0.00587447363836735 -0.0053862097200207135 -0.00048826391834663426 0.015534138464899438 0.0 0.0
0.0 0.010146696717305248 0.004463569327763429 -0.004011875102091799 -0.0004516942256716295 0.013003728888232823 0.0 0.0
0.0 0.007883562064561409 0.0033234828958743595 -0.002922168827930275 -0.00040131406794408384 0.010557936675092928 0.0 0.0
0.0 0.005880045237423869 0.0023433025365972534 -0.00200980913985034 -0.00033349339674691226 0.008233147782999467 0.0 0.0
0.0 0.004097525366088595 0.001494659481443577 -0.0012472365975252806 -0.0002474228839182968 0.006048331767047506 0.0 0.0
0.0 0.0026820895026316805 0.0008116690656397226 -0.0006647020397928878 -0.00014696702584683492 0.004061981589130171 0.0 0.0
0.0 0.0015240079406299537 0.0003592179214718092 -0.0002931073934310832 -6.611052804072584e-05 0.0024529268695125256 0.0 0.0
0.0 0.0008315941231097243 0.00013591972051036857 -0.0001107157113085882 -2.5204009201780256e-05 0.0013182605895868547 0.0 0.0
0.0 0.00040576226327727736 4.935275965666941e-05 -3.997383804842485e-05 -9.378921608244529e-06 0.000662506871750991 0.0 0.0
0.0 0.00016881995657573373 1.4021424138241947e-05 -1.1140147489443637e-05 -2.8812766487983085e-06 0.0002643535697790492 0.0 0.0
0.0 4.773951151237206e-05 1.901247736939908e-06 -1.3069972895738328e-06 -5.942504473660795e-07 7.043855686144322e-05 0.0 0.0
0.0 1.030897439476016e-05 -1.624062981660446e-07 2.3357087198923006e-07 -7.116457382318548e-08 1.5839016104794878e-05 0.0 0.0
0.0 6.059399634566322e-06 -2.4490353247614907e-07 2.3454264358736154e-07 1.036088888878685e-08 7.315580719616685e-06 0.0 0.0
0.0 4.46181239507258e-06 -7.737328283860832e-09 -2.5516821086360087e-08 3.325414937022345e-08 3.1850197319288653e-06 0.0 0.0
0.0 0.00019611341969988589 0.00010284813058629868 -0.00014050169563168338 3.765356504538468e-05 0.00019201914393222256 0.0 0.0
0.0 2.7901685064751887e-05 1.327736615652491e-05 -1.9015583696566477e-05 5.7382175400415555e-06 -2.7118127311733557e-05 0.0 0.0
0.0 4.131508860371542e-06 -1.1160407115900176e-07 4.2286929732050396e-08 6.931714142695624e-08 -3.448198218268969e-06 0.0 0.0
0.0 8.910587045985732e-06 -9.702451459238722e-07 8.298070282716022e-07 1.4043811765227075e-07 -1.2056018206423266e-05 0.0 0.0
0.0 1.6768154298243988e-05 -2.0597632038367464e-06 1.8204905775547738e-06 2.392726262819739e-07 -2.5166872394964987e-05 0.0 0.0
0.0 5.63160923969816e-05 -5.717387426746255e-06 4.930844729376477e-06 7.865426973697874e-07 -8.236783881681349e-05 0.0 0.0
0.0 0.0001787651145225909 -1.8253646771799122e-05 1.5048758370954751e-05 3.2048884008443545e-06 -0.0002724927227227118 0.0 0.0
0.0 0.00041265338697270916 -5.271476592643307e-05 4.288308947631414e-05 9.831676450118907e-06 -0.0006739309432686757 0.0 0.0
0.0 0.0008360248880523269 -0.00013776920219066272 0.0001122064215246979 2.556278066596488e-05 -0.001326446933829194 0.0 0.0
0.0 0.0015242999374010075 -0.00035962391438885933 0.00029347410416310035 6.614981022575879e-05 -0.0024555763649843436 0.0 0.0
0.0 0.0026818313008094025 -0.0008115874865337999 0.0006647705069113267 0.00014681697962247355 -0.004062353117247043 0.0 0.0
0.0 0.0041162124394570725 -0.0015029006621847688 0.0012563543225671855 0.0002465463396175834 -0.006055144034512941 0.0 0.0
0.0 0.005916902519732563 -0.002386774915989602 0.002053222422869987 0.0003335524931196133 -0.008252614765607832 0.0 0.0
0.0 0.007950604243034875 -0.003408521098641 0.0030038160628943957 0.0004047050357466016 -0.010573649015350486 0.0 0.0
0.0 0.010163268110756539 -0.004500088620532789 0.004035936566041766 0.0004641520544910189 -0.012992827700920589 0.0 0.0
0.0 0.012371298822350897 -0.005508207724178487 0.004992723130316178 0.0005154845938623071 -0.01549612061865526 0.0 0.0
0.0 0.014394969659695646 -0.006150718198395893 0.005590187499243848 0.0005605306991520374 -0.018033366100629805 0.0 0.0
0.0 0.015881416766937478 -0.006031689333926489 0.005432149170539991 0.0005995401633864983 -0.020590468189189578 0.0 0.0
0.0 0.01672302296885747 -0.004879436422355849 0.004258245397868842 0.0006211910244870017 -0.02326671834407498 0.0 0.0
0.0 0.01692697163426675 -0.002683483953161373 0.0020853229435462348 0.0005981610096151345 -0.0256698637328389 0.0 0.0
0.0 0.016898182545774718 0.0037665014385374665 -0.0038221561270707187 5.565468853324978e-05 -0.024993660265661497 0.0 0.0
0.0 0.016898182545777306 0.0037665014385363754 -0.003822156127069651 5.5654688533279145e-05 0.02499366026567334 0.0 0.0
0.0 0.01692697163427195 -0.0026834839531624166 0.002085322943546999 0.0005981610096154148 0.025669863732855184 0.0 0.0
0.0 0.01672302296885157 -0.004879436422353703 0.004258245397867207 0.0006211910244864931 0.023266718344074393 0.0 0.0
0.0 0.0158814167669222 -0.006031689333918342 0.005432149170531997 0.0005995401633863432 0.02059046818917937 0.0 0.0
0.0 0.014394969659677456 -0.006150718198386469 0.005590187499234692 0.000560530699151768 0.018033366100607722 0.0 0.0
0.0 0.012371298822332785 -0.005508207724168046 0.00499272313030579 0.0005154845938622507 0.01549612061863867 0.0 0.0
0.0 0.010163268110739131 -0.004500088620522496 0.004035936566031684 0.00046415205449081253 0.01299282770090537 0.0 0.0
0.0 0.007950604243021842 -0.003408521098632811 0.0030038160628865556 0.00040470503574625166 0.010573649015339658 0.0 0.0
0.0 0.005916902519714164 -0.0023867749159791757 0.002053222422860223 0.0003335524931189515 0.008252614765590487 0.0 0.0
0.0 0.004116212439442806 -0.0015029006621775963 0.0012563543225607952 0.0002465463396168014 0.00605514403449623 0.0 0.0
0.0 0.00268183130079789 -0.000811587486529647 0.0006647705069078938 0.00014681697962175237 0.004062353117233686 0.0 0.0
0.0 0.001524299937396692 -0.0003596239143868228 0.0002934741041614148 6.6149810225408e-05 0.002455576364978786 0.0 0.0
0.0 0.0008360248880494759 -0.00013776920218994625 0.00011220642152410019 2.5562780665846048e-05 0.001326446933825075 0.0 0.0
0.0 0.0004126533869703845 -5.271476592620352e-05 4.2883089476174356e-05 9.831676450029146e-06 0.0006739309432661478 0.0 0.0
0.0 0.00017876511452102466 -1.825364677177057e-05 1.5048758370936994e-05 3.2048884008336014e-06 0.0002724927227219404 0.0 0.0
0.0 5.631609239595132e-05 -5.717387426777217e-06 4.930844729406285e-06 7.86542697370924e-07 8.236783881736124e-05 0.0 0.0
0.0 1.676815429774386e-05 -2.05976320385764e-06 1.8204905775725835e-06 2.3927262628505623e-07 2.516687239516894e-05 0.0 0.0
0.0 8.910587045394644e-06 -9.70245145992144e-07 8.298070283285488e-07 1.404381176635962e-07 1.2056018207165055e-05 0.0 0.0
0.0 4.1315088601410315e-06 -1.1160407117995741e-07 4.228692971834769e-08 6.931714146161458e-08 3.4481982193938486e-06 0.0 0.0
0.0 2.790168506409579e-05 1.3277366156645723e-05 -1.9015583696724144e-05 5.738217540078418e-06 2.7118127312166875e-05 0.0 0.0
0.0 1.2794705618513804e-06 -7.325646252627723e-08 1.1123042410747284e-07 -3.797396158117645e-08 1.788907911065407e-07 0.0 0.0
0.0 2.8636118746829238e-06 -1.7939244795992595e-07 9.623783983496705e-08 8.315460812495738e-08 -3.422851827970237e-06 0.0 0.0
0.0 1.0248965787655649e-05 -1.7229574014255373e-06 1.4333139723179217e-06 2.8964342910761187e-07 -1.3674208291990777e-05 0.0 0.0
0.0 2.2307771289648274e-05 -4.21621375567827e-06 3.5885223152752702e-06 6.276914404030113e-07 -2.8035586434999352e-05 0.0 0.0
0.0 6.457117428412302e-05 -1.5742859409523753e-05 1.311782914333149e-05 2.6250302661922622e-06 -9.461043462233524e-05 0.0 0.0
0.0 0.00020508101988880745 -5.8717079520260535e-05 4.781548970717835e-05 1.0901589813082197e-05 -0.0003028619157799991 0.0 0.0
0.0 0.0006265866112285744 -0.0002351032333956873 0.0001917762392764727 4.332699411921457e-05 -0.0009191090143579266 0.0 0.0
0.0 0.0016729493358667372 -0.0008547427666479818 0.0007126720526308904 0.00014207071401709103 -0.002332422707833839 0.0 0.0
0.0 0.0037220001954686812 -0.0022485509885719042 0.0019434602214872428 0.0003050907670846605 -0.0044739562822548665 0.0 0.0
0.0 0.006575761863114804 -0.004353292128864053 0.00389855737303223 0.000454734755831822 -0.007019932057521762 0.0 0.0
0.0 0.009968841003243094 -0.006930748949702412 0.006372165603618306 0.0005585833460841044 -0.00976755758947688 0.0 0.0
0.0 0.013823477885851561 -0.009829311738644134 0.009201159554469606 0.0006281521841745253 -0.012551617380131322 0.0 0.0
0.0 0.01797572855966288 -0.01301865892591723 0.012334359242100662 0.0006842996838165656 -0.015330097095043722 0.0 0.0
0.0 0.022426763409108395 -0.016446303652844777 0.015710434229671534 0.0007358694231732433 -0.018081736730562133 0.0 0.0
0.0 0.027000321518734067 -0.01993339536368363 0.0191462677167116 0.0007871276469720237 -0.020869263784087135 0.0 0.0
0.0 0.03133015218345112 -0.02312566514354055 0.02228939886253533 0.0008362662810052186 -0.023749595112228513 0.0 0.0
0.0 0.03496181860054247 -0.025523514998711236 0.02464779275442428 0.0008757222442869556 -0.026815449516764556 0.0 0.0
0.0 0.03723652311776232 -0.02655788051848058 0.025656681767773786 0.0009011987507068183 -0.029963130343910724 0.0 0.0
0.0 0.03643123551882127 -0.02508150942734888 0.024087952138485205 0.000993557288863658 -0.031398182166895855 0.0 0.0
0.0 0.029596567007473665 -0.017829812851956995 0.016713978466880913 0.0011158343850760622 -0.029120180967027575 0.0 0.0
0.0 0.02959656700748527 -0.01782981285195818 0.0167139784668819 0.0011158343850762743 0.029120180967066207 0.0 0.0
0.0 0.0364312355188278 -0.025081509427343426 0.02408795213847951 0.0009935572888639013 0.031398182166947994 0.0 0.0
0.0 0.03723652311775533 -0.026557880518467816 0.02565668176776076 0.0009011987507070459 0.029963130343941567 0.0 0.0
0.0 0.03496181860051681 -0.02552351499868862 0.024647792754401158 0.0008757222442874669 0.02681544951676317 0.0 0.0
0.0 0.03133015218341554 -0.02312566514351272 0.022289398862507373 0.0008362662810053496 0.023749595112206277 0.0 0.0
0.0 0.027000321518704656 -0.019933395363660327 0.019146267716688842 0.000787127646971493 0.020869263784070273 0.0 0.0
0.0 0.022426763409076757 -0.016446303652819794 0.015710434229646998 0.0007358694231727915 0.018081736730544508 0.0 0.0
0.0 0.01797572855963141 -0.013018658925891586 0.01233435924207545 0.0006842996838161232 0.015330097095027341 0.0 0.0
0.0 0.013823477885820286 -0.009829311738620637 0.0092011595544467 0.0006281521841739362 0.012551617380108137 0.0 0.0
0.0 0.009968841003214716 -0.00693074894968203 0.006372165603598683 0.0005585833460833444 0.009767557589453038 0.0 0.0
0.0 0.00657576186309072 -0.004353292128847909 0.0038985573730169016 0.0004547347558310083 0.007019932057497865 0.0 0.0
0.0 0.0037220001954555455 -0.002248550988562508 0.0019434602214786828 0.00030509076708382636 0.0044739562822426965 0.0 0.0
0.0 0.0016729493358600758 -0.0008547427666438759 0.0007126720526274093 0.00014207071401646688 0.0023324227078262917 0.0 0.0
0.0 0.0006265866112239953 -0.00023510323339402827 0.00019177623927517156 4.332699411885674e-05 0.0009191090143524788 0.0 0.0
0.0 0.00020508101988702678 -5.8717079520079276e-05 4.7815489707038337e-05 1.0901589813040964e-05 0.00030286191577909397 0.0 0.0
0.0 6.457117428244435e-05 -1.5742859409331276e-05 1.3117829143171634e-05 2.6250302661596337e-06 9.461043462119092e-05 0.0 0.0
0.0 2.2307771288819967e-05 -4.216213755713608e-06 3.588522315305313e-06 6.276914404082954e-07 2.8035586435212685e-05 0.0 0.0
0.0 1.02489657869664e-05 -1.7229574015083784e-06 1.4333139723852405e-06 2.896434291231366e-07 1.3674208292618747e-05 0.0 0.0
0.0 2.863611874404323e-06 -1.7939244799283202e-07 9.623783983869666e-08 8.315460815413571e-08 3.422851828745754e-06 0.0 0.0
0.0 1.2794705614589102e-06 -7.325646250320453e-08 1.1123042407310628e-07 -3.797396156990146e-08 -1.7889079104850708e-07 0.0 0.0
0.0 0.0 0.0 0.0 0.0 0.0 0.0 0.0
0.0 1.689140147313348e-06 2.2359526157257133e-09 5.357120646232387e-09 -7.593073261960752e-09 6.865856039441438e-08 0.0 0.0
0.0 9.203269133777369e-06 -1.6256220591346662e-06 1.3370694188646225e-06 2.8855264027003947e-07 -9.399303089704855e-06 0.0 0.0
0.0 2.5238717092151194e-05 -6.2153370494564945e-06 5.165841122106804e-06 1.0494959273497007e-06 -2.7294057813608386e-05 0.0 0.0
0.0 7.70030491467326e-05 -2.8274978235112473e-05 2.319801168215942e-05 5.076966552953054e-06 -0.00010303671884433149 0.0 0.0
0.0 0.0003096375928267028 -0.00014407045603987217 0.0001173239311145237 2.674652492534842e-05 -0.00041543275950228526 0.0 0.0
0.0 0.0011852717220133134 -0.0007011950242558567 0.0005823363236344807 0.00011885870062137611 -0.0014752383723367324 0.0 0.0
0.0 0.003303311280241538 -0.0022647375935668326 0.00195773403732528 0.00030700355624155263 -0.003530401919313768 0.0 0.0
0.0 0.006876203361283785 -0.005005947732735993 0.004512873480157529 0.0004930742525784637 -0.006327712147058002 0.0 0.0
0.0 0.011442068379916952 -0.008699590963722527 0.008080659105866533 0.0006189318578559916 -0.009607747834279035 0.0 0.0
0.0 0.01692423319945034 -0.013048799924339917 0.012348544760628915 0.0007002551637110101 -0.013053486517877744 0.0 0.0
0.0 0.022860940928738402 -0.017912977391751746 0.0171491868388108 0.0007637905529409454 -0.016415643150689687 0.0 0.0
0.0 0.0293557280835384 -0.023252565360859415 0.022431475903139902 0.0008210894577195191 -0.019659269344600952 0.0 0.0
0.0 0.036378953006952326 -0.0290260701814711 0.02814723711542071 0.000878833066050377 -0.022875959580738514 0.0 0.0
0.0 0.043801778791581786 -0.035048769321788506 0.03410861848974174 0.0009401508320467297 -0.026284193066600472 0.0 0.0
0.0 0.051122512590160145 -0.04091120945682244 0.03990947061735303 0.0010017388394693615 -0.03017505673548724 0.0 0.0
0.0 0.057760699058510175 -0.04597132814190696 0.04491192691424262 0.0010594012276643298 -0.03469126720887267 0.0 0.0
0.0 0.062188143341392485 -0.0492122378703401 0.04808021496092506 0.001132022909415002 -0.03901193251816872 0.0 0.0
0.0 0.06229675669172936 -0.04870377787772389 0.047476404871761274 0.0012273730059625878 -0.041114384007272714 0.0 0.0
0.0 0.05255399195691052 -0.0403365502260566 0.038866499467113375 0.0014700507589432124 -0.03694595691687061 0.0 0.0
0.0 0.05255399195691893 -0.040336550226054355 0.038866499467110655 0.001470050758943691 0.03694595691692043 0.0 0.0
0.0 0.06229675669173268 -0.04870377787771493 0.04747640487175199 0.0012273730059629315 0.04111438400733818 0.0 0.0
0.0 0.062188143341376026 -0.04921223787031734 0.04808021496090237 0.001132022909414923 0.03901193251821204 0.0 0.0
0.0 0.057760699058473426 -0.0459713281418727 0.0449119269142092 0.0010594012276635323 0.03469126720887736 0.0 0.0
0.0 0.05112251259011487 -0.040911209456784225 0.03990947061731542 0.0010017388394688198 0.03017505673546978 0.0 0.0
0.0 0.04380177879153593 -0.03504876932175065 0.03410861848970416 0.0009401508320464897 0.02628419306657942 0.0 0.0
0.0 0.0363789530069049 -0.0290260701814322 0.028147237115381994 0.0008788330660501995 0.022875959580715324 0.0 0.0
0.0 0.029355728083491413 -0.0232525653608199 0.022431475903100417 0.0008210894577194747 0.019659269344582602 0.0 0.0
0.0 0.022860940928696255 -0.017912977391717416 0.01714918683877687 0.0007637905529405441 0.016415643150666345 0.0 0.0
0.0 0.016924233199411703 -0.01304879992430976 0.012348544760599068 0.0007002551637106914 0.013053486517850252 0.0 0.0
0.0 0.011442068379879235 -0.008699590963694024 0.00808065910583834 0.0006189318578556863 0.009607747834249874 0.0 0.0
0.0 0.006876203361258832 -0.005005947732716931 0.004512873480138943 0.0004930742525779836 0.006327712147039005 0.0 0.0
0.0 0.0033033112802276854 -0.0022647375935564416 0.00195773403731601 0.0003070035562404317 0.003530401919302548 0.0 0.0
0.0 0.0011852717220035246 -0.0007011950242499486 0.0005823363236295695 0.00011885870062037884 0.001475238372326725 0.0 0.0
0.0 0.00030963759282340644 -0.00014407045603879282 0.00011732393111364077 2.6746524925151995e-05 0.00041543275949932685 0.0 0.0
0.0 7.700304914593725e-05 -2.827497823530095e-05 2.3198011682311453e-05 5.07696655298946e-06 0.00010303671884485149 0.0 0.0
0.0 2.5238717091541316e-05 -6.215337049613724e-06 5.165841122237445e-06 1.0494959273762656e-06 2.72940578143009e-05 0.0 0.0
0.0 9.20326913336457e-06 -1.6256220592795505e-06 1.3370694189826964e-06 2.885526402968607e-07 9.399303090540595e-06 0.0 0.0
0.0 1.6891401469482214e-06 2.23595258378201e-09 5.357120664396826e-09 -7.593073248182548e-09 -6.865855995591294e-08 0.0 0.0
0.0 0.0 0.0 0.0 0.0 0.0 0.0 0.0
0.0 0.0 0.0 0.0 0.0 0.0 0.0 0.0
0.0 3.8538157917848767e-07 8.524370000021943e-09 -5.889213621647465e-09 -2.6351563783748637e-09 7.625979648851619e-08 0.0 0.0
0.0 5.733842049095124e-06 -1.219947738989513e-06 9.95142539857831e-07 2.2480519913167706e-07 -5.410635457816358e-06 0.0 0.0
0.0 2.457110995087013e-05 -8.762912781728608e-06 7.213480232865265e-06 1.5494325488633337e-06 -2.834185520114238e-05 0.0 0.0
0.0 0.00010407740993882361 -5.031986184953857e-05 4.102941644469631e-05 9.290445404842277e-06 -0.0001248935763037607 0.0 0.0
0.0 0.0005435451156635274 -0.0003399924121210565 0.0002787267359365793 6.12656761844772e-05 -0.0006284820689011888 0.0 0.0
0.0 0.0020947405456136986 -0.0015073348903807456 0.0012804323523527288 0.00022690253802801677 -0.002050853171097105 0.0 0.0
0.0 0.005357577670766619 -0.004104848704818429 0.003657278374807029 0.00044757033001139896 -0.004438725350799306 0.0 0.0
0.0 0.010351557204956837 -0.008151057939191375 0.007541196349099225 0.0006098615900921504 -0.007651468997083129 0.0 0.0
0.0 0.016671539035946405 -0.01336679048226772 0.012653141079120547 0.0007136494031471752 -0.011388655398409327 0.0 0.0
0.0 0.02401157660038942 -0.019450872534570406 0.018660710777883067 0.0007901617566873332 -0.015220083359268732 0.0 0.0
0.0 0.03217135776689534 -0.0262530350855115 0.025394740606935882 0.0008582944785756003 -0.018887254970484706 0.0 0.0
0.0 0.04111164858918229 -0.03373383166524021 0.032811513263329616 0.0009223184019105759 -0.02239238486267408 0.0 0.0
0.0 0.05075010681740624 -0.04186340546673519 0.04087578391086099 0.0009876215558742307 -0.025878475678741956 0.0 0.0
0.0 0.06103181281292068 -0.050466678047449726 0.04940907817833387 0.001057599869115787 -0.029683874972294685 0.0 0.0
0.0 0.07146958836333023 -0.0590808913268243 0.057947251163219 0.0011336401636052769 -0.03427493925753725 0.0 0.0
0.0 0.08097342095801094 -0.06680096095441343 0.06558262239416845 0.0012183385602449316 -0.03972339863308885 0.0 0.0
0.0 0.08769166807716139 -0.07204149742339173 0.07072389296143643 0.0013176044619552388 -0.04494704667908907 0.0 0.0
0.0 0.08809207586164854 -0.07205434734400228 0.07058987972541404 0.0014644676185882 -0.04716776698595834 0.0 0.0
0.0 0.07619138764786676 -0.06185017160454308 0.06016293835640797 0.001687233248135122 -0.04311076431873375 0.0 0.0
0.0 0.07619138764787403 -0.061850171604540115 0.06016293835640553 0.0016872332481345713 0.04311076431878984 0.0 0.0
0.0 0.08809207586164815 -0.07205434734399027 0.07058987972540298 0.001464467618587294 0.047167766986032235 0.0 0.0
0.0 0.08769166807714224 -0.07204149742336582 0.07072389296141206 0.0013176044619537205 0.044947046679143746 0.0 0.0
0.0 0.08097342095796613 -0.0668009609543712 0.06558262239412775 0.0012183385602434144 0.03972339863309976 0.0 0.0
0.0 0.07146958836327444 -0.05908089132677605 0.057947251163171475 0.0011336401636045843 0.03427493925752314 0.0 0.0
0.0 0.061031812812862865 -0.05046667804740059 0.04940907817828523 0.0010575998691153155 0.02968387497227528 0.0 0.0
0.0 0.05075010681734762 -0.04186340546668595 0.04087578391081189 0.0009876215558740826 0.025878475678719034 0.0 0.0
0.0 0.04111164858912517 -0.0337338316651914 0.032811513263281425 0.0009223184019099824 0.02239238486265583 0.0 0.0
0.0 0.03217135776683706 -0.02625303508546252 0.025394740606887435 0.0008582944785750662 0.01888725497045846 0.0 0.0
0.0 0.024011576600335788 -0.019450872534526778 0.01866071077783997 0.0007901617566868077 0.015220083359236587 0.0 0.0
0.0 0.016671539035899057 -0.013366790482230204 0.012653141079083599 0.0007136494031466053 0.01138865539837616 0.0 0.0
0.0 0.01035155720492132 -0.00815105793916313 0.0075411963490717255 0.0006098615900914117 0.007651468997060968 0.0 0.0
0.0 0.005357577670743947 -0.0041048487048006834 0.0036572783747904182 0.0004475703300102628 0.004438725350783408 0.0 0.0
0.0 0.0020947405456012216 -0.001507334890371872 0.0012804323523448661 0.00022690253802700556 0.002050853171086642 0.0 0.0
0.0 0.0005435451156582306 -0.000339992412118258 0.00027872673593422255 6.12656761840355e-05 0.0006284820688965496 0.0 0.0
0.0 0.00010407740993720855 -5.03198618492238e-05 4.1029416444429034e-05 9.290445404794711e-06 0.0001248935763029386 0.0 0.0
0.0 2.457110995018251e-05 -8.762912781900037e-06 7.213480233000623e-06 1.5494325488994125e-06 2.8341855201630417e-05 0.0 0.0
0.0 5.733842048620459e-06 -1.219947739133525e-06 9.95142539973937e-07 2.2480519915958669e-07 5.4106354584609104e-06 0.0 0.0
0.0 3.8538157904294466e-07 8.52436999717895e-09 -5.889213619678072e-09 -2.6351563774992616e-09 -7.62597964614563e-08 0.0 0.0
0.0 0.0 0.0 0.0 0.0 0.0 0.0 0.0
0.0 0.0 0.0 0.0 0.0 0.0 0.0 0.0
0.0 0.0 0.0 0.0 0.0 0.0 0.0 0.0
0.0 2.5419280424883044e-06 -6.018196925698902e-07 4.901269386257178e-07 1.1169275394417594e-07 -2.1068151108158467e-06 0.0 0.0
0.0 2.3271859414520036e-05 -8.120347379048966e-06 6.613618813265067e-06 1.50672856578391e-06 -1.9625919252013335e-05 0.0 0.0
0.0 0.00016792044422163764 -9.470781221201062e-05 7.693894254130518e-05 1.776886967070549e-05 -0.0001648199022147788 0.0 0.0
0.0 0.0009509683963958856 -0.0007014734948208944 0.0005816540685212993 0.00011981942629959508 -0.0008797883445569407 0.0 0.0
0.0 0.0033082141797715226 -0.00259950047224436 0.0022595091823831214 0.0003399912898612384 -0.0024646975524346497 0.0 0.0
0.0 0.007690049754478201 -0.006227044703353252 0.005676689414142169 0.0005503552892110802 -0.004993197175611756 0.0 0.0
0.0 0.014021917298991791 -0.011531345780130153 0.010845375367214435 0.000685970412915715 -0.008402168538718235 0.0 0.0
0.0 0.021994189576624114 -0.018216929380374378 0.01743675757347827 0.0007801718068961133 -0.01227516844221032 0.0 0.0
0.0 0.0312589163850324 -0.02600821674250999 0.025147228273920685 0.0008609884685892989 -0.01618573313097822 0.0 0.0
0.0 0.0416027335564933 -0.03474211110159839 0.03380570477830379 0.0009364063232946067 -0.019935460485454092 0.0 0.0
0.0 0.0529368542207309 -0.044359680348621186 0.04335144908373415 0.0010082312648870039 -0.023517656064226015 0.0 0.0
0.0 0.06525855597456813 -0.05483855969650902 0.05375844960912125 0.001080110087387766 -0.02705029383426192 0.0 0.0
0.0 0.07848757661128969 -0.06603182563921453 0.06487269394897527 0.0011591316902392723 -0.030914549088520288 0.0 0.0
0.0 0.091830242087052 -0.07740296531995865 0.07615116272779383 0.001251802592164796 -0.03563782120008183 0.0 0.0
0.0 0.10434483094326602 -0.0877231548535401 0.0863613273200597 0.0013618275334803388 -0.041346158257356685 0.0 0.0
0.0 0.11305937112893961 -0.0947795560613623 0.09328253796081268 0.0014970181005496458 -0.04692855425709805 0.0 0.0
0.0 0.113625905350372 -0.0949886021187824 0.09332412626050118 0.0016644758582811821 -0.04987164136662537 0.0 0.0
0.0 0.10002985055635531 -0.08301184312296489 0.0811528223051686 0.0018590208177963008 -0.04838176193030913 0.0 0.0
0.0 0.100029850556354 -0.08301184312295572 0.08115282230515922 0.0018590208177964658 0.04838176193036623 0.0 0.0
0.0 0.11362590535035118 -0.09498860211875523 0.09332412626047387 0.001664475858281277 0.049871641366695536 0.0 0.0
0.0 0.11305937112889847 -0.09477955606131985 0.09328253796077006 0.0014970181005496794 0.046928554257150076 0.0 0.0
0.0 0.10434483094320596 -0.0877231548534857 0.08636132732000493 0.0013618275334807144 0.041346158257368835 0.0 0.0
0.0 0.09183024208698126 -0.07740296531989715 0.07615116272773267 0.0012518025921644483 0.0356378212000706 0.0 0.0
0.0 0.07848757661121684 -0.0660318256391519 0.06487269394891296 0.0011591316902389653 0.030914549088502517 0.0 0.0
0.0 0.06525855597449581 -0.05483855969644702 0.05375844960906002 0.0010801100873870048 0.027050293834239708 0.0 0.0
0.0 0.05293685422065467 -0.04435968034855592 0.0433514490836688 0.0010082312648871067 0.023517656064205052 0.0 0.0
0.0 0.041602733556420746 -0.03474211110153674 0.03380570477824242 0.000936406323294322 0.01993546048542761 0.0 0.0
0.0 0.031258916384968666 -0.02600821674245679 0.025147228273868318 0.0008609884685884495 0.016185733130945762 0.0 0.0
0.0 0.02199418957656864 -0.018216929380328515 0.017436757573433007 0.0007801718068955067 0.01227516844217746 0.0 0.0
0.0 0.014021917298947927 -0.011531345780093946 0.01084537536717867 0.0006859704129152778 0.008402168538694792 0.0 0.0
0.0 0.007690049754450477 -0.006227044703330796 0.005676689414120406 0.0005503552892103892 0.004993197175595805 0.0 0.0
0.0 0.0033082141797562874 -0.0025995004722325923 0.002259509182372472 0.0003399912898601206 0.0024646975524249774 0.0 0.0
0.0 0.0009509683963901082 -0.0007014734948172692 0.0005816540685182655 0.00011981942629900327 0.0008797883445528116 0.0 0.0
0.0 0.0001679204442200539 -9.47078122116842e-05 7.693894254103462e-05 1.7768869670649497e-05 0.00016481990221429537 0.0 0.0
0.0 2.3271859413816257e-05 -8.120347379135995e-06 6.613618813333111e-06 1.5067285658028954e-06 1.9625919252241285e-05 0.0 0.0
0.0 2.541928042371522e-06 -6.018196926811715e-07 4.901269387156068e-07 1.1169275396556245e-07 2.106815111208426e-06 0.0 0.0
0.0 0.0 0.0 0.0 0.0 0.0 0.0 0.0
0.0 0.0 0.0 0.0 0.0 0.0 0.0 0.0
0.0 0.0 0.0 0.0 0.0 0.0 0.0 0.0
0.0 0.0 0.0 0.0 0.0 0.0 0.0 0.0
0.0 9.159772724021529e-07 5.630253744311479e-08 -4.536700834069255e-08 -1.0935529102421052e-08 1.5681455061216043e-07 0.0 0.0
0.0 2.087582786891968e-05 -1.1253410643612842e-05 9.075545590528882e-06 2.1778650530840025e-06 -2.05726802082932e-05 0.0 0.0
0.0 0.0002768817964209937 -0.00019504007457377617 0.00015851035608289768 3.652971849087848e-05 -0.00024205671787860865 0.0 0.0
0.0 0.0015667995336422784 -0.0012421499900200916 0.0010448346994323934 0.00019731529058769864 -0.0010753035175754533 0.0 0.0
0.0 0.004798454467961857 -0.00391451952916687 0.0034751382666126113 0.00043938126255426037 -0.002656207076299689 0.0 0.0
0.0 0.010150584690988621 -0.008548784440715053 0.007925694825503872 0.0006230896152111784 -0.005174869942371943 0.0 0.0
0.0 0.017807266254721624 -0.015048163998918972 0.01430858481612014 0.0007395791827988385 -0.00849762041395868 0.0 0.0
0.0 0.02740524184850862 -0.023167454571240868 0.022333749260848267 0.0008337053103926063 -0.012218395474129347 0.0 0.0
0.0 0.03858324871521068 -0.03265400283234941 0.0317327894879608 0.0009212133443885978 -0.015994395139302297 0.0 0.0
0.0 0.05108663320566119 -0.043319671839431376 0.04231475333806697 0.0010049185013643693 -0.01961341972922716 0.0 0.0
0.0 0.06488326100765453 -0.055072881144098224 0.053987684037643834 0.001085197106454384 -0.023078111771217553 0.0 0.0
0.0 0.07974176403110854 -0.06788164939598197 0.06671746223727007 0.0011641871587119144 -0.026472537448395506 0.0 0.0
0.0 0.09576388564519152 -0.081609669332535 0.08035844172152834 0.0012512276110066374 -0.030022083571986956 0.0 0.0
0.0 0.11230971315897366 -0.09566325947594428 0.09430355757028826 0.0013597019056560374 -0.03423756554693457 0.0 0.0
0.0 0.12732146413511436 -0.10850894697846247 0.10701276898452947 0.0014961779939329318 -0.03952911816831828 0.0 0.0
0.0 0.1378204743581701 -0.1172990882827689 0.11563892424105485 0.0016601640417140526 -0.04530736856547094 0.0 0.0
0.0 0.13887223999065818 -0.11777019539927958 0.11593145208697322 0.001838743312306326 -0.05005304056933009 0.0 0.0
0.0 0.12438873647022786 -0.10434406098594655 0.10232706819032149 0.0020169927956250715 -0.053196134898436144 0.0 0.0
0.0 0.12438873647022167 -0.10434406098593463 0.10232706819030887 0.002016992795625709 0.05319613489849096 0.0 0.0
0.0 0.13887223999063247 -0.11777019539924977 0.11593145208694298 0.0018387433123067437 0.0500530405694024 0.0 0.0
0.0 0.13782047435812267 -0.11729908828272234 0.1156389242410083 0.0016601640417140367 0.045307368565522865 0.0 0.0
0.0 0.12732146413504636 -0.10850894697840094 0.1070127689844691 0.0014961779939317871 0.03952911816833287 0.0 0.0
0.0 0.11230971315888924 -0.09566325947587073 0.09430355757021543 0.0013597019056552936 0.03423756554692539 0.0 0.0
0.0 0.09576388564510163 -0.08160966933245693 0.08035844172145112 0.0012512276110057713 0.030022083571973508 0.0 0.0
0.0 0.07974176403102187 -0.0678816493959069 0.06671746223719627 0.0011641871587105973 0.02647253744837539 0.0 0.0
0.0 0.06488326100756896 -0.055072881144023825 0.0539876840375704 0.001085197106453352 0.02307811177119907 0.0 0.0
0.0 0.05108663320557712 -0.04331967183935882 0.042314753337995066 0.001004918501363758 0.01961341972920382 0.0 0.0
0.0 0.03858324871513264 -0.03265400283228347 0.031732789487895215 0.0009212133443882624 0.015994395139269677 0.0 0.0
0.0 0.02740524184843974 -0.023167454571183098 0.022333749260790896 0.0008337053103921923 0.012218395474096193 0.0 0.0
0.0 0.017807266254674534 -0.015048163998878844 0.014308584816080827 0.0007395791827980182 0.008497620413938173 0.0 0.0
0.0 0.010150584690956217 -0.008548784440687702 0.007925694825477241 0.0006230896152104514 0.0051748699423567555 0.0 0.0
0.0 0.004798454467941202 -0.003914519529150107 0.0034751382665969225 0.00043938126255318706 0.0026562070762892096 0.0 0.0
0.0 0.001566799533630981 -0.0012421499900115525 0.0010448346994249406 0.0001973152905866113 0.0010753035175685545 0.0 0.0
0.0 0.0002768817964178445 -0.00019504007457218318 0.0001585103560815599 3.652971849062307e-05 0.00024205671787676553 0.0 0.0
0.0 2.087582786859655e-05 -1.1253410643804905e-05 9.0755455906786e-06 2.177865053126287e-06 2.057268020864238e-05 0.0 0.0
0.0 9.159772720464821e-07 5.630253742091469e-08 -4.5367008322703315e-08 -1.0935529098212496e-08 -1.5681455054918204e-07 0.0 0.0
0.0 0.0 0.0 0.0 0.0 0.0 0.0 0.0
0.0 0.0 0.0 0.0 0.0 0.0 0.0 0.0
0.0 0.0 0.0 0.0 0.0 0.0 0.0 0.0
0.0 0.0 0.0 0.0 0.0 0.0 0.0 0.0
0.0 2.633745482838499e-07 1.9034837468267232e-08 -1.5232417022672714e-08 -3.80242044559584e-09 3.959451352121644e-08 0.0 0.0
0.0 2.327539596546846e-05 -1.5350975445772875e-05 1.2304419407562504e-05 3.0465560382103896e-06 -2.068222231071902e-05 0.0 0.0
0.0 0.0004793368477864992 -0.00037349827725232477 0.0003047765041316131 6.872177312071176e-05 -0.00032081835306352325 0.0 0.0
0.0 0.002388993288146406 -0.0019552951155717402 0.0016728268901564178 0.0002824682254153234 -0.0011570580791717506 0.0 0.0
0.0 0.006287679764747541 -0.005416820660843393 0.004897216688211875 0.0005196039726315194 -0.002637489381150802 0.0 0.0
0.0 0.012743581854313398 -0.010985825485131369 0.010312788551111299 0.00067303693402007 -0.004924262883024361 0.0 0.0
0.0 0.02171589462922062 -0.01863145872622956 0.017850033071217825 0.0007814256550117359 -0.007888883041366587 0.0 0.0
0.0 0.03287411005094895 -0.02816753767670962 0.027288236935872318 0.0008793007408373192 -0.011249567351832364 0.0 0.0
0.0 0.04593208073635384 -0.039338562232389296 0.03836470611661698 0.0009738561157722828 -0.014660298271011597 0.0 0.0
0.0 0.06062710722524812 -0.05193678886138849 0.0508704770476536 0.001066311813734845 -0.017935636661300373 0.0 0.0
0.0 0.07678769985819746 -0.06583171544765595 0.06467567963973961 0.0011560358079162796 -0.021098133455075593 0.0 0.0
0.0 0.09435590897142762 -0.08093737198106551 0.0796929529743287 0.0012444190067367935 -0.02415198270536236 0.0 0.0
0.0 0.11309966034197848 -0.09708579111403724 0.09574710098873683 0.0013386901253004207 -0.027112401541803832 0.0 0.0
0.0 0.1321265714775081 -0.11366197026741874 0.11220459457276735 0.0014573756946513593 -0.030272462919401773 0.0 0.0
0.0 0.14991902606517643 -0.12894433275777553 0.12732781215286174 0.0016165206049137525 -0.034406228259917924 0.0 0.0
0.0 0.1625151991827068 -0.13958589514115047 0.1377809896351041 0.0018049055060463625 -0.04022757530420627 0.0 0.0
0.0 0.1644483582317581 -0.14070348635601182 0.13870355214197744 0.0019999342140343017 -0.04784435655818795 0.0 0.0
0.0 0.1494010735923556 -0.12628385809410128 0.12410972334313505 0.002174134750966111 -0.05757469334017852 0.0 0.0
0.0 0.1494010735923532 -0.12628385809409268 0.12410972334312696 0.0021741347509657504 0.05757469334023239 0.0 0.0
0.0 0.16444835823172232 -0.14070348635597477 0.13870355214194036 0.001999934214034422 0.047844356558256945 0.0 0.0
0.0 0.16251519918264506 -0.13958589514109324 0.13778098963504767 0.0018049055060454324 0.04022757530424984 0.0 0.0
0.0 0.1499190260650986 -0.12894433275770617 0.12732781215279404 0.0016165206049121058 0.03440622825992904 0.0 0.0
0.0 0.13212657147741438 -0.11366197026733688 0.11220459457268682 0.001457375694649988 0.030272462919395567 0.0 0.0
0.0 0.11309966034188101 -0.09708579111395224 0.09574710098865316 0.001338690125299055 0.027112401541794763 0.0 0.0
0.0 0.0943559089713233 -0.08093737198097578 0.07969295297423903 0.0012444190067366929 0.024151982705344223 0.0 0.0
0.0 0.07678769985809485 -0.06583171544756723 0.06467567963965129 0.0011560358079159324 0.021098133455058156 0.0 0.0
0.0 0.06062710722515201 -0.05193678886130513 0.050870477047571236 0.0010663118137339118 0.017935636661279123 0.0 0.0
0.0 0.04593208073626791 -0.039338562232315445 0.03836470611654378 0.0009738561157716592 0.014660298270983009 0.0 0.0
0.0 0.03287411005087496 -0.028167537676646228 0.02728823693580952 0.0008793007408367011 0.01124956735180456 0.0 0.0
0.0 0.02171589462916344 -0.018631458726180286 0.017850033071168617 0.0007814256550116683 0.007888883041348443 0.0 0.0
0.0 0.012743581854272892 -0.010985825485096384 0.010312788551076896 0.000673036934019487 0.004924262883009546 0.0 0.0
0.0 0.006287679764717742 -0.005416820660817942 0.004897216688187516 0.0005196039726304243 0.002637489381139283 0.0 0.0
0.0 0.0023889932881304547 -0.001955295115559153 0.0016728268901450216 0.00028246822541413085 0.001157058079164625 0.0 0.0
0.0 0.0004793368477826177 -0.00037349827725006735 0.0003047765041296879 6.872177312037925e-05 0.0003208183530616765 0.0 0.0
0.0 2.327539596535404e-05 -1.5350975446278686e-05 1.2304419407955515e-05 3.0465560383231767e-06 2.068222231135476e-05 0.0 0.0
0.0 2.633745479801639e-07 1.90348374459991e-08 -1.5232417004860948e-08 -3.802420441135515e-09 -3.959451347502403e-08 0.0 0.0
0.0 0.0 0.0 0.0 0.0 0.0 0.0 0.0
0.0 0.0 0.0 0.0 0.0 0.0 0.0 0.0
0.0 0.0 0.0 0.0 0.0 0.0 0.0 0.0
0.0 0.0 0.0 0.0 0.0 0.0 0.0 0.0
0.0 0.0 0.0 0.0 0.0 0.0 0.0 0.0
0.0 3.624414494896675e-05 -2.7426714208223715e-05 2.199284562861393e-05 5.433868579609779e-06 -2.5903709861404093e-05 0.0 0.0
0.0 0.0008157134619919715 -0.0006615281086478405 0.0005439070901059144 0.00011762101854192592 -0.00036642056889675274 0.0 0.0
0.0 0.0033438201993808707 -0.002830494103915912 0.0024631412935040616 0.0003673528104118506 -0.0011021471646822923 0.0 0.0
0.0 0.007991790989765801 -0.007029776835828806 0.006449599510333192 0.0005801773254956122 -0.0023185955220406044 0.0 0.0
0.0 0.015468968238566404 -0.013475258255298543 0.012765567625077873 0.0007096906302206676 -0.004168917490333646 0.0 0.0
0.0 0.025669338007736325 -0.022240813843697214 0.021424985072028113 0.0008158287716690838 -0.006603992961231228 0.0 0.0
0.0 0.03837803512407274 -0.03317143165365337 0.03225283311551975 0.0009185985381336153 -0.009379554829144059 0.0 0.0
0.0 0.053322316188733 -0.04601610235112265 0.04499544396035226 0.0010206583907703749 -0.012202471181174965 0.0 0.0
0.0 0.0701486464597399 -0.060548064618596215 0.059426303208125364 0.0011217614104708617 -0.014909949983262755 0.0 0.0
0.0 0.08882435304952441 -0.07658950624750362 0.07536749879497565 0.0012220074525279361 -0.01753939955895278 0.0 0.0
0.0 0.10881153659387592 -0.09396942616245305 0.09264727955014572 0.0013221466123073237 -0.0200972300306676 0.0 0.0
0.0 0.1300441817102208 -0.11240103459947234 0.11097515587618859 0.0014258787232837536 -0.022355687076339947 0.0 0.0
0.0 0.15174999653265384 -0.13122327248432716 0.12967556543464975 0.0015477070496773223 -0.02412295374911389 0.0 0.0
0.0 0.17202352710072788 -0.14878757035934556 0.14707556833089722 0.0017120020284483338 -0.02630552545752696 0.0 0.0
0.0 0.18700112610559994 -0.16160339952000263 0.1596723764445456 0.0019310230754570053 -0.031611549493145714 0.0 0.0
0.0 0.19055197644712013 -0.16406165132827355 0.16190920654220337 0.0021524447860702296 -0.042768471304365716 0.0 0.0
0.0 0.17580903549612606 -0.14931879571851112 0.14697538436345137 0.0023434113550597335 -0.061181410844721215 0.0 0.0
0.0 0.17580903549611804 -0.1493187957184996 0.14697538436344032 0.0023434113550592083 0.06118141084476253 0.0 0.0
0.0 0.1905519764470727 -0.1640616513282292 0.161909206542158 0.0021524447860712358 0.0427684713044216 0.0 0.0
0.0 0.18700112610551634 -0.16160339951992922 0.1596723764444702 0.001931023075459004 0.0316115494931832 0.0 0.0
0.0 0.1720235271006284 -0.14878757035925905 0.14707556833081092 0.0017120020284482032 0.02630552545753379 0.0 0.0
0.0 0.1517499965325395 -0.13122327248422824 0.12967556543455097 0.0015477070496772221 0.02412295374911013 0.0 0.0
0.0 0.13004418171010085 -0.11240103459936852 0.11097515587608467 0.0014258787232838974 0.02235568707633325 0.0 0.0
0.0 0.10881153659375925 -0.09396942616235214 0.09264727955004516 0.0013221466123069644 0.020097230030654854 0.0 0.0
0.0 0.08882435304941143 -0.07658950624740543 0.07536749879487842 0.0012220074525270549 0.01753939955893979 0.0 0.0
0.0 0.07014864645962864 -0.060548064618500104 0.059426303208029496 0.001121761410470579 0.014909949983247094 0.0 0.0
0.0 0.05332231618863278 -0.046016102351035905 0.04499544396026592 0.0010206583907699668 0.012202471181150852 0.0 0.0
0.0 0.038378035123989324 -0.03317143165358109 0.03225283311544824 0.0009185985381328495 0.009379554829120305 0.0 0.0
0.0 0.025669338007675062 -0.022240813843643587 0.02142498507197555 0.0008158287716680443 0.006603992961216516 0.0 0.0
0.0 0.01546896823851789 -0.013475258255256176 0.012765567625036174 0.0007096906302200071 0.004168917490320348 0.0 0.0
0.0 0.007991790989734435 -0.007029776835801338 0.006449599510306557 0.0005801773254947852 0.00231859552203163 0.0 0.0
0.0 0.003343820199364128 -0.0028304941039018717 0.002463141293491256 0.00036735281041061637 0.0011021471646767804 0.0 0.0
0.0 0.0008157134619844846 -0.0006615281086421505 0.0005439070901011263 0.00011762101854102437 0.0003664205688939759 0.0 0.0
0.0 3.624414494819497e-05 -2.7426714208294615e-05 2.1992845628646658e-05 5.433868579647984e-06 2.590370986140895e-05 0.0 0.0
0.0 0.0 0.0 0.0 0.0 0.0 0.0 0.0
0.0 0.0 0.0 0.0 0.0 0.0 0.0 0.0
0.0 0.0 0.0 0.0 0.0 0.0 0.0 0.0
0.0 0.0 0.0 0.0 0.0 0.0 0.0 0.0
0.0 0.0 0.0 0.0 0.0 0.0 0.0 0.0
0.0 0.0 0.0 0.0 0.0 0.0 0.0 0.0
0.0 7.973993307521315e-05 -6.409257214951209e-05 5.1308366141222414e-05 1.2784206008289696e-05 -3.678258253565805e-05 0.0 0.0
0.0 0.0013134329046316435 -0.0010755342991211956 0.0008952662052331708 0.0001802680938880243 -0.00034081690359642736 0.0 0.0
0.0 0.004273812740158055 -0.0038429225939598383 0.003398111285129761 0.0004448113088300771 -0.000859122314448321 0.0 0.0
0.0 0.009837521109911582 -0.008701058318281062 0.008078293261478606 0.0006227650568024607 -0.0016876522639191508 0.0 0.0
0.0 0.018242679300999716 -0.015985824687545756 0.015247077597619028 0.0007387470899267418 -0.002950226890068407 0.0 0.0
0.0 0.029642070964656132 -0.02583489704148078 0.02499082943056767 0.0008440676109130888 -0.004647741620465765 0.0 0.0
0.0 0.043881757188635725 -0.038136131278332 0.03718366643145146 0.0009524648468805236 -0.006611701803775369 0.0 0.0
0.0 0.060686180576081376 -0.052644297408558915 0.05158191613325004 0.0010623812753088446 -0.00861276541508884 0.0 0.0
0.0 0.07980781140218832 -0.06910789092093636 0.06793543761553444 0.0011724533054019255 -0.010532649730138477 0.0 0.0
0.0 0.10068920682296968 -0.08729949050996483 0.08601595351205324 0.0012835369979116102 -0.012425500974017324 0.0 0.0
0.0 0.1232933276244823 -0.10693107710480157 0.10553413078118684 0.0013969463236146778 -0.014245691074378888 0.0 0.0
0.0 0.14706960486622736 -0.12753916438740626 0.12602500878700607 0.00151415560040011 -0.01570553585703751 0.0 0.0
0.0 0.1709997634595302 -0.14831877997336335 0.14667969331173636 0.001639086661626963 -0.016325797538615495 0.0 0.0
0.0 0.19339207994781094 -0.16778219937177358 0.16599298851785538 0.001789210853918344 -0.01630726760197787 0.0 0.0
0.0 0.21097623785230812 -0.18297202359112513 0.18097272971295472 0.0019992938781703833 -0.019130478463045438 0.0 0.0
0.0 0.21751730131307837 -0.18808542278250345 0.18577341433473182 0.002312008447771358 -0.033099926204667396 0.0 0.0
0.0 0.20424845067876107 -0.1741749018498248 0.17163351552561756 0.0025413863242070957 -0.06318627279557386 0.0 0.0
0.0 0.2042484506787478 -0.17417490184981044 0.17163351552560357 0.0025413863242067197 0.06318627279560567 0.0 0.0
0.0 0.21751730131303015 -0.1880854227824592 0.18577341433468825 0.0023120084477709028 0.03309992620471287 0.0 0.0
0.0 0.21097623785222613 -0.18297202359105286 0.1809727297128837 0.0019992938781692214 0.019130478463075598 0.0 0.0
0.0 0.19339207994770727 -0.16778219937168262 0.1659929885177667 0.001789210853915904 0.01630726760198006 0.0 0.0
0.0 0.17099976345940998 -0.14831877997325876 0.14667969331163297 0.0016390866616257807 0.016325797538612644 0.0 0.0
0.0 0.1470696048660992 -0.12753916438729473 0.12602500878689554 0.0015141556003992257 0.015705535857035484 0.0 0.0
0.0 0.123293327624355 -0.10693107710469076 0.10553413078107757 0.0013969463236131715 0.014245691074373866 0.0 0.0
0.0 0.10068920682284152 -0.08729949050985343 0.08601595351194295 0.001283536997910491 0.012425500974009046 0.0 0.0
0.0 0.07980781140206565 -0.06910789092082947 0.06793543761542852 0.0011724533054009543 0.010532649730129726 0.0 0.0
0.0 0.06068618057596877 -0.052644297408461285 0.051581916133153216 0.0010623812753080455 0.008612765415071206 0.0 0.0
0.0 0.043881757188543175 -0.03813613127825176 0.03718366643137158 0.0009524648468801709 0.006611701803758148 0.0 0.0
0.0 0.02964207096458777 -0.025834897041420616 0.024990829430508375 0.0008440676109122398 0.00464774162045637 0.0 0.0
0.0 0.01824267930094889 -0.015985824687500965 0.015247077597575017 0.0007387470899259365 0.0029502268900601734 0.0 0.0
0.0 0.009837521109876443 -0.00870105831824987 0.008078293261448176 0.0006227650568016939 0.001687652263912584 0.0 0.0
0.0 0.004273812740138836 -0.003842922593942754 0.0033981112851136906 0.00044481130882906316 0.000859122314444254 0.0 0.0
0.0 0.0013134329046240424 -0.0010755342991153585 0.0008952662052280978 0.00018026809388726063 0.000340816903594746 0.0 0.0
0.0 7.973993307434515e-05 -6.409257214961342e-05 5.1308366141283556e-05 1.2784206008329825e-05 3.678258253570853e-05 0.0 0.0
0.0 0.0 0.0 0.0 0.0 0.0 0.0 0.0
0.0 0.0 0.0 0.0 0.0 0.0 0.0 0.0
0.0 0.0 0.0 0.0 0.0 0.0 0.0 0.0
0.0 0.0 0.0 0.0 0.0 0.0 0.0 0.0
0.0 0.0 0.0 0.0 0.0 0.0 0.0 0.0
0.0 0.0 0.0 0.0 0.0 0.0 0.0 0.0
0.0 0.00019841153659472577 -0.00017092478362252554 0.00013660842488717487 3.4316358735350766e-05 -4.1334367362418135e-05 0.0 0.0
0.0 0.0019764845097551944 -0.0016083871298034516 0.0013566811555548847 0.0002517059742485662 -0.00020009963007010167 0.0 0.0
0.0 0.005475533775374788 -0.0049236132818144766 0.004416644799505262 0.0005069684823092143 -0.00040445909214758267 0.0 0.0
0.0 0.011745099029797425 -0.010406096350786553 0.009750884128910082 0.0006552122218764707 -0.0007422246833768312 0.0 0.0
0.0 0.02105678303817294 -0.01848151420457386 0.01771996971041357 0.0007615444941602784 -0.001271801088374711 0.0 0.0
0.0 0.033629918496962466 -0.02937240630341365 0.028504830769472824 0.0008675755339408039 -0.0020286594155473105 0.0 0.0
0.0 0.04940893831189542 -0.04301758180698816 0.04203617690140452 0.0009814049055836608 -0.0029413243426825953 0.0 0.0
0.0 0.06814664517894989 -0.05918160850047897 0.058082195544603296 0.0010994129558756802 -0.0038886620163642756 0.0 0.0
0.0 0.08922716795833102 -0.07757918355963012 0.07635995983179714 0.0012192237278329332 -0.004814241660788688 0.0 0.0
0.0 0.11260263247381538 -0.09790226729897596 0.09656122037213158 0.0013410469268443517 -0.005716488338178206 0.0 0.0
0.0 0.13781191981031965 -0.11975678910404625 0.11828947258111108 0.001467316522935125 -0.006532872126248979 0.0 0.0
0.0 0.16404426071503908 -0.14250301369834734 0.14090345001927013 0.0015995636790772903 -0.007086388847681091 0.0 0.0
0.0 0.19010778574568138 -0.16509084243524025 0.1633545414329122 0.001736301002327942 -0.007003421293334051 0.0 0.0
0.0 0.21417474734082909 -0.185963436011646 0.1840881189159425 0.0018753170957034795 -0.005888706884861265 0.0 0.0
0.0 0.23363367456419576 -0.20286259920871386 0.20082963287507077 0.002032966333642852 -0.0050297403182907215 0.0 0.0
0.0 0.2441833102730868 -0.21178827414461482 0.20950648575619227 0.002281788388422473 -0.01450981910292119 0.0 0.0
0.0 0.23649218644507122 -0.20281736818901183 0.19989723691613823 0.002920131272873574 -0.05830588633605621 0.0 0.0
0.0 0.23649218644505515 -0.20281736818899654 0.1998972369161238 0.002920131272872492 0.058305886336068855 0.0 0.0
0.0 0.24418331027303197 -0.21178827414456614 0.20950648575614536 0.0022817883884205708 0.01450981910294349 0.0 0.0
0.0 0.23363367456410017 -0.20286259920863048 0.20082963287498867 0.0020329663336416935 0.005029740318304854 0.0 0.0
0.0 0.21417474734070507 -0.18596343601153847 0.18408811891583562 0.0018753170957028448 0.005888706884858671 0.0 0.0
0.0 0.1901077857455455 -0.16509084243512212 0.16335454143279504 0.0017363010023269132 0.0070034212933311225 0.0 0.0
0.0 0.16404426071489275 -0.14250301369822055 0.1409034500191435 0.0015995636790769685 0.007086388847681355 0.0 0.0
0.0 0.13781191981017107 -0.11975678910391786 0.11828947258098246 0.0014673165229353174 0.0065328721262453765 0.0 0.0
0.0 0.11260263247367104 -0.09790226729885099 0.09656122037200687 0.0013410469268440777 0.0057164883381726145 0.0 0.0
0.0 0.0892271679581947 -0.07757918355951196 0.07635995983167967 0.0012192237278322406 0.0048142416607850555 0.0 0.0
0.0 0.06814664517882893 -0.05918160850037397 0.05808219554449892 0.0010994129558750336 0.0038886620163547563 0.0 0.0
0.0 0.04940893831179368 -0.04301758180689993 0.042036176901317 0.0009814049055829547 0.002941324342674781 0.0 0.0
0.0 0.03362991849688182 -0.029372406303343118 0.028504830769402936 0.000867575533940171 0.0020286594155428756 0.0 0.0
0.0 0.021056783038114934 -0.01848151420452264 0.017719969710362948 0.0007615444941596764 0.001271801088370706 0.0 0.0
0.0 0.011745099029758548 -0.010406096350752014 0.00975088412887627 0.0006552122218757452 0.0007422246833745062 0.0 0.0
0.0 0.005475533775354756 -0.004923613281796224 0.004416644799487845 0.0005069684823083779 0.0004044590921460808 0.0 0.0
0.0 0.001976484509744641 -0.0016083871297949547 0.0013566811555474141 0.0002517059742475415 0.00020009963006952116 0.0 0.0
0.0 0.00019841153659198778 -0.00017092478362069923 0.0001366084248856758 3.431635873502339e-05 4.1334367361965833e-05 0.0 0.0
0.0 0.0 0.0 0.0 0.0 0.0 0.0 0.0
0.0 0.0 0.0 0.0 0.0 0.0 0.0 0.0
0.0 0.0 0.0 0.0 0.0 0.0 0.0 0.0