# vtk DataFile Version 3.0
Some data
ASCII
DATASET UNSTRUCTURED_GRID
POINTS 861 float
0.0 0.0 0.0
0.4 0.0 0.0
0.8 0.0 0.0
1.2000000000000002 0.0 0.0
1.6 0.0 0.0
2.0 0.0 0.0
2.4000000000000004 0.0 0.0
2.8000000000000003 0.0 0.0
3.2 0.0 0.0
3.6 0.0 0.0
4.0 0.0 0.0
4.4 0.0 0.0
4.800000000000001 0.0 0.0
5.2 0.0 0.0
5.6000000000000005 0.0 0.0
6.0 0.0 0.0
6.4 0.0 0.0
6.800000000000001 0.0 0.0
7.2 0.0 0.0
7.6000000000000005 0.0 0.0
8.0 0.0 0.0
8.4 0.0 0.0
8.8 0.0 0.0
9.200000000000001 0.0 0.0
9.600000000000001 0.0 0.0
10.0 0.0 0.0
10.4 0.0 0.0
10.8 0.0 0.0
11.200000000000001 0.0 0.0
11.600000000000001 0.0 0.0
12.0 0.0 0.0
12.4 0.0 0.0
12.8 0.0 0.0
13.200000000000001 0.0 0.0
13.600000000000001 0.0 0.0
14.0 0.0 0.0
14.4 0.0 0.0
14.8 0.0 0.0
15.200000000000001 0.0 0.0
15.600000000000001 0.0 0.0
16.0 0.0 0.0
0.0 0.1 0.0
0.4 0.1 0.0
0.8 0.1 0.0
1.2000000000000002 0.1 0.0
1.6 0.1 0.0
2.0 0.1 0.0
2.4000000000000004 0.1 0.0
2.8000000000000003 0.1 0.0
3.2 0.1 0.0
3.6 0.1 0.0
4.0 0.1 0.0
4.4 0.1 0.0
4.800000000000001 0.1 0.0
5.2 0.1 0.0
5.6000000000000005 0.1 0.0
6.0 0.1 0.0
6.4 0.1 0.0
6.800000000000001 0.1 0.0
7.2 0.1 0.0
7.6000000000000005 0.1 0.0
8.0 0.1 0.0
8.4 0.1 0.0
8.8 0.1 0.0
9.200000000000001 0.1 0.0
9.600000000000001 0.1 0.0
10.0 0.1 0.0
10.4 0.1 0.0
10.8 0.1 0.0
11.200000000000001 0.1 0.0
11.600000000000001 0.1 0.0
12.0 0.1 0.0
12.4 0.1 0.0
12.8 0.1 0.0
13.200000000000001 0.1 0.0
13.600000000000001 0.1 0.0
14.0 0.1 0.0
14.4 0.1 0.0
14.8 0.1 0.0
15.200000000000001 0.1 0.0
15.600000000000001 0.1 0.0
16.0 0.1 0.0
0.0 0.2 0.0
0.4 0.2 0.0
0.8 0.2 0.0
1.2000000000000002 0.2 0.0
1.6 0.2 0.0
2.0 0.2 0.0
2.4000000000000004 0.2 0.0
2.8000000000000003 0.2 0.0
3.2 0.2 0.0
3.6 0.2 0.0
4.0 0.2 0.0
4.4 0.2 0.0
4.800000000000001 0.2 0.0
5.2 0.2 0.0
5.6000000000000005 0.2 0.0
6.0 0.2 0.0
6.4 0.2 0.0
6.800000000000001 0.2 0.0
7.2 0.2 0.0
7.6000000000000005 0.2 0.0
8.0 0.2 0.0
8.4 0.2 0.0
8.8 0.2 0.0
9.200000000000001 0.2 0.0
9.600000000000001 0.2 0.0
10.0 0.2 0.0
10.4 0.2 0.0
10.8 0.2 0.0
11.200000000000001 0.2 0.0
11.600000000000001 0.2 0.0
12.0 0.2 0.0
12.4 0.2 0.0
12.8 0.2 0.0
13.200000000000001 0.2 0.0
13.600000000000001 0.2 0.0
14.0 0.2 0.0
14.4 0.2 0.0
14.8 0.2 0.0
15.200000000000001 0.2 0.0
15.600000000000001 0.2 0.0
16.0 0.2 0.0
0.0 0.30000000000000004 0.0
0.4 0.30000000000000004 0.0
0.8 0.30000000000000004 0.0
1.2000000000000002 0.30000000000000004 0.0
1.6 0.30000000000000004 0.0
2.0 0.30000000000000004 0.0
2.4000000000000004 0.30000000000000004 0.0
2.8000000000000003 0.30000000000000004 0.0
3.2 0.30000000000000004 0.0
3.6 0.30000000000000004 0.0
4.0 0.30000000000000004 0.0
4.4 0.30000000000000004 0.0
4.800000000000001 0.30000000000000004 0.0
5.2 0.30000000000000004 0.0
5.6000000000000005 0.30000000000000004 0.0
6.0 0.30000000000000004 0.0
6.4 0.30000000000000004 0.0
6.800000000000001 0.30000000000000004 0.0
7.2 0.30000000000000004 0.0
7.6000000000000005 0.30000000000000004 0.0
8.0 0.30000000000000004 0.0
8.4 0.30000000000000004 0.0
8.8 0.30000000000000004 0.0
9.200000000000001 0.30000000000000004 0.0
9.600000000000001 0.30000000000000004 0.0
10.0 0.30000000000000004 0.0
10.4 0.30000000000000004 0.0
10.8 0.30000000000000004 0.0
11.200000000000001 0.30000000000000004 0.0
11.600000000000001 0.30000000000000004 0.0
12.0 0.30000000000000004 0.0
12.4 0.30000000000000004 0.0
12.8 0.30000000000000004 0.0
13.200000000000001 0.30000000000000004 0.0
13.600000000000001 0.30000000000000004 0.0
14.0 0.30000000000000004 0.0
14.4 0.30000000000000004 0.0
14.8 0.30000000000000004 0.0
15.200000000000001 0.30000000000000004 0.0
15.600000000000001 0.30000000000000004 0.0
16.0 0.30000000000000004 0.0
0.0 0.4 0.0
0.4 0.4 0.0
0.8 0.4 0.0
1.2000000000000002 0.4 0.0
1.6 0.4 0.0
2.0 0.4 0.0
2.4000000000000004 0.4 0.0
2.8000000000000003 0.4 0.0
3.2 0.4 0.0
3.6 0.4 0.0
4.0 0.4 0.0
4.4 0.4 0.0
4.800000000000001 0.4 0.0
5.2 0.4 0.0
5.6000000000000005 0.4 0.0
6.0 0.4 0.0
6.4 0.4 0.0
6.800000000000001 0.4 0.0
7.2 0.4 0.0
7.6000000000000005 0.4 0.0
8.0 0.4 0.0
8.4 0.4 0.0
8.8 0.4 0.0
9.200000000000001 0.4 0.0
9.600000000000001 0.4 0.0
10.0 0.4 0.0
10.4 0.4 0.0
10.8 0.4 0.0
11.200000000000001 0.4 0.0
11.600000000000001 0.4 0.0
12.0 0.4 0.0
12.4 0.4 0.0
12.8 0.4 0.0
13.200000000000001 0.4 0.0
13.600000000000001 0.4 0.0
14.0 0.4 0.0
14.4 0.4 0.0
14.8 0.4 0.0
15.200000000000001 0.4 0.0
15.600000000000001 0.4 0.0
16.0 0.4 0.0
0.0 0.5 0.0
0.4 0.5 0.0
0.8 0.5 0.0
1.2000000000000002 0.5 0.0
1.6 0.5 0.0
2.0 0.5 0.0
2.4000000000000004 0.5 0.0
2.8000000000000003 0.5 0.0
3.2 0.5 0.0
3.6 0.5 0.0
4.0 0.5 0.0
4.4 0.5 0.0
4.800000000000001 0.5 0.0
5.2 0.5 0.0
5.6000000000000005 0.5 0.0
6.0 0.5 0.0
6.4 0.5 0.0
6.800000000000001 0.5 0.0
7.2 0.5 0.0
7.6000000000000005 0.5 0.0
8.0 0.5 0.0
8.4 0.5 0.0
8.8 0.5 0.0
9.200000000000001 0.5 0.0
9.600000000000001 0.5 0.0
10.0 0.5 0.0
10.4 0.5 0.0
10.8 0.5 0.0
11.200000000000001 0.5 0.0
11.600000000000001 0.5 0.0
12.0 0.5 0.0
12.4 0.5 0.0
12.8 0.5 0.0
13.200000000000001 0.5 0.0
13.600000000000001 0.5 0.0
14.0 0.5 0.0
14.4 0.5 0.0
14.8 0.5 0.0
15.200000000000001 0.5 0.0
15.600000000000001 0.5 0.0
16.0 0.5 0.0
0.0 0.6000000000000001 0.0
0.4 0.6000000000000001 0.0
0.8 0.6000000000000001 0.0
1.2000000000000002 0.6000000000000001 0.0
1.6 0.6000000000000001 0.0
2.0 0.6000000000000001 0.0
2.4000000000000004 0.6000000000000001 0.0
2.8000000000000003 0.6000000000000001 0.0
3.2 0.6000000000000001 0.0
3.6 0.6000000000000001 0.0
4.0 0.6000000000000001 0.0
4.4 0.6000000000000001 0.0
4.800000000000001 0.6000000000000001 0.0
5.2 0.6000000000000001 0.0
5.6000000000000005 0.6000000000000001 0.0
6.0 0.6000000000000001 0.0
6.4 0.6000000000000001 0.0
6.800000000000001 0.6000000000000001 0.0
7.2 0.6000000000000001 0.0
7.6000000000000005 0.6000000000000001 0.0
8.0 0.6000000000000001 0.0
8.4 0.6000000000000001 0.0
8.8 0.6000000000000001 0.0
9.200000000000001 0.6000000000000001 0.0
9.600000000000001 0.6000000000000001 0.0
10.0 0.6000000000000001 0.0
10.4 0.6000000000000001 0.0
10.8 0.6000000000000001 0.0
11.200000000000001 0.6000000000000001 0.0
11.600000000000001 0.6000000000000001 0.0
12.0 0.6000000000000001 0.0
12.4 0.6000000000000001 0.0
12.8 0.6000000000000001 0.0
13.200000000000001 0.6000000000000001 0.0
13.600000000000001 0.6000000000000001 0.0
14.0 0.6000000000000001 0.0
14.4 0.6000000000000001 0.0
14.8 0.6000000000000001 0.0
15.200000000000001 0.6000000000000001 0.0
15.600000000000001 0.6000000000000001 0.0
16.0 0.6000000000000001 0.0
0.0 0.7000000000000001 0.0
0.4 0.7000000000000001 0.0
0.8 0.7000000000000001 0.0
1.2000000000000002 0.7000000000000001 0.0
1.6 0.7000000000000001 0.0
2.0 0.7000000000000001 0.0
2.4000000000000004 0.7000000000000001 0.0
2.8000000000000003 0.7000000000000001 0.0
3.2 0.7000000000000001 0.0
3.6 0.7000000000000001 0.0
4.0 0.7000000000000001 0.0
4.4 0.7000000000000001 0.0
4.800000000000001 0.7000000000000001 0.0
5.2 0.7000000000000001 0.0
5.6000000000000005 0.7000000000000001 0.0
6.0 0.7000000000000001 0.0
6.4 0.7000000000000001 0.0
6.800000000000001 0.7000000000000001 0.0
7.2 0.7000000000000001 0.0
7.6000000000000005 0.7000000000000001 0.0
8.0 0.7000000000000001 0.0
8.4 0.7000000000000001 0.0
8.8 0.7000000000000001 0.0
9.200000000000001 0.7000000000000001 0.0
9.600000000000001 0.7000000000000001 0.0
10.0 0.7000000000000001 0.0
10.4 0.7000000000000001 0.0
10.8 0.7000000000000001 0.0
11.200000000000001 0.7000000000000001 0.0
11.600000000000001 0.7000000000000001 0.0
12.0 0.7000000000000001 0.0
12.4 0.7000000000000001 0.0
12.8 0.7000000000000001 0.0
13.200000000000001 0.7000000000000001 0.0
13.600000000000001 0.7000000000000001 0.0
14.0 0.7000000000000001 0.0
14.4 0.7000000000000001 0.0
14.8 0.7000000000000001 0.0
15.200000000000001 0.7000000000000001 0.0
15.600000000000001 0.7000000000000001 0.0
16.0 0.7000000000000001 0.0
0.0 0.8 0.0
0.4 0.8 0.0
0.8 0.8 0.0
1.2000000000000002 0.8 0.0
1.6 0.8 0.0
2.0 0.8 0.0
2.4000000000000004 0.8 0.0
2.8000000000000003 0.8 0.0
3.2 0.8 0.0
3.6 0.8 0.0
4.0 0.8 0.0
4.4 0.8 0.0
4.800000000000001 0.8 0.0
5.2 0.8 0.0
5.6000000000000005 0.8 0.0
6.0 0.8 0.0
6.4 0.8 0.0
6.800000000000001 0.8 0.0
7.2 0.8 0.0
7.6000000000000005 0.8 0.0
8.0 0.8 0.0
8.4 0.8 0.0
8.8 0.8 0.0
9.200000000000001 0.8 0.0
9.600000000000001 0.8 0.0
10.0 0.8 0.0
10.4 0.8 0.0
10.8 0.8 0.0
11.200000000000001 0.8 0.0
11.600000000000001 0.8 0.0
12.0 0.8 0.0
12.4 0.8 0.0
12.8 0.8 0.0
13.200000000000001 0.8 0.0
13.600000000000001 0.8 0.0
14.0 0.8 0.0
14.4 0.8 0.0
14.8 0.8 0.0
15.200000000000001 0.8 0.0
15.600000000000001 0.8 0.0
16.0 0.8 0.0
0.0 0.9 0.0
0.4 0.9 0.0
0.8 0.9 0.0
1.2000000000000002 0.9 0.0
1.6 0.9 0.0
2.0 0.9 0.0
2.4000000000000004 0.9 0.0
2.8000000000000003 0.9 0.0
3.2 0.9 0.0
3.6 0.9 0.0
4.0 0.9 0.0
4.4 0.9 0.0
4.800000000000001 0.9 0.0
5.2 0.9 0.0
5.6000000000000005 0.9 0.0
6.0 0.9 0.0
6.4 0.9 0.0
6.800000000000001 0.9 0.0
7.2 0.9 0.0
7.6000000000000005 0.9 0.0
8.0 0.9 0.0
8.4 0.9 0.0
8.8 0.9 0.0
9.200000000000001 0.9 0.0
9.600000000000001 0.9 0.0
10.0 0.9 0.0
10.4 0.9 0.0
10.8 0.9 0.0
11.200000000000001 0.9 0.0
11.600000000000001 0.9 0.0
12.0 0.9 0.0
12.4 0.9 0.0
12.8 0.9 0.0
13.200000000000001 0.9 0.0
13.600000000000001 0.9 0.0
14.0 0.9 0.0
14.4 0.9 0.0
14.8 0.9 0.0
15.200000000000001 0.9 0.0
15.600000000000001 0.9 0.0
16.0 0.9 0.0
0.0 1.0 0.0
0.4 1.0 0.0
0.8 1.0 0.0
1.2000000000000002 1.0 0.0
1.6 1.0 0.0
2.0 1.0 0.0
2.4000000000000004 1.0 0.0
2.8000000000000003 1.0 0.0
3.2 1.0 0.0
3.6 1.0 0.0
4.0 1.0 0.0
4.4 1.0 0.0
4.800000000000001 1.0 0.0
5.2 1.0 0.0
5.6000000000000005 1.0 0.0
6.0 1.0 0.0
6.4 1.0 0.0
6.800000000000001 1.0 0.0
7.2 1.0 0.0
7.6000000000000005 1.0 0.0
8.0 1.0 0.0
8.4 1.0 0.0
8.8 1.0 0.0
9.200000000000001 1.0 0.0
9.600000000000001 1.0 0.0
10.0 1.0 0.0
10.4 1.0 0.0
10.8 1.0 0.0
11.200000000000001 1.0 0.0
11.600000000000001 1.0 0.0
12.0 1.0 0.0
12.4 1.0 0.0
12.8 1.0 0.0
13.200000000000001 1.0 0.0
13.600000000000001 1.0 0.0
14.0 1.0 0.0
14.4 1.0 0.0
14.8 1.0 0.0
15.200000000000001 1.0 0.0
15.600000000000001 1.0 0.0
16.0 1.0 0.0
0.0 1.1 0.0
0.4 1.1 0.0
0.8 1.1 0.0
1.2000000000000002 1.1 0.0
1.6 1.1 0.0
2.0 1.1 0.0
2.4000000000000004 1.1 0.0
2.8000000000000003 1.1 0.0
3.2 1.1 0.0
3.6 1.1 0.0
4.0 1.1 0.0
4.4 1.1 0.0
4.800000000000001 1.1 0.0
5.2 1.1 0.0
5.6000000000000005 1.1 0.0
6.0 1.1 0.0
6.4 1.1 0.0
6.800000000000001 1.1 0.0
7.2 1.1 0.0
7.6000000000000005 1.1 0.0
8.0 1.1 0.0
8.4 1.1 0.0
8.8 1.1 0.0
9.200000000000001 1.1 0.0
9.600000000000001 1.1 0.0
10.0 1.1 0.0
10.4 1.1 0.0
10.8 1.1 0.0
11.200000000000001 1.1 0.0
11.600000000000001 1.1 0.0
12.0 1.1 0.0
12.4 1.1 0.0
12.8 1.1 0.0
13.200000000000001 1.1 0.0
13.600000000000001 1.1 0.0
14.0 1.1 0.0
14.4 1.1 0.0
14.8 1.1 0.0
15.200000000000001 1.1 0.0
15.600000000000001 1.1 0.0
16.0 1.1 0.0
0.0 1.2000000000000002 0.0
0.4 1.2000000000000002 0.0
0.8 1.2000000000000002 0.0
1.2000000000000002 1.2000000000000002 0.0
1.6 1.2000000000000002 0.0
2.0 1.2000000000000002 0.0
2.4000000000000004 1.2000000000000002 0.0
2.8000000000000003 1.2000000000000002 0.0
3.2 1.2000000000000002 0.0
3.6 1.2000000000000002 0.0
4.0 1.2000000000000002 0.0
4.4 1.2000000000000002 0.0
4.800000000000001 1.2000000000000002 0.0
5.2 1.2000000000000002 0.0
5.6000000000000005 1.2000000000000002 0.0
6.0 1.2000000000000002 0.0
6.4 1.2000000000000002 0.0
6.800000000000001 1.2000000000000002 0.0
7.2 1.2000000000000002 0.0
7.6000000000000005 1.2000000000000002 0.0
8.0 1.2000000000000002 0.0
8.4 1.2000000000000002 0.0
8.8 1.2000000000000002 0.0
9.200000000000001 1.2000000000000002 0.0
9.600000000000001 1.2000000000000002 0.0
10.0 1.2000000000000002 0.0
10.4 1.2000000000000002 0.0
10.8 1.2000000000000002 0.0
11.200000000000001 1.2000000000000002 0.0
11.600000000000001 1.2000000000000002 0.0
12.0 1.2000000000000002 0.0
12.4 1.2000000000000002 0.0
12.8 1.2000000000000002 0.0
13.200000000000001 1.2000000000000002 0.0
13.600000000000001 1.2000000000000002 0.0
14.0 1.2000000000000002 0.0
14.4 1.2000000000000002 0.0
14.8 1.2000000000000002 0.0
15.200000000000001 1.2000000000000002 0.0
15.600000000000001 1.2000000000000002 0.0
16.0 1.2000000000000002 0.0
0.0 1.3 0.0
0.4 1.3 0.0
0.8 1.3 0.0
1.2000000000000002 1.3 0.0
1.6 1.3 0.0
2.0 1.3 0.0
2.4000000000000004 1.3 0.0
2.8000000000000003 1.3 0.0
3.2 1.3 0.0
3.6 1.3 0.0
4.0 1.3 0.0
4.4 1.3 0.0
4.800000000000001 1.3 0.0
5.2 1.3 0.0
5.6000000000000005 1.3 0.0
6.0 1.3 0.0
6.4 1.3 0.0
6.800000000000001 1.3 0.0
7.2 1.3 0.0
7.6000000000000005 1.3 0.0
8.0 1.3 0.0
8.4 1.3 0.0
8.8 1.3 0.0
9.200000000000001 1.3 0.0
9.600000000000001 1.3 0.0
10.0 1.3 0.0
10.4 1.3 0.0
10.8 1.3 0.0
11.200000000000001 1.3 0.0
11.600000000000001 1.3 0.0
12.0 1.3 0.0
12.4 1.3 0.0
12.8 1.3 0.0
13.200000000000001 1.3 0.0
13.600000000000001 1.3 0.0
14.0 1.3 0.0
14.4 1.3 0.0
14.8 1.3 0.0
15.200000000000001 1.3 0.0
15.600000000000001 1.3 0.0
16.0 1.3 0.0
0.0 1.4000000000000001 0.0
0.4 1.4000000000000001 0.0
0.8 1.4000000000000001 0.0
1.2000000000000002 1.4000000000000001 0.0
1.6 1.4000000000000001 0.0
2.0 1.4000000000000001 0.0
2.4000000000000004 1.4000000000000001 0.0
2.8000000000000003 1.4000000000000001 0.0
3.2 1.4000000000000001 0.0
3.6 1.4000000000000001 0.0
4.0 1.4000000000000001 0.0
4.4 1.4000000000000001 0.0
4.800000000000001 1.4000000000000001 0.0
5.2 1.4000000000000001 0.0
5.6000000000000005 1.4000000000000001 0.0
6.0 1.4000000000000001 0.0
6.4 1.4000000000000001 0.0
6.800000000000001 1.4000000000000001 0.0
7.2 1.4000000000000001 0.0
7.6000000000000005 1.4000000000000001 0.0
8.0 1.4000000000000001 0.0
8.4 1.4000000000000001 0.0
8.8 1.4000000000000001 0.0
9.200000000000001 1.4000000000000001 0.0
9.600000000000001 1.4000000000000001 0.0
10.0 1.4000000000000001 0.0
10.4 1.4000000000000001 0.0
10.8 1.4000000000000001 0.0
11.200000000000001 1.4000000000000001 0.0
11.600000000000001 1.4000000000000001 0.0
12.0 1.4000000000000001 0.0
12.4 1.4000000000000001 0.0
12.8 1.4000000000000001 0.0
13.200000000000001 1.4000000000000001 0.0
13.600000000000001 1.4000000000000001 0.0
14.0 1.4000000000000001 0.0
14.4 1.4000000000000001 0.0
14.8 1.4000000000000001 0.0
15.200000000000001 1.4000000000000001 0.0
15.600000000000001 1.4000000000000001 0.0
16.0 1.4000000000000001 0.0
0.0 1.5 0.0
0.4 1.5 0.0
0.8 1.5 0.0
1.2000000000000002 1.5 0.0
1.6 1.5 0.0
2.0 1.5 0.0
2.4000000000000004 1.5 0.0
2.8000000000000003 1.5 0.0
3.2 1.5 0.0
3.6 1.5 0.0
4.0 1.5 0.0
4.4 1.5 0.0
4.800000000000001 1.5 0.0
5.2 1.5 0.0
5.6000000000000005 1.5 0.0
6.0 1.5 0.0
6.4 1.5 0.0
6.800000000000001 1.5 0.0
7.2 1.5 0.0
7.6000000000000005 1.5 0.0
8.0 1.5 0.0
8.4 1.5 0.0
8.8 1.5 0.0
9.200000000000001 1.5 0.0
9.600000000000001 1.5 0.0
10.0 1.5 0.0
10.4 1.5 0.0
10.8 1.5 0.0
11.200000000000001 1.5 0.0
11.600000000000001 1.5 0.0
12.0 1.5 0.0
12.4 1.5 0.0
12.8 1.5 0.0
13.200000000000001 1.5 0.0
13.600000000000001 1.5 0.0
14.0 1.5 0.0
14.4 1.5 0.0
14.8 1.5 0.0
15.200000000000001 1.5 0.0
15.600000000000001 1.5 0.0
16.0 1.5 0.0
0.0 1.6 0.0
0.4 1.6 0.0
0.8 1.6 0.0
1.2000000000000002 1.6 0.0
1.6 1.6 0.0
2.0 1.6 0.0
2.4000000000000004 1.6 0.0
2.8000000000000003 1.6 0.0
3.2 1.6 0.0
3.6 1.6 0.0
4.0 1.6 0.0
4.4 1.6 0.0
4.800000000000001 1.6 0.0
5.2 1.6 0.0
5.6000000000000005 1.6 0.0
6.0 1.6 0.0
6.4 1.6 0.0
6.800000000000001 1.6 0.0
7.2 1.6 0.0
7.6000000000000005 1.6 0.0
8.0 1.6 0.0
8.4 1.6 0.0
8.8 1.6 0.0
9.200000000000001 1.6 0.0
9.600000000000001 1.6 0.0
10.0 1.6 0.0
10.4 1.6 0.0
10.8 1.6 0.0
11.200000000000001 1.6 0.0
11.600000000000001 1.6 0.0
12.0 1.6 0.0
12.4 1.6 0.0
12.8 1.6 0.0
13.200000000000001 1.6 0.0
13.600000000000001 1.6 0.0
14.0 1.6 0.0
14.4 1.6 0.0
14.8 1.6 0.0
15.200000000000001 1.6 0.0
15.600000000000001 1.6 0.0
16.0 1.6 0.0
0.0 1.7000000000000002 0.0
0.4 1.7000000000000002 0.0
0.8 1.7000000000000002 0.0
1.2000000000000002 1.7000000000000002 0.0
1.6 1.7000000000000002 0.0
2.0 1.7000000000000002 0.0
2.4000000000000004 1.7000000000000002 0.0
2.8000000000000003 1.7000000000000002 0.0
3.2 1.7000000000000002 0.0
3.6 1.7000000000000002 0.0
4.0 1.7000000000000002 0.0
4.4 1.7000000000000002 0.0
4.800000000000001 1.7000000000000002 0.0
5.2 1.7000000000000002 0.0
5.6000000000000005 1.7000000000000002 0.0
6.0 1.7000000000000002 0.0
6.4 1.7000000000000002 0.0
6.800000000000001 1.7000000000000002 0.0
7.2 1.7000000000000002 0.0
7.6000000000000005 1.7000000000000002 0.0
8.0 1.7000000000000002 0.0
8.4 1.7000000000000002 0.0
8.8 1.7000000000000002 0.0
9.200000000000001 1.7000000000000002 0.0
9.600000000000001 1.7000000000000002 0.0
10.0 1.7000000000000002 0.0
10.4 1.7000000000000002 0.0
10.8 1.7000000000000002 0.0
11.200000000000001 1.7000000000000002 0.0
11.600000000000001 1.7000000000000002 0.0
12.0 1.7000000000000002 0.0
12.4 1.7000000000000002 0.0
12.8 1.7000000000000002 0.0
13.200000000000001 1.7000000000000002 0.0
13.600000000000001 1.7000000000000002 0.0
14.0 1.7000000000000002 0.0
14.4 1.7000000000000002 0.0
14.8 1.7000000000000002 0.0
15.200000000000001 1.7000000000000002 0.0
15.600000000000001 1.7000000000000002 0.0
16.0 1.7000000000000002 0.0
0.0 1.8 0.0
0.4 1.8 0.0
0.8 1.8 0.0
1.2000000000000002 1.8 0.0
1.6 1.8 0.0
2.0 1.8 0.0
2.4000000000000004 1.8 0.0
2.8000000000000003 1.8 0.0
3.2 1.8 0.0
3.6 1.8 0.0
4.0 1.8 0.0
4.4 1.8 0.0
4.800000000000001 1.8 0.0
5.2 1.8 0.0
5.6000000000000005 1.8 0.0
6.0 1.8 0.0
6.4 1.8 0.0
6.800000000000001 1.8 0.0
7.2 1.8 0.0
7.6000000000000005 1.8 0.0
8.0 1.8 0.0
8.4 1.8 0.0
8.8 1.8 0.0
9.200000000000001 1.8 0.0
9.600000000000001 1.8 0.0
10.0 1.8 0.0
10.4 1.8 0.0
10.8 1.8 0.0
11.200000000000001 1.8 0.0
11.600000000000001 1.8 0.0
12.0 1.8 0.0
12.4 1.8 0.0
12.8 1.8 0.0
13.200000000000001 1.8 0.0
13.600000000000001 1.8 0.0
14.0 1.8 0.0
14.4 1.8 0.0
14.8 1.8 0.0
15.200000000000001 1.8 0.0
15.600000000000001 1.8 0.0
16.0 1.8 0.0
0.0 1.9000000000000001 0.0
0.4 1.9000000000000001 0.0
0.8 1.9000000000000001 0.0
1.2000000000000002 1.9000000000000001 0.0
1.6 1.9000000000000001 0.0
2.0 1.9000000000000001 0.0
2.4000000000000004 1.9000000000000001 0.0
2.8000000000000003 1.9000000000000001 0.0
3.2 1.9000000000000001 0.0
3.6 1.9000000000000001 0.0
4.0 1.9000000000000001 0.0
4.4 1.9000000000000001 0.0
4.800000000000001 1.9000000000000001 0.0
5.2 1.9000000000000001 0.0
5.6000000000000005 1.9000000000000001 0.0
6.0 1.9000000000000001 0.0
6.4 1.9000000000000001 0.0
6.800000000000001 1.9000000000000001 0.0
7.2 1.9000000000000001 0.0
7.6000000000000005 1.9000000000000001 0.0
8.0 1.9000000000000001 0.0
8.4 1.9000000000000001 0.0
8.8 1.9000000000000001 0.0
9.200000000000001 1.9000000000000001 0.0
9.600000000000001 1.9000000000000001 0.0
10.0 1.9000000000000001 0.0
10.4 1.9000000000000001 0.0
10.8 1.9000000000000001 0.0
11.200000000000001 1.9000000000000001 0.0
11.600000000000001 1.9000000000000001 0.0
12.0 1.9000000000000001 0.0
12.4 1.9000000000000001 0.0
12.8 1.9000000000000001 0.0
13.200000000000001 1.9000000000000001 0.0
13.600000000000001 1.9000000000000001 0.0
14.0 1.9000000000000001 0.0
14.4 1.9000000000000001 0.0
14.8 1.9000000000000001 0.0
15.200000000000001 1.9000000000000001 0.0
15.600000000000001 1.9000000000000001 0.0
16.0 1.9000000000000001 0.0
0.0 2.0 0.0
0.4 2.0 0.0
0.8 2.0 0.0
1.2000000000000002 2.0 0.0
1.6 2.0 0.0
2.0 2.0 0.0
2.4000000000000004 2.0 0.0
2.8000000000000003 2.0 0.0
3.2 2.0 0.0
3.6 2.0 0.0
4.0 2.0 0.0
4.4 2.0 0.0
4.800000000000001 2.0 0.0
5.2 2.0 0.0
5.6000000000000005 2.0 0.0
6.0 2.0 0.0
6.4 2.0 0.0
6.800000000000001 2.0 0.0
7.2 2.0 0.0
7.6000000000000005 2.0 0.0
8.0 2.0 0.0
8.4 2.0 0.0
8.8 2.0 0.0
9.200000000000001 2.0 0.0
9.600000000000001 2.0 0.0
10.0 2.0 0.0
10.4 2.0 0.0
10.8 2.0 0.0
11.200000000000001 2.0 0.0
11.600000000000001 2.0 0.0
12.0 2.0 0.0
12.4 2.0 0.0
12.8 2.0 0.0
13.200000000000001 2.0 0.0
13.600000000000001 2.0 0.0
14.0 2.0 0.0
14.4 2.0 0.0
14.8 2.0 0.0
15.200000000000001 2.0 0.0
15.600000000000001 2.0 0.0
16.0 2.0 0.0
CELLS 800 4000
4 0 1 42 41
4 1 2 43 42
4 2 3 44 43
4 3 4 45 44
4 4 5 46 45
4 5 6 47 46
4 6 7 48 47
4 7 8 49 48
4 8 9 50 49
4 9 10 51 50
4 10 11 52 51
4 11 12 53 52
4 12 13 54 53
4 13 14 55 54
4 14 15 56 55
4 15 16 57 56
4 16 17 58 57
4 17 18 59 58
4 18 19 60 59
4 19 20 61 60
4 20 21 62 61
4 21 22 63 62
4 22 23 64 63
4 23 24 65 64
4 24 25 66 65
4 25 26 67 66
4 26 27 68 67
4 27 28 69 68
4 28 29 70 69
4 29 30 71 70
4 30 31 72 71
4 31 32 73 72
4 32 33 74 73
4 33 34 75 74
4 34 35 76 75
4 35 36 77 76
4 36 37 78 77
4 37 38 79 78
4 38 39 80 79
4 39 40 81 80
4 41 42 83 82
4 42 43 84 83
4 43 44 85 84
4 44 45 86 85
4 45 46 87 86
4 46 47 88 87
4 47 48 89 88
4 48 49 90 89
4 49 50 91 90
4 50 51 92 91
4 51 52 93 92
4 52 53 94 93
4 53 54 95 94
4 54 55 96 95
4 55 56 97 96
4 56 57 98 97
4 57 58 99 98
4 58 59 100 99
4 59 60 101 100
4 60 61 102 101
4 61 62 103 102
4 62 63 104 103
4 63 64 105 104
4 64 65 106 105
4 65 66 107 106
4 66 67 108 107
4 67 68 109 108
4 68 69 110 109
4 69 70 111 110
4 70 71 112 111
4 71 72 113 112
4 72 73 114 113
4 73 74 115 114
4 74 75 116 115
4 75 76 117 116
4 76 77 118 117
4 77 78 119 118
4 78 79 120 119
4 79 80 121 120
4 80 81 122 121
4 82 83 124 123
4 83 84 125 124
4 84 85 126 125
4 85 86 127 126
4 86 87 128 127
4 87 88 129 128
4 88 89 130 129
4 89 90 131 130
4 90 91 132 131
4 91 92 133 132
4 92 93 134 133
4 93 94 135 134
4 94 95 136 135
4 95 96 137 136
4 96 97 138 137
4 97 98 139 138
4 98 99 140 139
4 99 100 141 140
4 100 101 142 141
4 101 102 143 142
4 102 103 144 143
4 103 104 145 144
4 104 105 146 145
4 105 106 147 146
4 106 107 148 147
4 107 108 149 148
4 108 109 150 149
4 109 110 151 150
4 110 111 152 151
4 111 112 153 152
4 112 113 154 153
4 113 114 155 154
4 114 115 156 155
4 115 116 157 156
4 116 117 158 157
4 117 118 159 158
4 118 119 160 159
4 119 120 161 160
4 120 121 162 161
4 121 122 163 162
4 123 124 165 164
4 124 125 166 165
4 125 126 167 166
4 126 127 168 167
4 127 128 169 168
4 128 129 170 169
4 129 130 171 170
4 130 131 172 171
4 131 132 173 172
4 132 133 174 173
4 133 134 175 174
4 134 135 176 175
4 135 136 177 176
4 136 137 178 177
4 137 138 179 178
4 138 139 180 179
4 139 140 181 180
4 140 141 182 181
4 141 142 183 182
4 142 143 184 183
4 143 144 185 184
4 144 145 186 185
4 145 146 187 186
4 146 147 188 187
4 147 148 189 188
4 148 149 190 189
4 149 150 191 190
4 150 151 192 191
4 151 152 193 192
4 152 153 194 193
4 153 154 195 194
4 154 155 196 195
4 155 156 197 196
4 156 157 198 197
4 157 158 199 198
4 158 159 200 199
4 159 160 201 200
4 160 161 202 201
4 161 162 203 202
4 162 163 204 203
4 164 165 206 205
4 165 166 207 206
4 166 167 208 207
4 167 168 209 208
4 168 169 210 209
4 169 170 211 210
4 170 171 212 211
4 171 172 213 212
4 172 173 214 213
4 173 174 215 214
4 174 175 216 215
4 175 176 217 216
4 176 177 218 217
4 177 178 219 218
4 178 179 220 219
4 179 180 221 220
4 180 181 222 221
4 181 182 223 222
4 182 183 224 223
4 183 184 225 224
4 184 185 226 225
4 185 186 227 226
4 186 187 228 227
4 187 188 229 228
4 188 189 230 229
4 189 190 231 230
4 190 191 232 231
4 191 192 233 232
4 192 193 234 233
4 193 194 235 234
4 194 195 236 235
4 195 196 237 236
4 196 197 238 237
4 197 198 239 238
4 198 199 240 239
4 199 200 241 240
4 200 201 242 241
4 201 202 243 242
4 202 203 244 243
4 203 204 245 244
4 205 206 247 246
4 206 207 248 247
4 207 208 249 248
4 208 209 250 249
4 209 210 251 250
4 210 211 252 251
4 211 212 253 252
4 212 213 254 253
4 213 214 255 254
4 214 215 256 255
4 215 216 257 256
4 216 217 258 257
4 217 218 259 258
4 218 219 260 259
4 219 220 261 260
4 220 221 262 261
4 221 222 263 262
4 222 223 264 263
4 223 224 265 264
4 224 225 266 265
4 225 226 267 266
4 226 227 268 267
4 227 228 269 268
4 228 229 270 269
4 229 230 271 270
4 230 231 272 271
4 231 232 273 272
4 232 233 274 273
4 233 234 275 274
4 234 235 276 275
4 235 236 277 276
4 236 237 278 277
4 237 238 279 278
4 238 239 280 279
4 239 240 281 280
4 240 241 282 281
4 241 242 283 282
4 242 243 284 283
4 243 244 285 284
4 244 245 286 285
4 246 247 288 287
4 247 248 289 288
4 248 249 290 289
4 249 250 291 290
4 250 251 292 291
4 251 252 293 292
4 252 253 294 293
4 253 254 295 294
4 254 255 296 295
4 255 256 297 296
4 256 257 298 297
4 257 258 299 298
4 258 259 300 299
4 259 260 301 300
4 260 261 302 301
4 261 262 303 302
4 262 263 304 303
4 263 264 305 304
4 264 265 306 305
4 265 266 307 306
4 266 267 308 307
4 267 268 309 308
4 268 269 310 309
4 269 270 311 310
4 270 271 312 311
4 271 272 313 312
4 272 273 314 313
4 273 274 315 314
4 274 275 316 315
4 275 276 317 316
4 276 277 318 317
4 277 278 319 318
4 278 279 320 319
4 279 280 321 320
4 280 281 322 321
4 281 282 323 322
4 282 283 324 323
4 283 284 325 324
4 284 285 326 325
4 285 286 327 326
4 287 288 329 328
4 288 289 330 329
4 289 290 331 330
4 290 291 332 331
4 291 292 333 332
4 292 293 334 333
4 293 294 335 334
4 294 295 336 335
4 295 296 337 336
4 296 297 338 337
4 297 298 339 338
4 298 299 340 339
4 299 300 341 340
4 300 301 342 341
4 301 302 343 342
4 302 303 344 343
4 303 304 345 344
4 304 305 346 345
4 305 306 347 346
4 306 307 348 347
4 307 308 349 348
4 308 309 350 349
4 309 310 351 350
4 310 311 352 351
4 311 312 353 352
4 312 313 354 353
4 313 314 355 354
4 314 315 356 355
4 315 316 357 356
4 316 317 358 357
4 317 318 359 358
4 318 319 360 359
4 319 320 361 360
4 320 321 362 361
4 321 322 363 362
4 322 323 364 363
4 323 324 365 364
4 324 325 366 365
4 325 326 367 366
4 326 327 368 367
4 328 329 370 369
4 329 330 371 370
4 330 331 372 371
4 331 332 373 372
4 332 333 374 373
4 333 334 375 374
4 334 335 376 375
4 335 336 377 376
4 336 337 378 377
4 337 338 379 378
4 338 339 380 379
4 339 340 381 380
4 340 341 382 381
4 341 342 383 382
4 342 343 384 383
4 343 344 385 384
4 344 345 386 385
4 345 346 387 386
4 346 347 388 387
4 347 348 389 388
4 348 349 390 389
4 349 350 391 390
4 350 351 392 391
4 351 352 393 392
4 352 353 394 393
4 353 354 395 394
4 354 355 396 395
4 355 356 397 396
4 356 357 398 397
4 357 358 399 398
4 358 359 400 399
4 359 360 401 400
4 360 361 402 401
4 361 362 403 402
4 362 363 404 403
4 363 364 405 404
4 364 365 406 405
4 365 366 407 406
4 366 367 408 407
4 367 368 409 408
4 369 370 411 410
4 370 371 412 411
4 371 372 413 412
4 372 373 414 413
4 373 374 415 414
4 374 375 416 415
4 375 376 417 416
4 376 377 418 417
4 377 378 419 418
4 378 379 420 419
4 379 380 421 420
4 380 381 422 421
4 381 382 423 422
4 382 383 424 423
4 383 384 425 424
4 384 385 426 425
4 385 386 427 426
4 386 387 428 427
4 387 388 429 428
4 388 389 430 429
4 389 390 431 430
4 390 391 432 431
4 391 392 433 432
4 392 393 434 433
4 393 394 435 434
4 394 395 436 435
4 395 396 437 436
4 396 397 438 437
4 397 398 439 438
4 398 399 440 439
4 399 400 441 440
4 400 401 442 441
4 401 402 443 442
4 402 403 444 443
4 403 404 445 444
4 404 405 446 445
4 405 406 447 446
4 406 407 448 447
4 407 408 449 448
4 408 409 450 449
4 410 411 452 451
4 411 412 453 452
4 412 413 454 453
4 413 414 455 454
4 414 415 456 455
4 415 416 457 456
4 416 417 458 457
4 417 418 459 458
4 418 419 460 459
4 419 420 461 460
4 420 421 462 461
4 421 422 463 462
4 422 423 464 463
4 423 424 465 464
4 424 425 466 465
4 425 426 467 466
4 426 427 468 467
4 427 428 469 468
4 428 429 470 469
4 429 430 471 470
4 430 431 472 471
4 431 432 473 472
4 432 433 474 473
4 433 434 475 474
4 434 435 476 475
4 435 436 477 476
4 436 437 478 477
4 437 438 479 478
4 438 439 480 479
4 439 440 481 480
4 440 441 482 481
4 441 442 483 482
4 442 443 484 483
4 443 444 485 484
4 444 445 486 485
4 445 446 487 486
4 446 447 488 487
4 447 448 489 488
4 448 449 490 489
4 449 450 491 490
4 451 452 493 492
4 452 453 494 493
4 453 454 495 494
4 454 455 496 495
4 455 456 497 496
4 456 457 498 497
4 457 458 499 498
4 458 459 500 499
4 459 460 501 500
4 460 461 502 501
4 461 462 503 502
4 462 463 504 503
4 463 464 505 504
4 464 465 506 505
4 465 466 507 506
4 466 467 508 507
4 467 468 509 508
4 468 469 510 509
4 469 470 511 510
4 470 471 512 511
4 471 472 513 512
4 472 473 514 513
4 473 474 515 514
4 474 475 516 515
4 475 476 517 516
4 476 477 518 517
4 477 478 519 518
4 478 479 520 519
4 479 480 521 520
4 480 481 522 521
4 481 482 523 522
4 482 483 524 523
4 483 484 525 524
4 484 485 526 525
4 485 486 527 526
4 486 487 528 527
4 487 488 529 528
4 488 489 530 529
4 489 490 531 530
4 490 491 532 531
4 492 493 534 533
4 493 494 535 534
4 494 495 536 535
4 495 496 537 536
4 496 497 538 537
4 497 498 539 538
4 498 499 540 539
4 499 500 541 540
4 500 501 542 541
4 501 502 543 542
4 502 503 544 543
4 503 504 545 544
4 504 505 546 545
4 505 506 547 546
4 506 507 548 547
4 507 508 549 548
4 508 509 550 549
4 509 510 551 550
4 510 511 552 551
4 511 512 553 552
4 512 513 554 553
4 513 514 555 554
4 514 515 556 555
4 515 516 557 556
4 516 517 558 557
4 517 518 559 558
4 518 519 560 559
4 519 520 561 560
4 520 521 562 561
4 521 522 563 562
4 522 523 564 563
4 523 524 565 564
4 524 525 566 565
4 525 526 567 566
4 526 527 568 567
4 527 528 569 568
4 528 529 570 569
4 529 530 571 570
4 530 531 572 571
4 531 532 573 572
4 533 534 575 574
4 534 535 576 575
4 535 536 577 576
4 536 537 578 577
4 537 538 579 578
4 538 539 580 579
4 539 540 581 580
4 540 541 582 581
4 541 542 583 582
4 542 543 584 583
4 543 544 585 584
4 544 545 586 585
4 545 546 587 586
4 546 547 588 587
4 547 548 589 588
4 548 549 590 589
4 549 550 591 590
4 550 551 592 591
4 551 552 593 592
4 552 553 594 593
4 553 554 595 594
4 554 555 596 595
4 555 556 597 596
4 556 557 598 597
4 557 558 599 598
4 558 559 600 599
4 559 560 601 600
4 560 561 602 601
4 561 562 603 602
4 562 563 604 603
4 563 564 605 604
4 564 565 606 605
4 565 566 607 606
4 566 567 608 607
4 567 568 609 608
4 568 569 610 609
4 569 570 611 610
4 570 571 612 611
4 571 572 613 612
4 572 573 614 613
4 574 575 616 615
4 575 576 617 616
4 576 577 618 617
4 577 578 619 618
4 578 579 620 619
4 579 580 621 620
4 580 581 622 621
4 581 582 623 622
4 582 583 624 623
4 583 584 625 624
4 584 585 626 625
4 585 586 627 626
4 586 587 628 627
4 587 588 629 628
4 588 589 630 629
4 589 590 631 630
4 590 591 632 631
4 591 592 633 632
4 592 593 634 633
4 593 594 635 634
4 594 595 636 635
4 595 596 637 636
4 596 597 638 637
4 597 598 639 638
4 598 599 640 639
4 599 600 641 640
4 600 601 642 641
4 601 602 643 642
4 602 603 644 643
4 603 604 645 644
4 604 605 646 645
4 605 606 647 646
4 606 607 648 647
4 607 608 649 648
4 608 609 650 649
4 609 610 651 650
4 610 611 652 651
4 611 612 653 652
4 612 613 654 653
4 613 614 655 654
4 615 616 657 656
4 616 617 658 657
4 617 618 659 658
4 618 619 660 659
4 619 620 661 660
4 620 621 662 661
4 621 622 663 662
4 622 623 664 663
4 623 624 665 664
4 624 625 666 665
4 625 626 667 666
4 626 627 668 667
4 627 628 669 668
4 628 629 670 669
4 629 630 671 670
4 630 631 672 671
4 631 632 673 672
4 632 633 674 673
4 633 634 675 674
4 634 635 676 675
4 635 636 677 676
4 636 637 678 677
4 637 638 679 678
4 638 639 680 679
4 639 640 681 680
4 640 641 682 681
4 641 642 683 682
4 642 643 684 683
4 643 644 685 684
4 644 645 686 685
4 645 646 687 686
4 646 647 688 687
4 647 648 689 688
4 648 649 690 689
4 649 650 691 690
4 650 651 692 691
4 651 652 693 692
4 652 653 694 693
4 653 654 695 694
4 654 655 696 695
4 656 657 698 697
4 657 658 699 698
4 658 659 700 699
4 659 660 701 700
4 660 661 702 701
4 661 662 703 702
4 662 663 704 703
4 663 664 705 704
4 664 665 706 705
4 665 666 707 706
4 666 667 708 707
4 667 668 709 708
4 668 669 710 709
4 669 670 711 710
4 670 671 712 711
4 671 672 713 712
4 672 673 714 713
4 673 674 715 714
4 674 675 716 715
4 675 676 717 716
4 676 677 718 717
4 677 678 719 718
4 678 679 720 719
4 679 680 721 720
4 680 681 722 721
4 681 682 723 722
4 682 683 724 723
4 683 684 725 724
4 684 685 726 725
4 685 686 727 726
4 686 687 728 727
4 687 688 729 728
4 688 689 730 729
4 689 690 731 730
4 690 691 732 731
4 691 692 733 732
4 692 693 734 733
4 693 694 735 734
4 694 695 736 735
4 695 696 737 736
4 697 698 739 738
4 698 699 740 739
4 699 700 741 740
4 700 701 742 741
4 701 702 743 742
4 702 703 744 743
4 703 704 745 744
4 704 705 746 745
4 705 706 747 746
4 706 707 748 747
4 707 708 749 748
4 708 709 750 749
4 709 710 751 750
4 710 711 752 751
4 711 712 753 752
4 712 713 754 753
4 713 714 755 754
4 714 715 756 755
4 715 716 757 756
4 716 717 758 757
4 717 718 759 758
4 718 719 760 759
4 719 720 761 760
4 720 721 762 761
4 721 722 763 762
4 722 723 764 763
4 723 724 765 764
4 724 725 766 765
4 725 726 767 766
4 726 727 768 767
4 727 728 769 768
4 728 729 770 769
4 729 730 771 770
4 730 731 772 771
4 731 732 773 772
4 732 733 774 773
4 733 734 775 774
4 734 735 776 775
4 735 736 777 776
4 736 737 778 777
4 738 739 780 779
4 739 740 781 780
4 740 741 782 781
4 741 742 783 782
4 742 743 784 783
4 743 744 785 784
4 744 745 786 785
4 745 746 787 786
4 746 747 788 787
4 747 748 789 788
4 748 749 790 789
4 749 750 791 790
4 750 751 792 791
4 751 752 793 792
4 752 753 794 793
4 753 754 795 794
4 754 755 796 795
4 755 756 797 796
4 756 757 798 797
4 757 758 799 798
4 758 759 800 799
4 759 760 801 800
4 760 761 802 801
4 761 762 803 802
4 762 763 804 803
4 763 764 805 804
4 764 765 806 805
4 765 766 807 806
4 766 767 808 807
4 767 768 809 808
4 768 769 810 809
4 769 770 811 810
4 770 771 812 811
4 771 772 813 812
4 772 773 814 813
4 773 774 815 814
4 774 775 816 815
4 775 776 817 816
4 776 777 818 817
4 777 778 819 818
4 779 780 821 820
4 780 781 822 821
4 781 782 823 822
4 782 783 824 823
4 783 784 825 824
4 784 785 826 825
4 785 786 827 826
4 786 787 828 827
4 787 788 829 828
4 788 789 830 829
4 789 790 831 830
4 790 791 832 831
4 791 792 833 832
4 792 793 834 833
4 793 794 835 834
4 794 795 836 835
4 795 796 837 836
4 796 797 838 837
4 797 798 839 838
4 798 799 840 839
4 799 800 841 840
4 800 801 842 841
4 801 802 843 842
4 802 803 844 843
4 803 804 845 844
4 804 805 846 845
4 805 806 847 846
4 806 807 848 847
4 807 808 849 848
4 808 809 850 849
4 809 810 851 850
4 810 811 852 851
4 811 812 853 852
4 812 813 854 853
4 813 814 855 854
4 814 815 856 855
4 815 816 857 856
4 816 817 858 857
4 817 818 859 858
4 818 819 860 859
CELL_TYPES 800
9
9
9
9
9
9
9
9
9
9
9
9
9
9
9
9
9
9
9
9
9
9
9
9
9
9
9
9
9
9
9
9
9
9
9
9
9
9
9
9
9
9
9
9
9
9
9
9
9
9
9
9
9
9
9
9
9
9
9
9
9
9
9
9
9
9
9
9
9
9
9
9
9
9
9
9
9
9
9
9
9
9
9
9
9
9
9
9
9
9
9
9
9
9
9
9
9
9
9
9
9
9
9
9
9
9
9
9
9
9
9
9
9
9
9
9
9
9
9
9
9
9
9
9
9
9
9
9
9
9
9
9
9
9
9
9
9
9
9
9
9
9
9
9
9
9
9
9
9
9
9
9
9
9
9
9
9
9
9
9
9
9
9
9
9
9
9
9
9
9
9
9
9
9
9
9
9
9
9
9
9
9
9
9
9
9
9
9
9
9
9
9
9
9
9
9
9
9
9
9
9
9
9
9
9
9
9
9
9
9
9
9
9
9
9
9
9
9
9
9
9
9
9
9
9
9
9
9
9
9
9
9
9
9
9
9
9
9
9
9
9
9
9
9
9
9
9
9
9
9
9
9
9
9
9
9
9
9
9
9
9
9
9
9
9
9
9
9
9
9
9
9
9
9
9
9
9
9
9
9
9
9
9
9
9
9
9
9
9
9
9
9
9
9
9
9
9
9
9
9
9
9
9
9
9
9
9
9
9
9
9
9
9
9
9
9
9
9
9
9
9
9
9
9
9
9
9
9
9
9
9
9
9
9
9
9
9
9
9
9
9
9
9
9
9
9
9
9
9
9
9
9
9
9
9
9
9
9
9
9
9
9
9
9
9
9
9
9
9
9
9
9
9
9
9
9
9
9
9
9
9
9
9
9
9
9
9
9
9
9
9
9
9
9
9
9
9
9
9
9
9
9
9
9
9
9
9
9
9
9
9
9
9
9
9
9
9
9
9
9
9
9
9
9
9
9
9
9
9
9
9
9
9
9
9
9
9
9
9
9
9
9
9
9
9
9
9
9
9
9
9
9
9
9
9
9
9
9
9
9
9
9
9
9
9
9
9
9
9
9
9
9
9
9
9
9
9
9
9
9
9
9
9
9
9
9
9
9
9
9
9
9
9
9
9
9
9
9
9
9
9
9
9
9
9
9
9
9
9
9
9
9
9
9
9
9
9
9
9
9
9
9
9
9
9
9
9
9
9
9
9
9
9
9
9
9
9
9
9
9
9
9
9
9
9
9
9
9
9
9
9
9
9
9
9
9
9
9
9
9
9
9
9
9
9
9
9
9
9
9
9
9
9
9
9
9
9
9
9
9
9
9
9
9
9
9
9
9
9
9
9
9
9
9
9
9
9
9
9
9
9
9
9
9
9
9
9
9
9
9
9
9
9
9
9
9
9
9
9
9
9
9
9
9
9
9
9
9
9
9
9
9
9
9
9
9
9
9
9
9
9
9
9
9
9
9
9
9
9
9
9
9
9
9
9
9
9
9
9
9
9
9
9
9
9
9
9
9
9
9
9
9
9
9
9
9
9
9
9
9
9
9
9
9
9
9
9
9
9
9
9
9
9
9
9
9
9
9
9
9
9
9
9
9
9
9
9
9
9
9
9
9
9
9
9
9
9
9
9
9
9
9
9
9
9
9
9
9
9
9
9
9
9
9
9
9
9
9
9
9
9
9
9
9
9
9
9
9
9
9
9
9
9
9
9
9
9
9
9
9
9
9
9
9
9
9
9
9
9
9
9
9
9
9
9
9
9
9
9
9
9
9
9
9
9
9
9
9
9
9
9
9
9
9
9
9
9
9
9
9
POINT_DATA 861
SCALARS Disp float 2
LOOKUP_TABLE default
0.0 0.0
0.0060173895365995544 -0.2720316972887196
0.007399393083138657 -0.5345564495656285
0.008195919677436226 -0.7959741849818799
0.009241111849156927 -1.057007826107087
0.010973462571007762 -1.3172132565077965
0.014070022523617373 -1.5759957804130216
0.019365658231781525 -1.832605033169814
0.027845341093237167 -2.0861002139607954
0.04058258764605132 -2.3352502553038375
0.058645062730830755 -2.578390577244061
0.08302988243059073 -2.8133432729373835
0.11463362587326545 -3.0374545024062174
0.1542428179669413 -3.247719881905872
0.20252832815357458 -3.440873017838909
0.2599763413626468 -3.6134582226928518
0.3267664073583312 -3.7619259814978343
0.4026276577467297 -3.882785181840376
0.4867187826613737 -3.9728433568790935
0.5775824231280726 -4.029456838059284
0.672910578974329 -4.0508416288481435
0.7682387348205801 -4.029456838059156
0.8591023752872586 -3.9728433568788346
0.9431935002018697 -3.8827851818400014
1.0190547505902257 -3.7619259814973653
1.0858448165858643 -3.613458222692316
1.1432928297948899 -3.4408730178383222
1.1915783399814766 -3.2477198819052497
1.2311875320751067 -3.0374545024055806
1.2627912755177377 -2.8133432729367516
1.2871760952174587 -2.578390577243451
1.3052385703022051 -2.335250255303264
1.317975816854994 -2.0861002139602656
1.326455499716431 -1.8326050331693367
1.3317511354245823 -1.5759957804126006
1.3348476953771842 -1.3172132565074406
1.3365800460990316 -1.0570078261067954
1.3376252382707514 -0.7959741849816571
1.3384217648650487 -0.5345564495654725
1.3398037684115862 -0.272031697288634
1.3458211579481827 0.0
0.06785330297998292 -0.0024901601291593767
0.07208365401432563 -0.27231726317438576
0.0727999156635435 -0.5346192986163355
0.07350428199433358 -0.7960655921097969
0.07441748360648058 -1.057162229896239
0.07588562797403936 -1.3175630324088519
0.07854504782277015 -1.5767287695795658
0.08318387190699952 -1.8339461304639606
0.09072662992385121 -2.0883009121836653
0.10215307832674571 -2.338566768857723
0.11841574132481476 -2.583066041470937
0.1403892638980605 -2.8195992618773573
0.16886542937444865 -3.0454899499738723
0.20455876050824195 -3.257710060881611
0.24808134643736232 -3.4529614782692737
0.29988668654267336 -3.627733761771572
0.3601615578070245 -3.778389635892131
0.4286983238078113 -3.901317155136249
0.5047765467670675 -3.993176412961025
0.5870043009242764 -4.051148971050189
0.6729105789743134 -4.073097368582425
0.758816857024345 -4.051148971050059
0.841044611181535 -3.99317641296076
0.9171228341407622 -3.9013171551358656
0.985659600141512 -3.778389635891652
1.0459344714058225 -3.6277337617710255
1.0977398115110915 -3.4529614782686755
1.1412623974401697 -3.2577100608809784
1.176955728573922 -3.0454899499732244
1.2054318940502708 -2.819599261876716
1.2274054166234811 -2.5830660414703184
1.2436680796215205 -2.3385667688571425
1.255094528024392 -2.0883009121831306
1.2626372860412265 -1.8339461304634797
1.2672761101254446 -1.5767287695791425
1.2699355299741688 -1.3175630324084946
1.2714036743417247 -1.0571622298959473
1.272316875953871 -0.7960655921095741
1.273021242284661 -0.5346192986161794
1.2737375039338787 -0.2723172631742998
1.2779678549682159 -0.002490160129156874
0.1346979499227418 -0.004472976123193181
0.1378113367439106 -0.2724597915327756
0.13822014775513747 -0.5346512663712824
0.13879412005082045 -0.7961459140909025
0.13958591564880582 -1.0572844780358712
0.14081655966452034 -1.3178397610240087
0.1430500436548159 -1.577336533708405
0.14703506453008902 -1.8350979698071608
0.15362430262270424 -2.0902301202621474
0.16370666731318437 -2.3415043752185163
0.17812512259333443 -2.5872262672996653
0.19764206330022813 -2.8251754299654555
0.22294649987933207 -3.0526581528808565
0.2546692201876588 -3.2666293989326234
0.29336800653817163 -3.463763773290106
0.3394657210805636 -3.6405045575869797
0.3931676642136465 -3.793140100888532
0.45434556778522245 -3.917951763005009
0.5223864357259652 -4.011457069826323
0.5959631416081739 -4.070624761014358
0.6729105789742981 -4.093078845317507
0.7498580163404172 -4.070624761014223
0.8234347222226087 -4.0114570698260525
0.8914755901633258 -3.9179517630046177
0.95265349373487 -3.7931401008880434
1.0063554368679168 -3.640504557586423
1.0524531514102713 -3.4637637732894975
1.0911519377607461 -3.266629398931981
1.1228746580690365 -3.0526581528801997
1.1481790946481059 -2.825175429964805
1.167696035354968 -2.587226267299039
1.1821144906350916 -2.3415043752179296
1.1921968553255509 -2.090230120261608
1.198786093418151 -1.8350979698066765
1.2027711142934139 -1.57733653370798
1.205004598283704 -1.3178397610236503
1.2062352422994165 -1.0572844780355792
1.2070270378974013 -0.7961459140906795
1.2076010101930843 -0.5346512663711266
1.208009821204311 -0.2724597915326892
1.2111232080254741 -0.004472976123187942
0.20100895758102155 -0.006069152689009663
0.20336931735839514 -0.2725570743867517
0.20361806951375352 -0.5346687307357356
0.20406675436261731 -0.7962104178280427
0.2047415720805926 -1.0573830969039266
0.20576306219998283 -1.3180519319126547
0.20759538648421 -1.5778233821133751
0.21093475005238782 -1.8360615242279752
0.2165648431749084 -2.0918841016183225
0.225283853152235 -2.344056204821224
0.23783015852710307 -2.5908627768573087
0.25485826012245966 -2.830063551431621
0.276958622089375 -3.0589505323971675
0.3046771746069805 -3.2744668482045816
0.33850680777640196 -3.4732671313917134
0.37884689159083473 -3.6517576155356317
0.4259254220048545 -3.8061662369319187
0.4796917335510325 -3.93268093156358
0.5396492503550501 -4.027677118510567
0.6046654521085284 -4.0879344319424975
0.6729105789742835 -4.110899178496835
0.7411557058400332 -4.087934431942361
0.8061719075934963 -4.027677118510291
0.8661294243974912 -3.932680931563182
0.9198957359436414 -3.8061662369314226
0.9669742663576297 -3.6517576155350673
1.0073143501720296 -3.4732671313910966
1.0411439833414176 -3.27446684820393
1.0688625358589914 -3.0589505323965027
1.0909628978258765 -2.8300635514309627
1.1079909994212056 -2.590862776856676
1.1205373047960505 -2.3440562048206326
1.1292563147733587 -2.091884101617779
1.1348864078958658 -1.8360615242274883
1.138225771464035 -1.5778233821129486
1.1400580957482578 -1.3180519319122956
1.1410795858676466 -1.0573830969036344
1.1417544035856213 -0.7962104178278195
1.1422030884344854 -0.5346687307355799
1.1424518405898436 -0.27255707438666493
1.144812200367212 -0.006069152689001886
0.2670161717123672 -0.0073609453616459986
0.2688119163280547 -0.2726324339103626
0.268973977651935 -0.5346787328034422
0.2693174685809751 -0.7962603182220027
0.2698805888153323 -1.0574626800900218
0.27071750999476324 -1.3182118621300525
0.2721882103826058 -1.5781977404827883
0.2748973989048311 -1.8368398181660937
0.2795749917863562 -2.093262838045356
0.2869251038387019 -2.3462192347095647
0.29758608693110256 -2.5939713036815184
0.31210908021378453 -2.8342585504110076
0.33098552429830247 -3.0643617880836267
0.35467800063552124 -3.281216595606406
0.3836183592257262 -3.4814636953034084
0.4181692845235903 -3.661483139091804
0.4585769675033225 -3.8174562368529013
0.5048707444139378 -3.9454910258714695
0.5567089683317016 -4.0418382322771675
0.6132155932695633 -4.10311589781688
0.672910578974269 -4.126619918049872
0.7326055646789694 -4.103115897816741
0.7891121896168176 -4.041838232276888
0.8409504135345616 -3.9454910258710654
0.887244190445153 -3.8174562368523985
0.9276518734248581 -3.661483139091232
0.9622027987226935 -3.4814636953027844
0.99114315731287 -3.2812165956057475
1.0148356336500615 -3.0643617880829543
1.0337120777345536 -2.834258550410343
1.0482350710172121 -2.5939713036808802
1.0588960541095929 -2.3462192347089683
1.0662461661619231 -2.0932628380448084
1.0709237590434364 -1.836839818165604
1.0736329475656545 -1.5781977404823604
1.0751036479534937 -1.3182118621296932
1.0759405691329238 -1.057462680089729
1.0765036893672808 -0.7962603182217798
1.0768471802963209 -0.5346787328032868
1.077009241620201 -0.2726324339102755
1.0788049862358842 -0.007360945361635981
0.33282303891610804 -0.008400280799803228
0.3341741618321978 -0.272693847459814
0.33428601190030244 -0.5346859846733509
0.33454304368448917 -0.7962973312125669
0.3349982409146889 -1.0575268273631244
0.3356738020507769 -1.3183308115245391
0.33682158997817846 -1.578473425185695
0.3389439177406554 -1.837439222740216
0.3426815422780027 -2.094369425785387
0.34867086086448634 -2.347994470257988
0.35744799934934895 -2.596551305814908
0.36946356270436326 -2.837759443354228
0.38511321691182315 -3.068890423663308
0.40477495490543397 -3.2868766432607703
0.42881601094925104 -3.488351241605536
0.4575678416336601 -3.669675893767946
0.49127532249323497 -3.8269988326008004
0.530038145985244 -3.956368523802512
0.5737031733261126 -4.053937732278141
0.6216977106079139 -4.116188476886636
0.6729105789742543 -4.140277602145419
0.7241234473405901 -4.116188476886496
0.7721179846223793 -4.0539377322778565
0.8157830119632311 -3.956368523802103
0.8545458354552203 -3.826998832600292
0.8882533163147719 -3.669675893767367
0.9170051469991567 -3.4883512416049047
0.9410462030429503 -3.2868766432601055
0.9607079410365386 -3.0688904236626295
0.9763575952439771 -2.837759443353558
0.9883731585989718 -2.5965513058142653
0.997150297083818 -2.3479944702573876
1.0031396156702883 -2.094369425784837
1.006877240207626 -1.8374392227397247
1.0089995679700976 -1.578473425185266
1.0101473558974967 -1.3183308115241794
1.0108229170335838 -1.057526827362832
1.0112781142637837 -0.7962973312123438
1.0115351460479702 -0.5346859846731954
1.0116469961160748 -0.2726938474597267
1.0129981190321613 -0.008400280799791273
0.39848354121176305 -0.009226850310283611
0.39947998585388184 -0.27274445922900564
0.3995595337694598 -0.5346928581724931
0.3997432686027978 -0.7963229477341982
0.4000927510782573 -1.0575776462905655
0.40062401094024186 -1.318418463731968
0.40148662428578424 -1.5786671095654172
0.4030731635477297 -1.8378747254605268
0.4059149097341117 -2.095210764679939
0.4105623417217871 -2.3493866606146105
0.41747176271155245 -2.5986064673739793
0.42699287683895876 -2.840569282247903
0.4394274105659107 -3.072539393266611
0.45507005969122566 -3.291449701225353
0.4742232744624857 -3.49393138163206
0.4971773668335262 -3.6763356032779737
0.5241728868571554 -3.8347876337068483
0.5553640451428703 -3.9652998221098072
0.5907808442887958 -4.063963473527745
0.6301953709667493 -4.127152840150703
0.6729105789742393 -4.151888199039421
0.7156257869817257 -4.1271528401505595
0.7550403136596688 -4.063963473527458
0.7904571128055805 -3.9652998221093942
0.8216482710912791 -3.8347876337063345
0.8486437911148895 -3.6763356032773893
0.87159788348591 -3.4939313816314246
0.8907510982571514 -3.291449701224683
0.9063937473824488 -3.072539393265928
0.9188282811093841 -2.840569282247228
0.9283493952367743 -2.5986064673733322
0.9352588162265266 -2.3493866606140066
0.9399062482141916 -2.0952107646793867
0.9427479944005662 -1.8378747254600338
0.9443345336625076 -1.5786671095649878
0.9451971470080482 -1.318418463731608
0.9457284068700323 -1.0575776462902733
0.9460778893454919 -0.7963229477339752
0.94626162417883 -0.5346928581723375
0.9463411720944077 -0.27274445922891816
0.9473376167365238 -0.009226850310270103
0.4640335668629451 -0.009872643224503918
0.4647472344041507 -0.27278665276328357
0.46480228013684644 -0.5346998506752486
0.4649201003003062 -0.7963384432949818
0.4651653669260302 -1.057615391984778
0.4655598668931072 -1.3184824219618811
0.4661776001016609 -1.5787951376636977
0.4672814893427177 -1.8381667547575185
0.46928987137198597 -2.095802660684712
0.47264417156113575 -2.3504053635242594
0.47771546709482265 -2.6001446470553375
0.4847683361978524 -2.84269556677192
0.4940163648241215 -3.0753165313283963
0.5056693845025628 -3.2949434601314715
0.5199599127826157 -3.498211005008701
0.537137422033903 -3.681466912519162
0.5574314017356544 -3.8408221492784707
0.5810248602901913 -3.9722734836025917
0.6081043029778422 -4.071893300692705
0.6388028466567919 -4.1359892397772855
0.6729105789742239 -4.161446889197288
0.7070183112916535 -4.135989239777141
0.737716854970595 -4.071893300692415
0.7647962976582349 -3.9722734836021747
0.7883897562127591 -3.8408221492779533
0.8086837359144962 -3.6814669125185735
0.8258612451657681 -3.498211005008061
0.8401517734458073 -3.2949434601307983
0.851804793124236 -3.0753165313277093
0.8610528217504925 -2.8426955667712415
0.8681056908535104 -2.600144647054688
0.8731769863871875 -2.3504053635236533
0.8765312865763297 -2.0958026606841584
0.8785396686055928 -1.8381667547570246
0.8796435578466468 -1.5787951376632676
0.8802612910551996 -1.3184824219615217
0.8806557910222764 -1.0576153919844857
0.8809010576480003 -0.796338443294759
0.88101887781146 -0.5346998506750927
0.8810739235441557 -0.27278665276319597
0.8817875910853593 -0.009872643224489146
0.5294952719406104 -0.010367602153857888
0.5299923889388253 -0.27282257562558637
0.5300213961986379 -0.5347061311028861
0.5300768691528764 -0.7963448280183135
0.5302202758602084 -1.057639422226248
0.530476770844972 -1.318526919005312
0.5308789258283577 -1.5788747166834018
0.5315636266018118 -1.8383400645201975
0.5328123318264425 -2.0961700020893423
0.5349477596558333 -2.351069618853957
0.538238344338015 -2.6011798192679834
0.5428681811635061 -2.8441513483530305
0.5489714497978709 -3.0772353194295676
0.5566802892539585 -3.297371763105619
0.566153503883168 -3.501202588290788
0.5775880291813354 -3.68508019672597
0.591205119238271 -3.8451102773320196
0.6072152168054987 -3.9772841577969
0.6258720780483844 -4.077696873544483
0.6476389611200639 -4.142654658212056
0.672910578974208 -4.168925460449344
0.6981821968283508 -4.142654658211909
0.7199490799000247 -4.077696873544191
0.7386059411429023 -3.977284157796481
0.7546160387101211 -3.8451102773315
0.7682331287670469 -3.685080196725379
0.7796676540652039 -3.501202588290145
0.7891408686944051 -3.2973717631049424
0.7968497081504845 -3.077235319428878
0.8029529767848416 -2.84415134835235
0.807582813610325 -2.6011798192673314
0.8108733982925003 -2.351069618853349
0.8130088261218863 -2.0961700020887872
0.8142575313465138 -1.838340064519703
0.8149422321199663 -1.5788747166829717
0.8153443871033516 -1.318526919004952
0.8156008820881151 -1.0576394222259557
0.8157442887954469 -0.7963448280180907
0.8157997617496855 -0.5347061311027302
0.8158287690094981 -0.2728225756254988
0.8163258860077116 -0.010367602153842106
0.5948845812033535 -0.010741620415332984
0.5952255569915905 -0.2728549195730668
0.5952235358477782 -0.5347098799297263
0.5952177092512582 -0.7963428546819608
0.5952620564656558 -1.0576494411514905
0.5953767868891119 -1.3185522452044227
0.595574517513376 -1.57891917132772
0.5959019229488436 -1.8384247068282085
0.5964799623709358 -2.0963490581408326
0.5974930210388415 -2.3514122061260974
0.599088166890263 -2.601738790486642
0.6013656129092574 -2.8449597093805354
0.6043828426520828 -3.078317776317238
0.6082042732391082 -3.298757385387322
0.6129189146168006 -3.502928121044839
0.6186590692071219 -3.687193392041949
0.6256227965035384 -3.847667353250118
0.634071250048107 -3.980343759924699
0.6443078201089284 -4.081349298467194
0.6568858338721064 -4.1470784332547
0.6729105789741919 -4.174262441421655
0.6889353240762761 -4.1470784332545545
0.701513337839452 -4.081349298466902
0.7117499079002685 -3.9803437599242777
0.7201983614448317 -3.847667353249596
0.7271620887412433 -3.687193392041356
0.7329022433315597 -3.502928121044194
0.737616884709249 -3.2987573853866445
0.7414383152962712 -3.0783177763165472
0.7444555450390931 -2.8449597093798533
0.7467329910580843 -2.6017387904859888
0.7483281369095031 -2.3514122061254885
0.7493411955774066 -2.096349058140277
0.7499192349994976 -1.8384247068277138
0.7502466404349645 -1.5789191713272897
0.7504443710592285 -1.3185522452040628
0.7505591014826847 -1.0576494411511983
0.7506034486970822 -0.7963428546817377
0.7505976221005622 -0.5347098799295705
0.7505956009567497 -0.27285491957297925
0.7509365767449859 -0.010741620415316504
0.6602189873625693 -0.011020699279964212
0.6604497864729774 -0.2728867731747836
0.6604137731895885 -0.5347091485606781
0.6603471905646636 -0.7963329910096192
0.6602949987403441 -1.057645540241763
0.6602681795750586 -1.3185575615973968
0.6602577724326485 -1.578933123386218
0.660254027684545 -1.8384498421178792
0.6602525884040361 -2.096395607808746
0.6602524699209199 -2.351498490258238
0.6602525828671123 -2.6018819534306408
0.6602510494685767 -2.845174554700081
0.6602417486662923 -3.078615278354667
0.660222217677731 -3.2991498431122444
0.6602092878755902 -3.5034350740054157
0.6602735575538491 -3.687848700497113
0.6605854961798185 -3.848528168664424
0.6614641637693601 -3.981491706360577
0.6633507812814281 -4.082880984536996
0.6667372349062126 -4.149192058822061
0.6729105789741749 -4.177353261807878
0.6790839230421375 -4.1491920588219156
0.6824703766669213 -4.082880984536702
0.684356994178988 -3.9814917063601545
0.6852356617685291 -3.8485281686639023
0.6855476003944998 -3.6878487004965197
0.6856118700727591 -3.5034350740047713
0.6855989402706195 -3.2991498431115662
0.6855794092820601 -3.0786152783539764
0.6855701084797772 -2.8451745546993985
0.6855685750812431 -2.6018819534299875
0.6855686880274363 -2.3514984902576286
0.6855685695443205 -2.0963956078081902
0.6855671302638119 -1.838449842117384
0.6855633855157085 -1.578933123385788
0.6855529783732984 -1.3185575615970373
0.6855261592080131 -1.0576455402414706
0.6854739673836937 -0.7963329910093963
0.6854073847587688 -0.5347091485605224
0.6853713714753799 -0.2728867731746962
0.6856021705857877 -0.01102069927994722
0.7255097024212677 -0.011230365714937702
0.725664142433312 -0.27291885698198326
0.7255965192723847 -0.5347032000847257
0.7254704761119867 -0.7963154043406927
0.7253244444175232 -1.0576281093003734
0.7251582625300539 -1.318542621012682
0.7249402423132064 -1.5789166345160546
0.7246050717498704 -1.8384239280045203
0.7240246953775 -2.0963488577897733
0.723011838527914 -2.3514122129966455
0.7214171983900417 -2.6017386585397624
0.7191351797337076 -2.844957230815765
0.7160986026936393 -3.078310812196328
0.7122393637931315 -3.2987479093215537
0.7075034985370806 -3.5029337921247055
0.7018980821071082 -3.687266239543512
0.6955507095484116 -3.8479157644489304
0.688772765886179 -3.980944611966964
0.6820492715714328 -4.082499350438392
0.6760793863546447 -4.149110674751004
0.6729105789741578 -4.178292333197321
0.66974177159367 -4.149110674750858
0.6637718863768823 -4.082499350438098
0.65704839206214 -3.980944611966542
0.6502704483999134 -3.8479157644484085
0.6439230758412239 -3.687266239542919
0.6383176594112572 -3.502933792124061
0.6335817941552124 -3.298747909320877
0.629722555254711 -3.0783108121956384
0.6266859782146496 -2.844957230815084
0.6244039595583214 -2.60173865853911
0.6228093194204539 -2.3514122129960366
0.6217964625708708 -2.0963488577892178
0.621216086198502 -1.838423928004025
0.620880915635167 -1.5789166345156245
0.62066289541832 -1.3185426210123223
0.6204967135308509 -1.0576281093000814
0.6203506818363876 -0.7963154043404698
0.6202246386759896 -0.53470320008457
0.6201570155150624 -0.27291885698189583
0.6203114555271065 -0.011230365714920445
0.7907682140136268 -0.011390134279772935
0.7908713677752762 -0.27294948247849454
0.7907755702611545 -0.5346924011430535
0.7905929577402209 -0.7962902470795536
0.7903564574717382 -1.0575977549332352
0.7900546290740909 -1.3185078788098137
0.7896326350619748 -1.578869445330876
0.7889408789526763 -1.838338313493287
0.7876913880982155 -2.0961696972661654
0.785557290905781 -2.3510697954443582
0.7822665336131739 -2.6011791508743554
0.7776312833324175 -2.844146013257819
0.7715109973578622 -3.077221288506366
0.7637712104868123 -3.2973534315726565
0.7542860135743938 -3.501215914182592
0.7429892378180841 -3.6852295459799245
0.7299597822653195 -3.8456064919642197
0.7154880030969804 -3.978461295934554
0.700142587588514 -4.079998455332875
0.6851252966433946 -4.146950600516404
0.6729105789741414 -4.177255773475786
0.6606958613048878 -4.1469506005162575
0.6456785703597707 -4.079998455332582
0.6303331548513115 -3.978461295934134
0.615861375682983 -3.845606491963701
0.6028319201302306 -3.6852295459793334
0.5915351443739321 -3.5012159141819494
0.5820499474615247 -3.297353431571982
0.5743101605904858 -3.0772212885056787
0.5681898746159423 -2.8441460132571406
0.563554624335196 -2.6011791508737043
0.5602638670425972 -2.351069795443751
0.5581297698501689 -2.0961696972656108
0.5568802789957115 -1.8383383134927922
0.5561885228864151 -1.5788694453304462
0.5557665288742997 -1.3185078788094537
0.5554647004766528 -1.057597754932943
0.5552282002081702 -0.7962902470793306
0.5550455876872368 -0.5346924011428978
0.5549497901731152 -0.27294948247840717
0.5550529439347645 -0.011390134279755467
0.8560121618474142 -0.011509346591379012
0.856076358205324 -0.27297700226051397
0.855955700304103 -0.5346772662625692
0.8557200376063443 -0.7962578879237948
0.85539693066773 -1.0575552957386298
0.8549648116226425 -1.3184542772643282
0.8543288277312276 -1.578786548543561
0.8532203062643868 -1.8381643270527763
0.8512139703755379 -2.095802714435788
0.8478610921353551 -2.3504056472541808
0.8427884060319125 -2.6001431517895535
0.8357303189009678 -2.842687728676736
0.8264720094644172 -3.0752973911762385
0.8148046421733744 -3.294919626260928
0.8005200264093444 -3.4982339610013855
0.7834672453471818 -3.6816859599457263
0.763653022853616 -3.8415366838860767
0.7413664469480078 -3.9739726173807948
0.7173987646805009 -4.075332769548174
0.6934165408019429 -4.142596380891179
0.6729105789741252 -4.174303067151648
0.6524046171463085 -4.142596380891033
0.6284223932677547 -4.075332769547883
0.6044547110002582 -3.9739726173803773
0.5821681350946649 -3.841536683885561
0.5623539126011156 -3.6816859599451397
0.5453011315389693 -3.4982339610007456
0.5310165157749552 -3.2949196262602576
0.5193491484839285 -3.0752973911755546
0.5100908390473936 -2.84268772867606
0.5030327519164637 -2.6001431517889055
0.4979600658130334 -2.3504056472535755
0.4946071875728593 -2.095802714435234
0.4926008516840161 -1.8381643270522823
0.49149233021717836 -1.5787865485431314
0.49085634632576497 -1.3184542772639682
0.4904242272806779 -1.0575552957383378
0.4901011203420638 -0.796257887923572
0.4898654576443054 -0.5346772662624134
0.48974479974308444 -0.2729770022604266
0.4898089961009941 -0.011509346591361392
0.921254103275424 -0.011594398905205808
0.9212853785358692 -0.27299993115415083
0.9211415907920154 -0.5346581340367028
0.9208563996555394 -0.7962188782367529
0.9204509585558754 -1.0575017579281691
0.9198918678776948 -1.3183814068534665
0.9190142210678912 -1.5786552443842095
0.9174281670261079 -1.8378726427653063
0.9145897191032666 -2.0952114233300008
0.9099428512367023 -2.349386769383152
0.9030307318385878 -2.5986039282079663
0.8935058406054894 -2.8405598898631217
0.8810717200527187 -3.0725188665893275
0.8654404833927183 -3.2914266353500263
0.8463201537370356 -3.4939663114584274
0.8234641717405362 -3.6766075190703313
0.7967980844370361 -3.8356706007485886
0.7666502190365416 -3.967455600329404
0.7340758178865573 -4.068498585790418
0.7013749323044121 -4.136131095315054
0.6729105789741094 -4.169530095261444
0.6444462256438088 -4.136131095314909
0.6117453400616706 -4.068498585790128
0.5791709389116992 -3.96745560032899
0.5490230735112234 -3.835670600748078
0.522356986207744 -3.6766075190697487
0.4995010042112657 -3.4939663114577924
0.48038067455560374 -3.2914266353493593
0.46474943789562456 -3.0725188665886485
0.45231531734287383 -2.84055988986245
0.442790426109794 -2.5986039282073223
0.43587830671169553 -2.34938676938255
0.43123143884514287 -2.0952114233294488
0.4283929909223094 -1.8378726427648133
0.42680693688053084 -1.5786552443837802
0.42592929007072927 -1.3183814068531068
0.42537019939254955 -1.0575017579278772
0.4249647582928857 -0.7962188782365298
0.42467956715641 -0.5346581340365472
0.4245357794125565 -0.2729999311540634
0.4245670546730014 -0.011594398905188092
0.9865019514971802 -0.01165109801877956
0.9865047142860793 -0.27301707029333944
0.9863385098220734 -0.5346351526008184
0.9860070643972452 -0.7961738343124162
0.9855245666341951 -1.0574384019973309
0.9848333153770087 -1.3182859363225592
0.983677894859382 -1.5784595631417295
0.9815584441445478 -1.8374382500612074
0.977824024560373 -2.0943705642626664
0.9718339051962437 -2.3479940637023304
0.963053302525679 -2.5965476915783725
0.9510367018161536 -2.8377499309982075
0.9354005302643044 -3.068873432469694
0.9157803734555865 -3.2868627500854215
0.8918053949950722 -3.4884014398085452
0.8631319010964806 -3.669980962495931
0.8296165085558658 -3.827997001882627
0.7916353019615787 -3.958907134445882
0.7505489931576208 -4.059522238590694
0.7092784082406485 -4.127604772665466
0.6729105789740939 -4.162955421980679
0.6365427497075421 -4.127604772665323
0.5952721647905796 -4.059522238590407
0.5541858559866376 -3.958907134445472
0.5162046493923726 -3.8279970018821214
0.48268925685178266 -3.6699809624953548
0.4540157629532166 -3.488401439807916
0.43004078449272803 -3.2868627500847607
0.4104206276840359 -3.06887343246902
0.39478445613221147 -2.8377499309975405
0.3827678554227086 -2.5965476915777335
0.37398725275216305 -2.347994063701732
0.36799713338804846 -2.094370564262117
0.3642627138038838 -1.8374382500607163
0.3621432630890558 -1.578459563141301
0.3609878425714322 -1.3182859363222
0.3602965913142468 -1.0574384019970389
0.3598140935511969 -0.7961738343121932
0.3594826481263691 -0.5346351526006627
0.3593164436623633 -0.273017070293252
0.3593192064512624 -0.011651098018761775
1.0517611363016595 -0.011685005651429438
1.0517398123116566 -0.27302770817451577
1.051551956397547 -0.5346083066418342
1.05117693993113 -0.7961234989297171
1.0506202417680561 -1.0573653981810438
1.0497830707047031 -1.3181612921245596
1.048312746915834 -1.5781834248883033
1.045607327972118 -1.8368399844584045
1.0409311981416676 -2.0932641211215692
1.0335789072604946 -2.3462180308857543
1.0229145268206232 -2.5939668584542934
1.0083948076435854 -2.8342507313375327
0.9895452091752853 -3.0643534470383167
0.9659217065523621 -3.281220649853819
0.9370842271421276 -3.481535166124936
0.9026246376981003 -3.661809266087877
0.8623329423918881 -3.8185256436417987
0.8166235727945423 -3.948345097251106
0.767133921734398 -4.048427074757685
0.717315040350841 -4.117021267327153
0.6729105789740785 -4.1545470034227066
0.6285061175973198 -4.117021267327011
0.5786872362137752 -4.048427074757402
0.5291975851536502 -3.9483450972507006
0.4834882155563296 -3.8185256436412995
0.44319652025014655 -3.6618092660873067
0.40873693080614937 -3.481535166124314
0.3798994513959451 -3.281220649853165
0.35627594877305213 -3.0643534470376497
0.3374263503047815 -2.8342507313368714
0.32290663112777007 -2.5939668584536597
0.3122422506879209 -2.34621803088516
0.30488995980676564 -2.0932641211210234
0.3002138299763274 -1.8368399844579153
0.29750841103261927 -1.5781834248878759
0.2960380872437542 -1.318161292124201
0.29520091618040273 -1.0573653981807518
0.29464421801732943 -0.7961234989294942
0.29426920155091263 -0.5346083066416787
0.294081345636803 -0.27302770817442834
0.2940600216468003 -0.011685005651411607
1.1170351685804416 -0.011701637225549103
1.1169951684628237 -0.27303165463042395
1.1167875343212572 -0.5345776004603799
1.1163711940884395 -0.796068524966342
1.1157400092490066 -1.0572820099120577
1.1147360508002377 -1.317999200984616
1.1129101144903735 -1.577809729731756
1.1095727344471562 -1.836062263921555
1.1039415944532238 -2.0918850724643017
1.0952191761537855 -2.3440540589173287
1.0826706657063576 -2.5908580878662386
1.0656514535005408 -2.8300594745493814
1.0435897879619258 -3.058955166080261
1.0159600641033562 -3.274496204304646
0.9822689568388435 -3.473369698455433
0.9420780804068357 -3.652109229957955
0.8951563146874968 -3.807288525706072
0.8419102279177073 -3.935803347081031
0.7841251032991748 -4.0352224217510475
0.7256571727409171 -4.10434354138819
0.6729105789740631 -4.144231578894674
0.6201639852072142 -4.104343541388051
0.5616960546489703 -4.0352224217507695
0.5039109300304612 -3.9358033470806317
0.45066484326070044 -3.80728852570558
0.4037430775413949 -3.6521092299573934
0.3635522011094219 -3.4733696984548184
0.3298610938449437 -3.274496204304
0.302231369986409 -3.058955166079602
0.28016970444782796 -2.8300594745487277
0.2631504922420413 -2.590858087865611
0.2506019817946389 -2.34405405891674
0.24187956349522102 -2.0918850724637603
0.23624842350130287 -1.8360622639210684
0.23291104345809532 -1.57780972973133
0.23108510714823596 -1.3179992009842578
0.23008114869946913 -1.057282009911766
0.22944996386003685 -0.7960685249661191
0.2290336236272193 -0.5345776004602243
0.22882598948565303 -0.2730316546303365
0.22878598936803504 -0.011701637225531254
1.182325562405629 -0.011706567097448302
1.182274246121752 -0.27302932061890645
1.182051265463729 -0.5345431913785352
1.1815952470972766 -0.796009483318424
1.1808836608813715 -1.0571854103671794
1.1796858455041088 -1.317788805498219
1.1774613417525235 -1.577323565090217
1.173475170883657 -1.83509844268178
1.1668819366966978 -2.09023027973649
1.1567954186430482 -2.341501326451643
1.1423769538218564 -2.587222231389599
1.1228751282238816 -2.825177156700934
1.0976189020985683 -3.052678898424729
1.0659975227743825 -3.2666891797928517
1.0274672765134325 -3.4639095822341686
0.9816105707374996 -3.6409063518274465
0.92825188433651 -3.794341100509586
0.8677694882514242 -3.9213346820735384
0.8018333018892287 -4.019907292675903
0.7345253455894027 -4.089494385912806
0.6729105789740476 -4.131885610105512
0.6112958123586983 -4.089494385912669
0.5439878560588887 -4.019907292675629
0.4780516696967198 -3.9213346820731463
0.41756927361166724 -3.7943411005091026
0.36421058721071536 -3.6409063518268936
0.3183538814348217 -3.4639095822335633
0.2798236351739105 -3.2666891797922144
0.2482022558497645 -3.052678898424079
0.2229460297244891 -2.8251771567002892
0.20344420412654823 -2.587222231388979
0.18902573930538488 -2.34150132645106
0.17893922125175835 -2.0902302797359527
0.17234598706481563 -1.8350984426812964
0.1683598161959604 -1.577323565089793
0.16613531244438132 -1.3177888054978615
0.16493749706712105 -1.0571854103668878
0.16422591085121677 -0.7960094833182013
0.1637698924847648 -0.5345431913783795
0.1635469118267419 -0.27302932061881907
0.1634955955428647 -0.011706567097430442
1.2476312074622673 -0.011705440526831945
1.2475793909299495 -0.2730219158065449
1.2473501694556046 -0.5345056801101918
1.2468547012316096 -0.7959460989355921
1.2460484558921272 -1.0570711211073391
1.2446234200694337 -1.3175164602396843
1.241972797452604 -1.5767158830590118
1.2373284676590781 -1.8339453573243
1.2297791889862333 -2.0882998356863123
1.2183484037243575 -2.3385630274216918
1.202088442608615 -2.5830637206834406
1.1801360607107823 -2.819608672375166
1.1517155551103113 -3.0455289604309064
1.1161321919218619 -3.25780372205579
1.0728049504327637 -3.453163026225397
1.0213446999122824 -3.628224929715262
0.9617002614603835 -3.779746239337542
0.894354742884619 -3.9050346350131693
0.8207125303233852 -4.002498506875116
0.7442758982001928 -4.072340886110522
0.6729105789740318 -4.1173070323237395
0.6015452597478779 -4.072340886110387
0.5251086276247038 -4.002498506874848
0.4514664150635 -3.905034635012785
0.38412089648777387 -3.7797462393370673
0.324476458035917 -3.6282249297147198
0.27301620751547967 -3.4531630262248023
0.22968896602642505 -3.2578037220551623
0.19410560283801942 -3.045528960430267
0.16568509723759053 -2.81960867237453
0.14373271533979584 -2.5830637206828286
0.12747275422408463 -2.3385630274211158
0.11604196896223427 -2.08829983568578
0.10849269028940829 -1.83394535732382
0.1038483604958947 -1.57671588305859
0.10119773787907246 -1.3175164602393274
0.09977270205638233 -1.0570711211070478
0.09896645671690082 -0.7959460989353693
0.09847098849290621 -0.5345056801100363
0.09824176701856163 -0.27302191580645746
0.09818995048624385 -0.01170544052681413
1.3129470374730037 -0.011703789641948433
1.3129116995858165 -0.2730119973795206
1.3126935695255246 -0.5344663549671305
1.3121545150134748 -0.79587628026986
1.311228571763911 -1.0569307993920496
1.3095455106836988 -1.317172417415106
1.3064531808661295 -1.5759817114380454
1.3011480607777064 -1.8326022382113742
1.2926601771877981 -2.0860976195480507
1.2799187961139984 -2.3352461236764523
1.2618616994712364 -2.578391011282918
1.2375031658311966 -2.8133619725399712
1.2059614862548793 -3.037513481328493
1.1664715737429885 -3.247850638380541
1.1184121306196821 -3.441143343743712
1.061418696224096 -3.6140829621964676
0.9955675288514225 -3.7635467793941646
0.9215851776815224 -3.8870164635001574
0.8409872330220372 -3.9831629201563405
0.7562001438988774 -4.052722916817777
0.6729105789740157 -4.099999999999993
0.5896210140491615 -4.052722916817646
0.5048339249260222 -3.9831629201560794
0.4242359802665714 -3.887016463499782
0.35025362909671504 -3.763546779393701
0.28440246172408834 -3.614082962195936
0.2274090273285506 -3.441143343743129
0.17934958420529268 -3.247850638379925
0.13985967169345012 -3.037513481327865
0.10831799211717873 -2.813361972539346
0.08395945847718123 -2.578391011282315
0.06590236183445287 -2.335246123675883
0.053160980760680904 -2.086097619547524
0.04467309717079368 -1.8326022382108984
0.03936797708238399 -1.5759817114376258
0.036275647264823546 -1.3171724174147503
0.03459258618461531 -1.0569307993917585
0.03366664293505282 -0.7958762802696374
0.03312758842300345 -0.5344663549669747
0.032909458362711586 -0.27301199737943316
0.032874120475524404 -0.011703789641930624
SCALARS Stress float 6
LOOKUP_TABLE default
-1266.8061520115346 -2069.900977123819 -1592.356595912079 -27.852309649420903 0.0 0.0
1367.593114245345 804.5785126223387 1024.6196217632832 -20.407704099763716 0.0 0.0
622.7681150277676 167.9798246600783 256.5881448002203 -41.76598638559954 0.0 0.0
497.83969636361905 31.362702093530256 164.83619071951287 -1.0342771755695104 0.0 0.0
623.9356482981495 82.57859904877697 257.4311153744198 2.904179506303631 0.0 0.0
747.0292119846875 135.62223917263825 386.53821510442685 1.7948326033058857 0.0 0.0
878.3657489684218 191.8209759066371 509.9897303864378 0.47309935163539363 0.0 0.0
1013.5121099443193 265.3125525456035 625.2629727888794 -0.9935403638153565 0.0 0.0
1158.3940136471429 354.0970624096248 744.5986935111611 -2.700517439680811 0.0 0.0
1320.6983377772815 464.9769647785073 881.5829515131375 -4.557859833091736 0.0 0.0
1505.9803805024646 603.1562664936513 1043.1014589628933 -6.317473216120192 0.0 0.0
1714.2450145216376 768.9345581989468 1229.7276914326465 -7.671742994133019 0.0 0.0
1939.9763395814716 955.4555848802512 1435.4149474832475 -8.498633118145019 0.0 0.0
2175.66216229867 1155.014633580529 1652.6172506147595 -9.126597555049875 0.0 0.0
2411.6946220799696 1357.8274003619204 1871.627948049576 -9.526250705603054 0.0 0.0
2636.937295740695 1552.8039630758672 2081.3628505543447 -9.611275062613126 0.0 0.0
2839.7283817873167 1728.6731189260356 2270.399267852828 -9.214319536792907 0.0 0.0
3008.5134825880245 1874.3955476770182 2427.459054771639 -8.290353350111204 0.0 0.0
3141.600138504903 1988.8402202905504 2551.007594885741 -7.213665274226032 0.0 0.0
3224.2953864706537 2058.1459261994696 2626.7664284020907 -9.409054944516758 0.0 0.0
3215.4751282097063 2048.36370271373 2617.6573054882556 -3.2018832030189515e-11 0.0 0.0
3224.295386467958 2058.1459261967793 2626.766428399929 9.409054944484028 0.0 0.0
3141.600138504088 1988.8402202897855 2551.007594885159 7.213665274260229 0.0 0.0
3008.5134825856508 1874.3955476747326 2427.4590547696625 8.290353350059549 0.0 0.0
2839.7283817870652 1728.6731189259162 2270.399267852357 9.21431953684349 0.0 0.0
2636.937295740341 1552.803963075655 2081.3628505539646 9.61127506249572 0.0 0.0
2411.6946220803034 1357.8274003624563 1871.6279480495018 9.526250705703655 0.0 0.0
2175.662162297598 1155.0146335796398 1652.6172506136622 9.126597555199755 0.0 0.0
1939.9763395803443 955.4555848793541 1435.4149474820995 8.49863311832336 0.0 0.0
1714.2450145204482 768.9345581979884 1229.7276914315971 7.671742994205967 0.0 0.0
1505.9803805010818 603.1562664924858 1043.101458961851 6.317473215839463 0.0 0.0
1320.6983377772556 464.9769647787844 881.5829515128498 4.557859833061434 0.0 0.0
1158.3940136461904 354.0970624089116 744.5986935103388 2.700517439633776 0.0 0.0
1013.5121099441996 265.31255254580475 625.2629727886805 0.9935403636147111 0.0 0.0
878.3657489685236 191.82097590707548 509.98973038626724 -0.47309935162797956 0.0 0.0
747.0292119839896 135.62223917226186 386.53821510377867 -1.7948326031288975 0.0 0.0
623.9356482981668 82.57859904911818 257.43111537427507 -2.9041795063184086 0.0 0.0
497.83969636317266 31.362702093257262 164.83619071928578 1.034277175446067 0.0 0.0
622.7681150272575 167.97982465978063 256.58814479991116 41.76598638558849 0.0 0.0
1367.5931142450431 804.5785126220188 1024.6196217628503 20.407704099736804 0.0 0.0
-1266.8061520085266 -2069.9009771208966 -1592.356595909223 27.852309648722276 0.0 0.0
-1613.1981557127406 -2387.775152304839 -1893.5282070369444 -29.969957953762897 0.0 0.0
933.4391832045235 444.08719450579963 643.8709393750016 -28.282474458160085 0.0 0.0
435.23691826675656 66.20858905999953 149.4049660436846 -36.309514571631496 0.0 0.0
438.42776892785616 7.078627693878593 136.1507951574911 -15.628347052819397 0.0 0.0
552.8465499630886 37.09386371004211 206.77100168212917 -16.678994255191807 0.0 0.0
655.8472422113556 53.449386513448644 304.16971592601925 -22.430281702825642 0.0 0.0
744.3178717662253 72.86796804849081 392.3333798257584 -23.999981005623404 0.0 0.0
829.0784894368949 94.32808254785252 457.7406478242042 -24.356443608596695 0.0 0.0
906.5289337005629 115.07760748136127 509.3817177787491 -25.00226540727983 0.0 0.0
978.3832168629222 135.78306960405504 556.2285524381396 -25.82775625274089 0.0 0.0
1047.5407002319662 158.51877916964787 602.3313636595315 -26.291013780750514 0.0 0.0
1116.2414886874508 184.64105397095636 649.7799181850489 -26.29550017179248 0.0 0.0
1184.0422958525014 214.25958524864478 698.5073136645414 -25.897640706141033 0.0 0.0
1248.323920988006 242.8696138677 744.9620625845577 -25.304474929008016 0.0 0.0
1303.66727373671 265.4609098774361 783.9369599127303 -24.532834822107255 0.0 0.0
1345.6672177521473 277.60777083985107 811.019882127066 -23.355158715890855 0.0 0.0
1371.5706112313853 276.8198298615389 823.5843728727243 -21.525250098371064 0.0 0.0
1381.735978786752 263.9492170296739 822.22999262821 -19.095487545742856 0.0 0.0
1370.681882115391 234.29183301793324 801.979614582025 -16.823863288372138 0.0 0.0
1295.8985546647036 146.60901780211856 721.4551693773856 -17.459788952002153 0.0 0.0
1170.8831830811675 21.44198718002346 597.481218874662 -2.3782753544310253e-11 0.0 0.0
1295.8985546650242 146.6090178024932 721.4551693774838 17.459788952002576 0.0 0.0
1370.6818821157908 234.29183301839964 801.979614582458 16.823863288405676 0.0 0.0
1381.7359787861826 263.949217029196 822.2299926278146 19.09548754567949 0.0 0.0
1371.5706112322853 276.8198298625856 823.5843728733818 21.525250098488122 0.0 0.0
1345.6672177523558 277.607770840194 811.0198821272941 23.355158715981066 0.0 0.0
1303.6672737377364 265.46090987864744 783.9369599133713 24.53283482222757 0.0 0.0
1248.3239209878075 242.86961386769622 744.9620625843638 25.304474929053974 0.0 0.0
1184.0422958517286 214.259585248053 698.507313663986 25.897640706185733 0.0 0.0
1116.2414886870797 184.64105397083762 649.7799181848337 26.29550017175076 0.0 0.0
1047.5407002316947 158.51877916959023 602.3313636594108 26.291013780597787 0.0 0.0
978.383216863189 135.7830696046193 556.2285524382874 25.827756252774314 0.0 0.0
906.5289337000506 115.07760748109601 509.3817177783699 25.002265407207197 0.0 0.0
829.0784894367016 94.32808254795722 457.74064782404554 24.356443608600266 0.0 0.0
744.3178717660903 72.86796804864355 392.3333798255593 23.99998100562886 0.0 0.0
655.8472422111355 53.44938651359506 304.16971592571605 22.43028170289725 0.0 0.0
552.8465499630931 37.093863710449725 206.77100168206852 16.678994255239854 0.0 0.0
438.42776892766125 7.07862769394543 136.15079515745794 15.628347052825978 0.0 0.0
435.2369182665615 66.20858905962656 149.40496604351313 36.30951457161486 0.0 0.0
933.4391832040462 444.08719450543595 643.8709393744116 28.282474458102485 0.0 0.0
-1613.1981557107872 -2387.7751523029337 -1893.5282070348978 29.96995795307766 0.0 0.0
-1354.3004049519716 -2093.996133196121 -1607.4513350166176 -68.30247699221772 0.0 0.0
749.2401891810559 352.4444557052163 500.1609694462209 -96.45143721801774 0.0 0.0
301.9769464000003 75.42433795656947 113.25798396167994 -39.83706670426314 0.0 0.0
376.1850074884943 1.856483068784346 113.49914737090118 -37.34452854846256 0.0 0.0
507.70105945444305 27.293512284444546 176.86266760470085 -39.13269223573378 0.0 0.0
622.21830794085 47.83920018320284 272.7737361248206 -42.42005088869102 0.0 0.0
714.3005775721957 67.63127077646605 368.1023581081356 -44.47862540956694 0.0 0.0
798.9371054425941 85.32286611630609 436.167473335151 -45.37237217361018 0.0 0.0
873.3576278755498 102.44842290106614 485.9721020145237 -46.7367376357833 0.0 0.0
941.2625787734592 119.1306033752959 529.0293907421234 -47.94438224640939 0.0 0.0
1006.9689306963088 138.88741677099296 571.9276785053496 -48.25473407327436 0.0 0.0
1072.6098787172396 163.12232574845723 616.9047136256681 -47.73901851524033 0.0 0.0
1137.759292155599 189.86622228025024 662.8914819700574 -46.82509329491171 0.0 0.0
1198.6560493353495 216.25476598526765 706.5625390278735 -45.61980162995348 0.0 0.0
1252.1815854948609 237.53245425643712 743.9662122140561 -44.09544584239225 0.0 0.0
1294.0804269360247 249.95102536603167 771.1201847202288 -41.96535976048805 0.0 0.0
1321.7661169759442 251.09120236321186 785.54427160374 -38.88909993044511 0.0 0.0
1331.2427991714537 237.48857674873472 783.5597509516215 -35.079448181913385 0.0 0.0
1309.4213614518055 197.07837146871108 752.7200325668916 -31.52858444883329 0.0 0.0
1267.188206934543 142.21811124041267 704.5309812644357 -29.274258663123142 0.0 0.0
1121.7629829043788 -2.66466927043858 560.6736079915039 1.5702994460298214e-10 0.0 0.0
1267.1882069343187 142.21811124013146 704.5309812643279 29.274258663107922 0.0 0.0
1309.421361452848 197.07837146984372 752.7200325676735 31.528584448800466 0.0 0.0
1331.2427991714108 237.48857674877127 783.5597509516658 35.079448181911204 0.0 0.0
1321.7661169761557 251.09120236354227 785.5442716039256 38.88909993050339 0.0 0.0
1294.0804269353698 249.95102536551036 771.1201847198168 41.96535976053093 0.0 0.0
1252.1815854954828 237.53245425724634 743.9662122144314 44.09544584261057 0.0 0.0
1198.65604933501 216.25476598506728 706.5625390276024 45.61980162979338 0.0 0.0
1137.759292154678 189.86622227955414 662.8914819694729 46.82509329499605 0.0 0.0
1072.6098787173523 163.1223257487675 616.9047136257847 47.739018515129786 0.0 0.0
1006.9689306963729 138.88741677128647 571.9276785053866 48.25473407317172 0.0 0.0
941.2625787724968 119.13060337459932 529.0293907415306 47.94438224641743 0.0 0.0
873.3576278755557 102.44842290134139 485.97210201449985 46.73673763580132 0.0 0.0
798.9371054420999 85.3228661161279 436.16747333480373 45.3723721736704 0.0 0.0
714.300577571765 67.63127077629122 368.1023581077218 44.47862540949431 0.0 0.0
622.2183079407814 47.839200183465174 272.7737361245991 42.42005088866522 0.0 0.0
507.70105945434307 27.293512284789195 176.86266760464974 39.13269223570161 0.0 0.0
376.1850074884846 1.8564830691275744 113.49914737100323 37.3445285484746 0.0 0.0
301.97694639992704 75.42433795631757 113.25798396158208 39.837066704229585 0.0 0.0
749.2401891804686 352.44445570495486 500.1609694456178 96.45143721789299 0.0 0.0
-1354.3004049499568 -2093.996133194088 -1607.4513350144896 68.30247699177548 0.0 0.0
-1109.509338443722 -1818.5100594760486 -1341.453976495296 -82.00421768888705 0.0 0.0
572.8291616893222 256.8505214232444 369.4093308775839 -145.672248035631 0.0 0.0
218.86835786713118 63.617832316766965 84.74585705516942 -61.3484475097175 0.0 0.0
312.7518100184587 7.5233720613824975 95.90359444398901 -59.95687360029817 0.0 0.0
452.12477155833824 15.81923306003191 146.74325835841765 -64.09772357527004 0.0 0.0
576.2396948935817 40.763559842150705 236.37798241489455 -63.68844855772769 0.0 0.0
680.8338956053927 60.467724059505194 337.9863521304801 -66.28005624053421 0.0 0.0
763.9138773645489 76.49131494648978 410.8843420427014 -66.59861088590102 0.0 0.0
836.0827038398722 90.06660798134968 460.2456675620553 -68.09925152193405 0.0 0.0
900.4213312046743 103.09982147880697 500.1522148169043 -69.29824749409873 0.0 0.0
962.3207257579031 119.55231676762651 539.540359231373 -69.27971212710366 0.0 0.0
1024.9626057924663 140.9343314138916 581.5916753327518 -68.35633573154313 0.0 0.0
1086.902336490115 165.77468063973134 625.0565287711287 -66.92724803096378 0.0 0.0
1144.9436576392027 188.96533151708954 665.7153807795218 -65.2199655323961 0.0 0.0
1196.2685558883843 208.73937322882637 701.2601525335585 -63.01253539161374 0.0 0.0
1238.7123112317295 222.24217186352325 729.2256476267048 -60.04886283184431 0.0 0.0
1267.8664990750651 224.73726985664595 745.0825452689216 -56.137915297201125 0.0 0.0
1276.6420461828661 210.22830050358118 742.3652060336294 -51.434195195399 0.0 0.0
1261.4748865256856 176.19120361906928 718.0018811791789 -46.161882373755795 0.0 0.0
1236.3274946721515 137.75531328233453 686.4055727631677 -39.53579083468443 0.0 0.0
1032.9095204312214 -64.66976180753704 485.4869926483851 9.307576931405492e-11 0.0 0.0
1236.3274946703925 137.75531328059026 686.4055727619898 39.53579083461349 0.0 0.0
1261.4748865256736 176.19120361910458 718.0018811790878 46.1618823738465 0.0 0.0
1276.642046183199 210.22830050401836 742.3652060339247 51.434195195410325 0.0 0.0
1267.866499075389 224.73726985708294 745.0825452692388 56.1379152972505 0.0 0.0
1238.7123112312904 222.24217186322312 729.2256476264372 60.048862831794935 0.0 0.0
1196.2685558881228 208.73937322870938 701.2601525334302 63.012535391688715 0.0 0.0
1144.9436576383223 188.96533151633247 665.7153807788868 65.21996553225901 0.0 0.0
1086.902336489694 165.77468063953233 625.0565287708504 66.92724803102821 0.0 0.0
1024.9626057927042 140.93433141431763 581.5916753330156 68.3563357314249 0.0 0.0
962.3207257579702 119.55231676787466 539.5403592313945 69.27971212703227 0.0 0.0
900.4213312034119 103.09982147778129 500.15221481610513 69.29824749393289 0.0 0.0
836.08270383983 90.06660798166452 460.24566756202245 68.09925152219488 0.0 0.0
763.9138773643768 76.49131494664405 410.88434204252866 66.59861088586527 0.0 0.0
680.8338956049837 60.46772405940342 337.98635213004053 66.28005624056463 0.0 0.0
576.2396948932815 40.76355984215972 236.37798241456747 63.68844855764822 0.0 0.0
452.12477155847955 15.81923306094713 146.74325835865412 64.0977235751673 0.0 0.0
312.7518100183716 7.523372061294864 95.90359444393914 59.95687360043691 0.0 0.0
218.86835786704705 63.61783231652436 84.7458570550714 61.348447509564885 0.0 0.0
572.8291616886064 256.85052142293995 369.4093308769719 145.67224803545915 0.0 0.0
-1109.509338442003 -1818.5100594742855 -1341.4539764933975 82.00421768862228 0.0 0.0
-896.3090948650633 -1579.2896442248345 -1107.5407682847174 -80.58753798157086 0.0 0.0
442.73148415121614 172.05789046453015 266.9066549583784 -178.20423929062378 0.0 0.0
160.18358264708678 49.68973584291683 62.96199554700105 -91.93411206193286 0.0 0.0
254.9888566825931 13.744638367417158 80.61502076296138 -84.52145834940559 0.0 0.0
386.78554249064445 9.045290989601087 119.86890214215258 -90.22950283292434 0.0 0.0
521.0949782537139 28.15801307323414 195.81145850765472 -88.96793252222909 0.0 0.0
635.8966019997608 51.97314835524933 299.4531376382049 -88.31511005433896 0.0 0.0
723.0731328040574 68.30296285070041 381.11600108709695 -88.24054552583652 0.0 0.0
794.0466444528641 78.27941901796905 431.6791025382181 -89.0261561901171 0.0 0.0
854.9403251838553 87.43903470050307 468.8915136718211 -89.84975372369144 0.0 0.0
913.3962828695994 100.34753896363597 504.91901859440713 -89.3970968972989 0.0 0.0
972.5117818721317 118.69689317058751 543.7098729388943 -88.05075925748031 0.0 0.0
1031.3293644790413 140.4301410874396 584.0875926692203 -86.27987341000478 0.0 0.0
1086.3891331332495 162.10919211284187 622.5358639217854 -84.05258162013232 0.0 0.0
1135.748299012722 179.90700261490522 656.1215938581428 -81.21681871037397 0.0 0.0
1177.5436167829182 192.56521230099025 683.3257636278335 -77.65544372454788 0.0 0.0
1208.5150127984846 197.22355503436737 701.1846914297048 -73.25050767308186 0.0 0.0
1222.4402697606963 187.5905779711493 703.489072673318 -67.87845678271101 0.0 0.0
1215.7009109789233 161.16926404946184 687.1259408051677 -60.66535615140765 0.0 0.0
1198.6865649795009 129.35700352560283 662.8507227521561 -50.04698630576498 0.0 0.0
924.1616552789702 -143.58784470142805 392.0991988378927 1.0406608907942427e-10 0.0 0.0
1198.6865649795532 129.35700352568622 662.8507227521727 50.04698630582413 0.0 0.0
1215.7009109786106 161.16926404925087 687.125940805003 60.665356151573214 0.0 0.0
1222.4402697613477 187.590577971853 703.4890726737732 67.87845678272498 0.0 0.0
1208.515012798721 197.22355503476732 701.1846914297954 73.25050767320286 0.0 0.0
1177.5436167838068 192.56521230200337 683.3257636284745 77.65544372455872 0.0 0.0
1135.748299012744 179.90700261506856 656.1215938582045 81.21681871028213 0.0 0.0
1086.3891331325578 162.10919211233528 622.5358639212747 84.0525816201367 0.0 0.0
1031.3293644787775 140.4301410874321 584.0875926690001 86.2798734101506 0.0 0.0
972.5117818711984 118.69689316985873 543.7098729383175 88.05075925748727 0.0 0.0
913.3962828689205 100.34753896316144 504.9190185939133 89.3970968973748 0.0 0.0
854.9403251833677 87.43903470023845 468.8915136715032 89.84975372357962 0.0 0.0
794.046644451947 78.27941901727864 431.67910253764165 89.02615619006279 0.0 0.0
723.0731328035464 68.30296285043725 381.1160010866847 88.24054552570242 0.0 0.0
635.8966019993186 51.97314835517607 299.4531376377506 88.3151100543688 0.0 0.0
521.0949782535183 28.1580130734268 195.81145850746012 88.96793252225977 0.0 0.0
386.7855424908208 9.04529099050607 119.86890214245422 90.22950283261709 0.0 0.0
254.98885668233882 13.744638366954813 80.6150207627424 84.52145834941831 0.0 0.0
160.183582646974 49.689735842781566 62.96199554692666 91.93411206172124 0.0 0.0
442.7314841506312 172.0578904642101 266.9066549578505 178.20423929042693 0.0 0.0
-896.309094863499 -1579.2896442231768 -1107.5407682829696 80.58753798130826 0.0 0.0
-708.6356765851449 -1367.9300428755414 -899.2930070211548 -76.30902794420376 0.0 0.0
340.45362542805384 106.04276775870548 187.79842532709256 -197.40462338511836 0.0 0.0
115.99367968410343 34.189193435132744 45.05486193577083 -121.27493102437228 0.0 0.0
203.5458749583077 18.42722029411666 66.59625825046606 -109.37684426654737 0.0 0.0
316.92447860723377 6.084788471508498 96.29921049200964 -116.12636504216616 0.0 0.0
451.15031807882707 16.380489985285614 155.55835182814525 -115.49506052231801 0.0 0.0
574.7217395516599 42.69256868331282 252.98529136697118 -111.63106596114025 0.0 0.0
674.7164864478461 57.6723511247425 342.8131137349093 -110.89245312376376 0.0 0.0
744.3823702560887 66.8966495577545 398.24384612219194 -109.50192375046936 0.0 0.0
804.0166322843863 71.96214410195859 434.4921305905292 -109.59806310420609 0.0 0.0
858.9650925459706 81.24119159945951 467.3231346250675 -108.57948311664418 0.0 0.0
914.575299150106 96.49619491458726 502.85989024383014 -106.77625833412459 0.0 0.0
969.9118087803017 115.51870965595802 540.1766497722792 -104.65284328811651 0.0 0.0
1021.8770210319248 134.06189474434765 575.5433102485588 -102.12467202364573 0.0 0.0
1068.8995729367232 150.2512293285609 607.1875812459347 -98.78562905257535 0.0 0.0
1109.7081294687807 162.49328199520238 633.707838101214 -94.60347822931335 0.0 0.0
1143.0596912241451 168.83308308100584 653.5553105664497 -89.97039297204421 0.0 0.0
1164.910201529529 166.87560330038022 663.6303698728348 -84.25970561324468 0.0 0.0
1168.0493730545852 149.38248413391287 656.6929055367476 -75.55001517719859 0.0 0.0
1155.9635311140448 120.13680659280354 636.1723578232495 -61.57162860045041 0.0 0.0
797.5601654398386 -235.61765520797573 283.4404738202205 9.870504413811432e-11 0.0 0.0
1155.9635311153775 120.13680659427276 636.1723578242618 61.571628600755645 0.0 0.0
1168.049373053548 149.38248413291035 656.6929055361329 75.55001517731459 0.0 0.0
1164.9102015295325 166.87560330045247 663.6303698728676 84.25970561328805 0.0 0.0
1143.0596912247854 168.83308308188958 653.555310566787 89.97039297224697 0.0 0.0
1109.708129469146 162.49328199564624 633.7078381015576 94.60347822933703 0.0 0.0
1068.8995729366045 150.25122932863383 607.187581245898 98.78562905261792 0.0 0.0
1021.8770210322352 134.06189474485853 575.5433102487575 102.12467202375257 0.0 0.0
969.9118087802468 115.51870965613719 540.176649772189 104.65284328821369 0.0 0.0
914.5752991490908 96.49619491379403 502.85989024313216 106.77625833416799 0.0 0.0
858.9650925455319 81.24119159923664 467.32313462470887 108.57948311662577 0.0 0.0
804.0166322843173 71.96214410223982 434.49213059047446 109.59806310428637 0.0 0.0
744.3823702551398 66.89664955699713 398.24384612155546 109.50192375033109 0.0 0.0
674.7164864474305 57.672351124672886 342.81311373453696 110.89245312374703 0.0 0.0
574.7217395509051 42.692568682818774 252.98529136635673 111.63106596114642 0.0 0.0
451.1503180785258 16.380489985433982 155.55835182796037 115.49506052230129 0.0 0.0
316.92447860666215 6.08478847087013 96.29921049166781 116.12636504193682 0.0 0.0
203.54587495828457 18.42722029410474 66.5962582504556 109.37684426632805 0.0 0.0
115.99367968417009 34.18919343552319 45.054861935907965 121.27493102419925 0.0 0.0
340.45362542754805 106.0427677583702 187.79842532665668 197.4046233849698 0.0 0.0
-708.6356765836935 -1367.9300428739168 -899.2930070195679 76.3090279440907 0.0 0.0
-546.0886830767025 -1175.3680204974344 -713.8935555290974 -72.32549092317709 0.0 0.0
259.45825701249373 54.013028787063966 127.01080408712463 -209.4615449047692 0.0 0.0
80.60568538729275 19.307289256000203 29.973738685116437 -145.5252380517045 0.0 0.0
155.72608354988344 21.565872453998114 53.188655957127374 -132.35622469426485 0.0 0.0
246.85209968195593 6.574099185752942 75.62620790141727 -138.82438047138132 0.0 0.0
370.3215546133297 4.724505192904053 117.09860154311787 -144.7981080684102 0.0 0.0
498.9162547825006 28.34838869473361 199.1745411952333 -138.18681739453672 0.0 0.0
607.9735498924069 47.86055905496142 293.0142530016879 -133.336373066151 0.0 0.0
687.856669840088 52.878390010074064 356.9140506212822 -131.2381721266664 0.0 0.0
744.4136043852341 56.64448693731259 394.7418538995105 -128.42022389911364 0.0 0.0
797.6372388175278 62.324505420704035 425.7696029196168 -126.72728427273675 0.0 0.0
849.6815264610573 74.25418670112994 458.0356515823152 -124.47891206124075 0.0 0.0
901.0678129623293 90.05928467578501 491.84302230753906 -122.02483500580927 0.0 0.0
949.7217504720257 106.24128543841893 524.4097226967876 -119.2645892125763 0.0 0.0
993.9061685527843 120.17881382503924 553.5734736467869 -115.66945320108891 0.0 0.0
1032.8988744888798 130.0415746677138 578.0204194729018 -111.13756113176586 0.0 0.0
1068.3408805750453 139.5805668122634 600.4608017766813 -105.94298364469729 0.0 0.0
1100.433174845365 146.91493976890547 620.2257799615867 -100.32656039614916 0.0 0.0
1115.9834456305236 139.911817935624 624.7623399487687 -91.23068505063665 0.0 0.0
1108.7662605748203 112.64368585186011 607.7670053526101 -74.93258309121927 0.0 0.0
651.4104592527501 -339.8137848200993 159.19570525805688 8.51336778850964e-11 0.0 0.0
1108.766260575133 112.64368585213377 607.7670053530626 74.93258309127702 0.0 0.0
1115.983445628426 139.91181793354258 624.7623399473378 91.23068505052709 0.0 0.0
1100.4331748455904 146.91493976931787 620.2257799617853 100.32656039635326 0.0 0.0
1068.3408805759786 139.58056681333233 600.4608017773343 105.94298364479661 0.0 0.0
1032.8988744874553 130.04157466634547 578.0204194721141 111.13756113172876 0.0 0.0
993.9061685520218 120.1788138244343 553.5734736461644 115.66945320111157 0.0 0.0
949.7217504711145 106.24128543761158 524.4097226961892 119.26458921260065 0.0 0.0
901.0678129628936 90.0592846766034 491.8430223078584 122.02483500583993 0.0 0.0
849.6815264615776 74.25418670191536 458.03565158269095 124.47891206131585 0.0 0.0
797.6372388173365 62.324505420695125 425.7696029194726 126.727284272669 0.0 0.0
744.4136043852939 56.644486937638476 394.74185389960616 128.42022389912006 0.0 0.0
687.8566698394839 52.878390009697334 356.9140506208228 131.23817212653907 0.0 0.0
607.9735498918886 47.86055905468907 293.0142530012524 133.3363730660913 0.0 0.0
498.9162547820961 28.348388694773835 199.17454119488022 138.18681739452273 0.0 0.0
370.3215546126179 4.7245051922415335 117.09860154266062 144.79810806813003 0.0 0.0
246.8520996814955 6.574099185047156 75.62620790106779 138.82438047140806 0.0 0.0
155.72608354976742 21.56587245365125 53.188655956988114 132.35622469405382 0.0 0.0
80.60568538751836 19.307289256556004 29.973738685351044 145.5252380514966 0.0 0.0
259.4582570119047 54.01302878668582 127.01080408670215 209.4615449046437 0.0 0.0
-546.0886830755825 -1175.3680204960986 -713.8935555277825 72.32549092311407 0.0 0.0
-402.77890490582234 -1007.3217663816849 -549.6945111411727 -76.21841968644463 0.0 0.0
190.8589839406541 14.647751125602028 79.64806967025268 -213.44233033316743 0.0 0.0
50.51060060699899 7.073194097173813 17.27506441041596 -163.79980379108036 0.0 0.0
109.56335378434954 22.918786918435263 39.74639224884268 -152.01289879418277 0.0 0.0
180.4459417591819 8.495147703546017 56.47319183148791 -158.40878536194325 0.0 0.0
278.716700171089 -0.8158021728476879 83.60665341144062 -171.27739938695822 0.0 0.0
402.08611376921425 12.441890396814886 142.46823187848494 -167.08018250776755 0.0 0.0
520.540384982928 32.77076991426695 228.5107398797795 -157.27559452705708 0.0 0.0
611.3072773886801 40.477053452890246 301.7985321620689 -151.66032656426728 0.0 0.0
674.2595943902666 38.95814618795824 345.3839878286268 -147.65273526179914 0.0 0.0
724.9637447634834 42.68657273681273 376.5728454371324 -143.711011631419 0.0 0.0
774.0352845522209 52.10250368839242 406.75802975231954 -140.89577626216942 0.0 0.0
821.5594760603736 64.60129900865499 437.17900798268164 -138.11670099841984 0.0 0.0
865.9043814680963 77.59762041541697 466.0607715110013 -135.2477232133001 0.0 0.0
907.3098666288919 89.38737361417546 492.8095700257801 -131.76811676509914 0.0 0.0
944.1722724706669 98.22808070090257 515.7966224874988 -127.06094834177378 0.0 0.0
979.3860913473409 106.25127380094241 537.4024821053913 -121.34485334453828 0.0 0.0
1020.8159824319279 122.71233978382284 566.1957364188769 -115.6306269928329 0.0 0.0
1055.1033126734167 133.59328748258372 589.044837125461 -107.601938593204 0.0 0.0
1057.5595439696663 111.86772314852794 579.9500772390993 -91.15612432565747 0.0 0.0
480.0959629400252 -455.5840257506845 16.99993479214359 1.5348078363786044e-10 0.0 0.0
1057.5595439697893 111.8677231487987 579.9500772392976 91.15612432597453 0.0 0.0
1055.1033126726861 133.5932874819005 589.0448371250003 107.60193859323587 0.0 0.0
1020.8159824325414 122.71233978465303 566.1957364192929 115.63062699311612 0.0 0.0
979.3860913463042 106.25127379991713 537.4024821045916 121.34485334449705 0.0 0.0
944.1722724695943 98.22808069994943 515.7966224868525 127.06094834180413 0.0 0.0
907.3098666283464 89.38737361370623 492.809570025396 131.76811676506975 0.0 0.0
865.9043814675031 77.59762041524513 466.06077151061515 135.2477232135609 0.0 0.0
821.5594760609382 64.60129900943248 437.17900798301656 138.11670099857812 0.0 0.0
774.0352845518278 52.10250368804569 406.75802975209695 140.89577626205016 0.0 0.0
724.96374476311 42.686572736681924 376.5728454368405 143.71101163145764 0.0 0.0
674.259594390458 38.958146188419455 345.3839878287787 147.65273526171717 0.0 0.0
611.3072773879458 40.4770534523337 301.7985321614834 151.66032656416405 0.0 0.0
520.54038498201 32.77076991365284 228.51073987912693 157.27559452698702 0.0 0.0
402.0861137688596 12.441890396659623 142.4682318781974 167.08018250771823 0.0 0.0
278.71670017072586 -0.8158021729736569 83.60665341129379 171.27739938662327 0.0 0.0
180.44594175901904 8.495147703312872 56.47319183137341 158.40878536185951 0.0 0.0
109.56335378411565 22.918786917931044 39.74639224862186 152.0128987939853 0.0 0.0
50.51060060714168 7.073194097558314 17.275064410574036 163.79980379071836 0.0 0.0
190.8589839401685 14.647751125288 79.64806966992266 213.44233033299005 0.0 0.0
-402.77890490495395 -1007.3217663805102 -549.6945111400826 76.21841968643702 0.0 0.0
-290.74425396213417 -846.2740523382782 -414.02842300370327 -81.39050846769106 0.0 0.0
132.0843375529157 -17.28661471342442 43.36291396957303 -211.0920557901751 0.0 0.0
22.644893853659305 -1.3178218884965747 6.399925622456561 -176.70486320300404 0.0 0.0
64.40531094556913 22.73203411140462 26.133975977116013 -167.68764570843882 0.0 0.0
115.31984351380822 11.539817258786018 37.955980005700425 -173.5977395488598 0.0 0.0
182.8225431847272 -0.2297797202497167 54.505360275214564 -190.73167335361507 0.0 0.0
282.027058754663 -1.0814353555590102 88.25506457025551 -198.43121537649301 0.0 0.0
401.9998277734368 11.329460426517771 150.1692838776857 -186.17892296328972 0.0 0.0
505.3384309197577 21.60272004779235 222.14836749557026 -172.05154610880598 0.0 0.0
577.8518490063353 21.24158521639579 275.05788091455344 -164.44000347793715 0.0 0.0
631.105370349117 22.62013727551752 311.17935640899964 -158.89304586769524 0.0 0.0
678.0953659024269 28.89387899283537 340.8451459759128 -155.52135817809867 0.0 0.0
721.6766258833477 38.82067611893686 368.95778242684725 -152.47400333107058 0.0 0.0
761.2237047990768 48.59148500259508 394.1554738814549 -149.62066433853155 0.0 0.0
798.586256048608 58.0661828286474 417.894925389592 -146.5932399851004 0.0 0.0
834.306292421114 66.47160489672262 440.28289265394386 -142.47682092245242 0.0 0.0
868.820146662421 73.64474333290647 461.5174459902546 -136.51180278059286 0.0 0.0
911.1900722865139 89.44372495344822 490.52465381081544 -129.75834369611863 0.0 0.0
968.7681139741136 121.05552443603447 535.0221219701407 -123.88379366991781 0.0 0.0
999.9865486010021 123.2063947395605 552.8864417621841 -111.97605517681777 0.0 0.0
274.36361007877025 -578.5296438457901 -145.19220947146098 2.1445956122079224e-10 0.0 0.0
999.9865486006642 123.20639473913914 552.8864417622488 111.97605517696645 0.0 0.0
968.768113972412 121.05552443429278 535.0221219690515 123.88379367007741 0.0 0.0
911.190072287403 89.4437249547405 490.52465381145004 129.7583436966318 0.0 0.0
868.8201466619917 73.64474333249866 461.5174459898196 136.51180278061668 0.0 0.0
834.3062924206629 66.47160489634842 440.28289265373166 142.47682092245773 0.0 0.0
798.5862560482097 58.06618282838963 417.8949253893692 146.5932399850737 0.0 0.0
761.2237047991123 48.59148500297202 394.155473881534 149.62066433886451 0.0 0.0
721.6766258826717 38.820676118150075 368.95778242633907 152.47400333101808 0.0 0.0
678.0953659016953 28.89387899227109 340.84514597543244 155.52135817796648 0.0 0.0
631.1053703494382 22.620137276339385 311.17935640923 158.8930458679531 0.0 0.0
577.8518490064614 21.241585216955123 275.0578809146651 164.44000347800227 0.0 0.0
505.3384309193814 21.60272004791181 222.1483674953039 172.05154610892959 0.0 0.0
401.9998277729105 11.329460426508914 150.16928387740302 186.17892296341122 0.0 0.0
282.02705875410766 -1.0814353558973941 88.25506456995618 198.43121537637796 0.0 0.0
182.82254318455483 -0.22977972004281844 54.50536027524347 190.73167335334196 0.0 0.0
115.31984351353994 11.539817258383946 37.95598000550708 173.5977395485331 0.0 0.0
64.40531094583467 22.73203411197465 26.133975977366617 167.68764570835359 0.0 0.0
22.644893853538218 -1.3178218887388558 6.399925622346313 176.70486320280153 0.0 0.0
132.08433755255757 -17.28661471365967 43.36291396934401 211.09205578998157 0.0 0.0
-290.74425396144113 -846.274052337183 -414.02842300284703 81.39050846780682 0.0 0.0
-200.2012793440773 -703.2470183824876 -303.0747822429502 -94.64817481813739 0.0 0.0
79.24171237466952 -42.60950601422016 14.720573412032063 -202.72127441606 0.0 0.0
-4.388653847435916 -5.178290650658041 -2.8815376897146736 -184.22574330659006 0.0 0.0
19.8089096167087 21.47577399242214 12.383224300299474 -178.53516364006651 0.0 0.0
50.1684161971635 14.572274429061363 19.387794244520926 -184.38387541899107 0.0 0.0
88.10849974773127 3.2745291931022504 27.298645671934413 -203.31339953797735 0.0 0.0
142.4161648772692 -2.4641577199994313 42.24127313436053 -219.27128112027054 0.0 0.0
228.52641952170157 -6.365887483396272 69.29850973220968 -219.30695242650208 0.0 0.0
335.75273131209883 -13.032099884811512 107.70137631339216 -201.69226144592338 0.0 0.0
422.4981691460302 -14.499115221771195 149.95025995197213 -179.2550431064312 0.0 0.0
481.0253527398384 -5.385832016035941 189.39499164205074 -168.84332396863746 0.0 0.0
525.5909023545162 3.576041626405072 221.98953953064935 -165.84889684821266 0.0 0.0
563.0399020933327 11.704620679586988 249.5208706357854 -164.82706463919232 0.0 0.0
596.6700648330593 19.62821096840326 273.5466855829263 -163.99826254901467 0.0 0.0
628.8745546174448 27.669299249497982 296.48933957268724 -162.87300033968538 0.0 0.0
662.4826481265993 35.87432932918783 320.30977389761995 -160.75407857084878 0.0 0.0
698.9519535070618 43.36372376339378 345.56901733386206 -155.82613496697385 0.0 0.0
738.1588280321447 49.611036054296754 371.49848008940194 -147.8433728480288 0.0 0.0
802.2181501528386 78.45791214907132 418.16134641464475 -141.10735255175334 0.0 0.0
898.9489505537797 136.20929529073828 498.0645199322356 -139.88943024715482 0.0 0.0
0.9584852882722714 -701.3400096831376 -338.19049433073735 1.4576784224118455e-10 0.0 0.0
898.9489505522263 136.20929528895272 498.0645199312868 139.88943024690346 0.0 0.0
802.218150152543 78.45791214952615 418.16134641453436 141.10735255205137 0.0 0.0
738.1588280331555 49.61103605560608 371.4984800900874 147.84337284870196 0.0 0.0
698.951953507145 43.36372376355855 345.56901733386843 155.82613496714802 0.0 0.0
662.4826481259677 35.87432932866298 320.30977389731083 160.75407857074197 0.0 0.0
628.8745546170239 27.669299248731093 296.48933957246925 162.87300033969964 0.0 0.0
596.6700648327064 19.628210967887323 273.5466855825977 163.9982625489493 0.0 0.0
563.0399020923196 11.70462067854212 249.52087063510794 164.82706463916207 0.0 0.0
525.5909023548306 3.5760416268402224 221.98953953083364 165.8488968481876 0.0 0.0
481.0253527398048 -5.385832015998744 189.3949916420759 168.8433239687497 0.0 0.0
422.49816914622704 -14.49911522097239 149.9502599521813 179.25504310646375 0.0 0.0
335.75273131163306 -13.032099884811423 107.70137631323962 201.69226144608245 0.0 0.0
228.52641952126044 -6.365887483237626 69.29850973211286 219.30695242659726 0.0 0.0
142.41616487717835 -2.4641577195570186 42.241273134469665 219.27128112023763 0.0 0.0
88.10849974733902 3.2745291923464945 27.298645671601786 203.31339953759235 0.0 0.0
50.168416197273544 14.572274429352229 19.387794244642848 184.38387541865674 0.0 0.0
19.808909616786785 21.475773992667687 12.383224300396627 178.5351636400173 0.0 0.0
-4.388653847639812 -5.178290651063904 -2.8815376898998952 184.22574330638304 0.0 0.0
79.24171237428428 -42.609506014599276 14.720573411780697 202.72127441577874 0.0 0.0
-200.2012793436327 -703.2470183815158 -303.07478224234836 94.64817481832792 0.0 0.0
-140.0083713506566 -571.3818667374475 -221.97412291364083 -107.77752572316037 0.0 0.0
30.69747361951832 -60.871089990200446 -7.9287640335642875 -187.77477897683897 0.0 0.0
-30.698206023499253 -5.7857270339429085 -10.938897137308894 -188.15829773369927 0.0 0.0
-24.095186915528366 19.788350471650823 -1.3013411636840018 -184.8680171062655 0.0 0.0
-14.225227812853488 17.263186704129907 0.9098003986673742 -190.06461062058403 0.0 0.0
-6.7880040510811135 7.392434952541037 0.18960613987389463 -207.9392733472252 0.0 0.0
-3.010708826732536 1.0858626161761564 -0.5780561973775402 -225.55167667476897 0.0 0.0
-1.0735275402521864 0.08320009386603733 -0.3026312148882848 -228.5042525019466 0.0 0.0
-0.3630468415416246 0.003863691720207285 -0.11354146736217174 -220.87055396056968 0.0 0.0
-0.011087188000971082 -0.007582406616801762 -0.0019673528593600054 -216.3842113068663 0.0 0.0
-0.43890293202134956 0.01361802330047368 -0.13263060703678065 -211.60294441035816 0.0 0.0
-0.9688919169675927 0.1623982325762512 0.23153009873475128 -198.70115712576506 0.0 0.0
-1.9270691452657331 0.8618003613677914 0.4557017779545163 -189.41004784435756 0.0 0.0
-0.2193792371539871 2.606691259908075 1.01485820930408 -182.41625175798242 0.0 0.0
8.844337361651327 6.669150064241336 2.396235482042357 -177.4397526510403 0.0 0.0
32.52436351891569 14.19718792986562 6.289884786664345 -173.1581005027157 0.0 0.0
80.7623178260032 27.149801640484895 15.188768196832129 -167.78310457898962 0.0 0.0
168.2406067782086 37.03087457044393 20.901601493900444 -158.5832287642992 0.0 0.0
388.5106557377983 -5.163790911803318 37.19266771115613 -153.4282044340524 0.0 0.0
616.2397563782349 31.808193868121265 246.22186696252786 -200.4150478602692 0.0 0.0
-676.8314684419369 -947.6580959844521 -733.5597897835867 5.96074301029148e-11 0.0 0.0
616.2397563780343 31.808193868271786 246.22186696262193 200.41504786023447 0.0 0.0
388.5106557388515 -5.163790910713487 37.192667711672726 153.42820443502197 0.0 0.0
168.24060677877128 37.03087457129426 20.901601494408297 158.58322876479195 0.0 0.0
80.76231782606908 27.149801640891965 15.188768196917351 167.78310457916203 0.0 0.0
32.5243635190336 14.197187930035398 6.289884786714424 173.15810050271847 0.0 0.0
8.84433736127464 6.669150063528804 2.3962354817068245 177.43975265105234 0.0 0.0
-0.2193792371321308 2.6066912596653466 1.0148582092372607 182.4162517581785 0.0 0.0
-1.9270691448816564 0.8618003615048266 0.4557017780832098 189.4100478443758 0.0 0.0
-0.9688919169728791 0.1623982318152386 0.23153009844774886 198.70115712593054 0.0 0.0
-0.4389029321476343 0.013618022287623432 -0.13263060745118338 211.6029444102783 0.0 0.0
-0.01108718747179438 -0.007582406250437046 -0.0019673525925618662 216.38421130663303 0.0 0.0
-0.36304684121205355 0.0038636919652770274 -0.11354146719035185 220.8705539605898 0.0 0.0
-1.0735275402614803 0.08320009361851977 -0.3026312149614432 228.50425250200368 0.0 0.0
-3.010708826626848 1.08586261638477 -0.5780561972841163 225.55167667458156 0.0 0.0
-6.788004050979987 7.39243495257071 0.1896061399133977 207.9392733469694 0.0 0.0
-14.225227812842851 17.263186703883008 0.9098003985962628 190.06461062025656 0.0 0.0
-24.095186915564692 19.788350471442747 -1.3013411637587875 184.868017106143 0.0 0.0
-30.69820602359745 -5.785727034078516 -10.938897137381952 188.15829773349893 0.0 0.0
30.697473619319112 -60.87108999023687 -7.9287640336464715 187.77477897661146 0.0 0.0
-140.00837135025597 -571.3818667365732 -221.97412291321172 107.77752572326668 0.0 0.0
-109.29753917281134 -452.5278152454781 -168.71213004812145 -113.43501623258283 0.0 0.0
-6.931512283924784 -71.94634306068497 -23.63487198474589 -171.9171350051576 0.0 0.0
-55.53460813354046 -5.359081613947626 -18.279217019206616 -187.30323649476387 0.0 0.0
-66.85753703029285 18.262745760429233 -14.592167855006595 -186.3878347508809 0.0 0.0
-77.42065124775297 19.217150300166935 -17.466716439586268 -190.1514815359514 0.0 0.0
-100.49448807703459 11.300228031109487 -26.725086194477043 -204.94522237030066 0.0 0.0
-147.9516084971231 4.704820471597572 -43.302311233652766 -220.4065939333764 0.0 0.0
-229.96064913819922 6.422341203673002 -69.85696540040642 -219.70000357621697 0.0 0.0
-335.97296184777935 12.865014852578465 -107.88646027788717 -201.71782313903665 0.0 0.0
-422.48682812780413 14.482806869288424 -149.94456120216694 -179.21954269921514 0.0 0.0
-481.5211831859814 5.269685551246447 -189.6538580313811 -168.8585111797816 0.0 0.0
-526.353377168679 -3.52939109704829 -222.8859363297695 -165.7003554677282 0.0 0.0
-564.1536911054118 -10.41316415253371 -250.34348685096393 -164.1745152237243 0.0 0.0
-595.1883147957116 -14.718920728500066 -271.004013355948 -163.1926863545155 0.0 0.0
-616.9490837500609 -15.327180079429397 -283.125232875207 -163.33034495378396 0.0 0.0
-627.3280404283128 -10.90379727454851 -284.37498724273405 -165.33556767390007 0.0 0.0
-624.7717758314279 -1.5826288558162673 -272.7764828828972 -169.82972707602724 0.0 0.0
-617.3867923973173 5.691189747614629 -250.67706790618715 -179.24650111227413 0.0 0.0
-595.2351982947473 56.45170129627333 -188.255699907151 -193.1396268224518 0.0 0.0
-321.7108336769283 173.6662754863178 40.007449038741186 -158.21084709478157 0.0 0.0
-1244.1162783183609 -1214.0144944543913 -1259.157622608742 -2.1525892179852235e-10 0.0 0.0
-321.71083367638914 173.6662754864289 40.007449038950426 158.21084709534261 0.0 0.0
-595.2351982958302 56.45170129459001 -188.25569990798834 193.13962682295556 0.0 0.0
-617.3867923969237 5.691189747921797 -250.67706790596532 179.24650111241183 0.0 0.0
-624.7717758309595 -1.5826288551313894 -272.77648288260605 169.8297270761429 0.0 0.0
-627.328040428328 -10.90379727445638 -284.37498724265663 165.33556767371277 0.0 0.0
-616.9490837490212 -15.327180078553795 -283.1252328745304 163.33034495374073 0.0 0.0
-595.1883147957864 -14.718920728857569 -271.00401335601856 163.1926863545916 0.0 0.0
-564.1536911047176 -10.413164151955819 -250.34348685055733 164.17451522375785 0.0 0.0
-526.3533771698629 -3.5293910992027477 -222.88593633056902 165.70035546800787 0.0 0.0
-481.52118318523753 5.26968555192199 -189.6538580307532 168.85851117965828 0.0 0.0
-422.4868281283557 14.482806867849082 -149.944561202633 179.2195426993988 0.0 0.0
-335.9729618467361 12.865014853468836 -107.88646027725247 201.71782313909833 0.0 0.0
-229.96064913811634 6.422341202870328 -69.85696540057712 219.7000035762938 0.0 0.0
-147.9516084970105 4.704820471157079 -43.30231123374966 220.40659393320053 0.0 0.0
-100.49448807644653 11.300228032036598 -26.725086194034272 204.945222369883 0.0 0.0
-77.42065124800104 19.21715029935751 -17.466716439906158 190.15148153568856 0.0 0.0
-66.85753703003179 18.26274576093637 -14.592167854779882 186.38783475063588 0.0 0.0
-55.53460813350072 -5.35908161391119 -18.279217019185698 187.3032364946332 0.0 0.0
-6.931512283949076 -71.94634306069077 -23.634871984753747 171.91713500510735 0.0 0.0
-109.29753917275733 -452.5278152448186 -168.71213004794328 113.43501623233843 0.0 0.0
-91.50194426232693 -345.82374126364977 -131.18430351565294 -106.6420820017544 0.0 0.0
-31.07466854996312 -77.20890278355868 -32.48197028841026 -159.0102073280128 0.0 0.0
-78.80228562510418 -5.186935230403357 -25.182495662578884 -183.30110261121195 0.0 0.0
-107.77410185083208 16.906527156545167 -27.286876446511187 -182.93860069874205 0.0 0.0
-139.42637893395047 20.58771969765377 -35.582852735278124 -185.73987221042816 0.0 0.0
-192.57992605180908 14.471212486201697 -53.4209216525969 -195.72928674789193 0.0 0.0
-284.0058927857203 2.307498885496849 -89.18050074965133 -198.05650981458047 0.0 0.0
-402.22659170080345 -11.542721380461025 -150.50765990860668 -186.76427182093812 0.0 0.0
-505.33353631224367 -21.80539813228389 -222.2452099023213 -172.16945719552453 0.0 0.0
-577.7852096668655 -21.274784972903916 -275.0597023485102 -164.43333575615108 0.0 0.0
-631.1536161833363 -22.59761701202917 -311.23662463459436 -158.81788778565752 0.0 0.0
-678.558723082927 -28.77766957425642 -341.11841933992304 -155.028851762452 0.0 0.0
-722.1795880038086 -37.878998162369626 -368.93439211150337 -151.31538193580096 0.0 0.0
-759.0088092901017 -44.54924293341112 -391.3491608812353 -148.39978072910395 0.0 0.0
-786.6121817801551 -46.204456174335334 -406.33847170134004 -147.35612007866177 0.0 0.0
-801.7060587818867 -40.41178186190223 -411.0777330616835 -148.64682693476666 0.0 0.0
-804.875019214458 -29.065692311496974 -406.62958203170786 -152.521692115115 0.0 0.0
-796.5230709266854 -14.601304120292923 -394.63583253380824 -158.89248783262917 0.0 0.0
-746.7999741671541 32.69774599751908 -346.13707977453333 -166.29611019044336 0.0 0.0
-629.0624590542516 133.82532483173637 -239.0336001992624 -174.0129627017517 0.0 0.0
-2039.1356550495066 -1512.8340842960072 -1743.262233038534 -2.206590465902991e-10 0.0 0.0
-629.0624590528253 133.82532483265283 -239.03360019841438 174.01296270210923 0.0 0.0
-746.7999741681492 32.69774599621107 -346.13707977520926 166.29611019100025 0.0 0.0
-796.5230709266676 -14.601304120660345 -394.6358325337957 158.89248783280897 0.0 0.0
-804.8750192134073 -29.065692310621017 -406.62958203103517 152.52169211523784 0.0 0.0
-801.7060587836777 -40.41178186376381 -411.0777330628332 148.64682693489084 0.0 0.0
-786.6121817784974 -46.20445617284933 -406.3384717002741 147.3561200785573 0.0 0.0
-759.0088092909677 -44.5492429346328 -391.34916088179057 148.39978072930455 0.0 0.0
-722.1795880036425 -37.87899816248871 -368.9343921114552 151.31538193595486 0.0 0.0
-678.5587230829257 -28.77766957463399 -341.11841933982316 155.02885176237947 0.0 0.0
-631.1536161827105 -22.59761701149583 -311.2366246342226 158.81788778563387 0.0 0.0
-577.7852096670988 -21.274784973809297 -275.05970234865134 164.43333575619877 0.0 0.0
-505.333536310753 -21.805398130793684 -222.24520990118586 172.16945719533678 0.0 0.0
-402.2265917003901 -11.54272138067287 -150.50765990834606 186.76427182108452 0.0 0.0
-284.0058927852412 2.307498885493186 -89.18050074944381 198.05650981447084 0.0 0.0
-192.5799260510955 14.471212486977103 -53.420921652163905 195.7292867476363 0.0 0.0
-139.42637893399748 20.587719697120928 -35.58285273545722 185.73987221028366 0.0 0.0
-107.77410185056863 16.90652715688758 -27.28687644633336 182.93860069851047 0.0 0.0
-78.8022856250276 -5.186935230484673 -25.18249566258282 183.30110261108877 0.0 0.0
-31.07466854996919 -77.20890278357096 -32.48197028841489 159.0102073279575 0.0 0.0
-91.50194426222019 -345.82374126321184 -131.18430351548864 106.64208200159877 0.0 0.0
-74.63588915663982 -256.4534309933845 -99.32679604500728 -95.3609895269932 0.0 0.0
-48.10649949811119 -76.05579037186617 -37.24786384031158 -145.37465877703124 0.0 0.0
-100.21144595628047 -5.211629767224989 -31.609532761966513 -174.8708173176319 0.0 0.0
-147.05177876061566 15.632555788216333 -39.38969275867266 -175.590565604764 0.0 0.0
-199.0373064383914 20.49890252007867 -53.48532323001561 -174.7487109825286 0.0 0.0
-281.09621080840816 12.102867603992944 -82.3911012427339 -175.07813875947008 0.0 0.0
-402.19547527862284 -10.341474185877471 -142.2765327784816 -169.77050758373252 0.0 0.0
-520.6570866709949 -33.24777302600506 -228.70416765725773 -157.91126743998905 0.0 0.0
-611.2573453504099 -40.68618801083618 -301.8804568720265 -151.7265749074986 0.0 0.0
-674.157329354354 -38.90700594242936 -345.3482264532323 -147.68044435372553 0.0 0.0
-724.7939454253201 -42.46878075959799 -376.4138793341772 -143.62555044424755 0.0 0.0
-774.0708442462405 -51.72991465528668 -406.6386090393885 -140.33237968125434 0.0 0.0
-821.757959416675 -63.77908112021967 -436.95612161114593 -136.71295194745895 0.0 0.0
-864.331688524766 -74.6675502319529 -463.99961408920336 -133.58081171514092 0.0 0.0
-898.0070929100768 -80.06476369976639 -483.7943493500775 -132.29230542389118 0.0 0.0
-917.9631878650334 -76.64093344528371 -492.2058270357187 -133.93981954920415 0.0 0.0
-922.5854030420837 -62.95184777409827 -487.733709590515 -138.5706560533982 0.0 0.0
-902.1162134564008 -31.015607316395688 -461.54052454968155 -144.36243407795592 0.0 0.0
-844.8905767403762 29.242042571201125 -403.36895097703876 -148.81379571234135 0.0 0.0
-684.1281858317124 179.00864734977364 -251.2335246294566 -150.04045946714174 0.0 0.0
-2482.5447717048373 -1745.7854701556266 -2089.9265070541037 -4.6835424427627004e-11 0.0 0.0
-684.1281858314815 179.00864734976938 -251.2335246292268 150.04045946749306 0.0 0.0
-844.8905767402046 29.24204257105731 -403.3689509769803 148.813795712669 0.0 0.0
-902.1162134557992 -31.015607315986713 -461.5405245493078 144.36243407820342 0.0 0.0
-922.5854030414719 -62.95184777352671 -487.7337095901659 138.57065605347228 0.0 0.0
-917.9631878660991 -76.64093344665162 -492.20582703639275 133.93981954924612 0.0 0.0
-898.0070929094397 -80.06476369918285 -483.79434934964615 132.29230542399728 0.0 0.0
-864.3316885242389 -74.66755023159385 -463.9996140887488 133.5808117149229 0.0 0.0
-821.757959416719 -63.77908112059624 -436.95612161122773 136.71295194765875 0.0 0.0
-774.0708442454043 -51.729914654636744 -406.6386090388357 140.33237968118294 0.0 0.0
-724.7939454248924 -42.468780759463186 -376.41387933401614 143.62555044427302 0.0 0.0
-674.1573293544577 -38.90700594292526 -345.348226453358 147.68044435378906 0.0 0.0
-611.2573453492694 -40.68618800971879 -301.88045687116335 151.72657490731117 0.0 0.0
-520.6570866706562 -33.24777302612221 -228.70416765692778 157.91126744001613 0.0 0.0
-402.19547527796146 -10.341474185594535 -142.27653277805427 169.77050758369882 0.0 0.0
-281.096210807709 12.10286760444105 -82.39110124237952 175.07813875933377 0.0 0.0
-199.0373064382379 20.498902519657136 -53.485323230116435 174.74871098236676 0.0 0.0
-147.05177876040472 15.632555788415765 -39.38969275855468 175.59056560467533 0.0 0.0
-100.21144595629748 -5.211629767426959 -31.609532762031066 174.87081731757831 0.0 0.0
-48.106499498016866 -76.05579037171931 -37.247863840240136 145.3746587770251 0.0 0.0
-74.63588915653385 -256.4534309930709 -99.3267960448814 95.36098952688786 0.0 0.0
-60.72901358526076 -181.79751944920997 -72.7579599103412 -81.91402873312353 0.0 0.0
-60.980518364116286 -70.1657955102897 -39.34407031967712 -129.83574087366276 0.0 0.0
-120.11608031429225 -5.145059403122583 -37.56650611182997 -162.37291924149645 0.0 0.0
-184.0464913979103 13.634173899751485 -51.0988016427322 -163.10607427680677 0.0 0.0
-257.82566974992704 18.82112972985692 -71.5934678857223 -159.41309878426478 0.0 0.0
-367.57439547750266 5.341695763571678 -114.87587585417324 -151.3282705226839 0.0 0.0
-496.6474918260163 -27.278459743049513 -198.42357609336617 -139.1933623526303 0.0 0.0
-608.2005057876943 -48.625074476564144 -293.29566870361987 -133.66726413685402 0.0 0.0
-687.8600012153734 -53.04383607224324 -357.04309828714963 -131.2933546825897 0.0 0.0
-744.2609443995326 -56.50739038191428 -394.6398260161628 -128.4520739201247 0.0 0.0
-797.2456689186452 -61.857169808728486 -425.3782778274782 -126.64097780517874 0.0 0.0
-849.1074488734614 -73.41381115220311 -457.36690982085213 -123.90820089222885 0.0 0.0
-900.7041146668004 -89.05248298516368 -491.194893968178 -120.58835915364891 0.0 0.0
-949.2032533456963 -104.81479350528033 -523.520461684919 -117.4149868233057 0.0 0.0
-989.298797043381 -115.48336305522193 -549.1096404140693 -115.84571034018107 0.0 0.0
-1013.8893195426158 -114.03557369046189 -560.8747947774432 -117.43930951089673 0.0 0.0
-1013.9732938484179 -94.30750352953586 -551.2346339945129 -121.68904292444608 0.0 0.0
-980.6165824874663 -46.318641307843535 -510.774032972865 -126.7227740670633 0.0 0.0
-894.4236306403128 46.01492639928463 -422.318109639496 -129.07470038687876 0.0 0.0
-715.7234859708623 216.1841661302107 -249.71443615494775 -127.60181928663717 0.0 0.0
-2833.2752226459197 -1986.650739602163 -2391.4027732077616 1.021369655518356e-10 0.0 0.0
-715.7234859714579 216.18416612943437 -249.71443615521923 127.60181928688131 0.0 0.0
-894.423630640146 46.014926399338506 -422.318109639466 129.07470038714484 0.0 0.0
-980.6165824867976 -46.318641307191655 -510.774032972457 126.72277406696601 0.0 0.0
-1013.9732938481931 -94.30750352948289 -551.2346339944811 121.68904292447694 0.0 0.0
-1013.8893195432006 -114.03557369121891 -560.8747947779532 117.43930951104053 0.0 0.0
-989.2987970434446 -115.48336305544807 -549.1096404139977 115.84571034022603 0.0 0.0
-949.2032533445646 -104.81479350413933 -523.5204616841698 117.41498682305256 0.0 0.0
-900.7041146668066 -89.05248298539777 -491.1948939682894 120.58835915361672 0.0 0.0
-849.1074488726628 -73.413811151737 -457.3669098203088 123.90820089232236 0.0 0.0
-797.245668918808 -61.85716980913506 -425.37827782760013 126.64097780521828 0.0 0.0
-744.2609443997164 -56.50739038248283 -394.6398260162938 128.45207392006174 0.0 0.0
-687.8600012152028 -53.04383607241322 -357.04309828697177 131.29335468263648 0.0 0.0
-608.2005057873967 -48.62507447672858 -293.29566870328796 133.66726413682844 0.0 0.0
-496.6474918253999 -27.27845974293529 -198.42357609288385 139.19336235262034 0.0 0.0
-367.5743954769741 5.341695763717571 -114.87587585388918 151.32827052258347 0.0 0.0
-257.8256697492881 18.821129730307423 -71.593467885421 159.41309878407355 0.0 0.0
-184.04649139766875 13.634173899873371 -51.098801642638016 163.10607427668845 0.0 0.0
-120.11608031415633 -5.145059403199861 -37.56650611181117 162.37291924144102 0.0 0.0
-60.980518364063755 -70.16579551018063 -39.34407031962865 129.83574087356288 0.0 0.0
-60.729013585417704 -181.79751944911627 -72.7579599103602 81.91402873315292 0.0 0.0
-50.41355336993461 -121.17366158007931 -51.47616448500416 -67.6742734784963 0.0 0.0
-71.02961394838995 -60.965461323946535 -39.59852258170095 -112.14610373944927 0.0 0.0
-138.74113154976857 -4.693791177773298 -43.02777062270603 -145.71734701017454 0.0 0.0
-219.28879559014928 11.316568793823418 -62.29399803822603 -146.66120167731663 0.0 0.0
-314.8876242508083 13.328083430052903 -91.13422901416509 -137.35449008064236 0.0 0.0
-445.2274667297833 -6.937582172538374 -151.71798808858978 -123.3189575997109 0.0 0.0
-573.5160615694583 -41.79322288645332 -251.93649606669888 -112.82107737986506 0.0 0.0
-675.2066200332207 -58.49968077853865 -343.316868815344 -111.03805195535094 0.0 0.0
-744.3490671201356 -66.92940592784771 -398.3028485621568 -109.55456867617221 0.0 0.0
-803.8035629086794 -71.7375303759469 -434.3139349035808 -109.62846025910295 0.0 0.0
-858.3345581723582 -80.54323846960615 -466.69993173149123 -108.46621640881087 0.0 0.0
-913.3542698442286 -95.12957059280608 -501.6025089499147 -106.22624932589879 0.0 0.0
-968.7278840629206 -114.0640085052203 -538.8644552591697 -103.38856491479761 0.0 0.0
-1022.2371001379988 -134.04383672684963 -575.714865888308 -100.4657261592104 0.0 0.0
-1069.250207351248 -150.55288018434445 -607.6288031767504 -98.58533726240499 0.0 0.0
-1097.6387465209896 -151.9886426746314 -622.7941791707312 -99.30031490745198 0.0 0.0
-1092.564388460386 -123.92661422724129 -606.4906896528701 -102.9627736698197 0.0 0.0
-1039.7568460519235 -55.141351569499506 -546.0412305372051 -107.16775465182536 0.0 0.0
-927.3789303068365 64.01519160191825 -430.91725504288087 -108.92293559396354 0.0 0.0
-741.3194774170499 241.8103177065115 -249.92973523817653 -109.37477737567016 0.0 0.0
-3131.5227140667444 -2212.989263638055 -2657.54500864524 5.148947934685566e-11 0.0 0.0
-741.3194774175994 241.81031770581268 -249.9297352384756 109.37477737583458 0.0 0.0
-927.378930307581 64.01519160097965 -430.91725504346385 108.92293559429507 0.0 0.0
-1039.756846051008 -55.141351568691846 -546.0412305366007 107.16775465196545 0.0 0.0
-1092.5643884593624 -123.92661422625395 -606.4906896522677 102.96277366975028 0.0 0.0
-1097.6387465222306 -151.98864267607632 -622.7941791716611 99.30031490754496 0.0 0.0
-1069.250207351028 -150.55288018424363 -607.6288031765168 98.58533726233219 0.0 0.0
-1022.2371001380596 -134.04383672710287 -575.7148658882755 100.46572615924089 0.0 0.0
-968.7278840625096 -114.06400850498265 -538.8644552590013 103.38856491466235 0.0 0.0
-913.3542698427179 -95.1295705914462 -501.6025089489185 106.22624932583503 0.0 0.0
-858.334558172461 -80.5432384700952 -466.6999317315903 108.46621640891118 0.0 0.0
-803.8035629081097 -71.737530375669 -434.31393490329134 109.62846025907542 0.0 0.0
-744.3490671204311 -66.92940592855363 -398.30284856232294 109.55456867633794 0.0 0.0
-675.2066200325222 -58.49968077810847 -343.31686881475486 111.03805195522644 0.0 0.0
-573.5160615687583 -41.79322288611015 -251.93649606607815 112.82107737984252 0.0 0.0
-445.22746672955515 -6.937582172856308 -151.71798808844957 123.31895759965856 0.0 0.0
-314.8876242500971 13.328083430674605 -91.13422901378269 137.3544900804602 0.0 0.0
-219.28879559010903 11.31656879356878 -62.29399803829185 146.6612016773347 0.0 0.0
-138.741131549569 -4.69379117762497 -43.027770622600244 145.7173470101552 0.0 0.0
-71.02961394833332 -60.96546132386948 -39.59852258166082 112.14610373920137 0.0 0.0
-50.413553369954165 -121.17366158001485 -51.4761644849907 67.67427347861641 0.0 0.0
-43.50992025360576 -74.18469853672111 -35.308385637098056 -53.128530108424876 0.0 0.0
-78.81112374043268 -49.80293993767192 -38.58421910343138 -92.45041186808325 0.0 0.0
-156.22313346973635 -3.711004402960053 -47.98074886028247 -124.96798954496828 0.0 0.0
-253.18200304057925 7.689535398438373 -73.55581060363559 -125.38130447833221 0.0 0.0
-373.93844708200197 6.202898704916273 -112.4525049565535 -112.34947513381788 0.0 0.0
-509.6744596682847 -23.694396770467097 -191.97708134267526 -93.1679975736409 0.0 0.0
-635.2149759713658 -51.477674183515234 -298.5630327772495 -88.96004159963239 0.0 0.0
-723.3554965238545 -68.72175715634236 -381.42538104345647 -88.2536568579354 0.0 0.0
-794.0374664260122 -78.27597203204493 -431.7200103934845 -89.06969294037492 0.0 0.0
-854.6537549880238 -87.12400073433531 -468.62985742585477 -89.87522514287 0.0 0.0
-912.5393690354985 -99.43783215349522 -504.0757790449294 -89.25304681315043 0.0 0.0
-970.7738830102822 -116.92212273903974 -541.9864005215427 -87.5490621900529 0.0 0.0
-1029.3680663525197 -138.51081595741547 -582.1433261230073 -85.33073362147958 0.0 0.0
-1086.5810104729135 -162.41551242651843 -622.7527958871829 -82.8675945138962 0.0 0.0
-1138.8421404613841 -183.13408953087557 -659.33842114096 -80.72177245002509 0.0 0.0
-1172.7170840219835 -188.36660449979698 -679.1379354372928 -80.24071205943142 0.0 0.0
-1164.3198214350557 -156.01829542911528 -659.1370064725199 -82.52748192033135 0.0 0.0
-1093.095622894683 -67.28006337636836 -579.5438125328969 -86.38671903667228 0.0 0.0
-956.1639682911109 77.16006296852356 -439.2867728731627 -89.76537918967577 0.0 0.0
-757.660735403303 266.78187964001137 -245.63217624657912 -94.11237798165742 0.0 0.0
-3388.4043194100736 -2416.8374330760194 -2890.727253452102 -5.019984428145108e-12 0.0 0.0
-757.6607354040478 266.78187963912546 -245.6321762471448 94.11237798183532 0.0 0.0
-956.1639682917727 77.1600629677084 -439.28677287374376 89.76537918990905 0.0 0.0
-1093.0956228946948 -67.28006337653129 -579.5438125329404 86.38671903696212 0.0 0.0
-1164.319821434826 -156.01829542896604 -659.1370064724222 82.52748192025419 0.0 0.0
-1172.7170840230328 -188.36660450095349 -679.137935437971 80.24071205935863 0.0 0.0
-1138.8421404609724 -183.13408953065752 -659.3384211406999 80.7217724500588 0.0 0.0
-1086.5810104726845 -162.41551242656354 -622.7527958869177 82.86759451407393 0.0 0.0
-1029.3680663521893 -138.51081595727774 -582.1433261228725 85.33073362151397 0.0 0.0
-970.7738830096382 -116.9221227386397 -541.9864005211008 87.54906219006871 0.0 0.0
-912.5393690351386 -99.4378321534418 -504.07577904481485 89.25304681322973 0.0 0.0
-854.6537549876616 -87.12400073416129 -468.62985742568765 89.8752251427523 0.0 0.0
-794.0374664269478 -78.27597203339283 -431.72001039401135 89.06969294045358 0.0 0.0
-723.3554965231964 -68.72175715589432 -381.42538104291054 88.25365685774351 0.0 0.0
-635.214975970842 -51.477674183413285 -298.5630327767382 88.96004159967114 0.0 0.0
-509.6744596675577 -23.694396770175345 -191.97708134215685 93.16799757358345 0.0 0.0
-373.93844708144326 6.20289870486511 -112.45250495637855 112.34947513382207 0.0 0.0
-253.18200304051695 7.689535398023361 -73.5558106037514 125.38130447834084 0.0 0.0
-156.2231334696675 -3.711004402772744 -47.98074886020554 124.9679895447965 0.0 0.0
-78.81112374038203 -49.80293993760708 -38.58421910339673 92.45041186800543 0.0 0.0
-43.509920253448534 -74.18469853662958 -35.30838563702343 53.12853010832267 0.0 0.0
-39.36245186902362 -40.56351895360079 -23.977791246787316 -38.68561479547311 0.0 0.0
-84.26870898929711 -37.88707790824538 -36.646736069262744 -70.98346100471014 0.0 0.0
-172.42405913514557 -2.3417910682472374 -52.42997553872212 -99.96399261976333 0.0 0.0
-287.3367684047971 2.8761609835482207 -85.20353450252301 -99.53147932609224 0.0 0.0
-430.1250196335177 -4.975171098227366 -136.8948297333497 -82.64460686463653 0.0 0.0
-569.3799152159941 -36.15762499445651 -231.93011808455734 -67.76360927928171 0.0 0.0
-679.9998356853371 -60.124377853564816 -337.29901192209894 -66.4362216545691 0.0 0.0
-763.9910799051158 -76.53940235051806 -410.94009940121373 -66.54580171270004 0.0 0.0
-836.079690789111 -90.02716912773306 -460.2636107421825 -68.13363084261617 0.0 0.0
-900.0587850520781 -102.70243617141931 -499.80816029054654 -69.31389092241943 0.0 0.0
-961.2684749503167 -118.47858651361416 -538.5119350774914 -69.11703229398297 0.0 0.0
-1022.9630462978521 -138.99890933459122 -579.6500431420657 -67.94110739309353 0.0 0.0
-1084.4464900191763 -163.57272222828473 -622.7276270222643 -66.32712711311261 0.0 0.0
-1143.8002999141418 -188.26728646900918 -664.7767131250336 -64.56985555142195 0.0 0.0
-1198.0403849486472 -210.95658815468462 -703.2831103026133 -62.4965069699074 0.0 0.0
-1237.7513357089895 -221.6764056601533 -728.6879521475446 -60.673577361162295 0.0 0.0
-1235.5568595669629 -193.89726343185197 -714.0958521749324 -60.992819101326596 0.0 0.0
-1153.1345900040376 -92.63983525778772 -622.6947485194995 -64.75287000743221 0.0 0.0
-987.2071772829772 81.4836815847666 -452.98078534118713 -71.01947374852473 0.0 0.0
-760.6277556907505 299.5120973814294 -230.75850901718036 -80.33863651612101 0.0 0.0
-3604.14780341 -2588.8222644158905 -3086.788847753061 3.0185631771928456e-11 0.0 0.0
-760.6277556915894 299.5120973805172 -230.7585090178414 80.33863651621557 0.0 0.0
-987.20717728231 81.48368158534899 -452.9807853407869 71.01947374862341 0.0 0.0
-1153.1345900052231 -92.63983525908625 -622.6947485203773 64.75287000759 0.0 0.0
-1235.5568595669074 -193.89726343190966 -714.095852174864 60.992819101292824 0.0 0.0
-1237.7513357091946 -221.67640566052 -728.6879521476113 60.673577361184854 0.0 0.0
-1198.040384948621 -210.95658815481798 -703.283110302624 62.496506969999174 0.0 0.0
-1143.800299913364 -188.26728646841295 -664.7767131243965 64.56985555132344 0.0 0.0
-1084.446490019404 -163.57272222875662 -622.7276270225206 66.32712711320913 0.0 0.0
-1022.9630462974444 -138.99890933438186 -579.6500431417575 67.94110739297173 0.0 0.0
-961.2684749507603 -118.47858651431922 -538.5119350778222 69.11703229395997 0.0 0.0
-900.0587850516803 -102.70243617128283 -499.8081602902832 69.31389092231765 0.0 0.0
-836.0796907887174 -90.02716912767704 -460.26361074186605 68.13363084263254 0.0 0.0
-763.9910799047055 -76.5394023504477 -410.94009940089836 66.54580171271569 0.0 0.0
-679.9998356847832 -60.12437785337252 -337.2990119215661 66.43622165461262 0.0 0.0
-569.3799152147927 -36.15762499355315 -231.93011808370474 67.76360927933254 0.0 0.0
-430.12501963299735 -4.9751710981106 -136.89482973309356 82.64460686458327 0.0 0.0
-287.3367684046368 2.876160983176182 -85.20353450261207 99.53147932600588 0.0 0.0
-172.42405913503063 -2.3417910681532446 -52.42997553865914 99.96399261963944 0.0 0.0
-84.26870898933123 -37.88707790828681 -36.64673606928542 70.98346100477588 0.0 0.0
-39.3624518691211 -40.56351895361291 -23.9777912468202 38.68561479526583 0.0 0.0
-36.73401873419602 -19.922602845232973 -16.9969864738287 -25.12995342450148 0.0 0.0
-86.69291859373571 -26.45210370605114 -33.94350668993605 -48.05138582526269 0.0 0.0
-187.0167773590355 -1.11669558443019 -56.4400418830397 -70.15597712769359 0.0 0.0
-323.36751031107775 -2.7203974546710636 -97.59987933307289 -68.58324184329543 0.0 0.0
-481.9592617087832 -19.270805066015864 -164.92391715878912 -51.837283577069165 0.0 0.0
-616.9403870380171 -45.67346477792414 -269.4837413854655 -44.61206840899473 0.0 0.0
-713.1778109383 -66.72915469823238 -367.14799028529535 -44.430131728183675 0.0 0.0
-798.8316500564364 -85.06032177996545 -435.9696949171768 -45.29944945970047 0.0 0.0
-873.3668826642205 -102.39850462182505 -485.9878181213618 -46.767742225768856 0.0 0.0
-940.8064672618356 -118.64165399321344 -528.5874364283736 -47.94600589498778 0.0 0.0
-1005.7756152427984 -137.71617845734445 -570.7717612843983 -48.103615024146364 0.0 0.0
-1070.575400597167 -161.2372599453166 -614.9642309759507 -47.445636456232556 0.0 0.0
-1135.0651682589496 -187.53467463050626 -660.3894396582431 -46.51646171955863 0.0 0.0
-1195.7127623783956 -213.91181895658005 -703.935787233251 -45.37070054455267 0.0 0.0
-1248.9506788225704 -235.05005221070166 -741.1637169275247 -43.76186107520431 0.0 0.0
-1288.2043628295785 -244.87416945078996 -765.7909715642359 -41.45627608701057 0.0 0.0
-1299.8359113676315 -230.47861133521207 -764.6461097707788 -39.643341360459516 0.0 0.0
-1241.4057284104763 -151.83750758915536 -696.590623896529 -41.89393150234315 0.0 0.0
-1038.886214661687 60.615563731647 -489.5313230053325 -51.194439488298116 0.0 0.0
-736.0879036439366 356.2463580052857 -190.22208217646008 -66.88924243257392 0.0 0.0
-3765.1499468975585 -2711.5019549571966 -3230.439939999795 4.999201053124125e-11 0.0 0.0
-736.0879036437716 356.24635800539653 -190.2220821763566 66.88924243264864 0.0 0.0
-1038.8862146602532 60.615563733017986 -489.5313230044168 51.194439488343306 0.0 0.0
-1241.40572841056 -151.83750758935136 -696.5906238965665 41.893931502415754 0.0 0.0
-1299.8359113666882 -230.4786113343694 -764.6461097700792 39.64334136046153 0.0 0.0
-1288.2043628296396 -244.87416945098278 -765.7909715642572 41.456276087029785 0.0 0.0
-1248.9506788240167 -235.05005221230866 -741.1637169285381 43.76186107510206 0.0 0.0
-1195.7127623773567 -213.91181895573402 -703.9357872325214 45.370700544577154 0.0 0.0
-1135.065168259783 -187.53467463155368 -660.3894396588726 46.51646171960144 0.0 0.0
-1070.5754005959345 -161.23725994428253 -614.9642309751059 47.44563645601171 0.0 0.0
-1005.7756152427351 -137.71617845756663 -570.7717612843802 48.103615024215216 0.0 0.0
-940.8064672615911 -118.64165399325725 -528.5874364281657 47.946005894961374 0.0 0.0
-873.3668826630972 -102.39850462093463 -485.98781812063316 46.767742225653876 0.0 0.0
-798.8316500561571 -85.06032178002272 -435.96969491695677 45.299449459735534 0.0 0.0
-713.1778109378689 -66.72915469813668 -367.14799028483105 44.43013172807101 0.0 0.0
-616.9403870367499 -45.67346477692304 -269.48374138451203 44.61206840900081 0.0 0.0
-481.95926170796474 -19.270805065519976 -164.92391715831394 51.83728357709077 0.0 0.0
-323.36751031062465 -2.7203974545895413 -97.59987933292906 68.5832418432366 0.0 0.0
-187.01677735909806 -1.1166955847679663 -56.440041883159786 70.15597712774453 0.0 0.0
-86.69291859384302 -26.45210370606542 -33.943506689972516 48.05138582539508 0.0 0.0
-36.73401873439374 -19.922602845387843 -16.996986473934466 25.12995342447833 0.0 0.0
-33.274133963892815 -11.2081942264171 -13.344698457092978 -14.139450954507494 0.0 0.0
-84.58592182725405 -17.21458255687878 -30.540151315239843 -24.079396836583676 0.0 0.0
-199.5572572847467 -1.0889219080656551 -60.193853757843705 -34.13143094833296 0.0 0.0
-361.20388961589117 -8.215367819333228 -111.14409832835531 -32.13695335018707 0.0 0.0
-532.0010419868222 -31.262171873021313 -194.76007467474253 -23.43167165453517 0.0 0.0
-651.6440531822907 -52.59525550999244 -302.0770082286602 -23.193523517964493 0.0 0.0
-742.6385867846705 -71.27855708585388 -390.79398217164936 -23.92420389429932 0.0 0.0
-828.8952919705655 -94.07438056481166 -457.5244429320879 -24.326282000998393 0.0 0.0
-906.5476304090816 -114.97632773437067 -509.3655299591886 -25.023899177510287 0.0 0.0
-977.8246349927135 -135.2008970509852 -555.6840159898536 -25.816751630372664 0.0 0.0
-1046.2594312353626 -157.3032721265205 -601.1014134214513 -26.189739515113857 0.0 0.0
-1114.2763172304262 -182.88388356635727 -647.9340832363371 -26.139097616356192 0.0 0.0
-1181.1863284730825 -211.81031510796038 -695.8786089039135 -25.78390421919626 0.0 0.0
-1243.5228892285097 -238.71647098633002 -740.5350324752039 -25.24614625516924 0.0 0.0
-1294.3292009794693 -257.08078170983447 -775.1762971560643 -24.32695962396739 0.0 0.0
-1327.4473707367156 -260.82874669620156 -793.6804128580925 -22.57153054926105 0.0 0.0
-1340.6442998601656 -248.25066397527257 -794.0253899007884 -20.046297064157645 0.0 0.0
-1330.6742496815418 -217.37270603693975 -773.7385714513819 -19.35032182785833 0.0 0.0
-1209.0493706774764 -82.94251535667573 -646.3547428267323 -27.505471818292595 0.0 0.0
-710.3850705855075 412.45739540528274 -149.61918059240656 -50.54766249658195 0.0 0.0
-3711.147067503496 -2621.2883824171768 -3160.1883189806326 1.2281908823297272e-10 0.0 0.0
-710.3850705852699 412.45739540547197 -149.6191805921561 50.547662496744096 0.0 0.0
-1209.049370677281 -82.94251535651246 -646.3547428266409 27.505471818261018 0.0 0.0
-1330.6742496815416 -217.37270603703968 -773.7385714514154 19.35032182787199 0.0 0.0
-1340.6442998594418 -248.25066397464283 -794.0253899003854 20.046297064102387 0.0 0.0
-1327.4473707370528 -260.8287466967058 -793.6804128583157 22.57153054927339 0.0 0.0
-1294.3292009801949 -257.08078171074897 -775.176297156491 24.326959623894435 0.0 0.0
-1243.52288922817 -238.7164709861774 -740.5350324750427 25.246146255335873 0.0 0.0
-1181.1863284739297 -211.81031510906314 -695.8786089045152 25.78390421926013 0.0 0.0
-1114.2763172291757 -182.88388356532684 -647.9340832354786 26.139097616248588 0.0 0.0
-1046.2594312349775 -157.30327212639818 -601.101413421185 26.189739515242593 0.0 0.0
-977.8246349924368 -135.20089705099548 -555.6840159896221 25.816751630231618 0.0 0.0
-906.5476304086189 -114.97632773418562 -509.3655299589083 25.023899177427218 0.0 0.0
-828.8952919706082 -94.07438056516602 -457.5244429320441 24.326282000988847 0.0 0.0
-742.6385867841593 -71.27855708569035 -390.7939821712015 23.924203894224675 0.0 0.0
-651.6440531807868 -52.59525550869934 -302.0770082275545 23.193523517960585 0.0 0.0
-532.0010419863656 -31.26217187302647 -194.76007467443557 23.431671654571346 0.0 0.0
-361.2038896153938 -8.215367819258656 -111.14409832819277 32.13695335027103 0.0 0.0
-199.55725728451205 -1.0889219079671677 -60.19385375774377 34.131430948471916 0.0 0.0
-84.58592182720982 -17.214582556849194 -30.540151315217695 24.079396836619548 0.0 0.0
-33.274133963984944 -11.208194226510619 -13.344698457148668 14.139450954486446 0.0 0.0
-21.880249202662956 -5.7489312330008815 -8.28875413069915 -8.632248966424985 0.0 0.0
-73.85737421971635 -9.85441966709033 -25.113538166041998 -10.009238292732139 0.0 0.0
-209.446566005804 -3.333928153322102 -63.83414824773782 -11.257916439998452 0.0 0.0
-406.95057943789 -26.905428860092602 -132.67426405059626 -7.487619494291473 0.0 0.0
-603.8922104278734 -79.32566177457836 -245.80125745878905 0.4270581738961923 0.0 0.0
-748.5841896578586 -131.63647192240475 -384.1845266441585 1.4317101676530797 0.0 0.0
-877.4297190726008 -190.98906429166257 -509.12930304849453 0.531416647912863 0.0 0.0
-1013.9413521670432 -265.52440759755154 -625.565974563525 -0.9995065377520937 0.0 0.0
-1158.4706676962312 -354.07663711802115 -744.662418696689 -2.72627763484161 0.0 0.0
-1319.781359881949 -464.04538953683436 -880.7030972333652 -4.568921995568012 0.0 0.0
-1503.9194837338646 -601.1865473607043 -1041.1158930452161 -6.285953387064321 0.0 0.0
-1711.1968390481534 -766.1211679243588 -1226.8160772768008 -7.62704013966191 0.0 0.0
-1935.2553054948949 -951.1495004419623 -1430.9447371278293 -8.517469788543131 0.0 0.0
-2165.1625359669642 -1145.1768134206004 -1642.5895463657712 -9.216072191624422 0.0 0.0
-2383.867800051148 -1331.0847125305063 -1844.6835283008102 -9.518844562111596 0.0 0.0
-2568.088196705974 -1485.8482544779345 -2014.102060007785 -9.126368368465048 0.0 0.0
-2691.004069685209 -1583.3357662060146 -2124.3095363285343 -7.67780501147168 0.0 0.0
-2742.4909122970857 -1614.216913806085 -2165.1195021993826 -6.307293221226939 0.0 0.0
-2805.470680842909 -1662.777464957461 -2219.4643744758914 -13.225316318190808 0.0 0.0
-2897.0647527487454 -1753.007161739089 -2307.9904017995214 -40.399017075756845 0.0 0.0
-6425.773831478531 -5307.99268778941 -5843.02801807739 1.1327472293487517e-10 0.0 0.0
-2897.06475274902 -1753.0071617394228 -2307.9904017994954 40.39901707586676 0.0 0.0
-2805.4706808430838 -1662.7774649577045 -2219.464374475634 13.225316318158548 0.0 0.0
-2742.4909122970466 -1614.216913806155 -2165.1195021992035 6.307293221247814 0.0 0.0
-2691.0040696844044 -1583.3357662053452 -2124.3095363278453 7.677805011467115 0.0 0.0
-2568.0881967042433 -1485.848254476335 -2014.1020600063016 9.126368368472608 0.0 0.0
-2383.8678000498585 -1331.0847125294097 -1844.6835282994925 9.518844561994776 0.0 0.0
-2165.162535966196 -1145.176813420013 -1642.5895463650413 9.216072191783091 0.0 0.0
-1935.2553054940877 -951.1495004413715 -1430.9447371270703 8.517469788527208 0.0 0.0
-1711.1968390466527 -766.1211679231179 -1226.8160772755596 7.627040139436801 0.0 0.0
-1503.9194837331859 -601.1865473603033 -1041.1158930445029 6.285953387298456 0.0 0.0
-1319.7813598808295 -464.0453895359828 -880.7030972324803 4.568921995398711 0.0 0.0
-1158.4706676952976 -354.0766371173994 -744.6624186959614 2.726277634743475 0.0 0.0
-1013.941352167006 -265.5244075978459 -625.565974563326 0.9995065377600163 0.0 0.0
-877.4297190714481 -190.98906429082422 -509.1293030476086 -0.5314166478979843 0.0 0.0
-748.5841896560696 -131.6364719208347 -384.1845266428121 -1.4317101675444803 0.0 0.0
-603.8922104275746 -79.32566177470116 -245.80125745846755 -0.4270581739636441 0.0 0.0
-406.9505794374593 -26.90542886008594 -132.67426405043506 7.487619494572471 0.0 0.0
-209.44656600529652 -3.3339281525945204 -63.8341482473673 11.257916440246452 0.0 0.0
-73.85737421975747 -9.854419667221606 -25.11353816609372 10.00923829255048 0.0 0.0
-21.880249202687494 -5.748931232950112 -8.288754130691279 8.632248966310222 0.0 0.0
SCALARS Strain float 6
LOOKUP_TABLE default
0.015043473841498897 -0.02490160129159378 0.0 -0.001546213421969895 0.0 0.0
0.009249241353923323 -0.0028556588566613856 0.0 -0.00753291717977494 0.0 0.0
0.0027231626760458407 -0.0006284905070697086 0.0 -0.0009228838124018444 0.0 0.0
0.0023021484575228394 -0.0009140712791695152 0.0 1.940249215054862e-05 0.0 0.0
0.0034719286169644275 -0.0015440378915217343 0.0 0.00021487816584039377 0.0 0.0
0.006036138343075556 -0.0034977590105520536 0.0 0.0003867111478977951 0.0 0.0
0.0104902445759672 -0.0073298916654442 0.0 0.0005105321640059505 0.0 0.0
0.017219148212024762 -0.013410972941467161 0.0 0.0005515948174624366 0.0 0.0
0.026521161767837247 -0.022006982228701392 0.0 0.0005063606386110531 0.0 0.0
0.03849965204699202 -0.0331651355388542 0.0 0.00034195270286165356 0.0 0.0
0.053059118480674294 -0.04675464226875624 0.0 9.051389790753486e-05 0.0 0.0
0.06998570392804337 -0.06255988939973688 0.0 -0.00023609177799786937 0.0 0.0
0.08901616942043829 -0.08035447567654837 0.0 -0.000652726198779166 0.0 0.0
0.10986837785038656 -0.09990178975739838 0.0 -0.0011137188778576473 0.0 0.0
0.13216690424463215 -0.12088460430364911 0.0 -0.001642743145848097 0.0 0.0
0.15529759900594586 -0.142755390787204 0.0 -0.0022127527733918437 0.0 0.0
0.17831414548010344 -0.16463654394297125 0.0 -0.002707194447471027 0.0 0.0
0.1999404691288031 -0.18531973295872967 0.0 -0.0029400586157586144 0.0 0.0
0.21869345672667873 -0.203330560819316 0.0 -0.0027619292166973577 0.0 0.0
0.23273974539119452 -0.2169213299090504 0.0 -0.0032790619992757834 0.0 0.0
0.23832038961563473 -0.22255739734281116 0.0 3.0548480411951573e-15 0.0 0.0
0.23273974539116193 -0.21692132990903268 0.0 0.003279061999283666 0.0 0.0
0.21869345672661217 -0.20333056081925382 0.0 0.0027619292167074504 0.0 0.0
0.19994046912870891 -0.1853197329586487 0.0 0.0029400586157620912 0.0 0.0
0.17831414547999314 -0.16463654394286267 0.0 0.002707194447470968 0.0 0.0
0.15529759900583032 -0.14275539078709037 0.0 0.0022127527733854565 0.0 0.0
0.13216690424451558 -0.12088460430353093 0.0 0.0016427431458489296 0.0 0.0
0.10986837785027145 -0.09990178975728975 0.0 0.0011137188778584904 0.0 0.0
0.08901616942032688 -0.08035447567644324 0.0 0.0006527261987785598 0.0 0.0
0.06998570392794022 -0.06255988939964 0.0 0.0002360917779945593 0.0 0.0
0.053059118480584255 -0.04675464226867339 0.0 -9.05138979169235e-05 0.0 0.0
0.0384996520469191 -0.03316513553878139 0.0 -0.00034195270286400004 0.0 0.0
0.026521161767782388 -0.022006982228651484 0.0 -0.0005063606386112648 0.0 0.0
0.017219148211985513 -0.013410972941428137 0.0 -0.0005515948174658305 0.0 0.0
0.010490244575941393 -0.007329891665417651 0.0 -0.0005105321640052471 0.0 0.0
0.006036138343061561 -0.003497759010541504 0.0 -0.0003867111478944147 0.0 0.0
0.0034719286169591313 -0.001544037891516009 0.0 -0.0002148781658395932 0.0 0.0
0.0023021484575212934 -0.0009140712791698615 0.0 -1.9402492152013616e-05 0.0 0.0
0.0027231626760433605 -0.00062849050706946 0.0 0.00092288381240005 0.0 0.0
0.00924924135391748 -0.002855658856657653 0.0 0.007532917179765664 0.0 0.0
0.015043473841491291 -0.024901601291568595 0.0 0.0015462134219181843 0.0 0.0
0.010575877585856791 -0.022364880615965855 0.0 -0.001078007999356839 0.0 0.0
0.006183265854450721 -0.0021404712202800647 0.0 -0.0061916870724148575 0.0 0.0
0.001775784975009922 -0.0004740840282690405 0.0 -0.000581637809269635 0.0 0.0
0.0020219599286713454 -0.0008586455451128929 0.0 -0.0001876622329580603 0.0 0.0
0.002976682474632218 -0.0013832596439216983 0.0 -0.0001477813755739153 0.0 0.0
0.00515945527036196 -0.003132522581060315 0.0 -0.0002426891365948404 0.0 0.0
0.009122804916200218 -0.006703766476919266 0.0 -0.0005787669128928669 0.0 0.0
0.015226977626351324 -0.012464683186733423 0.0 -0.0011181467635869343 0.0 0.0
0.023711508024682706 -0.020649531506761354 0.0 -0.0018809903448668615 0.0 0.0
0.034611389251204445 -0.03127059957339422 0.0 -0.002836013273423902 0.0 0.0
0.04779523196414351 -0.044178450278021246 0.0 -0.003890316962024456 0.0 0.0
0.06306211006204235 -0.0591607851403554 0.0 -0.00496898128048167 0.0 0.0
0.08021187076272684 -0.0760182523731954 0.0 -0.0060741287249838185 0.0 0.0
0.09901989632864218 -0.09454758513376164 0.0 -0.007207399265664583 0.0 0.0
0.11915990754303941 -0.11445377725598549 0.0 -0.008331234189466559 0.0 0.0
0.14010026421207772 -0.13523167447063972 0.0 -0.009338298438987914 0.0 0.0
0.1610145465814222 -0.1560705969534908 0.0 -0.009972957429268212 0.0 0.0
0.18076873620005354 -0.17583290582316438 0.0 -0.009893921143652746 0.0 0.0
0.19788247139558113 -0.19306856473615036 0.0 -0.008951504569467139 0.0 0.0
0.21016754025905762 -0.20583961477536922 0.0 -0.007997602126244016 0.0 0.0
0.21476569512508606 -0.2111860823468145 0.0 8.129781570165306e-15 0.0 0.0
0.21016754025902668 -0.2058396147753366 0.0 0.007997602126265477 0.0 0.0
0.19788247139552145 -0.19306856473608794 0.0 0.008951504569490867 0.0 0.0
0.18076873619997136 -0.17583290582308492 0.0 0.009893921143664539 0.0 0.0
0.16101454658132552 -0.1560705969533892 0.0 0.009972957429272282 0.0 0.0
0.14010026421197444 -0.1352316744705344 0.0 0.009338298438983879 0.0 0.0
0.11915990754293365 -0.11445377725587425 0.0 0.00833123418946458 0.0 0.0
0.09901989632853835 -0.09454758513365853 0.0 0.007207399265661374 0.0 0.0
0.08021187076262655 -0.07601825237309899 0.0 0.006074128724977448 0.0 0.0
0.06306211006194862 -0.05916078514026313 0.0 0.004968981280473633 0.0 0.0
0.047795231964062226 -0.04417845027794086 0.0 0.0038903169620117966 0.0 0.0
0.034611389251138644 -0.03127059957332641 0.0 0.0028360132734170746 0.0 0.0
0.023711508024632358 -0.02064953150671333 0.0 0.001880990344861874 0.0 0.0
0.015226977626315669 -0.01246468318669828 0.0 0.0011181467635829798 0.0 0.0
0.009122804916177809 -0.006703766476897211 0.0 0.0005787669128907149 0.0 0.0
0.005159455270350193 -0.0031325225810492968 0.0 0.0002426891365952242 0.0 0.0
0.0029766824746278956 -0.001383259643916672 0.0 0.00014778137557498123 0.0 0.0
0.002021959928670554 -0.0008586455451124244 0.0 0.00018766223295829453 0.0 0.0
0.001775784975009927 -0.00047408402827052475 0.0 0.0005816378092690089 0.0 0.0
0.00618326585444358 -0.002140471220275789 0.0 0.006191687072402272 0.0 0.0
0.010575877585842438 -0.02236488061593969 0.0 0.0010780079993156565 0.0 0.0
0.00778346705292199 -0.01789496279925141 0.0 -0.004188765518762976 0.0 0.0
0.00440274729049459 -0.0011990560618296057 0.0 -0.00629454608976416 0.0 0.0
0.0012284791336373006 -0.00024716059700080064 0.0 -0.000516883946608521 0.0 0.0
0.0017072098670854218 -0.0007241285912290619 0.0 -0.00047915273931730523 0.0 0.0
0.002528049517124875 -0.0011043350384376987 0.0 -0.0004968662958227526 0.0 0.0
0.004330160007512646 -0.002444497519014898 0.0 -0.0006778984609499853 0.0 0.0
0.007773131081960899 -0.005473062669047304 0.0 -0.0013210676717405783 0.0 0.0
0.013217823709860398 -0.01057696882007229 0.0 -0.002362592465236566 0.0 0.0
0.020839503478869138 -0.017915947173286838 0.0 -0.003816940508908292 0.0 0.0
0.030626024963287743 -0.027447179817505992 0.0 -0.00559130966945085 0.0 0.0
0.04241924498380466 -0.03898367693185934 0.0 -0.00751673242223245 0.0 0.0
0.05602672160749703 -0.052321447771314276 0.0 -0.009444875854493712 0.0 0.0
0.07128394610928836 -0.06730291211647647 0.0 -0.011351497634328134 0.0 0.0
0.08802688332354944 -0.08378393661485253 0.0 -0.013289955017869419 0.0 0.0
0.10599562611613117 -0.10152826561220059 0.0 -0.015216641622747717 0.0 0.0
0.12474957209434372 -0.120119268820299 0.0 -0.016919384257226066 0.0 0.0
0.14359980838082334 -0.13888300519893776 0.0 -0.017989685783386184 0.0 0.0
0.16152346439039816 -0.15681888213665476 0.0 -0.01792916245613358 0.0 0.0
0.17702196727868913 -0.17250352774771413 0.0 -0.016477729571774215 0.0 0.0
0.18815517906041634 -0.1839273044615371 0.0 -0.013721463442718976 0.0 0.0
0.19236859341530435 -0.18900904957205344 0.0 1.91400714721901e-14 0.0 0.0
0.18815517906038814 -0.18392730446151048 0.0 0.013721463442759003 0.0 0.0
0.1770219672786359 -0.17250352774765526 0.0 0.016477729571813343 0.0 0.0
0.16152346439032655 -0.15681888213658274 0.0 0.01792916245615595 0.0 0.0
0.14359980838073877 -0.13888300519885163 0.0 0.01798968578339035 0.0 0.0
0.12474957209425161 -0.12011926882021018 0.0 0.016919384257219283 0.0 0.0
0.10599562611603644 -0.1015282656121021 0.0 0.015216641622745015 0.0 0.0
0.08802688332345655 -0.08378393661476127 0.0 0.01328995501786085 0.0 0.0
0.07128394610919965 -0.06730291211639226 0.0 0.011351497634318464 0.0 0.0
0.056026721607414134 -0.05232144777123027 0.0 0.009444875854478405 0.0 0.0
0.04241924498373195 -0.038983676931785866 0.0 0.0075167324222157345 0.0 0.0
0.030626024963228603 -0.027447179817451317 0.0 0.005591309669439324 0.0 0.0
0.02083950347882433 -0.017915947173241537 0.0 0.0038169405088999747 0.0 0.0
0.013217823709829024 -0.01057696882004294 0.0 0.002362592465230355 0.0 0.0
0.007773131081941734 -0.005473062669030178 0.0 0.0013210676717357569 0.0 0.0
0.004330160007503468 -0.002444497519005775 0.0 0.0006778984609482318 0.0 0.0
0.0025280495171215913 -0.0011043350384340267 0.0 0.00049686629582231 0.0 0.0
0.0017072098670847628 -0.0007241285912275318 0.0 0.0004791527393175495 0.0 0.0
0.0012284791336374253 -0.0002471605970017717 0.0 0.0005168839466081091 0.0 0.0
0.0044027472904876255 -0.0011990560618255373 0.0 0.006294546089748629 0.0 0.0
0.007783467052908061 -0.017894962799225145 0.0 0.0041887655187361865 0.0 0.0
0.0059008994434340215 -0.01443984619226418 0.0 -0.004628695296228426 0.0 0.0
0.0032613899159150126 -0.0008632118879347048 0.0 -0.005746574637687114 0.0 0.0
0.0008717962552777512 -0.00013733216079961597 0.0 -0.0007975298176263276 0.0 0.0
0.0014043782085488839 -0.0005720206555012236 0.0 -0.0007762150594651231 0.0 0.0
0.0021203847967069455 -0.0008910102707533687 0.0 -0.0008285267731326726 0.0 0.0
0.0035672680045217703 -0.0018605055302205148 0.0 -0.0010456048605962144 0.0 0.0
0.006464609815506222 -0.004306033871915466 0.0 -0.0018211567552007518 0.0 0.0
0.011211820863373021 -0.008709241794665527 0.0 -0.0032642275074740122 0.0 0.0
0.01793637887480902 -0.01516358891604246 0.0 -0.005239904923301378 0.0 0.0
0.02658164419024337 -0.023574297455242584 0.0 -0.007631161421145317 0.0 0.0
0.03696800871278082 -0.03372518190926697 0.0 -0.01020436157415562 0.0 0.0
0.04891057945283985 -0.04541560222776164 0.0 -0.012774609857042058 0.0 0.0
0.06227364310565109 -0.05851817601384915 0.0 -0.01530899887134881 0.0 0.0
0.07693523210878384 -0.07293598336891216 0.0 -0.017851846503870915 0.0 0.0
0.09271214622981784 -0.08849961006651619 0.0 -0.020361695726040695 0.0 0.0
0.10927326778556556 -0.10489290752412167 0.0 -0.022606064710122963 0.0 0.0
0.126056052450247 -0.1215806798218457 0.0 -0.024107628586554432 0.0 0.0
0.14215478543774432 -0.137696314332304 0.0 -0.024262718829734502 0.0 0.0
0.15621714819686977 -0.15190581225422198 0.0 -0.022454212444964112 0.0 0.0
0.16657666077404207 -0.16245568401260718 0.0 -0.01776531667588767 0.0 0.0
0.1706128171643812 -0.16770536366183686 0.0 2.4495162842530505e-14 0.0 0.0
0.1665766607740159 -0.16245568401259008 0.0 0.017765316675940883 0.0 0.0
0.15621714819682264 -0.15190581225417485 0.0 0.022454212445017503 0.0 0.0
0.14215478543768142 -0.1376963143322391 0.0 0.024262718829764815 0.0 0.0
0.12605605245017323 -0.12158067982176979 0.0 0.0241076285865595 0.0 0.0
0.10927326778548546 -0.10489290752404354 0.0 0.02260606471011293 0.0 0.0
0.09271214622973484 -0.08849961006643435 0.0 0.020361695726033274 0.0 0.0
0.07693523210870232 -0.07293598336883528 0.0 0.017851846503859844 0.0 0.0
0.06227364310557404 -0.058518176013773765 0.0 0.015308998871335733 0.0 0.0
0.048910579452768124 -0.04541560222768814 0.0 0.01277460985702088 0.0 0.0
0.03696800871271784 -0.03372518190920332 0.0 0.010204361574135335 0.0 0.0
0.026581644190191357 -0.023574297455196774 0.0 0.007631161421126584 0.0 0.0
0.01793637887476892 -0.015163588916001874 0.0 0.00523990492329293 0.0 0.0
0.011211820863345054 -0.008709241794637943 0.0 0.003264227507463956 0.0 0.0
0.006464609815489845 -0.004306033871900987 0.0 0.0018211567551961808 0.0 0.0
0.0035672680045146033 -0.0018605055302145846 0.0 0.0010456048605935872 0.0 0.0
0.0021203847967044753 -0.0008910102707483131 0.0 0.0008285267731311433 0.0 0.0
0.001404378208548715 -0.000572020655501504 0.0 0.0007762150594669738 0.0 0.0
0.0008717962552778415 -0.00013733216080055591 0.0 0.0007975298176243436 0.0 0.0
0.0032613899159080906 -0.0008632118879310561 0.0 0.005746574637672649 0.0 0.0
0.005900899443420936 -0.014439846192240315 0.0 0.0046286952962095295 0.0 0.0
0.00448936153921864 -0.011655640553967865 0.0 -0.004108314696359178 0.0 0.0
0.0024472574244597334 -0.0006838653653114828 0.0 -0.005123011933231717 0.0 0.0
0.0006319403161505569 -8.626968807654755e-05 0.0 -0.0011951434568051272 0.0 0.0
0.0011332639542466138 -0.0004345669226206705 0.0 -0.0010984874988649107 0.0 0.0
0.0017500517672352184 -0.0007186522959904222 0.0 -0.0011560857145809663 0.0 0.0
0.0028845269590919756 -0.0013943980594227703 0.0 -0.0013651262369872622 0.0 0.0
0.005224861137584886 -0.00325021536159845 0.0 -0.0021539275752087547 0.0 0.0
0.009233476754688021 -0.00688849256120432 0.0 -0.0037855335118713567 0.0 0.0
0.015034631167338473 -0.012426620835320382 0.0 -0.006140775163867178 0.0 0.0
0.0225138689309329 -0.01969132718382054 0.0 -0.008950543483946985 0.0 0.0
0.03147997046885321 -0.0284426447879979 0.0 -0.01195994051557421 0.0 0.0
0.04174929670899985 -0.0384794596130366 0.0 -0.014961592593116427 0.0 0.0
0.05321115052717088 -0.04969945633069946 0.0 -0.01792458238200736 0.0 0.0
0.06579104365927962 -0.06204897528094391 0.0 -0.02088848253246113 0.0 0.0
0.07936410486008645 -0.07542055106911488 0.0 -0.023787163492502844 0.0 0.0
0.09369826034699551 -0.08959139116157203 0.0 -0.0263859267227398 0.0 0.0
0.10837682486293414 -0.10416297834440903 0.0 -0.028260356032679176 0.0 0.0
0.12266500103547376 -0.1184379611946634 0.0 -0.028745432109276284 0.0 0.0
0.13543106106953193 -0.13130306883786474 0.0 -0.026761475076450145 0.0 0.0
0.14525201330320944 -0.1412702247206948 0.0 -0.020815814718953815 0.0 0.0
0.1492374642617578 -0.14689211824292694 0.0 2.808343835258853e-14 0.0 0.0
0.14525201330318574 -0.14127022472067075 0.0 0.020815814719014843 0.0 0.0
0.13543106106949024 -0.13130306883782436 0.0 0.026761475076510423 0.0 0.0
0.12266500103541922 -0.11843796119460534 0.0 0.028745432109311138 0.0 0.0
0.10837682486287066 -0.10416297834434404 0.0 0.028260356032687034 0.0 0.0
0.09369826034692576 -0.0895913911614972 0.0 0.02638592672272875 0.0 0.0
0.07936410486001472 -0.07542055106904268 0.0 0.023787163492489483 0.0 0.0
0.06579104365920979 -0.0620489752808774 0.0 0.02088848253245134 0.0 0.0
0.053211150527104525 -0.04969945633063405 0.0 0.01792458238199365 0.0 0.0
0.04174929670893835 -0.038479459612979584 0.0 0.014961592593096096 0.0 0.0
0.03147997046879921 -0.028442644787947224 0.0 0.011959940515551952 0.0 0.0
0.022513868930888695 -0.019691327183778466 0.0 0.008950543483925268 0.0 0.0
0.015034631167304267 -0.01242662083529053 0.0 0.00614077516385278 0.0 0.0
0.009233476754664176 -0.006888492561182839 0.0 0.003785533511858997 0.0 0.0
0.0052248611375715105 -0.0032502153615870167 0.0 0.002153927575203831 0.0 0.0
0.0028845269590866704 -0.0013943980594178587 0.0 0.0013651262369859425 0.0 0.0
0.0017500517672339225 -0.00071865229598636 0.0 0.0011560857145771746 0.0 0.0
0.0011332639542462812 -0.00043456692262220894 0.0 0.0010984874988649732 0.0 0.0
0.0006319403161503078 -8.626968807694304e-05 0.0 0.0011951434568023762 0.0 0.0
0.0024472574244540977 -0.0006838653653087113 0.0 0.005123011933218578 0.0 0.0
0.0044893615392077235 -0.011655640553947026 0.0 0.004108314696345059 0.0 0.0
0.003377807290224317 -0.009329524743188001 0.0 -0.0033970691530476787 0.0 0.0
0.0018287162302429404 -0.0005601265932152365 0.0 -0.004516782212799146 0.0 0.0
0.00046110231536416156 -7.062684525414762e-05 0.0 -0.00157657410331684 0.0 0.0
0.0008902862679829936 -0.00031314756097721266 0.0 -0.0014220532531035032 0.0 0.0
0.0014134479578596225 -0.0005748310027181183 0.0 -0.0014810390753402939 0.0 0.0
0.0022791863293619586 -0.0010330080095774425 0.0 -0.0016507425508196073 0.0 0.0
0.004087644612348149 -0.0023468454131442625 0.0 -0.00239344450370433 0.0 0.0
0.007324940374780341 -0.0051745364721653385 0.0 -0.003991177535122156 0.0 0.0
0.012158678904788731 -0.009739633172916666 0.0 -0.006494469658437023 0.0 0.0
0.018458071339182813 -0.015837129525229064 0.0 -0.009541160621475087 0.0 0.0
0.0259908772998461 -0.023175818462305094 0.0 -0.012777837468051336 0.0 0.0
0.03458152195309273 -0.03155365918447563 0.0 -0.01600491418462914 0.0 0.0
0.04413924025133839 -0.040888025914921314 0.0 -0.019187068545136726 0.0 0.0
0.054628492546784944 -0.05116552809473528 0.0 -0.022365727149263118 0.0 0.0
0.06599110841028279 -0.0623384316432604 0.0 -0.02547448695017302 0.0 0.0
0.07807413942997996 -0.0742623209308495 0.0 -0.028269077194402102 0.0 0.0
0.09058788043947981 -0.08665698426973655 0.0 -0.030386190774042254 0.0 0.0
0.10303481354109709 -0.09904398119169168 0.0 -0.031207120952013244 0.0 0.0
0.11457445577833728 -0.1106262062528868 0.0 -0.029415561569683644 0.0 0.0
0.12400925706017721 -0.12018471166911698 0.0 -0.02302594884816769 0.0 0.0
0.1280321709158455 -0.1263414049477412 0.0 2.765496165402226e-14 0.0 0.0
0.12400925706015611 -0.12018471166908837 0.0 0.02302594884823414 0.0 0.0
0.11457445577830111 -0.11062620625285603 0.0 0.029415561569748318 0.0 0.0
0.10303481354105128 -0.09904398119164545 0.0 0.031207120952051026 0.0 0.0
0.09058788043942602 -0.08665698426967904 0.0 0.030386190774050074 0.0 0.0
0.07807413942992052 -0.07426232093078794 0.0 0.028269077194391187 0.0 0.0
0.06599110841022301 -0.06233843164320067 0.0 0.02547448695015943 0.0 0.0
0.05462849254672739 -0.05116552809467572 0.0 0.022365727149252133 0.0 0.0
0.04413924025128359 -0.04088802591486643 0.0 0.019187068545121935 0.0 0.0
0.03458152195304136 -0.03155365918442931 0.0 0.016004914184609354 0.0 0.0
0.025990877299800857 -0.02317581846226192 0.0 0.012777837468025322 0.0 0.0
0.01845807133914561 -0.01583712952519153 0.0 0.009541160621453729 0.0 0.0
0.012158678904760144 -0.00973963317289277 0.0 0.006494469658420684 0.0 0.0
0.00732494037476155 -0.005174536472148268 0.0 0.003991177535112207 0.0 0.0
0.004087644612338273 -0.0023468454131381107 0.0 0.0023934445036995653 0.0 0.0
0.0022791863293577393 -0.0010330080095738979 0.0 0.001650742550817516 0.0 0.0
0.001413447957858699 -0.0005748310027202985 0.0 0.0014810390753379355 0.0 0.0
0.0008902862679829118 -0.00031314756097722203 0.0 0.0014220532531006465 0.0 0.0
0.00046110231536370376 -7.062684525250117e-05 0.0 0.0015765741033145898 0.0 0.0
0.0018287162302387519 -0.0005601265932136008 0.0 0.00451678221278922 0.0 0.0
0.0033778072902162304 -0.009329524743170592 0.0 0.003397069153038975 0.0 0.0
0.0024911116052969513 -0.007361812123503425 0.0 -0.002741382562619655 0.0 0.0
0.0013449906971209416 -0.00046402651734757643 0.0 -0.003967146967997392 0.0 0.0
0.00032910343614492055 -6.933000948810164e-05 0.0 -0.0018917694487707512 0.0 0.0
0.0006665216359968522 -0.0002055604120748342 0.0 -0.001720702068505179 0.0 0.0
0.0011009279218050646 -0.0004428231082668119 0.0 -0.0017837649405055191 0.0 0.0
0.0017423415094086111 -0.0007580521867099078 0.0 -0.0019315048819131737 0.0 0.0
0.0030614407593597226 -0.0016085623900147885 0.0 -0.002540276543286281 0.0 0.0
0.005535356810409304 -0.0036376600865111906 0.0 -0.003991710882841234 0.0 0.0
0.00936147271757182 -0.00716617449662893 0.0 -0.006348273472688701 0.0 0.0
0.014446066221800918 -0.012054466331356801 0.0 -0.009378074884303741 0.0 0.0
0.020538168896464537 -0.017966706202148845 0.0 -0.012640938314247676 0.0 0.0
0.02744455981794783 -0.02468061708845885 0.0 -0.015892289898344306 0.0 0.0
0.03509647856533362 -0.03213053832544228 0.0 -0.019084784160321402 0.0 0.0
0.043494829870718794 -0.040334084353504364 0.0 -0.022267837471168065 0.0 0.0
0.05263413392787573 -0.049298817015826474 0.0 -0.025387868398952934 0.0 0.0
0.062437015493336995 -0.058955093756078034 0.0 -0.0282224130922709 0.0 0.0
0.07273334788667997 -0.06911658338835203 0.0 -0.030424877327694944 0.0 0.0
0.08325994678955062 -0.07952479900039873 0.0 -0.0315362282513846 0.0 0.0
0.09353915727984874 -0.089777842072819 0.0 -0.030310624292473116 0.0 0.0
0.10266216835680458 -0.09900381445324602 0.0 -0.024380226645205824 0.0 0.0
0.10678802001872088 -0.10584643525933958 0.0 2.6634076888409908e-14 0.0 0.0
0.10266216835678685 -0.0990038144532262 0.0 0.024380226645268906 0.0 0.0
0.09353915727981854 -0.08977784207279996 0.0 0.030310624292535296 0.0 0.0
0.08325994678951304 -0.0795247990003597 0.0 0.03153622825142428 0.0 0.0
0.0727333478866365 -0.0691165833883032 0.0 0.0304248773277001 0.0 0.0
0.06243701549328873 -0.05895509375603694 0.0 0.028222413092259084 0.0 0.0
0.05263413392782708 -0.04929881701578183 0.0 0.02538786839893952 0.0 0.0
0.043494829870673435 -0.04033408435346357 0.0 0.022267837471156366 0.0 0.0
0.035096478565291 -0.03213053832539633 0.0 0.019084784160305294 0.0 0.0
0.02744455981790711 -0.024680617088414753 0.0 0.01589228989832315 0.0 0.0
0.02053816889642849 -0.01796670620211348 0.0 0.01264093831422094 0.0 0.0
0.014446066221771529 -0.012054466331326456 0.0 0.009378074884280774 0.0 0.0
0.0093614727175493 -0.007166174496609291 0.0 0.006348273472672547 0.0 0.0
0.005535356810395039 -0.0036376600864993737 0.0 0.003991710882831317 0.0 0.0
0.0030614407593525456 -0.0016085623900090444 0.0 0.0025402765432814096 0.0 0.0
0.0017423415094058798 -0.0007580521867108394 0.0 0.0019315048819088954 0.0 0.0
0.001100927921804386 -0.0004428231082691652 0.0 0.001783764940506033 0.0 0.0
0.0006665216359969924 -0.0002055604120761788 0.0 0.0017207020685024092 0.0 0.0
0.0003291034361448672 -6.933000948601632e-05 0.0 0.0018917694487681192 0.0 0.0
0.001344990697117316 -0.00046402651734673005 0.0 0.003967146967989754 0.0 0.0
0.0024911116052902965 -0.007361812123489225 0.0 0.0027413825626133783 0.0 0.0
0.0017841688530140128 -0.005703759217871373 0.0 -0.0022263702027122347 0.0 0.0
0.0009608915923766266 -0.00039058198290360874 0.0 -0.0034719938887136357 0.0 0.0
0.00021608237019435592 -6.636465196517835e-05 0.0 -0.0021304260187325844 0.0 0.0
0.00045385848647974604 -0.00010940142057649101 0.0 -0.0019764238865179634 0.0 0.0
0.0007997082410012156 -0.000308879678412784 0.0 -0.0020423494238683607 0.0 0.0
0.0012652914695384112 -0.000542276366719047 0.0 -0.002210882574998834 0.0 0.0
0.002152028062013195 -0.0010380355899241658 0.0 -0.00264390828167875 0.0 0.0
0.0038903390879063164 -0.0023266952983523664 0.0 -0.0038070885058576476 0.0 0.0
0.006703352773022599 -0.0047961870470153226 0.0 -0.005811150496772126 0.0 0.0
0.010531994653545929 -0.008414791196732213 0.0 -0.008500393293051637 0.0 0.0
0.015155205795895896 -0.012866759470021027 0.0 -0.011529845927262581 0.0 0.0
0.020376122161623596 -0.01791033052563774 0.0 -0.014588333718585674 0.0 0.0
0.026126310380888022 -0.023479630814784592 0.0 -0.01758967053963808 0.0 0.0
0.03242943494811766 -0.02961030940132859 0.0 -0.02056694428671663 0.0 0.0
0.03933504691417527 -0.036356033293637596 0.0 -0.023503168381201412 0.0 0.0
0.04683936119129856 -0.04372296723998037 0.0 -0.026210618598165997 0.0 0.0
0.05485929782036032 -0.05161321812585298 0.0 -0.028347051948708683 0.0 0.0
0.06334112655273454 -0.059921678435465225 0.0 -0.029583080954650436 0.0 0.0
0.07222248295825046 -0.06866700008368742 0.0 -0.02918852642042462 0.0 0.0
0.08100784499547718 -0.07750909030676259 0.0 -0.024724034864155437 0.0 0.0
0.08526933079357724 -0.08518630704961436 0.0 2.486118949596161e-14 0.0 0.0
0.08100784499546389 -0.07750909030674807 0.0 0.0247240348642171 0.0 0.0
0.07222248295822671 -0.06866700008366752 0.0 0.02918852642048609 0.0 0.0
0.06334112655270507 -0.05992167843543207 0.0 0.029583080954687084 0.0 0.0
0.05485929782032665 -0.05161321812582497 0.0 0.028347051948712412 0.0 0.0
0.046839361191261315 -0.043722967239948604 0.0 0.026210618598152144 0.0 0.0
0.03933504691413893 -0.03635603329360399 0.0 0.023503168381186716 0.0 0.0
0.03242943494808495 -0.02961030940129824 0.0 0.02056694428671043 0.0 0.0
0.02612631038085668 -0.02347963081474988 0.0 0.017589670539625454 0.0 0.0
0.02037612216159312 -0.01791033052560918 0.0 0.014588333718564779 0.0 0.0
0.015155205795868917 -0.012866759469995631 0.0 0.011529845927239626 0.0 0.0
0.010531994653524125 -0.00841479119670881 0.0 0.008500393293029686 0.0 0.0
0.006703352773006666 -0.004796187047003143 0.0 0.0058111504967594315 0.0 0.0
0.0038903390878964796 -0.0023266952983469 0.0 0.0038070885058501336 0.0 0.0
0.0021520280620085015 -0.0010380355899210678 0.0 0.0026439082816730516 0.0 0.0
0.0012652914695371502 -0.000542276366719058 0.0 0.0022108825749950836 0.0 0.0
0.0007997082410010015 -0.0003088796784135909 0.0 0.002042349423867368 0.0 0.0
0.0004538584864796738 -0.00010940142057833666 0.0 0.001976423886515524 0.0 0.0
0.00021608237019428021 -6.636465196373214e-05 0.0 0.002130426018728418 0.0 0.0
0.0009608915923739517 -0.0003905819829031936 0.0 0.0034719938887067788 0.0 0.0
0.0017841688530089094 -0.005703759217860004 0.0 0.0022263702027081 0.0 0.0
0.0012427924955370848 -0.004344885954145316 0.0 -0.001882361977278796 0.0 0.0
0.0006576553225342767 -0.00034133404891614804 0.0 -0.0030315482490861252 0.0 0.0
0.00010560026756388388 -5.0146272388645294e-05 0.0 -0.0022965369362506496 0.0 0.0
0.0002485995769630277 -2.205693489484816e-05 0.0 -0.0021785691494420945 0.0 0.0
0.0004998771151195502 -0.0001702458335629608 0.0 -0.0022441660356200964 0.0 0.0
0.0008233124601867601 -0.0003491162127073758 0.0 -0.0024595180914191825 0.0 0.0
0.001358569696049664 -0.000620168320110945 0.0 -0.002781844835031217 0.0 0.0
0.0024167574976059775 -0.0012897603534506963 0.0 -0.0035169387267958243 0.0 0.0
0.004230166317526953 -0.0027319872806007106 0.0 -0.004961487922449141 0.0 0.0
0.0067825156394657506 -0.005034213009191183 0.0 -0.007018024084773029 0.0 0.0
0.009900526884591124 -0.007970717156523859 0.0 -0.009488662896639674 0.0 0.0
0.013416381824819893 -0.011320713043077536 0.0 -0.01208299164495581 0.0 0.0
0.0172651351130655 -0.015006224944207239 0.0 -0.014693129300929036 0.0 0.0
0.021477567606621416 -0.019069626279255177 0.0 -0.017284642393798504 0.0 0.0
0.026134674909221226 -0.023585580180687522 0.0 -0.019840532854513898 0.0 0.0
0.03131451919387875 -0.02863239761393517 0.0 -0.022276375435446166 0.0 0.0
0.03703398453020412 -0.03422601985823295 0.0 -0.024297977499242986 0.0 0.0
0.043333698512641884 -0.040351381610540374 0.0 -0.025501296476000784 0.0 0.0
0.05052968039320656 -0.047279988872445965 0.0 -0.025695539863512737 0.0 0.0
0.05879812615727978 -0.05544596738707428 0.0 -0.023620797554502478 0.0 0.0
0.06317904463535895 -0.06407776112183601 0.0 2.3619994848900205e-14 0.0 0.0
0.05879812615727073 -0.05544596738706663 0.0 0.023620797554555283 0.0 0.0
0.05052968039318924 -0.047279988872437693 0.0 0.025695539863571995 0.0 0.0
0.043333698512620394 -0.04035138161051319 0.0 0.025501296476032914 0.0 0.0
0.037033984530180475 -0.03422601985821186 0.0 0.024297977499241317 0.0 0.0
0.031314519193853405 -0.02863239761391187 0.0 0.022276375435430023 0.0 0.0
0.026134674909197787 -0.023585580180665842 0.0 0.019840532854503056 0.0 0.0
0.02147756760660065 -0.019069626279233434 0.0 0.017284642393794167 0.0 0.0
0.017265135113045362 -0.015006224944191033 0.0 0.014693129300917741 0.0 0.0
0.013416381824800542 -0.011320713043061733 0.0 0.012082991644938168 0.0 0.0
0.009900526884573421 -0.007970717156503403 0.0 0.009488662896622629 0.0 0.0
0.006782515639451637 -0.005034213009175476 0.0 0.007018024084757789 0.0 0.0
0.004230166317516814 -0.0027319872805916185 0.0 0.00496148792244211 0.0 0.0
0.0024167574976000114 -0.0012897603534463666 0.0 0.0035169387267925704 0.0 0.0
0.0013585696960472513 -0.0006201683201109183 0.0 0.002781844835028093 0.0 0.0
0.0008233124601858954 -0.00034911621270638463 0.0 0.0024595180914168007 0.0 0.0
0.0004998771151192612 -0.00017024583356439906 0.0 0.002244166035617188 0.0 0.0
0.0002485995769631011 -2.205693489274923e-05 0.0 0.0021785691494412415 0.0 0.0
0.00010560026756381956 -5.0146272389528214e-05 0.0 0.002296536936248438 0.0 0.0
0.0006576553225326347 -0.0003413340489161503 0.0 0.0030315482490811127 0.0 0.0
0.0012427924955339836 -0.004344885954136927 0.0 0.0018823619772775795 0.0 0.0
0.0008524394705926202 -0.0032654856305316497 0.0 -0.0016646707845394144 0.0 0.0
0.00042369330553080486 -0.0003209877459858421 0.0 -0.002673336722231591 0.0 0.0
-9.809675415473056e-06 -1.50872889601442e-05 0.0 -0.002398033931364508 0.0 0.0
4.8150772347106346e-05 5.918504347175428e-05 0.0 -0.0023228444682689554 0.0 0.0
0.00019884704731717778 -3.059007757568615e-05 0.0 -0.0023881237523986775 0.0 0.0
0.0003905763096502354 -0.0001532129604246996 0.0 -0.0026301190698538156 0.0 0.0
0.0006564200746646547 -0.00029203351408139386 0.0 -0.0029463440082771776 0.0 0.0
0.0011318060719498623 -0.0005488879884088324 0.0 -0.003335353102724261 0.0 0.0
0.0019888726124974113 -0.001128028597016051 0.0 -0.004033091234392508 0.0 0.0
0.003260255649158978 -0.002144357021406515 0.0 -0.005213614106828207 0.0 0.0
0.004840739838019802 -0.003510670813288094 0.0 -0.006863186422561 0.0 0.0
0.00661834470227478 -0.0051160317352516435 0.0 -0.008809390762890426 0.0 0.0
0.00854832541231358 -0.006899794625496166 0.0 -0.010895600666376135 0.0 0.0
0.010670089955897213 -0.008890400033128434 0.0 -0.013053288790639187 0.0 0.0
0.013068494960017128 -0.011162428573137873 0.0 -0.015266088356172706 0.0 0.0
0.015879852358422302 -0.013842518855715495 0.0 -0.017496398394031346 0.0 0.0
0.019265226051231522 -0.017089456662022887 0.0 -0.019536075145700434 0.0 0.0
0.023356279506737493 -0.021037742818385805 0.0 -0.020857696702037493 0.0 0.0
0.028518229779999252 -0.025920554962566157 0.0 -0.021024825497281255 0.0 0.0
0.035753448581579604 -0.03268700305002606 0.0 -0.020650059762333594 0.0 0.0
0.04006186275521221 -0.04213900679266339 0.0 1.6781714906599632e-14 0.0 0.0
0.03575344858157515 -0.03268700305003028 0.0 0.020650059762373815 0.0 0.0
0.028518229779990592 -0.025920554962557393 0.0 0.021024825497328693 0.0 0.0
0.023356279506724687 -0.021037742818366977 0.0 0.02085769670206122 0.0 0.0
0.019265226051218536 -0.01708945666200942 0.0 0.019536075145692895 0.0 0.0
0.015879852358409878 -0.01384251885570599 0.0 0.01749639839401769 0.0 0.0
0.013068494960007167 -0.011162428573130727 0.0 0.015266088356164064 0.0 0.0
0.010670089955889547 -0.008890400033123165 0.0 0.013053288790632046 0.0 0.0
0.00854832541230508 -0.006899794625493144 0.0 0.010895600666367198 0.0 0.0
0.006618344702266434 -0.005116031735241423 0.0 0.008809390762876047 0.0 0.0
0.004840739838012471 -0.0035106708132807067 0.0 0.006863186422547704 0.0 0.0
0.0032602556491529216 -0.00214435702139805 0.0 0.005213614106819789 0.0 0.0
0.0019888726124933317 -0.0011280285970132085 0.0 0.004033091234389849 0.0 0.0
0.0011318060719471383 -0.0005488879884068668 0.0 0.003335353102723624 0.0 0.0
0.0006564200746633712 -0.00029203351407918935 0.0 0.0029463440082761177 0.0 0.0
0.00039057630965017763 -0.0001532129604276029 0.0 0.002630119069850448 0.0 0.0
0.000198847047317132 -3.059007757459479e-05 0.0 0.0023881237523950462 0.0 0.0
4.815077234696212e-05 5.9185043472740066e-05 0.0 0.002322844468269189 0.0 0.0
-9.809675415597968e-06 -1.5087288961609264e-05 0.0 0.0023980339313625656 0.0 0.0
0.0004236933055296847 -0.0003209877459867533 0.0 0.0026733367222267737 0.0 0.0
0.0008524394705906088 -0.0032654856305256033 0.0 0.0016646707845401106 0.0 0.0
0.0005769977760201525 -0.0024437264980236434 0.0 -0.0015395786474778858 0.0 0.0
0.00024348228377396336 -0.00031968704458245625 0.0 -0.002417634392285903 0.0 0.0
-0.00012824488539221035 3.339922500270818e-05 0.0 -0.0024428551705121824 0.0 0.0
-0.00014846806155542278 0.00013725170634029966 0.0 -0.0024066552977131416 0.0 0.0
-9.876373700627619e-05 0.00010665925558616375 0.0 -0.0024687734753852373 0.0 0.0
-4.653288461957064e-05 4.812095870223829e-05 0.0 -0.0027021007258585168 0.0 0.0
-1.7689863141875925e-05 1.268405832600802e-05 0.0 -0.0030367266514503633 0.0 0.0
-6.480035765466495e-06 3.894118442917678e-06 0.0 -0.0033123615230264015 0.0 0.0
-1.9472045314772313e-06 1.0017552971101467e-06 0.0 -0.0035871451426273864 0.0 0.0
-6.921154816906701e-09 -3.4352740137629434e-08 0.0 -0.004263844582006132 0.0 0.0
-1.7755654290297447e-06 6.597343975139067e-07 0.0 -0.005449923053410728 0.0 0.0
-1.3542751025199347e-05 1.2392823853886329e-05 0.0 -0.007068822032780846 0.0 0.0
-3.603973855706129e-05 3.482060454517485e-05 0.0 -0.008890310307421503 0.0 0.0
-4.057598837742108e-05 4.7380328841537304e-05 0.0 -0.01084929179332039 0.0 0.0
6.417484514741013e-05 -2.8355399331540798e-05 0.0 -0.012950652129685911 0.0 0.0
0.0004702603802853834 -0.00036423750781449586 0.0 -0.015171303823827805 0.0 0.0
0.00148825776938883 -0.0012420559940621858 0.0 -0.01741419210496342 0.0 0.0
0.003456606377011943 -0.003004260211326845 0.0 -0.019433440650354954 0.0 0.0
0.006591338921065541 -0.0057502598559912325 0.0 -0.02091818326433283 0.0 0.0
0.011949747115933485 -0.01016120748151572 0.0 -0.022122584175910554 0.0 0.0
0.015433360169906103 -0.020149458878326056 0.0 1.194183640862434e-14 0.0 0.0
0.011949747115932956 -0.010161207481515082 0.0 0.02212258417593997 0.0 0.0
0.006591338921063091 -0.0057502598559834766 0.0 0.020918183264353962 0.0 0.0
0.003456606377009651 -0.0030042602113207017 0.0 0.019433440650357167 0.0 0.0
0.0014882577693896637 -0.001242055994061905 0.0 0.01741419210495215 0.0 0.0
0.0004702603802874758 -0.0003642375078159088 0.0 0.015171303823817348 0.0 0.0
6.417484514953387e-05 -2.8355399336511974e-05 0.0 0.012950652129678324 0.0 0.0
-4.057598837391846e-05 4.738032883746027e-05 0.0 0.01084929179331088 0.0 0.0
-3.6039738552858815e-05 3.482060454227255e-05 0.0 0.008890310307409211 0.0 0.0
-1.3542751021268138e-05 1.2392823847847377e-05 0.0 0.007068822032768566 0.0 0.0
-1.7755654262979347e-06 6.597343916756677e-07 0.0 0.005449923053398798 0.0 0.0
-6.921153326182924e-09 -3.4352739303295204e-08 0.0 0.0042638445820007784 0.0 0.0
-1.9472045305208294e-06 1.0017552976463525e-06 0.0 0.0035871451426260446 0.0 0.0
-6.480035765032285e-06 3.894118441823346e-06 0.0 0.0033123615230237773 0.0 0.0
-1.7689863141788904e-05 1.268405832673656e-05 0.0 0.003036726651447598 0.0 0.0
-4.653288461917056e-05 4.812095870217881e-05 0.0 0.0027021007258558154 0.0 0.0
-9.876373700576976e-05 0.00010665925558504263 0.0 0.002468773475381519 0.0 0.0
-0.00014846806155524337 0.00013725170633948188 0.0 0.0024066552977124733 0.0 0.0
-0.0001282448853923948 3.339922500227896e-05 0.0 0.002442855170510329 0.0 0.0
0.0002434822837734855 -0.00031968704458261405 0.0 0.0024176343922838427 0.0 0.0
0.0005769977760196035 -0.0024437264980196856 0.0 0.0015395786474782535 0.0 0.0
0.00038610003011077196 -0.001847174999043594 0.0 -0.0014750949123264732 0.0 0.0
0.00010852106389627368 -0.0003135465185549851 0.0 -0.0022331364507410315 0.0 0.0
-0.0002420829016565873 8.373708812319788e-05 0.0 -0.002436698840556836 0.0 0.0
-0.00034009356857679754 0.00021371965032705704 0.0 -0.0024273006417736766 0.0 0.0
-0.0003902669774158756 0.00023892654264153103 0.0 -0.002476727183016574 0.0 0.0
-0.00048025263039588786 0.0002484139379150835 0.0 -0.002678409024440813 0.0 0.0
-0.0006914884752292213 0.0003183902767108647 0.0 -0.002977320593166317 0.0 0.0
-0.0011444336696329227 0.0005576431229630569 0.0 -0.003356022751492558 0.0 0.0
-0.001991541527445623 0.0011295527128994465 0.0 -0.004041357769259268 0.0 0.0
-0.003259371234322919 0.002143474069401554 0.0 -0.005213146013180926 0.0 0.0
-0.0048458234927580375 0.0035140127814258047 0.0 -0.006861518543591582 0.0 0.0
-0.006648244620502999 0.005142707211312006 0.0 -0.008814022751503614 0.0 0.0
-0.008619769925720123 0.0069699492415023 0.0 -0.010892104674386383 0.0 0.0
-0.01074388019569841 0.008982057697938098 0.0 -0.013033760865066612 0.0 0.0
-0.012926602107529037 0.011095799114119642 0.0 -0.015264284283430105 0.0 0.0
-0.014940986235836243 0.013095772585945045 0.0 -0.01764906408410582 0.0 0.0
-0.01640664527616152 0.014608383501021241 0.0 -0.020226535101809714 0.0 0.0
-0.01687679747122352 0.015152052130111743 0.0 -0.02311028584872539 0.0 0.0
-0.01586672441441792 0.014412646020606674 0.0 -0.026248546944621184 0.0 0.0
-0.011423365746593795 0.011207291528290053 0.0 -0.02780091976275074 0.0 0.0
-0.007922018451218586 0.00048744166045558814 0.0 1.4307999229856705e-14 0.0 0.0
-0.011423365746594336 0.011207291528292324 0.0 0.02780091976277902 0.0 0.0
-0.015866724414412378 0.014412646020593903 0.0 0.02624854694464175 0.0 0.0
-0.01687679747121111 0.015152052130101172 0.0 0.023110285848729012 0.0 0.0
-0.0164066452761452 0.014608383501007825 0.0 0.02022653510179833 0.0 0.0
-0.014940986235820353 0.013095772585929472 0.0 0.01764906408408842 0.0 0.0
-0.012926602107514335 0.01109579911411012 0.0 0.015264284283417022 0.0 0.0
-0.010743880195682846 0.008982057697921519 0.0 0.013033760865056091 0.0 0.0
-0.008619769925703506 0.006969949241489049 0.0 0.010892104674371036 0.0 0.0
-0.0066482446204867585 0.005142707211287481 0.0 0.008814022751487226 0.0 0.0
-0.004845823492744263 0.0035140127814161266 0.0 0.00686151854357368 0.0 0.0
-0.003259371234313144 0.002143474069386866 0.0 0.005213146013170758 0.0 0.0
-0.0019915415274400043 0.0011295527128989654 0.0 0.004041357769255833 0.0 0.0
-0.0011444336696298234 0.000557643122958177 0.0 0.003356022751488554 0.0 0.0
-0.0006914884752276661 0.00031839027670845996 0.0 0.0029773205931624483 0.0 0.0
-0.0004802526303952409 0.00024841393791835253 0.0 0.0026784090244369205 0.0 0.0
-0.00039026697741552385 0.00023892654263842457 0.0 0.0024767271830139805 0.0 0.0
-0.0003400935685766993 0.00021371965032894878 0.0 0.002427300641771425 0.0 0.0
-0.00024208290165648783 8.373708812329256e-05 0.0 0.0024366988405556396 0.0 0.0
0.00010852106389609332 -0.0003135465185548805 0.0 0.0022331364507403692 0.0 0.0
0.00038610003011015846 -0.0018471749990411975 0.0 0.0014750949123241105 0.0 0.0
0.00025788440412338076 -0.0013949043822066407 0.0 -0.0013860733660708232 0.0 0.0
9.195309409598036e-06 -0.0002907263926534622 0.0 -0.0020667547190400845 0.0 0.0
-0.0003480125438192091 0.00012966911078303624 0.0 -0.002380050592732428 0.0 0.0
-0.0005238909867703756 0.00028758208448877913 0.0 -0.0023838847659385385 0.0 0.0
-0.0006729108326625061 0.00036406780871935633 0.0 -0.002409608411790609 0.0 0.0
-0.0009047780122042734 0.0004417187417678647 0.0 -0.002556867534108308 0.0 0.0
-0.0013921876517681057 0.0006504298624683563 0.0 -0.002845116264235177 0.0 0.0
-0.002426558704699105 0.0012980047587193614 0.0 -0.0035491423465298785 0.0 0.0
-0.0042294850586192066 0.0027307167699255064 0.0 -0.004967977448649583 0.0 0.0
-0.0067810681063021246 0.00503282871232556 0.0 -0.007015548973031784 0.0 0.0
-0.009907509466704446 0.007977533751044527 0.0 -0.009489234057471771 0.0 0.0
-0.013444420319139654 0.011347510695145453 0.0 -0.012076976203712087 0.0 0.0
-0.017325091057006522 0.015067105100451141 0.0 -0.014642239039656585 0.0 0.0
-0.02153122972933555 0.019141415303126033 0.0 -0.01716689019406714 0.0 0.0
-0.025977465835910336 0.023499155616598672 0.0 -0.019762503647766574 0.0 0.0
-0.03040778913634285 0.027901397988931903 0.0 -0.022642406026666652 0.0 0.0
-0.034376543401379724 0.03189540281426442 0.0 -0.026028120917264 0.0 0.0
-0.03727149334600697 0.03485997293084541 0.0 -0.030021548901675077 0.0 0.0
-0.03795338306698215 0.03583290445109377 0.0 -0.033864165181970954 0.0 0.0
-0.034040010767965714 0.03257146929912213 0.0 -0.034885875442146025 0.0 0.0
-0.03053679417313361 0.0199463302283655 0.0 1.8658685707606537e-14 0.0 0.0
-0.03404001076796341 0.03257146929912625 0.0 0.034885875442197886 0.0 0.0
-0.03795338306697042 0.03583290445107613 0.0 0.033864165182015654 0.0 0.0
-0.03727149334598458 0.034859972930822325 0.0 0.030021548901691418 0.0 0.0
-0.0343765434013511 0.031895402814240956 0.0 0.02602812091725857 0.0 0.0
-0.030407789136313777 0.027901397988893198 0.0 0.02264240602664766 0.0 0.0
-0.025977465835882355 0.023499155616579136 0.0 0.0197625036477494 0.0 0.0
-0.021531229729307825 0.01914141530309302 0.0 0.01716689019405327 0.0 0.0
-0.017325091056978006 0.015067105100422827 0.0 0.014642239039640903 0.0 0.0
-0.013444420319112419 0.011347510695117654 0.0 0.012076976203689192 0.0 0.0
-0.009907509466681381 0.007977533751024524 0.0 0.009489234057449317 0.0 0.0
-0.006781068106283773 0.005032828712304657 0.0 0.007015548973014242 0.0 0.0
-0.004229485058607191 0.002730716769921729 0.0 0.004967977448639968 0.0 0.0
-0.0024265587046923237 0.0012980047587135043 0.0 0.0035491423465251488 0.0 0.0
-0.0013921876517647203 0.0006504298624663361 0.0 0.0028451162642310034 0.0 0.0
-0.0009047780122028479 0.00044171874177028323 0.0 0.0025568675341058143 0.0 0.0
-0.0006729108326618275 0.00036406780871716 0.0 0.002409608411789562 0.0 0.0
-0.0005238909867699565 0.00028758208448992746 0.0 0.002383884765936301 0.0 0.0
-0.00034801254381870787 0.00012966911078251758 0.0 0.0023800505927311865 0.0 0.0
9.19530940960317e-06 -0.0002907263926535133 0.0 0.002066754719039208 0.0 0.0
0.0002578844041229996 -0.0013949043822048415 0.0 0.001386073366068769 0.0 0.0
0.00016049089477438843 -0.001021323127164452 0.0 -0.0012396928638509115 0.0 0.0
-7.057692913920095e-05 -0.000252243378281377 0.0 -0.0018898457860219145 0.0 0.0
-0.0004454007487246116 0.00017133553175366755 0.0 -0.002271004424796352 0.0 0.0
-0.0006984620454661251 0.00035684421400398076 0.0 -0.002280327268482101 0.0 0.0
-0.0009440324796274478 0.000479985025330791 0.0 -0.0022729812549798947 0.0 0.0
-0.001335128670628104 0.0006323597817338057 0.0 -0.0023528719881433955 0.0 0.0
-0.002180631697819556 0.0010710047333335922 0.0 -0.002729632205977304 0.0 0.0
-0.00389357169461217 0.002328353639903653 0.0 -0.003833766998125484 0.0 0.0
-0.006699017661289591 0.0047913696808230405 0.0 -0.005809995226499203 0.0 0.0
-0.010531955429531593 0.008415130306031568 0.0 -0.008497745037600575 0.0 0.0
-0.015163466542983988 0.012876113331945792 0.0 -0.011531610651123044 0.0 0.0
-0.020395495709369067 0.017930616973487225 0.0 -0.014570012867994201 0.0 0.0
-0.026157095909491793 0.02351210958519573 0.0 -0.017486258505957145 0.0 0.0
-0.03243997881884118 0.02963398111314928 0.0 -0.020324347751904257 0.0 0.0
-0.039171746032740894 0.036248013620821085 0.0 -0.02328721629278944 0.0 0.0
-0.0460837544446604 0.04311013454796831 0.0 -0.026753733993604145 0.0 0.0
-0.05262599799896728 0.04967945607815383 0.0 -0.03116681093525249 0.0 0.0
-0.05781782271639381 0.05502847802574885 0.0 -0.036434027379814285 0.0 0.0
-0.05993738268258121 0.05749934771228868 0.0 -0.041113552897763445 0.0 0.0
-0.0556102321329698 0.054097526006747 0.0 -0.04246469369925584 0.0 0.0
-0.05126490456954317 0.03862839107171405 0.0 2.3425705819590803e-14 0.0 0.0
-0.05561023213296301 0.05409752600674117 0.0 0.042464693699312946 0.0 0.0
-0.059937382682562795 0.05749934771227043 0.0 0.041113552897819663 0.0 0.0
-0.05781782271636218 0.05502847802571999 0.0 0.03643402737984144 0.0 0.0
-0.052625997998928246 0.04967945607811796 0.0 0.03116681093524809 0.0 0.0
-0.046083754444619394 0.04311013454792109 0.0 0.026753733993586187 0.0 0.0
-0.039171746032700246 0.036248013620783705 0.0 0.02328721629277067 0.0 0.0
-0.03243997881880106 0.02963398111311187 0.0 0.020324347751884162 0.0 0.0
-0.026157095909452026 0.023512109585154928 0.0 0.017486258505940676 0.0 0.0
-0.020395495709330823 0.017930616973453075 0.0 0.014570012867968992 0.0 0.0
-0.015163466542950074 0.012876113331913325 0.0 0.011531610651097028 0.0 0.0
-0.010531955429505434 0.008415130306003948 0.0 0.008497745037579838 0.0 0.0
-0.006699017661271647 0.004791369680811342 0.0 0.005809995226484841 0.0 0.0
-0.00389357169460119 0.002328353639893777 0.0 0.0038337669981168103 0.0 0.0
-0.002180631697813929 0.0010710047333307084 0.0 0.0027296322059728053 0.0 0.0
-0.0013351286706255695 0.0006323597817342746 0.0 0.002352871988141324 0.0 0.0
-0.0009440324796264304 0.0004799850253290361 0.0 0.002272981254979314 0.0 0.0
-0.0006984620454656911 0.0003568442140046038 0.0 0.0022803272684818036 0.0 0.0
-0.0004454007487242605 0.00017133553175274944 0.0 0.0022710044247954753 0.0 0.0
-7.057692913905943e-05 -0.00025224337828089335 0.0 0.001889845786021891 0.0 0.0
0.00016049089477425914 -0.0010213231271632317 0.0 0.0012396928638495422 0.0 0.0
7.81881511130229e-05 -0.0007087571370026469 0.0 -0.0010648823735306058 0.0 0.0
-0.0001406406042608519 -0.00020034016412731433 0.0 -0.001687888510594429 0.0 0.0
-0.0005362236004123355 0.00021056830875384596 0.0 -0.0021096362633995125 0.0 0.0
-0.0008632902951750362 0.00042026805689325406 0.0 -0.002119395909827259 0.0 0.0
-0.0012056647223058765 0.0005844687064942911 0.0 -0.002064980938566152 0.0 0.0
-0.0017959218599803112 0.0008417047088441027 0.0 -0.0020993392982185184 0.0 0.0
-0.003079626064483777 0.0016349270091589132 0.0 -0.002618709249026282 0.0 0.0
-0.005530627455780896 0.0036303849578451395 0.0 -0.004004534281433479 0.0 0.0
-0.009356644736757048 0.007160750865607515 0.0 -0.006342387348130179 0.0 0.0
-0.014448734080848565 0.012057917759253363 0.0 -0.009376565793013273 0.0 0.0
-0.020546263289016226 0.017977301055906524 0.0 -0.012641918131129179 0.0 0.0
-0.027448764732336442 0.024688988392643385 0.0 -0.01586175840077055 0.0 0.0
-0.035081696515963864 0.0321197935327236 0.0 -0.018940827859195104 0.0 0.0
-0.043439457894603815 0.040284380877531986 0.0 -0.021930649675314964 0.0 0.0
-0.05247038956522762 0.04916260596420227 0.0 -0.02504926172174247 0.0 0.0
-0.06190258662499934 0.0585249872489783 0.0 -0.028807082866207565 0.0 0.0
-0.07101744087999319 0.06769841001724819 0.0 -0.03374267306259165 0.0 0.0
-0.07840283318809863 0.07532741467456229 0.0 -0.039690706234432015 0.0 0.0
-0.08159410841516207 0.07905265478740107 0.0 -0.04509322634646371 0.0 0.0
-0.07645654864056005 0.0749580411285689 0.0 -0.04698004964525524 0.0 0.0
-0.07116088332575424 0.05673822585484241 0.0 2.5666968550552838e-14 0.0 0.0
-0.07645654864054853 0.074958041128554 0.0 0.04698004964531134 0.0 0.0
-0.081594108415137 0.07905265478737639 0.0 0.04509322634652254 0.0 0.0
-0.07840283318805914 0.07532741467452607 0.0 0.03969070623445947 0.0 0.0
-0.07101744087994413 0.06769841001719988 0.0 0.03374267306259025 0.0 0.0
-0.061902586624947076 0.05852498724892227 0.0 0.028807082866192733 0.0 0.0
-0.052470389565175295 0.04916260596414953 0.0 0.025049261721722314 0.0 0.0
-0.043439457894551475 0.04028438087748574 0.0 0.021930649675293495 0.0 0.0
-0.035081696515912496 0.032119793532671505 0.0 0.018940827859173462 0.0 0.0
-0.02744876473228838 0.024688988392598962 0.0 0.015861758400747664 0.0 0.0
-0.020546263288973056 0.01797730105586197 0.0 0.012641918131099588 0.0 0.0
-0.014448734080813881 0.012057917759216904 0.0 0.009376565792988362 0.0 0.0
-0.009356644736732568 0.007160750865583394 0.0 0.006342387348114856 0.0 0.0
-0.00553062745576502 0.0036303849578301914 0.0 0.004004534281422108 0.0 0.0
-0.0030796260644751594 0.0016349270091527202 0.0 0.002618709249020976 0.0 0.0
-0.0017959218599765993 0.0008417047088423074 0.0 0.0020993392982152164 0.0 0.0
-0.001205664722304465 0.0005844687064956614 0.0 0.0020649809385650613 0.0 0.0
-0.0008632902951744891 0.00042026805689362225 0.0 0.002119395909826831 0.0 0.0
-0.0005362236004115307 0.00021056830875319587 0.0 0.0021096362633986378 0.0 0.0
-0.00014064060426082547 -0.00020034016412692074 0.0 0.00168788851059313 0.0 0.0
7.818815111212615e-05 -0.0007087571370019149 0.0 0.001064882373530988 0.0 0.0
6.906972247952065e-06 -0.00045303373111798835 0.0 -0.0008797655552204519 0.0 0.0
-0.00020430209388347858 -0.0001388851018245964 0.0 -0.0014578993486128408 0.0 0.0
-0.0006220623610427403 0.0002491369743422444 0.0 -0.0018941269961881084 0.0 0.0
-0.0010174289848477907 0.0004768965351786867 0.0 -0.0019013603676876238 0.0 0.0
-0.0014671862752955185 0.0006817987356256773 0.0 -0.0017937114517754052 0.0 0.0
-0.002308339718516413 0.0011005736445345892 0.0 -0.0018204372954568867 0.0 0.0
-0.004093589040575999 0.0023590974795307785 0.0 -0.0024477629335950715 0.0 0.0
-0.007317337873761142 0.005163291534506935 0.0 -0.003992946671120329 0.0 0.0
-0.012155673685380222 0.00973651104215994 0.0 -0.00648737185939881 0.0 0.0
-0.018463402543367428 0.015843692486991023 0.0 -0.009541129025670126 0.0 0.0
-0.025996504225112432 0.0231853487683655 0.0 -0.012775859209669074 0.0 0.0
-0.03456596532671829 0.031545792627944415 0.0 -0.01596234092367228 0.0 0.0
-0.044070410450709016 0.040827097755054276 0.0 -0.019023578246185634 0.0 0.0
-0.05449391908654025 0.05102992748103402 0.0 -0.02200389337534566 0.0 0.0
-0.06581059044888235 0.06215572666745764 0.0 -0.025077398487677698 0.0 0.0
-0.07773610804900818 0.07399126491227544 0.0 -0.028692122804781617 0.0 0.0
-0.08937074891862742 0.08572478553394644 0.0 -0.033483425163177566 0.0 0.0
-0.09883439424780614 0.09555251539148871 0.0 -0.03953977709508051 0.0 0.0
-0.10294611715116284 0.1003575551636672 0.0 -0.04558152853527616 0.0 0.0
-0.09704801772940892 0.09554913993951153 0.0 -0.04959093900533717 0.0 0.0
-0.09091957316638313 0.07491545919368305 0.0 2.3607851784568368e-14 0.0 0.0
-0.0970480177293927 0.09554913993949225 0.0 0.04959093900539355 0.0 0.0
-0.10294611715113074 0.10035755516363062 0.0 0.045581528535335904 0.0 0.0
-0.09883439424775886 0.09555251539144621 0.0 0.03953977709511201 0.0 0.0
-0.08937074891856878 0.08572478553389296 0.0 0.033483425163177566 0.0 0.0
-0.07773610804894511 0.07399126491220522 0.0 0.028692122804768606 0.0 0.0
-0.06581059044881818 0.062155726667394565 0.0 0.02507739848765982 0.0 0.0
-0.054493919086475974 0.051029927480969094 0.0 0.022003893375327477 0.0 0.0
-0.044070410450645796 0.04082709775499277 0.0 0.019023578246164196 0.0 0.0
-0.03456596532665919 0.03154579262789298 0.0 0.015962340923647365 0.0 0.0
-0.02599650422506058 0.02318534876831228 0.0 0.012775859209641964 0.0 0.0
-0.01846340254332518 0.01584369248695104 0.0 0.009541129025646697 0.0 0.0
-0.012155673685349012 0.009736511042126394 0.0 0.006487371859383389 0.0 0.0
-0.007317337873740745 0.005163291534489974 0.0 0.0039929466711083016 0.0 0.0
-0.0040935890405645525 0.0023590974795226574 0.0 0.0024477629335888955 0.0 0.0
-0.0023083397185112314 0.001100573644529509 0.0 0.001820437295453327 0.0 0.0
-0.0014671862752940032 0.0006817987356275923 0.0 0.001793711451774056 0.0 0.0
-0.0010174289848471473 0.0004768965351774828 0.0 0.0019013603676880909 0.0 0.0
-0.0006220623610420889 0.0002491369743425004 0.0 0.001894126996187746 0.0 0.0
-0.00020430209388337117 -0.00013888510182435615 0.0 0.0014578993486096176 0.0 0.0
6.906972247737459e-06 -0.0004530337311176572 0.0 0.0008797655552220133 0.0 0.0
-5.3309975007300104e-05 -0.00025269603384754977 0.0 -0.0006906708914095232 0.0 0.0
-0.0002614748801405084 -7.29216854225636e-05 0.0 -0.0012018553542850821 0.0 0.0
-0.0007035904756579378 0.00028776070219197993 0.0 -0.001624615948084427 0.0 0.0
-0.0011646432868634385 0.0005265467303718857 0.0 -0.0016257159680408877 0.0 0.0
-0.0017423365330338954 0.0007819604263666169 0.0 -0.001470028419495934 0.0 0.0
-0.002884368565277747 0.0014336766897148922 0.0 -0.001508856267929225 0.0 0.0
-0.005219678415731118 0.0032491670498668553 0.0 -0.0021872672623475978 0.0 0.0
-0.009226935967708023 0.006879930698260721 0.0 -0.003779418778542155 0.0 0.0
-0.015035525889529229 0.012427458991826134 0.0 -0.006134708569934741 0.0 0.0
-0.02252083915130529 0.019700023925008872 0.0 -0.00895206687819841 0.0 0.0
-0.03148012452113663 0.028448018560668774 0.0 -0.011954059661330242 0.0 0.0
-0.041711647056672574 0.03845228224413085 0.0 -0.01490947730809429 0.0 0.0
-0.053091376364029205 0.04959133194716327 0.0 -0.017766109657251495 0.0 0.0
-0.06557622754144725 0.06183272890387402 0.0 -0.020578695619425342 0.0 0.0
-0.07912133606782726 0.07515870676556094 0.0 -0.02341796107371693 0.0 0.0
-0.09343910593779939 0.08935866268988116 0.0 -0.02650720034430469 0.0 0.0
-0.10750133112944747 0.10354238088277401 0.0 -0.03047075829588177 0.0 0.0
-0.1189987758218626 0.11551893682425482 0.0 -0.03600215911421469 0.0 0.0
-0.12413566555462663 0.12149908419823499 0.0 -0.04296466188728744 0.0 0.0
-0.11777917845039951 0.11630615638637967 0.0 -0.05075608832993404 0.0 0.0
-0.11101115344190171 0.09361921543002537 0.0 2.296600409845695e-14 0.0 0.0
-0.11777917845037908 0.11630615638635491 0.0 0.0507560883299903 0.0 0.0
-0.12413566555458698 0.12149908419819128 0.0 0.04296466188734175 0.0 0.0
-0.118998775821807 0.11551893682419864 0.0 0.036002159114245716 0.0 0.0
-0.10750133112937954 0.10354238088270705 0.0 0.030470758295881854 0.0 0.0
-0.09343910593772528 0.08935866268980128 0.0 0.026507200344293443 0.0 0.0
-0.07912133606775174 0.07515870676548711 0.0 0.02341796107370428 0.0 0.0
-0.06557622754137156 0.06183272890379915 0.0 0.020578695619410625 0.0 0.0
-0.05309137636395458 0.04959133194708989 0.0 0.017766109657233662 0.0 0.0
-0.04171164705660269 0.03845228224406392 0.0 0.014909477308071056 0.0 0.0
-0.03148012452107588 0.02844801856060912 0.0 0.011954059661305208 0.0 0.0
-0.02252083915125551 0.01970002392496047 0.0 0.00895206687817475 0.0 0.0
-0.01503552588949185 0.012427458991783154 0.0 0.006134708569919192 0.0 0.0
-0.009226935967682995 0.0068799306982389894 0.0 0.003779418778529199 0.0 0.0
-0.005219678415716571 0.003249167049854582 0.0 0.0021872672623422067 0.0 0.0
-0.0028843685652707716 0.0014336766897109904 0.0 0.001508856267926397 0.0 0.0
-0.0017423365330309277 0.0007819604263650137 0.0 0.0014700284194960383 0.0 0.0
-0.0011646432868625423 0.0005265467303700522 0.0 0.001625715968041277 0.0 0.0
-0.0007035904756579877 0.0002877607021926963 0.0 0.0016246159480821898 0.0 0.0
-0.00026147488014040455 -7.292168542236728e-05 0.0 0.001201855354284071 0.0 0.0
-5.3309975006763146e-05 -0.00025269603384744005 0.0 0.000690670891408195 0.0 0.0
-0.00010000029404453594 -0.00010780723009428757 0.0 -0.0005029129923411503 0.0 0.0
-0.00030954282398022346 -8.062221953387124e-06 0.0 -0.0009227849930612314 0.0 0.0
-0.0007799679679801237 0.0003255763164958937 0.0 -0.0012995425889896957 0.0 0.0
-0.0013094063403132938 0.0005700780564657497 0.0 -0.0012889759838641752 0.0 0.0
-0.0020439291102520574 0.000899939069321867 0.0 -0.0010962494562666118 0.0 0.0
-0.0035373684482912053 0.0018624331317011896 0.0 -0.0011457757775933746 0.0 0.0
-0.006454145441351712 0.00429929899042971 0.0 -0.0018358544877259582 0.0 0.0
-0.01121065004643712 0.008707708883123425 0.0 -0.003254963857988148 0.0 0.0
-0.017941947866713565 0.015169206925395504 0.0 -0.005236050969565868 0.0 0.0
-0.02658866093358265 0.023583522170554542 0.0 -0.007633712339652935 0.0 0.0
-0.03695965331655555 0.033723135323472674 0.0 -0.010194634533899731 0.0 0.0
-0.04885109718053939 0.04536787318299041 0.0 -0.012719744866049426 0.0 0.0
-0.06211423674648056 0.0583727430679412 0.0 -0.015177447577666769 0.0 0.0
-0.07665103890385286 0.07265735030483644 0.0 -0.017639084358863986 0.0 0.0
-0.09235247962065075 0.08812791945383884 0.0 -0.02010103521011307 0.0 0.0
-0.10889080268918347 0.10451457130215011 0.0 -0.022468868866302238 0.0 0.0
-0.12520981561141045 0.12092271566106294 0.0 -0.025022936680735113 0.0 0.0
-0.1387890142354023 0.13505207588783957 0.0 -0.029187792771809367 0.0 0.0
-0.14531631897098754 0.1425989104089087 0.0 -0.03717834210979585 0.0 0.0
-0.13901815540638982 0.13763440707173705 0.0 -0.05020992023672531 0.0 0.0
-0.1318664844171291 0.11330696658597098 0.0 2.0440246717434718e-14 0.0 0.0
-0.13901815540636606 0.13763440707170832 0.0 0.050209920236774355 0.0 0.0
-0.1453163189709414 0.14259891040886577 0.0 0.03717834210984199 0.0 0.0
-0.13878901423533752 0.13505207588776816 0.0 0.02918779277183333 0.0 0.0
-0.125209815611333 0.12092271566098556 0.0 0.025022936680736452 0.0 0.0
-0.10889080268909822 0.10451457130206357 0.0 0.02246886886629659 0.0 0.0
-0.09235247962056377 0.0881279194537516 0.0 0.020101035210103677 0.0 0.0
-0.07665103890376616 0.07265735030475377 0.0 0.01763908435884853 0.0 0.0
-0.06211423674639478 0.05837274306785352 0.0 0.015177447577653085 0.0 0.0
-0.04885109718045967 0.04536787318291251 0.0 0.012719744866027932 0.0 0.0
-0.036959653316486415 0.0337231353234006 0.0 0.010194634533876486 0.0 0.0
-0.026588660933525333 0.023583522170498833 0.0 0.007633712339632797 0.0 0.0
-0.017941947866669996 0.015169206925353455 0.0 0.005236050969552967 0.0 0.0
-0.011210650046407093 0.008707708883094991 0.0 0.0032549638579786088 0.0 0.0
-0.006454145441333624 0.004299298990414178 0.0 0.0018358544877208499 0.0 0.0
-0.0035373684482827156 0.001862433131698614 0.0 0.001145775777592955 0.0 0.0
-0.0020439291102488893 0.0008999390693204862 0.0 0.0010962494562656306 0.0 0.0
-0.0013094063403123251 0.0005700780564641792 0.0 0.0012889759838635305 0.0 0.0
-0.0007799679679797774 0.0003255763164960914 0.0 0.0012995425889880713 0.0 0.0
-0.000309542823980298 -8.062221953509091e-06 0.0 0.0009227849930620864 0.0 0.0
-0.00010000029404495583 -0.00010780723009415265 0.0 0.0005029129923384557 0.0 0.0
-0.00012829070969238763 -1.901650641412779e-05 0.0 -0.0003266893945185192 0.0 0.0
-0.0003428711773746978 4.869411939525191e-05 0.0 -0.0006246680157284151 0.0 0.0
-0.0008487487805939726 0.00035960175094096184 0.0 -0.0009120277026600167 0.0 0.0
-0.001459505727946872 0.0006121301537492285 0.0 -0.000885238019955319 0.0 0.0
-0.0023867519914597224 0.0010544440235925458 0.0 -0.0006819195091412758 0.0 0.0
-0.004277898911059945 0.0024137037246571296 0.0 -0.0007358470578164801 0.0 0.0
-0.007763343275564811 0.005469233363721152 0.0 -0.0013236316682985678 0.0 0.0
-0.013224256319782152 0.010584532986275012 0.0 -0.0023547272482328063 0.0 0.0
-0.020849690300760875 0.01792618388994605 0.0 -0.0038156320472814685 0.0 0.0
-0.03063122859355189 0.027455157478185062 0.0 -0.005593801713526674 0.0 0.0
-0.04240036302395854 0.03897183591398942 0.0 -0.007505903300326432 0.0 0.0
-0.05594756465411019 0.05225401087107328 0.0 -0.009397797742705554 0.0 0.0
-0.07109700681187396 0.06713102824677855 0.0 -0.011261193122969007 0.0 0.0
-0.0876895319814197 0.08346241124428322 0.0 -0.013177715669272467 0.0 0.0
-0.10548369004610374 0.10103336115018213 0.0 -0.01509149707364505 0.0 0.0
-0.12401924022115318 0.11942150121346398 0.0 -0.016706300317037622 0.0 0.0
-0.1423013531075939 0.13771143184264686 0.0 -0.017815678943181815 0.0 0.0
-0.1580232280591015 0.15384356033930927 0.0 -0.01973516537333532 0.0 0.0
-0.16655517832752684 0.16361957437965582 0.0 -0.027262494678033735 0.0 0.0
-0.16115340364397665 0.1600132763883463 0.0 -0.04687926949063273 0.0 0.0
-0.15403691653838072 0.1346227328546717 0.0 1.4790252356178257e-14 0.0 0.0
-0.16115340364394853 0.1600132763883189 0.0 0.04687926949067165 0.0 0.0
-0.16655517832747307 0.16361957437961006 0.0 0.027262494678071396 0.0 0.0
-0.15802322805902672 0.15384356033923374 0.0 0.019735165373352345 0.0 0.0
-0.14230135310750566 0.13771143184256354 0.0 0.017815678943183352 0.0 0.0
-0.12401924022105706 0.11942150121336728 0.0 0.016706300317034583 0.0 0.0
-0.10548369004600598 0.10103336115007633 0.0 0.01509149707363748 0.0 0.0
-0.08768953198132158 0.08346241124419045 0.0 0.01317771566926313 0.0 0.0
-0.07109700681177689 0.06713102824667634 0.0 0.011261193122959538 0.0 0.0
-0.055947564654020406 0.052254010870989694 0.0 0.009397797742688067 0.0 0.0
-0.04240036302388034 0.03897183591391095 0.0 0.007505903300310103 0.0 0.0
-0.030631228593487304 0.027455157478121276 0.0 0.005593801713511887 0.0 0.0
-0.020849690300711557 0.017926183889902244 0.0 0.003815632047270665 0.0 0.0
-0.013224256319747423 0.010584532986241147 0.0 0.002354727248225654 0.0 0.0
-0.007763343275542921 0.005469233363701256 0.0 0.0013236316682924056 0.0 0.0
-0.0042778989110492105 0.0024137037246528374 0.0 0.0007358470578156628 0.0 0.0
-0.002386751991455673 0.0010544440235920748 0.0 0.0006819195091416647 0.0 0.0
-0.0014595057279452944 0.0006121301537490079 0.0 0.0008852380199547072 0.0 0.0
-0.0008487487805935983 0.00035960175093954685 0.0 0.0009120277026606789 0.0 0.0
-0.00034287117737515825 4.8694119395396203e-05 0.0 0.0006246680157301363 0.0 0.0
-0.0001282907096929852 -1.9016506414446892e-05 0.0 0.0003266893945182184 0.0 0.0
-0.000129541330794199 1.3887277499393167e-05 0.0 -0.00018381286240859744 0.0 0.0
-0.0003512975083280924 8.661619692934692e-05 0.0 -0.0003130321588755878 0.0 0.0
-0.00090586212292487 0.0003841820570235574 0.0 -0.0004437086023283286 0.0 0.0
-0.0016271419543470052 0.0006660152428198458 0.0 -0.0004104616654418684 0.0 0.0
-0.002789101452719973 0.0012730548756508015 0.0 -0.0002383972174176254 0.0 0.0
-0.005094573049403735 0.003081940415561848 0.0 -0.0002576265416394119 0.0 0.0
-0.009118690512944212 0.006709268260859866 0.0 -0.0005769257877374893 0.0 0.0
-0.015242010582963463 0.012481022352028512 0.0 -0.0011154913138797312 0.0 0.0
-0.023725079918400633 0.020663300942195362 0.0 -0.0018808851662370318 0.0 0.0
-0.03461343297202298 0.03127601387595585 0.0 -0.0028379688916598364 0.0 0.0
-0.0477654287669693 0.044156100533402666 0.0 -0.0038833279449413272 0.0 0.0
-0.06296610937287937 0.05907592080481312 0.0 -0.00494136164775621 0.0 0.0
-0.08000483598615042 0.07582708548118047 0.0 -0.006030891319223824 0.0 0.0
-0.09863825584693486 0.09419270706155475 0.0 -0.007172327400082597 0.0 0.0
-0.11848436501197476 0.1138311924522841 0.0 -0.008302239043093672 0.0 0.0
-0.13888086121547547 0.1341169481548932 0.0 -0.009188388957198639 0.0 0.0
-0.158737446284579 0.1539716055771067 0.0 -0.00943390904782236 0.0 0.0
-0.1762346639212478 0.17159109286690805 0.0 -0.009361887271475203 0.0 0.0
-0.1875985558555329 0.1837218625978108 0.0 -0.013363158207649266 0.0 0.0
-0.18475243918669193 0.18385734547514648 0.0 -0.03513666526340516 0.0 0.0
-0.1784132980653938 0.15942805052759113 0.0 9.868841854832056e-15 0.0 0.0
-0.18475243918665984 0.18385734547511587 0.0 0.03513666526342998 0.0 0.0
-0.18759855585547236 0.18372186259775145 0.0 0.013363158207670433 0.0 0.0
-0.17623466392116255 0.17159109286682248 0.0 0.009361887271483951 0.0 0.0
-0.15873744628447883 0.1539716055770098 0.0 0.009433909047820944 0.0 0.0
-0.13888086121536786 0.13411694815478364 0.0 0.009188388957196205 0.0 0.0
-0.11848436501186488 0.11383119245217013 0.0 0.008302239043090442 0.0 0.0
-0.09863825584682545 0.09419270706144656 0.0 0.007172327400080397 0.0 0.0
-0.08000483598604327 0.07582708548106827 0.0 0.006030891319219382 0.0 0.0
-0.06296610937277956 0.059075920804719614 0.0 0.004941361647746812 0.0 0.0
-0.04776542876688247 0.0441561005333174 0.0 0.003883327944933461 0.0 0.0
-0.03461343297195194 0.031276013875885855 0.0 0.00283796889164957 0.0 0.0
-0.02372507991834539 0.02066330094214195 0.0 0.0018808851662307797 0.0 0.0
-0.015242010582924426 0.012481022351988788 0.0 0.001115491313875782 0.0 0.0
-0.009118690512919782 0.006709268260837672 0.0 0.0005769257877340959 0.0 0.0
-0.005094573049390479 0.003081940415556397 0.0 0.00025762654163916055 0.0 0.0
-0.0027891014527145442 0.0012730548756468881 0.0 0.00023839721741827073 0.0 0.0
-0.0016271419543451503 0.0006660152428194599 0.0 0.0004104616654431088 0.0 0.0
-0.000905862122923994 0.0003841820570235479 0.0 0.0004437086023301349 0.0 0.0
-0.0003512975083279487 8.661619692939525e-05 0.0 0.00031303215887605417 0.0 0.0
-0.00012954133079443576 1.3887277499147304e-05 0.0 0.00018381286240832387 0.0 0.0
-8.834471796776473e-05 1.650884883503875e-05 0.0 -0.00011221923656352481 0.0 0.0
-0.0003168349343488832 9.918427024318581e-05 0.0 -0.00013012009780551782 0.0 0.0
-0.0009464807154274301 0.0003932514306137021 0.0 -0.00014635291371997982 0.0 0.0
-0.0018312472020171157 0.0006981866573199581 0.0 -8.241771249294686e-05 0.0 0.0
-0.0032612554122200777 0.0014032171528975952 0.0 0.00018098728628108247 0.0 0.0
-0.005969238622227341 0.0034404282457784915 0.0 0.0004072660851587751 0.0 0.0
-0.010496812382490624 0.007341716209665115 0.0 0.0005165581399232011 0.0 0.0
-0.01724125459791425 0.01343119112925801 0.0 0.0005510460487766322 0.0 0.0
-0.026536580829635236 0.022022161382613325 0.0 0.0005050251843029428 0.0 0.0
-0.03849809714570196 0.03316903745239761 0.0 0.00033718422782721535 0.0 0.0
-0.053019537853502136 0.04672709400522254 0.0 8.775754682053757e-05 0.0 0.0
-0.06987526652044643 0.062466998351947814 0.0 -0.00023203635282345158 0.0 0.0
-0.08878949011025983 0.0801547910241304 0.0 -0.0006515208550314806 0.0 0.0
-0.10943669454399604 0.09953083675248947 0.0 -0.0011435098077546418 0.0 0.0
-0.13131609689861556 0.12019682481685046 0.0 -0.0017186029007233514 0.0 0.0
-0.15355575221032428 0.1414196751879411 0.0 -0.0022643314449298166 0.0 0.0
-0.17479189817821644 0.1619945994337767 0.0 -0.0024942027192203856 0.0 0.0
-0.19322536978673122 0.18018171513012587 0.0 -0.0022158279836835115 0.0 0.0
-0.20673129222830589 0.1933558671877535 0.0 -0.004386039660505974 0.0 0.0
-0.21009581756002696 0.19617969292745227 0.0 -0.026803892817719985 0.0 0.0
-0.20822391231214515 0.17307032323745405 0.0 2.6229018956769323e-15 0.0 0.0
-0.21009581755999174 0.1961796929274156 0.0 0.02680389281772844 0.0 0.0
-0.2067312922282376 0.19335586718768455 0.0 0.004386039660513496 0.0 0.0
-0.19322536978663377 0.18018171513002926 0.0 0.002215827983685352 0.0 0.0
-0.17479189817810364 0.16199459943366834 0.0 0.0024942027192174955 0.0 0.0
-0.1535557522102055 0.14141967518783136 0.0 0.002264331444927624 0.0 0.0
-0.13131609689849444 0.12019682481673677 0.0 0.0017186029007206713 0.0 0.0
-0.10943669454387564 0.09953083675237308 0.0 0.0011435098077547043 0.0 0.0
-0.08878949011014253 0.08015479102401739 0.0 0.0006515208550290849 0.0 0.0
-0.06987526652033615 0.062466998351845396 0.0 0.00023203635281714846 0.0 0.0
-0.053019537853407364 0.046727094005131385 0.0 -8.775754681926429e-05 0.0 0.0
-0.038498097145625354 0.03316903745232673 0.0 -0.00033718422783215844 0.0 0.0
-0.02653658082957397 0.022022161382556645 0.0 -0.0005050251843056763 0.0 0.0
-0.017241254597871118 0.013431191129214752 0.0 -0.0005510460487759736 0.0 0.0
-0.010496812382462679 0.007341716209642916 0.0 -0.0005165581399225472 0.0 0.0
-0.0059692386222108705 0.0034404282457714368 0.0 -0.0004072660851559348 0.0 0.0
-0.0032612554122134043 0.0014032171528919196 0.0 -0.00018098728628116346 0.0 0.0
-0.001831247202014831 0.0006981866573188694 0.0 8.241771249682515e-05 0.0 0.0
-0.00094648071542654 0.00039325143061602304 0.0 0.00014635291372320385 0.0 0.0
-0.00031683493434881446 9.918427024266877e-05 0.0 0.0001301200978031562 0.0 0.0
-8.834471796797535e-05 1.6508848835317572e-05 0.0 0.00011221923656203289 0.0 0.0
SCALARS Statev float 8
LOOKUP_TABLE default
0.0 0.019760107899040348 0.01588411824200272 -0.0188408405278601 0.0029567222858573657 -0.0011841333965274242 0.0 0.0
0.0 0.006950631066017688 0.005155072984275031 -0.0032902323157601374 -0.001864840668514891 -0.007267617026478011 0.0 0.0
0.0 0.00019166754005817352 0.00024617405509745106 -0.00014935524062811858 -9.681881446933286e-05 -0.00037992598938905065 0.0 0.0
0.0 0.00019289605596957803 0.00010724831492430877 -7.687095901246844e-05 -3.037735591184052e-05 3.284809543295229e-05 0.0 0.0
0.0 0.0011872289681315023 0.0008622649471084745 -0.0006348807412567651 -0.00022738420585170934 0.00017712383225844638 0.0 0.0
0.0 0.003158771668507009 0.003084232964567716 -0.0024755190657815736 -0.0006087138987861461 0.0003633783240548186 0.0 0.0
0.0 0.007828328576660616 0.007151131890564707 -0.0062064633259451 -0.0009446685646196018 0.0005043818724346902 0.0 0.0
0.0 0.014993922372830763 0.013487450950304887 -0.012279373080095378 -0.0012080778702095126 0.000564510842192036 0.0 0.0
0.0 0.025131565772306463 0.022377235333482723 -0.02092297848001206 -0.0014542568534706554 0.0005414673653269036 0.0 0.0
0.0 0.03838177146086208 0.03391600023254308 -0.0321865984288111 -0.0017294018037320052 0.00040120488069184644 0.0 0.0
0.0 0.05461468887243662 0.04799860316634677 -0.04594680084202644 -0.0020518023243202934 0.00017264104971709748 0.0 0.0
0.0 0.07325335588837906 0.06441247222988258 -0.061988603131800185 -0.002423869098082356 -0.00013635911907413907 0.0 0.0
0.0 0.09436270874302959 0.08290259352107619 -0.08006866667035255 -0.002833926850723656 -0.0005422439682432825 0.0 0.0
0.0 0.1175753495771941 0.10320151486518608 -0.09993444380593085 -0.0032670710592549975 -0.0009950731096419988 0.0 0.0
0.0 0.14248673290443922 0.12495261415684954 -0.12124875745026435 -0.0037038567065850467 -0.001518901886675255 0.0 0.0
0.0 0.16846091254542647 0.14756416274768772 -0.14344196038314075 -0.004122202364546881 -0.0020878061975778753 0.0 0.0
0.0 0.19440053698935852 0.1701141121513352 -0.16561471806314126 -0.004499394088194109 -0.0025874082934927182 0.0 0.0
0.0 0.21884925290217588 0.19135068361953605 -0.1865377518910753 -0.004812931728460633 -0.00283228402220717 0.0 0.0
0.0 0.24008344616938188 0.20979522775691856 -0.20473585032068276 -0.005059377436235528 -0.002668151568132421 0.0 0.0
0.0 0.25579286967651965 0.2236456369907436 -0.2184354668177386 -0.005210170173005269 -0.003156744284997064 0.0 0.0
0.0 0.26254212562938956 0.22924204548688917 -0.22404951720583294 -0.0051925282810561255 3.469446951953614e-15 0.0 0.0
0.0 0.2557928696764903 0.2236456369907172 -0.21843546681771475 -0.00521017017300254 0.0031567442850053713 0.0 0.0
0.0 0.2400834461693082 0.20979522775685416 -0.2047358503206189 -0.005059377436234989 0.0026681515681420626 0.0 0.0
0.0 0.2188492529020751 0.1913506836194473 -0.18653775189098937 -0.004812931728457741 0.0028322840222113153 0.0 0.0
0.0 0.19440053698923168 0.17011411215122516 -0.16561471806303313 -0.004499394088192315 0.0025874082934920018 0.0 0.0
0.0 0.16846091254529508 0.14756416274757309 -0.1434419603830272 -0.004122202364545826 0.002087806197573012 0.0 0.0
0.0 0.14248673290430428 0.12495261415673203 -0.12124875745014853 -0.0037038567065833736 0.0015189018866747792 0.0 0.0
0.0 0.11757534957706525 0.10320151486507337 -0.09993444380582106 -0.003267071059252455 0.0009950731096408936 0.0 0.0
0.0 0.09436270874290503 0.08290259352096738 -0.08006866667024634 -0.00283392685072095 0.0005422439682403568 0.0 0.0
0.0 0.0732533558882643 0.06441247222978236 -0.06198860313170188 -0.0024238690980803303 0.00013635911906988239 0.0 0.0
0.0 0.05461468887233741 0.047998603166260354 -0.045946800841941415 -0.0020518023243189043 -0.00017264104972283595 0.0 0.0
0.0 0.03838177146077888 0.03391600023247028 -0.032186598428740144 -0.001729401803730191 -0.0004012048806937981 0.0 0.0
0.0 0.025131565772247053 0.02237723533343032 -0.020922978479961243 -0.0014542568534690414 -0.0005414673653265034 0.0 0.0
0.0 0.014993922372787426 0.013487450950266242 -0.01227937308005784 -0.0012080778702083961 -0.0005645108421928212 0.0 0.0
0.0 0.007828328576632501 0.007151131890538788 -0.006206463325920844 -0.000944668564617937 -0.0005043818724340832 0.0 0.0
0.0 0.0031587716684948293 0.003084232964555675 -0.0024755190657711605 -0.0006087138987845171 -0.00036337832405373906 0.0 0.0
0.0 0.0011872289681249936 0.0008622649471033862 -0.0006348807412529376 -0.00022738420585044746 -0.00017712383225745382 0.0 0.0
0.0 0.00019289605596866912 0.00010724831492424598 -7.687095901246055e-05 -3.037735591178477e-05 -3.284809543281256e-05 0.0 0.0
0.0 0.00019166754005714367 0.0002461740550966099 -0.00014935524062761015 -9.681881446899873e-05 0.00037992598938739973 0.0 0.0
0.0 0.006950631066006897 0.005155072984269567 -0.0032902323157559077 -0.0018648406685136602 0.007267617026469089 0.0 0.0
0.0 0.019760107899019216 0.015884118241988744 -0.018840840527840734 0.0029567222858519807 0.001184133396484795 0.0 0.0
0.0 0.016214663684698004 0.01221991332540782 -0.015686094398566185 0.003466181073158353 -0.0006883985459579224 0.0 0.0
0.0 0.004376732571756543 0.0031480071392493048 -0.0019949420089397747 -0.0011530651303095234 -0.005824014904458778 0.0 0.0
0.0 -8.944539133163685e-05 -7.69792836683345e-05 7.183585289662352e-05 5.1434307717110415e-06 -0.00010961411983842575 0.0 0.0
0.0 5.330175820265456e-05 4.466521830911775e-05 -3.217083745426473e-05 -1.2494380854853027e-05 1.550627872859192e-05 0.0 0.0
0.0 0.0006950179942325961 0.0005782470229050321 -0.0004293026350040822 -0.00014894438790094973 6.904554974357823e-05 0.0 0.0
0.0 0.0027440273566527837 0.0024166477129643833 -0.0019597440764214957 -0.00045690363654289027 4.8904525541892764e-05 0.0 0.0
0.0 0.006697289837525848 0.006099017579180462 -0.005363129439773745 -0.0007358881394067177 -0.00026676715981976306 0.0 0.0
0.0 0.013349731260581943 0.011909688274724935 -0.011006094893581037 -0.0009035933811439 -0.0008015129966751772 0.0 0.0
0.0 0.022810170543419772 0.02011555234407006 -0.019101053566949196 -0.0010144987771208592 -0.001555960894572224 0.0 0.0
0.0 0.03509281893545275 0.030757490599953124 -0.029647597267462897 -0.0011098933324902322 -0.002500252442138271 0.0 0.0
0.0 0.05007175087617079 0.04369880367722744 -0.04249623607803224 -0.0012025675991952374 -0.003548533782874699 0.0 0.0
0.0 0.06760618872560308 0.0587325340768391 -0.05743495829990143 -0.0012975757769376332 -0.004627139778248367 0.0 0.0
0.0 0.08687547357251417 0.0756608096318341 -0.07426572588516304 -0.0013950837466709881 -0.005737459395803988 0.0 0.0
0.0 0.10836388129697355 0.09426002423838054 -0.09277200422774128 -0.0014880200106392291 -0.006878441091587477 0.0 0.0
0.0 0.13140971481214153 0.11421566797904113 -0.11264967545489853 -0.0015659925241424321 -0.008012307336779165 0.0 0.0
0.0 0.15544289069415085 0.13500486960276742 -0.13338468267502018 -0.0016201869277473319 -0.009034681375681333 0.0 0.0
0.0 0.17954061453586864 0.15580729982936667 -0.15416196362664236 -0.0016453362027242355 -0.009693129177989387 0.0 0.0
0.0 0.20238227815891516 0.1754893251206066 -0.1738467029511903 -0.0016426221694164113 -0.00964567980555809 0.0 0.0
0.0 0.22221960126562268 0.19258346915640412 -0.19098103165619393 -0.0016024375002101391 -0.0087327943467183 0.0 0.0
0.0 0.236709023011028 0.20499014376650337 -0.20354662927831663 -0.0014435144881866967 -0.007770624869867994 0.0 0.0
0.0 0.24303263115586304 0.20983966401876217 -0.20864074567978086 -0.0011989183389815223 8.439429710627167e-15 0.0 0.0
0.0 0.23670902301099223 0.20499014376647157 -0.20354662927828532 -0.0014435144881861442 0.0077706248698894455 0.0 0.0
0.0 0.2222196012655525 0.1925834691563438 -0.1909810316561326 -0.0016024375002110052 0.008732794346741592 0.0 0.0
0.0 0.20238227815882176 0.175489325120526 -0.17384670295110993 -0.0016426221694160051 0.009645679805570701 0.0 0.0
0.0 0.1795406145357541 0.15580729982926808 -0.1541619636265436 -0.0016453362027246017 0.009693129177991939 0.0 0.0
0.0 0.15544289069403053 0.13500486960266384 -0.1333846826749159 -0.001620186927747647 0.009034681375676128 0.0 0.0
0.0 0.13140971481201696 0.11421566797893301 -0.1126496754547908 -0.0015659925241422812 0.00801230733677562 0.0 0.0
0.0 0.10836388129685454 0.09426002423827741 -0.09277200422763879 -0.0014880200106385656 0.006878441091583675 0.0 0.0
0.0 0.08687547357240083 0.07566080963173596 -0.07426572588506569 -0.0013950837466702574 0.005737459395797033 0.0 0.0
0.0 0.0676061887254968 0.058732534076746744 -0.05743495829980945 -0.0012975757769372938 0.004627139778240873 0.0 0.0
0.0 0.050071750876077764 0.04369880367714727 -0.04249623607795215 -0.0012025675991951268 0.0035485337828640245 0.0 0.0
0.0 0.035092818935377225 0.030757490599887062 -0.02964759726739729 -0.0011098933324897242 0.002500252442131008 0.0 0.0
0.0 0.02281017054336465 0.020115552344021303 -0.019101053566901185 -0.0010144987771201293 0.0015559608945681803 0.0 0.0
0.0 0.013349731260542784 0.011909688274690163 -0.011006094893546947 -0.0009035933811432399 0.0008015129966711761 0.0 0.0
0.0 0.006697289837501743 0.006099017579158661 -0.005363129439752955 -0.0007358881394056963 0.00026676715981753985 0.0 0.0
0.0 0.002744027356640394 0.0024166477129534823 -0.0019597440764119946 -0.0004569036365414847 -4.8904525542439934e-05 0.0 0.0
0.0 0.0006950179942276706 0.0005782470229012067 -0.00042930263500117854 -0.0001489443879000282 -6.904554974313692e-05 0.0 0.0
0.0 5.330175820228306e-05 4.466521830935262e-05 -3.2170837454472765e-05 -1.2494380854879763e-05 -1.5506278728443135e-05 0.0 0.0
0.0 -8.944539133218902e-05 -7.697928366817067e-05 7.183585289645404e-05 5.143430771716377e-06 0.00010961411983801576 0.0 0.0
0.0 0.004376732571745234 0.0031480071392431213 -0.0019949420089352818 -0.0011530651303078355 0.00582401490444694 0.0 0.0
0.0 0.01621466368467417 0.012219913325389627 -0.015686094398543543 0.0034661810731539057 0.0006883985459256467 0.0 0.0
0.0 0.012202569139487736 0.009002797875362739 -0.011867609743223683 0.002864811867860949 -0.0033008333178641443 0.0 0.0
0.0 0.003026704710508714 0.001935454482316465 -0.0010871766024147724 -0.0008482778799016966 -0.00504067740592993 0.0 0.0
0.0 7.92283632385337e-07 1.6178845146727645e-06 -1.4298912411277526e-06 -1.8799327354500743e-07 9.97920546899815e-07 0.0 0.0
0.0 1.000891028170231e-06 -6.817246975217233e-07 1.1152257161097819e-06 -4.33501018588181e-07 6.326131812707985e-06 0.0 0.0
0.0 0.0003342664403363086 0.0002957784896863782 -0.00021395700927120552 -8.182148041517288e-05 1.1858703241786602e-05 0.0 0.0
0.0 0.0019859542838097525 0.001699987872270431 -0.001341205453832406 -0.00035878241843802363 -0.00012643779939700185 0.0 0.0
0.0 0.0052569893731590645 0.004855228637426821 -0.004187614619409137 -0.0006676140180176854 -0.000742845541416208 0.0 0.0
0.0 0.011213378383566307 0.010005373691824613 -0.009150926282487199 -0.0008544474093374049 -0.0017727516269796337 0.0 0.0
0.0 0.019683969039128158 0.017355346126864773 -0.016389194692957063 -0.0009661514339076955 -0.0032093629196431077 0.0 0.0
0.0 0.030776047353691598 0.02689195206059657 -0.025837394880109096 -0.0010545571804874844 -0.004968032700247528 0.0 0.0
0.0 0.04421646766799424 0.03845062297323763 -0.037309769101911826 -0.0011408538713257956 -0.006889420879279886 0.0 0.0
0.0 0.059657336467339436 0.051833712772971996 -0.05060278751154221 -0.0012309252614297948 -0.008824268613795587 0.0 0.0
0.0 0.07725439403237555 0.0668742862048858 -0.06555126706668925 -0.0013230191381965134 -0.01074277142149428 0.0 0.0
0.0 0.09612657742666918 0.0834178290343924 -0.08200738256223403 -0.0014104464721584413 -0.012696897596680023 0.0 0.0
0.0 0.11671493419613171 0.10120696618836257 -0.0997217061869194 -0.0014852600014433324 -0.01464340082679662 0.0 0.0
0.0 0.1382374208396078 0.11981077677479299 -0.1182712230296448 -0.0015395537451480586 -0.01637383458033972 0.0 0.0
0.0 0.15991649507518546 0.1385459310068941 -0.13697749562788425 -0.0015684353790099675 -0.017484127484290395 0.0 0.0
0.0 0.18056648283425797 0.1563988228860915 -0.15483412119521378 -0.0015647016908778236 -0.017473129629768703 0.0 0.0
0.0 0.19853107619816496 0.17189955807748356 -0.1703957075140296 -0.0015038505634536845 -0.016067857973939382 0.0 0.0
0.0 0.21155328471775886 0.18308936166450088 -0.1816808162354407 -0.0014085454290597454 -0.013340898080098371 0.0 0.0
0.0 0.21751048735161357 0.18759679190886397 -0.1864720713393575 -0.0011247205695066095 1.7094832494013446e-14 0.0 0.0
0.0 0.21155328471772863 0.18308936166447326 -0.18168081623541313 -0.0014085454290599648 0.013340898080138597 0.0 0.0
0.0 0.19853107619810098 0.1718995580774279 -0.1703957075139737 -0.0015038505634543296 0.01606785797397893 0.0 0.0
0.0 0.18056648283417562 0.15639882288602017 -0.15483412119514203 -0.0015647016908780554 0.0174731296297911 0.0 0.0
0.0 0.15991649507508646 0.13854593100680918 -0.1369774956277992 -0.001568435379010082 0.0174841274842938 0.0 0.0
0.0 0.13823742083950372 0.11981077677470275 -0.11827122302955496 -0.0015395537451477642 0.016373834580332383 0.0 0.0
0.0 0.1167149341960207 0.10120696618826656 -0.09972170618682347 -0.0014852600014430637 0.014643400826791074 0.0 0.0
0.0 0.0961265774265631 0.08341782903430052 -0.08200738256214267 -0.001410446472157896 0.012696897596673536 0.0 0.0
0.0 0.07725439403227596 0.06687428620479982 -0.0655512670666038 -0.0013230191381960173 0.010742771421483516 0.0 0.0
0.0 0.059657336467243194 0.0518337127728892 -0.05060278751145939 -0.0012309252614297428 0.008824268613781716 0.0 0.0
0.0 0.04421646766791071 0.03845062297316511 -0.03730976910183966 -0.001140853871325445 0.006889420879264499 0.0 0.0
0.0 0.030776047353627493 0.026891952060540313 -0.025837394880053273 -0.0010545571804870097 0.004968032700235897 0.0 0.0
0.0 0.019683969039077355 0.017355346126820312 -0.01638919469291316 -0.0009661514339071533 0.003209362919634558 0.0 0.0
0.0 0.011213378383532374 0.010005373691794921 -0.009150926282458227 -0.0008544474093366774 0.0017727516269726395 0.0 0.0
0.0 0.005256989373139431 0.004855228637408926 -0.004187614619392405 -0.0006676140180165245 0.0007428455414123306 0.0 0.0
0.0 0.001985954283799509 0.0016999878722616568 -0.0013412054538250303 -0.00035878241843662577 0.00012643779939558388 0.0 0.0
0.0 0.0003342664403330343 0.00029577848968403384 -0.00021395700926948356 -8.182148041455029e-05 -1.1858703241810986e-05 0.0 0.0
0.0 1.0008910280475908e-06 -6.817246974636378e-07 1.1152257160619143e-06 -4.3350101859826334e-07 -6.326131812620202e-06 0.0 0.0
0.0 7.922836325251975e-07 1.617884514639504e-06 -1.4298912410959565e-06 -1.879932735435487e-07 -9.979205468754704e-07 0.0 0.0
0.0 0.0030267047104996034 0.0019354544823111416 -0.0010871766024111822 -0.000848277879899954 0.005040677405916022 0.0 0.0
0.0 0.012202569139463758 0.009002797875344982 -0.011867609743201375 0.002864811867856382 0.0033008333178431042 0.0 0.0
0.0 0.009326530188630848 0.006708500081695614 -0.009023740867292464 0.002315240785596826 -0.003562640466272895 0.0 0.0
0.0 0.0022230235757979286 0.0013366338859196448 -0.0007341067562005677 -0.0006025271297190705 -0.003852835413223912 0.0 0.0
0.0 0.0 0.0 0.0 0.0 0.0 0.0 0.0
0.0 -4.338760143185806e-06 -4.240391785351964e-06 3.345590885535468e-06 8.948008998164933e-07 3.2242973387530433e-06 0.0 0.0
0.0 0.00012669358954748571 0.00010360467604292838 -7.180439117839455e-05 -3.180028486453327e-05 4.743633345838103e-06 0.0 0.0
0.0 0.0012315626723112412 0.0011017818434394288 -0.0008453968134685537 -0.0002563850299708742 -0.00021765502934575491 0.0 0.0
0.0 0.0041384015290305 0.0036581214517642357 -0.003080142120609181 -0.0005779793311550537 -0.0009595160240738064 0.0 0.0
0.0 0.00913015591904553 0.008123314962034063 -0.007329501040287104 -0.0007938139217469486 -0.0023984455659572983 0.0 0.0
0.0 0.016630805295524412 0.014581433768924764 -0.013669429398846316 -0.0009120043700784435 -0.004354614653516233 0.0 0.0
0.0 0.02645317383902661 0.022984415588663563 -0.02198893624360425 -0.0009954793450592998 -0.006730284203722031 0.0 0.0
0.0 0.03826851294829957 0.0331450440979898 -0.03207015186562119 -0.0010748922323685713 -0.009303725316503267 0.0 0.0
0.0 0.05197968405229237 0.04486955543399748 -0.043710442463143276 -0.001159112970854223 -0.011885977492531997 0.0 0.0
0.0 0.06712310870784555 0.05802537823731681 -0.05677911111915594 -0.0012462671181608736 -0.01443894464694628 0.0 0.0
0.0 0.08414451567406908 0.07249253488903275 -0.07116482146886952 -0.0013277134201631706 -0.017003986951949775 0.0 0.0
0.0 0.1021314310254684 0.08809580273901951 -0.08669701387002737 -0.001398788868991977 -0.019542532765949718 0.0 0.0
0.0 0.12095558815517651 0.10450690795864227 -0.10305221144515164 -0.001454696513490646 -0.021825429493308988 0.0 0.0
0.0 0.1403162376835448 0.12117144967756005 -0.11968494260461289 -0.001486507072947042 -0.02337783568769081 0.0 0.0
0.0 0.1588510157946653 0.13720046546663578 -0.13571894495649714 -0.0014815205101384769 -0.023594074292194317 0.0 0.0
0.0 0.17506716281462073 0.15125106339143868 -0.14981755312076 -0.0014335102706787618 -0.02185410797410528 0.0 0.0
0.0 0.1870070504239657 0.16163126462974964 -0.1602603609778659 -0.0013709036518841093 -0.017251351395036762 0.0 0.0
0.0 0.19297537865330827 0.1660794954084864 -0.16510442008317977 -0.0009750753253064001 2.3288662664988635e-14 0.0 0.0
0.0 0.18700705042394325 0.16163126462972777 -0.16026036097784446 -0.0013709036518834742 0.017251351395090916 0.0 0.0
0.0 0.1750671628145682 0.1512510633913916 -0.14981755312071324 -0.001433510270678273 0.021854107974157492 0.0 0.0
0.0 0.1588510157945927 0.13720046546657239 -0.1357189449564335 -0.001481520510138798 0.02359407429222448 0.0 0.0
0.0 0.14031623768345808 0.12117144967748578 -0.11968494260453827 -0.0014865070729474861 0.023377835687695248 0.0 0.0
0.0 0.12095558815508539 0.10450690795856353 -0.10305221144507307 -0.0014546965134904148 0.021825429493299593 0.0 0.0
0.0 0.1021314310253738 0.0880958027389374 -0.08669701386994559 -0.001398788868991903 0.01954253276594132 0.0 0.0
0.0 0.08414451567397802 0.07249253488895355 -0.07116482146879113 -0.0013277134201624516 0.01700398695194048 0.0 0.0
0.0 0.06712310870775741 0.05802537823724116 -0.05677911111908063 -0.0012462671181604126 0.014438944646932362 0.0 0.0
0.0 0.05197968405220888 0.0448695554339256 -0.04371044246307114 -0.001159112970854544 0.011885977492512356 0.0 0.0
0.0 0.03826851294822658 0.03314504409792688 -0.03207015186555865 -0.0010748922323682059 0.009303725316483914 0.0 0.0
0.0 0.026453173838970757 0.022984415588615133 -0.0219889362435564 -0.0009954793450587366 0.006730284203705453 0.0 0.0
0.0 0.016630805295478817 0.014581433768885297 -0.01366942939880742 -0.0009120043700778705 0.004354614653504397 0.0 0.0
0.0 0.0091301559190151 0.008123314962006927 -0.007329501040260806 -0.000793813921746113 0.0023984455659477075 0.0 0.0
0.0 0.004138401529012556 0.0036581214517490915 -0.0030801421205954673 -0.0005779793311536218 0.0009595160240688404 0.0 0.0
0.0 0.0012315626723035968 0.0011017818434332855 -0.0008453968134636098 -0.0002563850299696755 0.00021765502934416016 0.0 0.0
0.0 0.0001266935895452213 0.00010360467604147948 -7.180439117734828e-05 -3.1800284864130975e-05 -4.743633346031609e-06 0.0 0.0
0.0 -4.338760143484625e-06 -4.240391785291751e-06 3.345590885487863e-06 8.948008998039115e-07 -3.2242973387059766e-06 0.0 0.0
0.0 0.0 0.0 0.0 0.0 0.0 0.0 0.0
0.0 0.0022230235757898244 0.0013366338859149259 -0.000734106756197389 -0.0006025271297175397 0.003852835413211679 0.0 0.0
0.0 0.009326530188609973 0.006708500081679428 -0.009023740867271984 0.002315240785592554 0.0035626404662574404 0.0 0.0
0.0 0.006908976661467642 0.004940661394779628 -0.006764967127568364 0.0018243057327887416 -0.003060676702598756 0.0 0.0
0.0 0.0017786616513577275 0.0008920468218380155 -0.0004796976089697421 -0.0004123492128682729 -0.0028063568224536077 0.0 0.0
0.0 0.0 0.0 0.0 0.0 0.0 0.0 0.0
0.0 -6.508822313364036e-07 -1.4084047078399595e-07 1.1570171057541551e-07 2.5138760208581655e-08 2.914596773624184e-07 0.0 0.0
0.0 -2.786571091288154e-06 9.495344479626993e-06 -3.897083989232349e-06 -5.598260490394584e-06 1.6897822247050345e-05 0.0 0.0
0.0 0.0007236164996592884 0.0006150062751947402 -0.0004598284696468888 -0.0001551778055478521 -0.0002085431141982843 0.0 0.0
0.0 0.003058352107139128 0.0025725175565762637 -0.002107056493917748 -0.0004654610626585092 -0.0010058311445023478 0.0 0.0
0.0 0.007138013270961276 0.006292239536574428 -0.005573723674621089 -0.0007185158619533476 -0.0026384064200354815 0.0 0.0
0.0 0.013622420514248931 0.011829335727408434 -0.010979429309923606 -0.0008499064174848413 -0.004983435133395654 0.0 0.0
0.0 0.022128334431639363 0.019073663127572103 -0.01814277459903954 -0.0009308885285325675 -0.007782496685538996 0.0 0.0
0.0 0.03240524518943189 0.027820888890842277 -0.026816909530620065 -0.001003979360222183 -0.010797778255909324 0.0 0.0
0.0 0.044213609019870495 0.03788034794880342 -0.036798611596673005 -0.0010817363521303928 -0.013816932722769182 0.0 0.0
0.0 0.057474114613248695 0.049141280305410664 -0.04797848160041427 -0.00116279870499638 -0.016802944027677298 0.0 0.0
0.0 0.07171353002619209 0.061536065577665326 -0.060296133745925566 -0.0012399318317397904 -0.019795798971399416 0.0 0.0
0.0 0.08741936868931972 0.07493940625973243 -0.07363228124288312 -0.0013071250168492725 -0.022731344849267986 0.0 0.0
0.0 0.10398677487048177 0.08912437872697415 -0.08776291315246086 -0.0013614655745133044 -0.025376405954320672 0.0 0.0
0.0 0.12069877180632639 0.10368186216863784 -0.10228454656323857 -0.0013973156053992465 -0.027308099432929108 0.0 0.0
0.0 0.1370906827288211 0.11788941916263697 -0.11648702007086809 -0.0014023990917688212 -0.027863012171101043 0.0 0.0
0.0 0.151737440419789 0.13062499932191926 -0.1292546748804359 -0.0013703244414832614 -0.02597282544648184 0.0 0.0
0.0 0.16294231160291994 0.14044689206772865 -0.13912470380672534 -0.0013221882610031266 -0.020165203896978873 0.0 0.0
0.0 0.1691451051124035 0.14498942301656764 -0.14419978773824452 -0.0007896352783231502 2.6732088764802597e-14 0.0 0.0
0.0 0.1629423116028957 0.14044689206770472 -0.13912470380670158 -0.0013221882610030035 0.020165203897039134 0.0 0.0
0.0 0.15173744041974516 0.1306249993218786 -0.12925467488039522 -0.0013703244414832222 0.025972825446539963 0.0 0.0
0.0 0.13709068272875782 0.11788941916258087 -0.11648702007081192 -0.0014023990917690647 0.027863012171135702 0.0 0.0
0.0 0.12069877180625209 0.10368186216857393 -0.10228454656317512 -0.0013973156053987464 0.027308099432935395 0.0 0.0
0.0 0.10398677487039873 0.08912437872690243 -0.0877629131523888 -0.0013614655745136572 0.02537640595430949 0.0 0.0
0.0 0.08741936868923675 0.07493940625966092 -0.07363228124281161 -0.001307125016849304 0.022731344849255816 0.0 0.0
0.0 0.07171353002611383 0.06153606557759743 -0.06029613374585833 -0.0012399318317390345 0.019795798971389562 0.0 0.0
0.0 0.05747411461317306 0.049141280305345286 -0.04797848160034956 -0.0011627987049956862 0.016802944027661693 0.0 0.0
0.0 0.04421360901980202 0.03788034794874464 -0.036798611596614614 -0.0010817363521300005 0.01381693272274876 0.0 0.0
0.0 0.03240524518937083 0.027820888890790228 -0.026816909530568787 -0.0010039793602214435 0.01079777825588608 0.0 0.0
0.0 0.02212833443158932 0.01907366312752947 -0.01814277459899736 -0.0009308885285321073 0.007782496685518735 0.0 0.0
0.0 0.013622420514212313 0.01182933572737691 -0.010979429309892543 -0.0008499064174843695 0.004983435133381963 0.0 0.0
0.0 0.007138013270935495 0.0062922395365521255 -0.005573723674599678 -0.0007185158619524482 0.0026384064200248645 0.0 0.0
0.0 0.0030583521071244173 0.0025725175565643067 -0.002107056493907294 -0.00046546106265701176 0.001005831144497037 0.0 0.0
0.0 0.0007236164996535303 0.0006150062751904083 -0.00045982846964352515 -0.00015517780554688318 0.00020854311419656494 0.0 0.0
0.0 -2.7865710922569096e-06 9.495344479258862e-06 -3.8970839889781065e-06 -5.598260490280879e-06 -1.689782224684771e-05 0.0 0.0
0.0 -6.508822311923975e-07 -1.4084047086722745e-07 1.1570171063891058e-07 2.5138760228310446e-08 -2.914596774651281e-07 0.0 0.0
0.0 0.0 0.0 0.0 0.0 0.0 0.0 0.0
0.0 0.0017786616513498373 0.0008920468218340321 -0.0004796976089670398 -0.00041234921286699064 0.0028063568224430276 0.0 0.0
0.0 0.006908976661450292 0.004940661394766001 -0.006764967127550848 0.001824305732784836 0.003060676702588051 0.0 0.0
0.0 0.005079745051624495 0.003520151098304997 -0.0049017675542197435 0.0013816164559147456 -0.002405051789773029 0.0 0.0
0.0 0.0011195993215237826 0.0005672098927313683 -0.0002979623558760446 -0.0002692475368553237 -0.0019505221087926078 0.0 0.0
0.0 0.0 0.0 0.0 0.0 0.0 0.0 0.0
0.0 -3.478550654948715e-07 9.211100832908152e-08 -7.046263463530488e-08 -2.164837369377663e-08 -1.5427763838761213e-07 0.0 0.0
0.0 -2.403615184311386e-05 -1.759843673126944e-05 1.4580588573204185e-05 3.0178481580652526e-06 2.8603670207866717e-05 0.0 0.0
0.0 0.0003071808350406536 0.0002813430016879693 -0.00020484745464341197 -7.649554704455743e-05 -0.00014930676402947308 0.0 0.0
0.0 0.0018776290661121665 0.0016575527046652765 -0.00131874771018288 -0.0003388049944823974 -0.0009422406462095071 0.0 0.0
0.0 0.0055379465145397756 0.0045520861398305875 -0.003936603827514916 -0.0006154823123156638 -0.0025495756445132263 0.0 0.0
0.0 0.010557453365350064 0.009134477797028204 -0.008360177096138012 -0.0007743007008901952 -0.00507094464968092 0.0 0.0
0.0 0.017889792337337097 0.015197669589799612 -0.014339177101426478 -0.0008584924883731288 -0.008116385801120405 0.0 0.0
0.0 0.026554632359305753 0.022518898326453034 -0.02159259207954584 -0.0009263062469071927 -0.011366304187534959 0.0 0.0
0.0 0.03645240648232537 0.030907679585079825 -0.029909987374957665 -0.0009976922101221117 -0.01461682282628552 0.0 0.0
0.0 0.0474778096346292 0.040273224246579246 -0.03920048677537224 -0.0010727374712070066 -0.017826581582391213 0.0 0.0
0.0 0.05967045808524493 0.050583515249114676 -0.0494397070715363 -0.0011438081775783854 -0.02103810641295572 0.0 0.0
0.0 0.07272983987289222 0.06178276876146094 -0.060575557058629215 -0.0012072117028317487 -0.02419027377248954 0.0 0.0
0.0 0.08651513343346676 0.07371990046278067 -0.07245966338947055 -0.0012602370733100954 -0.027039231977421023 0.0 0.0
0.0 0.10119042251359284 0.08610616457383027 -0.08480622718245566 -0.001299937391374522 -0.029216575665405677 0.0 0.0
0.0 0.11536208284023139 0.09845602149320926 -0.09713554835109003 -0.0013204731421193126 -0.030111744779041064 0.0 0.0
0.0 0.12833789204987225 0.10994332199757033 -0.1086360052556694 -0.0013073167419009922 -0.028433411372380053 0.0 0.0
0.0 0.13905004244742428 0.11936390315123108 -0.1180971918686751 -0.0012667112825559747 -0.02222551767636183 0.0 0.0
0.0 0.14569851442538462 0.12411610431656472 -0.12354181571281125 -0.0005742886037533088 2.637126628179942e-14 0.0 0.0
0.0 0.13905004244740118 0.11936390315120703 -0.11809719186865025 -0.0012667112825568334 0.022225517676424313 0.0 0.0
0.0 0.12833789204983795 0.10994332199753695 -0.10863600525563606 -0.0013073167419009775 0.028433411372443235 0.0 0.0
0.0 0.11536208284018079 0.09845602149316358 -0.09713554835104411 -0.0013204731421193605 0.030111744779078273 0.0 0.0
0.0 0.10119042251352883 0.08610616457377511 -0.08480622718240116 -0.0012999373913739245 0.029216575665410863 0.0 0.0
0.0 0.08651513343339672 0.07371990046272059 -0.07245966338941011 -0.0012602370733106 0.027039231977409813 0.0 0.0
0.0 0.0727298398728233 0.061782768761401784 -0.0605755570585701 -0.0012072117028316322 0.024190273772475405 0.0 0.0
0.0 0.05967045808517821 0.050583515249056646 -0.04943970707147853 -0.001143808177578147 0.021038106412943357 0.0 0.0
0.0 0.047477809634565465 0.04027322424652484 -0.03920048677531846 -0.0010727374712063676 0.01782658158237516 0.0 0.0
0.0 0.036452406482268454 0.0309076795850313 -0.02990998737490995 -0.0009976922101213339 0.014616822826265169 0.0 0.0
0.0 0.026554632359253004 0.022518898326409114 -0.021592592079502742 -0.0009263062469063916 0.011366304187509186 0.0 0.0
0.0 0.01788979233729396 0.015197669589763095 -0.01433917710139054 -0.0008584924883725366 0.008116385801098008 0.0 0.0
0.0 0.01055745336532005 0.009134477797002275 -0.008360177096112711 -0.0007743007008895721 0.005070944649666379 0.0 0.0
0.0 0.005537946514518323 0.004552086139813213 -0.00393660382749868 -0.00061548231231453 0.002549575644503496 0.0 0.0
0.0 0.0018776290661023504 0.0016575527046575097 -0.0013187477101763124 -0.0003388049944811977 0.0009422406462046606 0.0 0.0
0.0 0.00030718083503671365 0.000281343001685201 -0.00020484745464133836 -7.649554704386227e-05 0.00014930676402759952 0.0 0.0
0.0 -2.4036151843525453e-05 -1.7598436730805223e-05 1.4580588572845739e-05 3.0178481579594514e-06 -2.8603670207243612e-05 0.0 0.0
0.0 -3.47855065332589e-07 9.211100832940346e-08 -7.046263463546937e-08 -2.164837369393094e-08 1.5427763838188135e-07 0.0 0.0
0.0 0.0 0.0 0.0 0.0 0.0 0.0 0.0
0.0 0.0011195993215177766 0.0005672098927285514 -0.00029796235587414485 -0.0002692475368544059 0.0019505221087846112 0.0 0.0
0.0 0.005079745051611158 0.0035201510982944707 -0.004901767554205899 0.001381616455911424 0.0024050517897657962 0.0 0.0
0.0 0.0034312538319042707 0.0023876626566406664 -0.003374945378924953 0.0009872827222842818 -0.0018011511806183536 0.0 0.0
0.0 0.0007129061892039491 0.00031923516136975584 -0.00015438806963346903 -0.00016484709173628657 -0.0012441468842353909 0.0 0.0
0.0 2.9041076945466384e-07 -3.4488798683329004e-09 2.6803405111441826e-09 7.685393571887485e-10 5.864590140692222e-08 0.0 0.0
0.0 -3.9933846218285653e-07 2.3010864123224606e-08 -1.7665084308602554e-08 -5.345779814626124e-09 -7.114747973550936e-08 0.0 0.0
0.0 -1.5271138804286353e-05 -1.0032115973960041e-05 8.023857179483155e-06 2.008258794476939e-06 2.095200562243875e-05 0.0 0.0
0.0 8.32686328001382e-05 7.34683964459958e-05 -5.054447843975697e-05 -2.292391800623891e-05 -4.912947702384092e-05 0.0 0.0
0.0 0.0011059911089735545 0.0009081438802821713 -0.0007031681395218557 -0.00020497574076031556 -0.0007438479171573044 0.0 0.0
0.0 0.003570571328651886 0.003006801279032244 -0.002525481177444856 -0.0004813201015873874 -0.002258338032981269 0.0 0.0
0.0 0.008157424827851725 0.006536878029318415 -0.0058634103659872434 -0.0006734676633311678 -0.004642177235042038 0.0 0.0
0.0 0.013587515979245703 0.011401077711129982 -0.01062895557861625 -0.0007721221325137336 -0.007708611973615261 0.0 0.0
0.0 0.020775324862715033 0.017282123864887373 -0.016443218466646654 -0.0008389053982407368 -0.010993483618702095 0.0 0.0
0.0 0.028795814576093384 0.02399458694306772 -0.023090312254899437 -0.0009042746881682957 -0.014274064041548174 0.0 0.0
0.0 0.03766066231836632 0.03146399296099696 -0.030491468495916395 -0.0009725244650805237 -0.017498461305245884 0.0 0.0
0.0 0.0474088076881063 0.03969219763056149 -0.03865409357094324 -0.0010381040596182717 -0.02071739781140457 0.0 0.0
0.0 0.05796864581627191 0.04867523151631954 -0.04757849162165231 -0.0010967398946671986 -0.023884165507338784 0.0 0.0
0.0 0.06955989671657531 0.05833461411210353 -0.05718892268847394 -0.0011456914236296202 -0.02677762479755794 0.0 0.0
0.0 0.08106414655605801 0.06850170553668818 -0.06731128369888577 -0.0011904218378024428 -0.02904761854031388 0.0 0.0
0.0 0.09330905437428154 0.07890849199491953 -0.07767838526703286 -0.001230106727886528 -0.030231982966234666 0.0 0.0
0.0 0.10513123986478837 0.0891062512885227 -0.08786628248412819 -0.001239968804394623 -0.029124625386814835 0.0 0.0
0.0 0.11529304197142683 0.09819895309073719 -0.09699223298361419 -0.0012067201071230304 -0.023406103065019977 0.0 0.0
0.0 0.12264282841742782 0.1032600406031141 -0.10293145708847287 -0.0003285835146413081 2.5527323310736705e-14 0.0 0.0
0.0 0.1152930419714108 0.09819895309071898 -0.0969922329835946 -0.001206720107124414 0.023406103065082305 0.0 0.0
0.0 0.10513123986476526 0.08910625128849774 -0.08786628248410404 -0.0012399688043937364 0.02912462538687843 0.0 0.0
0.0 0.09330905437424084 0.07890849199488176 -0.0776783852669952 -0.0012301067278865658 0.030231982966271678 0.0 0.0
0.0 0.08106414655600436 0.0685017055366426 -0.0673112836988399 -0.0011904218378027058 0.02904761854031775 0.0 0.0
0.0 0.06955989671652328 0.05833461411205915 -0.057188922688429324 -0.0011456914236298694 0.026777624797546612 0.0 0.0
0.0 0.05796864581621853 0.048675231516272864 -0.04757849162160673 -0.0010967398946661372 0.023884165507325073 0.0 0.0
0.0 0.04740880768805652 0.03969219763051857 -0.038654093570900674 -0.0010381040596178569 0.020717397811392556 0.0 0.0
0.0 0.03766066231831451 0.03146399296095323 -0.030491468495873215 -0.0009725244650800468 0.01749846130522938 0.0 0.0
0.0 0.028795814576043157 0.023994586943026124 -0.023090312254857935 -0.0009042746881682145 0.01427406404152604 0.0 0.0
0.0 0.020775324862671432 0.017282123864852058 -0.016443218466611745 -0.000838905398240316 0.01099348361867624 0.0 0.0
0.0 0.01358751597921003 0.011401077711100927 -0.0106289555785873 -0.0007721221325136327 0.007708611973592214 0.0 0.0
0.0 0.008157424827825221 0.006536878029297659 -0.005863410365967318 -0.0006734676633303422 0.004642177235027539 0.0 0.0
0.0 0.0035705713286360036 0.0030068012790195075 -0.002525481177433108 -0.00048132010158639574 0.0022583380329721306 0.0 0.0
0.0 0.0011059911089657515 0.0009081438802765458 -0.0007031681395174496 -0.00020497574075909622 0.0007438479171526139 0.0 0.0
0.0 8.326863279828921e-05 7.346839644514368e-05 -5.05444784391297e-05 -2.292391800601415e-05 4.912947702320416e-05 0.0 0.0
0.0 -1.5271138804862325e-05 -1.003211597391886e-05 8.023857179443832e-06 2.008258794475028e-06 -2.09520056222718e-05 0.0 0.0
0.0 -3.9933846203843063e-07 2.3010864114477826e-08 -1.766508430182229e-08 -5.345779812654833e-09 7.114747970917023e-08 0.0 0.0
0.0 2.9041076910978675e-07 -3.44887986405181e-09 2.6803405077244864e-09 7.685393563274542e-10 -5.8645901335916544e-08 0.0 0.0
0.0 0.0007129061891993083 0.00031923516136787356 -0.00015438806963224847 -0.0001648470917356249 0.0012441468842293857 0.0 0.0
0.0 0.0034312538318936408 0.002387662656632388 -0.0033749453789137795 0.000987282722281391 0.001801151180612894 0.0 0.0
0.0 0.0025847419220806564 0.0014625389612588377 -0.0020958605100334406 0.0006333215487746024 -0.0012355307467884545 0.0 0.0
0.0 0.0003055697975239314 0.00014804040386713816 -5.806015811525898e-05 -8.998024575187923e-05 -0.0006972435943824592 0.0 0.0
0.0 8.57172785227552e-07 5.175492074560472e-08 -5.212492492498977e-08 3.700041793857149e-10 -1.02856944853906e-06 0.0 0.0
0.0 -6.753298572224762e-07 3.948630891520765e-08 -3.0736118878972094e-08 -8.750190036235846e-09 -2.5620219358762105e-07 0.0 0.0
0.0 -7.708257140867853e-06 -5.068958492142845e-06 4.02328345549061e-06 1.0456750366522345e-06 1.696478583690213e-05 0.0 0.0
0.0 -9.025434720821819e-06 -4.105754459144508e-06 5.287674518985695e-06 -1.1819200598412165e-06 1.5723617031622362e-05 0.0 0.0
0.0 0.0004996178513522248 0.00037396267658007293 -0.00028341352343669117 -9.0549153143381e-05 -0.0004718659090777717 0.0 0.0
0.0 0.0020941976166221755 0.0016795594276827462 -0.0013669724606296403 -0.0003125869670531053 -0.001762505777005905 0.0 0.0
0.0 0.005213430315632988 0.004160229764501638 -0.003628913599953651 -0.0005313161645479893 -0.0038395662514366493 0.0 0.0
0.0 0.009899852669319273 0.0077372098826194715 -0.007080116554343663 -0.0006570933282757971 -0.006580907734648246 0.0 0.0
0.0 0.01509830041401292 0.012159276199339394 -0.011427887448404167 -0.0007313887509352178 -0.009661602776054136 0.0 0.0
0.0 0.02116609706486739 0.017194236539023564 -0.01639965307262289 -0.0007945834664006782 -0.012756688627177472 0.0 0.0
0.0 0.02793793395608086 0.02277118346107316 -0.02191452958376328 -0.000856653877309865 -0.015794153426658616 0.0 0.0
0.0 0.03531494111294969 0.028915400628666803 -0.02800034977393703 -0.0009150508547297371 -0.01880872388494372 0.0 0.0
0.0 0.043482182893269834 0.03567179299649075 -0.034702791006726456 -0.0009690019897643004 -0.021790182863255125 0.0 0.0
0.0 0.05220099222079862 0.04303953688372784 -0.04202415430104763 -0.001015382582680138 -0.024558826269722934 0.0 0.0
0.0 0.06166307830260553 0.050927847997483136 -0.0498692916346786 -0.001058556362804531 -0.026769568855229683 0.0 0.0
0.0 0.07129354776261258 0.05927040875487892 -0.05815472255610814 -0.0011156861987707597 -0.02807988280374361 0.0 0.0
0.0 0.0811713301023555 0.06803092358179542 -0.06686874429640201 -0.001162179285393304 -0.027789701218712975 0.0 0.0
0.0 0.09110690452130332 0.07675777397621028 -0.0756121644906921 -0.0011456094855182054 -0.023539005247921886 0.0 0.0
0.0 0.09951080998007901 0.08221097484243926 -0.08216274307426269 -4.823176817670785e-05 2.2865390136850294e-14 0.0 0.0
0.0 0.09110690452129488 0.07675777397619711 -0.07561216449067842 -0.0011456094855186053 0.023539005247979423 0.0 0.0
0.0 0.08117133010233704 0.06803092358177364 -0.06686874429638051 -0.0011621792853931227 0.02778970121877402 0.0 0.0
0.0 0.0712935477625799 0.0592704087548483 -0.05815472255607759 -0.0011156861987706727 0.02807988280377658 0.0 0.0
0.0 0.061663078302568786 0.05092784799745189 -0.04986929163464821 -0.001058556362803627 0.026769568855233943 0.0 0.0
0.0 0.052200992220757525 0.04303953688369355 -0.042024154301013666 -0.0010153825826799473 0.024558826269708692 0.0 0.0
0.0 0.043482182893228756 0.035671792996455856 -0.03470279100669191 -0.0009690019897639001 0.02179018286324081 0.0 0.0
0.0 0.03531494111291429 0.02891540062863623 -0.028000349773907293 -0.0009150508547289538 0.01880872388493414 0.0 0.0
0.0 0.027937933956041463 0.02277118346104066 -0.021914529583731114 -0.0008566538773095273 0.015794153426643934 0.0 0.0
0.0 0.021166097064831326 0.0171942365389942 -0.016399653072593518 -0.0007945834664006754 0.012756688627158128 0.0 0.0
0.0 0.015098300413979929 0.01215927619931365 -0.011427887448379118 -0.000731388750934515 0.009661602776030674 0.0 0.0
0.0 0.009899852669290844 0.007737209882597634 -0.007080116554322054 -0.0006570933282755777 0.006580907734627361 0.0 0.0
0.0 0.0052134303156151545 0.004160229764487663 -0.003628913599940668 -0.000531316164546998 0.0038395662514252985 0.0 0.0
0.0 0.002094197616612825 0.0016795594276755995 -0.0013669724606234594 -0.00031258696705214036 0.001762505776999303 0.0 0.0
0.0 0.0004996178513468399 0.0003739626765764889 -0.0002834135234337803 -9.054915314270814e-05 0.00047186590907271513 0.0 0.0
0.0 -9.025434721447326e-06 -4.10575445899898e-06 5.287674518839721e-06 -1.1819200598406943e-06 -1.5723617031017757e-05 0.0 0.0
0.0 -7.708257142553832e-06 -5.0689584920642405e-06 4.02328345543339e-06 1.0456750366308325e-06 -1.6964785836804875e-05 0.0 0.0
0.0 -6.753298575555667e-07 3.948630892499972e-08 -3.073611888566245e-08 -8.750190039337168e-09 2.562021937148972e-07 0.0 0.0
0.0 8.571727850148235e-07 5.1754920770321015e-08 -5.2124924950140733e-08 3.7000417982015705e-10 1.0285694490792175e-06 0.0 0.0
0.0 0.00030556979752097396 0.00014804040386592524 -5.80601581144967e-05 -8.998024575142865e-05 0.0006972435943779084 0.0 0.0
0.0 0.002584741922070919 0.0014625389612527905 -0.0020958605100250076 0.0006333215487722177 0.001235530746784419 0.0 0.0
0.0 0.0013428038390759969 0.0008060600523347833 -0.0011706747079026812 0.0003646146555678978 -0.0008242853671988127 0.0 0.0
0.0 0.0001061746511171089 3.6348083653921055e-05 8.269901934707376e-06 -4.46179855886283e-05 -0.00028735152381384753 0.0 0.0
0.0 1.919598200935026e-06 -1.0461034726860497e-09 1.0066268011401095e-08 -9.020164538714136e-09 6.262853884031256e-07 0.0 0.0
0.0 1.1557153186616696e-06 -1.2796263203698996e-07 9.182493215643535e-08 3.61376998805545e-08 1.3702447676101082e-06 0.0 0.0
0.0 -7.575303574345408e-06 -2.478406552761226e-06 1.9688154223720304e-06 5.095911303891964e-07 1.2604578515081397e-05 0.0 0.0
0.0 -2.158484092697476e-05 -9.386884904428746e-06 8.024541083785426e-06 1.3623438206433524e-06 1.9993662177814422e-05 0.0 0.0
0.0 0.00016747112501830648 7.919484609839347e-05 -5.933795834577225e-05 -1.9856887752621585e-05 -0.00020223903513680788 0.0 0.0
0.0 0.0010316049234580253 0.000649006475195098 -0.0005181539881066014 -0.00013085248708849672 -0.0010966127282730563 0.0 0.0
0.0 0.0028658035287674835 0.0020691007942432085 -0.0017487706832166805 -0.0003203301110265267 -0.0027248178230346617 0.0 0.0
0.0 0.005879185619877969 0.004337705593630495 -0.003861056340391829 -0.0004766492532386705 -0.004880304039559845 0.0 0.0
0.0 0.009464373903696881 0.007245699273372314 -0.006670390752764271 -0.0005753085206080465 -0.007423053300359633 0.0 0.0
0.0 0.013725514216446313 0.01058051353276088 -0.009936771670224201 -0.0006437418625366706 -0.01006121398864053 0.0 0.0
0.0 0.018359406314592135 0.014268419671467436 -0.013564376712336628 -0.0007040429591308091 -0.01271096725762512 0.0 0.0
0.0 0.023418540636252795 0.018335569520952104 -0.01757951493624735 -0.0007560545847047667 -0.015339573757397593 0.0 0.0
0.0 0.029046248085774024 0.022855685291305546 -0.022051189322673453 -0.0008044959686320768 -0.017934820734707597 0.0 0.0
0.0 0.03530124611275112 0.02790311947809917 -0.0270528718608062 -0.0008502476172929642 -0.020424176763454278 0.0 0.0
0.0 0.04209681727989242 0.033492627080876754 -0.03259873718591848 -0.0008938898949582807 -0.02252332406309527 0.0 0.0
0.0 0.049218568256067054 0.0396477007193557 -0.03869602814616161 -0.0009516725731941345 -0.02381443800795123 0.0 0.0
0.0 0.057280338623604654 0.04666995629294525 -0.04562958114070976 -0.0010403751522354812 -0.024085050545803805 0.0 0.0
0.0 0.066773033365186 0.054812332669027394 -0.053732689875227314 -0.0010796427938000762 -0.022165108837203837 0.0 0.0
0.0 0.07639648118583116 0.06072164380498923 -0.06099135580169608 0.00026971199670677533 2.0831426861267488e-14 0.0 0.0
0.0 0.06677303336518464 0.054812332669019484 -0.05373268987521795 -0.0010796427938015393 0.02216510883725472 0.0 0.0
0.0 0.057280338623596584 0.0466699562929322 -0.04562958114069697 -0.0010403751522352004 0.024085050545860992 0.0 0.0
0.0 0.0492185682560416 0.03964770071933267 -0.03869602814613861 -0.000951672573194036 0.023814438007976706 0.0 0.0
0.0 0.042096817279863814 0.033492627080854 -0.03259873718589664 -0.000893889894957362 0.022523324063093295 0.0 0.0
0.0 0.035301246112720994 0.02790311947807521 -0.027052871860782025 -0.0008502476172931413 0.020424176763438075 0.0 0.0
0.0 0.029046248085747288 0.02285568529128337 -0.02205118932265142 -0.0008044959686319481 0.017934820734697102 0.0 0.0
0.0 0.023418540636228356 0.01833556952093185 -0.017579514936227322 -0.0007560545847045438 0.015339573757388925 0.0 0.0
0.0 0.018359406314568696 0.01426841967144874 -0.013564376712318265 -0.0007040429591304624 0.012710967257614504 0.0 0.0
0.0 0.013725514216423073 0.01058051353274362 -0.009936771670207397 -0.000643741862536213 0.010061213988624607 0.0 0.0
0.0 0.009464373903672977 0.007245699273354585 -0.006670390752747097 -0.000575308520607484 0.0074230533003392385 0.0 0.0
0.0 0.005879185619858747 0.00433770559361676 -0.0038610563403785624 -0.0004766492532382007 0.004880304039543759 0.0 0.0
0.0 0.0028658035287559966 0.0020691007942347296 -0.0017487706832091485 -0.0003203301110255797 0.0027248178230260254 0.0 0.0
0.0 0.0010316049234524003 0.0006490064751913256 -0.0005181539881034405 -0.00013085248708788553 0.0010966127282682242 0.0 0.0
0.0 0.00016747112501549973 7.919484609780141e-05 -5.9337958345335704e-05 -1.9856887752465656e-05 0.00020223903513517838 0.0 0.0
0.0 -2.1584840927500616e-05 -9.38688490407763e-06 8.024541083526955e-06 1.3623438205506385e-06 -1.9993662176643843e-05 0.0 0.0
0.0 -7.57530357401854e-06 -2.478406552602249e-06 1.968815422251766e-06 5.09591130350494e-07 -1.2604578513742224e-05 0.0 0.0
0.0 1.1557153183753865e-06 -1.279626320602971e-07 9.182493217943575e-08 3.613769988086221e-08 -1.3702447673547021e-06 0.0 0.0
0.0 1.9195982007574114e-06 -1.0461034603072137e-09 1.0066267992840368e-08 -9.02016453253276e-09 -6.262853879824766e-07 0.0 0.0
0.0 0.00010617465111449778 3.6348083653373066e-05 8.269901935000417e-06 -4.461798558837315e-05 0.0002873515238113524 0.0 0.0
0.0 0.0013428038390695715 0.0008060600523311445 -0.0011706747078974445 0.00036461465556629887 0.0008242853671960906 0.0 0.0
0.0 0.0006448356896051971 0.0003439631663748504 -0.0005041646309997543 0.00016020146462490442 -0.00043424451190362824 0.0 0.0
0.0 -1.326881506286522e-05 -1.4348655245824849e-05 3.300321276531108e-05 -1.8654557519486308e-05 -3.796015482281103e-05 0.0 0.0
0.0 2.9702190504054766e-06 4.3851311147439574e-08 -1.0112301257987984e-07 5.727170143244075e-08 -3.0992683788358966e-06 0.0 0.0
0.0 1.3427985061128408e-06 -1.0527829735472167e-07 9.437438515583059e-08 1.0903912198889133e-08 -1.8873409480905663e-06 0.0 0.0
0.0 -5.058637378799538e-06 -1.0549306582663303e-06 8.828659415336884e-07 1.7206471673265002e-07 8.866628048206624e-06 0.0 0.0
0.0 -5.366698478432263e-06 -4.106426790865928e-06 3.525111739287657e-06 5.813150515782346e-07 1.2955124139889661e-05 0.0 0.0
0.0 6.792520929037856e-05 4.004923399850256e-06 -2.7265684639521065e-06 -1.2783549358980654e-06 -9.581735371365888e-05 0.0 0.0
0.0 0.00031902727112780537 8.357290771457473e-05 -7.032115711098434e-05 -1.3251750603590566e-05 -0.0004843627211797341 0.0 0.0
0.0 0.0010208831939295963 0.0004521128705797874 -0.0003976869361537572 -5.442593442602967e-05 -0.0014110918355955035 0.0 0.0
0.0 0.0024185776354154246 0.0013509415205241277 -0.0012131888016506554 -0.00013775271887347257 -0.0028832985464446017 0.0 0.0
0.0 0.004531175767268989 0.002711626813759633 -0.0024781111366350807 -0.00023351567712454987 -0.004668223210968712 0.0 0.0
0.0 0.0067392702191507465 0.004328738562237782 -0.004012541280555921 -0.0003161972816818654 -0.006653355103863661 0.0 0.0
0.0 0.00933718468564936 0.006124964138819977 -0.005739476569800425 -0.0003854875690195479 -0.008752848826066632 0.0 0.0
0.0 0.012238884525895116 0.00812650197655891 -0.0076832159623464735 -0.0004432860142124378 -0.010921311377501993 0.0 0.0
0.0 0.015464605392491046 0.010410360145163182 -0.00991272922810016 -0.0004976309170630225 -0.013148739351756795 0.0 0.0
0.0 0.01916145647166139 0.013101715272629516 -0.012547701869325103 -0.0005540134033044198 -0.015406595372610306 0.0 0.0
0.0 0.023493849812677645 0.01635386539534209 -0.015739493824578468 -0.0006143715707636264 -0.017510335391129773 0.0 0.0
0.0 0.02849284548791512 0.020297149640792312 -0.019621312036474967 -0.0006758376043173471 -0.018935732855013113 0.0 0.0
0.0 0.0342405761977759 0.025252067917080633 -0.02448227527846028 -0.0007697926386203595 -0.019190429914108454 0.0 0.0
0.0 0.042005311209123215 0.03221011455164517 -0.031272529320750725 -0.0009375852308944014 -0.01883149716912058 0.0 0.0
0.0 0.05438637353669936 0.03849777457275005 -0.0391381547578114 0.0006403801850613896 1.488739687083296e-14 0.0 0.0
0.0 0.04200531120913206 0.03221011455164438 -0.03127252932074977 -0.0009375852308946653 0.01883149716916407 0.0 0.0
0.0 0.03424057619777434 0.02525206791707397 -0.024482275278454403 -0.0007697926386195684 0.019190429914152016 0.0 0.0
0.0 0.02849284548789621 0.02029714964077745 -0.019621312036460146 -0.0006758376043172948 0.018935732855028097 0.0 0.0
0.0 0.023493849812655454 0.016353865395328952 -0.015739493824565697 -0.0006143715707632871 0.01751033539111997 0.0 0.0
0.0 0.019161456471645914 0.013101715272619002 -0.012547701869314384 -0.0005540134033046085 0.015406595372598048 0.0 0.0
0.0 0.01546460539247804 0.010410360145153848 -0.009912729228090143 -0.000497630917063714 0.01314873935174797 0.0 0.0
0.0 0.012238884525884028 0.008126501976551744 -0.007683215962339647 -0.0004432860142120981 0.010921311377495703 0.0 0.0
0.0 0.00933718468563871 0.006124964138813955 -0.005739476569794715 -0.00038548756901924774 0.00875284882605809 0.0 0.0
0.0 0.006739270219135836 0.004328738562228792 -0.0040125412805471295 -0.0003161972816816625 0.006653355103849607 0.0 0.0
0.0 0.004531175767255955 0.002711626813752563 -0.0024781111366278924 -0.0002335156771246704 0.004668223210953958 0.0 0.0
0.0 0.0024185776354060857 0.0013509415205185998 -0.0012131888016455757 -0.00013775271887302452 0.0028832985464357598 0.0 0.0
0.0 0.0010208831939257637 0.0004521128705778089 -0.00039768693615184215 -5.442593442596577e-05 0.0014110918355907756 0.0 0.0
0.0 0.0003190272711261615 8.357290771414902e-05 -7.032115711061879e-05 -1.32517506035302e-05 0.0004843627211778607 0.0 0.0
0.0 6.792520928904279e-05 4.004923399848648e-06 -2.7265684639322588e-06 -1.278354935916388e-06 9.581735371302864e-05 0.0 0.0
0.0 -5.366698478755629e-06 -4.106426790595123e-06 3.5251117390758207e-06 5.813150515193043e-07 -1.2955124138253226e-05 0.0 0.0
0.0 -5.058637378847475e-06 -1.0549306582430407e-06 8.828659415186158e-07 1.7206471672442144e-07 -8.866628047491886e-06 0.0 0.0
0.0 1.3427985061573232e-06 -1.0527829737533183e-07 9.437438517676687e-08 1.0903912198565698e-08 1.8873409489642047e-06 0.0 0.0
0.0 2.970219050303704e-06 4.3851311155397065e-08 -1.0112301259930289e-07 5.7271701443902286e-08 3.0992683795863055e-06 0.0 0.0
0.0 -1.3268815064194213e-05 -1.4348655245964603e-05 3.3003212765340715e-05 -1.865455751937606e-05 3.7960154821649264e-05 0.0 0.0
0.0 0.0006448356896012295 0.0003439631663729761 -0.0005041646309969957 0.0001602014646240191 0.0004342445119018478 0.0 0.0
0.0 0.00015176668917568683 8.700564829680342e-05 -0.00012979090573285153 4.278525743604799e-05 -0.00013847081307680103 0.0 0.0
0.0 -2.3223821162409545e-05 -1.3204865359275346e-05 1.8821469747477087e-05 -5.616604388201715e-06 2.3437734413003715e-05 0.0 0.0
0.0 3.274997282346934e-06 1.592084684082744e-07 -1.2779456878951315e-07 -3.14138996187651e-08 3.20270002590784e-06 0.0 0.0
0.0 2.946073832195629e-06 -2.616130158306952e-07 2.1516186322699685e-07 4.645115260370097e-08 -3.3710753316905226e-06 0.0 0.0
0.0 -4.455349817808273e-07 -3.7811728781283664e-07 3.7018094423507656e-07 7.936343577757103e-09 2.0664626823538298e-06 0.0 0.0
0.0 3.820486053771292e-06 -1.2198027255426597e-06 1.2611870727222512e-06 -4.138434717959054e-08 1.1098276554105293e-06 0.0 0.0
0.0 7.401920516752686e-05 -1.8746093800152728e-06 1.8715977089621186e-06 3.011671053143719e-09 -0.00010455485467836609 0.0 0.0
0.0 0.00019823349607690232 -1.441544745739002e-06 1.4138798408768418e-06 2.7664904862200898e-08 -0.00034180624050109587 0.0 0.0
0.0 0.0004505034062454222 -2.964869872321954e-07 2.6755437515341797e-07 2.8932612078779127e-08 -0.0007158279411399802 0.0 0.0
0.0 0.0007518689840554057 3.4190145973517585e-08 -1.60225183440564e-08 -1.8167627629786444e-08 -0.0014508498350168705 0.0 0.0
0.0 0.001420333280185617 2.4043035547294885e-07 -2.6565602757536036e-07 2.5225672102560594e-08 -0.0026990847760760715 0.0 0.0
0.0 0.0023614732415017706 -8.107398943395065e-06 1.0474789963655696e-05 -2.3673910202606308e-06 -0.004485706990145902 0.0 0.0
0.0 0.0036353448847747357 -2.4428139621749225e-05 2.8304551687369716e-05 -3.876412065619407e-06 -0.006427979685444853 0.0 0.0
0.0 0.005089956329231549 -3.4046767987833625e-05 3.554009100022366e-05 -1.493323012389413e-06 -0.008477880520466616 0.0 0.0
0.0 0.006701433895414884 3.355123665857841e-05 -4.4840290387206235e-05 1.128905372862728e-05 -0.01064393534522239 0.0 0.0
0.0 0.008428754006519358 0.00033836917176560016 -0.0003770020750054531 3.86329032398503e-05 -0.012920248517292501 0.0 0.0
0.0 0.01031366162745606 0.0011479540350147895 -0.0012338783732303569 8.592433821557105e-05 -0.015233011745436552 0.0 0.0
0.0 0.01228305555748126 0.0027023020572174163 -0.0029057012717708997 0.00020339921455347605 -0.017371858676419064 0.0 0.0
0.0 0.014981028976938957 0.004696828957575579 -0.005085885916258784 0.00038905695868321217 -0.01892361660669015 0.0 0.0
0.0 0.02165949581806174 0.009285593425288285 -0.009026556015845183 -0.00025903740944310496 -0.019517188553727062 0.0 0.0
0.0 0.038587103137592255 0.016295690683463728 -0.017526755285742084 0.0012310646022783505 1.1167282376600696e-14 0.0 0.0
0.0 0.021659495818072423 0.009285593425289125 -0.009026556015845453 -0.00025903740944365074 0.019517188553756927 0.0 0.0
0.0 0.014981028976928708 0.004696828957570272 -0.005085885916254121 0.00038905695868384296 0.018923616606698685 0.0 0.0
0.0 0.01228305555746705 0.002702302057214348 -0.002905701271767404 0.00020339921455305669 0.017371858676414872 0.0 0.0
0.0 0.010313661627445438 0.0011479540350160322 -0.0012338783732318858 8.592433821585479e-05 0.015233011745423042 0.0 0.0
0.0 0.008428754006511364 0.00033836917176743213 -0.00037700207500746506 3.86329032400316e-05 0.012920248517282006 0.0 0.0
0.0 0.0067014338954099455 3.355123666101353e-05 -4.484029038968407e-05 1.1289053728670703e-05 0.010643935345214638 0.0 0.0
0.0 0.005089956329222484 -3.4046767984904545e-05 3.554009099729057e-05 -1.4933230123863502e-06 0.008477880520454562 0.0 0.0
0.0 0.003635344884766356 -2.4428139619068643e-05 2.8304551684550682e-05 -3.8764120654811985e-06 0.006427979685432325 0.0 0.0
0.0 0.002361473241490235 -8.107398941009224e-06 1.0474789960983354e-05 -2.3673910199750655e-06 0.004485706990131469 0.0 0.0
0.0 0.001420333280178316 2.4043035669519706e-07 -2.656560291607621e-07 2.522567246580898e-08 0.00269908477606518 0.0 0.0
0.0 0.0007518689840530347 3.419014576804772e-08 -1.6022518147348246e-08 -1.8167627620540233e-08 0.001450849835014549 0.0 0.0
0.0 0.00045050340624428923 -2.96486987298081e-07 2.675543752163356e-07 2.8932612081570948e-08 0.0007158279411383773 0.0 0.0
0.0 0.00019823349607498168 -1.4415447457392688e-06 1.413879840896464e-06 2.766490484279135e-08 0.00034180624049772986 0.0 0.0
0.0 7.401920516635993e-05 -1.874609380003701e-06 1.8715977089462643e-06 3.0116710574691722e-09 0.00010455485467803784 0.0 0.0
0.0 3.8204860530032156e-06 -1.2198027255444253e-06 1.2611870727253414e-06 -4.1384347180926036e-08 -1.1098276547870373e-06 0.0 0.0
0.0 -4.4553498261305774e-07 -3.781172878366185e-07 3.7018094425769985e-07 7.93634357892223e-09 -2.0664626818167533e-06 0.0 0.0
0.0 2.9460738322946603e-06 -2.616130158939806e-07 2.1516186328296166e-07 4.645115261101885e-08 3.371075332614986e-06 0.0 0.0
0.0 3.2749972816130936e-06 1.5920846840175134e-07 -1.2779456879755215e-07 -3.141389960419036e-08 -3.2027000251576195e-06 0.0 0.0
0.0 -2.3223821162562618e-05 -1.3204865358935025e-05 1.8821469747079246e-05 -5.61660438814425e-06 -2.3437734412107178e-05 0.0 0.0
0.0 0.0001517666891736556 8.700564829620623e-05 -0.00012979090573202108 4.278525743581506e-05 0.00013847081307578706 0.0 0.0
0.0 3.953116270154399e-06 7.278080344294017e-07 -1.5504266476027467e-06 8.226186131733101e-07 -4.3970130289625177e-07 0.0 0.0
0.0 -7.581207230631809e-07 -1.931972522486901e-07 3.356203454338811e-07 -1.4242309318519126e-07 1.7863043260171867e-06 0.0 0.0
0.0 9.602084001469555e-07 1.326910613836237e-07 -1.8824153618457826e-07 5.5550474800954206e-08 -1.7567661249061546e-06 0.0 0.0
0.0 5.05208783662653e-06 -3.0001656719922453e-07 2.3136419696170446e-07 6.865237023752056e-08 -4.258790012224896e-06 0.0 0.0
0.0 2.8117206453129778e-06 -5.380703862398332e-07 5.09739609687476e-07 2.8330776552357364e-08 -4.757923049205186e-06 0.0 0.0
0.0 5.2873261525792115e-06 -9.174772557661379e-07 1.083436352268597e-06 -1.659590965024133e-07 -1.41211336269047e-05 0.0 0.0
0.0 9.785795025942878e-05 -9.626668886688942e-06 7.985294756713251e-06 1.6413741299756152e-06 -0.00011203487203242327 0.0 0.0
0.0 0.00033489442461807906 -8.978236023702596e-05 7.580499513678323e-05 1.3977365100242802e-05 -0.0004999227050017364 0.0 0.0
0.0 0.0010255662569235797 -0.00045420888634468883 0.0003994385054480546 5.47703808966346e-05 -0.0014190260684517906 0.0 0.0
0.0 0.002416897924456651 -0.0013501297251832158 0.0012124129510601548 0.00013771677412306092 -0.0028832919580911295 0.0 0.0
0.0 0.0045459436998758675 -0.0027147938355483333 0.002480901791843528 0.0002338920437048031 -0.004666357898254421 0.0 0.0
0.0 0.0067807834185957564 -0.004356100725799831 0.0040364951965495745 0.0003196055292502566 -0.006659918130423145 0.0 0.0
0.0 0.009408798270593757 -0.00619013644669831 0.005800269295330404 0.0003898671513679016 -0.008757835976477966 0.0 0.0
0.0 0.012304779081976101 -0.008196523022846527 0.007756363809353107 0.00044015921349342273 -0.01091225594245791 0.0 0.0
0.0 0.015289829074885556 -0.01028953530821069 0.009822323539578886 0.00046721176863179963 -0.01314098979903092 0.0 0.0
0.0 0.01819778930513787 -0.012247264210470598 0.011782737030811216 0.00046452717965937815 -0.015499701704345123 0.0 0.0
0.0 0.020616773415150554 -0.013694325064612451 0.013269974257228834 0.00042435080738362056 -0.01801874864982136 0.0 0.0
0.0 0.02232545245431348 -0.014157342326474786 0.013821500390918416 0.0003358419355563823 -0.02078008133426583 0.0 0.0
0.0 0.022399100676805832 -0.013088254420860495 0.012955151166822464 0.00013310325403804383 -0.02373773179592931 0.0 0.0
0.0 0.018249983718822603 -0.009494300991421567 0.009916405073901182 -0.00042210408247962244 -0.02574417875051858 0.0 0.0
0.0 0.03727358678330218 -0.005411195235221482 0.0028026032813368903 0.002608591953884583 1.7105240834869306e-14 0.0 0.0
0.0 0.01824998371883299 -0.00949430099142432 0.009916405073904016 -0.00042210408247969264 0.02574417875053956 0.0 0.0
0.0 0.02239910067679917 -0.013088254420853316 0.012955151166815228 0.0001331032540380814 0.023737731795943327 0.0 0.0
0.0 0.02232545245429804 -0.014157342326463554 0.01382150039090723 0.0003358419355563236 0.02078008133426766 0.0 0.0
0.0 0.020616773415128235 -0.013694325064597009 0.013269974257213128 0.0004243508073838942 0.01801874864980847 0.0 0.0
0.0 0.01819778930511586 -0.012247264210454375 0.011782737030795276 0.0004645271796591063 0.015499701704330153 0.0 0.0
0.0 0.015289829074870542 -0.010289535308198856 0.00982232353956756 0.0004672117686312897 0.013140989799018392 0.0 0.0
0.0 0.012304779081956742 -0.00819652302283123 0.0077563638093381005 0.000440159213493127 0.0109122559424464 0.0 0.0
0.0 0.00940879827057287 -0.006190136446683687 0.005800269295315915 0.0003898671513677761 0.008757835976462184 0.0 0.0
0.0 0.00678078341857081 -0.004356100725782103 0.004036495196532847 0.00031960552924924706 0.006659918130403124 0.0 0.0
0.0 0.004545943699857192 -0.002714793835536323 0.0024809017918325303 0.00023389204370379352 0.004666357898238121 0.0 0.0
0.0 0.0024168979244419673 -0.001350129725173542 0.0012124129510511375 0.00013771677412240536 0.0028832919580785727 0.0 0.0
0.0 0.0010255662569191115 -0.00045420888634199936 0.0003994385054456384 5.4770380896361204e-05 0.0014190260684475544 0.0 0.0
0.0 0.00033489442461416617 -8.978236023580144e-05 7.580499513578493e-05 1.3977365100016617e-05 0.0004999227049967356 0.0 0.0
0.0 9.785795025719713e-05 -9.626668886502629e-06 7.985294756534422e-06 1.6413741299682223e-06 0.00011203487203084149 0.0 0.0
0.0 5.287326152191386e-06 -9.174772560047978e-07 1.0834363524483314e-06 -1.6595909644353233e-07 1.4121133628441458e-05 0.0 0.0
0.0 2.8117206448205306e-06 -5.380703863416818e-07 5.097396097761836e-07 2.833077656548658e-08 4.7579230500288594e-06 0.0 0.0
0.0 5.052087836123763e-06 -3.000165673057454e-07 2.313641970494689e-07 6.865237025627525e-08 4.258790013158326e-06 0.0 0.0
0.0 9.602083996760198e-07 1.3269106137051804e-07 -1.8824153618113742e-07 5.555047481061485e-08 1.7567661254085182e-06 0.0 0.0
0.0 -7.581207231349697e-07 -1.9319725232809717e-07 3.3562034551912004e-07 -1.4242309319102716e-07 -1.7863043260268242e-06 0.0 0.0
0.0 3.953116268687478e-06 7.278080348024472e-07 -1.5504266481550575e-06 8.226186133526365e-07 4.39701303711062e-07 0.0 0.0
0.0 2.034611343575935e-06 -1.1794173393863115e-07 1.8495244463876623e-07 -6.701071070005743e-08 2.736999519842078e-07 0.0 0.0
0.0 6.851068959384002e-07 3.234255146017983e-08 -1.6836993228758868e-08 -1.550555823143598e-08 3.779762240815991e-07 0.0 0.0
0.0 -1.0258907783165798e-06 4.447379668384031e-07 -3.7338499647151914e-07 -7.13529703668931e-08 2.863741213327203e-06 0.0 0.0
0.0 2.695038196020739e-06 -5.910014511640001e-07 4.5798126003841966e-07 1.3302019112556945e-07 -5.6829568548918825e-06 0.0 0.0
0.0 5.85391459163373e-06 1.7283624508098298e-06 -1.3846372727553528e-06 -3.4372517805441006e-07 5.009926944957697e-06 0.0 0.0
0.0 2.791923211742688e-05 -3.0294569482063775e-07 3.614077802471679e-07 -5.8462085426554094e-08 -1.2386806385712405e-05 0.0 0.0
0.0 0.00018959191499585268 -0.00010246769063573599 7.91127777378146e-05 2.3354912897921462e-05 -0.0002703816366456318 0.0 0.0
0.0 0.0010529636686251876 -0.0006585013181286891 0.0005266169882075519 0.00013188432992113682 -0.001121206812857683 0.0 0.0
0.0 0.0028666527000698 -0.002068893289109895 0.0017483756412650787 0.0003205176478448153 -0.002729774505107764 0.0 0.0
0.0 0.005876624335608967 -0.004336643788949915 0.003859935269167018 0.000476708519782897 -0.004877915608201821 0.0 0.0
0.0 0.009471997090030312 -0.007252492748257701 0.006676936474877774 0.0005755562733799236 -0.007424601516258225 0.0 0.0
0.0 0.013755584683535568 -0.010606470837096288 0.00996188332938246 0.0006445875077138403 -0.010061601130800214 0.0 0.0
0.0 0.018415371201549964 -0.01432441320239829 0.013619829121090025 0.000704584081308249 -0.012675139074491172 0.0 0.0
0.0 0.023452778318723187 -0.018390033288607003 0.01763862456253609 0.0007514087260709079 -0.015237693044588786 0.0 0.0
0.0 0.02885597492911315 -0.02272321931882308 0.021940751917248102 0.0007824674015749647 -0.017846874086743975 0.0 0.0
0.0 0.03436727920302299 -0.0270764931148188 0.026284281210476056 0.0007922119043427349 -0.02070999727651469 0.0 0.0
0.0 0.0394638572217676 -0.03100571121682225 0.030223474373952654 0.0007822368428696065 -0.0240453389197675 0.0 0.0
0.0 0.043326601825399436 -0.033902733696354694 0.03314624109625613 0.0007564926000985738 -0.0279559465598509 0.0 0.0
0.0 0.045224587911141825 -0.03468954219681189 0.03403001014019365 0.0006595320566182134 -0.0317023157494952 0.0 0.0
0.0 0.04216336486081256 -0.031052510885745732 0.030600198586083177 0.0004523122996625391 -0.03262370692702326 0.0 0.0
0.0 0.04572620886515705 -0.025225260373887896 0.021836903817713478 0.003388356556174398 2.1522714166444246e-14 0.0 0.0
0.0 0.04216336486082775 -0.03105251088574794 0.030600198586086126 0.00045231229966181355 0.032623706927070464 0.0 0.0
0.0 0.04522458791113331 -0.034689542196798165 0.03403001014018002 0.0006595320566181387 0.03170231574953266 0.0 0.0
0.0 0.043326601825375385 -0.03390273369633291 0.03314624109623493 0.0007564926000979868 0.0279559465598649 0.0 0.0
0.0 0.03946385722173606 -0.031005711216796544 0.030223474373927403 0.0007822368428691345 0.024045338919760482 0.0 0.0
0.0 0.03436727920298137 -0.027076493114785268 0.026284281210442254 0.0007922119043430045 0.020709997276494075 0.0 0.0
0.0 0.028855974929084045 -0.022723219318799556 0.021940751917225228 0.0007824674015743504 0.017846874086728158 0.0 0.0
0.0 0.023452778318688514 -0.018390033288577627 0.017638624562507046 0.0007514087260705522 0.015237693044572311 0.0 0.0
0.0 0.018415371201515453 -0.014324413202370708 0.01361982912106262 0.000704584081308079 0.012675139074473488 0.0 0.0
0.0 0.013755584683501276 -0.010606470837069478 0.009961883329356701 0.0006445875077127763 0.010061601130778256 0.0 0.0
0.0 0.00947199709000213 -0.007252492748236408 0.006676936474856604 0.0005755562733798039 0.007424601516236076 0.0 0.0
0.0 0.005876624335585012 -0.00433664378893197 0.003859935269150078 0.0004767085197818949 0.004877915608183656 0.0 0.0
0.0 0.0028666527000587253 -0.002068893289101397 0.0017483756412577883 0.00032051764784360974 0.00272977450510059 0.0 0.0
0.0 0.001052963668618056 -0.0006585013181239012 0.0005266169882037645 0.00013188432992013583 0.0011212068128510508 0.0 0.0
0.0 0.00018959191499226609 -0.00010246769063443956 7.911277773684267e-05 2.335491289759702e-05 0.0002703816366428823 0.0 0.0
0.0 2.7919232116810085e-05 -3.0294569515068245e-07 3.6140778050859024e-07 -5.84620853580052e-08 1.2386806386542528e-05 0.0 0.0
0.0 5.853914590756601e-06 1.7283624506554555e-06 -1.3846372726267867e-06 -3.4372517802866275e-07 -5.009926944125364e-06 0.0 0.0
0.0 2.695038195716762e-06 -5.910014512817776e-07 4.5798126013660004e-07 1.3302019114518202e-07 5.682956855664672e-06 0.0 0.0
0.0 -1.0258907789950655e-06 4.4473796682886105e-07 -3.733849964746086e-07 -7.135297035424739e-08 -2.863741212967158e-06 0.0 0.0
0.0 6.851068956094004e-07 3.2342551470272626e-08 -1.6836993234555038e-08 -1.5505558235714907e-08 -3.779762242385183e-07 0.0 0.0
0.0 2.034611343773175e-06 -1.1794173394994551e-07 1.849524446547311e-07 -6.701071070482646e-08 -2.7369995201493404e-07 0.0 0.0
0.0 0.0 0.0 0.0 0.0 0.0 0.0 0.0
0.0 1.2793262250216665e-07 8.703308849541075e-11 4.028570319636627e-09 -4.115603408136257e-09 2.4778079492361678e-08 0.0 0.0
0.0 8.350947564951951e-08 4.2473726300345e-07 -3.3778748757790654e-07 -8.694977542553632e-08 2.3162003328618292e-06 0.0 0.0
0.0 1.3100518918836066e-06 1.1611428812690028e-06 -9.807722160333329e-07 -1.8037066523566992e-07 2.3500843798313374e-06 0.0 0.0
0.0 4.1180655689624895e-06 1.6744214996037259e-06 -1.2934317722128202e-06 -3.8098972739095043e-07 -1.248012207023258e-06 0.0 0.0
0.0 4.324389198949112e-05 -3.507996704417443e-05 2.661447563712788e-05 8.46549140704666e-06 -7.685618427028487e-05 0.0 0.0
0.0 0.0005846441988210788 -0.0003985813318729808 0.0003060040921773231 9.257723969565768e-05 -0.0005226156073887811 0.0 0.0
0.0 0.002111269153241749 -0.001683214172282089 0.001370550623541299 0.0003126635487407887 -0.0017809205214056256 0.0 0.0
0.0 0.005209390259812436 -0.004156580901861835 0.0036250939175435674 0.000531486984318264 -0.0038375497527017234 0.0 0.0
0.0 0.009900112281555911 -0.007737551631353313 0.007080407002032333 0.0006571446293209865 -0.006577899261002143 0.0 0.0
0.0 0.015104153002187065 -0.012167820805998045 0.011436645498604533 0.000731175307393509 -0.009664478495347826 0.0 0.0
0.0 0.021187052391207887 -0.01721269427367987 0.016418202366835215 0.0007944919068446518 -0.012745691932137891 0.0 0.0
0.0 0.027957698422961266 -0.022799408916505472 0.0219429338692551 0.0008564750472503874 -0.01570899013064018 0.0 0.0
0.0 0.0352876590261835 -0.028926321122699078 0.02801482191038808 0.0009114992123109383 -0.018587797199607424 0.0 0.0
0.0 0.04325861616985828 -0.03552749923776526 0.034575635275929675 0.0009518639618356233 -0.021567416322278862 0.0 0.0
0.0 0.05141815375409875 -0.042347208646056754 0.04137808569284359 0.0009691229532131185 -0.02501251633946449 0.0 0.0
0.0 0.059566224790932154 -0.04883909931980376 0.047878736648075425 0.0009603626717283023 -0.029365392406558315 0.0 0.0
0.0 0.06620065167102052 -0.05404607584691091 0.05313807095532169 0.000908004891589213 -0.03455731573680084 0.0 0.0
0.0 0.0695533647919236 -0.056274120161488084 0.05548074820785656 0.0007933719536314316 -0.039178973553503006 0.0 0.0
0.0 0.06564567126959414 -0.052297928519730766 0.05179944020430638 0.0004984883154243748 -0.04051416772618299 0.0 0.0
0.0 0.06335961598929435 -0.044605748676833576 0.04049861150435378 0.004107137172479824 2.4029389589230732e-14 0.0 0.0
0.0 0.06564567126959925 -0.052297928519724785 0.051799440204301266 0.0004984883154235662 0.04051416772623552 0.0 0.0
0.0 0.06955336479191267 -0.05627412016147067 0.05548074820783936 0.0007933719536311803 0.03917897355355496 0.0 0.0
0.0 0.06620065167098907 -0.05404607584688115 0.05313807095529226 0.0009080048915888593 0.03455731573682478 0.0 0.0
0.0 0.059566224790887766 -0.048839099319766426 0.04787873664803814 0.0009603626717283325 0.029365392406552955 0.0 0.0
0.0 0.05141815375404728 -0.042347208646013455 0.0413780856928006 0.0009691229532128379 0.02501251633944598 0.0 0.0
0.0 0.043258616169811165 -0.03552749923772627 0.034575635275890984 0.000951863961835296 0.021567416322258698 0.0 0.0
0.0 0.03528765902613823 -0.028926321122660366 0.02801482191035037 0.0009114992123099954 0.018587797199590153 0.0 0.0
0.0 0.027957698422913794 -0.022799408916466167 0.021942933869215985 0.0008564750472501664 0.01570899013062111 0.0 0.0
0.0 0.021187052391163374 -0.01721269427364401 0.0164182023667999 0.0007944919068441165 0.012745691932113612 0.0 0.0
0.0 0.015104153002146311 -0.012167820805965832 0.011436645498572281 0.0007311753073935476 0.009664478495321475 0.0 0.0
0.0 0.009900112281523168 -0.00773755163132757 0.007080407002006848 0.0006571446293207156 0.006577899260980579 0.0 0.0
0.0 0.005209390259792825 -0.004156580901846623 0.0036250939175292876 0.000531486984317334 0.0038375497526897955 0.0 0.0
0.0 0.0021112691532292407 -0.0016832141722724833 0.0013705506235330118 0.0003126635487394713 0.0017809205213966004 0.0 0.0
0.0 0.000584644198815679 -0.0003985813318695949 0.00030600409217465763 9.257723969493728e-05 0.0005226156073847195 0.0 0.0
0.0 4.324389198792252e-05 -3.507996704393268e-05 2.6614475636936683e-05 8.465491406995952e-06 7.685618426998417e-05 0.0 0.0
0.0 4.118065569116892e-06 1.6744214990700312e-06 -1.293431771781057e-06 -3.8098972728897137e-07 1.2480122085462397e-06 0.0 0.0
0.0 1.310051891224558e-06 1.161142881124086e-06 -9.807722159140622e-07 -1.8037066521002176e-07 -2.350084378975425e-06 0.0 0.0
0.0 8.350947513672548e-08 4.247372630398261e-07 -3.377874876085525e-07 -8.694977543128034e-08 -2.3162003330423192e-06 0.0 0.0
0.0 1.2793262222365965e-07 8.703308583074716e-11 4.028570317766604e-09 -4.115603403594462e-09 -2.4778079435018216e-08 0.0 0.0
0.0 0.0 0.0 0.0 0.0 0.0 0.0 0.0
0.0 0.0 0.0 0.0 0.0 0.0 0.0 0.0
0.0 -1.2025212151614905e-07 -2.8111852206668733e-09 1.9303984439410896e-09 8.807867767261456e-10 -2.3879236813071873e-08 0.0 0.0
0.0 -1.4844151892703317e-07 2.8945288669683783e-07 -2.3027386972452571e-07 -5.917901697231455e-08 1.2116867399415024e-06 0.0 0.0
0.0 -2.7628722092588843e-06 7.45220200044343e-07 -6.207521664671943e-07 -1.244680335771375e-07 9.830557712292945e-07 0.0 0.0
0.0 3.7996012852645728e-06 4.305119209961293e-06 -3.765648608467569e-06 -5.394706014937253e-07 7.389345629290701e-06 0.0 0.0
0.0 0.0001916294762547091 -0.00012235115272870027 9.132082302873064e-05 3.103032969996958e-05 -0.0001320717814236265 0.0 0.0
0.0 0.0011297337723593624 -0.0009349416591083188 0.0007287127059950867 0.00020622895311323228 -0.0008091955384420884 0.0 0.0
0.0 0.0035745316452807908 -0.0030025060416127014 0.002521266068490988 0.00048123997312171185 -0.002266859847654376 0.0 0.0
0.0 0.008151434216161837 -0.0065324751322192705 0.005858615396714946 0.0006738597355043233 -0.004635573737256513 0.0 0.0
0.0 0.013589796115709271 -0.011404150183448016 0.010632103555539393 0.0007720466279086445 -0.007706688832051652 0.0 0.0
0.0 0.020787072742954816 -0.017290888115877312 0.01645265098483098 0.0008382371310463305 -0.010995585419661856 0.0 0.0
0.0 0.028800251514358798 -0.023999398569428718 0.023096345910362928 0.000903052659065765 -0.014250951789171573 0.0 0.0
0.0 0.03762945765884595 -0.031448547008059866 0.030477207434696958 0.0009713395733629449 -0.01737317919019766 0.0 0.0
0.0 0.047301711741623696 -0.03963594451066063 0.03859936927251247 0.0010365752381481309 -0.020404254846611986 0.0 0.0
0.0 0.05772507252264757 -0.04852078508521465 0.04743241012329219 0.0010883749619224415 -0.023543267487320118 0.0 0.0
0.0 0.06899671645004328 -0.05784550557998812 0.05673301894595052 0.0011124866340376 -0.0272803718425659 0.0 0.0
0.0 0.07952523884148327 -0.06691588761703716 0.06582213564313147 0.0010937519739056337 -0.03216071550457385 0.0 0.0
0.0 0.08891126312122341 -0.07433538928708235 0.07332192195791098 0.00101346732917136 -0.0380433101715602 0.0 0.0
0.0 0.09371677043963075 -0.07768644503682083 0.07684746754498491 0.000838977491835939 -0.04341525524143428 0.0 0.0
0.0 0.0888230304814435 -0.07292822661574286 0.07242896341472913 0.0004992632010137603 -0.04532122599452895 0.0 0.0
0.0 0.08274747737243342 -0.0635615874817395 0.05883446255907269 0.004727124922666687 2.4346843985334488e-14 0.0 0.0
0.0 0.08882303048143897 -0.07292822661572991 0.07242896341471683 0.0004992632010130616 0.045321225994581896 0.0 0.0
0.0 0.09371677043961063 -0.07768644503679645 0.07684746754496029 0.0008389774918361194 0.043415255241489654 0.0 0.0
0.0 0.0889112631211829 -0.07433538928704457 0.07332192195787314 0.0010134673291713019 0.0380433101715889 0.0 0.0
0.0 0.07952523884142755 -0.0669158876169891 0.06582213564308327 0.0010937519739058917 0.03216071550457206 0.0 0.0
0.0 0.0689967164499802 -0.05784550557993482 0.05673301894589665 0.001112486634038136 0.027280371842549198 0.0 0.0
0.0 0.057725072522586164 -0.04852078508516223 0.04743241012324061 0.0010883749619216515 0.023543267487299378 0.0 0.0
0.0 0.04730171174156586 -0.039635944510611115 0.038599369272463324 0.0010365752381477928 0.020404254846593816 0.0 0.0
0.0 0.03762945765878532 -0.03144854700800898 0.030477207434645846 0.0009713395733631404 0.01737317919017645 0.0 0.0
0.0 0.028800251514304605 -0.023999398569383143 0.023096345910318186 0.0009030526590649454 0.014250951789147476 0.0 0.0
0.0 0.020787072742902275 -0.017290888115834117 0.016452650984788025 0.0008382371310460863 0.01099558541963175 0.0 0.0
0.0 0.013589796115667773 -0.011404150183413462 0.010632103555505305 0.0007720466279081702 0.007706688832027562 0.0 0.0
0.0 0.00815143421613183 -0.006532475132195632 0.0058586153966921975 0.0006738597355034354 0.00463557373724058 0.0 0.0
0.0 0.003574531645262264 -0.0030025060415980595 0.002521266068477807 0.0004812399731202523 0.0022668598476433383 0.0 0.0
0.0 0.0011297337723505912 -0.000934941659101888 0.0007287127059899714 0.00020622895311191663 0.0008091955384369122 0.0 0.0
0.0 0.00019162947625142053 -0.000122351152726986 9.132082302742476e-05 3.103032969956123e-05 0.00013207178142163174 0.0 0.0
0.0 3.7996012850440833e-06 4.305119209305173e-06 -3.765648607939194e-06 -5.394706013659556e-07 -7.389345627895356e-06 0.0 0.0
0.0 -2.7628722091954805e-06 7.452201997077744e-07 -6.207521662047242e-07 -1.2446803350303287e-07 -9.830557701197061e-07 0.0 0.0
0.0 -1.4844151916449404e-07 2.8945288673435425e-07 -2.302738697560397e-07 -5.917901697831454e-08 -1.2116867400951309e-06 0.0 0.0
0.0 -1.2025212151506954e-07 -2.8111852205958148e-09 1.930398443898689e-09 8.807867766964716e-10 2.387923681280424e-08 0.0 0.0
0.0 0.0 0.0 0.0 0.0 0.0 0.0 0.0
0.0 0.0 0.0 0.0 0.0 0.0 0.0 0.0
0.0 0.0 0.0 0.0 0.0 0.0 0.0 0.0
0.0 -3.2202884406335713e-07 6.095400538352561e-08 -4.742302760092718e-08 -1.3530977782599736e-08 1.9851494416071265e-07 0.0 0.0
0.0 -3.147576265109031e-06 2.548849236352039e-06 -2.0604992329934047e-06 -4.883500033586095e-07 5.235254117492223e-06 0.0 0.0
0.0 1.3674741346694555e-06 -9.45737241764493e-06 6.125538577952565e-06 3.331833839692369e-06 -8.103080727054643e-06 0.0 0.0
0.0 0.0004265976218969746 -0.00032018574025918773 0.00023984337316972155 8.034236708946637e-05 -0.00021729084666064464 0.0 0.0
0.0 0.001918170363579286 -0.0016666033111584352 0.0013298847575088086 0.00033671855364962675 -0.0009810889276568252 0.0 0.0
0.0 0.005533566539106258 -0.004544029597985861 0.0039280047051267804 0.0006160248928590807 -0.0025494519957007683 0.0 0.0
0.0 0.010554287654973482 -0.009131776731514551 0.008357180198275742 0.0007745965332388091 -0.005063162466608574 0.0 0.0
0.0 0.017895904457417032 -0.015203461926743326 0.014345203892152365 0.000858258034590965 -0.008115959042301786 0.0 0.0
0.0 0.026563080967370756 -0.02252569618955229 0.021600513225857754 0.0009251829636945099 -0.011365798396354532 0.0 0.0
0.0 0.03643543179453437 -0.03089429209681122 0.029899005312717223 0.0009952867840940217 -0.014581399682435593 0.0 0.0
0.0 0.047388657155906275 -0.040206163726040994 0.03913602928859724 0.0010701344374436372 -0.017679526902293265 0.0 0.0
0.0 0.059477549216748145 -0.05044737163977299 0.0493032187156288 0.0011441529241442681 -0.020697838935275926 0.0 0.0
0.0 0.07246122281100086 -0.061601611937167726 0.060393172552587346 0.0012084393845803636 -0.023795789103266417 0.0 0.0
0.0 0.08614115308045332 -0.07341008854917128 0.072170558737111 0.0012395298120602247 -0.02740121871098474 0.0 0.0
0.0 0.10011753474110753 -0.08500355293214566 0.08379583598791279 0.0012077169442329108 -0.03214490910546992 0.0 0.0
0.0 0.11154280388503102 -0.0945373838907066 0.0934495250344525 0.0010878588562538913 -0.03814659628460678 0.0 0.0
0.0 0.11702689499305223 -0.0988595755947901 0.09800003492763304 0.0008595406671570271 -0.04416553037255464 0.0 0.0
0.0 0.11161532493460671 -0.09335359946862117 0.09285321453199612 0.0005003849366250748 -0.04816906689945345 0.0 0.0
0.0 0.10355322292298845 -0.08256776100447437 0.07729680392780537 0.005270957076669001 2.293304435241339e-14 0.0 0.0
0.0 0.1116153249345957 -0.09335359946860372 0.09285321453197908 0.0005003849366246978 0.04816906689950769 0.0 0.0
0.0 0.11702689499301996 -0.09885957559475657 0.09800003492759914 0.0008595406671574163 0.04416553037261007 0.0 0.0
0.0 0.11154280388498222 -0.09453738389066176 0.09344952503440826 0.001087858856253454 0.03814659628463645 0.0 0.0
0.0 0.10011753474104308 -0.08500355293208976 0.08379583598785678 0.0012077169442329138 0.032144909105470805 0.0 0.0
0.0 0.0861411530803764 -0.07341008854910559 0.07217055873704474 0.0012395298120608461 0.027401218710970513 0.0 0.0
0.0 0.07246122281092687 -0.06160161193710419 0.06039317255252448 0.0012084393845796775 0.023795789103249494 0.0 0.0
0.0 0.059477549216673885 -0.05044737163970874 0.0493032187155651 0.0011441529241436347 0.020697838935257347 0.0 0.0
0.0 0.04738865715583396 -0.04020616372597922 0.03913602928853541 0.001070134437443767 0.01767952690227359 0.0 0.0
0.0 0.036435431794469335 -0.03089429209675614 0.029899005312662756 0.000995286784093347 0.014581399682411515 0.0 0.0
0.0 0.02656308096730936 -0.022525696189500802 0.021600513225806677 0.0009251829636941174 0.011365798396326116 0.0 0.0
0.0 0.01789590445736892 -0.015203461926703077 0.014345203892112284 0.0008582580345907896 0.008115959042278718 0.0 0.0
0.0 0.010554287654937381 -0.009131776731483172 0.008357180198245034 0.0007745965332381374 0.0050631624665909945 0.0 0.0
0.0 0.00553356653908333 -0.004544029597967429 0.003928004705109601 0.0006160248928578284 0.0025494519956903564 0.0 0.0
0.0 0.0019181703635676277 -0.0016666033111490419 0.001329884757500953 0.00033671855364808827 0.0009810889276509428 0.0 0.0
0.0 0.0004265976218912481 -0.00032018574025541487 0.0002398433731667836 8.034236708863077e-05 0.00021729084665776517 0.0 0.0
0.0 1.3674741344848192e-06 -9.457372418179297e-06 6.125538578399459e-06 3.331833839779818e-06 8.103080728073867e-06 0.0 0.0
0.0 -3.1475762657525192e-06 2.5488492363138337e-06 -2.0604992329626294e-06 -4.883500033511986e-07 -5.235254117260389e-06 0.0 0.0
0.0 -3.2202884389773355e-07 6.095400541823675e-08 -4.7423027628527675e-08 -1.353097778970769e-08 -1.9851494427208552e-07 0.0 0.0
0.0 0.0 0.0 0.0 0.0 0.0 0.0 0.0
0.0 0.0 0.0 0.0 0.0 0.0 0.0 0.0
0.0 0.0 0.0 0.0 0.0 0.0 0.0 0.0
0.0 0.0 0.0 0.0 0.0 0.0 0.0 0.0
0.0 -1.9259891853480113e-07 -1.2438204119640457e-08 9.900711751953166e-09 2.537492367688598e-09 -3.208399983975565e-08 0.0 0.0
0.0 -4.636234021830703e-06 2.4673155316618476e-06 -2.007667086628504e-06 -4.596484450333733e-07 4.240990177430617e-06 0.0 0.0
0.0 5.060646891876771e-05 -3.201870700134125e-05 2.135950478420225e-05 1.0659202217139115e-05 -9.485242756301617e-06 0.0 0.0
0.0 0.0006985656083323645 -0.0006595034841060367 0.0004996713620507876 0.00015983212205524855 -0.0002976722994718932 0.0 0.0
0.0 0.003084859051414223 -0.0025686645963154354 0.002105888407661507 0.00046277618865392606 -0.0010307867215523761 0.0 0.0
0.0 0.007130625345298632 -0.00628537919238845 0.005566368167691466 0.0007190110246969875 -0.0026321212393889946 0.0 0.0
0.0 0.013623558300822526 -0.011830332531037463 0.010980202636757117 0.0008501298942803372 -0.004976802561709865 0.0 0.0
0.0 0.02213731261915373 -0.01908120116360545 0.01815071851005973 0.0009304826535457347 -0.0077836889513411 0.0 0.0
0.0 0.032408035905359726 -0.02782269809275677 0.02682028499931561 0.0010024130934411575 -0.010793770052759286 0.0 0.0
0.0 0.04417274923178827 -0.03784614042651204 0.03676775243252831 0.0010783879939837311 -0.013771339499623602 0.0 0.0
0.0 0.05733205876501758 -0.04902551724538724 0.04786661893823706 0.0011588983071501337 -0.01665681012017226 0.0 0.0
0.0 0.07144229362810711 -0.06132107495155322 0.06008080575646645 0.001240269195086767 -0.019501416890744683 0.0 0.0
0.0 0.08709107298758903 -0.0746908341315281 0.07337710637081182 0.00131372776071641 -0.022368578031866607 0.0 0.0
0.0 0.10366644838405467 -0.08887677732759514 0.08752271318319124 0.0013540641444037935 -0.025464071087532087 0.0 0.0
0.0 0.119886318644769 -0.10290246497512465 0.10158728711805823 0.0013151778570663437 -0.02939790103091747 0.0 0.0
0.0 0.13362840637978254 -0.11450353352125309 0.11334637798799527 0.0011571555332579074 -0.03487913176673795 0.0 0.0
0.0 0.14048019395403744 -0.11989803577802803 0.11902010777164596 0.0008779280063819326 -0.04179771195782165 0.0 0.0
0.0 0.13457996292122845 -0.11395915021829284 0.11346730762070481 0.0004918425975879589 -0.049532627416172495 0.0 0.0
0.0 0.12494201010040136 -0.10203047887464353 0.09628470523611221 0.005745773638531371 2.30145763557843e-14 0.0 0.0
0.0 0.13457996292121052 -0.11395915021827087 0.1134673076206825 0.0004918425975883403 0.04953262741622643 0.0 0.0
0.0 0.14048019395399503 -0.11989803577798713 0.11902010777160443 0.0008779280063826234 0.04179771195787293 0.0 0.0
0.0 0.13362840637972007 -0.11450353352119769 0.1133463779879399 0.0011571555332578628 0.034879131766765215 0.0 0.0
0.0 0.11988631864469168 -0.10290246497505748 0.101587287117991 0.001315177857066423 0.029397901030918546 0.0 0.0
0.0 0.10366644838396599 -0.08887677732751853 0.08752271318311454 0.0013540641444038768 0.02546407108752178 0.0 0.0
0.0 0.08709107298750283 -0.07469083413145394 0.0733771063707379 0.001313727760716056 0.022368578031853513 0.0 0.0
0.0 0.07144229362802061 -0.06132107495147832 0.06008080575639258 0.001240269195085716 0.01950141689072766 0.0 0.0
0.0 0.05733205876493262 -0.04902551724531385 0.04786661893816368 0.0011588983071501616 0.016656810120153985 0.0 0.0
0.0 0.04417274923170888 -0.0378461404264441 0.036767752432461005 0.001078387993983088 0.013771339499600159 0.0 0.0
0.0 0.032408035905290164 -0.02782269809269758 0.0268202849992564 0.001002413093441204 0.01079377005273322 0.0 0.0
0.0 0.02213731261909693 -0.01908120116355698 0.018150718510011255 0.0009304826535457042 0.007783688951318971 0.0 0.0
0.0 0.013623558300777269 -0.011830332530998217 0.010980202636718677 0.0008501298942795463 0.004976802561693295 0.0 0.0
0.0 0.007130625345271695 -0.00628537919236522 0.005566368167669301 0.0007190110246959167 0.002632121239378533 0.0 0.0
0.0 0.0030848590513982174 -0.002568664596302588 0.002105888407650279 0.0004627761886523083 0.001030786721546482 0.0 0.0
0.0 0.0006985656083263174 -0.0006595034841014814 0.0004996713620472954 0.0001598321220541851 0.0002976722994698128 0.0 0.0
0.0 5.060646891726985e-05 -3.20187070009812e-05 2.1359504783955693e-05 1.0659202217025579e-05 9.4852427563514e-06 0.0 0.0
0.0 -4.636234021834935e-06 2.4673155314503583e-06 -2.0076670864669435e-06 -4.596484449834136e-07 -4.240990177153588e-06 0.0 0.0
0.0 -1.9259891850927365e-07 -1.243820411784055e-08 9.900711750511593e-09 2.5374923673294314e-09 3.208399983580417e-08 0.0 0.0
0.0 0.0 0.0 0.0 0.0 0.0 0.0 0.0
0.0 0.0 0.0 0.0 0.0 0.0 0.0 0.0
0.0 0.0 0.0 0.0 0.0 0.0 0.0 0.0
0.0 0.0 0.0 0.0 0.0 0.0 0.0 0.0
0.0 -7.18462332870173e-08 -5.322214849680892e-09 4.219826328331633e-09 1.102388521349622e-09 -1.0684932772376604e-08 0.0 0.0
0.0 -5.440054334156822e-06 3.786441432229773e-06 -3.113202812971454e-06 -6.732386192583133e-07 4.9332473750243785e-06 0.0 0.0
0.0 0.00013606491174921286 -0.00010610901333183342 7.428515076270261e-05 3.182386256913099e-05 -2.1869567026336834e-05 0.0 0.0
0.0 0.0012494880042666703 -0.0010926004868297558 0.0008412562067226446 0.00025134428010711103 -0.0002648488569627125 0.0 0.0
0.0 0.004137054811992802 -0.003650281347588523 0.00307397260828638 0.0005763087393021422 -0.0009721836062165593 0.0 0.0
0.0 0.009129743374460377 -0.008121913899539139 0.007328009125916519 0.0007939047736226173 -0.0023898684357230478 0.0 0.0
0.0 0.01663735214353474 -0.014586985582572886 0.013674827818737231 0.0009121577638356473 -0.004350313768611857 0.0 0.0
0.0 0.02646286726570808 -0.022992132903015203 0.021997233933397704 0.0009948989696174871 -0.006732631757661481 0.0 0.0
0.0 0.038262213275103325 -0.03313879672419062 0.03206585764099903 0.0010729390831915615 -0.009296113114077948 0.0 0.0
0.0 0.05191508754735394 -0.0448142553777651 0.04365894809550348 0.0011553072822616634 -0.01183651046993921 0.0 0.0
0.0 0.0669408912072192 -0.057871454820260515 0.05662984550352045 0.0012416093167401307 -0.014315194925196307 0.0 0.0
0.0 0.0838100695908529 -0.07221160340367322 0.0708858212176227 0.0013257821860504435 -0.0167996762366955 0.0 0.0
0.0 0.10169408891433857 -0.08773363724359345 0.08633071715173536 0.0014029200918580682 -0.01928858061950427 0.0 0.0
0.0 0.12048838958813446 -0.10412759254735007 0.10267329439866607 0.0014542981486840088 -0.02168011236060712 0.0 0.0
0.0 0.13941529019719126 -0.1203940209869858 0.11896772291060939 0.0014262980763764409 -0.024230030032417867 0.0 0.0
0.0 0.1554501549633831 -0.13409634316104807 0.13285153105634326 0.0012448121047047601 -0.028346005461712755 0.0 0.0
0.0 0.16386232291297814 -0.1409375287402073 0.14003121005704866 0.0009063186831586202 -0.036255088951065016 0.0 0.0
0.0 0.1582902388820192 -0.13511188624538972 0.134649767187768 0.00046211905762192 -0.04916551796201574 0.0 0.0
0.0 0.14795411555691124 -0.12235916206833249 0.11621467293130588 0.00614448913702647 2.004819921186396e-14 0.0 0.0
0.0 0.15829023888199498 -0.1351118862453641 0.1346497671877416 0.00046211905762259884 0.04916551796206356 0.0 0.0
0.0 0.1638623229129304 -0.14093752874016302 0.1400312100570044 0.000906318683158493 0.036255088951109876 0.0 0.0
0.0 0.15545015496330544 -0.13409634316098062 0.13285153105627523 0.0012448121047054235 0.02834600546173465 0.0 0.0
0.0 0.13941529019710222 -0.12039402098690864 0.11896772291053247 0.0014262980763760959 0.024230030032419643 0.0 0.0
0.0 0.12048838958803587 -0.10412759254726449 0.102673294398581 0.001454298148683485 0.02168011236060119 0.0 0.0
0.0 0.10169408891423802 -0.08773363724350686 0.08633071715164883 0.001402920091857962 0.019288580619493685 0.0 0.0
0.0 0.08381006959075545 -0.07221160340358855 0.07088582121753918 0.001325782186049317 0.016799676236681327 0.0 0.0
0.0 0.06694089120711935 -0.05787145482017467 0.05662984550343442 0.0012416093167403625 0.014315194925181369 0.0 0.0
0.0 0.05191508754726337 -0.04481425537768665 0.04365894809542562 0.0011553072822610476 0.011836510469919298 0.0 0.0
0.0 0.03826221327502212 -0.033138796724120824 0.03206585764092933 0.0010729390831914925 0.009296113114055005 0.0 0.0
0.0 0.02646286726564329 -0.022992132902959282 0.021997233933342304 0.0009948989696169713 0.0067326317576426676 0.0 0.0
0.0 0.016637352143486574 -0.014586985582530725 0.013674827818695967 0.0009121577638347383 0.004350313768598745 0.0 0.0
0.0 0.009129743374428163 -0.008121913899510582 0.007328009125888824 0.0007939047736217627 0.002389868435713305 0.0 0.0
0.0 0.0041370548119735754 -0.003650281347572114 0.0030739726082715177 0.0005763087393005969 0.0009721836062108858 0.0 0.0
0.0 0.0012494880042600407 -0.0010926004868246388 0.0008412562067186343 0.0002513442801060048 0.00026484885696163174 0.0 0.0
0.0 0.00013606491174711423 -0.000106109013330709 7.4285150761903e-05 3.1823862568806e-05 2.186956702604722e-05 0.0 0.0
0.0 -5.440054334414482e-06 3.786441431705687e-06 -3.1132028125751063e-06 -6.732386191305717e-07 -4.933247374545508e-06 0.0 0.0
0.0 -7.184623319621463e-08 -5.322214842869262e-09 4.219826322927047e-09 1.1023885199412321e-09 1.0684932758656047e-08 0.0 0.0
0.0 0.0 0.0 0.0 0.0 0.0 0.0 0.0
0.0 0.0 0.0 0.0 0.0 0.0 0.0 0.0
0.0 0.0 0.0 0.0 0.0 0.0 0.0 0.0
0.0 0.0 0.0 0.0 0.0 0.0 0.0 0.0
0.0 0.0 0.0 0.0 0.0 0.0 0.0 0.0
0.0 -7.38671656277167e-06 6.8514084269010805e-06 -5.718943443642261e-06 -1.1324649832588436e-06 6.344124007521718e-06 0.0 0.0
0.0 0.00025740848577848616 -0.0002532477662530142 0.00018047328062126684 7.277448563174697e-05 -8.034822639376691e-06 0.0 0.0
0.0 0.0019458416299690266 -0.0016659327851149422 0.001312434855911526 0.0003534979292034159 -0.00015589016849954843 0.0 0.0
0.0 0.005250766870151655 -0.004848269938348601 0.0041823904353769205 0.0006658795029716782 -0.00074603995583218 0.0 0.0
0.0 0.011229390779860706 -0.010011643094545684 0.009157632577714417 0.0008540105168312814 -0.0017658344052567004 0.0 0.0
0.0 0.019694735333519724 -0.017365435371554556 0.016399144361876804 0.000966291009677741 -0.003207651398346473 0.0 0.0
0.0 0.03078429191727432 -0.02689803989287509 0.025844274892615815 0.0010537650002592955 -0.004970503636891834 0.0 0.0
0.0 0.044198778324664074 -0.03843421685735716 0.03729559574148535 0.0011386211158717775 -0.006880556305012528 0.0 0.0
0.0 0.05957136881954655 -0.051758989887506254 0.05053188772344019 0.0012271021640660287 -0.00878100446877453 0.0 0.0
0.0 0.0770450097286403 -0.06669356714201231 0.0653755197080553 0.001318047433957032 -0.010656479120614744 0.0 0.0
0.0 0.09574483030141218 -0.08308773957881248 0.08168249751464866 0.0014052420641637912 -0.012587896562193281 0.0 0.0
0.0 0.11613305629096476 -0.10070325730569825 0.0992234398176105 0.001479817488087716 -0.014522592879667394 0.0 0.0
0.0 0.13740144753634825 -0.11909421611852782 0.11756487905912723 0.0015293370594006276 -0.01616736872790649 0.0 0.0
0.0 0.15844139010256308 -0.13729486063241475 0.13576710186761531 0.001527758764799629 -0.017300315505495847 0.0 0.0
0.0 0.17672784205206582 -0.15308884161427763 0.15169575334879454 0.001393088265483197 -0.019190544263804867 0.0 0.0
0.0 0.18737528201283915 -0.16200412089312896 0.16102387025449708 0.0009802506386316027 -0.02659696696468586 0.0 0.0
0.0 0.18306628773646436 -0.15722392771201377 0.15684257961958925 0.00038134809242432416 -0.04600970933900926 0.0 0.0
0.0 0.1727484015969255 -0.14412407964632845 0.1376868577991116 0.006437221847216847 1.4146669946590862e-14 0.0 0.0
0.0 0.18306628773643596 -0.15722392771198612 0.15684257961956174 0.0003813480924242193 0.04600970933904721 0.0 0.0
0.0 0.18737528201278372 -0.1620041208930789 0.16102387025444792 0.0009802506386312317 0.026596966964722933 0.0 0.0
0.0 0.176727842051979 -0.1530888416142028 0.15169575334871976 0.0013930882654829657 0.01919054426382094 0.0 0.0
0.0 0.15844139010246416 -0.13729486063232893 0.13576710186753024 0.0015277587647988104 0.01730031550549735 0.0 0.0
0.0 0.13740144753623723 -0.11909421611843174 0.11756487905903135 0.0015293370594003529 0.016167368727903194 0.0 0.0
0.0 0.11613305629084751 -0.1007032573055972 0.09922343981750904 0.0014798174880882036 0.014522592879661147 0.0 0.0
0.0 0.09574483030130224 -0.08308773957871718 0.08168249751455428 0.0014052420641629704 0.012587896562183627 0.0 0.0
0.0 0.0770450097285259 -0.06669356714191363 0.06537551970795615 0.0013180474339573583 0.010656479120604714 0.0 0.0
0.0 0.05957136881944651 -0.05175898988741981 0.050531887723354554 0.0012271021640652044 0.008781004468759915 0.0 0.0
0.0 0.04419877832457495 -0.038434216857279595 0.037295595741408116 0.0011386211158714494 0.006880556304995305 0.0 0.0
0.0 0.030784291917201764 -0.026898039892811493 0.02584427489255292 0.001053765000258557 0.00497050363687739 0.0 0.0
0.0 0.019694735333467384 -0.01736543537150842 0.016399144361831323 0.0009662910096771176 0.003207651398337164 0.0 0.0
0.0 0.01122939077982284 -0.010011643094512105 0.009157632577681589 0.0008540105168305148 0.0017658344052490919 0.0 0.0
0.0 0.005250766870128968 -0.004848269938328028 0.00418239043535789 0.0006658795029701473 0.0007460399558274825 0.0 0.0
0.0 0.0019458416299603792 -0.0016659327851076134 0.00131243485590556 0.0003534979292020509 0.00015589016849865218 0.0 0.0
0.0 0.0002574084857759763 -0.00025324776625159983 0.00018047328062025675 7.277448563134276e-05 8.034822639484562e-06 0.0 0.0
0.0 -7.3867165627514915e-06 6.8514084265506816e-06 -5.71894344337489e-06 -1.132464983175833e-06 -6.34412400736879e-06 0.0 0.0
0.0 0.0 0.0 0.0 0.0 0.0 0.0 0.0
0.0 0.0 0.0 0.0 0.0 0.0 0.0 0.0
0.0 0.0 0.0 0.0 0.0 0.0 0.0 0.0
0.0 0.0 0.0 0.0 0.0 0.0 0.0 0.0
0.0 0.0 0.0 0.0 0.0 0.0 0.0 0.0
0.0 0.0 0.0 0.0 0.0 0.0 0.0 0.0
0.0 -1.7842435083747889e-06 -1.6170548908200166e-07 -1.4298999998578955e-06 1.5916054889399098e-06 7.318728110563442e-06 0.0 0.0
0.0 0.0005511494707168128 -0.00046812961260750765 0.0003392240600235608 0.0001289055525839474 6.621451409133186e-05 0.0 0.0
0.0 0.0026411789577428916 -0.0023683611791002605 0.0019143351009953836 0.0004540260781048761 4.388926409412657e-05 0.0 0.0
0.0 0.0066900411059506604 -0.006098606387907111 0.005365512192854654 0.0007330941950524606 -0.0002659111371115982 0.0 0.0
0.0 0.01335553950144785 -0.011924932358355983 0.011021764652498597 0.0009031677058573741 -0.0007992496478667519 0.0 0.0
0.0 0.02283166126480105 -0.020128854552895564 0.019114312840314805 0.0010145417125807647 -0.001555574476929398 0.0 0.0
0.0 0.03509781799854617 -0.030760637166620662 0.029651755384736914 0.0011088817818837207 -0.0025023511204649925 0.0 0.0
0.0 0.05004204068921525 -0.04367173863911445 0.042471575627050034 0.0012001630120644315 -0.0035428613312448484 0.0 0.0
0.0 0.06750188625524683 -0.05864095473693128 0.05734702462194477 0.0012939301149865103 -0.0046015533787435794 0.0 0.0
0.0 0.08664579247254577 -0.07546043772980282 0.07407053965065477 0.0013898980791480046 -0.0056957005643742745 0.0 0.0
0.0 0.10794063508937443 -0.09388951865598459 0.09241020253393081 0.0014793161220537606 -0.006844127498765402 0.0 0.0
0.0 0.13066460481749936 -0.1135611046253763 0.11201233811362997 0.0015487665117463658 -0.007985988567982097 0.0 0.0
0.0 0.15409404801746346 -0.13382538810112332 0.13223940021298194 0.001585987888141088 -0.008894959060058246 0.0 0.0
0.0 0.17697585418167064 -0.15359763886609232 0.15201085436234166 0.001586784503750784 -0.009173307185988305 0.0 0.0
0.0 0.1971819091325802 -0.17106795958907256 0.16952133716539333 0.0015466224236791873 -0.009110333087713049 0.0 0.0
0.0 0.21061249913941663 -0.1826472548894206 0.18135346900433785 0.001293785885082433 -0.013005587074011466 0.0 0.0
0.0 0.20939291173447752 -0.18080625651154508 0.1805050521213532 0.00030120439019169407 -0.0344795456509496 0.0 0.0
0.0 0.20062848970526412 -0.1685297777799731 0.1622274893599508 0.0063022884200221565 8.286774044741207e-15 0.0 0.0
0.0 0.2093929117344434 -0.1808062565115135 0.18050505212132234 0.00030120439019108453 0.034479545650972304 0.0 0.0
0.0 0.21061249913934793 -0.18264725488936068 0.18135346900427818 0.0012937858850825146 0.013005587074033043 0.0 0.0
0.0 0.1971819091324819 -0.17106795958898746 0.16952133716530832 0.0015466224236792062 0.009110333087721616 0.0 0.0
0.0 0.17697585418155676 -0.15359763886599412 0.15201085436224332 0.0015867845037508 0.009173307185987613 0.0 0.0
0.0 0.1540940480173389 -0.13382538810101507 0.13223940021287406 0.0015859878881409413 0.008894959060055652 0.0 0.0
0.0 0.1306646048173704 -0.11356110462526477 0.11201233811351882 0.001548766511746039 0.007985988567979815 0.0 0.0
0.0 0.10794063508924921 -0.09388951865587641 0.09241020253382261 0.0014793161220536932 0.006844127498761031 0.0 0.0
0.0 0.08664579247241978 -0.07546043772969399 0.07407053965054593 0.0013898980791480868 0.005695700564369 0.0 0.0
0.0 0.06750188625513587 -0.05864095473683487 0.05734702462184927 0.0012939301149856382 0.00460155337873558 0.0 0.0
0.0 0.05004204068911657 -0.04367173863902897 0.04247157562696513 0.0012001630120638633 0.0035428613312353087 0.0 0.0
0.0 0.035097817998466334 -0.030760637166550683 0.029651755384667744 0.0011088817818829626 0.0025023511204565595 0.0 0.0
0.0 0.022831661264740184 -0.020128854552841937 0.019114312840261587 0.001014541712580335 0.0015555744769242253 0.0 0.0
0.0 0.013355539501404314 -0.0119249323583172 0.011021764652460637 0.0009031677058565583 0.0007992496478629267 0.0 0.0
0.0 0.006690041105925654 -0.006098606387884322 0.005365512192833083 0.0007330941950512334 0.00026591113710917533 0.0 0.0
0.0 0.0026411789577322083 -0.0023683611790909246 0.0019143351009873815 0.00045402607810354344 -4.388926409432712e-05 0.0 0.0
0.0 0.0005511494707119703 -0.00046812961260390854 0.0003392240600208185 0.0001289055525830899 -6.621451409115673e-05 0.0 0.0
0.0 -1.7842435085736671e-06 -1.6170548935825976e-07 -1.42989999962668e-06 1.5916054889850321e-06 -7.318728110414537e-06 0.0 0.0
0.0 0.0 0.0 0.0 0.0 0.0 0.0 0.0
0.0 0.0 0.0 0.0 0.0 0.0 0.0 0.0
0.0 0.0 0.0 0.0 0.0 0.0 0.0 0.0
0.0 0.0 0.0 0.0 0.0 0.0 0.0 0.0
0.0 0.0 0.0 0.0 0.0 0.0 0.0 0.0
0.0 0.0 0.0 0.0 0.0 0.0 0.0 0.0
0.0 3.71654375448046e-05 -3.586384419369967e-05 2.3276536387691952e-05 1.258730780600777e-05 1.4921340932842323e-05 0.0 0.0
0.0 0.0009048872828492931 -0.0007294847389307613 0.0005253052599404932 0.00020417947899026756 0.000175435530020432 0.0 0.0
0.0 0.003341464682366461 -0.0030000491717878932 0.00239945753093749 0.0006005916408503976 0.00038865385297928495 0.0 0.0
0.0 0.00781930885952993 -0.0071598413381378555 0.006216822997941785 0.0009430183401960777 0.0005096497235003339 0.0 0.0
0.0 0.015023936789949538 -0.013508183410320649 0.012299552177149916 0.0012086312331707333 0.0005640396337674093 0.0 0.0
0.0 0.025150512379677394 -0.022392336074876146 0.02093784493861405 0.0014544911362620668 0.0005404667935558836 0.0 0.0
0.0 0.03838382484802792 -0.033916313076447505 0.03218853771440882 0.0017277753620386512 0.00039658021376959935 0.0 0.0
0.0 0.05457639609147046 -0.047963394095441696 0.04591547367685744 0.0020479204185842297 0.0001694749408523745 0.0 0.0
0.0 0.07313631698003392 -0.06430868819300739 0.06189058481708218 0.0024181033759252363 -0.00013288483100784565 0.0 0.0
0.0 0.0941174840297842 -0.08268635493914002 0.07986123846240611 0.0028251164767338598 -0.0005407937477804195 0.0 0.0
0.0 0.11711410358383709 -0.1027925314038408 0.09954509269609338 0.003247438707747511 -0.0010237008692635264 0.0 0.0
0.0 0.14159926918764335 -0.12416041025960677 0.12050942138697503 0.0036509888726315694 -0.0015948579214159018 0.0 0.0
0.0 0.16667669357483453 -0.145965236698523 0.14197563107526015 0.003989605623263063 -0.0021456886561397708 0.0 0.0
0.0 0.19081107220214327 -0.16689834578359222 0.16268830785578614 0.004210037927805836 -0.002394391254071251 0.0 0.0
0.0 0.21190910411271102 -0.18518191984925397 0.18089138407741162 0.004290535771842158 -0.002133833171807563 0.0 0.0
0.0 0.22706129800081074 -0.19852730158324136 0.19413235192956257 0.004394949653678903 -0.0042141105483694975 0.0 0.0
0.0 0.2301120975023611 -0.20170199014159113 0.1971371460043253 0.004564844137265856 -0.02627870559573515 0.0 0.0
0.0 0.22608094358634634 -0.19282157421355267 0.18120708390206725 0.011614490311485037 1.1379786002407855e-15 0.0 0.0
0.0 0.23011209750232017 -0.20170199014155504 0.19713714600428997 0.0045648441372648126 0.026278705595742174 0.0 0.0
0.0 0.22706129800073152 -0.19852730158317217 0.194132351929495 0.004394949653676988 0.004214110548377437 0.0 0.0
0.0 0.2119091041125985 -0.18518191984915655 0.18089138407731564 0.004290535771841219 0.002133833171809131 0.0 0.0
0.0 0.19081107220201612 -0.16689834578348142 0.1626883078556767 0.0042100379278046055 0.002394391254068425 0.0 0.0
0.0 0.16667669357470283 -0.14596523669840825 0.14197563107514724 0.003989605623260641 0.0021456886561374774 0.0 0.0
0.0 0.14159926918750868 -0.12416041025948849 0.12050942138685977 0.003650988872628562 0.0015948579214147413 0.0 0.0
0.0 0.11711410358370089 -0.10279253140372224 0.0995450926959763 0.003247438707745893 0.0010237008692615228 0.0 0.0
0.0 0.09411748402965177 -0.08268635493902475 0.07986123846229251 0.0028251164767321623 0.0005407937477782294 0.0 0.0
0.0 0.07313631697991164 -0.0643086881929009 0.06189058481697766 0.002418103375923143 0.00013288483100446988 0.0 0.0
0.0 0.05457639609136408 -0.047963394095348645 0.04591547367676636 0.00204792041858228 -0.00016947494085414478 0.0 0.0
0.0 0.03838382484794341 -0.03391631307637391 0.032188537714336676 0.001727775362037184 -0.0003965802137723415 0.0 0.0
0.0 0.025150512379610662 -0.02239233607481752 0.020937844938556754 0.00145449113626076 -0.0005404667935573408 0.0 0.0
0.0 0.01502393678990161 -0.013508183410277843 0.012299552177108482 0.0012086312331693523 -0.0005640396337668538 0.0 0.0
0.0 0.007819308859502865 -0.007159841338113088 0.006216822997918451 0.0009430183401946355 -0.0005096497234998733 0.0 0.0
0.0 0.0033414646823538606 -0.0030000491717759913 0.002399457530927287 0.000600591640848704 -0.00038865385297785657 0.0 0.0
0.0 0.000904887282842547 -0.0007294847389252845 0.0005253052599363624 0.00020417947898892412 -0.00017543553001963603 0.0 0.0
0.0 3.7165437544210174e-05 -3.586384419331533e-05 2.327653638745794e-05 1.2587307805857385e-05 -1.4921340932616897e-05 0.0 0.0
0.0 0.0 0.0 0.0 0.0 0.0 0.0 0.0
0.0 0.0 0.0 0.0 0.0 0.0 0.0 0.0
0.0 0.0 0.0 0.0 0.0 0.0 0.0 0.0
SCALARS Wm float 4
LOOKUP_TABLE default
13.731189838986154 2.0609123317308145 5.8565354516205055 5.813742055634826
7.083561013488545 3.3598990699882303 1.6890890264048226 2.0345729170954927
0.8086267163624608 0.7286364161496661 0.015791284248467975 0.06419901596432658
0.586440439147421 0.5399479117067346 0.012972278088977097 0.03352024935170932
1.2654430047778402 0.8423233170096042 0.1539651353587417 0.2691545524094935
2.8596324248349934 1.2599234026511104 0.6155052818630957 0.9842037403207865
6.05166961425506 1.8482555820717335 1.8647589714749477 2.3386550607083803
11.312191622755272 2.616172148442567 4.201838596189218 4.494180878123483
19.170101819792745 3.623531166218504 8.01039022872623 7.5361804248480055
29.98240592383017 4.89606790495132 13.593093177742944 11.493244841135926
43.871765470540595 6.436200612212721 21.11077367923156 16.3247911790963
60.66662035732794 8.227701299963343 30.483781664811524 21.955137392553105
80.36905031510028 10.235223447385355 41.8351554284132 28.298671439301707
102.75138915522336 12.417608626936255 55.06611234226655 35.26766818602059
127.35199930223243 14.604432922779624 70.01489498049528 42.732671398957464
153.32709075754659 16.518905599554415 86.3199275948532 50.48825756313896
179.32335549491668 17.851120103459667 103.2280628128982 58.244172578558874
203.63857912633227 18.39202322212259 119.69131130329997 65.55524460090955
224.5242007803372 18.248087758831854 134.3690632179582 71.90704980354738
239.19498411812611 17.06942746640341 145.44124592567866 76.6843107260438
243.83226632506342 14.79476183277404 150.2546946784076 78.78280981388181
239.19498411806762 17.069427466373778 145.4412459256579 76.6843107260359
224.52420078026617 18.248087758835208 134.36906321790624 71.90704980352461
203.6385791262179 18.3920232221074 119.69131130323095 65.55524460087949
179.3233554948016 17.851120103466585 103.22806281281417 58.2441725785209
153.32709075742088 16.5189055995523 86.319927594769 50.48825756309956
127.35199930211614 14.604432922786891 70.01489498041255 42.7326713989167
102.7513891550995 12.417608626926803 55.06611234219112 35.267668185981634
80.36905031498571 10.23522344737725 41.83515542834423 28.298671439264258
60.66662035722233 8.227701299951796 30.483781664751774 21.955137392518765
43.87176547045122 6.436200612201013 21.11077367918356 16.32479117906664
29.98240592376358 4.896067904946425 13.59309317770615 11.493244841111018
19.17010181974453 3.6235311662119045 8.010390228702551 7.536180424830071
11.312191622724455 2.616172148440171 4.201838596174014 4.494180878110271
6.051669614236896 1.8482555820706854 1.864758971466542 2.3386550606996677
2.8596324248254885 1.2599234026484922 0.6155052818603659 0.9842037403166287
1.2654430047746439 0.8423233170090798 0.15396513535766548 0.26915455240789826
0.5864404391466154 0.5399479117059688 0.012972278088958168 0.033520249351688645
0.8086267163610201 0.7286364161485489 0.015791284248356564 0.06419901596411351
7.083561013483798 3.3598990699899227 1.6890890264016594 2.0345729170922136
13.731189838955375 2.0609123317143414 5.85653545161257 5.813742055628478
16.519326220703416 7.137183035347596 4.578298411369537 4.803844773986285
2.943009670241847 0.6472784548051949 0.9808835124953369 1.3148477029413141
0.2896127966222291 0.34088010092208393 -0.017972249924111915 -0.033295054375742934
0.4510122849816247 0.43397556837164103 0.0035050389255200706 0.013531677684463499
0.9487437610547217 0.6847235077467019 0.08425984332745039 0.17976040998056966
2.2782858700101767 1.0225922264737424 0.48463854486808217 0.7710550986683519
4.964283263354606 1.426890623050847 1.532089440602771 2.005303199700988
9.568137382396714 1.9402559015636793 3.62966553015972 3.998215950673313
16.481050823119997 2.5588669492782667 7.091538280270028 6.830645593571707
25.933203345456818 3.2717325872823726 12.149339327188677 10.512131430985763
37.997236490016235 4.05935705205034 18.944175479455698 14.993703958510187
52.682773227766106 4.927275644192216 27.55676818785123 20.198729395722676
69.66732910757432 5.8774813870292135 37.7295658077345 26.06028191281063
89.09744274752278 6.867731728332925 49.72889560613571 32.50081541305415
110.51886202506361 7.826437087861228 63.2745780555891 39.4178468816133
133.2862591610986 8.611871887826933 78.04941868647028 46.62496858680132
156.34659717681527 9.05917933234147 93.46378713250945 53.823630711964285
178.2521962587845 9.057357168171917 108.5543166071652 60.64052248344741
197.0728308788656 8.497495524424053 122.00498567324598 66.57034968119554
210.37993379551483 7.465169622707463 132.02272674244944 70.892037430358
215.5016113963438 6.284563502379053 136.44397691345742 72.7730709805074
210.37993379551352 7.465169622741641 132.02272674242465 70.8920374303473
197.07283087881007 8.497495524437795 122.00498567319778 66.57034968117456
178.25219625870108 9.057357168179033 108.5543166071025 60.64052248341959
156.34659717670988 9.059179332344895 93.4637871324349 53.82363071193
133.28625916098434 8.611871887824073 78.04941868639467 46.6249685867656
110.51886202495118 7.826437087861313 63.27457805551405 39.41784688157581
89.09744274741516 6.867731728329243 49.728895606067404 32.50081541301849
69.66732910747173 5.877481387022223 37.72956580767296 26.06028191277654
52.68277322767377 4.927275644186169 27.556768187796976 20.198729395690613
37.997236489940185 4.059357052046255 18.944175479411694 14.993703958482243
25.933203345397782 3.271732587278816 12.149339327155944 10.512131430963015
16.481050823077428 2.5588669492740124 7.091538280248553 6.830645593554857
9.56813738236898 1.9402559015612644 3.629665530146369 3.998215950661345
4.964283263338397 1.4268906230489196 1.5320894405959058 2.005303199693569
2.2782858700026343 1.0225922264725142 0.4846385448653041 0.7710550986648176
0.9487437610523266 0.6847235077462348 0.08425984332671553 0.17976040997937695
0.4510122849813202 0.4339755683712634 0.0035050389255167347 0.013531677684540104
0.28961279662224865 0.34088010092194193 -0.017972249924040836 -0.03329505437565221
2.9430096702338657 0.6472784548037085 0.9808835124921416 1.3148477029380166
16.519326220676476 7.137183035336336 4.578298411361048 4.803844773979075
12.562924967831172 5.711181871874441 3.214062191576274 3.6376809043804568
1.8437177799517952 0.27969439551501085 0.6565761256065803 0.9074472588302058
0.17961587306894927 0.1789350755114725 0.0001217352232517404 0.0005590623342250544
0.3318762935211542 0.33296507415120424 -0.0005852012381591566 -0.0005035793918908419
0.7127945590201441 0.588255998097936 0.034018814182779814 0.09051974673942818
1.7727515578619268 0.9147672939257613 0.31902478428797343 0.5389594796481934
4.028537578949193 1.300116956094073 1.1375954971290252 1.5908251257260946
8.044399302509287 1.7703673485021028 2.915482277093344 3.3585496769138405
14.118787407901435 2.3172017548262516 5.896435244154723 5.905150408920461
22.453870044047893 2.929982590388836 10.306649929108955 9.2172375245501
33.04555630719997 3.603629332856121 16.209649703510124 13.232277270833718
45.8058790642499 4.347108550732452 23.579479964676235 17.879290548841205
60.82671080238863 5.175657085037958 32.55631941176247 23.0947343055882
77.7119639689909 6.0681434564789445 42.8090317003082 28.8347888122037
96.51499875013096 6.95240211991695 54.55727401216177 35.00532261805219
116.59749892051548 7.731318976440419 67.40404799142271 41.46213195265235
137.08292669408706 8.260348567474107 80.85106495289368 47.971513173719316
156.62734406774868 8.364945209963949 94.10989072847656 54.15250812930823
173.38737400457754 7.910756953462876 105.9629288797326 59.513688171382015
185.24736359849499 7.130084059715241 114.73289242793237 63.38438711084738
189.58441431198034 5.634971310415421 118.78122253104226 65.16822047052268
185.2473635984318 7.130084059682263 114.73289242791168 63.38438711083777
173.3873740045218 7.910756953469392 105.96292887968991 59.5136881713625
156.62734406766856 8.364945209961906 94.10989072842291 54.15250812928373
137.08292669399358 8.260348567473038 80.85106495283102 47.97151317368949
116.59749892041202 7.731318976431714 67.40404799135923 41.46213195262114
96.51499875003293 6.952402119916905 54.55727401209692 35.005322618019115
77.71196396889304 6.0681434564720425 42.80903170024918 28.83478881217178
60.82671080230209 5.175657085033822 32.55631941170999 23.094734305558283
45.8058790641706 4.347108550729532 23.579479964628728 17.87929054881236
33.045556307133566 3.6036293328534588 16.20964970347175 13.232277270808366
22.453870043995256 2.929982590382628 10.306649929082013 9.217237524530608
14.118787407864712 2.31720175482404 5.89643524413567 5.905150408905
8.04439930248521 1.7703673484992828 2.9154822770823485 3.3585496769035816
4.0285375789357545 1.3001169560920183 1.137595497123812 1.5908251257199233
1.772751557855925 0.9147672939246857 0.3190247842858952 0.5389594796453435
0.7127945590184798 0.5882559980973855 0.03401881418239531 0.09051974673869892
0.33187629352089826 0.3329650741509226 -0.000585201238153932 -0.0005035793918702922
0.17961587306896773 0.1789350755115053 0.0001217352232492098 0.0005590623342132359
1.8437177799457893 0.27969439551431696 0.6565761256040634 0.9074472588274075
12.562924967804484 5.711181871863101 3.2140621915682477 3.6376809043731444
9.536307976187382 4.455110249269364 2.296106293374491 2.785091433543531
1.2477374321062102 0.127462470754316 0.44650114035940963 0.6737738209924827
0.12536843630981434 0.12536843630981434 0.0 0.0
0.24653331749796698 0.2482787186627135 -0.00028273619038388586 -0.0014626649743625624
0.5314636126462516 0.4925222180969819 0.008532973038732279 0.030408421510537548
1.3199430041720337 0.7923357387972455 0.17874148199846054 0.34886578337632757
3.1931822436184985 1.1740140221088378 0.8197244345483751 1.1994437869612848
6.582726140844573 1.5974307015533733 2.2510684038315905 2.7342270354596105
11.835016073866626 2.0777066869080443 4.770783823155603 4.986525563802978
19.04986736425714 2.601358035135026 8.525267629187088 7.923241699935025
28.172348397916 3.170157039886704 13.530728602759606 11.4714627552697
39.20375768745514 3.807661204739868 19.83733073109334 15.558765751621927
51.98503047682789 4.523570442435615 27.324089136230164 20.137370898162107
66.69837664388977 5.309738189519658 36.22374398454794 25.164894469822183
82.8828481119859 6.132895317393705 46.15867442598899 30.59127836860318
100.2521322576217 6.90717139659969 57.046215537055275 36.29874532396673
118.25249104263274 7.502287169215182 68.66702387106332 42.08318000235424
135.55086622644393 7.732064644020635 80.1779788693755 47.64082271304782
150.49953845760746 7.4655428409691424 90.52386294237138 52.51013267426692
161.23686401953486 6.838546605645897 98.30110173178093 56.09721568210799
165.17758677873758 5.053866314212648 102.25354891261833 57.87017155190658
161.23686401953256 6.838546605664546 98.30110173176631 56.09721568210167
150.49953845754706 7.46554284095848 90.52386294233732 52.51013267425125
135.55086622638274 7.732064644026994 80.17797886932962 47.6408227130261
118.25249104256145 7.502287169223071 68.66702387101033 42.08318000232801
100.25213225753986 6.907171396598809 57.046215537001515 36.29874532393956
82.88284811189898 6.132895317389113 46.158674425935445 30.591278368574347
66.69837664380015 5.309738189506627 36.223743984498824 25.16489446979471
51.985030476752264 4.52357044243116 27.324089136185318 20.137370898135774
39.203757687388055 3.8076612047381078 19.8373307310534 15.558765751596564
28.172348397858265 3.170157039883375 13.530728602727299 11.471462755247599
19.0498673642139 2.6013580351312586 8.525267629164544 7.923241699918087
11.835016073834058 2.0777066869056635 4.770783823139223 4.9865255637891766
6.582726140823866 1.5974307015514793 2.251068403822277 2.7342270354501075
3.1931822436069566 1.1740140221068618 0.81972443454391 1.1994437869561851
1.3199430041676623 0.7923357387962188 0.17874148199710174 0.348865783374342
0.5314636126451079 0.4925222180964923 0.008532973038519588 0.03040842151009566
0.24653331749793672 0.24827871866265583 -0.00028273619037650044 -0.0014626649743426198
0.12536843630971145 0.12536843630971145 0.0 0.0
1.2477374321009884 0.1274624707536201 0.44650114035730426 0.6737738209900649
9.53630797616576 4.455110249260987 2.296106293367943 2.7850914335368304
7.137559468924566 3.450937902144733 1.589152552776271 2.097469014003568
0.914062767572064 0.11720218513375444 0.3212340722055914 0.4756265102327169
0.11407580182587815 0.11407580182587815 0.0 0.0
0.19717574433516666 0.1972445896838911 -2.8403112692412323e-06 -6.60050374552288e-05
0.3965655763648153 0.39777565690038075 -0.0023505108139010348 0.0011404302783358476
0.9614335183379729 0.679976438490231 0.08637028600171871 0.19508679384602257
2.4291579157500327 1.0278877705938212 0.5532918403178064 0.847978304838406
5.205417584823985 1.4239970414239806 1.6489200248060931 2.1325005185939117
9.631990219997796 1.8409954991112902 3.710951041001564 4.080043679884944
15.73676388694684 2.2848548486793354 6.8162068193238365 6.635702218943672
23.462858507050242 2.763664011983382 10.985324391930309 9.713870103136546
32.74237424402312 3.300890333527617 16.200016576574125 13.241467333921383
43.57967768811853 3.9192905665611852 22.48118106052901 17.179206061028317
55.7909396515889 4.61455328259314 29.669735341880767 21.50665102711497
69.53554805065748 5.357437583346264 37.998518708708225 26.179591758602992
84.43458955089538 6.115849727593543 47.19764190021029 31.121097923091536
99.84614286098746 6.78034298171033 56.87761624896459 36.18818363031252
114.9706665345534 7.165039436421125 66.69468804347221 41.110939054660086
128.3144595131749 7.096221746529093 75.71517923648145 45.50305853016435
138.23146807662602 6.604055433918843 82.76502126565465 48.86239137705249
141.9542604907155 4.509902565165313 86.72131451416264 50.72304341138758
138.23146807660078 6.60405543391624 82.76502126563938 48.86239137704514
128.31445951313725 7.0962217465324695 75.71517923645396 45.50305853015087
114.97066653449737 7.165039436423004 66.69468804343369 41.11093905464072
99.84614286091758 6.7803429817062835 56.87761624892077 36.188183630290546
84.43458955083143 6.115849727601903 47.19764190016302 31.12109792306648
69.53554805059336 5.357437583352136 37.998518708663156 26.179591758578123
55.79093965152361 4.614553282591675 29.669735341840312 21.506651027091596
43.579677688054744 3.9192905665573914 22.481181060491917 17.179206061005438
32.742374243964974 3.300890333521695 16.20001657654267 13.24146733390061
23.462858506999957 2.763664011977588 10.985324391904378 9.713870103117998
15.736763886908832 2.284854848675686 6.816206819304567 6.6357022189285795
9.631990219970122 1.8409954991072692 3.7109510409891144 4.080043679873737
5.205417584805326 1.4239970414206318 1.6489200247986018 2.132500518586092
2.4291579157409693 1.027887770592151 0.5532918403144794 0.8479783048343398
0.9614335183348955 0.6799764384894268 0.0863702860008529 0.195086793844616
0.39656557636387524 0.3977756568995777 -0.0023505108139500208 0.0011404302782475214
0.19717574433507445 0.19724458968383268 -2.840311271678315e-06 -6.600503748656346e-05
0.11407580182559382 0.11407580182559382 0.0 0.0
0.9140627675678279 0.11720218513338802 0.3212340722037782 0.4756265102306637
7.137559468906818 3.450937902137641 1.5891525527711816 2.0974690139979906
5.246023602076124 2.649827214869707 1.0727634924724267 1.5234328947339901
0.6491282938657098 0.14436690455369092 0.1835411284462656 0.3212202608657535
0.12902999510980265 0.12902999510980265 0.0 0.0
0.17512731098001705 0.1750850635670406 3.7545625399050638e-06 3.8492850436528474e-05
0.31062759069905765 0.3208606407218495 -0.0027324200305888745 -0.007500629992202967
0.6806987876367198 0.5623851906134448 0.027941791416841458 0.09037180560643347
1.7288252915506697 0.8679514801855717 0.3046878006741613 0.5561860106909365
3.9765202206433936 1.2404725338369236 1.1719479966267108 1.5640996901797588
7.506151921208665 1.606935996281345 2.7078376065345227 3.1913783183927986
12.55723472167719 1.9815604306190575 5.21589758945366 5.359776701604465
18.902173897998264 2.3797827743081896 8.55881059484785 7.963580528842223
26.485608898692494 2.8308729057765953 12.723762325604316 10.930973667311585
35.2933111856082 3.357976580318745 17.706809411879938 14.228525193409501
45.378388020626176 3.96665585375051 23.561109441800763 17.8506227250749
56.60149194467827 4.64724487968327 30.177616307752775 21.77663075724222
68.82619053701148 5.359956834319062 37.516633491646466 25.94960021104599
81.93977410737637 6.06691527004537 45.61155866849909 30.26130016883191
94.92066340152952 6.628790980298252 53.739470101598435 34.552402319632854
106.71326741665924 6.7833461954258025 61.41940213055685 38.51051909067652
116.0164557969806 6.426993894334502 67.89138155108965 41.69808035155647
119.6744656938792 4.009203066625827 71.97446390802234 43.69079871923107
116.01645579698429 6.426993894359345 67.89138155107547 41.69808035154942
106.71326741661306 6.783346195410723 61.419402130536255 38.510519090666136
94.92066340147899 6.6287909802921625 53.73947010156881 34.55240231961798
81.93977410733257 6.0669152700567635 45.61155866846298 30.261300168812777
68.82619053694435 5.35995683431116 37.516633491608495 25.949600211024748
56.60149194460867 4.647244879669993 30.177616307716953 21.776630757221692
45.37838802057371 3.9666558537513152 23.561109441767748 17.850622725054638
35.29331118555697 3.35797658031644 17.706809411850216 14.228525193390324
26.48560889864875 2.8308729057749606 12.723762325579454 10.930973667294339
18.902173897960022 2.379782774307177 8.558810594826578 7.963580528826269
12.55723472164701 1.9815604306177503 5.215897589437932 5.359776701591327
7.506151921187703 1.6069359962793406 2.7078376065248557 3.1913783183835074
3.9765202206301833 1.2404725338355627 1.1719479966209874 1.5640996901736322
1.7288252915438116 0.8679514801833969 0.3046878006721849 0.556186010688229
0.6806987876344149 0.5623851906125349 0.027941791416376375 0.09037180560550329
0.3106275906983758 0.3208606407209409 -0.002732420030542464 -0.007500629992022554
0.17512731097967746 0.17508506356670134 3.754562539731058e-06 3.8492850436342296e-05
0.12902999510955132 0.12902999510955132 0.0 0.0
0.6491282938629598 0.1443669045537032 0.18354112844502407 0.32122026086423267
5.246023602062075 2.6498272148635813 1.0727634924688212 1.5234328947296756
3.7244309637624795 2.004304430134676 0.6657454987830548 1.0543810348447489
0.48336179050885225 0.18813093529989655 0.10007159435318398 0.1951592608557718
0.15526362685684114 0.15527382470908024 -5.595583971474408e-07 -9.638293841952227e-06
0.17158752863045762 0.1715732426143405 9.176681420014073e-07 1.3368347975063384e-05
0.2604767671981272 0.26662115077865084 -0.0013012748088295344 -0.004843108771694152
0.4862919957527725 0.461361964302236 0.0014617001024024316 0.02346833134813431
1.18520978863742 0.7178384152331592 0.1497362690729646 0.31763510433129627
2.78018126432323 1.0336829066983768 0.6839315926083522 1.062566765016502
5.624162779018447 1.3749915383330338 1.9128418609727316 2.33632937971268
9.490781119389665 1.687297114580026 3.704152499930778 4.099331504878861
14.53130415568806 2.018021185642889 6.287191214931017 6.226091755114153
20.491753210657237 2.393370567813098 9.467253245906662 8.631129396937478
27.37657570100741 2.8389025607420226 13.247705439328746 11.28996770093665
35.24670330651588 3.3693588506177967 17.670442951610113 14.206901504287977
44.09285799029157 3.978709745174851 22.730445117306083 17.38370312781063
53.9585134630639 4.650105212318695 28.52571233591851 20.78269591482668
64.29305546015449 5.365199452609482 34.58374226053283 24.344113747012194
75.2468202983001 6.072819604991737 41.22468829623844 27.94931239706992
85.7988898165369 6.493973689594795 47.845500132322066 31.459415994620016
94.55278194894788 6.317454173438225 53.70424194463197 34.5310858308777
98.31710617253233 3.5664333966455737 58.0199718518535 36.73070092403319
94.55278194890879 6.317454173413381 53.704241944622524 34.53108583087289
85.79888981651335 6.49397368959127 47.84550013230891 31.459415994613195
75.24682029826565 6.072819604992106 41.22468829621589 27.949312397057657
64.29305546010403 5.365199452603912 34.58374226050415 24.34411374699598
53.95851346301425 4.650105212311304 28.52571233589175 20.7826959148112
44.09285799024903 3.9787097451747355 22.730445117279853 17.383703127794462
35.246703306464106 3.3693588506042698 17.670442951586846 14.206901504273002
27.37657570096993 2.8389025607430405 13.247705439305891 11.289967700921
20.49175321062431 2.3933705678159516 9.467253245885995 8.63112939692236
14.531304155655036 2.018021185639642 6.28719121491448 6.226091755100916
9.490781119364751 1.6872971145780549 3.7041524999185937 4.099331504868098
5.624162779000248 1.3749915383302282 1.9128418609649251 2.3363293797050964
2.7801812643123927 1.0336829066959754 0.6839315926045019 1.0625667650119157
1.1852097886332509 0.7178384152323204 0.14973626907164192 0.31763510432928793
0.4862919957509504 0.4613619643008154 0.001461700102286233 0.023468331347849102
0.26047676719809476 0.26662115077857446 -0.0013012748088146728 -0.004843108771665174
0.1715875286299993 0.17157324261388757 9.176681415783688e-07 1.336834797013782e-05
0.15526362685649908 0.15527382470872583 -5.595583963068968e-07 -9.638293830423766e-06
0.48336179050678246 0.18813093529970903 0.10007159435237273 0.19515926085470026
3.724430963752241 2.004304430130511 0.6657454987804554 1.0543810348412774
2.6128088065576827 1.5265781133726002 0.4226583520997253 0.6635723410853573
0.3532568676072456 0.21661974904340758 0.03474262889924324 0.10189448966459487
0.18257810288869755 0.18237844823121993 2.0270940572024184e-05 0.00017938371690553992
0.1795335539932923 0.17948518406587824 4.044803972288063e-06 4.4325123441753516e-05
0.2342084370245166 0.2383299792940155 -0.0007772764070803858 -0.003344265862418483
0.3679943689489494 0.3760129706582144 -0.005099986929249468 -0.0029186147800157702
0.7663340810913157 0.5710668117479534 0.04995211132171691 0.14531515802164505
1.8050107246617861 0.8273377050764624 0.3460221960794887 0.6316508235058355
3.7630549110782434 1.1161190302294375 1.0983557471972776 1.5485801336515277
6.721060294254379 1.3968948410811428 2.4496446806868137 2.8745207724864215
10.380189493569452 1.669316954028075 4.204376039878215 4.506496499663168
14.769086448736584 1.9808703236168486 6.437919368142012 6.350296756977723
19.838917673258074 2.3539298522847005 9.112779020138548 8.372208800834825
25.616499373668564 2.8071354134305153 12.222654406207333 10.586709554030715
32.21899246519196 3.3552421533638177 15.853031437588989 13.010718874239153
39.5462858538402 3.9776939231772657 19.929678409881085 15.638913520781859
47.619689067840255 4.659232953622792 24.541790655466198 18.418665458751253
56.21376590784498 5.458370012864547 29.420859549736786 21.334536345243666
65.16603409342079 6.17726789591946 34.63557828768386 24.353187909817468
73.59347224710095 6.279868982676108 40.01360166768923 27.300001596735598
77.68393834539447 3.1978021593698878 44.689371321832795 29.796764864191797
73.59347224712037 6.279868982702433 40.01360166768466 27.300001596733274
65.16603409341131 6.177267895925579 34.63557828767391 24.353187909811815
56.21376590781494 5.458370012861339 29.420859549719832 21.33453634523378
47.61968906780079 4.659232953612765 24.54179065544784 18.418665458740175
39.5462858538083 3.9776939231773016 19.929678409861456 15.638913520769506
32.21899246515337 3.355242153356356 15.853031437570205 13.010718874226821
25.616499373646242 2.8071354134341795 12.222654406192024 10.586709554020043
19.838917673228526 2.353929852283134 9.112779020122401 8.372208800822971
14.769086448705323 1.9808703236103988 6.4379193681281945 6.35029675696673
10.380189493546498 1.6693169540266548 4.204376039866684 4.506496499653159
6.721060294237324 1.3968948410813087 2.449644680677946 2.8745207724780713
3.76305491106654 1.1161190302276063 1.0983557471925782 1.5485801336463543
1.8050107246553382 0.8273377050746208 0.3460221960775494 0.6316508235031675
0.7663340810877652 0.5710668117466667 0.04995211132094043 0.14531515802015835
0.3679943689480604 0.37601297065719785 -0.005099986929230845 -0.002918614779906745
0.23420843702428723 0.23832997929375066 -0.0007772764070665203 -0.0033442658623968665
0.17953355399291027 0.17948518406547348 4.044803973152562e-06 4.432512346364638e-05
0.18257810288799817 0.18237844823042026 2.0270940579251716e-05 0.00017938371699864492
0.3532568676057253 0.21661974904313033 0.03474262889877908 0.1018944896638158
2.6128088065500346 1.5265781133695278 0.42265835209771097 0.6635723410827953
1.708114768226304 1.1304088741484217 0.19666538417169013 0.38104050990619137
0.27288904969718064 0.2321837963738724 0.006117091802123186 0.034588161521185226
0.20534003913620488 0.20545586062394786 -1.3799440993550751e-05 -0.00010202204674935793
0.1938136424028619 0.19407909149145341 -2.8112995146292107e-05 -0.000237336093445271
0.2228930835770888 0.22582525475180304 -0.000620722706236109 -0.002311448468478054
0.3064003339057615 0.31447382099968557 -0.0036619285313836624 -0.0044115585625404624
0.4999434360173043 0.4495340834248266 0.006403475589404564 0.04400587700307323
1.0476883848822554 0.6283281801179729 0.12986848190104158 0.2894917228632411
2.207206024389477 0.8463781153207743 0.5100385059041526 0.8507894031645492
4.072193143708225 1.0757644754107045 1.2716509585515992 1.7247777097459227
6.488025003725232 1.3052343761245944 2.343432019569104 2.839358608031536
9.409558097961085 1.5658240639099306 3.7350259383199536 4.108708095731201
12.763569229465316 1.8775570861417261 5.385723795427013 5.500288347896574
16.588904767597793 2.2571220567454358 7.309830537872496 7.021952172979864
21.002815227219084 2.7326943989067334 9.571516869135888 8.69860395917646
26.07917337033973 3.3138580173703445 12.213581293971252 10.551734058998141
31.754212332698554 3.962268324378211 15.219187535749416 12.572756472570928
37.96432563974564 4.696293404437128 18.525098307137803 14.742933928170697
45.253643378121424 5.68348144519553 22.395076154684947 17.175085778240952
53.39073110632138 6.323540603564035 27.10843032002069 19.958760182736636
58.01748119010598 2.9617677405317706 32.10608519447016 22.949628255104045
53.39073110628901 6.323540603532846 27.108430320019895 19.958760182736274
45.25364337809315 5.683481445173791 22.395076154680844 17.175085778238497
37.96432563973008 4.6962934044411595 18.525098307125766 14.742933928163144
31.754212332687903 3.9622683243890955 15.219187535736479 12.572756472562325
26.079173370312112 3.3138580173648453 12.213581293958141 10.551734058989135
21.002815227201086 2.732694398907667 9.571516869124933 8.698603959168478
16.588904767573776 2.2571220567383548 7.309830537862867 7.021952172972556
12.763569229443751 1.8775570861361004 5.385723795418306 5.500288347889343
9.409558097947839 1.5658240639114491 3.7350259383120585 4.108708095724335
6.488025003710441 1.3052343761246574 2.3434320195615883 2.8393586080241953
4.072193143696407 1.0757644754096491 1.2716509585463556 1.724777709740404
2.207206024383124 0.8463781153202758 0.5100385059015804 0.8507894031612682
1.0476883848789034 0.6283281801170738 0.1298684819001126 0.28949172286171715
0.4999434360159569 0.44953408342405393 0.006403475589185622 0.044005877002717436
0.30640033390501564 0.31447382099867865 -0.0036619285313509837 -0.004411558562311942
0.22289308357656923 0.22582525475101572 -0.0006207227062054824 -0.002311448468241047
0.19381364240283502 0.19407909149137653 -2.811299513756938e-05 -0.00023733609340387772
0.20534003913580298 0.2054558606234722 -1.3799440991704868e-05 -0.0001020220466775833
0.2728890496962566 0.2321837963735659 0.006117091801899201 0.0345881615207914
1.7081147682211906 1.1304088741460638 0.19666538417055318 0.38104050990457433
1.090538911811982 0.8447394482772338 0.07471102554349175 0.1710884379912566
0.2207989912003595 0.22828573994705953 -0.004796203825670334 -0.0026905449210297416
0.22139305395876732 0.2207718352315539 8.146613539439866e-05 0.0005397525918190956
0.21053862409286056 0.2101723733895118 3.902249229334253e-05 0.0003272282110553865
0.22395975239269625 0.22605742420868943 -0.000537775764240945 -0.0015598960517522902
0.2796932541498076 0.2841950808099673 -0.0020664560507982466 -0.002435370609361256
0.37492514387711573 0.35732247398806594 0.0012619366616287038 0.016340733227421005
0.5538755352420114 0.4379887309660482 0.026841444678726897 0.08904535959723629
0.9900323009727542 0.5567463305653888 0.13489212263801534 0.29839384776934963
1.8298027495759501 0.7006750323409149 0.4137998460581618 0.7153278711768744
3.0890009223869375 0.864572362389375 0.9151034744085036 1.3093250855890586
4.599106597206524 1.053865310973774 1.5325923251935207 2.0126489610392313
6.398157399884791 1.289002480870559 2.315186648617228 2.7939682703970057
8.49796602012804 1.587769880201654 3.2525612394041348 3.6576349005222557
10.962206578333944 1.9737773071583946 4.362466093747179 4.625963177428368
13.924908831336129 2.481699152699198 5.704367106823638 5.738842571813296
17.494157477282574 3.108188932189035 7.353879174865279 7.032089370228266
21.596770485399706 3.7472293388328666 9.351577634143027 8.497963512423814
26.542986186393996 4.587438494822939 11.748003390742598 10.207544300828454
33.845387943450746 6.104975056512959 15.173631274200478 12.566781612737318
40.27994921809832 3.03440750847191 20.961507396321338 16.28403431330507
33.84538794346998 6.104975056525576 15.173631274204515 12.566781612739884
26.542986186422063 4.587438494851973 11.748003390742038 10.207544300828044
21.596770485381192 3.747229338827895 9.35157763413516 8.497963512418135
17.494157477257204 3.1081889321790026 7.353879174856479 7.032089370221726
13.924908831322421 2.4816991526960015 5.704367106817832 5.738842571808585
10.962206578316234 1.9737773071493034 4.3624660937425705 4.625963177424361
8.497966020121037 1.5877698802014464 3.252561239400505 3.6576349005190854
6.398157399877386 1.2890024808697653 2.315186648613839 2.7939682703937794
4.599106597196294 1.0538653109723508 1.5325923251891809 2.012648961034763
3.0890009223773 0.8645723623871313 0.9151034744050058 1.3093250855851641
1.829802749572057 0.7006750323414142 0.4137998460562862 0.7153278711743564
0.9900323009700098 0.556746330564465 0.13489212263731604 0.2983938477682285
0.5538755352412247 0.43798873096579605 0.026841444678555596 0.08904535959687326
0.37492514387651954 0.3573224739876525 0.0012619366615560668 0.01634073322731079
0.27969325414906865 0.28419508080890804 -0.0020664560507715098 -0.0024353706090677546
0.2239597523920859 0.22605742420793654 -0.0005377757642208873 -0.001559896051629736
0.21053862409288382 0.21017237338936917 3.902249230883172e-05 0.0003272282112057761
0.22139305395840567 0.22077183523104948 8.146613540846067e-05 0.0005397525919477403
0.22079899119966812 0.2282857399465882 -0.0047962038257217095 -0.002690544921198295
1.0905389118090758 0.8447394482757412 0.07471102554295463 0.1710884379903792
0.6770340039211599 0.6178777394388913 0.012634491569103649 0.04652177291316501
0.19542583326791227 0.20478984756284957 -0.0021457382716651083 -0.007218276023272159
0.2307500811936823 0.23136735408857212 -7.241789192741671e-05 -0.0005448550029624145
0.22693453156601437 0.22626103255731764 8.198978853676384e-05 0.0005915092201600514
0.23527573743366992 0.2359745146175248 -0.0003513772085945956 -0.0003473999752603276
0.2765248791680126 0.2780722010662113 -0.0013768364633342629 -0.00017048543486444627
0.34565181914580173 0.3238274809187236 0.003691113432432088 0.01813322479464618
0.40138376888155863 0.3228225419204791 0.019760000120565613 0.05880122684051406
0.45607726227098366 0.2789384023621419 0.057418946087231304 0.11971991382161061
0.606037383502555 0.26350465579909305 0.1210980154973403 0.22143471220612182
0.9578079116292506 0.3024990371046482 0.2601483645928571 0.39516050993174506
1.4884085667653342 0.3086338705930243 0.47367242533436293 0.7061022708379471
2.1957110351879847 0.3177837868995343 0.7896700768842227 1.0882571714042275
3.062107247399991 0.35714980232759924 1.1838631240554585 1.5210943210169345
4.108888273007956 0.4481972177071219 1.6577448956930902 2.002946159607743
5.337316658500539 0.6126110740793375 2.197014694103661 2.527690890317542
6.796690380800861 0.8752823270510918 2.833262941964093 3.0881451117856735
8.456910419331969 1.2109660552274633 3.5669971469755937 3.6789472171289064
10.751967405972994 1.7336728290882728 4.554577353634341 4.463717223250381
16.863105620219983 3.7926881052273846 6.6034560427534705 6.466961472239129
28.21074010994254 3.3229903028915673 13.354038522180243 11.533711284870737
16.863105620223383 3.792688105223777 6.6034560427575135 6.466961472242091
10.751967405947777 1.7336728290691346 4.5545773536310605 4.463717223247586
8.456910419323037 1.210966055227236 3.5669971469708086 3.6789472171249904
6.7966903807986405 0.8752823270556538 2.8332629419603386 3.088145111782643
5.337316658496842 0.6126110740807116 2.1970146941011803 2.527690890314951
4.108888273009578 0.4481972177114948 1.65774489569155 2.0029461596065317
3.0621072473944078 0.35714980232722654 1.1838631240529058 1.5210943210142762
2.195711035184385 0.31778378690068454 0.7896700768818642 1.0882571714018363
1.4884085667581313 0.3086338705910565 0.4736724253320049 0.7061022708350703
0.9578079116259132 0.3024990371043783 0.26014836459140855 0.39516050993012547
0.6060373835007619 0.26350465579749893 0.12109801549724265 0.22143471220602096
0.45607726227143386 0.278938402363012 0.057418946087072584 0.11971991382134906
0.4013837688807675 0.3228225419205628 0.01976000012027231 0.05880122683993251
0.3456518191451488 0.32382748091822555 0.003691113432337569 0.018133224794585793
0.27652487916758073 0.27807220106564423 -0.0013768364633013992 -0.00017048543476225024
0.23527573743283872 0.23597451461659946 -0.00035137720859123504 -0.00034739997516950523
0.22693453156589977 0.22626103255702096 8.198978855845652e-05 0.0005915092203202799
0.23075008119335608 0.23136735408809725 -7.241789190520111e-05 -0.0005448550028359853
0.1954258332677578 0.20478984756245308 -0.0021457382716218386 -0.007218276023073439
0.6770340039192647 0.6178777394375017 0.012634491568924353 0.04652177291283885
0.43190392982410203 0.4316093638050317 -0.00012423486505627464 0.00041880088412671725
0.18233806151698886 0.18273035950282135 -2.3938212071696267e-05 -0.00036835977376079514
0.2337743090410508 0.2334713702280285 8.097683319642503e-06 0.0002948411297026963
0.24077621273269312 0.23993126623846 9.758990173353177e-05 0.0007473565924996223
0.25290667648768805 0.2522220647776399 -0.00015738410194427775 0.0008419958119925072
0.2978760563295951 0.296491704632684 -0.0010481294019596631 0.0024324810988708354
0.38789000790320866 0.3648300028642186 0.0034914890676643008 0.019568515971325858
0.5614998341979227 0.44021697343467375 0.028965751715396643 0.09231710904785229
0.9924595414436952 0.5566740445469411 0.13588334498355903 0.2999021519131953
1.8290507925653587 0.7003141245446269 0.4135552269359514 0.7151814410847795
3.094343551189781 0.8665939213006062 0.9171185472786436 1.3106310826105325
4.623488008815162 1.0578957955210664 1.54403773140802 2.0215544818860773
6.446116092593259 1.2950841464808343 2.3365605139945176 2.814471432117905
8.534677834117693 1.5858997331945368 3.2740408222649044 3.674737278658253
10.810896509383804 1.9308967500763368 4.306739955655594 4.573259803651874
13.142129211709623 2.3305057384940575 5.3659285208483425 5.445694952367221
15.23400746003675 2.763873781099727 6.293751167873609 6.176382511063415
16.898750106191308 3.277244967472583 6.989158602660614 6.632346536058119
17.475964691114676 3.6382532722820615 7.157936606856902 6.679774811975712
14.227139810002882 2.6020727766923026 6.144310710695064 5.480756322615507
28.576335974840877 5.093986832849268 12.375045525413471 11.107303616578134
14.227139810019036 2.602072776700108 6.144310710699778 5.480756322619147
17.475964691106537 3.638253272278779 7.157936606854057 6.6797748119737035
16.89875010616818 3.2772449674603923 6.989158602654345 6.632346536053432
15.234007460010414 2.763873781088916 6.293751167864889 6.1763825110566195
13.142129211688964 2.3305057384881245 5.3659285208402565 5.445694952360576
10.810896509371508 1.9308967500743013 4.306739955650146 4.573259803647064
8.534677834103155 1.5858997331922322 3.2740408222584203 3.6747372786525077
6.446116092576827 1.2950841464774034 2.3365605139878385 2.814471432111587
4.623488008799651 1.057895795520274 1.544037731400778 2.0215544818786015
3.0943435511795205 0.8665939213003409 0.9171185472739087 1.31063108260527
1.8290507925570823 0.7003141245434515 0.4135552269328804 0.7151814410807502
0.9924595414405156 0.5566740445456977 0.13588334498281682 0.29990215191200065
0.5614998341960459 0.4402169734342976 0.028965751714874952 0.09231710904687329
0.3878900079019137 0.3648300028633371 0.0034914890675345357 0.019568515971041648
0.29787605632875264 0.2964917046315446 -0.00104812940193615 0.0024324810991441168
0.2529066764871573 0.25222206477694886 -0.00015738410192774182 0.0008419958121362862
0.2407762127322998 0.23993126623788721 9.758990175005518e-05 0.0007473565926625477
0.23377430904081117 0.23347137022770056 8.097683322193634e-06 0.0002948411297883118
0.18233806151692677 0.18273035950277833 -2.393821207601372e-05 -0.00036835977377548104
0.43190392982292 0.4316093638036109 -0.0001242348650337069 0.00041880088434283604
0.27874204332680574 0.27881565985395423 -5.074825948644306e-06 -6.854170119983136e-05
0.16833227657328664 0.1683975665634467 -4.399403978951352e-06 -6.0890586181078064e-05
0.23040953385927532 0.23101732667125072 -9.314556578830667e-05 -0.0005146472461871353
0.2504816291471993 0.24940100059027998 8.879975300020014e-05 0.0009918288039190177
0.27498403328157206 0.27647270497857385 -0.0005098835402025206 -0.0009787881567991346
0.34266250871094134 0.341604516111734 -0.0010273998870340164 0.002085392486241146
0.5202073953832891 0.4510865285181129 0.011110625214832697 0.058010241650343464
1.057538422134534 0.6291981449283153 0.13364809615890708 0.2946921810473124
2.207651816420901 0.8460351341827488 0.5103394443915683 0.8512772378465836
4.071141894154325 1.0757718789770898 1.2709904841148862 1.724379531062348
6.4940802754222595 1.3064224123009658 2.345797986042962 2.841859877078328
9.431870435146394 1.5689266375995805 3.7452328452418926 4.117710952304915
12.803197144783606 1.8801148761383493 5.406251116830934 5.516831151814327
16.600885041125032 2.2458166227631846 7.323525841863702 7.031542576498137
20.805752958880877 2.6711938777003295 9.494776690836943 8.639782390343605
25.23104926584069 3.1454586169418075 11.816024668855736 10.269565980043136
29.516358189613666 3.674846723865773 14.053675408479933 11.787836057267958
33.133470613812975 4.2811830146798995 15.840967120835971 13.011320478297096
34.892318544699506 4.5720915496837895 16.747640021398567 13.572586973617147
32.46600489846499 4.470008497799832 15.448122306306539 12.547874094358626
40.05006733441071 9.482619274247071 16.83967434258851 13.72777371757512
32.466004898473265 4.470008497796562 15.448122306313557 12.547874094363149
34.89231854470071 4.572091549691522 16.74764002139457 13.572586973614614
33.13347061379835 4.281183014683531 15.840967120824894 13.011320478289926
29.51635818959532 3.6748467238709206 14.05367540846586 11.787836057258522
25.23104926580316 3.1454586169347842 11.816024668837752 10.269565980030624
20.80575295885435 2.6711938776945723 9.494776690824917 8.639782390334856
16.600885041098522 2.2458166227608727 7.323525841850062 7.03154257648759
12.803197144757643 1.880114876135536 5.406251116818168 5.516831151803941
9.431870435129536 1.5689266376046074 3.745232845230247 4.117710952294682
6.494080275400908 1.3064224122969998 2.345797986034113 2.8418598770697923
4.071141894142244 1.0757718789783757 1.2709904841084063 1.7243795310554635
2.207651816413158 0.8460351341805712 0.5103394443891219 0.8512772378434652
1.0575384221308268 0.629198144927812 0.13364809615768322 0.2946921810453315
0.5202073953814859 0.45108652851727865 0.011110625214507973 0.05801024164969937
0.34266250871016146 0.34160451611075554 -0.001027399887007774 0.0020853924864135693
0.2749840332812339 0.2764727049780547 -0.000509883540169484 -0.0009787881566514394
0.25048162914672445 0.249401000589658 8.879975301015147e-05 0.0009918288040563414
0.23040953385901558 0.23101732667092598 -9.314556578339698e-05 -0.0005146472461270203
0.1683322765732022 0.1683975665633916 -4.39940398052123e-06 -6.089058620889835e-05
0.2787420433260984 0.278815659853254 -5.074825949206164e-06 -6.854170120644613e-05
0.17298903559363749 0.17298903559363749 0.0 0.0
0.14939538047761 0.14939968470936055 -1.4328105404036436e-07 -4.160950696500454e-06
0.2202556799197365 0.22074451069337087 -6.775934883641407e-05 -0.0004210714247979273
0.2563934021915448 0.25706994625345403 -0.00016107347974221784 -0.0005154705821671361
0.3007953097940082 0.3013427758387718 -0.0004971147670536503 -5.035127770991677e-05
0.4119776424718663 0.394480152439596 -4.084569157192502e-05 0.017538335723842637
0.7958400729259515 0.5782048114499683 0.060149630096679424 0.1574856313793036
1.8114066022590243 0.8276110804910436 0.34926051141925557 0.6345350103487257
3.7608379343306977 1.1161412124997792 1.097233084413006 1.54746363741791
6.721654235898904 1.3973639141960879 2.4499602796592583 2.8743300420435585
10.3866340028011 1.6701538168110281 4.20610482645289 4.510375359537186
14.784568967577133 1.982122369635525 6.445966027440568 6.356480570501041
19.851751554489624 2.3524974864127386 9.12111045004997 8.37814361802691
25.57830147036799 2.7886119964776848 12.21127461696844 10.578414856921873
31.980647376350007 3.2857020522027685 15.75173270822285 12.943212615924372
38.78769992791626 3.8268646564870155 19.557919996122685 15.402915275306558
45.70004386447823 4.404045522487776 23.507422616735944 17.78857572525452
51.50284812511549 4.8583131026395066 26.834183550978928 19.810351471497064
54.40727697568835 4.983682898902357 28.58890837174403 20.834685705041956
50.80263345145316 4.435836818253561 26.681958626491035 19.684838006708556
56.88937955395363 12.51743601032884 25.396575240378695 18.975368303246107
50.8026334514474 4.435836818243692 26.68195862649363 19.684838006710056
54.40727697568117 4.983682898904085 28.5889083717384 20.834685705038698
51.50284812508556 4.8583131026350035 26.83418355096291 19.810351471487664
45.70004386442461 4.404045522469496 23.50742261671391 17.788575725241202
38.787699927891644 3.82686465650235 19.557919996098192 15.402915275291113
31.98064737630308 3.2857020521915232 15.751732708201342 12.943212615910204
25.57830147034126 2.788611996484102 12.21127461694886 10.578414856908296
19.851751554455006 2.3524974864117905 9.12111045003055 8.378143618012675
14.784568967539908 1.982122369628624 6.445966027423574 6.356480570487699
10.38663400277279 1.6701538168091739 4.2061048264386365 4.510375359524986
6.721654235876105 1.3973639141931637 2.4499602796489963 2.8743300420339417
3.7608379343162945 1.1161412124961807 1.0972330844078169 1.5474636374122968
1.8114066022512203 0.8276110804894834 0.34926051141661507 0.6345350103451233
0.7958400729225894 0.5782048114486439 0.060149630095952714 0.15748563137799265
0.4119776424706575 0.3944801524385606 -4.084569165045508e-05 0.017538335723747328
0.3007953097936874 0.301342775838091 -0.0004971147670061798 -5.0351277397367574e-05
0.2563934021914354 0.25706994625317053 -0.00016107347971932207 -0.0005154705820157638
0.2202556799195605 0.2207445106932343 -6.775934884177496e-05 -0.0004210714248320409
0.14939538047758663 0.14939968470932713 -1.432810533475878e-07 -4.1609506871892085e-06
0.1729890355932211 0.1729890355932211 0.0 0.0
0.10146985105089956 0.10146985105089956 0.0 0.0
0.12579136445604314 0.12578713838231573 2.3276924337965782e-07 3.99330448403657e-06
0.2042368563824411 0.20449794055015916 -3.2580483711811914e-05 -0.00022850368400625847
0.25879679294769653 0.25923131619757345 -0.0001609072561806946 -0.0002736159936962637
0.3304587768960448 0.33363794193808266 -0.0013574095428518908 -0.0018217554991860866
0.5349582254013698 0.4781079456228745 0.011760710573549611 0.04508956920494579
1.202869907652424 0.7146063232406913 0.15683539209986572 0.3314281923118671
2.780873023800659 1.0342342823622315 0.684472028198238 1.0621667132401895
5.6213189773850205 1.3756664916828305 1.911021223926956 2.3346312617752316
9.493235538572817 1.6880014049867194 3.704886156370736 4.100347977215364
14.538870032166606 2.017913656293721 6.291741269847495 6.229215106025389
20.492151945630813 2.3904757218568338 9.469225902966498 8.632450320807482
27.344293776763713 2.8294604862905377 13.234301330332514 11.280531960140696
35.141161725129066 3.345644316847826 17.620931659826255 14.174585748454959
43.849963990146975 3.928098103811581 22.611308868591493 17.3105570177439
53.398761476427964 4.547109409199959 28.237364372089033 20.61428769513899
62.72963643009655 5.081143860104055 33.76602919838087 23.88246337161165
70.78787167678422 5.339479129617056 38.81723210153499 26.631160445632165
74.53872340913053 5.038280244872661 41.47157191324785 28.028871251010035
69.95395704855551 4.514370040606959 38.842409466356806 26.59717754159174
75.82067208078232 15.518840232970367 35.48442126172617 24.817410586085757
69.95395704855251 4.514370040607848 38.84240946635434 26.597177541590312
74.53872340910776 5.038280244867048 41.47157191323663 28.02887125100405
70.78787167674979 5.339479129616895 38.8172321015128 26.631160445620047
62.7296364300569 5.081143860110763 33.766029198351276 23.882463371594852
53.398761476365586 4.547109409188953 28.23736437205663 20.61428769512002
43.849963990098765 3.9280981038120615 22.611308868561373 17.310557017725326
35.141161725073374 3.345644316836602 17.62093165979924 14.174585748437533
27.344293776716697 2.8294604862884634 13.234301330305787 11.280531960122453
20.492151945592706 2.390475721857505 9.469225902944181 8.63245032079103
14.538870032126699 2.0179136562897555 6.2917412698275355 6.2292151060094065
9.493235538546339 1.6880014049870118 3.704886156356553 4.100347977202777
5.621318977365925 1.3756664916811467 1.9110212239181235 2.334631261766657
2.7808730237895207 1.0342342823608242 0.684472028193806 1.0621667132348895
1.2028699076472362 0.7146063232392826 0.15683539209835953 0.3314281923095936
0.5349582253993515 0.4781079456217903 0.011760710573265876 0.04508956920429538
0.33045877689552683 0.33363794193717244 -0.001357409542776824 -0.0018217554988688722
0.2587967929475027 0.2592313161971428 -0.0001609072561635232 -0.0002736159934766892
0.20423685638222405 0.20449794054997503 -3.258048371546361e-05 -0.0002285036840354963
0.12579136445584238 0.125787138382115 2.3276924336996675e-07 3.9933044839934034e-06
0.10146985105085965 0.10146985105085965 0.0 0.0
0.05596483200097616 0.05596483200097616 0.0 0.0
0.10005857376269003 0.10005857376269003 0.0 0.0
0.18369543263459137 0.18374067647139225 -5.41416090046265e-06 -3.98296759003832e-05
0.25872650211219556 0.26021958215693247 -0.0002767553202283558 -0.001216324724508546
0.3692680194661265 0.36758644792221895 -0.0014957299699037414 0.003177301513811243
0.7203539283065196 0.5728322365907816 0.03999368324536448 0.1075280084703734
1.7413386499147492 0.8675490839867568 0.31136627703753017 0.5624232888904627
3.9738124015084435 1.2418385524908788 1.1701926652233614 1.5617811837942033
7.505003679377293 1.6080614664149515 2.7068050120608147 3.1901372009015305
12.56208426978471 1.9821838383393298 5.218150686114859 5.361749745330519
18.906440631440464 2.3780126130001005 8.56227180349373 7.966156214946642
26.463939180383424 2.821538562687654 12.716500611468991 10.925900006226774
35.20389965716856 3.336674231644932 17.665513962861603 14.201711462662013
45.20007515630665 3.941213602173323 23.46621862557904 17.792642928554294
56.36733001025088 4.632493803733489 30.038629267410514 21.696206939106883
68.45651838879864 5.304962207703303 37.313669032555325 25.837887148540013
80.70908619039659 5.761694727811882 45.007286644631066 29.940104817953625
90.6271878139272 5.696351049028809 51.52529539037459 33.40554137452381
94.8737175978796 5.004226222010311 54.74430240869146 35.125188967177806
89.81925246834284 4.739610169719293 51.64040236173603 33.43923993688747
96.4779592610791 18.53456354085319 46.96459841336472 30.9787973068612
89.81925246833168 4.739610169717978 51.640402361729684 33.43923993688405
94.87371759784574 5.0042262220049665 54.74430240867254 35.12518896716822
90.62718781388276 5.696351049027258 51.52529539034636 33.405541374509156
80.70908619033375 5.761694727804859 45.00728664459471 29.940104817934216
68.45651838874247 5.304962207711766 37.313669032513694 25.837887148517
56.367330010184716 4.632493803728028 30.03862926737207 21.696206939084597
45.20007515624765 3.941213602173462 23.466218625542325 17.79264292853187
35.20389965711344 3.336674231645391 17.665513962827873 14.201711462640198
26.463939180326555 2.821538562678878 12.716500611440535 10.925900006207142
18.906440631396535 2.3780126129994867 8.562271803468969 7.966156214928083
12.562084269749201 1.9821838383358417 5.218150686097325 5.361749745316033
7.505003679352223 1.6080614664127597 2.7068050120491853 3.1901372008902755
3.9738124014936105 1.2418385524886215 1.170192665217274 1.5617811837877142
1.7413386499071493 0.8675490839847844 0.3113662770351642 0.5624232888872023
0.7203539283034244 0.572832236589697 0.039993683244660884 0.10752800846906621
0.36926801946542426 0.3675864479212244 -0.0014957299698545217 0.0031773015140546352
0.2587265021121326 0.26021958215682756 -0.0002767553202244837 -0.0012163247244706518
0.1836954326344322 0.18374067647125694 -5.414160902672053e-06 -3.9829675922056005e-05
0.10005857376230934 0.10005857376230934 0.0 0.0
0.05596483200106558 0.05596483200106558 0.0 0.0
0.02893152834643667 0.02893152834643667 0.0 0.0
0.07521695664096396 0.07521695664096396 0.0 0.0
0.1610743503747318 0.16106753361106388 3.960330448053176e-07 6.420730623111643e-06
0.2586439461188925 0.2599923393425389 -0.000266102435677412 -0.0010822907879689
0.43144464385231596 0.4210088790220759 0.0008923783729975565 0.009543386457242406
0.9698305536057128 0.6666905373743998 0.08914039802732437 0.21399961820398894
2.433566755410392 1.0281581698890285 0.5565468934783621 0.8488616920430003
5.2026001747019714 1.4256142803767358 1.646562974528865 2.1304229197963713
9.633639130478075 1.8422659451562138 3.7113925734358824 4.079980611885981
15.743086109040306 2.285050257880333 6.819678949404793 6.638356901755181
23.460561236143064 2.7592889721537155 10.986558470278403 9.714713793710938
32.694794147371844 3.284203814809292 16.181400703868 13.229189628694545
43.434523205711464 3.886127132968057 22.411860304676548 17.13653576806685
55.54017205844742 4.585125797683672 29.529813066240813 21.42523319452298
69.26897029584578 5.3671823702433255 37.82052107392982 26.081266851672627
84.1493928186103 6.10716322804833 47.01626072461922 31.025968865942758
98.7880742998729 6.443809020546666 56.398951714730714 35.94531356459552
110.66440866448733 5.99821778193914 64.59440430814834 40.07178657439987
115.8839848375619 4.9933921747886565 68.76560788282215 42.124984779951106
110.60672679743266 5.022739018169446 65.21841587616323 40.365571903099976
118.42429468315221 21.53232984806803 59.40590396078038 37.486060874303796
110.60672679741616 5.022739018169115 65.21841587615233 40.36557190309466
115.88398483752906 4.993392174794753 68.76560788279617 42.124984779938174
110.66440866442002 5.998217781928415 64.59440430811048 40.07178657438108
98.78807429979868 6.443809020541218 56.39895171468513 35.94531356457235
84.14939281853285 6.107163228047992 47.01626072456876 31.02596886591609
69.26897029577277 5.367182370242944 37.82052107388304 26.081266851646795
55.54017205837429 4.585125797681177 29.529813066196073 21.42523319449703
43.43452320563914 3.8861271329630864 22.41186030463488 17.136535768041163
32.694794147307256 3.284203814805136 16.181400703831585 13.229189628670524
23.460561236086225 2.759288972147552 10.986558470248843 9.71471379368982
15.743086108996359 2.2850502578754783 6.819678949382896 6.638356901737989
9.633639130448884 1.8422659451563097 3.7113925734205004 4.079980611872068
5.202600174683557 1.425614280374214 1.6465629745210475 2.130422919788296
2.4335667554003737 1.0281581698869506 0.5565468934747827 0.8488616920386387
0.9698305536019324 0.6666905373730301 0.08914039802641106 0.21399961820249086
0.4314446438510226 0.42100887902093265 0.000892378372944145 0.009543386457145865
0.258643946118661 0.2599923393422187 -0.0002661024356706097 -0.0010822907878870517
0.16107435037445975 0.16106753361079268 3.960330447626668e-07 6.4207306222634735e-06
0.0752169566408474 0.0752169566408474 0.0 0.0
0.028931528346340742 0.028931528346340742 0.0 0.0
0.014170371326359276 0.014170371326359276 0.0 0.0
0.053722408356852165 0.053722408356852165 0.0 0.0
0.13924914582292283 0.13924664349825114 1.22441077168008e-07 2.379883594554421e-06
0.26271975284853677 0.2645729040743589 -0.0003698363300187253 -0.001483314895803574
0.5246686456595645 0.4832220987996062 0.009137665127135215 0.032308881732823286
1.316261559732239 0.7879103031867442 0.1798860429032293 0.3484652136422655
3.1914941378272768 1.1742619438491235 0.8188943770693541 1.1983378169087997
6.583370349671606 1.5987025511231372 2.2510123249339653 2.733655473614504
11.840224677356932 2.0788822330220507 4.773099362781748 4.9882430815531364
19.055691478587836 2.6004888009574696 8.52916593615586 7.9260367414745
28.159936820111525 3.1624428253623424 13.527968294729368 11.469525700019831
39.13053363120167 3.784634373648098 19.806551240975683 15.539348016577895
51.79637497924807 4.482192394817595 27.23150015714309 20.082682427287402
66.37749365900594 5.268916881912609 36.043955679028414 25.064621098064883
82.50167177851208 6.1292641378273185 45.91211146406861 30.460296176616158
99.8316534857033 6.9014590137195135 56.77155995246504 36.15863451951877
117.06830556324316 7.138303440947907 68.11678109821784 41.81322102407742
131.0026784339878 6.347275589851329 78.03563900185836 46.61976384227808
137.51114415991097 5.0269479244320685 83.3324414519572 49.151754783521724
132.62282865921878 5.300087183772848 79.85315827745585 47.469583197990076
142.21715722280692 24.46863092222968 73.3818322032202 44.36669409735704
132.62282865919636 5.3000871837729715 79.85315827744053 47.469583197982914
137.51114415987044 5.026947924436484 83.33244145192671 49.15175478350723
131.0026784339176 6.347275589853121 78.03563900180944 46.61976384225502
117.06830556316474 7.13830344095052 68.11678109816354 41.81322102405066
99.83165348562538 6.901459013729126 56.771559952406975 36.15863451948924
82.50167177841784 6.1292641378200035 45.912111464011794 30.46029617658603
66.3774936589217 5.268916881910159 36.043955678975955 25.06462109803558
51.79637497916588 4.482192394816165 27.23150015709229 20.082682427257396
39.130533631127356 3.7846343736445953 19.806551240932354 15.539348016550413
28.15993682004897 3.1624428253603094 13.52796829469344 11.469525699995232
19.055691478538865 2.600488800954168 8.529165936129742 7.926036741454947
11.840224677323427 2.078882233020521 4.7730993627644445 4.988243081538463
6.583370349648699 1.5987025511201 2.251012324924207 2.7336554736043945
3.1914941378144297 1.1742619438465707 0.8188943770645914 1.1983378169032677
1.3162615597270773 0.7879103031843413 0.1798860429021029 0.3484652136406329
0.5246686456579535 0.4832220987985114 0.009137665126965342 0.03230888173247644
0.26271975284815574 0.2645729040737794 -0.00036983633000351075 -0.0014833148956198854
0.1392491458226796 0.13924664349801108 1.2244107697319608e-07 2.3798835915387224e-06
0.05372240835689518 0.05372240835689518 0.0 0.0
0.014170371326255394 0.014170371326255394 0.0 0.0
0.006842314882097039 0.006842314882097039 0.0 0.0
0.03712346428785087 0.03712346428785087 0.0 0.0
0.12143859255407799 0.12143859255407799 0.0 0.0
0.2779289255922816 0.28109131121769104 -0.0007092620130613487 -0.0024531236123480045
0.659335783023696 0.5560111422301631 0.026208323610331343 0.07711631718320175
1.7507018015831546 0.9100932299840936 0.3115314016516191 0.5290771699474427
4.0261121345234105 1.3004004527194937 1.1354938246068491 1.5902178571970653
8.052396611330884 1.7713603278983112 2.9206235545121015 3.3604127289204753
14.126842158326479 2.3177387215200063 5.900569246459045 5.908534190347425
22.457025547317862 2.9274631724780664 10.310055179466051 9.219507195373751
33.02071594742049 3.5923300087795917 16.20151898354791 13.226866955092964
45.71025355327984 4.31980650514059 23.537005686957748 17.853441361181517
60.6078273741516 5.129988079188289 32.44597794697057 23.03186134799271
77.32776812079656 6.010826762310324 42.59668924211524 28.72025211637099
95.93667346315561 6.888096717522893 54.217793107055016 34.830783638577685
115.72367799089648 7.616528155662844 66.8958398047453 41.21131003048834
135.28825439985803 7.838914239787403 79.92408952544203 47.525250634628605
151.50191372523705 6.887027139807029 91.60559595789678 53.00929062753322
159.80524181501116 5.0749413897454785 98.56831998525077 56.16198044001496
156.14762458935016 5.513163755388268 95.7705016413245 54.863959192637346
168.08839606791275 27.23182341820453 89.04242749007368 51.81414515963453
156.1476245893292 5.513163755393951 95.7705016413061 54.86395919262909
159.80524181495096 5.07494138973914 98.56831998521389 56.16198043999798
151.50191372516514 6.887027139817168 91.6055959578408 53.009290627507156
135.28825439976805 7.838914239789301 79.92408952537957 47.52525063459916
115.72367799078228 7.61652815564956 66.89583980467765 41.21131003045507
95.93667346305162 6.888096717522646 54.21779310698651 34.830783638542464
77.32776812069962 6.010826762307632 42.59668924205409 28.720252116337928
60.607827374054615 5.129988079185794 32.445977946910325 23.03186134795851
45.7102535531958 4.31980650513613 23.537005686908294 17.853441361151386
33.02071594734973 3.5923300087768704 16.20151898350695 13.226866955065923
22.457025547261996 2.927463172474691 10.310055179435599 9.2195071953517
14.126842158283893 2.3177387215130767 5.900569246439412 5.908534190331405
8.052396611304072 1.7713603278954402 2.920623554499772 3.360412728908856
4.026112134507965 1.3004004527171087 1.1354938246009467 1.5902178571899124
1.7507018015762326 0.9100932299812111 0.3115314016499262 0.5290771699450949
0.6593357830214649 0.5560111422286292 0.026208323610068883 0.0771163171827669
0.27792892559168875 0.28109131121696457 -0.0007092620130407011 -0.002453123612235434
0.1214385925540108 0.1214385925540108 0.0 0.0
0.03712346428795574 0.03712346428795574 0.0 0.0
0.00684231488210175 0.00684231488210175 0.0 0.0
0.003248313965078556 0.003248313965078556 0.0 0.0
0.0257556780830056 0.0257556780830056 0.0 0.0
0.11205577591960819 0.11205577591960819 0.0 0.0
0.31556990883449126 0.316723914982286 -0.0008192038425819625 -0.00033480230521309344
0.8607638891320645 0.6517992476158821 0.06482580666231008 0.1441388348538722
2.2419187161694527 1.0185451765815787 0.4676660816191309 0.7557074579687422
4.963059041062938 1.42689607093684 1.5303427426925071 2.0058202274335906
9.575822893757977 1.940219732041552 3.6319575780842177 4.003645583632212
16.49316299999906 2.5585541702572847 7.0993665503988765 6.8352422793429
25.93207813672388 3.267257850738985 12.151434088045104 10.513386197939797
37.95938297123763 4.044652684052327 18.930065580591357 14.984664706593941
52.56827953619548 4.8974164324349925 27.50352148169847 20.167341622062004
69.42533810939504 5.829091556406528 37.604878572134545 25.991367980853997
88.64958199175612 6.7895530812908245 49.48619501196466 32.37383389850057
109.69369971885985 7.672995022362006 62.82672465741669 39.193980039081175
131.6975377147562 8.272587948523244 77.20395581610195 46.22099395013088
153.21496454740685 8.357849603957758 91.79647703263136 53.060637910817746
171.79736961485733 7.628385468811991 105.08004467520415 59.0889394708411
182.5144220872991 5.3335535875735065 114.08666719564062 63.09420130408486
181.41968586803117 5.4571513028623535 113.26881617063351 62.693718394535324
196.48844758491944 28.970728843437257 107.38979913485205 60.12791960663013
181.41968586798433 5.457151302848945 113.2688161706103 62.69371839452507
182.514422087223 5.333553587565234 114.08666719559412 63.09420130406369
171.79736961475786 7.628385468808131 105.08004467513844 59.088939470811304
153.21496454728924 8.35784960394784 91.7964770325575 53.06063791078383
131.69753771464715 8.272587948530193 77.20395581602378 46.22099395009325
109.69369971874798 7.6729950223663534 62.82672465733924 39.19398003904239
88.64958199164485 6.7895530812887115 49.48619501189293 32.373833898463175
69.42533810929193 5.829091556409653 37.60487857206616 25.991367980816097
52.56827953609776 4.897416432427221 27.503521481641908 20.167341622028626
37.95938297115403 4.044652684045104 18.930065580544664 14.98466470656427
25.932078136661474 3.2672578507353744 12.151434088010497 10.513386197915608
16.493162999951146 2.5585541702516545 7.099366550375169 6.835242279324318
9.575822893727322 1.9402197320390528 3.631957578069415 4.003645583618851
4.963059041046141 1.4268960709348635 1.5303427426854348 2.005820227425841
2.241918716160656 1.0185451765781355 0.4676660816167721 0.755707457965749
0.8607638891287314 0.6517992476143442 0.06482580666164653 0.14413883485274048
0.31556990883378044 0.3167239149814713 -0.0008192038425686055 -0.00033480230512206903
0.11205577591946538 0.11205577591946538 0.0 0.0
0.025755678083011165 0.025755678083011165 0.0 0.0
0.0032483139650883266 0.0032483139650883266 0.0 0.0
0.0010351622993960644 0.0010351622993960644 0.0 0.0
0.018954834809631997 0.018954834809631997 0.0 0.0
0.11822929261815149 0.11822929261815149 0.0 0.0
0.3954751355687227 0.3826760712436367 0.002148152663492318 0.01065091166159381
1.1478651884621078 0.8034829262788523 0.11794110409959421 0.22644115808366172
2.8608745610830217 1.2769125087006792 0.6286439628045947 0.9553180895777458
6.053168589284029 1.8483370018983476 1.8625131097669478 2.3423184776187327
11.329616789120546 2.6163502450396656 4.211907749081488 4.501358794999397
19.180870868136683 3.621669326827594 8.017816570702626 7.541384970606474
29.973663178827948 4.886176072829931 13.593893420322525 11.493593685675473
43.815968864860764 6.410654811253768 21.09215188431655 16.313162169290482
60.52443572605494 8.18162229752113 30.422817033136948 21.919996395396847
80.0778989610976 10.153635112753703 41.699166134926806 28.225097713417085
102.15408165448038 12.228788866995869 54.796010534115055 35.12928225336951
126.04635485562211 14.109162792283747 69.46897741443782 42.468214648900485
150.4657707081863 15.331489843911987 85.17832990807213 49.95595095620227
173.46032113782684 15.436496412425985 100.85150719447206 57.17231753092876
192.8850009741625 14.437251309205202 114.96699565173327 63.480754013224
206.26845539102388 12.931377009489905 125.32292690066873 68.01415148086535
202.02889030816758 5.603236373937669 127.42229638377282 69.00335755045698
277.5984003126225 85.3431654889041 124.62800056874612 67.62723425497235
202.0288903081356 5.603236373945628 127.42229638374462 69.00335755044527
206.2684553909611 12.931377009504924 125.32292690061401 68.01415148084216
192.88500097406592 14.437251309219068 114.96699565165727 63.48075401318971
173.4603211377062 15.43649641242822 100.851507194388 57.17231753089002
150.46577070805262 15.33148984390089 85.17832990798794 49.95595095616369
126.0463548554812 14.109162792266378 69.46897741435501 42.46821464885983
102.15408165435878 12.228788866994757 54.796010534035325 35.12928225332873
80.0778989609762 10.15363511274517 41.699166134853535 28.22509771337754
60.5244357259481 8.181622297514421 30.42281703307343 21.919996395360243
43.815968864765956 6.410654811242343 21.092151884265085 16.313162169258543
29.973663178757384 4.886176072821957 13.593893420285191 11.493593685650229
19.18087086808068 3.621669326818288 8.017816570676072 7.541384970586341
11.329616789085504 2.616350245036015 4.211907749064696 4.501358794984796
6.05316858926424 1.8483370018948864 1.8625131097589653 2.342318477610391
2.860874561071145 1.2769125086956765 0.6286439628016689 0.9553180895737994
1.1478651884576787 0.8034829262772184 0.11794110409852301 0.22644115808193732
0.3954751355678361 0.3826760712428948 0.002148152663460327 0.01065091166148055
0.11822929261795717 0.11822929261795717 0.0 0.0
0.018954834809579237 0.018954834809579237 0.0 0.0
0.001035162299386678 0.001035162299386678 0.0 0.0
CELL_DATA 800
SCALARS Stress float 6
LOOKUP_TABLE default
169.41595395457892 -522.0277874377343 -181.86534674164045 -110.32389418923472 0.0 0.0
403.4862357142973 -78.87907321887045 115.77124391982342 54.899395081023464 0.0 0.0
416.6215519893002 8.411461347086878 127.38461828346938 -2.774525616498079 0.0 0.0
475.5991891389939 -15.419895594702533 149.28952870038034 -15.428083975009002 0.0 0.0
553.2478387686301 -21.88117558554101 208.49354217942786 -11.68022260135177 0.0 0.0
628.1258248220007 -17.942547076015323 280.3914290929592 -10.3452222845293 0.0 0.0
700.57482379905 -12.079183824890514 335.32557854395236 -11.130225908211738 0.0 0.0
773.9873512241695 1.9160740876412632 383.6333310879046 -12.984494988639502 0.0 0.0
850.4438933170056 24.465862457303885 434.37014965537384 -14.799001528272253 0.0 0.0
929.4722930622439 54.38505471520192 489.40950209999676 -15.978763486371003 0.0 0.0
1009.1332206057293 89.16846035639401 547.0293225423567 -16.447996290515434 0.0 0.0
1087.9994239902098 127.45178609535057 605.9005952574705 -16.40868032485667 0.0 0.0
1166.2040756388951 168.21478177153517 665.5918012712846 -16.218654708911153 0.0 0.0
1244.5917201833568 212.0323521195543 726.8374847817677 -15.900114615878952 0.0 0.0
1323.687360861944 259.4575856172482 790.2021022967723 -15.310902066925863 0.0 0.0
1402.7183469809256 309.87522010783096 855.0085378907496 -14.254939610069574 0.0 0.0
1479.2600926654188 361.3457520900915 919.08517306005 -12.614353734953287 0.0 0.0
1550.8806747929575 412.0797917834878 980.3085100992694 -10.710807189053458 0.0 0.0
1617.4304169276081 462.8091685689113 1038.909372354584 -10.24116523006018 0.0 0.0
1716.1744186026522 552.8643934819993 1132.8005601324057 -16.680484709892703 0.0 0.0
1716.1744186022806 552.864393481635 1132.8005601320817 16.68048470987422 0.0 0.0
1617.4304169259374 462.8091685672767 1038.9093723533183 10.241165230060579 0.0 0.0
1550.880674792017 412.0797917826254 980.308510098487 10.710807189040013 0.0 0.0
1479.260092664682 361.3457520894613 919.0851730595095 12.614353734938042 0.0 0.0
1402.7183469809545 309.8752201080028 855.0085378907202 14.254939610107137 0.0 0.0
1323.687360862672 259.4575856181284 790.2021022972824 15.310902066891936 0.0 0.0
1244.591720183546 212.03235211992387 726.8374847818643 15.900114615998433 0.0 0.0
1166.2040756388758 168.21478177172412 665.5918012711887 16.218654709083875 0.0 0.0
1087.9994239896018 127.45178609497674 605.9005952569389 16.408680324920198 0.0 0.0
1009.1332206051777 89.16846035609626 547.0293225419724 16.447996290536413 0.0 0.0
929.4722930621283 54.385054715331734 489.409502099939 15.978763486136593 0.0 0.0
850.4438933170833 24.465862457655106 434.37014965538856 14.79900152834536 0.0 0.0
773.987351224156 1.9160740879134437 383.63333108785906 12.984494988467393 0.0 0.0
700.574823799319 -12.07918382431491 335.32557854409225 11.130225908189647 0.0 0.0
628.1258248219577 -17.942547075754582 280.39142909286085 10.345222284572301 0.0 0.0
553.2478387686874 -21.881175585120463 208.4935421793902 11.68022260151439 0.0 0.0
475.59918913880824 -15.419895594667842 149.28952870030054 15.428083974875829 0.0 0.0
416.6215519892217 8.411461347209478 127.38461828349115 2.774525616519038 0.0 0.0
403.4862357143425 -78.87907321870787 115.77124391984142 -54.89939508103556 0.0 0.0
169.41595395515836 -522.0277874372307 -181.86534674110933 110.32389418879842 0.0 0.0
68.69955025638879 -548.9770044968498 -243.24726712405024 -159.99587387935463 0.0 0.0
276.25292585634196 -71.11543308135184 61.792636661147235 8.887466393428683 0.0 0.0
365.40427791426237 33.23412089507921 119.59890260531667 -9.67474667234739 0.0 0.0
440.4105228637357 -13.788926383481291 132.57635800784954 -35.78255799964703 0.0 0.0
525.5997644345459 -22.01053924370687 185.71162738249978 -33.467199499009006 0.0 0.0
604.7764974029415 -18.67188505435502 260.7284270525049 -30.632310875692234 0.0 0.0
680.856957343172 -12.278700766045482 322.3161630133683 -31.80922786182144 0.0 0.0
755.2343231996006 1.5655696567009727 373.0791213549825 -34.61284721521124 0.0 0.0
830.2765784137493 22.717626899591068 422.9778798570856 -37.33199859629862 0.0 0.0
906.042955986991 49.878130988256004 475.1973631069376 -38.73336018529557 0.0 0.0
981.0797495648028 80.81206444378954 528.6629440132713 -38.81635466801417 0.0 0.0
1054.9353067750426 114.33492411697307 582.6785660854351 -38.209495050270945 0.0 0.0
1127.8923003850477 150.7118457531834 637.5756101954523 -37.359601288680416 0.0 0.0
1200.7817220548172 189.7721342219539 693.7211388824009 -36.317362868050424 0.0 0.0
1273.7988405950914 231.60757655764715 751.2756470624595 -34.829534302170934 0.0 0.0
1346.4681246153418 275.99028466863246 809.8985595904626 -32.5047850268617 0.0 0.0
1417.8101050679206 322.3599321095446 868.8162826459948 -29.263597124403226 0.0 0.0
1487.3429547496937 371.0162491716695 927.9107734317341 -26.017626165557896 0.0 0.0
1561.960785581966 430.0964346919294 994.6132306939436 -24.48950608364995 0.0 0.0
1617.6646121812098 476.96134659567826 1045.779428199131 -24.683166469217422 0.0 0.0
1617.6646121822055 476.9613465967019 1045.7794281998213 24.68316646933715 0.0 0.0
1561.9607855841105 430.09643469412634 994.6132306956018 24.489506083598805 0.0 0.0
1487.342954750063 371.0162491721135 927.9107734319982 26.017626165509775 0.0 0.0
1417.810105068133 322.3599321098558 868.8162826459969 29.263597124403738 0.0 0.0
1346.4681246153837 275.9902846688205 809.8985595903771 32.50478502708594 0.0 0.0
1273.798840594943 231.60757655767014 751.2756470622427 34.82953430232959 0.0 0.0
1200.78172205491 189.7721342222411 693.7211388823933 36.31736286811759 0.0 0.0
1127.8923003843056 150.71184575262333 637.5756101948596 37.35960128866977 0.0 0.0
1054.9353067742045 114.33492411633995 582.6785660847896 38.20949505016761 0.0 0.0
981.079749564756 80.81206444398572 528.662944013194 38.8163546679917 0.0 0.0
906.0429559866521 49.87813098814948 475.19736310672414 38.73336018514547 0.0 0.0
830.2765784133904 22.717626899519445 422.97787985688547 37.331998596341684 0.0 0.0
755.2343231995964 1.5655696569567112 373.0791213549696 34.612847215133876 0.0 0.0
680.8569573425536 -12.27870076636465 322.3161630129425 31.809227861896744 0.0 0.0
604.7764974027235 -18.671885054273574 260.728427052274 30.632310875580657 0.0 0.0
525.5997644347904 -22.01053924306685 185.71162738259687 33.4671994990225 0.0 0.0
440.41052286378033 -13.788926383005858 132.57635800797462 35.7825579997575 0.0 0.0
365.4042779140936 33.234120894681226 119.59890260515141 9.674746672516804 0.0 0.0
276.2529258563995 -71.11543308112074 61.79263666123677 -8.88746639360771 0.0 0.0
68.6995502567521 -548.9770044965488 -243.24726712372512 159.9958738789842 0.0 0.0
14.620640068774179 -558.3576243758956 -268.81994108524094 -175.33822020540785 0.0 0.0
155.09497812230813 -59.626568089793025 28.64052300975454 -46.107855296987445 0.0 0.0
296.87417272627624 37.15695139543782 100.20933723651419 -34.04908944956922 0.0 0.0
395.1299755656346 -4.668066410152466 118.36490033072543 -56.10884861798692 0.0 0.0
489.15614041249944 -20.790588316142934 162.2438905905137 -57.36938516281106 0.0 0.0
577.8320935346579 -20.653543727512815 236.40338772913037 -52.55934108815589 0.0 0.0
657.074847083132 -11.637773127118514 306.2961387391255 -52.84941731157348 0.0 0.0
732.0631191404093 1.3072967063409848 359.87215114006506 -56.10457865448659 0.0 0.0
805.9425906740216 20.996680322807734 409.392499174778 -59.31194875804825 0.0 0.0
878.3672165146879 45.08874165099196 458.6715503421612 -60.6826664534697 0.0 0.0
948.9866092176431 72.05095143570519 508.0363187314276 -60.362936156040384 0.0 0.0
1017.831898628848 101.40714347110585 557.5075929707446 -59.21548117335284 0.0 0.0
1085.7653180661584 132.95151728504408 607.5067101834952 -57.8413499918119 0.0 0.0
1152.9584457369633 166.96948912096042 658.3158311865753 -56.1177005668517 0.0 0.0
1219.7107964613267 203.00490650816374 709.8681443957438 -53.78425883941427 0.0 0.0
1286.1664181173542 241.29510766249825 762.3494610624435 -50.46560761939333 0.0 0.0
1352.699446603286 282.77436501534396 816.3991320832337 -46.17290357102073 0.0 0.0
1421.2449499142756 330.30304890755747 874.399359615729 -41.76538098454361 0.0 0.0
1485.9956455806682 379.14140108332714 931.1311946834597 -37.28644678823335 0.0 0.0
1532.2644293585392 415.640043949766 972.4379029479312 -31.426240649671925 0.0 0.0
1532.2644293564178 415.6400439476811 972.4379029464147 31.426240649854105 0.0 0.0
1485.9956455783918 379.14140108105454 931.1311946817464 37.286446788093386 0.0 0.0
1421.2449499137797 330.30304890713836 874.399359615346 41.76538098459537 0.0 0.0
1352.6994466029741 282.77436501514 816.3991320830829 46.17290357109604 0.0 0.0
1286.1664181162896 241.29510766154357 762.3494610616834 50.46560761932205 0.0 0.0
1219.7107964612467 203.00490650822866 709.8681443956822 53.78425883948721 0.0 0.0
1152.9584457361775 166.96948912034048 658.3158311860443 56.117700566805794 0.0 0.0
1085.7653180662746 132.95151728532005 607.5067101835659 57.84134999177357 0.0 0.0
1017.8318986286439 101.40714347112967 557.5075929706297 59.2154811733425 0.0 0.0
948.9866092176384 72.05095143592769 508.0363187313983 60.36293615601713 0.0 0.0
878.3672165144013 45.08874165091791 458.6715503419516 60.68266645337859 0.0 0.0
805.9425906732006 20.99668032228206 409.3924991742561 59.311948758179824 0.0 0.0
732.063119139741 1.3072967059631964 359.87215113966187 56.10457865451265 0.0 0.0
657.0748470830077 -11.637773126887126 306.2961387389999 52.84941731166744 0.0 0.0
577.8320935345315 -20.653543727328397 236.40338772894407 52.55934108813267 0.0 0.0
489.1561404124194 -20.790588315912398 162.2438905904397 57.369385162675016 0.0 0.0
395.12997556555325 -4.668066409654595 118.36490033084664 56.10884861798505 0.0 0.0
296.87417272654284 37.15695139577168 100.20933723669432 34.04908944944111 0.0 0.0
155.0949781225326 -59.62656808912342 28.640523010022747 46.10785529681664 0.0 0.0
14.620640068848672 -558.3576243757149 -268.819941085041 175.33822020527447 0.0 0.0
-6.074174265945317 -547.5369424537214 -266.7041282352241 -177.36725789090465 0.0 0.0
89.00746436830119 -55.657890344941556 10.004872207007889 -92.68527025955238 0.0 0.0
232.03850506384873 33.618192646478555 79.69700931309818 -66.99837352981152 0.0 0.0
341.4476163391146 4.6053183641386255 103.9493353661004 -78.23547034702383 0.0 0.0
442.9986400502388 -18.783629588122345 138.50854256827665 -83.7476452225537 0.0 0.0
541.1978386843882 -20.840681637911928 208.31179596924713 -76.30715176993581 0.0 0.0
626.6455874834742 -12.183744504399051 284.2524446938128 -74.57641108658014 0.0 0.0
704.2790487021955 1.6351591485398629 343.8136317977127 -77.5454631828564 0.0 0.0
776.6820397076407 19.09992265448068 393.00351774791386 -80.70707421738183 0.0 0.0
845.9893636037216 40.08244037732834 439.5917066849935 -81.8382861623206 0.0 0.0
912.3868949984801 63.17869639265318 485.05419839122413 -81.09582804265605 0.0 0.0
976.5463139648389 88.2308755477336 530.0899280178534 -79.4973610430169 0.0 0.0
1039.1221012183732 115.13511288394164 575.128099454687 -77.58611144231193 0.0 0.0
1100.8844845670253 143.93251100875375 620.6495703923545 -75.27107997105388 0.0 0.0
1161.4900439021476 173.99537668355455 666.1766049317881 -72.23203087256611 0.0 0.0
1221.4913781613297 206.18686525003613 712.3964347955807 -68.19131246366878 0.0 0.0
1283.1871300239354 242.63089562225267 761.5016876686591 -63.21842275340288 0.0 0.0
1346.3185245462932 284.17983458728145 813.8194057546257 -57.426296475250595 0.0 0.0
1405.1646903227754 326.0280800462165 864.1248092614509 -49.751164045071604 0.0 0.0
1448.1575977776467 357.57222855081204 901.3269616572028 -38.52519645218964 0.0 0.0
1448.1575977776167 357.57222855081943 901.3269616572757 38.52519645229749 0.0 0.0
1405.1646903217247 326.0280800452001 864.1248092607003 49.751164045129954 0.0 0.0
1346.3185245468342 284.17983458790786 813.8194057548587 57.426296475319056 0.0 0.0
1283.1871300246487 242.63089562306908 761.5016876691112 63.21842275343871 0.0 0.0
1221.49137816145 206.1868652502963 712.3964347956477 68.19131246372645 0.0 0.0
1161.4900439016528 173.99537668319192 666.1766049313953 72.23203087252345 0.0 0.0
1100.8844845650897 143.93251100692504 620.6495703910098 75.27107997094063 0.0 0.0
1039.1221012176961 115.13511288342704 575.1280994541369 77.58611144226187 0.0 0.0
976.5463139648683 88.23087554800173 530.0899280178907 79.49736104308315 0.0 0.0
912.3868949977964 63.17869639220001 485.0541983908133 81.09582804269508 0.0 0.0
845.9893636032946 40.082440377039006 439.5917066846992 81.83828616202926 0.0 0.0
776.6820397073797 19.099922654497533 393.003517747712 80.70707421743609 0.0 0.0
704.2790487022216 1.6351591489037816 343.81363179766737 77.54546318284883 0.0 0.0
626.6455874833539 -12.183744504161446 284.25244469366004 74.57641108665122 0.0 0.0
541.1978386842801 -20.84068163763704 208.3117959690944 76.30715176989132 0.0 0.0
442.99864005041337 -18.7836295874433 138.5085425684432 83.74764522248628 0.0 0.0
341.44761633909974 4.605318364583176 103.94933536623273 78.23547034704512 0.0 0.0
232.0385050636603 33.618192645860994 79.69700931285638 66.9983735298158 0.0 0.0
89.00746436822328 -55.65789034485296 10.004872207011097 92.68527025934742 0.0 0.0
-6.074174265807599 -547.5369424535187 -266.70412823499106 177.3672578906856 0.0 0.0
-11.016130746666207 -524.8141943333553 -249.24993658088047 -174.66961588526328 0.0 0.0
52.56705344103274 -52.927767602308265 -0.10821424838265603 -128.97279774751405 0.0 0.0
176.56157052474686 27.026540694393063 61.07643336574196 -100.2398606009429 0.0 0.0
284.2769041422758 10.74465142690918 88.5262006118057 -101.77477205954551 0.0 0.0
385.84313069968425 -14.288176082839582 116.00482360913739 -110.71739717410067 0.0 0.0
493.6436880642343 -20.549486045957217 176.8757515264732 -103.19172653401449 0.0 0.0
588.9569425267682 -13.020860419844524 256.0384032597875 -97.82238319635087 0.0 0.0
670.1769328011062 1.4919812372432588 322.8611873739451 -98.98356291550907 0.0 0.0
741.9080665164718 17.284737228380443 373.39312438797634 -101.54070345443532 0.0 0.0
808.2587424011173 34.89610605168495 417.5769328049615 -102.25429607322926 0.0 0.0
870.7449903245562 54.20252464256157 459.4126920686453 -101.0302888984816 0.0 0.0
930.0813372318977 74.93630136449144 499.97248663530877 -98.99453361300576 0.0 0.0
987.4808037395812 97.08727044491819 540.1077974707682 -96.68778004609688 0.0 0.0
1043.4663203548798 120.73328680323678 580.1996478741676 -93.77486975354515 0.0 0.0
1098.2152275514427 145.212137241678 620.0426784540907 -90.11248727439242 0.0 0.0
1152.2834389701247 171.12528816093612 660.1926123320918 -85.65420342657654 0.0 0.0
1207.086490420737 200.6436856707545 702.4108781941339 -80.18224891621615 0.0 0.0
1263.9242356152026 235.0798732868058 748.0330977032596 -73.1644349484969 0.0 0.0
1318.668688424402 271.0250608396256 793.3349612021393 -62.62964838072351 0.0 0.0
1361.93010564631 300.30135874176386 829.5194167577148 -46.592022530486034 0.0 0.0
1361.9301056462125 300.30135874172026 829.5194167575925 46.5920225306852 0.0 0.0
1318.668688424099 271.0250608394137 793.3349612018196 62.62964838091869 0.0 0.0
1263.9242356158654 235.07987328758622 748.0330977037625 73.16443494863928 0.0 0.0
1207.0864904208863 200.6436856709742 702.4108781941318 80.18224891620268 0.0 0.0
1152.283438970254 171.12528816124677 660.1926123320677 85.65420342670271 0.0 0.0
1098.2152275521785 145.2121372425609 620.0426784546376 90.11248727438834 0.0 0.0
1043.4663203559567 120.73328680454335 580.1996478749082 93.7748697536893 0.0 0.0
987.4808037390904 97.08727044463754 540.1077974703996 96.68778004621853 0.0 0.0
930.0813372311911 74.93630136403462 499.97248663477035 98.99453361311689 0.0 0.0
870.744990323078 54.20252464131738 459.4126920675534 101.03028889857559 0.0 0.0
808.2587424000609 34.896106050835954 417.57693280418175 102.25429607317389 0.0 0.0
741.9080665156065 17.28473722773279 373.3931243874432 101.54070345432858 0.0 0.0
670.176932799546 1.4919812357790079 322.8611873729113 98.98356291521884 0.0 0.0
588.9569425261906 -13.020860420097861 256.03840325933464 97.8223831963477 0.0 0.0
493.64368806402916 -20.549486045730056 176.87575152630504 103.19172653406426 0.0 0.0
385.8431306995813 -14.288176082388922 116.00482360920597 110.71739717397423 0.0 0.0
284.2769041421664 10.744651426736908 88.52620061172655 101.77477205926328 0.0 0.0
176.56157052479648 27.026540694658337 61.07643336583644 100.23986060069096 0.0 0.0
52.567053441160844 -52.927767601838546 -0.10821424820331238 128.9727977472237 0.0 0.0
-11.016130746530393 -524.8141943331335 -249.24993658063795 174.6696158850993 0.0 0.0
-8.83929757251299 -494.0763247390756 -222.80785298812464 -170.7574123181252 0.0 0.0
31.2482050852701 -49.77853664885387 -5.559099469075135 -156.07236477489687 0.0 0.0
129.59067660530752 19.83554187093015 44.82786554287129 -129.46624529396578 0.0 0.0
226.72169751752978 13.155356186322116 71.959139652572 -125.52094582088876 0.0 0.0
320.2169750066101 -7.519393004813141 95.38770461926565 -135.70671401976443 0.0 0.0
429.87631767490217 -19.580165554879596 142.86317559206145 -133.1482240339846 0.0 0.0
537.5530842984397 -12.852704434680941 220.3737603178069 -123.55408187127121 0.0 0.0
626.1208751536241 0.1177446597241385 293.7640453593835 -121.14934602649019 0.0 0.0
700.0235201437358 15.13610221447334 348.98635855331673 -122.07458503387411 0.0 0.0
764.0695206679698 29.695289952244952 391.95507178703576 -121.93638177811049 0.0 0.0
822.5921863720179 45.05735510402981 430.2727531712727 -120.1870605581256 0.0 0.0
877.3600742157778 61.6062916323492 466.62985071399225 -117.73406427484994 0.0 0.0
929.3410470017557 79.03940365457902 501.7925789580051 -115.03274729435996 0.0 0.0
979.6616052179334 97.3376727284951 536.4250037088443 -111.76349151842633 0.0 0.0
1029.0249557488855 116.5703975555155 570.9827149725768 -107.5758973988269 0.0 0.0
1076.609193536888 136.5209107173778 604.968907558732 -102.58437789258252 0.0 0.0
1123.8133706631904 157.8335293039814 639.3431777507203 -96.88839028514408 0.0 0.0
1173.1641002971535 183.52020367398455 676.8583580266713 -89.20672852357782 0.0 0.0
1224.335246215974 213.6366104834982 717.4318339676375 -76.49531810133124 0.0 0.0
1270.5985649150236 242.29276969834828 754.7560038589467 -56.293634072483044 0.0 0.0
1270.598564916054 242.29276969942634 754.7560038598281 56.293634072652345 0.0 0.0
1224.335246216633 213.6366104842699 717.4318339682765 76.49531810149591 0.0 0.0
1173.1641002950314 183.520203671895 676.8583580250893 89.20672852358871 0.0 0.0
1123.8133706638769 157.8335293047877 639.3431777511515 96.88839028519646 0.0 0.0
1076.6091935375352 136.5209107182618 604.9689075592244 102.58437789281712 0.0 0.0
1029.0249557472357 116.57039755394925 570.982714971346 107.57589739875019 0.0 0.0
979.6616052173443 97.33767272808413 536.4250037084357 111.76349151850195 0.0 0.0
929.3410470020889 79.0394036551121 501.7925789581906 115.03274729440092 0.0 0.0
877.3600742157189 61.60629163253273 466.6298507138981 117.73406427495613 0.0 0.0
822.5921863720407 45.0573551043598 430.2727531713194 120.18706055820631 0.0 0.0
764.0695206681912 29.69528995268847 391.95507178712694 121.93638177804262 0.0 0.0
700.023520143902 15.136102215024763 348.9863585533823 122.07458503396883 0.0 0.0
626.1208751537486 0.11774466029977759 293.76404535941293 121.14934602660891 0.0 0.0
537.5530842977397 -12.852704435065412 220.37376031730247 123.55408187129876 0.0 0.0
429.8763176742981 -19.580165555250197 142.86317559165525 133.14822403382664 0.0 0.0
320.2169750060084 -7.519393005447678 95.38770461889203 135.70671401957475 0.0 0.0
226.72169751731147 13.155356185770753 71.95913965234251 125.52094582078057 0.0 0.0
129.59067660537318 19.835541871104695 44.82786554294335 129.46624529376936 0.0 0.0
31.248205085265823 -49.778536648636106 -5.559099469011086 156.07236477488405 0.0 0.0
-8.83929757243672 -494.0763247387639 -222.80785298785653 170.7574123180608 0.0 0.0
-3.3514066211338616 -456.9444266350614 -190.8501734115316 -167.12093857353744 0.0 0.0
16.92061598211093 -46.800710425157305 -8.963967969275146 -175.1640870019413 0.0 0.0
88.51097188052742 13.221115927802298 30.51962634249891 -152.92018479401426 0.0 0.0
169.45021647838905 14.102225311621016 55.06260895931583 -147.50553950031164 0.0 0.0
250.12684851117885 -1.202003315279242 75.41523765375044 -157.4066469741515 0.0 0.0
351.4001916535708 -15.69535813604947 109.54594230840416 -163.6771439309831 0.0 0.0
467.61246061890176 -13.01797095757344 176.7798365341768 -153.18334318622954 0.0 0.0
568.0560264596055 -1.0183674915858152 254.47922140168828 -145.0297188544056 0.0 0.0
646.6559544290399 11.995060543843149 315.9343094871423 -142.7730295480361 0.0 0.0
710.7163996049553 24.310321601606148 360.71462843382596 -141.1002445291722 0.0 0.0
765.58709964063 35.747109825043 396.24479611837666 -138.5896313179073 0.0 0.0
815.928673913636 48.33555836459119 428.7807739790112 -135.70504133434707 0.0 0.0
862.4841682309245 61.02281868076409 459.04359567754483 -132.67196965430287 0.0 0.0
906.727002186186 74.05058994925383 488.10610803753127 -129.17847047404499 0.0 0.0
950.1555090280002 87.79073998138088 516.9732203732545 -124.67915949398069 0.0 0.0
992.8860740663852 102.51293605030565 545.9762862203337 -119.13179867699273 0.0 0.0
1031.9530788908728 115.66397731219777 572.3258079380948 -113.0329200876297 0.0 0.0
1071.4523095279228 130.46434453215437 599.5128475662445 -105.44039313314326 0.0 0.0
1118.35722057995 152.76349589423472 633.9812777361196 -91.92643512892565 0.0 0.0
1170.3701217726245 181.9225190496573 674.3206011318307 -68.61834063154826 0.0 0.0
1170.3701217719222 181.92251904905186 674.320601131339 68.61834063182532 0.0 0.0
1118.3572205776777 152.7634958919304 633.9812777345783 91.92643512885064 0.0 0.0
1071.452309527394 130.46434453171082 599.5128475658798 105.44039313325982 0.0 0.0
1031.9530788915226 115.66397731301532 572.325807938552 113.03292008776509 0.0 0.0
992.8860740652608 102.51293604928964 545.9762862196374 119.13179867702905 0.0 0.0
950.1555090271953 87.79073998068154 516.9732203727631 124.67915949397876 0.0 0.0
906.7270021847263 74.05058994788561 488.106108036508 129.17847047400932 0.0 0.0
862.4841682304477 61.02281868041561 459.04359567715665 132.67196965428602 0.0 0.0
815.9286739147625 48.33555836600499 428.7807739797362 135.70504133441767 0.0 0.0
765.587099640603 35.74710982520463 396.24479611836097 138.5896313178517 0.0 0.0
710.7163996041747 24.310321600931402 360.7146284333169 141.10024452901482 0.0 0.0
646.6559544283807 11.99506054329882 315.9343094867114 142.7730295478339 0.0 0.0
568.0560264585797 -1.018367492484721 254.47922140094158 145.02971885424637 0.0 0.0
467.6124606187167 -13.01797095728472 176.77983653401714 153.1833431862456 0.0 0.0
351.40019165329545 -15.695358135988501 109.54594230827149 163.6771439308185 0.0 0.0
250.12684851066612 -1.202003316071731 75.41523765336257 157.40664697393288 0.0 0.0
169.45021647826246 14.102225311399874 55.06260895921251 147.50553950019457 0.0 0.0
88.51097188059626 13.221115927856205 30.519626342535737 152.9201847937495 0.0 0.0
16.92061598214473 -46.80071042486013 -8.963967969175906 175.16408700163234 0.0 0.0
-3.3514066211565705 -456.94442663489923 -190.8501734113395 167.12093857341551 0.0 0.0
2.006702346073922 -414.8240094526052 -157.6468348977445 -164.62421130335412 0.0 0.0
3.933472994285058 -44.68379730307515 -12.224780224588622 -186.44001754683478 0.0 0.0
51.01407211116667 7.944177280822454 17.68707174634919 -170.56277647525104 0.0 0.0
113.24382776485712 15.125783021272351 38.51381036970949 -165.80034586732214 0.0 0.0
177.96213659395366 2.9000236443152296 54.69147241013637 -176.33134684813666 0.0 0.0
257.52477056644346 -8.548647303607853 78.26383886224532 -188.92964932678578 0.0 0.0
369.7908311129933 -11.453907503586837 127.30987950184374 -186.55623529748758 0.0 0.0
485.6740355208068 -2.4226933747778476 200.80027326912503 -173.04088292584 0.0 0.0
575.0114842681285 8.38505722132957 268.69163428009296 -164.72146348024273 0.0 0.0
641.1624043397943 18.245822673851237 318.1980520447194 -160.09073130518277 0.0 0.0
694.352879488747 26.205721047312444 353.7481203989987 -156.50337944848593 0.0 0.0
740.0691897571813 34.946925030912716 383.1204674031739 -152.98616701230233 0.0 0.0
781.1430182469245 43.30964900229267 408.98160353246396 -149.54107976189133 0.0 0.0
819.0671347768098 51.060389999921384 432.4961529269547 -145.9740816648354 0.0 0.0
856.0544805489484 58.96297576986123 455.3354148535578 -141.5571966106528 0.0 0.0
893.604905191672 68.25384942592282 479.0291936712648 -135.51111502131346 0.0 0.0
928.385263530961 76.10569100604818 500.7260019219598 -128.51918876134155 0.0 0.0
955.8937875444767 77.99676664982212 515.6817871750527 -121.30475113332064 0.0 0.0
992.9064041073602 87.04426938864233 538.4628292746992 -109.12175136848231 0.0 0.0
1052.7802169986933 116.64642704295164 582.6929961269769 -85.01878144419148 0.0 0.0
1052.7802169998363 116.64642704419816 582.6929961278242 85.0187814445401 0.0 0.0
992.9064041092487 87.04426939086659 538.4628292761363 109.12175136891852 0.0 0.0
955.8937875439531 77.99676664939682 515.6817871747311 121.30475113350961 0.0 0.0
928.3852635309931 76.10569100630761 500.72600192188776 128.51918876154625 0.0 0.0
893.6049051901055 68.25384942435272 479.02919367000334 135.51111502125818 0.0 0.0
856.0544805479911 58.96297576905175 455.3354148528969 141.55719661069475 0.0 0.0
819.0671347765966 51.06038999990966 432.49615292682677 145.97408166504061 0.0 0.0
781.1430182481083 43.309649004050556 408.98160353335356 149.54107976230225 0.0 0.0
740.0691897561503 34.94692502995602 383.12046740244256 152.9861670122172 0.0 0.0
694.3528794873066 26.205721045976347 353.74812039798195 156.50337944847746 0.0 0.0
641.1624043404098 18.24582267492798 318.1980520450935 160.0907313052988 0.0 0.0
575.0114842680372 8.385057221680427 268.6916342800148 164.72146348034272 0.0 0.0
485.67403552000604 -2.4226933753583424 200.80027326853556 173.04088292577026 0.0 0.0
369.7908311121737 -11.453907504105736 127.30987950136436 186.55623529745378 0.0 0.0
257.5247705661558 -8.548647303698964 78.26383886211057 188.9296493265311 0.0 0.0
177.96213659388462 2.900023644374359 54.69147241013242 176.3313468478675 0.0 0.0
113.243827764693 15.125783020996288 38.51381036958065 165.80034586706344 0.0 0.0
51.01407211114194 7.9441772807400275 17.687071746317557 170.56277647506238 0.0 0.0
3.933472994276864 -44.68379730295916 -12.224780224557636 186.44001754654667 0.0 0.0
2.006702346085646 -414.8240094522269 -157.64683489750428 164.62421130334093 0.0 0.0
3.7088324966625166 -368.4613725988713 -127.34499075403599 -161.70738039990695 0.0 0.0
-11.741914048390036 -44.69279642833456 -16.930902824552057 -192.00791960492793 0.0 0.0
15.682608994050923 4.770880378345503 6.13675798317704 -182.61896779963763 0.0 0.0
58.508295859704674 16.274942810549618 22.448990186029476 -179.6143777340243 0.0 0.0
103.57069816845187 6.7166657520349515 33.36570533337326 -190.82241489921861 0.0 0.0
155.5796195048872 -2.5533124080547327 47.45008911259884 -207.34558657076502 0.0 0.0
238.36254130813154 -5.284707600131154 76.74616604486401 -215.99320726058357 0.0 0.0
354.9685068787725 -2.4646084418317358 129.96560701118625 -207.1631919084324 0.0 0.0
463.02529740592917 4.941144852640434 195.72930947407053 -191.2038150248523 0.0 0.0
537.9762789291148 11.117892487723616 250.59118508741264 -180.3092252511937 0.0 0.0
591.3897050741326 16.886542132998485 290.4449151864159 -174.16030128100198 0.0 0.0
632.9568914512464 21.302318011212037 319.0074883441857 -169.77320396097102 0.0 0.0
668.4331528887953 25.697603684276658 342.0900969395827 -165.76421310571047 0.0 0.0
699.7403188798655 28.759909137523323 361.0221869110114 -161.9995187469976 0.0 0.0
729.1682381601493 30.599584044499835 377.58693302525916 -157.8121401548931 0.0 0.0
759.9065819417241 32.89526342339548 394.53091528675765 -152.14921595198874 0.0 0.0
793.9457837132109 37.05292338295709 413.9006230320115 -143.9498858539458 0.0 0.0
819.3477126495534 33.4837465727569 425.4954793191164 -135.4702537081413 0.0 0.0
834.4200715131631 16.26167909686626 424.3788577879751 -127.03642394265597 0.0 0.0
900.197029633252 40.22278830033426 467.91699232085057 -108.04939099641133 0.0 0.0
900.1970296324417 40.222788299721 467.91699232048677 108.04939099658029 0.0 0.0
834.4200715103407 16.26167909359998 424.37885778606017 127.0364239424986 0.0 0.0
819.3477126480442 33.48374657128363 425.4954793180533 135.47025370853765 0.0 0.0
793.9457837144163 37.05292338461544 413.90062303291074 143.94988585436272 0.0 0.0
759.9065819415572 32.89526342336495 394.53091528679624 152.14921595197364 0.0 0.0
729.1682381602454 30.599584044638448 377.586933025374 157.81214015484807 0.0 0.0
699.7403188797168 28.759909137422 361.02218691092 161.99951874703 0.0 0.0
668.4331528874673 25.697603682852673 342.0900969386994 165.76421310565541 0.0 0.0
632.95689145095 21.302318010873506 319.00748834390566 169.77320396085932 0.0 0.0
591.3897050748124 16.8865421340617 290.44491518688034 174.16030128115324 0.0 0.0
537.9762789290833 11.117892487985785 250.59118508737518 180.30922525116918 0.0 0.0
463.02529740576387 4.941144853037379 195.72930947400525 191.20381502501718 0.0 0.0
354.9685068784856 -2.4646084412523734 129.96560701117122 207.16319190864834 0.0 0.0
238.36254130773605 -5.284707599791021 76.74616604482226 215.99320726064914 0.0 0.0
155.5796195046816 -2.553312408191948 47.45008911249755 207.3455865705124 0.0 0.0
103.57069816839609 6.716665752015145 33.365705333351706 190.8224148990052 0.0 0.0
58.50829585991053 16.274942811109998 22.44899018626244 179.61437773386842 0.0 0.0
15.682608994166763 4.770880378591519 6.136757983287028 182.61896779959838 0.0 0.0
-11.741914048584109 -44.692796428683806 -16.9309028247165 192.00791960473762 0.0 0.0
3.7088324965825343 -368.46137259869323 -127.34499075392561 161.70738039980768 0.0 0.0
0.35506054940276144 -318.6131113492007 -101.71380341709869 -156.04182893876367 0.0 0.0
-30.754700382265497 -47.379885510267044 -23.44251277979322 -194.06576791664128 0.0 0.0
-18.23098815950319 3.795142876771204 -4.332314645812973 -189.82596204256032 0.0 0.0
5.319901892140672 17.371670375608193 6.81700170345256 -188.51253884547515 0.0 0.0
28.543073112992413 10.927697355216596 11.935057771272351 -199.39214896489108 0.0 0.0
50.1211042959738 2.5092655012599336 16.275677680878477 -217.82613595607017 0.0 0.0
79.95905018525927 -0.749348631609009 25.35985762671721 -232.98570770306907 0.0 0.0
135.15862535559754 0.9178453151192123 45.08622385981207 -235.84058472782954 0.0 0.0
218.31174391896263 4.721438127071927 77.96993331404197 -222.94156011239951 0.0 0.0
299.31025427591806 7.02118145026261 117.08762243413732 -206.4275846733486 0.0 0.0
363.15809926442313 8.475743039784845 155.79088662244533 -194.05541473570946 0.0 0.0
404.68610665865737 8.75879821579997 185.64229052590275 -186.2538067047743 0.0 0.0
433.688270865498 9.08346614197545 208.5161061546636 -180.73594395627623 0.0 0.0
457.14468051816004 7.200199177080435 225.69814127670767 -176.2837356398463 0.0 0.0
479.8570669217241 3.0606605933123774 239.19390099495348 -172.14408939545098 0.0 0.0
507.45414624364076 -2.5830395370590793 252.11042110824087 -167.55267694735042 0.0 0.0
544.7312353385527 -6.2938210435639235 269.10866906386303 -160.46686290813932 0.0 0.0
591.4399845611715 -6.0386951252660594 292.5096794194162 -149.231691125579 0.0 0.0
611.5447729945181 -35.89404094645215 288.8622925217895 -139.44986377023 0.0 0.0
646.886946248771 -70.28003909780759 286.08394017191284 -137.61076807792296 0.0 0.0
646.8869462484301 -70.28003909811065 286.08394017173714 137.6107680781017 0.0 0.0
611.5447729960172 -35.894040944483095 288.86229252285005 139.44986377073116 0.0 0.0
591.4399845626087 -6.0386951229239685 292.50967942063414 149.2316911262405 0.0 0.0
544.7312353381083 -6.293821043848283 269.10866906357876 160.46686290825107 0.0 0.0
507.4541462436828 -2.5830395367666767 252.11042110819827 167.55267694746527 0.0 0.0
479.85706692049337 3.060660592125629 239.1939009941518 172.1440893956536 0.0 0.0
457.1446805178898 7.200199176473689 225.69814127641874 176.28373563989646 0.0 0.0
433.68827086513363 9.08346614130835 208.51610615432162 180.7359439562556 0.0 0.0
404.6861066587587 8.758798215863962 185.6422905258904 186.25380670477023 0.0 0.0
363.1580992640925 8.47574303925331 155.79088662212808 194.05541473568957 0.0 0.0
299.3102542757583 7.02118145019773 117.08762243397351 206.42758467322562 0.0 0.0
218.31174391857147 4.721438126880582 77.96993331384738 222.94156011252016 0.0 0.0
135.15862535539026 0.9178453150599069 45.08622385971785 235.84058472785873 0.0 0.0
79.95905018518671 -0.7493486312701805 25.35985762679786 232.98570770295584 0.0 0.0
50.12110429574039 2.5092655007663476 16.275677680661797 217.82613595578403 0.0 0.0
28.543073113127853 10.927697355273816 11.935057771329491 199.39214896463224 0.0 0.0
5.3199018921954675 17.371670375702717 6.817001703497533 188.51253884524255 0.0 0.0
-18.23098815971582 3.795142876258481 -4.332314646031316 189.8259620423684 0.0 0.0
-30.754700382515825 -47.37988551066591 -23.44251277999058 194.065767916391 0.0 0.0
0.3550605493635963 -318.61311134888757 -101.71380341698581 156.04182893867724 0.0 0.0
-11.179356079049212 -267.9162164388345 -84.50558138233328 -146.14954826694537 0.0 0.0
-49.94555357248585 -50.1346788034282 -30.030873440082978 -193.93542471742396 0.0 0.0
-51.139178631457575 3.806522934442087 -14.220597932663171 -192.78771171691346 0.0 0.0
-46.268200208229835 18.338232276614157 -8.415705517090966 -192.23435283397578 0.0 0.0
-45.57907960698785 15.138808343822035 -9.256571447366284 -201.56119655688468 0.0 0.0
-56.389520523992104 7.423018163627043 -15.22695998015206 -218.80550203369796 0.0 0.0
-82.75127299177237 2.6388352311144256 -25.70217308264425 -233.13663235677245 0.0 0.0
-136.14808001663113 -0.51548257451004 -45.31088962959326 -236.00726201510523 0.0 0.0
-218.19790516861855 -4.478894323535144 -77.86458203485206 -223.05969723800558 0.0 0.0
-299.06364806402814 -6.694129291247478 -116.89133626731893 -206.40468016748395 0.0 0.0
-363.3796194978232 -7.032529092994089 -155.26094771695392 -193.89573479472205 0.0 0.0
-406.42932571427434 -7.086748252145924 -185.68247086782156 -185.7748940137112 0.0 0.0
-438.22295258848817 -9.441157412409993 -210.56719809422836 -180.31408245896665 0.0 0.0
-463.1642059354126 -14.81522967142402 -231.97829726107759 -176.9384740706812 0.0 0.0
-479.9249789657409 -23.629800944125293 -250.30485413276733 -175.49260800685522 0.0 0.0
-485.3692601781471 -34.961208430497976 -264.65281660776077 -175.4900618428235 0.0 0.0
-470.5484017235507 -46.20511984761603 -271.5475010939442 -175.64905940591314 0.0 0.0
-406.24878069034105 -39.99543620027265 -254.9825542416806 -175.4264635262681 0.0 0.0
-224.02073352256383 -38.44435185465119 -194.63423547159215 -178.41226555533498 0.0 0.0
-20.375355049999456 -175.78349744751225 -70.22401379554762 -169.59753513380113 0.0 0.0
-20.375355050080202 -175.7834974471745 -70.22401379548842 169.59753513415188 0.0 0.0
-224.02073352264358 -38.44435185481149 -194.63423547179553 178.4122655558985 0.0 0.0
-406.24878069043143 -39.9954362006651 -254.98255424185004 175.4264635265801 0.0 0.0
-470.54840172267274 -46.20511984651654 -271.5475010932835 175.64905940602108 0.0 0.0
-485.3692601775201 -34.96120842964709 -264.652816607241 175.49006184269876 0.0 0.0
-479.92497896499947 -23.629800943123485 -250.3048541321495 175.49260800676262 0.0 0.0
-463.1642059349525 -14.815229671079237 -231.9782972607459 176.93847407074708 0.0 0.0
-438.2229525879749 -9.441157412172998 -210.5671980939107 180.31408245903742 0.0 0.0
-406.4293257142399 -7.086748252623977 -185.6824708678222 185.77489401373956 0.0 0.0
-363.3796194975259 -7.032529093725465 -155.26094771690856 193.89573479470968 0.0 0.0
-299.0636480636499 -6.694129291883662 -116.89133626725494 206.40468016745336 0.0 0.0
-218.19790516786082 -4.478894323215695 -77.86458203448596 223.05969723810102 0.0 0.0
-136.14808001598755 -0.5154825739920863 -45.31088962922831 236.0072620151145 0.0 0.0
-82.75127299162436 2.638835230974765 -25.70217308262486 233.13663235658876 0.0 0.0
-56.389520523721714 7.423018164047529 -15.22695997994091 218.80550203342233 0.0 0.0
-45.579079607003756 15.138808343518155 -9.256571447462811 201.56119655665395 0.0 0.0
-46.26820020842651 18.33823227601094 -8.415705517331915 192.2343528337865 0.0 0.0
-51.13917863132145 3.806522934703061 -14.220597932546786 192.78771171676112 0.0 0.0
-49.94555357237256 -50.134678803186226 -30.030873439980258 193.93542471737206 0.0 0.0
-11.17935607905459 -267.9162164384437 -84.50558138222777 146.14954826681148 0.0 0.0
-23.141245174155827 -219.1638622105154 -72.68393742308511 -133.17642702946148 0.0 0.0
-66.41782857946303 -50.26974543301963 -35.01673499066232 -190.4213900897904 0.0 0.0
-82.93173070674861 3.719787006296025 -23.80735010369093 -191.90153908886856 0.0 0.0
-96.22890841877916 19.14402791993157 -23.218525649055394 -190.91728519593968 0.0 0.0
-117.98260067682102 18.49216910562918 -30.27457160957324 -197.08471489259966 0.0 0.0
-160.7627631200036 11.999892888204123 -46.417552752656604 -209.68815399628983 0.0 0.0
-239.92057269597223 7.048115461706413 -76.94747213161288 -216.9400788946514 0.0 0.0
-354.6281603862486 2.801404316799651 -129.90267359764462 -207.66950784207515 0.0 0.0
-462.62058239706084 -4.756423478958574 -195.52408064833128 -191.3837656017669 0.0 0.0
-537.6054168185913 -10.689410269969414 -250.26552272514775 -180.27243131752687 0.0 0.0
-590.9295348949645 -15.779713409499976 -289.77077899413433 -173.8612820136943 0.0 0.0
-633.03120912783 -19.815055382642313 -318.3399998582453 -168.96096207992233 0.0 0.0
-670.4452932903771 -25.919522677209272 -343.02269410849283 -164.74826908050503 0.0 0.0
-705.4295124084904 -35.15586957284677 -366.689245784537 -162.32943287210725 0.0 0.0
-738.480432020591 -48.2001693598545 -390.7607507938534 -162.23796950432316 0.0 0.0
-767.5596683538787 -63.94465638233447 -414.09812418142474 -164.41541567605873 0.0 0.0
-787.656097863374 -79.14431865358199 -432.8050597896474 -169.2931217597543 0.0 0.0
-795.979926297949 -92.140968832091 -444.419899558916 -176.97658182480066 0.0 0.0
-829.3847866044011 -145.90366018006506 -489.2733041135495 -186.25376800752932 0.0 0.0
-842.5887283906326 -237.1973019316706 -543.3322354299056 -205.35412960356035 0.0 0.0
-842.5887283894849 -237.1973019301253 -543.3322354291104 205.3541296036155 0.0 0.0
-829.3847866045186 -145.9036601805632 -489.2733041138 186.25376800809283 0.0 0.0
-795.9799262989831 -92.14096883363567 -444.41989955970723 176.97658182514698 0.0 0.0
-787.656097863847 -79.14431865454688 -432.8050597900531 169.29312176006914 0.0 0.0
-767.5596683542303 -63.94465638288537 -414.0981241817184 164.41541567608385 0.0 0.0
-738.4804320196558 -48.20016935885036 -390.76075079320503 162.2379695041114 0.0 0.0
-705.4295124086696 -35.15586957327426 -366.68924578467823 162.32943287220996 0.0 0.0
-670.4452932900887 -25.91952267720555 -343.02269410832326 164.74826908058677 0.0 0.0
-633.0312091285649 -19.815055383785847 -318.33999985870014 168.96096208005466 0.0 0.0
-590.9295348950244 -15.779713410359363 -289.77077899428286 173.86128201395002 0.0 0.0
-537.605416818551 -10.689410270089166 -250.26552272495854 180.27243131736125 0.0 0.0
-462.62058239725843 -4.756423479986186 -195.52408064850798 191.3837656019261 0.0 0.0
-354.6281603860343 2.8014043162842093 -129.90267359757954 207.66950784218892 0.0 0.0
-239.92057269582287 7.04811546094804 -76.94747213172552 216.9400788945968 0.0 0.0
-160.7627631197882 11.999892888143131 -46.41755275260289 209.6881539960025 0.0 0.0
-117.9826006764942 18.49216910598284 -30.27457160936554 197.08471489231476 0.0 0.0
-96.22890841848093 19.14402792045734 -23.218525648810804 190.91728519573965 0.0 0.0
-82.93173070659222 3.719787006494207 -23.807350103587545 191.9015390886301 0.0 0.0
-66.41782857941931 -50.26974543310145 -35.01673499067974 190.4213900896432 0.0 0.0
-23.141245174195138 -219.16386221035154 -72.68393742305001 133.17642702923925 0.0 0.0
-28.333379163098375 -173.38693571329503 -60.51609446291802 -118.38950120339155 0.0 0.0
-79.99393334045931 -47.890421196339055 -38.36253389012574 -182.97613725908633 0.0 0.0
-113.19527233755689 3.466399648241498 -32.95804838545954 -186.97513328618646 0.0 0.0
-144.45890655461926 19.41882481239714 -37.66854678317374 -184.4844225533659 0.0 0.0
-188.10476562501663 20.60504883656874 -51.06558469431139 -186.56635364633723 0.0 0.0
-259.70086925711286 16.865167268903946 -77.15465571814771 -192.34834725177163 0.0 0.0
-368.94305246042234 12.977627538811983 -126.9999906021736 -187.97616641565475 0.0 0.0
-484.838172381474 2.778263354777998 -200.40862832129483 -173.64765700761177 0.0 0.0
-574.7428486585003 -8.265659975748584 -268.5235853647423 -164.79409008474516 0.0 0.0
-640.8949717838311 -17.933557322835412 -317.95540597578275 -160.06970369137872 0.0 0.0
-693.9978704829998 -25.406760829294697 -353.22208628879264 -156.2010120088212 0.0 0.0
-739.9765114333582 -33.723695841497346 -382.46714663855505 -152.0007482997465 0.0 0.0
-782.4958415446416 -43.22664963726817 -409.4922554861075 -148.0194702467009 0.0 0.0
-823.8201858179611 -55.88958606208624 -437.026918563437 -145.52801242157494 0.0 0.0
-865.0109085983001 -73.02257289138345 -466.59149154472675 -145.57876355607004 0.0 0.0
-903.8162019780077 -93.37596544791083 -496.62133067734555 -148.6172308849201 0.0 0.0
-937.9122575781234 -114.95879824602252 -524.8842856376954 -154.26017768750745 0.0 0.0
-976.0158388035399 -147.94771251398578 -560.8117125148218 -160.4684038083086 0.0 0.0
-1019.6952745052847 -197.56330193920115 -607.6746635405482 -165.90328687093387 0.0 0.0
-1121.4967757420509 -334.94581755818393 -726.6672189629103 -171.6969878643798 0.0 0.0
-1121.496775741155 -334.9458175570884 -726.6672189622533 171.69698786437965 0.0 0.0
-1019.6952745046533 -197.56330193883912 -607.6746635400698 165.9032868712803 0.0 0.0
-976.0158388030076 -147.9477125136919 -560.8117125144289 160.46840380852132 0.0 0.0
-937.9122575771445 -114.95879824538972 -524.8842856370218 154.26017768781972 0.0 0.0
-903.8162019786795 -93.3759654487333 -496.62133067765666 148.61723088499812 0.0 0.0
-865.0109085982722 -73.02257289162338 -466.59149154475125 145.57876355622724 0.0 0.0
-823.8201858182101 -55.889586062490395 -437.0269185635649 145.52801242157685 0.0 0.0
-782.4958415449948 -43.22664963801749 -409.49225548627663 148.01947024695951 0.0 0.0
-739.976511432622 -33.72369584102044 -382.4671466380761 152.00074829968028 0.0 0.0
-693.9978704818861 -25.406760828276965 -353.2220862880598 156.20101200874456 0.0 0.0
-640.8949717830087 -17.93355732227887 -317.9554059752906 160.06970369133904 0.0 0.0
-574.7428486570801 -8.265659974560062 -268.5235853638386 164.79409008469182 0.0 0.0
-484.83817238038614 2.778263355693192 -200.40862832048091 173.64765700756158 0.0 0.0
-368.94305245930013 12.977627539729676 -126.9999906014377 187.97616641554126 0.0 0.0
-259.70086925631864 16.865167269549936 -77.15465571770059 192.34834725166402 0.0 0.0
-188.10476562473465 20.605048836524674 -51.065584694243995 186.56635364618242 0.0 0.0
-144.4589065546736 19.418824811984944 -37.66854678331786 184.4844225532532 0.0 0.0
-113.19527233745148 3.4663996481832355 -32.958048385451214 186.97513328606493 0.0 0.0
-79.99393334036958 -47.89042119628916 -38.36253389008495 182.9761372590391 0.0 0.0
-28.33337916306262 -173.38693571311194 -60.51609446285236 118.38950120329334 0.0 0.0
-30.166978898034472 -131.58937278449696 -48.526905504759426 -102.82123883261688 0.0 0.0
-91.18782724782027 -43.251191697807 -40.3311786524125 -171.04659794358386 0.0 0.0
-141.6295251034158 3.051563051818534 -41.60090207398238 -177.85861119646717 0.0 0.0
-190.7665480548021 18.66011883714781 -51.86735094936229 -173.2136238937957 0.0 0.0
-254.62849851210603 22.295274287782334 -71.15229951286102 -170.75277270957588 0.0 0.0
-349.344490677004 22.06095292773361 -108.29922497865579 -167.73311260597978 0.0 0.0
-465.6458255570292 14.695627709398007 -175.6883779872472 -154.88641636271305 0.0 0.0
-567.5707319565331 1.1779426403453002 -254.15860984743313 -145.31721336889336 0.0 0.0
-646.5593101863773 -11.972960823390224 -315.8866036667912 -142.7943110787438 0.0 0.0
-710.5640369816931 -24.11901878302274 -360.5667511678241 -141.08982059830765 0.0 0.0
-765.4526710163716 -35.28824267917574 -395.96457582713094 -138.2911404965067 0.0 0.0
-815.9436082299519 -47.52982536259998 -428.38680841998337 -134.65169878290607 0.0 0.0
-863.161875011331 -60.575863686215854 -459.1009861724508 -130.84712544718298 0.0 0.0
-909.3718597104499 -76.57577988831929 -490.5421130718548 -128.1889959551042 0.0 0.0
-956.1099502992554 -97.1877246718833 -524.4531908100538 -128.23060590428062 0.0 0.0
-1003.8022606642736 -123.4201039860042 -561.6612263074907 -131.4771654453393 0.0 0.0
-1053.3911578600266 -156.93129704247818 -603.4528892148996 -136.75528928607278 0.0 0.0
-1107.208328961311 -201.0265416302874 -652.5652424719901 -141.42095540991264 0.0 0.0
-1179.7628698703638 -273.5573679318295 -724.9498404329509 -142.07505719581584 0.0 0.0
-1277.578195116766 -397.44748063178235 -835.7776322553111 -142.10973758578922 0.0 0.0
-1277.5781951162712 -397.4474806313704 -835.7776322550162 142.10973758596612 0.0 0.0
-1179.762869870593 -273.5573679322722 -724.9498404331923 142.07505719613343 0.0 0.0
-1107.208328960915 -201.02654163003723 -652.5652424718297 141.4209554100433 0.0 0.0
-1053.3911578597958 -156.93129704237188 -603.4528892147275 136.7552892861388 0.0 0.0
-1003.8022606644608 -123.4201039863892 -561.6612263076025 131.47716544543272 0.0 0.0
-956.1099502988147 -97.18772467157768 -524.4531908097606 128.2306059043138 0.0 0.0
-909.3718597096449 -76.57577988759961 -490.5421130713273 128.18899595491766 0.0 0.0
-863.1618750103378 -60.57586368528271 -459.10098617180756 130.8471254470605 0.0 0.0
-815.9436082298402 -47.52982536272877 -428.38680841988753 134.65169878294114 0.0 0.0
-765.4526710159518 -35.2882426791583 -395.9645758269155 138.29114049662905 0.0 0.0
-710.564036981992 -24.119018783574678 -360.5667511679713 141.08982059819218 0.0 0.0
-646.559310187058 -11.972960824594711 -315.88660366723167 142.79431107889178 0.0 0.0
-567.570731956085 1.1779426406020939 -254.15860984700635 145.31721336870757 0.0 0.0
-465.6458255570186 14.695627708827882 -175.68837798720102 154.88641636273348 0.0 0.0
-349.3444906768106 22.060952927184456 -108.2992249786817 167.73311260597555 0.0 0.0
-254.62849851160962 22.295274288016063 -71.1522995126405 170.75277270938886 0.0 0.0
-190.76654805452915 18.66011883740661 -51.86735094921403 173.21362389372644 0.0 0.0
-141.62952510322452 3.0515630519418204 -41.6009020738945 177.85861119637943 0.0 0.0
-91.18782724768585 -43.25119169787188 -40.33117865239181 171.04659794356468 0.0 0.0
-30.166978898110997 -131.58937278438376 -48.52690550474841 102.82123883257844 0.0 0.0
-31.14387921816678 -94.48831390930393 -37.689657938241204 -86.80467650377196 0.0 0.0
-100.95374493603784 -36.84578442779951 -41.339858809151195 -154.9294297074835 0.0 0.0
-168.2284832123015 2.595375644112491 -49.70134269420531 -164.25138687309402 0.0 0.0
-235.4089698784179 17.140609783773098 -65.69379116499755 -157.62855256610982 0.0 0.0
-317.9271209536573 24.364567462731564 -90.83500175010253 -150.43245899948806 0.0 0.0
-426.24078506325026 24.54693911785602 -141.09380023045742 -137.8331461779392 0.0 0.0
-535.8884755732186 14.238896196465937 -219.1060270620448 -124.4752156868924 0.0 0.0
-626.026334275871 -0.19397345191654836 -293.69245557368356 -121.20639940783504 0.0 0.0
-700.0241951300727 -15.165597170440378 -349.01535649325433 -122.09532071830839 0.0 0.0
-764.0596569473616 -29.61846183345969 -391.9173981037518 -121.92054582339088 0.0 0.0
-822.7156694660354 -44.95125405574032 -430.27680434776266 -119.88712766510007 0.0 0.0
-877.564945599876 -61.30239320072042 -466.58276521673247 -116.73076627879358 0.0 0.0
-929.2326382234698 -78.24677508416096 -501.34304404522317 -113.22815132363131 0.0 0.0
-979.4684879449057 -97.07164980492837 -536.1351486557555 -110.52352097602567 0.0 0.0
-1031.6295728728664 -121.27211614880304 -574.4501847035492 -110.21212877156725 0.0 0.0
-1088.5150809782908 -154.7651471554324 -619.7560735336133 -112.96778595092785 0.0 0.0
-1152.0254354172646 -199.48863585612332 -673.9940517564575 -117.6363825018956 0.0 0.0
-1224.9092125889824 -260.19066217422255 -740.8111383358636 -120.80051145212913 0.0 0.0
-1308.5573391059338 -342.9471851266031 -823.9899144350486 -120.33629729725105 0.0 0.0
-1393.9197196040316 -452.26141839437275 -921.4431591538971 -121.33643544234572 0.0 0.0
-1393.919719605096 -452.26141839556004 -921.4431591546112 121.33643544254613 0.0 0.0
-1308.5573391062028 -342.94718512706703 -823.9899144352345 120.33629729759552 0.0 0.0
-1224.909212589314 -260.1906621747544 -740.8111383360649 120.80051145234884 0.0 0.0
-1152.025435416024 -199.48863585493157 -673.9940517556797 117.63638250183685 0.0 0.0
-1088.5150809779088 -154.76514715514068 -619.7560735333836 112.96778595092135 0.0 0.0
-1031.6295728733123 -121.27211614945811 -574.4501847038309 110.2121287716468 0.0 0.0
-979.4684879452534 -97.07164980539231 -536.1351486558833 110.5235209759045 0.0 0.0
-929.2326382233118 -78.24677508415647 -501.34304404516615 113.22815132354575 0.0 0.0
-877.5649455987766 -61.3023931998497 -466.582765215991 116.73076627882074 0.0 0.0
-822.7156694654649 -44.95125405538316 -430.2768043472919 119.88712766504362 0.0 0.0
-764.0596569473595 -29.618461833768965 -391.9173981037254 121.92054582337875 0.0 0.0
-700.0241951292447 -15.16559716994341 -349.0153564927282 122.09532071836495 0.0 0.0
-626.0263342758317 -0.19397345229397445 -293.69245557360347 121.20639940789944 0.0 0.0
-535.8884755726863 14.238896196569257 -219.10602706161197 124.47521568690902 0.0 0.0
-426.2407850626005 24.546939118084207 -141.0938002300587 137.83314617791484 0.0 0.0
-317.92712095307826 24.364567463030966 -90.83500174982213 150.43245899930594 0.0 0.0
-235.40896987817624 17.14060978400742 -65.69379116486292 157.628552565967 0.0 0.0
-168.22848321213692 2.5953756440851428 -49.70134269416909 164.25138687301194 0.0 0.0
-100.95374493585422 -36.845784427684215 -41.339858809061525 154.92942970741944 0.0 0.0
-31.143879218248713 -94.48831390922466 -37.68965793824201 86.80467650366948 0.0 0.0
-31.945892963518396 -62.642211079138704 -28.37643121279713 -70.34071898271304 0.0 0.0
-109.8041208228279 -29.24783441002758 -41.71558656985664 -135.04830486491196 0.0 0.0
-193.23256281911517 2.0113974913559893 -57.364162492507276 -146.22221285463837 0.0 0.0
-277.3203676339778 15.141243521969683 -78.97033224998059 -137.7237895503472 0.0 0.0
-376.49403552406704 26.301590647540706 -110.95146974401676 -125.60472406002107 0.0 0.0
-489.02547594447924 24.35900539954132 -174.46759245037885 -107.24240857940273 0.0 0.0
-588.0997804453261 13.744692976327343 -255.17880855261288 -98.05580448738476 0.0 0.0
-670.2458901520716 -1.635218536270159 -322.9404157021393 -98.93999302043079 0.0 0.0
-741.9855564866425 -17.35615116672018 -373.47480147516524 -101.56610740335776 0.0 0.0
-808.3710841619129 -34.93375826413602 -417.6447499577746 -102.21580294531617 0.0 0.0
-871.0748487191124 -54.38775032713261 -459.6553681720132 -100.72831709675835 0.0 0.0
-930.4014239538741 -75.04875604865364 -500.1933524614727 -98.15371114423705 0.0 0.0
-986.7021816609148 -96.10634232750067 -539.2644633391689 -95.22390024810639 0.0 0.0
-1040.9135171541102 -118.25691397675183 -577.680950057786 -92.49696465523863 0.0 0.0
-1097.6473554426952 -145.74311135590426 -619.8613931801312 -91.45777560345742 0.0 0.0
-1163.3001719111965 -185.77627779041762 -672.7168323593869 -93.27687676999108 0.0 0.0
-1240.5019026947402 -242.7765663300514 -739.8430617356064 -97.02143831300805 0.0 0.0
-1328.243942968477 -317.58112546349315 -821.1472771683584 -100.07266512174493 0.0 0.0
-1417.6265425423935 -406.3424485547254 -910.2745184243998 -101.42320922150175 0.0 0.0
-1495.7225830605757 -507.21957480435185 -999.9297534948274 -105.92805121983854 0.0 0.0
-1495.72258305991 -507.219574803682 -999.9297534944146 105.92805121982585 0.0 0.0
-1417.6265425435836 -406.34244855607216 -910.2745184253167 101.42320922177385 0.0 0.0
-1328.2439429685262 -317.5811254637451 -821.1472771683349 100.07266512208594 0.0 0.0
-1240.5019026943091 -242.7765663297932 -739.843061735219 97.02143831314672 0.0 0.0
-1163.3001719109102 -185.77627779024778 -672.7168323591301 93.27687676998215 0.0 0.0
-1097.6473554424354 -145.74311135578586 -619.8613931798761 91.45777560342975 0.0 0.0
-1040.9135171542018 -118.25691397703551 -577.6809500578975 92.4969646553308 0.0 0.0
-986.70218166038 -96.1063423272075 -539.2644633388027 95.22390024818091 0.0 0.0
-930.4014239525541 -75.04875604752566 -500.19335246063906 98.15371114421839 0.0 0.0
-871.0748487177863 -54.3877503260463 -459.65536817119573 100.72831709676436 0.0 0.0
-808.371084161327 -34.93375826386919 -417.6447499574585 102.21580294536714 0.0 0.0
-741.9855564870179 -17.356151167419327 -373.47480147542115 101.56610740335339 0.0 0.0
-670.2458901521251 -1.6352185366482317 -322.9404157021502 98.93999302037204 0.0 0.0
-588.0997804448077 13.74469297658294 -255.17880855214509 98.05580448724479 0.0 0.0
-489.02547594431206 24.359005399284367 -174.46759245019155 107.24240857929387 0.0 0.0
-376.4940355237125 26.30159064736184 -110.95146974391483 125.60472405997692 0.0 0.0
-277.3203676337434 15.141243521850443 -78.97033224995698 137.72378955035342 0.0 0.0
-193.23256281899862 2.0113974913041153 -57.3641624924887 146.22221285462498 0.0 0.0
-109.80412082281293 -29.24783441002117 -41.71558656985023 135.04830486477957 0.0 0.0
-31.94589296340324 -62.64221107896964 -28.376431212711857 70.340718982649 0.0 0.0
-32.50986123454202 -36.54601748277218 -20.716763615194253 -53.38136616971186 0.0 0.0
-117.65931169121629 -21.0191274872497 -41.6035317535398 -111.8084613237053 0.0 0.0
-216.89404173884878 1.2030144835713203 -64.70654769249413 -123.73270628636459 0.0 0.0
-318.2954142284554 13.609031944970997 -91.83491337929837 -114.20149672751293 0.0 0.0
-431.04668671692457 26.76887279446612 -132.7296088298806 -97.12735803584692 0.0 0.0
-538.1533782930488 23.432248289602583 -205.9756904780076 -78.7823695123081 0.0 0.0
-626.4890340240358 12.287153211016587 -284.00825252860807 -74.38839424710049 0.0 0.0
-704.411538851698 -1.7641160698548077 -343.94500002522693 -77.48066388194314 0.0 0.0
-776.8197443332722 -19.200930922697808 -393.1209983929763 -80.72541080697566 0.0 0.0
-846.20663120008 -40.23205112059898 -439.76173104100786 -81.77522837938886 0.0 0.0
-912.8021276803436 -63.53623658395128 -485.42530950507154 -80.80849612430028 0.0 0.0
-976.8018562970137 -88.52316630936068 -530.3706161976869 -78.8844705800507 0.0 0.0
-1038.0387528674833 -114.23565891629204 -574.1758710781592 -76.62035889323968 0.0 0.0
-1097.433453759577 -140.77948283941694 -617.3706884283561 -74.18439396002307 0.0 0.0
-1158.275287300262 -171.3621164309219 -663.1442702288681 -72.27937041604335 0.0 0.0
-1229.1562404724268 -215.69577361124334 -720.6759627647438 -72.45931129012322 0.0 0.0
-1318.159215293661 -283.0304205353984 -798.8003291256288 -75.42390890776045 0.0 0.0
-1418.5124683537028 -369.80022408956495 -892.4141649490134 -79.63287909014174 0.0 0.0
-1516.2471993906206 -467.05883216094185 -990.0040680828324 -84.3981279733468 0.0 0.0
-1592.9262334915695 -565.736953952684 -1077.8701098290085 -93.5637760478699 0.0 0.0
-1592.9262334920586 -565.7369539532123 -1077.8701098293877 93.56377604795716 0.0 0.0
-1516.2471993914153 -467.0588321618425 -990.0040680834647 84.3981279735165 0.0 0.0
-1418.5124683534614 -369.8002240894265 -892.414164948955 79.63287909027535 0.0 0.0
-1318.1592152939818 -283.0304205358597 -798.8003291258717 75.42390890781473 0.0 0.0
-1229.1562404736796 -215.69577361263907 -720.6759627655136 72.45931129012075 0.0 0.0
-1158.2752873002964 -171.3621164310982 -663.1442702288246 72.27937041606842 0.0 0.0
-1097.4334537588243 -140.7794828388483 -617.3706884277339 74.18439396002458 0.0 0.0
-1038.0387528674269 -114.23565891647087 -574.1758710780578 76.62035889333914 0.0 0.0
-976.8018562971887 -88.5231663097873 -530.3706161977357 78.88447058007023 0.0 0.0
-912.8021276799002 -63.53623658375986 -485.42530950471945 80.808496124278 0.0 0.0
-846.206631199835 -40.23205112062697 -439.7617310407987 81.77522837935916 0.0 0.0
-776.8197443338098 -19.200930923548484 -393.12099839329034 80.72541080696766 0.0 0.0
-704.4115388518949 -1.76411607042008 -343.94500002530003 77.48066388202258 0.0 0.0
-626.4890340233771 12.28715321133025 -284.0082525281213 74.38839424717938 0.0 0.0
-538.1533782924554 23.432248289804548 -205.97569047758452 78.7823695123746 0.0 0.0
-431.046686716252 26.768872794702443 -132.7296088295335 97.12735803587313 0.0 0.0
-318.29541422840776 13.609031944209374 -91.83491337952108 114.20149672744938 0.0 0.0
-216.89404173878236 1.203014483473583 -64.7065476925044 123.73270628611337 0.0 0.0
-117.65931169114367 -21.01912748710879 -41.60353175347574 111.8084613236199 0.0 0.0
-32.50986123455756 -36.54601748274796 -20.716763615191656 53.381366169630724 0.0 0.0
-32.229093030966546 -16.66506226786725 -14.668246589650137 -36.04663364136913 0.0 0.0
-123.72050369113816 -12.646047337604683 -40.90996530862285 -85.440517690861 0.0 0.0
-239.66833835278013 -0.021892521874383952 -71.90706926239633 -96.73844621302172 0.0 0.0
-359.1747435116737 13.505647916982305 -104.45983200174668 -86.9295574740842 0.0 0.0
-478.37676294205596 25.798820861629842 -156.04312100133922 -67.13167949022318 0.0 0.0
-576.4334867141491 21.377553945512567 -235.0687857980725 -53.5769281877054 0.0 0.0
-657.2610870727186 11.468131605996973 -306.46166130073414 -52.57881086284634 0.0 0.0
-732.2471979838006 -1.426604849398231 -360.0251412577488 -56.03140538262719 0.0 0.0
-806.1194203729309 -21.119448681928674 -409.5333678824609 -59.31965721260932 0.0 0.0
-878.6468217094202 -45.324586217988866 -458.91577914749865 -60.60653067499042 0.0 0.0
-949.3550949632634 -72.4483426319185 -508.4093770582916 -60.12419584240107 0.0 0.0
-1017.8880949805579 -101.66132686631613 -557.6691081595022 -58.83413173403608 0.0 0.0
-1084.7166277839883 -132.30878439560274 -606.6836587244716 -57.32930184573528 0.0 0.0
-1150.105788185796 -164.64367396984963 -655.7446586099752 -55.392877427804464 0.0 0.0
-1216.0014257770454 -199.86178289084225 -706.3897918624313 -53.003147755836316 0.0 0.0
-1288.9323372828383 -245.16095284434402 -765.4309675940801 -51.37053897922507 0.0 0.0
-1380.4801368813935 -314.07563386832805 -845.5205036000015 -53.01986009261592 0.0 0.0
-1496.467161865926 -415.5781253357653 -954.2888691605092 -58.82530167770184 0.0 0.0
-1607.9773222337908 -525.8999253082775 -1065.3406624363956 -68.05517553125249 0.0 0.0
-1693.9033155375057 -632.3917633187061 -1161.7444986586772 -82.83132793444672 0.0 0.0
-1693.9033155370007 -632.391763318231 -1161.7444986583337 82.83132793449502 0.0 0.0
-1607.9773222335293 -525.8999253080854 -1065.3406624361555 68.05517553136681 0.0 0.0
-1496.4671618653988 -415.57812533533496 -954.2888691600695 58.82530167783749 0.0 0.0
-1380.4801368819135 -314.07563386896004 -845.520503600191 53.019860092667514 0.0 0.0
-1288.9323372814154 -245.16095284303083 -765.4309675929948 51.370538979192645 0.0 0.0
-1216.001425776667 -199.8617828906178 -706.3897918621351 53.003147755843486 0.0 0.0
-1150.1057881859338 -164.6436739701474 -655.7446586099882 55.39287742772201 0.0 0.0
-1084.716627783172 -132.30878439498528 -606.6836587239695 57.32930184575989 0.0 0.0
-1017.8880949799827 -101.66132686597318 -557.6691081591978 58.83413173400692 0.0 0.0
-949.3550949632203 -72.44834263210196 -508.40937705823154 60.12419584232809 0.0 0.0
-878.6468217092955 -45.32458621814479 -458.9157791474163 60.60653067499675 0.0 0.0
-806.119420371638 -21.11944868088353 -409.533367881622 59.31965721251059 0.0 0.0
-732.2471979827476 -1.426604848600789 -360.02514125705386 56.03140538250601 0.0 0.0
-657.2610870724345 11.46813160594052 -306.4616613005028 52.57881086280426 0.0 0.0
-576.433486713472 21.377553945896423 -235.0687857975338 53.57692818770533 0.0 0.0
-478.3767629413778 25.79882086195552 -156.04312100093816 67.13167949028563 0.0 0.0
-359.1747435111669 13.505647917115386 -104.45983200157121 86.92955747397025 0.0 0.0
-239.66833835266695 -0.02189252192348201 -71.90706926237712 96.7384462130388 0.0 0.0
-123.72050369118193 -12.64604733763564 -40.90996530864527 85.44051769086953 0.0 0.0
-32.22909303110899 -16.66506226798968 -14.668246589729598 36.04663364130934 0.0 0.0
-29.78620757826186 -3.3903714039743624 -9.952973694670867 -18.852821329607714 0.0 0.0
-126.27028644781088 -4.757506604075449 -39.30833791556589 -55.90767913296815 0.0 0.0
-262.0028037993993 -1.4125739630477936 -79.02461332873412 -64.7382942744852 0.0 0.0
-401.26558115216966 14.634740878482905 -117.82977516263824 -56.02155612698435 0.0 0.0
-517.2041271699907 24.369049149993618 -179.8606260154724 -38.67945229597922 0.0 0.0
-604.6709893499237 18.238390940804543 -260.4531575002623 -30.873182074605303 0.0 0.0
-681.299053275435 11.921670700854136 -322.76705970765954 -31.58666442920259 0.0 0.0
-755.3816587730277 -1.6650069810082755 -373.20035247885585 -34.540030749824126 0.0 0.0
-830.472878716191 -22.85273747111151 -423.1312556931871 -37.33162044879675 0.0 0.0
-906.3420755446225 -50.16795058526901 -475.48184418009174 -38.665050056709525 0.0 0.0
-981.309117846566 -81.14333217890152 -528.9396550386723 -38.65927791607947 0.0 0.0
-1054.777440952203 -114.459544061379 -582.6645446243099 -38.02165015237803 0.0 0.0
-1127.077213989537 -150.38861020908112 -637.0089189864851 -37.140545281455786 0.0 0.0
-1199.3165115494219 -188.9889262443503 -692.590041401887 -35.89791486579275 0.0 0.0
-1272.1948241441974 -230.8811759291143 -750.0763827952601 -33.880845363949355 0.0 0.0
-1347.1233740164485 -278.00974422097124 -811.1117042465085 -31.189983962732498 0.0 0.0
-1431.7710422563557 -339.41000086930285 -883.9950388735771 -30.400776159237704 0.0 0.0
-1542.8575626788274 -434.5949929154589 -986.9646186602192 -36.2814442305829 0.0 0.0
-1701.254008330945 -589.5877517501207 -1143.811996628213 -50.68769498133785 0.0 0.0
-1807.9507526609716 -714.5247272471838 -1259.8842108977706 -72.73065448468354 0.0 0.0
-1807.9507526596599 -714.5247272459163 -1259.8842108968502 72.73065448480624 0.0 0.0
-1701.2540083296544 -589.5877517488962 -1143.8119966273184 50.6876949814624 0.0 0.0
-1542.8575626774307 -434.59499291412385 -986.9646186591693 36.28144423052743 0.0 0.0
-1431.7710422547077 -339.41000086775296 -883.9950388723439 30.400776159231626 0.0 0.0
-1347.1233740162188 -278.00974422086534 -811.1117042462786 31.18998396266005 0.0 0.0
-1272.194824145472 -230.88117593055853 -750.0763827960891 33.8808453638973 0.0 0.0
-1199.3165115502325 -188.9889262453441 -692.5900414024135 35.89791486590602 0.0 0.0
-1127.0772139894987 -150.3886102092654 -637.008918986356 37.14054528147675 0.0 0.0
-1054.7774409517833 -114.4595440611768 -582.6645446238828 38.02165015229273 0.0 0.0
-981.30911784525 -81.14333217781115 -528.9396550377218 38.65927791599262 0.0 0.0
-906.3420755443613 -50.1679505852736 -475.4818441798721 38.66505005658881 0.0 0.0
-830.4728787157744 -22.85273747098617 -423.1312556928843 37.33162044880025 0.0 0.0
-755.3816587728644 -1.665006981141815 -373.2003524787039 34.54003074977996 0.0 0.0
-681.2990532751696 11.921670700786528 -322.76705970741824 31.58666442917871 0.0 0.0
-604.6709893490807 18.238390941366987 -260.45315749965465 30.87318207460593 0.0 0.0
-517.2041271690766 24.3690491506705 -179.86062601485852 38.67945229596332 0.0 0.0
-401.2655811517175 14.634740878412448 -117.82977516252893 56.021556127073644 0.0 0.0
-262.00280379923754 -1.412573963246889 -79.02461332874533 64.73829427445104 0.0 0.0
-126.2702864478784 -4.7575066043361955 -39.308337915664374 55.90767913306209 0.0 0.0
-29.786207578357807 -3.3903714040078565 -9.952973694709698 18.85282132979133 0.0 0.0
-22.656211232671485 3.003724755033053 -5.895745943291528 -3.0892645066931808 0.0 0.0
-122.14124526101745 1.7675653119689976 -36.11210398471452 -22.62374885634385 0.0 0.0
-285.1891080189782 -2.2856520153747386 -86.24242801030586 -26.68160778713107 0.0 0.0
-441.2886972497712 16.778168254899086 -132.75638660480797 -22.4698385726438 0.0 0.0
-549.5514001686508 21.993048191834788 -204.09086267037327 -13.107423079902876 0.0 0.0
-629.0925329056432 16.595122149971367 -281.3117468825038 -10.321387889288147 0.0 0.0
-701.0565694270274 11.680261752470685 -335.8030338127128 -11.008300408058478 0.0 0.0
-774.1689887055672 -1.9684155283245275 -383.75088201879043 -12.934630465681561 0.0 0.0
-850.652410370883 -24.61566355977544 -434.5361771136055 -14.786149984473237 0.0 0.0
-929.7496417076985 -54.68614023254867 -489.6924527204818 -15.943825188495145 0.0 0.0
-1009.2142999698107 -89.39910400647807 -547.1857179018857 -16.392510991312353 0.0 0.0
-1087.69805690355 -127.46619024315913 -605.7541443258381 -16.355387648109875 0.0 0.0
-1165.7472569902957 -168.2685419868821 -665.374569580562 -16.119406495200398 0.0 0.0
-1244.6479897948839 -212.86433884903022 -727.2501617736634 -15.576246912275984 0.0 0.0
-1325.1036474732305 -262.1269021070698 -792.1975217641188 -14.452829098215116 0.0 0.0
-1406.166988224004 -315.53050990624513 -859.4874867977605 -12.467736670360644 0.0 0.0
-1485.9799355990383 -372.1616678918568 -927.6983465745811 -10.08126489119017 0.0 0.0
-1571.1462748774475 -440.3501442216248 -1004.2062643802523 -11.841301064995228 0.0 0.0
-1696.5078609047428 -558.6560527198578 -1125.7718365433807 -27.816515155075834 0.0 0.0
-2012.063751568524 -886.6984285468898 -1448.0363730464246 -60.33557538062132 0.0 0.0
-2012.0637515686337 -886.6984285470671 -1448.0363730464428 60.33557538079233 0.0 0.0
-1696.507860906293 -558.6560527214787 -1125.7718365443327 27.816515155147655 0.0 0.0
-1571.146274877906 -440.3501442221667 -1004.2062643804575 11.841301064994964 0.0 0.0
-1485.9799355990995 -372.16166789203737 -927.6983465746548 10.081264891226766 0.0 0.0
-1406.1669882233791 -315.5305099057528 -859.4874867972854 12.467736670329218 0.0 0.0
-1325.1036474720504 -262.1269021060492 -792.197521763218 14.452829098116835 0.0 0.0
-1244.647989795273 -212.86433884960508 -727.2501617739042 15.57624691246033 0.0 0.0
-1165.7472569898869 -168.2685419866845 -665.3745695802754 16.119406495224972 0.0 0.0
-1087.6980569035056 -127.46619024336628 -605.7541443257817 16.355387648116714 0.0 0.0
-1009.2142999688353 -89.39910400575536 -547.1857179012177 16.3925109913614 0.0 0.0
-929.7496417073296 -54.68614023246323 -489.6924527202072 15.94382518847225 0.0 0.0
-850.6524103700676 -24.615663559240062 -434.5361771131036 14.786149984342941 0.0 0.0
-774.1689887056972 -1.9684155287745142 -383.75088201889196 12.934630465664602 0.0 0.0
-701.056569427112 11.680261752084142 -335.80303381276553 11.008300408016648 0.0 0.0
-629.0925329046488 16.595122150689775 -281.31174688182125 10.321387889333472 0.0 0.0
-549.5514001677878 21.9930481924093 -204.09086266976286 13.10742307995181 0.0 0.0
-441.2886972496633 16.77816825447314 -132.75638660484702 22.469838572677588 0.0 0.0
-285.1891080185775 -2.2856520151542163 -86.2424280101195 26.68160778730615 0.0 0.0
-122.14124526078504 1.7675653123003983 -36.11210398454539 22.62374885642071 0.0 0.0
-22.656211232756682 3.003724754956125 -5.895745943340167 3.0892645065266473 0.0 0.0
SCALARS Strain float 6
LOOKUP_TABLE default
0.012809675713677835 -0.01387863007412743 0.0 -0.0077256631288875055 0.0 0.0
0.0026228314946962136 -0.001742074681865713 0.0 0.00130045064208123 0.0 0.0
0.0018761161563595544 -0.0007712808931198412 0.0 -3.561165062954119e-05 0.0 0.0
0.002447992229834623 -0.0012290545853452794 0.0 -0.00023917826845670787 0.0 0.0
0.004000618861762013 -0.002520898451036979 0.0 -0.00031510533987655354 0.0 0.0
0.007194974751675503 -0.005413825337997613 0.0 -0.0004993728340011994 0.0 0.0
0.012418074740491917 -0.01037043230345569 0.0 -0.0008170721796304514 0.0 0.0
0.02002805109788415 -0.017708977585084718 0.0 -0.0013149406091974014 0.0 0.0
0.030204618694635785 -0.02758605888377641 0.0 -0.0020109749648318243 0.0 0.0
0.042906422603560646 -0.03995988890380575 0.0 -0.002843646818405543 0.0 0.0
0.0579479278412571 -0.054657265834248125 0.0 -0.00370709481740894 0.0 0.0
0.07509988614882857 -0.07145718253814248 0.0 -0.004546472113421296 0.0 0.0
0.09412815403433648 -0.09012813271697295 0.0 -0.005368132796822467 0.0 0.0
0.11476012014469218 -0.11039319703052275 0.0 -0.006160887525432701 0.0 0.0
0.13656669164297927 -0.13181999754542728 0.0 -0.006880043126231694 0.0 0.0
0.15883117157504423 -0.15369596736508528 0.0 -0.007377063013326524 0.0 0.0
0.1804975204864813 -0.1749781384508502 0.0 -0.0074043169344490956 0.0 0.0
0.2002116848423752 -0.1943251468890237 0.0 -0.006754640245489996 0.0 0.0
0.21636424327988443 -0.21012594536418217 0.0 -0.005834339577205472 0.0 0.0
0.2265430423703676 -0.2197393636259335 0.0 -0.007057096420428621 0.0 0.0
0.22654304237035308 -0.21973936362592106 0.0 0.007057096420437614 0.0 0.0
0.21636424327983536 -0.2101259453641422 0.0 0.005834339577230119 0.0 0.0
0.2002116848422981 -0.19432514688895175 0.0 0.0067546402455039845 0.0 0.0
0.18049752048638204 -0.17497813845075472 0.0 0.00740431693445609 0.0 0.0
0.15883117157493665 -0.15369596736497737 0.0 0.007377063013318641 0.0 0.0
0.136566691642868 -0.13181999754531182 0.0 0.006880043126228141 0.0 0.0
0.11476012014458109 -0.1103931970304104 0.0 0.006160887525433978 0.0 0.0
0.09412815403422864 -0.09012813271686504 0.0 0.005368132796823355 0.0 0.0
0.07509988614872476 -0.07145718253804167 0.0 0.0045464721134141906 0.0 0.0
0.05794792784116404 -0.05465726583415753 0.0 0.003707094817402501 0.0 0.0
0.042906422603482375 -0.03995988890372759 0.0 0.0028436468183916652 0.0 0.0
0.030204618694575358 -0.027586058883715125 0.0 0.002010974964830048 0.0 0.0
0.020028051097839505 -0.017708977585039642 0.0 0.0013149406091913507 0.0 0.0
0.012418074740461693 -0.010370432303423494 0.0 0.0008170721796281755 0.0 0.0
0.007194974751657535 -0.0054138253379794055 0.0 0.0004993728339999781 0.0 0.0
0.004000618861754235 -0.0025208984510283194 0.0 0.0003151053398779968 0.0 0.0
0.0024479922298327184 -0.0012290545853438362 0.0 0.00023917826845465395 0.0 0.0
0.001876116156359131 -0.000771280893119286 0.0 3.561165062981875e-05 0.0 0.0
0.002622831494694222 -0.0017420746818632704 0.0 -0.0013004506420792317 0.0 0.0
0.012809675713666924 -0.013878630074113288 0.0 0.007725663128850702 0.0 0.0
0.009179672319389404 -0.01062672176211843 0.0 -0.009405749706791644 0.0 0.0
0.0014063408255559282 -0.0008724805666836533 0.0 0.0001226862553241892 0.0 0.0
0.0015979232830912946 -0.0005614486802619778 0.0 -0.00012582577594727473 0.0 0.0
0.002131246512665483 -0.0010128506036892748 0.0 -0.0005026516702030248 0.0 0.0
0.003373485479091644 -0.0019948837739449665 0.0 -0.0006982882119064282 0.0 0.0
0.006116129798782968 -0.004422463719980785 0.0 -0.0011484997062535252 0.0 0.0
0.010779806199378135 -0.008798017360197141 0.0 -0.0019425539532617053 0.0 0.0
0.01766499513683359 -0.015405237108411018 0.0 -0.003114338608651568 0.0 0.0
0.02688601636671826 -0.0243340721963774 0.0 -0.004668831111573568 0.0 0.0
0.03835139784777393 -0.035489160947609566 0.0 -0.006461604593162473 0.0 0.0
0.051863079100174236 -0.04868196958413051 0.0 -0.008292075486826367 0.0 0.0
0.06722575256936511 -0.06372185497541016 0.0 -0.01004741422963984 0.0 0.0
0.08427006430265006 -0.08043770478998269 0.0 -0.011781545277880612 0.0 0.0
0.10277671534954157 -0.09860816535922323 0.0 -0.013496640780300717 0.0 0.0
0.12237881830962899 -0.11786545418119854 0.0 -0.015062861555468543 0.0 0.0
0.14247101799679246 -0.13760630405904362 0.0 -0.016188567055076875 0.0 0.0
0.16214333696545308 -0.15692536432580617 0.0 -0.01640722478057699 0.0 0.0
0.18014886362499863 -0.1745763236702924 0.0 -0.01542004112606965 0.0 0.0
0.19475557504927168 -0.18878223414733597 0.0 -0.013581663382522757 0.0 0.0
0.20356714427020228 -0.19728633349625024 0.0 -0.010708898874819739 0.0 0.0
0.20356714427018807 -0.1972863334962307 0.0 0.010708898874846717 0.0 0.0
0.1947555750492268 -0.18878223414727913 0.0 0.013581663382565057 0.0 0.0
0.1801488636249307 -0.17457632367022224 0.0 0.015420041126097628 0.0 0.0
0.16214333696536729 -0.15692536432571913 0.0 0.016407224780591312 0.0 0.0
0.14247101799669692 -0.1376063040589477 0.0 0.01618856705507221 0.0 0.0
0.12237881830952924 -0.1178654541810995 0.0 0.015062861555465212 0.0 0.0
0.1027767153494411 -0.09860816535912198 0.0 0.01349664078029722 0.0 0.0
0.0842700643025539 -0.08043770478989032 0.0 0.011781545277874783 0.0 0.0
0.06722575256927249 -0.06372185497532179 0.0 0.010047414229625518 0.0 0.0
0.05186307910009047 -0.04868196958404658 0.0 0.008292075486814099 0.0 0.0
0.038351397847703805 -0.03548916094754073 0.0 0.0064616045931439325 0.0 0.0
0.026886016366663268 -0.024334072196323664 0.0 0.004668831111566796 0.0 0.0
0.017664995136793205 -0.015405237108370162 0.0 0.003114338608642464 0.0 0.0
0.010779806199351427 -0.00879801736017316 0.0 0.0019425539532579306 0.0 0.0
0.006116129798768022 -0.004422463719966574 0.0 0.0011484997062489177 0.0 0.0
0.003373485479085614 -0.001994883773936973 0.0 0.0006982882119050404 0.0 0.0
0.002131246512663998 -0.0010128506036864993 0.0 0.0005026516702041905 0.0 0.0
0.0015979232830913848 -0.0005614486802635321 0.0 0.00012582577594949518 0.0 0.0
0.0014063408255557963 -0.0008724805666827651 0.0 -0.00012268625532657618 0.0 0.0
0.009179672319375165 -0.010626721762102213 0.0 0.009405749706759448 0.0 0.0
0.006842183248177987 -0.008467297098962712 0.0 -0.00874848002033457 0.0 0.0
0.0008219539582315985 -0.0005737360921470591 0.0 -0.0005994021188608367 0.0 0.0
0.001278321430683453 -0.00040984050796699645 0.0 -0.00044263816284439983 0.0 0.0
0.0018332666449508497 -0.0008156130259784344 0.0 -0.0007476000581479458 0.0 0.0
0.002815167668880972 -0.0015539487835072308 0.0 -0.0010193526598359925 0.0 0.0
0.005082260343153434 -0.0034950964680808827 0.0 -0.0016260517821130027 0.0 0.0
0.009155480554313679 -0.007252014128923401 0.0 -0.002774331008230213 0.0 0.0
0.015274164018919748 -0.013087678884946108 0.0 -0.004492279434153368 0.0 0.0
0.023501718334758406 -0.021029054794415192 0.0 -0.006719315742813814 0.0 0.0
0.03370595081877269 -0.030941695801756985 0.0 -0.009249471282446464 0.0 0.0
0.04568130287781279 -0.04262315511904324 0.0 -0.011831257770127224 0.0 0.0
0.0592559981825241 -0.05590250491238269 0.0 -0.014320534689813313 0.0 0.0
0.07430159103241532 -0.07064914394134592 0.0 -0.016759069177152863 0.0 0.0
0.09066052439991797 -0.0867040368678289 0.0 -0.019184543643008867 0.0 0.0
0.10804724794603102 -0.10378208025130053 0.0 -0.021439226808483647 0.0 0.0
0.12597559193387825 -0.12139596996019364 0.0 -0.02311056436490283 0.0 0.0
0.14368026889719215 -0.13877652300978838 0.0 -0.023638328150081822 0.0 0.0
0.15999798093095038 -0.15474608621407526 0.0 -0.022581965235903834 0.0 0.0
0.17324113454460857 -0.16764859806191357 0.0 -0.019455630127758305 0.0 0.0
0.18149070528984984 -0.17565002053733725 0.0 -0.013261986070158494 0.0 0.0
0.18149070528983569 -0.17565002053733458 0.0 0.013261986070204013 0.0 0.0
0.17324113454456833 -0.16764859806188603 0.0 0.019455630127817813 0.0 0.0
0.1599979809308902 -0.15474608621401753 0.0 0.02258196523594591 0.0 0.0
0.14368026889711788 -0.13877652300971555 0.0 0.023638328150101695 0.0 0.0
0.12597559193379412 -0.12139596996011504 0.0 0.02311056436489156 0.0 0.0
0.10804724794594289 -0.1037820802512126 0.0 0.021439226808477208 0.0 0.0
0.0906605243998283 -0.0867040368677432 0.0 0.01918454364300226 0.0 0.0
0.07430159103233058 -0.0706491439412602 0.0 0.01675906917714365 0.0 0.0
0.05925599818244309 -0.05590250491230231 0.0 0.014320534689795439 0.0 0.0
0.04568130287773903 -0.04262315511896908 0.0 0.011831257770109294 0.0 0.0
0.033705950818710695 -0.030941695801696145 0.0 0.009249471282423705 0.0 0.0
0.023501718334709376 -0.021029054794369895 0.0 0.006719315742804044 0.0 0.0
0.015274164018883984 -0.013087678884913245 0.0 0.004492279434142765 0.0 0.0
0.009155480554290107 -0.007252014128899864 0.0 0.002774331008224329 0.0 0.0
0.005082260343141409 -0.0034950964680691143 0.0 0.0016260517821081732 0.0 0.0
0.0028151676688766836 -0.0015539487835027899 0.0 0.0010193526598324953 0.0 0.0
0.0018332666449493717 -0.0008156130259758809 0.0 0.0007476000581477793 0.0 0.0
0.0012783214306840152 -0.00040984050796599725 0.0 0.0004426381628427345 0.0 0.0
0.000821953958231314 -0.0005737360921444501 0.0 0.0005994021188586163 0.0 0.0
0.006842183248164435 -0.008467297098948254 0.0 0.008748480020310978 0.0 0.0
0.005195130491326333 -0.006835760981236116 0.0 -0.007450197303047246 0.0 0.0
0.0005135168490484066 -0.00042680795658767146 0.0 -0.001204908513374181 0.0 0.0
0.0009902197223798787 -0.00029951230833302755 0.0 -0.0008709788558875498 0.0 0.0
0.0015474224404155995 -0.0006474179002768921 0.0 -0.0010201464143912986 0.0 0.0
0.0023230141235265483 -0.0011975670174657616 0.0 -0.001305198663347995 0.0 0.0
0.004128780840087193 -0.0026714429340557455 0.0 -0.001960302225938404 0.0 0.0
0.0075606901130039345 -0.00576326153765816 0.0 -0.003322910993185879 0.0 0.0
0.012884607505057127 -0.01078515182576023 0.0 -0.005443009267556476 0.0 0.0
0.020086402537090375 -0.01770883157687031 0.0 -0.008153628344313935 0.0 0.0
0.02900911058408588 -0.026357783562753756 0.0 -0.01121240580771693 0.0 0.0
0.03943886859754811 -0.03651762901798339 0.0 -0.014326284153129143 0.0 0.0
0.0512210075642916 -0.04803127332923074 0.0 -0.017349161796445467 0.0 0.0
0.06426378606853037 -0.060805015441416366 0.0 -0.020325262975400882 0.0 0.0
0.07846248969953307 -0.07473155656759678 0.0 -0.023247341215844153 0.0 0.0
0.09361376139037128 -0.08961043733933627 0.0 -0.025967688004993772 0.0 0.0
0.10935776674218986 -0.10507761738577592 0.0 -0.028107456790611773 0.0 0.0
0.1250751105709913 -0.12050047114436158 0.0 -0.029034072755920626 0.0 0.0
0.13974467590222675 -0.13485604037245036 0.0 -0.0279855974930735 0.0 0.0
0.1519035333641749 -0.14671289820491396 0.0 -0.023869428026120465 0.0 0.0
0.15992514071307662 -0.1545110271371053 0.0 -0.015335252679060885 0.0 0.0
0.1599251407130624 -0.15451102713709108 0.0 0.01533525267911584 0.0 0.0
0.15190353336413912 -0.14671289820488376 0.0 0.023869428026191408 0.0 0.0
0.1397446759021737 -0.1348560403723944 0.0 0.02798559749312257 0.0 0.0
0.12507511057092688 -0.12050047114429319 0.0 0.02903407275594294 0.0 0.0
0.109357766742117 -0.1050776173857022 0.0 0.02810745679060256 0.0 0.0
0.09361376139029415 -0.08961043733926166 0.0 0.025967688004982836 0.0 0.0
0.07846248969945535 -0.07473155656752928 0.0 0.023247341215834383 0.0 0.0
0.06426378606845673 -0.0608050154413462 0.0 0.020325262975388503 0.0 0.0
0.051221007564221654 -0.04803127332916013 0.0 0.017349161796425316 0.0 0.0
0.03943886859748463 -0.03651762901792299 0.0 0.014326284153107771 0.0 0.0
0.029009110584032327 -0.02635778356270224 0.0 0.011212405807687564 0.0 0.0
0.020086402537047743 -0.017708831576828565 0.0 0.00815362834429878 0.0 0.0
0.012884607505025403 -0.010785151825727812 0.0 0.005443009267542542 0.0 0.0
0.007560690112983881 -0.005763261537638176 0.0 0.0033229109931779965 0.0 0.0
0.004128780840077673 -0.0026714429340461976 0.0 0.001960302225932853 0.0 0.0
0.0023230141235237034 -0.0011975670174608766 0.0 0.001305198663345497 0.0 0.0
0.0015474224404147252 -0.0006474179002748937 0.0 0.0010201464143916317 0.0 0.0
0.0009902197223802256 -0.00029951230833547005 0.0 0.0008709788558876053 0.0 0.0
0.0005135168490478792 -0.00042680795658711634 0.0 0.0012049085133715165 0.0 0.0
0.005195130491314426 -0.006835760981223063 0.0 0.007450197303026318 0.0 0.0
0.003933584414721483 -0.005503744938043287 0.0 -0.006110755471489593 0.0 0.0
0.0003423892399812001 -0.00034332709680051643 0.0 -0.0016766463707176826 0.0 0.0
0.0007506533915335317 -0.00022132430236376788 0.0 -0.0013031181878122577 0.0 0.0
0.0012728968306960908 -0.0005058013183341092 0.0 -0.0013236865088674388 0.0 0.0
0.0018906028943987407 -0.0009154833379467764 0.0 -0.001571736974955218 0.0 0.0
0.0032731103940551592 -0.0019731704869656586 0.0 -0.0022122567594324294 0.0 0.0
0.006039395355877844 -0.004375446385144421 0.0 -0.0036103518902986798 0.0 0.0
0.0105190217735905 -0.00852996157076591 0.0 -0.0059261820181872316 0.0 0.0
0.016674288298536705 -0.014409116442271053 0.0 -0.008965263833857151 0.0 0.0
0.024297651971579015 -0.02177618840906348 0.0 -0.01234778344093862 0.0 0.0
0.0331731957971203 -0.0304044753830488 0.0 -0.015787255791885613 0.0 0.0
0.04315762286497228 -0.04014764261450887 0.0 -0.019131896956626315 0.0 0.0
0.054192767913537 -0.05094341617022646 0.0 -0.02242804948313576 0.0 0.0
0.0662267682925276 -0.06273796978246304 0.0 -0.02567909258502271 0.0 0.0
0.07912844497784165 -0.07540150489134723 0.0 -0.0286990757705351 0.0 0.0
0.09264395479913376 -0.08867675212020742 0.0 -0.031135485242527627 0.0 0.0
0.10632075050328016 -0.10210046839470888 0.0 -0.03242681746925569 0.0 0.0
0.11937906407329066 -0.1148849896600801 0.0 -0.03158748577307191 0.0 0.0
0.13062645277457852 -0.12586039535364613 0.0 -0.027028901021451723 0.0 0.0
0.13863481758880813 -0.13365131582651646 0.0 -0.01708084517303954 0.0 0.0
0.13863481758879517 -0.13365131582650402 0.0 0.017080845173098047 0.0 0.0
0.1306264527745466 -0.12586039535361593 0.0 0.02702890102152755 0.0 0.0
0.11937906407324478 -0.11488498966003036 0.0 0.03158748577312731 0.0 0.0
0.10632075050322581 -0.10210046839465381 0.0 0.032426817469280556 0.0 0.0
0.092643954799071 -0.08867675212014392 0.0 0.0311354852425203 0.0 0.0
0.07912844497777533 -0.07540150489127662 0.0 0.02869907577052211 0.0 0.0
0.06622676829246238 -0.06273796978239154 0.0 0.025679092585011998 0.0 0.0
0.0541927679134748 -0.05094341617016651 0.0 0.022428049483126267 0.0 0.0
0.04315762286491337 -0.04014764261445336 0.0 0.019131896956606664 0.0 0.0
0.03317319579706651 -0.030404475383002616 0.0 0.01578725579186324 0.0 0.0
0.024297651971533663 -0.02177618840902351 0.0 0.012347783440910587 0.0 0.0
0.01667428829850065 -0.014409116442239078 0.0 0.008965263833838222 0.0 0.0
0.01051902177356373 -0.008529961570747258 0.0 0.005926182018169968 0.0 0.0
0.006039395355861954 -0.004375446385131099 0.0 0.003610351890290242 0.0 0.0
0.0032731103940477624 -0.001973170486958553 0.0 0.0022122567594278775 0.0 0.0
0.0018906028943964648 -0.0009154833379436678 0.0 0.0015717369749524424 0.0 0.0
0.0012728968306960353 -0.0005058013183347754 0.0 0.0013236865088639416 0.0 0.0
0.0007506533915332403 -0.00022132430236265765 0.0 0.0013031181878089826 0.0 0.0
0.000342389239980867 -0.00034332709679862905 0.0 0.0016766463707139079 0.0 0.0
0.0039335844147119214 -0.005503744938032528 0.0 0.006110755471473439 0.0 0.0
0.0029344594477606345 -0.004385906398360062 0.0 -0.004932337886720928 0.0 0.0
0.000239247479603244 -0.00028742634166856185 0.0 -0.0020289407420736594 0.0 0.0
0.0005509582719058354 -0.00016245010386761738 0.0 -0.0016830611888215552 0.0 0.0
0.0010058496320740073 -0.0003821772453611594 0.0 -0.0016315679742714417 0.0 0.0
0.0015085262475906802 -0.0006923556743485548 0.0 -0.0018324067383550524 0.0 0.0
0.0025130015911799114 -0.001406682935755743 0.0 -0.002412858382902172 0.0 0.0
0.004636083780527975 -0.0031459355001648426 0.0 -0.0037453662386388586 0.0 0.0
0.008224213404661632 -0.006384208074316167 0.0 -0.006019736514813023 0.0 0.0
0.013295938217698908 -0.011167646255875852 0.0 -0.009126933942041615 0.0 0.0
0.01960819934328488 -0.017236759578470373 0.0 -0.012644581797840893 0.0 0.0
0.026920846853025773 -0.024325002263731133 0.0 -0.016198303032560257 0.0 0.0
0.035105234918014774 -0.03229404248489054 0.0 -0.019658825216320508 0.0 0.0
0.044130483898657216 -0.04111013783942852 0.0 -0.02307416724585931 0.0 0.0
0.05399283851884648 -0.05076598995553594 0.0 -0.026433506944210095 0.0 0.0
0.06463240381931201 -0.061199247682758084 0.0 -0.029577148694902466 0.0 0.0
0.07587875110400497 -0.07224255308037897 0.0 -0.032183263758228664 0.0 0.0
0.08744247722215484 -0.08360049706671902 0.0 -0.03373503189810512 0.0 0.0
0.09885228310849276 -0.09478519778449712 0.0 -0.03327322426541146 0.0 0.0
0.1092613299496932 -0.1049505225683589 0.0 -0.028923482431724934 0.0 0.0
0.11741009546728864 -0.11287480079034395 0.0 -0.018542303390274295 0.0 0.0
0.11741009546727774 -0.11287480079032708 0.0 0.018542303390333692 0.0 0.0
0.10926132994966528 -0.10495052256832693 0.0 0.028923482431801206 0.0 0.0
0.09885228310845448 -0.09478519778447048 0.0 0.03327322426546786 0.0 0.0
0.08744247722210982 -0.08360049706667017 0.0 0.033735031898128764 0.0 0.0
0.07587875110395265 -0.07224255308032257 0.0 0.03218326375822045 0.0 0.0
0.06463240381925653 -0.061199247682711455 0.0 0.0295771486948887 0.0 0.0
0.05399283851879347 -0.05076598995548576 0.0 0.02643350694419888 0.0 0.0
0.044130483898607326 -0.04111013783937656 0.0 0.023074167245846988 0.0 0.0
0.035105234917967326 -0.03229404248484302 0.0 0.01965882521630069 0.0 0.0
0.026920846852981267 -0.024325002263685835 0.0 0.01619830303253611 0.0 0.0
0.0196081993432482 -0.01723675957843218 0.0 0.01264458179781014 0.0 0.0
0.013295938217668946 -0.011167646255844321 0.0 0.009126933942022464 0.0 0.0
0.00822421340464044 -0.006384208074293518 0.0 0.0060197365147992565 0.0 0.0
0.004636083780516137 -0.003145935500156183 0.0 0.0037453662386310316 0.0 0.0
0.0025130015911747072 -0.0014066829357533006 0.0 0.0024128583828962324 0.0 0.0
0.0015085262475890149 -0.0006923556743501091 0.0 0.0018324067383521658 0.0 0.0
0.0010058496320741184 -0.0003821772453632688 0.0 0.0016315679742701095 0.0 0.0
0.0005509582719057937 -0.00016245010386695125 0.0 0.0016830611888190017 0.0 0.0
0.0002392474796027999 -0.00028742634166756265 0.0 0.002028940742073493 0.0 0.0
0.0029344594477532793 -0.004385906398351394 0.0 0.004932337886710159 0.0 0.0
0.0021376402291554963 -0.0034399322424909506 0.0 -0.003953152064622212 0.0 0.0
0.00016824206034207756 -0.0002459301851667206 0.0 -0.002277021481038255 0.0 0.0
0.0003769437459971853 -0.00011244031769552798 0.0 -0.0019879624023221854 0.0 0.0
0.0007434363764794033 -0.00026620627498075145 0.0 -0.0019173213312971837 0.0 0.0
0.0011571997863268901 -0.0005085196206275899 0.0 -0.002092450269940982 0.0 0.0
0.0018504331926201545 -0.0009599316409683034 0.0 -0.0025675430753714923 0.0 0.0
0.0033630356287527863 -0.002100286976361776 0.0 -0.003727533181839271 0.0 0.0
0.006062660269562856 -0.004419626508823438 0.0 -0.005798494268946575 0.0 0.0
0.010002165221031561 -0.008052994572111505 0.0 -0.008689291081658779 0.0 0.0
0.0149758956543153 -0.012784412955034519 0.0 -0.01207119174996496 0.0 0.0
0.020717479038045133 -0.01832232102687703 0.0 -0.01554634952731282 0.0 0.0
0.027103202941526294 -0.02451711292901182 0.0 -0.018916776383458234 0.0 0.0
0.034119586004695335 -0.03135448483951686 0.0 -0.022230150604531596 0.0 0.0
0.04180467881414113 -0.03886691141379517 0.0 -0.02550671594758569 0.0 0.0
0.050164502027909896 -0.04705466308914463 0.0 -0.02859169384293403 0.0 0.0
0.05911187465672563 -0.055829124064051605 0.0 -0.031166233590849468 0.0 0.0
0.06848077105031469 -0.06504088532203234 0.0 -0.03285775327974971 0.0 0.0
0.07812030229197053 -0.0745174432887179 0.0 -0.03293296645322685 0.0 0.0
0.08764133794612866 -0.08383113395770803 0.0 -0.029451960238979336 0.0 0.0
0.09602867540615309 -0.09197544892224485 0.0 -0.01970388193576411 0.0 0.0
0.09602867540614507 -0.09197544892224041 0.0 0.019703881935822398 0.0 0.0
0.08764133794610565 -0.08383113395769737 0.0 0.029451960239052832 0.0 0.0
0.0781203022919395 -0.07451744328868948 0.0 0.032932966453283585 0.0 0.0
0.06848077105027853 -0.06504088532199237 0.0 0.032857753279773916 0.0 0.0
0.059111874656684466 -0.05582912406401608 0.0 0.03116623359084003 0.0 0.0
0.050164502027865515 -0.04705466308910422 0.0 0.028591693842919153 0.0 0.0
0.04180467881410055 -0.038866911413762306 0.0 0.02550671594757381 0.0 0.0
0.03411958600465784 -0.03135448483948178 0.0 0.02223015060452116 0.0 0.0
0.02710320294148974 -0.024517112928968743 0.0 0.018916776383436473 0.0 0.0
0.0207174790380103 -0.018322321026841948 0.0 0.015546349527285841 0.0 0.0
0.014975895654286947 -0.012784412955010094 0.0 0.012071191749935761 0.0 0.0
0.010002165221008746 -0.008052994572091965 0.0 0.008689291081638517 0.0 0.0
0.006062660269547299 -0.004419626508813224 0.0 0.005798494268932253 0.0 0.0
0.0033630356287442376 -0.0021002869763533383 0.0 0.0037275331818313884 0.0 0.0
0.001850433192616796 -0.0009599316409656389 0.0 0.002567543075365386 0.0 0.0
0.0011571997863261685 -0.0005085196206302545 0.0 0.0020924502699383174 0.0 0.0
0.0007434363764792784 -0.0002662062749815286 0.0 0.0019173213312957404 0.0 0.0
0.00037694374599739344 -0.00011244031769541696 0.0 0.0019879624023187437 0.0 0.0
0.00016824206034166123 -0.00024593018516544385 0.0 0.002277021481034369 0.0 0.0
0.00213764022914964 -0.0034399322424844316 0.0 0.00395315206461283 0.0 0.0
0.0015134806742755635 -0.0026544089582841157 0.0 -0.003176930701435765 0.0 0.0
0.00010506624063535974 -0.0002110164497021172 0.0 -0.0024245887542512223 0.0 0.0
0.0002166163971229207 -6.332575484624403e-05 0.0 -0.0022171873471419357 0.0 0.0
0.00048584166631993053 -0.00015207482400825256 0.0 -0.00215603968842093 0.0 0.0
0.000813743689800861 -0.0003426364245040503 0.0 -0.002334094014994126 0.0 0.0
0.0012748602399242914 -0.0006203803156741294 0.0 -0.0027344933320742615 0.0 0.0
0.0022357375181385475 -0.0012644439119160467 0.0 -0.0036288912343158675 0.0 0.0
0.004071359067373714 -0.0027032558365434056 0.0 -0.005309315802670356 0.0 0.0
0.006862160023175773 -0.005157983671636668 0.0 -0.007747656759431121 0.0 0.0
0.010452350269835847 -0.008497137711719116 0.0 -0.010679528241931524 0.0 0.0
0.014603382410651178 -0.01245476896878106 0.0 -0.013789449957805955 0.0 0.0
0.019189121575792334 -0.01687284841140979 0.0 -0.01685651984425096 0.0 0.0
0.024202323918161184 -0.021735455376597823 0.0 -0.019874266973182286 0.0 0.0
0.029704678636577914 -0.02709943128117054 0.0 -0.022850483318257675 0.0 0.0
0.03576504318681861 -0.03302433744447386 0.0 -0.025695903692130262 0.0 0.0
0.042388837198358675 -0.039507061301780944 0.0 -0.02811002345645275 0.0 0.0
0.0495044451522057 -0.04649401123928776 0.0 -0.02971114839663158 0.0 0.0
0.05717037991317073 -0.054071235230432 0.0 -0.03025000811787204 0.0 0.0
0.06558178343828638 -0.06234495643274496 0.0 -0.028297707021119445 0.0 0.0
0.07422418771447062 -0.07071994843413343 0.0 -0.02047999225533248 0.0 0.0
0.07422418771446557 -0.07071994843412188 0.0 0.020479992255385326 0.0 0.0
0.06558178343826904 -0.062344956432716536 0.0 0.028297707021190055 0.0 0.0
0.05717037991314686 -0.054071235230410686 0.0 0.030250008117924332 0.0 0.0
0.04950444515217858 -0.046494011239260224 0.0 0.029711148396650122 0.0 0.0
0.04238883719832856 -0.03950706130175963 0.0 0.028110023456440647 0.0 0.0
0.035765043186786194 -0.03302433744444633 0.0 0.02569590369211472 0.0 0.0
0.029704678636550547 -0.027099431281143893 0.0 0.02285048331825057 0.0 0.0
0.024202323918135094 -0.021735455376564072 0.0 0.019874266973176735 0.0 0.0
0.01918912157576691 -0.016872848411389807 0.0 0.016856519844233198 0.0 0.0
0.014603382410626725 -0.012454768968764185 0.0 0.013789449957787525 0.0 0.0
0.010452350269815558 -0.008497137711694691 0.0 0.010679528241907765 0.0 0.0
0.0068621600231601465 -0.005157983671620681 0.0 0.007747656759416244 0.0 0.0
0.004071359067363334 -0.0027032558365369663 0.0 0.00530931580265942 0.0 0.0
0.002235737518133135 -0.0012644439119142703 0.0 0.0036288912343102053 0.0 0.0
0.0012748602399225983 -0.0006203803156734633 0.0 0.002734493332069099 0.0 0.0
0.0008137436898003891 -0.0003426364245036062 0.0 0.002334094014990462 0.0 0.0
0.00048584166631979175 -0.00015207482400925176 0.0 0.002156039688418099 0.0 0.0
0.0002166163971229762 -6.33257548465771e-05 0.0 0.002217187347139604 0.0 0.0
0.0001050662406351377 -0.0002110164497016176 0.0 0.0024245887542484468 0.0 0.0
0.0015134806742714557 -0.0026544089582787467 0.0 0.003176930701430436 0.0 0.0
0.0010476159830648535 -0.002031811044777343 0.0 -0.0025979542092861574 0.0 0.0
3.373264500020068e-05 -0.000180463871602754 0.0 -0.0024966062829211433 0.0 0.0
6.205794714819746e-05 -8.877452437050515e-06 0.0 -0.0023746908469670647 0.0 0.0
0.00023469240216192344 -4.0227944449355846e-05 0.0 -0.002338372327684801 0.0 0.0
0.0004640317602747912 -0.00017672562176707096 0.0 -0.0025288927920590343 0.0 0.0
0.0007498570095622603 -0.0003489042171433976 0.0 -0.0029153661059431735 0.0 0.0
0.0012651327611521157 -0.0006454847616463866 0.0 -0.0035441640113541006 0.0 0.0
0.0022834308084037913 -0.0013184917975075372 0.0 -0.004663226644585183 0.0 0.0
0.003935608121620637 -0.0026082166181553568 0.0 -0.006388996299841465 0.0 0.0
0.006107163167004076 -0.004507792453995574 0.0 -0.008570561291933454 0.0 0.0
0.008634103555606815 -0.006836661230819718 0.0 -0.011004288483678959 0.0 0.0
0.011400622971487862 -0.009454089575874569 0.0 -0.013508424516733841 0.0 0.0
0.014412837553891278 -0.01234039584686597 0.0 -0.016043181735862166 0.0 0.0
0.017734820008627306 -0.015555775178770492 0.0 -0.01855497745944612 0.0 0.0
0.02146834986061097 -0.019193640350151142 0.0 -0.020996345493271007 0.0 0.0
0.025726021691690165 -0.023351356170386417 0.0 -0.023186465812505164 0.0 0.0
0.030573188889745584 -0.028083390229489247 0.0 -0.024694306384948517 0.0 0.0
0.036116789129633814 -0.03356013525255097 0.0 -0.025313941346835178 0.0 0.0
0.04293112104357191 -0.0403809998267759 0.0 -0.024945575255914898 0.0 0.0
0.05162045369528734 -0.04880378007477848 0.0 -0.02058414924517271 0.0 0.0
0.05162045369528376 -0.04880378007477848 0.0 0.020584149245215677 0.0 0.0
0.04293112104356214 -0.040380999826782116 0.0 0.02494557525597585 0.0 0.0
0.03611678912961774 -0.03356013525254298 0.0 0.02531394134688758 0.0 0.0
0.030573188889727376 -0.02808339022946349 0.0 0.02469430638496284 0.0 0.0
0.025726021691671652 -0.02335135617036821 0.0 0.023186465812488843 0.0 0.0
0.02146834986059168 -0.019193640350131158 0.0 0.02099634549325502 0.0 0.0
0.01773482000861329 -0.01555577517875717 0.0 0.01855497745943946 0.0 0.0
0.0144128375538769 -0.012340395846858865 0.0 0.016043181735857392 0.0 0.0
0.011400622971473595 -0.009454089575862135 0.0 0.013508424516718076 0.0 0.0
0.008634103555593464 -0.006836661230801955 0.0 0.011004288483661306 0.0 0.0
0.006107163166992474 -0.004507792453983583 0.0 0.008570561291913581 0.0 0.0
0.003935608121612089 -0.002608216618146475 0.0 0.006388996299832472 0.0 0.0
0.002283430808398129 -0.00131849179750132 0.0 0.004663226644580909 0.0 0.0
0.0012651327611490348 -0.0006454847616435 0.0 0.003544164011352824 0.0 0.0
0.0007498570095615942 -0.00034890421714361963 0.0 0.0029153661059395097 0.0 0.0
0.0004640317602745969 -0.00017672562176707096 0.0 0.0025288927920564253 0.0 0.0
0.00023469240216181242 -4.022794444724642e-05 0.0 0.0023383723276835244 0.0 0.0
6.205794714825297e-05 -8.877452436162336e-06 0.0 0.0023746908469673977 0.0 0.0
3.373264500000639e-05 -0.00018046387160397526 0.0 0.0024966062829190894 0.0 0.0
0.0010476159830623277 -0.002031811044774401 0.0 0.0025979542092819385 0.0 0.0
0.0007147186233063818 -0.0015546623317401753 0.0 -0.002181038112678335 0.0 0.0
-4.754303400159032e-05 -0.00015561116334306124 0.0 -0.002524335562206881 0.0 0.0
-9.051152680611407e-05 5.2975206949024134e-05 0.0 -0.0024724282253897334 0.0 0.0
-9.80576240230957e-06 6.882291034471244e-05 0.0 -0.002461801686623022 0.0 0.0
0.00010988907271314297 -7.077416234180234e-06 0.0 -0.002646856957531585 0.0 0.0
0.00023415435231743942 -9.634225736121493e-05 0.0 -0.00305487186405079 0.0 0.0
0.0004045758592052806 -0.00019543674084454565 0.0 -0.003601019515317272 0.0 0.0
0.0007207501769790903 -0.00035842478791803245 0.0 -0.004213992410354583 0.0 0.0
0.0012661752309868213 -0.0006641690002666678 0.0 -0.00504716346755163 0.0 0.0
0.001994073497017357 -0.0011472353806967206 0.0 -0.006268235121545951 0.0 0.0
0.0028448907755734 -0.0017900413177200925 0.0 -0.007892637523322366 0.0 0.0
0.0037599111756760895 -0.002561736784875368 0.0 -0.009776775371464819 0.0 0.0
0.004752374498080386 -0.0034497988117561107 0.0 -0.011833465020415934 0.0 0.0
0.0058771394694394075 -0.004497053427495512 0.0 -0.014028369701297394 0.0 0.0
0.007255530335725124 -0.005811307078705141 0.0 -0.01632431383342481 0.0 0.0
0.009094582402982526 -0.007580619347352879 0.0 -0.018555846604312753 0.0 0.0
0.011658901417637785 -0.010043809250920077 0.0 -0.020271863475750718 0.0 0.0
0.01515398446611163 -0.013398162528400981 0.0 -0.020814146429878444 0.0 0.0
0.01995558423495314 -0.018226558185813424 0.0 -0.020578450307683016 0.0 0.0
0.027747611462559996 -0.02602222976791424 0.0 -0.019924508770519322 0.0 0.0
0.027747611462558358 -0.02602222976791424 0.0 0.01992450877055174 0.0 0.0
0.019955584234949753 -0.01822655818580099 0.0 0.02057845030773464 0.0 0.0
0.01515398446610386 -0.013398162528383217 0.0 0.020814146429910307 0.0 0.0
0.01165890141763043 -0.010043809250914748 0.0 0.020271863475750496 0.0 0.0
0.00909458240297778 -0.00758061934734755 0.0 0.018555846604297876 0.0 0.0
0.007255530335719573 -0.0058113070787060295 0.0 0.01632431383341737 0.0 0.0
0.005877139469437076 -0.004497053427495512 0.0 0.014028369701291177 0.0 0.0
0.0047523744980785265 -0.003449798811756999 0.0 0.011833465020406941 0.0 0.0
0.0037599111756737302 -0.0025617367848727035 0.0 0.009776775371452828 0.0 0.0
0.0028448907755714847 -0.0017900413177205365 0.0 0.00789263752331082 0.0 0.0
0.0019940734970148033 -0.0011472353806949442 0.0 0.006268235121533183 0.0 0.0
0.0012661752309848229 -0.0006641690002662237 0.0 0.005047163467547855 0.0 0.0
0.0007207501769779245 -0.00035842478791758836 0.0 0.004213992410351752 0.0 0.0
0.00040457585920419814 -0.0001954367408427693 0.0 0.0036010195153141633 0.0 0.0
0.0002341543523173284 -9.634225736299129e-05 0.0 0.003054871864046238 0.0 0.0
0.00010988907271364257 -7.077416234180234e-06 0.0 0.0026468569575279766 0.0 0.0
-9.805762402254059e-06 6.882291034504551e-05 0.0 0.002461801686620413 0.0 0.0
-9.051152680611407e-05 5.2975206947136755e-05 0.0 0.002472428225388068 0.0 0.0
-4.7543034001951145e-05 -0.0001556111633443935 0.0 0.0025243355622043273 0.0 0.0
0.0007147186233050773 -0.0015546623317380971 0.0 0.0021810381126764478 0.0 0.0
0.00048154890306545406 -0.0012087512108658882 0.0 -0.0019178513571672107 0.0 0.0
-0.00012954555539521073 -0.00013067665623678337 0.0 -0.0025228878951428224 0.0 0.0
-0.0002407822316536079 0.00011767572439425056 0.0 -0.00251490023053913 0.0 0.0
-0.000247779398478587 0.0001750880515811737 0.0 -0.002517911617270996 0.0 0.0
-0.00024125131594351923 0.00016185763052245505 0.0 -0.002685523174056903 0.0 0.0
-0.0002855341990719018 0.0001571472743908675 0.0 -0.003074204937476288 0.0 0.0
-0.0004236441392991841 0.00021201491761257962 0.0 -0.003612445545742915 0.0 0.0
-0.0007272695660992534 0.00036332066165778443 0.0 -0.004222614151203008 0.0 0.0
-0.001266219165877852 0.0006651364028238405 0.0 -0.005050419168165399 0.0 0.0
-0.0019931589895999247 0.0011478607623547354 0.0 -0.006267465244783388 0.0 0.0
-0.002854440068587205 0.001803093875971662 0.0 -0.007895237991502824 0.0 0.0
-0.003807347302940939 0.002608950213272454 0.0 -0.009787959831547566 0.0 0.0
-0.004848462361336209 0.003531999745145953 0.0 -0.011844576639767013 0.0 0.0
-0.0059359938227395714 0.004516078357003739 0.0 -0.01403210823595058 0.0 0.0
-0.006926433439641971 0.005418714171556704 0.0 -0.01633891631438278 0.0 0.0
-0.007544292415908899 0.005974325845476081 0.0 -0.018712551731650984 0.0 0.0
-0.007374095090863786 0.005797493045533564 0.0 -0.021121404090672202 0.0 0.0
-0.006046096003347767 0.004643642461083175 0.0 -0.023644558775692714 0.0 0.0
-0.003229289490004561 0.0023150908483069443 0.0 -0.02594978955491134 0.0 0.0
0.0037556708593443344 -0.004288436591930456 0.0 -0.02496781954809224 0.0 0.0
0.0037556708593431964 -0.004288436591928679 0.0 0.024967819548109116 0.0 0.0
-0.003229289490004561 0.002315090848306056 0.0 0.025949789554933433 0.0 0.0
-0.006046096003344631 0.004643642461078734 0.0 0.023644558775696045 0.0 0.0
-0.007374095090856736 0.0057974930455317875 0.0 0.021121404090662987 0.0 0.0
-0.007544292415898685 0.005974325845469863 0.0 0.018712551731632887 0.0 0.0
-0.006926433439634144 0.005418714171553596 0.0 0.016338916314368457 0.0 0.0
-0.005935993822730634 0.0045160783569970775 0.0 0.014032108235941254 0.0 0.0
-0.004848462361326078 0.0035319997451379592 0.0 0.011844576639757354 0.0 0.0
-0.0038073473029302807 0.0026089502132609077 0.0 0.009787959831531912 0.0 0.0
-0.0028544400685777682 0.0018030938759614479 0.0 0.007895237991486725 0.0 0.0
-0.0019931589895927637 0.001147860762347186 0.0 0.006267465244769732 0.0 0.0
-0.0012662191658736333 0.0006651364028225082 0.0 0.005050419168161291 0.0 0.0
-0.0007272695660968664 0.00036332066165845056 0.0 0.0042226141512005655 0.0 0.0
-0.00042364413929801836 0.0002120149176114694 0.0 0.0036124455457375304 0.0 0.0
-0.00028553419907142996 0.00015714727439219978 0.0 0.0030742049374713476 0.0 0.0
-0.00024125131594301963 0.00016185763052112279 0.0 0.002685523174054294 0.0 0.0
-0.0002477793984783372 0.00017508805157884222 0.0 0.0025179116172688865 0.0 0.0
-0.00024078223165358015 0.00011767572439524976 0.0 0.0025149002305381307 0.0 0.0
-0.00012954555539518298 -0.0001306766562358952 0.0 0.0025228878951429334 0.0 0.0
0.00048154890306484344 -0.0012087512108642957 0.0 0.0019178513571659894 0.0 0.0
0.00032199221711709525 -0.000951970306732608 0.0 -0.0017311146605918926 0.0 0.0
-0.00020427584381124686 -9.913277419504318e-05 0.0 -0.002477695555456183 0.0 0.0
-0.0003858196016645332 0.00017978101405624614 0.0 -0.002504899655562942 0.0 0.0
-0.00047816495368255274 0.0002775581413867467 0.0 -0.0025027926044563498 0.0 0.0
-0.000585012856395839 0.00032548285003430877 0.0 -0.0026388964948493854 0.0 0.0
-0.0008000177862043378 0.00040965694023542554 0.0 -0.002975678566517148 0.0 0.0
-0.0012836583407929703 0.0006640184820612127 0.0 -0.003579202305724727 0.0 0.0
-0.0022873340335390346 0.0013238751742048471 0.0 -0.0046828923300578085 0.0 0.0
-0.003933692552525764 0.0026078903794770625 0.0 -0.006393591238418761 0.0 0.0
-0.006106746788099249 0.00450962608847183 0.0 -0.008570813211396744 0.0 0.0
-0.008646586171363185 0.006853626116765987 0.0 -0.011004599215122202 0.0 0.0
-0.011446078768279438 0.009503706239541998 0.0 -0.01349357947172325 0.0 0.0
-0.014498782214447198 0.012420007194295035 0.0 -0.0159903434498756 0.0 0.0
-0.017776327710586765 0.01556177845505502 0.0 -0.018488648111389727 0.0 0.0
-0.021127740232852604 0.018772857528503994 0.0 -0.021064245278728744 0.0 0.0
-0.024221035139326497 0.02172983024149122 0.0 -0.023781946472722137 0.0 0.0
-0.02656215353821481 0.02396294258560161 0.0 -0.026733014721911807 0.0 0.0
-0.027586137279015654 0.02492105568963776 0.0 -0.029822106197774367 0.0 0.0
-0.026233970202384355 0.0233048467005883 0.0 -0.03125820534101742 0.0 0.0
-0.01922940631217515 0.015983169780670714 0.0 -0.029128987813457075 0.0 0.0
-0.01922940631217704 0.015983169780679596 0.0 0.02912898781349549 0.0 0.0
-0.026233970202380746 0.02330484670058297 0.0 0.03125820534107404 0.0 0.0
-0.027586137279002 0.024921055689617333 0.0 0.029822106197804343 0.0 0.0
-0.026562153538193634 0.02396294258557674 0.0 0.02673301472191314 0.0 0.0
-0.024221035139302682 0.02172983024146502 0.0 0.023781946472703708 0.0 0.0
-0.021127740232831427 0.018772857528488007 0.0 0.021064245278709204 0.0 0.0
-0.01777632771056517 0.015561778455031927 0.0 0.018488648111375183 0.0 0.0
-0.01449878221442541 0.012420007194274163 0.0 0.01599034344986472 0.0 0.0
-0.011446078768256124 0.00950370623951402 0.0 0.013493579471703043 0.0 0.0
-0.008646586171343118 0.006853626116743783 0.0 0.011004599215101885 0.0 0.0
-0.006106746788082595 0.0045096260884553985 0.0 0.008570813211372319 0.0 0.0
-0.003933692552514356 0.0026078903794628516 0.0 0.00639359123840566 0.0 0.0
-0.002287334033532845 0.0013238751741981858 0.0 0.004682892330051314 0.0 0.0
-0.0012836583407893065 0.0006640184820561057 0.0 0.003579202305718898 0.0 0.0
-0.0008000177862030333 0.00040965694023453736 0.0 0.002975678566512152 0.0 0.0
-0.0005850128563949508 0.00032548285003519695 0.0 0.002638896494845111 0.0 0.0
-0.00047816495368230294 0.0002775581413886341 0.0 0.002502792604454296 0.0 0.0
-0.0003858196016642834 0.00017978101405691227 0.0 0.002504899655560444 0.0 0.0
-0.0002042758438109138 -9.913277419548727e-05 0.0 0.002477695555455073 0.0 0.0
0.0003219922171166234 -0.0009519703067318169 0.0 0.0017311146605890615 0.0 0.0
0.00020918764944882762 -0.0007336604681274506 0.0 -0.0015390635156440902 0.0 0.0
-0.0002705692691784556 -6.19245076753927e-05 0.0 -0.0023783759682864947 0.0 0.0
-0.000522844023365332 0.000237470181215782 0.0 -0.0024370349517978673 0.0 0.0
-0.0006995090088712519 0.00037409175182046006 0.0 -0.0024183792750696043 0.0 0.0
-0.0009174343034187848 0.0004803037004532662 0.0 -0.002508103030128772 0.0 0.0
-0.0013224723794136306 0.0006824916640009171 0.0 -0.002835421161345386 0.0 0.0
-0.002250346970174122 0.001284416139126554 0.0 -0.0036802084347157815 0.0 0.0
-0.004069783429137219 0.002704846354441237 0.0 -0.0053271659996975695 0.0 0.0
-0.006858719290771587 0.005155655102773604 0.0 -0.007746871211248729 0.0 0.0
-0.010454304245062135 0.008500736374897233 0.0 -0.010680206715148466 0.0 0.0
-0.014616671764626277 0.012471418329424111 0.0 -0.013784759151861725 0.0 0.0
-0.01922324426388239 0.016910909556055564 0.0 -0.016805933809534324 0.0 0.0
-0.024258942702615915 0.02178851320927988 0.0 -0.019720753723138862 0.0 0.0
-0.029712265845560804 0.027078792464673818 0.0 -0.02263379908042784 0.0 0.0
-0.03543694602309039 0.03262769607702154 0.0 -0.02577193660685162 0.0 0.0
-0.041054597557912825 0.03806697056170627 0.0 -0.02942834681883555 0.0 0.0
-0.045947943842434114 0.042792433159510423 0.0 -0.03375499963469497 0.0 0.0
-0.0491413722199667 0.045771821692301984 0.0 -0.03794853474205384 0.0 0.0
-0.0487493935295967 0.04509952704962661 0.0 -0.04003258940549037 0.0 0.0
-0.04090084937133884 0.03653462974681254 0.0 -0.036058603232154374 0.0 0.0
-0.04090084937133798 0.03653462974681698 0.0 0.03605860323220267 0.0 0.0
-0.0487493935295884 0.04509952704962128 0.0 0.040032589405555985 0.0 0.0
-0.049141372219944746 0.045771821692282444 0.0 0.037948534742095585 0.0 0.0
-0.04594794384240197 0.04279243315948289 0.0 0.033754999634703964 0.0 0.0
-0.041054597557877326 0.03806697056166719 0.0 0.029428346818820783 0.0 0.0
-0.03543694602305575 0.03262769607698646 0.0 0.025771936606833745 0.0 0.0
-0.02971226584552683 0.02707879246463829 0.0 0.02263379908040819 0.0 0.0
-0.024258942702582054 0.021788513209243465 0.0 0.019720753723126316 0.0 0.0
-0.019223244263847916 0.016910909556024478 0.0 0.016805933809510787 0.0 0.0
-0.014616671764595246 0.012471418329398798 0.0 0.013784759151835524 0.0 0.0
-0.010454304245036183 0.008500736374875029 0.0 0.010680206715123042 0.0 0.0
-0.006858719290753018 0.005155655102762058 0.0 0.007746871211234185 0.0 0.0
-0.004069783429125812 0.002704846354435464 0.0 0.0053271659996875775 0.0 0.0
-0.0022503469701676826 0.0012844161391256659 0.0 0.0036802084347085096 0.0 0.0
-0.001322472379410966 0.0006824916640020273 0.0 0.0028354211613429436 0.0 0.0
-0.0009174343034175081 0.00048030370045260007 0.0 0.0025081030301270513 0.0 0.0
-0.0006995090088708078 0.0003740917518187947 0.0 0.0024183792750686606 0.0 0.0
-0.0005228440233648879 0.00023747018121544894 0.0 0.002437034951797201 0.0 0.0
-0.0002705692691781503 -6.192450767533719e-05 0.0 0.002378375968285995 0.0 0.0
0.00020918764944863333 -0.0007336604681266873 0.0 0.0015390635156428134 0.0 0.0
0.0001193395229437122 -0.000539906037318294 0.0 -0.0013366761048240194 0.0 0.0
-0.0003305570563437721 -1.898333885230752e-05 0.0 -0.0022235295134701016 0.0 0.0
-0.0006510672927931838 0.00029070956454202435 0.0 -0.002315444641054931 0.0 0.0
-0.0009106850478479422 0.000462737487513909 0.0 -0.002273409696110673 0.0 0.0
-0.0012390121540853394 0.0006320411066109699 0.0 -0.0023178673477549094 0.0 0.0
-0.0018920383765230753 0.0010208728510672227 0.0 -0.0026953880538880814 0.0 0.0
-0.003368219385780219 0.0021149422341104618 0.0 -0.003777700620967106 0.0 0.0
-0.006055979764612751 0.004414876966285508 0.0 -0.005803412487383308 0.0 0.0
-0.009999682633433926 0.00805084488408081 0.0 -0.008685309444049216 0.0 0.0
-0.014981006876946257 0.012790507263081174 0.0 -0.012072904660121564 0.0 0.0
-0.02072872295505393 0.018335311976008573 0.0 -0.015536435621935296 0.0 0.0
-0.027115537486651603 0.02453181700262652 0.0 -0.018834637568019286 0.0 0.0
-0.034123254938804 0.03135757748906398 0.0 -0.02198474576850873 0.0 0.0
-0.04175618177464091 0.038803202269299675 0.0 -0.025137670825898573 0.0 0.0
-0.04988595382332753 0.04673045209176507 0.0 -0.02863123959007874 0.0 0.0
-0.05810038724633221 0.05472262006441664 0.0 -0.032932317139386935 0.0 0.0
-0.0655430516326283 0.061915500944393465 0.0 -0.03813199798464639 0.0 0.0
-0.07067760427186412 0.0667560040457369 0.0 -0.04319979556254039 0.0 0.0
-0.07085388682587909 0.06649734666940876 0.0 -0.04544292754192458 0.0 0.0
-0.061212893947650726 0.056191287331643025 0.0 -0.04159015024630697 0.0 0.0
-0.06121289394764659 0.05619128733164125 0.0 0.04159015024636137 0.0 0.0
-0.07085388682586491 0.06649734666939278 0.0 0.045442927541993305 0.0 0.0
-0.07067760427183495 0.06675600404570936 0.0 0.043199795562589904 0.0 0.0
-0.06554305163258642 0.06191550094435261 0.0 0.03813199798465683 0.0 0.0
-0.05810038724628602 0.05472262006436912 0.0 0.032932317139373724 0.0 0.0
-0.049885953823280565 0.04673045209172022 0.0 0.028631239590060975 0.0 0.0
-0.04175618177459506 0.03880320226925793 0.0 0.025137670825874703 0.0 0.0
-0.03412325493875752 0.03135757748902268 0.0 0.021984745768490743 0.0 0.0
-0.02711553748660704 0.024531817002582113 0.0 0.018834637567996027 0.0 0.0
-0.020728722955012213 0.01833531197596816 0.0 0.01553643562190754 0.0 0.0
-0.014981006876910952 0.012790507263043871 0.0 0.012072904660089367 0.0 0.0
-0.009999682633408377 0.008050844884050612 0.0 0.008685309444030065 0.0 0.0
-0.006055979764595834 0.004414876966270853 0.0 0.005803412487367043 0.0 0.0
-0.0033682193857703657 0.0021149422340995816 0.0 0.0037777006209566144 0.0 0.0
-0.0018920383765187315 0.0010208728510621157 0.0 0.0026953880538837516 0.0 0.0
-0.0012390121540834381 0.0006320411066109699 0.0 0.002317867347752134 0.0 0.0
-0.0009106850478474704 0.00046273748751479715 0.0 0.0022734096961106176 0.0 0.0
-0.0006510672927927119 0.0002907095645423574 0.0 0.0023154446410545426 0.0 0.0
-0.00033055705634303656 -1.898333885286263e-05 0.0 0.0022235295134698796 0.0 0.0
0.0001193395229431432 -0.0005399060373176296 0.0 0.0013366761048235198 0.0 0.0
4.254756168048379e-05 -0.0003691912638119077 0.0 -0.0011284607945490355 0.0 0.0
-0.00038749025982476315 2.9211483478785993e-05 0.0 -0.0020140825861972855 0.0 0.0
-0.0007707957016301892 0.0003401268011054004 0.0 -0.002136363530739538 0.0 0.0
-0.0011099235783925687 0.0005419992758732839 0.0 -0.0020629451202862636 0.0 0.0
-0.0015629274192088816 0.0007941323087268248 0.0 -0.0020837011749896273 0.0 0.0
-0.002541334159287867 0.0014557588669361632 0.0 -0.0025337239833664316 0.0 0.0
-0.004631880945771882 0.003150369732894287 0.0 -0.003775352076063887 0.0 0.0
-0.00821608438377014 0.006376258857167194 0.0 -0.006015955579958321 0.0 0.0
-0.01329623403836705 0.011167823740779514 0.0 -0.009121759782778072 0.0 0.0
-0.019615902585848888 0.01724471155207974 0.0 -0.012645360142907403 0.0 0.0
-0.026926864928279726 0.02433097747254065 0.0 -0.016180591854960902 0.0 0.0
-0.035087865130775 0.03227696492274035 0.0 -0.01955474063586471 0.0 0.0
-0.04406424183589791 0.04104659692119217 0.0 -0.022777856598263924 0.0 0.0
-0.05386913514524619 0.05064378457243501 0.0 -0.02597230068488332 0.0 0.0
-0.06441184486886381 0.06095714112141337 0.0 -0.029511059804206652 0.0 0.0
-0.07522684980514371 0.07150077720180903 0.0 -0.033918133957319796 0.0 0.0
-0.08516133999347683 0.08111032374741711 0.0 -0.03935137996075366 0.0 0.0
-0.09207588744242781 0.08762406541622969 0.0 -0.044781321026779564 0.0 0.0
-0.09246433812389704 0.08751334924656184 0.0 -0.04776054846276012 0.0 0.0
-0.08104022824607188 0.07550497965176728 0.0 -0.046419681895899734 0.0 0.0
-0.08104022824606544 0.07550497965175484 0.0 0.04641968189595358 0.0 0.0
-0.09246433812387578 0.08751334924653875 0.0 0.047760548462829844 0.0 0.0
-0.09207588744239187 0.0876240654161915 0.0 0.044781321026829746 0.0 0.0
-0.08516133999342604 0.0811103237473727 0.0 0.03935137996076521 0.0 0.0
-0.07522684980508684 0.07150077720175396 0.0 0.03391813395730969 0.0 0.0
-0.06441184486880527 0.06095714112135209 0.0 0.02951105980419011 0.0 0.0
-0.05386913514518811 0.05064378457237506 0.0 0.025972300684860172 0.0 0.0
-0.04406424183583928 0.04104659692113399 0.0 0.02277785659824394 0.0 0.0
-0.03508786513071897 0.03227696492268972 0.0 0.019554740635841894 0.0 0.0
-0.026926864928228544 0.024330977472492243 0.0 0.016180591854930704 0.0 0.0
-0.019615902585805034 0.01724471155203533 0.0 0.012645360142876094 0.0 0.0
-0.013296234038334034 0.011167823740750205 0.0 0.009121759782759642 0.0 0.0
-0.00821608438374756 0.0063762588571441015 0.0 0.006015955579943555 0.0 0.0
-0.004631880945758199 0.0031503697328827407 0.0 0.0037753520760540615 0.0 0.0
-0.0025413341592815386 0.0014557588669323884 0.0 0.002533723983361491 0.0 0.0
-0.001562927419206342 0.0007941323087266028 0.0 0.002083701174986352 0.0 0.0
-0.0011099235783921246 0.000541999275874061 0.0 0.0020629451202849314 0.0 0.0
-0.0007707957016295092 0.0003401268011050673 0.0 0.0021363635307389273 0.0 0.0
-0.00038749025982415253 2.9211483478952527e-05 0.0 0.002014082586196453 0.0 0.0
4.2547561679956436e-05 -0.0003691912638113873 0.0 0.0011284607945477032 0.0 0.0
-2.320150137968824e-05 -0.00022272756913122027 0.0 -0.0009144293467752695 0.0 0.0
-0.0004425754726443132 8.104038903888888e-05 0.0 -0.0017556279632438554 0.0 0.0
-0.000883077364056406 0.00038590670841587293 0.0 -0.0019007319525596866 0.0 0.0
-0.001298994907654949 0.0006166959949309714 0.0 -0.0018053303315735958 0.0 0.0
-0.0019105279006744746 0.0009882400714333883 0.0 -0.0018271330281532938 0.0 0.0
-0.0032821803831195595 0.002003912257128926 0.0 -0.0023216625579104977 0.0 0.0
-0.006031087073187502 0.004372019281144279 0.0 -0.003625378691863246 0.0 0.0
-0.01051318676828178 0.008523543719500815 0.0 -0.005915276536456626 0.0 0.0
-0.016678012806627673 0.014412379788370622 0.0 -0.008960883277085219 0.0 0.0
-0.02430622888804501 0.021784329703277372 0.0 -0.012346937509751466 0.0 0.0
-0.03317039985820419 0.030400163923767654 0.0 -0.015760989766962497 0.0 0.0
-0.04310721252518668 0.04009592546025864 0.0 -0.019018847773274783 0.0 0.0
-0.054054574289551405 0.05081042831489624 0.0 -0.022140590500255186 0.0 0.0
-0.06601557233843597 0.06254186957605867 0.0 -0.025215681273646706 0.0 0.0
-0.07891635417827361 0.07518985045831617 0.0 -0.028459184569534002 0.0 0.0
-0.09225885980853393 0.08821527324441192 0.0 -0.032369668987561884 0.0 0.0
-0.1046132202395409 0.10016697717802003 0.0 -0.037388459370773175 0.0 0.0
-0.11321994983012784 0.10828600513892717 0.0 -0.04300535501553493 0.0 0.0
-0.11386183287566151 0.10839334585661842 0.0 -0.04773810487045116 0.0 0.0
-0.1009653633041468 0.09495961948142728 0.0 -0.05091232121257361 0.0 0.0
-0.10096536330413805 0.09495961948142195 0.0 0.05091232121262568 0.0 0.0
-0.11386183287563376 0.10839334585658378 0.0 0.047738104870520215 0.0 0.0
-0.11321994983008399 0.10828600513888276 0.0 0.043005355015587 0.0 0.0
-0.10461322023948189 0.10016697717796319 0.0 0.037388459370787275 0.0 0.0
-0.09225885980846635 0.08821527324434575 0.0 0.03236966898755461 0.0 0.0
-0.07891635417820402 0.07518985045824778 0.0 0.028459184569522178 0.0 0.0
-0.06601557233836591 0.06254186957598762 0.0 0.025215681273630164 0.0 0.0
-0.05405457428948157 0.05081042831482874 0.0 0.022140590500238755 0.0 0.0
-0.0431072125251188 0.04009592546019736 0.0 0.019018847773253633 0.0 0.0
-0.03317039985814309 0.03040016392371303 0.0 0.015760989766933742 0.0 0.0
-0.0243062288879934 0.021784329703228078 0.0 0.012346937509723765 0.0 0.0
-0.01667801280658726 0.014412379788327545 0.0 0.008960883277064513 0.0 0.0
-0.01051318676825358 0.008523543719471727 0.0 0.005915276536440084 0.0 0.0
-0.006031087073170141 0.004372019281129402 0.0 0.003625378691851644 0.0 0.0
-0.0032821803831109275 0.002003912257120488 0.0 0.002321662557902837 0.0 0.0
-0.001910527900671033 0.0009882400714305017 0.0 0.0018271330281507958 0.0 0.0
-0.0012989949076538942 0.0006166959949301942 0.0 0.001805330331574151 0.0 0.0
-0.0008830773640557954 0.00038590670841542885 0.0 0.0019007319525595756 0.0 0.0
-0.00044257547264425767 8.104038903888888e-05 0.0 0.0017556279632421345 0.0 0.0
-2.320150137949395e-05 -0.00022272756913067557 0.0 0.0009144293467744369 0.0 0.0
-7.665513452576045e-05 -0.00010289015013925651 0.0 -0.0006939577602062541 0.0 0.0
-0.0004943625695948972 0.00013379862773088558 0.0 -0.0014535099972081689 0.0 0.0
-0.0009891958740433915 0.00042840072414784824 0.0 -0.0016084855872092185 0.0 0.0
-0.0014848537531335082 0.0006918111618079426 0.0 -0.0014991220550037987 0.0 0.0
-0.0023014118901523717 0.0012273970446476934 0.0 -0.0015276183876672955 0.0 0.0
-0.0041203251234164795 0.0026789314824535726 0.0 -0.0020390885382335355 0.0 0.0
-0.007553498733666397 0.005757078466983145 0.0 -0.0033224969519871084 0.0 0.0
-0.012884087280478684 0.010783845970585126 0.0 -0.00542966757441854 0.0 0.0
-0.02009338647576403 0.017715103128466136 0.0 -0.008150294247280532 0.0 0.0
-0.029016113609123928 0.026363712782400572 0.0 -0.011209031751686194 0.0 0.0
-0.039423664228568134 0.03650013688102938 0.0 -0.014292650744529456 0.0 0.0
-0.051139080008643645 0.0479476887310355 0.0 -0.017241885821602576 0.0 0.0
-0.06406653310186605 0.06061363253614216 0.0 -0.0200956196116866 0.0 0.0
-0.07816073334343399 0.07444956609337927 0.0 -0.02286957678883128 0.0 0.0
-0.09331308234504396 0.08932751899712388 0.0 -0.02557617730457462 0.0 0.0
-0.10901682628193887 0.104685770328242 0.0 -0.028485516605827987 0.0 0.0
-0.1236943204589189 0.11889434052900949 0.0 -0.03236770663646482 0.0 0.0
-0.134093469598346 0.12873201588356142 0.0 -0.0379871317810353 0.0 0.0
-0.13535851492726825 0.1294118947279994 0.0 -0.045477570483998475 0.0 0.0
-0.12143881892952119 0.11496575233497452 0.0 -0.055056555052243605 0.0 0.0
-0.12143881892950958 0.11496575233496031 0.0 0.055056555052294676 0.0 0.0
-0.1353585149272355 0.1294118947279621 0.0 0.04547757048406065 0.0 0.0
-0.13409346959829282 0.12873201588350902 0.0 0.0379871317810796 0.0 0.0
-0.12369432045885163 0.11889434052894021 0.0 0.03236770663647437 0.0 0.0
-0.10901682628186092 0.10468577032815718 0.0 0.028485516605821437 0.0 0.0
-0.09331308234496262 0.08932751899704217 0.0 0.02557617730456485 0.0 0.0
-0.0781607333433529 0.074449566093302 0.0 0.022869576788815627 0.0 0.0
-0.06406653310178481 0.06061363253606089 0.0 0.020095619611671445 0.0 0.0
-0.051139080008564514 0.04794768873095512 0.0 0.017241885821582537 0.0 0.0
-0.03942366422849777 0.03650013688096099 0.0 0.014292650744502033 0.0 0.0
-0.02901611360906449 0.026363712782341953 0.0 0.011209031751660214 0.0 0.0
-0.02009338647571636 0.017715103128415066 0.0 0.00815029424726249 0.0 0.0
-0.012884087280445496 0.010783845970550265 0.0 0.0054296675744053835 0.0 0.0
-0.007553498733644609 0.005757078466964272 0.0 0.0033224969519788927 0.0 0.0
-0.004120325123405606 0.002678931482445135 0.0 0.002039088538229261 0.0 0.0
-0.0023014118901478614 0.001227397044645695 0.0 0.0015276183876661853 0.0 0.0
-0.00148485375313194 0.0006918111618045009 0.0 0.0014991220550031326 0.0 0.0
-0.0009891958740429196 0.00042840072414729313 0.0 0.0016084855872059989 0.0 0.0
-0.0004943625695948417 0.00013379862773138518 0.0 0.0014535099972070586 0.0 0.0
-7.665513452587841e-05 -0.000102890150139116 0.0 0.0006939577602051994 0.0 0.0
-0.00011414550186855665 -1.2979301908411234e-05 0.0 -0.0004686062373377986 0.0 0.0
-0.0005382684994863496 0.0001837154668116181 0.0 -0.001110726729981193 0.0 0.0
-0.0010904482490874945 0.0004672536488133927 0.0 -0.0012575998007692823 0.0 0.0
-0.001678463819172471 0.0007782059639795946 0.0 -0.001148241787079174 0.0 0.0
-0.0027522172825393265 0.0015349751563757952 0.0 -0.0011835010733170503 0.0 0.0
-0.005063050076811959 0.0034828006396785405 0.0 -0.0016765005938166877 0.0 0.0
-0.009154438640104678 0.007249929406569766 0.0 -0.002765946233448391 0.0 0.0
-0.015280467726114688 0.013093069837932791 0.0 -0.004479413596947701 0.0 0.0
-0.023511170441359808 0.021037625967485152 0.0 -0.006717117796540828 0.0 0.0
-0.033708719085774774 0.030942944711624953 0.0 -0.00924351433477355 0.0 0.0
-0.045651297254739376 0.0425908716254324 0.0 -0.01179557579889845 0.0 0.0
-0.05914736457991038 0.05579292751989762 0.0 -0.014232847268427329 0.0 0.0
-0.07406387897844435 0.07041646083663622 0.0 -0.01660628545229148 0.0 0.0
-0.09027669190682841 0.08633570366529719 0.0 -0.018938479012054588 0.0 0.0
-0.10755947775992614 0.1033149717588655 0.0 -0.021016326343486935 0.0 0.0
-0.12535056515041054 0.12075151663496797 0.0 -0.022627255639434574 0.0 0.0
-0.14216060356859386 0.1370804510198944 0.0 -0.024611353759987686 0.0 0.0
-0.15465163872590995 0.14891897041318547 0.0 -0.029652311971621992 0.0 0.0
-0.15721985857260445 0.15082142275264765 0.0 -0.040503408899859705 0.0 0.0
-0.1429517004777619 0.1359756213227321 0.0 -0.05850821288163677 0.0 0.0
-0.14295170047774775 0.13597562132272056 0.0 0.05850821288167629 0.0 0.0
-0.15721985857256673 0.15082142275261123 0.0 0.040503408899912885 0.0 0.0
-0.15465163872584764 0.14891897041312596 0.0 0.02965231197166096 0.0 0.0
-0.14216060356851656 0.13708045101981448 0.0 0.02461135375999568 0.0 0.0
-0.12535056515032203 0.12075151663488715 0.0 0.02262725563943102 0.0 0.0
-0.10755947775983325 0.10331497175877447 0.0 0.021016326343482772 0.0 0.0
-0.09027669190673654 0.08633570366520438 0.0 0.01893847901204121 0.0 0.0
-0.07406387897835119 0.07041646083654696 0.0 0.01660628545227988 0.0 0.0
-0.05914736457982046 0.05579292751981013 0.0 0.014232847268412563 0.0 0.0
-0.04565129725465959 0.04259087162535247 0.0 0.011795575798875357 0.0 0.0
-0.03370871908570717 0.030942944711557452 0.0 0.009243514334751679 0.0 0.0
-0.023511170441305476 0.02103762596743719 0.0 0.00671711779652473 0.0 0.0
-0.015280467726076066 0.013093069837899263 0.0 0.004479413596934934 0.0 0.0
-0.009154438640078442 0.007249929406544453 0.0 0.0027659462334395646 0.0 0.0
-0.005063050076798102 0.0034828006396678823 0.0 0.0016765005938118027 0.0 0.0
-0.0027522172825338517 0.0015349751563731306 0.0 0.0011835010733162177 0.0 0.0
-0.0016784638191707293 0.0007782059639794836 0.0 0.0011482417870779527 0.0 0.0
-0.0010904482490868839 0.0004672536488129486 0.0 0.0012575998007695044 0.0 0.0
-0.0005382684994864884 0.0001837154668115626 0.0 0.001110726729981304 0.0 0.0
-0.00011414550186896605 -1.2979301908690524e-05 0.0 0.00046860623733702145 0.0 0.0
-0.00012891602024334148 4.2656914889527275e-05 0.0 -0.0002450866772849003 0.0 0.0
-0.0005652526654595924 0.0002245804035246879 0.0 -0.000726799828728586 0.0 0.0
-0.0011893582380593237 0.0005044782558769612 0.0 -0.0008415978255683076 0.0 0.0
-0.0018972894442344512 0.0008883682133618009 0.0 -0.0007549408001846225 0.0 0.0
-0.00327856399994525 0.0019331725918743103 0.0 -0.0007990699488288344 0.0 0.0
-0.006093907960518619 0.004400136448699854 0.0 -0.00117257668712889 0.0 0.0
-0.01078812582799027 0.008803836943425791 0.0 -0.0019316774435566009 0.0 0.0
-0.017678141074755183 0.015417647038289406 0.0 -0.003105148946121461 0.0 0.0
-0.02689662914440638 0.024343715400645394 0.0 -0.004666611208941851 0.0 0.0
-0.0383480324211683 0.03548404868054833 0.0 -0.0064546284092945605 0.0 0.0
-0.05181775936975941 0.04863497515963111 0.0 -0.008262739885529613 0.0 0.0
-0.06709591465723008 0.0635921115979543 0.0 -0.009989609731200888 0.0 0.0
-0.08400592814079416 0.08017697865442397 0.0 -0.011699692945146056 0.0 0.0
-0.10232185968756041 0.09816006872916905 0.0 -0.013362917929603202 0.0 0.0
-0.12164619537051813 0.11713989060478092 0.0 -0.014714325883360302 0.0 0.0
-0.14125390606611044 0.13638141642114254 0.0 -0.01528254138724272 0.0 0.0
-0.1597848933260624 0.15447454116206405 0.0 -0.01518431276413279 0.0 0.0
-0.17447299865428675 0.16854416430577768 0.0 -0.01772318774363313 0.0 0.0
-0.1796807355287728 0.1728114280153541 0.0 -0.03113793536565368 0.0 0.0
-0.16622510730189569 0.1586603879202837 0.0 -0.06044394995353286 0.0 0.0
-0.16622510730187887 0.15866038792027393 0.0 0.060443949953563836 0.0 0.0
-0.17968073552872948 0.17281142801531768 0.0 0.031137935365697755 0.0 0.0
-0.17447299865421598 0.16854416430571462 0.0 0.01772318774365944 0.0 0.0
-0.15978489332597326 0.15447454116198367 0.0 0.015184312764136232 0.0 0.0
-0.14125390606601113 0.1363814164210444 0.0 0.015282541387238058 0.0 0.0
-0.12164619537041368 0.11713989060466945 0.0 0.014714325883358081 0.0 0.0
-0.10232185968745715 0.09816006872906113 0.0 0.013362917929598567 0.0 0.0
-0.08400592814068983 0.08017697865431961 0.0 0.011699692945138729 0.0 0.0
-0.0670959146571303 0.0635921115978566 0.0 0.00998960973119023 0.0 0.0
-0.05181775936966965 0.048634975159548066 0.0 0.008262739885512405 0.0 0.0
-0.03834803242109317 0.03548404868047417 0.0 0.006454628409276797 0.0 0.0
-0.026896629144346065 0.024343715400586774 0.0 0.004666611208932858 0.0 0.0
-0.01767814107471087 0.015417647038245441 0.0 0.0031051489461130233 0.0 0.0
-0.010788125827960973 0.00880383694339737 0.0 0.0019316774435503281 0.0 0.0
-0.006093907960501712 0.004400136448686975 0.0 0.0011725766871252818 0.0 0.0
-0.0032785639999379536 0.0019331725918714238 0.0 0.0007990699488273911 0.0 0.0
-0.0018972894442322481 0.0008883682133605797 0.0 0.0007549408001857327 0.0 0.0
-0.0011893582380581996 0.0005044782558757399 0.0 0.0008415978255678636 0.0 0.0
-0.0005652526654593912 0.00022458040352363318 0.0 0.0007267998287298072 0.0 0.0
-0.0001289160202437127 4.265691488956197e-05 0.0 0.0002450866772872873 0.0 0.0
-0.0001089430243809697 5.7846559539109776e-05 0.0 -4.016043858701135e-05 0.0 0.0
-0.0005591894182959689 0.0002462178504284429 0.0 -0.00029410873513247004 0.0 0.0
-0.00129315342005637 0.0005457190439670523 0.0 -0.00034686090123270397 0.0 0.0
-0.0021652357363078356 0.0010507019051084754 0.0 -0.00032477834917432613 0.0 0.0
-0.003885121128632152 0.0024218226993377723 0.0 -0.00034766401400498914 0.0 0.0
-0.007178690542998745 0.005391072227722393 0.0 -0.0004985259138778342 0.0 0.0
-0.0124368123524361 0.01038645366946156 0.0 -0.0008126186375005395 0.0 0.0
-0.02004645282844164 0.01772667625593627 0.0 -0.0013094180223937602 0.0 0.0
-0.0302152079195942 0.027595599417505667 0.0 -0.0020077168736952755 0.0 0.0
-0.04289632219813083 0.03994806572880938 0.0 -0.0028387298239545 0.0 0.0
-0.05788864442234065 0.054597046178584296 0.0 -0.003693081270790155 0.0 0.0
-0.07495273147098519 0.07131089468804008 0.0 -0.004524564730414737 0.0 0.0
-0.09384159462542507 0.08984281388830961 0.0 -0.00533833351768942 0.0 0.0
-0.1142333557655058 0.10986383078467066 0.0 -0.0060822018757458185 0.0 0.0
-0.1355671061450845 0.1308082500023957 0.0 -0.006596019934615671 0.0 0.0
-0.1568695072807153 0.15170713731085916 0.0 -0.006525090010707446 0.0 0.0
-0.17665983718208028 0.17108815728194937 0.0 -0.005459088787310606 0.0 0.0
-0.19280019652589883 0.18676879115893996 0.0 -0.004487223169886034 0.0 0.0
-0.2015296515579401 0.19476778005760398 0.0 -0.013258227884370255 0.0 0.0
-0.1933186051887789 0.1846250080824552 0.0 -0.05568280825094907 0.0 0.0
-0.19331860518876015 0.18462500808243565 0.0 0.05568280825096139 0.0 0.0
-0.20152965155789157 0.19476778005754714 0.0 0.013258227884392126 0.0 0.0
-0.1928001965258185 0.18676879115885736 0.0 0.004487223169898802 0.0 0.0
-0.1766598371819779 0.17108815728184634 0.0 0.005459088787310162 0.0 0.0
-0.15686950728060467 0.1517071373107517 0.0 0.006525090010702672 0.0 0.0
-0.13556710614496875 0.13080825000228602 0.0 0.006596019934615033 0.0 0.0
-0.11423335576539059 0.10986383078455297 0.0 0.006082201875745513 0.0 0.0
-0.09384159462531055 0.08984281388819682 0.0 0.005338333517686422 0.0 0.0
-0.07495273147087529 0.07131089468792995 0.0 0.004524564730411684 0.0 0.0
-0.05788864442224045 0.05459704617848882 0.0 0.0036930812707833827 0.0 0.0
-0.04289632219804943 0.03994806572872944 0.0 0.0028387298239465064 0.0 0.0
-0.030215207919527882 0.02759559941744305 0.0 0.0020077168736897244 0.0 0.0
-0.020046452828391494 0.017726676255884755 0.0 0.0013094180223897078 0.0 0.0
-0.012436812352404061 0.010386453669428475 0.0 0.0008126186374975419 0.0 0.0
-0.007178690542978412 0.00539107222770685 0.0 0.000498525913876946 0.0 0.0
-0.0038851211286229474 0.0024218226993326653 0.0 0.0003476640140052112 0.0 0.0
-0.0021652357363049976 0.0010507019051049227 0.0 0.00032477834917432613 0.0 0.0
-0.001293153420054977 0.0005457190439672743 0.0 0.0003468609012349799 0.0 0.0
-0.0005591894182955578 0.0002462178504294976 0.0 0.00029410873513346925 0.0 0.0
-0.00010894302438120736 5.7846559538925896e-05 0.0 4.0160438584846414e-05 0.0 0.0
SCALARS Statev float 8
LOOKUP_TABLE default
0.0 0.014060583047468166 0.010906756242635878 -0.01128716522611935 0.0003804089834834691 -0.006291452504427454 0.0 0.0
0.0 0.0009162556350321141 0.0006607385721761564 -0.0005687930963201796 -9.194547585597687e-05 0.000586758506027925 0.0 0.0
0.0 3.495045212263173e-05 -3.2974841411126437e-06 2.6710555538788125e-06 6.264285872338019e-07 4.5718238493383677e-07 0.0 0.0
0.0 0.0003569950558357616 0.0002708007337981704 -0.00021462203061270557 -5.6178703185464836e-05 -3.861317678159083e-05 0.0 0.0
0.0 0.001834359640188108 0.0015142982178096929 -0.001268880501687187 -0.00024541771612250575 -0.00016326244605898053 0.0 0.0
0.0 0.0049318781535838295 0.004448018950590915 -0.003961336721745097 -0.0004866822288458182 -0.0003648849443023184 0.0 0.0
0.0 0.010592207844787609 0.00940007021357526 -0.008756185780816734 -0.0006438844327585228 -0.0006723792428236989 0.0 0.0
0.0 0.01903605617702278 0.01673643844952662 -0.01598212693205481 -0.0007543115174718073 -0.0011461421743450878 0.0 0.0
0.0 0.030468690370588438 0.026640653246219774 -0.02578116713160436 -0.0008594861146154049 -0.0018185879449642848 0.0 0.0
0.0 0.04484805938573863 0.039074752973472224 -0.0381034914846384 -0.0009712614888338154 -0.00263592289308272 0.0 0.0
0.0 0.061987716904043616 0.053856558412576576 -0.052768864321307965 -0.0010876940912685983 -0.003493270865632239 0.0 0.0
0.0 0.0813403304424335 0.07075991760090675 -0.06955359143974771 -0.001206326161159012 -0.004333159269198159 0.0 0.0
0.0 0.10294079298806039 0.08954784353070623 -0.08822151281046536 -0.0013263307202407782 -0.005157290285606622 0.0 0.0
0.0 0.12646887704842205 0.10994546629912738 -0.10849621498367283 -0.001449251315454472 -0.005954186035426274 0.0 0.0
0.0 0.15136397443552901 0.13152274437054057 -0.12994645127877547 -0.0015762930917650733 -0.006681001399361658 0.0 0.0
0.0 0.1768347348029684 0.15356490547713747 -0.15185875313831693 -0.0017061523388206136 -0.007191748798395619 0.0 0.0
0.0 0.20163438779308704 0.17502186641087938 -0.17318734931271246 -0.0018345170981669849 -0.007240330335894702 0.0 0.0
0.0 0.22418796679797595 0.19454586392123455 -0.19258876207060277 -0.0019571018506316794 -0.0066153997520323 0.0 0.0
0.0 0.2426476046091231 0.21052966900663164 -0.20845548152310345 -0.0020741874835281423 -0.0057012044292146895 0.0 0.0
0.0 0.2539987058020867 0.22049066770777592 -0.2182302231252409 -0.002260444582535052 -0.006840250119200015 0.0 0.0
0.0 0.2539987058020714 0.22049066770776227 -0.2182302231252277 -0.0022604445825345357 0.006840250119209249 0.0 0.0
0.0 0.24264760460907203 0.21052966900658657 -0.20845548152305968 -0.0020741874835267723 0.005701204429239331 0.0 0.0
0.0 0.22418796679789005 0.1945458639211597 -0.1925887620705291 -0.001957101850630472 0.006615399752046464 0.0 0.0
0.0 0.20163438779297502 0.1750218664107821 -0.17318734931261573 -0.0018345170981663337 0.007240330335901895 0.0 0.0
0.0 0.17683473480284426 0.15356490547702994 -0.15185875313820987 -0.0017061523388201653 0.007191748798387248 0.0 0.0
0.0 0.15136397443539862 0.13152274437042777 -0.12994645127866253 -0.001576293091765213 0.006681001399358546 0.0 0.0
0.0 0.12646887704829352 0.10994546629901604 -0.1084962149835619 -0.0014492513154541172 0.005954186035425998 0.0 0.0
0.0 0.10294079298793639 0.08954784353059862 -0.08822151281035856 -0.0013263307202400444 0.005157290285605264 0.0 0.0
0.0 0.08134033044231603 0.07075991760080462 -0.06955359143964675 -0.0012063261611578269 0.004333159269190228 0.0 0.0
0.0 0.06198771690393863 0.05385655841248525 -0.052768864321217294 -0.0010876940912679513 0.0034932708656255276 0.0 0.0
0.0 0.044848059385648856 0.03907475297339463 -0.038103491484561144 -0.0009712614888335061 0.0026359228930718896 0.0 0.0
0.0 0.030468690370519642 0.02664065324615951 -0.025781167131544696 -0.0008594861146148355 0.0018185879449615582 0.0 0.0
0.0 0.019036056176972797 0.016736438449482385 -0.01598212693201119 -0.0007543115174711915 0.0011461421743412747 0.0 0.0
0.0 0.01059220784475335 0.009400070213544763 -0.008756185780786803 -0.0006438844327579551 0.0006723792428217101 0.0 0.0
0.0 0.0049318781535646165 0.004448018950573405 -0.003961336721728405 -0.00048668222884499986 0.0003648849443005382 0.0 0.0
0.0 0.0018343596401791753 0.0015142982178022021 -0.0012688805016806007 -0.0002454177161216007 0.00016326244605830976 0.0 0.0
0.0 0.0003569950558335761 0.00027080073379712633 -0.00021462203061183393 -5.617870318529231e-05 3.861317678126818e-05 0.0 0.0
0.0 3.495045212223102e-05 -3.2974841409267166e-06 2.671055553735819e-06 6.264285871909411e-07 -4.5718238492876293e-07 0.0 0.0
0.0 0.0009162556350288429 0.00066073857217421 -0.0005687930963184552 -9.194547585575533e-05 -0.0005867585060257695 0.0 0.0
0.0 0.014060583047449565 0.010906756242623623 -0.011287165226106063 0.00038040898348243806 0.006291452504396323 0.0 0.0
0.0 0.010521638594629044 0.00764783816067611 -0.008143658314935673 0.0004958201542595597 -0.007325803346360033 0.0 0.0
0.0 1.4680954607080809e-05 1.1092001643911335e-05 -9.835057500660264e-06 -1.256944143251071e-06 7.149192209616276e-06 0.0 0.0
0.0 7.334994587548834e-07 1.514287705763888e-07 -1.1451395800534795e-07 -3.691481257104325e-08 -5.4069206758697455e-08 0.0 0.0
0.0 0.00014795289727356672 0.0001073750457833566 -8.442565046449058e-05 -2.2949395318866204e-05 -3.747841620761339e-05 0.0 0.0
0.0 0.0012469409147717377 0.0009910382891271038 -0.0008178639900008639 -0.0001731742991262404 -0.00026321461841931115 0.0 0.0
0.0 0.003827642796853805 0.0034553321247654855 -0.00303084690802584 -0.00042448521673964495 -0.000750279664869526 0.0 0.0
0.0 0.008842796031303302 0.00784057760603326 -0.007231864175832103 -0.0006087134302011517 -0.0015290339910580266 0.0 0.0
0.0 0.016467918277186508 0.014450790557353113 -0.01372059478986265 -0.0007301957674904605 -0.002664371594853822 0.0 0.0
0.0 0.02681698827222059 0.023403176734784526 -0.0225677786434691 -0.0008353980913154177 -0.004183515129821686 0.0 0.0
0.0 0.03978626250966809 0.03460879630898177 -0.03366669112390996 -0.0009421051850718177 -0.005958070910753631 0.0 0.0
0.0 0.055148342284856114 0.04787189286503581 -0.04682141586598235 -0.0010504769990534683 -0.0077874628761421824 0.0 0.0
0.0 0.07271913290076314 0.06299659627079351 -0.061837108786704315 -0.0011594874840891525 -0.009550690793986318 0.0 0.0
0.0 0.09200766590462467 0.07981303398464777 -0.07854306215287785 -0.0012699718317699155 -0.011295870461127767 0.0 0.0
0.0 0.11305556738215362 0.09809804664892402 -0.09671527173892719 -0.001382774909996848 -0.013024515063016063 0.0 0.0
0.0 0.1354342351118002 0.11748414894208369 -0.11598588033250044 -0.0014982686095831896 -0.014610077609540322 0.0 0.0
0.0 0.15836842270019924 0.13736751064010438 -0.13575170545607806 -0.0016158051840263518 -0.015766004849727674 0.0 0.0
0.0 0.18081993034442795 0.1568410507622468 -0.15510722440478303 -0.0017338263574637762 -0.01602679801795975 0.0 0.0
0.0 0.20136573832102644 0.17466053938515527 -0.17280852432387864 -0.0018520150612766268 -0.015081811985917397 0.0 0.0
0.0 0.21797724122000317 0.18908283561944067 -0.18709785529638176 -0.0019849803230588756 -0.013263299803435309 0.0 0.0
0.0 0.22794304468121415 0.19776293237148845 -0.19567597416865812 -0.0020869582028303223 -0.010388017710719913 0.0 0.0
0.0 0.22794304468119506 0.19776293237147183 -0.19567597416864116 -0.0020869582028307456 0.010388017710745334 0.0 0.0
0.0 0.2179772412199454 0.18908283561939082 -0.18709785529633022 -0.0019849803230606537 0.013263299803478273 0.0 0.0
0.0 0.20136573832094767 0.17466053938508658 -0.17280852432380972 -0.0018520150612767277 0.015081811985946 0.0 0.0
0.0 0.1808199303443287 0.1568410507621604 -0.1551072244046972 -0.001733826357463002 0.01602679801797406 0.0 0.0
0.0 0.1583684227000888 0.1373675106400088 -0.13575170545598314 -0.001615805184025579 0.015766004849720093 0.0 0.0
0.0 0.13543423511168584 0.11748414894198439 -0.11598588033240209 -0.0014982686095822938 0.014610077609534929 0.0 0.0
0.0 0.11305556738203772 0.0980980466488235 -0.09671527173882723 -0.0013827749099962403 0.013024515063011692 0.0 0.0
0.0 0.09200766590451637 0.0798130339845536 -0.07854306215278468 -0.0012699718317689048 0.011295870461122078 0.0 0.0
0.0 0.07271913290065919 0.06299659627070316 -0.061837108786615 -0.0011594874840881316 0.009550690793973339 0.0 0.0
0.0 0.05514834228475999 0.04787189286495246 -0.046821415865899586 -0.001050476999052857 0.007787462876130207 0.0 0.0
0.0 0.03978626250958854 0.03460879630891285 -0.033666691123841415 -0.0009421051850714186 0.005958070910737041 0.0 0.0
0.0 0.026816988272159517 0.023403176734730923 -0.02256777864341585 -0.0008353980913150627 0.004183515129814354 0.0 0.0
0.0 0.016467918277140843 0.014450790557313112 -0.013720594789823097 -0.0007301957674900185 0.0026643715948457235 0.0 0.0
0.0 0.008842796031275626 0.007840577606008526 -0.007231864175808093 -0.0006087134302004292 0.0015290339910532728 0.0 0.0
0.0 0.0038276427968378475 0.0034553321247514047 -0.00303084690801271 -0.0004244852167386953 0.0007502796648663692 0.0 0.0
0.0 0.0012469409147639469 0.0009910382891209564 -0.0008178639899955578 -0.00017317429912539907 0.0002632146184177479 0.0 0.0
0.0 0.0001479528972719899 0.00010737504578254942 -8.442565046383773e-05 -2.2949395318711573e-05 3.747841620734303e-05 0.0 0.0
0.0 7.334994586274191e-07 1.514287706657964e-07 -1.1451395807086092e-07 -3.6914812594937946e-08 5.4069206776709875e-08 0.0 0.0
0.0 1.4680954606777325e-05 1.109200164397276e-05 -9.835057500707014e-06 -1.2569441432657495e-06 -7.149192209675928e-06 0.0 0.0
0.0 0.010521638594606092 0.007647838160660994 -0.008143658314919927 0.0004958201542589307 0.007325803346332652 0.0 0.0
0.0 0.008025713650703791 0.005528313699642412 -0.0060568079286079345 0.000528494228965523 -0.006469083157664269 0.0 0.0
0.0 0.0 0.0 0.0 0.0 0.0 0.0 0.0
0.0 0.0 0.0 0.0 0.0 0.0 0.0 0.0
0.0 3.462878443209142e-05 2.8162018003536273e-05 -2.2030380083132184e-05 -6.1316379204041095e-06 -1.8185026114115833e-05 0.0 0.0
0.0 0.0007233516835292594 0.0005815669202300307 -0.0004728957954219965 -0.00010867112480803387 -0.0002735506527194488 0.0 0.0
0.0 0.0029797472300206115 0.002516724641482571 -0.002170475527547636 -0.00034624911393493443 -0.0009427803479669761 0.0 0.0
0.0 0.007156527576752834 0.006312093867316029 -0.005748768784554422 -0.0005633250827616074 -0.0020872885831797576 0.0 0.0
0.0 0.013924229628398215 0.01215561759498731 -0.011456312463057103 -0.0006993051319301998 -0.003762919911645042 0.0 0.0
0.0 0.023184450029192456 0.020117589150634677 -0.019311035561256032 -0.0008065535893786461 -0.005948260408959187 0.0 0.0
0.0 0.034751831864440245 0.030069755174188976 -0.02916158135972667 -0.0009081738144622862 -0.008460596618551358 0.0 0.0
0.0 0.04840837283253374 0.04180650073697527 -0.04079787548429816 -0.0010086252526771157 -0.0110465396000987 0.0 0.0
0.0 0.0638617302593403 0.05515521079404263 -0.05404653139233883 -0.0011086794017037926 -0.013550733434559726 0.0 0.0
0.0 0.0811303029824158 0.06998345178328733 -0.06877399348539666 -0.0012094582978906723 -0.016007131627259308 0.0 0.0
0.0 0.09969578562740823 0.08613366015169446 -0.0848219728980484 -0.0013116872536459915 -0.018455013535639792 0.0 0.0
0.0 0.1195003407570929 0.10331800354008025 -0.10190273637255576 -0.0014152671675244839 -0.020740031443571262 0.0 0.0
0.0 0.1399646434969652 0.12105022669637888 -0.11952967167973644 -0.0015205550166424399 -0.02245451146585072 0.0 0.0
0.0 0.1601207603401683 0.1385655319098236 -0.1369367469668353 -0.0016287849429882238 -0.023038080403658553 0.0 0.0
0.0 0.17861831424850538 0.15469880979416395 -0.15295413499431804 -0.0017446747998458962 -0.022039015283104767 0.0 0.0
0.0 0.19355317259173133 0.1677765652103554 -0.165918614806934 -0.0018579504034213054 -0.01897090631951127 0.0 0.0
0.0 0.20274946369523825 0.17591150006340367 -0.17397116725862638 -0.0019403328047771986 -0.012853444941712758 0.0 0.0
0.0 0.20274946369522945 0.17591150006339473 -0.17397116725861872 -0.0019403328047759257 0.01285344494175591 0.0 0.0
0.0 0.19355317259169424 0.16777656521032058 -0.1659186148069011 -0.001857950403419563 0.0189709063195726 0.0 0.0
0.0 0.17861831424843932 0.15469880979410505 -0.15295413499425953 -0.0017446747998453539 0.022039015283146172 0.0 0.0
0.0 0.16012076034008466 0.13856553190975035 -0.13693674696676217 -0.0016287849429882442 0.023038080403677448 0.0 0.0
0.0 0.13996464349687127 0.12105022669629752 -0.11952967167965578 -0.0015205550166416683 0.022454511465840377 0.0 0.0
0.0 0.1195003407569916 0.10331800353999251 -0.10190273637246836 -0.001415267167524198 0.020740031443563872 0.0 0.0
0.0 0.09969578562730762 0.08613366015160699 -0.08482197289796158 -0.0013116872536454453 0.018455013535633787 0.0 0.0
0.0 0.08113030298231784 0.06998345178320255 -0.06877399348531205 -0.001209458297890439 0.016007131627250593 0.0 0.0
0.0 0.06386173025924724 0.05515521079396251 -0.054046531392259047 -0.0011086794017034893 0.013550733434541986 0.0 0.0
0.0 0.048408372832449 0.04180650073690182 -0.040797875484225164 -0.0010086252526766426 0.01104653960008107 0.0 0.0
0.0 0.03475183186436971 0.030069755174127993 -0.029161581359666205 -0.0009081738144617793 0.008460596618529784 0.0 0.0
0.0 0.023184450029139166 0.02011758915058818 -0.01931103556121012 -0.000806553589378057 0.005948260408947706 0.0 0.0
0.0 0.013924229628359687 0.012155617594953715 -0.011456312463023957 -0.000699305131929753 0.0037629199116341007 0.0 0.0
0.0 0.007156527576726971 0.006312093867293238 -0.005748768784532418 -0.0005633250827608188 0.002087288583172652 0.0 0.0
0.0 0.00297974723000694 0.0025167246414711754 -0.0021704755275372594 -0.0003462491139339159 0.0009427803479624486 0.0 0.0
0.0 0.0007233516835243887 0.0005815669202263775 -0.00047289579541893935 -0.00010867112480743807 0.0002735506527177201 0.0 0.0
0.0 3.4628784431329024e-05 2.8162018003393477e-05 -2.2030380083008236e-05 -6.131637920385262e-06 1.8185026113973583e-05 0.0 0.0
0.0 0.0 0.0 0.0 0.0 0.0 0.0 0.0
0.0 0.0 0.0 0.0 0.0 0.0 0.0 0.0
0.0 0.008025713650684307 0.005528313699629058 -0.006056807928593968 0.0005284942289649057 0.00646908315764241 0.0 0.0
0.0 0.0060545519304768935 0.004004139756622642 -0.004507243722719263 0.0005031039660966206 -0.005144422950465485 0.0 0.0
0.0 0.0 0.0 0.0 0.0 0.0 0.0 0.0
0.0 0.0 0.0 0.0 0.0 0.0 0.0 0.0
0.0 6.0939204277115076e-06 3.016339315384957e-06 -2.349064539762751e-06 -6.6727477562219e-07 -3.085299879988651e-06 0.0 0.0
0.0 0.0003670323570535141 0.0002876082927455855 -0.0002313880955973767 -5.622019714820859e-05 -0.000216479275454797 0.0 0.0
0.0 0.002078441832591386 0.0017039983181622543 -0.001442975073885733 -0.00026102324427652136 -0.0009683092529292383 0.0 0.0
0.0 0.005600838156672391 0.004835565225870684 -0.0043359957668702345 -0.0004995694590004513 -0.0023534176490603376 0.0 0.0
0.0 0.011435889580696973 0.009881385447965529 -0.009221188600753067 -0.0006601968472124604 -0.004434918246179342 0.0 0.0
0.0 0.019572853355003087 0.016821147499155763 -0.01604980285395938 -0.0007713446451963875 -0.00710443637948797 0.0 0.0
0.0 0.02972115911580568 0.025498674986660756 -0.024629824159207326 -0.0008688508274533926 -0.010148508087606763 0.0 0.0
0.0 0.04164517471111301 0.03569928346473153 -0.0347373608598621 -0.0009619226048694211 -0.013272038388574615 0.0 0.0
0.0 0.05514079307073339 0.04726575719981579 -0.046212473343995364 -0.001053283855820408 -0.016315696102886246 0.0 0.0
0.0 0.07007707198384933 0.060103570380946436 -0.05895931570482649 -0.001144254676119963 -0.01931664352665083 0.0 0.0
0.0 0.08637072106213917 0.07410494039879961 -0.07286891804020147 -0.0012360223585981042 -0.022268817176220455 0.0 0.0
0.0 0.10374008288858531 0.08906656914328356 -0.08773891424950313 -0.0013276548937803878 -0.025028671603650413 0.0 0.0
0.0 0.1215352396783762 0.10462818480145163 -0.10320771999259074 -0.0014204648088608552 -0.02722096972858408 0.0 0.0
0.0 0.1394038552685577 0.120165373795808 -0.11864659239593395 -0.0015187813998740133 -0.028212233260126385 0.0 0.0
0.0 0.15595875732021514 0.13466008214000813 -0.1330367326499354 -0.0016233494900727667 -0.027239055638895244 0.0 0.0
0.0 0.1695160722762351 0.14666293924652252 -0.1449391043557687 -0.0017238348907537679 -0.023222662893534533 0.0 0.0
0.0 0.17827349796976028 0.1545727015095004 -0.15277466144070706 -0.001798040068793326 -0.014834425125182417 0.0 0.0
0.0 0.17827349796974537 0.1545727015094865 -0.15277466144069285 -0.0017980400687937245 0.014834425125235973 0.0 0.0
0.0 0.1695160722762005 0.14666293924648935 -0.14493910435573612 -0.001723834890753115 0.02322266289360472 0.0 0.0
0.0 0.15595875732015552 0.13466008213995367 -0.1330367326498814 -0.0016233494900721808 0.027239055638943424 0.0 0.0
0.0 0.13940385526848303 0.12016537379574191 -0.11864659239586789 -0.0015187813998739797 0.02821223326014824 0.0 0.0
0.0 0.12153523967829173 0.10462818480137867 -0.10320771999251804 -0.0014204648088606197 0.027220969728574115 0.0 0.0
0.0 0.10374008288849787 0.08906656914320776 -0.08773891424942805 -0.0013276548937797097 0.02502867160364003 0.0 0.0
0.0 0.08637072106205572 0.07410494039872681 -0.07286891804012977 -0.0012360223585970273 0.022268817176212152 0.0 0.0
0.0 0.07007707198376682 0.06010357038087459 -0.05895931570475558 -0.0011442546761189997 0.019316643526639102 0.0 0.0
0.0 0.0551407930706526 0.04726575719974615 -0.046212473343926 -0.0010532838558201482 0.016315696102865235 0.0 0.0
0.0 0.04164517471104173 0.035699283464670176 -0.03473736085980108 -0.0009619226048690724 0.013272038388552735 0.0 0.0
0.0 0.0297211591157442 0.02549867498660846 -0.024629824159155447 -0.0008688508274529957 0.010148508087581184 0.0 0.0
0.0 0.019572853354954897 0.01682114749911416 -0.016049802853918417 -0.0007713446451957445 0.00710443637947211 0.0 0.0
0.0 0.01143588958066067 0.009881385447934151 -0.009221188600722498 -0.000660196847211649 0.004434918246165508 0.0 0.0
0.0 0.0056008381566497525 0.00483556522585136 -0.004335995766851848 -0.0004995694589995121 0.002353417649051531 0.0 0.0
0.0 0.0020784418325800014 0.0017039983181534575 -0.0014429750738779508 -0.0002610232442755074 0.0009683092529242657 0.0 0.0
0.0 0.0003670323570496928 0.0002876082927431364 -0.00023138809559537533 -5.6220197147761136e-05 0.0002164792754531753 0.0 0.0
0.0 6.093920427189566e-06 3.0163393154502495e-06 -2.3490645398108874e-06 -6.672747756393514e-07 3.085299880045052e-06 0.0 0.0
0.0 0.0 0.0 0.0 0.0 0.0 0.0 0.0
0.0 0.0 0.0 0.0 0.0 0.0 0.0 0.0
0.0 0.0060545519304589495 0.0040041397566107 -0.004507243722706666 0.0005031039660959659 0.005144422950447405 0.0 0.0
0.0 0.004431541006687984 0.002827568872083461 -0.00327007306736783 0.0004425041952843701 -0.00384005046498117 0.0 0.0
0.0 0.0 0.0 0.0 0.0 0.0 0.0 0.0
0.0 0.0 0.0 0.0 0.0 0.0 0.0 0.0
0.0 9.11975332307794e-07 4.1858804278399764e-07 -3.1991833753293706e-07 -9.866970525106058e-08 -6.144720933470172e-07 0.0 0.0
0.0 0.00015919132457506524 0.00011396221218976614 -9.127052606934608e-05 -2.2691686120420065e-05 -0.00013241081169190918 0.0 0.0
0.0 0.001314746410092527 0.0010393813519547614 -0.0008646438973498112 -0.00017473745460495037 -0.0008707643144902409 0.0 0.0
0.0 0.004243292778225518 0.0034591369575039167 -0.003042849064365365 -0.00041628789313855204 -0.002338660908746118 0.0 0.0
0.0 0.009073588594748123 0.0076546668625017515 -0.007047864296689549 -0.0006068025658122014 -0.0046393957002856135 0.0 0.0
0.0 0.016006024720293305 0.01355076475837888 -0.012822588342056284 -0.0007281764163226034 -0.007645234688949492 0.0 0.0
0.0 0.024728704504874945 0.020935067817858397 -0.020111915426512784 -0.0008231523913456042 -0.01101847759198664 0.0 0.0
0.0 0.03492696599843424 0.029589893670564332 -0.028680251482671806 -0.00090964218789255 -0.014473862036205352 0.0 0.0
0.0 0.04639797520426543 0.03936957936081249 -0.038377243385530516 -0.0009923359752819609 -0.017844968019657244 0.0 0.0
0.0 0.059143654338911444 0.05021115649671262 -0.049137469620635525 -0.0010736868760770923 -0.0211711083425365 0.0 0.0
0.0 0.07289695315516093 0.062060836092769314 -0.06090613726413566 -0.0011546988286336632 -0.024460019278226625 0.0 0.0
0.0 0.0877202865431029 0.07478525106362809 -0.07355017871854731 -0.0012350723450807726 -0.027527613435967997 0.0 0.0
0.0 0.10328379670746096 0.08812951445502268 -0.08681366448405878 -0.0013158499709638681 -0.030021980597982133 0.0 0.0
0.0 0.11867372001387039 0.1016398998969738 -0.10023944077014035 -0.0014004591268334326 -0.03138444823334488 0.0 0.0
0.0 0.13327292936968732 0.11453411235169975 -0.11304245302653643 -0.0014916593251632854 -0.03063634811874145 0.0 0.0
0.0 0.14565647382096886 0.12562964936551915 -0.12404751518340446 -0.001582134182114656 -0.02621471559250232 0.0 0.0
0.0 0.15420927422771122 0.13351989822382582 -0.13186564833661923 -0.0016542498872064643 -0.01647514888014322 0.0 0.0
0.0 0.1542092742276989 0.13351989822381308 -0.1318656483366069 -0.0016542498872060638 0.016475148880199138 0.0 0.0
0.0 0.14565647382093783 0.12562964936548796 -0.12404751518337412 -0.0015821341821138297 0.026214715592575606 0.0 0.0
0.0 0.13327292936963686 0.11453411235165248 -0.11304245302648884 -0.0014916593251636352 0.030636348118795 0.0 0.0
0.0 0.11867372001381002 0.10163989989691904 -0.10023944077008616 -0.0014004591268328686 0.031384448233369916 0.0 0.0
0.0 0.10328379670738866 0.0881295144549597 -0.08681366448399666 -0.0013158499709630873 0.030021980597973168 0.0 0.0
0.0 0.0877202865430241 0.07478525106356024 -0.0735501787184792 -0.001235072345081079 0.02752761343595506 0.0 0.0
0.0 0.0728969531550826 0.06206083609270178 -0.06090613726406796 -0.0011546988286337918 0.024460019278214035 0.0 0.0
0.0 0.05914365433884196 0.0502111564966519 -0.04913746962057547 -0.0010736868760764069 0.021171108342525426 0.0 0.0
0.0 0.046397975204199395 0.03936957936075562 -0.03837724338547459 -0.0009923359752810137 0.017844968019636143 0.0 0.0
0.0 0.03492696599837611 0.029589893670514428 -0.028680251482623258 -0.0009096421878911745 0.01447386203618176 0.0 0.0
0.0 0.02472870450482409 0.020935067817815883 -0.020111915426471325 -0.0008231523913445639 0.011018477591959328 0.0 0.0
0.0 0.01600602472025379 0.013550764758345383 -0.012822588342023166 -0.0007281764163222077 0.0076452346889319504 0.0 0.0
0.0 0.00907358859472086 0.007654666862479035 -0.007047864296667467 -0.0006068025658115691 0.0046393957002721226 0.0 0.0
0.0 0.004243292778208217 0.003459136957489856 -0.0030428490643523215 -0.00041628789313753436 0.002338660908737722 0.0 0.0
0.0 0.0013147464100840287 0.0010393813519484789 -0.0008646438973444017 -0.0001747374546040767 0.0008707643144850421 0.0 0.0
0.0 0.00015919132457300087 0.0001139622121887837 -9.127052606854228e-05 -2.269168612024135e-05 0.00013241081169077727 0.0 0.0
0.0 9.119753321263591e-07 4.185880428982443e-07 -3.199183376204592e-07 -9.866970527778313e-08 6.144720935188671e-07 0.0 0.0
0.0 0.0 0.0 0.0 0.0 0.0 0.0 0.0
0.0 0.0 0.0 0.0 0.0 0.0 0.0 0.0
0.0 0.004431541006673276 0.002827568872073916 -0.003270073067357613 0.0004425041952836941 0.0038400504649671484 0.0 0.0
0.0 0.003073898993755737 0.001903329669032399 -0.0022629955005056407 0.0003596658314732403 -0.0027124915265852997 0.0 0.0
0.0 0.0 0.0 0.0 0.0 0.0 0.0 0.0
0.0 0.0 0.0 0.0 0.0 0.0 0.0 0.0
0.0 1.2459832782016668e-06 -8.711175530045244e-08 6.722946238267231e-08 1.9882292917777628e-08 2.0432140011233723e-07 0.0 0.0
0.0 6.965210404360643e-05 3.92438399793085e-05 -3.1351689885675576e-05 -7.892150093632921e-06 -6.821945609811463e-05 0.0 0.0
0.0 0.0007298643129509191 0.0005485445178611735 -0.0004496728680808999 -9.887164978027353e-05 -0.0006819314704603723 0.0 0.0
0.0 0.0028716988270201227 0.0022595999428604656 -0.001944781711067068 -0.0003148182317933966 -0.0021391631743123327 0.0 0.0
0.0 0.006832319794913339 0.0055344317139221725 -0.005004969416845276 -0.0005294622970768952 -0.004444795016468651 0.0 0.0
0.0 0.01255856885321042 0.010342004308131914 -0.00966981194890264 -0.0006721923592292701 -0.007539964336601251 0.0 0.0
0.0 0.01979555792603692 0.01642032728255395 -0.01565119913954909 -0.0007691281430048569 -0.011059408834725457 0.0 0.0
0.0 0.028236980295399706 0.023520881083578637 -0.022670991629936348 -0.0008498894536422922 -0.014635871245304624 0.0 0.0
0.0 0.03770995745251818 0.0315107887604554 -0.03058608905565763 -0.0009246997047977707 -0.018128282380747457 0.0 0.0
0.0 0.04815715698441493 0.04035502663756732 -0.03935863441876177 -0.0009963922188055236 -0.02157874153103263 0.0 0.0
0.0 0.059568521249552364 0.05004517450741282 -0.04897854840578825 -0.0010666261016245794 -0.02498058155447055 0.0 0.0
0.0 0.07188539046413053 0.060518608709359725 -0.05938208816445347 -0.0011365205449062824 -0.028178662028717716 0.0 0.0
0.0 0.08463321115511978 0.07160793986373469 -0.07040279048232242 -0.0012051493814122611 -0.030849666845625092 0.0 0.0
0.0 0.09786947332810363 0.08301917542942094 -0.08174492989061806 -0.0012742455388028442 -0.032475482824398244 0.0 0.0
0.0 0.11066241965014231 0.09427703044955797 -0.09292776511538131 -0.0013492653341766504 -0.03211353679460495 0.0 0.0
0.0 0.1218041737313102 0.10453625638529004 -0.10310605500050098 -0.0014302013847889807 -0.027929043296407625 0.0 0.0
0.0 0.1303123506943525 0.11255267580304948 -0.11104823278567474 -0.0015044430173746758 -0.01781048614733202 0.0 0.0
0.0 0.13031235069433922 0.11255267580303634 -0.1110482327856604 -0.00150444301737592 0.017810486147389212 0.0 0.0
0.0 0.12180417373128183 0.10453625638526093 -0.10310605500047093 -0.0014302013847900283 0.02792904329648176 0.0 0.0
0.0 0.11066241965011069 0.0942770304495248 -0.09292776511534977 -0.0013492653341750577 0.03211353679466121 0.0 0.0
0.0 0.09786947332805296 0.08301917542937434 -0.08174492989057155 -0.0012742455388027613 0.03247548282442121 0.0 0.0
0.0 0.08463321115505741 0.07160793986368119 -0.07040279048226875 -0.0012051493814124261 0.030849666845613827 0.0 0.0
0.0 0.07188539046407147 0.060518608709308294 -0.05938208816440333 -0.001136520544904953 0.02817866202870495 0.0 0.0
0.0 0.0595685212494934 0.050045174507361526 -0.0489785484057375 -0.0010666261016240364 0.024980581554458356 0.0 0.0
0.0 0.048157156984356575 0.04035502663751683 -0.0393586344187117 -0.0009963922188051515 0.021578741531019775 0.0 0.0
0.0 0.03770995745246272 0.03151078876040838 -0.03058608905561126 -0.0009246997047971136 0.01812828238072626 0.0 0.0
0.0 0.028236980295346933 0.023520881083534582 -0.022670991629892598 -0.0008498894536419965 0.014635871245279427 0.0 0.0
0.0 0.019795557925991435 0.016420327282516967 -0.01565119913951265 -0.0007691281430043155 0.011059408834695585 0.0 0.0
0.0 0.012558568853174468 0.010342004308102046 -0.009669811948873518 -0.000672192359228521 0.007539964336580869 0.0 0.0
0.0 0.006832319794887575 0.0055344317139012665 -0.0050049694168252746 -0.0005294622970759924 0.00444479501645334 0.0 0.0
0.0 0.0028716988270075603 0.002259599942850794 -0.0019447817110582926 -0.000314818231792501 0.002139163174304148 0.0 0.0
0.0 0.0007298643129456956 0.0005485445178578243 -0.00044967286807811967 -9.887164977970457e-05 0.000681931470456486 0.0 0.0
0.0 6.965210404240603e-05 3.924383997913921e-05 -3.135168988552013e-05 -7.892150093619091e-06 6.821945609769389e-05 0.0 0.0
0.0 1.245983277765114e-06 -8.711175526903953e-08 6.722946235833695e-08 1.9882292910690027e-08 -2.0432140003799813e-07 0.0 0.0
0.0 0.0 0.0 0.0 0.0 0.0 0.0 0.0
0.0 0.0 0.0 0.0 0.0 0.0 0.0 0.0
0.0 0.003073898993744733 0.001903329669025532 -0.002262995500498014 0.00035966583147248196 0.002712491526575368 0.0 0.0
0.0 0.0019994120062832746 0.0011827053621912761 -0.001446512479364642 0.0002638071171733653 -0.001780579863166225 0.0 0.0
0.0 5.610935232125803e-07 -8.037160125762508e-09 8.338978319598262e-09 -3.018181938355691e-10 1.1164998698213293e-07 0.0 0.0
0.0 0.0 0.0 0.0 0.0 0.0 0.0 0.0
0.0 1.343535810957597e-06 -6.745450613659108e-08 5.1836617700734505e-08 1.5617888435866596e-08 2.5068220686766373e-07 0.0 0.0
0.0 3.7402727315625605e-05 1.788539527870276e-05 -1.4196474803799858e-05 -3.688920474902913e-06 -4.6163859277012376e-05 0.0 0.0
0.0 0.0003918141468379754 0.00023420811061083228 -0.00019003564934509364 -4.417246126573879e-05 -0.0004397402042687117 0.0 0.0
0.0 0.0017617547987414325 0.001270616124023182 -0.0010686086758442909 -0.00020200744817889144 -0.001736149720418287 0.0 0.0
0.0 0.004707218181630522 0.0036025714181299813 -0.003180731799573568 -0.0004218396185564119 -0.003913107923839302 0.0 0.0
0.0 0.0092192061259957 0.00726077950393284 -0.006669084478956447 -0.0005916950249763872 -0.006833241697534309 0.0 0.0
0.0 0.014951740223378881 0.01199985108134367 -0.011298818020984378 -0.0007010330603592879 -0.010236888571085722 0.0 0.0
0.0 0.021626230487581277 0.017537531398757113 -0.016758308732363735 -0.0007792226663933738 -0.013744684320180025 0.0 0.0
0.0 0.02907662011847805 0.023739234070473517 -0.022891726548995805 -0.0008475075214777153 -0.01715261084611172 0.0 0.0
0.0 0.03729010431075078 0.030587264785078176 -0.029677307287057975 -0.0009099574980201916 -0.020505414999025657 0.0 0.0
0.0 0.04622719343468562 0.03811427885019038 -0.037144914698205855 -0.0009693641519844961 -0.023827395831423105 0.0 0.0
0.0 0.05594106402752412 0.046320870423301845 -0.04529292369494965 -0.0010279467283522013 -0.02697086476951228 0.0 0.0
0.0 0.06624653252962892 0.05512017811979966 -0.054033395203873055 -0.0010867829159266328 -0.029617520208048562 0.0 0.0
0.0 0.0768608803053892 0.06435299033373576 -0.06321278687834989 -0.0011402034553858686 -0.03138832531861052 0.0 0.0
0.0 0.08761837331795456 0.07385800653247852 -0.07266331727573742 -0.0011946892567411063 -0.03156224134249599 0.0 0.0
0.0 0.09794758168531585 0.08322966900367446 -0.0819664436897051 -0.001263225313969321 -0.028256916582303303 0.0 0.0
0.0 0.1065904456759328 0.09146118947756221 -0.09011802543313646 -0.0013431640444257313 -0.018811843507553983 0.0 0.0
0.0 0.10659044567592899 0.09146118947755605 -0.09011802543313079 -0.0013431640444252339 0.01881184350760867 0.0 0.0
0.0 0.09794758168530346 0.08322966900365703 -0.08196644368968864 -0.0012632253139684797 0.028256916582377774 0.0 0.0
0.0 0.08761837331792753 0.07385800653244891 -0.07266331727570811 -0.0011946892567407427 0.03156224134255121 0.0 0.0
0.0 0.07686088030534977 0.06435299033369826 -0.06321278687831233 -0.0011402034553859536 0.03138832531863297 0.0 0.0
0.0 0.06624653252958468 0.055120178119761554 -0.05403339520383518 -0.0010867829159263611 0.029617520208038654 0.0 0.0
0.0 0.05594106402747471 0.046320870423259705 -0.04529292369490769 -0.0010279467283520003 0.026970864769497428 0.0 0.0
0.0 0.04622719343464303 0.038114278850153505 -0.037144914698169884 -0.0009693641519836223 0.02382739583141169 0.0 0.0
0.0 0.03729010431070913 0.030587264785041954 -0.02967730728702245 -0.0009099574980194886 0.02050541499901544 0.0 0.0
0.0 0.029076620118431058 0.023739234070434538 -0.02289172654895702 -0.0008475075214775296 0.017152610846089045 0.0 0.0
0.0 0.021626230487538575 0.017537531398722633 -0.016758308732329526 -0.0007792226663930936 0.013744684320153768 0.0 0.0
0.0 0.014951740223344848 0.011999851081317445 -0.011298818020958515 -0.0007010330603589253 0.010236888571058568 0.0 0.0
0.0 0.009219206125968849 0.007260779503911857 -0.006669084478935821 -0.0005916950249760377 0.006833241697516677 0.0 0.0
0.0 0.004707218181613598 0.0036025714181170854 -0.003180731799561518 -0.0004218396185555657 0.00391310792382705 0.0 0.0
0.0 0.001761754798731311 0.0012706161240157523 -0.001068608675837814 -0.0002020074481779378 0.0017361497204101957 0.0 0.0
0.0 0.00039181414683380324 0.00023420811060874337 -0.00019003564934334604 -4.417246126539719e-05 0.0004397402042647457 0.0 0.0
0.0 3.740272731456425e-05 1.7885395278774077e-05 -1.4196474803852837e-05 -3.6889204749212507e-06 4.6163859277190077e-05 0.0 0.0
0.0 1.343535810551308e-06 -6.74545061154224e-08 5.1836617684484416e-08 1.561788843093987e-08 -2.5068220678900275e-07 0.0 0.0
0.0 0.0 0.0 0.0 0.0 0.0 0.0 0.0
0.0 5.610935225658215e-07 -8.037160116491167e-09 8.3389783100577e-09 -3.018181935663175e-10 -1.1164998685127716e-07 0.0 0.0
0.0 0.001999412006274254 0.0011827053621860646 -0.0014465124793586798 0.00026380711717261413 0.0017805798631584284 0.0 0.0
0.0 0.001163203654976925 0.0006447408960196695 -0.0008137491098485953 0.0001690082138289256 -0.0010368159544921613 0.0 0.0
0.0 1.3325630948184425e-06 3.600937243880308e-08 -3.442403219678729e-08 -1.5853402420171271e-09 -8.685261423703236e-07 0.0 0.0
0.0 6.305102464673167e-07 -7.0898921551877894e-09 5.074535917472657e-09 2.0153562377156586e-09 1.2874703632778445e-07 0.0 0.0
0.0 1.3510754921760373e-06 8.191758211770104e-08 -6.728191276443267e-08 -1.4635669353266191e-08 -6.351921457420702e-07 0.0 0.0
0.0 3.022035061250997e-05 1.0320250912769927e-05 -8.156129219491418e-06 -2.164121693278523e-06 -4.1786505968349516e-05 0.0 0.0
0.0 0.00020949854191466938 9.180917443003034e-05 -7.395416501305708e-05 -1.7855009416973238e-05 -0.0002784078908260465 0.0 0.0
0.0 0.0009580954546499287 0.0005605673205709661 -0.00046152330847585703 -9.904401209510898e-05 -0.0012036601754485288 0.0 0.0
0.0 0.0028453470052976298 0.0019405552596112009 -0.001661430906484619 -0.00027912435312658175 -0.0030597843246344355 0.0 0.0
0.0 0.006065252779505052 0.004402717639087264 -0.003934354279920984 -0.0004683633591662778 -0.005606277734187965 0.0 0.0
0.0 0.010191235777349985 0.007751204060214731 -0.007149326140511602 -0.0006018779197031289 -0.008598348734964147 0.0 0.0
0.0 0.015175184503047801 0.01170154877537691 -0.011013646074186005 -0.0006879027011909042 -0.011754906024975639 0.0 0.0
0.0 0.020568639987749902 0.016115876715657555 -0.015362798550823821 -0.0007530781648337284 -0.014867699673091029 0.0 0.0
0.0 0.026502326725073827 0.020975045705728695 -0.020166816688940204 -0.0008082290167884944 -0.0179302329362777 0.0 0.0
0.0 0.03302776937296831 0.02633467777708418 -0.025477388299614497 -0.0008572894774696772 -0.020952820256614813 0.0 0.0
0.0 0.040215178381013655 0.032256218370009 -0.03135206748021941 -0.0009041508897895742 -0.023855660136191777 0.0 0.0
0.0 0.047896263691856324 0.038741737237046096 -0.03778937940061615 -0.0009523578364299315 -0.026348378961175672 0.0 0.0
0.0 0.05605985511063728 0.04572776637394291 -0.04473087279613862 -0.0009968935778042855 -0.028040398942734142 0.0 0.0
0.0 0.06457183778002548 0.05328142880618566 -0.05225385570160182 -0.0010275731045838155 -0.028673046353138873 0.0 0.0
0.0 0.07353954961001409 0.0615555120657446 -0.06048312392961508 -0.0010723881361294923 -0.026879124253329178 0.0 0.0
0.0 0.08225209191221516 0.07000929576423204 -0.06884997074965968 -0.0011593250145724174 -0.01937474809655799 0.0 0.0
0.0 0.08225209191220977 0.07000929576422442 -0.06884997074965138 -0.0011593250145730699 0.019374748096606303 0.0 0.0
0.0 0.07353954960999681 0.0615555120657233 -0.0604831239295928 -0.0010723881361305084 0.026879124253394115 0.0 0.0
0.0 0.06457183778000739 0.05328142880616328 -0.05225385570157964 -0.0010275731045836305 0.028673046353188708 0.0 0.0
0.0 0.05605985511060971 0.04572776637391591 -0.04473087279611244 -0.0009968935778034873 0.02804039894275002 0.0 0.0
0.0 0.04789626369182523 0.03874173723701957 -0.03778937940059123 -0.0009523578364283296 0.02634837896116429 0.0 0.0
0.0 0.04021517838097768 0.03225621836997916 -0.03135206748019025 -0.00090415088978892 0.02385566013617569 0.0 0.0
0.0 0.03302776937293693 0.026334677777057666 -0.025477388299588306 -0.0008572894774693748 0.02095282025660504 0.0 0.0
0.0 0.02650232672504068 0.02097504570570066 -0.020166816688912133 -0.0008082290167885299 0.017930232936266804 0.0 0.0
0.0 0.02056863998772168 0.016115876715634758 -0.015362798550801696 -0.0007530781648330536 0.014867699673074374 0.0 0.0
0.0 0.01517518450302155 0.01170154877535613 -0.011013646074166134 -0.0006879027011899855 0.011754906024957318 0.0 0.0
0.0 0.010191235777321065 0.0077512040601935405 -0.007149326140491076 -0.0006018779197024607 0.008598348734938881 0.0 0.0
0.0 0.0060652527794851484 0.004402717639072504 -0.003934354279907005 -0.00046836335916549776 0.005606277734171788 0.0 0.0
0.0 0.002845347005286398 0.0019405552596030696 -0.0016614309064773621 -0.00027912435312570647 0.0030597843246244066 0.0 0.0
0.0 0.0009580954546447913 0.0005605673205681548 -0.00046152330847343465 -9.904401209472002e-05 0.0012036601754433062 0.0 0.0
0.0 0.0002094985419124451 9.180917442943654e-05 -7.395416501256895e-05 -1.785500941686758e-05 0.0002784078908241946 0.0 0.0
0.0 3.022035061161266e-05 1.0320250912726156e-05 -8.156129219452485e-06 -2.1641216932736607e-06 4.178650596818453e-05 0.0 0.0
0.0 1.3510754918983072e-06 8.191758219214609e-08 -6.728191282275832e-08 -1.4635669369390734e-08 6.351921462738638e-07 0.0 0.0
0.0 6.305102458760242e-07 -7.089892147158693e-09 5.074535912009278e-09 2.015356235150372e-09 -1.2874703620679312e-07 0.0 0.0
0.0 1.3325630942658088e-06 3.600937247820364e-08 -3.442403224294549e-08 -1.5853402352581855e-09 8.685261433399304e-07 0.0 0.0
0.0 0.0011632036549704794 0.0006447408960164308 -0.0008137491098447402 0.0001690082138283096 0.0010368159544870037 0.0 0.0
0.0 0.0005237281685211071 0.0002853622755521801 -0.0003749584191690467 8.959614361686685e-05 -0.000495758264087367 0.0 0.0
0.0 2.6150316043957065e-06 6.6663628209299804e-09 -9.114770494324516e-09 2.448407673394752e-09 -5.033280570801343e-07 0.0 0.0
0.0 1.281349052431831e-06 6.359720226648153e-09 -2.803862936090645e-09 -3.5558572905578526e-09 -6.442655717755553e-07 0.0 0.0
0.0 3.532258322702956e-06 2.3682235826867255e-07 -1.66729433502711e-07 -7.009292476595832e-08 -3.3854171424854803e-06 0.0 0.0
0.0 3.2076247082446865e-05 6.3018260606441224e-06 -4.9043452745080405e-06 -1.397480786136086e-06 -4.8201398369192514e-05 0.0 0.0
0.0 0.00015320423922240238 3.930407709464039e-05 -3.1593092176894895e-05 -7.710984917745495e-06 -0.00021987348052322824 0.0 0.0
0.0 0.0004995281479840166 0.0001805122422785572 -0.00014639816261623754 -3.4114079662319546e-05 -0.0007362523169665144 0.0 0.0
0.0 0.001399183050951143 0.0006998397718639608 -0.0005787675844634405 -0.00012107218740052031 -0.0019701051497755624 0.0 0.0
0.0 0.003220307910612263 0.001921487316081058 -0.0016447904320985595 -0.0002766968839824983 -0.0039033467045183853 0.0 0.0
0.0 0.005786013141831246 0.0038098453887212063 -0.003380530720409401 -0.0004293146683118056 -0.006226541363667936 0.0 0.0
0.0 0.008848725789948879 0.006138152216215273 -0.005598342011093888 -0.0005398102051213831 -0.008740204567025935 0.0 0.0
0.0 0.012333162972979653 0.008746303223764726 -0.00813265459623748 -0.0006136486275272407 -0.011301372865241218 0.0 0.0
0.0 0.016097566438009973 0.01162235334038309 -0.010953098990544786 -0.0006692543498383053 -0.01388824696548793 0.0 0.0
0.0 0.020241790857357222 0.014820791558300777 -0.014108430965771794 -0.0007123605925289737 -0.016448983715735152 0.0 0.0
0.0 0.02483755397185091 0.018434788445414862 -0.01768650551359553 -0.0007482829318193224 -0.018944787671257395 0.0 0.0
0.0 0.029935656896834296 0.02256762805004677 -0.021784176241660673 -0.000783451808386109 -0.02120852600512931 0.0 0.0
0.0 0.03555018914803044 0.02727989029080198 -0.0264568852362862 -0.0008230050545158056 -0.02282295786884722 0.0 0.0
0.0 0.04176622158954005 0.03270851940522385 -0.03186028919746175 -0.0008482302077621169 -0.02355282804862934 0.0 0.0
0.0 0.049208729900917576 0.039419981491333356 -0.03857410982830852 -0.0008458716630248318 -0.023294101744660373 0.0 0.0
0.0 0.05785640616722761 0.04788167821805286 -0.046952722983349 -0.0009289552347038735 -0.019179507162219365 0.0 0.0
0.0 0.05785640616723073 0.04788167821805186 -0.04695272298334769 -0.0009289552347041898 0.019179507162260134 0.0 0.0
0.0 0.04920872990092292 0.03941998149132993 -0.03857410982830552 -0.0008458716630243902 0.023294101744723367 0.0 0.0
0.0 0.04176622158953475 0.03270851940521153 -0.03186028919745025 -0.0008482302077612754 0.02355282804867659 0.0 0.0
0.0 0.03555018914800906 0.02727989029078158 -0.026456885236265576 -0.0008230050545160066 0.022822957868856124 0.0 0.0
0.0 0.02993565689681022 0.02256762805002911 -0.021784176241642507 -0.000783451808386598 0.021208526005113186 0.0 0.0
0.0 0.024837553971825313 0.01843478844539547 -0.017686505513575923 -0.0007482829318195441 0.018944787671241997 0.0 0.0
0.0 0.020241790857340257 0.014820791558287217 -0.014108430965758324 -0.0007123605925288923 0.016448983715728067 0.0 0.0
0.0 0.016097566437996636 0.011622353340371892 -0.010953098990533879 -0.000669254349838017 0.01388824696548387 0.0 0.0
0.0 0.012333162972960787 0.008746303223751015 -0.008132654596224219 -0.0006136486275267932 0.011301372865226905 0.0 0.0
0.0 0.00884872578992767 0.006138152216200815 -0.005598342011079725 -0.000539810205121091 0.008740204567006315 0.0 0.0
0.0 0.00578601314181328 0.003809845388710099 -0.003380530720398825 -0.00042931466831127235 0.006226541363648382 0.0 0.0
0.0 0.0032203079106013816 0.0019214873160738333 -0.0016447904320920084 -0.0002766968839818244 0.0039033467045072497 0.0 0.0
0.0 0.0013991830509450438 0.0006998397718605793 -0.0005787675844605729 -0.00012107218740000626 0.0019701051497684804 0.0 0.0
0.0 0.0004995281479818778 0.00018051224227790132 -0.00014639816261570744 -3.411407966219379e-05 0.0007362523169643849 0.0 0.0
0.0 0.00015320423922100885 3.93040770946445e-05 -3.159309217689118e-05 -7.710984917753304e-06 0.00021987348052284833 0.0 0.0
0.0 3.2076247081964666e-05 6.301826060666699e-06 -4.9043452745250074e-06 -1.3974807861416918e-06 4.8201398369357665e-05 0.0 0.0
0.0 3.5322583225858544e-06 2.3682235831836488e-07 -1.6672943353695345e-07 -7.009292478140879e-08 3.3854171432345958e-06 0.0 0.0
0.0 1.281349052416293e-06 6.359720236972155e-09 -2.8038629392509426e-09 -3.5558572977207457e-09 6.442655726188843e-07 0.0 0.0
0.0 2.6150316038478376e-06 6.6663628264709275e-09 -9.114770507106835e-09 2.4484076806355785e-09 5.033280575000337e-07 0.0 0.0
0.0 0.000523728168517112 0.00028536227555048683 -0.00037495841916694925 8.959614361646213e-05 0.0004957582640844386 0.0 0.0
0.0 0.00015890030401071958 8.245294840991888e-05 -0.00011363488929571548 3.1181940885796587e-05 -0.00015249433647440713 0.0 0.0
0.0 3.4774057220164453e-06 -3.129525353195718e-09 -7.555534814089368e-09 1.0685060167286329e-08 -1.480579290544485e-06 0.0 0.0
0.0 4.540750620726299e-06 -1.6234366216075024e-07 1.545383571938646e-07 7.805304966886277e-09 -4.6907188364493865e-06 0.0 0.0
0.0 7.593306875688899e-06 -1.2226374442181554e-07 1.6991386006131242e-07 -4.7650115639496144e-08 -1.113868163184507e-05 0.0 0.0
0.0 3.7842703940218394e-05 1.4678398379143068e-06 -9.98706683866067e-07 -4.691331540482469e-07 -5.475902098800079e-05 0.0 0.0
0.0 0.00014486780714849823 1.1726245610778e-05 -9.29341190223619e-06 -2.4328337085417967e-06 -0.00022313209662187743 0.0 0.0
0.0 0.00035285133054603233 4.169637177164661e-05 -3.371163596853592e-05 -7.984735803110695e-06 -0.000572205315177374 0.0 0.0
0.0 0.0007298421210846991 0.00011396315396349941 -9.26467406705141e-05 -2.1316413292985227e-05 -0.0011480648088927992 0.0 0.0
0.0 0.0013319992612383055 0.000298653568553679 -0.00024335367505252064 -5.529989350115802e-05 -0.0021489231860904357 0.0 0.0
0.0 0.0023550318156164564 0.0006836854314643663 -0.0005577444728829506 -0.00012594095858141566 -0.003584676520792419 0.0 0.0
0.0 0.003595475234712719 0.001275500223744629 -0.001053996554088714 -0.00022150366965591463 -0.005369917131758143 0.0 0.0
0.0 0.005192130712009337 0.002028082275495357 -0.001720038180177528 -0.0003080440953178279 -0.007355475884302752 0.0 0.0
0.0 0.007005214925103286 0.0029103325021978543 -0.0025319095769357454 -0.0003784229252621078 -0.009483897748984343 0.0 0.0
0.0 0.0090670237544635 0.00394076357752929 -0.003508790190688613 -0.00043197338684067824 -0.011736681137979392 0.0 0.0
0.0 0.011390665143306222 0.0052196268434989024 -0.004748033929796686 -0.0004715929137022131 -0.014086440671283944 0.0 0.0
0.0 0.014109221532068849 0.006931602744121096 -0.006428357298639762 -0.0005032454454813326 -0.0163776618039972 0.0 0.0
0.0 0.017254030105905697 0.00932946751297547 -0.008791580289098634 -0.0005378872238768318 -0.018185794257944907 0.0 0.0
0.0 0.02090302214077615 0.012626491019746998 -0.01204204455680377 -0.0005844464629432225 -0.018874134445245917 0.0 0.0
0.0 0.025872658953020454 0.017277312747343555 -0.0166964773828067 -0.0005808353645368489 -0.018765602078670025 0.0 0.0
0.0 0.033607699364977234 0.0248368825829273 -0.02427137324279418 -0.0005655093401331193 -0.01813556878550632 0.0 0.0
0.0 0.03360769936498023 0.02483688258292665 -0.024271373242793437 -0.0005655093401332069 0.01813556878553642 0.0 0.0
0.0 0.025872658953020926 0.017277312747337216 -0.016696477382800272 -0.0005808353645369492 0.018765602078715138 0.0 0.0
0.0 0.020903022140769313 0.012626491019737379 -0.012042044556793733 -0.0005844464629436435 0.01887413444526918 0.0 0.0
0.0 0.01725403010589703 0.009329467512969484 -0.008791580289092975 -0.0005378872238765036 0.018185794257943234 0.0 0.0
0.0 0.014109221532056805 0.0069316027441165134 -0.0064283572986358955 -0.0005032454454806174 0.016377661803980828 0.0 0.0
0.0 0.011390665143299075 0.005219626843496522 -0.0047480339297946905 -0.0004715929137018304 0.014086440671273874 0.0 0.0
0.0 0.009067023754457055 0.003940763577526965 -0.0035087901906864175 -0.0004319733868405485 0.011736681137972523 0.0 0.0
0.0 0.00700521492509678 0.0029103325021963026 -0.0025319095769343576 -0.0003784229252619452 0.00948389774897562 0.0 0.0
0.0 0.005192130712000302 0.0020280822754925685 -0.00172003818017505 -0.00030804409531751814 0.007355475884290814 0.0 0.0
0.0 0.003595475234705458 0.0012755002237430945 -0.0010539965540874725 -0.00022150366965562193 0.005369917131746855 0.0 0.0
0.0 0.002355031815608422 0.0006836854314622683 -0.0005577444728813352 -0.00012594095858093352 0.00358467652078125 0.0 0.0
0.0 0.0013319992612351606 0.0002986535685530574 -0.00024335367505199838 -5.5299893501058765e-05 0.002148923186085093 0.0 0.0
0.0 0.0007298421210827457 0.00011396315396313988 -9.264674067022577e-05 -2.1316413292914005e-05 0.001148064808889589 0.0 0.0
0.0 0.0003528513305441433 4.1696371771556156e-05 -3.371163596844157e-05 -7.984735803114576e-06 0.0005722053151757376 0.0 0.0
0.0 0.00014486780714698246 1.172624561076865e-05 -9.293411902219761e-06 -2.4328337085488876e-06 0.00022313209662104593 0.0 0.0
0.0 3.784270393951328e-05 1.467839837908269e-06 -9.987066838633126e-07 -4.6913315404495985e-07 5.4759020987757466e-05 0.0 0.0
0.0 7.593306875346411e-06 -1.2226374443102686e-07 1.6991386007142287e-07 -4.7650115640396084e-08 1.1138681632259805e-05 0.0 0.0
0.0 4.54075062008243e-06 -1.6234366219421272e-07 1.5453835722363912e-07 7.80530497057293e-09 4.690718837279234e-06 0.0 0.0
0.0 3.4774057216627464e-06 -3.129525356735454e-09 -7.555534823557613e-09 1.0685060180295599e-08 1.4805792912441577e-06 0.0 0.0
0.0 0.00015890030400899388 8.245294840944935e-05 -0.00011363488929509265 3.118194088564324e-05 0.00015249433647364352 0.0 0.0
0.0 1.941182039799154e-05 8.812986728948532e-06 -1.2697534863789373e-05 3.8845481348408294e-06 -1.7907229696920508e-05 0.0 0.0
0.0 3.1364184969858908e-06 -6.611589804823087e-08 3.20972615043796e-08 3.401863654385615e-08 -1.7273738163110827e-06 0.0 0.0
0.0 6.928972180612053e-06 -7.074509936516416e-07 6.034448758590108e-07 1.0400611779263134e-07 -8.659978219254981e-06 0.0 0.0
0.0 1.3086469362146639e-05 -1.5546072981529948e-06 1.3710316101216888e-06 1.8357568803130801e-07 -1.8865030429310388e-05 0.0 0.0
0.0 4.633042533832525e-05 -4.532562563896398e-06 3.9101122218136965e-06 6.224503420827087e-07 -6.52276188174022e-05 0.0 0.0
0.0 0.00015384434873941583 -1.529250917672879e-05 1.2607462816516051e-05 2.6850463602127304e-06 -0.0002297334110382145 0.0 0.0
0.0 0.0003585191834247445 -4.4482781117616984e-05 3.614057234538259e-05 8.342208772234364e-06 -0.0005816693251048731 0.0 0.0
0.0 0.0007331462980556267 -0.00011526872432225278 9.37096200609981e-05 2.1559104261254616e-05 -0.00115451974500664 0.0 0.0
0.0 0.0013316544919540012 -0.00029874485457234023 0.00024343714363631028 5.530771093602987e-05 -0.002150643104071326 0.0 0.0
0.0 0.0023541030617526856 -0.0006832189476176334 0.0005573989323139523 0.00012582001530368127 -0.003584204402606097 0.0 0.0
0.0 0.0036111723536764342 -0.0012809821863130112 0.001060295670614467 0.0002206865156985438 -0.005374593439171437 0.0 0.0
0.0 0.005222847837721267 -0.0020643545030495183 0.0017562162596600401 0.0003081382433894774 -0.00737288620936932 0.0 0.0
0.0 0.007067058458058623 -0.002987360131653726 0.002606020306183928 0.0003813398254697948 -0.009500493567800446 0.0 0.0
0.0 0.009097440487456341 -0.003990363083461261 0.003547440750566124 0.00044292233289513295 -0.011731908073031724 0.0 0.0
0.0 0.011147627914528637 -0.004937710527428606 0.004441518426629569 0.0004961921007990374 -0.014057512410293661 0.0 0.0
0.0 0.013055799127740868 -0.005566867152575551 0.0050240987724497095 0.0005427683801258361 -0.01643118092769428 0.0 0.0
0.0 0.01447984864300028 -0.005497982013658373 0.004915374790545402 0.000582607223112971 -0.018837966318395332 0.0 0.0
0.0 0.015302294603446901 -0.004457319085558992 0.003851772639686506 0.0006055464458724825 -0.02136401474985123 0.0 0.0
0.0 0.015524603687382165 -0.0024588037033811067 0.0018793301540889662 0.0005794735492921383 -0.023630430102691984 0.0 0.0
0.0 0.01539852106237461 0.003488536367729742 -0.003545418157961215 5.688179023147059e-05 -0.022763051591352824 0.0 0.0
0.0 0.015398521062378902 0.003488536367729603 -0.0035454181579611596 5.688179023156015e-05 0.022763051591365144 0.0 0.0
0.0 0.015524603687385275 -0.0024588037033812533 0.0018793301540884551 0.0005794735492927949 0.023630430102706754 0.0 0.0
0.0 0.015302294603440715 -0.0044573190855562465 0.0038517726396836375 0.0006055464458726054 0.021364014749850502 0.0 0.0
0.0 0.014479848642988973 -0.005497982013653072 0.004915374790540436 0.0005826072231126336 0.018837966318384712 0.0 0.0
0.0 0.013055799127724848 -0.005566867152566416 0.005024098772440957 0.0005427683801254542 0.016431180927677803 0.0 0.0
0.0 0.011147627914516175 -0.004937710527422056 0.00444151842662349 0.0004961921007985632 0.014057512410280543 0.0 0.0
0.0 0.00909744048744388 -0.003990363083453609 0.0035474407505589256 0.000442922332894682 0.011731908073021543 0.0 0.0
0.0 0.007067058458045358 -0.002987360131645329 0.0026060203061759957 0.0003813398254693318 0.009500493567789866 0.0 0.0
0.0 0.005222847837704091 -0.0020643545030397505 0.0017562162596509345 0.0003081382433888154 0.007372886209353297 0.0 0.0
0.0 0.00361117235366268 -0.0012809821863060899 0.0010602956706084236 0.00022068651569766583 0.0053745934391555 0.0 0.0
0.0 0.0023541030617410235 -0.0006832189476132218 0.000557398932310247 0.0001258200153029744 0.003584204402592838 0.0 0.0
0.0 0.0013316544919501159 -0.0002987448545708816 0.0002434371436350665 5.5307710935815085e-05 0.002150643104065978 0.0 0.0
0.0 0.0007331462980537098 -0.00011526872432175936 9.370962006058722e-05 2.1559104261172187e-05 0.0011545197450040772 0.0 0.0
0.0 0.0003585191834221507 -4.448278111737171e-05 3.614057234522178e-05 8.34220877214993e-06 0.0005816693251018762 0.0 0.0
0.0 0.00015384434873750877 -1.5292509176661492e-05 1.2607462816468212e-05 2.685046360193295e-06 0.00022973341103685747 0.0 0.0
0.0 4.6330425337203404e-05 -4.532562563917796e-06 3.910112221832138e-06 6.22450342085652e-07 6.522761881779253e-05 0.0 0.0
0.0 1.3086469361732679e-05 -1.554607298186102e-06 1.371031610149872e-06 1.8357568803622933e-07 1.8865030429661906e-05 0.0 0.0
0.0 6.928972180160605e-06 -7.07450993738449e-07 6.034448759320974e-07 1.0400611780635227e-07 8.65997822023594e-06 0.0 0.0
0.0 3.1364184965586135e-06 -6.611589806986379e-08 3.209726150674959e-08 3.4018636563119095e-08 1.7273738170967654e-06 0.0 0.0
0.0 1.9411820397412572e-05 8.812986729109293e-06 -1.2697534864000872e-05 3.884548134891574e-06 1.7907229697440084e-05 0.0 0.0
0.0 1.2794705618513804e-06 -7.325646252627723e-08 1.1123042410747284e-07 -3.797396158117645e-08 1.788907911065407e-07 0.0 0.0
0.0 2.1645109605332557e-06 -1.1642154945461068e-07 6.410761486696461e-08 5.231393458764456e-08 -2.21748428890756e-06 0.0 0.0
0.0 8.178864568258785e-06 -1.2922927768825318e-06 1.073457809106726e-06 2.1883496777580232e-07 -1.0179647407650878e-05 0.0 0.0
0.0 1.800604523290752e-05 -3.1321581823426345e-06 2.6668506853370484e-06 4.653074970055986e-07 -2.086789690913382e-05 0.0 0.0
0.0 5.3797367404138986e-05 -1.277345676764992e-05 1.0636246076571476e-05 2.1372106910784454e-06 -7.679520124558985e-05 0.0 0.0
0.0 0.00017221139865512445 -4.783046040099846e-05 3.888700198541463e-05 8.94345841558382e-06 -0.00024973256456538 0.0 0.0
0.0 0.0005210333129003458 -0.0001889045123179687 0.00015347583751130302 3.542867480666572e-05 -0.000758981280094258 0.0 0.0
0.0 0.0014093170877439562 -0.0007048451355290593 0.0005830719016450091 0.00012177323388404986 -0.0019831887281108315 0.0 0.0
0.0 0.0032193612983967106 -0.001921010396731394 0.0016444555023037671 0.0002765548944276272 -0.0039056022855957916 0.0 0.0
0.0 0.0057858708258014474 -0.003810152103498968 0.0033812667305060684 0.0004288853729928978 -0.006227271604268895 0.0 0.0
0.0 0.008861662124647311 -0.0061502642354938145 0.005611474212979839 0.000538790022513975 -0.008744402548944175 0.0 0.0
0.0 0.012372038988246598 -0.00878815530550162 0.008175724702976096 0.0006124306025255178 -0.011297086964684261 0.0 0.0
0.0 0.01616142445206149 -0.011699969073173866 0.011029402826582777 0.0006705662465910846 -0.013848615951829034 0.0 0.0
0.0 0.02025066707317969 -0.01485194782158039 0.014129379665629712 0.0007225681559506793 -0.016378365484052332 0.0 0.0
0.0 0.024495062700617052 -0.01809377945298021 0.017319996601081602 0.000773782851898599 -0.01895515167517254 0.0 0.0
0.0 0.02856090671249719 -0.021100300968402742 0.020277066834599938 0.0008232341338028043 -0.021644546068933374 0.0 0.0
0.0 0.032011683848796615 -0.023391797116562786 0.022527972442389986 0.000863824674172803 -0.024532204139035 0.0 0.0
0.0 0.03420564855053871 -0.024411078950112422 0.02352116079501292 0.0008899181550995201 -0.02752141063405196 0.0 0.0
0.0 0.03345000261458418 -0.02303981171580277 0.022056377865411703 0.000983433850391048 -0.028836906356919538 0.0 0.0
0.0 0.026924901628586937 -0.01618725697626435 0.01509027484459826 0.0010969821316660733 -0.026459384128610788 0.0 0.0
0.0 0.02692490162860172 -0.01618725697626847 0.01509027484460233 0.0010969821316661361 0.026459384128648487 0.0 0.0
0.0 0.03345000261459266 -0.023039811715799698 0.02205637786540831 0.0009834338503913772 0.028836906356968832 0.0 0.0
0.0 0.034205648550527615 -0.024411078950097097 0.023521160794997477 0.0008899181550996081 0.027521410634077433 0.0 0.0
0.0 0.03201168384877208 -0.0233917971165413 0.022527972442368628 0.0008638246741726751 0.02453220413903224 0.0 0.0
0.0 0.0285609067124662 -0.021100300968378435 0.020277066834575523 0.0008232341338029188 0.021644546068914618 0.0 0.0
0.0 0.024495062700592322 -0.01809377945296123 0.017319996601062967 0.0007737828518982659 0.018955151675155754 0.0 0.0
0.0 0.020250667073152116 -0.014851947821558752 0.014129379665608278 0.0007225681559504758 0.016378365484036456 0.0 0.0
0.0 0.01616142445203662 -0.011699969073153259 0.011029402826562573 0.000670566246590675 0.01384861595181709 0.0 0.0
0.0 0.01237203898821446 -0.008788155305477028 0.008175724702952053 0.0006124306025249745 0.011297086964662334 0.0 0.0
0.0 0.008861662124620513 -0.00615026423547496 0.00561147421296162 0.0005387900225133387 0.008744402548920536 0.0 0.0
0.0 0.005785870825777565 -0.0038101521034824126 0.0033812667304905803 0.0004288853729918327 0.006227271604246623 0.0 0.0
0.0 0.0032193612983814194 -0.0019210103967208052 0.001644455502294133 0.0002765548944266731 0.003905602285580621 0.0 0.0
0.0 0.0014093170877368835 -0.0007048451355246164 0.0005830719016413439 0.00012177323388327265 0.0019831887281028574 0.0 0.0
0.0 0.0005210333128959563 -0.00018890451231635822 0.0001534758375100429 3.542867480631535e-05 0.0007589812800891398 0.0 0.0
0.0 0.00017221139865313863 -4.783046040078197e-05 3.888700198523512e-05 8.943458415546868e-06 0.0002497325645641193 0.0 0.0
0.0 5.3797367402807694e-05 -1.2773456767553869e-05 1.0636246076493164e-05 2.1372106910606916e-06 7.679520124501918e-05 0.0 0.0
0.0 1.8006045232279334e-05 -3.1321581824284356e-06 2.666850685409804e-06 4.6530749701863303e-07 2.0867896909680656e-05 0.0 0.0
0.0 8.178864567554344e-06 -1.2922927769623547e-06 1.0734578091716243e-06 2.188349677907295e-07 1.0179647408253001e-05 0.0 0.0
0.0 2.1645109602710096e-06 -1.1642154948898358e-07 6.410761487141966e-08 5.2313934617564244e-08 2.2174842897112477e-06 0.0 0.0
0.0 1.2794705614589102e-06 -7.325646250320453e-08 1.1123042407310628e-07 -3.797396156990146e-08 -1.7889079104850708e-07 0.0 0.0
0.0 0.0 0.0 0.0 0.0 0.0 0.0 0.0
0.0 1.546319917433396e-06 2.096489414379388e-08 -7.102539574969584e-09 -1.3862354568826943e-08 3.138160816275471e-07 0.0 0.0
0.0 7.361386758401466e-06 -1.1051347833745468e-06 9.082018900499049e-07 1.9693289332463723e-07 -6.358219077443161e-06 0.0 0.0
0.0 2.072279419623024e-05 -4.5890590543203595e-06 3.8064477517848584e-06 7.826113025355084e-07 -2.0081781875847324e-05 0.0 0.0
0.0 6.379620261322024e-05 -2.260127908031564e-05 1.852293079143049e-05 4.078348288885162e-06 -8.27404327263879e-05 0.0 0.0
0.0 0.0002531378754744874 -0.00011440226580193184 9.288254019350655e-05 2.1519725608425187e-05 -0.0003348926470723547 0.0 0.0
0.0 0.0009904882935021808 -0.0005766652524670528 0.00047561343683860034 0.00010105181562845257 -0.0012365182713122698 0.0 0.0
0.0 0.002850899279359503 -0.001942038114679624 0.001663084836613194 0.0002789532780664301 -0.0030697464585986165 0.0 0.0
0.0 0.006060934207372938 -0.004400188915489821 0.003932083751617483 0.00046810516387233814 -0.005604548040147043 0.0 0.0
0.0 0.010193352584459 -0.007753662831090906 0.007152128594871989 0.0006015342362189141 -0.008599300567160541 0.0 0.0
0.0 0.01518850350773962 -0.011714625682888408 0.011027622198412896 0.0006870034844755216 -0.01175414599574705 0.0 0.0
0.0 0.02059250586218559 -0.016147647970435677 0.01539586254815518 0.0007517854222804923 -0.01482992408163762 0.0 0.0
0.0 0.026522090406390503 -0.02102554185257777 0.020216664311920096 0.000808877540657673 -0.017796500609931747 0.0 0.0
0.0 0.032974187693331776 -0.026332539673409282 0.02546696973841215 0.0008655699349971139 -0.02074193491894737 0.0 0.0
0.0 0.039859385482871566 -0.031921312576753055 0.030995405341263917 0.0009259072354891086 -0.023879412680622707 0.0 0.0
0.0 0.046717097521835206 -0.03742051249221067 0.036433194089962796 0.0009873184022478503 -0.027496322817331588 0.0 0.0
0.0 0.05300404803286985 -0.04221814718036907 0.04117303233591681 0.0010451148444522583 -0.031749617324757375 0.0 0.0
0.0 0.0572308398007043 -0.04532443216349221 0.04420631892789437 0.0011181132355978212 -0.03586244549254583 0.0 0.0
0.0 0.057356675454118954 -0.044858774105289906 0.04364628865225387 0.001212485453036012 -0.03787584667616823 0.0 0.0
0.0 0.04805097808991501 -0.036885785047410226 0.03543711284254602 0.0014486722048641992 -0.03382654238991743 0.0 0.0
0.0 0.04805097808992703 -0.03688578504741122 0.03543711284254731 0.0014486722048639017 0.03382654238996573 0.0 0.0
0.0 0.057356675454124845 -0.044858774105283494 0.0436462886522484 0.0012124854530351104 0.03787584667622934 0.0 0.0
0.0 0.057230839800689964 -0.04532443216347189 0.044206318927874744 0.0011181132355970952 0.035862445492584806 0.0 0.0
0.0 0.05300404803283884 -0.042218147180339866 0.04117303233588859 0.0010451148444513077 0.03174961732476231 0.0 0.0
0.0 0.04671709752179137 -0.03742051249217351 0.03643319408992635 0.0009873184022471644 0.02749632281731581 0.0 0.0
0.0 0.03985938548283009 -0.031921312576718944 0.030995405341230037 0.0009259072354889129 0.023879412680602792 0.0 0.0
0.0 0.032974187693290066 -0.02633253967337486 0.02546696973837808 0.0008655699349967741 0.02074193491892769 0.0 0.0
0.0 0.02652209040635019 -0.02102554185254352 0.020216664311886647 0.0008088775406568648 0.01779650060991584 0.0 0.0
0.0 0.02059250586214596 -0.01614764797040345 0.015395862548123534 0.0007517854222799166 0.014829924081614945 0.0 0.0
0.0 0.015188503507703777 -0.01171462568286032 0.011027622198385264 0.0006870034844750546 0.011754145995721846 0.0 0.0
0.0 0.01019335258442778 -0.007753662831067494 0.007152128594848974 0.0006015342362185219 0.008599300567135634 0.0 0.0
0.0 0.006060934207354053 -0.004400188915475216 0.00393208375160348 0.00046810516387173293 0.005604548040133191 0.0 0.0
0.0 0.0028508992793480114 -0.0019420381146710627 0.0016630848366056975 0.0002789532780653654 0.003069746458589277 0.0 0.0
0.0 0.0009904882934961478 -0.000576665252463744 0.00047561343683591087 0.00010105181562783302 0.0012365182713064734 0.0 0.0
0.0 0.00025313787547256257 -0.00011440226580159884 9.288254019324884e-05 2.151972560834995e-05 0.0003348926470713112 0.0 0.0
0.0 6.379620261226325e-05 -2.26012790804139e-05 1.8522930791508783e-05 4.078348288905077e-06 8.274043272667987e-05 0.0 0.0
0.0 2.0722794195512986e-05 -4.589059054439205e-06 3.8064477518828415e-06 7.826113025563507e-07 2.008178187636846e-05 0.0 0.0
0.0 7.361386758035937e-06 -1.1051347835325172e-06 9.082018901787489e-07 1.9693289335377474e-07 6.3582190783571425e-06 0.0 0.0
0.0 1.5463199168796422e-06 2.0964894136532813e-08 -7.10253957316928e-09 -1.3862354563367244e-08 -3.138160815128601e-07 0.0 0.0
0.0 0.0 0.0 0.0 0.0 0.0 0.0 0.0
0.0 0.0 0.0 0.0 0.0 0.0 0.0 0.0
0.0 3.8538157917848767e-07 8.524370000021943e-09 -5.889213621647465e-09 -2.6351563783748637e-09 7.625979648851619e-08 0.0 0.0
0.0 4.4045365521294855e-06 -7.436758093504354e-07 6.061085168343884e-07 1.3756729251604207e-07 -3.2826955008578065e-06 0.0 0.0
0.0 2.0094223144021843e-05 -6.663155742253435e-06 5.486044821923385e-06 1.1771109203300419e-06 -2.163258549132907e-05 0.0 0.0
0.0 8.451820578396031e-05 -3.915519936242739e-05 3.1893538134607765e-05 7.261661227819645e-06 -9.808130253042259e-05 0.0 0.0
0.0 0.00044693064812262735 -0.0002746733312144385 0.000224102512945065 5.0570818269373455e-05 -0.0005148575900103443 0.0 0.0
0.0 0.0017934325507873005 -0.0012814793834118468 0.0010794627902470572 0.00020201659316478943 -0.0017641772082518366 0.0 0.0
0.0 0.004703821246611648 -0.0035975971056407168 0.003176393240377832 0.000421203865262884 -0.003914288713587694 0.0 0.0
0.0 0.00921515489251392 -0.007258675429237312 0.006667040817418009 0.000591634611819305 -0.006828983400025547 0.0 0.0
0.0 0.014955115988880231 -0.012005215346964061 0.011304406174772012 0.000700809172192047 -0.010238736992343563 0.0 0.0
0.0 0.0216366200705547 -0.01754833882773153 0.016769627319139196 0.0007787115085923337 -0.013738650795480709 0.0 0.0
0.0 0.029073457791132924 -0.02374969439617572 0.022902970504464618 0.0008467238917110893 -0.017084165483841507 0.0 0.0
0.0 0.037245248991161564 -0.03058696083853534 0.029677062515719388 0.0009098983228159344 -0.02028373313769535 0.0 0.0
0.0 0.046100161261913804 -0.03805999931552892 0.037086210209567816 0.0009737891059611204 -0.023471213878482215 0.0 0.0
0.0 0.05562862864635585 -0.04603786544505416 0.04499554600346052 0.0010423194415935606 -0.026964241713323088 0.0 0.0
0.0 0.06540035631343535 -0.05410899793845108 0.05299152535388901 0.0011174725845620368 -0.031223113988597524 0.0 0.0
0.0 0.07438600116100083 -0.06141667212271423 0.060214891358993466 0.0012017807637207407 -0.03635417922392745 0.0 0.0
0.0 0.08080117269601284 -0.06642195030321098 0.06512147639673838 0.0013004739064725527 -0.041361323142211526 0.0 0.0
0.0 0.08122236221192411 -0.06645283328907445 0.06500806444361293 0.0014447688454614646 -0.043595951798378975 0.0 0.0
0.0 0.06981793522233933 -0.056674840641397536 0.05500849099374382 0.001666349647653733 -0.03974272365769171 0.0 0.0
0.0 0.06981793522234593 -0.05667484064139481 0.055008490993741166 0.0016663496476536184 0.03974272365774381 0.0 0.0
0.0 0.08122236221191896 -0.06645283328906014 0.06500806444359847 0.0014447688454616637 0.04359595179844357 0.0 0.0
0.0 0.08080117269598946 -0.06642195030318317 0.06512147639671043 0.0013004739064727206 0.04136132314225934 0.0 0.0
0.0 0.07438600116095646 -0.061416672122673086 0.06021489135895268 0.0012017807637203864 0.03635417922393702 0.0 0.0
0.0 0.06540035631338136 -0.05410899793840471 0.05299152535384297 0.0011174725845617378 0.0312231139885831 0.0 0.0
0.0 0.055628628646302074 -0.0460378654450085 0.044995546003415245 0.0010423194415932146 0.026964241713304894 0.0 0.0
0.0 0.04610016126186173 -0.038059999315485225 0.03708621020952447 0.0009737891059607699 0.023471213878460774 0.0 0.0
0.0 0.03724524899111019 -0.03058696083849147 0.029677062515675878 0.0009098983228156072 0.020283733137678957 0.0 0.0
0.0 0.0290734577910806 -0.023749694396131765 0.022902970504421166 0.0008467238917105842 0.01708416548381779 0.0 0.0
0.0 0.021636620070505562 -0.017548338827691565 0.01676962731909965 0.0007787115085919126 0.013738650795451363 0.0 0.0
0.0 0.01495511598883533 -0.01200521534692831 0.011304406174736801 0.0007008091721915068 0.010238736992312869 0.0 0.0
0.0 0.009215154892480473 -0.007258675429210827 0.006667040817392151 0.0005916346118186794 0.006828983400004472 0.0 0.0
0.0 0.004703821246591614 -0.003597597105625016 0.003176393240363206 0.00042120386526180793 0.003914288713573845 0.0 0.0
0.0 0.001793432550774616 -0.0012814793834028321 0.0010794627902391126 0.0002020165931637191 0.001764177208241079 0.0 0.0
0.0 0.00044693064811770377 -0.00027467333121192444 0.00022410251294295501 5.0570818268969434e-05 0.0005148575900060696 0.0 0.0
0.0 8.451820578270444e-05 -3.915519936232675e-05 3.189353813451449e-05 7.261661227812195e-06 9.808130253007876e-05 0.0 0.0
0.0 2.0094223143571842e-05 -6.663155742535681e-06 5.4860448221493495e-06 1.1771109203863257e-06 2.1632585492173955e-05 0.0 0.0
0.0 4.4045365517217865e-06 -7.436758095182133e-07 6.061085169697734e-07 1.375672925484381e-07 3.282695501609855e-06 0.0 0.0
0.0 3.8538157904294466e-07 8.52436999717895e-09 -5.889213619678072e-09 -2.6351563774992616e-09 -7.62597964614563e-08 0.0 0.0
0.0 0.0 0.0 0.0 0.0 0.0 0.0 0.0
0.0 0.0 0.0 0.0 0.0 0.0 0.0 0.0
0.0 0.0 0.0 0.0 0.0 0.0 0.0 0.0
0.0 1.8818304497200493e-06 -3.122361438207152e-07 2.5518402507769746e-07 5.7052118743021263e-08 -1.095501389315487e-06 0.0 0.0
0.0 1.9026651519343372e-05 -5.708501072315895e-06 4.642085389295278e-06 1.0664156830206294e-06 -1.3773936926836121e-05 0.0 0.0
0.0 0.00013644498636814352 -7.299746587165139e-05 5.9166287357527295e-05 1.3831178514124068e-05 -0.00012807920799628238 0.0 0.0
0.0 0.0008007332619372873 -0.0005849505256405175 0.0004820222934063217 0.00010292823223419573 -0.0007418930830532219 0.0 0.0
0.0 0.0028864085156578 -0.002259739264204157 0.0019466834979590623 0.00031305576624509506 -0.002157174272134286 0.0 0.0
0.0 0.006824576714758764 -0.005526782355929184 0.004997650539652445 0.0005291318162767363 -0.004440272387656465 0.0 0.0
0.0 0.012557580527044056 -0.010342384493212228 0.009670092399196726 0.0006722920940155023 -0.007534520613440064 0.0 0.0
0.0 0.019804025368466448 -0.016427908091017896 0.015658838278670366 0.0007690698123475271 -0.011060393047203321 0.0 0.0
0.0 0.028239935655494354 -0.023526128668554802 0.022676245032098655 0.00084988363645615 -0.0146220591953146 0.0 0.0
0.0 0.03767279257537664 -0.031491868140401794 0.03056725532251904 0.000924612817882768 -0.018037240674240392 0.0 0.0
0.0 0.048037711131942225 -0.040287463373474636 0.03929196727320994 0.0009954961002646698 -0.021305890631056715 0.0 0.0
0.0 0.059364650962934314 -0.04992160290321268 0.04885573736655866 0.001065865536654027 -0.024535494912194988 0.0 0.0
0.0 0.0716254653664984 -0.06029728045577801 0.059154382065792765 0.0011428983899852418 -0.02807830213017628 0.0 0.0
0.0 0.08410217841166273 -0.07094605623128583 0.06971219620581834 0.0012338600254674819 -0.032449552739957734 0.0 0.0
0.0 0.09594210762937691 -0.08071143684780938 0.07936873769593715 0.0013426991518722057 -0.03782210698822902 0.0 0.0
0.0 0.10427359203319617 -0.08745284408024803 0.08597643820071353 0.0014764058795345108 -0.043210914377901886 0.0 0.0
0.0 0.10485533875413987 -0.08767195707770985 0.08602926429188339 0.0016426927858264385 -0.046196176597895856 0.0 0.0
0.0 0.09175900727575491 -0.07613118651437412 0.07429324242560226 0.0018379440887718794 -0.04484230823514924 0.0 0.0
0.0 0.09175900727575308 -0.0761311865143652 0.07429324242559308 0.001837944088772072 0.04484230823520048 0.0 0.0
0.0 0.10485533875412481 -0.08767195707768821 0.08602926429186193 0.0016426927858262676 0.0461961765979611 0.0 0.0
0.0 0.1042735920331613 -0.08745284408021153 0.0859764382006772 0.001476405879534222 0.04321091437794921 0.0 0.0
0.0 0.09594210762932488 -0.08071143684776183 0.07936873769588981 0.0013426991518719652 0.03782210698824133 0.0 0.0
0.0 0.08410217841159849 -0.07094605623123008 0.06971219620576273 0.0012338600254673438 0.032449552739947714 0.0 0.0
0.0 0.07162546536642928 -0.060297280455718645 0.05915438206573366 0.001142898389984999 0.0280783021301587 0.0 0.0
0.0 0.05936465096286543 -0.049921602903153756 0.04885573736650032 0.0010658655366534479 0.02453549491217341 0.0 0.0
0.0 0.04803771113187465 -0.040287463373416696 0.03929196727315206 0.0009954961002646282 0.021305890631037848 0.0 0.0
0.0 0.03767279257531458 -0.03149186814034885 0.03056725532246682 0.0009246128178820157 0.018037240674217223 0.0 0.0
0.0 0.028239935655435207 -0.023526128668505234 0.022676245032050027 0.0008498836364551873 0.014622059195285137 0.0 0.0
0.0 0.01980402536841397 -0.01642790809097448 0.015658838278627546 0.000769069812346935 0.01106039304717217 0.0 0.0
0.0 0.012557580527007462 -0.010342384493181818 0.009670092399166962 0.000672292094014859 0.007534520613420898 0.0 0.0
0.0 0.0068245767147317865 -0.005526782355907247 0.004997650539631419 0.0005291318162758289 0.0044402723876408624 0.0 0.0
0.0 0.0028864085156424567 -0.0022597392641923314 0.001946683497948447 0.00031305576624388455 0.002157174272124244 0.0 0.0
0.0 0.0008007332619310036 -0.0005849505256364984 0.0004820222934029788 0.00010292823223351924 0.0007418930830485979 0.0 0.0
0.0 0.00013644498636624606 -7.299746587113715e-05 5.9166287357097335e-05 1.3831178514039722e-05 0.0001280792079953747 0.0 0.0
0.0 1.9026651518855756e-05 -5.708501072526733e-06 4.6420853894652526e-06 1.0664156830614892e-06 1.3773936927360408e-05 0.0 0.0
0.0 1.8818304496451314e-06 -3.1223614395043585e-07 2.551840251826118e-07 5.7052118767821845e-08 1.0955013897720906e-06 0.0 0.0
0.0 0.0 0.0 0.0 0.0 0.0 0.0 0.0
0.0 0.0 0.0 0.0 0.0 0.0 0.0 0.0
0.0 0.0 0.0 0.0 0.0 0.0 0.0 0.0
0.0 0.0 0.0 0.0 0.0 0.0 0.0 0.0
0.0 9.159772724021529e-07 5.630253744311479e-08 -4.536700834069255e-08 -1.0935529102421052e-08 1.5681455061216043e-07 0.0 0.0
0.0 1.6225858441130627e-05 -8.136702577076144e-06 6.553727495185399e-06 1.5829750818907846e-06 -1.4921067419082234e-05 0.0 0.0
0.0 0.00022582479670061286 -0.00015503254169885343 0.00012556386029355916 2.9468681405294338e-05 -0.00019427161537301989 0.0 0.0
0.0 0.0013507185340306837 -0.0010622158839734195 0.0008868776275389322 0.00017533825643448756 -0.0009275112463782621 0.0 0.0
0.0 0.004244917515209558 -0.0034527393443253 0.003038377932765734 0.0004143614115595663 -0.002350653233527244 0.0 0.0
0.0 0.009066413407284458 -0.007648820768879036 0.007041940353400849 0.0006068804154781842 -0.004629056627191026 0.0 0.0
0.0 0.016009322692545402 -0.013554331453157289 0.012825970007261512 0.0007283614458957824 -0.007640523880841569 0.0 0.0
0.0 0.024737678246259855 -0.020943241229568314 0.020119974743418523 0.0008232664861497999 -0.011018132071462355 0.0 0.0
0.0 0.03491882423189823 -0.02958609029235735 0.02867600735006663 0.0009100829422906989 -0.014451521644704639 0.0 0.0
0.0 0.04632508931759798 -0.0393180685681825 0.03832527707587889 0.0009927914923035725 -0.0177428495283997 0.0 0.0
0.0 0.05895462623889303 -0.050074119589746835 0.04900201005903362 0.0010721095307132213 -0.020902679797029804 0.0 0.0
0.0 0.07261263515185659 -0.06185491154871722 0.06070526244512459 0.0011496491035926373 -0.0240132207331286 0.0 0.0
0.0 0.08745683298316236 -0.07457652415786419 0.07334230289216145 0.0012342212657027573 -0.027270233486689055 0.0 0.0
0.0 0.10294109977147421 -0.08773009861420265 0.08639012912695813 0.0013399694872445141 -0.031157069589552 0.0 0.0
0.0 0.11712983713310138 -0.09988464016816567 0.09841034256302478 0.0014742976051408453 -0.036127180672704075 0.0 0.0
0.0 0.12716406567469093 -0.10828682271923323 0.10664982393603938 0.0016369987831938366 -0.04170441036895225 0.0 0.0
0.0 0.12819889626987718 -0.10874862561341822 0.10693320650794186 0.0018154191054763208 -0.046419603150571635 0.0 0.0
0.0 0.11418582869738364 -0.09574747438129268 0.09375223885061593 0.0019952355306767466 -0.04953525654671571 0.0 0.0
0.0 0.11418582869738297 -0.09574747438128564 0.09375223885060888 0.001995235530676685 0.04953525654676794 0.0 0.0
0.0 0.12819889626985 -0.10874862561338793 0.10693320650791079 0.0018154191054771003 0.04641960315063715 0.0 0.0
0.0 0.12716406567464653 -0.10828682271918948 0.10664982393599619 0.0016369987831932682 0.041704410368999884 0.0 0.0
0.0 0.11712983713303722 -0.09988464016810786 0.09841034256296788 0.0014742976051399415 0.03612718067271637 0.0 0.0
0.0 0.10294109977139765 -0.08773009861413586 0.08639012912689192 0.001339969487243914 0.031157069589544846 0.0 0.0
0.0 0.08745683298308304 -0.07457652415779534 0.07334230289209323 0.0012342212657020489 0.027270233486677592 0.0 0.0
0.0 0.07261263515177534 -0.0618549115486473 0.060705262445054656 0.0011496491035926323 0.024013220733110862 0.0 0.0
0.0 0.05895462623881449 -0.05007411958967869 0.049002010058966 0.0010721095307126322 0.0209026797970124 0.0 0.0
0.0 0.04632508931752356 -0.03931806856811828 0.0383252770758152 0.0009927914923030757 0.017742849528378794 0.0 0.0
0.0 0.03491882423183049 -0.02958609029230002 0.02867600735000979 0.0009100829422902302 0.014451521644675804 0.0 0.0
0.0 0.02473767824620083 -0.02094324122951876 0.020119974743369247 0.0008232664861494986 0.011018132071433994 0.0 0.0
0.0 0.016009322692497236 -0.013554331453116433 0.012825970007220983 0.0007283614458954502 0.0076405238808209186 0.0 0.0
0.0 0.009066413407251278 -0.007648820768851152 0.007041940353373554 0.0006068804154775911 0.004629056627175247 0.0 0.0
0.0 0.004244917515190076 -0.0034527393443094458 0.0030383779327510583 0.00041436141155838836 0.0023506532335174617 0.0 0.0
0.0 0.0013507185340204332 -0.0010622158839657277 0.0008868776275323109 0.00017533825643341637 0.000927511246372017 0.0 0.0
0.0 0.00022582479669747512 -0.00015503254169729988 0.0001255638602922516 2.9468681405048166e-05 0.00019427161537109608 0.0 0.0
0.0 1.622585844091045e-05 -8.136702577337084e-06 6.553727495391531e-06 1.582975081945534e-06 1.4921067419556406e-05 0.0 0.0
0.0 9.159772720464821e-07 5.630253742091469e-08 -4.5367008322703315e-08 -1.0935529098212496e-08 -1.5681455054918204e-07 0.0 0.0
0.0 0.0 0.0 0.0 0.0 0.0 0.0 0.0
0.0 0.0 0.0 0.0 0.0 0.0 0.0 0.0
0.0 0.0 0.0 0.0 0.0 0.0 0.0 0.0
0.0 0.0 0.0 0.0 0.0 0.0 0.0 0.0
0.0 2.633745482838499e-07 1.9034837468267232e-08 -1.5232417022672714e-08 -3.80242044559584e-09 3.959451352121644e-08 0.0 0.0
0.0 1.7196502460399245e-05 -1.0715504142722182e-05 8.570510671456949e-06 2.144993471265254e-06 -1.450259754613051e-05 0.0 0.0
0.0 0.0003988548674568453 -0.0003051195606208705 0.0002478882373551552 5.723132326571538e-05 -0.0002649627332012854 0.0 0.0
0.0 0.0020965258715862473 -0.0017033733952338426 0.001445576637848975 0.0002577967573848688 -0.0010149177345735304 0.0 0.0
0.0 0.005595362444723399 -0.004828635212522606 0.004329896771099097 0.000498738441423512 -0.0023554478267748024 0.0 0.0
0.0 0.011434979568760951 -0.009880593260362818 0.009220131742619014 0.0006604615177438059 -0.004422418943953279 0.0 0.0
0.0 0.019580478944699574 -0.01682777064807118 0.01605619666899025 0.0007715739790809267 -0.007100863906789848 0.0 0.0
0.0 0.029727955103649926 -0.02550507112636594 0.024635920494641937 0.0008691506317240207 -0.010145953782754139 0.0 0.0
0.0 0.04162267695466548 -0.035683095909299946 0.03472047690817101 0.0009626190011289154 -0.013242140294913551 0.0 0.0
0.0 0.05503579618325623 -0.04718341140091915 0.04612954585384024 0.0010538655470788737 -0.016216387704061915 0.0 0.0
0.0 0.06983439499278574 -0.05990895663252031 0.05876648889480515 0.0011424677377151328 -0.019099554946074484 0.0 0.0
0.0 0.08600363411759429 -0.07381079133153776 0.07258125729429446 0.0012295340372432896 -0.02190517966735098 0.0 0.0
0.0 0.10337055075982274 -0.08877346548853232 0.08745220024298479 0.0013212652455475652 -0.024636545489166058 0.0 0.0
0.0 0.12114597762461804 -0.10427560268414073 0.10283950089144248 0.0014361017926982137 -0.027543545559056387 0.0 0.0
0.0 0.13796052244976698 -0.11872627050694214 0.11713405331505754 0.001592217191884556 -0.03138719582066393 0.0 0.0
0.0 0.14999049016476299 -0.12889422884013535 0.12711462705405516 0.0017796017860801654 -0.036951904352863454 0.0 0.0
0.0 0.15184709682383926 -0.12996287328068082 0.12798781198759393 0.001975061293086818 -0.04438039482034497 0.0 0.0
0.0 0.13721812457360752 -0.11593959835773587 0.11378824258975709 0.002151355767978663 -0.05384022596362129 0.0 0.0
0.0 0.13721812457359955 -0.11593959835772319 0.11378824258974421 0.0021513557679790317 0.05384022596367123 0.0 0.0
0.0 0.15184709682380546 -0.12996287328064637 0.12798781198755899 0.001975061293087438 0.04438039482040493 0.0 0.0
0.0 0.14999049016470617 -0.12889422884008309 0.1271146270540025 0.001779601786080444 0.03695190435290602 0.0 0.0
0.0 0.1379605224496898 -0.11872627050687433 0.11713405331498973 0.0015922171918845976 0.03138719582067277 0.0 0.0
0.0 0.12114597762452467 -0.10427560268405975 0.10283950089136158 0.00143610179269809 0.027543545559049868 0.0 0.0
0.0 0.1033705507597289 -0.08877346548845101 0.08745220024290398 0.0013212652455470318 0.02463654548915596 0.0 0.0
0.0 0.0860036341175029 -0.07381079133145865 0.0725812572942164 0.0012295340372421608 0.02190517966733531 0.0 0.0
0.0 0.0698343949926924 -0.05990895663243947 0.05876648889472502 0.0011424677377144421 0.019099554946058035 0.0 0.0
0.0 0.05503579618316468 -0.047183411400839856 0.046129545853761666 0.0010538655470782145 0.016216387704041622 0.0 0.0
0.0 0.04162267695458536 -0.035683095909230994 0.03472047690810286 0.0009626190011281073 0.013242140294886419 0.0 0.0
0.0 0.02972795510358179 -0.025505071126307455 0.024635920494584136 0.0008691506317233008 0.010145953782728544 0.0 0.0
0.0 0.019580478944643404 -0.01682777064802257 0.01605619666894216 0.0007715739790804144 0.007100863906771911 0.0 0.0
0.0 0.01143497956872262 -0.009880593260329602 0.009220131742586573 0.0006604615177430283 0.00442241894393909 0.0 0.0
0.0 0.005595362444700339 -0.00482863521250291 0.004329896771080373 0.0004987384414225364 0.002355447826765561 0.0 0.0
0.0 0.0020965258715746693 -0.0017033733952249992 0.0014455766378410524 0.0002577967573839465 0.0010149177345683913 0.0 0.0
0.0 0.00039885486745331504 -0.0003051195606188481 0.00024788823735350467 5.723132326534319e-05 0.00026496273319983444 0.0 0.0
0.0 1.719650245981479e-05 -1.0715504142868556e-05 8.57051067156071e-06 2.144993471307854e-06 1.4502597546290736e-05 0.0 0.0
0.0 2.633745479801639e-07 1.90348374459991e-08 -1.5232417004860948e-08 -3.802420441135515e-09 -3.959451347502403e-08 0.0 0.0
0.0 0.0 0.0 0.0 0.0 0.0 0.0 0.0
0.0 0.0 0.0 0.0 0.0 0.0 0.0 0.0
0.0 0.0 0.0 0.0 0.0 0.0 0.0 0.0
0.0 0.0 0.0 0.0 0.0 0.0 0.0 0.0
0.0 0.0 0.0 0.0 0.0 0.0 0.0 0.0
0.0 2.6257799133095553e-05 -1.902137774124906e-05 1.5225861124552645e-05 3.7955166166964064e-06 -1.8157539916079282e-05 0.0 0.0
0.0 0.0006963978073561001 -0.0005556999180386105 0.00045435122615255315 0.00010134869188605708 -0.00031078923994414903 0.0 0.0
0.0 0.0029669415323068573 -0.002501419491020053 0.0021586594611826453 0.00034276002983740794 -0.0009800005273765176 0.0 0.0
0.0 0.007154174242073432 -0.006310623499283191 0.005747004625979602 0.0005636188733035882 -0.0020824216922313886 0.0 0.0
0.0 0.0139317227470833 -0.012161409355356406 0.01146179435331746 0.000699615002038946 -0.0037510053269735476 0.0 0.0
0.0 0.023195037383025446 -0.02012655256434174 0.01931974402851171 0.0008068085358300153 -0.005945962252776907 0.0 0.0
0.0 0.034753703336420486 -0.030071845525275906 0.02916322374142952 0.0009086217838463798 -0.008455629435998676 0.0 0.0
0.0 0.04836989487692726 -0.04177580835945838 0.04076646663055966 0.0010093417288986853 -0.011013961252947237 0.0 0.0
0.0 0.06373080840752143 -0.05504691975754632 0.053937898349519106 0.0011090214080272 -0.01346800355588486 0.0 0.0
0.0 0.08085156898931979 -0.06974878450420452 0.06854090432885154 0.0012078801753529717 -0.015861004528296925 0.0 0.0
0.0 0.099248965266603 -0.08575674546476916 0.08445014636495278 0.0013065990998164076 -0.01821837160549313 0.0 0.0
0.0 0.11892108972686356 -0.1028388479931708 0.1014306938468605 0.0014081541463103254 -0.020327285422661063 0.0 0.0
0.0 0.13919382376938558 -0.12042179134465397 0.11889577644187432 0.0015260149027796271 -0.021959438632704647 0.0 0.0
0.0 0.15831626777303387 -0.1369975970903894 0.13531182822851395 0.001685768861875425 -0.02392209557878368 0.0 0.0
0.0 0.17259205855450235 -0.14922410340832473 0.14732072699332466 0.0019033764150000092 -0.028887583049811868 0.0 0.0
0.0 0.17597666610529572 -0.1515668328430525 0.14944094540218375 0.002125887440868876 -0.03961869161795342 0.0 0.0
0.0 0.1615786144099702 -0.13717338829304043 0.13485410841803136 0.0023192798750090687 -0.057431405618488966 0.0 0.0
0.0 0.16157861440996021 -0.1371733882930276 0.1348541084180187 0.0023192798750088215 0.05743140561852786 0.0 0.0
0.0 0.17597666610525725 -0.15156683284301545 0.14944094540214714 0.0021258874408683556 0.03961869161800512 0.0 0.0
0.0 0.1725920585544347 -0.14922410340826375 0.14732072699326443 0.0019033764149992472 0.028887583049849074 0.0 0.0
0.0 0.15831626777294383 -0.13699759709031073 0.13531182822843613 0.0016857688618746457 0.023922095578791002 0.0 0.0
0.0 0.1391938237692881 -0.12042179134456898 0.1188957764417907 0.0015260149027783055 0.021959438632701517 0.0 0.0
0.0 0.11892108972675802 -0.10283884799307905 0.10143069384676935 0.001408154146309749 0.020327285422656806 0.0 0.0
0.0 0.09924896526649656 -0.08575674546467707 0.08445014636486123 0.001306599099815819 0.018218371605480822 0.0 0.0
0.0 0.0808515689892151 -0.06974878450411376 0.06854090432876117 0.001207880175352612 0.015861004528285 0.0 0.0
0.0 0.06373080840741951 -0.055046919757458304 0.053937898349431225 0.0011090214080270555 0.013468003555870474 0.0 0.0
0.0 0.04836989487683564 -0.04177580835937899 0.0407664666304808 0.0010093417288981746 0.011013961252925093 0.0 0.0
0.0 0.034753703336343214 -0.030071845525209032 0.02916322374136311 0.0009086217838459211 0.008455629435976721 0.0 0.0
0.0 0.02319503738296734 -0.020126552564291047 0.01931974402846172 0.0008068085358293279 0.005945962252762092 0.0 0.0
0.0 0.013931722747042751 -0.01216140935532081 0.011461794353282566 0.000699615002038247 0.0037510053269623556 0.0 0.0
0.0 0.007154174242044868 -0.006310623499258114 0.005747004625955344 0.000563618873302773 0.0020824216922231092 0.0 0.0
0.0 0.0029669415322926074 -0.002501419491008197 0.0021586594611718913 0.0003427600298363054 0.0009800005273716335 0.0 0.0
0.0 0.0006963978073514167 -0.0005556999180354363 0.0004543512261498791 0.0001013486918855573 0.00031078923994250424 0.0 0.0
0.0 2.6257799132636708e-05 -1.9021377741578312e-05 1.5225861124799496e-05 3.7955166167788384e-06 1.8157539916339504e-05 0.0 0.0
0.0 0.0 0.0 0.0 0.0 0.0 0.0 0.0
0.0 0.0 0.0 0.0 0.0 0.0 0.0 0.0
0.0 0.0 0.0 0.0 0.0 0.0 0.0 0.0
0.0 0.0 0.0 0.0 0.0 0.0 0.0 0.0
0.0 0.0 0.0 0.0 0.0 0.0 0.0 0.0
0.0 0.0 0.0 0.0 0.0 0.0 0.0 0.0
0.0 5.937363094797728e-05 -4.575408989983579e-05 3.655147449717464e-05 9.202615402661177e-06 -2.666057053382602e-05 0.0 0.0
0.0 0.001147374040606982 -0.0009257807293935144 0.0007657302163461478 0.00016005051304736657 -0.0002962370689811046 0.0 0.0
0.0 0.003807004297633451 -0.0034338751636081868 0.0030112582737205525 0.00042261688988763283 -0.0007712253201590211 0.0 0.0
0.0 0.008849679813966112 -0.007847898645123303 0.007238129420446879 0.0006097692246764268 -0.0015210508059769674 0.0 0.0
0.0 0.01647484016054725 -0.01446353082007984 0.01373309905631662 0.0007304317637632258 -0.0026561285463737472 0.0 0.0
0.0 0.026829313401196 -0.023413240740571873 0.022577572886386885 0.0008356678541849818 -0.0041813001431074935 0.0 0.0
0.0 0.03978128251171962 -0.03460479673559323 0.0336621525538876 0.0009426441817056217 -0.005951982758557337 0.0 0.0
0.0 0.05509399522952462 -0.04782633826135294 0.046775318661197766 0.00105101960015516 -0.00776016927262058 0.0 0.0
0.0 0.07256788795584661 -0.0628677135854976 0.061708246339896425 0.0011594672456011763 -0.009495328279219974 0.0 0.0
0.0 0.0917035830112932 -0.07955163836463983 0.07828279250600534 0.0012688458586344988 -0.01121686585648713 0.0 0.0
0.0 0.11253124810512449 -0.09764764558128265 0.09626715353096384 0.001380492050318777 -0.012896245036347896 0.0 0.0
0.0 0.13457597956891174 -0.1167566575878837 0.11526088967401729 0.0014957679138663336 -0.014273874893628961 0.0 0.0
0.0 0.15690961765605005 -0.13615197136872942 0.13453411252485298 0.001617858843876413 -0.014877071595727197 0.0 0.0
0.0 0.17796767451919798 -0.15446114567439495 0.15269794204471568 0.0017632036296793975 -0.0147891026740627 0.0 0.0
0.0 0.1946583210253153 -0.16889105025825613 0.1669224059983464 0.001968644259909667 -0.017251528968635552 0.0 0.0
0.0 0.20089345893652477 -0.17377456510968559 0.17149176776666597 0.0022827973430194657 -0.030478995330896288 0.0 0.0
0.0 0.18787395147806601 -0.16014696694580824 0.1576312591111815 0.0025157078346266194 -0.05949845144523197 0.0 0.0
0.0 0.1878739514780538 -0.16014696694579472 0.15763125911116874 0.002515707834625887 0.05949845144526135 0.0 0.0
0.0 0.2008934589364812 -0.17377456510964553 0.17149176776662672 0.0022827973430187666 0.030478995330938743 0.0 0.0
0.0 0.19465832102523895 -0.16889105025818876 0.16692240599828034 0.001968644259908515 0.017251528968662583 0.0 0.0
0.0 0.17796767451910062 -0.15446114567430988 0.15269794204463186 0.0017632036296780292 0.014789102674066221 0.0 0.0
0.0 0.15690961765593636 -0.13615197136863078 0.13453411252475497 0.0016178588438757677 0.014877071595723476 0.0 0.0
0.0 0.13457597956878772 -0.11675665758777629 0.1152608896739099 0.0014957679138663995 0.014273874893627417 0.0 0.0
0.0 0.11253124810500305 -0.09764764558117764 0.09626715353085888 0.0013804920503187029 0.012896245036341788 0.0 0.0
0.0 0.09170358301117339 -0.07955163836453577 0.07828279250590216 0.001268845858633634 0.011216865856479533 0.0 0.0
0.0 0.07256788795573352 -0.06286771358539897 0.06170824633979899 0.001159467245599974 0.009495328279210425 0.0 0.0
0.0 0.0550939952294254 -0.0478263382612667 0.04677531866111267 0.001051019600154018 0.0077601692726045005 0.0 0.0
0.0 0.039781282511634306 -0.03460479673551908 0.03366215255381419 0.0009426441817049084 0.005951982758541143 0.0 0.0
0.0 0.026829313401129054 -0.023413240740513 0.022577572886328716 0.0008356678541842802 0.004181300143098456 0.0 0.0
0.0 0.01647484016049785 -0.014463530820036317 0.013733099056273797 0.0007304317637625105 0.0026561285463658837 0.0 0.0
0.0 0.008849679813934495 -0.007847898645095072 0.0072381294204195545 0.0006097692246755169 0.001521050805971005 0.0 0.0
0.0 0.003807004297617267 -0.0034338751635937395 0.0030112582737070377 0.0004226168898867028 0.0007712253201554047 0.0 0.0
0.0 0.0011473740406007262 -0.0009257807293888523 0.0007657302163421686 0.00016005051304668352 0.0002962370689798679 0.0 0.0
0.0 5.9373630946987476e-05 -4.5754089899834934e-05 3.655147449714777e-05 9.202615402687117e-06 2.6660570533775387e-05 0.0 0.0
0.0 0.0 0.0 0.0 0.0 0.0 0.0 0.0
0.0 0.0 0.0 0.0 0.0 0.0 0.0 0.0
0.0 0.0 0.0 0.0 0.0 0.0 0.0 0.0
0.0 0.0 0.0 0.0 0.0 0.0 0.0 0.0
0.0 0.0 0.0 0.0 0.0 0.0 0.0 0.0
0.0 0.0 0.0 0.0 0.0 0.0 0.0 0.0
0.0 0.0001573395234546821 -0.0001327595775838429 0.00010574343805211126 2.7016139531731736e-05 -3.267044772995671e-05 0.0 0.0
0.0 0.001757305556431104 -0.0014105108495067052 0.001181394064120062 0.0002291167853866425 -0.00017726751396625174 0.0 0.0
0.0 0.00491194989560018 -0.004430302815569327 0.003942490197290316 0.00048781261827901133 -0.00036434787131708825 0.0 0.0
0.0 0.01060353020744968 -0.009417713663391326 0.008772762955839595 0.000644950707551729 -0.0006695107321957794 0.0 0.0
0.0 0.01905839545301727 -0.016754186831234478 0.015999638527491356 0.0007545483037431149 -0.0011412678263398998 0.0 0.0
0.0 0.030481213834043366 -0.026650673628749857 0.025790894854077814 0.0008597787746720401 -0.0018154969238971235 0.0 0.0
0.0 0.04483577005275734 -0.03906414187902188 0.03809233328832985 0.0009718085906920385 -0.0026314600965040634 0.0 0.0
0.0 0.06191888588321558 -0.05379745015535414 0.05270944167180914 0.0010880084835449954 -0.0034799786279030944 0.0 0.0
0.0 0.08117130949861653 -0.07061407168832093 0.0694080473374118 0.0012060243509091268 -0.004311944690989309 0.0 0.0
0.0 0.10261163124115043 -0.08926332300782477 0.08793747385838774 0.0013258491494370433 -0.005128781233251815 0.0 0.0
0.0 0.12585901465538274 -0.10942028756746543 0.10797030525156298 0.001449982315902446 -0.005879710665886231 0.0 0.0
0.0 0.15019303591829575 -0.13052307454352513 0.12894293275907504 0.0015801417844501443 -0.006408133156338875 0.0 0.0
0.0 0.17451406929138835 -0.1516011993346513 0.14988630814785775 0.0017148911867934295 -0.0063630094339927595 0.0 0.0
0.0 0.19708793357345172 -0.17117972752578475 0.16932844819814824 0.0018512793276365628 -0.005328032343725133 0.0 0.0
0.0 0.21542529804185145 -0.18711129976441443 0.18510751307116152 0.0020037866932526537 -0.004333286256041097 0.0 0.0
0.0 0.22541159389165893 -0.19557375408731123 0.1933276407750311 0.002246113312280003 -0.012896613187354269 0.0 0.0
0.0 0.21780809669294648 -0.18676038863332628 0.1838683500382672 0.0028920385950590034 -0.05489844577100099 0.0 0.0
0.0 0.21780809669292556 -0.18676038863330724 0.18386835003824836 0.0028920385950586634 0.05489844577101109 0.0 0.0
0.0 0.2254115938915987 -0.19557375408725883 0.19332764077497858 0.002246113312280006 0.012896613187375207 0.0 0.0
0.0 0.2154252980417577 -0.1871112997643329 0.18510751307108064 0.0020037866932521783 0.004333286256053868 0.0 0.0
0.0 0.19708793357333332 -0.17117972752568242 0.16932844819804588 0.0018512793276365689 0.005328032343724214 0.0 0.0
0.0 0.17451406929126267 -0.15160119933454233 0.14988630814774948 0.0017148911867927294 0.006363009433988393 0.0 0.0
0.0 0.1501930359181661 -0.1305230745434124 0.12894293275896335 0.0015801417844489409 0.006408133156339514 0.0 0.0
0.0 0.1258590146552488 -0.10942028756734948 0.10797030525144724 0.0014499823159022048 0.005879710665883529 0.0 0.0
0.0 0.1026116312410198 -0.08926332300771156 0.087937473858275 0.0013258491494365205 0.0051287812332484976 0.0 0.0
0.0 0.08117130949849018 -0.07061407168821149 0.06940804733730285 0.0012060243509086008 0.0043119446909861674 0.0 0.0
0.0 0.061918885883103514 -0.05379745015525673 0.052709441671712515 0.0010880084835442026 0.0034799786278956846 0.0 0.0
0.0 0.044835770052665 -0.03906414187894179 0.03809233328825046 0.0009718085906913472 0.0026314600964963673 0.0 0.0
0.0 0.030481213833970427 -0.02665067362868606 0.025790894854014493 0.0008597787746715562 0.0018154969238932664 0.0 0.0
0.0 0.019058395452960574 -0.016754186831184504 0.015999638527441747 0.0007545483037427526 0.001141267826336068 0.0 0.0
0.0 0.010603530207413813 -0.009417713663359523 0.008772762955808238 0.000644950707551286 0.0006695107321933255 0.0 0.0
0.0 0.004911949895581063 -0.0044303028155518644 0.0039424901972736955 0.00048781261827816777 0.00036434787131561086 0.0 0.0
0.0 0.0017573055564226172 -0.001410510849500039 0.001181394064114293 0.0002291167853857468 0.00017726751396583766 0.0 0.0
0.0 0.00015733952345218334 -0.00013275957758224145 0.00010574343805079149 2.7016139531449878e-05 3.267044772951745e-05 0.0 0.0
0.0 0.0 0.0 0.0 0.0 0.0 0.0 0.0
0.0 0.0 0.0 0.0 0.0 0.0 0.0 0.0
0.0 0.0 0.0 0.0 0.0 0.0 0.0 0.0