# vtk DataFile Version 3.0
Some data
ASCII
DATASET UNSTRUCTURED_GRID
POINTS 861 float
0.0 0.0 0.0
0.4 0.0 0.0
0.8 0.0 0.0
1.2000000000000002 0.0 0.0
1.6 0.0 0.0
2.0 0.0 0.0
2.4000000000000004 0.0 0.0
2.8000000000000003 0.0 0.0
3.2 0.0 0.0
3.6 0.0 0.0
4.0 0.0 0.0
4.4 0.0 0.0
4.800000000000001 0.0 0.0
5.2 0.0 0.0
5.6000000000000005 0.0 0.0
6.0 0.0 0.0
6.4 0.0 0.0
6.800000000000001 0.0 0.0
7.2 0.0 0.0
7.6000000000000005 0.0 0.0
8.0 0.0 0.0
8.4 0.0 0.0
8.8 0.0 0.0
9.200000000000001 0.0 0.0
9.600000000000001 0.0 0.0
10.0 0.0 0.0
10.4 0.0 0.0
10.8 0.0 0.0
11.200000000000001 0.0 0.0
11.600000000000001 0.0 0.0
12.0 0.0 0.0
12.4 0.0 0.0
12.8 0.0 0.0
13.200000000000001 0.0 0.0
13.600000000000001 0.0 0.0
14.0 0.0 0.0
14.4 0.0 0.0
14.8 0.0 0.0
15.200000000000001 0.0 0.0
15.600000000000001 0.0 0.0
16.0 0.0 0.0
0.0 0.1 0.0
0.4 0.1 0.0
0.8 0.1 0.0
1.2000000000000002 0.1 0.0
1.6 0.1 0.0
2.0 0.1 0.0
2.4000000000000004 0.1 0.0
2.8000000000000003 0.1 0.0
3.2 0.1 0.0
3.6 0.1 0.0
4.0 0.1 0.0
4.4 0.1 0.0
4.800000000000001 0.1 0.0
5.2 0.1 0.0
5.6000000000000005 0.1 0.0
6.0 0.1 0.0
6.4 0.1 0.0
6.800000000000001 0.1 0.0
7.2 0.1 0.0
7.6000000000000005 0.1 0.0
8.0 0.1 0.0
8.4 0.1 0.0
8.8 0.1 0.0
9.200000000000001 0.1 0.0
9.600000000000001 0.1 0.0
10.0 0.1 0.0
10.4 0.1 0.0
10.8 0.1 0.0
11.200000000000001 0.1 0.0
11.600000000000001 0.1 0.0
12.0 0.1 0.0
12.4 0.1 0.0
12.8 0.1 0.0
13.200000000000001 0.1 0.0
13.600000000000001 0.1 0.0
14.0 0.1 0.0
14.4 0.1 0.0
14.8 0.1 0.0
15.200000000000001 0.1 0.0
15.600000000000001 0.1 0.0
16.0 0.1 0.0
0.0 0.2 0.0
0.4 0.2 0.0
0.8 0.2 0.0
1.2000000000000002 0.2 0.0
1.6 0.2 0.0
2.0 0.2 0.0
2.4000000000000004 0.2 0.0
2.8000000000000003 0.2 0.0
3.2 0.2 0.0
3.6 0.2 0.0
4.0 0.2 0.0
4.4 0.2 0.0
4.800000000000001 0.2 0.0
5.2 0.2 0.0
5.6000000000000005 0.2 0.0
6.0 0.2 0.0
6.4 0.2 0.0
6.800000000000001 0.2 0.0
7.2 0.2 0.0
7.6000000000000005 0.2 0.0
8.0 0.2 0.0
8.4 0.2 0.0
8.8 0.2 0.0
9.200000000000001 0.2 0.0
9.600000000000001 0.2 0.0
10.0 0.2 0.0
10.4 0.2 0.0
10.8 0.2 0.0
11.200000000000001 0.2 0.0
11.600000000000001 0.2 0.0
12.0 0.2 0.0
12.4 0.2 0.0
12.8 0.2 0.0
13.200000000000001 0.2 0.0
13.600000000000001 0.2 0.0
14.0 0.2 0.0
14.4 0.2 0.0
14.8 0.2 0.0
15.200000000000001 0.2 0.0
15.600000000000001 0.2 0.0
16.0 0.2 0.0
0.0 0.30000000000000004 0.0
0.4 0.30000000000000004 0.0
0.8 0.30000000000000004 0.0
1.2000000000000002 0.30000000000000004 0.0
1.6 0.30000000000000004 0.0
2.0 0.30000000000000004 0.0
2.4000000000000004 0.30000000000000004 0.0
2.8000000000000003 0.30000000000000004 0.0
3.2 0.30000000000000004 0.0
3.6 0.30000000000000004 0.0
4.0 0.30000000000000004 0.0
4.4 0.30000000000000004 0.0
4.800000000000001 0.30000000000000004 0.0
5.2 0.30000000000000004 0.0
5.6000000000000005 0.30000000000000004 0.0
6.0 0.30000000000000004 0.0
6.4 0.30000000000000004 0.0
6.800000000000001 0.30000000000000004 0.0
7.2 0.30000000000000004 0.0
7.6000000000000005 0.30000000000000004 0.0
8.0 0.30000000000000004 0.0
8.4 0.30000000000000004 0.0
8.8 0.30000000000000004 0.0
9.200000000000001 0.30000000000000004 0.0
9.600000000000001 0.30000000000000004 0.0
10.0 0.30000000000000004 0.0
10.4 0.30000000000000004 0.0
10.8 0.30000000000000004 0.0
11.200000000000001 0.30000000000000004 0.0
11.600000000000001 0.30000000000000004 0.0
12.0 0.30000000000000004 0.0
12.4 0.30000000000000004 0.0
12.8 0.30000000000000004 0.0
13.200000000000001 0.30000000000000004 0.0
13.600000000000001 0.30000000000000004 0.0
14.0 0.30000000000000004 0.0
14.4 0.30000000000000004 0.0
14.8 0.30000000000000004 0.0
15.200000000000001 0.30000000000000004 0.0
15.600000000000001 0.30000000000000004 0.0
16.0 0.30000000000000004 0.0
0.0 0.4 0.0
0.4 0.4 0.0
0.8 0.4 0.0
1.2000000000000002 0.4 0.0
1.6 0.4 0.0
2.0 0.4 0.0
2.4000000000000004 0.4 0.0
2.8000000000000003 0.4 0.0
3.2 0.4 0.0
3.6 0.4 0.0
4.0 0.4 0.0
4.4 0.4 0.0
4.800000000000001 0.4 0.0
5.2 0.4 0.0
5.6000000000000005 0.4 0.0
6.0 0.4 0.0
6.4 0.4 0.0
6.800000000000001 0.4 0.0
7.2 0.4 0.0
7.6000000000000005 0.4 0.0
8.0 0.4 0.0
8.4 0.4 0.0
8.8 0.4 0.0
9.200000000000001 0.4 0.0
9.600000000000001 0.4 0.0
10.0 0.4 0.0
10.4 0.4 0.0
10.8 0.4 0.0
11.200000000000001 0.4 0.0
11.600000000000001 0.4 0.0
12.0 0.4 0.0
12.4 0.4 0.0
12.8 0.4 0.0
13.200000000000001 0.4 0.0
13.600000000000001 0.4 0.0
14.0 0.4 0.0
14.4 0.4 0.0
14.8 0.4 0.0
15.200000000000001 0.4 0.0
15.600000000000001 0.4 0.0
16.0 0.4 0.0
0.0 0.5 0.0
0.4 0.5 0.0
0.8 0.5 0.0
1.2000000000000002 0.5 0.0
1.6 0.5 0.0
2.0 0.5 0.0
2.4000000000000004 0.5 0.0
2.8000000000000003 0.5 0.0
3.2 0.5 0.0
3.6 0.5 0.0
4.0 0.5 0.0
4.4 0.5 0.0
4.800000000000001 0.5 0.0
5.2 0.5 0.0
5.6000000000000005 0.5 0.0
6.0 0.5 0.0
6.4 0.5 0.0
6.800000000000001 0.5 0.0
7.2 0.5 0.0
7.6000000000000005 0.5 0.0
8.0 0.5 0.0
8.4 0.5 0.0
8.8 0.5 0.0
9.200000000000001 0.5 0.0
9.600000000000001 0.5 0.0
10.0 0.5 0.0
10.4 0.5 0.0
10.8 0.5 0.0
11.200000000000001 0.5 0.0
11.600000000000001 0.5 0.0
12.0 0.5 0.0
12.4 0.5 0.0
12.8 0.5 0.0
13.200000000000001 0.5 0.0
13.600000000000001 0.5 0.0
14.0 0.5 0.0
14.4 0.5 0.0
14.8 0.5 0.0
15.200000000000001 0.5 0.0
15.600000000000001 0.5 0.0
16.0 0.5 0.0
0.0 0.6000000000000001 0.0
0.4 0.6000000000000001 0.0
0.8 0.6000000000000001 0.0
1.2000000000000002 0.6000000000000001 0.0
1.6 0.6000000000000001 0.0
2.0 0.6000000000000001 0.0
2.4000000000000004 0.6000000000000001 0.0
2.8000000000000003 0.6000000000000001 0.0
3.2 0.6000000000000001 0.0
3.6 0.6000000000000001 0.0
4.0 0.6000000000000001 0.0
4.4 0.6000000000000001 0.0
4.800000000000001 0.6000000000000001 0.0
5.2 0.6000000000000001 0.0
5.6000000000000005 0.6000000000000001 0.0
6.0 0.6000000000000001 0.0
6.4 0.6000000000000001 0.0
6.800000000000001 0.6000000000000001 0.0
7.2 0.6000000000000001 0.0
7.6000000000000005 0.6000000000000001 0.0
8.0 0.6000000000000001 0.0
8.4 0.6000000000000001 0.0
8.8 0.6000000000000001 0.0
9.200000000000001 0.6000000000000001 0.0
9.600000000000001 0.6000000000000001 0.0
10.0 0.6000000000000001 0.0
10.4 0.6000000000000001 0.0
10.8 0.6000000000000001 0.0
11.200000000000001 0.6000000000000001 0.0
11.600000000000001 0.6000000000000001 0.0
12.0 0.6000000000000001 0.0
12.4 0.6000000000000001 0.0
12.8 0.6000000000000001 0.0
13.200000000000001 0.6000000000000001 0.0
13.600000000000001 0.6000000000000001 0.0
14.0 0.6000000000000001 0.0
14.4 0.6000000000000001 0.0
14.8 0.6000000000000001 0.0
15.200000000000001 0.6000000000000001 0.0
15.600000000000001 0.6000000000000001 0.0
16.0 0.6000000000000001 0.0
0.0 0.7000000000000001 0.0
0.4 0.7000000000000001 0.0
0.8 0.7000000000000001 0.0
1.2000000000000002 0.7000000000000001 0.0
1.6 0.7000000000000001 0.0
2.0 0.7000000000000001 0.0
2.4000000000000004 0.7000000000000001 0.0
2.8000000000000003 0.7000000000000001 0.0
3.2 0.7000000000000001 0.0
3.6 0.7000000000000001 0.0
4.0 0.7000000000000001 0.0
4.4 0.7000000000000001 0.0
4.800000000000001 0.7000000000000001 0.0
5.2 0.7000000000000001 0.0
5.6000000000000005 0.7000000000000001 0.0
6.0 0.7000000000000001 0.0
6.4 0.7000000000000001 0.0
6.800000000000001 0.7000000000000001 0.0
7.2 0.7000000000000001 0.0
7.6000000000000005 0.7000000000000001 0.0
8.0 0.7000000000000001 0.0
8.4 0.7000000000000001 0.0
8.8 0.7000000000000001 0.0
9.200000000000001 0.7000000000000001 0.0
9.600000000000001 0.7000000000000001 0.0
10.0 0.7000000000000001 0.0
10.4 0.7000000000000001 0.0
10.8 0.7000000000000001 0.0
11.200000000000001 0.7000000000000001 0.0
11.600000000000001 0.7000000000000001 0.0
12.0 0.7000000000000001 0.0
12.4 0.7000000000000001 0.0
12.8 0.7000000000000001 0.0
13.200000000000001 0.7000000000000001 0.0
13.600000000000001 0.7000000000000001 0.0
14.0 0.7000000000000001 0.0
14.4 0.7000000000000001 0.0
14.8 0.7000000000000001 0.0
15.200000000000001 0.7000000000000001 0.0
15.600000000000001 0.7000000000000001 0.0
16.0 0.7000000000000001 0.0
0.0 0.8 0.0
0.4 0.8 0.0
0.8 0.8 0.0
1.2000000000000002 0.8 0.0
1.6 0.8 0.0
2.0 0.8 0.0
2.4000000000000004 0.8 0.0
2.8000000000000003 0.8 0.0
3.2 0.8 0.0
3.6 0.8 0.0
4.0 0.8 0.0
4.4 0.8 0.0
4.800000000000001 0.8 0.0
5.2 0.8 0.0
5.6000000000000005 0.8 0.0
6.0 0.8 0.0
6.4 0.8 0.0
6.800000000000001 0.8 0.0
7.2 0.8 0.0
7.6000000000000005 0.8 0.0
8.0 0.8 0.0
8.4 0.8 0.0
8.8 0.8 0.0
9.200000000000001 0.8 0.0
9.600000000000001 0.8 0.0
10.0 0.8 0.0
10.4 0.8 0.0
10.8 0.8 0.0
11.200000000000001 0.8 0.0
11.600000000000001 0.8 0.0
12.0 0.8 0.0
12.4 0.8 0.0
12.8 0.8 0.0
13.200000000000001 0.8 0.0
13.600000000000001 0.8 0.0
14.0 0.8 0.0
14.4 0.8 0.0
14.8 0.8 0.0
15.200000000000001 0.8 0.0
15.600000000000001 0.8 0.0
16.0 0.8 0.0
0.0 0.9 0.0
0.4 0.9 0.0
0.8 0.9 0.0
1.2000000000000002 0.9 0.0
1.6 0.9 0.0
2.0 0.9 0.0
2.4000000000000004 0.9 0.0
2.8000000000000003 0.9 0.0
3.2 0.9 0.0
3.6 0.9 0.0
4.0 0.9 0.0
4.4 0.9 0.0
4.800000000000001 0.9 0.0
5.2 0.9 0.0
5.6000000000000005 0.9 0.0
6.0 0.9 0.0
6.4 0.9 0.0
6.800000000000001 0.9 0.0
7.2 0.9 0.0
7.6000000000000005 0.9 0.0
8.0 0.9 0.0
8.4 0.9 0.0
8.8 0.9 0.0
9.200000000000001 0.9 0.0
9.600000000000001 0.9 0.0
10.0 0.9 0.0
10.4 0.9 0.0
10.8 0.9 0.0
11.200000000000001 0.9 0.0
11.600000000000001 0.9 0.0
12.0 0.9 0.0
12.4 0.9 0.0
12.8 0.9 0.0
13.200000000000001 0.9 0.0
13.600000000000001 0.9 0.0
14.0 0.9 0.0
14.4 0.9 0.0
14.8 0.9 0.0
15.200000000000001 0.9 0.0
15.600000000000001 0.9 0.0
16.0 0.9 0.0
0.0 1.0 0.0
0.4 1.0 0.0
0.8 1.0 0.0
1.2000000000000002 1.0 0.0
1.6 1.0 0.0
2.0 1.0 0.0
2.4000000000000004 1.0 0.0
2.8000000000000003 1.0 0.0
3.2 1.0 0.0
3.6 1.0 0.0
4.0 1.0 0.0
4.4 1.0 0.0
4.800000000000001 1.0 0.0
5.2 1.0 0.0
5.6000000000000005 1.0 0.0
6.0 1.0 0.0
6.4 1.0 0.0
6.800000000000001 1.0 0.0
7.2 1.0 0.0
7.6000000000000005 1.0 0.0
8.0 1.0 0.0
8.4 1.0 0.0
8.8 1.0 0.0
9.200000000000001 1.0 0.0
9.600000000000001 1.0 0.0
10.0 1.0 0.0
10.4 1.0 0.0
10.8 1.0 0.0
11.200000000000001 1.0 0.0
11.600000000000001 1.0 0.0
12.0 1.0 0.0
12.4 1.0 0.0
12.8 1.0 0.0
13.200000000000001 1.0 0.0
13.600000000000001 1.0 0.0
14.0 1.0 0.0
14.4 1.0 0.0
14.8 1.0 0.0
15.200000000000001 1.0 0.0
15.600000000000001 1.0 0.0
16.0 1.0 0.0
0.0 1.1 0.0
0.4 1.1 0.0
0.8 1.1 0.0
1.2000000000000002 1.1 0.0
1.6 1.1 0.0
2.0 1.1 0.0
2.4000000000000004 1.1 0.0
2.8000000000000003 1.1 0.0
3.2 1.1 0.0
3.6 1.1 0.0
4.0 1.1 0.0
4.4 1.1 0.0
4.800000000000001 1.1 0.0
5.2 1.1 0.0
5.6000000000000005 1.1 0.0
6.0 1.1 0.0
6.4 1.1 0.0
6.800000000000001 1.1 0.0
7.2 1.1 0.0
7.6000000000000005 1.1 0.0
8.0 1.1 0.0
8.4 1.1 0.0
8.8 1.1 0.0
9.200000000000001 1.1 0.0
9.600000000000001 1.1 0.0
10.0 1.1 0.0
10.4 1.1 0.0
10.8 1.1 0.0
11.200000000000001 1.1 0.0
11.600000000000001 1.1 0.0
12.0 1.1 0.0
12.4 1.1 0.0
12.8 1.1 0.0
13.200000000000001 1.1 0.0
13.600000000000001 1.1 0.0
14.0 1.1 0.0
14.4 1.1 0.0
14.8 1.1 0.0
15.200000000000001 1.1 0.0
15.600000000000001 1.1 0.0
16.0 1.1 0.0
0.0 1.2000000000000002 0.0
0.4 1.2000000000000002 0.0
0.8 1.2000000000000002 0.0
1.2000000000000002 1.2000000000000002 0.0
1.6 1.2000000000000002 0.0
2.0 1.2000000000000002 0.0
2.4000000000000004 1.2000000000000002 0.0
2.8000000000000003 1.2000000000000002 0.0
3.2 1.2000000000000002 0.0
3.6 1.2000000000000002 0.0
4.0 1.2000000000000002 0.0
4.4 1.2000000000000002 0.0
4.800000000000001 1.2000000000000002 0.0
5.2 1.2000000000000002 0.0
5.6000000000000005 1.2000000000000002 0.0
6.0 1.2000000000000002 0.0
6.4 1.2000000000000002 0.0
6.800000000000001 1.2000000000000002 0.0
7.2 1.2000000000000002 0.0
7.6000000000000005 1.2000000000000002 0.0
8.0 1.2000000000000002 0.0
8.4 1.2000000000000002 0.0
8.8 1.2000000000000002 0.0
9.200000000000001 1.2000000000000002 0.0
9.600000000000001 1.2000000000000002 0.0
10.0 1.2000000000000002 0.0
10.4 1.2000000000000002 0.0
10.8 1.2000000000000002 0.0
11.200000000000001 1.2000000000000002 0.0
11.600000000000001 1.2000000000000002 0.0
12.0 1.2000000000000002 0.0
12.4 1.2000000000000002 0.0
12.8 1.2000000000000002 0.0
13.200000000000001 1.2000000000000002 0.0
13.600000000000001 1.2000000000000002 0.0
14.0 1.2000000000000002 0.0
14.4 1.2000000000000002 0.0
14.8 1.2000000000000002 0.0
15.200000000000001 1.2000000000000002 0.0
15.600000000000001 1.2000000000000002 0.0
16.0 1.2000000000000002 0.0
0.0 1.3 0.0
0.4 1.3 0.0
0.8 1.3 0.0
1.2000000000000002 1.3 0.0
1.6 1.3 0.0
2.0 1.3 0.0
2.4000000000000004 1.3 0.0
2.8000000000000003 1.3 0.0
3.2 1.3 0.0
3.6 1.3 0.0
4.0 1.3 0.0
4.4 1.3 0.0
4.800000000000001 1.3 0.0
5.2 1.3 0.0
5.6000000000000005 1.3 0.0
6.0 1.3 0.0
6.4 1.3 0.0
6.800000000000001 1.3 0.0
7.2 1.3 0.0
7.6000000000000005 1.3 0.0
8.0 1.3 0.0
8.4 1.3 0.0
8.8 1.3 0.0
9.200000000000001 1.3 0.0
9.600000000000001 1.3 0.0
10.0 1.3 0.0
10.4 1.3 0.0
10.8 1.3 0.0
11.200000000000001 1.3 0.0
11.600000000000001 1.3 0.0
12.0 1.3 0.0
12.4 1.3 0.0
12.8 1.3 0.0
13.200000000000001 1.3 0.0
13.600000000000001 1.3 0.0
14.0 1.3 0.0
14.4 1.3 0.0
14.8 1.3 0.0
15.200000000000001 1.3 0.0
15.600000000000001 1.3 0.0
16.0 1.3 0.0
0.0 1.4000000000000001 0.0
0.4 1.4000000000000001 0.0
0.8 1.4000000000000001 0.0
1.2000000000000002 1.4000000000000001 0.0
1.6 1.4000000000000001 0.0
2.0 1.4000000000000001 0.0
2.4000000000000004 1.4000000000000001 0.0
2.8000000000000003 1.4000000000000001 0.0
3.2 1.4000000000000001 0.0
3.6 1.4000000000000001 0.0
4.0 1.4000000000000001 0.0
4.4 1.4000000000000001 0.0
4.800000000000001 1.4000000000000001 0.0
5.2 1.4000000000000001 0.0
5.6000000000000005 1.4000000000000001 0.0
6.0 1.4000000000000001 0.0
6.4 1.4000000000000001 0.0
6.800000000000001 1.4000000000000001 0.0
7.2 1.4000000000000001 0.0
7.6000000000000005 1.4000000000000001 0.0
8.0 1.4000000000000001 0.0
8.4 1.4000000000000001 0.0
8.8 1.4000000000000001 0.0
9.200000000000001 1.4000000000000001 0.0
9.600000000000001 1.4000000000000001 0.0
10.0 1.4000000000000001 0.0
10.4 1.4000000000000001 0.0
10.8 1.4000000000000001 0.0
11.200000000000001 1.4000000000000001 0.0
11.600000000000001 1.4000000000000001 0.0
12.0 1.4000000000000001 0.0
12.4 1.4000000000000001 0.0
12.8 1.4000000000000001 0.0
13.200000000000001 1.4000000000000001 0.0
13.600000000000001 1.4000000000000001 0.0
14.0 1.4000000000000001 0.0
14.4 1.4000000000000001 0.0
14.8 1.4000000000000001 0.0
15.200000000000001 1.4000000000000001 0.0
15.600000000000001 1.4000000000000001 0.0
16.0 1.4000000000000001 0.0
0.0 1.5 0.0
0.4 1.5 0.0
0.8 1.5 0.0
1.2000000000000002 1.5 0.0
1.6 1.5 0.0
2.0 1.5 0.0
2.4000000000000004 1.5 0.0
2.8000000000000003 1.5 0.0
3.2 1.5 0.0
3.6 1.5 0.0
4.0 1.5 0.0
4.4 1.5 0.0
4.800000000000001 1.5 0.0
5.2 1.5 0.0
5.6000000000000005 1.5 0.0
6.0 1.5 0.0
6.4 1.5 0.0
6.800000000000001 1.5 0.0
7.2 1.5 0.0
7.6000000000000005 1.5 0.0
8.0 1.5 0.0
8.4 1.5 0.0
8.8 1.5 0.0
9.200000000000001 1.5 0.0
9.600000000000001 1.5 0.0
10.0 1.5 0.0
10.4 1.5 0.0
10.8 1.5 0.0
11.200000000000001 1.5 0.0
11.600000000000001 1.5 0.0
12.0 1.5 0.0
12.4 1.5 0.0
12.8 1.5 0.0
13.200000000000001 1.5 0.0
13.600000000000001 1.5 0.0
14.0 1.5 0.0
14.4 1.5 0.0
14.8 1.5 0.0
15.200000000000001 1.5 0.0
15.600000000000001 1.5 0.0
16.0 1.5 0.0
0.0 1.6 0.0
0.4 1.6 0.0
0.8 1.6 0.0
1.2000000000000002 1.6 0.0
1.6 1.6 0.0
2.0 1.6 0.0
2.4000000000000004 1.6 0.0
2.8000000000000003 1.6 0.0
3.2 1.6 0.0
3.6 1.6 0.0
4.0 1.6 0.0
4.4 1.6 0.0
4.800000000000001 1.6 0.0
5.2 1.6 0.0
5.6000000000000005 1.6 0.0
6.0 1.6 0.0
6.4 1.6 0.0
6.800000000000001 1.6 0.0
7.2 1.6 0.0
7.6000000000000005 1.6 0.0
8.0 1.6 0.0
8.4 1.6 0.0
8.8 1.6 0.0
9.200000000000001 1.6 0.0
9.600000000000001 1.6 0.0
10.0 1.6 0.0
10.4 1.6 0.0
10.8 1.6 0.0
11.200000000000001 1.6 0.0
11.600000000000001 1.6 0.0
12.0 1.6 0.0
12.4 1.6 0.0
12.8 1.6 0.0
13.200000000000001 1.6 0.0
13.600000000000001 1.6 0.0
14.0 1.6 0.0
14.4 1.6 0.0
14.8 1.6 0.0
15.200000000000001 1.6 0.0
15.600000000000001 1.6 0.0
16.0 1.6 0.0
0.0 1.7000000000000002 0.0
0.4 1.7000000000000002 0.0
0.8 1.7000000000000002 0.0
1.2000000000000002 1.7000000000000002 0.0
1.6 1.7000000000000002 0.0
2.0 1.7000000000000002 0.0
2.4000000000000004 1.7000000000000002 0.0
2.8000000000000003 1.7000000000000002 0.0
3.2 1.7000000000000002 0.0
3.6 1.7000000000000002 0.0
4.0 1.7000000000000002 0.0
4.4 1.7000000000000002 0.0
4.800000000000001 1.7000000000000002 0.0
5.2 1.7000000000000002 0.0
5.6000000000000005 1.7000000000000002 0.0
6.0 1.7000000000000002 0.0
6.4 1.7000000000000002 0.0
6.800000000000001 1.7000000000000002 0.0
7.2 1.7000000000000002 0.0
7.6000000000000005 1.7000000000000002 0.0
8.0 1.7000000000000002 0.0
8.4 1.7000000000000002 0.0
8.8 1.7000000000000002 0.0
9.200000000000001 1.7000000000000002 0.0
9.600000000000001 1.7000000000000002 0.0
10.0 1.7000000000000002 0.0
10.4 1.7000000000000002 0.0
10.8 1.7000000000000002 0.0
11.200000000000001 1.7000000000000002 0.0
11.600000000000001 1.7000000000000002 0.0
12.0 1.7000000000000002 0.0
12.4 1.7000000000000002 0.0
12.8 1.7000000000000002 0.0
13.200000000000001 1.7000000000000002 0.0
13.600000000000001 1.7000000000000002 0.0
14.0 1.7000000000000002 0.0
14.4 1.7000000000000002 0.0
14.8 1.7000000000000002 0.0
15.200000000000001 1.7000000000000002 0.0
15.600000000000001 1.7000000000000002 0.0
16.0 1.7000000000000002 0.0
0.0 1.8 0.0
0.4 1.8 0.0
0.8 1.8 0.0
1.2000000000000002 1.8 0.0
1.6 1.8 0.0
2.0 1.8 0.0
2.4000000000000004 1.8 0.0
2.8000000000000003 1.8 0.0
3.2 1.8 0.0
3.6 1.8 0.0
4.0 1.8 0.0
4.4 1.8 0.0
4.800000000000001 1.8 0.0
5.2 1.8 0.0
5.6000000000000005 1.8 0.0
6.0 1.8 0.0
6.4 1.8 0.0
6.800000000000001 1.8 0.0
7.2 1.8 0.0
7.6000000000000005 1.8 0.0
8.0 1.8 0.0
8.4 1.8 0.0
8.8 1.8 0.0
9.200000000000001 1.8 0.0
9.600000000000001 1.8 0.0
10.0 1.8 0.0
10.4 1.8 0.0
10.8 1.8 0.0
11.200000000000001 1.8 0.0
11.600000000000001 1.8 0.0
12.0 1.8 0.0
12.4 1.8 0.0
12.8 1.8 0.0
13.200000000000001 1.8 0.0
13.600000000000001 1.8 0.0
14.0 1.8 0.0
14.4 1.8 0.0
14.8 1.8 0.0
15.200000000000001 1.8 0.0
15.600000000000001 1.8 0.0
16.0 1.8 0.0
0.0 1.9000000000000001 0.0
0.4 1.9000000000000001 0.0
0.8 1.9000000000000001 0.0
1.2000000000000002 1.9000000000000001 0.0
1.6 1.9000000000000001 0.0
2.0 1.9000000000000001 0.0
2.4000000000000004 1.9000000000000001 0.0
2.8000000000000003 1.9000000000000001 0.0
3.2 1.9000000000000001 0.0
3.6 1.9000000000000001 0.0
4.0 1.9000000000000001 0.0
4.4 1.9000000000000001 0.0
4.800000000000001 1.9000000000000001 0.0
5.2 1.9000000000000001 0.0
5.6000000000000005 1.9000000000000001 0.0
6.0 1.9000000000000001 0.0
6.4 1.9000000000000001 0.0
6.800000000000001 1.9000000000000001 0.0
7.2 1.9000000000000001 0.0
7.6000000000000005 1.9000000000000001 0.0
8.0 1.9000000000000001 0.0
8.4 1.9000000000000001 0.0
8.8 1.9000000000000001 0.0
9.200000000000001 1.9000000000000001 0.0
9.600000000000001 1.9000000000000001 0.0
10.0 1.9000000000000001 0.0
10.4 1.9000000000000001 0.0
10.8 1.9000000000000001 0.0
11.200000000000001 1.9000000000000001 0.0
11.600000000000001 1.9000000000000001 0.0
12.0 1.9000000000000001 0.0
12.4 1.9000000000000001 0.0
12.8 1.9000000000000001 0.0
13.200000000000001 1.9000000000000001 0.0
13.600000000000001 1.9000000000000001 0.0
14.0 1.9000000000000001 0.0
14.4 1.9000000000000001 0.0
14.8 1.9000000000000001 0.0
15.200000000000001 1.9000000000000001 0.0
15.600000000000001 1.9000000000000001 0.0
16.0 1.9000000000000001 0.0
0.0 2.0 0.0
0.4 2.0 0.0
0.8 2.0 0.0
1.2000000000000002 2.0 0.0
1.6 2.0 0.0
2.0 2.0 0.0
2.4000000000000004 2.0 0.0
2.8000000000000003 2.0 0.0
3.2 2.0 0.0
3.6 2.0 0.0
4.0 2.0 0.0
4.4 2.0 0.0
4.800000000000001 2.0 0.0
5.2 2.0 0.0
5.6000000000000005 2.0 0.0
6.0 2.0 0.0
6.4 2.0 0.0
6.800000000000001 2.0 0.0
7.2 2.0 0.0
7.6000000000000005 2.0 0.0
8.0 2.0 0.0
8.4 2.0 0.0
8.8 2.0 0.0
9.200000000000001 2.0 0.0
9.600000000000001 2.0 0.0
10.0 2.0 0.0
10.4 2.0 0.0
10.8 2.0 0.0
11.200000000000001 2.0 0.0
11.600000000000001 2.0 0.0
12.0 2.0 0.0
12.4 2.0 0.0
12.8 2.0 0.0
13.200000000000001 2.0 0.0
13.600000000000001 2.0 0.0
14.0 2.0 0.0
14.4 2.0 0.0
14.8 2.0 0.0
15.200000000000001 2.0 0.0
15.600000000000001 2.0 0.0
16.0 2.0 0.0
CELLS 800 4000
4 0 1 42 41
4 1 2 43 42
4 2 3 44 43
4 3 4 45 44
4 4 5 46 45
4 5 6 47 46
4 6 7 48 47
4 7 8 49 48
4 8 9 50 49
4 9 10 51 50
4 10 11 52 51
4 11 12 53 52
4 12 13 54 53
4 13 14 55 54
4 14 15 56 55
4 15 16 57 56
4 16 17 58 57
4 17 18 59 58
4 18 19 60 59
4 19 20 61 60
4 20 21 62 61
4 21 22 63 62
4 22 23 64 63
4 23 24 65 64
4 24 25 66 65
4 25 26 67 66
4 26 27 68 67
4 27 28 69 68
4 28 29 70 69
4 29 30 71 70
4 30 31 72 71
4 31 32 73 72
4 32 33 74 73
4 33 34 75 74
4 34 35 76 75
4 35 36 77 76
4 36 37 78 77
4 37 38 79 78
4 38 39 80 79
4 39 40 81 80
4 41 42 83 82
4 42 43 84 83
4 43 44 85 84
4 44 45 86 85
4 45 46 87 86
4 46 47 88 87
4 47 48 89 88
4 48 49 90 89
4 49 50 91 90
4 50 51 92 91
4 51 52 93 92
4 52 53 94 93
4 53 54 95 94
4 54 55 96 95
4 55 56 97 96
4 56 57 98 97
4 57 58 99 98
4 58 59 100 99
4 59 60 101 100
4 60 61 102 101
4 61 62 103 102
4 62 63 104 103
4 63 64 105 104
4 64 65 106 105
4 65 66 107 106
4 66 67 108 107
4 67 68 109 108
4 68 69 110 109
4 69 70 111 110
4 70 71 112 111
4 71 72 113 112
4 72 73 114 113
4 73 74 115 114
4 74 75 116 115
4 75 76 117 116
4 76 77 118 117
4 77 78 119 118
4 78 79 120 119
4 79 80 121 120
4 80 81 122 121
4 82 83 124 123
4 83 84 125 124
4 84 85 126 125
4 85 86 127 126
4 86 87 128 127
4 87 88 129 128
4 88 89 130 129
4 89 90 131 130
4 90 91 132 131
4 91 92 133 132
4 92 93 134 133
4 93 94 135 134
4 94 95 136 135
4 95 96 137 136
4 96 97 138 137
4 97 98 139 138
4 98 99 140 139
4 99 100 141 140
4 100 101 142 141
4 101 102 143 142
4 102 103 144 143
4 103 104 145 144
4 104 105 146 145
4 105 106 147 146
4 106 107 148 147
4 107 108 149 148
4 108 109 150 149
4 109 110 151 150
4 110 111 152 151
4 111 112 153 152
4 112 113 154 153
4 113 114 155 154
4 114 115 156 155
4 115 116 157 156
4 116 117 158 157
4 117 118 159 158
4 118 119 160 159
4 119 120 161 160
4 120 121 162 161
4 121 122 163 162
4 123 124 165 164
4 124 125 166 165
4 125 126 167 166
4 126 127 168 167
4 127 128 169 168
4 128 129 170 169
4 129 130 171 170
4 130 131 172 171
4 131 132 173 172
4 132 133 174 173
4 133 134 175 174
4 134 135 176 175
4 135 136 177 176
4 136 137 178 177
4 137 138 179 178
4 138 139 180 179
4 139 140 181 180
4 140 141 182 181
4 141 142 183 182
4 142 143 184 183
4 143 144 185 184
4 144 145 186 185
4 145 146 187 186
4 146 147 188 187
4 147 148 189 188
4 148 149 190 189
4 149 150 191 190
4 150 151 192 191
4 151 152 193 192
4 152 153 194 193
4 153 154 195 194
4 154 155 196 195
4 155 156 197 196
4 156 157 198 197
4 157 158 199 198
4 158 159 200 199
4 159 160 201 200
4 160 161 202 201
4 161 162 203 202
4 162 163 204 203
4 164 165 206 205
4 165 166 207 206
4 166 167 208 207
4 167 168 209 208
4 168 169 210 209
4 169 170 211 210
4 170 171 212 211
4 171 172 213 212
4 172 173 214 213
4 173 174 215 214
4 174 175 216 215
4 175 176 217 216
4 176 177 218 217
4 177 178 219 218
4 178 179 220 219
4 179 180 221 220
4 180 181 222 221
4 181 182 223 222
4 182 183 224 223
4 183 184 225 224
4 184 185 226 225
4 185 186 227 226
4 186 187 228 227
4 187 188 229 228
4 188 189 230 229
4 189 190 231 230
4 190 191 232 231
4 191 192 233 232
4 192 193 234 233
4 193 194 235 234
4 194 195 236 235
4 195 196 237 236
4 196 197 238 237
4 197 198 239 238
4 198 199 240 239
4 199 200 241 240
4 200 201 242 241
4 201 202 243 242
4 202 203 244 243
4 203 204 245 244
4 205 206 247 246
4 206 207 248 247
4 207 208 249 248
4 208 209 250 249
4 209 210 251 250
4 210 211 252 251
4 211 212 253 252
4 212 213 254 253
4 213 214 255 254
4 214 215 256 255
4 215 216 257 256
4 216 217 258 257
4 217 218 259 258
4 218 219 260 259
4 219 220 261 260
4 220 221 262 261
4 221 222 263 262
4 222 223 264 263
4 223 224 265 264
4 224 225 266 265
4 225 226 267 266
4 226 227 268 267
4 227 228 269 268
4 228 229 270 269
4 229 230 271 270
4 230 231 272 271
4 231 232 273 272
4 232 233 274 273
4 233 234 275 274
4 234 235 276 275
4 235 236 277 276
4 236 237 278 277
4 237 238 279 278
4 238 239 280 279
4 239 240 281 280
4 240 241 282 281
4 241 242 283 282
4 242 243 284 283
4 243 244 285 284
4 244 245 286 285
4 246 247 288 287
4 247 248 289 288
4 248 249 290 289
4 249 250 291 290
4 250 251 292 291
4 251 252 293 292
4 252 253 294 293
4 253 254 295 294
4 254 255 296 295
4 255 256 297 296
4 256 257 298 297
4 257 258 299 298
4 258 259 300 299
4 259 260 301 300
4 260 261 302 301
4 261 262 303 302
4 262 263 304 303
4 263 264 305 304
4 264 265 306 305
4 265 266 307 306
4 266 267 308 307
4 267 268 309 308
4 268 269 310 309
4 269 270 311 310
4 270 271 312 311
4 271 272 313 312
4 272 273 314 313
4 273 274 315 314
4 274 275 316 315
4 275 276 317 316
4 276 277 318 317
4 277 278 319 318
4 278 279 320 319
4 279 280 321 320
4 280 281 322 321
4 281 282 323 322
4 282 283 324 323
4 283 284 325 324
4 284 285 326 325
4 285 286 327 326
4 287 288 329 328
4 288 289 330 329
4 289 290 331 330
4 290 291 332 331
4 291 292 333 332
4 292 293 334 333
4 293 294 335 334
4 294 295 336 335
4 295 296 337 336
4 296 297 338 337
4 297 298 339 338
4 298 299 340 339
4 299 300 341 340
4 300 301 342 341
4 301 302 343 342
4 302 303 344 343
4 303 304 345 344
4 304 305 346 345
4 305 306 347 346
4 306 307 348 347
4 307 308 349 348
4 308 309 350 349
4 309 310 351 350
4 310 311 352 351
4 311 312 353 352
4 312 313 354 353
4 313 314 355 354
4 314 315 356 355
4 315 316 357 356
4 316 317 358 357
4 317 318 359 358
4 318 319 360 359
4 319 320 361 360
4 320 321 362 361
4 321 322 363 362
4 322 323 364 363
4 323 324 365 364
4 324 325 366 365
4 325 326 367 366
4 326 327 368 367
4 328 329 370 369
4 329 330 371 370
4 330 331 372 371
4 331 332 373 372
4 332 333 374 373
4 333 334 375 374
4 334 335 376 375
4 335 336 377 376
4 336 337 378 377
4 337 338 379 378
4 338 339 380 379
4 339 340 381 380
4 340 341 382 381
4 341 342 383 382
4 342 343 384 383
4 343 344 385 384
4 344 345 386 385
4 345 346 387 386
4 346 347 388 387
4 347 348 389 388
4 348 349 390 389
4 349 350 391 390
4 350 351 392 391
4 351 352 393 392
4 352 353 394 393
4 353 354 395 394
4 354 355 396 395
4 355 356 397 396
4 356 357 398 397
4 357 358 399 398
4 358 359 400 399
4 359 360 401 400
4 360 361 402 401
4 361 362 403 402
4 362 363 404 403
4 363 364 405 404
4 364 365 406 405
4 365 366 407 406
4 366 367 408 407
4 367 368 409 408
4 369 370 411 410
4 370 371 412 411
4 371 372 413 412
4 372 373 414 413
4 373 374 415 414
4 374 375 416 415
4 375 376 417 416
4 376 377 418 417
4 377 378 419 418
4 378 379 420 419
4 379 380 421 420
4 380 381 422 421
4 381 382 423 422
4 382 383 424 423
4 383 384 425 424
4 384 385 426 425
4 385 386 427 426
4 386 387 428 427
4 387 388 429 428
4 388 389 430 429
4 389 390 431 430
4 390 391 432 431
4 391 392 433 432
4 392 393 434 433
4 393 394 435 434
4 394 395 436 435
4 395 396 437 436
4 396 397 438 437
4 397 398 439 438
4 398 399 440 439
4 399 400 441 440
4 400 401 442 441
4 401 402 443 442
4 402 403 444 443
4 403 404 445 444
4 404 405 446 445
4 405 406 447 446
4 406 407 448 447
4 407 408 449 448
4 408 409 450 449
4 410 411 452 451
4 411 412 453 452
4 412 413 454 453
4 413 414 455 454
4 414 415 456 455
4 415 416 457 456
4 416 417 458 457
4 417 418 459 458
4 418 419 460 459
4 419 420 461 460
4 420 421 462 461
4 421 422 463 462
4 422 423 464 463
4 423 424 465 464
4 424 425 466 465
4 425 426 467 466
4 426 427 468 467
4 427 428 469 468
4 428 429 470 469
4 429 430 471 470
4 430 431 472 471
4 431 432 473 472
4 432 433 474 473
4 433 434 475 474
4 434 435 476 475
4 435 436 477 476
4 436 437 478 477
4 437 438 479 478
4 438 439 480 479
4 439 440 481 480
4 440 441 482 481
4 441 442 483 482
4 442 443 484 483
4 443 444 485 484
4 444 445 486 485
4 445 446 487 486
4 446 447 488 487
4 447 448 489 488
4 448 449 490 489
4 449 450 491 490
4 451 452 493 492
4 452 453 494 493
4 453 454 495 494
4 454 455 496 495
4 455 456 497 496
4 456 457 498 497
4 457 458 499 498
4 458 459 500 499
4 459 460 501 500
4 460 461 502 501
4 461 462 503 502
4 462 463 504 503
4 463 464 505 504
4 464 465 506 505
4 465 466 507 506
4 466 467 508 507
4 467 468 509 508
4 468 469 510 509
4 469 470 511 510
4 470 471 512 511
4 471 472 513 512
4 472 473 514 513
4 473 474 515 514
4 474 475 516 515
4 475 476 517 516
4 476 477 518 517
4 477 478 519 518
4 478 479 520 519
4 479 480 521 520
4 480 481 522 521
4 481 482 523 522
4 482 483 524 523
4 483 484 525 524
4 484 485 526 525
4 485 486 527 526
4 486 487 528 527
4 487 488 529 528
4 488 489 530 529
4 489 490 531 530
4 490 491 532 531
4 492 493 534 533
4 493 494 535 534
4 494 495 536 535
4 495 496 537 536
4 496 497 538 537
4 497 498 539 538
4 498 499 540 539
4 499 500 541 540
4 500 501 542 541
4 501 502 543 542
4 502 503 544 543
4 503 504 545 544
4 504 505 546 545
4 505 506 547 546
4 506 507 548 547
4 507 508 549 548
4 508 509 550 549
4 509 510 551 550
4 510 511 552 551
4 511 512 553 552
4 512 513 554 553
4 513 514 555 554
4 514 515 556 555
4 515 516 557 556
4 516 517 558 557
4 517 518 559 558
4 518 519 560 559
4 519 520 561 560
4 520 521 562 561
4 521 522 563 562
4 522 523 564 563
4 523 524 565 564
4 524 525 566 565
4 525 526 567 566
4 526 527 568 567
4 527 528 569 568
4 528 529 570 569
4 529 530 571 570
4 530 531 572 571
4 531 532 573 572
4 533 534 575 574
4 534 535 576 575
4 535 536 577 576
4 536 537 578 577
4 537 538 579 578
4 538 539 580 579
4 539 540 581 580
4 540 541 582 581
4 541 542 583 582
4 542 543 584 583
4 543 544 585 584
4 544 545 586 585
4 545 546 587 586
4 546 547 588 587
4 547 548 589 588
4 548 549 590 589
4 549 550 591 590
4 550 551 592 591
4 551 552 593 592
4 552 553 594 593
4 553 554 595 594
4 554 555 596 595
4 555 556 597 596
4 556 557 598 597
4 557 558 599 598
4 558 559 600 599
4 559 560 601 600
4 560 561 602 601
4 561 562 603 602
4 562 563 604 603
4 563 564 605 604
4 564 565 606 605
4 565 566 607 606
4 566 567 608 607
4 567 568 609 608
4 568 569 610 609
4 569 570 611 610
4 570 571 612 611
4 571 572 613 612
4 572 573 614 613
4 574 575 616 615
4 575 576 617 616
4 576 577 618 617
4 577 578 619 618
4 578 579 620 619
4 579 580 621 620
4 580 581 622 621
4 581 582 623 622
4 582 583 624 623
4 583 584 625 624
4 584 585 626 625
4 585 586 627 626
4 586 587 628 627
4 587 588 629 628
4 588 589 630 629
4 589 590 631 630
4 590 591 632 631
4 591 592 633 632
4 592 593 634 633
4 593 594 635 634
4 594 595 636 635
4 595 596 637 636
4 596 597 638 637
4 597 598 639 638
4 598 599 640 639
4 599 600 641 640
4 600 601 642 641
4 601 602 643 642
4 602 603 644 643
4 603 604 645 644
4 604 605 646 645
4 605 606 647 646
4 606 607 648 647
4 607 608 649 648
4 608 609 650 649
4 609 610 651 650
4 610 611 652 651
4 611 612 653 652
4 612 613 654 653
4 613 614 655 654
4 615 616 657 656
4 616 617 658 657
4 617 618 659 658
4 618 619 660 659
4 619 620 661 660
4 620 621 662 661
4 621 622 663 662
4 622 623 664 663
4 623 624 665 664
4 624 625 666 665
4 625 626 667 666
4 626 627 668 667
4 627 628 669 668
4 628 629 670 669
4 629 630 671 670
4 630 631 672 671
4 631 632 673 672
4 632 633 674 673
4 633 634 675 674
4 634 635 676 675
4 635 636 677 676
4 636 637 678 677
4 637 638 679 678
4 638 639 680 679
4 639 640 681 680
4 640 641 682 681
4 641 642 683 682
4 642 643 684 683
4 643 644 685 684
4 644 645 686 685
4 645 646 687 686
4 646 647 688 687
4 647 648 689 688
4 648 649 690 689
4 649 650 691 690
4 650 651 692 691
4 651 652 693 692
4 652 653 694 693
4 653 654 695 694
4 654 655 696 695
4 656 657 698 697
4 657 658 699 698
4 658 659 700 699
4 659 660 701 700
4 660 661 702 701
4 661 662 703 702
4 662 663 704 703
4 663 664 705 704
4 664 665 706 705
4 665 666 707 706
4 666 667 708 707
4 667 668 709 708
4 668 669 710 709
4 669 670 711 710
4 670 671 712 711
4 671 672 713 712
4 672 673 714 713
4 673 674 715 714
4 674 675 716 715
4 675 676 717 716
4 676 677 718 717
4 677 678 719 718
4 678 679 720 719
4 679 680 721 720
4 680 681 722 721
4 681 682 723 722
4 682 683 724 723
4 683 684 725 724
4 684 685 726 725
4 685 686 727 726
4 686 687 728 727
4 687 688 729 728
4 688 689 730 729
4 689 690 731 730
4 690 691 732 731
4 691 692 733 732
4 692 693 734 733
4 693 694 735 734
4 694 695 736 735
4 695 696 737 736
4 697 698 739 738
4 698 699 740 739
4 699 700 741 740
4 700 701 742 741
4 701 702 743 742
4 702 703 744 743
4 703 704 745 744
4 704 705 746 745
4 705 706 747 746
4 706 707 748 747
4 707 708 749 748
4 708 709 750 749
4 709 710 751 750
4 710 711 752 751
4 711 712 753 752
4 712 713 754 753
4 713 714 755 754
4 714 715 756 755
4 715 716 757 756
4 716 717 758 757
4 717 718 759 758
4 718 719 760 759
4 719 720 761 760
4 720 721 762 761
4 721 722 763 762
4 722 723 764 763
4 723 724 765 764
4 724 725 766 765
4 725 726 767 766
4 726 727 768 767
4 727 728 769 768
4 728 729 770 769
4 729 730 771 770
4 730 731 772 771
4 731 732 773 772
4 732 733 774 773
4 733 734 775 774
4 734 735 776 775
4 735 736 777 776
4 736 737 778 777
4 738 739 780 779
4 739 740 781 780
4 740 741 782 781
4 741 742 783 782
4 742 743 784 783
4 743 744 785 784
4 744 745 786 785
4 745 746 787 786
4 746 747 788 787
4 747 748 789 788
4 748 749 790 789
4 749 750 791 790
4 750 751 792 791
4 751 752 793 792
4 752 753 794 793
4 753 754 795 794
4 754 755 796 795
4 755 756 797 796
4 756 757 798 797
4 757 758 799 798
4 758 759 800 799
4 759 760 801 800
4 760 761 802 801
4 761 762 803 802
4 762 763 804 803
4 763 764 805 804
4 764 765 806 805
4 765 766 807 806
4 766 767 808 807
4 767 768 809 808
4 768 769 810 809
4 769 770 811 810
4 770 771 812 811
4 771 772 813 812
4 772 773 814 813
4 773 774 815 814
4 774 775 816 815
4 775 776 817 816
4 776 777 818 817
4 777 778 819 818
4 779 780 821 820
4 780 781 822 821
4 781 782 823 822
4 782 783 824 823
4 783 784 825 824
4 784 785 826 825
4 785 786 827 826
4 786 787 828 827
4 787 788 829 828
4 788 789 830 829
4 789 790 831 830
4 790 791 832 831
4 791 792 833 832
4 792 793 834 833
4 793 794 835 834
4 794 795 836 835
4 795 796 837 836
4 796 797 838 837
4 797 798 839 838
4 798 799 840 839
4 799 800 841 840
4 800 801 842 841
4 801 802 843 842
4 802 803 844 843
4 803 804 845 844
4 804 805 846 845
4 805 806 847 846
4 806 807 848 847
4 807 808 849 848
4 808 809 850 849
4 809 810 851 850
4 810 811 852 851
4 811 812 853 852
4 812 813 854 853
4 813 814 855 854
4 814 815 856 855
4 815 816 857 856
4 816 817 858 857
4 817 818 859 858
4 818 819 860 859
CELL_TYPES 800
9
9
9
9
9
9
9
9
9
9
9
9
9
9
9
9
9
9
9
9
9
9
9
9
9
9
9
9
9
9
9
9
9
9
9
9
9
9
9
9
9
9
9
9
9
9
9
9
9
9
9
9
9
9
9
9
9
9
9
9
9
9
9
9
9
9
9
9
9
9
9
9
9
9
9
9
9
9
9
9
9
9
9
9
9
9
9
9
9
9
9
9
9
9
9
9
9
9
9
9
9
9
9
9
9
9
9
9
9
9
9
9
9
9
9
9
9
9
9
9
9
9
9
9
9
9
9
9
9
9
9
9
9
9
9
9
9
9
9
9
9
9
9
9
9
9
9
9
9
9
9
9
9
9
9
9
9
9
9
9
9
9
9
9
9
9
9
9
9
9
9
9
9
9
9
9
9
9
9
9
9
9
9
9
9
9
9
9
9
9
9
9
9
9
9
9
9
9
9
9
9
9
9
9
9
9
9
9
9
9
9
9
9
9
9
9
9
9
9
9
9
9
9
9
9
9
9
9
9
9
9
9
9
9
9
9
9
9
9
9
9
9
9
9
9
9
9
9
9
9
9
9
9
9
9
9
9
9
9
9
9
9
9
9
9
9
9
9
9
9
9
9
9
9
9
9
9
9
9
9
9
9
9
9
9
9
9
9
9
9
9
9
9
9
9
9
9
9
9
9
9
9
9
9
9
9
9
9
9
9
9
9
9
9
9
9
9
9
9
9
9
9
9
9
9
9
9
9
9
9
9
9
9
9
9
9
9
9
9
9
9
9
9
9
9
9
9
9
9
9
9
9
9
9
9
9
9
9
9
9
9
9
9
9
9
9
9
9
9
9
9
9
9
9
9
9
9
9
9
9
9
9
9
9
9
9
9
9
9
9
9
9
9
9
9
9
9
9
9
9
9
9
9
9
9
9
9
9
9
9
9
9
9
9
9
9
9
9
9
9
9
9
9
9
9
9
9
9
9
9
9
9
9
9
9
9
9
9
9
9
9
9
9
9
9
9
9
9
9
9
9
9
9
9
9
9
9
9
9
9
9
9
9
9
9
9
9
9
9
9
9
9
9
9
9
9
9
9
9
9
9
9
9
9
9
9
9
9
9
9
9
9
9
9
9
9
9
9
9
9
9
9
9
9
9
9
9
9
9
9
9
9
9
9
9
9
9
9
9
9
9
9
9
9
9
9
9
9
9
9
9
9
9
9
9
9
9
9
9
9
9
9
9
9
9
9
9
9
9
9
9
9
9
9
9
9
9
9
9
9
9
9
9
9
9
9
9
9
9
9
9
9
9
9
9
9
9
9
9
9
9
9
9
9
9
9
9
9
9
9
9
9
9
9
9
9
9
9
9
9
9
9
9
9
9
9
9
9
9
9
9
9
9
9
9
9
9
9
9
9
9
9
9
9
9
9
9
9
9
9
9
9
9
9
9
9
9
9
9
9
9
9
9
9
9
9
9
9
9
9
9
9
9
9
9
9
9
9
9
9
9
9
9
9
9
9
9
9
9
9
9
9
9
9
9
9
9
9
9
9
9
9
9
9
9
9
9
9
9
9
9
9
9
9
9
9
9
9
9
9
9
9
9
9
9
9
9
9
9
9
9
9
9
9
9
9
9
9
9
9
9
9
9
9
9
9
9
9
9
9
9
9
9
9
9
9
9
9
9
9
9
9
9
9
9
9
9
9
9
9
9
9
9
9
9
9
9
9
9
9
9
9
9
9
9
9
9
9
9
9
9
9
9
9
9
9
9
9
9
9
9
9
9
9
9
9
9
9
9
9
9
9
9
9
9
9
9
9
9
9
POINT_DATA 861
SCALARS Disp float 2
LOOKUP_TABLE default
0.0 0.0
0.0035891809899964034 -0.10441816703828226
0.004515303583559319 -0.2026289319229895
0.005212847244957485 -0.3002892408380246
0.006035232847782929 -0.39766584227043167
0.00712713005688669 -0.49458970582706996
0.008727232693412875 -0.5908436793597184
0.01103176144651931 -0.6861995112251724
0.014251758502917322 -0.7803738230251331
0.01861783981486639 -0.8729936032007239
0.024389594470333818 -0.9635563848444818
0.031901035633697686 -1.0513891689833674
0.041601541331647805 -1.1356217214332673
0.05404355683799259 -1.21519700959525
0.0698678916315002 -1.2888902482771294
0.08971910407400654 -1.3553248691016062
0.11409986093516167 -1.4129893915261098
0.14319007669269487 -1.4602742884479736
0.17668969911962853 -1.4955891160929604
0.2137544232463757 -1.5175824178004074
0.25298422238662316 -1.5253593558659821
0.2922140215268702 -1.5175824178003752
0.3292787456536134 -1.4955891160928938
0.36277836808053965 -1.4602742884478768
0.3918685838380634 -1.4129893915259886
0.4162493406992088 -1.3553248691014688
0.43610055314170537 -1.2888902482769777
0.4519248879352029 -1.2151970095950886
0.46436690344153686 -1.1356217214331008
0.47406740913947615 -1.0513891689832011
0.48157885030283004 -0.9635563848443196
0.4873506049582889 -0.8729936032005701
0.491716686270231 -0.7803738230249891
0.4949366833266235 -0.686199511225041
0.49724121207972577 -0.5908436793596006
0.498841314716249 -0.49458970582696876
0.4999332119253513 -0.3976658422703472
0.5007555975281763 -0.30028924083795866
0.5014531411895742 -0.2026289319229413
0.5023792637831364 -0.10441816703825332
0.5059684447731306 0.0
0.026068475859441095 -0.0016321642976783897
0.02843727314549255 -0.10449623115200822
0.02895259639358251 -0.20269747704784905
0.029586993256635927 -0.3003643255371208
0.030324760325774653 -0.3977594597391241
0.03128092286378934 -0.4947494661264101
0.032685763671720325 -0.5911222916868513
0.034730616234184684 -0.6866433223606976
0.03760971793995083 -0.781035073809086
0.04152524381542261 -0.8739273123159006
0.046703852071115146 -0.9648284061737517
0.053433443083676924 -1.0530890886000672
0.06210625110282528 -1.1378693920114675
0.07323508336540535 -1.2181380694519544
0.08741393820189201 -1.292685943828043
0.10524851147621855 -1.3601231389788901
0.12721327124402187 -1.4188830581879126
0.1534865195325093 -1.467258734742216
0.18381550709129835 -1.5035339730172894
0.2174358256466304 -1.526224280459709
0.2529842223866193 -1.5342729029291873
0.2885326191266076 -1.5262242804596764
0.32215293768193604 -1.5035339730172215
0.3524819252407187 -1.4672587347421173
0.37875517352919813 -1.4188830581877894
0.40071993329699285 -1.3601231389787503
0.4185545065713106 -1.292685943827889
0.43273336140778823 -1.218138069451791
0.4438621936703587 -1.1378693920112988
0.4525350016894974 -1.0530890885998987
0.45926459270205006 -0.9648284061735876
0.46444320095773495 -0.8739273123157449
0.46835872683320035 -0.7810350738089408
0.4712378285389614 -0.686643322360565
0.47328268110142196 -0.5911222916867328
0.47468752190935043 -0.49474946612630843
0.475643684447364 -0.3977594597390396
0.4763814515165024 -0.3003643255370548
0.4770158483795556 -0.20269747704780083
0.47753117162764563 -0.10449623115197917
0.4798999689136938 -0.001632164297676482
0.051443142209597566 -0.0029006697002811046
0.0531197157951463 -0.104525733405673
0.05341819587146554 -0.2027395108296686
0.05393628036094882 -0.3004339742623722
0.05459565013586009 -0.3978401003739015
0.05543105189247918 -0.4948782693596172
0.0566371400558858 -0.5913536989794975
0.058419827098796444 -0.6870216365486649
0.060952614209650056 -0.7816075161239842
0.0644131070159298 -0.8747422256029893
0.06899576060030219 -0.9659431284351232
0.07494694042885988 -1.0545803630331663
0.08260422520995457 -1.1398432900273296
0.09242229201819577 -1.2207299376250464
0.10495344802486138 -1.2960452970508762
0.12075529493672248 -1.364388345792006
0.1402751855862549 -1.4241432013993793
0.16370468051763515 -1.4735159834163254
0.19084937671513894 -1.5106764356873539
0.22101926785843157 -1.534003609623067
0.2529842223866157 -1.5423061014525
0.28494917691479915 -1.5340036096230336
0.31511906805808854 -1.510676435687285
0.3422637642555868 -1.4735159834162253
0.3656932591869602 -1.4241432013992543
0.38521314983648497 -1.3643883457918646
0.40101499674833835 -1.2960452970507206
0.41354615275499584 -1.2207299376248808
0.4233642195632285 -1.1398432900271587
0.43102150434431474 -1.0545803630329955
0.43697268417286433 -0.9659431284349573
0.4415553377572299 -0.8747422256028322
0.4450158305635039 -0.7816075161238377
0.44754861767435294 -0.6870216365485313
0.44933130471726024 -0.5913536989793784
0.45053739288066474 -0.49487826935951534
0.451372794637283 -0.397840100373817
0.45203216441219396 -0.30043397426230617
0.45255024890167717 -0.20273951082962044
0.45284872897799655 -0.10452573340564378
0.4545253025635421 -0.002900669700277292
0.07645511370572751 -0.0039099340649225685
0.07768696888370247 -0.10454695595641769
0.07786766092822661 -0.20276250760151987
0.07827036701279463 -0.300491679884673
0.07884185193927971 -0.3979123758640273
0.07957311118573603 -0.49498095194511127
0.08058883917544368 -0.5915377566112331
0.08210542132404293 -0.6873355327011601
0.08428860863069888 -0.7820914035351052
0.08729096283771057 -0.8754389795445849
0.09127739458674534 -0.9669016313301183
0.09645349668011167 -1.0558663187025594
0.1031055926992987 -1.1415480627610948
0.1116284614337413 -1.222974519306493
0.12251232431836401 -1.2989678466456889
0.13627275757923454 -1.368116887585243
0.15333004244040957 -1.4287641895699295
0.17389077772369968 -1.47904129402783
0.1978249779416031 -1.5170128141573107
0.22454873474983797 -1.5409307512648744
0.25298422238661245 -1.5494846911250735
0.281419710023386 -1.5409307512648407
0.308143466831618 -1.517012814157241
0.33207766704951663 -1.4790412940277284
0.3526384023328007 -1.4287641895698031
0.369695687193969 -1.3681168875850998
0.38345612045483274 -1.2989678466455312
0.39433998333944825 -1.2229745193063255
0.4028628520738835 -1.141548062760922
0.40951494809306305 -1.0558663187023871
0.4146910501864225 -0.9669016313299509
0.41867748193545123 -0.8754389795444265
0.42167983614245785 -0.7820914035349577
0.4238630234491097 -0.6873355327010258
0.4253796055977061 -0.5915377566111134
0.42639533358741216 -0.4949809519450093
0.42712659283386784 -0.39791237586394274
0.4276980777603526 -0.300491679884607
0.4281007838449206 -0.20276250760147177
0.4282814758894449 -0.10454695595638826
0.429513331067417 -0.003909934064917059
0.10125468805800816 -0.00471689948932048
0.10216952264489967 -0.10457083146739571
0.1022850389463694 -0.20277448840956933
0.10258762628667226 -0.3005359765164815
0.10306497090815495 -0.39797577153958813
0.1036955953469008 -0.4950662268732244
0.10454627065461274 -0.5916785270674951
0.10579431753394293 -0.6875855918684398
0.10762619966089852 -0.7824881342163782
0.11016912987130553 -0.8760188228240229
0.11356002460650842 -0.9677062674950736
0.11796715534346264 -1.0569499871064478
0.12362466604039195 -1.1429883431279044
0.13086558784463906 -1.2248768518131916
0.14011919698363703 -1.3014551295851178
0.1518396045942826 -1.3713074573352821
0.16642183573724337 -1.4327423171566853
0.18409133599916233 -1.4838288146416634
0.2047870855405557 -1.522539361862165
0.22805526867806952 -1.5470117548371636
0.2529842223866092 -1.5558228219993895
0.2779131760951481 -1.5470117548371294
0.3011813592326591 -1.5225393618620942
0.3218771087740483 -1.4838288146415606
0.3395466090359621 -1.4327423171565574
0.3541288401789169 -1.3713074573351376
0.3658492477895567 -1.3014551295849588
0.3751028569285485 -1.2248768518130226
0.38234377873278924 -1.1429883431277301
0.3880012894297123 -1.056949987106274
0.39240842016666055 -0.9677062674949046
0.3957993149018583 -0.8760188228238632
0.39834224511226096 -0.7824881342162296
0.40017412723921303 -0.6875855918683048
0.4014221741185409 -0.5916785270673751
0.4022728494262517 -0.4950662268731223
0.40290347386499703 -0.39797577153950353
0.40338081848647944 -0.30053597651641545
0.4036834058267823 -0.20277448840952128
0.4037989221282521 -0.10457083146736612
0.40471375671514126 -0.004716899489313527
0.12591282715778915 -0.005358548164592517
0.12659102021709492 -0.1045994354472101
0.12666720886275015 -0.2027809009009238
0.12688554917152178 -0.30056775769169725
0.12726703286611452 -0.39802882995816363
0.12779511364067456 -0.4951375369394133
0.12849887665915266 -0.5917857054790352
0.12950124900068535 -0.6877724781975403
0.1309749730184589 -0.7827995515331465
0.13305861120959273 -0.8764840913863229
0.135856320426258 -0.9683595611818376
0.1395005826870263 -1.0578355754919861
0.14417677270494114 -1.144169516862398
0.15015534704824882 -1.226442381804754
0.15779268577996244 -1.3035125634082445
0.16748950763041867 -1.3739622206548157
0.17960065717037976 -1.4360754367472373
0.19435731675972348 -1.4878727844916433
0.2117811199873465 -1.5272506451841805
0.23156688243832096 -1.552246971850158
0.252984222386606 -1.5613272328789078
0.27440156233489027 -1.552246971850123
0.2941873247858621 -1.5272506451841088
0.3116111280134815 -1.4878727844915394
0.32636778760282087 -1.4360754367471085
0.3384789371427769 -1.3739622206546696
0.3481757589932281 -1.3035125634080844
0.3558130977249367 -1.2264423818045835
0.3617916720682391 -1.1441695168622226
0.3664678620861488 -1.057835575491811
0.3701121243469121 -0.9683595611816678
0.37290983356357316 -0.8764840913861622
0.37499347175470327 -0.7827995515329972
0.37646719577247395 -0.6877724781974047
0.3774695681140049 -0.5917857054789148
0.3781733311324822 -0.49513753693931106
0.3787014119070418 -0.398028829958079
0.37908289560163433 -0.30056775769163113
0.37930123591040593 -0.20278090090087575
0.3793774245560611 -0.1045994354471804
0.38005561761536516 -0.005358548164584363
0.15046849797898534 -0.005864132977339093
0.15096842101667382 -0.10463217971424586
0.15101678575975658 -0.20278461758630317
0.1511630669046993 -0.30058863111649686
0.15145053134285263 -0.3980702584293431
0.15187115688439837 -0.49519689014711255
0.15243503683881976 -0.591868579853333
0.15321868455394874 -0.6879066169439813
0.15435193273929998 -0.7830271760104504
0.15597185895336924 -0.8768378089860497
0.15818041489370058 -0.968865437539311
0.16106908717327784 -1.0585279014456708
0.16477767767755258 -1.1450979993342618
0.16951393158722705 -1.2276788614881702
0.17556328693604786 -1.3051463503275385
0.18325434827554946 -1.3760866799875267
0.19290495738406965 -1.4387654293087377
0.204745129974144 -1.491168499992791
0.2188605557039616 -1.5311384635955299
0.2351135044982839 -1.556630488962373
0.2529842223866027 -1.5659981141929546
0.27085494027492074 -1.5566304889623377
0.2871078890692409 -1.5311384635954572
0.3012233147990552 -1.4911684999926864
0.31306348738912604 -1.4387654293086078
0.3227140964976421 -1.3760866799873797
0.3304051578371395 -1.3051463503273775
0.33645451318595637 -1.227678861487999
0.3411907670956267 -1.1450979993340853
0.34489935759989737 -1.0585279014454945
0.3477880298794707 -0.9688654375391402
0.3499965858197986 -0.8768378089858884
0.3516165120338649 -0.7830271760103004
0.35274976021921406 -0.6879066169438454
0.3535334079343418 -0.5918685798532126
0.35409728788876266 -0.4951968901470101
0.3545179134303081 -0.39807025842925853
0.3548053778684612 -0.30058863111643075
0.3549516590134039 -0.20278461758625513
0.35500002375648654 -0.10463217971421607
0.3554999467941738 -0.005864132977329977
0.17494889740188638 -0.0062561625532485425
0.17531252986432752 -0.10466934004615971
0.17533851994808866 -0.2027864586046623
0.17542090713319955 -0.30060008266670546
0.17561766935486253 -0.3980998056292001
0.17592749783612543 -0.49524325248150436
0.17635411914711766 -0.5919309238019664
0.17693502180891085 -0.6880003446441433
0.17775822328351926 -0.7831804766270938
0.17892904234692028 -0.8770838031842839
0.18054855964637032 -0.9692289308260598
0.18268890228979973 -1.059033163781417
0.1854445375110059 -1.1457816662755176
0.18896198219150886 -1.2285956319631495
0.19345189757232925 -1.3063670014920103
0.19917022759322012 -1.3776886047870178
0.20638020275782032 -1.4408165992210225
0.2153019004305596 -1.4937150014976366
0.22607922832470345 -1.5341930757663913
0.23873008732346057 -1.560149316619202
0.2529842223865992 -1.5698285729049517
0.26723835744973723 -1.5601493166191662
0.2798892164484926 -1.5341930757663182
0.2906665443426338 -1.4937150014975311
0.2995882420153702 -1.440816599220892
0.30679821717996725 -1.3776886047868695
0.31251654720085487 -1.3063670014918487
0.3170064625816723 -1.2285956319629778
0.32052390726217256 -1.1457816662753402
0.32327954248337554 -1.0590331637812402
0.3254198851268021 -0.9692289308258883
0.32703940242624957 -0.8770838031841219
0.3282102214896486 -0.7831804766269436
0.3290334229642556 -0.6880003446440071
0.329614325626048 -0.5919309238018459
0.33004094693703984 -0.495243252481402
0.3303507754183025 -0.3980998056291154
0.33054753763996536 -0.30060008266663935
0.3306299248250762 -0.2027864586046142
0.3306559149088372 -0.10466934004612989
0.33101954737127753 -0.006256162553238713
0.19936902405746226 -0.006557436769463198
0.19963359457741095 -0.10471040135320053
0.1996365586175949 -0.2027863439032392
0.19966143363914649 -0.30060330051154244
0.1997710874982025 -0.39811767764800515
0.1999684607403884 -0.495275263470287
0.20025198124079158 -0.5919763849715478
0.20064074804097562 -0.6880631291333463
0.20118224511599292 -0.7832746934778313
0.20193668307960938 -0.8772335950995717
0.20298188079785734 -0.9694574434371407
0.2043824254928706 -1.0593602253843595
0.2061976614732986 -1.1462310700019926
0.2085195249133234 -1.229205317708798
0.21148399211884594 -1.3071881171847473
0.21526787616848636 -1.3787806601377999
0.22006679504175555 -1.4422378026963385
0.22608507532508998 -1.4955142909108052
0.2334976606943042 -1.5364051489168518
0.24245734674986769 -1.5627842063722883
0.2529842223865955 -1.5728048266969552
0.26351109802332273 -1.5627842063722523
0.27247078407888503 -1.5364051489167785
0.2798833694480974 -1.4955142909106993
0.2859016497314296 -1.4422378026962075
0.29070056860469673 -1.3787806601376509
0.29448445265433504 -1.307188117184585
0.2974489198598558 -1.2292053177086257
0.29977078329987894 -1.1462310700018148
0.301586019280305 -1.0593602253841818
0.3029865639753164 -0.9694574434369688
0.3040317616935627 -0.8772335950994095
0.30478619965717807 -0.7832746934776808
0.3053276967321945 -0.6880631291332101
0.305716463532378 -0.5919763849714272
0.305999984032781 -0.49527526347018463
0.3061973572749668 -0.3981176776479205
0.30630701113402276 -0.30060330051147627
0.3063318861555743 -0.20278634390319109
0.30633485019575823 -0.10471040135317071
0.3065994207157064 -0.006557436769452865
0.22373837716693623 -0.0067931355947209796
0.22393455015852481 -0.10475385367558458
0.2239158197732139 -0.20278401300918641
0.22388781753383302 -0.30059921078558177
0.22391390138913023 -0.3981241121872514
0.22399865612806868 -0.49529252394845935
0.22413627975192504 -0.5920033332904296
0.22433061844549593 -0.6881007011388537
0.2245994552906034 -0.7833275265572148
0.224976206339793 -0.8773098271203336
0.225485464503765 -0.9695697571397587
0.2261706811333397 -1.059525152203056
0.2270617831195869 -1.146462888829903
0.22820722066890325 -1.2295270112933623
0.2296786965850379 -1.3076309241720532
0.23156719696594238 -1.3793837949444867
0.23399177983259872 -1.4430451366116224
0.2371189217346887 -1.4965777357026806
0.24117058313036885 -1.5377722627201478
0.24635852417222895 -1.5645100583146774
0.25298422238659146 -1.5749027502117239
0.25960992060095384 -1.5645100583146412
0.2647978616428133 -1.5377722627200745
0.2688495230384923 -1.4965777357025742
0.27197666494058104 -1.4430451366114914
0.27440124780723646 -1.3793837949443375
0.27628974818814006 -1.3076309241718904
0.277761224104274 -1.2295270112931898
0.27890666165358974 -1.1464628888297252
0.2797977636398362 -1.0595251522028781
0.28048298026941026 -0.9695697571395866
0.28099223843338156 -0.8773098271201711
0.2813689894825708 -0.7833275265570642
0.28163782632767786 -0.6881007011387172
0.2818321650212486 -0.5920033332903093
0.28196978864510486 -0.49529252394835693
0.28205454338404334 -0.3981241121871667
0.2820806272393406 -0.3005992107855156
0.2820526249999597 -0.20278401300913826
0.2820338946146488 -0.10475385367555475
0.2822300676062371 -0.006793135594710333
0.24807064966999914 -0.006980557780638112
0.24821959782013653 -0.10479737008713774
0.24818067755882908 -0.20277949835176878
0.2481038954783534 -0.30058842741957753
0.24804975428716936 -0.39811950348992925
0.2480229900346838 -0.4952948934820378
0.24801320770601623 -0.5920112624307051
0.24801111711640497 -0.6881131339211063
0.2480113216034386 -0.7833448345029282
0.24801180064870543 -0.8773345405675113
0.24801215734024507 -0.9696034089633886
0.24801236818280967 -1.059571709781487
0.24801204571176974 -1.146524696468273
0.24800983925283385 -1.2296109759273413
0.24800570438025327 -1.3077475571913333
0.24800955920149248 -1.3795460847870542
0.24806628931078617 -1.4432818163026822
0.248311141372334 -1.4969403178064649
0.2490035964936494 -1.538327087361295
0.250458234211609 -1.5653193793624287
0.2529842223865873 -1.5760963361860998
0.25551021056156586 -1.5653193793623925
0.2569648482795253 -1.5383270873612211
0.25765730340084025 -1.4969403178063583
0.2579021554623882 -1.4432818163025507
0.2579588855716822 -1.379546084786905
0.25796274039292166 -1.3077475571911705
0.25795860552034144 -1.2296109759271687
0.25795639906140605 -1.146524696468095
0.2579560765903667 -1.0595717097813093
0.2579562874329318 -0.9696034089632165
0.2579566441244717 -0.8773345405673489
0.2579571231697388 -0.7833448345027775
0.25795732765677254 -0.6881131339209698
0.2579552370671614 -0.5920112624305847
0.2579454547384939 -0.49529489348193534
0.25791869048600846 -0.3981195034898445
0.2578645492948245 -0.3005884274195113
0.2577877672143489 -0.20277949835172057
0.2577488469530415 -0.1047973700871079
0.2578977951031788 -0.006980557780627248
0.27238057599214544 -0.00712916752464375
0.27249341836644747 -0.10483869002490542
0.27243582842121467 -0.20277284078153013
0.27231370880286976 -0.3005714374268965
0.2721826488871868 -0.39810433906153814
0.2720464599593357 -0.49528249765139964
0.2718902264492165 -0.592000057869005
0.27169167668074695 -0.6881001826205778
0.27142325509735976 -0.7833277260020161
0.2710474388399274 -0.8773099838236638
0.27053887250732384 -0.969569862128857
0.26985410903197166 -1.0595251071799248
0.2689624461389002 -1.1464623961527416
0.2678128827395446 -1.2295256056523924
0.2663326808347946 -1.3076299528814155
0.2644495993125269 -1.3793910228400772
0.26213208458810205 -1.4430964720603907
0.25945308370989034 -1.49675347253317
0.25665938469005867 -1.5382101557877095
0.25420170698368255 -1.5653160143807536
0.25298422238658347 -1.576494991812987
0.25176673778948416 -1.5653160143807174
0.24930906008310785 -1.5382101557876355
0.24651536106327698 -1.4967534725330633
0.2438363601850667 -1.4430964720602595
0.2415188454606436 -1.3793910228399282
0.2396357639383772 -1.307629952881253
0.2381555620336287 -1.2295256056522201
0.23700599863427474 -1.146462396152564
0.23611433574120513 -1.0595251071797471
0.23542957226585456 -0.969569862128685
0.2349210059332523 -0.8773099838235013
0.2345451896758208 -0.7833277260018654
0.23427676809243428 -0.6881001826204414
0.23407821832396505 -0.5920000578688844
0.23392198481384616 -0.49528249765129717
0.2337857958859953 -0.39810433906145326
0.23365473597031247 -0.3005714374268303
0.23353261635196773 -0.20277284078148192
0.23347502640673495 -0.10483869002487557
0.23358786878103688 -0.007129167524632703
0.2966803358742645 -0.007244152757754741
0.2967616958182501 -0.10487610815682473
0.2966861102638295 -0.20276391966646154
0.29652153297463146 -0.3005486766879902
0.2963169079375165 -0.39807917743715543
0.29607415276837734 -0.49525571012112446
0.29577394252427247 -0.5919700021479734
0.2953818408452702 -0.6880621520317571
0.2948405646276394 -0.7832750669612075
0.2940871076431062 -0.8772339308103267
0.29304253318360723 -0.9694576454110322
0.29164229554372817 -1.0593601692341583
0.289826913115256 -1.1462301098195278
0.28750228641460124 -1.2292022675073202
0.2845286570441834 -1.3071850620535037
0.28074331751338605 -1.378795915500279
0.27603025327791336 -1.4423416149936377
0.2704070114348554 -1.4958707430984521
0.26412328899477105 -1.5372893938875642
0.2578727296836383 -1.5645750421622249
0.2529842223865796 -1.5762315072847595
0.24809571508952047 -1.5645750421621885
0.24184515577838805 -1.53728939388749
0.23556143333830523 -1.4958707430983458
0.22993819149524997 -1.4423416149935073
0.22522512725978022 -1.3787959155001301
0.22143978772898526 -1.3071850620533414
0.21846615835856995 -1.2292022675071481
0.21614153165791808 -1.146230109819351
0.2143261492294488 -1.0593601692339811
0.21292591158957253 -0.9694576454108604
0.21188133713007593 -0.8772339308101643
0.2111278801455444 -0.7832750669610572
0.2105866039279148 -0.6880621520316206
0.21019450224891312 -0.5919700021478527
0.20989429200480866 -0.495255710121022
0.2096515368356699 -0.3980791774370706
0.20944691179855515 -0.30054867668792395
0.20928233450935732 -0.2027639196664133
0.20920674895493674 -0.10487610815679485
0.20928810889892227 -0.007244152757743564
0.32097760822087834 -0.007330082373205542
0.32103037328547257 -0.10490820467935874
0.3209365262423029 -0.20275249673444914
0.3207318041545778 -0.3005205386714135
0.3204569120599298 -0.3980446108482804
0.3201113579148827 -0.49521526287788564
0.31967204950241485 -0.5919218341492414
0.31908764409406987 -0.6879989042931499
0.3182650076649393 -0.7831811183619899
0.3170950848545027 -0.8770843592503595
0.3154759387621622 -0.9692292059708917
0.3133356236554019 -1.0590331102336572
0.31058050102859225 -1.1457805645102668
0.30706309083905414 -1.2285914356685126
0.302567488503291 -1.3063615392904673
0.29684212751515154 -1.3777080243100128
0.2896800500573928 -1.4409609489165411
0.28103991344064044 -1.4942216339644125
0.2712376616049547 -1.5355013616415245
0.26123777933402 -1.562945268435501
0.25298422238657564 -1.5753057974450269
0.2447306654391312 -1.5629452684354646
0.23473078316819734 -1.5355013616414508
0.22492853133251392 -1.4942216339643069
0.21628839471576514 -1.4409609489164112
0.2091263172580105 -1.3777080243098647
0.20340095626987437 -1.3063615392903056
0.19890535393411476 -1.2285914356683414
0.1953879437445807 -1.1457805645100905
0.19263282111777502 -1.0590331102334807
0.19049250601101878 -0.9692292059707208
0.1888733599186816 -0.8770843592501978
0.18770343710824763 -0.7831811183618397
0.18688080067911877 -0.6879989042930135
0.18629639527077477 -0.5919218341491207
0.18585708685830754 -0.4952152628777834
0.18551153271326096 -0.39804461084819565
0.18523664061861322 -0.3005205386713473
0.18503191853088835 -0.20275249673440096
0.18493807148771876 -0.10490820467932885
0.1849908365523129 -0.00733008237319427
0.3452780364882928 -0.0073911699705693735
0.34530477856594305 -0.10493401821143739
0.3451920813629261 -0.20273822920058507
0.34494901329209837 -0.3004873501869297
0.3446069161398197 -0.3980013834946759
0.3441633069338241 -0.49516176494116404
0.34358942778374324 -0.5918568653448066
0.34280471272300883 -0.68790497745497
0.3416719163359599 -0.783028100652855
0.34005263252590845 -0.8768385624012973
0.33784401895340865 -0.968865684085346
0.3349551835999463 -1.0585278506591627
0.33124765182516325 -1.1450971808152999
0.3265154455411654 -1.2276748466931269
0.32046914020495143 -1.3051395809292912
0.3127706474304318 -1.3761058089310838
0.30311624571119955 -1.4389289783470418
0.2914163511235053 -1.4917839459161912
0.27808015331780456 -1.5328309905847297
0.2643980824244715 -1.5604519133448815
0.25298422238657187 -1.5737436758837042
0.24157036234867246 -1.5604519133448451
0.22788829145534098 -1.5328309905846564
0.21455209364964312 -1.4917839459160862
0.2028521990619532 -1.4389289783469126
0.19319779734272585 -1.3761058089309368
0.18549930456821073 -1.3051395809291302
0.17945299923200125 -1.2276748466929566
0.17472079294800844 -1.1450971808151245
0.1710132611732306 -1.0585278506589872
0.1681244258197733 -0.9688656840851759
0.16591581224727786 -0.8768385624011363
0.1642965284372299 -0.7830281006527052
0.16316373205018342 -0.6879049774548338
0.16237901698945048 -0.5918568653446861
0.1618051378393704 -0.49516176494106184
0.16136152863337533 -0.39800138349459113
0.1610194314810971 -0.3004873501868635
0.16077636341026952 -0.20273822920053688
0.1606636662072527 -0.1049340182114075
0.1606904082849029 -0.007391169970558022
0.3695859516551365 -0.007431468661690022
0.3695895274098677 -0.10495303807177811
0.3694576708422307 -0.2027207512066692
0.36917775388406876 -0.30044945702678294
0.3687714988544956 -0.3979500260310161
0.36823490344624843 -0.49509707342714715
0.36752601010965585 -0.591771977984055
0.36652288076805906 -0.6877707703903612
0.3650497986625037 -0.7828007462100101
0.36296615114696695 -0.8764849249801556
0.3601680847962588 -0.9683597203954118
0.35652345105518624 -1.0578355029618691
0.35184881833499665 -1.1441694107280878
0.3458786362019068 -1.2264404512506404
0.338256507549222 -1.3035072270759789
0.3285582488679711 -1.3739770742219102
0.3163981187659395 -1.4362348862687475
0.3016423950743526 -1.4885498765614753
0.28479006779150273 -1.5292787243059285
0.26748845970242985 -1.5571156681203746
0.25298422238656826 -1.5715643215052748
0.2384799850707071 -1.5571156681203384
0.2211783769816363 -1.5292787243058557
0.20432604969879012 -1.4885498765613707
0.18957032600720822 -1.4362348862686196
0.1774101959051824 -1.3739770742217645
0.16771193722393696 -1.303507227075819
0.16008980857125774 -1.2264404512504714
0.15411962643817398 -1.1441694107279137
0.14944499371799064 -1.057835502961695
0.14580035997692414 -0.9683597203952431
0.14300229362622113 -0.8764849249799955
0.14091864611068874 -0.782800746209861
0.13944556400513658 -0.6877707703902253
0.13844243466354195 -0.5917719779839347
0.13773354132695043 -0.495097073427045
0.1371969459187038 -0.3979500260309314
0.1367906908891311 -0.30044945702671677
0.13651077393096941 -0.20272075120662103
0.13637891736333252 -0.1049530380717482
0.13638249311806366 -0.007431468661678636
0.3939045947959275 -0.0074550157177259635
0.3938885186602072 -0.10496515339746854
0.39373808349648814 -0.20269980733437237
0.39342270048285344 -0.3004071118282444
0.3929548338718482 -0.39789130980012627
0.3923294222393425 -0.49502145161994077
0.3914788932818123 -0.5916632692774109
0.39023161198013406 -0.6875839925275453
0.3883994529895482 -0.7824894404593928
0.3858558078543782 -0.8760195967621891
0.38246427842309816 -0.9677062917885668
0.378056795482234 -1.0569499043208899
0.3724015986102275 -1.1429893643575135
0.36517280639965133 -1.2248789042710526
0.35594524794158205 -1.3014547384130124
0.3442369648597239 -1.3713171147298537
0.3295888184217887 -1.4328796983596321
0.3118208752598983 -1.4845239972048172
0.2915129642001608 -1.5248522555285087
0.27061682555595395 -1.5529392390544883
0.25298422238656465 -1.5687626967450414
0.23535161921717626 -1.5529392390544525
0.214455480572972 -1.5248522555284367
0.19414756951323872 -1.484523997204714
0.17637962635135412 -1.4328796983595053
0.16173147991342554 -1.3713171147297094
0.15002319683157384 -1.3014547384128539
0.14079563837351103 -1.2248789042708847
0.13356684616294212 -1.142989364357341
0.1279116492909429 -1.056949904320717
0.12350416635008568 -0.9677062917883994
0.12011263691881179 -0.8760195967620301
0.11756899178364674 -0.7824894404592445
0.1157368327930649 -0.6875839925274101
0.11448955149138944 -0.5916632692772907
0.11363902253386068 -0.4950214516198386
0.11301361090135557 -0.39789130980004156
0.11254574429035084 -0.3004071118281783
0.11223036127671646 -0.20269980733432422
0.11207992611299747 -0.10496515339743863
0.11206384997727727 -0.007455015717714541
0.41823605382415247 -0.007465934768403959
0.41820492597291603 -0.1049706293276318
0.4180380426178128 -0.20267536677203968
0.4176887082682186 -0.3003604182912449
0.41716104499305534 -0.39782627085912303
0.41644830940952116 -0.4949340649057168
0.41543899052283323 -0.5915220104613433
0.41392276244138704 -0.6873339569431377
0.411737799888054 -0.7820925227181454
0.40873403746452713 -0.8754395806769468
0.40474678147863336 -0.9669014992267192
0.39957062182000935 -1.0558663390261507
0.39292213682034904 -1.1415506618329487
0.38441397004253913 -1.2229818228533884
0.37356170913737313 -1.2989753437175795
0.35983025449433564 -1.3681251639460044
0.34273641395884424 -1.4288751923276874
0.32206630607546083 -1.4797268212478758
0.29840039979500194 -1.5195617211335422
0.2738869015450561 -1.5479051483172173
0.2529842223865612 -1.5653094400446772
0.23208154322806718 -1.547905148317182
0.20756804497812448 -1.5195617211334709
0.18390213869767064 -1.4797268212477737
0.16323203081429388 -1.4288751923275624
0.14613819027880978 -1.3681251639458614
0.13240673563577965 -1.2989753437174225
0.12155447473062131 -1.222981822853222
0.11304630795281959 -1.1415506618327784
0.10639782295316759 -1.0558663390259795
0.10122166329455144 -0.9669014992265533
0.0972344073086647 -0.8754395806767893
0.09423064488514353 -0.7820925227179981
0.09204568233181508 -0.6873339569430033
0.0905294542503723 -0.5915220104612238
0.08952013536368633 -0.4949340649056148
0.08880739978015288 -0.39782627085903843
0.08827973650499013 -0.3003604182911789
0.08793040215539624 -0.20267536677199152
0.08776351880029314 -0.1049706293276019
0.08773239094905677 -0.007465934768392518
0.4425809594258482 -0.007468481532481579
0.4425411266341423 -0.10497016108545365
0.44236246462838247 -0.20264771246961125
0.44198089603022545 -0.3003094124257802
0.4413940108566952 -0.3977555662473274
0.440589861696117 -0.49483180427904927
0.4393949822307964 -0.5913384004375616
0.4376106738028559 -0.6870195430183029
0.43507432179531125 -0.7816081660260241
0.4316119147371758 -0.8747425609328358
0.4270283008347203 -0.9659428523401821
0.42107768298637477 -1.05458072568136
0.41342577082854504 -1.139847963112595
0.40362381688774934 -1.220742936157123
0.3911242139894431 -1.2960620186535565
0.3753644664609252 -1.3644023037359994
0.35587741431531467 -1.4242442610378856
0.3324722169190918 -1.474196462082141
0.30561132099645344 -1.513421961864021
0.2774368735285721 -1.541975000429393
0.2529842223865576 -1.5611435578754642
0.22853157124454412 -1.541975000429358
0.2003571237766665 -1.5134219618639508
0.17349622785403407 -1.4741964620820405
0.15009103045781866 -1.4242442610377621
0.13060397831221635 -1.3644023037358581
0.11484423078370677 -1.2960620186534015
0.10234462788540911 -1.2207429361569586
0.09254267394462272 -1.1398479631124263
0.08489076178680235 -1.054580725681191
0.07894014393846557 -0.9659428523400181
0.0743565300360178 -0.8747425609326797
0.07089412297788886 -0.7816081660258781
0.06835777097034941 -0.6870195430181694
0.06657346254241288 -0.5913384004374426
0.06537858307709467 -0.4948318042789475
0.06457443391651743 -0.3977555662472428
0.06398754874298777 -0.30030941242571424
0.06360598014483108 -0.20264771246956312
0.06342731813907142 -0.10497016108542373
0.06338748534736553 -0.007468481532470123
0.4669378101961141 -0.0074670190608090705
0.4668986415917887 -0.1049650509663919
0.4667168776609215 -0.20261760153886715
0.46630497490714234 -0.30025390361886173
0.46565639147629373 -0.3976792992973599
0.4647442220137133 -0.4947065194106593
0.46335145285866464 -0.5911075160276026
0.46130170568086304 -0.6866399991824891
0.45841772103817063 -0.7810350297460827
0.45449977238599437 -0.8739273014673031
0.4493201725528612 -0.9648280388924255
0.4425920342522896 -1.0530901381133373
0.4339265375933564 -1.1378766291041544
0.4228143454122525 -1.2181566000747999
0.4086639408199683 -1.2927116969595782
0.3908802913350556 -1.3601504273066927
0.3690304126497422 -1.4190064924437975
0.3430401634228298 -1.467994551147631
0.3133539393056144 -1.5064755927736777
0.28150666322991846 -1.5350840902234117
0.2529842223865538 -1.5561477328863131
0.22446178154319035 -1.535084090223377
0.1926145054674987 -1.5064755927736089
0.16292828135029025 -1.467994551147532
0.13693803212338623 -1.4190064924436758
0.11508815343808203 -1.3601504273065532
0.09730450395317869 -1.2927116969594252
0.08315409936090412 -1.2181566000746376
0.07204190717981047 -1.1378766291039883
0.06337641052088791 -1.0530901381131705
0.05664827222032587 -0.9648280388922637
0.05146867238720115 -0.8739273014671488
0.047550723735032024 -0.7810350297459379
0.044666739092345455 -0.6866399991823566
0.04261699191454835 -0.5911075160274841
0.041224222759502556 -0.4947065194105579
0.0403120532969234 -0.39767929929727547
0.03966346986607538 -0.3002539036187958
0.03925156711229655 -0.20261760153881905
0.03906980318142954 -0.10496505096636198
0.03903063457710418 -0.0074670190607976075
0.49130162781201453 -0.007465852747661046
0.4912781701207398 -0.10495770544576435
0.49110828815836494 -0.20258625540229155
0.49066742988485856 -0.3001938593743867
0.4899473751185638 -0.39759354989978307
0.4889066682427258 -0.49455370226844286
0.4873140597769844 -0.5908280027035204
0.4850021802103335 -0.6861946874214682
0.4817762738566083 -0.7803728499344486
0.47740714404557166 -0.8729931732852527
0.4716345484761038 -0.963556030701495
0.4641255815245546 -1.0513912897396236
0.45443414105534324 -1.1356319551200014
0.4420089767306341 -1.2152206638362948
0.4262103195412608 -1.288924398419349
0.4064196099361752 -1.3553727139020788
0.3822355456887502 -1.41317281551868
0.3537114689810219 -1.4611653323455933
0.3215464776409332 -1.4988708041859877
0.2869166632851858 -1.527181690018428
0.25298422238654983 -1.5500000000000003
0.21905178148791496 -1.527181690018394
0.18442196713217238 -1.4988708041859202
0.1522569757920919 -1.461165332345496
0.12373289908437328 -1.4131728155185608
0.09954883483695842 -1.3553727139019416
0.07975812523188341 -1.2889243984191985
0.06395946804252078 -1.215220663836135
0.05153430371782299 -1.1356319551198377
0.041842863248623255 -1.0513912897394593
0.034333896297084734 -0.9635560307013351
0.028561300727625902 -0.8729931732851002
0.024192170916596978 -0.7803728499343053
0.020966264562878277 -0.6861946874213369
0.018654384996232315 -0.5908280027034029
0.01706177653049416 -0.49455370226834183
0.0160210696546578 -0.3975935498996987
0.015301014888363699 -0.30019385937432086
0.014860156614857654 -0.20258625540224345
0.01469027465248294 -0.10495770544573443
0.014666816961208284 -0.007465852747649589
SCALARS Stress float 6
LOOKUP_TABLE default
-869.3525966797718 -1636.2575807874928 -1168.7350734292063 1.698885590591896 0.0 0.0
1078.1711612113802 624.2579919975504 729.3150178858837 -22.93050887642155 0.0 0.0
469.65798608194837 48.251409375789656 154.15638959518662 -31.94664734013232 0.0 0.0
426.95854935235417 15.513487061733587 132.0602582444693 -4.214114474890433 0.0 0.0
521.2013596773394 34.56936405509619 172.5686902615663 -1.8160692797548688 0.0 0.0
585.6860491099914 61.34198088214772 236.67037682569568 -1.0059037903358026 0.0 0.0
666.3481419583412 74.48960598439766 306.4952349130224 -1.790262078821733 0.0 0.0
743.9820197953559 106.44647315568605 383.34446036379614 -2.266517549951378 0.0 0.0
825.5625220185959 149.0352495989754 460.44728883517564 -2.6339894537896082 0.0 0.0
917.9467471089871 206.1982198049177 543.4569368374895 -3.190225103699598 0.0 0.0
1024.7954928011773 279.5928148051506 637.5024328146428 -3.879247807750894 0.0 0.0
1145.2722318388346 368.74429128013963 743.852181702284 -4.679036958812615 0.0 0.0
1275.7276606143973 466.80480669865784 858.1903943706405 -5.1734774190565425 0.0 0.0
1412.5776625665087 570.5706276465423 978.0213636714363 -5.587731311709327 0.0 0.0
1548.6102726549605 673.4056106047007 1096.7233846818697 -5.968998990869611 0.0 0.0
1676.618724309066 769.1377963461109 1207.8749077134407 -6.336017393076944 0.0 0.0
1790.813261852403 853.5624773845402 1306.6488384288948 -6.46001926320821 0.0 0.0
1885.5387072312053 922.5975646014552 1388.281122247053 -5.990162109471894 0.0 0.0
1956.3313534028596 973.1615276443756 1448.939093359212 -4.803085549151739 0.0 0.0
1995.0378487338326 998.5885444521989 1481.1373521768467 -3.7822092256706927 0.0 0.0
1994.9124837180393 994.9969687507996 1479.6041568145151 -8.01136934569513e-13 0.0 0.0
1995.037848733798 998.5885444521888 1481.1373521767437 3.782209225674853 0.0 0.0
1956.331353402465 973.1615276440062 1448.939093358812 4.803085549212426 0.0 0.0
1885.53870723091 922.5975646012006 1388.2811222467292 5.99016210950956 0.0 0.0
1790.8132618521038 853.5624773842993 1306.6488384285346 6.460019263201644 0.0 0.0
1676.6187243087584 769.1377963458772 1207.8749077131054 6.336017393036437 0.0 0.0
1548.610272654466 673.405610604284 1096.7233846814358 5.968998990900902 0.0 0.0
1412.5776625659876 570.5706276461265 978.0213636709759 5.587731311703566 0.0 0.0
1275.727660613397 466.80480669777245 858.1903943698136 5.173477419039855 0.0 0.0
1145.2722318386734 368.7442912801459 743.8521817020759 4.679036958913468 0.0 0.0
1024.7954928001673 279.5928148042875 637.5024328138006 3.8792478076762755 0.0 0.0
917.9467471087862 206.1982198049236 543.4569368372378 3.19022510367801 0.0 0.0
825.5625220180186 149.03524959858424 460.4472888346566 2.6339894538432684 0.0 0.0
743.9820197951084 106.44647315566539 383.3444603634929 2.2665175499246395 0.0 0.0
666.3481419579649 74.48960598424826 306.495234912626 1.7902620787446057 0.0 0.0
585.6860491098377 61.34198088232901 236.67037682550497 1.0059037903448793 0.0 0.0
521.2013596765754 34.569364054417285 172.56869026111113 1.816069279755066 0.0 0.0
426.95854935225793 15.513487061999557 132.06025824452055 4.214114474856771 0.0 0.0
469.65798608161083 48.25140937569195 154.15638959506157 31.946647340097485 0.0 0.0
1078.1711612109862 624.2579919971482 729.3150178853821 22.930508876471066 0.0 0.0
-869.3525966774728 -1636.2575807851977 -1168.7350734269287 -1.69888559116389 0.0 0.0
-1106.3670328502556 -1838.9287621229112 -1345.3818481652809 4.457199978611792 0.0 0.0
723.8862578125476 357.5130366428645 452.2601209061211 -40.47638963930075 0.0 0.0
323.89226178415726 16.25295434434527 101.98258663830663 -24.77703778008111 0.0 0.0
378.15726535874114 3.1832281929472717 114.42840319918676 -16.19909131606161 0.0 0.0
463.94343893132213 13.623685950696748 145.49362091447384 -15.074027514862724 0.0 0.0
542.3865797778556 17.563272323251347 194.2684077465544 -17.364824946911288 0.0 0.0
602.305115212821 24.998582687047474 253.7056091489952 -19.57542418166782 0.0 0.0
666.0213740531556 40.45527899990353 315.6814558601262 -20.298123160491205 0.0 0.0
727.3556250305212 61.92888946832147 373.124976647247 -20.247608805995696 0.0 0.0
791.6517817049784 91.29951195257554 429.3265326562912 -19.999639080094813 0.0 0.0
860.8525320207289 127.845332365884 487.06770166936576 -19.493478330670293 0.0 0.0
934.0152265527521 168.32165650898185 546.1773872592905 -19.01387866470031 0.0 0.0
1006.9792292741894 210.5181777884899 604.6062838617969 -18.413015211711542 0.0 0.0
1077.7143430158553 248.28767139725784 658.9823480112856 -17.798680054511674 0.0 0.0
1139.484860558796 277.1107058286706 704.1750685045558 -17.411322684843114 0.0 0.0
1187.221164458903 292.875032283498 735.7952285885973 -17.082345056739552 0.0 0.0
1218.1549393093014 294.2006169507814 751.8747957475375 -16.4018854911394 0.0 0.0
1233.62090027132 283.95039081295704 754.58869258385 -14.843856222079218 0.0 0.0
1236.301600821728 266.31335683884663 747.4023776820561 -12.237232663135304 0.0 0.0
1218.6473017155622 235.18716161532052 723.6330395951653 -9.174580628385009 0.0 0.0
1183.8308521327679 196.86176695829897 687.9393396000614 2.276134836165511e-11 0.0 0.0
1218.6473017158742 235.18716161565726 723.633039595329 9.17458062842751 0.0 0.0
1236.3016008212817 266.31335683841263 747.4023776817389 12.237232663184344 0.0 0.0
1233.6209002710905 283.95039081276286 754.5886925836398 14.843856222080964 0.0 0.0
1218.1549393092457 294.200616950778 751.8747957474441 16.401885491131807 0.0 0.0
1187.2211644585748 292.8750322832292 735.7952285882915 17.08234505667881 0.0 0.0
1139.4848605581055 277.11070582805917 704.1750685039652 17.411322684869916 0.0 0.0
1077.7143430158003 248.2876713973156 658.9823480111946 17.7986800545749 0.0 0.0
1006.9792292739639 210.51817778838915 604.6062838615773 18.413015211709347 0.0 0.0
934.0152265528056 168.32165650920277 546.1773872593047 19.013878664763702 0.0 0.0
860.8525320201536 127.84533236546466 487.0677016689019 19.493478330628918 0.0 0.0
791.6517817047627 91.29951195254472 429.3265326560596 19.999639080081632 0.0 0.0
727.355625030123 61.92888946811354 373.1249766468828 20.24760880603335 0.0 0.0
666.0213740530933 40.45527900007379 315.68145585995586 20.298123160431114 0.0 0.0
602.3051152126668 24.998582687164692 253.705609148775 19.575424181635974 0.0 0.0
542.3865797776687 17.563272323369368 194.26840774638003 17.3648249469044 0.0 0.0
463.94343893075285 13.623685950284552 145.4936209141708 15.074027514864849 0.0 0.0
378.1572653586255 3.183228193139745 114.42840319922118 16.199091316012534 0.0 0.0
323.8922617840804 16.25295434429734 101.98258663827121 24.777037780054332 0.0 0.0
723.8862578121453 357.51303664252094 452.2601209056604 40.47638963932627 0.0 0.0
-1106.3670328485068 -1838.9287621210633 -1345.38184816341 -4.457199979130923 0.0 0.0
-896.9017259500504 -1594.8385082391512 -1106.967201985318 -37.2264490881293 0.0 0.0
527.7137172945384 259.7698735760762 320.11293677314046 -101.84111185656776 0.0 0.0
237.28796603738903 30.232445588729153 80.25605782335855 -23.844529632505125 0.0 0.0
322.80337502843736 -1.6263640889762252 96.34603542663707 -35.282591014088766 0.0 0.0
415.18543754030793 9.352308162110349 127.40414924596044 -36.60568279516036 0.0 0.0
511.21049803041024 14.356961721037496 171.6491935115194 -34.62762920619189 0.0 0.0
573.8792902945896 24.468037849190388 230.97486484993132 -37.28140443779189 0.0 0.0
639.9650173690185 34.81500343393791 291.865474143362 -38.71082384536107 0.0 0.0
700.6944042801435 54.204815730970395 350.0764131489137 -38.915397489923244 0.0 0.0
762.636627133493 79.99327393852208 405.1685213745696 -38.52551131234948 0.0 0.0
827.8670382055889 112.4191947103586 460.2967592486482 -37.71173156712256 0.0 0.0
896.1313614154166 149.72684471190558 516.3569186751138 -36.56342096019468 0.0 0.0
966.4318315608502 187.2906311497494 571.6954065563444 -35.38665286345542 0.0 0.0
1032.478895113821 222.11022860418248 622.5504992517358 -34.26365098433773 0.0 0.0
1090.9332083459653 247.83158979763772 664.6049818214392 -33.470476900917305 0.0 0.0
1136.2731520479351 261.4648013888533 693.9765065510583 -32.728970336481915 0.0 0.0
1167.2810480451603 263.02801872716856 710.2284662561271 -31.310565578561295 0.0 0.0
1184.0698790651097 254.06698657124267 714.334375881336 -28.434594591707814 0.0 0.0
1184.8956218354651 234.31420316468723 705.3044129443491 -23.855952232806366 0.0 0.0
1172.7585784040455 208.54036054120596 686.8025928139705 -17.458680419450275 0.0 0.0
1126.9336986691521 159.32685824731814 640.4621135978322 2.1360690993788012e-11 0.0 0.0
1172.7585784042546 208.54036054142878 686.8025928141086 17.458680419502063 0.0 0.0
1184.8956218351602 234.3142031644271 705.3044129441597 23.855952232884746 0.0 0.0
1184.0698790645906 254.0669865707518 714.3343758809289 28.434594591799996 0.0 0.0
1167.2810480448572 263.02801872691964 710.2284662558452 31.310565578617 0.0 0.0
1136.2731520474942 261.46480138848915 693.9765065506963 32.72897033652299 0.0 0.0
1090.9332083456165 247.83158979737433 664.6049818210668 33.47047690099535 0.0 0.0
1032.4788951139044 222.11022860438686 622.5504992517237 34.263650984404606 0.0 0.0
966.431831560824 187.29063114983674 571.6954065562101 35.38665286346192 0.0 0.0
896.1313614146867 149.72684471130162 516.3569186745738 36.56342096011699 0.0 0.0
827.8670382054362 112.41919471038204 460.2967592484841 37.71173156715045 0.0 0.0
762.6366271331699 79.9932739383822 405.1685213742608 38.525511312369616 0.0 0.0
700.6944042799688 54.20481573101695 350.0764131486827 38.91539748994219 0.0 0.0
639.9650173688842 34.815003434052684 291.8654741431559 38.71082384533501 0.0 0.0
573.8792902943233 24.468037849209786 230.97486484966188 37.281404437829224 0.0 0.0
511.2104980300456 14.356961720935281 171.64919351126804 34.627629206170305 0.0 0.0
415.18543754001365 9.352308162154088 127.4041492458841 36.60568279515231 0.0 0.0
322.8033750282485 -1.626364089102633 96.34603542654511 35.282591014002605 0.0 0.0
237.28796603731303 30.232445588534485 80.2560578232774 23.84452963245606 0.0 0.0
527.7137172942096 259.76987357592725 320.1129367727895 101.84111185644343 0.0 0.0
-896.9017259484611 -1594.8385082374452 -1106.9672019835568 37.22644908784015 0.0 0.0
-717.1730078878652 -1382.4564089293308 -901.1260833125616 -53.21041657494399 0.0 0.0
386.4928590253827 165.21833231392756 218.38566841585708 -140.28462637423627 0.0 0.0
176.15653580945457 37.05875721425348 63.964587907112396 -45.89919506153432 0.0 0.0
268.98802182198324 3.2106175573048534 81.66510725583024 -52.34866028560406 0.0 0.0
361.7396001601204 4.0387297009681875 109.25886401058163 -59.22646675793472 0.0 0.0
464.31936141434153 9.93048055616441 147.72339661405974 -54.89950990344479 0.0 0.0
546.31275101822 19.973256318130083 204.33760911154496 -56.64710074757361 0.0 0.0
608.5139815471837 29.541697991985657 264.4119305578295 -57.517197657973256 0.0 0.0
669.8540190880409 46.32456006097321 323.2396359080642 -57.434739465321 0.0 0.0
729.7134309563738 68.88651097635388 377.8982280121801 -56.748022043345635 0.0 0.0
790.7618154184768 97.25392544541499 430.72026076080937 -55.41219266890375 0.0 0.0
855.1820364970891 129.7302840385951 483.65131660621967 -53.72996714413524 0.0 0.0
920.7514717728825 164.74024602694692 536.2285017822552 -51.8522150445016 0.0 0.0
983.8597353281071 194.55657260355846 583.5054836207901 -50.38523240397852 0.0 0.0
1038.437125187074 217.35243948473467 622.3141906576956 -49.24230887072461 0.0 0.0
1082.2616029186672 230.3767860845722 650.6565790842506 -48.06876782526764 0.0 0.0
1113.839896051474 232.26925025698563 667.3640507173521 -46.12374108728212 0.0 0.0
1131.3692789070315 223.73627779354516 672.1510682004409 -42.28024636354955 0.0 0.0
1133.9676805035704 205.24765073728562 664.6923730681091 -35.77013708851164 0.0 0.0
1124.4335839556734 181.36793035664274 648.3632285767105 -25.334760467168795 0.0 0.0
1058.4072125118228 111.76897362852003 582.3819926036202 2.7069901875620417e-11 0.0 0.0
1124.433583955632 181.36793035662396 648.3632285766813 25.334760467270403 0.0 0.0
1133.9676805036054 205.24765073737075 664.6923730680685 35.77013708861978 0.0 0.0
1131.3692789067854 223.73627779333333 672.1510682002612 42.28024636363802 0.0 0.0
1113.8398960513584 232.26925025693248 667.3640507171873 46.1237410873363 0.0 0.0
1082.261602918378 230.37678608435377 650.6565790839928 48.06876782529034 0.0 0.0
1038.4371251869475 217.3524394846794 622.3141906575578 49.24230887075195 0.0 0.0
983.8597353280608 194.5565726036337 583.5054836206887 50.38523240400754 0.0 0.0
920.7514717724636 164.74024602662027 536.228501781885 51.85221504448599 0.0 0.0
855.1820364960992 129.73028403771735 483.65131660545404 53.72996714404 0.0 0.0
790.7618154183501 97.25392544545826 430.720260760652 55.412192668922394 0.0 0.0
729.713430956266 68.8865109764682 377.89822801201063 56.74802204336673 0.0 0.0
669.8540190878052 46.32456006096536 323.23963590780113 57.43473946532484 0.0 0.0
608.5139815468426 29.541697991865732 264.4119305574975 57.51719765796726 0.0 0.0
546.312751017899 19.973256318112284 204.33760911126342 56.64710074753478 0.0 0.0
464.3193614138746 9.93048055608606 147.7233966138435 54.89950990342544 0.0 0.0
361.73960015984466 4.038729701046159 109.25886401053053 59.22646675786296 0.0 0.0
268.9880218218657 3.2106175572251967 81.66510725576988 52.34866028552194 0.0 0.0
176.15653580939195 37.05875721404401 63.964587907030776 45.89919506144272 0.0 0.0
386.49285902506153 165.21833231379844 218.38566841555848 140.2846263740877 0.0 0.0
-717.173007886535 -1382.4564089278326 -901.126083311026 53.2104165748181 0.0 0.0
-562.3907393330659 -1193.8223509816592 -721.7789252457716 -57.12574510699534 0.0 0.0
285.3154851082398 84.57672493019811 142.87836820632742 -167.3212302347622 0.0 0.0
130.09643747888347 35.54319913497432 49.691890984157325 -73.74551067226632 0.0 0.0
218.58842704337 10.075942514700943 68.59858899733007 -71.20836387761072 0.0 0.0
305.4632601651457 3.216289621325327 92.66587751530255 -79.61504578490035 0.0 0.0
409.12074220518 1.9143600053350271 123.31475357044388 -80.34855596665767 0.0 0.0
504.9311961741099 13.219005767526985 173.67899545442975 -76.30447552576985 0.0 0.0
571.425623836687 26.785461505322946 234.38080263599693 -76.04923175187199 0.0 0.0
633.2889481812125 38.666439112683555 291.93232845442805 -75.87437957643046 0.0 0.0
691.5561506468582 57.9155015536574 346.3893344607342 -74.62466471859054 0.0 0.0
749.6004024366603 81.81347060679941 397.52741775670114 -72.7585097625783 0.0 0.0
809.6644648152442 109.84469064782299 447.7497671470259 -70.42235302040405 0.0 0.0
871.390475816395 139.5865636212756 496.90802053968594 -68.10428436753332 0.0 0.0
929.9907030037785 167.62848190466684 541.8064089665522 -66.13901855902775 0.0 0.0
981.9682964122642 187.08333649608574 577.9169292299017 -64.67482288682825 0.0 0.0
1024.0109848493023 197.62668354300123 604.1788786795491 -63.23219270394133 0.0 0.0
1056.238531580995 201.00624842020048 621.9694047788662 -60.89331249675981 0.0 0.0
1076.0856899398402 194.4835078692311 628.9857697275388 -56.34430898375205 0.0 0.0
1081.3587079045258 177.73016573354911 623.7914835049385 -47.924514975160996 0.0 0.0
1072.4027412555342 152.95168204256981 607.3046422762185 -33.55338726908691 0.0 0.0
980.8178611433392 57.46163596231089 516.5582539822198 5.023537141823908e-11 0.0 0.0
1072.4027412559276 152.95168204301453 607.3046422765279 33.553387269225425 0.0 0.0
1081.3587079043612 177.7301657334237 623.7914835047734 47.92451497531366 0.0 0.0
1076.0856899399523 194.48350786940415 628.9857697276092 56.34430898385256 0.0 0.0
1056.2385315807326 201.00624841998953 621.9694047785946 60.89331249681859 0.0 0.0
1024.0109848492739 197.62668354307513 604.178878679481 63.232192704012924 0.0 0.0
981.9682964115939 187.08333649549382 577.9169292293813 64.67482288689492 0.0 0.0
929.9907030038152 167.6284819048422 541.8064089665517 66.13901855913254 0.0 0.0
871.390475815833 139.58656362078264 496.9080205392674 68.10428436749596 0.0 0.0
809.6644648147974 109.84469064750303 447.74976714666565 70.42235302036752 0.0 0.0
749.6004024361835 81.81347060644838 397.5274177562834 72.75850976252994 0.0 0.0
691.5561506466623 57.91550155366031 346.3893344605074 74.62466471855285 0.0 0.0
633.2889481809136 38.666439112601324 291.9323284541283 75.87437957640287 0.0 0.0
571.4256238363859 26.78546150531928 234.3808026357171 76.04923175189836 0.0 0.0
504.9311961738531 13.219005767590836 173.67899545423117 76.30447552573638 0.0 0.0
409.12074220481287 1.9143600054066123 123.31475357033673 80.34855596663702 0.0 0.0
305.46326016496704 3.216289621421317 92.66587751527992 79.6150457848176 0.0 0.0
218.58842704340947 10.07594251496427 68.59858899742102 71.2083638774732 0.0 0.0
130.09643747887367 35.54319913492011 49.691890984138126 73.74551067210884 0.0 0.0
285.3154851078781 84.57672493000993 142.87836820604429 167.3212302345797 0.0 0.0
-562.390739332004 -1193.822350980364 -721.7789252444697 57.12574510694744 0.0 0.0
-427.5349924324187 -1026.4796041267853 -566.327799355086 -62.23271216524016 0.0 0.0
206.1261420099632 24.566670591462028 87.42513587383061 -179.01728898732586 0.0 0.0
93.27656539335159 28.844707439063345 36.63638184972448 -100.12836451331314 0.0 0.0
171.48619343108575 15.631885080002128 56.135423553326355 -90.97755626266593 0.0 0.0
251.56754869427135 4.0112204481769815 76.68179969017953 -98.7768685568268 0.0 0.0
341.27181474990215 0.11082067258876901 101.86155050600496 -102.8525976717655 0.0 0.0
440.9057049095786 7.872037427087729 142.42489307569068 -98.72252232264762 0.0 0.0
529.5309790780921 17.887969539517645 197.5785870950157 -96.82415291447245 0.0 0.0
586.7614223695996 33.145747445092255 255.8397255723125 -93.13494435682858 0.0 0.0
647.2926210665181 46.78002924792638 309.30407449299616 -92.32296289511558 0.0 0.0
702.5662469939949 66.39210505512254 359.34871075329085 -89.76668562829767 0.0 0.0
758.4995630441175 89.74288221242674 407.25438086292434 -86.7679812166018 0.0 0.0
815.8361293970087 115.39461140116966 453.8564690721235 -83.86272220686496 0.0 0.0
870.9172053280645 138.41053809942238 495.59374101419587 -81.60396308521764 0.0 0.0
919.8956330655814 156.03511728094168 529.8677574581525 -79.86931363680232 0.0 0.0
960.3846146733003 166.17030100313326 555.3705727225771 -77.97537884381987 0.0 0.0
993.1768068334742 168.51639890301576 572.9071199479415 -75.54930258077317 0.0 0.0
1015.938840232254 164.80179611127872 582.8352464417201 -70.5658163869651 0.0 0.0
1025.310903020958 151.42782268767994 581.4854900024217 -60.49094913457399 0.0 0.0
1016.5270954185376 124.49810291669044 564.0784881787667 -42.56592408774966 0.0 0.0
893.3825128075816 -2.925068382462065 442.98700701722 4.922640073345974e-11 0.0 0.0
1016.5270954188103 124.49810291700753 564.0784881790304 42.56592408786618 0.0 0.0
1025.3109030209587 151.42782268776577 581.4854900024014 60.4909491347954 0.0 0.0
1015.9388402320161 164.80179611107155 582.8352464415228 70.5658163870457 0.0 0.0
993.1768068330911 168.51639890270764 572.907119947573 75.54930258083566 0.0 0.0
960.3846146733836 166.17030100332946 555.3705727226402 77.97537884393758 0.0 0.0
919.8956330649931 156.03511728042096 529.8677574576602 79.86931363682106 0.0 0.0
870.9172053277141 138.41053809917383 495.5937410139342 81.60396308526784 0.0 0.0
815.8361293966537 115.39461140094095 453.8564690718546 83.8627222069045 0.0 0.0
758.4995630438857 89.742882212334 407.25438086270987 86.76798121657363 0.0 0.0
702.5662469935805 66.39210505486014 359.34871075291 89.76668562829046 0.0 0.0
647.2926210660478 46.780029247608155 309.3040744926058 92.32296289505551 0.0 0.0
586.761422369282 33.14574744498802 255.83972557200227 93.13494435678736 0.0 0.0
529.5309790777818 17.887969539525503 197.57858709475477 96.82415291448652 0.0 0.0
440.9057049091415 7.872037426939659 142.42489307543525 98.7225223225619 0.0 0.0
341.2718147495388 0.1108206727773835 101.8615505059738 102.85259767163386 0.0 0.0
251.56754869415846 4.011220448264273 76.68179969016857 98.77686855670788 0.0 0.0
171.4861934311097 15.631885080184999 56.1354235533884 90.97755626251632 0.0 0.0
93.27656539333681 28.844707439065914 36.6363818497208 100.12836451313915 0.0 0.0
206.1261420096555 24.566670591322747 87.4251358736191 179.01728898710292 0.0 0.0
-427.534992431492 -1026.4796041255934 -566.3277993539734 62.23271216525844 0.0 0.0
-314.49335101186705 -870.7709722486736 -433.8678512689492 -68.03898030016249 0.0 0.0
144.97063224698422 -23.397695631556754 46.34542899255154 -184.2312346344282 0.0 0.0
62.29946015945998 20.592401894211235 24.86755861610136 -122.23144816318661 0.0 0.0
127.3230471910717 19.04506966630786 43.91043505721386 -110.02009580085104 0.0 0.0
197.32743676580245 6.603533143565353 61.186089811163534 -115.90283803536319 0.0 0.0
271.06841104104154 -0.9104782318717626 80.86914694284074 -122.6560372391123 0.0 0.0
370.1975659416859 -1.5696185865888785 110.53103878562786 -125.5827658248904 0.0 0.0
457.99715927957726 12.536876242242705 157.85978577058597 -116.90786114082987 0.0 0.0
536.9843172889458 20.531010353158948 210.90593712829332 -114.87136623080552 0.0 0.0
591.3435181932932 37.01109236394256 265.16724104022 -108.83679325006489 0.0 0.0
647.6537195641066 50.829655666436906 313.86015165689906 -106.39407300090144 0.0 0.0
700.1096624900421 69.2015491563997 360.00730468390475 -102.944832946323 0.0 0.0
753.1194644329393 90.11378990850241 404.4209715775539 -99.46933646413981 0.0 0.0
804.1096012769729 109.57103977922317 444.19974951484477 -96.81086101617022 0.0 0.0
850.1918240605138 124.55632053799208 476.91707618788405 -94.65146408080489 0.0 0.0
889.6060502883521 132.02022801053582 500.9574212088503 -92.85684661293581 0.0 0.0
922.1474117961523 136.8927480666802 519.7922172959212 -89.92310593235324 0.0 0.0
948.711724325427 135.2636731734535 532.7310374506561 -84.70338619507228 0.0 0.0
963.5706614916826 124.86843230522544 535.7185282629654 -73.754199922227 0.0 0.0
956.0979172863281 96.7673116387598 518.5645251158181 -52.89778547373162 0.0 0.0
794.0879697459989 -69.69094455650765 360.65027009898165 4.53876936035158e-11 0.0 0.0
956.0979172862252 96.76731163874894 518.5645251157432 52.897785473917565 0.0 0.0
963.5706614916577 124.86843230526301 535.7185282629807 73.75419992245705 0.0 0.0
948.7117243251847 135.2636731732848 532.7310374504633 84.70338619517894 0.0 0.0
922.1474117958533 136.8927480664189 519.7922172956135 89.92310593242262 0.0 0.0
889.606050288746 132.02022801108313 500.9574212091054 92.85684661303296 0.0 0.0
850.1918240601821 124.55632053773815 476.9170761876097 94.65146408083524 0.0 0.0
804.1096012758906 109.57103977815814 444.19974951405385 96.81086101612128 0.0 0.0
753.1194644330933 90.11378990890898 404.42097157761265 99.4693364643073 0.0 0.0
700.1096624895229 69.20154915592465 360.00730468352646 102.94483294625545 0.0 0.0
647.6537195637973 50.829655666261395 313.8601516565757 106.39407300086623 0.0 0.0
591.3435181929683 37.011092363854445 265.16724103993874 108.83679325003473 0.0 0.0
536.984317288364 20.531010352795633 210.9059371278511 114.8713662308169 0.0 0.0
457.9971592793794 12.536876242483341 157.8597857704744 116.90786114086664 0.0 0.0
370.1975659413838 -1.5696185863128336 110.53103878559976 125.58276582482229 0.0 0.0
271.0684110407147 -0.9104782320226463 80.86914694270357 122.65603723902171 0.0 0.0
197.32743676568128 6.603533143648283 61.18608981115148 115.90283803521207 0.0 0.0
127.32304719101306 19.045069666317406 43.91043505719913 110.02009580072274 0.0 0.0
62.29946015941612 20.592401894177186 24.867558616077982 122.23144816300314 0.0 0.0
144.9706322466798 -23.397695631671354 46.345428992379276 184.23123463422314 0.0 0.0
-314.49335101109517 -870.7709722476388 -433.86785126805256 68.03898030019504 0.0 0.0
-213.26815035857663 -744.3415468024804 -321.10920509776423 -85.87348143825683 0.0 0.0
90.48288374131721 -56.777961655148346 14.255071903588455 -179.94882445168003 0.0 0.0
35.47716725345147 13.307448673431399 14.635384778064852 -139.58184511464995 0.0 0.0
85.4813993687741 20.514671107986352 31.798821143028125 -126.9115468027822 0.0 0.0
143.12638095096779 9.235048255107705 45.70971346736722 -130.85053300677635 0.0 0.0
202.70914897997295 0.6539330788513896 60.98473016457437 -138.7982611163515 0.0 0.0
279.52825388130424 -1.9244696263818055 82.58590319866278 -146.15455717204213 0.0 0.0
369.6170702763858 1.5778529912637842 115.08968857074935 -141.64318720305425 0.0 0.0
454.2555498494546 12.692425564205587 160.5211923898666 -133.51512197116924 0.0 0.0
524.6062015429643 21.002960597324645 208.8857808367696 -129.41577639275226 0.0 0.0
578.6713007590155 34.41137515931166 256.8150438070954 -122.69726397402975 0.0 0.0
628.9028436406685 48.60661694812233 301.66685808670854 -118.41155926425648 0.0 0.0
678.9811280327889 64.43713855086351 344.58000265711473 -114.82118084866059 0.0 0.0
725.8578844240903 79.58653271715156 383.0150696160232 -111.80571551365502 0.0 0.0
769.4339995405026 91.24976125782808 415.0524722491585 -109.35279299665959 0.0 0.0
806.9888483642949 98.71434361432595 439.53717327007104 -107.16492963276026 0.0 0.0
840.432429058492 102.25846083240506 458.6711644439679 -104.54922978567534 0.0 0.0
869.4434462105339 103.47838313965435 474.49185491595244 -98.77834751493913 0.0 0.0
891.5102076787422 99.72109200557107 484.67220507353704 -87.32459970464083 0.0 0.0
888.7447169901455 72.0952206638503 470.48782624242705 -65.180615599796 0.0 0.0
677.2371029256869 -143.21639386292748 266.8668598589786 7.87174769811827e-11 0.0 0.0
888.7447169900126 72.09522066377212 470.4878262423829 65.18061559996643 0.0 0.0
891.5102076783426 99.72109200526009 484.67220507330785 87.32459970481548 0.0 0.0
869.4434462105135 103.47838313976409 474.4918549159328 98.77834751519532 0.0 0.0
840.4324290581914 102.25846083217128 458.67116444367844 104.54922978576909 0.0 0.0
806.9888483647674 98.714343614938 439.53717327037685 107.16492963284696 0.0 0.0
769.4339995400642 91.24976125740224 415.0524722488408 109.35279299663037 0.0 0.0
725.8578844236063 79.58653271682174 383.0150696156788 111.80571551367626 0.0 0.0
678.9811280329546 64.4371385511814 344.58000265715197 114.82118084880776 0.0 0.0
628.9028436404541 48.606616948046444 301.6668580864978 118.41155926416303 0.0 0.0
578.6713007587049 34.411375159136526 256.81504380678496 122.69726397398924 0.0 0.0
524.6062015425995 21.00296059709516 208.8857808364558 129.41577639265898 0.0 0.0
454.25554984916107 12.69242556435399 160.5211923896974 133.51512197121792 0.0 0.0
369.6170702759642 1.5778529912215822 115.08968857056688 141.6431872030871 0.0 0.0
279.5282538810356 -1.9244696261265188 82.58590319867132 146.15455717190028 0.0 0.0
202.70914897972398 0.6539330786359074 60.98473016443606 138.7982611161889 0.0 0.0
143.12638095096167 9.235048255287145 45.70971346741877 130.85053300658603 0.0 0.0
85.48139936875486 20.514671107999686 31.798821143026363 126.91154680261302 0.0 0.0
35.47716725343974 13.307448673481437 14.635384778076356 139.58184511443903 0.0 0.0
90.4828837410071 -56.77796165522467 14.255071903444437 179.94882445148266 0.0 0.0
-213.26815035804717 -744.3415468016676 -321.1092050971302 85.87348143830486 0.0 0.0
-151.35405811951188 -617.8304795615657 -242.53491606414605 -97.2789333259831 0.0 0.0
44.189534783010735 -79.30622788642467 -8.958280375821154 -169.54572479300802 0.0 0.0
10.780619428318122 7.3054779885681835 5.427304857512184 -152.32171944188795 0.0 0.0
45.77715085278616 20.576890061909047 19.90621227440856 -140.73962906077196 0.0 0.0
89.30199211369164 11.563478374028211 30.260072660184107 -142.9801767692282 0.0 0.0
133.31276709662018 3.1105262003397374 40.95662843387306 -151.14952615825084 0.0 0.0
185.47791068868716 -1.3078445455404406 54.985775565917706 -161.55278979735237 0.0 0.0
258.5510984798971 -3.5294225229135705 75.50200926785934 -167.75296970963817 0.0 0.0
340.644549016302 -2.4163322646826577 104.1063570915161 -160.27196839864828 0.0 0.0
416.1370822518368 3.3431255668287516 140.23225322276278 -149.82925577004 0.0 0.0
478.036297698204 16.024257533326818 182.46266880908746 -139.13613164719192 0.0 0.0
532.0897566653379 25.10839801374776 222.69371337426253 -133.217378166912 0.0 0.0
581.0532948191227 37.684642719536086 263.8928142800273 -129.05614694335603 0.0 0.0
625.184014296224 48.5731016712715 301.7512119668566 -126.3903079771918 0.0 0.0
666.0381634867907 57.18085748397341 334.69381339957613 -123.82339724464785 0.0 0.0
702.6512537124866 62.78142787689697 360.8437515567673 -121.46488723216609 0.0 0.0
737.5500086833601 68.25766451376757 383.59832318014924 -119.09351595167084 0.0 0.0
766.9513141443763 69.37385209468789 401.13035399310803 -113.06324827225438 0.0 0.0
796.8906687579504 69.78225256400118 418.02933477292635 -101.26379411144288 0.0 0.0
809.0587426327036 51.450506043197706 416.7375703176014 -80.30685229193898 0.0 0.0
534.8337181029506 -221.19038860551944 159.50794948106292 5.341149744708673e-11 0.0 0.0
809.0587426326057 51.450506043219605 416.73757031764137 80.30685229210665 0.0 0.0
796.8906687573593 69.78225256351767 418.02933477253714 101.26379411172246 0.0 0.0
766.951314144383 69.37385209487108 401.1303539931158 113.06324827255683 0.0 0.0
737.5500086828939 68.25766451330671 383.5983231797909 119.09351595178637 0.0 0.0
702.6512537124155 62.78142787689326 360.8437515566928 121.46488723220597 0.0 0.0
666.038163486526 57.18085748382483 334.6938133993848 123.82339724464177 0.0 0.0
625.1840142962211 48.57310167145104 301.7512119668351 126.39030797732563 0.0 0.0
581.0532948188674 37.68464271936639 263.89281427983406 129.056146943425 0.0 0.0
532.0897566654322 25.108398014157096 222.6937133743069 133.21737816702324 0.0 0.0
478.0362976980606 16.024257533407454 182.46266880895172 139.13613164722523 0.0 0.0
416.1370822515052 3.3431255666904254 140.23225322252873 149.82925576995862 0.0 0.0
340.644549016208 -2.416332264191448 104.10635709160064 160.2719683987171 0.0 0.0
258.55109847954253 -3.5294225227930958 75.50200926779299 167.75296970952814 0.0 0.0
185.4779106882008 -1.3078445461281913 54.985775565601756 161.55278979718898 0.0 0.0
133.31276709651794 3.110526200371298 40.95662843385245 151.14952615802912 0.0 0.0
89.30199211362758 11.563478374023669 30.260072660163157 142.98017676903328 0.0 0.0
45.777150852731715 20.57689006184732 19.906212274373704 140.73962906057955 0.0 0.0
10.780619428328102 7.305477988636295 5.427304857535391 152.32171944166683 0.0 0.0
44.18953478279063 -79.30622788642331 -8.958280375904659 169.54572479275816 0.0 0.0
-151.35405811919986 -617.8304795608831 -242.53491606374962 97.27893332602835 0.0 0.0
-111.23154273858862 -514.1247308915096 -187.23001482143576 -108.15765960264591 0.0 0.0
9.462091508635051 -91.36845136258634 -24.61384606552353 -158.27734074779463 0.0 0.0
-11.778096927611614 2.4747936393733867 -2.7907084679011387 -160.47732974651822 0.0 0.0
7.934017910077506 19.74569151149286 8.30403043836404 -150.9937707855748 0.0 0.0
36.2434505364798 13.532204916351661 14.93386113424113 -151.7771993178865 0.0 0.0
63.51774033195657 5.646830804510145 20.746876233136838 -159.7582020454986 0.0 0.0
91.94731492097885 0.6526170204251325 27.682868557788662 -171.0111659471021 0.0 0.0
127.24513528920053 -0.7144650875891756 37.94207207220989 -177.06369383386408 0.0 0.0
175.60998953643775 -0.2933450830955735 52.823226740008195 -175.43797412714966 0.0 0.0
238.0206957166153 -6.398698346777347 69.77009100725455 -170.79667730587173 0.0 0.0
302.04701118286846 -10.294400398231252 89.88031956185391 -167.21676043519233 0.0 0.0
358.975925694654 -13.576771147975036 111.08898752285488 -157.64726190116264 0.0 0.0
413.79044581802043 -10.988916245812526 135.96951445424546 -151.06435923572607 0.0 0.0
459.4126653958712 -2.8458018053307548 164.85850595836223 -143.98957836848373 0.0 0.0
497.04351127581947 8.855633013745734 195.48602489445273 -139.038770105191 0.0 0.0
532.2103002208163 23.377995821855702 226.52711054724128 -139.62978364774222 0.0 0.0
569.6246547779037 31.82907113707941 258.3402386925826 -140.64398828740372 0.0 0.0
603.8118706240898 32.46979372476276 285.4031576084703 -134.66433846110863 0.0 0.0
637.3374733377069 26.083770399366912 306.4841686177331 -120.53515404656011 0.0 0.0
682.2628709761087 28.823602434366848 334.5055863777378 -99.78357321470544 0.0 0.0
334.88266920488417 -305.80716506076016 24.273540947614237 1.6825651982799172e-11 0.0 0.0
682.262870976229 28.823602434682357 334.505586377897 99.7835732149382 0.0 0.0
637.3374733373055 26.083770399200397 306.48416861748996 120.53515404687847 0.0 0.0
603.8118706241087 32.46979372482906 285.40315760851735 134.6643384614503 0.0 0.0
569.6246547778118 31.829071137099252 258.3402386924568 140.64398828750922 0.0 0.0
532.2103002208005 23.377995821954638 226.5271105472073 139.62978364780696 0.0 0.0
497.0435112757356 8.855633013714485 195.48602489442666 139.03877010521114 0.0 0.0
459.4126653958052 -2.845801805350023 164.85850595828003 143.9895783685112 0.0 0.0
413.79044581771734 -10.988916246152233 135.96951445403465 151.0643592357891 0.0 0.0
358.97592569446135 -13.576771148022484 111.08898752275203 157.64726190118276 0.0 0.0
302.0470111827805 -10.294400398052542 89.8803195618611 167.2167604351751 0.0 0.0
238.02069571622815 -6.398698346854127 69.7700910071256 170.79667730575002 0.0 0.0
175.60998953630832 -0.29334508294121253 52.82322674001138 175.43797412716566 0.0 0.0
127.24513528921975 -0.7144650871971954 37.94207207233235 177.0636938337711 0.0 0.0
91.94731492070424 0.6526170199618351 27.68286855756893 171.01116594696032 0.0 0.0
63.51774033200186 5.6468308046450115 20.746876233191237 159.75820204528742 0.0 0.0
36.24345053656422 13.532204916491716 14.93386113430856 151.77719931771313 0.0 0.0
7.934017910115093 19.745691511532957 8.304030438387318 150.99377078538305 0.0 0.0
-11.778096927583137 2.4747936394285737 -2.7907084678762595 160.4773297463211 0.0 0.0
9.462091508537245 -91.3684513625992 -24.613846065559994 158.27734074757535 0.0 0.0
-111.23154273847082 -514.1247308909309 -187.23001482121202 108.15765960256839 0.0 0.0
-93.70554552710126 -409.2473242131807 -150.94176739490382 -102.29571835837343 0.0 0.0
-11.902071907652832 -98.35201720596082 -33.06935366980703 -150.32989747764935 0.0 0.0
-32.49434064835485 -1.6493949117428952 -10.23965891352456 -164.58154989712273 0.0 0.0
-28.041157666320174 18.50702457025991 -2.8595149782771183 -157.36956594439633 0.0 0.0
-15.823229233201765 14.951293887985438 -0.2611526652325309 -156.87221562311788 0.0 0.0
-6.5152400274191695 8.226073489954132 0.5132959658358707 -163.52833863986396 0.0 0.0
-2.11503887947433 2.707334295500705 0.17568422193378375 -174.78498902256212 0.0 0.0
-0.3194002833767069 0.40976723297729034 0.027114629069734164 -180.43745168640146 0.0 0.0
0.11516632446481623 -0.1705093919616889 -0.01606124793632624 -180.9619238453778 0.0 0.0
0.17773511823094879 -0.07854558606988604 0.03138764688757689 -174.36979323753653 0.0 0.0
0.11038860530972272 -0.04022741080456349 0.02207487445341627 -170.29698250095996 0.0 0.0
-0.011165674117364688 0.04913932502607743 0.004816379546880967 -164.05935135192982 0.0 0.0
-0.6780499265119033 0.3825984844736823 -0.05343688902646093 -162.66228563089345 0.0 0.0
-1.437007220652447 0.9859281183144528 0.0018493298659087998 -161.3187284354252 0.0 0.0
1.6394830988324713 0.10912367624020902 0.5045877303871364 -158.21742443576073 0.0 0.0
17.26707955788686 -0.6446092499338576 3.1733722990848747 -149.02969819109725 0.0 0.0
47.25734239974149 5.18548481519224 7.7074076401707785 -141.05060941184001 0.0 0.0
131.05131561173684 -5.753926977822388 21.17752443264355 -139.07932872443982 0.0 0.0
271.02260501975746 -59.455410281140836 35.633160904177466 -134.98563765022533 0.0 0.0
403.4896685799111 -52.11559771705177 121.6269470324492 -130.6028953152001 0.0 0.0
-143.61754267983264 -447.53457636499184 -231.96666538879822 -3.6344260934129125e-11 0.0 0.0
403.4896685801673 -52.11559771683568 121.6269470325514 130.6028953153645 0.0 0.0
271.022605019901 -59.455410280726355 35.63316090432979 134.98563765071918 0.0 0.0
131.05131561172735 -5.753926977856899 21.177524432656092 139.07932872489516 0.0 0.0
47.257342400046696 5.185484815371353 7.7074076403364415 141.0506094120703 0.0 0.0
17.267079558151053 -0.6446092497649154 3.1733722992238285 149.02969819106173 0.0 0.0
1.6394830988140114 0.10912367566738723 0.5045877302071347 158.2174244357408 0.0 0.0
-1.437007220531484 0.9859281181512607 0.0018493298447275208 161.3187284354379 0.0 0.0
-0.6780499263484216 0.38259848418081077 -0.05343688906472721 162.66228563099926 0.0 0.0
-0.011165673775920482 0.04913932518451958 0.004816379703717288 164.0593513519374 0.0 0.0
0.11038860570385367 -0.040227410375864636 0.022074874701083047 170.29698250091167 0.0 0.0
0.1777351182187843 -0.07854558644497978 0.03138764676983907 174.36979323740644 0.0 0.0
0.11516632457657394 -0.17050939194270542 -0.01606124789747554 180.96192384541092 0.0 0.0
-0.3194002832578917 0.40976723310210184 0.02711462914362217 180.43745168631827 0.0 0.0
-2.1150388794827233 2.7073342953808988 0.17568422189519284 174.78498902236242 0.0 0.0
-6.51524002725007 8.22607349021995 0.5132959659663281 163.52833863965665 0.0 0.0
-15.82322923297335 14.951293888379112 -0.2611526650460221 156.8722156229245 0.0 0.0
-28.041157666244718 18.507024570367243 -2.859514978222572 157.3695659441768 0.0 0.0
-32.494340648293615 -1.6493949116594826 -10.239658913481438 164.58154989694214 0.0 0.0
-11.902071907655627 -98.35201720597306 -33.069353669807114 150.32989747745526 0.0 0.0
-93.70554552697938 -409.2473242125752 -150.9417673947229 102.29571835818895 0.0 0.0
-76.12242717166413 -322.28870737755886 -119.52334036476687 -94.2596330251829 0.0 0.0
-26.8312935959097 -98.02429294331381 -37.456819509926795 -141.8543418897138 0.0 0.0
-51.4896232693184 -4.949703643098726 -16.93243705562493 -164.50744191208378 0.0 0.0
-62.27806251550864 16.999660213613016 -13.581977497100683 -159.73059409185316 0.0 0.0
-66.67051025555955 15.736869905478054 -15.281754924278882 -157.90731159626452 0.0 0.0
-75.75502865743178 10.530290921494311 -19.580883712322944 -162.4819283127147 0.0 0.0
-96.15379398490148 4.8171503462046505 -27.25219864944018 -172.67613798275184 0.0 0.0
-127.93340149771556 1.4549898952134552 -37.92395993508897 -177.27528661209203 0.0 0.0
-175.37078574551765 -0.01849099819478539 -52.84051946699731 -175.42787978205786 0.0 0.0
-237.68778807223345 6.201379255369653 -69.72831699408108 -170.7531390766752 0.0 0.0
-301.83337176230873 10.24026475790778 -89.82914207704378 -167.14192792284973 0.0 0.0
-359.0522679293469 13.699839072412054 -111.06268308638306 -157.86380446924827 0.0 0.0
-414.38837883439913 11.260320221834064 -136.17175229167282 -150.7171258851646 0.0 0.0
-460.1832079818254 3.4427917085623285 -165.09184873938443 -143.46118775229482 0.0 0.0
-495.8394069974732 -6.3930739638368905 -193.58181635114545 -139.3830530207222 0.0 0.0
-523.334058451287 -12.159346740209124 -214.4560320539038 -141.78048140942607 0.0 0.0
-540.117346506396 -9.666510746099974 -222.53512178372 -147.77909402201047 0.0 0.0
-542.7761938875228 6.945542808581358 -210.6700151662724 -157.87217170823845 0.0 0.0
-531.8805379898976 25.142704225284966 -181.13893578864327 -159.66035608888276 0.0 0.0
-337.69743979256515 16.276655007142256 -114.71265437770757 -102.7296881888034 0.0 0.0
-626.692378021148 -633.7848023362468 -599.3063126653484 -8.423484132435988e-11 0.0 0.0
-337.69743979230304 16.27665500754388 -114.71265437744245 102.72968818917988 0.0 0.0
-531.8805379891702 25.142704226165854 -181.13893578811957 159.66035608916582 0.0 0.0
-542.7761938872524 6.9455428086535065 -210.67001516613902 157.872171708491 0.0 0.0
-540.1173465069854 -9.666510747023224 -222.53512178414655 147.77909402220448 0.0 0.0
-523.334058450445 -12.159346739242356 -214.45603205327623 141.78048140935218 0.0 0.0
-495.83940699729027 -6.393073963701248 -193.5818163509349 139.38305302070398 0.0 0.0
-460.1832079815003 3.442791708668091 -165.09184873917775 143.4611877523262 0.0 0.0
-414.3883788341951 11.260320221584031 -136.17175229160554 150.71712588530687 0.0 0.0
-359.0522679287669 13.69983907256179 -111.06268308612167 157.8638044692974 0.0 0.0
-301.83337176165105 10.240264758254966 -89.82914207670906 167.14192792281636 0.0 0.0
-237.6877880715403 6.201379255609769 -69.72831699381035 170.75313907655956 0.0 0.0
-175.3707857452921 -0.018490998664694835 -52.8405194670668 175.427879782061 0.0 0.0
-127.93340149725142 1.4549898956022242 -37.9239599348324 177.27528661202803 0.0 0.0
-96.15379398472804 4.81715034618262 -27.252198649396284 172.67613798257113 0.0 0.0
-75.75502865718397 10.530290921721623 -19.580883712181056 162.48192831256324 0.0 0.0
-66.67051025535343 15.736869905702125 -15.28175492415017 157.90731159610414 0.0 0.0
-62.27806251538503 16.999660213678002 -13.58197749704459 159.73059409163233 0.0 0.0
-51.48962326918697 -4.949703642938388 -16.932437055537854 164.5074419119303 0.0 0.0
-26.83129359594648 -98.02429294331638 -37.456819509938214 141.85434188957663 0.0 0.0
-76.12242717158563 -322.2887073771745 -119.52334036462805 94.25963302506923 0.0 0.0
-61.150911872234516 -246.99308152963002 -92.44319802055935 -84.20979646234466 0.0 0.0
-38.16133153181263 -92.74456297350196 -39.271748149847426 -131.91832720000295 0.0 0.0
-69.08376980082815 -7.255362322857383 -22.902527435532033 -160.54444364980282 0.0 0.0
-94.87736901646419 15.259903708880428 -23.887099930496113 -157.95084643449434 0.0 0.0
-116.13981801555897 15.909494847528213 -30.06177259647719 -154.91857276180409 0.0 0.0
-144.19403746783053 12.401011808325606 -39.4734238331954 -157.44151469242382 0.0 0.0
-188.18095525237675 5.715412877153814 -54.67011015765917 -161.84265074951176 0.0 0.0
-258.91917946408114 4.197111118681545 -75.44329848032595 -168.0561275013848 0.0 0.0
-340.4801525063089 1.9884892182250935 -104.19748799899307 -160.1672319757498 0.0 0.0
-416.0626684628651 -3.446940379811627 -140.1986104173444 -149.8041942378275 0.0 0.0
-477.9469421917582 -16.00509651313721 -182.41512849287685 -139.12223430125093 0.0 0.0
-532.0425419012006 -25.050735075065333 -222.6769000741498 -133.16427720026002 0.0 0.0
-581.2819316776478 -37.60853331766246 -264.03613452267473 -128.68420794489032 0.0 0.0
-625.7509167682864 -48.2924651113676 -301.9417028407018 -125.70518262068796 0.0 0.0
-664.93063911389 -55.180484638116994 -333.2104621368568 -123.70300680750613 0.0 0.0
-694.7058495907099 -55.763047094715645 -353.53713207300166 -124.12859893945074 0.0 0.0
-711.061416102275 -48.874180377397366 -361.44784297782525 -128.26880808510003 0.0 0.0
-713.2934027760546 -39.41397102447536 -359.5488812697163 -136.9101559804246 0.0 0.0
-696.241576194182 -22.425055582532764 -343.274097271934 -146.16159073491224 0.0 0.0
-680.7720452170449 -22.363236742007807 -331.91648502897414 -143.97519812632308 0.0 0.0
-1269.4173458730188 -863.8737614712418 -1004.3570940794597 2.8908431204399676e-11 0.0 0.0
-680.7720452167807 -22.36323674189218 -331.9164850288694 143.975198126567 0.0 0.0
-696.2415761937167 -22.42505558216044 -343.27409727165826 146.16159073524653 0.0 0.0
-713.2934027761855 -39.41397102477523 -359.54888126979563 136.9101559806572 0.0 0.0
-711.0614161020727 -48.87418037743198 -361.4478429776616 128.26880808521423 0.0 0.0
-694.7058495899527 -55.76304709391199 -353.53713207251104 124.12859893950954 0.0 0.0
-664.9306391137469 -55.18048463809069 -333.2104621367092 123.70300680755793 0.0 0.0
-625.7509167680765 -48.29246511124823 -301.9417028405328 125.70518262069669 0.0 0.0
-581.2819316770915 -37.60853331731829 -264.0361345222641 128.68420794488645 0.0 0.0
-532.042541900921 -25.050735075033607 -222.67690007391786 133.16427720031274 0.0 0.0
-477.94694219148346 -16.005096513231234 -182.41512849267963 139.122234301296 0.0 0.0
-416.06266846227174 -3.4469403795048423 -140.19861041696186 149.80419423778505 0.0 0.0
-340.48015250571063 1.9884892181581284 -104.19748799879697 160.16723197577898 0.0 0.0
-258.91917946359996 4.197111118667474 -75.44329848018847 168.05612750136765 0.0 0.0
-188.1809552519137 5.715412877402845 -54.670110157455966 161.8426507493087 0.0 0.0
-144.19403746766085 12.401011808145332 -39.47342383319672 157.4415146922582 0.0 0.0
-116.13981801541955 15.909494847435166 -30.061772596464387 154.91857276164376 0.0 0.0
-94.87736901633745 15.259903708902893 -23.887099930451907 157.95084643435527 0.0 0.0
-69.08376980074415 -7.255362322826155 -22.90252743549714 160.54444364966912 0.0 0.0
-38.16133153181383 -92.74456297346407 -39.27174814983644 131.91832719994017 0.0 0.0
-61.15091187217691 -246.993081529362 -92.44319802046167 84.20979646224458 0.0 0.0
-49.30267545461743 -182.68709477135067 -69.59693106779041 -73.6002073262596 0.0 0.0
-47.23531275864608 -83.88112811926608 -39.33493226337364 -120.200324083819 0.0 0.0
-85.65449305312228 -8.482843585914107 -28.242205479006287 -152.72543468840743 0.0 0.0
-126.03916451532464 13.388975237002184 -33.79242205381787 -152.16266507722162 0.0 0.0
-163.9471503046337 15.25422441652749 -44.6011177224719 -147.61498027707043 0.0 0.0
-209.66509869334718 13.051594938553407 -59.062644790875545 -145.88080447955812 0.0 0.0
-283.6451320808178 8.132285573989165 -81.46628358437496 -151.1316325911584 0.0 0.0
-369.83743659301933 -1.4479979586200997 -115.17927190260276 -141.9166874999547 0.0 0.0
-454.32117139903073 -13.020317893058818 -160.5922645561276 -133.43481529653974 0.0 0.0
-524.6831010226748 -21.13285637083903 -208.93108426856705 -129.35659704888496 0.0 0.0
-578.5815578470213 -34.38934305985912 -256.7890343160822 -122.65193165090534 0.0 0.0
-628.790833425186 -48.482882127228294 -301.578430438651 -118.36214192716592 0.0 0.0
-679.0520692559246 -64.37623749893174 -344.582192893109 -114.47860322107888 0.0 0.0
-726.5091457972646 -79.70954759205378 -383.3620994403104 -110.99082609855729 0.0 0.0
-769.3664313105847 -90.41307397968235 -414.6197616176482 -108.74035739525426 0.0 0.0
-801.4851145728289 -93.49060988182525 -434.4068812436052 -109.23242894357854 0.0 0.0
-819.0211825422534 -85.2468908426381 -440.524106695325 -113.49484561005812 0.0 0.0
-815.3355995344626 -64.3894018463504 -429.77482574032604 -121.4690767967225 0.0 0.0
-791.0412135238158 -35.05320162929807 -404.23114439843755 -129.8370051065781 0.0 0.0
-739.9278660639374 2.2872152657314473 -362.93681732993434 -134.13518186374563 0.0 0.0
-1683.147936726098 -1085.1849228312904 -1329.0348221099664 3.76054742901033e-11 0.0 0.0
-739.9278660639002 2.2872152655926357 -362.93681733000716 134.13518186395794 0.0 0.0
-791.0412135240038 -35.05320162970068 -404.2311443985393 129.83700510694464 0.0 0.0
-815.3355995345879 -64.3894018465983 -429.7748257403697 121.46907679690611 0.0 0.0
-819.0211825411504 -85.24689084153484 -440.5241066945807 113.49484561004678 0.0 0.0
-801.4851145732158 -93.49060988229222 -434.4068812438255 109.23242894364665 0.0 0.0
-769.3664313101162 -90.41307397933683 -414.619761617242 108.74035739522031 0.0 0.0
-726.5091457972273 -79.70954759216126 -383.3620994402472 110.99082609860486 0.0 0.0
-679.0520692552484 -64.37623749829201 -344.58219289263866 114.47860322101192 0.0 0.0
-628.7908334251211 -48.48288212742254 -301.57843043853643 118.36214192719349 0.0 0.0
-578.5815578466147 -34.38934305969226 -256.7890343157543 122.65193165086174 0.0 0.0
-524.6831010225228 -21.13285637112188 -208.9310842684122 129.35659704893328 0.0 0.0
-454.32117139837976 -13.020317892728798 -160.59226455569674 133.43481529657117 0.0 0.0
-369.8374365926506 -1.447997958805427 -115.1792719024853 141.9166874999836 0.0 0.0
-283.6451320802491 8.13228557411593 -81.46628358418175 151.13163259104147 0.0 0.0
-209.66509869308786 13.051594938270675 -59.06264479089309 145.88080447934925 0.0 0.0
-163.94715030441193 15.254224416519842 -44.60111772240721 147.6149802769163 0.0 0.0
-126.03916451514331 13.388975237078391 -33.792422053741355 152.16266507711487 0.0 0.0
-85.65449305304615 -8.482843585953903 -28.242205478995093 152.7254346882487 0.0 0.0
-47.23531275865014 -83.8811281192533 -39.33493226337102 120.20032408372376 0.0 0.0
-49.30267545459553 -182.68709477114965 -69.59693106772357 73.60020732616175 0.0 0.0
-40.49261416879456 -128.76748133001024 -50.778028649641435 -62.723340836833465 0.0 0.0
-54.79262435575634 -72.75001749243798 -38.26279255445829 -106.77333965719419 0.0 0.0
-101.41257920929147 -8.579022602183484 -32.99787489157366 -141.22343775694492 0.0 0.0
-155.89423565735405 11.265397673692553 -43.39531488151499 -142.20692544771603 0.0 0.0
-209.91400869530332 14.053108616655548 -58.743530681947846 -136.26067105046215 0.0 0.0
-276.3011893203622 13.984298723651438 -78.13970510478893 -132.8106089224952 0.0 0.0
-368.1366853832036 3.7743134019490157 -110.11859681225918 -126.16257779345611 0.0 0.0
-457.77086233951985 -12.539025730497961 -157.8000098228855 -117.20661330106341 0.0 0.0
-537.2108452412916 -20.858211530336348 -211.050686466607 -114.74008306705213 0.0 0.0
-591.4548187165794 -37.131777295967 -265.263592571955 -108.76596050118907 0.0 0.0
-647.6141016024517 -50.74942630012559 -313.8281121246474 -106.38625645948213 0.0 0.0
-699.9017079984317 -68.98694584350048 -359.82262184110607 -102.89902663738633 0.0 0.0
-752.9021240179944 -89.87606699816703 -404.17364027382763 -99.19152862782583 0.0 0.0
-804.6641527568493 -109.87270822655202 -444.57185696825235 -96.00453023584868 0.0 0.0
-851.4999717462999 -125.28802015281644 -477.9302910887027 -93.74386312428778 0.0 0.0
-888.1678855654125 -130.42371176638824 -499.59224100660754 -94.27374387646293 0.0 0.0
-904.9199407164359 -121.82023831423156 -504.53839331424905 -97.47951853254554 0.0 0.0
-894.0698545328579 -89.7212153896406 -484.3731686059708 -104.02188111152827 0.0 0.0
-851.6365915311469 -38.75737779704728 -439.4306285774178 -112.47646714096595 0.0 0.0
-771.1312102693729 29.105528716903027 -368.9303626528305 -120.44819680093543 0.0 0.0
-2000.833159582572 -1306.8332784321215 -1605.968759979386 5.789146939605416e-11 0.0 0.0
-771.131210268871 29.10552871731909 -368.9303626525168 120.44819680111931 0.0 0.0
-851.6365915312144 -38.75737779728287 -439.43062857742143 112.47646714123596 0.0 0.0
-894.0698545323777 -89.721215389251 -484.37316860563556 104.02188111169124 0.0 0.0
-904.9199407161275 -121.8202383139784 -504.53839331401355 97.4795185326214 0.0 0.0
-888.1678855655805 -130.42371176667513 -499.5922410066699 94.27374387650116 0.0 0.0
-851.4999717453807 -125.28802015193132 -477.9302910879973 93.74386312425638 0.0 0.0
-804.6641527567356 -109.87270822659454 -444.57185696813804 96.00453023592594 0.0 0.0
-752.9021240181486 -89.876066998472 -404.17364027390295 99.19152862785677 0.0 0.0
-699.9017079981253 -68.98694584340056 -359.82262184080946 102.8990266373794 0.0 0.0
-647.6141016021085 -50.74942629994667 -313.8281121243513 106.38625645941772 0.0 0.0
-591.4548187164437 -37.1317772961449 -265.2635925717664 108.7659605011517 0.0 0.0
-537.2108452408862 -20.85821153028383 -211.05068646624858 114.7400830670563 0.0 0.0
-457.77086233890657 -12.539025730249309 -157.80000982249805 117.20661330106698 0.0 0.0
-368.136685382771 3.7743134018027042 -110.11859681214796 126.16257779338733 0.0 0.0
-276.3011893199521 13.984298723741563 -78.1397051046439 132.81060892240137 0.0 0.0
-209.91400869502806 14.05310861665812 -58.743530681867036 136.26067105029904 0.0 0.0
-155.89423565711536 11.265397673862491 -43.395314881392466 142.2069254476013 0.0 0.0
-101.41257920919779 -8.579022602190319 -32.997874891547454 141.22343775679667 0.0 0.0
-54.792624355689306 -72.75001749237974 -38.26279255442071 106.77333965710176 0.0 0.0
-40.49261416872034 -128.76748132985014 -50.778028649571134 62.72334083676309 0.0 0.0
-34.42732690587683 -84.914730384488 -35.80261718710945 -51.62553746514823 0.0 0.0
-61.134034745913354 -60.41479074953066 -36.464647648633196 -91.76174691561059 0.0 0.0
-116.41116759806839 -7.668669396154298 -37.2239510982668 -126.19330968814063 0.0 0.0
-184.61264583275127 9.030757028877805 -52.67970681743174 -128.29734292318653 0.0 0.0
-253.57177927155595 12.007245399939313 -72.5327533920311 -120.59701748912339 0.0 0.0
-342.1907418218606 12.405261075871564 -97.86168172061784 -113.91814336531635 0.0 0.0
-439.314916461803 -5.265165965228123 -141.44392295226092 -101.17816822716115 0.0 0.0
-529.4635086121211 -18.10018807104619 -197.6061392254698 -97.00565469446502 0.0 0.0
-586.9760850723496 -33.357819285774156 -255.97162516890995 -93.00285306992298 0.0 0.0
-647.4004138742685 -46.853798698968305 -309.4028560593382 -92.27312207289924 0.0 0.0
-702.5364145162665 -66.33543810040884 -359.3349627982224 -89.75328726648684 0.0 0.0
-758.222337516289 -89.45813102724577 -406.99522406373285 -86.71647524059854 0.0 0.0
-815.2762978545366 -114.8839010961287 -453.30793988285484 -83.64098447133549 0.0 0.0
-871.0667133113607 -138.56913508230096 -495.70233753056146 -80.94168185194341 0.0 0.0
-922.4751925036588 -158.35360542685206 -532.3069950820268 -78.95126432430709 0.0 0.0
-963.1693199102642 -168.52547551220601 -558.0626910543224 -78.67986495359999 0.0 0.0
-980.9732580339172 -156.67819277769172 -561.5572016751777 -80.96235302213182 0.0 0.0
-960.3123107308721 -113.84420470323528 -531.0035651541143 -85.77936235030242 0.0 0.0
-895.69110256471 -39.91406934742656 -463.7667949865435 -94.06844753407091 0.0 0.0
-787.551961335045 56.21108566798755 -365.62677643468646 -107.02941881185727 0.0 0.0
-2284.6741761789553 -1528.9066279435447 -1864.26799404791 3.3448799285906716e-11 0.0 0.0
-787.5519613346612 56.211085668270385 -365.6267764344167 107.0294188120622 0.0 0.0
-895.6911025649041 -39.9140693477266 -463.76679498670654 94.06844753428445 0.0 0.0
-960.3123107303499 -113.84420470275191 -531.0035651537424 85.77936235040238 0.0 0.0
-980.9732580337677 -156.6781927776146 -561.5572016750667 80.96235302219118 0.0 0.0
-963.1693199100775 -168.5254755120946 -558.0626910541447 78.67986495364207 0.0 0.0
-922.4751925033148 -158.35360542657997 -532.3069950817269 78.9512643242932 0.0 0.0
-871.0667133106307 -138.56913508168375 -495.7023375299475 80.94168185194738 0.0 0.0
-815.2762978546933 -114.88390109648218 -453.3079398829631 83.64098447142013 0.0 0.0
-758.2223375154424 -89.45813102654506 -406.9952240630941 86.71647524057852 0.0 0.0
-702.5364145161914 -66.33543810055356 -359.334962798098 89.75328726647804 0.0 0.0
-647.400413874007 -46.85379869894167 -309.40285605906877 92.27312207284169 0.0 0.0
-586.9760850718596 -33.357819285538525 -255.97162516846802 93.00285306990591 0.0 0.0
-529.463508611661 -18.100188070933225 -197.60613922510632 97.00565469448168 0.0 0.0
-439.314916461151 -5.265165964912015 -141.44392295187419 101.17816822712663 0.0 0.0
-342.19074182128634 12.405261075927971 -97.86168172045056 113.91814336528168 0.0 0.0
-253.5717792712499 12.007245399981006 -72.53275339193043 120.5970174889888 0.0 0.0
-184.61264583254655 9.030757028964016 -52.679706817343956 128.2973429230633 0.0 0.0
-116.41116759800714 -7.668669396250498 -37.22395109827728 126.19330968805309 0.0 0.0
-61.134034745860866 -60.414790749481234 -36.46464764860263 91.76174691554634 0.0 0.0
-34.42732690587216 -84.91473038440554 -35.8026171870833 51.62553746511395 0.0 0.0
-30.704768300541453 -51.03402895730742 -24.521639177354658 -40.371796482847 0.0 0.0
-66.186257996145 -47.69658952989092 -34.164854257810774 -75.30743888977304 0.0 0.0
-130.58240509240136 -6.090882809346476 -41.001986370524335 -107.73762773534726 0.0 0.0
-212.2026966118006 6.873240141052323 -61.604720084149974 -110.33544767381551 0.0 0.0
-297.23638408419134 9.464354957221436 -86.13894333479486 -101.97885060588926 0.0 0.0
-397.05863159810644 2.469565771454805 -120.35249936965101 -87.43009635713705 0.0 0.0
-503.3362246462959 -10.639016260990937 -172.23736431907747 -78.5936512242958 0.0 0.0
-571.3414204910666 -26.92037082672482 -234.35477328856413 -75.99285777490572 0.0 0.0
-633.4845305671588 -38.772082763662766 -292.06223560522005 -75.7670795789453 0.0 0.0
-691.6617806869224 -57.97237511318211 -346.48919020901235 -74.59764266269417 0.0 0.0
-749.5677301491835 -81.75792470644028 -397.50415600264677 -72.74874848395753 0.0 0.0
-809.3298433544829 -109.50630558150141 -447.4288948124399 -70.3594928245263 0.0 0.0
-870.5930571601492 -138.87545804846442 -496.15242355833516 -67.91795760284614 0.0 0.0
-929.636810946536 -167.47715184477295 -541.5342119828025 -65.71148695937568 0.0 0.0
-984.6682572485568 -189.85383180711594 -580.6704773998764 -64.0117574027506 0.0 0.0
-1029.9076999605347 -203.10774195203933 -609.9773181933795 -63.26805216155661 0.0 0.0
-1050.3010479488587 -194.37666696741388 -616.1434323242711 -63.8236505403156 0.0 0.0
-1021.6193804125851 -141.63824368796637 -576.5129804190489 -66.82652495283901 0.0 0.0
-933.3847531360889 -41.96392539902948 -484.6744554640094 -75.69777507306543 0.0 0.0
-790.3476283761818 88.35209648919366 -352.1685937174521 -94.85353987756977 0.0 0.0
-2547.213524246118 -1747.1059561132936 -2109.230829882861 4.9649173661237e-11 0.0 0.0
-790.3476283762101 88.35209648907454 -352.16859371746966 94.85353987773964 0.0 0.0
-933.3847531361871 -41.96392539921079 -484.6744554641087 75.69777507324105 0.0 0.0
-1021.6193804119017 -141.6382436873259 -576.5129804185365 66.82652495292884 0.0 0.0
-1050.3010479488587 -194.3766669675025 -616.1434323242601 63.82365054044331 0.0 0.0
-1029.9076999602423 -203.10774195182807 -609.9773181930826 63.268052161614904 0.0 0.0
-984.6682572483965 -189.85383180706947 -580.6704773996972 64.01175740282541 0.0 0.0
-929.6368109454905 -167.4771518438141 -541.5342119820111 65.71148695938764 0.0 0.0
-870.5930571603576 -138.87545804886523 -496.1524235584716 67.91795760298302 0.0 0.0
-809.3298433537338 -109.50630558086404 -447.4288948118468 70.35949282449249 0.0 0.0
-749.5677301488606 -81.75792470628801 -397.5041560023744 72.74874848387039 0.0 0.0
-691.6617806868458 -57.97237511336243 -346.4891902088567 74.59764266271794 0.0 0.0
-633.4845305666688 -38.77208276339829 -292.06223560478486 75.76707957891543 0.0 0.0
-571.3414204908493 -26.9203708268492 -234.3547732883015 75.99285777488579 0.0 0.0
-503.33622464578485 -10.639016260769996 -172.23736431870097 78.59365122421548 0.0 0.0
-397.0586315975934 2.469565771364376 -120.35249936951396 87.43009635708648 0.0 0.0
-297.236384083805 9.46435495731132 -86.13894333465605 101.97885060577002 0.0 0.0
-212.20269661161055 6.8732401409515145 -61.60472008412267 110.33544767371467 0.0 0.0
-130.582405092295 -6.090882809342723 -41.001986370491316 107.73762773526215 0.0 0.0
-66.18625799608431 -47.69658952984968 -34.164854257780185 75.30743888967795 0.0 0.0
-30.70476830044707 -51.03402895720723 -24.521639177296287 40.37179648284195 0.0 0.0
-28.720177614313254 -27.10624618153625 -16.747927138754854 -29.224096035848568 0.0 0.0
-69.52743750957032 -35.300427048179145 -31.448359367324827 -57.59616422073947 0.0 0.0
-143.67238248791128 -4.326774076012177 -44.39974696917703 -85.79465731114615 0.0 0.0
-238.77037441691238 5.022020207561775 -70.12665510361957 -88.27666212784382 0.0 0.0
-340.5416913500069 4.916601492263686 -100.2653148309345 -78.96687901753177 0.0 0.0
-455.9027534651331 -3.3637779768179 -142.89916021803452 -63.149111433344075 0.0 0.0
-544.1874588234899 -18.880169225642504 -203.2271274115024 -57.715536016543794 0.0 0.0
-608.414250691106 -29.385220704713557 -264.3209022352868 -57.393819081509214 0.0 0.0
-670.0292383000807 -46.36848608289657 -323.3693027325766 -57.361442745650145 0.0 0.0
-729.8330364281728 -68.95583593356349 -378.0080601431743 -56.73874354934209 0.0 0.0
-790.7000131215684 -97.1742463120253 -430.6618974282936 -55.403361911509585 0.0 0.0
-854.8047073528688 -129.3642855801807 -483.28731966993746 -53.65734935824993 0.0 0.0
-919.919039663948 -164.0228920965609 -535.4623168625476 -51.69680948572821 0.0 0.0
-983.1856691105083 -194.16902875003422 -582.9923191748031 -50.18797752821869 0.0 0.0
-1039.9035377123178 -219.1183980038648 -624.0008832708588 -48.94887744217025 0.0 0.0
-1087.4514301711913 -235.42544333142294 -655.9051284423088 -47.74932236195334 0.0 0.0
-1114.2954773043634 -231.91529871119735 -667.66368141371 -46.77453411592791 0.0 0.0
-1085.710496984288 -178.10614425689784 -627.3544044707908 -47.62912799446451 0.0 0.0
-973.3397647207553 -52.4891208393841 -510.56478472331014 -56.96438067050401 0.0 0.0
-778.862310490694 130.3945462481432 -326.0465532950692 -82.70778014491437 0.0 0.0
-2790.099976326148 -1952.6203946494456 -2337.7814031995454 3.005240500897344e-11 0.0 0.0
-778.8623104904548 130.3945462483543 -326.0465532948855 82.70778014495382 0.0 0.0
-973.3397647206256 -52.48912083929427 -510.5647847232384 56.964380670600605 0.0 0.0
-1085.7104969836312 -178.10614425627293 -627.3544044702701 47.62912799451885 0.0 0.0
-1114.2954773045421 -231.91529871145258 -667.6636814138388 46.77453411598595 0.0 0.0
-1087.4514301705915 -235.42544333087432 -655.9051284418177 47.74932236193325 0.0 0.0
-1039.9035377120183 -219.11839800366894 -624.0008832705911 48.948877442219164 0.0 0.0
-983.1856691100911 -194.16902874971083 -582.9923191744587 50.18797752822165 0.0 0.0
-919.9190396637526 -164.02289209654685 -535.4623168623596 51.696809485806924 0.0 0.0
-854.8047073527587 -129.36428558023815 -483.2873196697729 53.65734935828755 0.0 0.0
-790.7000131212545 -97.17424631188402 -430.66189742802834 55.40336191147211 0.0 0.0
-729.8330364277052 -68.95583593332077 -378.0080601427878 56.73874354933609 0.0 0.0
-670.0292383000382 -46.36848608312553 -323.36930273242865 57.36144274570161 0.0 0.0
-608.4142506908021 -29.385220704681778 -264.32090223494936 57.39381908145758 0.0 0.0
-544.1874588231157 -18.8801692256348 -203.2271274111771 57.71553601651258 0.0 0.0
-455.9027534646286 -3.3637779767481355 -142.89916021779285 63.14911143333187 0.0 0.0
-340.5416913496344 4.916601492242691 -100.26531483083683 78.96687901747339 0.0 0.0
-238.77037441673778 5.022020207453971 -70.12665510359892 88.27666212777564 0.0 0.0
-143.67238248775382 -4.326774075912909 -44.39974696909999 85.79465731106514 0.0 0.0
-69.52743750949993 -35.300427048134274 -31.448359367290262 57.59616422069088 0.0 0.0
-28.720177614244406 -27.10624618147137 -16.74792713871473 29.224096035835807 0.0 0.0
-27.436086189617562 -12.949852768201612 -12.115781687345748 -18.878232509412886 0.0 0.0
-70.31361766255094 -24.004340273049714 -28.29538738068019 -38.88158284991518 0.0 0.0
-155.21304948786621 -3.041600140398166 -47.476394888479305 -59.99145845112842 0.0 0.0
-264.45676658906143 3.6933941698621986 -78.2335539275636 -61.801880837533446 0.0 0.0
-383.53904563365 -2.536185281045945 -115.89232349519571 -52.276081430979666 0.0 0.0
-502.48941082413756 -10.927100473392201 -167.11264224536473 -39.63731795711103 0.0 0.0
-572.1370666126722 -23.64091369971316 -229.97836862392052 -37.6749728524912 0.0 0.0
-639.7271419049381 -34.20267676150254 -291.58855189048677 -38.6213266409681 0.0 0.0
-700.9200524414615 -54.305184447171854 -350.2667490047939 -38.868653095070734 0.0 0.0
-762.74813286781 -80.05217271738042 -405.26477067538747 -38.52559955138091 0.0 0.0
-827.7583383511535 -112.2989110882584 -460.18675907740624 -37.70270614699482 0.0 0.0
-895.734867591661 -149.36605458619488 -515.9780496483197 -36.49230313591249 0.0 0.0
-965.7469266454088 -186.74212081071767 -571.0954421989912 -35.27446122796429 0.0 0.0
-1031.7410098375585 -221.66047234864476 -622.0145957806261 -34.22700049305045 0.0 0.0
-1090.5738855875038 -247.8441289024791 -664.559107272184 -33.46881102873242 0.0 0.0
-1136.3183286975705 -261.75077800137154 -694.3390913524524 -32.40834973976268 0.0 0.0
-1165.715108000258 -261.4180037153901 -708.7731422043353 -30.606195010023058 0.0 0.0
-1161.5647259755265 -231.79041472006034 -692.2779329813088 -29.17772677765734 0.0 0.0
-1034.084164363028 -88.45910934933535 -559.225445701247 -36.50234495561645 0.0 0.0
-747.7134773739772 189.50284793477417 -281.08076723170745 -68.83560767576243 0.0 0.0
-2999.1350356348007 -2127.808562637008 -2534.6024333357855 5.03455055422819e-11 0.0 0.0
-747.7134773737714 189.5028479349486 -281.08076723153255 68.83560767585344 0.0 0.0
-1034.0841643629424 -88.45910934929341 -559.2254457011685 36.50234495571421 0.0 0.0
-1161.5647259753705 -231.79041471994083 -692.2779329811092 29.177726777757954 0.0 0.0
-1165.7151079998234 -261.41800371500113 -708.7731422040065 30.606195009988454 0.0 0.0
-1136.318328696952 -261.75077800082187 -694.3390913519199 32.408349739761135 0.0 0.0
-1090.5738855870322 -247.84412890209902 -664.5591072717727 33.46881102879668 0.0 0.0
-1031.7410098371392 -221.6604723483321 -622.0145957802188 34.227000493060835 0.0 0.0
-965.74692664501 -186.7421208104387 -571.0954421987134 35.27446122794527 0.0 0.0
-895.7348675914991 -149.3660545862104 -515.9780496481261 36.49230313592066 0.0 0.0
-827.7583383509749 -112.29891108826276 -460.18675907722127 37.702706146998345 0.0 0.0
-762.7481328672187 -80.05217271696776 -405.2647706748953 38.525599551327915 0.0 0.0
-700.9200524408876 -54.30518444683261 -350.2667490043068 38.8686530950896 0.0 0.0
-639.7271419046282 -34.202676761449574 -291.58855189013616 38.62132664096071 0.0 0.0
-572.1370666120175 -23.640913699326347 -229.97836862339523 37.67497285245486 0.0 0.0
-502.4894108237402 -10.927100473319339 -167.1126422450991 39.63731795708816 0.0 0.0
-383.53904563325545 -2.5361852811985233 -115.89232349512984 52.276081430984306 0.0 0.0
-264.4567665888002 3.6933941699378843 -78.23355392746117 61.80188083749957 0.0 0.0
-155.21304948769654 -3.041600140306617 -47.47639488840095 59.99145845108142 0.0 0.0
-70.3136176625017 -24.004340273057547 -28.295387380667776 38.88158284989291 0.0 0.0
-27.436086189584966 -12.949852768160627 -12.115781687323672 18.878232509386873 0.0 0.0
-24.846877053325745 -7.759887066227954 -9.78202923586611 -10.902910240415592 0.0 0.0
-67.1663495228973 -15.098062224860946 -24.679323524327476 -19.462358814207345 0.0 0.0
-164.33567234077083 -2.8943350475195873 -50.16900221648713 -29.380628128810866 0.0 0.0
-290.22016136860805 2.589827876173969 -86.29090341621126 -30.337900548413863 0.0 0.0
-429.67214087813653 -8.296805518425327 -132.46074313590523 -23.923374704132513 0.0 0.0
-535.4742922372193 -18.48342530166096 -191.373891963051 -18.978508454461053 0.0 0.0
-600.0714547834727 -23.223770057513306 -252.28314808755687 -19.878168612804117 0.0 0.0
-665.7686491328386 -40.070490258827746 -315.6042563301158 -20.277610397450335 0.0 0.0
-727.63927484647 -61.97875664701097 -373.30004886084487 -20.21454835617652 0.0 0.0
-791.7507262238264 -91.34367532182654 -429.4042828152123 -20.00119362434257 0.0 0.0
-860.6936218216688 -127.68338243159394 -486.90523259502464 -19.48323665782585 0.0 0.0
-933.6258232091905 -167.9934854052888 -545.8126867350146 -18.96276807022512 0.0 0.0
-1006.53704749494 -210.23153234528246 -604.2669636986564 -18.357635971893366 0.0 0.0
-1077.0439745494302 -247.8667943498505 -658.5314123982773 -17.838471082711607 0.0 0.0
-1137.2403579937059 -275.21330113141255 -702.2795536038673 -17.513689647005556 0.0 0.0
-1180.5561772210258 -286.7593940645503 -729.6649503035751 -16.885332092519427 0.0 0.0
-1203.266426200345 -280.42987910121695 -737.7698418255934 -15.464803248208186 0.0 0.0
-1215.1322902422442 -267.6991405077532 -737.1400679606372 -13.40322181675692 0.0 0.0
-1176.9774969207524 -211.83449058824868 -691.7314379774923 -15.477891502670529 0.0 0.0
-731.0498717695332 233.41902858224245 -250.16620381267904 -45.836091081584726 0.0 0.0
-3058.5007327126673 -2152.433447179967 -2583.2221856525935 1.0537348771322286e-11 0.0 0.0
-731.0498717696898 233.41902858205077 -250.16620381274333 45.836091081642905 0.0 0.0
-1176.977496920242 -211.83449058775767 -691.7314379770557 15.477891502692948 0.0 0.0
-1215.1322902418308 -267.6991405073882 -737.1400679602679 13.403221816815215 0.0 0.0
-1203.266426200131 -280.4298791010485 -737.7698418253412 15.464803248178722 0.0 0.0
-1180.5561772207723 -286.75939406436265 -729.664950303302 16.88533209249586 0.0 0.0
-1137.2403579933407 -275.2133011311352 -702.2795536035461 17.513689647026425 0.0 0.0
-1077.043974548941 -247.86679434945978 -658.5314123977552 17.838471082684872 0.0 0.0
-1006.5370474947034 -210.2315323451815 -604.2669636984782 18.35763597181709 0.0 0.0
-933.6258232090124 -167.99348540527097 -545.8126867348329 18.962768070195022 0.0 0.0
-860.6936218209165 -127.68338243102643 -486.90523259445627 19.483236657864314 0.0 0.0
-791.7507262235459 -91.34367532176371 -429.4042828149053 20.001193624355956 0.0 0.0
-727.6392748456265 -61.978756646333856 -373.3000488601919 20.214548356169594 0.0 0.0
-665.7686491326323 -40.07049025888909 -315.6042563298436 20.277610397435755 0.0 0.0
-600.0714547829829 -23.223770057267224 -252.28314808711548 19.87816861275033 0.0 0.0
-535.4742922369043 -18.48342530170984 -191.37389196280395 18.9785084544434 0.0 0.0
-429.6721408776705 -8.296805518357658 -132.46074313572097 23.923374704171906 0.0 0.0
-290.22016136834486 2.5898278761921185 -86.29090341613033 30.33790054842294 0.0 0.0
-164.3356723406037 -2.8943350474113583 -50.16900221640452 29.38062812877075 0.0 0.0
-67.16634952283367 -15.098062224836813 -24.679323524301143 19.462358814184235 0.0 0.0
-24.84687705330128 -7.759887066213653 -9.782029235854479 10.902910240406687 0.0 0.0
-14.443084725619398 -3.62656785378809 -5.420895773822246 -7.035045096381836 0.0 0.0
-56.590628869494665 -8.109125279137036 -19.40992624458951 -8.093694521237193 0.0 0.0
-169.3689602574327 -3.6940893947658715 -51.91891489565956 -10.083648949437976 0.0 0.0
-321.42076537908065 -5.782161479407552 -98.14650064207588 -10.325322475492548 0.0 0.0
-482.30654655059726 -30.870648183244064 -158.5518437151696 -5.337748611625891 0.0 0.0
-592.1298089349569 -56.82479426104011 -232.7817742088302 -1.8949944417483735 0.0 0.0
-664.4997873884552 -72.80520336025299 -305.4334090857689 -1.8494539658036722 0.0 0.0
-744.4119552088897 -106.4345752275168 -383.71086469390457 -2.28040924473342 0.0 0.0
-825.9521527862612 -149.26367133900237 -460.7827206799548 -2.6320062784797056 0.0 0.0
-918.0843644306995 -206.27993494830997 -543.5731531843898 -3.198242232472724 0.0 0.0
-1024.4753427398493 -279.2785173193065 -637.1817609244861 -3.8722232462412105 0.0 0.0
-1144.618074630481 -368.17096081591944 -743.223733959633 -4.639670575033151 0.0 0.0
-1275.2376382537018 -466.47374926755214 -857.796687913774 -5.141067347399362 0.0 0.0
-1412.11161621123 -570.3164834811986 -977.779154084468 -5.658592736228503 0.0 0.0
-1544.3957669496367 -669.5137828152381 -1092.9519956247432 -6.148625026518243 0.0 0.0
-1656.7511352800987 -750.0113914108547 -1188.9041080578256 -6.377339171436674 0.0 0.0
-1730.6437393895833 -795.2878882991687 -1248.2718436944508 -6.013848812595803 0.0 0.0
-1745.7640100403373 -787.0218216926635 -1251.787687963613 -4.771410856639218 0.0 0.0
-1733.4917599194628 -757.3646981292019 -1231.9541633992276 -4.574076435246743 0.0 0.0
-1609.356031520681 -626.993804994539 -1103.0586725557305 -31.61367976671258 0.0 0.0
-4372.431834226461 -3437.769434500806 -3866.6854230028075 -1.7024603948812e-11 0.0 0.0
-1609.3560315207042 -626.9938049945824 -1103.05867255567 31.613679766696606 0.0 0.0
-1733.4917599184923 -757.3646981282534 -1231.9541633984165 4.574076435263283 0.0 0.0
-1745.7640100393885 -787.021821691751 -1251.787687962826 4.771410856680955 0.0 0.0
-1730.6437393896404 -795.2878882992977 -1248.2718436943092 6.013848812611283 0.0 0.0
-1656.751135280002 -750.0113914108338 -1188.9041080576217 6.377339171445193 0.0 0.0
-1544.3957669492706 -669.5137828149618 -1092.9519956243707 6.148625026523803 0.0 0.0
-1412.1116162106268 -570.3164834807125 -977.7791540838025 5.65859273623477 0.0 0.0
-1275.2376382527148 -466.4737492666863 -857.7966879129624 5.141067347389441 0.0 0.0
-1144.6180746304522 -368.1709608160734 -743.2237339595254 4.639670575002434 0.0 0.0
-1024.4753427383673 -279.27851731798006 -637.1817609233689 3.8722232463488204 0.0 0.0
-918.0843644302074 -206.27993494802556 -543.5731531839274 3.1982422324471607 0.0 0.0
-825.9521527857326 -149.26367133869002 -460.78272067945926 2.632006278465102 0.0 0.0
-744.4119552085697 -106.43457522745972 -383.7108646935575 2.280409244786256 0.0 0.0
-664.4997873881429 -72.80520336023046 -305.43340908541137 1.8494539657695839 0.0 0.0
-592.1298089345627 -56.82479426095284 -232.78177420847538 1.8949944417990707 0.0 0.0
-482.3065465499015 -30.87064818280729 -158.55184371478782 5.337748611646049 0.0 0.0
-321.4207653788362 -5.782161479493546 -98.14650064203005 10.325322475491859 0.0 0.0
-169.3689602572506 -3.694089394638567 -51.91891489556674 10.083648949416414 0.0 0.0
-56.59062886942483 -8.109125279062098 -19.409926244546075 8.093694521217945 0.0 0.0
-14.443084725615044 -3.626567853799059 -5.4208957738242285 7.035045096401105 0.0 0.0
SCALARS Strain float 6
LOOKUP_TABLE default
0.008972952474991018 -0.016321642976783943 0.0 -0.00036065900129470376 0.0 0.0
0.005644129479449152 -0.0007806411372595216 0.0 -0.004805243348775428 0.0 0.0
0.0020295828187013526 -0.0006854512485955036 0.0 -0.0004659141494459865 0.0 0.0
0.0018999115802795113 -0.0007508469909623978 0.0 -5.467781751827438e-05 0.0 0.0
0.002392853514911507 -0.0009361746869235032 0.0 1.969354361051695e-05 0.0 0.0
0.003364999807037433 -0.0015976029934017637 0.0 6.563170741817955e-05 0.0 0.0
0.0048807892370407785 -0.002786123271329254 0.0 7.305303544639744e-05 0.0 0.0
0.006905657261880568 -0.004438111355250891 0.0 7.58682948853012e-05 0.0 0.0
0.009482597960433856 -0.006612507839528364 0.0 8.697940089572555e-05 0.0 0.0
0.012672294959270629 -0.009337091151767844 0.0 9.583773137619782e-05 0.0 0.0
0.016603994773539126 -0.01272021329269718 0.0 0.00014811877950894414 0.0 0.0
0.021514933576642505 -0.01699919616699998 0.0 0.00024240376381074954 0.0 0.0
0.027678151505368655 -0.022476705782001248 0.0 0.00028729694692160215 0.0 0.0
0.035332937874815534 -0.029410598567046566 0.0 0.00032960671929973845 0.0 0.0
0.04459443404501754 -0.037956955509134416 0.0 0.0003006413209726466 0.0 0.0
0.05528996162957686 -0.04798269877283971 0.0 0.00017014496089476925 0.0 0.0
0.06683871577336035 -0.058936666618028696 0.0 -5.2671094357239915e-05 0.0 0.0
0.07823729773058356 -0.06984446294242405 0.0 -0.00028522731041870255 0.0 0.0
0.08820543319210106 -0.07944856924328816 0.0 -0.0003770819738438498 0.0 0.0
0.09536815408374348 -0.08641862659301786 0.0 -0.0003987757137303132 0.0 0.0
0.09807449785061828 -0.08913547063205168 0.0 9.731798700229888e-16 0.0 0.0
0.09536815408373779 -0.08641862659301221 0.0 0.00039877571373439025 0.0 0.0
0.08820543319208693 -0.07944856924327634 0.0 0.00037708197384916584 0.0 0.0
0.07823729773056252 -0.06984446294240483 0.0 0.00028522731042256947 0.0 0.0
0.06683871577333654 -0.05893666661800667 0.0 5.2671094357299546e-05 0.0 0.0
0.055289961629552575 -0.04798269877281708 0.0 -0.0001701449608964103 0.0 0.0
0.044594434044992644 -0.037956955509112225 0.0 -0.0003006413209728242 0.0 0.0
0.0353329378747894 -0.029410598567023216 0.0 -0.0003296067193005667 0.0 0.0
0.027678151505341607 -0.022476705781979623 0.0 -0.00028729694692213145 0.0 0.0
0.0215149335766165 -0.01699919616697472 0.0 -0.00024240376380947073 0.0 0.0
0.016603994773515922 -0.012720213292679416 0.0 -0.00014811877951095354 0.0 0.0
0.012672294959251231 -0.009337091151749341 0.0 -9.583773137719924e-05 0.0 0.0
0.009482597960418272 -0.00661250783951575 0.0 -8.697940089515051e-05 0.0 0.0
0.006905657261868384 -0.004438111355239848 0.0 -7.586829488589005e-05 0.0 0.0
0.004880789237031769 -0.0027861232713220882 0.0 -7.305303544765171e-05 0.0 0.0
0.003364999807031875 -0.0015976029933965313 0.0 -6.563170741779807e-05 0.0 0.0
0.0023928535149091417 -0.0009361746869249333 0.0 -1.9693543610218163e-05 0.0 0.0
0.001899911580278549 -0.000750846990960992 0.0 5.467781751783403e-05 0.0 0.0
0.0020295828186999995 -0.0006854512485952701 0.0 0.00046591414944508857 0.0 0.0
0.005644129479445533 -0.000780641137258497 0.0 0.004805243348769439 0.0 0.0
0.00897295247498564 -0.016321642976764843 0.0 0.0003606590012653891 0.0 0.0
0.005921993215128639 -0.014503348501405545 0.0 5.554391216328709e-05 0.0 0.0
0.003605150667676768 -0.0005378318369536986 0.0 -0.00367896691196385 0.0 0.0
0.0014371501389292185 -0.0005528945333955997 0.0 -0.00032065654185951906 0.0 0.0
0.0017152049152401815 -0.0007236671217384312 0.0 -0.00021031278413703304 0.0 0.0
0.002117412008941769 -0.0008712905173487832 0.0 -0.00017933929622583424 0.0 0.0
0.0029512541824320867 -0.0014428176627367647 0.0 -0.0001839307566964685 0.0 0.0
0.004312116712994177 -0.0025500980988964494 0.0 -0.0003177834804947834 0.0 0.0
0.006154942835288136 -0.004110626617461764 0.0 -0.0004506493914077913 0.0 0.0
0.008493284476547397 -0.006168465494255214 0.0 -0.000600708910340028 0.0 0.0
0.011367667663955383 -0.008743112011327683 0.0 -0.0007653294505149631 0.0 0.0
0.014885249085317884 -0.011933717953205933 0.0 -0.0009213897053663321 0.0 0.0
0.019252998789637658 -0.015955970248995605 0.0 -0.0010717083213336433 0.0 0.0
0.024752050352160545 -0.0211078429703116 0.0 -0.0012978066733249452 0.0 0.0
0.03163460887383345 -0.027664640148984652 0.0 -0.0016270138697035985 0.0 0.0
0.04001678513851657 -0.03577524386873253 0.0 -0.0020535549418642775 0.0 0.0
0.049749166302662344 -0.045317383452000336 0.0 -0.002565438636257479 0.0 0.0
0.060297510070363346 -0.055769049366348064 0.0 -0.0030428714486909537 0.0 0.0
0.07075279480909552 -0.0662084748417593 0.0 -0.003240624412019398 0.0 0.0
0.07993663264265134 -0.07543659797196602 0.0 -0.0029085441693144803 0.0 0.0
0.08646089411915128 -0.08210595911329918 0.0 -0.002099439329593206 0.0 0.0
0.08887099184997163 -0.08473372793258935 0.0 3.650291874324196e-15 0.0 0.0
0.08646089411914593 -0.08210595911329222 0.0 0.0020994393296023726 0.0 0.0
0.07993663264263887 -0.07543659797195594 0.0 0.0029085441693245738 0.0 0.0
0.07075279480907762 -0.0662084748417426 0.0 0.0032406244120257925 0.0 0.0
0.060297510070342786 -0.05576904936632783 0.0 0.003042871448692533 0.0 0.0
0.04974916630264068 -0.04531738345198048 0.0 0.0025654386362557206 0.0 0.0
0.04001678513849421 -0.035775243868713974 0.0 0.0020535549418639436 0.0 0.0
0.031634608873810165 -0.027664640148961524 0.0 0.001627013869703578 0.0 0.0
0.024752050352136512 -0.021107842970288653 0.0 0.0012978066733234568 0.0 0.0
0.01925299878961417 -0.015955970248971527 0.0 0.0010717083213331187 0.0 0.0
0.01488524908529688 -0.01193371795318784 0.0 0.0009213897053635777 0.0 0.0
0.01136766766393783 -0.008743112011311095 0.0 0.0007653294505130131 0.0 0.0
0.008493284476533029 -0.006168465494242788 0.0 0.0006007089103393292 0.0 0.0
0.006154942835277001 -0.004110626617450755 0.0 0.00045064939140577277 0.0 0.0
0.004312116712986336 -0.002550098098889122 0.0 0.000317783480493719 0.0 0.0
0.0029512541824275465 -0.0014428176627327108 0.0 0.00018393075669632114 0.0 0.0
0.002117412008939971 -0.0008712905173495552 0.0 0.00017933929622614202 0.0 0.0
0.0017152049152394926 -0.0007236671217375197 0.0 0.0002103127841363625 0.0 0.0
0.0014371501389290507 -0.0005528945333957522 0.0 0.00032065654185915303 0.0 0.0
0.0036051506676728533 -0.0005378318369521984 0.0 0.003678966911956516 0.0 0.0
0.005921993215120518 -0.014503348501386489 0.0 -5.554391218542368e-05 0.0 0.0
0.0041914339638718335 -0.011388848836220877 0.0 -0.002129470032047713 0.0 0.0
0.0024688170773349686 -0.00025362402204745906 0.0 -0.0035500727206848855 0.0 0.0
0.0010207057072531447 -0.0003251527683541912 0.0 -0.000309978397653583 0.0 0.0
0.0014718178304931721 -0.0006367717377609756 0.0 -0.00045886814949757456 0.0 0.0
0.0018684644144129508 -0.0007645806245161929 0.0 -0.00046991080403104143 0.0 0.0
0.002551862400032138 -0.001157429093506204 0.0 -0.00043105664726146846 0.0 0.0
0.0037359690078965745 -0.002077324621909153 0.0 -0.0006638314676925664 0.0 0.0
0.005394342692205327 -0.003461051702312687 0.0 -0.000943245981317065 0.0 0.0
0.007491599896416694 -0.005281648630096638 0.0 -0.0012562828641653834 0.0 0.0
0.010053932988315166 -0.007558336143421994 0.0 -0.0015909202774839802 0.0 0.0
0.013167291766162601 -0.010366125781833404 0.0 -0.0019299592095699991 0.0 0.0
0.01701058076206547 -0.0138861505124606 0.0 -0.0022749340080843315 0.0 0.0
0.02184418948666985 -0.01839335374813597 0.0 -0.002690260257483118 0.0 0.0
0.02793652851863353 -0.024182249272694033 0.0 -0.003285618437753317 0.0 0.0
0.03541625364815844 -0.03140951408822837 0.0 -0.004081079626339669 0.0 0.0
0.044152171951741925 -0.03996874303176621 0.0 -0.005001149920548672 0.0 0.0
0.05368673197614078 -0.049405656910083855 0.0 -0.005825691048460223 0.0 0.0
0.06321773891110499 -0.05891279642806961 0.0 -0.0061452519040161 0.0 0.0
0.07164323417599551 -0.06739420570010651 0.0 -0.005562178506903207 0.0 0.0
0.07766855708934611 -0.07353235402582764 0.0 -0.0039725366903948746 0.0 0.0
0.07991238632045958 -0.07605894097943093 0.0 7.500944310123714e-15 0.0 0.0
0.07766855708934091 -0.0735323540258213 0.0 0.003972536690411078 0.0 0.0
0.07164323417598459 -0.06739420570009715 0.0 0.005562178506920536 0.0 0.0
0.06321773891108964 -0.05891279642805705 0.0 0.006145251904028079 0.0 0.0
0.053686731976122656 -0.0494056569100674 0.0 0.005825691048463796 0.0 0.0
0.04415217195172262 -0.039968743031749264 0.0 0.005001149920548209 0.0 0.0
0.03541625364813856 -0.03140951408821045 0.0 0.004081079626340111 0.0 0.0
0.027936528518612738 -0.024182249272672703 0.0 0.003285618437753242 0.0 0.0
0.021844189486648763 -0.018393353748115026 0.0 0.0026902602574807198 0.0 0.0
0.017010580762044886 -0.013886150512443749 0.0 0.002274934008080595 0.0 0.0
0.013167291766143948 -0.010366125781815339 0.0 0.0019299592095667817 0.0 0.0
0.010053932988299466 -0.00755833614340784 0.0 0.0015909202774813075 0.0 0.0
0.007491599896403833 -0.005281648630084499 0.0 0.0012562828641633297 0.0 0.0
0.005394342692195427 -0.0034610517023032396 0.0 0.000943245981314652 0.0 0.0
0.0037359690078897553 -0.002077324621903364 0.0 0.0006638314676919787 0.0 0.0
0.002551862400028537 -0.0011574290935040378 0.0 0.00043105664726102893 0.0 0.0
0.0018684644144115452 -0.0007645806245154415 0.0 0.00046991080403102896 0.0 0.0
0.0014718178304926057 -0.0006367717377612234 0.0 0.0004588681494964655 0.0 0.0
0.0010207057072531794 -0.0003251527683549295 0.0 0.0003099783976529452 0.0 0.0
0.002468817077331182 -0.0002536240220453292 0.0 0.003550072720675236 0.0 0.0
0.004191433963863958 -0.011388848836202886 0.0 0.00212947003203348 0.0 0.0
0.003079637944937385 -0.009081148945196902 0.0 -0.0025348254866849078 0.0 0.0
0.0017656840281238839 -0.00022549030861354933 0.0 -0.003316682671979753 0.0 0.0
0.0007292476613652239 -0.00017488789950358287 0.0 -0.0005966895357999463 0.0 0.0
0.0012177387638163894 -0.0005100112705461524 0.0 -0.0006806056995170568 0.0 0.0
0.0016284302161767386 -0.0006783558284333977 0.0 -0.0007649862140736667 0.0 0.0
0.002183734045204958 -0.0009397875680358259 0.0 -0.0007090086618990652 0.0 0.0
0.0031653876728836537 -0.0016241404399878635 0.0 -0.0008975729514263831 0.0 0.0
0.0046247118190690245 -0.002819776598875028 0.0 -0.0013196064791079554 0.0 0.0
0.006481926892084553 -0.004403090461970396 0.0 -0.001761381298038738 0.0 0.0
0.00873598244505809 -0.006382986105168274 0.0 -0.002232670466887757 0.0 0.0
0.011453167303001395 -0.008815695299751989 0.0 -0.0027128539164368707 0.0 0.0
0.014785247640691689 -0.011848120366407876 0.0 -0.003206964715706925 0.0 0.0
0.018968705942037048 -0.015725265502872874 0.0 -0.003783046602729965 0.0 0.0
0.024258414523831682 -0.020734570940726765 0.0 -0.0045582507235264365 0.0 0.0
0.030805370181866604 -0.027049162671207598 0.0 -0.005599215554559931 0.0 0.0
0.038522147652556946 -0.03459555771638197 0.0 -0.006823880367500678 0.0 0.0
0.04702252518058133 -0.04299557878652971 0.0 -0.007922257298291607 0.0 0.0
0.05561866937649189 -0.051564156126689846 0.0 -0.008377503326590652 0.0 0.0
0.06332244628267283 -0.05931463087405485 0.0 -0.007673277419221927 0.0 0.0
0.06894905555626184 -0.06504072607048382 0.0 -0.005409842111513637 0.0 0.0
0.07108871909193516 -0.06758360273444719 0.0 9.720306157201541e-15 0.0 0.0
0.06894905555625688 -0.065040726070479 0.0 0.0054098421115356485 0.0 0.0
0.06332244628266338 -0.059314630874045246 0.0 0.007673277419243188 0.0 0.0
0.05561866937647849 -0.05156415612667773 0.0 0.008377503326604835 0.0 0.0
0.0470225251805655 -0.042995578786514596 0.0 0.007922257298295517 0.0 0.0
0.038522147652540056 -0.03459555771636662 0.0 0.006823880367499296 0.0 0.0
0.030805370181849055 -0.02704916267119069 0.0 0.005599215554558934 0.0 0.0
0.024258414523813495 -0.02073457094070872 0.0 0.004558250723525027 0.0 0.0
0.018968705942018493 -0.015725265502856547 0.0 0.0037830466027266724 0.0 0.0
0.014785247640673706 -0.011848120366395175 0.0 0.0032069647157016443 0.0 0.0
0.011453167302985259 -0.008815695299736333 0.0 0.0027128539164322546 0.0 0.0
0.008735982445044177 -0.006382986105154683 0.0 0.002232670466883709 0.0 0.0
0.006481926892073054 -0.004403090461959908 0.0 0.0017613812980355934 0.0 0.0
0.004624711819060325 -0.002819776598867913 0.0 0.0013196064791053481 0.0 0.0
0.0031653876728780675 -0.0016241404399835186 0.0 0.0008975729514246107 0.0 0.0
0.002183734045202064 -0.0009397875680344546 0.0 0.0007090086618988598 0.0 0.0
0.0016284302161754987 -0.0006783558284326557 0.0 0.0007649862140728279 0.0 0.0
0.0012177387638159867 -0.0005100112705462647 0.0 0.0006806056995159731 0.0 0.0
0.0007292476613653476 -0.00017488789950441397 0.0 0.0005966895357987555 0.0 0.0
0.0017656840281205445 -0.00022549030861170776 0.0 0.003316682671971004 0.0 0.0
0.00307963794493038 -0.00908114894518117 0.0 0.0025348254866754297 0.0 0.0
0.00228708646722879 -0.007243070498349786 0.0 -0.0023462626848799427 0.0 0.0
0.0012879386104515391 -0.0002623974539620083 0.0 -0.0030517294833486957 0.0 0.0
0.0005226295522157198 -9.196649701968949e-05 0.0 -0.0009586916387394628 0.0 0.0
0.0009749149522319399 -0.0003803890351211377 0.0 -0.0009256931188877683 0.0 0.0
0.0013849613252856871 -0.0005822704706821397 0.0 -0.001036908311754595 0.0 0.0
0.0018516246830722243 -0.0007829249715103056 0.0 -0.001018432135190932 0.0 0.0
0.0026234027338026293 -0.0012397443390104962 0.0 -0.0010990188254741105 0.0 0.0
0.0038499112578572175 -0.0021847274819012013 0.0 -0.0015328705528916367 0.0 0.0
0.005468515421703255 -0.0035407399902066053 0.0 -0.002109716755678611 0.0 0.0
0.007417281182012384 -0.005225559208689884 0.0 -0.0026844247389585076 0.0 0.0
0.009747531840196373 -0.007289649258596048 0.0 -0.003269326155467953 0.0 0.0
0.012580801792354409 -0.00984628394713422 0.0 -0.0038671645064656214 0.0 0.0
0.01612304062647053 -0.0131072705065158 0.0 -0.004552680855217604 0.0 0.0
0.020618163679056355 -0.01733931249130635 0.0 -0.005449054998979178 0.0 0.0
0.02621752093705448 -0.022723583812777975 0.0 -0.006636449594621026 0.0 0.0
0.03287829844200791 -0.0292266653478642 0.0 -0.00802523420853857 0.0 0.0
0.040314664256099586 -0.03655623588653946 0.0 -0.009298622983124878 0.0 0.0
0.04795656225414038 -0.04415745231906715 0.0 -0.009913610701730245 0.0 0.0
0.054954915848633976 -0.05118915513434797 0.0 -0.009197965015657797 0.0 0.0
0.060246421057567 -0.0565811029264183 0.0 -0.006513586729115442 0.0 0.0
0.062322384271348286 -0.05921270876917259 0.0 1.0596124672135332e-14 0.0 0.0
0.06024642105756224 -0.05658110292641129 0.0 0.006513586729140482 0.0 0.0
0.054954915848625246 -0.051189155134340095 0.0 0.009197965015681783 0.0 0.0
0.04795656225412876 -0.04415745231905481 0.0 0.009913610701745316 0.0 0.0
0.04031466425608571 -0.036556235886527046 0.0 0.00929862298312927 0.0 0.0
0.03287829844199328 -0.029226665347849595 0.0 0.008025234208537808 0.0 0.0
0.02621752093703958 -0.022723583812766627 0.0 0.006636449594620458 0.0 0.0
0.020618163679040697 -0.017339312491290285 0.0 0.005449054998978489 0.0 0.0
0.016123040626454727 -0.013107270506502955 0.0 0.004552680855213499 0.0 0.0
0.012580801792339138 -0.00984628394712121 0.0 0.0038671645064600494 0.0 0.0
0.00974753184018254 -0.00728964925858471 0.0 0.00326932615546152 0.0 0.0
0.007417281182000499 -0.005225559208678842 0.0 0.0026844247389529 0.0 0.0
0.005468515421693436 -0.003540739990198147 0.0 0.0021097167556745917 0.0 0.0
0.0038499112578500357 -0.0021847274818951913 0.0 0.001532870552889301 0.0 0.0
0.002623402733798314 -0.001239744339006964 0.0 0.0010990188254723964 0.0 0.0
0.0018516246830701352 -0.0007829249715090223 0.0 0.0010184321351907083 0.0 0.0
0.0013849613252847252 -0.0005822704706813884 0.0 0.0010369083117535464 0.0 0.0
0.0009749149522316081 -0.0003803890351200187 0.0 0.0009256931188859831 0.0 0.0
0.0005226295522157811 -9.196649701991708e-05 0.0 0.0009586916387374152 0.0 0.0
0.0012879386104486079 -0.00026239745396074295 0.0 0.0030517294833408127 0.0 0.0
0.0022870864672228535 -0.007243070498336532 0.0 0.0023462626848736387 0.0 0.0
0.0016954826482644641 -0.005736167440093044 0.0 -0.0020331686016581275 0.0 0.0
0.0009429771312012612 -0.0003067412342507492 0.0 -0.002783449061543599 0.0 0.0
0.00036816119303357614 -5.06458836692973e-05 0.0 -0.001301668738673071 0.0 0.0
0.0007497800042054359 -0.00026327300007660746 0.0 -0.0011827082314146572 0.0 0.0
0.0011369555864409536 -0.00047243444877569747 0.0 -0.0012844218861568664 0.0 0.0
0.0015398047412977093 -0.0006533163694407173 0.0 -0.0013182867136015337 0.0 0.0
0.0021326692000135186 -0.0009502639291888043 0.0 -0.001349845651623592 0.0 0.0
0.0030951204491328397 -0.001605125377707589 0.0 -0.001645472467610298 0.0 0.0
0.004446702761134236 -0.002695208970360226 0.0 -0.0022608510939713024 0.0 0.0
0.006101684259748877 -0.004094930810133993 0.0 -0.002936366650545635 0.0 0.0
0.008052464346791976 -0.005795850221187158 0.0 -0.0035874036961184995 0.0 0.0
0.010400565348353883 -0.007889571696114943 0.0 -0.004252785451624408 0.0 0.0
0.013318455451528136 -0.010548281031787534 0.0 -0.004993449705156808 0.0 0.0
0.017019891343776655 -0.014010048374893277 0.0 -0.005937089469368659 0.0 0.0
0.021667700727712316 -0.018456103712102965 0.0 -0.007179348800523363 0.0 0.0
0.02725996423802164 -0.023896113261223616 0.0 -0.008629873267407167 0.0 0.0
0.033584761411630935 -0.030115560760262068 0.0 -0.009972596561902861 0.0 0.0
0.04022557852120833 -0.03669842675563782 0.0 -0.010700040671270797 0.0 0.0
0.046511957098246806 -0.042995508666824694 0.0 -0.010100383381114091 0.0 0.0
0.05150387799907445 -0.04809367062604642 0.0 -0.007304555517337587 0.0 0.0
0.05354334987071167 -0.05087646096782699 0.0 1.0552756585235912e-14 0.0 0.0
0.05150387799907005 -0.04809367062604037 0.0 0.00730455551736196 0.0 0.0
0.04651195709823903 -0.042995508666816756 0.0 0.010100383381139237 0.0 0.0
0.040225578521198374 -0.03669842675562914 0.0 0.010700040671284838 0.0 0.0
0.03358476141161915 -0.030115560760252437 0.0 0.009972596561906785 0.0 0.0
0.027259964238009013 -0.0238961132612103 0.0 0.008629873267406158 0.0 0.0
0.021667700727699704 -0.018456103712093552 0.0 0.007179348800521184 0.0 0.0
0.017019891343763763 -0.014010048374882116 0.0 0.005937089469367194 0.0 0.0
0.013318455451515152 -0.01054828103177625 0.0 0.0049934497051533945 0.0 0.0
0.010400565348341271 -0.007889571696103416 0.0 0.004252785451618882 0.0 0.0
0.0080524643467805 -0.0057958502211777965 0.0 0.0035874036961120754 0.0 0.0
0.006101684259738984 -0.00409493081012646 0.0 0.0029363666505394536 0.0 0.0
0.004446702761126037 -0.0026952089703534926 0.0 0.0022608510939667245 0.0 0.0
0.003095120449127089 -0.0016051253777029653 0.0 0.001645472467607983 0.0 0.0
0.0021326692000103106 -0.0009502639291872775 0.0 0.0013498456516216227 0.0 0.0
0.0015398047412961496 -0.0006533163694395692 0.0 0.0013182867136004445 0.0 0.0
0.0011369555864401992 -0.0004724344487750165 0.0 0.0012844218861552195 0.0 0.0
0.0007497800042051884 -0.00026327300007582217 0.0 0.0011827082314127119 0.0 0.0
0.0003681611930335039 -5.0645883669256774e-05 0.0 0.0013016687386708085 0.0 0.0
0.0009429771311990265 -0.00030674123424983104 0.0 0.0027834490615368207 0.0 0.0
0.001695482648260115 -0.005736167440082235 0.0 0.0020331686016541754 0.0 0.0
0.0012498075942211466 -0.004488071943280127 0.0 -0.0017397656217807644 0.0 0.0
0.0006853597259640178 -0.0003495229947480597 0.0 -0.0025430575250423235 0.0 0.0
0.00024330736003183107 -2.778851869228583e-05 0.0 -0.0015890088261214265 0.0 0.0
0.0005421819788700759 -0.00016162487504088897 0.0 -0.0014302612454110634 0.0 0.0
0.000885112474623881 -0.000354878355182818 0.0 -0.0015071413445297182 0.0 0.0
0.0012306318699589424 -0.0005285777104549214 0.0 -0.0015859808027328614 0.0 0.0
0.0016844095869379908 -0.0007260916146565408 0.0 -0.0016109460562609653 0.0 0.0
0.0023961198756002715 -0.0011393322330154603 0.0 -0.001779381155269546 0.0 0.0
0.0034414679992755947 -0.0019046254697347971 0.0 -0.002247738727283868 0.0 0.0
0.004785602693000757 -0.0029985589898058472 0.0 -0.0029456712244377843 0.0 0.0
0.006371535274885779 -0.004346848221110891 0.0 -0.003651419473964827 0.0 0.0
0.008246578479815025 -0.0059879414471543345 0.0 -0.00434910422982119 0.0 0.0
0.010556055517436512 -0.00806074706559852 0.0 -0.005099876022800375 0.0 0.0
0.013482011573119087 -0.010766250791977008 0.0 -0.006027263025295647 0.0 0.0
0.017175520860403 -0.014272190418830218 0.0 -0.007213714162361996 0.0 0.0
0.021677088060027213 -0.01863192066101173 0.0 -0.00862024891249209 0.0 0.0
0.026863477123243173 -0.023705812368925678 0.0 -0.00995454706937767 0.0 0.0
0.03244449789986494 -0.029211085029965854 0.0 -0.010743374504309547 0.0 0.0
0.03796046815517488 -0.03471215291105512 0.0 -0.010336944525192602 0.0 0.0
0.04265458335330142 -0.03951172384521961 0.0 -0.007758538821083059 0.0 0.0
0.04467679472079609 -0.04250670013021915 0.0 9.54618328830037e-15 0.0 0.0
0.042654583353297755 -0.03951172384521626 0.0 0.007758538821106583 0.0 0.0
0.037960468155168105 -0.03471215291104833 0.0 0.010336944525216468 0.0 0.0
0.03244449789985652 -0.029211085029958624 0.0 0.010743374504322549 0.0 0.0
0.026863477123233757 -0.023705812368917976 0.0 0.009954547069380102 0.0 0.0
0.02167708806001679 -0.01863192066099892 0.0 0.008620248912489543 0.0 0.0
0.017175520860392816 -0.014272190418821752 0.0 0.007213714162359386 0.0 0.0
0.01348201157310904 -0.010766250791972836 0.0 0.006027263025293495 0.0 0.0
0.010556055517426242 -0.008060747065587015 0.0 0.005099876022798505 0.0 0.0
0.00824657847980508 -0.005987941447147133 0.0 0.004349104229815402 0.0 0.0
0.006371535274876601 -0.004346848221103331 0.0 0.003651419473957903 0.0 0.0
0.0047856026929927594 -0.002998558989799234 0.0 0.00294567122443247 0.0 0.0
0.0034414679992693293 -0.0019046254697313069 0.0 0.002247738727280878 0.0 0.0
0.0023961198755961316 -0.0011393322330114565 0.0 0.0017793811552677635 0.0 0.0
0.0016844095869357732 -0.0007260916146544315 0.0 0.0016109460562599503 0.0 0.0
0.0012306318699578738 -0.0005285777104550827 0.0 0.0015859808027319164 0.0 0.0
0.0008851124746231558 -0.00035487835518219376 0.0 0.0015071413445277243 0.0 0.0
0.0005421819788697906 -0.00016162487504073125 0.0 0.0014302612454093957 0.0 0.0
0.00024330736003169782 -2.7788518692355257e-05 0.0 0.0015890088261190408 0.0 0.0
0.0006853597259623386 -0.0003495229947475631 0.0 0.0025430575250374792 0.0 0.0
0.0012498075942181492 -0.004488071943271723 0.0 0.0017397656217778726 0.0 0.0
0.0009090811561029014 -0.003466518960620544 0.0 -0.0015303133398932756 0.0 0.0
0.000487028182752858 -0.0003911081947733432 0.0 -0.0023370022605815445 0.0 0.0
0.00013547158609001294 -8.631584680117467e-06 0.0 -0.0018145639864904492 0.0 0.0
0.00034893675846734876 -7.334697522777156e-05 0.0 -0.0016498501084361693 0.0 0.0
0.0006332383786573535 -0.00023709609331046792 0.0 -0.0017011814917494666 0.0 0.0
0.0009205622403188752 -0.00039186661587207783 0.0 -0.0018023784360074167 0.0 0.0
0.0012594049659817583 -0.0005390255910745879 0.0 -0.0018616431934394572 0.0 0.0
0.001755130170501993 -0.0007825609468251945 0.0 -0.0019516235962746555 0.0 0.0
0.002492525672511775 -0.0012375873369047216 0.0 -0.0022027612917108544 0.0 0.0
0.0034879204535638365 -0.0019789305676097186 0.0 -0.0027364471175068718 0.0 0.0
0.004699824928599311 -0.0029600294891484655 0.0 -0.0034293712256328606 0.0 0.0
0.006119972330794432 -0.004161619693443433 0.0 -0.004124227713858927 0.0 0.0
0.007841349877136397 -0.00566535333865486 0.0 -0.004853166248435872 0.0 0.0
0.010009200076654184 -0.007632281103139656 0.0 -0.005703702390134369 0.0 0.0
0.012760306752139053 -0.010208834286044069 0.0 -0.006762690115845244 0.0 0.0
0.016160381481863814 -0.013469900751366433 0.0 -0.007994357696580426 0.0 0.0
0.020164591046674327 -0.017361866938004594 0.0 -0.009223807599843557 0.0 0.0
0.024623781958603912 -0.021728954590071622 0.0 -0.010020868926981119 0.0 0.0
0.0292852336161262 -0.026333426606610495 0.0 -0.009857368950243962 0.0 0.0
0.033631242577369734 -0.030768587049576884 0.0 -0.007825160165281923 0.0 0.0
0.03563533765784591 -0.034033562520002454 0.0 8.563896120028502e-15 0.0 0.0
0.03363124257736673 -0.030768587049574407 0.0 0.007825160165301692 0.0 0.0
0.029285233616120718 -0.026333426606606876 0.0 0.009857368950264525 0.0 0.0
0.0246237819585971 -0.021728954590064697 0.0 0.010020868926994168 0.0 0.0
0.020164591046666798 -0.017361866937998717 0.0 0.009223807599844971 0.0 0.0
0.01616038148185579 -0.013469900751355636 0.0 0.00799435769657725 0.0 0.0
0.0127603067521313 -0.010208834286038682 0.0 0.0067626901158421415 0.0 0.0
0.010009200076647068 -0.007632281103134856 0.0 0.005703702390133017 0.0 0.0
0.00784134987712906 -0.005665353338646479 0.0 0.004853166248433624 0.0 0.0
0.006119972330786992 -0.0041616196934369945 0.0 0.0041242277138529146 0.0 0.0
0.004699824928592624 -0.0029600294891433685 0.0 0.0034293712256264096 0.0 0.0
0.003487920453558199 -0.001978930567605899 0.0 0.002736447117501439 0.0 0.0
0.0024925256725074766 -0.001237587336901051 0.0 0.002202761291709012 0.0 0.0
0.0017551301704991122 -0.0007825609468236065 0.0 0.0019516235962738241 0.0 0.0
0.0012594049659803096 -0.0005390255910731486 0.0 0.0018616431934380577 0.0 0.0
0.0009205622403181874 -0.0003918666158725951 0.0 0.0018023784360054187 0.0 0.0
0.0006332383786569663 -0.00023709609330963108 0.0 0.0017011814917469587 0.0 0.0
0.0003489367584672353 -7.334697522767341e-05 0.0 0.0016498501084339688 0.0 0.0
0.00013547158608986215 -8.631584679866992e-06 0.0 0.0018145639864877079 0.0 0.0
0.00048702818275165303 -0.0003911081947731998 0.0 0.0023370022605785088 0.0 0.0
0.0009090811561007639 -0.003466518960614453 0.0 0.0015303133398912134 0.0 0.0
0.0006614262998717249 -0.0026848652073621715 0.0 -0.0014350126340941093 0.0 0.0
0.00033441820016580614 -0.00042256814712427637 0.0 -0.002176032446233598 0.0 0.0
3.479882716941945e-05 1.2227977379377535e-05 0.0 -0.001979624822301165 0.0 0.0
0.0001681611007594544 4.359405618753168e-06 0.0 -0.0018296151777900359 0.0 0.0
0.00038378387655237106 -0.00012153279025656308 0.0 -0.0018587935270924696 0.0 0.0
0.0006011171782363573 -0.0002463573347746911 0.0 -0.001967592694711826 0.0 0.0
0.0008403591257340554 -0.00036204744231592656 0.0 -0.0020740290547872284 0.0 0.0
0.001162829844001711 -0.0005017824735520251 0.0 -0.002144902449929045 0.0 0.0
0.001619918798292181 -0.0007352496506059102 0.0 -0.002256922422360732 0.0 0.0
0.0022495446023304993 -0.0011301196802476414 0.0 -0.0024926174847729457 0.0 0.0
0.0030571780165765247 -0.001704131568495288 0.0 -0.0029737635690112708 0.0 0.0
0.004019725844301569 -0.0024599421081948716 0.0 -0.003558138988364692 0.0 0.0
0.005171374275566008 -0.003406112771928633 0.0 -0.004220137362643146 0.0 0.0
0.00660791330693422 -0.004656896651065512 0.0 -0.004970116591471516 0.0 0.0
0.008435439068953717 -0.00631961340021304 0.0 -0.00583518297270934 0.0 0.0
0.010728503653636997 -0.008475950787344692 0.0 -0.006827260025877614 0.0 0.0
0.013521498945754495 -0.011142686952999931 0.0 -0.007859153092364323 0.0 0.0
0.016788582065685783 -0.014313671025221436 0.0 -0.008624076254995817 0.0 0.0
0.0204653392809721 -0.017895934768782335 0.0 -0.008630620298526664 0.0 0.0
0.02435820211536414 -0.021803708477377115 0.0 -0.007357412981287516 0.0 0.0
0.026317189091818776 -0.025370886533861808 0.0 6.22895832136372e-15 0.0 0.0
0.024358202115361917 -0.021803708477374985 0.0 0.0073574129813037785 0.0 0.0
0.02046533928096842 -0.017895934768781593 0.0 0.008630620298545132 0.0 0.0
0.016788582065680718 -0.014313671025215963 0.0 0.008624076255006798 0.0 0.0
0.01352149894574911 -0.011142686952997121 0.0 0.007859153092365095 0.0 0.0
0.01072850365363175 -0.008475950787339741 0.0 0.006827260025874162 0.0 0.0
0.00843543906894877 -0.006319613400209295 0.0 0.005835182972707317 0.0 0.0
0.006607913306929804 -0.004656896651060787 0.0 0.004970116591471618 0.0 0.0
0.00517137427556143 -0.003406112771925294 0.0 0.004220137362641269 0.0 0.0
0.004019725844296807 -0.0024599421081890143 0.0 0.0035581389883614263 0.0 0.0
0.003057178016572176 -0.0017041315684913373 0.0 0.002973763569006814 0.0 0.0
0.0022495446023270754 -0.0011301196802456252 0.0 0.0024926174847694337 0.0 0.0
0.0016199187982897495 -0.0007352496506025153 0.0 0.0022569224223597177 0.0 0.0
0.0011628298439999838 -0.0005017824735508986 0.0 0.002144902449927605 0.0 0.0
0.0008403591257331209 -0.0003620474423177722 0.0 0.0020740290547856077 0.0 0.0
0.0006011171782358427 -0.0002463573347743594 0.0 0.0019675926947090453 0.0 0.0
0.00038378387655208093 -0.00012153279025645209 0.0 0.0018587935270898896 0.0 0.0
0.00016816110075932705 4.35940561857846e-06 0.0 0.0018296151777875348 0.0 0.0
3.4798827169333294e-05 1.2227977379666295e-05 0.0 0.0019796248222983775 0.0 0.0
0.00033441820016518516 -0.0004225681471242597 0.0 0.002176032446231068 0.0 0.0
0.0006614262998704798 -0.0026848652073581452 0.0 0.0014350126340931134 0.0 0.0
0.0004904324789714725 -0.0021156050558745402 0.0 -0.0013936671394748133 0.0 0.0
0.000221803257847118 -0.00043484366968606775 0.0 -0.0020585805544539025 0.0 0.0
-5.841578086471248e-05 3.422775735243375e-05 0.0 -0.0020861016813257336 0.0 0.0
-2.397980104590456e-06 7.436545982445925e-05 0.0 -0.0019628147765466688 0.0 0.0
0.00013854824279455275 -9.129209620407519e-06 0.0 -0.001973307508762581 0.0 0.0
0.0002779729534935031 -9.815005875429596e-05 0.0 -0.0020763799074956703 0.0 0.0
0.000414952896784056 -0.00017438729578567056 0.0 -0.0022040891618695995 0.0 0.0
0.0005789694233479502 -0.00025002393880030777 0.0 -0.002303396206334854 0.0 0.0
0.0008069848678713389 -0.00035070512548463796 0.0 -0.0023660250396214024 0.0 0.0
0.001107511516451973 -0.0005047273396977879 0.0 -0.002427200382699626 0.0 0.0
0.001493093491933363 -0.0007298276312403804 0.0 -0.0026177736414644648 0.0 0.0
0.0019703982697773844 -0.0010574219856383162 0.0 -0.0029667011629852078 0.0 0.0
0.0025456744194544134 -0.001468132331401506 0.0 -0.0034304026705269807 0.0 0.0
0.0032711418318137164 -0.002028291092715912 0.0 -0.004008472480135273 0.0 0.0
0.004199970371298919 -0.002797200032930881 0.0 -0.004712418256869527 0.0 0.0
0.00539135405945104 -0.0038271232462712117 0.0 -0.005559350384430893 0.0 0.0
0.006939655960932932 -0.0052200680317178 0.0 -0.0064949546025892535 0.0 0.0
0.00897350412221267 -0.007130134478298023 0.0 -0.007278577399436024 0.0 0.0
0.011549503046925303 -0.009609692222215695 0.0 -0.007385724268269937 0.0 0.0
0.014767049070278291 -0.012675864950701856 0.0 -0.006408672055763378 0.0 0.0
0.016564245535906116 -0.01645754744572264 0.0 4.185020385794047e-15 0.0 0.0
0.014767049070277342 -0.012675864950699722 0.0 0.006408672055776936 0.0 0.0
0.011549503046923147 -0.009609692222215152 0.0 0.007385724268285002 0.0 0.0
0.008973504122209703 -0.007130134478294793 0.0 0.007278577399443964 0.0 0.0
0.006939655960930242 -0.005220068031715508 0.0 0.006494954602589056 0.0 0.0
0.0053913540594487455 -0.0038271232462688196 0.0 0.005559350384428678 0.0 0.0
0.00419997037129691 -0.0027972000329291565 0.0 0.004712418256867957 0.0 0.0
0.0032711418318121196 -0.0020282910927146504 0.0 0.004008472480134787 0.0 0.0
0.002545674419452757 -0.0014681323314015575 0.0 0.0034304026705253322 0.0 0.0
0.0019703982697756284 -0.0010574219856372467 0.0 0.0029667011629822544 0.0 0.0
0.0014930934919316146 -0.0007298276312384361 0.0 0.002617773641461078 0.0 0.0
0.0011075115164506128 -0.0005047273396976135 0.0 0.002427200382697936 0.0 0.0
0.0008069848678703648 -0.00035070512548360754 0.0 0.0023660250396208985 0.0 0.0
0.0005789694233472273 -0.00025002393879851765 0.0 0.0023033962063332284 0.0 0.0
0.0004149528967837495 -0.0001743872957872793 0.0 0.002204089161868121 0.0 0.0
0.00027797295349345084 -9.815005875377459e-05 0.0 0.002076379907493031 0.0 0.0
0.00013854824279466198 -9.12920961993296e-06 0.0 0.0019733075087603404 0.0 0.0
-2.3979801045001776e-06 7.436545982457093e-05 0.0 0.0019628147765442267 0.0 0.0
-5.8415780864690375e-05 3.4227757352628707e-05 0.0 0.0020861016813232503 0.0 0.0
0.00022180325784674527 -0.00043484366968598914 0.0 0.002058580554451166 0.0 0.0
0.0004904324789707178 -0.002115605055871946 0.0 0.001393667139473617 0.0 0.0
0.0003723703753434538 -0.0016801596496138255 0.0 -0.0013310366402032232 0.0 0.0
0.00013753486103739292 -0.00042418174660423437 0.0 -0.0019543346743002505 0.0 0.0
-0.00014462792722891332 5.5861138281668735e-05 0.0 -0.0021387784255459223 0.0 0.0
-0.00016365408957462005 0.0001388667934259453 0.0 -0.002045550077516887 0.0 0.0
-0.00010113180458698402 9.88656285660863e-05 0.0 -0.0020393450877924236 0.0 0.0
-4.5683226441383056e-05 5.013148529812472e-05 0.0 -0.002125679519634681 0.0 0.0
-1.4841147848521392e-05 1.6377107124441722e-05 0.0 -0.0022530670623784254 0.0 0.0
-2.357628222031448e-06 2.5925913793720352e-06 0.0 -0.0023616739140238994 0.0 0.0
8.544153755736473e-07 -9.972240064399917e-07 0.0 -0.002407759274224157 0.0 0.0
1.044671008059052e-06 -7.835166499619033e-07 0.0 -0.002467055574903757 0.0 0.0
7.094176302701791e-07 -5.249454923530409e-07 0.0 -0.00252942149967572 0.0 0.0
-1.3953559418517945e-07 2.2511565509634524e-07 0.0 -0.0027344698879454774 0.0 0.0
-3.1611624697758115e-06 2.4633858076463216e-06 0.0 -0.003045767585751397 0.0 0.0
-7.926664395584398e-06 7.028204850640399e-06 0.0 -0.0035002655506188134 0.0 0.0
-3.5006417668705797e-07 4.856453187606334e-06 0.0 -0.004148964825858294 0.0 0.0
7.573116316617545e-05 -3.6139477952099394e-05 0.0 -0.005005812156263727 0.0 0.0
0.0003769777135519331 -0.00025667724384172407 0.0 -0.006041267496746407 0.0 0.0
0.001171633978579015 -0.0008786841524458997 0.0 -0.007135778947257417 0.0 0.0
0.0026838660490937486 -0.0021894653378081606 0.0 -0.008029819146505648 0.0 0.0
0.004975782366172432 -0.004029780330381815 0.0 -0.007995646973738056 0.0 0.0
0.006314970437446098 -0.007961208006313343 0.0 5.18855791664663e-15 0.0 0.0
0.004975782366172508 -0.004029780330380742 0.0 0.007995646973749826 0.0 0.0
0.002683866049093026 -0.00218946533780602 0.0 0.008029819146515065 0.0 0.0
0.001171633978578663 -0.0008786841524456098 0.0 0.007135778947261933 0.0 0.0
0.0003769777135524038 -0.00025667724384089585 0.0 0.006041267496744848 0.0 0.0
7.57311631667916e-05 -3.613947795157155e-05 0.0 0.0050058121562610355 0.0 0.0
-3.5006417592432174e-07 4.856453185301862e-06 0.0 0.004148964825855711 0.0 0.0
-7.926664394500846e-06 7.028204849429724e-06 0.0 0.003500265550617737 0.0 0.0
-3.16116246846474e-06 2.46338580599992e-06 0.0 0.0030457675857496263 0.0 0.0
-1.3953559283109225e-07 2.2511565505568766e-07 0.0 0.002734469887943033 0.0 0.0
7.094176312871878e-07 -5.249454912290146e-07 0.0 0.002529421499672277 0.0 0.0
1.0446710087581455e-06 -7.835166516707312e-07 0.0 0.002467055574902312 0.0 0.0
8.544153760535288e-07 -9.972240065807923e-07 0.0 0.0024077592742237216 0.0 0.0
-2.357628221740326e-06 2.5925913797159916e-06 0.0 0.0023616739140227003 0.0 0.0
-1.4841147848328153e-05 1.6377107123914888e-05 0.0 0.0022530670623761183 0.0 0.0
-4.568322644113647e-05 5.013148529900892e-05 0.0 0.002125679519632116 0.0 0.0
-0.0001011318045867182 9.886562856743761e-05 0.0 0.0020393450877900067 0.0 0.0
-0.00016365408957449534 0.00013886679342629525 0.0 0.0020455500775141454 0.0 0.0
-0.0001446279272287964 5.5861138281927344e-05 0.0 0.0021387784255436472 0.0 0.0
0.00013753486103734846 -0.0004241817466042201 0.0 0.0019543346742976614 0.0 0.0
0.00037237037534325747 -0.0016801596496118128 0.0 0.0013310366402014848 0.0 0.0
0.0002821059357551678 -0.0013179748855831476 0.0 -0.0012253752293273777 0.0 0.0
6.906553633659953e-05 -0.00039369034843490016 0.0 -0.0018441015805399754 0.0 0.0
-0.00022463695447214407 7.789342653605988e-05 0.0 -0.0021387707274868914 0.0 0.0
-0.0003164744175348658 0.00019875365793687311 0.0 -0.002076185368619822 0.0 0.0
-0.0003340610544176009 0.00020163026386888012 0.0 -0.0020530570288931267 0.0 0.0
-0.0003655280474628909 0.00019591680456637015 0.0 -0.0021138348408656004 0.0 0.0
-0.00044347909823596243 0.0002063014136596883 0.0 -0.0022184321201913766 0.0 0.0
-0.0005837141898209882 0.000254909446745806 0.0 -0.0023059665219378627 0.0 0.0
-0.000805297301024528 0.00034883770860310806 0.0 -0.002366036382853406 0.0 0.0
-0.0011054782375449089 0.000503048785923019 0.0 -0.0024261351865474475 0.0 0.0
-0.0014916622599446218 0.0007288177617817324 0.0 -0.0026170249785149573 0.0 0.0
-0.0019705329605295093 0.001057702736642873 0.0 -0.0029660307252626643 0.0 0.0
-0.00255153286553376 0.0014729332437252848 0.0 -0.003426286073153565 0.0 0.0
-0.0032872066301320073 0.0020435421001067113 0.0 -0.003997210102006238 0.0 0.0
-0.004204104283772188 0.002812475689147277 0.0 -0.004717008164955999 0.0 0.0
-0.005250745308365685 0.0037508464338748835 0.0 -0.005664357414251203 0.0 0.0
-0.006245644503295681 0.00470100654522325 0.0 -0.006883242280729736 0.0 0.0
-0.00684087487255427 0.005347873540063838 0.0 -0.008412754346541759 0.0 0.0
-0.0065642209077598004 0.005188467368653291 0.0 -0.010104714803871004 0.0 0.0
-0.004593952879344031 0.0037216860010177676 0.0 -0.010783567671450518 0.0 0.0
-0.0030437114927479806 -0.000675855493297507 0.0 6.518657141851847e-15 0.0 0.0
-0.004593952879344519 0.003721686001020112 0.0 0.010783567671462125 0.0 0.0
-0.006564220907758973 0.005188467368656729 0.0 0.010104714803881086 0.0 0.0
-0.006840874872551439 0.005347873540061957 0.0 0.00841275434654499 0.0 0.0
-0.0062456445032917154 0.0047010065452154064 0.0 0.006883242280728157 0.0 0.0
-0.005250745308361811 0.0037508464338758835 0.0 0.005664357414248545 0.0 0.0
-0.004204104283768613 0.0028124756891447617 0.0 0.004717008164952974 0.0 0.0
-0.0032872066301281085 0.002043542100104088 0.0 0.0039972101020041406 0.0 0.0
-0.0025515328655294368 0.0014729332437210033 0.0 0.003426286073151265 0.0 0.0
-0.0019705329605251955 0.0010577027366405415 0.0 0.0029660307252596233 0.0 0.0
-0.0014916622599410604 0.0007288177617808495 0.0 0.002617024978511202 0.0 0.0
-0.001105478237542236 0.0005030487859227539 0.0 0.002426135186545264 0.0 0.0
-0.0008052973010225328 0.00034883770860048515 0.0 0.0023660363828527727 0.0 0.0
-0.0005837141898196604 0.00025490944674669703 0.0 0.0023059665219370227 0.0 0.0
-0.0004434790982351559 0.00020630141365927243 0.0 0.002218432120189291 0.0 0.0
-0.0003655280474622229 0.00019591680456693616 0.0 0.0021138348408637738 0.0 0.0
-0.0003340610544171121 0.00020163026386950912 0.0 0.0020530570288911413 0.0 0.0
-0.00031647441753444275 0.00019875365793693947 0.0 0.0020761853686170695 0.0 0.0
-0.00022463695447185762 7.789342653653108e-05 0.0 0.0021387707274849706 0.0 0.0
6.906553633643763e-05 -0.0003936903484348398 0.0 0.001844101580538143 0.0 0.0
0.00028210593575477575 -0.0013179748855815525 0.0 0.0012253752293258998 0.0 0.0
0.00020339985996411145 -0.0010045742428089594 0.0 -0.0010947273540104804 0.0 0.0
7.2179869562725395e-06 -0.00034757327226659653 0.0 -0.0017149340407574798 0.0 0.0
-0.0003002035545233306 0.00010172023540489539 0.0 -0.0020872215585155856 0.0 0.0
-0.0004615029078912285 0.00025449377741506874 0.0 -0.002053595454826997 0.0 0.0
-0.0005592252578176818 0.0002986410662886658 0.0 -0.0020124759277026626 0.0 0.0
-0.0006787067665551629 0.0003361738675697621 0.0 -0.0020390411107872714 0.0 0.0
-0.0008653899038840334 0.00039111859881826893 0.0 -0.0020989371222991555 0.0 0.0
-0.0011667223707913386 0.0005063916371398873 0.0 -0.0021514939499281825 0.0 0.0
-0.0016184165027049954 0.0007330382001308411 0.0 -0.002255960635314357 0.0 0.0
-0.002247539305040234 0.0011281228665201912 0.0 -0.0024899929894043943 0.0 0.0
-0.003056015124222544 0.0017032807898269995 0.0 -0.002972466755597622 0.0 0.0
-0.00401952508543906 0.0024599847313382275 0.0 -0.003558007393468084 0.0 0.0
-0.005175011411408683 0.0034091582123727112 0.0 -0.004212348392991942 0.0 0.0
-0.006622820088840834 0.004670849919400123 0.0 -0.004942649794922394 0.0 0.0
-0.00844871112651905 0.006342067954741321 0.0 -0.005818021648716354 0.0 0.0
-0.01062300470783757 0.008414992650320717 0.0 -0.006983050162043949 0.0 0.0
-0.012920382598163265 0.010677615719248261 0.0 -0.008603707151262345 0.0 0.0
-0.0148837053539278 0.01265919284378731 0.0 -0.010750574963657755 0.0 0.0
-0.01566785218902135 0.013543970730924053 0.0 -0.012988989255235289 0.0 0.0
-0.013923833260239313 0.01185372972626326 0.0 -0.013497279994806769 0.0 0.0
-0.012221268242647272 0.005945971839799829 0.0 6.168242999704532e-15 0.0 0.0
-0.013923833260239417 0.011853729726264342 0.0 0.013497279994821726 0.0 0.0
-0.015667852189019074 0.013543970730923983 0.0 0.012988989255250692 0.0 0.0
-0.014883705353922631 0.012659192843781121 0.0 0.01075057496366304 0.0 0.0
-0.012920382598156269 0.01067761571924193 0.0 0.008603707151262064 0.0 0.0
-0.010623004707830896 0.00841499265031814 0.0 0.006983050162042245 0.0 0.0
-0.008448711126512834 0.0063420679547357365 0.0 0.005818021648713113 0.0 0.0
-0.006622820088833976 0.004670849919394257 0.0 0.0049426497949183745 0.0 0.0
-0.005175011411401478 0.0034091582123681333 0.0 0.004212348392988661 0.0 0.0
-0.004019525085431917 0.00245998473133217 0.0 0.0035580073934629915 0.0 0.0
-0.003056015124216006 0.0017032807898212177 0.0 0.0029724667555923617 0.0 0.0
-0.0022475393050350977 0.0011281228665176203 0.0 0.00248999298940024 0.0 0.0
-0.0016184165027013958 0.0007330382001286967 0.0 0.0022559606353138133 0.0 0.0
-0.0011667223707891139 0.0005063916371388719 0.0 0.002151493949927449 0.0 0.0
-0.0008653899038826537 0.00039111859881872 0.0 0.0020989371222973918 0.0 0.0
-0.000678706766554002 0.0003361738675685774 0.0 0.002039041110785018 0.0 0.0
-0.0005592252578168973 0.0002986410662879997 0.0 0.0020124759277007406 0.0 0.0
-0.0004615029078907096 0.0002544937774149368 0.0 0.002053595454825298 0.0 0.0
-0.0003002035545230025 0.00010172023540486765 0.0 0.0020872215585137893 0.0 0.0
7.217986956193122e-06 -0.00034757327226642187 0.0 0.0017149340407566684 0.0 0.0
0.00020339985996385088 -0.0010045742428078522 0.0 0.0010947273540091796 0.0 0.0
0.00013191266148562445 -0.0007350860640731416 0.0 -0.000956802695241375 0.0 0.0
-5.1352473219270856e-05 -0.00028955027306330083 0.0 -0.0015626042130896475 0.0 0.0
-0.00037321141361849907 0.0001284523293824136 0.0 -0.001985561994585097 0.0 0.0
-0.0005995177279664215 0.00030663250530214056 0.0 -0.0019777410549541934 0.0 0.0
-0.0007755577996189264 0.0003889697123977699 0.0 -0.0019183642465739718 0.0 0.0
-0.0009810781968937355 0.0004697258998023966 0.0 -0.0019007582989673372 0.0 0.0
-0.001279642276016053 0.000565684015833645 0.0 -0.0019021254717260338 0.0 0.0
-0.0017588022968444408 0.0007858728839359562 0.0 -0.0019597458772419923 0.0 0.0
-0.0024906990494589407 0.0012348315417625051 0.0 -0.002200060154909454 0.0 0.0
-0.0034863361284714267 0.0019768420451472648 0.0 -0.0027324850971157727 0.0 0.0
-0.004699326498876014 0.0029598066284300868 0.0 -0.003428509880114705 0.0 0.0
-0.006119297166962355 0.004161592874980223 0.0 -0.004124757893127916 0.0 0.0
-0.00784066602043466 0.005664645021138728 0.0 -0.004844213244033011 0.0 0.0
-0.010016265656626487 0.007637104070967227 0.0 -0.00566042284242923 0.0 0.0
-0.012776204154878177 0.010227405621062344 0.0 -0.006693319998035323 0.0 0.0
-0.01610929805737281 0.01345053284597629 0.0 -0.008112612447364052 0.0 0.0
-0.0197527675931389 0.01706318323297847 0.0 -0.010212049901568775 0.0 0.0
-0.023052985565547583 0.0204339859113053 0.0 -0.013128817462979918 0.0 0.0
-0.024752667633275605 0.022292016514172508 0.0 -0.016120221473692572 0.0 0.0
-0.022816799022973892 0.020615644086717604 0.0 -0.01712878105021198 0.0 0.0
-0.02063389236861099 0.012439157005276282 0.0 6.9219803500164545e-15 0.0 0.0
-0.022816799022972824 0.020615644086716185 0.0 0.01712878105022992 0.0 0.0
-0.02475266763327158 0.022292016514167075 0.0 0.0161202214737117 0.0 0.0
-0.023052985565540245 0.020433985911297116 0.0 0.013128817462988444 0.0 0.0
-0.019752767593129227 0.017063183232974705 0.0 0.010212049901568878 0.0 0.0
-0.01610929805736344 0.013450532845964766 0.0 0.008112612447359936 0.0 0.0
-0.01277620415486965 0.010227405621056253 0.0 0.0066933199980312875 0.0 0.0
-0.010016265656617089 0.007637104070957818 0.0 0.005660422842425648 0.0 0.0
-0.007840666020424701 0.005664645021132344 0.0 0.004844213244027892 0.0 0.0
-0.006119297166952437 0.004161592874970277 0.0 0.0041247578931210395 0.0 0.0
-0.00469932649886684 0.002959806628422717 0.0 0.0034285098801075187 0.0 0.0
-0.003486336128463942 0.001976842045139829 0.0 0.002732485097110977 0.0 0.0
-0.002490699049453515 0.0012348315417599048 0.0 0.002200060154907462 0.0 0.0
-0.001758802296841081 0.0007858728839331981 0.0 0.001959745877240806 0.0 0.0
-0.0012796422760140299 0.0005656840158334003 0.0 0.0019021254717249427 0.0 0.0
-0.0009810781968922387 0.0004697258998008178 0.0 0.001900758298965363 0.0 0.0
-0.0007755577996178949 0.00038896971239729607 0.0 0.0019183642465719574 0.0 0.0
-0.0005995177279657628 0.00030663250530215015 0.0 0.001977741054952916 0.0 0.0
-0.00037321141361806783 0.00012845232938207748 0.0 0.001985561994582994 0.0 0.0
-5.135247321931418e-05 -0.00028955027306323486 0.0 0.0015626042130884082 0.0 0.0
0.00013191266148533215 -0.0007350860640722699 0.0 0.0009568026952401023 0.0 0.0
6.685519412550463e-05 -0.0005069314424223972 0.0 -0.0008154034308788351 0.0 0.0
-0.00010744390670843734 -0.00022416696209686795 0.0 -0.0013880534155435245 0.0 0.0
-0.00044470659230588696 0.00015872763889978965 0.0 -0.00183594196972612 0.0 0.0
-0.0007314565288829908 0.00035540822315263774 0.0 -0.0018491942201581332 0.0 0.0
-0.0009821329478427968 0.00047292408632160535 0.0 -0.0017700844699637319 0.0 0.0
-0.0012718604450955193 0.0005909472536925199 0.0 -0.0017016246558343082 0.0 0.0
-0.0016982427635190284 0.0007492808259320011 0.0 -0.0016592126060522392 0.0 0.0
-0.002396889309729236 0.0011406695139434288 0.0 -0.0017878607651140891 0.0 0.0
-0.003440100246375492 0.0019018607598990226 0.0 -0.0022430261950868455 0.0 0.0
-0.004784871728188973 0.0029971713510199708 0.0 -0.0029416478282923908 0.0 0.0
-0.006371811157452638 0.004347427877398187 0.0 -0.0036508801518486808 0.0 0.0
-0.008245458910306773 0.005988036358940694 0.0 -0.004350233913520446 0.0 0.0
-0.01054967257347613 0.008055768910896157 0.0 -0.005092158510433086 0.0 0.0
-0.01347313952526475 0.010754922089361433 0.0 -0.005975273328225519 0.0 0.0
-0.01718099763841697 0.01427156107244133 0.0 -0.007093607567791588 0.0 0.0
-0.021691118117189805 0.01865475044051299 0.0 -0.008656140008090297 0.0 0.0
-0.026692870383658102 0.023630313238968248 0.0 -0.011007327688650415 0.0 0.0
-0.03129511549174371 0.028358787014686776 0.0 -0.0143651071285486 0.0 0.0
-0.033772835873792234 0.031113186677980985 0.0 -0.01807292835312261 0.0 0.0
-0.03136991366404093 0.029148001575630328 0.0 -0.01988745478166858 0.0 0.0
-0.028534650094748863 0.018707379698760674 0.0 8.999745393367675e-15 0.0 0.0
-0.03136991366403861 0.0291480015756305 0.0 0.01988745478168939 0.0 0.0
-0.03377283587378672 0.0311131866779749 0.0 0.01807292835314354 0.0 0.0
-0.03129511549173476 0.028358787014680226 0.0 0.014365107128560796 0.0 0.0
-0.026692870383646594 0.023630313238958364 0.0 0.011007327688652204 0.0 0.0
-0.021691118117178124 0.01865475044050028 0.0 0.008656140008087315 0.0 0.0
-0.01718099763840576 0.01427156107243514 0.0 0.007093607567787843 0.0 0.0
-0.013473139525252881 0.010754922089349934 0.0 0.00597527332822217 0.0 0.0
-0.010549672573463363 0.008055768910882312 0.0 0.005092158510428202 0.0 0.0
-0.008245458910293942 0.00598803635892927 0.0 0.004350233913513438 0.0 0.0
-0.0063718111574409125 0.004347427877388101 0.0 0.0036508801518403263 0.0 0.0
-0.004784871728179238 0.002997171351010527 0.0 0.0029416478282855356 0.0 0.0
-0.0034401002463680165 0.0019018607598931788 0.0 0.00224302619508315 0.0 0.0
-0.0023968893097242043 0.0011406695139408972 0.0 0.0017878607651120757 0.0 0.0
-0.0016982427635162801 0.0007492808259300473 0.0 0.0016592126060510396 0.0 0.0
-0.0012718604450939503 0.0005909472536922409 0.0 0.0017016246558333558 0.0 0.0
-0.0009821329478416092 0.00047292408632113546 0.0 0.0017700844699617712 0.0 0.0
-0.0007314565288822359 0.0003554082231529451 0.0 0.0018491942201566587 0.0 0.0
-0.0004447065923054439 0.00015872763889957262 0.0 0.001835941969724177 0.0 0.0
-0.00010744390670824593 -0.00022416696209673364 0.0 0.0013880534155423223 0.0 0.0
6.68551941255302e-05 -0.0005069314424218134 0.0 0.0008154034308779203 0.0 0.0
8.93938682801198e-06 -0.0003192287357829606 0.0 -0.0006711319870469269 0.0 0.0
-0.00016035101613232094 -0.00015567593015583357 0.0 -0.0011929027099029375 0.0 0.0
-0.0005147169072487103 0.0001921093310637313 0.0 -0.0016405130259458283 0.0 0.0
-0.0008577149846687936 0.0004011917934261831 0.0 -0.0016681575766579273 0.0 0.0
-0.0011785630472754163 0.0005503684727481208 0.0 -0.001569931840313081 0.0 0.0
-0.0015568609310497442 0.0007015666061165306 0.0 -0.001446863413705978 0.0 0.0
-0.0021400283477368055 0.000967980336978221 0.0 -0.0013947937136720887 0.0 0.0
-0.0030952643089402028 0.0016049246371229267 0.0 -0.0016514639968174412 0.0 0.0
-0.004445912026365016 0.0026933009673109475 0.0 -0.0022550099693010805 0.0 0.0
-0.006102142332806113 0.004094828195540963 0.0 -0.0029328410894039806 0.0 0.0
-0.008053375114725918 0.005796961483896118 0.0 -0.003586925128694699 0.0 0.0
-0.010399083076577578 0.007889731691363044 0.0 -0.0042540535044061165 0.0 0.0
-0.013306018566599284 0.010539082288932234 0.0 -0.004986451435642818 0.0 0.0
-0.016990388482218444 0.013979712110370003 0.0 -0.005885466142434407 0.0 0.0
-0.021650484167419652 0.018424212581394563 0.0 -0.0070402400309349964 0.0 0.0
-0.02732298597910312 0.02394347100614954 0.0 -0.00857798684450061 0.0 0.0
-0.03364481724202306 0.0302463999370495 0.0 -0.010853139371510287 0.0 0.0
-0.039510063718045864 0.03629974355686941 0.0 -0.014282176864510434 0.0 0.0
-0.04269241921490344 0.03989367528110613 0.0 -0.018543185036843046 0.0 0.0
-0.03975730675616817 0.03756337145196468 0.0 -0.021763280841770417 0.0 0.0
-0.03626059328965348 0.024904895693312626 0.0 8.784639682346551e-15 0.0 0.0
-0.03975730675616492 0.03756337145196332 0.0 0.02176328084179271 0.0 0.0
-0.04269241921489626 0.039893675281097565 0.0 0.018543185036864918 0.0 0.0
-0.03951006371803512 0.03629974355686145 0.0 0.014282176864523422 0.0 0.0
-0.03364481724200964 0.03024639993703672 0.0 0.010853139371512234 0.0 0.0
-0.0273229859790891 0.023943471006136478 0.0 0.008577986844499053 0.0 0.0
-0.021650484167405833 0.01842421258138259 0.0 0.007040240030931698 0.0 0.0
-0.016990388482203734 0.013979712110359203 0.0 0.005885466142430998 0.0 0.0
-0.013306018566583888 0.010539082288915612 0.0 0.004986451435639222 0.0 0.0
-0.010399083076562296 0.007889731691352129 0.0 0.0042540535044001 0.0 0.0
-0.008053375114711865 0.005796961483882175 0.0 0.003586925128686782 0.0 0.0
-0.006102142332794245 0.00409482819553021 0.0 0.0029328410893970053 0.0 0.0
-0.004445912026355689 0.002693300967303954 0.0 0.0022550099692967567 0.0 0.0
-0.003095264308933489 0.0016049246371180863 0.0 0.0016514639968148047 0.0 0.0
-0.002140028347732694 0.0009679803369768195 0.0 0.0013947937136706322 0.0 0.0
-0.0015568609310476925 0.0007015666061160743 0.0 0.0014468634137061 0.0 0.0
-0.001178563047274184 0.000550368472747785 0.0 0.0015699318403114748 0.0 0.0
-0.0008577149846680181 0.0004011917934261649 0.0 0.0016681575766562947 0.0 0.0
-0.000514716907248244 0.0001921093310631741 0.0 0.00164051302594469 0.0 0.0
-0.00016035101613217858 -0.00015567593015571095 0.0 0.0011929027099021026 0.0 0.0
8.939386827872492e-06 -0.00031922873578259453 0.0 0.0006711319870464815 0.0 0.0
-4.019033930071413e-05 -0.00017233053356969298 0.0 -0.000524833354277011 0.0 0.0
-0.00020813912429917255 -8.795627926852098e-05 0.0 -0.0009789967055670497 0.0 0.0
-0.0005822727216922006 0.00022692217314765616 0.0 -0.0014005891605595145 0.0 0.0
-0.0009790620307999686 0.0004451936776901724 0.0 -0.0014346061614433922 0.0 0.0
-0.0013665978043887947 0.0006187758594652654 0.0 -0.001320194046822815 0.0 0.0
-0.0018449257375449477 0.0008150426071523421 0.0 -0.0011479195302422933 0.0 0.0
-0.0026222628240104677 0.0012498376135577389 0.0 -0.0011382740686195444 0.0 0.0
-0.003849300365330056 0.0021840672361173436 0.0 -0.0015333056108380542 0.0 0.0
-0.005469755157194873 0.0035411174593227906 0.0 -0.0021044991655533355 0.0 0.0
-0.007418968208062576 0.005226721516044341 0.0 -0.002681632573667148 0.0 0.0
-0.009748765465180194 0.007291105843463652 0.0 -0.003269401036503724 0.0 0.0
-0.01257834976608836 0.009845819678591506 0.0 -0.0038679868870679047 0.0 0.0
-0.01610498635322837 0.013093744475694476 0.0 -0.0045446575109413705 0.0 0.0
-0.020570438335806723 0.0172931419862585 0.0 -0.005405048366212234 0.0 0.0
-0.026169801924909274 0.022659416791998177 0.0 -0.006521755132746021 0.0 0.0
-0.032945536899741716 0.029259551379529805 0.0 -0.00792117180145224 0.0 0.0
-0.04052011199978194 0.03679846970530083 0.0 -0.00981712712918042 0.0 0.0
-0.04759481777703485 0.04411527656799567 0.0 -0.012846141455554273 0.0 0.0
-0.051505062129930494 0.04858501586193222 0.0 -0.01746739229459316 0.0 0.0
-0.04816092726699529 0.04605259901578642 0.0 -0.0228958423075345 0.0 0.0
-0.0440815079234722 0.03127440730298765 0.0 9.376180387654642e-15 0.0 0.0
-0.04816092726699079 0.04605259901578155 0.0 0.02289584230755648 0.0 0.0
-0.05150506212992194 0.04858501586192291 0.0 0.017467392294614456 0.0 0.0
-0.04759481777702238 0.04411527656798682 0.0 0.012846141455567296 0.0 0.0
-0.04052011199976647 0.03679846970528525 0.0 0.009817127129184415 0.0 0.0
-0.03294553689972536 0.029259551379515025 0.0 0.007921171801452217 0.0 0.0
-0.026169801924893113 0.022659416791982787 0.0 0.006521755132744592 0.0 0.0
-0.020570438335789674 0.017293141986247044 0.0 0.005405048366209658 0.0 0.0
-0.0161049863532102 0.013093744475674803 0.0 0.0045446575109384345 0.0 0.0
-0.012578349766070548 0.009845819678577655 0.0 0.0038679868870623163 0.0 0.0
-0.00974876546516388 0.007291105843448834 0.0 0.003269401036495681 0.0 0.0
-0.007418968208048653 0.005226721516030521 0.0 0.0026816325736617372 0.0 0.0
-0.005469755157183606 0.003541117459313901 0.0 0.002104499165548997 0.0 0.0
-0.0038493003653216297 0.0021840672361096297 0.0 0.0015333056108345236 0.0 0.0
-0.002622262824005266 0.0012498376135547536 0.0 0.0011382740686170139 0.0 0.0
-0.0018449257375423296 0.0008150426071508431 0.0 0.001147919530241994 0.0 0.0
-0.0013665978043872933 0.0006187758594649941 0.0 0.0013201940468213565 0.0 0.0
-0.0009790620307988948 0.0004451936776893314 0.0 0.001434606161442057 0.0 0.0
-0.0005822727216917241 0.00022692217314746594 0.0 0.0014005891605584078 0.0 0.0
-0.00020813912429897664 -8.795627926845172e-05 0.0 0.000978996705565813 0.0 0.0
-4.019033930048013e-05 -0.00017233053356942107 0.0 0.0005248333542769453 0.0 0.0
-7.781962809112967e-05 -6.732907377807911e-05 0.0 -0.00037991324846603123 0.0 0.0
-0.00024751400792459566 -2.5038439925553058e-05 0.0 -0.0007487501348696132 0.0 0.0
-0.0006452721308717727 0.0002604743238055715 0.0 -0.0011153305450449 0.0 0.0
-0.0010962470309468333 0.0004884970123208926 0.0 -0.001147652371994261 0.0 0.0
-0.0015504985733718246 0.0006787177639944694 0.0 -0.0010211733438551121 0.0 0.0
-0.0021525680877776464 0.0009482367044576748 0.0 -0.0008174772189026351 0.0 0.0
-0.0031569337101676497 0.0016243441992463794 0.0 -0.0009194203018556755 0.0 0.0
-0.004626488293474093 0.0028222475462118795 0.0 -0.0013178312073939288 0.0 0.0
-0.006485906221074879 0.00440637216684377 0.0 -0.0017576856384463196 0.0 0.0
-0.008738773011775785 0.006385179146765965 0.0 -0.0022306862217287603 0.0 0.0
-0.011454269555647297 0.008817197241923525 0.0 -0.002713335878394173 0.0 0.0
-0.014780805822855462 0.011845893197649483 0.0 -0.0032070157370833927 0.0 0.0
-0.01894581472183779 0.01570700622459168 0.0 -0.0037734936924592294 0.0 0.0
-0.0242005346037199 0.020679840569649208 0.0 -0.00452579991529829 0.0 0.0
-0.03072964443525445 0.02696359879728035 0.0 -0.005534346126464843 0.0 0.0
-0.03853161897316112 0.0345740549692713 0.0 -0.006737302756628763 0.0 0.0
-0.04720493552359338 0.04317718660873481 0.0 -0.008059092159709716 0.0 0.0
-0.05542001770480283 0.05163767561337888 0.0 -0.010101452711351272 0.0 0.0
-0.06022425566300581 0.05715146832243892 0.0 -0.014731124855214089 0.0 0.0
-0.05677022176055089 0.05482119312547568 0.0 -0.02308440877582876 0.0 0.0
-0.052256697896236236 0.038095694347885956 0.0 8.618106228652778e-15 0.0 0.0
-0.056770221760545844 0.05482119312547186 0.0 0.023084408775847026 0.0 0.0
-0.06022425566299566 0.057151468322429316 0.0 0.014731124855232914 0.0 0.0
-0.055420017704788285 0.05163767561336794 0.0 0.010101452711362672 0.0 0.0
-0.04720493552357613 0.043177186608716396 0.0 0.008059092159713366 0.0 0.0
-0.03853161897314284 0.03457405496925626 0.0 0.00673730275662885 0.0 0.0
-0.030729644435235553 0.02696359879726299 0.0 0.005534346126463498 0.0 0.0
-0.024200534603700103 0.020679840569631572 0.0 0.004525799915295936 0.0 0.0
-0.018945814721817195 0.015707006224571888 0.0 0.0037734936924565515 0.0 0.0
-0.014780805822835193 0.011845893197629659 0.0 0.0032070157370793577 0.0 0.0
-0.01145426955562863 0.008817197241906292 0.0 0.002713335878387944 0.0 0.0
-0.008738773011759897 0.006385179146752271 0.0 0.002230686221724217 0.0 0.0
-0.006485906221062027 0.004406372166830842 0.0 0.0017576856384433105 0.0 0.0
-0.004626488293464031 0.002822247546203164 0.0 0.001317831207390314 0.0 0.0
-0.003156933710160926 0.0016243441992410711 0.0 0.0009194203018535667 0.0 0.0
-0.0021525680877742624 0.0009482367044559227 0.0 0.0008174772189023701 0.0 0.0
-0.0015504985733702614 0.000678717763993804 0.0 0.0010211733438545056 0.0 0.0
-0.0010962470309458148 0.0004884970123200489 0.0 0.0011476523719933557 0.0 0.0
-0.0006452721308712496 0.00026047432380571614 0.0 0.0011153305450438467 0.0 0.0
-0.00024751400792436294 -2.5038439925486058e-05 0.0 0.0007487501348689814 0.0 0.0
-7.78196280909429e-05 -6.73290737779182e-05 0.0 0.0003799132484658656 0.0 0.0
-9.958197926476678e-05 -5.421462025563098e-06 0.0 -0.0002454170226223676 0.0 0.0
-0.0002731184968321599 2.789180619959814e-05 0.0 -0.0005054605770488974 0.0 0.0
-0.000700288254896015 0.0002888261658625275 0.0 -0.0007798889598646694 0.0 0.0
-0.0012105672146089767 0.0005325733619154507 0.0 -0.0008034840275260174 0.0 0.0
-0.001738792917635519 0.0007348578088157352 0.0 -0.0006762574003941295 0.0 0.0
-0.0024987857823734897 0.0011377274752877007 0.0 -0.000498979716832068 0.0 0.0
-0.0037239848665764005 0.002072472168703789 0.0 -0.0006723617449097442 0.0 0.0
-0.005400825544356545 0.003469788803242688 0.0 -0.0009424907881983354 0.0 0.0
-0.0074984488321002025 0.005287464860313344 0.0 -0.0012541666425824858 0.0 0.0
-0.010057526200738708 0.007561396048217553 0.0 -0.0015896832853610425 0.0 0.0
-0.013167789688501257 0.010367301671467618 0.0 -0.0019307505645158585 0.0 0.0
-0.017003162507719025 0.013881004564066674 0.0 -0.0022743263041153953 0.0 0.0
-0.021817332623281747 0.018370163643971506 0.0 -0.002680759229666976 0.0 0.0
-0.027876946048877423 0.024126113892943758 0.0 -0.0032656925776351755 0.0 0.0
-0.03532418803353021 0.0313182337900059 0.0 -0.004063051060619669 0.0 0.0
-0.04405849959266051 0.039873683196557666 0.0 -0.00497761877681177 0.0 0.0
-0.05361531192729159 0.04934349941945165 0.0 -0.00577270447818724 0.0 0.0
-0.06283261664857638 0.058661350501222606 0.0 -0.006602839295824311 0.0 0.0
-0.06879417923814957 0.06543064179932233 0.0 -0.009955475381002894 0.0 0.0
-0.06578387326236991 0.06410529046902799 0.0 -0.021553186589992165 0.0 0.0
-0.061131627855035044 0.0458085357918198 0.0 7.099355825435083e-15 0.0 0.0
-0.06578387326236382 0.06410529046902315 0.0 0.021553186590007396 0.0 0.0
-0.0687941792381376 0.06543064179931087 0.0 0.009955475381018224 0.0 0.0
-0.06283261664855984 0.058661350501206966 0.0 0.006602839295833961 0.0 0.0
-0.05361531192727214 0.049343499419434535 0.0 0.005772704478189543 0.0 0.0
-0.044058499592639876 0.03987368319654051 0.0 0.004977618776812248 0.0 0.0
-0.03532418803350902 0.031318233789987215 0.0 0.004063051060619783 0.0 0.0
-0.0278769460488551 0.024126113892923712 0.0 0.0032656925776334564 0.0 0.0
-0.021817332623258478 0.018370163643950155 0.0 0.0026807592296646176 0.0 0.0
-0.01700316250769643 0.013881004564044737 0.0 0.0022743263041125885 0.0 0.0
-0.013167789688480702 0.01036730167144779 0.0 0.001930750564511779 0.0 0.0
-0.010057526200720882 0.007561396048202711 0.0 0.001589683285357046 0.0 0.0
-0.007498448832085473 0.00528746486030142 0.0 0.0012541666425803237 0.0 0.0
-0.005400825544344947 0.0034697888032325184 0.0 0.0009424907881959428 0.0 0.0
-0.0037239848665684295 0.002072472168698951 0.0 0.0006723617449080597 0.0 0.0
-0.0024987857823693216 0.001137727475285004 0.0 0.0004989797168314678 0.0 0.0
-0.0017387929176335957 0.000734857808814428 0.0 0.0006762574003943777 0.0 0.0
-0.001210567214607909 0.0005325733619152617 0.0 0.0008034840275255583 0.0 0.0
-0.0007002882548954217 0.0002888261658626132 0.0 0.0007798889598640585 0.0 0.0
-0.0002731184968319206 2.789180619946648e-05 0.0 0.0005054605770486078 0.0 0.0
-9.958197926469838e-05 -5.421462025440176e-06 0.0 0.0002454170226220294 0.0 0.0
-9.792151081348765e-05 1.3143924102648005e-05 0.0 -0.0001417378331254027 0.0 0.0
-0.0002761656689907039 6.22781984465324e-05 0.0 -0.00025301066458469545 0.0 0.0
-0.0007420833558078444 0.00030728533659828903 0.0 -0.0003819481656745413 0.0 0.0
-0.0013256077307846848 0.0005777652569673939 0.0 -0.0003944529249495098 0.0 0.0
-0.001950941116786297 0.000810081737721363 0.0 -0.0002989484304036609 0.0 0.0
-0.002881173272036312 0.0013905100530324488 0.0 -0.00020123817975886633 0.0 0.0
-0.004303145416062746 0.002551988670205658 0.0 -0.0003214619838471929 0.0 0.0
-0.00616716477561749 0.004124277984173927 0.0 -0.00045186011071200727 0.0 0.0
-0.008502416618585855 0.006176580457877201 0.0 -0.0005993675495316925 0.0 0.0
-0.011371935606636739 0.008746938237915005 0.0 -0.0007651148909489287 0.0 0.0
-0.014884672667130963 0.011934108193434389 0.0 -0.0009223076006243413 0.0 0.0
-0.019242043699381015 0.015947179708682025 0.0 -0.001071245073762152 0.0 0.0
-0.0247221110500464 0.021080039962968637 0.0 -0.0012912263178373826 0.0 0.0
-0.031578245966735155 0.02761136160414003 0.0 -0.0016180356048559703 0.0 0.0
-0.03991756759649619 0.035688101171038225 0.0 -0.002061756280777423 0.0 0.0
-0.049541910212782606 0.04514794916960436 0.0 -0.0025927769790242473 0.0 0.0
-0.05980015989028213 0.055357227596027805 0.0 -0.003014497933995194 0.0 0.0
-0.06959559168015966 0.06515564868273849 0.0 -0.0031401151026996714 0.0 0.0
-0.07691687524113905 0.07275578839016601 0.0 -0.0041861406223274 0.0 0.0
-0.07546214614882574 0.07396655205482577 0.0 -0.01469122635772548 0.0 0.0
-0.07130610210841022 0.05571778937731976 0.0 4.142519660632615e-15 0.0 0.0
-0.07546214614881885 0.07396655205481809 0.0 0.0146912263577346 0.0 0.0
-0.07691687524112514 0.07275578839015491 0.0 0.0041861406223356185 0.0 0.0
-0.06959559168014061 0.06515564868272168 0.0 0.0031401151027050872 0.0 0.0
-0.05980015989026028 0.055357227596007266 0.0 0.003014497933996183 0.0 0.0
-0.049541910212759416 0.04514794916958252 0.0 0.002592776979023233 0.0 0.0
-0.03991756759647235 0.035688101171016326 0.0 0.002061756280777524 0.0 0.0
-0.03157824596671031 0.027611361604117982 0.0 0.0016180356048544208 0.0 0.0
-0.024722111050020288 0.021080039962943553 0.0 0.0012912263178351028 0.0 0.0
-0.01924204369935578 0.015947179708657545 0.0 0.0010712450737600308 0.0 0.0
-0.014884672667108474 0.011934108193415671 0.0 0.0009223076006228128 0.0 0.0
-0.0113719356066173 0.008746938237896868 0.0 0.0007651148909472354 0.0 0.0
-0.008502416618569618 0.006176580457865311 0.0 0.0005993675495302974 0.0 0.0
-0.0061671647756045885 0.004124277984161858 0.0 0.00045186011071067283 0.0 0.0
-0.004303145416053619 0.002551988670198888 0.0 0.0003214619838457438 0.0 0.0
-0.0028811732720311852 0.001390510053028348 0.0 0.0002012381797585718 0.0 0.0
-0.0019509411167839873 0.0008100817377204891 0.0 0.00029894843040431836 0.0 0.0
-0.001325607730783582 0.0005777652569670156 0.0 0.000394452924949638 0.0 0.0
-0.0007420833558072948 0.00030728533659845557 0.0 0.0003819481656740198 0.0 0.0
-0.0002761656689904615 6.227819844651819e-05 0.0 0.0002530106645843951 0.0 0.0
-9.792151081340419e-05 1.314392410266535e-05 0.0 0.00014173783312528693 0.0 0.0
-5.864422818668151e-05 1.1663131480222014e-05 0.0 -9.145558625296384e-05 0.0 0.0
-0.00024167456706188347 7.345520627544106e-05 0.0 -0.00010521802877608353 0.0 0.0
-0.0007634252948515254 0.000313461365755809 0.0 -0.00013108743634269364 0.0 0.0
-0.0014511412997514337 0.0006004424447503055 0.0 -0.00013456834470121755 0.0 0.0
-0.002200952052665933 0.0008574939757679118 0.0 -3.9967194868805464e-05 0.0 0.0
-0.003291644176974242 0.0015281714221645859 0.0 8.139628545490517e-05 0.0 0.0
-0.004880610040490392 0.0027951332408214374 0.0 7.483774191624021e-05 0.0 0.0
-0.006922232400470041 0.004453117610209416 0.0 7.368625604551736e-05 0.0 0.0
-0.009493795205952244 0.006621798116341808 0.0 8.74208546468476e-05 0.0 0.0
-0.012677156725630696 0.009341281820503899 0.0 9.474063696529871e-05 0.0 0.0
-0.016601953151271373 0.012720081909304078 0.0 0.00014611366446383987 0.0 0.0
-0.021500509275950624 0.016988483737138564 0.0 0.00024056719951672033 0.0 0.0
-0.027645755992400562 0.022446739841530478 0.0 0.00028931699902994337 0.0 0.0
-0.035279776892603046 0.02935936238504929 0.0 0.0003307590596328745 0.0 0.0
-0.04448670849307366 0.03787298540229432 0.0 0.0002737246306950677 0.0 0.0
-0.05496846731563835 0.04777713404614077 0.0 8.266463703277514e-05 0.0 0.0
-0.06588517619394152 0.05833676925117511 0.0 -0.00018944266431203567 0.0 0.0
-0.07586133505977112 0.06829218802037773 0.0 -0.00040943025221285446 0.0 0.0
-0.08349350711979504 0.07604788587689922 0.0 -0.0005950637378556809 0.0 0.0
-0.08570281906797922 0.0790240020498374 0.0 -0.009811494214842419 0.0 0.0
-0.08483110224658857 0.06147732886312833 0.0 1.9220736113823023e-15 0.0 0.0
-0.08570281906797168 0.07902400204982978 0.0 0.00981149421484553 0.0 0.0
-0.08349350711977882 0.07604788587688853 0.0 0.0005950637378593897 0.0 0.0
-0.07586133505974887 0.06829218802036098 0.0 0.00040943025221597176 0.0 0.0
-0.06588517619391682 0.058336769251150236 0.0 0.00018944266431333671 0.0 0.0
-0.054968467315612335 0.04777713404611549 0.0 -8.266463703359306e-05 0.0 0.0
-0.044486708493046985 0.037872985402269764 0.0 -0.0002737246306952013 0.0 0.0
-0.035279776892575526 0.029359362385025255 0.0 -0.0003307590596327301 0.0 0.0
-0.02764575599237193 0.022446739841507204 0.0 -0.00028931699903035233 0.0 0.0
-0.021500509275922834 0.016988483737110715 0.0 -0.0002405671995183464 0.0 0.0
-0.0166019531512467 0.012720081909287263 0.0 -0.0001461136644627303 0.0 0.0
-0.01267715672560967 0.009341281820485357 0.0 -9.474063696622115e-05 0.0 0.0
-0.009493795205934517 0.006621798116326751 0.0 -8.742085464733115e-05 0.0 0.0
-0.006922232400455813 0.004453117610196638 0.0 -7.36862560449591e-05 0.0 0.0
-0.004880610040480156 0.002795133240812585 0.0 -7.48377419167391e-05 0.0 0.0
-0.003291644176968157 0.001528171422160175 0.0 -8.139628545394918e-05 0.0 0.0
-0.0022009520526630705 0.0008574939757680774 0.0 3.996719486935472e-05 0.0 0.0
-0.0014511412997501793 0.0006004424447494591 0.0 0.00013456834470120446 0.0 0.0
-0.0007634252948509452 0.00031346136575603317 0.0 0.0001310874363424134 0.0 0.0
-0.0002416745670617119 7.345520627564586e-05 0.0 0.00010521802877583335 0.0 0.0
-5.864422818664028e-05 1.166313148016361e-05 0.0 9.145558625321435e-05 0.0 0.0
SCALARS Statev float 8
LOOKUP_TABLE default
0.0 0.011682719122938438 0.009112226477064826 -0.011197486578009945 0.0020852601009451353 -0.0003827445139723986 0.0 0.0
0.0 0.0032910149147444114 0.0022836331882174 -0.0011907018286013782 -0.0010929313596160233 -0.004507146733381945 0.0 0.0
0.0 -4.614637956084135e-05 -1.5095413251924739e-05 9.013268041250643e-06 6.082145210673903e-06 -5.0607734024266464e-05 0.0 0.0
0.0 6.887020236554095e-05 -1.3520548522954532e-05 1.0113785124169494e-05 3.4067633987849515e-06 1.0567065530128794e-07 0.0 0.0
0.0 0.0003910430698859126 9.755379799980399e-05 -6.836643229062563e-05 -2.9187365709178466e-05 4.330244424733021e-05 0.0 0.0
0.0 0.000802864392013714 0.0008835880980492414 -0.0006707782589089719 -0.00021280983914027002 7.870845669254488e-05 0.0 0.0
0.0 0.0022790957561155396 0.002120525788595203 -0.0016993062359441972 -0.00042121955265100387 9.632644247107997e-05 0.0 0.0
0.0 0.004234372590317523 0.00392043356318301 -0.0032793540007905924 -0.000641079562392418 0.00010533302303466909 0.0 0.0
0.0 0.0068427418544627664 0.006269009157992105 -0.005428669371242586 -0.0008403397867495219 0.00012122126379499051 0.0 0.0
0.0 0.010200515409041653 0.009207043958689307 -0.008175976724872719 -0.0010310672338165907 0.0001373106577242925 0.0 0.0
0.0 0.014439674020222643 0.012855660180962932 -0.011624730478299209 -0.001230929702663722 0.0001985490010097057 0.0 0.0
0.0 0.01950632317652005 0.017457467126921963 -0.016009231003089 -0.001448236123832959 0.00030323124427531373 0.0 0.0
0.0 0.02607650222547657 0.023287006003900615 -0.021609852733016993 -0.0016771532708836207 0.0003545521533693371 0.0 0.0
0.0 0.034372134616813 0.03059293754895996 -0.02867755316592236 -0.0019153843830376053 0.00040224722635195974 0.0 0.0
0.0 0.04454773359505056 0.0395065761746726 -0.03735598307615267 -0.002150593098519858 0.00037823830785395157 0.0 0.0
0.0 0.05646594794364238 0.04987238706412088 -0.0475016473065365 -0.002370739757584437 0.00025251318700476985 0.0 0.0
0.0 0.06943627751481343 0.061124966437818465 -0.05855828585452944 -0.00256668058328906 3.13091560644671e-05 0.0 0.0
0.0 0.08230409226079423 0.0722759222247003 -0.06954672102121395 -0.002729201203486274 -0.00020735520299556675 0.0 0.0
0.0 0.09359950023789929 0.08205692735659215 -0.07920647121136692 -0.002850456145225209 -0.0003146418617048759 0.0 0.0
0.0 0.1015462646148321 0.08911255368501789 -0.08619730651391286 -0.002915247171105186 -0.0003496069937965929 0.0 0.0
0.0 0.10453152071826056 0.09181183712037605 -0.08889868051500685 -0.0029131566053693186 9.840218917478438e-16 0.0 0.0
0.0 0.10154626461482566 0.0891125536850122 -0.08619730651390733 -0.0029152471711047377 0.0003496069938006166 0.0 0.0
0.0 0.09359950023788424 0.0820569273565788 -0.07920647121135443 -0.002850456145224354 0.0003146418617094031 0.0 0.0
0.0 0.082304092260771 0.07227592222467985 -0.06954672102119439 -0.00272920120348548 0.0002073552029989447 0.0 0.0
0.0 0.06943627751478695 0.06112496643779526 -0.05855828585450721 -0.002566680583288069 -3.1309156064321386e-05 0.0 0.0
0.0 0.056465947943615695 0.04987238706409726 -0.04750164730651366 -0.002370739757583575 -0.0002525131870058845 0.0 0.0
0.0 0.04454773359502365 0.03950657617464888 -0.0373559830761298 -0.0021505930985190554 -0.0003782383078545352 0.0 0.0
0.0 0.034372134616784726 0.030592937548935117 -0.028677553165898415 -0.0019153843830367098 -0.00040224722635271294 0.0 0.0
0.0 0.02607650222544876 0.023287006003876003 -0.021609852732993665 -0.0016771532708823138 -0.0003545521533696494 0.0 0.0
0.0 0.019506323176491164 0.01745746712689647 -0.01600923100306433 -0.0014482361238321517 -0.00030323124427534593 0.0 0.0
0.0 0.014439674020199543 0.01285566018094222 -0.011624730478279902 -0.001230929702662322 -0.0001985490010107452 0.0 0.0
0.0 0.010200515409020287 0.009207043958670542 -0.008175976724854924 -0.001031067233815624 -0.00013731065772501337 0.0 0.0
0.0 0.006842741854447482 0.006269009157978041 -0.00542866937122966 -0.0008403397867483787 -0.0001212212637951129 0.0 0.0
0.0 0.004234372590305567 0.003920433563171581 -0.003279354000780272 -0.0006410795623913036 -0.00010533302303491026 0.0 0.0
0.0 0.0022790957561079177 0.002120525788587256 -0.0016993062359374439 -0.0004212195526498105 -9.632644247133161e-05 0.0 0.0
0.0 0.0008028643920095136 0.0008835880980444384 -0.0006707782589051633 -0.00021280983913927562 -7.870845669228149e-05 0.0 0.0
0.0 0.0003910430698844988 9.755379799955753e-05 -6.836643229049024e-05 -2.9187365709066756e-05 -4.3302444247034016e-05 0.0 0.0
0.0 6.887020236466968e-05 -1.3520548522961303e-05 1.011378512417793e-05 3.4067633987838457e-06 -1.0567065530402915e-07 0.0 0.0
0.0 -4.6146379561102277e-05 -1.50954132519245e-05 9.013268041278709e-06 6.08214521064629e-06 5.0607734023821195e-05 0.0 0.0
0.0 0.003291014914738462 0.0022836331882143974 -0.0011907018285996856 -0.00109293135961471 0.004507146733375315 0.0 0.0
0.0 0.011682719122923634 0.009112226477054815 -0.011197486577995455 0.002085260100940639 0.0003827445139505195 0.0 0.0
0.0 0.009259961639859164 0.006677362463947629 -0.008986328012314294 0.0023089655483666555 -2.399687558666077e-06 0.0 0.0
0.0 0.0016949274113943335 0.0012003791149375086 -0.0005611774520900185 -0.000639201662847488 -0.0031527738466529407 0.0 0.0
0.0 1.5629398890117692e-05 -4.9578585175902504e-06 4.652967516369599e-06 3.0489100122067676e-07 1.444949281535325e-06 0.0 0.0
0.0 9.366156435819427e-06 8.360355346769374e-07 -7.047598662757985e-07 -1.312756684011887e-07 2.754029717678165e-07 0.0 0.0
0.0 0.00013426442818605084 3.6370774582914125e-05 -2.525335733357314e-05 -1.1117417249341112e-05 1.662306146738118e-05 0.0 0.0
0.0 0.0007534241004448032 0.0005570688036475176 -0.00042565154306640644 -0.00013141726058111188 4.18119676133783e-05 0.0 0.0
0.0 0.0018399584218779155 0.0017186474246841364 -0.0013910749257889622 -0.00032757249889517364 -6.330296613310165e-05 0.0 0.0
0.0 0.0036562349192410804 0.0033590410673124014 -0.002840348767591358 -0.0005186922997210429 -0.00018677379032140537 0.0 0.0
0.0 0.0060784899582887846 0.005509087150568142 -0.004827389039080169 -0.0006816981114879715 -0.0003374899958620839 0.0 0.0
0.0 0.009117962833256119 0.008190347822343791 -0.007368142099548657 -0.0008222057227951254 -0.0005053341424737303 0.0 0.0
0.0 0.012924314422739022 0.011503355976267114 -0.010551064264500209 -0.00095229171176691 -0.0006679744870676184 0.0 0.0
0.0 0.017837677483754706 0.01565467122252631 -0.014577289610822445 -0.001077381611703853 -0.0008245278986925395 0.0 0.0
0.0 0.023612851538716197 0.02093984089826503 -0.019743055589550064 -0.001196785308714966 -0.0010584374755726945 0.0 0.0
0.0 0.03127737335431945 0.02760694218786699 -0.026301033469430222 -0.0013059087184367577 -0.0013956310289949467 0.0 0.0
0.0 0.04068736134550527 0.035791289497222434 -0.03439530750428086 -0.0013959819929415802 -0.0018272077469613172 0.0 0.0
0.0 0.05171983019614088 0.04535606587167596 -0.043897234023846585 -0.0014588318478293842 -0.0023433681505198646 0.0 0.0
0.0 0.0637967984449134 0.055775848492864315 -0.05428500784851671 -0.0014908406443475638 -0.002829646937306143 0.0 0.0
0.0 0.0758627698399591 0.06614249893283411 -0.06464591240654133 -0.001496586526292834 -0.0030476542811323686 0.0 0.0
0.0 0.08649484305497485 0.07527569824032404 -0.07379260878840459 -0.0014830894519194185 -0.002749460144693722 0.0 0.0
0.0 0.09414293826581781 0.0818058879123892 -0.0803684744094097 -0.0014374135029795025 -0.0019801697814242005 0.0 0.0
0.0 0.09716287463618163 0.08427903924914532 -0.08291038147978161 -0.0013686577693637061 3.3556057238426362e-15 0.0 0.0
0.0 0.09414293826581108 0.08180588791238302 -0.0803684744094037 -0.0014374135029793476 0.0019801697814328147 0.0 0.0
0.0 0.08649484305496188 0.07527569824031269 -0.07379260878839347 -0.0014830894519191533 0.0027494601447031783 0.0 0.0
0.0 0.07586276983993925 0.06614249893281678 -0.06464591240652433 -0.0014965865262924192 0.0030476542811387402 0.0 0.0
0.0 0.06379679844488977 0.05577584849284389 -0.05428500784849668 -0.001490840644347185 0.002829646937307819 0.0 0.0
0.0 0.05171983019611713 0.045356065871655096 -0.043897234023826316 -0.0014588318478287508 0.0023433681505188957 0.0 0.0
0.0 0.0406873613454818 0.035791289497201714 -0.03439530750426117 -0.00139598199294058 0.0018272077469606346 0.0 0.0
0.0 0.03127737335429304 0.027606942187843927 -0.02630103346940762 -0.0013059087184363 0.0013956310289941036 0.0 0.0
0.0 0.02361285153868936 0.020939840898241645 -0.01974305558952729 -0.0011967853087143574 0.0010584374755712351 0.0 0.0
0.0 0.017837677483728255 0.0156546712225029 -0.014577289610799373 -0.0010773816117035106 0.0008245278986911903 0.0 0.0
0.0 0.01292431442271697 0.011503355976247662 -0.010551064264481581 -0.0009522917117660823 0.0006679744870654017 0.0 0.0
0.0 0.009117962833237684 0.008190347822326926 -0.007368142099532586 -0.0008222057227943374 0.0005053341424719516 0.0 0.0
0.0 0.006078489958274891 0.005509087150554909 -0.004827389039067846 -0.0006816981114870594 0.00033748999586089565 0.0 0.0
0.0 0.0036562349192298307 0.0033590410673015794 -0.002840348767581551 -0.000518692299720029 0.0001867737903201684 0.0 0.0
0.0 0.0018399584218707164 0.0017186474246769104 -0.001391074925782782 -0.0003275724988941278 6.33029661324513e-05 0.0 0.0
0.0 0.0007534241004404096 0.0005570688036438272 -0.0004256515430634844 -0.00013141726058034272 -4.181196761343612e-05 0.0 0.0
0.0 0.0001342644281851002 3.6370774582890706e-05 -2.5253357333592763e-05 -1.1117417249298159e-05 -1.6623061467101e-05 0.0 0.0
0.0 9.366156435350852e-06 8.360355349068776e-07 -7.047598664486785e-07 -1.3127566845803736e-07 -2.7540297180047464e-07 0.0 0.0
0.0 1.562939889002736e-05 -4.957858517499158e-06 4.652967516288494e-06 3.0489100121054084e-07 -1.4449492815533214e-06 0.0 0.0
0.0 0.0016949274113886377 0.0012003791149343985 -0.0005611774520880941 -0.0006392016628463035 0.0031527738466452745 0.0 0.0
0.0 0.00925996163984407 0.006677362463936343 -0.008986328012299045 0.002308965548362695 2.3996875432784836e-06 0.0 0.0
0.0 0.006567813892328307 0.004623234028285381 -0.0064204596869281705 0.0017972256586427876 -0.0016455261939020318 0.0 0.0
0.0 0.001147658328969804 0.0007000727063861019 -0.0002807334088263218 -0.0004193392975597804 -0.0022261382665495037 0.0 0.0
0.0 1.2634912319597936e-08 -1.3678156687548327e-09 1.0394932843731892e-09 3.2832238438154863e-10 4.875689838480855e-10 0.0 0.0
0.0 2.0513452386830695e-06 -1.1953764252345264e-07 8.419836651709083e-08 3.533927600623741e-08 -1.944663144207448e-07 0.0 0.0
0.0 3.0265118829574075e-05 -2.328087176483726e-06 2.5422148526581726e-06 -2.1412767617464682e-07 5.963072306043414e-06 0.0 0.0
0.0 0.00047317242758577386 0.0002748191427289228 -0.00020492436479849723 -6.989477793042549e-05 1.910253241902623e-05 0.0 0.0
0.0 0.0012788383058737476 0.00124973691047231 -0.0009923835784383232 -0.00025735333203398693 -0.00017917321000127188 0.0 0.0
0.0 0.002919345543320129 0.0026845383217261837 -0.0022373809822138066 -0.00044715733951237525 -0.00044000527132737077 0.0 0.0
0.0 0.005033649452311285 0.0045945497183358 -0.003976516482607903 -0.0006180332357278974 -0.0007503826967963814 0.0 0.0
0.0 0.007765753573105279 0.006968492545617338 -0.006206594790352509 -0.0007618977552648256 -0.0010900886304234369 0.0 0.0
0.0 0.011137647015886076 0.009887030506073164 -0.008995976059203842 -0.0008910544468693197 -0.0014397066991974053 0.0 0.0
0.0 0.015244522851489004 0.013529049600068918 -0.012516052315884329 -0.0010129972841845852 -0.0017996095356018005 0.0 0.0
0.0 0.02073594213155878 0.018150509385424743 -0.017022616046708926 -0.0011278933387158224 -0.002230233770258198 0.0 0.0
0.0 0.027242620566193164 0.024041125134848303 -0.02281025632416661 -0.0012308688106816741 -0.002840190974956927 0.0 0.0
0.0 0.03565091696107504 0.03133024246385722 -0.03001536475196545 -0.001314877711891791 -0.0036459634266277434 0.0 0.0
0.0 0.04554826224929883 0.03990396815341212 -0.038530692550812 -0.0013732756026001085 -0.004575673306174407 0.0 0.0
0.0 0.05643075900247051 0.04931021146338991 -0.047904532732267774 -0.0014056787311221414 -0.005418653695938927 0.0 0.0
0.0 0.06736234385055044 0.058749991559458314 -0.05733552497850618 -0.001414466580952151 -0.005775602174323899 0.0 0.0
0.0 0.07709585452469818 0.06712818399098175 -0.06573047666376022 -0.0013977073272215166 -0.005252051127876726 0.0 0.0
0.0 0.08412108778943278 0.07314777862735866 -0.07178571407170663 -0.0013620645556519748 -0.003745573844942021 0.0 0.0
0.0 0.08696175511346371 0.07547740128488153 -0.07420448155226705 -0.0012729197326144558 7.224906437008904e-15 0.0 0.0
0.0 0.08412108778942676 0.07314777862735296 -0.07178571407170088 -0.0013620645556520169 0.003745573844957551 0.0 0.0
0.0 0.07709585452468672 0.06712818399097167 -0.0657304766637503 -0.0013977073272214184 0.005252051127893034 0.0 0.0
0.0 0.06736234385053458 0.058749991559444215 -0.057335524978492536 -0.0014144665809516306 0.005775602174334676 0.0 0.0
0.0 0.056430759002450426 0.049310211463372514 -0.047904532732250954 -0.0014056787311215607 0.0054186536959417745 0.0 0.0
0.0 0.045548262249278236 0.03990396815339393 -0.038530692550794436 -0.0013732756025995078 0.00457567330617341 0.0 0.0
0.0 0.03565091696105348 0.03133024246383814 -0.030015364751947285 -0.001314877711890848 0.003645963426627172 0.0 0.0
0.0 0.027242620566169246 0.024041125134827382 -0.022810256324146197 -0.0012308688106811806 0.0028401909749559825 0.0 0.0
0.0 0.02073594213153496 0.018150509385403715 -0.017022616046688657 -0.0011278933387150593 0.0022302337702557154 0.0 0.0
0.0 0.01524452285146773 0.013529049600050264 -0.012516052315866366 -0.0010129972841838863 0.0017996095355990744 0.0 0.0
0.0 0.011137647015866245 0.009887030506055066 -0.008995976059186369 -0.0008910544468686932 0.0014397066991938255 0.0 0.0
0.0 0.0077657535730894876 0.006968492545602582 -0.006206594790338605 -0.0007618977552639758 0.0010900886304205026 0.0 0.0
0.0 0.005033649452298182 0.00459454971832354 -0.003976516482596604 -0.0006180332357269354 0.0007503826967940812 0.0 0.0
0.0 0.0029193455433099867 0.00268453832171682 -0.002237380982205443 -0.0004471573395113744 0.0004400052713252968 0.0 0.0
0.0 0.0012788383058680271 0.0012497369104664457 -0.000992383578433436 -0.00025735333203301 0.00017917321000019882 0.0 0.0
0.0 0.000473172427582621 0.0002748191427266129 -0.00020492436479674386 -6.989477792986883e-05 -1.9102532419184953e-05 0.0 0.0
0.0 3.0265118828741357e-05 -2.3280871764654538e-06 2.5422148526345662e-06 -2.1412767616907565e-07 -5.963072305951068e-06 0.0 0.0
0.0 2.0513452384083594e-06 -1.1953764247310268e-07 8.419836648003508e-08 3.5339275993091545e-08 1.9446631443183552e-07 0.0 0.0
0.0 1.2634912310065045e-08 -1.367815667713223e-09 1.0394932835817643e-09 3.283223841315191e-10 -4.875689834762404e-10 0.0 0.0
0.0 0.0011476583289650258 0.0007000727063832097 -0.0002807334088244669 -0.0004193392975587424 0.0022261382665414707 0.0 0.0
0.0 0.006567813892313643 0.0046232340282747605 -0.006420459686913686 0.0017972256586389263 0.0016455261938915586 0.0 0.0
0.0 0.004754518825579037 0.003240129246013872 -0.004596315537350888 0.001356186291337014 -0.001843090071210636 0.0 0.0
0.0 0.0007137645984654003 0.00040862573409164725 -0.000144264179021327 -0.00026436155507032034 -0.0014929825291146806 0.0 0.0
0.0 0.0 0.0 0.0 0.0 0.0 0.0 0.0
0.0 -1.0390837439607566e-06 1.1224192617575011e-07 -8.466471595657498e-08 -2.7577210219183563e-08 -7.31158042041032e-08 0.0 0.0
0.0 1.503026291898179e-05 -1.0321394056538563e-05 7.94821931781421e-06 2.3731747387245957e-06 4.957853779484741e-06 0.0 0.0
0.0 0.00017039482441941875 9.86180538885864e-05 -7.137583377404632e-05 -2.7242220114539762e-05 4.684966845716929e-06 0.0 0.0
0.0 0.0009590035272968637 0.0007702902159370662 -0.0005980311813838664 -0.00017225903455319957 -0.0001611606417079261 0.0 0.0
0.0 0.002206332730787034 0.0020230723541578306 -0.0016580962206774368 -0.00036497613348039377 -0.0005718829095543033 0.0 0.0
0.0 0.004061432059918395 0.003687003090597904 -0.0031450727797811035 -0.0005419303108167997 -0.001014729684989565 0.0 0.0
0.0 0.006433391812982343 0.005757592398759024 -0.005066001171597212 -0.0006915912271618093 -0.0014949461803242642 0.0 0.0
0.0 0.009302023636856404 0.008291319505218346 -0.007469741812710137 -0.0008215776925082098 -0.0019924954117411225 0.0 0.0
0.0 0.012972137300855136 0.011429409859173466 -0.01048852175694589 -0.0009408881022275726 -0.0025084751428331663 0.0 0.0
0.0 0.017420365687177586 0.01541640170488644 -0.014363496772674905 -0.0010529049322115325 -0.003108967807151444 0.0 0.0
0.0 0.023523033379430916 0.02050620893152767 -0.019356305975321217 -0.0011499029562064525 -0.0039032427022747153 0.0 0.0
0.0 0.03077219852616372 0.026872684501144894 -0.025644797894864117 -0.0012278866062807661 -0.00495906553924051 0.0 0.0
0.0 0.0393277881076006 0.03443238968571685 -0.033148064373800454 -0.0012843253119163935 -0.006198986385772198 0.0 0.0
0.0 0.04909398855415528 0.042802775651785474 -0.04148511911766141 -0.001317656534124071 -0.007322648664156941 0.0 0.0
0.0 0.05894823109397402 0.051305654000947706 -0.04997755699499639 -0.001328097005951339 -0.007827860123864504 0.0 0.0
0.0 0.06779608355548365 0.058957517915863095 -0.05764287904738376 -0.0013146388684792615 -0.007208265637071277 0.0 0.0
0.0 0.07426698242856747 0.06457148437488348 -0.06328837050346844 -0.0012831138714150775 -0.005080490225440442 0.0 0.0
0.0 0.07704447639892761 0.06683790947872424 -0.06568126379491662 -0.0011566456838075889 9.367940451143753e-15 0.0 0.0
0.0 0.07426698242856272 0.06457148437487867 -0.06328837050346364 -0.0012831138714150233 0.005080490225461134 0.0 0.0
0.0 0.06779608355547337 0.058957517915853505 -0.057642879047374584 -0.001314638868478877 0.007208265637091132 0.0 0.0
0.0 0.05894823109395977 0.05130565400093495 -0.049977556994983824 -0.001328097005951128 0.00782786012387754 0.0 0.0
0.0 0.0490939885541373 0.042802775651769875 -0.04148511911764644 -0.0013176565341235002 0.0073226486641601455 0.0 0.0
0.0 0.039327788107582265 0.03443238968570069 -0.03314806437378483 -0.001284325311915867 0.00619898638577052 0.0 0.0
0.0 0.030772198526143987 0.026872684501127668 -0.02564479789484733 -0.001227886606280349 0.004959065539239159 0.0 0.0
0.0 0.023523033379410602 0.020506208931509676 -0.019356305975303766 -0.0011499029562059009 0.0039032427022729285 0.0 0.0
0.0 0.01742036568715753 0.015416401704868925 -0.014363496772658125 -0.0010529049322107993 0.003108967807148353 0.0 0.0
0.0 0.01297213730083842 0.011429409859157972 -0.010488521756931433 -0.0009408881022265456 0.002508475142829125 0.0 0.0
0.0 0.009302023636839123 0.008291319505202675 -0.0074697418126951215 -0.0008215776925075477 0.0019924954117362626 0.0 0.0
0.0 0.0064333918129675675 0.005757592398745563 -0.00506600117158461 -0.0006915912271609518 0.001494946180319941 0.0 0.0
0.0 0.004061432059906698 0.0036870030905871783 -0.0031450727797713257 -0.0005419303108158504 0.0010147296849863702 0.0 0.0
0.0 0.002206332730779534 0.002023072354150156 -0.0016580962206707319 -0.0003649761334794251 0.0005718829095517736 0.0 0.0
0.0 0.0009590035272912553 0.0007702902159326369 -0.0005980311813803366 -0.00017225903455230017 0.00016116064170665836 0.0 0.0
0.0 0.00017039482441736576 9.861805388758412e-05 -7.137583377330749e-05 -2.7242220114276748e-05 -4.684966845670974e-06 0.0 0.0
0.0 1.503026291815536e-05 -1.032139405635972e-05 7.948219317676144e-06 2.3731747386835514e-06 -4.9578537793905175e-06 0.0 0.0
0.0 -1.0390837437358132e-06 1.1224192615061098e-07 -8.466471593745809e-08 -2.7577210213149207e-08 7.311580418800225e-08 0.0 0.0
0.0 0.0 0.0 0.0 0.0 0.0 0.0 0.0
0.0 0.0007137645984611667 0.0004086257340892718 -0.00014426417901976967 -0.00026436155506950274 0.001492982529107863 0.0 0.0
0.0 0.004754518825567338 0.003240129246004768 -0.004596315537338348 0.0013561862913335802 0.001843090071202794 0.0 0.0
0.0 0.0032552282959442624 0.002225638249552974 -0.0032002132403097443 0.0009745749907567699 -0.0016036279984890031 0.0 0.0
0.0 0.0005889042058971688 0.00020254382461512847 -4.2990298641147964e-05 -0.00015955352597398035 -0.0008765534902967864 0.0 0.0
0.0 0.0 0.0 0.0 0.0 0.0 0.0 0.0
0.0 1.5028312787509444e-07 -1.5385716863678778e-08 1.1776366407597212e-08 3.6093504560833587e-09 1.561152117108147e-08 0.0 0.0
0.0 -5.884845398053868e-06 1.4682751649002695e-06 -1.1582122680939506e-06 -3.1006289680631235e-07 -1.9127165508903684e-06 0.0 0.0
0.0 6.24565245286621e-05 -6.135357590008212e-06 6.1564721264549975e-06 -2.1114536446651324e-08 2.609909237561741e-05 0.0 0.0
0.0 0.0006356593112669276 0.0003790937547650157 -0.000287924080405322 -9.116967435969385e-05 -0.00010706064363910216 0.0 0.0
0.0 0.0015381071573249692 0.0013845325348857615 -0.001109945149718791 -0.0002745873851669698 -0.0005442305401173009 0.0 0.0
0.0 0.0031197405346057795 0.0027979688321478594 -0.0023462402708165626 -0.0004517285613312965 -0.001123349821185016 0.0 0.0
0.0 0.005111673393703455 0.00456595768279968 -0.003958218488796782 -0.0006077391940028976 -0.0017143040976168298 0.0 0.0
0.0 0.007581170328018314 0.00671854116055832 -0.005978024881340003 -0.0007405162792183161 -0.0023234655285544344 0.0 0.0
0.0 0.010661618319060831 0.00936887115497046 -0.008509386052429933 -0.0008594851025405291 -0.002951673917200368 0.0 0.0
0.0 0.014642890289573074 0.012720830123629994 -0.011752755580088058 -0.0009680745435419247 -0.00366732515843967 0.0 0.0
0.0 0.019425096159134063 0.01703236250034429 -0.015969759232874185 -0.0010626032674700937 -0.004589247757711818 0.0 0.0
0.0 0.025822278451245267 0.02245517985358214 -0.02131917265679515 -0.0011360071967869833 -0.005795676897092258 0.0 0.0
0.0 0.03346679390054134 0.02896095186109522 -0.027772513970285927 -0.001188437890809291 -0.007203215703387333 0.0 0.0
0.0 0.0417904649919762 0.036267935077993196 -0.03504395522410067 -0.0012239798538925383 -0.008507009920666999 0.0 0.0
0.0 0.050508154315834296 0.04381133772083632 -0.042572262668912245 -0.0012390750519240868 -0.009181134684941467 0.0 0.0
0.0 0.058517347749409546 0.05075040478296907 -0.049520080675901516 -0.0012303241070675806 -0.008574946320980706 0.0 0.0
0.0 0.06457922924029652 0.056024791837767506 -0.05482630026133351 -0.0011984915764339363 -0.006077392694617315 0.0 0.0
0.0 0.06736915801231094 0.05827932480054838 -0.057253952776295795 -0.0010253720242526237 9.941700240823081e-15 0.0 0.0
0.0 0.06457922924029108 0.05602479183776191 -0.054826300261327676 -0.0011984915764342266 0.006077392694640551 0.0 0.0
0.0 0.05851734774940094 0.05075040478296071 -0.04952008067589352 -0.00123032410706719 0.008574946321002705 0.0 0.0
0.0 0.05050815431582123 0.0438113377208245 -0.042572262668900504 -0.0012390750519240097 0.009181134684955234 0.0 0.0
0.0 0.04179046499196097 0.0362679350779799 -0.03504395522408801 -0.0012239798538918906 0.008507009920670626 0.0 0.0
0.0 0.033466793900524955 0.02896095186108074 -0.02777251397027184 -0.0011884378908088805 0.00720321570338564 0.0 0.0
0.0 0.025822278451230356 0.022455179853568916 -0.021319172656782633 -0.0011360071967862749 0.005795676897090822 0.0 0.0
0.0 0.0194250961591164 0.017032362500328715 -0.015969759232858944 -0.0010626032674697725 0.004589247757709766 0.0 0.0
0.0 0.014642890289557115 0.012720830123615636 -0.011752755580074216 -0.0009680745435414132 0.003667325158436051 0.0 0.0
0.0 0.010661618319045345 0.009368871154956406 -0.00850938605241653 -0.0008594851025398781 0.0029516739171952717 0.0 0.0
0.0 0.007581170328004329 0.006718541160545723 -0.005978024881328251 -0.0007405162792174695 0.0023234655285486305 0.0 0.0
0.0 0.005111673393690905 0.004565957682788441 -0.003958218488786388 -0.0006077391940020537 0.0017143040976117126 0.0 0.0
0.0 0.003119740534596291 0.002797968832138963 -0.002346240270808591 -0.00045172856133036997 0.0011233498211813545 0.0 0.0
0.0 0.0015381071573184752 0.0013845325348796613 -0.0011099451497136336 -0.0002745873851660278 0.0005442305401146219 0.0 0.0
0.0 0.0006356593112622462 0.0003790937547617813 -0.00028792408040279163 -9.116967435899003e-05 0.00010706064363782329 0.0 0.0
0.0 6.24565245273159e-05 -6.135357590313788e-06 6.156472126668899e-06 -2.111453635475671e-08 -2.609909237557265e-05 0.0 0.0
0.0 -5.884845398245076e-06 1.4682751649414116e-06 -1.1582122681244713e-06 -3.100628968170256e-07 1.912716550917867e-06 0.0 0.0
0.0 1.5028312785351273e-07 -1.538571686135809e-08 1.1776366405820481e-08 3.6093504555372983e-09 -1.561152116871207e-08 0.0 0.0
0.0 0.0 0.0 0.0 0.0 0.0 0.0 0.0
0.0 0.0005889042058928061 0.00020254382461329883 -4.299029863990898e-05 -0.00015955352597338946 0.0008765534902912755 0.0 0.0
0.0 0.003255228295934823 0.002225638249545624 -0.00320021324029942 0.0009745749907537958 0.0016036279984833225 0.0 0.0
0.0 0.0022189578049951484 0.001443946505203751 -0.0020945636071403742 0.0006506171019366238 -0.0012241433435100058 0.0 0.0
0.0 0.0002300814782980729 8.033413084938412e-05 1.075232961763109e-05 -9.108646046701527e-05 -0.0004562243047083616 0.0 0.0
0.0 0.0 0.0 0.0 0.0 0.0 0.0 0.0
0.0 0.0 0.0 0.0 0.0 0.0 0.0 0.0
0.0 -2.463107594846952e-06 1.5737317713097858e-07 -1.1652843990593295e-07 -4.084473722507121e-08 -3.2259491811820597e-07 0.0 0.0
0.0 -1.1620389811765063e-05 -1.3595775683911022e-05 1.082957508019937e-05 2.7662006037115717e-06 1.8797056131417676e-05 0.0 0.0
0.0 0.00018899229083966325 0.0001535860712197932 -0.0001146282193463393 -3.8957851873453986e-05 -6.645286142917259e-05 0.0 0.0
0.0 0.001176834761594875 0.0007706653886941789 -0.0006039008761455156 -0.00016676451254866428 -0.0003867584797221559 0.0 0.0
0.0 0.0020976191774571976 0.0019463738588123456 -0.00159703598567282 -0.00034933787313952484 -0.0010500968173325314 0.0 0.0
0.0 0.003872674744451399 0.003399347310027671 -0.002893935913034354 -0.0005054113969933142 -0.0017361681329091324 0.0 0.0
0.0 0.0058935871056897265 0.005178244335534622 -0.004534938309841843 -0.000643306025692778 -0.0024204367829506294 0.0 0.0
0.0 0.008397062175291334 0.007353563427746322 -0.0065896551913165145 -0.0007639082364298048 -0.0031248016958085848 0.0 0.0
0.0 0.011582140849275644 0.010093151425253032 -0.009220715191089683 -0.0008724362341633506 -0.0039032343164675633 0.0 0.0
0.0 0.015776671628309 0.013616311735806758 -0.012652334645877 -0.0009639770899297495 -0.004876237949260829 0.0 0.0
0.0 0.020955994629995183 0.018097076874493054 -0.01706163421272207 -0.001035442661770977 -0.006141047723244931 0.0 0.0
0.0 0.027171759048501436 0.023540352475243703 -0.022453331985145465 -0.0010870204900982343 -0.007616193342437508 0.0 0.0
0.0 0.03467227595798591 0.02973101265574 -0.028609016864605024 -0.0011219957911349724 -0.008990455628352807 0.0 0.0
0.0 0.0421556398101426 0.03626733988387656 -0.03512427460618325 -0.0011430652776933004 -0.009782685058240254 0.0 0.0
0.0 0.04912854072165342 0.04248477255217717 -0.041342453190728025 -0.0011423193614491511 -0.009314001042364631 0.0 0.0
0.0 0.054878283186884834 0.04745410740862493 -0.04634525276523393 -0.001108854643390992 -0.006751198504196843 0.0 0.0
0.0 0.05775298814373863 0.0497365302146259 -0.04885728134617747 -0.0008792488684484206 9.913077303469464e-15 0.0 0.0
0.0 0.05487828318688048 0.04745410740862008 -0.04634525276522867 -0.0011088546433914263 0.006751198504219697 0.0 0.0
0.0 0.0491285407216459 0.04248477255216949 -0.04134245319072055 -0.0011423193614489202 0.009314001042386898 0.0 0.0
0.0 0.0421556398101325 0.03626733988386719 -0.035124274606174184 -0.0011430652776929834 0.009782685058253242 0.0 0.0
0.0 0.03467227595797348 0.029731012655729135 -0.02860901686459498 -0.0011219957911341668 0.00899045562835592 0.0 0.0
0.0 0.027171759048486815 0.023540352475231046 -0.02245333198513291 -0.0010870204900981322 0.007616193342434968 0.0 0.0
0.0 0.020955994629982735 0.018097076874481866 -0.017061634212711674 -0.00103544266177018 0.00614104772324251 0.0 0.0
0.0 0.015776671628295852 0.013616311735794856 -0.012652334645865515 -0.0009639770899293395 0.00487623794925871 0.0 0.0
0.0 0.011582140849261903 0.010093151425241078 -0.00922071519107819 -0.0008724362341628817 0.003903234316463635 0.0 0.0
0.0 0.008397062175277883 0.007353563427734411 -0.006589655191305192 -0.0007639082364292198 0.0031248016958034244 0.0 0.0
0.0 0.005893587105677841 0.005178244335524254 -0.0045349383098323625 -0.0006433060256918894 0.0024204367829442994 0.0 0.0
0.0 0.00387267474444204 0.0033993473100190678 -0.002893935913026521 -0.0005054113969925457 0.001736168132903732 0.0 0.0
0.0 0.0020976191774498836 0.0019463738588051125 -0.001597035985666507 -0.00034933787313860614 0.0010500968173284893 0.0 0.0
0.0 0.0011768347615886661 0.0007706653886896009 -0.0006039008761417879 -0.00016676451254781294 0.0003867584797196586 0.0 0.0
0.0 0.00018899229083704756 0.00015358607121816523 -0.00011462821934511061 -3.8957851873054505e-05 6.645286142831808e-05 0.0 0.0
0.0 -1.1620389812161212e-05 -1.3595775683418187e-05 1.0829575079812827e-05 2.7662006036053262e-06 -1.879705613079598e-05 0.0 0.0
0.0 -2.463107594682181e-06 1.5737317705613483e-07 -1.165284398473248e-07 -4.084473720880741e-08 3.225949180173865e-07 0.0 0.0
0.0 0.0 0.0 0.0 0.0 0.0 0.0 0.0
0.0 0.0 0.0 0.0 0.0 0.0 0.0 0.0
0.0 0.00023008147829477727 8.033413084816132e-05 1.0752329618467332e-05 -9.108646046662828e-05 0.00045622430470448194 0.0 0.0
0.0 0.002218957804988085 0.001443946505198225 -0.0020945636071324656 0.0006506171019342394 0.0012241433435058156 0.0 0.0
0.0 0.0012745130217135222 0.0008653161140040478 -0.0012567588854579834 0.00039144277145393544 -0.0008552588778786518 0.0 0.0
0.0 8.057978872652432e-05 -5.0718352294109474e-06 5.44395752690274e-05 -4.936774003961655e-05 -0.00014805147479475596 0.0 0.0
0.0 0.0 0.0 0.0 0.0 0.0 0.0 0.0
0.0 0.0 0.0 0.0 0.0 0.0 0.0 0.0
0.0 -2.24616510734497e-06 1.5972522696188962e-07 -1.2573103519584418e-07 -3.3994191766034275e-08 -4.044500699970223e-07 0.0 0.0
0.0 -6.833358756420684e-07 -4.772182179811557e-06 3.881017680260703e-06 8.91164499550939e-07 8.547681375598411e-06 0.0 0.0
0.0 3.7851967241253014e-05 -3.1361124718804564e-06 2.849385367374249e-06 2.8672710450612104e-07 2.1629899462610254e-05 0.0 0.0
0.0 0.0004442836892282224 0.00036172907222162915 -0.00027823119665142885 -8.349787557019999e-05 -0.0002595789604387573 0.0 0.0
0.0 0.00164144597334864 0.0011037018340530435 -0.0008854451398747335 -0.00021825669417830978 -0.000754410966283396 0.0 0.0
0.0 0.0025578175561752426 0.0022821526021405357 -0.0018988483127752901 -0.0003833042893652463 -0.0015307929121869404 0.0 0.0
0.0 0.004286096991742646 0.0036803013880502486 -0.0031587256926115673 -0.0005215756954386803 -0.0022682965249531074 0.0 0.0
0.0 0.006265332372200932 0.005389843448125271 -0.004743773742175413 -0.0006460697059498613 -0.0030108214015189903 0.0 0.0
0.0 0.008746198271421857 0.007532260337500896 -0.006775005361125291 -0.000757254976375607 -0.0038067746487665576 0.0 0.0
0.0 0.011978139706943487 0.010292119750675325 -0.009441641964685395 -0.0008504777859899303 -0.0047687218320854345 0.0 0.0
0.0 0.016085930731263975 0.013826771835189247 -0.01290430867114758 -0.0009224631640416617 -0.005983245129311529 0.0 0.0
0.0 0.021449694525443985 0.018178524282414534 -0.017206176593818602 -0.0009723476885959195 -0.0074131099065239256 0.0 0.0
0.0 0.027024221690759416 0.02323776751230631 -0.022227366665620963 -0.0010104008466853577 -0.008785546692257078 0.0 0.0
0.0 0.03358420278652864 0.028702931344173968 -0.027665239253169004 -0.0010376920910049605 -0.009642230483773608 0.0 0.0
0.0 0.0399858504005705 0.034133495288568745 -0.033087561287949284 -0.0010459340006194655 -0.00937813992620365 0.0 0.0
0.0 0.045253370818196324 0.038797091522001656 -0.03778356673981018 -0.0010135247821914598 -0.007070867609924546 0.0 0.0
0.0 0.04830384819073902 0.04114279386037981 -0.04042613804766915 -0.0007166558127106723 8.952040497778313e-15 0.0 0.0
0.0 0.04525337081819431 0.038797091521998374 -0.03778356673980706 -0.0010135247821912556 0.007070867609945654 0.0 0.0
0.0 0.03998585040056434 0.034133495288562195 -0.0330875612879427 -0.0010459340006195232 0.009378139926224527 0.0 0.0
0.0 0.03358420278652046 0.028702931344166214 -0.02766523925316158 -0.0010376920910046112 0.009642230483785224 0.0 0.0
0.0 0.027024221690749205 0.02323776751229754 -0.022227366665612876 -0.0010104008466846584 0.008785546692258608 0.0 0.0
0.0 0.0214496945254309 0.018178524282403345 -0.017206176593807562 -0.0009723476885957832 0.007413109906520115 0.0 0.0
0.0 0.016085930731253823 0.013826771835179927 -0.01290430867113875 -0.0009224631640411683 0.005983245129308527 0.0 0.0
0.0 0.011978139706935594 0.010292119750667909 -0.00944164196467871 -0.0008504777859891958 0.0047687218320839175 0.0 0.0
0.0 0.008746198271409843 0.0075322603374905605 -0.006775005361115502 -0.0007572549763750601 0.0038067746487625113 0.0 0.0
0.0 0.006265332372190754 0.005389843448116643 -0.0047437737421671825 -0.0006460697059494614 0.0030108214015140827 0.0 0.0
0.0 0.004286096991732989 0.0036803013880418707 -0.0031587256926040785 -0.0005215756954377908 0.0022682965249466412 0.0 0.0
0.0 0.0025578175561674073 0.002282152602133607 -0.0018988483127691457 -0.0003833042893644594 0.0015307929121820187 0.0 0.0
0.0 0.0016414459733421055 0.0011037018340484793 -0.0008854451398709626 -0.00021825669417751588 0.0007544109662802582 0.0 0.0
0.0 0.00044428368922419694 0.0003617290722186717 -0.00027823119664909283 -8.349787556957811e-05 0.0002595789604364966 0.0 0.0
0.0 3.785196723979606e-05 -3.136112472215736e-06 2.8493853676082096e-06 2.867271046074546e-07 -2.1629899462739315e-05 0.0 0.0
0.0 -6.83335876530687e-07 -4.772182179677957e-06 3.881017680157762e-06 8.911644995201162e-07 -8.547681375365828e-06 0.0 0.0
0.0 -2.246165107199524e-06 1.5972522694916917e-07 -1.257310351860552e-07 -3.3994191763110714e-08 4.0445006996736767e-07 0.0 0.0
0.0 0.0 0.0 0.0 0.0 0.0 0.0 0.0
0.0 0.0 0.0 0.0 0.0 0.0 0.0 0.0
0.0 8.057978872441009e-05 -5.07183522999856e-06 5.443957526938212e-05 -4.936774003938371e-05 0.00014805147479257782 0.0 0.0
0.0 0.0012745130217083954 0.0008653161140000878 -0.0012567588854522492 0.00039144277145216163 0.0008552588778753369 0.0 0.0
0.0 0.0009819980716237262 0.0003772457800454181 -0.0005463772597926542 0.00016913147974723593 -0.0004139580811959362 0.0 0.0
0.0 -7.598934344369345e-05 -2.9170570581068098e-05 4.988854696975709e-05 -2.071797638868899e-05 2.332457290295696e-06 0.0 0.0
0.0 0.0 0.0 0.0 0.0 0.0 0.0 0.0
0.0 0.0 0.0 0.0 0.0 0.0 0.0 0.0
0.0 -6.002912790152338e-07 2.361648622678751e-08 -1.719295850391252e-08 -6.423527722869078e-09 -1.2456266137436325e-07 0.0 0.0
0.0 -3.641496178997493e-06 -5.255097158507342e-07 4.045374504861215e-07 1.2097226536459243e-07 1.9989585051539702e-06 0.0 0.0
0.0 -1.2276148079911188e-05 -1.7244153066341563e-05 1.3767992677271669e-05 3.476160389069795e-06 3.836604979709024e-05 0.0 0.0
0.0 9.968950701498883e-05 8.204613146308322e-05 -6.339007351081082e-05 -1.8656057952272374e-05 -0.00011026216263494972 0.0 0.0
0.0 0.0006434439457491457 0.00048106835019561076 -0.00037888435136676794 -0.00010218399882884268 -0.00046706470608565446 0.0 0.0
0.0 0.001780067432844029 0.0012097225580001562 -0.000983707397026741 -0.00022601516097341465 -0.001054042024401093 0.0 0.0
0.0 0.002771423748515696 0.002243308053253844 -0.0018788568480958567 -0.00036445120515798626 -0.0018343067939704744 0.0 0.0
0.0 0.004178832196002887 0.0035008683251433353 -0.00300879822559298 -0.0004920700995503566 -0.0025848774434235936 0.0 0.0
0.0 0.006036938192539143 0.005059969948784419 -0.004452197335374322 -0.0006077726134100953 -0.0033604908974032843 0.0 0.0
0.0 0.008396494468921377 0.0070738130580334955 -0.0063669043356652435 -0.0007069087223682539 -0.004250228088456853 0.0 0.0
0.0 0.01155484831514652 0.00967259010469702 -0.008888353384648719 -0.0007842367200482961 -0.005341103806888671 0.0 0.0
0.0 0.015382262195247347 0.01293281451536894 -0.012093683436986516 -0.0008391310783824237 -0.00660121361135454 0.0 0.0
0.0 0.020144995413092566 0.016803823339296427 -0.01592450385191293 -0.0008793194873834936 -0.007864667612629776 0.0 0.0
0.0 0.02517200019610711 0.021143520084634652 -0.020230443554080164 -0.0009130765305544803 -0.00873675040928691 0.0 0.0
0.0 0.030259122197737166 0.02570427252335114 -0.02476775844750993 -0.0009365140758412153 -0.008722149154083633 0.0 0.0
0.0 0.03528365623280804 0.030001393562778412 -0.02909021433804728 -0.0009111792247311418 -0.006977812162484575 0.0 0.0
0.0 0.038623483077696516 0.03243462784221155 -0.03190132460651081 -0.0005333032357007535 7.539541907464198e-15 0.0 0.0
0.0 0.035283656232806944 0.03000139356277589 -0.02909021433804467 -0.0009111792247312371 0.006977812162502126 0.0 0.0
0.0 0.030259122197733856 0.02570427252334686 -0.0247677584475057 -0.0009365140758411353 0.008722149154101924 0.0 0.0
0.0 0.025172000196100136 0.02114352008462808 -0.02023044355407385 -0.0009130765305542473 0.00873675040929663 0.0 0.0
0.0 0.020144995413084687 0.01680382333928962 -0.015924503851906767 -0.000879319487382849 0.007864667612629973 0.0 0.0
0.0 0.015382262195236356 0.012932814515359927 -0.012093683436977608 -0.0008391310783823267 0.006601213611350238 0.0 0.0
0.0 0.011554848315138927 0.009672590104690343 -0.008888353384642337 -0.0007842367200480045 0.005341103806885946 0.0 0.0
0.0 0.008396494468914963 0.007073813058027791 -0.006366904335660038 -0.0007069087223677519 0.004250228088455226 0.0 0.0
0.0 0.0060369381925300504 0.005059969948776784 -0.004452197335367226 -0.0006077726134095561 0.0033604908973991236 0.0 0.0
0.0 0.004178832195995213 0.003500868325136537 -0.0030087982255867984 -0.000492070099549738 0.0025848774434187954 0.0 0.0
0.0 0.0027714237485085514 0.002243308053247981 -0.0018788568480908163 -0.0003644512051571626 0.0018343067939645486 0.0 0.0
0.0 0.001780067432837895 0.0012097225579955284 -0.0009837073970227921 -0.00022601516097273727 0.0010540420243968726 0.0 0.0
0.0 0.0006434439457451322 0.0004810683501927483 -0.00037888435136453356 -0.00010218399882821443 0.00046706470608317923 0.0 0.0
0.0 9.968950701308641e-05 8.204613146197375e-05 -6.339007350991795e-05 -1.8656057952055893e-05 0.00011026216263369234 0.0 0.0
0.0 -1.2276148080161481e-05 -1.724415306605126e-05 1.3767992677044259e-05 3.4761603890069152e-06 -3.8366049796645775e-05 0.0 0.0
0.0 -3.6414961794651774e-06 -5.255097158246077e-07 4.045374504653e-07 1.2097226535934437e-07 -1.998958505036889e-06 0.0 0.0
0.0 -6.002912788349186e-07 2.3616486216782317e-08 -1.719295849616168e-08 -6.423527720625745e-09 1.2456266134057105e-07 0.0 0.0
0.0 0.0 0.0 0.0 0.0 0.0 0.0 0.0
0.0 0.0 0.0 0.0 0.0 0.0 0.0 0.0
0.0 -7.598934344434338e-05 -2.9170570581052794e-05 4.988854696960128e-05 -2.071797638854863e-05 -2.3324572907659507e-06 0.0 0.0
0.0 0.0009819980716184692 0.0003772457800428037 -0.0005463772597888822 0.00016913147974607925 0.00041395808119325017 0.0 0.0
0.0 0.0002903576342839005 0.00012764849703071664 -0.0001865462708298301 5.889777379911424e-05 -0.00017038650085632917 0.0 0.0
0.0 -4.22178537902072e-05 -1.8926236142616198e-05 2.6809873918631235e-05 -7.883637776015103e-06 2.8061976075506852e-05 0.0 0.0
0.0 2.580384954333123e-06 -5.095703050616618e-09 1.2473865282089541e-08 -7.3781622314717924e-09 5.575304433789819e-07 0.0 0.0
0.0 0.0 0.0 0.0 0.0 0.0 0.0 0.0
0.0 -2.859128898207967e-07 9.242535231306326e-09 -7.084965890506323e-09 -2.157569340802201e-09 -5.122909250329696e-08 0.0 0.0
0.0 -7.614825738753269e-06 6.540747045753833e-07 -5.058724806499774e-07 -1.48202223925398e-07 -2.6488546545648496e-06 0.0 0.0
0.0 2.512384028795618e-06 -6.513531178814496e-06 5.187309793682913e-06 1.3262213851315672e-06 2.6157212578352792e-05 0.0 0.0
0.0 3.893588187538405e-05 -2.1966768280356122e-05 1.6944300684177503e-05 5.022467596178616e-06 3.588615629625093e-05 0.0 0.0
0.0 0.0001584030879364702 6.923109045092106e-05 -5.6041630120769576e-05 -1.3189460330151456e-05 -0.0001733868331783036 0.0 0.0
0.0 0.0006707658287376706 0.0003842222592557013 -0.0003122813048698856 -7.194095438581536e-05 -0.0005448371597624252 0.0 0.0
0.0 0.0012842133133367571 0.000964726917599127 -0.0007935044064009853 -0.0001712225111981414 -0.0011649938575977756 0.0 0.0
0.0 0.0022655235972046475 0.001730980228056895 -0.0014533088932042102 -0.00027767133485268416 -0.0018263130721948354 0.0 0.0
0.0 0.0034651375096827375 0.0027184739869697385 -0.0023271168218775887 -0.00039135716509214856 -0.0025424074523795167 0.0 0.0
0.0 0.005013192363906259 0.004007479705910292 -0.0035093593200272496 -0.0004981203858830391 -0.0033270425877680214 0.0 0.0
0.0 0.00709383901771083 0.005693060257845087 -0.005104419722303355 -0.0005886405355417345 -0.00422547880852892 0.0 0.0
0.0 0.009787962357330874 0.007850685154225061 -0.0071946154188252944 -0.0006560697353997618 -0.005248216491859456 0.0 0.0
0.0 0.013066880906717407 0.010511532883878568 -0.009802252777773504 -0.0007092801061050543 -0.006310937384992605 0.0 0.0
0.0 0.016716567044793684 0.013659581804095594 -0.01290841778348865 -0.0007511640206069436 -0.007154254027456513 0.0 0.0
0.0 0.020825291096394475 0.017212603318187737 -0.016422466026306027 -0.0007901372918817038 -0.007314190975077907 0.0 0.0
0.0 0.025415252898638063 0.021015190516741823 -0.020222266538167645 -0.0007929239785741556 -0.0063134239014923065 0.0 0.0
0.0 0.02879920055662371 0.023550496842617338 -0.023223422089458188 -0.0003270747531591682 5.5335510479315175e-15 0.0 0.0
0.0 0.025415252898638205 0.021015190516740178 -0.020222266538165713 -0.0007929239785744689 0.006313423901506391 0.0 0.0
0.0 0.020825291096393927 0.017212603318185707 -0.016422466026304337 -0.0007901372918813707 0.007314190975092742 0.0 0.0
0.0 0.01671656704478828 0.013659581804090784 -0.012908417783484071 -0.0007511640206066986 0.0071542540274635615 0.0 0.0
0.0 0.013066880906711962 0.010511532883874283 -0.009802252777769626 -0.0007092801061046528 0.006310937384991872 0.0 0.0
0.0 0.009787962357324504 0.007850685154220051 -0.0071946154188205465 -0.0006560697353995004 0.005248216491855485 0.0 0.0
0.0 0.007093839017706013 0.005693060257840954 -0.005104419722299556 -0.0005886405355413981 0.004225478808526973 0.0 0.0
0.0 0.005013192363901299 0.0040074797059061265 -0.0035093593200234575 -0.000498120385882667 0.0033270425877663856 0.0 0.0
0.0 0.003465137509678426 0.0027184739869658943 -0.002327116821874074 -0.00039135716509181956 0.002542407452376743 0.0 0.0
0.0 0.002265523597198229 0.001730980228052342 -0.0014533088932001917 -0.0002776713348521506 0.0018263130721901245 0.0 0.0
0.0 0.001284213313332173 0.0009647269175954123 -0.0007935044063978564 -0.0001712225111975567 0.0011649938575928863 0.0 0.0
0.0 0.0006707658287339472 0.00038422225925337727 -0.0003122813048680268 -7.19409543853501e-05 0.000544837159759972 0.0 0.0
0.0 0.00015840308793426035 6.923109044982373e-05 -5.604163011984553e-05 -1.3189460329978422e-05 0.0001733868331763955 0.0 0.0
0.0 3.893588187469135e-05 -2.1966768280229294e-05 1.6944300684070232e-05 5.022467596159128e-06 -3.5886156296260664e-05 0.0 0.0
0.0 2.5123840278184435e-06 -6.513531178672571e-06 5.18730979357256e-06 1.3262213851000957e-06 -2.6157212577848936e-05 0.0 0.0
0.0 -7.61482573938354e-06 6.540747045886336e-07 -5.058724806602527e-07 -1.482022239284179e-07 2.6488546546665224e-06 0.0 0.0
0.0 -2.8591288959316563e-07 9.24253522329496e-09 -7.084965884329158e-09 -2.15756933896141e-09 5.122909245679573e-08 0.0 0.0
0.0 0.0 0.0 0.0 0.0 0.0 0.0 0.0
0.0 2.5803849539560485e-06 -5.095703049694029e-09 1.2473865280058895e-08 -7.3781622303636574e-09 -5.575304432905505e-07 0.0 0.0
0.0 -4.221785379005688e-05 -1.8926236142259997e-05 2.6809873918185658e-05 -7.883637775925658e-06 -2.8061976074787796e-05 0.0 0.0
0.0 0.0002903576342808544 0.00012764849702953033 -0.00018654627082815412 5.889777379862386e-05 0.0001703865008547446 0.0 0.0
0.0 6.607409756687407e-05 -5.441925905002361e-06 7.326262242971031e-06 -1.884336337968547e-06 1.2382435359583524e-05 0.0 0.0
0.0 -5.099017807538104e-06 5.193541617779645e-07 -7.290447084686913e-07 2.0969054669072862e-07 -9.751247325727007e-07 0.0 0.0
0.0 5.149974561989484e-07 8.315305539707942e-10 5.81062297663047e-10 -1.4125928516329942e-09 1.0360537900382677e-07 0.0 0.0
0.0 5.102853194010992e-07 6.51326980736861e-09 -5.92521034271967e-09 -5.880594646505873e-10 1.0424366580308873e-07 0.0 0.0
0.0 -8.593099250458052e-07 3.008918804294092e-08 -2.426669608445876e-08 -5.822491958475931e-09 -2.039176300560015e-07 0.0 0.0
0.0 2.5641008229970374e-06 -2.518760980933328e-08 1.27120707934381e-08 1.24755390158696e-08 4.767190958111e-07 0.0 0.0
0.0 4.167259133706748e-07 -2.2804494535176925e-06 1.7948943303550465e-06 4.855551231626648e-07 1.905599544272763e-05 0.0 0.0
0.0 1.5893880616976982e-05 -1.4148426211212467e-06 1.3291976797537116e-06 8.56449413675119e-08 -1.568186494621186e-06 0.0 0.0
0.0 7.742316017000922e-05 7.729742674518926e-06 -6.588575654491145e-06 -1.1411670200277255e-06 -8.533137596845771e-05 0.0 0.0
0.0 0.0001366866617473494 1.2465126859612276e-05 -1.1047667878096463e-05 -1.417458981515918e-06 -0.00020684357772329386 0.0 0.0
0.0 0.0004518771668300492 0.00010223731476445445 -9.046463313214069e-05 -1.1772681632313828e-05 -0.0004439557558069649 0.0 0.0
0.0 0.0006976439273966117 0.0003217869658664339 -0.00028444076007217773 -3.734620579425596e-05 -0.0009172867582700932 0.0 0.0
0.0 0.0012209173880753394 0.000664193087676961 -0.0005885478097640449 -7.564527791291552e-05 -0.0014665660004625416 0.0 0.0
0.0 0.0020377253794955637 0.0012170975610639079 -0.001077655326657908 -0.0001394422344060004 -0.0021366079613449832 0.0 0.0
0.0 0.0031362828940833605 0.0020212653017821188 -0.001802683893744201 -0.00021858140803791596 -0.0029049142455020447 0.0 0.0
0.0 0.0046003620826470136 0.0031051602179006034 -0.002805907109228405 -0.00029925310867219866 -0.003744163197010243 0.0 0.0
0.0 0.006527282631776816 0.004526786651787905 -0.004137266047197467 -0.00038952060459043823 -0.004666582754853004 0.0 0.0
0.0 0.009085318712308785 0.006431254196092072 -0.005958660904572998 -0.0004725932915190728 -0.0055279409994416105 0.0 0.0
0.0 0.012043662976715875 0.008861667588762416 -0.00832437861127937 -0.0005372889774830548 -0.005818767265664658 0.0 0.0
0.0 0.015398658539140572 0.011900728498615907 -0.011294830276842922 -0.0006058982217729759 -0.005111485603972208 0.0 0.0
0.0 0.019605892680041294 0.014467531753711972 -0.014389777305190093 -7.775444852188497e-05 3.9666620682554665e-15 0.0 0.0
0.0 0.01539865853914201 0.011900728498615069 -0.011294830276841946 -0.0006058982217731188 0.005111485603982737 0.0 0.0
0.0 0.012043662976716453 0.00886166758876166 -0.00832437861127896 -0.0005372889774826908 0.005818767265675581 0.0 0.0
0.0 0.009085318712304936 0.006431254196089178 -0.00595866090457 -0.0004725932915191806 0.005527940999445109 0.0 0.0
0.0 0.006527282631772757 0.004526786651785518 -0.004137266047195602 -0.00038952060458991776 0.004666582754851436 0.0 0.0
0.0 0.004600362082643956 0.003105160217898485 -0.00280590710922658 -0.00029925310867190397 0.0037441631970071888 0.0 0.0
0.0 0.00313628289408141 0.002021265301780442 -0.001802683893742485 -0.00021858140803795802 0.002904914245500212 0.0 0.0
0.0 0.0020377253794932387 0.0012170975610624895 -0.0010776553266567718 -0.00013944223440571777 0.0021366079613441406 0.0 0.0
0.0 0.001220917388073538 0.0006641930876759945 -0.0005885478097631685 -7.564527791282552e-05 0.0014665660004600746 0.0 0.0
0.0 0.0006976439273943339 0.0003217869658654163 -0.0002844407600713144 -3.734620579410184e-05 0.0009172867582668786 0.0 0.0
0.0 0.00045187716682706014 0.00010223731476342477 -9.046463313121122e-05 -1.1772681632213457e-05 0.00044395575580380127 0.0 0.0
0.0 0.00013668666174700074 1.246512685987927e-05 -1.1047667878312204e-05 -1.4174589815670207e-06 0.00020684357772318606 0.0 0.0
0.0 7.742316016935385e-05 7.729742674428337e-06 -6.588575654421931e-06 -1.1411670200063286e-06 8.533137596774534e-05 0.0 0.0
0.0 1.5893880616400742e-05 -1.414842621168469e-06 1.3291976797964685e-06 8.564494137197885e-08 1.5681864942034582e-06 0.0 0.0
0.0 4.167259129614029e-07 -2.280449453475775e-06 1.7948943303213043e-06 4.855551231544717e-07 -1.9055995442363016e-05 0.0 0.0
0.0 2.5641008225426575e-06 -2.5187609804060635e-08 1.2712070789955e-08 1.2475539014106878e-08 -4.7671909570504365e-07 0.0 0.0
0.0 -8.593099251298585e-07 3.0089188041248155e-08 -2.4266696082362417e-08 -5.822491958886435e-09 2.039176300699479e-07 0.0 0.0
0.0 5.10285319165181e-07 6.513269804796147e-09 -5.925210340276538e-09 -5.880594645190752e-10 -1.0424366575315331e-07 0.0 0.0
0.0 5.149974558099532e-07 8.315305537905433e-10 5.810622967492264e-10 -1.4125928505440177e-09 -1.036053789230171e-07 0.0 0.0
0.0 -5.099017807787676e-06 5.193541618202083e-07 -7.290447085272663e-07 2.0969054670707398e-07 9.751247326860483e-07 0.0 0.0
0.0 6.607409756541631e-05 -5.441925905142122e-06 7.326262243184027e-06 -1.8843363380420389e-06 -1.238243535977199e-05 0.0 0.0
0.0 -5.482176745458009e-06 6.144655668333878e-07 -8.939979309295994e-07 2.795323640961677e-07 -1.1923015443683864e-06 0.0 0.0
0.0 -2.1108290624149173e-07 -8.683573799462681e-08 1.2120105937988626e-07 -3.436532138524691e-08 -4.600709080934822e-08 0.0 0.0
0.0 3.6187657992177032e-06 1.0195274959671077e-08 7.11349756412122e-09 -1.7308772523796264e-08 7.81723116672718e-07 0.0 0.0
0.0 1.2405663355666563e-06 2.296314495505155e-08 -1.9338392250235115e-08 -3.624752704813151e-09 2.542797602654144e-07 0.0 0.0
0.0 7.821947515459587e-08 1.9553413154148733e-08 -1.741372149231297e-08 -2.139691661835925e-09 -6.284691891100786e-09 0.0 0.0
0.0 1.3548064263496657e-06 2.027879397800174e-09 -1.7982440208853433e-09 -2.29635376911699e-10 1.8888268355036466e-07 0.0 0.0
0.0 2.9066383006410996e-06 5.857432500195362e-08 -6.859633937260998e-08 1.0022014370645623e-08 1.9137794914882233e-05 0.0 0.0
0.0 1.0215042334126918e-05 -1.0530401207729686e-07 1.0532673302512274e-07 -2.272094781445233e-11 -1.5987042100680904e-05 0.0 0.0
0.0 8.212033004045285e-05 -1.2722065975136302e-09 3.980568161183285e-09 -2.7083615636569492e-09 -5.525426423424524e-05 0.0 0.0
0.0 0.0001269320859139294 8.525850813102297e-08 -7.710457193469941e-08 -8.15393619632547e-09 -0.00020024826281578182 0.0 0.0
0.0 0.00028300941264088254 1.3024579919471577e-07 -1.251132186854294e-07 -5.1325805092901885e-09 -0.0003155607271632399 0.0 0.0
0.0 0.00034543013164434395 -2.7736667387965642e-09 -3.010491188978168e-08 3.287857862861582e-08 -0.000601698320370389 0.0 0.0
0.0 0.0005170895140781435 7.228295559545374e-07 -5.468368380295754e-07 -1.7599271792496912e-07 -0.0009311578725497819 0.0 0.0
0.0 0.00071357764639002 7.400378799486926e-07 -5.4172577112007606e-08 -6.858653028365867e-07 -0.0014031220809582858 0.0 0.0
0.0 0.0010288422580254416 -7.626912560908483e-06 7.526941050234735e-06 9.99715106734023e-08 -0.002092138308193404 0.0 0.0
0.0 0.0014370531998991218 -6.811090049531999e-06 -2.2557539169728213e-06 9.066843966505091e-06 -0.0030684260797794625 0.0 0.0
0.0 0.002248425304527763 0.00016003034023626998 -0.00020015754285781687 4.01272026215467e-05 -0.004207609574392488 0.0 0.0
0.0 0.003419996218710751 0.0005395127967025629 -0.0006215712574902167 8.205846078765381e-05 -0.005327747673839696 0.0 0.0
0.0 0.005080341939370232 0.0012930196499295165 -0.001432204637516555 0.00013918498758703774 -0.00627500585705272 0.0 0.0
0.0 0.007517435412676641 0.0030626010472459718 -0.0029815274183780157 -8.107362886795702e-05 -0.006297809334640451 0.0 0.0
0.0 0.013019173305261136 0.006013806288214576 -0.006286911436591328 0.0002731051483767546 5.6601858616778244e-15 0.0 0.0
0.0 0.007517435412679299 0.003062601047245246 -0.002981527418377486 -8.107362886775945e-05 0.006297809334650088 0.0 0.0
0.0 0.005080341939369835 0.001293019649928926 -0.0014322046375160411 0.00013918498758711307 0.006275005857055713 0.0 0.0
0.0 0.0034199962187086664 0.0005395127967022252 -0.0006215712574897502 8.205846078752518e-05 0.005327747673838294 0.0 0.0
0.0 0.002248425304523811 0.00016003034023573206 -0.00020015754285717747 4.0127202621444746e-05 0.004207609574387934 0.0 0.0
0.0 0.0014370531998981425 -6.8110900497756735e-06 -2.255753916684234e-06 9.066843966460124e-06 0.003068426079777232 0.0 0.0
0.0 0.0010288422580234228 -7.626912561182922e-06 7.526941050496475e-06 9.99715106864195e-08 0.0020921383081910798 0.0 0.0
0.0 0.0007135776463899644 7.400378801506862e-07 -5.417257735667138e-08 -6.858653027938657e-07 0.001403122080957044 0.0 0.0
0.0 0.0005170895140764207 7.228295559515575e-07 -5.468368380238283e-07 -1.759927179277529e-07 0.000931157872546636 0.0 0.0
0.0 0.00034543013164307814 -2.773666619095721e-09 -3.0104911975179356e-08 3.2878578594253054e-08 0.0006016983203678458 0.0 0.0
0.0 0.0002830094126388371 1.3024579925566488e-07 -1.2511321874221872e-07 -5.1325805134173566e-09 0.0003155607271604256 0.0 0.0
0.0 0.0001269320859139411 8.525850815139835e-08 -7.710457196290815e-08 -8.15393618848258e-09 0.0002002482628160277 0.0 0.0
0.0 8.212033003972e-05 -1.272206589579049e-09 3.980568151404713e-09 -2.708361561830958e-09 5.525426423337867e-05 0.0 0.0
0.0 1.0215042333656815e-05 -1.0530401208228715e-07 1.0532673303408446e-07 -2.2720951783278144e-11 1.598704210056302e-05 0.0 0.0
0.0 2.9066383001850596e-06 5.857432499961626e-08 -6.859633937089647e-08 1.0022014371288369e-08 -1.9137794914593906e-05 0.0 0.0
0.0 1.3548064257701182e-06 2.027879393269517e-09 -1.7982440164533427e-09 -2.2963537682250245e-10 -1.8888268341974747e-07 0.0 0.0
0.0 7.821947466927294e-08 1.955341314824257e-08 -1.741372148698716e-08 -2.13969166125215e-09 6.284691988554587e-09 0.0 0.0
0.0 1.2405663350389034e-06 2.2963144945294832e-08 -1.9338392241929008e-08 -3.624752703366745e-09 -2.542797601527055e-07 0.0 0.0
0.0 3.618765798929172e-06 1.0195274960301875e-08 7.113497562151617e-09 -1.7308772522443827e-08 -7.817231166001966e-07 0.0 0.0
0.0 -2.1108290639360648e-07 -8.683573804357909e-08 1.2120105945092514e-07 -3.436532140736204e-08 4.6007090743066646e-08 0.0 0.0
0.0 -5.482176745314099e-06 6.144655672072901e-07 -8.939979314896021e-07 2.7953236428239265e-07 1.1923015450288955e-06 0.0 0.0
0.0 0.0 0.0 0.0 0.0 0.0 0.0 0.0
0.0 6.892886670520735e-09 3.3563628714706855e-10 -1.0533770858544981e-09 7.17740798705647e-10 4.864026304194327e-09 0.0 0.0
0.0 -7.973792108451382e-07 -1.204917363749536e-08 8.854264138521895e-09 3.1949094989739415e-09 -1.7398262980274483e-07 0.0 0.0
0.0 1.490317100255079e-06 4.241911744592017e-08 -3.470315010590186e-08 -7.71596734001991e-09 3.1235457426870176e-07 0.0 0.0
0.0 -9.046999604837317e-07 -2.5830668004379132e-08 1.7516571732222505e-08 8.314096272158702e-09 -2.619781416867651e-07 0.0 0.0
0.0 -2.041826117842469e-06 -3.2879336197507064e-07 2.614814042665198e-07 6.731195770858354e-08 -1.5697728003088144e-06 0.0 0.0
0.0 1.4366822332152521e-05 3.637299233691688e-06 -2.8933270228474233e-06 -7.43972210844339e-07 2.635767358439671e-05 0.0 0.0
0.0 1.9373674046890808e-05 1.2493626077764682e-06 -1.1515448794682127e-06 -9.781772830823345e-08 -1.3877959806669308e-06 0.0 0.0
0.0 7.740345485359739e-05 -7.731887994727857e-06 6.613205775309671e-06 1.118682219418028e-06 -8.547394568665315e-05 0.0 0.0
0.0 0.00013573686616124393 -1.2329703791809048e-05 1.0917732046699084e-05 1.4119717451098878e-06 -0.0002063443785506696 0.0 0.0
0.0 0.0004477658203608094 -0.00010187871711178174 9.01226672331644e-05 1.1756049878617438e-05 -0.0004441799155179114 0.0 0.0
0.0 0.0007081290517752958 -0.0003213158869037316 0.00028403111475721823 3.7284772146513135e-05 -0.0009138012671624363 0.0 0.0
0.0 0.0012267395967728119 -0.0006669581194665229 0.0005907914459270062 7.61666735395165e-05 -0.001466963436646425 0.0 0.0
0.0 0.0020553187069253915 -0.001228764175769113 0.0010884155564820858 0.00014034861928702766 -0.002132214661226406 0.0 0.0
0.0 0.0031332032194548846 -0.0020248695842572965 0.0018103092239435332 0.00021456036031376256 -0.0029050284756866086 0.0 0.0
0.0 0.004462295013928262 -0.0029739980843004193 0.0027049580318181435 0.0002690400524822749 -0.0038212111559286607 0.0 0.0
0.0 0.005829761482831511 -0.0038933602195584307 0.003605360396518576 0.00028799982303985593 -0.004962114058443598 0.0 0.0
0.0 0.007081417196886294 -0.004432580611653191 0.004182976512440238 0.0002496040992129503 -0.0063604161143346605 0.0 0.0
0.0 0.007363446915137979 -0.004138812565155348 0.003993224636859055 0.0001455879282962975 -0.00802913017471553 0.0 0.0
0.0 0.006422899107722281 -0.0030531196794370526 0.0029616875847266466 9.143209471040414e-05 -0.00944808172499607 0.0 0.0
0.0 0.012245258375217165 -0.0017598862751446336 0.0006540704823539825 0.0011058157927906504 7.611099250848241e-15 0.0 0.0
0.0 0.006422899107726861 -0.0030531196794378514 0.002961687584727775 9.143209471007362e-05 0.009448081725002786 0.0 0.0
0.0 0.00736344691513984 -0.004138812565156052 0.003993224636859964 0.0001455879282960911 0.00802913017472193 0.0 0.0
0.0 0.0070814171968830745 -0.004432580611651402 0.004182976512438603 0.0002496040992127967 0.0063604161143346084 0.0 0.0
0.0 0.005829761482825034 -0.0038933602195535405 0.0036053603965138245 0.00028799982303971976 0.0049621140584395 0.0 0.0
0.0 0.004462295013925726 -0.0029739980842983637 0.0027049580318165138 0.0002690400524818497 0.0038212111559269685 0.0 0.0
0.0 0.0031332032194519564 -0.0020248695842541176 0.00181030922394093 0.00021456036031318755 0.0029050284756838222 0.0 0.0
0.0 0.0020553187069216536 -0.0012287641757663709 0.00108841555647973 0.00014034861928664057 0.0021322146612239006 0.0 0.0
0.0 0.0012267395967683198 -0.0006669581194634932 0.0005907914459243817 7.61666735391112e-05 0.0014669634366422752 0.0 0.0
0.0 0.0007081290517713598 -0.0003213158869017007 0.0002840311147554 3.728477214630067e-05 0.0009138012671587576 0.0 0.0
0.0 0.0004477658203571627 -0.00010187871711048597 9.012266723203453e-05 1.1756049878451328e-05 0.00044417991551458933 0.0 0.0
0.0 0.0001357368661605418 -1.2329703791835042e-05 1.0917732046679e-05 1.4119717451559833e-06 0.00020634437854998955 0.0 0.0
0.0 7.740345485279076e-05 -7.731887994669337e-06 6.613205775270415e-06 1.1186822193988898e-06 8.54739456859797e-05 0.0 0.0
0.0 1.9373674046521868e-05 1.2493626077516552e-06 -1.1515448794398813e-06 -9.781772831177195e-08 1.3877959806592778e-06 0.0 0.0
0.0 1.43668223315455e-05 3.637299233663772e-06 -2.893327022827081e-06 -7.439722108366831e-07 -2.635767358413432e-05 0.0 0.0
0.0 -2.0418261184351443e-06 -3.2879336199231666e-07 2.61481404280526e-07 6.731195771179289e-08 1.5697728004522226e-06 0.0 0.0
0.0 -9.046999610048385e-07 -2.5830668016928637e-08 1.7516571743071845e-08 8.314096273852852e-09 2.619781417877792e-07 0.0 0.0
0.0 1.4903170996868914e-06 4.241911743258753e-08 -3.470315009501489e-08 -7.715967337572316e-09 -3.123545741501756e-07 0.0 0.0
0.0 -7.973792112328151e-07 -1.2049173637036891e-08 8.854264135792826e-09 3.194909501241335e-09 1.7398262987621965e-07 0.0 0.0
0.0 6.892886917525469e-09 3.3563628807735464e-10 -1.0533770848310549e-09 7.177407967547563e-10 -4.8640263531287725e-09 0.0 0.0
0.0 0.0 0.0 0.0 0.0 0.0 0.0 0.0
0.0 0.0 0.0 0.0 0.0 0.0 0.0 0.0
0.0 2.1048115274896888e-08 1.779303116025321e-10 -7.692157692559785e-11 -1.0100873467691951e-10 4.212842558405787e-09 0.0 0.0
0.0 -6.96977332642471e-07 -2.1540156773917086e-08 1.7601164642050715e-08 3.938992131864946e-09 -1.437910681489006e-07 0.0 0.0
0.0 -9.073015980962664e-07 -5.68571413310864e-08 4.755545022616241e-08 9.301691104915119e-09 -2.3445117856962518e-07 0.0 0.0
0.0 6.965073115402075e-06 2.454156366896517e-07 -2.087938670294341e-07 -3.6621769660168775e-08 1.465518200790091e-06 0.0 0.0
0.0 1.4503932822120371e-05 1.6548027466851802e-06 -1.3323834234047607e-06 -3.2241932328040663e-07 7.698580214238468e-06 0.0 0.0
0.0 -1.0341127187758545e-05 2.0828264570925578e-06 -1.735063682553929e-06 -3.477627745385781e-07 5.017337444496817e-06 0.0 0.0
0.0 4.521148441123056e-05 2.1004245486600558e-05 -1.6137635370131014e-05 -4.866610116469689e-06 3.3235707589819944e-05 0.0 0.0
0.0 0.00015782020693826855 -6.932923834460245e-05 5.607929328176276e-05 1.3249945062839804e-05 -0.00017378661962961004 0.0 0.0
0.0 0.0006674038918287635 -0.0003826942889216424 0.00031096565009893504 7.1728638822707e-05 -0.0005425384643126365 0.0 0.0
0.0 0.0012823159654078704 -0.0009639107507727741 0.0007927631663657328 0.0001711475844070414 -0.00116387770968136 0.0 0.0
0.0 0.002265887696604166 -0.0017309038286568786 0.0014531592437505285 0.00027774458490635004 -0.0018268717898647037 0.0 0.0
0.0 0.0034690731340256548 -0.002721068754780949 0.0023292237796605393 0.00039184497512040844 -0.0025394536897083695 0.0 0.0
0.0 0.005024985070691683 -0.004019416756927507 0.003520773315543478 0.0004986434413840282 -0.003308482420853449 0.0 0.0
0.0 0.00710391902479686 -0.005706644351112061 0.005120758726055786 0.0005858856250562733 -0.004209882560218774 0.0 0.0
0.0 0.009687813872476159 -0.007763425728635596 0.007121443413298727 0.0006419823153368706 -0.005369378375831089 0.0 0.0
0.0 0.012493370912429892 -0.009980558552684725 0.009313222732515097 0.0006673358201696179 -0.006936212646156043 0.0 0.0
0.0 0.014844441606989563 -0.011915682618488818 0.01124699927284103 0.0006686833456477871 -0.008970742935912239 0.0 0.0
0.0 0.016316753307444237 -0.012735193037332143 0.012096822498637541 0.0006383705386945982 -0.011088888575681431 0.0 0.0
0.0 0.015212866129675075 -0.01105139261681056 0.010446513114604266 0.0006048795022062915 -0.011625602419164565 0.0 0.0
0.0 0.015391744039944507 -0.00867652779660823 0.006854678987227319 0.0018218488093809083 5.792241686286559e-15 0.0 0.0
0.0 0.015212866129679627 -0.01105139261681166 0.010446513114605326 0.0006048795022063377 0.011625602419176356 0.0 0.0
0.0 0.016316753307445073 -0.012735193037331217 0.012096822498636726 0.0006383705386944756 0.011088888575692485 0.0 0.0
0.0 0.014844441606983286 -0.011915682618483558 0.011246999272836022 0.0006686833456475376 0.008970742935914499 0.0 0.0
0.0 0.01249337091242246 -0.009980558552678546 0.009313222732509488 0.0006673358201690505 0.006936212646154276 0.0 0.0
0.0 0.009687813872470434 -0.00776342572863077 0.007121443413294006 0.0006419823153367588 0.00536937837582862 0.0 0.0
0.0 0.007103919024789862 -0.005706644351106296 0.005120758726050507 0.0005858856250557895 0.004209882560214859 0.0 0.0
0.0 0.005024985070684767 -0.004019416756921265 0.003520773315537583 0.0004986434413836777 0.003308482420849317 0.0 0.0
0.0 0.0034690731340190923 -0.0027210687547753955 0.002329223779655691 0.0003918449751197058 0.0025394536897051364 0.0 0.0
0.0 0.002265887696596161 -0.0017309038286507377 0.0014531592437450791 0.00027774458490565724 0.001826871789858925 0.0 0.0
0.0 0.0012823159654012082 -0.0009639107507674548 0.0007927631663611288 0.00017114758440632587 0.0011638777096755126 0.0 0.0
0.0 0.0006674038918236098 -0.00038269428891843875 0.00031096565009629403 7.172863882214475e-05 0.000542538464309035 0.0 0.0
0.0 0.0001578202069365654 -6.932923834380067e-05 5.607929328114447e-05 1.324994506265611e-05 0.0001737866196286864 0.0 0.0
0.0 4.52114844103206e-05 2.100424548660444e-05 -1.6137635370148314e-05 -4.8666101164561755e-06 -3.3235707590329784e-05 0.0 0.0
0.0 -1.0341127188567398e-05 2.082826456835135e-06 -1.7350636823486818e-06 -3.4776277448645006e-07 -5.017337443620261e-06 0.0 0.0
0.0 1.4503932821677371e-05 1.6548027467252582e-06 -1.3323834234356761e-06 -3.2241932328966084e-07 -7.698580214338765e-06 0.0 0.0
0.0 6.965073114891845e-06 2.454156366566288e-07 -2.0879386700204432e-07 -3.662176965458642e-08 -1.465518200629328e-06 0.0 0.0
0.0 -9.073015986570772e-07 -5.6857141346010775e-08 4.755545023829637e-08 9.301691107725905e-09 2.3445117868003778e-07 0.0 0.0
0.0 -6.969773323641747e-07 -2.1540156766816746e-08 1.7601164636488607e-08 3.938992130327122e-09 1.4379106809095408e-07 0.0 0.0
0.0 2.104811525417068e-08 1.779303114248141e-10 -7.692157684864826e-11 -1.0100873457621018e-10 -4.2128425542012475e-09 0.0 0.0
0.0 0.0 0.0 0.0 0.0 0.0 0.0 0.0
0.0 0.0 0.0 0.0 0.0 0.0 0.0 0.0
0.0 0.0 0.0 0.0 0.0 0.0 0.0 0.0
0.0 -6.673786689358188e-07 -2.6521950268112564e-08 2.1499513791296284e-08 5.022436476819881e-09 -1.3134363579990852e-07 0.0 0.0
0.0 1.8682322036662964e-06 7.292438497842065e-08 -5.975073658410082e-08 -1.3173648394326133e-08 3.735910496881116e-07 0.0 0.0
0.0 2.218327974695837e-06 1.5761194532565892e-07 -1.2381172552585738e-07 -3.380021979983646e-08 6.304970279432896e-07 0.0 0.0
0.0 -1.159167883833035e-05 -1.769278205482552e-06 1.3763098832954788e-06 3.929683221871299e-07 -4.3078407330816785e-06 0.0 0.0
0.0 1.322455974771728e-05 2.858238737245797e-05 -2.2644535534089936e-05 -5.937851838368221e-06 6.258575195902463e-05 0.0 0.0
0.0 0.00011117901650395837 -8.455601867117806e-05 6.55878109856235e-05 1.896820768555466e-05 -0.00011482893974258101 0.0 0.0
0.0 0.000641233991234842 -0.00047951206613756615 0.0003775629772950621 0.00010194908884250377 -0.0004654075560544374 0.0 0.0
0.0 0.001777848878267946 -0.0012080165343171616 0.0009820850490645974 0.0002259314852525646 -0.0010508493354802677 0.0 0.0
0.0 0.00276634503314316 -0.0022431862757048187 0.0018786974554847278 0.00036448882022009003 -0.001834034768652935 0.0 0.0
0.0 0.004179111483824948 -0.0035004349686852437 0.0030084533898206076 0.0004919815788646338 -0.0025860500480747576 0.0 0.0
0.0 0.006036145687323417 -0.0050588433197430996 0.004451074815409838 0.0006077685043332612 -0.0033559914021589854 0.0 0.0
0.0 0.008398261334885757 -0.007078327398188708 0.006370844941071133 0.0007074824571175746 -0.004217542103147986 0.0 0.0
0.0 0.011558168476449844 -0.009686921251721246 0.008903491701568405 0.0007834295501528406 -0.005279695351897017 0.0 0.0
0.0 0.015325444390921492 -0.012893718721196809 0.012064147901660766 0.0008295708195360453 -0.006692590871097529 0.0 0.0
0.0 0.019788099930624914 -0.016446318176734576 0.0156000997533353 0.0008462184233992877 -0.008736616908638016 0.0 0.0
0.0 0.02380895437601639 -0.01971755390925528 0.018888267282624868 0.0008292866266304114 -0.011549719464622523 0.0 0.0
0.0 0.026218739605220392 -0.021456388084698127 0.02067437398543561 0.0007820140992625168 -0.014432340407307061 0.0 0.0
0.0 0.024544714498737512 -0.019658134095750512 0.01894991098529814 0.0007082231104523634 -0.015385023685983287 0.0 0.0
0.0 0.022215387061132616 -0.01583948230239239 0.01334680748117864 0.0024926748212137496 6.43018624457703e-15 0.0 0.0
0.0 0.024544714498740145 -0.019658134095749947 0.018949910985297358 0.000708223110452575 0.01538502368599847 0.0 0.0
0.0 0.026218739605218158 -0.02145638808469391 0.020674373985431756 0.00078201409926214 0.014432340407321418 0.0 0.0
0.0 0.023808954376008388 -0.019717553909247756 0.01888826728261767 0.0008292866266300691 0.011549719464628662 0.0 0.0
0.0 0.019788099930616858 -0.01644631817672765 0.01560009975332878 0.000846218423398876 0.008736616908638268 0.0 0.0
0.0 0.01532544439090931 -0.012893718721186538 0.012064147901650663 0.000829570819535866 0.006692590871092528 0.0 0.0
0.0 0.011558168476441418 -0.009686921251713936 0.008903491701561902 0.0007834295501520304 0.005279695351893422 0.0 0.0
0.0 0.008398261334875073 -0.007078327398179563 0.0063708449410624125 0.0007074824571171536 0.004217542103143784 0.0 0.0
0.0 0.006036145687313593 -0.005058843319734856 0.004451074815401973 0.0006077685043328838 0.0033559914021547366 0.0 0.0
0.0 0.004179111483813256 -0.003500434968675769 0.003008453389811902 0.0004919815788638662 0.0025860500480675242 0.0 0.0
0.0 0.002766345033133482 -0.0022431862756969356 0.001878697455477624 0.0003644888202193111 0.0018340347686463157 0.0 0.0
0.0 0.0017778488782595517 -0.0012080165343106304 0.0009820850490590359 0.00022593148525159413 0.0010508493354748438 0.0 0.0
0.0 0.0006412339912300714 -0.0004795120661342553 0.000377562977292434 0.00010194908884182114 0.00046540755605203724 0.0 0.0
0.0 0.00011117901650166073 -8.455601866976415e-05 6.558781098452143e-05 1.896820768524264e-05 0.00011482893974101972 0.0 0.0
0.0 1.322455974714978e-05 2.8582387372116526e-05 -2.2644535533825526e-05 -5.9378518382908655e-06 -6.258575195859641e-05 0.0 0.0
0.0 -1.1591678839368195e-05 -1.769278205732685e-06 1.3763098834930276e-06 3.929683222396726e-07 4.307840733822403e-06 0.0 0.0
0.0 2.218327974096455e-06 1.576119453339351e-07 -1.2381172553179987e-07 -3.380021980212594e-08 -6.304970279551317e-07 0.0 0.0
0.0 1.8682322031391885e-06 7.292438495947189e-08 -5.975073656882235e-08 -1.3173648390657147e-08 -3.73591049577993e-07 0.0 0.0
0.0 -6.673786687448563e-07 -2.6521950260483167e-08 2.1499513785132376e-08 5.022436475351499e-09 1.3134363576041204e-07 0.0 0.0
0.0 0.0 0.0 0.0 0.0 0.0 0.0 0.0
0.0 0.0 0.0 0.0 0.0 0.0 0.0 0.0
0.0 0.0 0.0 0.0 0.0 0.0 0.0 0.0
0.0 0.0 0.0 0.0 0.0 0.0 0.0 0.0
0.0 -1.9885686319327028e-07 -9.042500065212355e-09 7.070759409378278e-09 1.9717406558339976e-09 -3.727888583608044e-08 0.0 0.0
0.0 -2.4744223030299965e-06 -1.8022640795415001e-07 1.4690897587138403e-07 3.331743208276705e-08 -5.041893378248485e-07 0.0 0.0
0.0 7.007504908059601e-06 4.014625357815617e-07 -3.2776582754916183e-07 -7.369670823242702e-08 1.304253692276444e-06 0.0 0.0
0.0 2.2213741650125284e-05 1.341239193458517e-05 -1.0635581563463879e-05 -2.7768103711213577e-06 2.4913260158129902e-05 0.0 0.0
0.0 4.751998046047253e-05 -1.707576171847578e-05 1.3026335629061958e-05 4.049426089414045e-06 -1.909909473730992e-05 0.0 0.0
0.0 0.0004528840005362043 -0.0003635435513617115 0.00028000833435231037 8.35352170094008e-05 -0.00026417479220026437 0.0 0.0
0.0 0.0016387466531134307 -0.0011019093671644498 0.0008837595199888567 0.0002181498471755934 -0.0007514051152151682 0.0 0.0
0.0 0.002555248503497838 -0.002281190689407959 0.0018977526205670042 0.00038343806884095523 -0.0015276903417769322 0.0 0.0
0.0 0.004287041874423234 -0.0036806069570775386 0.0031590116883081663 0.0005215952687693714 -0.002267858817875413 0.0 0.0
0.0 0.006265037346132702 -0.005389164721841522 0.00474338459339889 0.0006457801284426323 -0.0030125465672344227 0.0 0.0
0.0 0.00874044886649326 -0.007526236514294149 0.006769535599449258 0.000756700914844896 -0.003802668638271349 0.0 0.0
0.0 0.011963864302825243 -0.010281485609272709 0.009430431615906542 0.0008510539933661602 -0.004727214435159486 0.0 0.0
0.0 0.016072107932756652 -0.01382832524654775 0.012903855778952904 0.0009244694675948387 -0.005874937347175848 0.0 0.0
0.0 0.021442915362188612 -0.018195302618522237 0.017225228809486896 0.0009700738090353367 -0.007430581337696281 0.0 0.0
0.0 0.026913713955140747 -0.023107808627518645 0.022125226929493376 0.0009825816980252448 -0.009740093947727329 0.0 0.0
0.0 0.032684350751230114 -0.027685907795072844 0.02673972855692674 0.0009461792381461063 -0.013012822674098734 0.0 0.0
0.0 0.03623435266418643 -0.0302319349256982 0.029370372736803377 0.0008615621888947973 -0.016610734280290054 0.0 0.0
0.0 0.03410483452677944 -0.028023994863597954 0.02729238157266251 0.0007316132909354487 -0.018321628223256416 0.0 0.0
0.0 0.02953721054030823 -0.022899687354453267 0.019831343211578353 0.003068344142874891 8.249043809138712e-15 0.0 0.0
0.0 0.03410483452678197 -0.028023994863597048 0.02729238157266181 0.0007316132909352565 0.01832162822327484 0.0 0.0
0.0 0.03623435266418266 -0.030231934925692705 0.029370372736798347 0.0008615621888943605 0.016610734280307477 0.0 0.0
0.0 0.032684350751222425 -0.027685907795065207 0.026739728556919456 0.0009461792381457344 0.013012822674108807 0.0 0.0
0.0 0.026913713955128572 -0.023107808627507942 0.022125226929483037 0.0009825816980249089 0.009740093947728123 0.0 0.0
0.0 0.02144291536217478 -0.01819530261851024 0.017225228809475277 0.0009700738090349673 0.007430581337692797 0.0 0.0
0.0 0.016072107932746712 -0.013828325246538741 0.012903855778944732 0.000924469467594019 0.005874937347172511 0.0 0.0
0.0 0.011963864302812271 -0.010281485609261303 0.009430431615895598 0.0008510539933656951 0.004727214435155132 0.0 0.0
0.0 0.008740448866478066 -0.007526236514281183 0.006769535599436596 0.0007567009148445842 0.0038026686382660645 0.0 0.0
0.0 0.006265037346119206 -0.005389164721829627 0.004743384593387872 0.0006457801284417585 0.0030125465672275055 0.0 0.0
0.0 0.00428704187441106 -0.0036806069570668176 0.003159011688298143 0.0005215952687686738 0.002267858817867896 0.0 0.0
0.0 0.0025552485034876903 -0.002281190689398887 0.0018977526205589366 0.0003834380688399492 0.0015276903417705625 0.0 0.0
0.0 0.0016387466531051483 -0.0011019093671583826 0.0008837595199838956 0.00021814984717448768 0.0007514051152114184 0.0 0.0
0.0 0.0004528840005319592 -0.0003635435513587933 0.0002800083343500367 8.35352170087566e-05 0.0002641747921982052 0.0 0.0
0.0 4.75199804586771e-05 -1.7075761717942744e-05 1.3026335628655477e-05 4.049426089287206e-06 1.9099094737004138e-05 0.0 0.0
0.0 2.2213741649073662e-05 1.3412391934457035e-05 -1.06355815633608e-05 -2.7768103710962897e-06 -2.491326015786308e-05 0.0 0.0
0.0 7.007504907219711e-06 4.014625357172702e-07 -3.2776582749763057e-07 -7.369670821961124e-08 -1.3042536921157643e-06 0.0 0.0
0.0 -2.474422303145439e-06 -1.8022640795372814e-07 1.4690897587081943e-07 3.331743208291588e-08 5.041893378418852e-07 0.0 0.0
0.0 -1.988568631114358e-07 -9.042500061442109e-09 7.070759406402369e-09 1.9717406550387577e-09 3.72788858200418e-08 0.0 0.0
0.0 0.0 0.0 0.0 0.0 0.0 0.0 0.0
0.0 0.0 0.0 0.0 0.0 0.0 0.0 0.0
0.0 0.0 0.0 0.0 0.0 0.0 0.0 0.0
0.0 0.0 0.0 0.0 0.0 0.0 0.0 0.0
0.0 0.0 0.0 0.0 0.0 0.0 0.0 0.0
0.0 -1.6494797236909553e-06 -1.25180187868091e-07 9.94793065195467e-08 2.570088134854425e-08 -2.9211865650176426e-07 0.0 0.0
0.0 -6.985594449989011e-06 -1.4924129057743251e-06 1.1754467530437345e-06 3.1696615273058945e-07 -2.170612954477143e-06 0.0 0.0
0.0 3.505441515761951e-05 2.5908147092439533e-05 -2.0538334576544992e-05 -5.36981251589432e-06 3.407245004313465e-05 0.0 0.0
0.0 0.00022243238699501665 -0.00016351739880402346 0.00012316790768326555 4.0349491120757915e-05 -7.947752671899391e-05 0.0 0.0
0.0 0.001182113867675757 -0.0007715062568243696 0.0006048211057217717 0.0001666851511025982 -0.00039039048578939564 0.0 0.0
0.0 0.002096502383713376 -0.0019450257676852933 0.0015956684983779296 0.00034935726930736396 -0.001045972879392081 0.0 0.0
0.0 0.0038718753360201643 -0.0033995252455722314 0.0028938922841353952 0.0005056329614368362 -0.0017332905024562894 0.0 0.0
0.0 0.005894316516823759 -0.005179198643492533 0.004535831608426428 0.0006433670350660992 -0.00242013239423037 0.0 0.0
0.0 0.00839636975739851 -0.0073526514216326 0.006589196004129237 0.0007634554175033619 -0.0031267393262783367 0.0 0.0
0.0 0.01157046965176557 -0.010081924838795076 0.009210625437806791 0.0008712994009882763 -0.0038991186375154567 0.0 0.0
0.0 0.01574127362225491 -0.013586462124580935 0.012622404209518632 0.0009640579150623158 -0.004833224278359142 0.0 0.0
0.0 0.020915538998318137 -0.018074099105664678 0.017033807327150294 0.001040291778514368 -0.006013873594719005 0.0 0.0
0.0 0.02720932827705901 -0.023597021629401586 0.02250425036726369 0.0010927712621379064 -0.007555148600103811 0.0 0.0
0.0 0.034782186656898896 -0.029817304043532784 0.028715995211374308 0.001101308832158475 -0.009800628782222575 0.0 0.0
0.0 0.04168450269778231 -0.03567577381917751 0.0346319907665581 0.0010437830526194105 -0.01316704515395651 0.0 0.0
0.0 0.04570727369509646 -0.03896948499858084 0.038054058781516374 0.000915426217064514 -0.017320295218900127 0.0 0.0
0.0 0.043354058766290844 -0.036283670485642995 0.035552547916970136 0.0007311225686728472 -0.020371898397216273 0.0 0.0
0.0 0.037509576211888426 -0.02992698434174587 0.026326015577690053 0.0036009687640557986 8.351392494221344e-15 0.0 0.0
0.0 0.04335405876629185 -0.03628367048564082 0.035552547916968345 0.0007311225686724971 0.020371898397235907 0.0 0.0
0.0 0.045707273695090124 -0.038969484998573396 0.038054058781508776 0.0009154262170645883 0.01732029521891922 0.0 0.0
0.0 0.0416845026977725 -0.03567577381916811 0.034631990766549055 0.0010437830526190603 0.013167045153968191 0.0 0.0
0.0 0.03478218665688397 -0.02981730404351983 0.02871599521136154 0.0011013088321582603 0.009800628782223746 0.0 0.0
0.0 0.027209328277043577 -0.023597021629388076 0.022504250367250615 0.001092771262137465 0.007555148600101706 0.0 0.0
0.0 0.020915538998303312 -0.018074099105651716 0.01703380732713792 0.0010402917785137912 0.006013873594715885 0.0 0.0
0.0 0.015741273622241002 -0.013586462124568018 0.012622404209506756 0.000964057915061267 0.004833224278355683 0.0 0.0
0.0 0.011570469651747906 -0.010081924838779593 0.00921062543779154 0.0008712994009880525 0.0038991186375107586 0.0 0.0
0.0 0.008396369757383795 -0.007352651421619546 0.006589196004117048 0.0007634554175024896 0.0031267393262725774 0.0 0.0
0.0 0.005894316516808124 -0.005179198643478885 0.0045358316084135085 0.0006433670350653722 0.002420132394222567 0.0 0.0
0.0 0.0038718753360075823 -0.003399525245561225 0.002893892284125303 0.0005056329614359211 0.0017332905024500635 0.0 0.0
0.0 0.002096502383705856 -0.001945025767677399 0.0015956684983711553 0.0003493572693062429 0.0010459728793879805 0.0 0.0
0.0 0.0011821138676687167 -0.0007715062568192422 0.0006048211057176015 0.00016668515110164047 0.0003903904857865426 0.0 0.0
0.0 0.00022243238699209177 -0.00016351739880211802 0.00012316790768184197 4.0349491120276516e-05 7.947752671798604e-05 0.0 0.0
0.0 3.505441515684361e-05 2.5908147091955305e-05 -2.0538334576170868e-05 -5.3698125157846486e-06 -3.4072450042561663e-05 0.0 0.0
0.0 -6.985594450927455e-06 -1.4924129058583101e-06 1.1754467531094158e-06 3.16966152748867e-07 2.170612954620481e-06 0.0 0.0
0.0 -1.6494797235304166e-06 -1.2518018785490416e-07 9.94793065089779e-08 2.570088134592939e-08 2.921186564721411e-07 0.0 0.0
0.0 0.0 0.0 0.0 0.0 0.0 0.0 0.0
0.0 0.0 0.0 0.0 0.0 0.0 0.0 0.0
0.0 0.0 0.0 0.0 0.0 0.0 0.0 0.0
0.0 0.0 0.0 0.0 0.0 0.0 0.0 0.0
0.0 0.0 0.0 0.0 0.0 0.0 0.0 0.0
0.0 0.0 0.0 0.0 0.0 0.0 0.0 0.0
0.0 -1.6427912562006257e-06 -1.4576765561260727e-07 1.1635194098500306e-07 2.9415714627583024e-08 -2.453416837903687e-07 0.0 0.0
0.0 1.3158879323742375e-05 4.572233465801717e-06 -3.6089064493212075e-06 -9.633270164804626e-07 5.531011053745716e-06 0.0 0.0
0.0 2.3193848170243424e-05 -3.64569799517097e-05 2.657808184343184e-05 9.87889810827751e-06 -1.1328277599511831e-05 0.0 0.0
0.0 0.0006621245695255082 -0.0003798962716490905 0.00028967231141463365 9.0223960234457e-05 -0.00011655660270369877 0.0 0.0
0.0 0.0015388834879372052 -0.0013845059790476553 0.0011101247995815215 0.0002743811794661336 -0.0005453984597642806 0.0 0.0
0.0 0.0031209215464911527 -0.0027985839819124024 0.002346657723882536 0.0004519262580298676 -0.001119527131027046 0.0 0.0
0.0 0.00511287132867362 -0.004567351652611257 0.003959356935266349 0.0006079947173449054 -0.0017118632190521231 0.0 0.0
0.0 0.0075825048762166196 -0.00671981993549791 0.005979287637768106 0.0007405322977297984 -0.002323667306212276 0.0 0.0
0.0 0.01066004217253657 -0.009367103349906859 0.008508213099248629 0.0008588902506582237 -0.0029533134803490626 0.0 0.0
0.0 0.014625161317275768 -0.012704562889837822 0.01173800354485907 0.0009665593449787559 -0.00366172406210437 0.0 0.0
0.0 0.019371028650046022 -0.016985771326815405 0.015923771211088355 0.0010620001157270497 -0.004550799035740349 0.0 0.0
0.0 0.02575304793487098 -0.02240224710247698 0.021260677849061112 0.0011415692534158738 -0.005689602286510265 0.0 0.0
0.0 0.033505332424084544 -0.029015625990157175 0.027815262562059136 0.001200363428098036 -0.007098687123352006 0.0 0.0
0.0 0.04202551641397288 -0.03648438690897517 0.03527068631972821 0.0012137005892469467 -0.008987419672156317 0.0 0.0
0.0 0.05033491167874145 -0.04356394771113245 0.04242626924518805 0.0011376784659444172 -0.011977396631167368 0.0 0.0
0.0 0.05539630596659715 -0.0476280959355446 0.0466677466760272 0.0009603492595173693 -0.016483321218643314 0.0 0.0
0.0 0.05258588202076092 -0.04460491387095676 0.043897064200199995 0.0007078496707567787 -0.021662746289126088 0.0 0.0
0.0 0.04540689592884006 -0.03712994548123585 0.033025270552360646 0.004104674928875192 8.729995892853282e-15 0.0 0.0
0.0 0.05258588202075874 -0.04460491387095233 0.043897064200195665 0.0007078496707566446 0.02166274628914586 0.0 0.0
0.0 0.055396305966589024 -0.04762809593553599 0.04666774667601853 0.0009603492595174471 0.016483321218662316 0.0 0.0
0.0 0.0503349116787299 -0.04356394771112168 0.042426269245177804 0.0011376784659438408 0.01197739663117922 0.0 0.0
0.0 0.04202551641395535 -0.03648438690895983 0.03527068631971309 0.0012137005892467582 0.008987419672158652 0.0 0.0
0.0 0.03350533242406699 -0.02901562599014151 0.02781526256204418 0.0012003634280973073 0.0070986871233512236 0.0 0.0
0.0 0.025753047934853092 -0.022402247102461283 0.021260677849045992 0.001141569253415288 0.005689602286507862 0.0 0.0
0.0 0.01937102865002985 -0.01698577132680096 0.015923771211074862 0.0010620001157260986 0.004550799035737617 0.0 0.0
0.0 0.014625161317255084 -0.012704562889819419 0.011738003544840885 0.0009665593449785233 0.003661724062099656 0.0 0.0
0.0 0.010660042172518926 -0.00936710334989094 0.008508213099233605 0.0008588902506573372 0.0029533134803439148 0.0 0.0
0.0 0.00758250487619941 -0.006719819935482569 0.005979287637753421 0.0007405322977291493 0.002323667306205367 0.0 0.0
0.0 0.005112871328658812 -0.0045673516525977535 0.0039593569352537805 0.0006079947173439719 0.0017118632190464044 0.0 0.0
0.0 0.003120921546480864 -0.002798583981902537 0.002346657723873713 0.0004519262580288239 0.0011195271310230962 0.0 0.0
0.0 0.00153888348792892 -0.0013845059790401103 0.0011101247995751503 0.00027438117946496044 0.0005453984597610081 0.0 0.0
0.0 0.0006621245695202205 -0.0003798962716455483 0.00028967231141187495 9.02239602336728e-05 0.00011655660270221259 0.0 0.0
0.0 2.3193848169106217e-05 -3.64569799515867e-05 2.657808184336037e-05 9.878898108225987e-06 1.1328277599869923e-05 0.0 0.0
0.0 1.3158879322573675e-05 4.572233465714429e-06 -3.6089064492541767e-06 -9.633270164601268e-07 -5.531011053653477e-06 0.0 0.0
0.0 -1.642791256056295e-06 -1.457676555988268e-07 1.1635194097405649e-07 2.9415714624769247e-08 2.4534168376624963e-07 0.0 0.0
0.0 0.0 0.0 0.0 0.0 0.0 0.0 0.0
0.0 0.0 0.0 0.0 0.0 0.0 0.0 0.0
0.0 0.0 0.0 0.0 0.0 0.0 0.0 0.0
0.0 0.0 0.0 0.0 0.0 0.0 0.0 0.0
0.0 0.0 0.0 0.0 0.0 0.0 0.0 0.0
0.0 0.0 0.0 0.0 0.0 0.0 0.0 0.0
0.0 -5.301947323951955e-07 -5.211120635768816e-08 4.136700228583785e-08 1.074420407185488e-08 -5.5764332291065365e-08 0.0 0.0
0.0 1.8409241588598308e-05 9.186813370203287e-06 -7.075752738261017e-06 -2.111060631942058e-06 5.3960833728010485e-06 0.0 0.0
0.0 0.0001833609970628632 -9.244872774425873e-05 6.685272381701284e-05 2.5596003927246112e-05 3.4612297308377622e-06 0.0 0.0
0.0 0.0009619020551286963 -0.0007691573610059165 0.0005976231660221031 0.0001715341949838132 -0.00016911833364060622 0.0 0.0
0.0 0.002210242844725548 -0.0020249762244285634 0.0016600709203458586 0.000364905304082705 -0.0005717115593343089 0.0 0.0
0.0 0.004065726002601516 -0.0036903667127976872 0.0031481167857092666 0.0005422499270884172 -0.001011986882752867 0.0 0.0
0.0 0.0064362063568379905 -0.0057600536737500265 0.005068196681576762 0.0006918569921732676 -0.0014930825555873124 0.0 0.0
0.0 0.009303559130621263 -0.008292523705649934 0.007471025607658858 0.0008214980979910774 -0.0019930921735445482 0.0 0.0
0.0 0.012968439601991715 -0.011425759693966295 0.010485576585016178 0.000940183108950113 -0.0025094701954261433 0.0 0.0
0.0 0.017396779538123533 -0.015395447336956714 0.014344048650284743 0.0010513986866719745 -0.0031014351691447625 0.0 0.0
0.0 0.023458486266314187 -0.02045034828005461 0.019301418730971413 0.0011489295490832018 -0.0038733562074314476 0.0 0.0
0.0 0.03067957785790623 -0.026794805668604947 0.025563334155824912 0.0012314715127800212 -0.004898010719716631 0.0 0.0
0.0 0.039316538107778486 -0.03443135767996576 0.033136147348008176 0.0012952103319576226 -0.006116561565923369 0.0 0.0
0.0 0.04927816908097769 -0.04298282660725893 0.041663824364213675 0.00131900224304521 -0.007451023216202653 0.0 0.0
0.0 0.05884223761869133 -0.05119965604297291 0.049958608982480744 0.0012410470604921754 -0.009482274047423231 0.0 0.0
0.0 0.06488984136063815 -0.05620213769774607 0.05518805710246973 0.0010140805952763418 -0.013990587906497534 0.0 0.0
0.0 0.062186253903669865 -0.05316938821866782 0.052511857098556325 0.0006575311201115197 -0.02200920763394487 0.0 0.0
0.0 0.05421912866934189 -0.04474180071137896 0.04016697425184464 0.004574826459534336 8.233864978723915e-15 0.0 0.0
0.0 0.06218625390366713 -0.05316938821866336 0.052511857098552064 0.0006575311201112764 0.02200920763396262 0.0 0.0
0.0 0.06488984136062804 -0.05620213769773634 0.055188057102459984 0.001014080595276313 0.013990587906515107 0.0 0.0
0.0 0.058842237618677004 -0.051199656042959944 0.04995860898246845 0.0012410470604914945 0.009482274047433925 0.0 0.0
0.0 0.049278169080957515 -0.042982826607241356 0.04166382436419609 0.0013190022430452023 0.007451023216205548 0.0 0.0
0.0 0.03931653810775939 -0.03443135767994892 0.03313614734799203 0.0012952103319568914 0.006116561565923719 0.0 0.0
0.0 0.030679577857885526 -0.02679480566858685 0.02556333415580742 0.001231471512779426 0.0048980107197146485 0.0 0.0
0.0 0.02345848626629304 -0.020450348280035904 0.019301418730953302 0.0011489295490825912 0.003873356207429054 0.0 0.0
0.0 0.01739677953810075 -0.01539544733693679 0.01434404865026545 0.0010513986866713487 0.003101435169141061 0.0 0.0
0.0 0.012968439601969877 -0.011425759693946418 0.01048557658499705 0.0009401831089493695 0.0025094701954216187 0.0 0.0
0.0 0.00930355913060154 -0.008292523705632228 0.007471025607641788 0.0008214980979904335 0.001993092173538806 0.0 0.0
0.0 0.006436206356821945 -0.005760053673735534 0.005068196681563136 0.0006918569921723994 0.0014930825555828477 0.0 0.0
0.0 0.00406572600258818 -0.0036903667127851673 0.0031481167856977697 0.000542249927087398 0.0010119868827491894 0.0 0.0
0.0 0.002210242844716366 -0.0020249762244194678 0.0016600709203379463 0.00036490530408152125 0.0005717115593313653 0.0 0.0
0.0 0.0009619020551221908 -0.0007691573610005654 0.0005976231660178057 0.00017153419498275993 0.00016911833363890297 0.0 0.0
0.0 0.00018336099706029309 -9.244872774293082e-05 6.685272381603145e-05 2.5596003926899672e-05 -3.461229730944231e-06 0.0 0.0
0.0 1.8409241587683363e-05 9.186813370019462e-06 -7.075752738116256e-06 -2.1110606319033535e-06 -5.396083372648826e-06 0.0 0.0
0.0 -5.301947322418017e-07 -5.211120634290696e-08 4.136700227412343e-08 1.0744204068790724e-08 5.5764332271987006e-08 0.0 0.0
0.0 0.0 0.0 0.0 0.0 0.0 0.0 0.0
0.0 0.0 0.0 0.0 0.0 0.0 0.0 0.0
0.0 0.0 0.0 0.0 0.0 0.0 0.0 0.0
0.0 0.0 0.0 0.0 0.0 0.0 0.0 0.0
0.0 0.0 0.0 0.0 0.0 0.0 0.0 0.0
0.0 0.0 0.0 0.0 0.0 0.0 0.0 0.0
0.0 -9.358286179290562e-07 -9.36213002212803e-08 7.091029120208625e-08 2.2711009019184512e-08 -5.957663808258335e-08 0.0 0.0
0.0 -8.627086364190211e-07 1.2595473683689026e-06 -1.6083184723035258e-06 3.487711039346109e-07 3.3316582086061883e-06 0.0 0.0
0.0 0.00044320615078911164 -0.00025339834233093704 0.00018795989805040842 6.543844428052878e-05 1.6305416610375403e-05 0.0 0.0
0.0 0.0012718093109415245 -0.0012437284569984909 0.000987503584347466 0.0002562248726510248 -0.00018258709782735874 0.0 0.0
0.0 0.0029356218112887057 -0.0026908766778098365 0.0022438286463570653 0.00044704803145277237 -0.00044041354186575004 0.0 0.0
0.0 0.00503990760116569 -0.004600706470070841 0.003982210580379821 0.0006184958896910199 -0.0007488741523465665 0.0 0.0
0.0 0.007769967478154822 -0.006971760951488808 0.006209637556489657 0.0007621233949991523 -0.0010888504911930905 0.0 0.0
0.0 0.011138866004429255 -0.009887726501993986 0.00899687858076607 0.0008908479212279135 -0.0014406153846049257 0.0 0.0
0.0 0.01523749923903901 -0.013522504326112492 0.012510265461137678 0.0010122388649748157 -0.001799926363348533 0.0 0.0
0.0 0.020707337442229544 -0.01812535433456927 0.016998610694758495 0.0011267436398107674 -0.002222191233703441 0.0 0.0
0.0 0.027176712909710778 -0.02398375360188354 0.0227537828462597 0.0012299707556238267 -0.002820741571225519 0.0 0.0
0.0 0.0355481520907307 -0.031239923459854685 0.02992475494522877 0.0013151685146259458 -0.003627956517246147 0.0 0.0
0.0 0.04544258475706364 -0.039811042753203386 0.03843645095648948 0.0013745917967138495 -0.004556310230194854 0.0 0.0
0.0 0.05634264350452868 -0.0492420231061699 0.047838857062721715 0.001403166043448205 -0.00537482394305694 0.0 0.0
0.0 0.06692786792366795 -0.05841089554025079 0.05703953858638767 0.0013713569538631645 -0.006223528847714764 0.0 0.0
0.0 0.07423819511885506 -0.06459528524891028 0.0634829729309726 0.0011123123179376908 -0.00948094489657988 0.0 0.0
0.0 0.0722615232052943 -0.06218267275444541 0.06161458486244559 0.0005680878919997329 -0.020658323690207248 0.0 0.0
0.0 0.06395700793328499 -0.05312956917082024 0.048146972401548964 0.004982596769271215 6.44883452194378e-15 0.0 0.0
0.0 0.07226152320528956 -0.06218267275443983 0.06161458486244046 0.0005680878919994287 0.020658323690221296 0.0 0.0
0.0 0.07423819511884233 -0.06459528524889857 0.06348297293096115 0.0011123123179374887 0.009480944896593941 0.0 0.0
0.0 0.06692786792364941 -0.058410895540234535 0.05703953858637195 0.0013713569538625792 0.006223528847723108 0.0 0.0
0.0 0.05634264350450778 -0.04924202310615155 0.0478388570627038 0.001403166043447797 0.005374823943059691 0.0 0.0
0.0 0.045442584757042034 -0.03981104275318423 0.038436450956471316 0.0013745917967129388 0.004556310230195352 0.0 0.0
0.0 0.03554815209070788 -0.031239923459834666 0.029924754945209506 0.001315168514625167 0.0036279565172454282 0.0 0.0
0.0 0.02717671290968662 -0.02398375360186223 0.02275378284623934 0.0012299707556228871 0.0028207415712236655 0.0 0.0
0.0 0.020707337442204408 -0.018125354334547154 0.01699861069473676 0.0011267436398103925 0.0022221912337013292 0.0 0.0
0.0 0.015237499239013842 -0.013522504326090432 0.012510265461116351 0.0010122388649740663 0.0017999263633456197 0.0 0.0
0.0 0.011138866004407489 -0.009887726501974056 0.008996878580746808 0.00089084792122725 0.0014406153846008003 0.0 0.0
0.0 0.007769967478137477 -0.00697176095147258 0.006209637556474378 0.0007621233949981981 0.0010888504911897832 0.0 0.0
0.0 0.005039907601152043 -0.004600706470057743 0.003982210580367791 0.0006184958896899536 0.0007488741523441587 0.0 0.0
0.0 0.0029356218112777653 -0.002690876677799185 0.0022438286463476198 0.0004470480314515646 0.00044041354186345326 0.0 0.0
0.0 0.0012718093109354651 -0.0012437284569924243 0.000987503584342464 0.0002562248726499606 0.00018258709782614668 0.0 0.0
0.0 0.0004432061507854693 -0.0002533983423282483 0.00018795989804834169 6.543844427990616e-05 -1.630541661067839e-05 0.0 0.0
0.0 -8.627086374732633e-07 1.259547368189144e-06 -1.6083184721573652e-06 3.4877110396811625e-07 -3.331658208418506e-06 0.0 0.0
0.0 -9.358286176765532e-07 -9.36213001927943e-08 7.09102911802755e-08 2.2711009012500863e-08 5.957663806372381e-08 0.0 0.0
0.0 0.0 0.0 0.0 0.0 0.0 0.0 0.0
0.0 0.0 0.0 0.0 0.0 0.0 0.0 0.0
0.0 0.0 0.0 0.0 0.0 0.0 0.0 0.0
0.0 0.0 0.0 0.0 0.0 0.0 0.0 0.0
0.0 0.0 0.0 0.0 0.0 0.0 0.0 0.0
0.0 0.0 0.0 0.0 0.0 0.0 0.0 0.0
0.0 -4.6039742046719905e-07 -5.853725170073649e-08 4.9520409295273314e-08 9.016842405465027e-09 -6.021782012969738e-08 0.0 0.0
0.0 8.527619645511663e-05 -1.3716735377110618e-05 8.36643929242697e-06 5.350296084683449e-06 1.2055440750061758e-05 0.0 0.0
0.0 0.0006609724140746166 -0.0005185877867472826 0.0003926549032403483 0.00012593288350693454 4.5482430149127454e-05 0.0 0.0
0.0 0.0018286921938416084 -0.0017160485193629875 0.0013895756161866816 0.0003264729031763055 -6.304579188073937e-05 0.0 0.0
0.0 0.0036587064989514217 -0.0033718336498367134 0.0028525710772736336 0.0005192625725630798 -0.00018825117554515297 0.0 0.0
0.0 0.0060938366754917424 -0.005517138452615287 0.0048350652555512845 0.0006820731970640029 -0.0003365784209013978 0.0 0.0
0.0 0.00912322086997592 -0.00819430391272317 0.007371924100965578 0.0008223798117575824 -0.0005050993738324752 0.0 0.0
0.0 0.012924564374629192 -0.01150308748056255 0.010551126823967319 0.0009519606565952293 -0.0006690255240726051 0.0 0.0
0.0 0.01782666566663471 -0.015644623841545517 0.014567989370792163 0.0010766344707533546 -0.0008247290888492255 0.0 0.0
0.0 0.02357979805671512 -0.020911173556637606 0.019714991607904655 0.0011961819487329491 -0.0010525770502027693 0.0 0.0
0.0 0.03121505665350479 -0.027552623404110195 0.02624733249546772 0.0013052909086424653 -0.0013861354807807199 0.0 0.0
0.0 0.040583016743146044 -0.035697605088630575 0.03430488780929893 0.0013927172793316593 -0.00183407831536635 0.0 0.0
0.0 0.05150549058710635 -0.04516376584322967 0.04371641444864021 0.0014473513945895123 -0.0023732676618214953 0.0 0.0
0.0 0.0632575536156105 -0.055311127340670604 0.053847822589494984 0.001463304751175624 -0.0028134554917684878 0.0 0.0
0.0 0.07451995415235477 -0.06502718904165104 0.06356573584797293 0.0014614531936781908 -0.002965873219081832 0.0 0.0
0.0 0.08302987833148723 -0.07238733664938388 0.07101189744075989 0.0013754392086239606 -0.003984928032792683 0.0 0.0
0.0 0.08300838504819875 -0.07183201755282376 0.07132763279854124 0.0005043847542824595 -0.014095357173664877 0.0 0.0
0.0 0.07553243858842383 -0.06311708189409575 0.05801737223567169 0.005099709658424019 4.004609144292459e-15 0.0 0.0
0.0 0.08300838504819111 -0.07183201755281643 0.0713276327985342 0.0005043847542822575 0.014095357173673245 0.0 0.0
0.0 0.083029878331473 -0.07238733664937116 0.07101189744074773 0.00137543920862328 0.003984928032800611 0.0 0.0
0.0 0.07451995415233416 -0.06502718904163293 0.06356573584795545 0.00146145319367751 0.0029658732190864876 0.0 0.0
0.0 0.06325755361558619 -0.05531112734064921 0.05384782258947429 0.0014633047511749377 0.00281345549176986 0.0 0.0
0.0 0.05150549058708054 -0.045163765843207054 0.04371641444861823 0.0014473513945888073 0.0023732676618207866 0.0 0.0
0.0 0.0405830167431199 -0.03569760508860767 0.034304887809276666 0.001392717279331018 0.0018340783153661805 0.0 0.0
0.0 0.031215056653477898 -0.02755262340408643 0.02624733249544524 0.0013052909086411762 0.0013861354807795175 0.0 0.0
0.0 0.023579798056686075 -0.02091117355661226 0.01971499160787969 0.0011961819487325647 0.0010525770502014804 0.0 0.0
0.0 0.01782666566660685 -0.01564462384152087 0.014567989370768131 0.0010766344707527397 0.0008247290888474957 0.0 0.0
0.0 0.012924564374606087 -0.011503087480542115 0.010551126823947744 0.0009519606565943674 0.0006690255240705763 0.0 0.0
0.0 0.009123220869955616 -0.008194303912704572 0.007371924100948009 0.0008223798117565617 0.0005050993738306079 0.0 0.0
0.0 0.006093836675477099 -0.005517138452601272 0.0048350652555382515 0.0006820731970630194 0.0003365784209000926 0.0 0.0
0.0 0.0036587064989388437 -0.003371833649824526 0.002852571077262588 0.0005192625725619364 0.00018825117554400794 0.0 0.0
0.0 0.0018286921938339728 -0.001716048519355279 0.0013895756161800762 0.00032647290317520234 6.304579187998955e-05 0.0 0.0
0.0 0.000660972414069981 -0.0005185877867434341 0.0003926549032373348 0.0001259328835060987 -4.5482430149192445e-05 0.0 0.0
0.0 8.527619645371524e-05 -1.3716735376753366e-05 8.366439292190424e-06 5.350296084563014e-06 -1.205544074991645e-05 0.0 0.0
0.0 -4.603974210373721e-07 -5.8537251764729536e-08 4.9520409342134194e-08 9.01684242265159e-09 6.021782013958798e-08 0.0 0.0
0.0 0.0 0.0 0.0 0.0 0.0 0.0 0.0
0.0 0.0 0.0 0.0 0.0 0.0 0.0 0.0
0.0 0.0 0.0 0.0 0.0 0.0 0.0 0.0
0.0 0.0 0.0 0.0 0.0 0.0 0.0 0.0
0.0 0.0 0.0 0.0 0.0 0.0 0.0 0.0
0.0 0.0 0.0 0.0 0.0 0.0 0.0 0.0
0.0 1.6004297709530511e-06 6.953396174423087e-08 2.3531156086074017e-09 -7.18870773527135e-08 -3.3915251981440465e-07 0.0 0.0
0.0 0.00022612782529659597 -7.35530577605673e-05 5.055963128548198e-05 2.2993426475086184e-05 2.9423537082331082e-05 0.0 0.0
0.0 0.0009515233652850185 -0.0007654049850042632 0.000574928018754106 0.00019047696625015576 0.00010603121319763395 0.0 0.0
0.0 0.0022650124318544826 -0.0021254690222171474 0.001704259462911366 0.00042120955930578205 9.888064347168783e-05 0.0 0.0
0.0 0.004257330506059548 -0.003935390784307726 0.0032931062564928093 0.0006422845278149132 0.00010333157622705177 0.0 0.0
0.0 0.006855714027102848 -0.006279104030049375 0.005438014162837497 0.0008410898672118797 0.00012163693626708377 0.0 0.0
0.0 0.01020645597790692 -0.009211514535676247 0.008180195218822815 0.0010313193168534347 0.00013631778598744402 0.0 0.0
0.0 0.014438768158792753 -0.012854266854937815 0.011623988840404107 0.0012302780145336972 0.00019645256666497553 0.0 0.0
0.0 0.019491934507924007 -0.01744451094496155 0.01599757582833299 0.0014469351166285654 0.00030088291699215163 0.0 0.0
0.0 0.026040938116507876 -0.02325597345690404 0.021579557098617027 0.00167641635828699 0.0003561508745461347 0.0 0.0
0.0 0.03431293945887476 -0.030541362267895396 0.028626108647011737 0.0019152536208836975 0.00040432076520384485 0.0 0.0
0.0 0.044436798321579464 -0.03940842832598545 0.03726453267250895 0.002143895653476404 0.0003536567560398049 0.0 0.0
0.0 0.05615582686005376 -0.04959308488844087 0.04725870813818815 0.0023343767502526994 0.00016557004626145157 0.0 0.0
0.0 0.06851919808328487 -0.06029729709498403 0.05784483531804491 0.0024524617769391254 -0.00011126262974828997 0.0 0.0
0.0 0.07998823938458442 -0.07019072927405386 0.06773096958183512 0.002459759692218564 -0.0003474019110765456 0.0 0.0
0.0 0.08873900287089524 -0.0778100266124904 0.07538654048256718 0.0024234861299231407 -0.0005356007441974725 0.0 0.0
0.0 0.09113787386422212 -0.08025111762670122 0.07809034901869548 0.002160768608005823 -0.009400516377875152 0.0 0.0
0.0 0.08731787710184433 -0.07392562536171168 0.06630750014978844 0.007618125211923142 2.1371793224034263e-15 0.0 0.0
0.0 0.09113787386421351 -0.08025111762669355 0.07809034901868814 0.0021607686080054203 0.009400516377878473 0.0 0.0
0.0 0.08873900287087959 -0.07781002661247635 0.07538654048255441 0.002423486129921965 0.0005356007442009671 0.0 0.0
0.0 0.07998823938456188 -0.07019072927403379 0.06773096958181642 0.0024597596922174207 0.0003474019110791208 0.0 0.0
0.0 0.06851919808325663 -0.060297297094959026 0.0578448353180208 0.0024524617769381384 0.00011126262974939065 0.0 0.0
0.0 0.05615582686002432 -0.04959308488841501 0.04725870813816323 0.0023343767502518546 -0.0001655700462623805 0.0 0.0
0.0 0.04443679832155023 -0.03940842832595963 0.03726453267248411 0.0021438956534755075 -0.0003536567560400118 0.0 0.0
0.0 0.034312939458845275 -0.03054136226786916 0.02862610864698717 0.001915253620882004 -0.0004043207652037811 0.0 0.0
0.0 0.026040938116478347 -0.023255973456877837 0.021579557098592123 0.0016764163582857112 -0.00035615087454641484 0.0 0.0
0.0 0.019491934507892456 -0.017444510944933975 0.015997575828306115 0.0014469351166278388 -0.0003008829169933781 0.0 0.0
0.0 0.014438768158769466 -0.012854266854916885 0.011623988840384555 0.0012302780145323233 -0.00019645256666526458 0.0 0.0
0.0 0.010206455977884513 -0.009211514535656561 0.008180195218804281 0.0010313193168522876 -0.00013631778598803415 0.0 0.0
0.0 0.006855714027085007 -0.006279104030033077 0.005438014162822412 0.0008410898672106628 -0.00012163693626737748 0.0 0.0
0.0 0.004257330506045646 -0.003935390784294491 0.0032931062564807464 0.0006422845278137436 -0.00010333157622718068 0.0 0.0
0.0 0.0022650124318452382 -0.002125469022207904 0.0017042594629034064 0.0004212095593044972 -9.888064347174369e-05 0.0 0.0
0.0 0.0009515233652802741 -0.0007654049849994857 0.0005749280187503819 0.0001904769662491039 -0.00010603121319733697 0.0 0.0
0.0 0.00022612782529498455 -7.355305775995473e-05 5.055963128507967e-05 2.2993426474875998e-05 -2.9423537082043962e-05 0.0 0.0
0.0 1.6004297707632548e-06 6.953396171649139e-08 2.353115627768134e-09 -7.188707734427424e-08 3.3915251981027997e-07 0.0 0.0
0.0 0.0 0.0 0.0 0.0 0.0 0.0 0.0
0.0 0.0 0.0 0.0 0.0 0.0 0.0 0.0
0.0 0.0 0.0 0.0 0.0 0.0 0.0 0.0
SCALARS Wm float 4
LOOKUP_TABLE default
8.276890111314014 1.8766326939071662 3.009731579666715 3.3905258377401273
3.348494105349406 1.7449626862946084 0.6668372290157433 0.936694190039055
0.4284978755368559 0.43997268621399194 -0.004328842074244607 -0.007145968602891371
0.40135046173138644 0.40575809556879217 -0.000721016311573868 -0.0036866175258317277
0.6442660235099863 0.5956342895151403 0.01833329747057184 0.030298436524274053
1.1442796825261543 0.7470110875999267 0.11983649292861256 0.2774321019976146
2.0479901525965225 0.9782734428265254 0.39582951707653885 0.6738871926934588
3.3531362397747735 1.2236724447222314 0.8631449233188637 1.2663188717336762
5.1304767143089265 1.507013978619689 1.5739268334471177 2.04953590224212
7.483818358931338 1.8557261397951779 2.5892223198380724 3.038869899298091
10.568276752829668 2.308356837708301 3.987631959333111 4.272287955788261
14.553267274203566 2.8987330546578236 5.823505808367358 5.8310284111783925
19.825267000984436 3.6373931380111726 8.375063694844606 7.812810168128652
26.66751953076356 4.5352201538667645 11.825594999243467 10.306704377653325
35.238120575973305 5.532873564750744 16.35427464465378 13.350972366568769
45.39545944442525 6.503430804336889 22.002259608724344 16.889769031364025
56.50219517366146 7.267345992414541 28.479953573649453 20.754895607597447
67.47301441723272 7.666932249404698 35.21438491019685 24.591697257631175
77.00261075939522 7.692940442783523 41.34780335388711 27.96186696272458
83.60024596330098 7.412427197455853 45.77748731439077 30.410331451454354
85.86207342164548 7.014645651771376 47.46779481440406 31.379632955470058
83.60024596329637 7.412427197456369 45.77748731438717 30.41033145145284
77.00261075938158 7.692940442782694 41.34780335387877 27.9618669627201
67.47301441721231 7.66693224940381 35.21438491018441 24.591697257624073
56.50219517363647 7.26734599241107 28.47995357363588 20.754895607589503
45.39545944440248 6.5034308043351166 22.002259608711324 16.88976903135604
35.238120575950965 5.53287356474893 16.35427464464142 13.350972366560619
26.667519530740883 4.53522015386473 11.825594999231292 10.30670437764487
19.825267000959826 3.6373931380061233 8.375063694833411 7.812810168120297
14.553267274183021 2.898733054656832 5.823505808356538 5.831028411169653
10.568276752810862 2.3083568377045083 3.98763195932508 4.2722879557812705
7.483818358916827 1.8557261397937634 2.589222319831315 3.038869899291753
5.1304767142978065 1.5070139786176715 1.573926833442712 2.049535902237423
3.35313623976685 1.2236724447211549 0.8631449233158055 1.2663188717298899
2.047990152591163 0.9782734428254234 0.39582951707484093 0.6738871926908984
1.1442796825231496 0.7470110875992074 0.11983649292808611 0.27743210199585616
0.6442660235086255 0.5956342895139053 0.018333297470515132 0.030298436524205347
0.4013504617309923 0.4057580955684088 -0.0007210163115759177 -0.0036866175258404503
0.42849787553633173 0.439972686213426 -0.004328842074221139 -0.007145968602873294
3.3484941053466053 1.7449626862950676 0.6668372290143092 0.9366941900372292
8.276890111295211 1.8766326938976476 3.0097315796618602 3.3905258377357077
9.367858665716554 4.395958671701047 2.254461845752424 2.7174381482630845
1.0890510736761405 0.2774128744547353 0.3015299734367997 0.510108225784605
0.20837546436528145 0.21003405692208135 -0.00012901599468739878 -0.001529576562112563
0.32565098661563036 0.3252583029397492 0.00011154350308057375 0.00028114017280053233
0.5029116640377623 0.4870015696096519 0.004375547704426204 0.011534546723684362
0.9305367042467003 0.6753840318796805 0.08127806292834523 0.17387460943867514
1.6930611242871427 0.8428262818278326 0.3021290476810738 0.5481057947782363
2.8449572483937704 1.0385392916500704 0.7162475090750253 1.090170447668675
4.409601897078256 1.2435785054095614 1.3548786053246273 1.8111447863440662
6.442834556283809 1.4732291423531205 2.2499283167645965 2.719677097166092
9.07349996211117 1.7446769308340018 3.4793483750896166 3.8494746561875552
12.537297627906742 2.0778744874979322 5.191245987135725 5.268177153273084
16.963897735865913 2.4810807479353114 7.401320731921561 7.081496256009045
22.840527616371297 2.953411899848842 10.5122517033201 9.374864013202355
30.262920588632735 3.4641320497368175 14.597646678062972 12.201141860832958
39.13550750466591 3.9288763669704982 19.698579716481092 15.508051421214319
48.953017601652896 4.234880770036655 25.61765004788612 19.100486783730112
58.79735487137153 4.301773347596138 31.810910676701557 22.684670847073807
67.44446854279046 4.120651558374566 37.47089368468014 25.852923299735746
73.52280839180652 3.7481481700608117 41.65244517978385 28.122215041961827
75.7348851506648 3.395589720102902 43.32714633230156 29.012149098260338
73.52280839180364 3.7481481700637613 41.652445179780116 28.122215041959766
67.44446854277827 4.120651558373358 37.47089368467313 25.8529232997318
58.797354871353434 4.301773347594367 31.81091067669113 22.684670847067945
48.95301760163259 4.234880770035346 25.61765004787427 19.100486783722967
39.13550750464589 3.928876366968919 19.698579716469776 15.508051421207211
30.262920588611564 3.4641320497332377 14.597646678052415 12.201141860825913
22.840527616352198 2.9534118998487933 10.512251703308982 9.374864013194422
16.96389773584655 2.4810807479345245 7.401320731911046 7.081496256000976
12.537297627888773 2.077874487497744 5.191245987126013 5.268177153265012
9.073499962095255 1.7446769308321806 3.4793483750821776 3.8494746561809015
6.442834556271181 1.4732291423519563 2.2499283167588486 2.7196770971603748
4.409601897068558 1.2435785054082555 1.354878605320694 1.8111447863396088
2.8449572483867573 1.038539291649425 0.7162475090722537 1.0901704476650784
1.6930611242827094 0.8428262818272036 0.3021290476796261 0.5481057947758796
0.9305367042441614 0.6753840318789435 0.08127806292768097 0.173874609437537
0.5029116640369037 0.4870015696088066 0.004375547704412467 0.011534546723684713
0.3256509866153539 0.3252583029393929 0.00011154350309256099 0.00028114017286855593
0.20837546436525267 0.2100340569220134 -0.00012901599467913074 -0.0015295765620815722
1.0890510736733368 0.2774128744548619 0.30152997343550453 0.5101082257829699
9.367858665698048 4.395958671691797 2.2544618457477474 2.7174381482585
6.847412776555586 3.4301125213902766 1.4700425475924996 1.9472577075728092
0.6218567527482658 0.09303631771321684 0.18425602874223557 0.3445644062928135
0.12935134034554704 0.12935177680320545 -1.80369121587346e-08 -4.1842074621861334e-07
0.2467624174817384 0.2467886590652402 7.991898638653472e-06 -3.423348214045017e-05
0.3987442330702051 0.3999892755036732 -0.0005800071764000695 -0.0006650352570679
0.7299674318218596 0.6059814230767812 0.038860767606124 0.08512524113895448
1.3641114267179606 0.7693335196294032 0.1973963445574651 0.39738156253109236
2.371762106597698 0.9627191777071771 0.5386994335899122 0.8703434953006093
3.7376134999206507 1.1567791148031614 1.0707756494012668 1.510058735716222
5.521979010538907 1.3683048424056194 1.8395213579874954 2.3141528101457918
7.805348990313979 1.611487412945441 2.885228209209172 3.3086333681593643
10.736715591400085 1.9008479098365791 4.280419717275447 4.555447964288059
14.66823991185361 2.257844023185058 6.271195960106136 6.139199928562414
19.69249095074863 2.675633621456575 8.847254402995038 8.169602926297014
26.189639609909833 3.1246925790512963 12.378828431696434 10.686118599162096
34.00822455844664 3.5442261286011894 16.80861302154992 13.655385408295544
42.728602512532724 3.847077322552094 21.955731905664354 16.925793284316278
51.542921584376245 3.949861751372997 27.40179243983281 20.191267393170452
59.338275673125814 3.809137169678491 32.446015413978614 23.083123089468693
64.85987643066132 3.510286346532552 36.19485790378725 25.15473218034153
66.84023764982747 3.112190391432611 37.724440975255064 26.0036062831398
64.8598764306565 3.51028634653285 36.19485790378401 25.15473218033966
59.33827567311711 3.809137169679214 32.44601541397258 23.083123089465296
51.542921584361274 3.94986175137084 27.40179243982484 20.191267393165617
42.728602512515096 3.84707732255027 21.95573190565453 16.925793284310277
34.00822455842928 3.544226128599523 16.808613021540413 13.655385408289352
26.189639609894016 3.1246925790513176 12.378828431687051 10.686118599155645
19.69249095073157 2.6756336214564227 8.847254402985314 8.169602926289834
14.668239911836295 2.2578440231840347 6.271195960097077 6.139199928555186
10.736715591383206 1.9008479098335584 4.280419717267978 4.555447964281672
7.80534899030032 1.6114874129445536 2.885228209202644 3.3086333681531226
5.521979010528137 1.3683048424045914 1.839521357982755 2.3141528101407913
3.7376134999122606 1.1567791148024147 1.0707756493977605 1.5100587357120854
2.371762106591419 0.9627191777063306 0.538699433587596 0.8703434952974929
1.3641114267141425 0.7693335196285851 0.1973963445564632 0.3973815625290938
0.7299674318198787 0.6059814230758914 0.03886076760575453 0.08512524113823233
0.39874423306961204 0.39998927550307556 -0.0005800071763972131 -0.0006650352570663596
0.24676241748150007 0.24678865906498526 7.991898640516157e-06 -3.423348212566956e-05
0.1293513403454676 0.12935177680312565 -1.8036912141597065e-08 -4.184207459031903e-07
0.6218567527460899 0.09303631771363319 0.18425602874119312 0.3445644062912636
6.8474127765391 3.4301125213825383 1.470042547588282 1.9472577075682818
5.055414896485456 2.6622614553035233 0.979662619349581 1.4134908218323552
0.3871214416530739 0.06606149819570767 0.10006382318315964 0.22099612027420626
0.09120284152064113 0.09120284152064113 0.0 0.0
0.18396643969183887 0.18392829762193796 2.762707400739038e-06 3.5379362500165364e-05
0.3192304311073519 0.32335855835750466 -0.0008010214163117978 -0.0033271058338409897
0.5552685739441368 0.5146073475267402 0.010146013322581903 0.03051521309481456
1.0726495335398527 0.7101698629258933 0.11685383452846554 0.24562583608549368
1.915721726355844 0.8811673776485353 0.37747052228283456 0.6570838264244737
3.097388870764916 1.065661340738869 0.8160088320483572 1.2157186979776906
4.629699167419665 1.259972685879104 1.452414789792079 1.9173116917484823
6.562524613162842 1.4743683471747493 2.306637119996241 2.781519145991851
9.077074305826144 1.7299098539117799 3.4906607085376637 3.856503743376698
12.323899005836243 2.0356181131026974 5.061731462418443 5.226549430315106
16.723132415495808 2.3988029499102295 7.345878354746667 6.978451110838912
22.266378312908977 2.7945394296308548 10.2883290307062 9.183509852571925
28.981395015791776 3.1721954621817448 13.998793186154645 11.810406367455379
36.64369330770211 3.469751396592101 18.45743566244118 14.71650624866882
44.467448779531956 3.60668344946397 23.19077695274175 17.669988377326227
51.46338856075446 3.52651065229405 27.608067334771615 20.328810573688788
56.49360840911644 3.283231608656597 30.935176777947344 22.275200022512514
58.30637610030696 2.812547326789941 32.40292200331142 23.090906770205592
56.493608409113044 3.283231608657037 30.935176777944882 22.27520002251112
51.46338856074636 3.526510652294343 27.60806733476637 20.328810573685665
44.467448779521675 3.6066834494649638 23.19077695273472 17.669988377321975
36.64369330768882 3.469751396592696 18.457435662432736 14.7165062486634
28.98139501577569 3.1721954621793405 13.998793186146482 11.810406367449875
22.266378312893124 2.794539429629197 10.288329030697929 9.18350985256599
16.723132415481004 2.3988029499095678 7.3458783547387 6.9784511108327365
12.323899005821781 2.035618113101516 5.061731462411183 5.2265494303090785
9.077074305812584 1.7299098539092141 3.490660708531948 3.856503743371421
6.562524613150908 1.4743683471736664 2.3066371199908207 2.781519145986422
4.629699167410417 1.2599726858786515 1.4524147897878625 1.9173116917439015
3.0973888707574475 1.0656613407379671 0.8160088320454189 1.215718697974061
1.915721726350622 0.8811673776474829 0.3774705222812882 0.657083826421851
1.0726495335367079 0.7101698629250475 0.11685383452756942 0.24562583608409072
0.5552685739427116 0.5146073475257761 0.01014601332242914 0.03051521309450636
0.31923043110681465 0.323358558356896 -0.0008010214162978352 -0.0033271058337833908
0.18396643969168097 0.18392829762178856 2.762707400018399e-06 3.5379362492379505e-05
0.0912028415205437 0.0912028415205437 0.0 0.0
0.3871214416511691 0.06606149819590405 0.10006382318231645 0.22099612027294843
5.055414896472554 2.662261455297691 0.9796626193464377 1.4134908218284248
3.6654087279960357 2.043258962271814 0.6208033023240852 1.0013464634001372
0.29139914503885117 0.10951637392098426 0.0631834274222105 0.1186993436956564
0.08231673794400404 0.08231673794400404 0.0 0.0
0.14282223060208812 0.14282777322383342 -4.2444358086294644e-07 -5.118178164441581e-06
0.25662616645813724 0.2559873014990727 0.00011914924827223638 0.0005197157107922846
0.42680632724715695 0.4320937547441368 -0.0020588669176602116 -0.003228560579319601
0.8105663217817062 0.6291499887874931 0.06024493841148904 0.12117139458272426
1.4842224428454704 0.7951152217572044 0.23657493963115134 0.4525322814571146
2.479861644437552 0.9676753631216946 0.5829407077359788 0.9292455735798794
3.7650207553182025 1.1452546886906827 1.0890561446099063 1.5307099220176137
5.388323923112013 1.3370114843810108 1.784660334413481 2.2666521043175236
7.464636826817807 1.5572764689646081 2.731487445120088 3.1758729127331113
10.205109032003929 1.8213629280087478 4.053905549206891 4.329840554788286
13.743221163786512 2.129504113211129 5.793594756171721 5.820122294403664
18.43048456009518 2.4672425336510653 8.262776072090308 7.700465954353815
24.19164705263362 2.808020953958783 11.418521390224141 9.965104708450685
30.705423854984975 3.101837409103574 15.087893813675734 12.515692632205678
37.53089662338175 3.2728117821984575 19.121903125150702 15.136181716032594
43.775677128268114 3.2581337497535157 22.980510801035194 17.537032577479387
48.406050969379784 3.063022904387449 25.989556131187282 19.35347193380504
50.09777069845273 2.5084778434193438 27.399027268924403 20.19026558610899
48.40605096937846 3.063022904390488 25.989556131184578 19.35347193380339
43.77567712826065 3.258133749752828 22.980510801030952 17.53703257747686
37.530896623372534 3.2728117821993825 19.121903125144488 15.13618171602867
30.70542385497167 3.101837409101698 15.087893813668824 12.515692632201135
24.19164705262134 2.8080209539584366 11.418521390217135 9.96510470844577
18.430484560082654 2.4672425336489967 8.262776072084328 7.700465954349324
13.743221163774534 2.129504113211119 5.793594756165112 5.8201222943982955
10.205109031991462 1.8213629280069186 4.053905549201261 4.329840554783283
7.464636826806352 1.5572764689630607 2.731487445115054 3.175872912728238
5.388323923101673 1.3370114843792325 1.7846603344093168 2.266652104313124
3.765020755310136 1.1452546886898152 1.0890561446065572 1.5307099220137659
2.4798616444313835 0.9676753631207939 0.5829407077337887 0.9292455735768006
1.4842224428413242 0.7951152217563626 0.2365749396298815 0.45253228145507984
0.8105663217792594 0.6291499887867121 0.06024493841087793 0.12117139458166955
0.4268063272462301 0.43209375474332684 -0.002058866917685114 -0.0032285605794116013
0.25662616645775715 0.2559873014986789 0.00011914924827313399 0.0005197157108051136
0.14282223060188054 0.142827773223625 -4.244435807835282e-07 -5.118178163679836e-06
0.08231673794385304 0.08231673794385304 0.0 0.0
0.291399145037108 0.10951637392093472 0.06318342742151044 0.11869934369466296
3.6654087279862426 2.0432589622675725 0.6208033023217439 1.0013464633969251
2.6050617159193443 1.5646050069039523 0.375258799049857 0.6651979099655349
0.2143190015395303 0.14322131175581881 0.01673267710711992 0.05436501267659169
0.09210970764028886 0.09210970764028886 0.0 0.0
0.12185121895505181 0.12185121895505181 0.0 0.0
0.20958844436893595 0.20951698102636687 5.850405245169342e-06 6.561293732393347e-05
0.334169728539585 0.3415070569634643 -0.0019190476055710552 -0.0054182808183083275
0.5808129063378347 0.5175814826639744 0.013636218370962346 0.04959520530289778
1.1124172262557797 0.7143605973990566 0.14228740131083167 0.2557692275458912
1.8749952575600304 0.8550971738246873 0.3664638128241294 0.653434270911214
2.9441381843143177 1.0249621258710244 0.7645270258806597 1.1546490325626335
4.260599721014914 1.1940678503540942 1.3012586527997705 1.765273217861048
5.925268111877937 1.3829750094022826 2.027918667338127 2.5143744351375266
8.095743693284582 1.6055222150449748 3.030394546669596 3.4598269315700114
11.0014693264676 1.8645573779696636 4.454423566223656 4.682488382274282
14.754399898039898 2.1556789940808456 6.354242452774308 6.244478451184737
19.413748735515778 2.4497983238051666 8.817361432137712 8.1465889795729
24.96857554562304 2.7294089339509258 11.933309288038135 10.305857323633976
30.774410440193673 2.940870316589126 15.24306940976955 12.590470713834991
36.21973478703944 2.9960774878842007 18.475941599086255 14.747715700068982
40.5089319773271 2.8497135892542618 21.21265995071772 16.446558437355133
42.12221427997634 2.2042717664878118 22.61079500005505 17.307147513433478
40.508931977323186 2.8497135892538026 21.21265995071559 16.44655843735377
36.219734787034916 2.996077487885462 18.475941599082695 14.747715700066752
30.774410440184152 2.9408703165871866 15.24306940976496 12.590470713832
24.968575545613696 2.7294089339506127 11.933309288032799 10.305857323630281
19.413748735504768 2.4497983238045165 8.817361432131769 8.14658897956849
14.754399898030057 2.155678994079517 6.35424245276956 6.24447845118098
11.001469326456727 1.8645573779676046 4.454423566218934 4.6824883822701855
8.095743693275045 1.6055222150441264 3.030394546665094 3.459826931565824
5.925268111869173 1.3829750094017934 2.0279186673340392 2.5143744351333406
4.260599721006868 1.1940678503530215 1.3012586527964736 1.7652732178573718
2.944138184307795 1.0249621258698374 0.7645270258783416 1.1546490325596155
1.8749952575550262 0.8550971738237944 0.3664638128224966 0.6534342709087355
1.112417226252324 0.7143605973981715 0.14228740130980805 0.2557692275443441
0.5808129063360772 0.5175814826630049 0.013636218370722325 0.04959520530235002
0.3341697285389123 0.3415070569625578 -0.0019190476055233458 -0.005418280818122125
0.20958844436855534 0.20951698102601876 5.850405241186125e-06 6.561293729539181e-05
0.1218512189548218 0.1218512189548218 0.0 0.0
0.09210970764007179 0.09210970764007179 0.0 0.0
0.21431900153818598 0.14322131175561575 0.0167326771066849 0.05436501267588544
2.6050617159120106 1.5646050069006414 0.37525879904827114 0.6651979099630979
1.7823076021673305 1.1793818885709142 0.1955662670303626 0.4073594465660534
0.1805487154898573 0.17763547762253878 -0.0025965647217026057 0.005509802589021154
0.1110012583544094 0.1110012583544094 0.0 0.0
0.11697163623641392 0.11697163623641392 0.0 0.0
0.17680415890956747 0.17671801605985732 7.828390201779132e-06 7.831445950834427e-05
0.26800993055626854 0.2705537464732013 -0.00042751157116081406 -0.002116304345771917
0.42349095025460026 0.42962868140276234 -0.0034010723896892026 -0.002736658758472868
0.7510216244288463 0.581489274626173 0.044850090852442084 0.12468225895023122
1.3681480164529873 0.7614295706918519 0.2251766661091966 0.3815417796519384
2.1434934254453903 0.8883088344903007 0.4647538552903793 0.7904307356647109
3.191794625664176 1.0438301786705346 0.868632388166783 1.2793320588268575
4.479719047353964 1.2050309153367773 1.4026971279318807 1.871991004085305
6.13571903532265 1.3896566478147518 2.1304302629873337 2.615632124520565
8.33901327849546 1.6033750775372453 3.157935058365283 3.5777031425929318
11.23358049833072 1.8424719712303699 4.572218568843942 4.818889958256408
14.981215151985912 2.104637067750059 6.526941701991345 6.349636382244507
19.24848657942185 2.3603540925933495 8.75599498736576 8.132137499462745
24.101253590414895 2.5910965155910097 11.4782986992956 10.031858375528284
28.90757781957252 2.7271217690557013 14.264654692783495 11.91580135773332
32.823278911299646 2.645445381795498 16.65864238614802 13.519191143356124
34.41045652848047 1.9061929968980493 18.075249743929007 14.429013787653432
32.823278911298246 2.6454453817955765 16.658642386147093 13.519191143355576
28.907577819566853 2.72712176905467 14.264654692780717 11.915801357731464
24.101253590409335 2.5910965155913877 11.47829869929209 10.031858375525854
19.24848657941306 2.3603540925917343 8.755994987361612 8.132137499459715
14.98121515197876 2.1046370677518547 6.526941701986336 6.349636382240573
11.233580498323015 1.842471971229477 4.572218568840307 4.818889958253228
8.339013278487256 1.6033750775341473 3.157935058362649 3.5777031425904644
6.135719035315496 1.3896566478149526 2.1304302629836402 2.615632124516901
4.479719047346227 1.2050309153350172 1.4026971279290008 1.8719910040822092
3.1917946256576286 1.0438301786695203 0.8686323881643119 1.279332058823796
2.1434934254405014 0.8883088344896061 0.46475385528859375 0.7904307356623024
1.3681480164489739 0.7614295706906129 0.2251766661080158 0.38154177965034486
0.7510216244266447 0.5814892746255578 0.044850090851888715 0.12468225894919858
0.4234909502536006 0.4296286814019151 -0.0034010723897309647 -0.0027366587585836385
0.2680099305558157 0.2705537464726761 -0.0004275115711442592 -0.002116304345716089
0.17680415890922074 0.17671801605951723 7.828390200932262e-06 7.831445950258222e-05
0.11697163623616501 0.11697163623616501 0.0 0.0
0.11100125835413019 0.11100125835413019 0.0 0.0
0.18054871548901072 0.17763547762224027 -0.0025965647218931963 0.005509802588663656
1.7823076021620592 1.1793818885684666 0.19556626702936078 0.40735944656423184
1.215383376177991 0.9363448882293617 0.09628879609539051 0.18274969185323917
0.1578880000354727 0.18025505046314738 -0.009983584874952604 -0.012383465552722015
0.13235895359104474 0.13235895359104474 0.0 0.0
0.1231426009911966 0.1231426009911966 0.0 0.0
0.15794523831259275 0.1579228262014121 1.8172994548958084e-06 2.0594811725824774e-05
0.2212413544015074 0.2217417737031405 -0.00010128253411347396 -0.00039913676751964844
0.31440838857607156 0.32591519668784724 -0.002980378006857157 -0.008526430104918475
0.4982308392443805 0.45978469442599007 0.005147893741583842 0.03329825107680663
0.8568066776009707 0.6071222834684797 0.07209580275538499 0.17758859137710595
1.4555339422363174 0.7590904989527326 0.2578492418858384 0.43859420139774585
2.1823685236206463 0.8798286532623218 0.49409548654770513 0.8084443838106191
3.111618697163173 1.012905186825937 0.8445866721587586 1.2541268381784767
4.304343416071317 1.1658457623291316 1.3365812753312334 1.801916378410951
5.871258939769508 1.3370956081873042 2.0229843725586436 2.5111789590235616
7.9790673601485125 1.5345482934047736 3.011998727707124 3.432520339036614
10.659760253748493 1.7527567484778257 4.313707696839692 4.593295808430973
13.99343840919358 1.990254293932574 6.039942126098302 5.963241989162706
17.70576201699974 2.228425501952984 7.979262758621395 7.498073756425355
21.5828944983377 2.4260927404622694 10.077273740314775 9.07952801756066
25.198615335186044 2.4373237553225233 12.208256707669868 10.55303487219365
26.82145219135379 1.612092771328374 13.678785746438699 11.530573673586726
25.198615335184428 2.437323755321667 12.208256707669404 10.55303487219336
21.58289449833417 2.426092740461151 10.077273740313354 9.079528017559669
17.70576201699436 2.2284255019524886 7.979262758618612 7.498073756423263
13.993438409187931 1.9902542939323147 6.039942126095308 5.963241989160306
10.65976025374114 1.7527567484775992 4.313707696835832 4.593295808427708
7.979067360142211 1.5345482934032888 3.0119987277046243 3.432520339034301
5.871258939765493 1.3370956081871448 2.0229843725567145 2.5111789590216325
4.304343416065838 1.165845762328978 1.3365812753286845 1.801916378408176
3.1116186971587845 1.0129051868259957 0.8445866721567968 1.2541268381759916
2.182368523615975 0.879828653261527 0.49409548654608804 0.8084443838083597
1.455533942232485 0.7590904989517628 0.2578492418846326 0.43859420139608896
0.8568066775988811 0.6071222834680023 0.07209580275480278 0.17758859137607622
0.4982308392429418 0.4597846944251517 0.005147893741417376 0.03329825107637258
0.3144083885753464 0.32591519668696384 -0.002980378006816831 -0.008526430104800526
0.22124135440109152 0.22174177370270168 -0.00010128253411103757 -0.0003991367674991312
0.15794523831219925 0.15792282620102518 1.8172994544034804e-06 2.0594811719682714e-05
0.12314260099089544 0.12314260099089544 0.0 0.0
0.13235895359066432 0.13235895359066432 0.0 0.0
0.1578880000350337 0.18025505046271612 -0.009983584874932455 -0.01238346555274998
1.2153833761744322 0.9363448882277606 0.0962887960946486 0.18274969185202314
0.7901572648455115 0.7016496150229921 0.023200803534684025 0.06530684628783563
0.15591946252528824 0.16930778968489504 -0.0035398922003081817 -0.00984843495929869
0.1518898848945224 0.15198685555596356 -8.0063316162184e-06 -8.89643298249272e-05
0.13579726281959517 0.13579726281959517 0.0 0.0
0.15097932230977065 0.15097029397242534 2.5498622371285784e-07 8.773351121642145e-06
0.19002866599436413 0.18948187776298397 8.591153126741926e-05 0.0004608767001127468
0.24639419886981712 0.25283063523434296 -0.0015419088193441993 -0.004894527545181634
0.3373022933052932 0.3492697726096316 -0.003029103672232133 -0.008938375632106227
0.503351804679352 0.4552169869327621 0.009449250433347926 0.038685567313242165
0.8089621442836954 0.5752468817809645 0.07145991200414845 0.16225535049858253
1.2544830450645517 0.6788221461847276 0.1903388926177113 0.38532200626211255
1.8501337856237743 0.7940751589271335 0.3853357713136206 0.67072285538302
2.6109092767239264 0.9154809010120509 0.6634103848915299 1.032017990820346
3.606351197679904 1.0485043375629801 1.0574923862934245 1.500354473823498
4.948414582090372 1.2027126619238713 1.6328170275076457 2.1128848926588564
6.719499804528079 1.3811014143438973 2.4406473505585744 2.8977510396256054
8.963894868536403 1.5968506605793846 3.5032667132627284 3.8637774946942876
11.600781131332175 1.816604995561399 4.791840312380724 4.992335823390057
14.608650804126274 2.0583670101572276 6.311709376151892 6.238574417817152
17.845303937312654 2.2138241812664177 8.080044110223316 7.551435645822923
19.485935738030726 1.3395099854229975 9.475975537708536 8.670450214899187
17.845303937313318 2.2138241812669857 8.080044110223366 7.551435645822972
14.608650804123874 2.058367010155274 6.311709376151647 6.2385744178169515
11.600781131329326 1.8166049955620514 4.791840312378784 4.992335823388491
8.963894868530225 1.5968506605767372 3.503266713260858 3.8637774946926298
6.719499804523281 1.381101414343014 2.4406473505565582 2.8977510396237087
4.948414582087655 1.2027126619239439 1.6328170275062717 2.112884892657438
3.606351197676588 1.0485043375624543 1.0574923862920966 1.5003544738220391
2.6109092767206086 0.915480901011342 0.6634103848904245 1.0320179908188425
1.8501337856201054 0.7940751589266594 0.3853357713122374 0.6707228553812089
1.2544830450617224 0.6788221461843743 0.19033889261677783 0.38532200626057006
0.8089621442818398 0.5752468817804706 0.07145991200365745 0.16225535049771142
0.5033518046781236 0.45521698693225837 0.00944925043312934 0.03868556731273573
0.33730229330466255 0.34926977260896674 -0.003029103672221179 -0.008938375632082902
0.2463941988693052 0.25283063523371097 -0.0015419088193179106 -0.004894527545087851
0.19002866599386237 0.18948187776246578 8.591153126744281e-05 0.00046087670012911124
0.15097932230938302 0.15097029397204603 2.549862230170516e-07 8.7733511139407e-06
0.13579726281922408 0.13579726281922408 0.0 0.0
0.1518898848940961 0.15198685555552177 -8.006331614547221e-06 -8.896432981108666e-05
0.15591946252497693 0.16930778968433613 -0.0035398922002544196 -0.009848434959104778
0.7901572648433876 0.7016496150217607 0.023200803534394025 0.06530684628723293
0.5317323979978805 0.5348624046640198 -0.00040118668687789207 -0.0027288199792614453
0.15705948390940527 0.15678603336070276 4.061998524116542e-05 0.00023283056346134334
0.16705623865546249 0.16707376611340283 -9.038683591991786e-07 -1.6623589581121507e-05
0.15109487575165936 0.15111302149477548 -1.1251006770666433e-06 -1.7020642439032754e-05
0.15332280987442518 0.15328666271796038 4.197779080709848e-06 3.194937738412248e-05
0.1748327859525423 0.17491716297713628 -3.604873582223196e-06 -8.077215101174288e-05
0.2070535209529858 0.211283331031953 -0.0009007173782051018 -0.0033290927007621116
0.2470421188554987 0.2472315742531705 -0.0004422964165986011 0.0002528410189267993
0.3020988533476468 0.28357769975276387 0.0038240328509909615 0.014697120743892027
0.3868723699920747 0.3434460764487621 0.010741699778523918 0.03268459376478856
0.5562738413345384 0.4294794916227945 0.04204246794381611 0.08475188176792768
0.791581335544852 0.501473515420025 0.090425218648993 0.19968260147583394
1.1394126580044996 0.5963217730087065 0.18438022888694233 0.3587106561088508
1.6279256367523764 0.6894793517624387 0.3424153257077567 0.5960309592821811
2.297818651377069 0.7837126622102789 0.5862581989225385 0.9278477902442509
3.2246250027035903 0.9081527510416815 0.9459530518214552 1.3705191998404531
4.491054165803563 1.0827750270321292 1.46615528202386 1.942123856747573
6.19280766031878 1.2977805806250318 2.2193164036022965 2.6757106760914535
8.215166238347754 1.5086193271910175 3.1580722431389296 3.548474668017806
10.73270912425478 1.834330736199668 4.313580420053735 4.584797968001377
12.803203455798945 1.1013196562391827 5.851989545480253 5.8498942540795085
10.732709124255972 1.8343307361999541 4.31358042005424 4.58479796800178
8.215166238349033 1.5086193271918815 3.1580722431391375 3.548474668018014
6.1928076603155855 1.2977805806242102 2.2193164036010717 2.675710676090304
4.491054165803275 1.0827750270340775 1.466155282022747 1.9421238567464503
3.2246250027020533 0.9081527510419243 0.9459530518206589 1.370519199839469
2.297818651375189 0.7837126622095781 0.5862581989220439 0.9278477902435662
1.6279256367514157 0.6894793517624483 0.3424153257073368 0.5960309592816304
1.1394126580031572 0.5963217730083809 0.18438022888653666 0.35871065610823927
0.7915813355435009 0.5014735154197612 0.0904252186485873 0.1996826014751522
0.5562738413331332 0.42947949162246946 0.04204246794341543 0.08475188176724827
0.38687236999133146 0.3434460764479442 0.010741699778555856 0.032684593764831335
0.3020988533473157 0.2835776997526153 0.0038240328509321813 0.014697120743768204
0.24704211885499378 0.24723157425276707 -0.00044229641662365095 0.0002528410188504448
0.20705352095274462 0.21128333103163216 -0.0009007173781870811 -0.0033290927007004812
0.17483278595210452 0.17491716297667986 -3.604873580265281e-06 -8.077215099507151e-05
0.15332280987410396 0.15328666271763686 4.197779080708162e-06 3.194937738642501e-05
0.15109487575129094 0.15111302149439837 -1.125100676383091e-06 -1.702064243101171e-05
0.16705623865506622 0.16707376611299268 -9.038683582517383e-07 -1.6623589568169255e-05
0.157059483909045 0.15678603336031136 4.061998524531294e-05 0.0002328305634882975
0.531732397996666 0.5348624046629001 -0.0004011866868945126 -0.002728819979339443
0.3619617389217422 0.36160384001136936 4.2386490070004316e-05 0.0003155124203028096
0.15428174652986823 0.1542938946724635 -2.5854843353461558e-06 -9.562658259924499e-06
0.17672635645172882 0.17686224720867644 -1.1143274495061744e-05 -0.00012474748245261706
0.16604326322995852 0.16608786810121745 -3.0090264717618683e-06 -4.159584478721377e-05
0.1624027288259878 0.1624022725304612 1.2746668436716983e-06 -8.183713171120655e-07
0.1743324991688011 0.1743647579480626 2.194431352722773e-06 -3.445321061420714e-05
0.1959050719969838 0.19997951484072093 -0.000824050925057805 -0.0032503919186793154
0.2189769873781367 0.21609788267257052 9.633432389590218e-05 0.0027827703816702618
0.23743060259932694 0.22419146906776963 0.00346221127216395 0.009776922259393316
0.2594966375611163 0.21317139695612475 0.011638615698351507 0.034686624906639985
0.2906893278516245 0.20955145173628714 0.026202332713938823 0.05493554340139852
0.33691894103216374 0.18985691294386906 0.04387350294985959 0.10318852513843514
0.4084403002659587 0.18001267583225428 0.07377321372525926 0.15465441070844516
0.5194241910669133 0.1867472263784215 0.11669782921434796 0.21597913547414369
0.7063443950192927 0.222878267950825 0.18455198031081863 0.2989141467576491
0.9824382327664389 0.27450008609840426 0.27775710536648907 0.43018104130154555
1.400498788680924 0.2783472928807633 0.45357346268256854 0.6685780331175919
2.0308167639199963 0.2727007903601238 0.7363561481593067 1.0217598254005649
3.061169968748128 0.4043547748713173 1.1631269974182006 1.4936881964586104
4.988087723400763 0.9953412215548849 1.7687601862095903 2.2239863156362887
8.15326621857888 0.8746031044833499 3.415222397158136 3.8634407169373928
4.988087723402751 0.9953412215551714 1.7687601862105264 2.2239863156370565
3.0611699687479716 0.40435477487136756 1.1631269974180967 1.4936881964585076
2.030816763919116 0.2727007903603933 0.7363561481587446 1.0217598253999784
1.4004987886775502 0.2783472928792523 0.45357346268172927 0.6685780331165672
0.982438232765463 0.2745000860981755 0.2777571053662194 0.4301810413010685
0.7063443950185093 0.2228782679506035 0.18455198031053555 0.29891414675737027
0.5194241910664396 0.1867472263780769 0.11669782921430792 0.21597913547405484
0.4084403002652163 0.18001267583235267 0.07377321372492611 0.15465441070793756
0.33691894103158665 0.18985691294395912 0.04387350294966031 0.10318852513796747
0.2906893278508303 0.20955145173626175 0.02620233271365427 0.05493554340091416
0.25949663756112584 0.21317139695606518 0.011638615698376435 0.034686624906684255
0.23743060259906357 0.22419146906772264 0.003462211272099446 0.009776922259241476
0.21897698737787044 0.2160978826723393 9.633432388389117e-05 0.002782770381647291
0.1959050719965688 0.199979514840245 -0.0008240509250441145 -0.003250391918632128
0.17433249916837693 0.17436475794761577 2.194431354928429e-06 -3.445321059380875e-05
0.16240272882563733 0.1624022725300938 1.2746668447383521e-06 -8.183713012188865e-07
0.1660432632295219 0.16608786810076104 -3.009026470089872e-06 -4.1595844769073125e-05
0.17672635645135729 0.17686224720829227 -1.1143274493439908e-05 -0.00012474748244152296
0.15428174652953253 0.1542938946721541 -2.5854843380770353e-06 -9.562658283522183e-06
0.3619617389208687 0.3616038400102705 4.23864900899119e-05 0.0003155124205082083
0.24239287731299547 0.24239287731299547 0.0 0.0
0.14526221430822475 0.14526305960529676 -3.2154792073469694e-07 -5.237491512661905e-07
0.1799498944558681 0.1799192827875239 2.893602342382726e-06 2.7718066001837145e-05
0.1785696269368195 0.17862544336300612 -4.477284794431172e-06 -5.13391413922115e-05
0.17596096512947834 0.17591343080219235 7.5083836910334716e-06 4.002594359496312e-05
0.1874309548698685 0.18710004968943816 6.117185352260405e-05 0.00026973332690773133
0.21266833176013894 0.2184210345048484 -0.0011680790669835043 -0.004584623677725856
0.24833191054818135 0.248438234821605 -0.00036411831259701763 0.0002577940391733161
0.30190098881593497 0.28331581256730276 0.0038647490117923924 0.01472042723683978
0.38618089352718227 0.3428978484965815 0.01068393741779129 0.03259910761280956
0.5552712070394773 0.4289544327815855 0.04146265139929886 0.08485412285859274
0.7933721071791757 0.502656244569353 0.09207726175110259 0.19863860085871998
1.1427307644422293 0.5978795526574645 0.18510366660345653 0.35974754518130875
1.6354845411663277 0.6914281444304096 0.34497257816595417 0.5990838185699635
2.2938725693619735 0.7814467528289243 0.5859189766596348 0.9265068398734153
3.120196426412794 0.8822862697865632 0.912859481465584 1.3250506751606463
4.010687943449998 0.9869789809778449 1.2834277588967276 1.7402812035754238
4.772221803699425 1.0614367506000977 1.6521101685650033 2.0586748845343257
5.0670031791285135 1.0888878012595729 1.8090818159740882 2.169033561894849
4.158666983135795 0.5459184564010684 1.6793008921192567 1.933447634615469
8.228578715115294 1.583280051558379 3.0468923156032583 3.598406347953655
4.158666983138714 0.5459184564011489 1.6793008921207193 1.9334476346168434
5.0670031791299035 1.0888878012597578 1.8090818159746864 2.1690335618954606
4.7722218036968105 1.0614367505994375 1.6521101685639858 2.0586748845333873
4.01068794344571 0.9869789809774974 1.2834277588948453 1.7402812035733677
3.1201964264114 0.88228626978659 0.9128594814649716 1.3250506751598383
2.293872569360339 0.7814467528292748 0.5859189766588463 0.9265068398722173
1.6354845411644467 0.6914281444303063 0.3449725781651999 0.5990838185689407
1.1427307644394742 0.5978795526568785 0.18510366660260852 0.35974754517998714
0.7933721071766996 0.5026562445684497 0.0920772617505056 0.19863860085774437
0.5552712070372704 0.42895443278057005 0.04146265139885762 0.08485412285784297
0.38618089352630386 0.34289784849581145 0.010683937417767707 0.032599107612724845
0.30190098881534766 0.28331581256688565 0.0038647490117340397 0.014720427236727864
0.24833191054781606 0.24843823482124164 -0.0003641183125975868 0.00025779403917206576
0.21266833175969643 0.21842103450434822 -0.0011680790669693552 -0.00458462367768247
0.18743095486951236 0.18710004968905697 6.117185352477714e-05 0.00026973332693061287
0.1759609651291194 0.17591343080181565 7.508383692143861e-06 4.00259436115903e-05
0.17856962693635353 0.17862544336251923 -4.477284792821856e-06 -5.1339141372841755e-05
0.17994989445553336 0.17991928278717662 2.8936023426262372e-06 2.7718066014138557e-05
0.1452622143079865 0.145263059605067 -3.2154792114515317e-07 -5.237491593554073e-07
0.2423928773124271 0.2423928773124271 0.0 0.0
0.15589732707081802 0.15589732707081802 0.0 0.0
0.13042749289537264 0.13042822301760407 -3.4333122731160884e-08 -6.957891086760974e-07
0.17651127700020094 0.17648533868755947 2.016410127340017e-06 2.39219025141398e-05
0.18737599431219376 0.18733046067377668 6.741537791692081e-06 3.8792100625377955e-05
0.19242532608752783 0.19269323742752287 -2.5265179648397246e-05 -0.00024264616034661338
0.21298669449328805 0.21459397475854602 -0.0002475830958858176 -0.001359697169372143
0.255430391864752 0.25728214769719254 -0.0007608020367324259 -0.0010909537957081658
0.3397753345257791 0.35090482764765407 -0.002746057095935987 -0.00838343602593879
0.5027446352875894 0.45451728444984546 0.009473286099402766 0.03875406473834126
0.8076358524931099 0.5750091652749991 0.0710093964885941 0.16161729072951678
1.253630244256631 0.6786454773286718 0.19001768902189328 0.38496707790606516
1.8502851842577022 0.7940679791540746 0.3854033227921035 0.6708138823115242
2.6131675877923186 0.9159025925411917 0.6643127510203303 1.0329522442307968
3.61336152233491 1.049683744839069 1.06046606250807 1.5032117149877708
4.949395024726977 1.199861319522833 1.6353641612867194 2.114169543917425
6.631554495595589 1.356682960568425 2.409143110940052 2.865728424087113
8.517754176169998 1.5066384154568855 3.314424551757054 3.6966912089560573
10.262686664803926 1.6491400239077174 4.14687323535908 4.466673405537135
11.277956383184975 1.700151229134575 4.6775679491467255 4.900237204903678
10.514717124940288 1.7281917004170833 4.323794448187006 4.462730976336199
12.478506566376392 3.5405952127572586 4.310464821894128 4.627446531725002
10.51471712494061 1.728191700414432 4.32379444818865 4.46273097633753
11.277956383181658 1.7001512291307128 4.677567949146996 4.90023720490395
10.262686664799153 1.6491400239070113 4.1468732353568445 4.466673405535296
8.517754176168301 1.5066384154598331 3.3144245517546063 3.696691208953857
6.631554495588225 1.3566829605646136 2.409143110938234 2.8657284240853755
4.949395024721542 1.1998613195215815 1.6353641612846586 2.114169543915301
3.6133615223295337 1.0496837448378233 1.0604660625061686 1.5032117149855417
2.6131675877883027 0.9159025925407506 0.6643127510187479 1.0329522442288042
1.8502851842528587 0.7940679791533113 0.38540332279036704 0.6708138823091806
1.2536302442524494 0.6786454773278794 0.19001768902059224 0.3849670779039781
0.8076358524900006 0.5750091652738629 0.07100939648786195 0.16161729072827577
0.5027446352863542 0.4545172844490347 0.009473286099288599 0.03875406473803049
0.3397753345248603 0.35090482764683023 -0.002746057095962218 -0.008383436026007843
0.2554303918641875 0.2572821476964233 -0.0007608020366937984 -0.0010909537955421215
0.2129866944927179 0.214593974758002 -0.0002475830958886114 -0.0013596971693954042
0.1924253260871311 0.19269323742709457 -2.526517964437208e-05 -0.0002426461603190909
0.18737599431187246 0.18733046067343592 6.74153779291067e-06 3.879210064361902e-05
0.17651127699988328 0.17648533868725214 2.0164101265430307e-06 2.3921902504595976e-05
0.13042749289525143 0.1304282230174821 -3.433312268844444e-08 -6.957891079894279e-07
0.15589732707046783 0.15589732707046783 0.0 0.0
0.09587674953800898 0.09587674953800898 0.0 0.0
0.11142287345217974 0.11142287345217974 0.0 0.0
0.16696080058245205 0.16693653801096037 1.7498561801295798e-06 2.2512715311568723e-05
0.1921216256572395 0.19219115644143692 -5.218320297586886e-06 -6.431246389986003e-05
0.21103854852151496 0.21116369692688652 -1.3639117051731607e-05 -0.00011150928831986536
0.2489502277314702 0.24794041886795415 0.00015641889117264552 0.000853389972343383
0.32770479883940506 0.3458133615972803 -0.004187486349369406 -0.013921076408505715
0.5014634667606589 0.460976095316705 0.005979422327760531 0.03450794911619329
0.8557660997070413 0.6069978104536208 0.07174718078163977 0.1770211084717807
1.4543936376786366 0.7590944830057392 0.25763911164610587 0.4376600430267912
2.1812206187972722 0.8795714904163127 0.49260528539322485 0.8090438429877345
3.111424835494689 1.0126794977152198 0.8446374743818379 1.2541078633976315
4.303889578612371 1.1658036407555592 1.3364017191113922 1.8016842187454212
5.8734761586028315 1.338321623668439 2.023555427864471 2.5115991070699204
7.979446839358087 1.5333762477204753 3.012990290088091 3.433080301549521
10.599955847933064 1.73152399713737 4.293327903522059 4.575103947273634
13.67842956408619 1.9174542746473522 5.905835837380285 5.855139452058557
16.574699343485687 2.0356726928761297 7.446183310510419 7.092843340099135
18.279164005491683 2.016047863998546 8.428817379249992 7.834298762243143
17.006478545759308 1.8453165795026167 7.806607018931338 7.35455494732535
19.06111090679507 5.589164217688522 6.839829321547773 6.632117367558779
17.006478545761667 1.8453165795030924 7.806607018932428 7.354554947326153
18.279164005490834 2.016047863999263 8.428817379249088 7.834298762242483
16.57469934348169 2.0356726928776734 7.446183310507282 7.092843340096734
13.678429564076927 1.917454274643467 5.905835837377268 5.855139452056188
10.59995584792444 1.73152399713675 4.2933279035177465 4.575103947269944
7.979446839353216 1.5333762477208666 3.0129902900853494 3.433080301547002
5.873476158596635 1.3383216236686635 2.023555427861239 2.5115991070667314
4.3038895786046405 1.1658036407535461 1.3364017191086375 1.801684218742457
3.1114248354876746 1.0126794977146576 0.8446374743788737 1.2541078633941425
2.181220618791402 0.8795714904155152 0.492605285391032 0.8090438429848543
1.4543936376740387 0.759094483005116 0.257639111644449 0.4376600430244735
0.8557660997040821 0.6069978104525 0.07174718078095954 0.17702110847062277
0.5014634667591306 0.4609760953159207 0.005979422327556514 0.034507949115653275
0.32770479883858344 0.3458133615962804 -0.004187486349318425 -0.013921076408378502
0.24895022773085312 0.24794041886716925 0.00015641889119383392 0.0008533899724900649
0.2110385485210317 0.21116369692641013 -1.3639117053688517e-05 -0.00011150928832471857
0.19212162565696095 0.1921911564411383 -5.218320295818337e-06 -6.431246388149186e-05
0.16696080058209384 0.1669365380106094 1.749856179479478e-06 2.2512715304933934e-05
0.11142287345202254 0.11142287345202254 0.0 0.0
0.09587674953778401 0.09587674953778401 0.0 0.0
0.05595342529441224 0.05595342529441224 0.0 0.0
0.09062950218224976 0.09062950218224976 0.0 0.0
0.15258580145390033 0.15257875808570506 4.3574774429583853e-07 6.607620450981613e-06
0.1932847788175328 0.1931795784756251 1.21103505880072e-05 9.30899913196835e-05
0.23139419820553075 0.23166258270127504 -2.200889373383079e-05 -0.0002463756020104425
0.2961968295067599 0.3034783519108291 -0.0013688256877943277 -0.005912696716274816
0.43540122230590245 0.4292720897249126 -0.0006349177870836756 0.0067640503680733086
0.7535119151087988 0.5820520543928698 0.04578569742580531 0.12567416329012346
1.3670575172340258 0.7615785959750581 0.22464785098824533 0.38083107027072227
2.1425791542540336 0.8884422671597941 0.46414442095612923 0.7899924661381101
3.1919240075078337 1.0437681874629388 0.8689413206116166 1.2792144994332788
4.479033087771496 1.2045193079836651 1.4026214468795892 1.8718923329082415
6.13115745975994 1.3886186684834525 2.1287058090860813 2.613832982190405
8.330177323448119 1.6036725722582599 3.1532711913360125 3.5732335598538496
11.226707635186324 1.8447263808647125 4.567312161702245 4.814669092619368
14.973970835225803 2.1013707686211904 6.52445114285658 6.348148923748035
19.116342147606716 2.3069518309033223 8.710382737641869 8.099007579061531
23.22879801560513 2.3709272900404774 11.094782428857211 9.763088296707433
25.606438901974872 2.2008475662900144 12.62144471889481 10.784146616790041
23.831570673079426 1.9176383982044385 11.732209209712094 10.181723065162899
26.201588294054407 7.56858370572575 9.778648436948565 8.854356151380083
23.831570673080677 1.9176383982038052 11.732209209713226 10.181723065163638
25.606438901973004 2.200847566290915 12.621444718893155 10.784146616788934
23.228798015599494 2.370927290040392 11.094782428853934 9.763088296705167
19.11634214759586 2.3069518309011148 8.710382737636905 8.099007579057844
14.973970835217582 2.1013707686224015 6.524451142851294 6.348148923743886
11.226707635176192 1.8447263808612795 4.567312161698666 4.814669092616246
8.330177323439262 1.6036725722576497 3.1532711913316955 3.5732335598499176
6.131157459750256 1.3886186684830228 2.1287058090814233 2.61383298218581
4.4790330877626605 1.2045193079828862 1.402621446875767 1.8718923329040076
3.1919240074995097 1.0437681874616223 0.8689413206084883 1.2792144994293988
2.142579154247941 0.8884422671592059 0.46414442095380837 0.7899924661349274
1.3670575172295263 0.7615785959741206 0.2246478509867428 0.3808310702686626
0.7535119151060877 0.5820520543917315 0.04578569742524654 0.12567416328911007
0.4354012223045999 0.4292720897238651 -0.0006349177871588759 0.006764050367893371
0.29619682950621207 0.3034783519102039 -0.0013688256877730492 -0.0059126967162188345
0.23139419820497686 0.23166258270068552 -2.2008893729937923e-05 -0.0002463756019787351
0.19328477881720674 0.19317957847529674 1.211035058774905e-05 9.308999132227693e-05
0.15258580145357697 0.1525787580853847 4.3574774405297814e-07 6.607620448196673e-06
0.09062950218209062 0.09062950218209062 0.0 0.0
0.05595342529428082 0.05595342529428082 0.0 0.0
0.03075183070570958 0.03075183070570958 0.0 0.0
0.0701529807061262 0.0701529807061262 0.0 0.0
0.13515389922204107 0.13515389922204107 0.0 0.0
0.19200995625809086 0.19194586952954712 6.040838194838018e-06 5.804589034893029e-05
0.25390750145370283 0.2532394023071436 0.0001207480021975299 0.0005473511443616482
0.3569248976878599 0.36993690308039034 -0.003077652627703672 -0.00993435276482673
0.5909241726001591 0.521151958964655 0.016069908474448315 0.053702305161055716
1.1138491127906216 0.714752876455395 0.14274780222525707 0.25634843410996944
1.8745031357027389 0.8554713559440299 0.36622392522401054 0.6528078545346983
2.944036254256756 1.0251429991460952 0.7643446324145825 1.1545486226960784
4.261028833637661 1.194025946899822 1.3014697544178482 1.76553313231999
5.924076913331319 1.3821720254918575 2.027719454182172 2.51418543365729
8.085783133608597 1.6029477798304987 3.026577815171549 3.4562575386065504
10.97578470135158 1.8621005544027673 4.441922392363266 4.671761754585548
14.734670897291059 2.163039841694542 6.339127948101069 6.2325031074954484
19.4629527951477 2.4720941710383704 8.83251731256753 8.1583413115418
25.024500544875806 2.7046875565400126 11.980310518136896 10.339502470198893
30.163287770877524 2.687220213270881 15.028014303210819 12.448053254395823
32.92334338718263 2.309478184397915 16.884561703544247 13.72930349924048
30.77155056052795 1.9855582409890378 15.82512686212461 12.960865457414295
33.999321218272954 9.658338759784126 13.175242353622163 11.16574010486666
30.771550560525785 1.9855582409861334 15.825126862125071 12.960865457414581
32.92334338717745 2.309478184397512 16.884561703541323 13.729303499238615
30.163287770867864 2.687220213268622 15.028014303206353 12.44805325439289
25.02450054486569 2.704687556540813 11.980310518130446 10.339502470194429
19.46295279513502 2.4720941710365913 8.83251731256126 8.158341311537168
14.734670897279369 2.1630398416929864 6.339127948095413 6.232503107490964
10.975784701341524 1.8621005544020064 4.44192239235829 4.671761754581227
8.08578313359795 1.6029477798311074 3.0265778151657337 3.456257538601106
5.924076913320399 1.3821720254899508 2.027719454177703 2.514185433652745
4.261028833627814 1.1940259468991659 1.3014697544135008 1.7655331323151482
2.9440362542488643 1.025142999145123 0.7643446324114838 1.1545486226922579
1.8745031356972535 0.8554713559429035 0.3662239252223293 0.6528078545320206
1.1138491127866077 0.7147528764542679 0.14274780222409 0.2563484341082492
0.590924172598106 0.5211519589635241 0.016069908474168434 0.05370230516041374
0.35692489768713015 0.3699369030794301 -0.0030776526276513703 -0.00993435276464853
0.2539075014531727 0.2532394023065777 0.00012074800219985277 0.0005473511443951667
0.1920099562577196 0.19194586952918252 6.040838194107054e-06 5.8045890342973e-05
0.13515389922184912 0.13515389922184912 0.0 0.0
0.070152980706017 0.070152980706017 0.0 0.0
0.03075183070566009 0.03075183070566009 0.0 0.0
0.015880802466377526 0.015880802466377526 0.0 0.0
0.05164844189598348 0.05164844189598348 0.0 0.0
0.11668035983916031 0.11668035983916031 0.0 0.0
0.1901496313679206 0.19008680169603734 5.622717784786087e-06 5.720695409850619e-05
0.28060798409546056 0.2826169130908343 -0.00031764785532957497 -0.0016912811400440033
0.4363559673051377 0.42377007684197043 0.001197914146981889 0.011387976316185438
0.8154525507941991 0.6316213860633069 0.06178892599920434 0.12204223873168799
1.4848845492560925 0.7954358926993844 0.23654468915724147 0.45290396739946676
2.48056555411477 0.9680914890676522 0.5832785818192945 0.9291954832278239
3.7658638975318253 1.1454566516509417 1.0893767165049835 1.5310305293758995
5.389072382132324 1.3369531477579215 1.7850602996064737 2.26705893476793
7.4625076268485575 1.5561437916419785 2.7309835653117385 3.17538026989484
10.189437201493476 1.8172374032097418 4.047731547318369 4.324468250965366
13.70099719862309 2.1236735572947176 5.7734686354321285 5.803855005896241
18.391219286249324 2.4761574516920293 8.235201252290448 7.6798605822668495
24.266295850085015 2.853123810402065 11.435536481616296 9.977635558066659
30.89391331050693 3.1126891152272385 15.194149162017693 12.587075033261993
37.10867522314479 2.9872899975276175 19.03764416396056 15.083741061656635
40.45071825545591 2.393724062422249 21.457174353109483 16.59981983992418
37.92488917677147 2.0258656960453743 20.131668824185518 15.767354656540572
42.2446030439048 11.873195936675636 16.745828755574692 13.625578351654472
37.92488917676893 2.0258656960444936 20.131668824184494 15.767354656539947
40.45071825545169 2.3937240624244445 21.457174353105536 16.599819839921715
37.10867522313551 2.987289997527206 19.037644163955083 15.083741061653223
30.89391331049299 3.112689115226527 15.194149162009726 12.587075033256731
24.266295850071362 2.8531238104012187 11.43553648160877 9.977635558061376
18.391219286235742 2.4761574516910305 8.235201252283268 7.679860582261445
13.700997198608393 2.123673557290949 5.773468635426098 5.803855005891344
10.189437201479368 1.8172374032093117 4.0477315473110895 4.324468250958965
7.462507626834992 1.556143791639647 2.7309835653060173 3.1753802698893296
5.389072382120569 1.3369531477566492 1.7850602996013567 2.2670589347625616
3.7658638975226055 1.1454566516503242 1.0893767165010075 1.5310305293712747
2.4805655541076352 0.9680914890663023 0.5832785818169232 0.9291954832244091
1.484884549251066 0.7954358926985031 0.23654468915557791 0.45290396739698496
0.8154525507911583 0.6316213860620862 0.06178892599853052 0.12204223873054103
0.4363559673039791 0.4237700768408659 0.001197914146953187 0.011387976316160044
0.28060798409482757 0.2826169130901683 -0.0003176478553250191 -0.0016912811400156946
0.19014963136752353 0.19008680169564637 5.6227177840943e-06 5.7206954093084954e-05
0.11668035983897655 0.11668035983897655 0.0 0.0
0.05164844189587101 0.05164844189587101 0.0 0.0
0.01588080246635658 0.01588080246635658 0.0 0.0
0.007828773208675139 0.007828773208675139 0.0 0.0
0.036291905294233415 0.036291905294233415 0.0 0.0
0.09923535077641923 0.09923535077641923 0.0 0.0
0.1902438106080034 0.1902248271522061 1.300615864217136e-06 1.768283993303967e-05
0.3143689111841519 0.31804353403984664 -0.0007036255593284078 -0.002970997296366444
0.5508872650208749 0.512467520821579 0.009792646841881268 0.028627097357414845
1.071736167327808 0.7090087768627487 0.11693397440104095 0.24579341606401864
1.9177655545500274 0.8815627823366542 0.37839370859541455 0.6578090636179581
3.0998388174571003 1.0660280047121051 0.8170504746758391 1.2167603380691563
4.631436349223696 1.260204421615242 1.4531888566620537 1.918043070946402
6.563227678184914 1.4741882515588807 2.307106795445468 2.7819326311805637
9.073099986299765 1.728340749337371 3.489403617048618 3.8553556199137766
12.303192681818304 2.0305778975011584 5.053164481561714 5.219450302755431
16.670804522508256 2.391026087546347 7.320631110175287 6.959147324786623
22.204189284475873 2.7984811717384734 10.249764096159403 9.155944016578
29.017829755995272 3.2164177010368538 13.99433175241863 11.807080302539797
36.826683841498095 3.5094579277903253 18.54513944855183 14.772086465155944
44.092306367033586 3.3177525646064874 23.137161886041348 17.63739191638575
48.0790152697146 2.4933216752376413 26.12568060506323 19.460012989413737
45.448208994373175 2.003933801949662 24.805878575896095 18.638396616527437
51.33429513803903 14.188087693485981 20.899939558539774 16.24626788601327
45.448208994370944 2.003933801949583 24.80587857589474 18.638396616526627
48.07901526970569 2.493321675236803 26.125680605058143 19.46001298941075
44.092306367018686 3.3177525646029467 23.137161886034267 17.637391916381475
36.82668384148352 3.5094579277913422 18.545139448542297 14.772086465149892
29.017829755978692 3.216417701034418 13.994331752410147 11.80708030253412
22.204189284459623 2.7984811717371034 10.249764096150745 9.155944016571777
16.670804522491956 2.391026087544779 7.320631110166975 6.959147324780202
12.303192681803413 2.0305778975013684 5.053164481553468 5.219450302748578
9.073099986284253 1.7283407493361933 3.48940361704115 3.8553556199069092
6.5632276781713585 1.4741882515576126 2.307106795439312 2.7819326311744357
4.63143634921313 1.2602044216141757 1.4531888566574889 1.9180430709414678
3.0998388174488594 1.0660280047114836 0.8170504746724367 1.216760338064938
1.917765554544037 0.8815627823356751 0.3783937085936011 0.6578090636147607
1.0717361673240111 0.7090087768617207 0.11693397439998607 0.24579341606230454
0.5508872650192085 0.5124675208205197 0.009792646841688336 0.02862709735700037
0.314368911183531 0.31804353403914837 -0.0007036255593135427 -0.002970997296303889
0.19024381060766926 0.1902248271518777 1.3006158637357774e-06 1.768283992781072e-05
0.09923535077623982 0.09923535077623982 0.0 0.0
0.036291905294173324 0.036291905294173324 0.0 0.0
0.007828773208660763 0.007828773208660763 0.0 0.0
0.003853643232119695 0.003853643232119695 0.0 0.0
0.02468042228737039 0.02468042228737039 0.0 0.0
0.08499107427964177 0.08499107427964177 0.0 0.0
0.19564226851067604 0.19561126038789686 1.5386726525572254e-06 2.9469450126598963e-05
0.3613659791885613 0.3625273443605912 -0.0006496240570041617 -0.0005117411150257687
0.7093569366545337 0.5955196307048399 0.035550497049944195 0.07828680889974941
1.3604573535829116 0.7682396005037518 0.19568540639826956 0.3965323466808901
2.3776541509161473 0.9629894273661308 0.5423790445642698 0.8722856789857463
3.7417498962379763 1.1571411799017446 1.0725186458457354 1.512090070490496
5.524462822116313 1.3685308886917258 1.840718649187826 2.3152132842367608
7.805543480621817 1.611053858893304 2.8855940776203424 3.3088955441081715
10.729996977938345 1.8987796251108704 4.277935386483086 4.553281966344392
14.643669062585316 2.252799696669361 6.260308545431261 6.130560820484693
19.638415822281114 2.668109546162524 8.820488274368262 8.149818001750322
26.110161415478736 3.1204911691933854 12.334356815968636 10.655313430316717
33.93551237500684 3.5512662841619855 16.760593887816906 13.623652203027952
42.662291224803454 3.849194865474912 21.917468476524597 16.895627882803943
50.97582034051243 3.7340201222281664 27.17249929523044 20.06930092305384
55.836123363750566 2.670793214111351 30.94447091434716 22.22085923529206
53.40920567347471 1.8519215635534034 29.93474446149618 21.622539648425125
61.32671195498393 16.476924554668148 25.6729726569005 19.17681474341527
53.40920567346734 1.8519215635500212 29.934744461493715 21.622539648423597
55.83612336374041 2.6707932141117396 30.94447091434048 22.2208592352882
50.97582034049783 3.734020122228453 27.172499295221037 20.069300923048335
42.66229122478595 3.8491948654738644 21.917468476514422 16.89562788279766
33.93551237498773 3.551266284159379 16.760593887806923 13.623652203021436
26.11016141545959 3.120491169190954 12.334356815958738 10.655313430309896
19.638415822263077 2.668109546161565 8.82048827435845 8.149818001743064
14.643669062565595 2.2527996966668407 6.260308545421686 6.1305608204770605
10.729996977921429 1.8987796251103723 4.277935386474244 4.553281966336815
7.805543480606956 1.6110538588924714 2.8855940776131757 3.308895544101308
5.5244628221037235 1.3685308886898437 1.8407186491826104 2.315213284231268
3.7417498962285665 1.157141179900394 1.0725186458420828 1.5120900704860891
2.3776541509089832 0.9629894273650831 0.5423790445617082 0.8722856789821924
1.3604573535783875 0.7682396005023421 0.1956854063973141 0.39653234667873116
0.7093569366522898 0.5955196307038685 0.0355504970495201 0.07828680889890123
0.3613659791877732 0.3625273443597363 -0.0006496240569907144 -0.0005117411149725554
0.19564226851034813 0.19561126038757856 1.5386726516919999e-06 2.9469450117884424e-05
0.08499107427950196 0.08499107427950196 0.0 0.0
0.024680422287339424 0.024680422287339424 0.0 0.0
0.0038536432321113552 0.0038536432321113552 0.0 0.0
0.0018297852405216447 0.0018297852405216447 0.0 0.0
0.016668115755300694 0.016668115755300694 0.0 0.0
0.07672193737422386 0.07672193737422386 0.0 0.0
0.21148756065136565 0.21146563227711376 3.493613385583662e-06 1.843476086630826e-05
0.43691878315920957 0.43106674431731473 0.0014632936001869237 0.0043887452417077305
0.8962455543139511 0.6622305361886437 0.07236899720226316 0.1616460209230442
1.6885743678270768 0.840951336730559 0.30020549925442097 0.5474175318420971
2.8500078389893346 1.0381250310268646 0.7172837622465227 1.0945990457159471
4.416718411527125 1.2441315881717068 1.3586885548831977 1.8138982684722198
6.445895715375049 1.4733960573817337 2.251490101859045 2.7210095561342693
9.072706777514616 1.7438912709221281 3.4793920638569253 3.849423442735564
12.527282477682254 2.075334122931593 5.187171785235295 5.264776569515366
16.936701880752327 2.4767826698332907 7.388348613615589 7.0715705973034435
22.78989568034811 2.9476655775641496 10.486068796248746 9.356161306535219
30.17130380583154 3.450603114054553 14.551196154580397 12.1695045371966
38.92185284261379 3.880589887227627 19.59683537375852 15.444427581627645
48.38450701472972 4.093405654693303 25.345952751712222 18.945148608324203
57.44880017993931 4.047776234167551 31.11066991000994 22.29035403576182
63.69082447444455 3.270839181602798 35.600566080998064 24.81941921184367
61.838323048852395 1.4708801020733193 35.5890734127417 24.77836953403737
72.10790949944426 17.864826758354646 31.64388383307643 22.5991989080132
61.838323048846036 1.4708801020733542 35.58907341273759 24.778369534035086
63.69082447443169 3.270839181601813 35.60056608099044 24.81941921183944
57.44880017992152 4.047776234166694 31.11066990999916 22.290354035755662
48.38450701470775 4.093405654690839 25.345952751700047 18.945148608316885
38.92185284259138 3.8805898872252484 19.596835373746213 15.444427581619914
30.171303805809373 3.4506031140519533 14.551196154568657 12.169504537188775
22.789895680326683 2.9476655775620904 10.48606879623744 9.356161306527149
16.936701880732034 2.4767826698330944 7.388348613604206 7.0715705972947305
12.527282477662276 2.075334122930349 5.187171785225061 5.264776569506864
9.072706777497817 1.743891270920073 3.4793920638491387 3.8494234427286096
6.4458957153612895 1.4733960573805887 2.2514901018527183 2.721009556127983
4.416718411515729 1.2441315881691908 1.3586885548790377 1.8138982684675016
2.8500078389812566 1.03812503102594 0.7172837622434323 1.094599045711885
1.688574367821733 0.8409513367292765 0.30020549925290063 0.5474175318395561
0.8962455543111563 0.6622305361877023 0.07236899720158746 0.16164602092186695
0.43691878315819876 0.43106674431646175 0.0014632936001385832 0.004388745241598514
0.21148756065101465 0.21146563227674284 3.49361338678022e-06 1.843476088501837e-05
0.07672193737410773 0.07672193737410773 0.0 0.0
0.016668115755270344 0.016668115755270344 0.0 0.0
0.0018297852405166058 0.0018297852405166058 0.0 0.0
0.0004440163268844145 0.0004440163268844145 0.0 0.0
0.011745933158589222 0.011745933158589222 0.0 0.0
0.07822243737857795 0.07822243737857795 0.0 0.0
0.24711817195113583 0.24712423257024402 1.2501714781432103e-05 -1.856233388959665e-05
0.552262124535097 0.5189226034329484 0.010525901720050612 0.022813619382097933
1.1269380208690476 0.7717797024918642 0.1168219767116569 0.23833634166552642
2.0447497821641525 0.9754802482264775 0.3932380403043907 0.6760314936332841
3.3648012805442473 1.2248003150649618 0.8686211522098412 1.271379813269446
5.138234902216856 1.507735308876799 1.577551485058292 2.052948108281765
7.4872096236429915 1.8557964447900914 2.5910282797453865 3.0403848991075146
10.565642600834764 2.3065143018738 3.9872532757145263 4.271875023246435
14.539085043347454 2.8943047737871517 5.818097777712927 5.826682491847378
19.79589107673842 3.6330085580797173 8.360747886470532 7.802134632188172
26.619596790117676 4.530520838474326 11.800142268999965 10.288933682643385
35.11325975340506 5.491324570231024 16.302461096681906 13.319474086492125
44.94809788142581 6.29713641015496 21.851269798493494 16.799691672777357
55.14605790915513 6.650230657022056 28.01107117948743 20.484756072645656
64.23399767122072 6.348216685889259 33.98128576792923 23.904495217402214
71.08086784833597 5.8788760208688435 38.6845273334822 26.517464493984946
68.83792886179572 1.5380312377229108 39.98880101826628 27.311096605806505
104.06988037140306 40.17528036753359 37.89618799942279 25.998412004446692
68.83792886178983 1.5380312377243155 39.98880101826157 27.311096605803943
71.08086784831713 5.878876020863227 38.68452733347368 26.51746449398022
64.23399767119507 6.348216685882598 33.98128576791726 23.90449521739523
55.14605790913319 6.650230657023053 28.011071179472964 20.48475607263719
44.948097881402234 6.297136410154571 21.85126979847918 16.799691672768468
35.11325975338027 5.491324570228507 16.30246109666849 13.319474086483254
26.61959679009346 4.530520838471652 11.800142268987253 10.288933682634564
19.795891076713122 3.633008558075179 8.360747886458658 7.802134632179284
14.53908504332554 2.894304773786494 5.818097777701129 5.826682491837915
10.565642600813792 2.306514301867935 3.9872532757064523 4.271875023239405
7.487209623627285 1.8557964447881168 2.5910282797382957 3.0403848991008733
5.13823490220424 1.5077353088747971 1.5775514850531414 2.0529481082763015
3.3648012805350263 1.224800315063702 0.8686211522062816 1.2713798132650427
2.0447497821580733 0.975480248225375 0.39323804030242177 0.6760314936302761
1.1269380208656898 0.7717797024907862 0.11682197671096417 0.23833634166393947
0.5522621245335981 0.5189226034317257 0.01052590171995713 0.02281361938191537
0.24711817195070762 0.24712423256980748 1.250171478254335e-05 -1.8562333882412077e-05
0.0782224373784606 0.0782224373784606 0.0 0.0
0.011745933158568502 0.011745933158568502 0.0 0.0
0.00044401632688408164 0.00044401632688408164 0.0 0.0
CELL_DATA 800
SCALARS Stress float 6
LOOKUP_TABLE default
129.99527736345405 -495.8181814832787 -186.0117018611224 -102.44552722312146 0.0 0.0
393.05787617509736 15.836963181446652 125.48571521270017 65.48789016381743 0.0 0.0
366.1172511476577 -1.8215173801419402 109.09253412534999 -7.870360006837497 0.0 0.0
428.70480254770825 -2.8239485837227702 127.45914654203006 -11.312942639413674 0.0 0.0
497.2503030736825 -9.456517597277351 158.79913639128358 -10.684157885033658 0.0 0.0
562.3699984049517 2.768675255764707 217.01941294247217 -8.894906632240975 0.0 0.0
624.1700822489854 12.942077389636488 275.192505947999 -8.889759048137645 0.0 0.0
685.2714616618399 31.67200850750868 332.3384574883321 -9.62690882620156 0.0 0.0
746.6113324931724 56.00736687639032 385.9860449444858 -10.379803271763066 0.0 0.0
808.5895411158667 84.1043219135139 436.95684532947126 -10.823019930218933 0.0 0.0
871.0375631931048 113.80807182733497 485.94711000864095 -10.964438113000854 0.0 0.0
934.1720668398743 145.49047400384853 534.6830450923052 -10.902895051957639 0.0 0.0
998.8039671247408 177.5696944431548 583.5801067484819 -10.816291293036377 0.0 0.0
1065.408407526404 210.92685286902886 633.7697393061222 -10.73793017826735 0.0 0.0
1134.662614701075 247.3515267562762 686.6883610691469 -10.60732322360009 0.0 0.0
1206.0495385981053 287.5280216533653 742.5289851303692 -10.223568535195268 0.0 0.0
1276.93074938479 330.4490024742091 799.5028867908889 -9.38554114732409 0.0 0.0
1342.746791769409 373.1000244733611 853.7763784060229 -7.955782071568691 0.0 0.0
1398.508855049011 411.85170072744177 900.9921614463425 -6.323519844897015 0.0 0.0
1448.6728338659427 452.9512526366567 946.2240323778406 -6.10443081266015 0.0 0.0
1448.6728338662497 452.9512526369711 946.2240323780428 6.104430812665056 0.0 0.0
1398.5088550490416 411.8517007274927 900.9921614463266 6.323519844981016 0.0 0.0
1342.7467917690053 373.1000244729928 853.7763784056276 7.955782071610693 0.0 0.0
1276.9307493844406 330.44900247391 799.5028867905542 9.385541147315234 0.0 0.0
1206.0495385981915 287.5280216535149 742.5289851303573 10.223568535161624 0.0 0.0
1134.6626147010547 247.3515267563286 686.6883610691107 10.607323223605691 0.0 0.0
1065.4084075260726 210.92685286878822 633.7697393058384 10.737930178289291 0.0 0.0
998.8039671241111 177.56969444263729 583.58010674799 10.816291293081163 0.0 0.0
934.172066839507 145.49047400362107 534.6830450919858 10.902895051976987 0.0 0.0
871.037563192676 113.80807182707349 485.94711000827306 10.96443811303451 0.0 0.0
808.5895411152961 84.10432191311182 436.95684532899946 10.82301993014178 0.0 0.0
746.6113324929269 56.007366876332675 385.986044944242 10.379803271797186 0.0 0.0
685.2714616615476 31.67200850742236 332.3384574880423 9.626908826189538 0.0 0.0
624.1700822488124 12.942077389696099 275.1925059477743 8.889759048096717 0.0 0.0
562.3699984046953 2.7686752557538803 217.01941294221123 8.894906632205402 0.0 0.0
497.25030307335857 -9.456517597370288 158.7991363910818 10.684157885040337 0.0 0.0
428.7048025474551 -2.823948583707126 127.45914654197183 11.312942639354075 0.0 0.0
366.1172511475154 -1.821517380066113 109.09253412533315 7.870360006831429 0.0 0.0
393.0578761750382 15.836963181521636 125.48571521267893 -65.4878901637295 0.0 0.0
129.995277364006 -495.8181814827176 -186.01170186057934 102.44552722278632 0.0 0.0
40.252076117717195 -523.1515060903082 -233.76291594604828 -140.93409625828238 0.0 0.0
232.60532908905154 21.076970176249496 76.10468977959032 17.033191376025766 0.0 0.0
323.42365641121063 15.880241884356012 101.79067936234209 -9.785433134914662 0.0 0.0
384.03350326978506 -1.2220553658718636 114.6756795550864 -30.89533413775638 0.0 0.0
466.16174006248673 -10.963737242059175 140.92001136411952 -30.73444715398077 0.0 0.0
535.5817172472492 0.43555322129843077 195.28702198378483 -26.960653868527757 0.0 0.0
602.4374736111013 10.366384429563535 255.10469378460152 -27.212952915881164 0.0 0.0
664.3613919980255 27.62024689708288 313.55761432851773 -28.15299242908108 0.0 0.0
724.2581258959723 49.89344779770456 367.47109743380554 -29.099279448321457 0.0 0.0
783.6740180826248 75.53180266237976 417.4939581447562 -29.46198128004643 0.0 0.0
842.9984660459992 102.74441738588061 464.7471560912394 -29.176684403035846 0.0 0.0
902.7546035101986 130.27193389218633 510.3503403462837 -28.532198356940047 0.0 0.0
962.9661335112683 158.82773036316328 555.6025830028875 -27.830392309620173 0.0 0.0
1025.240205959997 188.51199400246702 601.951087194202 -27.300572041513725 0.0 0.0
1090.0096474490874 220.72787338335593 650.6250056619699 -26.766023874147827 0.0 0.0
1156.5046454199135 256.26886388680407 701.7579400709094 -25.723212718754766 0.0 0.0
1222.4980499023393 294.35090158972105 753.8858469848601 -23.72213834349992 0.0 0.0
1284.51000019534 333.0024829976157 804.2615040553067 -20.579863304885972 0.0 0.0
1340.6872319823135 371.9780851733042 851.7361609288147 -16.718670208533972 0.0 0.0
1378.9340014700274 400.58001799570906 885.0113064659249 -11.074159248848888 0.0 0.0
1378.93400147024 400.58001799593103 885.0113064660563 11.074159248872492 0.0 0.0
1340.6872319821928 371.9780851732038 851.7361609287186 16.718670208592137 0.0 0.0
1284.5100001946912 333.0024829969999 804.2615040548327 20.579863304947597 0.0 0.0
1222.4980499019416 294.35090158936595 753.8858469844918 23.7221383435053 0.0 0.0
1156.5046454195774 256.26886388652713 701.7579400706023 25.72321271875436 0.0 0.0
1090.0096474482018 220.72787338253355 650.6250056612059 26.7660238741774 0.0 0.0
1025.2402059595656 188.51199400212565 601.9510871937547 27.30057204155261 0.0 0.0
962.9661335112324 158.82773036325574 555.602583002774 27.830392309671147 0.0 0.0
902.7546035103853 130.27193389251494 510.350340346358 28.53219835691071 0.0 0.0
842.9984660458302 102.74441738588132 464.74715609108176 29.176684403043918 0.0 0.0
783.6740180823924 75.53180266232249 417.4939581445219 29.46198128003246 0.0 0.0
724.2581258955846 49.89344779749658 367.47109743346306 29.099279448310902 0.0 0.0
664.3613919978957 27.620246897185954 313.55761432831787 28.15299242907946 0.0 0.0
602.4374736111246 10.366384429864137 255.10469378448568 27.212952915922422 0.0 0.0
535.5817172469813 0.4355532213349953 195.28702198355393 26.960653868577435 0.0 0.0
466.1617400621783 -10.963737242087253 140.92001136397226 30.73444715394544 0.0 0.0
384.03350326958054 -1.2220553658243447 114.67567955504882 30.895334137721665 0.0 0.0
323.42365641107483 15.880241884268722 101.79067936227553 9.785433134874951 0.0 0.0
232.60532908920675 21.07697017645326 76.10468977969799 -17.033191376127178 0.0 0.0
40.252076118099 -523.1515060898932 -233.7629159456273 140.93409625803673 0.0 0.0
0.7128161100480526 -519.196643225085 -239.96548414805238 -154.73467113854448 0.0 0.0
135.7487007092368 9.58535239630202 43.60021593166164 -34.85158536816874 0.0 0.0
263.32236964110655 24.168494514309174 86.24725924662471 -27.829700137429384 0.0 0.0
339.28262771484356 2.52095174171542 102.52782784965146 -48.63284461943924 0.0 0.0
423.32986917659656 -7.208395119202287 125.64646381506087 -52.44073313747606 0.0 0.0
507.0626327926699 -5.643178917043722 170.36509874693917 -47.834155259163495 0.0 0.0
575.9581364475443 8.889861930569518 232.31078573855524 -45.81010526020556 0.0 0.0
638.6186457336732 23.384689280446423 291.0217668885998 -46.67155517994971 0.0 0.0
698.1161458974582 43.734303464291386 345.8255521534875 -47.517797945219044 0.0 0.0
755.3509533866546 66.80729937783849 395.3779891377702 -47.621491534673936 0.0 0.0
811.6028987812889 90.90850447690806 440.89338697403855 -46.91644245246944 0.0 0.0
867.3281462428464 115.38019886393828 483.83364717402355 -45.67328715728281 0.0 0.0
924.1255752990116 139.78768923626268 525.7854116132014 -44.50837092669282 0.0 0.0
982.1576492995068 165.90875687863047 568.4922102291806 -43.55420761053019 0.0 0.0
1042.1294120389314 193.8260744882857 612.7411513057959 -42.65435789070382 0.0 0.0
1103.5845806164443 224.391633718352 658.9335703896758 -41.080398387311696 0.0 0.0
1164.6613314076792 257.40672748451783 706.0788701402194 -38.17852281887794 0.0 0.0
1223.8172917667835 292.8562718176282 753.4139923918322 -33.59391640693777 0.0 0.0
1275.9672549393586 327.15959483993345 796.6028405144839 -26.829167788633256 0.0 0.0
1310.0201530568395 350.6305506029908 825.2973634869504 -15.709139646521429 0.0 0.0
1310.0201530567979 350.6305506029555 825.297363486923 15.709139646589565 0.0 0.0
1275.9672549391707 327.1595948397691 796.6028405143321 26.829167788703778 0.0 0.0
1223.8172917664704 292.8562718173638 753.4139923915701 33.59391640710216 0.0 0.0
1164.661331407022 257.40672748390443 706.0788701397041 38.1785228189269 0.0 0.0
1103.5845806159655 224.39163371792876 658.9335703892664 41.08039838731955 0.0 0.0
1042.1294120392076 193.82607448865673 612.7411513059403 42.6543578907945 0.0 0.0
982.1576492995953 165.90875687881544 568.4922102291786 43.554207610534064 0.0 0.0
924.1255752987948 139.78768923617423 525.7854116129437 44.50837092677655 0.0 0.0
867.3281462419598 115.38019886315561 483.83364717327623 45.67328715718318 0.0 0.0
811.6028987804461 90.90850447619374 440.8933869733656 46.91644245243713 0.0 0.0
755.3509533865224 66.80729937789712 395.3779891376112 47.62149153470307 0.0 0.0
698.1161458972783 43.73430346433236 345.8255521532629 47.51779794524698 0.0 0.0
638.6186457332808 23.384689280271644 291.02176688822925 46.671555179952705 0.0 0.0
575.9581364472897 8.889861930562475 232.3107857382861 45.81010526018393 0.0 0.0
507.0626327922047 -5.643178917243489 170.36509874662053 47.83415525915039 0.0 0.0
423.3298691763333 -7.208395119053701 125.64646381501238 52.44073313741859 0.0 0.0
339.282627714666 2.5209517417348604 102.52782784960667 48.63284461936006 0.0 0.0
263.32236964095415 24.168494514042557 86.247259246499 27.82970013737387 0.0 0.0
135.74870070940412 9.585352396532336 43.60021593178093 34.8515853680321 0.0 0.0
0.7128161103220378 -519.1966432246877 -239.96548414766858 154.7346711384096 0.0 0.0
-11.830618523007118 -499.12593995189116 -224.46467692335779 -157.64013755981676 0.0 0.0
78.99916315516899 -5.5457641724730005 22.036019694808793 -78.79629518420785 0.0 0.0
204.8906103750673 25.966921086128686 69.25725943835879 -53.087617498425 0.0 0.0
290.85897293822484 6.28955565266143 89.13917046555211 -67.21838963786463 0.0 0.0
372.50613843718884 -3.668582382652953 110.66323801202375 -74.670273296797 0.0 0.0
463.7313794192596 -8.27533697071745 145.9325575007385 -71.10726436608363 0.0 0.0
541.4449740486879 5.101016859618072 204.27309269292698 -65.41009021974321 0.0 0.0
607.7192639849677 19.798730415566478 264.92578022480143 -65.50177919418903 0.0 0.0
666.9985276597241 37.3340174049266 320.03531404496925 -65.68298108735742 0.0 0.0
722.4631649291966 57.68551821899557 369.48175851698534 -65.37846485906174 0.0 0.0
775.973704734361 78.856575808216 413.92881629832976 -64.21235469312026 0.0 0.0
828.6661202123643 100.04656382366596 454.91958679142556 -62.4467956614335 0.0 0.0
881.1873200390067 120.94497689995708 493.7046059709148 -60.81408605076445 0.0 0.0
935.6358943835653 143.1735577722308 533.0719472879402 -59.57278378839905 0.0 0.0
991.1740029531602 166.63857869789098 573.0812393760168 -58.32613091441103 0.0 0.0
1046.853653262487 192.15771485707728 613.9427924775562 -56.29994058527301 0.0 0.0
1103.269138786361 220.21698726705517 656.2905882288647 -52.81612974904698 0.0 0.0
1158.4122478103143 250.89018890360273 699.2453661274085 -46.87226582605745 0.0 0.0
1207.1360012102868 280.50973848182207 738.4385335422592 -37.05567186794007 0.0 0.0
1239.5009177628162 300.7183087194865 764.7204978262117 -20.643225678958437 0.0 0.0
1239.5009177628083 300.71830871948976 764.7204978261921 20.64322567903917 0.0 0.0
1207.1360012103705 280.50973848194906 738.4385335422436 37.05567186808547 0.0 0.0
1158.4122478104114 250.8901889037549 699.2453661274108 46.872265826176644 0.0 0.0
1103.2691387864056 220.21698726715934 656.29058822884 52.81612974912027 0.0 0.0
1046.8536532619892 192.15771485664337 613.9427924771466 56.2999405853009 0.0 0.0
991.1740029528224 166.6385786976361 573.0812393757218 58.32613091448655 0.0 0.0
935.635894383216 143.17355777197338 533.07194728763 59.57278378843521 0.0 0.0
881.1873200388104 120.94497689989726 493.70460597072605 60.81408605084653 0.0 0.0
828.6661202117895 100.04656382318308 454.9195867909733 62.446795661347124 0.0 0.0
775.9737047340125 78.85657580802268 413.9288162979964 64.21235469311986 0.0 0.0
722.4631649292426 57.685518219207644 369.4817585169038 65.37846485896517 0.0 0.0
666.9985276594604 37.334017404875894 320.03531404470914 65.68298108736803 0.0 0.0
607.7192639846252 19.7987304154774 264.92578022449027 65.50177919423007 0.0 0.0
541.4449740484723 5.101016859737616 204.27309269272118 65.41009021978888 0.0 0.0
463.7313794189264 -8.275336970653822 145.93255750057625 71.10726436607034 0.0 0.0
372.50613843682265 -3.668582382695271 110.66323801190845 74.6702732967551 0.0 0.0
290.8589729380884 6.289555652715926 89.13917046552831 67.21838963778215 0.0 0.0
204.89061037504086 25.96692108605636 69.25725943832916 53.08761749829582 0.0 0.0
78.99916315527025 -5.5457641723380915 22.03601969487965 78.79629518402956 0.0 0.0
-11.83061852288344 -499.1259399515694 -224.46467692304628 157.64013755972712 0.0 0.0
-11.777078978068687 -469.78942322751624 -198.42285663720608 -156.2719333660825 0.0 0.0
44.31427768500496 -19.48780535354179 7.447941699438949 -112.54350399839343 0.0 0.0
153.27738195569998 23.71924438734291 53.098987902912846 -79.61285507350587 0.0 0.0
240.0828407226879 9.66232317639323 74.92354916972434 -86.62768445545215 0.0 0.0
318.41521949935606 -0.46370457799928966 95.318031483607 -95.605230875053 0.0 0.0
409.6377990367773 -7.758970234650587 123.42393074417589 -95.86104483438747 0.0 0.0
498.7259549007613 -0.2672899261063608 172.89149646354207 -88.24255598499666 0.0 0.0
570.2855103771259 15.98539248246388 233.97382292390353 -84.30012669000759 0.0 0.0
629.6691975524238 30.915485684491568 289.3058700553623 -83.85184359773947 0.0 0.0
684.2020498414573 48.299399021218704 338.9703983946793 -82.86543852512767 0.0 0.0
735.540658640194 66.44834698765952 382.92643719316675 -81.18121982006463 0.0 0.0
784.9888997742997 84.34785814020758 422.320888783505 -78.88371202893082 0.0 0.0
834.3779924802623 101.97928252632626 459.0685020748005 -76.8978993281663 0.0 0.0
884.1539078789582 120.4191439443503 494.8598306488209 -75.2947992977194 0.0 0.0
935.0592374804572 139.52949126798313 530.6868277892571 -73.78196741868805 0.0 0.0
986.602263379226 159.96180780446366 567.091580428923 -71.51620709885766 0.0 0.0
1037.2851861816248 182.4883880039911 603.8527315235875 -67.58290410345366 0.0 0.0
1087.5803316678766 207.4571680354464 641.5500509433149 -60.455069296756214 0.0 0.0
1133.366907878374 232.19992242304994 676.8983249788151 -47.77013452717012 0.0 0.0
1165.5941068473703 249.86312074300844 701.9065766428853 -26.245274858471497 0.0 0.0
1165.5941068477346 249.86312074339688 701.9065766431528 26.245274858581837 0.0 0.0
1133.3669078785938 232.19992242332444 676.8983249790189 47.77013452735897 0.0 0.0
1087.5803316678341 207.45716803547145 641.5500509432524 60.455069296902735 0.0 0.0
1037.2851861812449 182.48838800366903 603.8527315232466 67.58290410351071 0.0 0.0
986.6022633788515 159.96180780415145 567.0915804286161 71.51620709889777 0.0 0.0
935.0592374804826 139.52949126811984 530.6868277892208 73.78196741879142 0.0 0.0
884.1539078785524 120.41914394403683 494.8598306485188 75.29479929776576 0.0 0.0
834.3779924799535 101.97928252614486 459.0685020745837 76.89789932821947 0.0 0.0
784.9888997737431 84.34785813974742 422.3208887830533 78.88371202887862 0.0 0.0
735.5406586394917 66.4483469870872 382.9264371926344 81.18121982004898 0.0 0.0
684.2020498409943 48.29939902090179 338.9703983942686 82.86543852506557 0.0 0.0
629.6691975520522 30.915485684329017 289.3058700550189 83.85184359772639 0.0 0.0
570.285510376825 15.985392482427319 233.9738229236026 84.30012668998127 0.0 0.0
498.7259549004566 -0.2672899260805366 172.89149646331455 88.24255598498358 0.0 0.0
409.6377990364511 -7.758970234539454 123.42393074407514 95.86104483431716 0.0 0.0
318.4152194991837 -0.46370457772575424 95.31803148364449 95.60523087491822 0.0 0.0
240.08284072268634 9.66232317670975 74.92354916981881 86.62768445531125 0.0 0.0
153.27738195580432 23.719244387582837 53.09898790301614 79.61285507332438 0.0 0.0
44.314277685066074 -19.4878053533814 7.4479416995053995 112.54350399816178 0.0 0.0
-11.777078977943695 -469.7894232271891 -198.4228566369018 156.27193336597668 0.0 0.0
-6.587988681868062 -434.5088047752482 -168.4033453772987 -153.13372606578966 0.0 0.0
20.881840970400795 -31.117620260074183 -3.070733786902016 -137.11466725288022 0.0 0.0
108.52254105062075 19.487561352511126 38.403030720939554 -104.08575002225533 0.0 0.0
189.18337391695837 12.614966866449866 60.53950223502246 -105.63795573560208 0.0 0.0
261.2764220165729 1.0541999423516455 78.6566284103329 -115.24815731943414 0.0 0.0
340.40312163228594 -5.34734402548112 101.65212546305845 -119.01274021051304 0.0 0.0
435.792070046942 -2.924123664193316 140.8617871838459 -113.95180232362245 0.0 0.0
519.1503660997391 9.80814112045626 195.99106037120458 -105.67015352547678 0.0 0.0
584.4997506011073 24.36967336993481 252.503136704487 -102.19518177915074 0.0 0.0
638.7965578585082 38.7972383689036 302.33703389496134 -100.2822971997241 0.0 0.0
688.1354070662582 53.51752004696113 345.9253827074451 -97.9064650169174 0.0 0.0
735.274661511235 68.36011044470459 384.83199054083696 -95.16337838812558 0.0 0.0
781.3091039411611 82.92395483501875 420.1292111376758 -92.73855265617229 0.0 0.0
827.4956939075133 97.60832007945795 453.4132795712435 -90.91373930486373 0.0 0.0
873.9842306126271 112.36407309240863 485.4630600061377 -89.18477807848683 0.0 0.0
919.7920956533493 128.2015472334452 516.9757768852966 -86.59707597203396 0.0 0.0
965.6211039426955 144.7068403191816 548.4220112538851 -82.49089149422122 0.0 0.0
1010.5063529590687 162.69068638671533 579.9862778119843 -74.46059270078588 0.0 0.0
1052.9264561407049 181.9495123751913 610.9797508840954 -59.28114715558688 0.0 0.0
1086.2970010851486 197.2689428780352 635.4741382598161 -32.914187903625795 0.0 0.0
1086.2970010850356 197.26894287793687 635.4741382597529 32.91418790371288 0.0 0.0
1052.9264561405837 181.94951237513587 610.9797508840027 59.281147155812334 0.0 0.0
1010.5063529587653 162.69068638650674 579.9862778117425 74.46059270095724 0.0 0.0
965.6211039425809 144.70684031912276 548.4220112537441 82.49089149429524 0.0 0.0
919.7920956531048 128.2015472332888 516.9757768850678 86.59707597211366 0.0 0.0
873.9842306123493 112.36407309224951 485.4630600059012 89.18477807858835 0.0 0.0
827.4956939069478 97.60832007897109 453.4132795707984 90.91373930489036 0.0 0.0
781.3091039405625 82.92395483452539 420.12921113722246 92.73855265621785 0.0 0.0
735.2746615113697 68.36011044501565 384.8319905408668 95.16337838815483 0.0 0.0
688.135407066111 53.51752004698538 345.92538270725197 97.90646501692282 0.0 0.0
638.796557858164 38.79723836870407 302.3370338946483 100.28229719964824 0.0 0.0
584.4997506006803 24.369673369717066 252.50313670412928 102.19518177913304 0.0 0.0
519.1503660992272 9.80814112020348 195.99106037082413 105.67015352548067 0.0 0.0
435.792070046495 -2.9241236642703257 140.86178718361026 113.95180232361216 0.0 0.0
340.4031216319482 -5.3473440254542055 101.65212546296002 119.012740210404 0.0 0.0
261.27642201635786 1.0541999423277586 78.65662841026302 115.24815731928305 0.0 0.0
189.18337391680438 12.614966866371669 60.539502234952806 105.63795573548146 0.0 0.0
108.52254105063571 19.487561352517528 38.40303072094596 104.08575002208133 0.0 0.0
20.881840970360496 -31.11762026003655 -3.0707337869028155 137.11466725271583 0.0 0.0
-6.587988681764799 -434.50880477488835 -168.40334537701722 153.13372606571647 0.0 0.0
-1.0860071442911519 -394.1684249654635 -137.9981498674943 -148.7453435271521 0.0 0.0
2.5224800303789605 -41.77756380340199 -11.776525131906908 -154.440796790083 0.0 0.0
69.28689844051523 15.087166839656831 25.31221958405161 -124.9365312411095 0.0 0.0
139.30777009267723 14.649758539106369 46.18725858953507 -123.21512627886794 0.0 0.0
202.06656353540905 3.1417514905322643 61.55161360737997 -132.3687101485535 0.0 0.0
270.7144805657527 -3.538504988173412 80.12160774249327 -140.28061181100364 0.0 0.0
355.9887391140956 -2.8780604381686845 109.554184911415 -139.03653408287343 0.0 0.0
446.9579844037404 4.33098583511649 153.9212752223446 -130.71996204683182 0.0 0.0
522.9826543740317 16.38533494473552 206.61077190633767 -122.36134827303911 0.0 0.0
582.3637021665958 29.215250653999934 257.2481095852925 -117.96166969745131 0.0 0.0
630.7287063391615 40.20474407788066 300.3118202245664 -114.71067544329094 0.0 0.0
676.3085639353126 52.06318608873975 339.44613589677596 -111.4193179435062 0.0 0.0
719.719359209405 63.39987030569679 374.3488487581442 -108.59472859841071 0.0 0.0
762.3046660252166 74.89406552243445 406.2913758495688 -106.46328316110791 0.0 0.0
803.9539773274645 85.3885219748719 435.0871910348296 -104.541885008147 0.0 0.0
845.7068020739762 96.5332059356009 462.88838325116296 -101.85515617955829 0.0 0.0
885.7370853219161 107.35558273790431 488.89770337305566 -97.40225842357194 0.0 0.0
924.1430778440415 117.52887586866646 513.5148719949397 -88.81317167654956 0.0 0.0
963.0988031017766 129.12405751560468 539.057440830708 -71.99371546124353 0.0 0.0
999.1720626640147 141.89587546980155 563.7492344622651 -41.27627078115738 0.0 0.0
999.1720626638082 141.89587546962252 563.7492344620819 41.27627078130297 0.0 0.0
963.0988031016998 129.12405751562318 539.057440830676 71.99371546147137 0.0 0.0
924.1430778440673 117.52887586878194 513.5148719949841 88.81317167672157 0.0 0.0
885.7370853217029 107.35558273781024 488.8977033728624 97.4022584237393 0.0 0.0
845.706802073867 96.53320593554025 462.8883832510151 101.85515617956365 0.0 0.0
803.9539773276072 85.3885219751613 435.0871910349238 104.5418850082356 0.0 0.0
762.3046660246647 74.89406552195433 406.29137584918567 106.46328316110157 0.0 0.0
719.7193592091106 63.39987030551278 374.3488487578768 108.59472859848626 0.0 0.0
676.3085639348405 52.06318608840843 339.4461358963924 111.41931794350276 0.0 0.0
630.7287063384848 40.20474407724089 300.3118202240301 114.71067544318402 0.0 0.0
582.3637021663258 29.2152506538697 257.2481095849918 117.96166969736294 0.0 0.0
522.9826543734596 16.385334944389456 206.6107719059164 122.36134827304808 0.0 0.0
446.9579844033006 4.330985835091937 153.92127522208767 130.71996204688634 0.0 0.0
355.9887391140526 -2.878060437452426 109.55418491157437 139.03653408288338 0.0 0.0
270.7144805655982 -3.5385049879997075 80.12160774249836 140.28061181091698 0.0 0.0
202.06656353526438 3.1417514905743076 61.55161360735074 132.3687101483976 0.0 0.0
139.30777009260808 14.649758539162146 46.18725858953106 123.21512627872596 0.0 0.0
69.28689844053844 15.087166839721684 25.31221958407803 124.93653124090346 0.0 0.0
2.5224800303226473 -41.77756380338037 -11.776525131917314 154.44079678990258 0.0 0.0
-1.0860071442603072 -394.16842496513675 -137.99814986728026 148.7453435270275 0.0 0.0
-0.2407381026132107 -350.62353765392083 -112.34766838849703 -143.53925442225466 0.0 0.0
-13.878865374875673 -50.9443550702738 -19.44696613354484 -165.06226713292583 0.0 0.0
34.30758296492044 11.293202134518346 13.680235529831634 -141.9538431282117 0.0 0.0
90.95356737156577 15.804425970208484 32.02739800253227 -138.30014440478337 0.0 0.0
141.93569465053326 5.987595610028614 44.370267925688395 -146.5364724066017 0.0 0.0
194.24082775578353 -1.827606658099476 57.74501511442856 -157.03644586049649 0.0 0.0
259.38570388034265 -2.3438968681756576 78.38745976284642 -161.41252680399776 0.0 0.0
347.16155952090685 2.374553716727235 110.89713042683954 -157.12484466687624 0.0 0.0
433.36076015698814 7.845025398837251 152.0579412670507 -147.12513641653035 0.0 0.0
501.86500298412955 18.754519875528544 199.0660472798653 -137.2765045456349 0.0 0.0
555.9779878516538 26.555369553387678 241.58569406314697 -132.66019870558 0.0 0.0
600.4440441901116 35.02628871022354 280.1608445766733 -128.07652564750515 0.0 0.0
642.2896741685074 43.723486764304326 315.83073408742035 -124.72847978118597 0.0 0.0
682.2413645445718 51.82257588864721 347.92158006776333 -122.2580161013314 0.0 0.0
720.7729865412174 58.97851046344996 376.20468828009916 -120.1211374125399 0.0 0.0
757.0981571143418 64.87655569482382 400.43699561327793 -117.2682476537502 0.0 0.0
793.0920888556252 70.45126901583363 422.710643462194 -112.62850124566555 0.0 0.0
825.8009584011616 73.12169348712646 441.3667286375116 -103.28894364697959 0.0 0.0
857.3985968710025 73.70322120154631 458.08158201035343 -85.83678003289438 0.0 0.0
896.3709495706772 81.84855134366272 482.0533237776105 -52.1539633906876 0.0 0.0
896.3709495705004 81.8485513435308 482.05332377755576 52.15396339085857 0.0 0.0
857.3985968709009 73.70322120153 458.08158201034894 85.83678003313096 0.0 0.0
825.8009584006963 73.12169348680325 441.3667286371833 103.28894364727319 0.0 0.0
793.0920888553477 70.45126901570976 422.71064346198636 112.62850124585118 0.0 0.0
757.09815711446 64.87655569505004 400.4369956133168 117.26824765379189 0.0 0.0
720.7729865411106 58.97851046341408 376.20468828000463 120.12113741252978 0.0 0.0
682.2413645443546 51.82257588848329 347.9215800675895 122.25801610135693 0.0 0.0
642.2896741685838 43.72348676463242 315.8307340874817 124.72847978137119 0.0 0.0
600.4440441902734 35.02628871058784 280.1608445767198 128.07652564753894 0.0 0.0
555.9779878517271 26.55536955382218 241.58569406315968 132.66019870569386 0.0 0.0
501.86500298381793 18.754519875419742 199.0660472796056 137.27650454554288 0.0 0.0
433.36076015670403 7.845025398872259 152.05794126687667 147.12513641653612 0.0 0.0
347.1615595205925 2.3745537169440762 110.89713042677043 157.1248446669113 0.0 0.0
259.3857038797646 -2.3438968686860475 78.38745976251586 161.4125268039034 0.0 0.0
194.24082775559538 -1.8276066581783503 57.745015114348675 157.0364458602857 0.0 0.0
141.93569465040952 5.987595610028768 44.37026792565239 146.53647240635757 0.0 0.0
90.95356737151187 15.804425970160981 32.02739800250185 138.30014440458058 0.0 0.0
34.30758296492311 11.293202134574392 13.680235529849249 141.95384312799496 0.0 0.0
-13.878865374887415 -50.94435507023004 -19.446966133535234 165.06226713278704 0.0 0.0
-0.24073810267570295 -350.62353765357926 -112.34766838836158 143.5392544221361 0.0 0.0
-8.458669849076141 -305.7832467676028 -95.67125777708912 -135.75396379161174 0.0 0.0
-29.029459584963355 -57.63092832116317 -25.997148626305158 -171.6843893044795 0.0 0.0
2.65177477679255 8.192101292841183 3.2531628208901195 -154.76674841121502 0.0 0.0
44.32818466564815 16.421075531903277 18.224778059265425 -150.23917266111158 0.0 0.0
81.28733860537398 8.786134957080355 27.01897109389479 -157.1622047469537 0.0 0.0
116.33003030709835 1.1511790282485874 35.211875691581845 -168.96699493558958 0.0 0.0
157.5372052305274 -1.5907042933789772 47.19362168654145 -177.97059230249013 0.0 0.0
213.09486587546655 1.0297276279702121 66.3213943473269 -178.22659833981572 0.0 0.0
287.7613576628165 3.9611797149984955 92.60784526227336 -173.38651130196908 0.0 0.0
367.4411049498466 7.363591491935651 125.3659214956076 -162.75932097039362 0.0 0.0
434.6990121753547 13.565026385770285 162.23548601987886 -153.33945040063446 0.0 0.0
485.3204185751579 17.583816403194415 196.69287767622734 -147.1196709100906 0.0 0.0
528.6422423842015 23.460862978962865 231.17898178774985 -142.44623245930592 0.0 0.0
568.2563078301115 28.72123168289398 264.23548184688354 -139.00697883550478 0.0 0.0
604.2547225589576 32.44491146159142 293.6861500881367 -136.12160277858183 0.0 0.0
636.6366351281845 33.900842043804246 317.9793053549349 -132.99079245728157 0.0 0.0
668.2270021767803 32.85422668182024 337.8608691335703 -128.34864369429246 0.0 0.0
701.7106330203011 30.576513974424216 356.47059313545225 -117.99270359196359 0.0 0.0
726.9945048951803 17.798288655510746 365.0597781262537 -100.25839804911125 0.0 0.0
765.3402004963036 12.945036373749247 382.63477716677716 -66.58334389603289 0.0 0.0
765.3402004962965 12.945036373765305 382.6347771668044 66.58334389617112 0.0 0.0
726.9945048948777 17.79828865533497 365.0597781260889 100.25839804942211 0.0 0.0
701.7106330201293 30.57651397442382 356.47059313534396 117.99270359226753 0.0 0.0
668.2270021764156 32.854226681591754 337.86086913332986 128.3486436944638 0.0 0.0
636.6366351275226 33.90084204309896 317.97930535443163 132.99079245728865 0.0 0.0
604.2547225588809 32.44491146161729 293.6861500880488 136.12160277862608 0.0 0.0
568.2563078301674 28.72123168314598 264.235481846905 139.00697883561978 0.0 0.0
528.6422423838584 23.46086297868908 231.17898178749957 142.4462324593789 0.0 0.0
485.3204185747678 17.583816402879428 196.69287767592246 147.1196709100991 0.0 0.0
434.6990121751944 13.565026385824599 162.23548601974895 153.33945040060723 0.0 0.0
367.44110494969283 7.363591492294905 125.36592149560323 162.7593209703275 0.0 0.0
287.7613576626114 3.9611797152366943 92.60784526226107 173.38651130202774 0.0 0.0
213.09486587523122 1.0297276281176853 66.32139434728978 178.22659833974794 0.0 0.0
157.53720523031325 -1.5907042934994235 47.19362168643546 177.9705923023715 0.0 0.0
116.33003030690503 1.1511790279740763 35.21187569144254 168.96699493540208 0.0 0.0
81.28733860534817 8.786134957108295 27.018971093896106 157.1622047467282 0.0 0.0
44.32818466567857 16.42107553195292 18.224778059289445 150.23917266094713 0.0 0.0
2.65177477676346 8.192101292798215 3.2531628208685026 154.7667484109962 0.0 0.0
-29.029459584949024 -57.630928321129254 -25.997148626290954 171.6843893042779 0.0 0.0
-8.458669849143098 -305.7832467673133 -95.67125777701024 135.75396379144698 0.0 0.0
-17.012070276034002 -261.21035981985915 -83.42335000110833 -125.86821936404434 0.0 0.0
-41.902854514341655 -60.81903283840855 -30.81415212249582 -174.33008252280166 0.0 0.0
-26.439518334814423 5.481599888161689 -6.2872229090889995 -163.5114333647778 0.0 0.0
-0.5628719678550476 16.674066654367497 4.833128700084731 -158.50235191406028 0.0 0.0
20.81074251482389 11.376825148757655 9.654395728639408 -163.85015333217368 0.0 0.0
37.1036342509719 4.5594127336298484 12.491077873779513 -175.4452322618681 0.0 0.0
52.511782942911815 0.6625091183142495 16.075966593510305 -186.04669115987048 0.0 0.0
71.8425850015013 -0.025670309912231737 21.9820979817163 -191.58916132725923 0.0 0.0
98.3414467797008 1.26692829020379 31.106951737624335 -188.05025730291177 0.0 0.0
129.2922092492523 1.6451453503733013 41.65875307618414 -183.10856631048688 0.0 0.0
167.9735093941953 3.8937434484726587 56.0014120915221 -173.69793969307327 0.0 0.0
209.81274740163832 4.543349611529386 71.46805798882654 -167.96141253368964 0.0 0.0
253.5757344452505 6.382543672594316 90.13047249870854 -163.2893443401684 0.0 0.0
295.63836880970746 7.941500651775243 112.01414961176532 -158.689367405972 0.0 0.0
338.42581826640674 9.355724157451434 137.63330429705357 -154.36708414963203 0.0 0.0
384.5607575373234 4.497678425496986 164.33833993797884 -149.98697271219314 0.0 0.0
426.3225989437257 -4.294919818928847 187.31406103930584 -144.28932622000414 0.0 0.0
474.01029957161916 -15.271452838575044 212.81711406077864 -134.98423520792036 0.0 0.0
528.5583537236135 -27.904761750283882 240.5939106679467 -114.34275492182385 0.0 0.0
553.9574034252614 -76.40133492391259 234.98036951957332 -82.87273420957774 0.0 0.0
553.9574034250959 -76.40133492410341 234.98036951942453 82.87273420976882 0.0 0.0
528.5583537235746 -27.904761750165093 240.5939106679346 114.34275492224216 0.0 0.0
474.01029957160375 -15.271452838350783 212.81711406083372 134.9842352083311 0.0 0.0
426.3225989440701 -4.29491981846094 187.31406103954845 144.28932622014025 0.0 0.0
384.5607575376905 4.497678426105665 164.33833993825905 149.98697271224052 0.0 0.0
338.4258182662552 9.355724157278864 137.63330429694068 154.36708414964298 0.0 0.0
295.63836880982564 7.9415006519470595 112.01414961184325 158.68936740601617 0.0 0.0
253.57573444508068 6.382543672215931 90.13047249853497 163.28934434025876 0.0 0.0
209.8127474016539 4.543349611521741 71.46805798882559 167.96141253367898 0.0 0.0
167.9735093942378 3.8937434485340976 56.001412091543116 173.69793969304047 0.0 0.0
129.29220924905297 1.6451453500705568 41.658753076027004 183.1085663103795 0.0 0.0
98.34144677959935 1.2669282900045875 31.106951737529435 188.05025730292772 0.0 0.0
71.84258500145039 -0.025670309895980736 21.982097981702424 191.58916132723203 0.0 0.0
52.51178294291468 0.6625091183603313 16.075966593523805 186.04669115973337 0.0 0.0
37.10363425095987 4.559412733625639 12.49107787377493 175.4452322616812 0.0 0.0
20.810742514941026 11.376825148917922 9.654395728722829 163.85015333196043 0.0 0.0
-0.5628719677238858 16.674066654593922 4.833128700192047 158.50235191386074 0.0 0.0
-26.439518334727182 5.481599888320058 -6.287222909015423 163.51143336453788 0.0 0.0
-41.90285451431126 -60.81903283835833 -30.814152122472365 174.3300825226277 0.0 0.0
-17.012070276053464 -261.2103598195895 -83.4233500010454 125.86821936385728 0.0 0.0
-21.47223606748119 -217.91632290069566 -71.81656769045303 -114.55262816660381 0.0 0.0
-52.47795881111068 -60.58105431250992 -33.9157847865906 -173.14404400026018 0.0 0.0
-53.29813927054877 3.1479990571763254 -15.044514250406907 -168.06090664721168 0.0 0.0
-43.78058489063258 16.576572009597225 -8.16062623059237 -162.8243197534514 0.0 0.0
-38.95847880349881 13.612805364548716 -7.599416698266549 -166.2741470120711 0.0 0.0
-42.300084787426776 7.861376390857624 -10.32020999921972 -176.4768280198838 0.0 0.0
-53.12514400033648 3.2113653392129264 -15.096789567809836 -186.26340155794634 0.0 0.0
-71.38822826696278 0.5798752892754138 -21.67782864175011 -191.61253117925733 0.0 0.0
-97.94368973434098 -1.4437123920694113 -31.035243577834677 -188.0277384995402 0.0 0.0
-129.00537692337528 -1.7623313556484295 -41.6043714379494 -183.09765599565043 0.0 0.0
-167.77173278641328 -3.8051366284557844 -55.89493584287318 -173.6935263573919 0.0 0.0
-209.8873511926834 -4.0418819571555815 -71.30432668627171 -167.86283119532825 0.0 0.0
-254.8527118496355 -5.565418384922783 -90.26155499688224 -163.01202044205925 0.0 0.0
-298.67837117028137 -8.226712134596028 -113.36894035986447 -158.43557070477866 0.0 0.0
-339.7870864455945 -13.06971388080342 -139.99424557970954 -155.03077577434195 0.0 0.0
-374.37769361728317 -20.78464948191315 -166.81256818652344 -154.05383624489028 0.0 0.0
-379.4829808408256 -29.185622475995743 -182.2006181322744 -154.93014628610376 0.0 0.0
-331.6469228198372 -44.74945542139223 -177.43894113065602 -158.7845470959601 0.0 0.0
-177.3072647556813 -39.52960656101672 -109.32173329189396 -156.52206381908485 0.0 0.0
38.75741565404199 -158.2477136214742 -50.92157888815832 -110.7543267353213 0.0 0.0
38.75741565411778 -158.247713621326 -50.92157888813881 110.75432673565666 0.0 0.0
-177.30726475576475 -39.52960656108877 -109.32173329196047 156.52206381950472 0.0 0.0
-331.6469228195591 -44.74945542087751 -177.43894113041466 158.7845470962505 0.0 0.0
-379.48298084070166 -29.185622476087715 -182.2006181322234 154.93014628620125 0.0 0.0
-374.3776936172794 -20.784649482244482 -166.81256818659185 154.05383624488417 0.0 0.0
-339.78708644560464 -13.069713881168077 -139.99424557976513 155.03077577432686 0.0 0.0
-298.67837117013596 -8.226712134819095 -113.36894035983538 158.4355707048287 0.0 0.0
-254.85271184948215 -5.565418385384579 -90.2615549969415 163.01202044219343 0.0 0.0
-209.88735119200743 -4.041881956774873 -71.30432668593716 167.86283119536137 0.0 0.0
-167.77173278579232 -3.8051366281372623 -55.89493584257066 173.69352635738818 0.0 0.0
-129.00537692295825 -1.7623313554611446 -41.60437143775568 183.09765599555323 0.0 0.0
-97.94368973401784 -1.4437123919968027 -31.035243577710027 188.02773849955537 0.0 0.0
-71.38822826676042 0.5798752892838825 -21.677828641683377 191.61253117919276 0.0 0.0
-53.125144000147955 3.2113653393457544 -15.096789567711397 186.26340155777024 0.0 0.0
-42.30008478727834 7.861376390992368 -10.32020999913516 176.47682801969654 0.0 0.0
-38.95847880322799 13.612805364918708 -7.599416698074674 166.2741470118597 0.0 0.0
-43.78058489046801 16.576572009873207 -8.160626230460466 162.82431975323527 0.0 0.0
-53.298139270427065 3.1479990572871035 -15.044514250337548 168.06090664699593 0.0 0.0
-52.477958811067175 -60.58105431247269 -33.915784786567265 173.14404400010721 0.0 0.0
-21.4722360674551 -217.91632290047818 -71.81656769037997 114.55262816640632 0.0 0.0
-22.568468862963453 -177.14842624929048 -59.91506853367618 -102.82005419658765 0.0 0.0
-61.25946873415665 -57.56928526438035 -35.64847541166916 -168.0529081403302 0.0 0.0
-78.21103567180184 1.3018901499097169 -23.071786755161522 -168.37639348737227 0.0 0.0
-85.34801991408618 16.115004293761896 -20.764171655649598 -163.0614278635448 0.0 0.0
-97.5931942627684 15.30359123363743 -24.677570945411595 -164.21962032930844 0.0 0.0
-120.73509256404438 10.629109237960419 -33.06323479666356 -171.61621746173284 0.0 0.0
-157.9767418373197 5.264122136887148 -46.2287603385965 -178.81781303831048 0.0 0.0
-212.7261686103563 -0.5480356116415912 -66.06284734126021 -178.27539198582764 0.0 0.0
-287.35005524632896 -4.129278640258727 -92.53630697804583 -173.3250663456804 0.0 0.0
-367.2437309326274 -7.4702226141998285 -125.32471361308454 -162.70983385769503 0.0 0.0
-434.57622972894046 -13.497202587954025 -162.1656057248124 -153.3028012740161 0.0 0.0
-485.1982052960376 -17.14928838044507 -196.49513483773484 -146.93406525361664 0.0 0.0
-528.7524972129377 -22.648696572202915 -230.90642300595925 -141.87491560642965 0.0 0.0
-569.3814543083671 -28.86655417714546 -264.82410603452576 -138.47711333505475 0.0 0.0
-608.0361751844904 -37.11579115100202 -297.61577255547235 -137.01072306476593 0.0 0.0
-643.019505181923 -48.360316606940586 -327.8210117688905 -138.532431998484 0.0 0.0
-673.4781500625688 -65.44493791442785 -356.0123591395336 -144.80349258650304 0.0 0.0
-695.1354171956933 -88.95921583278299 -380.5654422618502 -156.388271498293 0.0 0.0
-726.1261932950542 -142.23844560401227 -419.94820035923397 -166.4361703701856 0.0 0.0
-690.6306504811753 -194.0498144235848 -420.42260205313823 -165.87643864635896 0.0 0.0
-690.630650481137 -194.04981442373722 -420.4226020531909 165.87643864664437 0.0 0.0
-726.1261932943901 -142.23844560344764 -419.94820035882424 166.4361703705044 0.0 0.0
-695.1354171948315 -88.95921583189303 -380.5654422612321 156.38827149841623 0.0 0.0
-673.478150062713 -65.4449379147214 -356.0123591395694 144.80349258663105 0.0 0.0
-643.0195051815965 -48.36031660694459 -327.82101176870384 138.53243199866807 0.0 0.0
-608.0361751838058 -37.11579115022379 -297.61577255494444 137.01072306470175 0.0 0.0
-569.3814543074743 -28.866554176232796 -264.82410603387484 138.4771133350157 0.0 0.0
-528.7524972127475 -22.648696572222377 -230.90642300577605 141.8749156064942 0.0 0.0
-485.19820529586707 -17.149288380764492 -196.49513483763494 146.93406525375238 0.0 0.0
-434.57622972830467 -13.497202587664411 -162.1656057244126 153.30280127399874 0.0 0.0
-367.2437309317451 -7.470222613632188 -125.32471361257763 162.7098338575883 0.0 0.0
-287.35005524591645 -4.129278640546746 -92.53630697797607 173.3250663457016 0.0 0.0
-212.72616860993145 -0.5480356116978626 -66.06284734113616 178.27539198587777 0.0 0.0
-157.9767418368977 5.264122137273638 -46.22876033835027 178.81781303819184 0.0 0.0
-120.73509256381067 10.629109238003116 -33.06323479658266 171.61621746154913 0.0 0.0
-97.59319426254717 15.303591233691686 -24.67757094532972 164.21962032913558 0.0 0.0
-85.34801991401821 16.115004293702384 -20.764171655647637 163.06142786338614 0.0 0.0
-78.21103567162899 1.3018901500361224 -23.071786755072218 168.3763934871915 0.0 0.0
-61.2594687340924 -57.56928526427369 -35.64847541161804 168.05290814021782 0.0 0.0
-22.568468862952006 -177.1484262491108 -59.91506853361882 102.82005419650972 0.0 0.0
-22.95377864224332 -139.53638643438654 -48.74704952298895 -90.98831248825232 0.0 0.0
-68.94765718226829 -52.26722727768444 -36.36446533798582 -159.2047867253626 0.0 0.0
-101.47228693554786 0.0009875163919543795 -30.4384396851283 -164.46500115945886 0.0 0.0
-125.24805182007007 15.28846312249315 -32.97710502506809 -159.0960790264585 0.0 0.0
-154.76152840540573 16.169409420104632 -41.56662209651948 -157.63906384820817 0.0 0.0
-197.6867292008494 12.57250695054024 -55.54683318068702 -161.40726690188623 0.0 0.0
-259.72490233524735 5.510527644781148 -77.56321155350216 -162.38312511016298 0.0 0.0
-346.82548265611865 -1.9678118282993955 -110.66126517930492 -157.28927740089225 0.0 0.0
-433.2679599059179 -8.011341157947003 -152.0326728301759 -147.01019659090542 0.0 0.0
-501.87927290102687 -18.836552777743712 -199.08201895165166 -137.19514186816136 0.0 0.0
-555.9707337891418 -26.538442705214575 -241.59018855089593 -132.62677379337129 0.0 0.0
-600.335670474499 -34.72049010162201 -279.99872456993063 -127.89130017538339 0.0 0.0
-642.0649698735688 -42.92582777557031 -315.33938855009706 -124.10111541728814 0.0 0.0
-682.792120287672 -51.61762615245943 -347.9735653125183 -121.43561097238312 0.0 0.0
-723.9193616490181 -62.40442786453765 -379.3291515650733 -120.47101071669206 0.0 0.0
-764.0861083669453 -76.64394040632516 -409.8403410898631 -122.37154404354801 0.0 0.0
-802.8248395336959 -96.55116304428994 -440.79750696355234 -128.9232541654375 0.0 0.0
-846.9240143617103 -132.93957098023375 -481.01688681601354 -138.88212027722116 0.0 0.0
-893.8887669431369 -187.71310310055097 -530.4091868390632 -148.55179240165754 0.0 0.0
-945.219282838111 -283.48165370560866 -596.38030012952 -154.43256583385593 0.0 0.0
-945.219282838307 -283.4816537059243 -596.3803001297294 154.43256583404883 0.0 0.0
-893.888766943332 -187.71310310099975 -530.4091868392961 148.55179240201363 0.0 0.0
-846.924014361934 -132.93957098068316 -481.0168868161775 138.88212027749853 0.0 0.0
-802.8248395331036 -96.55116304383742 -440.79750696315693 128.92325416554155 0.0 0.0
-764.0861083662631 -76.64394040568106 -409.8403410894092 122.3715440435927 0.0 0.0
-723.919361649285 -62.40442786489912 -379.3291515652257 120.47101071669532 0.0 0.0
-682.7921202879286 -51.61762615291862 -347.97356531267013 121.4356109724703 0.0 0.0
-642.0649698732359 -42.92582777537875 -315.3393885498587 124.10111541729188 0.0 0.0
-600.3356704738769 -34.720490101103266 -279.99872456946196 127.89130017534899 0.0 0.0
-555.9707337888515 -26.538442705171814 -241.5901885506287 132.62677379335167 0.0 0.0
-501.8792729009241 -18.836552778097552 -199.0820189515532 137.19514186817742 0.0 0.0
-433.26795990533685 -8.011341157827301 -152.0326728298531 147.0101965909832 0.0 0.0
-346.82548265539776 -1.9678118281156642 -110.66126517899879 157.28927740093474 0.0 0.0
-259.7249023348295 5.510527644870006 -77.56321155333922 162.38312511007126 0.0 0.0
-197.68672920057872 12.572506950454812 -55.54683318063285 161.4072669016927 0.0 0.0
-154.76152840522315 16.169409419847707 -41.56662209654573 157.63906384802044 0.0 0.0
-125.24805181998927 15.288463122375765 -32.977105025080085 159.09607902631726 0.0 0.0
-101.47228693542944 0.0009875163409200916 -30.438439685108918 164.46500115932406 0.0 0.0
-68.94765718226482 -52.26722727774396 -36.36446533800263 159.2047867252473 0.0 0.0
-22.95377864225302 -139.5363864342704 -48.74704952295703 90.98831248818935 0.0 0.0
-23.378055653771824 -105.51491334884038 -38.66789070078366 -79.00349571936036 0.0 0.0
-76.17123566737808 -45.332725411936664 -36.451188323794426 -146.98667690992622 0.0 0.0
-123.33156218285919 -0.6927417850988564 -37.20449925795069 -156.3828663560517 0.0 0.0
-163.59788447265186 13.913345132770818 -44.89414476847301 -150.9601448855392 0.0 0.0
-209.90732264887774 16.48515958973864 -57.99170552722927 -146.63259901373752 0.0 0.0
-271.297294351838 12.306288334549606 -78.08436768456488 -145.1970458946714 0.0 0.0
-355.8965450676854 5.991601004724089 -108.55624257488994 -140.9842188537117 0.0 0.0
-446.8049863078477 -4.188673903868967 -153.79048161376912 -130.738667521285 0.0 0.0
-523.0531862244167 -16.52495936815898 -206.6395967193867 -122.21669855734183 0.0 0.0
-582.4245228377684 -29.311552600946982 -257.3168785669525 -117.87338365958308 0.0 0.0
-630.7398725273096 -40.19450715500773 -300.33100785609935 -114.69543445791699 0.0 0.0
-676.2579188859136 -51.9172752167309 -339.3756332387244 -111.27320386555115 0.0 0.0
-719.4297869321722 -62.75834900690573 -373.8904841390272 -107.98007667579137 0.0 0.0
-762.2425023703389 -74.24392505223378 -405.83752615864364 -105.41853713054397 0.0 0.0
-805.6742937046808 -87.08365687153139 -436.7163008229886 -104.429527146715 0.0 0.0
-850.8796903775185 -104.42130435162976 -469.5336198191484 -106.23927243308445 0.0 0.0
-899.6512270671253 -131.03572899725702 -507.6860024131232 -111.61693192690238 0.0 0.0
-957.0429332476485 -175.84421521620993 -558.4961148623026 -120.35586418808289 0.0 0.0
-1022.9516604038653 -244.52371835902258 -624.4299803686854 -129.08473430775942 0.0 0.0
-1093.7517679305977 -351.7261942264646 -707.9660238273681 -137.18830021352866 0.0 0.0
-1093.7517679306284 -351.72619422659477 -707.9660238274387 137.1883002137061 0.0 0.0
-1022.9516604038123 -244.5237183591199 -624.4299803686501 129.0847343080506 0.0 0.0
-957.042933247475 -175.8442152162032 -558.496114862158 120.35586418831294 0.0 0.0
-899.6512270666727 -131.03572899689888 -507.68600241277625 111.61693192699624 0.0 0.0
-850.8796903772829 -104.4213043514775 -469.53361981888577 106.23927243311283 0.0 0.0
-805.6742937044904 -87.08365687140692 -436.7163008227626 104.42952714668309 0.0 0.0
-762.2425023698225 -74.24392505179112 -405.837526158257 105.41853713054171 0.0 0.0
-719.4297869316916 -62.75834900653702 -373.89048413867147 107.9800766757782 0.0 0.0
-676.2579188856312 -51.917275216575874 -339.37563323844995 111.27320386550052 0.0 0.0
-630.739872527043 -40.19450715499185 -300.33100785585435 114.69543445791123 0.0 0.0
-582.4245228373752 -29.311552600780523 -257.3168785665822 117.87338365952712 0.0 0.0
-523.0531862242526 -16.52495936846194 -206.6395967192236 122.21669855740424 0.0 0.0
-446.80498630727436 -4.188673903718771 -153.7904816134171 130.73866752133745 0.0 0.0
-355.8965450671976 5.991601004637627 -108.55624257473609 140.98421885369132 0.0 0.0
-271.297294351476 12.306288334503623 -78.08436768447153 145.19704589451962 0.0 0.0
-209.90732264855453 16.485159589760798 -57.99170552712708 146.6325990135893 0.0 0.0
-163.59788447243517 13.913345132845933 -44.894144768386624 150.9601448853672 0.0 0.0
-123.33156218267864 -0.6927417849825841 -37.20449925786241 156.38286635589088 0.0 0.0
-76.17123566729964 -45.332725411903034 -36.451188323760796 146.98667690975432 0.0 0.0
-23.378055653770122 -105.5149133487617 -38.66789070075954 79.00349571924613 0.0 0.0
-24.01912456089483 -75.47913191222268 -29.84947694193525 -66.70784691173864 0.0 0.0
-83.19128806135743 -37.347767877783326 -36.16171678174222 -131.78565683860023 0.0 0.0
-144.0596804892267 -0.8924410199493771 -43.48563645275282 -144.27947320751093 0.0 0.0
-200.436122035074 12.272199170026884 -56.42963127597886 -138.68828394090525 0.0 0.0
-263.30594680435826 15.144296248096088 -74.34378915381237 -131.41101804681088 0.0 0.0
-340.6198209665703 12.546859538509922 -99.71265582168388 -124.95855695017076 0.0 0.0
-434.6865332146717 4.990604217609041 -139.9707590590042 -115.18339438334014 0.0 0.0
-519.094885797215 -9.766735870861213 -195.90866757518432 -105.67028436930373 0.0 0.0
-584.6919127697261 -24.540027798004765 -252.62047795827093 -102.00983925219936 0.0 0.0
-638.8892908457136 -38.862064284429664 -302.42081918546063 -100.22717986140944 0.0 0.0
-688.1612424015696 -53.52181750701199 -345.95665610674985 -97.89250144490266 0.0 0.0
-735.3168684221112 -68.36992426593244 -384.871555405905 -95.05400338560538 0.0 0.0
-781.1160246759644 -82.58390404020307 -419.87900771702596 -92.20354093465068 0.0 0.0
-826.7935513344989 -96.58261421320202 -452.521838016987 -89.83680089172506 0.0 0.0
-873.5425404691605 -111.77281413194424 -484.93289904045423 -88.73557155913528 0.0 0.0
-923.257134039281 -132.71709914956745 -521.0411864314681 -89.73453152637848 0.0 0.0
-981.6305747364845 -165.86028465119904 -566.8669826370816 -93.76723230633844 0.0 0.0
-1052.1101908968226 -220.74953126281895 -629.1293743913461 -101.08065105082166 0.0 0.0
-1132.3415418869677 -302.1716283783379 -709.0074354686924 -110.22396643785581 0.0 0.0
-1204.0833265909364 -410.5716717426235 -795.1568404271537 -124.56550004363469 0.0 0.0
-1204.0833265905503 -410.57167174231745 -795.1568404269217 124.56550004380861 0.0 0.0
-1132.341541886482 -302.17162837792966 -709.0074354683861 110.22396643802284 0.0 0.0
-1052.1101908963903 -220.74953126249193 -629.1293743910544 101.08065105101635 0.0 0.0
-981.6305747361671 -165.86028465096788 -566.866982636821 93.76723230644065 0.0 0.0
-923.2571340388022 -132.7170991491603 -521.0411864311185 89.73453152640289 0.0 0.0
-873.5425404689288 -111.77281413179514 -484.9328990402883 88.73557155915178 0.0 0.0
-826.7935513344416 -96.58261421325241 -452.52183801689466 89.83680089176896 0.0 0.0
-781.1160246760455 -82.5839040404858 -419.87900771702664 92.20354093477054 0.0 0.0
-735.3168684219702 -68.36992426598522 -384.8715554057465 95.05400338563429 0.0 0.0
-688.161242401331 -53.52181750698647 -345.95665610651326 97.892501444891 0.0 0.0
-638.8892908455371 -38.862064284475366 -302.4208191852414 100.22717986134134 0.0 0.0
-584.6919127694392 -24.540027797989282 -252.62047795797946 102.00983925216636 0.0 0.0
-519.0948857966342 -9.766735870606356 -195.90866757475368 105.67028436932253 0.0 0.0
-434.68653321412796 4.990604217698872 -139.9707590587078 115.1833943833274 0.0 0.0
-340.61982096610615 12.546859538515186 -99.71265582153924 124.95855695010192 0.0 0.0
-263.30594680402214 15.144296248099494 -74.34378915371471 131.41101804676697 0.0 0.0
-200.4361220347879 12.27219917014224 -56.4296312758599 138.6882839407738 0.0 0.0
-144.05968048910313 -0.8924410199208257 -43.48563645270719 144.27947320737536 0.0 0.0
-83.19128806125815 -37.34776787774383 -36.16171678170059 131.78565683852446 0.0 0.0
-24.01912456087515 -75.47913191214829 -29.849476941907024 66.70784691170661 0.0 0.0
-24.781309982695383 -49.809991889693784 -22.37739056171675 -53.9586082027972 0.0 0.0
-89.90863270269543 -28.830571590826995 -35.621761288056724 -113.91840898146859 0.0 0.0
-163.82841118038667 -0.6637467307718605 -49.347647373347556 -128.32435594397103 0.0 0.0
-235.9104315523248 10.000606995197643 -67.7626272335489 -122.31245219928886 0.0 0.0
-313.4380630955991 13.150473638229975 -90.12171577264006 -112.04049156718074 0.0 0.0
-405.2304494871042 12.776804136358859 -121.35900384986695 -101.77149695084049 0.0 0.0
-497.446132879747 1.7233854168430511 -172.06748093435655 -89.34763745422418 0.0 0.0
-570.4543540840142 -16.087703567660206 -234.02459385389204 -84.05272141797555 0.0 0.0
-629.900067008217 -31.09295595530736 -289.47996226873965 -83.70322958939099 0.0 0.0
-684.2557842263545 -48.32387742555826 -339.02564006157104 -82.83619378107483 0.0 0.0
-735.5782349198352 -66.46373893879728 -382.96283279124094 -81.16516004623685 0.0 0.0
-785.1093785947347 -84.47347384699886 -422.44811379743567 -78.7913254084119 0.0 0.0
-834.3366149220999 -101.96869768978645 -459.07027677505806 -76.4993442268925 0.0 0.0
-882.9942596323706 -119.2403166188333 -493.7307615846999 -74.41500870923511 0.0 0.0
-932.6923535627894 -137.00838004621954 -528.2674807768636 -73.0869242679123 0.0 0.0
-987.8272047464026 -161.13913870725827 -568.3379910959377 -73.10347768395903 0.0 0.0
-1053.3836129627437 -200.51916331892056 -620.7208427082161 -75.32116351216551 0.0 0.0
-1135.3315233325532 -265.36417586895783 -693.5829297204782 -81.52470945294371 0.0 0.0
-1226.00847269858 -356.44404559647046 -783.894581739416 -92.74099423003598 0.0 0.0
-1299.6740585419655 -467.3177991232808 -873.3988803178866 -115.42753034222194 0.0 0.0
-1299.6740585419666 -467.317799123343 -873.3988803179 115.42753034235987 0.0 0.0
-1226.008472698758 -356.44404559677105 -783.8945817395371 92.74099423028954 0.0 0.0
-1135.3315233328372 -265.3641758693507 -693.5829297206711 81.52470945314354 0.0 0.0
-1053.3836129624729 -200.51916331870444 -620.7208427080104 75.32116351222771 0.0 0.0
-987.8272047459145 -161.13913870684632 -568.3379910955359 73.10347768402157 0.0 0.0
-932.6923535624985 -137.00838004601658 -528.2674807765549 73.08692426795022 0.0 0.0
-882.9942596317926 -119.24031661834903 -493.73076158421577 74.41500870924898 0.0 0.0
-834.3366149212471 -101.96869768903728 -459.0702767744292 76.49934422691234 0.0 0.0
-785.1093785940584 -84.47347384647304 -422.448113796959 78.79132540842579 0.0 0.0
-735.578234918944 -66.46373893803435 -382.96283279056524 81.16516004615264 0.0 0.0
-684.2557842261376 -48.323877425548936 -339.02564006132104 82.83619378103077 0.0 0.0
-629.9000670077908 -31.09295595511502 -289.47996226835255 83.70322958936462 0.0 0.0
-570.4543540836302 -16.087703567584075 -234.02459385353825 84.0527214179968 0.0 0.0
-497.44613287912637 1.7233854171167717 -172.0674809339293 89.34763745424047 0.0 0.0
-405.230449486482 12.77680413661146 -121.35900384956894 101.77149695075136 0.0 0.0
-313.4380630951807 13.150473638341616 -90.12171577248837 112.04049156708018 0.0 0.0
-235.91043155203383 10.000606995241533 -67.76262723345002 122.31245219912896 0.0 0.0
-163.82841118028566 -0.6637467308688687 -49.34764737334635 128.32435594385788 0.0 0.0
-89.90863270264364 -28.83057159086276 -35.62176128805192 113.91840898138747 0.0 0.0
-24.781309982660893 -49.80999188964354 -22.377390561691332 53.95860820276625 0.0 0.0
-25.344599941937798 -28.87843386661498 -16.266910142565834 -40.70835338804787 0.0 0.0
-95.84875219822771 -20.237781525169225 -34.82596011701907 -93.64669665175722 0.0 0.0
-182.6640553180526 -0.11525521077268142 -54.833793158647566 -108.50849868445133 0.0 0.0
-270.60987718216353 6.852593327994638 -79.11769999420879 -102.06406779150691 0.0 0.0
-361.9078248959148 11.778554712336604 -105.14860177335588 -89.8797428790405 0.0 0.0
-459.4449164851435 12.146393831663062 -143.49255425393784 -76.38434870306189 0.0 0.0
-540.7668101905065 -4.425774461693866 -203.7647786124694 -65.72297552520479 0.0 0.0
-608.1062361705476 -20.03477986095336 -265.17663478037264 -65.18364059339541 0.0 0.0
-667.1753006496858 -37.43753074241237 -320.182326569478 -65.58607694946477 0.0 0.0
-722.502479495473 -57.69566368200026 -369.52112483114234 -65.37017936238537 0.0 0.0
-776.0221944031042 -78.8873007516819 -413.97248805857816 -64.18753003493751 0.0 0.0
-828.8144877670795 -100.22919881899988 -455.08793494597904 -62.3582437921614 0.0 0.0
-881.2001873273275 -121.11012015553185 -493.8292046862516 -60.56961729039437 0.0 0.0
-934.4440675589551 -142.1919433738273 -532.0608083460583 -59.02764100389707 0.0 0.0
-988.0275704905712 -163.46920980085764 -569.9755995618118 -57.57964066996752 0.0 0.0
-1045.3147895180077 -190.1055988138679 -612.1794305744304 -56.342430443952516 0.0 0.0
-1116.5666226001729 -233.5808438078869 -669.4294646732344 -56.65004531242523 0.0 0.0
-1207.7115564114129 -306.0422975635488 -750.6061038785624 -61.97378652388676 0.0 0.0
-1309.7934867305814 -407.62858840294837 -852.0381531181304 -76.18594666024666 0.0 0.0
-1390.3478496230186 -526.0806439031414 -949.7543673131161 -107.9354059610155 0.0 0.0
-1390.3478496231846 -526.0806439033631 -949.7543673132832 107.9354059611217 0.0 0.0
-1309.793486730352 -407.6285884027649 -852.0381531179863 76.18594666035318 0.0 0.0
-1207.7115564106675 -306.0422975628489 -750.6061038779889 61.97378652398517 0.0 0.0
-1116.5666225997356 -233.58084380749966 -669.4294646728667 56.65004531246635 0.0 0.0
-1045.314789517683 -190.10559881362732 -612.1794305741407 56.342430444024174 0.0 0.0
-988.0275704903491 -163.46920980070928 -569.9755995616046 57.57964066998137 0.0 0.0
-934.444067558653 -142.1919433736391 -532.0608083458017 59.02764100396944 0.0 0.0
-881.2001873272486 -121.11012015559498 -493.82920468611525 60.56961729044794 0.0 0.0
-828.8144877671505 -100.22919881928075 -455.08793494595307 62.35824379228491 0.0 0.0
-776.0221944027267 -78.88730075147456 -413.9724880582404 64.1875300349038 0.0 0.0
-722.5024794953999 -57.69566368213579 -369.5211248310025 65.37017936235176 0.0 0.0
-667.175300649467 -37.43753074244956 -320.1823265692362 65.5860769495072 0.0 0.0
-608.1062361701886 -20.034779860869463 -265.17663478001464 65.18364059337685 0.0 0.0
-540.7668101903009 -4.425774461846051 -203.76477861223117 65.7229755251497 0.0 0.0
-459.4449164848552 12.146393831469819 -143.49255425380196 76.38434870303837 0.0 0.0
-361.90782489557216 11.778554712183409 -105.14860177330414 89.8797428790003 0.0 0.0
-270.60987718191797 6.852593327885132 -79.1176999941696 102.0640677913893 0.0 0.0
-182.66405531790687 -0.11525521083833823 -54.83379315862355 108.50849868433176 0.0 0.0
-95.84875219813149 -20.23778152506394 -34.825960116958626 93.64669665166221 0.0 0.0
-25.34459994186387 -28.87843386654746 -16.266910142523397 40.708353387996624 0.0 0.0
-25.080132855292977 -13.032718365963294 -11.433855366376878 -27.110486587687937 0.0 0.0
-100.0647591712762 -11.98100161564309 -33.61372823607578 -71.13443667129576 0.0 0.0
-200.5960874779597 0.4699931611636412 -60.03782829503881 -84.64542164114471 0.0 0.0
-304.90978757708 3.1196923805430927 -90.52649208611967 -78.03924603030426 0.0 0.0
-408.3482327549798 12.175696544816017 -119.46733270208905 -65.22784760683388 0.0 0.0
-503.0590634957653 8.005188984407678 -167.89346937083977 -51.45013855305235 0.0 0.0
-576.1923246891756 -9.111516074130357 -232.47160606221456 -45.63344231421415 0.0 0.0
-639.0043716355436 -23.559763138881777 -291.3309233838682 -46.392992468364916 0.0 0.0
-698.2258135794036 -43.765744339699175 -345.9232775391287 -47.471866793474305 0.0 0.0
-755.3936235677227 -66.8195950731843 -395.41388495733145 -47.621702035198545 0.0 0.0
-811.6656539872151 -90.96603591420717 -440.9536736349953 -46.88601248402609 0.0 0.0
-867.4344448940584 -115.55244719548152 -483.9811684807763 -45.59399868446832 0.0 0.0
-924.0638892359465 -139.93145285679816 -525.866565487538 -44.3895847069077 0.0 0.0
-981.25167423524 -165.31300709104914 -567.8207951221599 -43.326095066074124 0.0 0.0
-1039.6404323562956 -191.49917590281032 -610.3985638935283 -42.08080963899941 0.0 0.0
-1100.9530212770787 -221.45907667951676 -656.1670782144611 -40.091718765158554 0.0 0.0
-1170.1105189437405 -262.49017150017147 -711.2389704682014 -38.218701728029664 0.0 0.0
-1267.0801056641335 -339.41332071002006 -797.4618624217435 -42.09579599794662 0.0 0.0
-1385.5968001895974 -455.40031437311376 -914.2010657159433 -59.38036561404811 0.0 0.0
-1484.7556335190484 -591.33953572324 -1030.91112598356 -100.57003023674194 0.0 0.0
-1484.7556335187255 -591.3395357229388 -1030.9111259833157 100.57003023679245 0.0 0.0
-1385.5968001892052 -455.4003143727539 -914.2010657156497 59.38036561415075 0.0 0.0
-1267.0801056641596 -339.41332071009606 -797.4618624217462 42.09579599804833 0.0 0.0
-1170.1105189432888 -262.4901714997651 -711.2389704678619 38.21870172803407 0.0 0.0
-1100.9530212767634 -221.45907667926244 -656.1670782141923 40.09171876516037 0.0 0.0
-1039.640432355736 -191.49917590232133 -610.3985638930587 42.08080963901318 0.0 0.0
-981.2516742351434 -165.31300709106162 -567.8207951220552 43.326095066128644 0.0 0.0
-924.0638892351859 -139.9314528561472 -525.8665654869537 44.38958470691661 0.0 0.0
-867.4344448934394 -115.55244719501415 -483.9811684802429 45.593998684476915 0.0 0.0
-811.6656539871939 -90.9660359143727 -440.95367363490936 46.88601248403617 0.0 0.0
-755.3936235672938 -66.81959507293838 -395.41388495699243 47.62170203515125 0.0 0.0
-698.2258135790187 -43.765744339528496 -345.92327753877623 47.471866793452264 0.0 0.0
-639.004371635313 -23.55976313892512 -291.33092338359944 46.392992468392265 0.0 0.0
-576.1923246887014 -9.111516073944898 -232.47160606179727 45.63344231421449 0.0 0.0
-503.0590634952755 8.005188984561535 -167.89346937050468 51.45013855306445 0.0 0.0
-408.3482327545585 12.175696544789197 -119.46733270196496 65.22784760681192 0.0 0.0
-304.90978757676083 3.1196923805868293 -90.5264920860125 78.03924603020378 0.0 0.0
-200.59608747778663 0.4699931611707142 -60.03782829498476 84.64542164109241 0.0 0.0
-100.06475917117757 -11.981001615585576 -33.61372823602894 71.13443667128294 0.0 0.0
-25.0801328552418 -13.032718365915056 -11.433855366347057 27.110486587672995 0.0 0.0
-22.79512900999086 -2.546713823769495 -7.602552850128104 -13.677744894835318 0.0 0.0
-100.97735378455181 -4.571558428714805 -31.664673663979983 -46.38365345105849 0.0 0.0
-217.6376255578034 0.8143557087815179 -65.04698095470656 -56.15715368650268 0.0 0.0
-339.89179427190277 -0.6988591236463781 -102.13783212647253 -50.59060330286445 0.0 0.0
-450.0045345451769 14.746208179583263 -133.56126721467973 -39.81907856553469 0.0 0.0
-533.4263514690597 0.1349194484173566 -193.5657598378284 -28.364567408627984 0.0 0.0
-603.2876221037295 -11.095348511256727 -255.83116854172175 -26.893460243095685 0.0 0.0
-664.5229456917784 -27.68767188523154 -313.7994994331291 -28.00562652818953 0.0 0.0
-724.3279499610671 -49.874958566366374 -367.53004673265184 -29.07109450753684 0.0 0.0
-783.7302497674345 -75.55822161373938 -417.53783013935765 -29.464702467943 0.0 0.0
-843.0684850073519 -102.82843330396244 -464.82313531450245 -29.15031932137711 0.0 0.0
-902.7678271574093 -130.38145168603378 -510.4272904751042 -28.477602327143682 0.0 0.0
-962.7684099624325 -158.8433675001826 -555.554321815311 -27.793162839613604 0.0 0.0
-1024.7029380387723 -188.27501804466266 -601.632284782059 -27.252428774026054 0.0 0.0
-1089.0908934535069 -220.1157989823418 -649.9211327460496 -26.41271559818778 0.0 0.0
-1155.3387013661536 -255.40615641746174 -700.7243530567255 -24.543764490028497 0.0 0.0
-1222.9419554039573 -295.41516103555654 -754.5982015249925 -21.361724143507377 0.0 0.0
-1299.787127585293 -351.09484193801654 -820.3679932521602 -21.62892733321833 0.0 0.0
-1453.0872943302868 -498.0094636027454 -969.2822159909219 -40.093836735208114 0.0 0.0
-1593.7899818438332 -671.9734995501045 -1126.8310216368134 -91.51773704476619 0.0 0.0
-1593.7899818440014 -671.9734995503081 -1126.831021636933 91.51773704483891 0.0 0.0
-1453.0872943302265 -498.00946360272576 -969.2822159908194 40.093836735305004 0.0 0.0
-1299.7871275850894 -351.0948419378502 -820.3679932518758 21.62892733329857 0.0 0.0
-1222.9419554032959 -295.41516103494666 -754.5982015243865 21.361724143532808 0.0 0.0
-1155.338701365429 -255.4061564167864 -700.7243530561066 24.54376448997983 0.0 0.0
-1089.0908934528218 -220.1157989817228 -649.9211327454543 26.412715598172838 0.0 0.0
-1024.7029380383472 -188.27501804433464 -601.6322847816284 27.252428774041466 0.0 0.0
-962.7684099622539 -158.8433675001299 -555.5543218151244 27.793162839598 0.0 0.0
-902.7678271573509 -130.38145168612448 -510.4272904750193 28.47760232711613 0.0 0.0
-843.068485006884 -102.82843330366605 -464.8231353140692 29.150319321362836 0.0 0.0
-783.7302497670512 -75.55822161354914 -417.5378301389859 29.46470246791097 0.0 0.0
-724.3279499602897 -49.87495856577658 -367.53004673204197 29.071094507566826 0.0 0.0
-664.522945691177 -27.687671884855856 -313.79949943260914 28.00562652816612 0.0 0.0
-603.2876221031931 -11.09534851097146 -255.831168541235 26.893460243058897 0.0 0.0
-533.4263514684887 0.13491944871712036 -193.5657598373911 28.364567408577592 0.0 0.0
-450.00453454495744 14.746208179312845 -133.56126721463903 39.81907856558284 0.0 0.0
-339.89179427157626 -0.6988591236551298 -102.13783212638083 50.590603302843846 0.0 0.0
-217.63762555760718 0.8143557088595159 -65.04698095462429 56.15715368646318 0.0 0.0
-100.97735378446508 -4.571558428708136 -31.66467366395196 46.38365345103607 0.0 0.0
-22.79512900998205 -2.546713823775633 -7.602552850127303 13.677744894800089 0.0 0.0
-16.165483841047497 2.4255989863229597 -4.12196545641736 -1.5865407960841982 0.0 0.0
-96.02025799310452 1.3667654789190173 -28.396047754255648 -18.97542532917693 0.0 0.0
-234.26166434571573 0.031134017359958577 -70.26915909850673 -21.96578379329722 0.0 0.0
-376.76320603695035 -0.9272117625268228 -113.22435028551627 -20.355608701980984 0.0 0.0
-486.91842327326606 13.543173641181712 -150.75611239625331 -14.203234877184268 0.0 0.0
-562.9555736649227 -4.861991295246561 -217.21728228721793 -8.600255484008468 0.0 0.0
-624.7366641191979 -13.36934479816329 -275.8479936076265 -8.814738347005868 0.0 0.0
-685.5811456521722 -31.73272196779441 -332.6390735032048 -9.56698375740098 0.0 0.0
-746.6643872531389 -55.962991925858496 -386.02667611779395 -10.36066439113152 0.0 0.0
-808.6467118246419 -84.13492664195982 -436.99955570695795 -10.822498125925861 0.0 0.0
-871.10613806345 -113.91079273976572 -486.0324401614787 -10.954268101328237 0.0 0.0
-934.0829133794157 -145.52171201210626 -534.6751850319879 -10.88795908346718 0.0 0.0
-998.4798574489625 -177.44351312556682 -583.3988889133958 -10.81678737432246 0.0 0.0
-1065.2548627480894 -211.02325619000788 -633.7985477618313 -10.716865327602491 0.0 0.0
-1135.3611494645343 -248.4515451600209 -687.6318745160531 -10.337991143678078 0.0 0.0
-1207.7916618474792 -290.23521411820553 -744.7116326667522 -9.310988903231252 0.0 0.0
-1278.2679845484518 -334.0949903903028 -801.8514163230082 -7.081535588707659 0.0 0.0
-1341.1246215101003 -376.3958386031595 -854.4707263824617 -3.85969083241982 0.0 0.0
-1416.5167957412107 -440.7839263910265 -922.9088158357281 -14.193622859005025 0.0 0.0
-1781.427396693225 -828.3284397877273 -1299.2125240282933 -73.29454621793212 0.0 0.0
-1781.4273966932092 -828.3284397877131 -1299.2125240282662 73.29454621791729 0.0 0.0
-1416.5167957407566 -440.7839263905943 -922.9088158353381 14.193622859058484 0.0 0.0
-1341.1246215093445 -376.39583860243636 -854.4707263818316 3.859690832440469 0.0 0.0
-1278.2679845483106 -334.0949903902162 -801.8514163228073 7.081535588709477 0.0 0.0
-1207.7916618474721 -290.2352141182661 -744.711632666657 9.310988903243057 0.0 0.0
-1135.3611494644426 -248.45154516001037 -687.6318745159131 10.337991143686398 0.0 0.0
-1065.2548627480026 -211.0232561900219 -633.7985477616563 10.71686532761525 0.0 0.0
-998.4798574484033 -177.44351312512612 -583.3988889128932 10.816787374311376 0.0 0.0
-934.0829133788432 -145.52171201168315 -534.6751850315195 10.887959083423663 0.0 0.0
-871.1061380627989 -113.91079273927386 -486.03244016096784 10.95426810133968 0.0 0.0
-808.64671182401 -84.13492664152425 -436.9995557064623 10.82249812594955 0.0 0.0
-746.6643872526488 -55.96299192557485 -386.02667611738343 10.36066439116945 0.0 0.0
-685.5811456518813 -31.732721967735095 -332.639073502905 9.566983757370195 0.0 0.0
-624.7366641189681 -13.369344798215096 -275.8479936073664 8.81473834702079 0.0 0.0
-562.955573664633 -4.86199129523885 -217.21728228693033 8.600255484002243 0.0 0.0
-486.9184232728372 13.543173641306565 -150.75611239600974 14.20323487723093 0.0 0.0
-376.763206036578 -0.9272117625051748 -113.22435028540228 20.355608701951972 0.0 0.0
-234.2616643455557 0.031134017337047126 -70.26915909846558 21.96578379328227 0.0 0.0
-96.02025799297519 1.3667654790323915 -28.396047754182838 18.975425329159847 0.0 0.0
-16.16548384101809 2.4255989863531005 -4.121965456399495 1.5865407960831306 0.0 0.0
SCALARS Strain float 6
LOOKUP_TABLE default
0.007447472845059824 -0.008551142057021718 0.0 -0.004519952291078905 0.0 0.0
0.0018018073020660942 -0.0007330461929276055 0.0 0.0009119113519115846 0.0 0.0
0.0016649256555644754 -0.0007181491197787437 0.0 -0.00010175264687527219 0.0 0.0
0.0019501908399552157 -0.0008435108389431845 0.0 -0.00014630209466214017 0.0 0.0
0.0025600746838980604 -0.0012668888401626832 0.0 -0.0001757360054335244 0.0 0.0
0.003756179305571457 -0.0021918631323650795 0.0 -0.00022187994031139247 0.0 0.0
0.005436726644463496 -0.003612117313290253 0.0 -0.0003091493442614335 0.0 0.0
0.0076238734527051995 -0.005525309597389838 0.0 -0.00042350793694193034 0.0 0.0
0.010352008984276044 -0.007974799495647944 0.0 -0.000563206165058075 0.0 0.0
0.013687953638949965 -0.01102865222223226 0.0 -0.0007215363703234751 0.0 0.0
0.01780129021990704 -0.014859704729848877 0.0 -0.0008835079526984257 0.0 0.0
0.0229666421463731 -0.01973795097450104 0.0 -0.0010804837208415324 0.0 0.0
0.029463559711156082 -0.025943652174523324 0.0 -0.0013237755101355858 0.0 0.0
0.037503987037492886 -0.03368377703808978 0.0 -0.0016135258334375041 0.0 0.0
0.04710723214604119 -0.04296982714098818 0.0 -0.0019625001061361197 0.0 0.0
0.05793189578619799 -0.05345968269543433 0.0 -0.0023164634865462663 0.0 0.0
0.06920433005752566 -0.06439056478022587 0.0 -0.002526451101835442 0.0 0.0
0.0797857624821534 -0.07464651609285577 0.0 -0.0023763283426539716 0.0 0.0
0.08835630335259893 -0.08293359791815336 0.0 -0.0018184595777107349 0.0 0.0
0.09347274485029575 -0.08777704861253488 0.0 -0.0013749386675624975 0.0 0.0
0.09347274485029412 -0.08777704861253155 0.0 0.001374938667564829 0.0 0.0
0.08835630335258954 -0.08293359791814381 0.0 0.0018184595777206436 0.0 0.0
0.07978576248213617 -0.0746465160928409 0.0 0.0023763283426598836 0.0 0.0
0.06920433005750393 -0.0643905647802061 0.0 0.0025264511018388003 0.0 0.0
0.05793189578617536 -0.05345968269541124 0.0 0.002316463486542353 0.0 0.0
0.04710723214601786 -0.04296982714096487 0.0 0.0019625001061362446 0.0 0.0
0.037503987037468975 -0.033683777038067575 0.0 0.0016135258334368796 0.0 0.0
0.0294635597111306 -0.02594365217450112 0.0 0.0013237755101365711 0.0 0.0
0.022966642146347513 -0.01973795097447728 0.0 0.0010804837208403528 0.0 0.0
0.017801290219883165 -0.014859704729827117 0.0 0.0008835079526981482 0.0 0.0
0.013687953638929648 -0.01102865222221483 0.0 0.000721536370319853 0.0 0.0
0.010352008984259406 -0.007974799495632401 0.0 0.0005632061650578668 0.0 0.0
0.007623873452691873 -0.005525309597377848 0.0 0.0004235079369407646 0.0 0.0
0.005436726644453493 -0.003612117313280927 0.0 0.00030914934426026774 0.0 0.0
0.0037561793055646275 -0.0021918631323593063 0.0 0.00022187994031033775 0.0 0.0
0.002560074683894825 -0.0012668888401606848 0.0 0.0001757360054332746 0.0 0.0
0.001950190839954291 -0.0008435108389428514 0.0 0.0001463020946613769 0.0 0.0
0.0016649256555637537 -0.0007181491197781886 0.0 0.0001017526468752028 0.0 0.0
0.0018018073020653058 -0.0007330461929268284 0.0 -0.0009119113519098498 0.0 0.0
0.007447472845053094 -0.008551142057011678 0.0 0.004519952291058005 0.0 0.0
0.005056713589500234 -0.006490038281337512 0.0 -0.005325868200601019 0.0 0.0
0.0010172541555114982 -0.0003576801774217153 0.0 0.000221431487888335 0.0 0.0
0.001440601690670864 -0.0005584125353550462 0.0 -0.0001272069914894508 0.0 0.0
0.0017464210550624942 -0.0007514468001444952 0.0 -0.0004006908199240128 0.0 0.0
0.002239455368292228 -0.0010472193399231333 0.0 -0.00043012502237581296 0.0 0.0
0.0032636612141719954 -0.0018010526292673301 0.0 -0.0005527919111250196 0.0 0.0
0.00478442450671876 -0.0030486074030682264 0.0 -0.0007832740598808785 0.0 0.0
0.006764861020774707 -0.004753782514327454 0.0 -0.001061503108079745 0.0 0.0
0.009220023352189386 -0.006936778009934419 0.0 -0.0013798876312424713 0.0 0.0
0.012201577300081166 -0.009648177742301645 0.0 -0.0017286372140100092 0.0 0.0
0.015850963551399314 -0.013029983472353068 0.0 -0.0020953669085979343 0.0 0.0
0.020412616000303814 -0.017325862244806478 0.0 -0.0024966807453934148 0.0 0.0
0.02618362383852658 -0.02282883094477195 0.0 -0.0030182424981557293 0.0 0.0
0.03338751355394039 -0.02975610697962705 0.0 -0.003695449873599377 0.0 0.0
0.04204552523273461 -0.038122800179745786 0.0 -0.00449383844760512 0.0 0.0
0.051855813021669646 -0.047626750122914396 0.0 -0.005299979506809688 0.0 0.0
0.06212842902483447 -0.05758695942788061 0.0 -0.005785196577267032 0.0 0.0
0.07184210469536606 -0.06699855672086952 0.0 -0.005534460137795183 0.0 0.0
0.07973776212328082 -0.07460895916711197 0.0 -0.004435292544457098 0.0 0.0
0.08439168908521658 -0.07906263843335326 0.0 -0.002521681814651011 0.0 0.0
0.08439168908521459 -0.07906263843335015 0.0 0.002521681814661836 0.0 0.0
0.0797377621232722 -0.07460895916710397 0.0 0.004435292544475111 0.0 0.0
0.07184210469535125 -0.0669985567208582 0.0 0.005534460137808395 0.0 0.0
0.06212842902481602 -0.057586959427864404 0.0 0.00578519657727411 0.0 0.0
0.05185581302164939 -0.04762675012289597 0.0 0.005299979506807162 0.0 0.0
0.042045525232713904 -0.03812280017973002 0.0 0.0044938384476058135 0.0 0.0
0.03338751355391886 -0.029756106979607955 0.0 0.003695449873599377 0.0 0.0
0.026183623838504047 -0.022828830944749523 0.0 0.0030182424981556877 0.0 0.0
0.020412616000281242 -0.01732586224478272 0.0 0.0024966807453898343 0.0 0.0
0.015850963551377786 -0.013029983472332196 0.0 0.002095366908595797 0.0 0.0
0.012201577300063021 -0.009648177742284547 0.0 0.0017286372140058182 0.0 0.0
0.009220023352174297 -0.006936778009921207 0.0 0.0013798876312405284 0.0 0.0
0.006764861020762597 -0.004753782514315796 0.0 0.0010615031080776216 0.0 0.0
0.00478442450670985 -0.0030486074030589005 0.0 0.0007832740598798793 0.0 0.0
0.003263661214166186 -0.0018010526292624451 0.0 0.0005527919111245339 0.0 0.0
0.0022394553682898166 -0.00104721933992169 0.0 0.00043012502237499417 0.0 0.0
0.0017464210550616616 -0.0007514468001440511 0.0 0.0004006908199236381 0.0 0.0
0.0014406016906704233 -0.000558412535355185 0.0 0.00012720699148893733 0.0 0.0
0.001017254155511807 -0.0003576801774210908 0.0 -0.0002214314878896534 0.0 0.0
0.005056713589492209 -0.006490038281327052 0.0 0.005325868200583367 0.0 0.0
0.003635535954404613 -0.005152434576930792 0.0 -0.004931484072678405 0.0 0.0
0.0005989651510542385 -0.00022109661297983751 0.0 -0.0004530706097861936 0.0 0.0
0.001150988217564132 -0.00040351197076005096 0.0 -0.000361786101786582 0.0 0.0
0.001538568376745434 -0.000649905562133013 0.0 -0.000632085337277391 0.0 0.0
0.0019583262538442545 -0.0008747903780993438 0.0 -0.0006921258501174365 0.0 0.0
0.002777270191392841 -0.0014337010861477095 0.0 -0.0008215007934288532 0.0 0.0
0.004124086489387384 -0.0024897689211540452 0.0 -0.001145675349846359 0.0 0.0
0.005894968021886968 -0.003988917818081528 0.0 -0.0015692447801040482 0.0 0.0
0.008078558766614275 -0.0059032067635838015 0.0 -0.0020336056464581864 0.0 0.0
0.01071135666675898 -0.008276284182954452 0.0 -0.0025319942309645765 0.0 0.0
0.013909102402405012 -0.011222292821940538 0.0 -0.003061451274630367 0.0 0.0
0.01788672600035214 -0.014953642015790525 0.0 -0.0036412201128940835 0.0 0.0
0.02292616942835475 -0.019746772076057795 0.0 -0.004353695654445225 0.0 0.0
0.02926877361411045 -0.025835656381295813 0.0 -0.005310629911041753 0.0 0.0
0.036952850215914594 -0.03325545694024856 0.0 -0.006483417420781901 0.0 0.0
0.04572146938838426 -0.041747649818935306 0.0 -0.007641099506741078 0.0 0.0
0.054987787768337834 -0.050731493910272984 0.0 -0.008357587792462012 0.0 0.0
0.06384862051925902 -0.05930844540730651 0.0 -0.008106473337993136 0.0 0.0
0.07111705993940934 -0.06631760055882174 0.0 -0.00653104821474329 0.0 0.0
0.07550055270619857 -0.07052865657190499 0.0 -0.003423205155024256 0.0 0.0
0.07550055270619613 -0.07052865657190277 0.0 0.0034232051550417975 0.0 0.0
0.07111705993940166 -0.06631760055881508 0.0 0.006531048214766799 0.0 0.0
0.06384862051924625 -0.05930844540729541 0.0 0.008106473338011844 0.0 0.0
0.05498778776832183 -0.05073149391026055 0.0 0.008357587792471588 0.0 0.0
0.04572146938836631 -0.041747649818919985 0.0 0.007641099506738969 0.0 0.0
0.03695285021589641 -0.0332554569402288 0.0 0.006483417420782733 0.0 0.0
0.029268773614091234 -0.02583565638127605 0.0 0.00531062991104031 0.0 0.0
0.022926169428334975 -0.019746772076039143 0.0 0.004353695654444767 0.0 0.0
0.017886726000332212 -0.014953642015775426 0.0 0.00364122011288881 0.0 0.0
0.013909102402386339 -0.011222292821926327 0.0 0.0030614512746263145 0.0 0.0
0.01071135666674286 -0.008276284182938798 0.0 0.0025319942309597054 0.0 0.0
0.008078558766600782 -0.005903206763571034 0.0 0.002033605646455494 0.0 0.0
0.005894968021876099 -0.003988917818072535 0.0 0.0015692447801011478 0.0 0.0
0.004124086489379661 -0.002489768921147384 0.0 0.0011456753498440275 0.0 0.0
0.002777270191388209 -0.001433701086145045 0.0 0.0008215007934274099 0.0 0.0
0.0019583262538424295 -0.000874790378097845 0.0 0.000692125850116479 0.0 0.0
0.0015385683767446395 -0.0006499055621326244 0.0 0.0006320853372763918 0.0 0.0
0.0011509882175639585 -0.0004035119707609669 0.0 0.00036178610178586035 0.0 0.0
0.0005989651510545507 -0.00022109661297911587 0.0 0.00045307060978441727 0.0 0.0
0.0036355359543971816 -0.005152434576921251 0.0 0.004931484072664277 0.0 0.0
0.0026833622060830897 -0.004154204676879603 0.0 -0.004203051769573557 0.0 0.0
0.0003702604324923413 -0.00017928159513733166 0.0 -0.001024351837394702 0.0 0.0
0.0008816167810886053 -0.0002813871992894956 0.0 -0.0006901390274795249 0.0 0.0
0.0013110369349597119 -0.0005384615368468348 0.0 -0.0008737225393118525 0.0 0.0
0.0017023546065027054 -0.0007433530183695858 0.0 -0.0009707736182002075 0.0 0.0
0.0023330041217744825 -0.0011302269218759209 0.0 -0.001061802873821266 0.0 0.0
0.003455786284911798 -0.001954148117709331 0.0 -0.001399412668244393 0.0 0.0
0.005018836792014439 -0.0032339492427637673 0.0 -0.001940580276856202 0.0 0.0
0.0069316055217733645 -0.004882869803554124 0.0 -0.0025190404524324528 0.0 0.0
0.009221658105297105 -0.006922397221966747 0.0 -0.0031336353039400494 0.0 0.0
0.011979041037900661 -0.009441522844218841 0.0 -0.0037790653141989705 0.0 0.0
0.015387008395145431 -0.012619743853490517 0.0 -0.004486465077769092 0.0 0.0
0.019704738173362144 -0.016713064367542385 0.0 -0.005362707778401504 0.0 0.0
0.025171840029525883 -0.021948077230638408 0.0 -0.0064945110080489865 0.0 0.0
0.0318510510893952 -0.02838926344734105 0.0 -0.007883112460542963 0.0 0.0
0.03954939500516966 -0.03584348668397541 0.0 -0.009309500698202716 0.0 0.0
0.047787794431511245 -0.04382824100294669 0.0 -0.01024274456711552 0.0 0.0
0.05578743719912097 -0.05157034159343832 0.0 -0.010039254815401855 0.0 0.0
0.06248992493218582 -0.058037756385717065 0.0 -0.00814470496728173 0.0 0.0
0.06670555168164298 -0.06209567223302592 0.0 -0.004173589136889588 0.0 0.0
0.06670555168164045 -0.06209567223302348 0.0 0.004173589136910627 0.0 0.0
0.062489924932178656 -0.058037756385709516 0.0 0.00814470496730979 0.0 0.0
0.055787437199109946 -0.05157034159342677 0.0 0.010039254815421894 0.0 0.0
0.04778779443149729 -0.04382824100293248 0.0 0.010242744567126039 0.0 0.0
0.039549395005153865 -0.03584348668396231 0.0 0.00930950069820069 0.0 0.0
0.031851051089379426 -0.028389263447327062 0.0 0.007883112460543185 0.0 0.0
0.02517184002950916 -0.02194807723062353 0.0 0.006494511008048265 0.0 0.0
0.019704738173345046 -0.016713064367526176 0.0 0.005362707778400533 0.0 0.0
0.015387008395128202 -0.012619743853476306 0.0 0.004486465077763124 0.0 0.0
0.011979041037884691 -0.00944152284420463 0.0 0.0037790653141938635 0.0 0.0
0.009221658105283137 -0.0069223972219524255 0.0 0.0031336353039322917 0.0 0.0
0.006931605521761558 -0.004882869803543466 0.0 0.002519040452428789 0.0 0.0
0.00501883679200496 -0.0032339492427557737 0.0 0.0019405802768530933 0.0 0.0
0.003455786284905421 -0.001954148117703558 0.0 0.0013994126682426167 0.0 0.0
0.002333004121770954 -0.0011302269218732564 0.0 0.0010618028738198226 0.0 0.0
0.001702354606501269 -0.0007433530183691972 0.0 0.0009707736181997911 0.0 0.0
0.0013110369349590006 -0.0005384615368463352 0.0 0.0008737225393107978 0.0 0.0
0.0008816167810886261 -0.0002813871992897732 0.0 0.0006901390274778457 0.0 0.0
0.00037026043249253904 -0.00017928159513691533 0.0 0.0010243518373923843 0.0 0.0
0.0026833622060766227 -0.004154204676871622 0.0 0.00420305176956301 0.0 0.0
0.0019912845577466157 -0.003351263275432198 0.0 -0.003470340715984871 0.0 0.0
0.00023963118390617905 -0.00017508235584437482 0.0 -0.0014630655519791147 0.0 0.0
0.0006511595613431162 -0.00019096833285120463 0.0 -0.0010349671159555762 0.0 0.0
0.0010735353950942633 -0.0004241979689566522 0.0 -0.0011261598979208781 0.0 0.0
0.0014483815166323882 -0.0006218424238224607 0.0 -0.0012410516349407041 0.0 0.0
0.0019430479077375482 -0.0008924423886449429 0.0 -0.0013149644257970938 0.0 0.0
0.002813024026078609 -0.0014703237032022143 0.0 -0.0015696095429004464 0.0 0.0
0.004132007680911445 -0.002491518229344458 0.0 -0.0021334954829168307 0.0 0.0
0.005783210501926032 -0.0038834293953414756 0.0 -0.0028277620967882555 0.0 0.0
0.007735754939835228 -0.005592811245320517 0.0 -0.0035247572930231508 0.0 0.0
0.010064241247153126 -0.007694410361511084 0.0 -0.0042510515853370345 0.0 0.0
0.012917125893555169 -0.010333810600159143 0.0 -0.005037701699271424 0.0 0.0
0.0165243701844435 -0.013733518630280717 0.0 -0.005992387693759427 0.0 0.0
0.021113684838389518 -0.018114819073445254 0.0 -0.007244334219595278 0.0 0.0
0.02677153682637729 -0.023560985713301896 0.0 -0.008760522083612332 0.0 0.0
0.033366725853652274 -0.029939414550427035 0.0 -0.010291472545918445 0.0 0.0
0.040532699814078255 -0.03688544720265985 0.0 -0.011380795568241842 0.0 0.0
0.04764944096127046 -0.04377626585997718 0.0 -0.011310433854539004 0.0 0.0
0.0538174319856103 -0.049732501675049834 0.0 -0.009307658516008677 0.0 0.0
0.05793286707103115 -0.05369813946256463 0.0 -0.004806091437478621 0.0 0.0
0.05793286707102881 -0.05369813946256019 0.0 0.004806091437500826 0.0 0.0
0.0538174319856035 -0.04973250167504162 0.0 0.009307658516038042 0.0 0.0
0.04764944096126077 -0.043776265859967634 0.0 0.011310433854560209 0.0 0.0
0.0405326998140664 -0.03688544720265008 0.0 0.011380795568251945 0.0 0.0
0.03336672585363851 -0.029939414550415266 0.0 0.010291472545917224 0.0 0.0
0.02677153682636378 -0.02356098571328813 0.0 0.008760522083611777 0.0 0.0
0.021113684838375488 -0.018114819073433264 0.0 0.007244334219594195 0.0 0.0
0.016524370184428983 -0.013733518630267616 0.0 0.005992387693757706 0.0 0.0
0.01291712589354091 -0.01033381060014782 0.0 0.005037701699265873 0.0 0.0
0.010064241247139519 -0.007694410361501092 0.0 0.004251051585331178 0.0 0.0
0.007735754939823522 -0.005592811245311191 0.0 0.003524757293015296 0.0 0.0
0.00578321050191595 -0.003883429395333149 0.0 0.0028277620967837314 0.0 0.0
0.004132007680903507 -0.002491518229337797 0.0 0.0021334954829125286 0.0 0.0
0.002813024026073599 -0.0014703237031982175 0.0 0.0015696095428978374 0.0 0.0
0.0019430479077350293 -0.0008924423886430555 0.0 0.0013149644257953452 0.0 0.0
0.0014483815166312225 -0.0006218424238210174 0.0 0.0012410516349391637 0.0 0.0
0.0010735353950936388 -0.0004241979689552089 0.0 0.0011261598979190462 0.0 0.0
0.0006511595613431231 -0.00019096833285031645 0.0 0.001034967115953217 0.0 0.0
0.00023963118390614435 -0.0001750823558437642 0.0 0.0014630655519761032 0.0 0.0
0.001991284557741488 -0.0033512632754255575 0.0 0.0034703407159760585 0.0 0.0
0.001472645121242816 -0.0026916453989116462 0.0 -0.0028458094205302403 0.0 0.0
0.00015569173592246827 -0.00018230476207561908 0.0 -0.001782490674287443 0.0 0.0
0.0004557768171429277 -0.0001229505508947848 0.0 -0.0013531147502893193 0.0 0.0
0.0008361851659325834 -0.00031150947989572186 0.0 -0.001373293424562827 0.0 0.0
0.0011858828951322523 -0.0005039083943937372 0.0 -0.0014964647714645063 0.0 0.0
0.0015845537161243983 -0.0007111379099846715 0.0 -0.001588805690348416 0.0 0.0
0.002232525070827114 -0.0010850656036939244 0.0 -0.0017630335967895872 0.0 0.0
0.003258715253905989 -0.0018088161187231888 0.0 -0.0022125641320721867 0.0 0.0
0.0046294555065038365 -0.0029067103851527776 0.0 -0.00291792871288174 0.0 0.0
0.006257831446245803 -0.004297969786001055 0.0 -0.003692161879874978 0.0 0.0
0.008166168175431955 -0.005991011555790626 0.0 -0.004460103002164789 0.0 0.0
0.010480975652736958 -0.008104042127743405 0.0 -0.005283001779438773 0.0 0.0
0.013393535316227674 -0.010824810776399962 0.0 -0.006269711312382326 0.0 0.0
0.017108367600668063 -0.014351333013551626 0.0 -0.007526159578255587 0.0 0.0
0.02173485398744726 -0.01879123126002491 0.0 -0.009060274627118642 0.0 0.0
0.027202198310601583 -0.0240722594710574 0.0 -0.010644252472937571 0.0 0.0
0.03324604022427252 -0.029928540313240992 0.0 -0.011789955895021853 0.0 0.0
0.03942403619680077 -0.03591766956248521 0.0 -0.011848535713917197 0.0 0.0
0.04504838905662092 -0.041356677617820914 0.0 -0.00998015115813547 0.0 0.0
0.04911007229575495 -0.04527199213130895 0.0 -0.005326747524367126 0.0 0.0
0.04911007229575283 -0.04527199213130739 0.0 0.0053267475243876095 0.0 0.0
0.045048389056615026 -0.041356677617815585 0.0 0.009980151158164585 0.0 0.0
0.039424036196792134 -0.035917669562478105 0.0 0.011848535713937736 0.0 0.0
0.03324604022426281 -0.02992854031323189 0.0 0.01178995589503068 0.0 0.0
0.02720219831059012 -0.024072259471047186 0.0 0.010644252472935989 0.0 0.0
0.0217348539874357 -0.018791231260014696 0.0 0.009060274627116893 0.0 0.0
0.017108367600656843 -0.01435133301354341 0.0 0.007526159578254199 0.0 0.0
0.013393535316215927 -0.010824810776391303 0.0 0.0062697113123807435 0.0 0.0
0.010480975652725474 -0.00810404212773097 0.0 0.005283001779433583 0.0 0.0
0.008166168175420888 -0.00599101155578019 0.0 0.004460103002158655 0.0 0.0
0.006257831446236206 -0.004297969785993172 0.0 0.003692161879867012 0.0 0.0
0.004629455506495503 -0.0029067103851464493 0.0 0.0029179287128770215 0.0 0.0
0.003258715253899813 -0.001808816118719303 0.0 0.0022125641320687173 0.0 0.0
0.002232525070823374 -0.001085065603691704 0.0 0.0017630335967875332 0.0 0.0
0.0015845537161226914 -0.0007111379099837833 0.0 0.0015888056903468062 0.0 0.0
0.0011858828951313571 -0.0005039083943934597 0.0 0.001496464771462619 0.0 0.0
0.0008361851659320352 -0.0003115094798957774 0.0 0.0013732934245612588 0.0 0.0
0.00045577681714298324 -0.0001229505508947848 0.0 0.0013531147502870572 0.0 0.0
0.00015569173592221153 -0.00018230476207536928 0.0 0.0017824906742853058 0.0 0.0
0.0014726451212391384 -0.0026916453989064794 0.0 0.00284580942052437 0.0 0.0
0.0010794443751620253 -0.0021459495391165234 0.0 -0.0023539889344987575 0.0 0.0
9.294353355485813e-05 -0.000195006751364718 0.0 -0.0020077303582710787 0.0 0.0
0.00028583541256701345 -6.646284283856607e-05 0.0 -0.0016241749061344235 0.0 0.0
0.000605283324770424 -0.00020499375032778655 0.0 -0.0016017966416252832 0.0 0.0
0.0009130675285107942 -0.00037954767124415145 0.0 -0.0017202033939072853 0.0 0.0
0.0012381265817670087 -0.0005435314151268633 0.0 -0.0018220849832279173 0.0 0.0
0.001705687971152725 -0.000780358243978041 0.0 -0.0019572245997314386 0.0 0.0
0.002445562074949559 -0.0012351415840271551 0.0 -0.0022627248158677282 0.0 0.0
0.003488431596837843 -0.001996474074387633 0.0 -0.0028250797271351102 0.0 0.0
0.004785091549726755 -0.0030474374249149783 0.0 -0.0035893045126925704 0.0 0.0
0.006286268653758323 -0.004343778112475105 0.0 -0.004393571731188151 0.0 0.0
0.008080282156851123 -0.005944646385009467 0.0 -0.0052148757284888325 0.0 0.0
0.010317123237721777 -0.008002187081175283 0.0 -0.006168982613249802 0.0 0.0
0.01317408841205149 -0.010687108197257045 0.0 -0.007365266757470651 0.0 0.0
0.016761739200490573 -0.014112879819816238 0.0 -0.008804966423984567 0.0 0.0
0.021075730341400464 -0.018265473558878975 0.0 -0.010302806236912876 0.0 0.0
0.02595233782851703 -0.02298835708565128 0.0 -0.011466762050002771 0.0 0.0
0.031115942029951806 -0.028005568378536516 0.0 -0.011682831953579942 0.0 0.0
0.036129759741349236 -0.03286719913845304 0.0 -0.010134055544974485 0.0 0.0
0.040156066189321896 -0.036746431844129734 0.0 -0.005725687769548904 0.0 0.0
0.04015606618932009 -0.03674643184412907 0.0 0.005725687769568222 0.0 0.0
0.036129759741344386 -0.03286719913844838 0.0 0.01013405554500113 0.0 0.0
0.031115942029944416 -0.028005568378528745 0.0 0.01168283195359876 0.0 0.0
0.025952337828509142 -0.022988357085644395 0.0 0.011466762050010959 0.0 0.0
0.021075730341391388 -0.018265473558870537 0.0 0.010302806236910045 0.0 0.0
0.016761739200481185 -0.014112879819805801 0.0 0.008804966423981153 0.0 0.0
0.013174088412042886 -0.010687108197251272 0.0 0.007365266757468347 0.0 0.0
0.01031712323771318 -0.008002187081168177 0.0 0.006168982613249108 0.0 0.0
0.008080282156842089 -0.005944646385002805 0.0 0.00521487572848367 0.0 0.0
0.006286268653749955 -0.004343778112470442 0.0 0.004393571731181489 0.0 0.0
0.0047850915497192476 -0.003047437424908872 0.0 0.003589304512684577 0.0 0.0
0.003488431596831723 -0.0019964740743841913 0.0 0.002825079727131502 0.0 0.0
0.002445562074945118 -0.0012351415840241575 0.0 0.0022627248158657853 0.0 0.0
0.0017056879711501716 -0.0007803582439738221 0.0 0.0019572245997299953 0.0 0.0
0.001238126581765947 -0.0005435314151257531 0.0 0.0018220849832267516 0.0 0.0
0.0009130675285100864 -0.00037954767124370736 0.0 0.0017202033939053563 0.0 0.0
0.0006052833247700007 -0.00020499375032739797 0.0 0.0016017966416234375 0.0 0.0
0.00028583541256699263 -6.646284283831627e-05 0.0 0.001624174906131745 0.0 0.0
9.294353355455975e-05 -0.00019500675136450984 0.0 0.0020077303582687334 0.0 0.0
0.001079444375159444 -0.002145949539112799 0.0 0.0023539889344942055 0.0 0.0
0.000785253727987309 -0.0017116776162773711 0.0 -0.002001720752513994 0.0 0.0
3.61926549313496e-05 -0.00020473302808873828 0.0 -0.002145809472728036 0.0 0.0
0.00013407775832807722 -1.551571706953636e-05 0.0 -0.001845399960666752 0.0 0.0
0.00038302010089871774 -0.00010544931821010461 0.0 -0.001797901877262184 0.0 0.0
0.0006340021543110169 -0.00024941503793851627 0.0 -0.0019043856052180785 0.0 0.0
0.0008876772642442271 -0.0003873607918200017 0.0 -0.002041866037468809 0.0 0.0
0.0012120868274715854 -0.0005412282939215585 0.0 -0.0021772646262756545 0.0 0.0
0.0017058731870321087 -0.0007850066997031613 0.0 -0.0023408800866019375 0.0 0.0
0.0024065712837718356 -0.001220043830126083 0.0 -0.002669472397849093 0.0 0.0
0.0033308937721224924 -0.0018915226318434453 0.0 -0.003256410553300698 0.0 0.0
0.004426109173053333 -0.002777871070116955 0.0 -0.003999546855430386 0.0 0.0
0.00571358900204267 -0.003882326647088652 0.0 -0.0047909480628494094 0.0 0.0
0.007299135150659733 -0.005295447360619265 0.0 -0.005681933322510435 0.0 0.0
0.009317978232928681 -0.0071540071919267145 0.0 -0.006744524914356564 0.0 0.0
0.011877767588164098 -0.009565855217594565 0.0 -0.007993967201160468 0.0 0.0
0.015011117547336708 -0.012566294130491817 0.0 -0.009310216944671379 0.0 0.0
0.018674972445092107 -0.016102464442424802 0.0 -0.010369777221522436 0.0 0.0
0.02273739157919758 -0.020056812818145975 0.0 -0.010703129022845898 0.0 0.0
0.027013181317900724 -0.024234814517734904 0.0 -0.009690663905269736 0.0 0.0
0.03097626337483314 -0.028055717725449236 0.0 -0.005988548631003898 0.0 0.0
0.03097626337483153 -0.028055717725448348 0.0 0.005988548631019497 0.0 0.0
0.027013181317897136 -0.024234814517731573 0.0 0.00969066390529194 0.0 0.0
0.02273739157919201 -0.020056812818142644 0.0 0.010703129022863689 0.0 0.0
0.018674972445085786 -0.016102464442419695 0.0 0.010369777221529153 0.0 0.0
0.015011117547330144 -0.01256629413048449 0.0 0.00931021694466827 0.0 0.0
0.011877767588157409 -0.009565855217588348 0.0 0.007993967201156194 0.0 0.0
0.009317978232922686 -0.0071540071919218295 0.0 0.006744524914355288 0.0 0.0
0.0072991351506542235 -0.005295447360612826 0.0 0.005681933322510935 0.0 0.0
0.005713589002036265 -0.0038823266470811024 0.0 0.0047909480628448575 0.0 0.0
0.0044261091730474905 -0.0027778710701100717 0.0 0.003999546855426028 0.0 0.0
0.0033308937721172466 -0.0018915226318395595 0.0 0.003256410553293898 0.0 0.0
0.0024065712837679915 -0.0012200438301230854 0.0 0.0026694723978460955 0.0 0.0
0.001705873187029222 -0.0007850066997006078 0.0 0.0023408800866003276 0.0 0.0
0.0012120868274698576 -0.0005412282939226687 0.0 0.0021772646262741557 0.0 0.0
0.0008876772642435332 -0.0003873607918200017 0.0 0.002041866037466117 0.0 0.0
0.0006340021543104757 -0.0002494150379382942 0.0 0.0019043856052150115 0.0 0.0
0.0003830201008985651 -0.00010544931821021564 0.0 0.0017979018772595473 0.0 0.0
0.00013407775832798008 -1.551571706928656e-05 0.0 0.0018453999606639349 0.0 0.0
3.619265493121082e-05 -0.00020473302808851623 0.0 0.0021458094727262317 0.0 0.0
0.0007852537279856159 -0.0017116776162748489 0.0 0.002001720752511635 0.0 0.0
0.0005759293894216089 -0.0013957557382091451 0.0 -0.0017905598778121257 0.0 0.0
-1.97079314086801e-05 -0.00020560714165618332 0.0 -0.0022315436708866543 0.0 0.0
-3.909022286634201e-06 3.210310006768191e-05 0.0 -0.0020119677293457955 0.0 0.0
0.0001696721429414877 -1.1724066427853952e-05 0.0 -0.0019531092445944503 0.0 0.0
0.00035265997640542696 -0.00011847508709272869 0.0 -0.0020424505863223114 0.0 0.0
0.0005264301553244213 -0.00022104398527056368 0.0 -0.0021924440599699613 0.0 0.0
0.0007288818671936856 -0.0003226016219463057 0.0 -0.0023592954345095507 0.0 0.0
0.001012917400155966 -0.0004520254244544386 0.0 -0.0025125843079038535 0.0 0.0
0.0014139862660075553 -0.0006453255007273784 0.0 -0.002642835557103207 0.0 0.0
0.0019430698527749257 -0.0009427286169001459 0.0 -0.0028891881157863952 0.0 0.0
0.0026072016557349698 -0.0013862026065729616 0.0 -0.0033635245312611806 0.0 0.0
0.0033829224583439912 -0.0019837282330348316 0.0 -0.003998840121813174 0.0 0.0
0.004334126236676436 -0.0027675620623746067 0.0 -0.004788875703489903 0.0 0.0
0.0055449289020714845 -0.0038225028593517063 0.0 -0.005696389334441471 0.0 0.0
0.007090480538181149 -0.0052297089699637755 0.0 -0.006711640838618249 0.0 0.0
0.00902937717490692 -0.007052343609853073 0.0 -0.007776577340596752 0.0 0.0
0.01143177773178053 -0.009353893535796187 0.0 -0.008717203129696482 0.0 0.0
0.014330308456117935 -0.012152792975857585 0.0 -0.009072887051075174 0.0 0.0
0.01768453387177947 -0.015464828728425584 0.0 -0.008525567020328029 0.0 0.0
0.021440717313862975 -0.019118877285789315 0.0 -0.006010753165355764 0.0 0.0
0.021440717313861934 -0.019118877285788205 0.0 0.006010753165367089 0.0 0.0
0.017684533871777305 -0.015464828728424695 0.0 0.008525567020347402 0.0 0.0
0.014330308456114271 -0.012152792975854476 0.0 0.009072887051090384 0.0 0.0
0.0114317777317762 -0.009353893535793523 0.0 0.008717203129700424 0.0 0.0
0.00902937717490318 -0.007052343609853073 0.0 0.007776577340594448 0.0 0.0
0.007090480538177318 -0.005229708969960223 0.0 0.006711640838615418 0.0 0.0
0.005544928902068369 -0.0038225028593479315 0.0 0.005696389334441221 0.0 0.0
0.004334126236673591 -0.0027675620623734964 0.0 0.004788875703490236 0.0 0.0
0.0033829224583406398 -0.0019837282330334993 0.0 0.003998840121810343 0.0 0.0
0.0026072016557318334 -0.001386202606570297 0.0 0.0033635245312568784 0.0 0.0
0.0019430698527719975 -0.0009427286168968152 0.0 0.0028891881157818156 0.0 0.0
0.0014139862660057095 -0.000645325500725491 0.0 0.002642835557102624 0.0 0.0
0.001012917400154384 -0.00045202542445310634 0.0 0.002512584307902105 0.0 0.0
0.0007288818671928043 -0.0003226016219463057 0.0 0.0023592954345073025 0.0 0.0
0.0005264301553240952 -0.00022104398527145186 0.0 0.0021924440599676576 0.0 0.0
0.00035265997640526736 -0.00011847508709256216 0.0 0.002042450586319494 0.0 0.0
0.00016967214294152932 -1.1724066427687418e-05 0.0 0.0019531092445923132 0.0 0.0
-3.909022286682773e-06 3.210310006754313e-05 0.0 0.0020119677293429505 0.0 0.0
-1.97079314086801e-05 -0.00020560714165605842 0.0 0.0022315436708841285 0.0 0.0
0.0005759293894205958 -0.0013957557382075292 0.0 0.0017905598778098497 0.0 0.0
0.0004314014271574601 -0.0011546929873514633 0.0 -0.0016353121608309734 0.0 0.0
-7.206330827294605e-05 -0.00019500877067754607 0.0 -0.0022658322616564974 0.0 0.0
-0.00013098039982067933 7.649011710919584e-05 0.0 -0.002125479904577121 0.0 0.0
-3.5071669858541266e-05 7.696031663173564e-05 0.0 -0.0020603176272288165 0.0 0.0
7.248810806610717e-05 1.1195818718334749e-05 0.0 -0.002128818168374 0.0 0.0
0.00015980161898600242 -5.1493369269239864e-05 0.0 -0.002277663559765275 0.0 0.0
0.00024031012994953083 -0.00010180961264005806 0.0 -0.002461916048530327 0.0 0.0
0.0003363016651763834 -0.00014870363982977253 0.0 -0.0026113325815074195 0.0 0.0
0.00047153761807050554 -0.00021010696445544763 0.0 -0.0027277051758891335 0.0 0.0
0.0006370185693895247 -0.00029182635403790513 0.0 -0.002849562292165847 0.0 0.0
0.0008567843401741243 -0.00040104701030574397 0.0 -0.003062720421994125 0.0 0.0
0.0011134743940090924 -0.0005418260840051037 0.0 -0.0034036559337773387 0.0 0.0
0.0014290388629755457 -0.0007288613617424389 0.0 -0.003923596522592332 0.0 0.0
0.0018341763044425752 -0.0010029882662960787 0.0 -0.004652485782624005 0.0 0.0
0.0023654440026796425 -0.0013946143092378183 0.0 -0.005592397806366001 0.0 0.0
0.0031016412199375565 -0.0019948476681359573 0.0 -0.006661982909766495 0.0 0.0
0.004214992454547303 -0.0029963089742190974 0.0 -0.007655230164386739 0.0 0.0
0.005930145646244389 -0.004587033724656742 0.0 -0.008100455710742138 0.0 0.0
0.00830322344977466 -0.006820728444492108 0.0 -0.007498992481276112 0.0 0.0
0.011439607986676065 -0.010014535110634215 0.0 -0.005963510704017516 0.0 0.0
0.011439607986676162 -0.010014535110635325 0.0 0.0059635107040266755 0.0 0.0
0.008303223449773689 -0.006820728444490998 0.0 0.007498992481292488 0.0 0.0
0.005930145646242474 -0.004587033724654299 0.0 0.008100455710753629 0.0 0.0
0.00421499245454586 -0.0029963089742155447 0.0 0.007655230164388904 0.0 0.0
0.0031016412199367377 -0.0019948476681326266 0.0 0.006661982909763775 0.0 0.0
0.002365444002678768 -0.0013946143092378183 0.0 0.005592397806363503 0.0 0.0
0.0018341763044422005 -0.0010029882662949685 0.0 0.004652485782622673 0.0 0.0
0.0014290388629754347 -0.0007288613617437711 0.0 0.003923596522592165 0.0 0.0
0.0011134743940088843 -0.0005418260840048816 0.0 0.003403655933774563 0.0 0.0
0.00085678434017393 -0.0004010470103052999 0.0 0.0030627204219910165 0.0 0.0
0.0006370185693889835 -0.0002918263540386823 0.0 0.0028495622921619335 0.0 0.0
0.00047153761807038064 -0.00021010696445611377 0.0 0.0027277051758886617 0.0 0.0
0.0003363016651760642 -0.00014870363982955048 0.0 0.0026113325815062816 0.0 0.0
0.00024031012994943368 -0.00010180961263983601 0.0 0.00246191604852819 0.0 0.0
0.0001598016189859608 -5.1493369269239864e-05 0.0 0.0022776635597629713 0.0 0.0
7.248810806632922e-05 1.119581871883435e-05 0.0 0.002128818168371349 0.0 0.0
-3.507166985838861e-05 7.696031663251279e-05 0.0 0.0020603176272263324 0.0 0.0
-0.00013098039982059606 7.649011710975095e-05 0.0 0.0021254799045740957 0.0 0.0
-7.206330827290441e-05 -0.00019500877067737954 0.0 0.0022658322616543602 0.0 0.0
0.00043140142715698826 -0.0011546929873503652 0.0 0.0016353121608287668 0.0 0.0
0.000327238155549317 -0.0009496484088665769 0.0 -0.0014891841661658495 0.0 0.0
-0.00012063775817532096 -0.0001733118376451015 0.0 -0.0022504917330871538 0.0 0.0
-0.00024862712352574645 0.00011823781459818772 0.0 -0.002184586206959521 0.0 0.0
-0.0002315013835837293 0.00016077210536047382 0.0 -0.002116432508573046 0.0 0.0
-0.00020369147542083355 0.00013780129514640027 0.0 -0.002160113104116068 0.0 0.0
-0.00020751979848344926 0.00011800196169187149 0.0 -0.002289968118579788 0.0 0.0
-0.0002508004476010489 0.00012077931114318208 0.0 -0.0024646037647565178 0.0 0.0
-0.00033527137044196686 0.00015029900720309186 0.0 -0.0026115896627598167 0.0 0.0
-0.0004691715152070064 0.00020832622379851617 0.0 -0.0027270964320727786 0.0 0.0
-0.0006352620513298823 0.00029051789189593613 0.0 -0.002849166584834778 0.0 0.0
-0.0008556907909844924 0.0004007471804690077 0.0 -0.003062152255253525 0.0 0.0
-0.0011149817051392258 0.0005445145854670042 0.0 -0.003402138193041304 0.0 0.0
-0.0014397123228643144 0.0007383529524014332 0.0 -0.00391964162919306 0.0 0.0
-0.0018554209716632603 0.0010148729243337762 0.0 -0.004651060910008942 0.0 0.0
-0.002349033376285628 0.0013633312844734125 0.0 -0.005614414115100053 0.0 0.0
-0.0028259807689139105 0.0017020309463424699 0.0 -0.006772298978175495 0.0 0.0
-0.0030426860208298406 0.0018609475779316487 0.0 -0.00810568939634132 0.0 0.0
-0.0026265548731453786 0.0015188842344016074 0.0 -0.009565663341884079 0.0 0.0
-0.0012537999855206372 0.0006014827763034525 0.0 -0.010626383400308248 0.0 0.0
0.0016356294723490344 -0.0019764532260602152 0.0 -0.008727553959532064 0.0 0.0
0.001635629472349076 -0.001976453226059771 0.0 0.008727553959543166 0.0 0.0
-0.0012537999855210813 0.0006014827763034525 0.0 0.010626383400320516 0.0 0.0
-0.002626554873144865 0.0015188842344031617 0.0 0.00956566334189024 0.0 0.0
-0.0030426860208278977 0.0018609475779298723 0.0 0.00810568939634071 0.0 0.0
-0.002825980768911371 0.0017020309463391392 0.0 0.006772298978171276 0.0 0.0
-0.002349033376283602 0.0013633312844705259 0.0 0.0056144141150968885 0.0 0.0
-0.001855420971660915 0.0010148729243313337 0.0 0.004651060910006943 0.0 0.0
-0.0014397123228617192 0.0007383529523981025 0.0 0.003919641629192727 0.0 0.0
-0.0011149817051362212 0.0005445145854667821 0.0 0.0034021381930388894 0.0 0.0
-0.0008556907909817862 0.00040074718046878566 0.0 0.0030621522552508884 0.0 0.0
-0.0006352620513279533 0.00029051789189560306 0.0 0.002849166584830809 0.0 0.0
-0.00046917151520552147 0.00020832622379807209 0.0 0.0027270964320720847 0.0 0.0
-0.00033527137044096766 0.00015029900720264777 0.0 0.002611589662758068 0.0 0.0
-0.00025080044760043135 0.00012077931114340412 0.0 0.0024646037647539087 0.0 0.0
-0.0002075197984830468 0.00011800196169220456 0.0 0.0022899681185775123 0.0 0.0
-0.00020369147542033395 0.000137801295147566 0.0 0.002160113104113473 0.0 0.0
-0.00023150138358352806 0.0001607721053614175 0.0 0.00211643250857034 0.0 0.0
-0.0002486271235254203 0.00011823781459846527 0.0 0.002184586206956843 0.0 0.0
-0.00012063775817519606 -0.00017331183764501823 0.0 0.002250491733085294 0.0 0.0
0.0003272381555490117 -0.0009496484088656384 0.0 0.001489184166163282 0.0 0.0
0.00024275289785963272 -0.000762016825151493 0.0 -0.0013366607045556395 0.0 0.0
-0.0001664693745667828 -0.0001424850842536296 0.0 -0.002184656360739348 0.0 0.0
-0.0003583711344287005 0.00015840926987459314 0.0 -0.0021886620117360644 0.0 0.0
-0.0004196061909973875 0.00023961181644543972 0.0 -0.0021188368693011994 0.0 0.0
-0.00047368012123788494 0.0002597457732887998 0.0 -0.0021336047954310933 0.0 0.0
-0.0005705546927801258 0.0002842162565346307 0.0 -0.002232770885079338 0.0 0.0
-0.0007383143093398353 0.0003404315492617771 0.0 -0.0023709420962998162 0.0 0.0
-0.0010121222512724792 0.0004534481481459629 0.0 -0.002513204414596487 0.0 0.0
-0.0014115915524570283 0.000643560270727761 0.0 -0.0026415104211665597 0.0 0.0
-0.0019414259901281289 0.0009413486558083051 0.0 -0.0028878437350622066 0.0 0.0
-0.0026062513940390553 0.0013857733179556408 0.0 -0.003362975152542247 0.0 0.0
-0.0033838066519294996 0.0019861213949010637 0.0 -0.003995769507170899 0.0 0.0
-0.004342737625012916 0.002778122391430715 0.0 -0.0047748557272424 0.0 0.0
-0.0055672890939598985 0.003841144864919821 0.0 -0.005682027796781786 0.0 0.0
-0.007085526316331317 0.005199990838549384 0.0 -0.006766432205556228 0.0 0.0
-0.008788223699871936 0.006749822032756425 0.0 -0.00810450143873781 0.0 0.0
-0.010377803401587005 0.008187932507353946 0.0 -0.009722178648109814 0.0 0.0
-0.011346776824895072 0.009017456674314417 0.0 -0.01150500740617727 0.0 0.0
-0.010885296271886086 0.008308670593369483 0.0 -0.012314748561290001 0.0 0.0
-0.00763248986769724 0.005022283733781441 0.0 -0.010189189693700473 0.0 0.0
-0.007632489867698017 0.005022283733781885 0.0 0.010189189693712353 0.0 0.0
-0.01088529627188592 0.008308670593372591 0.0 0.012314748561307709 0.0 0.0
-0.011346776824892109 0.009017456674316193 0.0 0.011505007406187984 0.0 0.0
-0.01037780340158196 0.00818793250734795 0.0 0.009722178648110313 0.0 0.0
-0.008788223699866031 0.00674982203275154 0.0 0.008104501438735534 0.0 0.0
-0.007085526316326668 0.005199990838548718 0.0 0.006766432205553341 0.0 0.0
-0.005567289093954764 0.003841144864919599 0.0 0.005682027796778788 0.0 0.0
-0.004342737625007323 0.00277812239142583 0.0 0.0047748557272401515 0.0 0.0
-0.0033838066519236015 0.0019861213948950684 0.0 0.003995769507167846 0.0 0.0
-0.002606251394033518 0.0013857733179527543 0.0 0.0033629751525374174 0.0 0.0
-0.0019414259901235492 0.0009413486558076389 0.0 0.0028878437350571273 0.0 0.0
-0.0014115915524537531 0.0006435602707248744 0.0 0.002641510421164728 0.0 0.0
-0.0010121222512701616 0.00045344814814463064 0.0 0.0025132044145962096 0.0 0.0
-0.0007383143093386141 0.0003404315492626653 0.0 0.002370942096298012 0.0 0.0
-0.0005705546927791891 0.00028421625653440863 0.0 0.002232770885077201 0.0 0.0
-0.0004736801212370037 0.00025974577328863324 0.0 0.00213360479542897 0.0 0.0
-0.0004196061909969781 0.00023961181644505114 0.0 0.0021188368692992426 0.0 0.0
-0.00035837113442817314 0.00015840926987484294 0.0 0.0021886620117338162 0.0 0.0
-0.00016646937456669952 -0.00014248508425326878 0.0 0.002184656360737919 0.0 0.0
0.00024275289785933435 -0.0007620168251506977 0.0 0.0013366607045546264 0.0 0.0
0.00016765626072484663 -0.0005901306899240844 0.0 -0.0011828480623472803 0.0 0.0
-0.00021179074698783606 -0.0001033679526080411 0.0 -0.002069662227429714 0.0 0.0
-0.00046162422115396395 0.00019780474294539552 0.0 -0.002137562906017257 0.0 0.0
-0.0005993964147036901 0.0003135230272584 0.0 -0.002066839645741947 0.0 0.0
-0.000735386642732927 0.00037506916056928574 0.0 -0.0020479345473746746 0.0 0.0
-0.0009243983207159467 0.00044307620985395424 0.0 -0.0020995184995169502 0.0 0.0
-0.0012206338591841254 0.0005570786866961885 0.0 -0.002191973899905053 0.0 0.0
-0.001704890808451695 0.0007859816891242488 0.0 -0.002342679817364801 0.0 0.0
-0.002404224743712227 0.0012176007959241453 0.0 -0.0026655296783787974 0.0 0.0
-0.00332965068979936 0.0018900550005385153 0.0 -0.0032537877017899675 0.0 0.0
-0.00442569093329917 0.0027774922032086646 0.0 -0.003999366656221026 0.0 0.0
-0.005713131319102255 0.0038830215488101505 0.0 -0.004787163452423915 0.0 0.0
-0.007302546112741101 0.005301885740342627 0.0 -0.0056568243686017095 0.0 0.0
-0.009336539632726196 0.007171773009220894 0.0 -0.006692943292370135 0.0 0.0
-0.01188837564867097 0.009557069766513715 0.0 -0.0080084657785357 0.0 0.0
-0.01484392711653934 0.012342786336813072 0.0 -0.00975524621863455 0.0 0.0
-0.0178292230747628 0.015148876055679716 0.0 -0.012073772514534675 0.0 0.0
-0.02010746784471258 0.01718570690039667 0.0 -0.014636600002936484 0.0 0.0
-0.020313051977584387 0.017089029863818883 0.0 -0.016014832532969592 0.0 0.0
-0.016427580305628853 0.012777417832282367 0.0 -0.013195994413186973 0.0 0.0
-0.016427580305629408 0.012777417832281479 0.0 0.01319599441320024 0.0 0.0
-0.02031305197758282 0.017089029863815552 0.0 0.01601483253299016 0.0 0.0
-0.02010746784470782 0.01718570690039023 0.0 0.014636600002950056 0.0 0.0
-0.017829223074755027 0.015148876055674831 0.0 0.01207377251453659 0.0 0.0
-0.014843927116530452 0.012342786336807743 0.0 0.009755246218632274 0.0 0.0
-0.01188837564866388 0.009557069766505055 0.0 0.008008465778531704 0.0 0.0
-0.009336539632718605 0.007171773009211568 0.0 0.006692943292366471 0.0 0.0
-0.007302546112732469 0.005301885740335521 0.0 0.005656824368597907 0.0 0.0
-0.005713131319093706 0.0038830215488048214 0.0 0.00478716345241878 0.0 0.0
-0.004425690933290642 0.002777492203201337 0.0 0.003999366656213671 0.0 0.0
-0.0033296506897922268 0.0018900550005310768 0.0 0.003253787701783306 0.0 0.0
-0.0024042247437068495 0.0012176007959208146 0.0 0.0026655296783761884 0.0 0.0
-0.0017048908084480521 0.0007859816891230276 0.0 0.0023426798173642183 0.0 0.0
-0.00122063385918212 0.0005570786866955224 0.0 0.0021919738999030547 0.0 0.0
-0.0009243983207145798 0.00044307620985306606 0.0 0.0020995184995145355 0.0 0.0
-0.0007353866427316849 0.00037506916056784245 0.0 0.002047934547372579 0.0 0.0
-0.0005993964147031211 0.00031352302725773384 0.0 0.00206683964574024 0.0 0.0
-0.0004616242211533464 0.00019780474294495143 0.0 0.002137562906015633 0.0 0.0
-0.00021179074698770423 -0.00010336795260831866 0.0 0.002069662227428215 0.0 0.0
0.000167656260724576 -0.000590130689923537 0.0 0.0011828480623464616 0.0 0.0
9.938392780557692e-05 -0.00043450564721236873 0.0 -0.0010270454443516847 0.0 0.0
-0.0002581803077332939 -5.7729991072924536e-05 0.0 -0.0019108267998290407 0.0 0.0
-0.0005597376981911067 0.0002372800917392892 0.0 -0.002032632363416692 0.0 0.0
-0.0007712365586582948 0.00038207919044158656 0.0 -0.0019615657687137578 0.0 0.0
-0.000986454188803429 0.00048362645163069207 0.0 -0.0019040263509600697 0.0 0.0
-0.0012664844531858621 0.0005923337057821554 0.0 -0.0019054530923983126 0.0 0.0
-0.0017114005863492487 0.0007944782130735462 0.0 -0.0019842432662527387 0.0 0.0
-0.0024442910202244067 0.0012347227365734348 0.0 -0.0022617850836082753 0.0 0.0
-0.0034865082756099924 0.001994072790986068 0.0 -0.00281984658388304 0.0 0.0
-0.004784699581050392 0.0030465936730390553 0.0 -0.003586821192464784 0.0 0.0
-0.006286438075278233 0.0043439073002013995 0.0 -0.004394387866772709 0.0 0.0
-0.008078318001990839 0.0059432163473081 0.0 -0.005212426835356554 0.0 0.0
-0.010312020591919935 0.007999863351763725 0.0 -0.006138143801679263 0.0 0.0
-0.013177384589971336 0.010692736682808901 0.0 -0.007273515303790334 0.0 0.0
-0.016779817203323832 0.014120868700525424 0.0 -0.008740033191969643 0.0 0.0
-0.02102059897123877 0.018170929742142183 0.0 -0.01077153968267247 0.0 0.0
-0.025425039005558217 0.0223482930886032 0.0 -0.013581399087917834 0.0 0.0
-0.028923062051733076 0.025540295525080747 0.0 -0.016813818453489393 0.0 0.0
-0.029602441455334735 0.02581863073707158 0.0 -0.018817062926153205 0.0 0.0
-0.02458427123168004 0.02027738325971118 0.0 -0.01626384898319666 0.0 0.0
-0.024584271231679833 0.020277383259710513 0.0 0.016263848983214146 0.0 0.0
-0.029602441455331627 0.02581863073706847 0.0 0.01881706292617763 0.0 0.0
-0.028923062051726657 0.025540295525074974 0.0 0.016813818453506796 0.0 0.0
-0.02542503900554835 0.02234829308859565 0.0 0.01358139908792283 0.0 0.0
-0.02102059897122749 0.01817092974213219 0.0 0.010771539682669917 0.0 0.0
-0.01677981720331409 0.014120868700516764 0.0 0.008740033191965119 0.0 0.0
-0.013177384589961316 0.010692736682801574 0.0 0.007273515303786088 0.0 0.0
-0.010312020591908645 0.007999863351754843 0.0 0.0061381438016754886 0.0 0.0
-0.008078318001979425 0.005943216347298108 0.0 0.005212426835349698 0.0 0.0
-0.006286438075266965 0.004343907300191185 0.0 0.004394387866764743 0.0 0.0
-0.0047846995810407605 0.0030465936730312837 0.0 0.0035868211924568183 0.0 0.0
-0.0034865082756023943 0.0019940727909785183 0.0 0.0028198465838785436 0.0 0.0
-0.002444291020219147 0.0012347227365703262 0.0 0.002261785083605833 0.0 0.0
-0.0017114005863461401 0.0007944782130715478 0.0 0.00198424326625124 0.0 0.0
-0.0012664844531841551 0.0005923337057812672 0.0 0.0019054530923963975 0.0 0.0
-0.0009864541888020342 0.00048362645163019247 0.0 0.0019040263509582378 0.0 0.0
-0.0007712365586574829 0.00038207919044153105 0.0 0.0019615657687116206 0.0 0.0
-0.0005597376981905308 0.0002372800917394835 0.0 0.0020326323634146937 0.0 0.0
-0.0002581803077330025 -5.7729991072924536e-05 0.0 0.0019108267998268064 0.0 0.0
9.93839278054312e-05 -0.000434505647212014 0.0 0.0010270454443501997 0.0 0.0
3.789729047676271e-05 -0.0002965927573068683 0.0 -0.0008672020098526023 0.0 0.0
-0.00030569221331749885 -7.709332124267165e-06 0.0 -0.0017132135389018033 0.0 0.0
-0.0006537312862370803 0.0002768557703132224 0.0 -0.0018756331516976421 0.0 0.0
-0.0009354402273147322 0.00044625311903268017 0.0 -0.001801636356742159 0.0 0.0
-0.0012252557678035236 0.0005802448883833744 0.0 -0.0017033899177722328 0.0 0.0
-0.0016034656083417503 0.0007478943738422617 0.0 -0.0016716120090025377 0.0 0.0
-0.002234805502914078 0.001095472126801944 0.0 -0.0017848787907724095 0.0 0.0
-0.003257348115755357 0.0018078075372688351 0.0 -0.0022111219139468175 0.0 0.0
-0.004628664156985179 0.002904959319933176 0.0 -0.002911295910223044 0.0 0.0
-0.006258349904009947 0.004298005555378737 0.0 -0.0036894740545880267 0.0 0.0
-0.008166836368168617 0.005991556936137954 0.0 -0.004460769934891806 0.0 0.0
-0.010477705618715749 0.008100588922527852 0.0 -0.00528187757757792 0.0 0.0
-0.013377985521359673 0.010810827648493282 0.0 -0.006239097147600237 0.0 0.0
-0.017085542486123484 0.014333746478994103 0.0 -0.00741159755181886 0.0 0.0
-0.021745939319713137 0.018805442812430018 0.0 -0.008920250025605925 0.0 0.0
-0.027268164776579826 0.02411413393733919 0.0 -0.011003854367097998 0.0 0.0
-0.033069522849101335 0.029640807165051797 0.0 -0.013922862299409478 0.0 0.0
-0.03773565636068821 0.03393167816758624 0.0 -0.017540073393511768 0.0 0.0
-0.038729598728007464 0.03444255751653946 0.0 -0.020320874459964833 0.0 0.0
-0.03239762169220163 0.027577998014680194 0.0 -0.019223633514879934 0.0 0.0
-0.03239762169220066 0.027577998014681082 0.0 0.019223633514899696 0.0 0.0
-0.03872959872800284 0.03444255751653724 0.0 0.02032087445998909 0.0 0.0
-0.037735656360680124 0.03393167816758025 0.0 0.017540073393530947 0.0 0.0
-0.03306952284908973 0.029640807165041805 0.0 0.013922862299415945 0.0 0.0
-0.027268164776566482 0.024114133937328308 0.0 0.011003854367096166 0.0 0.0
-0.021745939319700716 0.018805442812418693 0.0 0.008920250025603843 0.0 0.0
-0.017085542486110848 0.014333746478981668 0.0 0.007411597551814725 0.0 0.0
-0.01337798552134574 0.010810827648478627 0.0 0.006239097147598266 0.0 0.0
-0.01047770561870149 0.008100588922514085 0.0 0.005281877577572286 0.0 0.0
-0.00816683636815474 0.005991556936125075 0.0 0.00446076993488384 0.0 0.0
-0.0062583499039980325 0.004298005555367523 0.0 0.003689474054579034 0.0 0.0
-0.004628664156975444 0.002904959319924627 0.0 0.0029112959102170766 0.0 0.0
-0.0032573481157482723 0.0018078075372642832 0.0 0.0022111219139434035 0.0 0.0
-0.0022348055029094427 0.0010954721267991685 0.0 0.0017848787907698838 0.0 0.0
-0.001603465608339523 0.0007478943738412624 0.0 0.001671612009001372 0.0 0.0
-0.0012252557678020942 0.0005802448883828193 0.0 0.0017033899177718442 0.0 0.0
-0.0009354402273136914 0.00044625311903268017 0.0 0.0018016363567405491 0.0 0.0
-0.0006537312862365738 0.00027685577031311137 0.0 0.0018756331516958796 0.0 0.0
-0.00030569221331712415 -7.709332124281043e-06 0.0 0.001713213538900818 0.0 0.0
3.78972904767072e-05 -0.0002965927573065682 0.0 0.000867202009852186 0.0 0.0
-1.5625476236361124e-05 -0.00017831190863185076 0.0 -0.0007014619066363637 0.0 0.0
-0.0003528646641951516 4.414273303199323e-05 0.0 -0.0014809393167590917 0.0 0.0
-0.0007441249647457543 0.000316445354176742 0.0 -0.0016682166272716237 0.0 0.0
-0.0010926520507229948 0.0005053071471416426 0.0 -0.001589550639458051 0.0 0.0
-0.0014525088009412074 0.0006716901904811889 0.0 -0.001457217467699251 0.0 0.0
-0.001949277867653476 0.0009216525692522515 0.0 -0.0014088929417199747 0.0 0.0
-0.002813013304093809 0.001477432847299287 0.0 -0.0015913226493937116 0.0 0.0
-0.004131551370176456 0.002490418067165323 0.0 -0.0021273519937730356 0.0 0.0
-0.00578411581338345 0.003883169842918921 0.0 -0.002821363668898874 0.0 0.0
-0.007736994727485277 0.00559378412405831 0.0 -0.003522611380790186 0.0 0.0
-0.010065145852420854 0.007695136239121103 0.0 -0.004251553604039671 0.0 0.0
-0.012912286990245103 0.01032822505776676 0.0 -0.005036086242159898 0.0 0.0
-0.016498717929582546 0.013707966750808653 0.0 -0.00596597318023806 0.0 0.0
-0.021062108888442607 0.018070178212770793 0.0 -0.007138709508600349 0.0 0.0
-0.026758177203886332 0.023562240775114596 0.0 -0.00857799740790216 0.0 0.0
-0.0335103456749585 0.030075737005859304 0.0 -0.010428416357759485 0.0 0.0
-0.04065458356684648 0.03690533632886672 0.0 -0.013103212215415716 0.0 0.0
-0.04645029792823421 0.042261740670390235 0.0 -0.016814499614161926 0.0 0.0
-0.04774718341659967 0.04301448921653073 0.0 -0.020648597864621143 0.0 0.0
-0.040171050606563743 0.03489026913059745 0.0 -0.022198309576714315 0.0 0.0
-0.0401710506065619 0.03489026913059545 0.0 0.0221983095767343 0.0 0.0
-0.04774718341659377 0.04301448921652362 0.0 0.020648597864647567 0.0 0.0
-0.04645029792822442 0.04226174067037869 0.0 0.0168144996141818 0.0 0.0
-0.0406545835668331 0.03690533632885473 0.0 0.013103212215422322 0.0 0.0
-0.033510345674943036 0.030075737005846426 0.0 0.010428416357759568 0.0 0.0
-0.026758177203871414 0.023562240775101273 0.0 0.008577997407901633 0.0 0.0
-0.021062108888427515 0.018070178212758803 0.0 0.00713870950859663 0.0 0.0
-0.016498717929565872 0.013707966750796441 0.0 0.005965973180235118 0.0 0.0
-0.0129122869902282 0.010328225057753215 0.0 0.005036086242155291 0.0 0.0
-0.010065145852404644 0.007695136239109557 0.0 0.004251553604031927 0.0 0.0
-0.007736994727471115 0.005593784124045098 0.0 0.003522611380782109 0.0 0.0
-0.005784115813371779 0.003883169842909262 0.0 0.002821363668893434 0.0 0.0
-0.0041315513701675015 0.0024904180671579956 0.0 0.0021273519937693858 0.0 0.0
-0.0028130133040876124 0.0014774328472957343 0.0 0.001591322649391047 0.0 0.0
-0.0019492778676503536 0.0009216525692514743 0.0 0.001408892941718004 0.0 0.0
-0.0014525088009396774 0.0006716901904810224 0.0 0.0014572174676981686 0.0 0.0
-0.0010926520507217943 0.0005053071471413095 0.0 0.0015895506394560527 0.0 0.0
-0.0007441249647451055 0.00031644535417610364 0.0 0.0016682166272701526 0.0 0.0
-0.0003528646641948463 4.414273303172955e-05 0.0 0.001480939316758037 0.0 0.0
-1.5625476236302144e-05 -0.00017831190863168943 0.0 0.0007014619066359612 0.0 0.0
-5.900498369591778e-05 -8.197490420631948e-05 0.0 -0.0005292085940446223 0.0 0.0
-0.0003966481485278561 9.482316084702402e-05 0.0 -0.001217407056472844 0.0 0.0
-0.0008308967040361326 0.0003556704966611868 0.0 -0.0014106104828978672 0.0 0.0
-0.001244412357710653 0.0005586623900138976 0.0 -0.0013264686418393012 0.0 0.0
-0.0016726840200499554 0.000762128276136087 0.0 -0.0011719283760818489 0.0 0.0
-0.0023248098052726374 0.001143227651457801 0.0 -0.0011422819603732481 0.0 0.0
-0.0034543867289054814 0.0019564720023761417 0.0 -0.0014095986535423988 0.0 0.0
-0.005021401929898681 0.003234766628274932 0.0 -0.0019325303347757228 0.0 0.0
-0.006934259448371047 0.004884669132447894 0.0 -0.0025136352837236975 0.0 0.0
-0.00922348177146727 0.006924043235450039 0.0 -0.0031321036417674697 0.0 0.0
-0.011979553249360217 0.009441789282933488 0.0 -0.0037789184481405447 0.0 0.0
-0.015379602339583576 0.012611339096519458 0.0 -0.004482905814792826 0.0 0.0
-0.01967119873548255 0.016678919711144324 0.0 -0.005342366902426732 0.0 0.0
-0.025099774204044092 0.021882380565486415 0.0 -0.006423569564294518 0.0 0.0
-0.03179967215611963 0.02835672739641315 0.0 -0.007716491529568881 0.0 0.0
-0.039677483716783146 0.03598228407897053 0.0 -0.00918633915599093 0.0 0.0
-0.04804756380659214 0.04400840994442956 0.0 -0.011154777943626848 0.0 0.0
-0.05496727167524554 0.050438551759538486 0.0 -0.014539615709679432 0.0 0.0
-0.056762046117690756 0.05162312566118743 0.0 -0.019750455467352324 0.0 0.0
-0.04816910290985543 0.042436737188176865 0.0 -0.025184306827023217 0.0 0.0
-0.048169102909852976 0.04243673718817331 0.0 0.025184306827042785 0.0 0.0
-0.05676204611768363 0.051623125661181435 0.0 0.0197504554673755 0.0 0.0
-0.054967271675233985 0.050438551759530936 0.0 0.014539615709697473 0.0 0.0
-0.04804756380657667 0.04400840994441646 0.0 0.011154777943633343 0.0 0.0
-0.03967748371676591 0.035982284078954985 0.0 0.00918633915599204 0.0 0.0
-0.03179967215610228 0.02835672739639694 0.0 0.007716491529568492 0.0 0.0
-0.025099774204026405 0.021882380565470205 0.0 0.006423569564292658 0.0 0.0
-0.01967119873546337 0.01667891971112545 0.0 0.005342366902424053 0.0 0.0
-0.015379602339564022 0.012611339096499252 0.0 0.004482905814789939 0.0 0.0
-0.011979553249341721 0.009441789282916835 0.0 0.003778918448133453 0.0 0.0
-0.009223481771450798 0.006924043235433719 0.0 0.0031321036417603226 0.0 0.0
-0.006934259448357766 0.00488466913243546 0.0 0.0025136352837198117 0.0 0.0
-0.005021401929887863 0.0032347666282657173 0.0 0.0019325303347717537 0.0 0.0
-0.003454386728897793 0.0019564720023690363 0.0 0.0014095986535384852 0.0 0.0
-0.002324809805268401 0.0011432276514540263 0.0 0.0011422819603711942 0.0 0.0
-0.0016726840200481964 0.0007621282761348103 0.0 0.0011719283760814325 0.0 0.0
-0.001244412357709359 0.0005586623900129539 0.0 0.0013264686418378302 0.0 0.0
-0.0008308967040353415 0.0003556704966606039 0.0 0.0014106104828963129 0.0 0.0
-0.0003966481485276237 9.482316084731546e-05 0.0 0.0012174070564716089 0.0 0.0
-5.900498369571308e-05 -8.197490420615641e-05 0.0 0.0005292085940439561 0.0 0.0
-8.870080367795463e-05 -1.0392609497311689e-05 0.0 -0.0003524363256399432 0.0 0.0
-0.00043193170107880263 0.00014061272303281247 0.0 -0.0009247476767268448 0.0 0.0
-0.0009136286846889857 0.0003933008394653159 0.0 -0.0011003904813348814 0.0 0.0
-0.0013931855608668442 0.0006085523863015307 0.0 -0.0010142398585481216 0.0 0.0
-0.0018961059301404876 0.0008648261923159817 0.0 -0.0008574493467155136 0.0 0.0
-0.002755247940010641 0.001429353252246246 0.0 -0.0008804571698778352 0.0 0.0
-0.004125670636733372 0.0024901197430823307 0.0 -0.001146845981009087 0.0 0.0
-0.005901643201097206 0.003993853084780619 0.0 -0.0015618196347804703 0.0 0.0
-0.008082711852077887 0.005906882181161421 0.0 -0.0020298201824862916 0.0 0.0
-0.010713587360436594 0.008278333153240114 0.0 -0.0025307793027201098 0.0 0.0
-0.013908471883711943 0.011221301156639107 0.0 -0.003060488813499518 0.0 0.0
-0.01787549644686255 0.014941560325721914 0.0 -0.003635974424734678 0.0 0.0
-0.022887650898257006 0.019707927083096433 0.0 -0.004340263314178083 0.0 0.0
-0.029189829754340313 0.025761058801443415 0.0 -0.005278995714379953 0.0 0.0
-0.0368640027144443 0.03318092637013903 0.0 -0.006379047545287286 0.0 0.0
-0.045726115851377314 0.0417689574990352 0.0 -0.007363920489161624 0.0 0.0
-0.055094131599507684 0.050806452277683434 0.0 -0.008270231455048016 0.0 0.0
-0.06315850275387148 0.05835059217627969 0.0 -0.010741339359020774 0.0 0.0
-0.06585993214728383 0.06034953578672653 0.0 -0.01731611626147167 0.0 0.0
-0.05669416287563697 0.050480150285185266 0.0 -0.027966201549352587 0.0 0.0
-0.056694162875634335 0.05048015028518438 0.0 0.027966201549368658 0.0 0.0
-0.06585993214727533 0.06034953578672009 0.0 0.01731611626149232 0.0 0.0
-0.06315850275385794 0.058350592176265925 0.0 0.010741339359037039 0.0 0.0
-0.05509413159949018 0.050806452277668335 0.0 0.008270231455052762 0.0 0.0
-0.045726115851358086 0.041768957499017656 0.0 0.007363920489163095 0.0 0.0
-0.03686400271442461 0.03318092637012238 0.0 0.006379047545287647 0.0 0.0
-0.02918982975431995 0.02576105880142343 0.0 0.005278995714378634 0.0 0.0
-0.02288765089823525 0.01970792708307867 0.0 0.004340263314175405 0.0 0.0
-0.01787549644684043 0.01494156032570304 0.0 0.0036359744247322773 0.0 0.0
-0.013908471883691188 0.011221301156618235 0.0 0.003060488813494286 0.0 0.0
-0.010713587360418133 0.008278333153223683 0.0 0.0025307793027139897 0.0 0.0
-0.008082711852062635 0.005906882181147988 0.0 0.0020298201824828915 0.0 0.0
-0.005901643201084859 0.003993853084769183 0.0 0.0015618196347776947 0.0 0.0
-0.004125670636724112 0.0024901197430752253 0.0 0.0011468459810065335 0.0 0.0
-0.0027552479400052426 0.0014293532522428043 0.0 0.0008804571698764058 0.0 0.0
-0.00189610593013834 0.0008648261923148715 0.0 0.0008574493467150834 0.0 0.0
-0.0013931855608655154 0.0006085523863011422 0.0 0.0010142398585468587 0.0 0.0
-0.000913628684688212 0.0003933008394650106 0.0 0.0011003904813342014 0.0 0.0
-0.0004319317010784661 0.00014061272303288186 0.0 0.0009247476767266782 0.0 0.0
-8.870080367781585e-05 -1.0392609497191993e-05 0.0 0.0003524363256397489 0.0 0.0
-9.875174503910789e-05 3.286295367133096e-05 0.0 -0.00017781068363285912 0.0 0.0
-0.0004505324207837169 0.00017610524902922364 0.0 -0.0006029874948637604 0.0 0.0
-0.0009918391899201295 0.0004280986883126725 0.0 -0.0007300429979245349 0.0 0.0
-0.0015443357554735387 0.0006588787844294952 0.0 -0.0006571393924794527 0.0 0.0
-0.002145398278948288 0.001007759091787741 0.0 -0.0005456179953026025 0.0 0.0
-0.0032345607754615258 0.0017808463917445838 0.0 -0.0005803362419971314 0.0 0.0
-0.00479256950717763 0.0030521412288642136 0.0 -0.0007795196401583493 0.0 0.0
-0.00677542081279639 0.004763400578776111 0.0 -0.0010574113598109114 0.0 0.0
-0.00922544463788963 0.006941978727369458 0.0 -0.0013770488266498793 0.0 0.0
-0.012204017169485812 0.009650364566444747 0.0 -0.0017276392057888335 0.0 0.0
-0.015848445186146393 0.01302700507889476 0.0 -0.0020938507823334285 0.0 0.0
-0.0203967610209536 0.017309607882316502 0.0 -0.002491570373934826 0.0 0.0
-0.026142682652374516 0.022788350453818662 0.0 -0.003012203572394123 0.0 0.0
-0.033312509363238055 0.029683288881507064 0.0 -0.0036914474513735085 0.0 0.0
-0.04192924626678833 0.038010990616424545 0.0 -0.004446010763669128 0.0 0.0
-0.051671163538654794 0.04744822511697411 0.0 -0.005028412005949168 0.0 0.0
-0.06174430827891894 0.05719839764298995 0.0 -0.00507060049428365 0.0 0.0
-0.07068390004981713 0.06574140012426621 0.0 -0.005580352695413682 0.0 0.0
-0.07502715442947146 0.0691863964816235 0.0 -0.012389879966345552 0.0 0.0
-0.06621886498172413 0.059433675975662625 0.0 -0.02994130162950298 0.0 0.0
-0.06621886498172112 0.05943367597565863 0.0 0.02994130162951525 0.0 0.0
-0.07502715442946153 0.06918639648161395 0.0 0.0123898799663614 0.0 0.0
-0.07068390004980121 0.06574140012425156 0.0 0.0055803526954259774 0.0 0.0
-0.061744308278899214 0.057198397642973964 0.0 0.005070600494286676 0.0 0.0
-0.0516711635386332 0.047448225116956566 0.0 0.005028412005949556 0.0 0.0
-0.041929246266766106 0.038010990616406115 0.0 0.004446010763668767 0.0 0.0
-0.03331250936321526 0.029683288881486636 0.0 0.0036914474513729534 0.0 0.0
-0.02614268265235014 0.022788350453795125 0.0 0.003012203572391528 0.0 0.0
-0.02039676102092863 0.017309607882291633 0.0 0.002491570373933133 0.0 0.0
-0.015848445186123578 0.013027005078874332 0.0 0.0020938507823297925 0.0 0.0
-0.0122040171694656 0.009650364566426428 0.0 0.001727639205784809 0.0 0.0
-0.009225444637872575 0.006941978727356357 0.0 0.0013770488266481584 0.0 0.0
-0.006775420812782516 0.004763400578765231 0.0 0.001057411359808691 0.0 0.0
-0.00479256950716702 0.00305214122885622 0.0 0.0007795196401559901 0.0 0.0
-0.003234560775455024 0.001780846391740698 0.0 0.0005803362419953412 0.0 0.0
-0.0021453982789454776 0.00100775909178491 0.0 0.000545617995302769 0.0 0.0
-0.0015443357554721093 0.0006588787844288846 0.0 0.0006571393924792307 0.0 0.0
-0.0009918391899193888 0.00042809868831264475 0.0 0.0007300429979240214 0.0 0.0
-0.0004505324207833353 0.00017610524902908486 0.0 0.0006029874948634689 0.0 0.0
-9.875174503905584e-05 3.286295367128586e-05 0.0 0.00017781068363240116 0.0 0.0
-7.828286950009589e-05 4.255916887781208e-05 0.0 -2.0625030349094575e-05 0.0 0.0
-0.00043955736655251765 0.0001934582860156353 0.0 -0.00024668052927930006 0.0 0.0
-0.0010659512841068586 0.00045695190525313345 0.0 -0.00028555518931286383 0.0 0.0
-0.0017107977464292379 0.000728968210259251 0.0 -0.0002641646549358806 0.0 0.0
-0.002441095423022982 0.0011928326989663063 0.0 -0.00021706624603511082 0.0 0.0
-0.003731722025987566 0.0021616523314927916 0.0 -0.00021885557836379133 0.0 0.0
-0.005452033430565578 0.003624125425515601 0.0 -0.00030855260209106117 0.0 0.0
-0.007637363745521986 0.005537457863275641 0.0 -0.00042135460617612197 0.0 0.0
-0.01035884807901613 0.007981539968422546 0.0 -0.0005611214499548767 0.0 0.0
-0.013690244253251313 0.01103068186490419 0.0 -0.0007207556376054858 0.0 0.0
-0.01779638156515105 0.014854282823221654 0.0 -0.0008820818462620394 0.0 0.0
-0.02294617141018064 0.019717611789333622 0.0 -0.0010781917927342732 0.0 0.0
-0.029421695632266362 0.0259030511132905 0.0 -0.0013246757068307025 0.0 0.0
-0.03743632722707187 0.033616173893672 0.0 -0.001618489136419432 0.0 0.0
-0.04696794886249801 0.042825059724216796 0.0 -0.0019303206752448454 0.0 0.0
-0.05754242866592295 0.05305695164865809 0.0 -0.002097950241493729 0.0 0.0
-0.06814290741830066 0.0633144786357771 0.0 -0.0018435264274324625 0.0 0.0
-0.07731401932163014 0.07217003694863866 0.0 -0.0009139223654968109 0.0 0.0
-0.08309636303930402 0.07753594396336805 0.0 -0.0031365371497869554 0.0 0.0
-0.07806860217750101 0.07025066545648251 0.0 -0.027802440529275774 0.0 0.0
-0.07806860217749781 0.0702506654564794 0.0 0.02780244052928041 0.0 0.0
-0.08309636303929277 0.07753594396335939 0.0 0.003136537149794061 0.0 0.0
-0.07731401932161125 0.072170036948624 0.0 0.0009139223655026951 0.0 0.0
-0.06814290741827825 0.06331447863575557 0.0 0.001843526427432518 0.0 0.0
-0.05754242866589889 0.05305695164863411 0.0 0.0020979502414941315 0.0 0.0
-0.04696794886247289 0.04282505972419215 0.0 0.00193032067524386 0.0 0.0
-0.03743632722704647 0.03361617389364713 0.0 0.0016184891364202647 0.0 0.0
-0.02942169563223938 0.025903051113266518 0.0 0.0013246757068289539 0.0 0.0
-0.022946171410152854 0.019717611789308753 0.0 0.0010781917927339263 0.0 0.0
-0.01779638156512576 0.014854282823199672 0.0 0.0008820818462598051 0.0 0.0
-0.01369024425322942 0.011030681864885428 0.0 0.0007207556376043617 0.0 0.0
-0.010358848078997552 0.007981539968406337 0.0 0.0005611214499547795 0.0 0.0
-0.007637363745506585 0.005537457863261541 0.0 0.0004213546061749146 0.0 0.0
-0.00545203343055382 0.0036241254255047206 0.0 0.0003085526020905477 0.0 0.0
-0.0037317220259799576 0.0021616523314863523 0.0 0.00021885557836304192 0.0 0.0
-0.0024410954230193885 0.0011928326989643079 0.0 0.00021706624603541613 0.0 0.0
-0.001710797746427667 0.0007289682102586958 0.0 0.00026416465493551977 0.0 0.0
-0.0010659512841060858 0.0004569519052527171 0.0 0.00028555518931266954 0.0 0.0
-0.0004395573665521503 0.00019345828601589898 0.0 0.000246680529279078 0.0 0.0
-7.828286950002086e-05 4.255916887789188e-05 0.0 2.0625030349080697e-05 0.0 0.0
SCALARS Statev float 8
LOOKUP_TABLE default
0.0 0.007682242989139767 0.005774751633225952 -0.006156075786351827 0.000381324153125875 -0.0031881604371783254 0.0 0.0
0.0 0.0001425648375711833 4.850193878182756e-05 -3.441562175314256e-05 -1.4086317028684971e-05 6.0568779781957965e-05 0.0 0.0
0.0 3.342380937738801e-05 -4.754075056001044e-06 3.773145031477424e-06 9.809300245235895e-07 5.62033213615258e-07 0.0 0.0
0.0 6.226801359857838e-05 -6.380375845864778e-06 4.854827610036814e-06 1.525548235827863e-06 7.661596502375757e-07 0.0 0.0
0.0 0.0005097483656578949 0.0002978370967206571 -0.00023553209297884733 -6.230500374181032e-05 -3.6841952928086844e-05 0.0 0.0
0.0 0.0013722847060045477 0.0012740114458440535 -0.0010366223916227673 -0.00023738905422128633 -0.00010624615409225978 0.0 0.0
0.0 0.002992493318476728 0.002748078108225022 -0.0023277838179429585 -0.0004202942902820622 -0.0001935824766356441 0.0 0.0
0.0 0.0052264155243123694 0.00474353184338976 -0.004157254761202123 -0.0005862770821876376 -0.00029835812220131003 0.0 0.0
0.0 0.008117991467121772 0.007281942439541496 -0.006555940263873408 -0.000726002175668085 -0.0004282687225251551 0.0 0.0
0.0 0.011745064481791297 0.010426597684235109 -0.009580854252131824 -0.0008457434321032855 -0.0005808371112306289 0.0 0.0
0.0 0.01632247257609835 0.01434573517669548 -0.013393268079182934 -0.0009524670975125453 -0.0007409702572294147 0.0 0.0
0.0 0.021880550986277572 0.01931604209081796 -0.01826212067662201 -0.0010539214141959418 -0.000938746085166083 0.0 0.0
0.0 0.029041376662686226 0.025611264577319832 -0.02445792453592926 -0.0011533400413905664 -0.0011831637233261129 0.0 0.0
0.0 0.03804708966852502 0.033443989888123596 -0.032189644082186136 -0.001254345805937462 -0.0014739327411200285 0.0 0.0
0.0 0.04885770830784966 0.04283497890427395 -0.04147455831111423 -0.0013604205931597088 -0.0018246049042293187 0.0 0.0
0.0 0.06111950045041144 0.05344673360338307 -0.05197445501810844 -0.0014722785852746402 -0.002183557095588728 0.0 0.0
0.0 0.07391783271572618 0.06451460414449936 -0.06292815933833339 -0.0015864448061659467 -0.0024044390669202284 0.0 0.0
0.0 0.08593483193696447 0.07491234312762542 -0.07321723145995943 -0.0016951116676659599 -0.0022729031757235786 0.0 0.0
0.0 0.09566063250973338 0.08333302487061456 -0.08154360489704754 -0.0017894199735670338 -0.0017362538197270736 0.0 0.0
0.0 0.10127187010658223 0.08832814360848777 -0.08644945957635249 -0.0018786840321353042 -0.0012955810669979155 0.0 0.0
0.0 0.10127187010657937 0.08832814360848538 -0.08644945957634996 -0.0018786840321353832 0.0012955810670001833 0.0 0.0
0.0 0.0956606325097225 0.08333302487060505 -0.08154360489703823 -0.0017894199735668322 0.0017362538197358904 0.0 0.0
0.0 0.08593483193694598 0.07491234312760908 -0.07321723145994391 -0.0016951116676651413 0.0022729031757289446 0.0 0.0
0.0 0.07391783271570239 0.06451460414447842 -0.06292815933831317 -0.001586444806165245 0.0024044390669237022 0.0 0.0
0.0 0.061119500450385285 0.05344673360336021 -0.051974455018085994 -0.001472278585274227 0.0021835570955852516 0.0 0.0
0.0 0.04885770830782298 0.04283497890425075 -0.04147455831109126 -0.0013604205931594786 0.0018246049042293707 0.0 0.0
0.0 0.03804708966849866 0.03344398988810055 -0.032189644082163654 -0.0012543458059369012 0.0014739327411191188 0.0 0.0
0.0 0.029041376662659026 0.025611264577295983 -0.024457924535906155 -0.001153340041389828 0.001183163723326516 0.0 0.0
0.0 0.0218805509862496 0.01931604209079339 -0.018262120676598145 -0.0010539214141952373 0.000938746085164652 0.0 0.0
0.0 0.016322472576072937 0.014345735176672803 -0.013393268079161061 -0.0009524670975117412 0.0007409702572286996 0.0 0.0
0.0 0.01174506448177005 0.010426597684216336 -0.009580854252113946 -0.0008457434321023856 0.0005808371112280098 0.0 0.0
0.0 0.00811799146710442 0.007281942439525634 -0.006555940263858312 -0.0007260021756673209 0.0004282687225245034 0.0 0.0
0.0 0.005226415524299341 0.004743531843377332 -0.004157254761190575 -0.0005862770821867567 0.00029835812220030064 0.0 0.0
0.0 0.0029924933184671456 0.002748078108215637 -0.0023277838179345278 -0.00042029429028110876 0.00019358247663501044 0.0 0.0
0.0 0.00137228470599879 0.0012740114458380989 -0.0010366223916177162 -0.00023738905422038254 0.00010624615409166754 0.0 0.0
0.0 0.0005097483656550185 0.00029783709671859934 -0.00023553209297717283 -6.230500374142654e-05 3.684195292775024e-05 0.0 0.0
0.0 6.226801359782155e-05 -6.3803758455872355e-06 4.854827609824518e-06 1.5255482357627083e-06 -7.661596502260986e-07 0.0 0.0
0.0 3.342380937687491e-05 -4.754075055922566e-06 3.7731450314146314e-06 9.80930024507978e-07 -5.620332136057866e-07 0.0 0.0
0.0 0.00014256483757006043 4.850193878141579e-05 -3.441562175286099e-05 -1.4086317028554974e-05 -6.0568779781366296e-05 0.0 0.0
0.0 0.0076822429891281055 0.005774751633218118 -0.0061560757863429495 0.0003813241531248293 0.0031881604371617822 0.0 0.0
0.0 0.005283850653150189 0.003720081575857114 -0.004164547010628468 0.0004444654347713548 -0.0034937249492433486 0.0 0.0
0.0 0.0 0.0 0.0 0.0 0.0 0.0 0.0
0.0 9.430826945183483e-08 -1.020951514236367e-08 7.758883502814768e-09 2.450631639548195e-09 3.6392644398315674e-09 0.0 0.0
0.0 2.8537657192444204e-05 -3.5660250026092023e-06 2.7272509221712783e-06 8.387740804376901e-07 9.485238668201992e-07 0.0 0.0
0.0 0.0002804444086175864 0.00010358107916288436 -8.177802657292808e-05 -2.1803052589956296e-05 -3.0577209374062916e-05 0.0 0.0
0.0 0.0009452725325642887 0.0008793364907433744 -0.0007069272865272713 -0.0001724092042161029 -0.0002023034108341587 0.0 0.0
0.0 0.0023655362586778536 0.0021704437559845005 -0.00181412607412249 -0.0003563176818620104 -0.0004295056719744233 0.0 0.0
0.0 0.0043581165853882435 0.00395482085262298 -0.0034250052393230536 -0.0005298156132999261 -0.0006955142065016909 0.0 0.0
0.0 0.00692468605116214 0.00622477954055679 -0.005548651413928275 -0.0006761281266285124 -0.0010015969984142924 0.0 0.0
0.0 0.010125822401973284 0.009022745850878746 -0.008224084791272472 -0.0007986610596062747 -0.0013456314573694055 0.0 0.0
0.0 0.014123620661539776 0.012487208581384999 -0.011582087126076614 -0.0009051214553083773 -0.0017160700113584683 0.0 0.0
0.0 0.019239740280754536 0.01685977639411053 -0.015857564498482687 -0.0010022118956278412 -0.002125762166753194 0.0 0.0
0.0 0.025523013337671513 0.022440438641019318 -0.021345116521816532 -0.0010953221192027904 -0.002656447398130667 0.0 0.0
0.0 0.0335214497748924 0.029447007145935407 -0.028257880009908087 -0.0011891271360273147 -0.0033405424370596985 0.0 0.0
0.0 0.043260015331692526 0.037902506314057165 -0.03661548756699598 -0.001287018747061185 -0.004145880137241198 0.0 0.0
0.0 0.054324534074314014 0.047510330000506654 -0.04612070056411218 -0.0013896294363944708 -0.004965577741465875 0.0 0.0
0.0 0.06594068251844253 0.057588293898184637 -0.056094138090498416 -0.0014941558076862105 -0.005476808778801533 0.0 0.0
0.0 0.07694840109993077 0.06712545067496874 -0.06553041187948162 -0.0015950387954871002 -0.005266921914831665 0.0 0.0
0.0 0.08587485202281488 0.07486989733252242 -0.0731802145036118 -0.0016896828289106472 -0.004217949831746157 0.0 0.0
0.0 0.0911121943250151 0.07942540606455889 -0.07766962056142787 -0.0017557855031310203 -0.0023777177444159756 0.0 0.0
0.0 0.0911121943250123 0.07942540606455638 -0.07766962056142536 -0.0017557855031310253 0.0023777177444264932 0.0 0.0
0.0 0.08587485202280558 0.07486989733251413 -0.07318021450360362 -0.0016896828289104987 0.004217949831763414 0.0 0.0
0.0 0.07694840109991606 0.06712545067495555 -0.06553041187946891 -0.001595038795486627 0.005266921914844075 0.0 0.0
0.0 0.06594068251842283 0.0575882938981671 -0.05609413809048158 -0.001494155807685498 0.005476808778808541 0.0 0.0
0.0 0.05432453407429176 0.0475103300004872 -0.046120700564093335 -0.0013896294363938552 0.004965577741463356 0.0 0.0
0.0 0.043260015331671654 0.037902506314038506 -0.03661548756697858 -0.0012870187470599274 0.0041458801372415074 0.0 0.0
0.0 0.03352144977486922 0.029447007145914854 -0.028257880009888603 -0.0011891271360262364 0.003340542437059193 0.0 0.0
0.0 0.025523013337646016 0.02244043864099693 -0.021345116521794796 -0.001095322119202138 0.0026564473981299627 0.0 0.0
0.0 0.019239740280728456 0.016859776394087624 -0.01585756449846018 -0.0010022118956274399 0.002125762166749995 0.0 0.0
0.0 0.014123620661516064 0.01248720858136408 -0.011582087126056234 -0.0009051214553078414 0.0017160700113562262 0.0 0.0
0.0 0.010125822401953945 0.009022745850861325 -0.008224084791255788 -0.0007986610596055372 0.0013456314573653963 0.0 0.0
0.0 0.006924686051147251 0.0062247795405428125 -0.005548651413915118 -0.0006761281266276936 0.0010015969984124866 0.0 0.0
0.0 0.004358116585375895 0.003954820852611374 -0.0034250052393124063 -0.000529815613298967 0.0006955142064995886 0.0 0.0
0.0 0.00236553625866896 0.002170443755975752 -0.001814126074114806 -0.0003563176818609455 0.0004295056719728878 0.0 0.0
0.0 0.0009452725325591416 0.0008793364907386126 -0.0007069272865233174 -0.00017240920421529522 0.0002023034108330272 0.0 0.0
0.0 0.0002804444086153693 0.00010358107916175295 -8.177802657202812e-05 -2.180305258972492e-05 3.057720937370346e-05 0.0 0.0
0.0 2.8537657191961673e-05 -3.5660250024047235e-06 2.7272509220146297e-06 8.387740803902336e-07 -9.485238667435888e-07 0.0 0.0
0.0 9.430826938068039e-08 -1.0209515134588993e-08 7.758883496907494e-09 2.4506316376819497e-09 -3.6392644370560787e-09 0.0 0.0
0.0 0.0 0.0 0.0 0.0 0.0 0.0 0.0
0.0 0.005283850653136993 0.0037200815758484333 -0.004164547010618878 0.00044446543477044524 0.0034937249492288896 0.0 0.0
0.0 0.0037751556275606533 0.0024932286827946673 -0.0029153303628623737 0.0004221016800677066 -0.0029199333478773263 0.0 0.0
0.0 0.0 0.0 0.0 0.0 0.0 0.0 0.0
0.0 0.0 0.0 0.0 0.0 0.0 0.0 0.0
0.0 2.4307082921929654e-06 -2.7159244173351415e-07 2.053625051523891e-07 6.622993658110159e-08 1.4164277531911574e-07 0.0 0.0
0.0 0.00010198682219329558 1.9334011005059333e-05 -1.5283903015846265e-05 -4.05010798921298e-06 -1.0396319330247795e-05 0.0 0.0
0.0 0.0007044121197145225 0.0004890399071743347 -0.0003893435942530776 -9.969631292125674e-05 -0.00019965677505972765 0.0 0.0
0.0 0.0017632200485971795 0.0016060967786533488 -0.0013218148475277434 -0.0002842819311256054 -0.0005501439814636868 0.0 0.0
0.0 0.003507581566008223 0.003173484477472171 -0.0027113806455503504 -0.0004621038319218197 -0.0009625145627647018 0.0 0.0
0.0 0.0057715572466393176 0.005172317820553652 -0.00455596573382884 -0.0006163520867248132 -0.0014158742731703387 0.0 0.0
0.0 0.008573281596564487 0.00762787983259912 -0.006884227266057008 -0.0007436525665421115 -0.0019129148410138154 0.0 0.0
0.0 0.012072153581548206 0.010648790745674987 -0.009798090915692087 -0.000850699829982898 -0.002451537522748264 0.0 0.0
0.0 0.01642629036990532 0.014448906038194851 -0.01350380031998491 -0.0009451057182099413 -0.003047467379849407 0.0 0.0
0.0 0.02212064823400505 0.01930390120313389 -0.01827084404187079 -0.0010330571612630962 -0.003775086832398218 0.0 0.0
0.0 0.02910130730818791 0.025459586818274635 -0.024339225376395934 -0.001120361441878697 -0.0047444252121048615 0.0 0.0
0.0 0.03768887314727938 0.032952053994411055 -0.0317422814676729 -0.0012097725267381546 -0.005928910768202751 0.0 0.0
0.0 0.04758326527573091 0.04152853429146408 -0.04022583076101789 -0.0013027035304461843 -0.007107054327706026 0.0 0.0
0.0 0.058035593875897705 0.05060970950773654 -0.04921241724537373 -0.0013972922623628013 -0.0078612669958166 0.0 0.0
0.0 0.06799608939695594 0.059298939456739294 -0.05780687984015673 -0.0014920596165825437 -0.007669752424702946 0.0 0.0
0.0 0.07613747825254077 0.06642286731774417 -0.06484454338984065 -0.001578323927903482 -0.006182269033491058 0.0 0.0
0.0 0.08101569272368975 0.07071434381204927 -0.06907883305010426 -0.0016355107619450075 -0.0032189863396194776 0.0 0.0
0.0 0.08101569272368742 0.07071434381204696 -0.06907883305010197 -0.0016355107619449856 0.003218986339636133 0.0 0.0
0.0 0.0761374782525332 0.06642286731773696 -0.06484454338983367 -0.0015783239279032512 0.00618226903351365 0.0 0.0
0.0 0.06799608939694293 0.059298939456727304 -0.05780687984014517 -0.0014920596165820996 0.007669752424719516 0.0 0.0
0.0 0.058035593875881794 0.05060970950772214 -0.049212417245359984 -0.0013972922623621317 0.007861266995825539 0.0 0.0
0.0 0.0475832652757118 0.041528534291447275 -0.040225830761001787 -0.0013027035304454908 0.007107054327703814 0.0 0.0
0.0 0.03768887314725784 0.03295205399439226 -0.03174228146765436 -0.0012097725267379055 0.005928910768202405 0.0 0.0
0.0 0.029101307308165746 0.025459586818255248 -0.02433922537637697 -0.0011203614418782769 0.004744425212103368 0.0 0.0
0.0 0.022120648233983464 0.019303901203114676 -0.018270844041852405 -0.0010330571612622652 0.003775086832396672 0.0 0.0
0.0 0.0164262903698854 0.014448906038177061 -0.01350380031996835 -0.0009451057182087086 0.0030474673798454284 0.0 0.0
0.0 0.012072153581530212 0.010648790745658446 -0.009798090915676579 -0.0008506998299818685 0.0024515375227446316 0.0 0.0
0.0 0.008573281596547359 0.0076278798325835106 -0.006884227266042083 -0.0007436525665414268 0.0019129148410085655 0.0 0.0
0.0 0.005771557246625398 0.005172317820540784 -0.004555965733816884 -0.0006163520867238984 0.0014158742731672832 0.0 0.0
0.0 0.0035075815659979907 0.0031734844774624457 -0.002711380645541628 -0.0004621038319208175 0.0009625145627617626 0.0 0.0
0.0 0.0017632200485900842 0.0016060967786464852 -0.0013218148475218328 -0.00028428193112465237 0.0005501439814616364 0.0 0.0
0.0 0.0007044121197104806 0.000489039907171251 -0.0003893435942505897 -9.969631292066089e-05 0.00019965677505845485 0.0 0.0
0.0 0.00010198682219210737 1.9334011004700648e-05 -1.528390301555799e-05 -4.050107989142544e-06 1.039631933003733e-05 0.0 0.0
0.0 2.430708291709614e-06 -2.715924416780426e-07 2.0536250511018518e-07 6.622993656783338e-08 -1.4164277528895462e-07 0.0 0.0
0.0 0.0 0.0 0.0 0.0 0.0 0.0 0.0
0.0 0.0 0.0 0.0 0.0 0.0 0.0 0.0
0.0 0.0037751556275494964 0.002493228682787037 -0.0029153303628538314 0.0004221016800667947 0.0029199333478649525 0.0 0.0
0.0 0.0026487671837090243 0.0016571293733852518 -0.002013017920289694 0.0003558885469044416 -0.002153729981295939 0.0 0.0
0.0 0.0 0.0 0.0 0.0 0.0 0.0 0.0
0.0 0.0 0.0 0.0 0.0 0.0 0.0 0.0
0.0 1.1217285375004458e-06 -1.148405540922369e-07 8.789999552340031e-08 2.6940558568849977e-08 1.165259803878264e-07 0.0 0.0
0.0 3.58834732522068e-05 3.1589776081734374e-07 -2.5604178250220235e-07 -5.985597831503996e-08 -6.006534184633967e-08 0.0 0.0
0.0 0.0003890510810731078 0.00022083305547321563 -0.0001743543316423365 -4.647872383087923e-05 -0.00013740843706217876 0.0 0.0
0.0 0.0012402126732608825 0.0010626225789971758 -0.0008610761018949993 -0.0002015464771021761 -0.0005490814953877314 0.0 0.0
0.0 0.0026894533555822052 0.002407327238050152 -0.002023975328526946 -0.0003833519095232061 -0.0010890571473317445 0.0 0.0
0.0 0.004645381553452076 0.004132666880649588 -0.0035889891280217173 -0.0005436777526278705 -0.0016651616982968063 0.0 0.0
0.0 0.007052454686023006 0.006250093195755093 -0.005572907427892452 -0.0006771857678626386 -0.0022837152607722466 0.0 0.0
0.0 0.010041002744383475 0.008838350602388675 -0.008050951941710885 -0.0007873986606777834 -0.0029443047031884073 0.0 0.0
0.0 0.01380304754762101 0.012076127020006247 -0.011194598112103164 -0.0008815289079030826 -0.0036746567341704563 0.0 0.0
0.0 0.018609896058736555 0.01622077594747342 -0.015255451363027289 -0.0009653245844461288 -0.004572124659741566 0.0 0.0
0.0 0.024773330056918376 0.02150802881519831 -0.0204608832569923 -0.001047145558206007 -0.005720064818799799 0.0 0.0
0.0 0.03233185873803605 0.028004760801740258 -0.02687607347733674 -0.0011286873244035073 -0.007124872758655619 0.0 0.0
0.0 0.04084584450115817 0.035524277499859175 -0.034313080589650734 -0.0012111969102084352 -0.008577601470594168 0.0 0.0
0.0 0.05013344929513572 0.04358621010082332 -0.042289986348759134 -0.0012962237520641995 -0.009556134880377909 0.0 0.0
0.0 0.059095499563091014 0.05142057929261591 -0.05003830611704975 -0.0013822731755661671 -0.009429915359663107 0.0 0.0
0.0 0.06653137659827435 0.057982667334170505 -0.056521943275997355 -0.0014607240581731326 -0.007662981232998509 0.0 0.0
0.0 0.07114517742834256 0.062106205302647446 -0.06059293165323981 -0.001513273649407605 -0.0039052272030631286 0.0 0.0
0.0 0.07114517742834005 0.062106205302644935 -0.06059293165323743 -0.0015132736494075144 0.003905227203083118 0.0 0.0
0.0 0.066531376598267 0.05798266733416309 -0.05652194327599034 -0.0014607240581727388 0.007662981233024679 0.0 0.0
0.0 0.05909549956307912 0.05142057929260464 -0.050038306117038814 -0.0013822731755658044 0.009429915359681598 0.0 0.0
0.0 0.050133449295120286 0.043586210100809264 -0.04228998634874541 -0.0012962237520638526 0.009556134880387476 0.0 0.0
0.0 0.04084584450114158 0.0355242774998446 -0.03431308058963683 -0.0012111969102077845 0.008577601470591778 0.0 0.0
0.0 0.03233185873801915 0.02800476080172535 -0.02687607347732243 -0.0011286873244029216 0.007124872758654859 0.0 0.0
0.0 0.02477333005690056 0.021508028815182486 -0.02046088325697713 -0.0010471455582053662 0.0057200648187986074 0.0 0.0
0.0 0.018609896058718083 0.01622077594745693 -0.015255451363011357 -0.0009653245844455689 0.004572124659739527 0.0 0.0
0.0 0.013803047547603503 0.01207612701999049 -0.011194598112088078 -0.0008815289079024081 0.0036746567341656117 0.0 0.0
0.0 0.010041002744367077 0.008838350602373658 -0.00805095194169673 -0.0007873986606769293 0.002944304703183305 0.0 0.0
0.0 0.007052454686007384 0.00625009319574109 -0.005572907427879244 -0.0006771857678618437 0.0022837152607657445 0.0 0.0
0.0 0.004645381553440181 0.004132666880638633 -0.0035889891280115912 -0.0005436777526270413 0.0016651616982930047 0.0 0.0
0.0 0.0026894533555732337 0.0024073272380417854 -0.0020239753285194876 -0.00038335190952229736 0.0010890571473281025 0.0 0.0
0.0 0.0012402126732547654 0.0010626225789917472 -0.0008610761018904558 -0.00020154647710129097 0.0005490814953853611 0.0 0.0
0.0 0.0003890510810696114 0.0002208330554712058 -0.0001743543316407334 -4.6478723830472534e-05 0.00013740843706090819 0.0 0.0
0.0 3.588347325136366e-05 3.1589776097524636e-07 -2.5604178262422465e-07 -5.985597835111869e-08 6.006534197495443e-08 0.0 0.0
0.0 1.1217285373393579e-06 -1.1484055407491507e-07 8.789999551013864e-08 2.6940558564774134e-08 -1.1652598037014098e-07 0.0 0.0
0.0 0.0 0.0 0.0 0.0 0.0 0.0 0.0
0.0 0.0 0.0 0.0 0.0 0.0 0.0 0.0
0.0 0.0026487671836994014 0.0016571293733791163 -0.0020130179202826693 0.0003558885469035521 0.0021537299812865573 0.0 0.0
0.0 0.0017650603092773892 0.0010478515328398758 -0.0013176160627175288 0.000269764529877653 -0.0014388055822257984 0.0 0.0
0.0 0.0 0.0 0.0 0.0 0.0 0.0 0.0
0.0 0.0 0.0 0.0 0.0 0.0 0.0 0.0
0.0 0.0 0.0 0.0 0.0 0.0 0.0 0.0
0.0 1.320378321561333e-05 -1.4130905059803547e-06 1.0759755419802651e-06 3.371149640000471e-07 1.816366434984756e-06 0.0 0.0
0.0 0.00016495365649818667 6.835635331794919e-05 -5.4054942800260084e-05 -1.43014105176893e-05 -6.877084295005658e-05 0.0 0.0
0.0 0.0008536834863502696 0.000578330561380956 -0.0004615610765252276 -0.00011676948485572811 -0.0004224563150954898 0.0 0.0
0.0 0.0019522360791431684 0.0016555189521353663 -0.0013650561918052335 -0.0002904627603301328 -0.0010375938359467318 0.0 0.0
0.0 0.0035554598696176175 0.003115196547773694 -0.0026595442223522545 -0.00045565232542143846 -0.0017376881300176423 0.0 0.0
0.0 0.005583721275826149 0.004895649386751789 -0.004299549568072406 -0.0005960998186793826 -0.002447506592196491 0.0 0.0
0.0 0.008087863919169772 0.007060600130223395 -0.00634895145269934 -0.0007116486775240534 -0.003195695727676194 0.0 0.0
0.0 0.0112106031911921 0.009752184515069238 -0.008944585208023475 -0.000807599307045764 -0.004012213442895323 0.0 0.0
0.0 0.01527938032126697 0.013194051898943876 -0.012303245301079754 -0.0008908065978641196 -0.004992715002493264 0.0 0.0
0.0 0.020359532458176444 0.01761583376088448 -0.016648394185375337 -0.0009674395755091415 -0.006265501828724925 0.0 0.0
0.0 0.02677279003766082 0.02310156511756086 -0.02206001407173724 -0.0010415510458236248 -0.007801356507169388 0.0 0.0
0.0 0.034342972733592686 0.029524294619106224 -0.02840868282373713 -0.0011156117953690804 -0.009361761853633296 0.0 0.0
0.0 0.04227474801300196 0.0365257855624615 -0.035336182266121986 -0.0011896032963395148 -0.010502217814896943 0.0 0.0
0.0 0.050154370934112354 0.043485050131399215 -0.042219856126237625 -0.00126519400516159 -0.010524517953681173 0.0 0.0
0.0 0.05693521493671766 0.04951424481732123 -0.0481781034378793 -0.0013361413794419404 -0.008686646767155467 0.0 0.0
0.0 0.061368446234175006 0.053532551082873144 -0.052146204041044295 -0.0013863470418288585 -0.004464902864318492 0.0 0.0
0.0 0.0613684462341717 0.05353255108286996 -0.05214620404104084 -0.0013863470418290673 0.004464902864339261 0.0 0.0
0.0 0.0569352149367106 0.04951424481731404 -0.04817810343787182 -0.0013361413794422176 0.008686646767182376 0.0 0.0
0.0 0.050154370934102875 0.04348505013138968 -0.04221985612622836 -0.0012651940051613038 0.010524517953700473 0.0 0.0
0.0 0.042274748012990485 0.03652578556245055 -0.03533618226611168 -0.001189603296338862 0.010502217814906305 0.0 0.0
0.0 0.03434297273357817 0.0295242946190934 -0.028408682823724822 -0.001115611795368576 0.009361761853631552 0.0 0.0
0.0 0.026772790037645575 0.023101565117547376 -0.022060014071724175 -0.0010415510458232009 0.007801356507167488 0.0 0.0
0.0 0.02035953245816185 0.017615833760871558 -0.01664839418536284 -0.0009674395755087106 0.00626550182872324 0.0 0.0
0.0 0.015279380321251902 0.013194051898930307 -0.012303245301066534 -0.0008908065978637714 0.004992715002490853 0.0 0.0
0.0 0.01121060319117789 0.009752184515056394 -0.008944585208011361 -0.0008075993070450307 0.004012213442890451 0.0 0.0
0.0 0.00808786391915673 0.007060600130211642 -0.006348951452688339 -0.0007116486775233038 0.003195695727670541 0.0 0.0
0.0 0.005583721275814095 0.004895649386741307 -0.004299549568062806 -0.0005960998186784994 0.002447506592189443 0.0 0.0
0.0 0.0035554598696077877 0.003115196547764711 -0.0026595442223441876 -0.0004556523254205227 0.0017376881300132886 0.0 0.0
0.0 0.001952236079135191 0.0016555189521284275 -0.0013650561917992925 -0.00029046276032913473 0.001037593835942772 0.0 0.0
0.0 0.0008536834863452338 0.0005783305613771669 -0.0004615610765221583 -0.00011676948485500881 0.0004224563150930508 0.0 0.0
0.0 0.00016495365649616398 6.835635331707721e-05 -5.405494279956893e-05 -1.4301410517508276e-05 6.877084294922206e-05 0.0 0.0
0.0 1.320378321520706e-05 -1.4130905058178864e-06 1.0759755418535657e-06 3.371149639644004e-07 -1.8163664347732916e-06 0.0 0.0
0.0 0.0 0.0 0.0 0.0 0.0 0.0 0.0
0.0 0.0 0.0 0.0 0.0 0.0 0.0 0.0
0.0 0.0 0.0 0.0 0.0 0.0 0.0 0.0
0.0 0.001765060309269398 0.0010478515328350702 -0.0013176160627118801 0.00026976452987681 0.0014388055822183617 0.0 0.0
0.0 0.0010559349646745847 0.000601216839423336 -0.0007815883761241552 0.00018037153670081917 -0.0008550709816749749 0.0 0.0
0.0 0.0 0.0 0.0 0.0 0.0 0.0 0.0
0.0 0.0 0.0 0.0 0.0 0.0 0.0 0.0
0.0 0.0 0.0 0.0 0.0 0.0 0.0 0.0
0.0 1.0042081989473157e-05 -9.329724215854319e-07 7.201815348631364e-07 2.1279088672229382e-07 1.7612736881375419e-06 0.0 0.0
0.0 5.659704919482793e-05 2.6995280119334522e-05 -2.13183192142494e-05 -5.676960905085098e-06 -4.1640067611746294e-05 0.0 0.0
0.0 0.00042032025034210253 0.00026047121587188273 -0.000205464199526776 -5.500701634510651e-05 -0.0002816601665824954 0.0 0.0
0.0 0.001283398149799077 0.0009716622256447842 -0.0007851446846190546 -0.00018651754102572986 -0.0008388521362409886 0.0 0.0
0.0 0.0025517693953860145 0.0021222659686099326 -0.0017730544210440603 -0.00034921154756587176 -0.0015893913497527802 0.0 0.0
0.0 0.004176352663129708 0.0035755500653490585 -0.003080255590215369 -0.0004952944751336892 -0.0023884920162785643 0.0 0.0
0.0 0.006186309492803099 0.005324655494232274 -0.004707507971364877 -0.0006171475228673971 -0.003187318956944863 0.0 0.0
0.0 0.008714174988133507 0.007484390496659096 -0.00676568270188882 -0.0007187077947702755 -0.00404587786039314 0.0 0.0
0.0 0.011956117376673372 0.01024156954548091 -0.0094372730779568 -0.0008042964675241094 -0.005064110127852085 0.0 0.0
0.0 0.016150765867597058 0.013797421530606549 -0.012918011153730782 -0.0008794103768757606 -0.006344280967292358 0.0 0.0
0.0 0.021454929282610138 0.018261673534031946 -0.017313880689558806 -0.000947792844473135 -0.007900872512098313 0.0 0.0
0.0 0.027517015866534867 0.02357100381851295 -0.022558115398416657 -0.0010128884200962915 -0.009518490485301128 0.0 0.0
0.0 0.034425151150879435 0.029457627981918644 -0.02838100984204203 -0.0010766181398766098 -0.010717574305596979 0.0 0.0
0.0 0.04132954858509777 0.03548551987830348 -0.034345384048262206 -0.0011401358300412456 -0.010880548008806981 0.0 0.0
0.0 0.04728329282967143 0.04097315067080632 -0.03977056586915967 -0.0012025848016466334 -0.009209496245112839 0.0 0.0
0.0 0.05158166091337178 0.04492770191203599 -0.043675680136681674 -0.0012520217753543058 -0.004898863081619991 0.0 0.0
0.0 0.051581660913370304 0.044927701912034185 -0.04367568013667989 -0.001252021775354306 0.004898863081639342 0.0 0.0
0.0 0.04728329282966698 0.04097315067080082 -0.03977056586915438 -0.0012025848016464348 0.009209496245139025 0.0 0.0
0.0 0.041329548585090685 0.03548551987829568 -0.03434538404825488 -0.0011401358300408052 0.010880548008825291 0.0 0.0
0.0 0.03442515115086954 0.029457627981909203 -0.028381009842033015 -0.001076618139876165 0.01071757430560484 0.0 0.0
0.0 0.027517015866522453 0.02357100381850213 -0.022558115398406374 -0.0010128884200957492 0.00951849048529851 0.0 0.0
0.0 0.021454929282597977 0.01826167353402118 -0.017313880689548568 -0.0009477928444726081 0.007900872512095244 0.0 0.0
0.0 0.01615076586758639 0.013797421530596758 -0.012918011153721647 -0.0008794103768751139 0.006344280967290625 0.0 0.0
0.0 0.01195611737666212 0.010241569545470735 -0.009437273077947252 -0.0008042964675234807 0.005064110127849911 0.0 0.0
0.0 0.008714174988120035 0.007484390496647449 -0.006765682701877694 -0.0007187077947697562 0.00404587786038757 0.0 0.0
0.0 0.006186309492790976 0.005324655494221688 -0.004707507971355072 -0.0006171475228666156 0.0031873189569386583 0.0 0.0
0.0 0.004176352663119753 0.0035755500653404143 -0.0030802555902074737 -0.0004952944751329395 0.0023884920162715846 0.0 0.0
0.0 0.002551769395378148 0.0021222659686028714 -0.0017730544210378205 -0.0003492115475650508 0.0015893913497482919 0.0 0.0
0.0 0.0012833981497934188 0.0009716622256402184 -0.0007851446846152435 -0.00018651754102497463 0.0008388521362374685 0.0 0.0
0.0 0.00042032025033895905 0.00026047121586990894 -0.00020546419952519447 -5.50070163447144e-05 0.0002816601665805753 0.0 0.0
0.0 5.659704919370858e-05 2.699528011920944e-05 -2.1318319214150143e-05 -5.67696090505934e-06 4.1640067611554174e-05 0.0 0.0
0.0 1.0042081989081814e-05 -9.329724215460563e-07 7.201815348328094e-07 2.127908867132563e-07 -1.7612736880608109e-06 0.0 0.0
0.0 0.0 0.0 0.0 0.0 0.0 0.0 0.0
0.0 0.0 0.0 0.0 0.0 0.0 0.0 0.0
0.0 0.0 0.0 0.0 0.0 0.0 0.0 0.0
0.0 0.0010559349646688586 0.0006012168394201043 -0.0007815883761202106 0.00018037153670010642 0.0008550709816700559 0.0 0.0
0.0 0.0005572109563072813 0.0002866245486340445 -0.00038373364980688417 9.710910117283966e-05 -0.00042029946864578023 0.0 0.0
0.0 0.0 0.0 0.0 0.0 0.0 0.0 0.0
0.0 0.0 0.0 0.0 0.0 0.0 0.0 0.0
0.0 0.0 0.0 0.0 0.0 0.0 0.0 0.0
0.0 3.1613189767086014e-06 -2.2524151938286448e-07 1.7083701737073144e-07 5.440450201212877e-08 5.898380239102724e-07 0.0 0.0
0.0 3.161359215824976e-05 -5.711669302753531e-07 4.152422763727253e-07 1.55924653902601e-07 1.5629703151300584e-06 0.0 0.0
0.0 0.00017326862407193356 8.575846229211643e-05 -6.765355574893172e-05 -1.810490654318469e-05 -0.00014974965665408378 0.0 0.0
0.0 0.0006831660740497134 0.0004481505445170481 -0.0003554776237636101 -9.26729207534376e-05 -0.0005633653092589144 0.0 0.0
0.0 0.001610846195595269 0.001208012485244295 -0.0009840106096907569 -0.0002240018755535378 -0.0012343821995856017 0.0 0.0
0.0 0.0028403538262307135 0.0023029680792527145 -0.0019340959605571456 -0.00036887211869556896 -0.0020558028066257035 0.0 0.0
0.0 0.004374765273633637 0.003643399968516186 -0.0031482410430189165 -0.0004951589254972691 -0.0029023329504253683 0.0 0.0
0.0 0.006301104409836219 0.005286003320152834 -0.004681330265705032 -0.0006046730544478015 -0.003766424595223252 0.0 0.0
0.0 0.00879571562002446 0.007375149520270514 -0.0066780841207524436 -0.0006970653995180688 -0.004757251141470463 0.0 0.0
0.0 0.011990815152989168 0.010084343243983412 -0.00930868446205704 -0.0007756587819263677 -0.005981244076376248 0.0 0.0
0.0 0.01608807967425419 0.013522682883367804 -0.012681260677147156 -0.0008414222062206435 -0.007445921918878657 0.0 0.0
0.0 0.021010931083626165 0.01768632871481073 -0.01678524681056927 -0.0009010819042414496 -0.008978689206578617 0.0 0.0
0.0 0.02646631967608557 0.02241803233107389 -0.021463182816298342 -0.000954849514775548 -0.010200532690496337 0.0 0.0
0.0 0.032183280678668096 0.027441792262527007 -0.026436725833121375 -0.0010050664294056365 -0.010528260721784798 0.0 0.0
0.0 0.03767645721535691 0.03231653797335982 -0.031259585060132336 -0.0010569529132274684 -0.00919813724397832 0.0 0.0
0.0 0.04192270907121452 0.03621867354089993 -0.035111529275789324 -0.0011071442651106017 -0.005189096249393858 0.0 0.0
0.0 0.041922709071213794 0.036218673540898604 -0.035111529275788346 -0.0011071442651102638 0.005189096249411283 0.0 0.0
0.0 0.03767645721535368 0.03231653797335533 -0.03125958506012793 -0.001056952913227396 0.009198137244002001 0.0 0.0
0.0 0.032183280678661615 0.027441792262519728 -0.026436725833114075 -0.0010050664294056469 0.01052826072180138 0.0 0.0
0.0 0.026466319676078456 0.022418032331066637 -0.0214631828162916 -0.0009548495147750425 0.010200532690502348 0.0 0.0
0.0 0.021010931083616072 0.017686328714801886 -0.016785246810560914 -0.0009010819042409648 0.008978689206575718 0.0 0.0
0.0 0.016088079674242986 0.013522682883358277 -0.01268126067713781 -0.0008414222062204668 0.007445921918874091 0.0 0.0
0.0 0.011990815152981171 0.010084343243976272 -0.009308684462050267 -0.0007756587819259999 0.005981244076374027 0.0 0.0
0.0 0.008795715620015956 0.007375149520262711 -0.00667808412074526 -0.0006970653995174493 0.004757251141468787 0.0 0.0
0.0 0.006301104409827351 0.005286003320145087 -0.004681330265697998 -0.0006046730544470887 0.0037664245952181343 0.0 0.0
0.0 0.00437476527362569 0.003643399968509437 -0.0031482410430128745 -0.000495158925496562 0.0029023329504200973 0.0 0.0
0.0 0.0028403538262223374 0.0023029680792459105 -0.0019340959605512443 -0.0003688721186946661 0.0020558028066188587 0.0 0.0
0.0 0.0016108461955895207 0.0012080124852398837 -0.0009840106096870747 -0.00022400187555280857 0.0012343821995818769 0.0 0.0
0.0 0.0006831660740458238 0.0004481505445143841 -0.0003554776237615349 -9.267292075284972e-05 0.0005633653092562629 0.0 0.0
0.0 0.0001732686240698237 8.575846229109144e-05 -6.765355574811964e-05 -1.8104906542971646e-05 0.00014974965665251136 0.0 0.0
0.0 3.1613592157494274e-05 -5.711669302959801e-07 4.152422763902234e-07 1.559246539058149e-07 -1.562970315169271e-06 0.0 0.0
0.0 3.161318976189613e-06 -2.2524151934812776e-07 1.7083701734378719e-07 5.4404502004334224e-08 -5.898380238126453e-07 0.0 0.0
0.0 0.0 0.0 0.0 0.0 0.0 0.0 0.0
0.0 0.0 0.0 0.0 0.0 0.0 0.0 0.0
0.0 0.0 0.0 0.0 0.0 0.0 0.0 0.0
0.0 0.0005572109563032926 0.0002866245486321202 -0.0003837336498044258 9.71091011723056e-05 0.0004202994686428482 0.0 0.0
0.0 0.00023596569756532436 9.200060943674818e-05 -0.0001274425377444321 3.544192830768411e-05 -0.00013571044502468343 0.0 0.0
0.0 0.0 0.0 0.0 0.0 0.0 0.0 0.0
0.0 0.0 0.0 0.0 0.0 0.0 0.0 0.0
0.0 0.0 0.0 0.0 0.0 0.0 0.0 0.0
0.0 2.941446764786285e-06 -1.3952363807393717e-07 1.0592787567314353e-07 3.3595762400780106e-08 5.885360677433528e-07 0.0 0.0
0.0 1.9925137958124894e-05 3.4923814980299865e-07 -2.4399422418623377e-07 -1.0524392561676482e-07 -3.922412823548512e-07 0.0 0.0
0.0 8.72143427770397e-05 2.922365241187821e-05 -2.2849064115896594e-05 -6.374588295981643e-06 -7.890177782368356e-05 0.0 0.0
0.0 0.0002838474170744871 0.00013997291564292472 -0.00010979143336517798 -3.0181482277746786e-05 -0.0002982571059325465 0.0 0.0
0.0 0.0008105812003733013 0.00047962193298572677 -0.000381140904984211 -9.848102800151554e-05 -0.0007568456244341983 0.0 0.0
0.0 0.0015582066392528025 0.0011482996079349359 -0.000933898655825096 -0.00021440095210983965 -0.0014718159942074445 0.0 0.0
0.0 0.002709408848524245 0.0020484308292198663 -0.0017143023950116926 -0.000334128434208173 -0.002274964272257846 0.0 0.0
0.0 0.004020155899555995 0.0031841494810224565 -0.002736550757489592 -0.0004475987235328638 -0.0031259532294318428 0.0 0.0
0.0 0.005735845969969927 0.004627018111094783 -0.004076884182056895 -0.0005501339290378842 -0.004060463085355018 0.0 0.0
0.0 0.00800829468897947 0.006506387644140438 -0.005867875654451449 -0.0006385119896889883 -0.005155170705039256 0.0 0.0
0.0 0.010981754576199224 0.008926677453573334 -0.00821528125767984 -0.0007113961958934951 -0.0064323924147974484 0.0 0.0
0.0 0.014565955832601986 0.011923597088727152 -0.011154374179874508 -0.0007692229088526413 -0.007785729725172626 0.0 0.0
0.0 0.018761648094761108 0.015449254869531023 -0.014631016689027242 -0.0008182381805037821 -0.008905606705328785 0.0 0.0
0.0 0.02317879602045427 0.01938011942037873 -0.018521669755023597 -0.0008584496653551263 -0.009360372755435165 0.0 0.0
0.0 0.027691832414471942 0.02352386553836356 -0.022630110355420605 -0.0008937551829429441 -0.00857478576484211 0.0 0.0
0.0 0.03174033681449342 0.027340261439661666 -0.02639732407214512 -0.0009429373675165426 -0.00531054710692496 0.0 0.0
0.0 0.03174033681449296 0.02734026143966066 -0.026397324072143916 -0.0009429373675167322 0.0053105471069383355 0.0 0.0
0.0 0.027691832414470305 0.023523865538360448 -0.022630110355417347 -0.0008937551829430985 0.008574785764861238 0.0 0.0
0.0 0.023178796020451517 0.019380119420374507 -0.01852166975501984 -0.0008584496653546674 0.009360372755449136 0.0 0.0
0.0 0.0187616480947558 0.015449254869525591 -0.014631016689022242 -0.0008182381805033463 0.008905606705333087 0.0 0.0
0.0 0.014565955832593874 0.011923597088720393 -0.011154374179868073 -0.000769222908852319 0.007785729725168975 0.0 0.0
0.0 0.010981754576191466 0.008926677453566984 -0.008215281257673745 -0.0007113961958932361 0.006432392414793306 0.0 0.0
0.0 0.00800829468897324 0.006506387644135021 -0.005867875654446329 -0.0006385119896886905 0.005155170705037648 0.0 0.0
0.0 0.005735845969963968 0.0046270181110894745 -0.00407688418205189 -0.0005501339290375842 0.0040604630853531085 0.0 0.0
0.0 0.004020155899548066 0.00318414948101586 -0.0027365507574835524 -0.0004475987235323071 0.0031259532294268515 0.0 0.0
0.0 0.002709408848517238 0.002048430829214328 -0.0017143023950068528 -0.0003341284342074749 0.002274964272252008 0.0 0.0
0.0 0.0015582066392467728 0.001148299607930695 -0.000933898655821523 -0.00021440095210917176 0.0014718159942018407 0.0 0.0
0.0 0.0008105812003694574 0.00047962193298309454 -0.0003811409049820757 -9.848102800101891e-05 0.0007568456244311256 0.0 0.0
0.0 0.0002838474170723646 0.0001399729156418311 -0.00010979143336428376 -3.0181482277547282e-05 0.0002982571059304807 0.0 0.0
0.0 8.721434277604627e-05 2.922365241177934e-05 -2.2849064115817786e-05 -6.374588295961591e-06 7.890177782341146e-05 0.0 0.0
0.0 1.992513795764777e-05 3.4923814981188614e-07 -2.4399422419397364e-07 -1.0524392561789034e-07 3.9224128240235236e-07 0.0 0.0
0.0 2.9414467642801842e-06 -1.3952363805020315e-07 1.0592787565476392e-07 3.359576239544616e-08 -5.885360676368125e-07 0.0 0.0
0.0 0.0 0.0 0.0 0.0 0.0 0.0 0.0
0.0 0.0 0.0 0.0 0.0 0.0 0.0 0.0
0.0 0.0 0.0 0.0 0.0 0.0 0.0 0.0
0.0 0.0002359656975631264 9.200060943608329e-05 -0.0001274425377435087 3.544192830742564e-05 0.00013571044502386543 0.0 0.0
0.0 5.30571771406888e-05 1.6040981849951795e-05 -2.303439581037902e-05 6.99341396042728e-06 -2.5758348521173008e-05 0.0 0.0
0.0 1.6538167115190833e-06 -2.748905065804631e-09 7.58763272979475e-09 -4.838727663989611e-09 3.533900715791832e-07 0.0 0.0
0.0 0.0 0.0 0.0 0.0 0.0 0.0 0.0
0.0 0.0 0.0 0.0 0.0 0.0 0.0 0.0
0.0 3.0628381032312882e-06 -6.90575449801798e-08 5.370267077264668e-08 1.5354874207528902e-08 6.580753880870616e-07 0.0 0.0
0.0 1.669848219022137e-05 -6.754141313248215e-07 5.129785862136518e-07 1.624355451111653e-07 4.126874192703304e-06 0.0 0.0
0.0 5.7945322492256405e-05 9.600217130792258e-06 -7.551860103807588e-06 -2.0483570269846338e-06 -4.5677734577179076e-05 0.0 0.0
0.0 0.0001380660451878334 4.846975374157896e-05 -3.804967226009956e-05 -1.0420081481479402e-05 -0.00019563852948624889 0.0 0.0
0.0 0.00032639858828707947 0.0001200330151593803 -9.457759491473607e-05 -2.5455420244644235e-05 -0.00038881091017760897 0.0 0.0
0.0 0.000630388593655745 0.0003049585975070077 -0.000240336034691643 -6.462256281536474e-05 -0.000773316943171278 0.0 0.0
0.0 0.0011452022837354786 0.0006974073634666697 -0.0005586259912089628 -0.00013878137225770685 -0.0013701116760529326 0.0 0.0
0.0 0.0019555949779123624 0.0012777354065873342 -0.0010486273706737258 -0.0002291080359136083 -0.002086284399981996 0.0 0.0
0.0 0.0029877297062829693 0.0020728747919054975 -0.001745134541011494 -0.0003277402508940029 -0.002937074681518926 0.0 0.0
0.0 0.004364505381828712 0.003143082433215593 -0.0027173713332506837 -0.00042571109996490956 -0.0038892986095799085 0.0 0.0
0.0 0.006158847404372285 0.004558403517710952 -0.004045022218301091 -0.00051338129940986 -0.004942060002496685 0.0 0.0
0.0 0.008417240566352803 0.006374014220364106 -0.005789923909347416 -0.0005840903110166916 -0.006047697038652091 0.0 0.0
0.0 0.011215892752671049 0.008646715364619714 -0.008009032862239763 -0.000637682502379951 -0.0070486707616706805 0.0 0.0
0.0 0.014424861718831342 0.011402325951681244 -0.010718403706496077 -0.0006839222451851734 -0.007538981904379647 0.0 0.0
0.0 0.018003810599531225 0.014623848447476216 -0.013915738747170985 -0.0007081097003052327 -0.007222207845689583 0.0 0.0
0.0 0.02170984864201982 0.018207386031692245 -0.01746164000116344 -0.0007457460305288067 -0.005145169694707337 0.0 0.0
0.0 0.021709848642019476 0.01820738603169131 -0.017461640001162383 -0.0007457460305289293 0.005145169694716864 0.0 0.0
0.0 0.018003810599531954 0.014623848447475054 -0.01391573874716992 -0.0007081097003051256 0.0072222078457049145 0.0 0.0
0.0 0.014424861718830001 0.011402325951678276 -0.010718403706493386 -0.0006839222451848902 0.007538981904390906 0.0 0.0
0.0 0.011215892752667921 0.008646715364616503 -0.008009032862236863 -0.0006376825023796382 0.007048670761672394 0.0 0.0
0.0 0.00841724056634973 0.006374014220361863 -0.005789923909345637 -0.0005840903110162263 0.006047697038649696 0.0 0.0
0.0 0.006158847404367608 0.004558403517707413 -0.004045022218297915 -0.0005133812994094971 0.004942060002493279 0.0 0.0
0.0 0.004364505381825239 0.0031430824332126083 -0.002717371333248053 -0.0004257110999645548 0.0038892986095781642 0.0 0.0
0.0 0.002987729706281062 0.002072874791903582 -0.001745134541009905 -0.00032774025089367685 0.00293707468151831 0.0 0.0
0.0 0.001955594977909009 0.0012777354065850036 -0.0010486273706718612 -0.00022910803591314166 0.002086284399979055 0.0 0.0
0.0 0.0011452022837316214 0.0006974073634642214 -0.000558625991207005 -0.00013878137225721617 0.0013701116760489844 0.0 0.0
0.0 0.0006303885936523858 0.00030495859750538044 -0.0002403360346903457 -6.462256281503467e-05 0.0007733169431675579 0.0 0.0
0.0 0.0003263985882858879 0.00012003301515889933 -9.457759491436588e-05 -2.545542024453332e-05 0.0003888109101762634 0.0 0.0
0.0 0.00013806604518696382 4.8469753741338725e-05 -3.804967225991322e-05 -1.0420081481425507e-05 0.00019563852948538207 0.0 0.0
0.0 5.794532249148351e-05 9.600217130642221e-06 -7.551860103685578e-06 -2.048357026956613e-06 4.567773457647312e-05 0.0 0.0
0.0 1.6698482189740015e-05 -6.75414131304937e-07 5.129785861990805e-07 1.624355451058679e-07 -4.126874192569552e-06 0.0 0.0
0.0 3.062838102718457e-06 -6.905754496692381e-08 5.3702670762761436e-08 1.535487420416051e-08 -6.580753879724068e-07 0.0 0.0
0.0 0.0 0.0 0.0 0.0 0.0 0.0 0.0
0.0 0.0 0.0 0.0 0.0 0.0 0.0 0.0
0.0 1.65381671108306e-06 -2.7489050652915605e-09 7.587632727915323e-09 -4.8387276626236715e-09 -3.5339007148384286e-07 0.0 0.0
0.0 5.30571771394052e-05 1.6040981849826105e-05 -2.3034395810192768e-05 6.9934139603666616e-06 2.575834852103908e-05 0.0 0.0
0.0 7.012573395622396e-06 -4.887861938211331e-07 7.056813321191755e-07 -2.168951382980365e-07 9.74690901603036e-07 0.0 0.0
0.0 2.1979396482406107e-06 1.1868574056845524e-09 1.0883559240507842e-08 -1.207041664619258e-08 4.588111399241068e-07 0.0 0.0
0.0 8.28283976103979e-07 8.757322001854407e-09 -7.994197467743662e-09 -7.631245341108108e-10 1.6872916499049268e-07 0.0 0.0
0.0 1.0341171999299922e-06 3.4830124123105497e-09 -4.631541757330647e-09 1.1485293450206947e-09 2.129476539670559e-07 0.0 0.0
0.0 5.455561020512527e-06 -1.877319191668789e-08 9.400339741409076e-09 9.372852175272426e-09 1.2338249442580408e-06 0.0 0.0
0.0 1.2649162497038722e-05 -1.4081635774303978e-07 1.0163524973800948e-07 3.918110800504046e-08 3.1244596390103373e-06 0.0 0.0
0.0 4.145827836579228e-05 2.858928802708592e-06 -2.2405339269961455e-06 -6.183948757124482e-07 -4.33090634520109e-05 0.0 0.0
0.0 0.00012098692728706176 1.0023381676582897e-05 -7.838263805384969e-06 -2.185117871197893e-06 -0.00012067348425304954 0.0 0.0
0.0 0.00020237283477306004 2.83912042137437e-05 -2.2269008130478895e-05 -6.122196083264816e-06 -0.00028305183095128026 0.0 0.0
0.0 0.00036235347292650237 5.551337078309937e-05 -4.362563730161701e-05 -1.188773348148234e-05 -0.0004691509301295178 0.0 0.0
0.0 0.0004849943725803765 0.0001067595265131397 -8.455334531953114e-05 -2.220618119360856e-05 -0.0008046472059841728 0.0 0.0
0.0 0.0007410140209601288 0.0001784277684014347 -0.00014262162397705335 -3.5806144424381236e-05 -0.001220157570839373 0.0 0.0
0.0 0.0011140489118801312 0.00030592971500624755 -0.0002452147696894719 -6.07149453167756e-05 -0.001800835046170143 0.0 0.0
0.0 0.0016870324459823736 0.0005359179357893487 -0.00043121699192274587 -0.0001047009438666027 -0.002589524006346369 0.0 0.0
0.0 0.0024564317849067397 0.0008937984540293661 -0.000727304246179885 -0.00016649420784948073 -0.0035856257124207845 0.0 0.0
0.0 0.003473473050702483 0.001432091459796153 -0.0011939874140504889 -0.00023810404574566374 -0.004712152264507984 0.0 0.0
0.0 0.004853705531132933 0.0023579081716592403 -0.002054379385149906 -0.00030352878650933396 -0.005779468923526685 0.0 0.0
0.0 0.00666367833053278 0.0038564126402195983 -0.00348043534001527 -0.00037597730020432667 -0.006345660653039174 0.0 0.0
0.0 0.00892279109301795 0.005979465404533086 -0.005527476239153348 -0.00045198916537973895 -0.0060125366672924025 0.0 0.0
0.0 0.011873354238820646 0.00890768952144325 -0.0084491217765974 -0.00045856774484584353 -0.0048861651592930055 0.0 0.0
0.0 0.01187335423882191 0.008907689521443664 -0.008449121776598028 -0.0004585677448456342 0.004886165159299681 0.0 0.0
0.0 0.008922791093019375 0.005979465404532471 -0.005527476239152908 -0.0004519891653795592 0.00601253666730334 0.0 0.0
0.0 0.0066636783305326 0.00385641264021818 -0.003480435340013889 -0.0003759773002042896 0.006345660653045325 0.0 0.0
0.0 0.004853705531130494 0.002357908171657141 -0.0020543793851478124 -0.00030352878650932865 0.005779468923527081 0.0 0.0
0.0 0.0034734730506998856 0.001432091459794832 -0.0011939874140492305 -0.000238104045745601 0.004712152264504648 0.0 0.0
0.0 0.0024564317849051385 0.0008937984540288216 -0.000727304246179419 -0.00016649420784940243 0.003585625712418144 0.0 0.0
0.0 0.0016870324459807846 0.0005359179357887576 -0.0004312169919222004 -0.00010470094386655719 0.0025895240063444624 0.0 0.0
0.0 0.0011140489118794178 0.00030592971500615745 -0.00024521476968942727 -6.071494531673009e-05 0.0018008350461688012 0.0 0.0
0.0 0.0007410140209585648 0.0001784277684011356 -0.00014262162397677113 -3.58061444243645e-05 0.001220157570836736 0.0 0.0
0.0 0.00048499437257882796 0.00010675952651285683 -8.455334531929901e-05 -2.220618119355781e-05 0.0008046472059814902 0.0 0.0
0.0 0.000362353472924727 5.551337078286493e-05 -4.362563730141514e-05 -1.1887733481449729e-05 0.00046915093012700004 0.0 0.0
0.0 0.00020237283477250452 2.8391204213684886e-05 -2.226900813044354e-05 -6.122196083241311e-06 0.0002830518309506014 0.0 0.0
0.0 0.00012098692728643915 1.0023381676521913e-05 -7.838263805341389e-06 -2.185117871180521e-06 0.00012067348425226501 0.0 0.0
0.0 4.1458278365240264e-05 2.858928802686509e-06 -2.2405339269799633e-06 -6.183948757065366e-07 4.330906345165612e-05 0.0 0.0
0.0 1.264916249658675e-05 -1.4081635773777134e-07 1.0163524973414598e-07 3.918110800362112e-08 -3.1244596388847664e-06 0.0 0.0
0.0 5.4555610200182124e-06 -1.87731919147807e-08 9.400339740515117e-09 9.372852174262189e-09 -1.2338249441362645e-06 0.0 0.0
0.0 1.0341171994111593e-06 3.4830124097744975e-09 -4.63154175459075e-09 1.1485293448161685e-09 -2.1294765385734702e-07 0.0 0.0
0.0 8.282839756553083e-07 8.757321996808003e-09 -7.99419746324245e-09 -7.631245335657651e-10 -1.687291648967851e-07 0.0 0.0
0.0 2.1979396476663126e-06 1.1868574058352821e-09 1.0883559236708018e-08 -1.2070416642541689e-08 -4.588111397997392e-07 0.0 0.0
0.0 7.012573395380932e-06 -4.887861936966863e-07 7.056813319339949e-07 -2.1689513823735394e-07 -9.746909013777696e-07 0.0 0.0
0.0 0.0 0.0 0.0 0.0 0.0 0.0 0.0
0.0 1.7796170291698353e-06 6.777231581667589e-09 2.818520896233413e-09 -9.595752477896557e-09 3.8083891622846305e-07 0.0 0.0
0.0 1.006612653282911e-06 1.8800037151531995e-08 -1.6160969127413305e-08 -2.6390680241173787e-09 2.0557945423080885e-07 0.0 0.0
0.0 1.3830639415008088e-06 2.5459537940910303e-08 -2.257136934973081e-08 -2.8881685911793595e-09 2.8364822182210734e-07 0.0 0.0
0.0 6.329568723119171e-06 1.2100159608371412e-07 -9.95749289913299e-08 -2.1426667092374816e-08 1.450807040856032e-06 0.0 0.0
0.0 1.6603222805893222e-05 2.923750411414829e-07 -2.3536244238636934e-07 -5.701259875511966e-08 4.230645678701024e-06 0.0 0.0
0.0 4.2781070023349745e-05 -3.0028639422618386e-06 2.3895840948979698e-06 6.13279847363857e-07 -4.3179544503215494e-05 0.0 0.0
0.0 0.0001210576434291406 -9.977159135865024e-06 7.800545393645471e-06 2.1766137422195168e-06 -0.00012062675742947151 0.0 0.0
0.0 0.00020199516480233292 -2.81715004901576e-05 2.207638579059976e-05 6.0951146995578165e-06 -0.00028273583157875615 0.0 0.0
0.0 0.00036202557471837714 -5.528522090340271e-05 4.341492613219129e-05 1.187029477121149e-05 -0.0004688970568913221 0.0 0.0
0.0 0.0004859083939831344 -0.00010638223575941926 8.42728606673569e-05 2.2109375092062304e-05 -0.0008041364126074306 0.0 0.0
0.0 0.000741092095211714 -0.0001785642621409497 0.0001429364784343494 3.5627783706600175e-05 -0.0012199213875020369 0.0 0.0
0.0 0.00111589199949709 -0.00030918922368884427 0.0002485086440562705 6.068057963257383e-05 -0.0018004853634462899 0.0 0.0
0.0 0.0016948190570766674 -0.000544422594553544 0.0004379355177115376 0.00010648707684200624 -0.0025913984908468193 0.0 0.0
0.0 0.00245204792889818 -0.0008796938832484248 0.0007090078558394735 0.00017068602740895084 -0.0035990140300336073 0.0 0.0
0.0 0.0033700559177265604 -0.0012354881273301493 0.0009941688010463258 0.00024131932628382273 -0.004769599106991921 0.0 0.0
0.0 0.004301608277771355 -0.0014623504775381178 0.0011643502918519777 0.00029800018568614005 -0.006091597494621972 0.0 0.0
0.0 0.005096383140339825 -0.001301602853874265 0.0009790027155828285 0.00032260013829143617 -0.007501464229636597 0.0 0.0
0.0 0.0053953885180603985 -0.0005905406715215963 0.00036918731203717305 0.0002213533594844227 -0.008591596570660146 0.0 0.0
0.0 0.004975830935078652 0.0011280884553143756 -0.0012034609028040188 7.53724474896432e-05 -0.0072877477119728876 0.0 0.0
0.0 0.00497583093508141 0.0011280884553142904 -0.0012034609028041727 7.537244748988161e-05 0.00728774771197963 0.0 0.0
0.0 0.005395388518063702 -0.0005905406715218311 0.00036918731203730836 0.00022135335948452215 0.008591596570666955 0.0 0.0
0.0 0.00509638314034043 -0.0013016028538740078 0.000979002715582589 0.00032260013829141834 0.007501464229638984 0.0 0.0
0.0 0.0043016082777690805 -0.0014623504775368563 0.0011643502918509234 0.0002980001856859332 0.006091597494620094 0.0 0.0
0.0 0.0033700559177230814 -0.0012354881273282281 0.0009941688010445548 0.0002413193262836735 0.004769599106987783 0.0 0.0
0.0 0.002452047928895209 -0.0008796938832469785 0.0007090078558383117 0.00017068602740866672 0.0035990140300306388 0.0 0.0
0.0 0.0016948190570742633 -0.0005444225945522164 0.0004379355177104721 0.00010648707684174427 0.00259139849084417 0.0 0.0
0.0 0.0011158919994952617 -0.0003091892236877976 0.00024850864405539 6.068057963240751e-05 0.0018004853634442128 0.0 0.0
0.0 0.0007410920952096423 -0.000178564262140252 0.00014293647843373962 3.562778370651232e-05 0.0012199213874991917 0.0 0.0
0.0 0.00048590839398158245 -0.00010638223575888648 8.427286066692755e-05 2.2109375091958956e-05 0.0008041364126048418 0.0 0.0
0.0 0.00036202557471648445 -5.528522090298717e-05 4.341492613183786e-05 1.1870294771149308e-05 0.0004688970568886168 0.0 0.0
0.0 0.0002019951648016252 -2.8171500489992493e-05 2.20763857904643e-05 6.095114699528188e-06 0.00028273583157786516 0.0 0.0
0.0 0.00012105764342829918 -9.977159135764746e-06 7.800545393562655e-06 2.1766137422020836e-06 0.00012062675742856218 0.0 0.0
0.0 4.278107002281518e-05 -3.0028639422400097e-06 2.389584094886317e-06 6.132798473536862e-07 4.317954450289556e-05 0.0 0.0
0.0 1.6603222805341956e-05 2.923750411306663e-07 -2.3536244237751912e-07 -5.701259875313553e-08 -4.2306456785429164e-06 0.0 0.0
0.0 6.329568722502479e-06 1.210015960720766e-07 -9.957492898152986e-08 -2.142666709055061e-08 -1.4508070407032778e-06 0.0 0.0
0.0 1.38306394101384e-06 2.5459537931086613e-08 -2.257136934122153e-08 -2.8881685898646692e-09 -2.8364822171881803e-07 0.0 0.0
0.0 1.0066126526757192e-06 1.8800037139368483e-08 -1.616096911716342e-08 -2.639068022204588e-09 -2.0557945410441137e-07 0.0 0.0
0.0 1.7796170285604457e-06 6.777231579867834e-09 2.8185208935578717e-09 -9.595752473420792e-09 -3.808389160997736e-07 0.0 0.0
0.0 0.0 0.0 0.0 0.0 0.0 0.0 0.0
0.0 0.0 0.0 0.0 0.0 0.0 0.0 0.0
0.0 1.5710527121896345e-07 1.3280899262144232e-09 -5.741504665692977e-10 -7.539394596450155e-10 3.144508494451769e-08 0.0 0.0
0.0 1.1358547083526696e-06 2.9199022431040485e-08 -2.4414515400477513e-08 -4.784507030563987e-09 2.311035997749412e-07 0.0 0.0
0.0 4.433390297608247e-06 1.6015753021184142e-07 -1.3149237797340506e-07 -2.8665152238422848e-08 9.6169292488308e-07 0.0 0.0
0.0 5.593573495776328e-06 2.248805082958022e-07 -1.7833069165734527e-07 -4.654981663844911e-08 1.2502688499167775e-06 0.0 0.0
0.0 1.8592009115525406e-05 -5.304182979585972e-07 3.732193037666936e-07 1.5719899419186676e-07 -1.7600580768115027e-06 0.0 0.0
0.0 6.215513084698282e-05 -9.877557455800852e-06 7.802685313467078e-06 2.074872142333749e-06 -4.6310526801780464e-05 0.0 0.0
0.0 0.00013854920584368112 -4.840773265005051e-05 3.800480227674619e-05 1.0402930373304303e-05 -0.00019562431878072798 0.0 0.0
0.0 0.00032464056411651046 -0.00011983965465284036 9.437712059249253e-05 2.5462534060347752e-05 -0.00038828455867271456 0.0 0.0
0.0 0.0006286538527593081 -0.00030439973980591836 0.00023984710206073634 6.455263774518193e-05 -0.0007726158949121711 0.0 0.0
0.0 0.001144205619086915 -0.0006968644578635024 0.0005581465777147818 0.00013871788014872035 -0.0013700387359800372 0.0 0.0
0.0 0.0019556876889121953 -0.0012782822602765815 0.0010493278266026306 0.00022895443367395037 -0.0020856266588738827 0.0 0.0
0.0 0.002992725123129591 -0.0020793078183154704 0.0017518774939633845 0.0003274303243520855 -0.002930481824358814 0.0 0.0
0.0 0.004382700975179263 -0.00316091781273557 0.0027341692952912093 0.00042674851744436016 -0.0038818253234260735 0.0 0.0
0.0 0.006165186224512935 -0.004547442785968577 0.0040270918726944506 0.0005203509132741233 -0.004985292805714271 0.0 0.0
0.0 0.008244139491076996 -0.006137398166526068 0.005535362840364908 0.0006020353261611574 -0.0063035798227575185 0.0 0.0
0.0 0.01035182278748709 -0.007642598596855102 0.006970921433122931 0.0006716771637321731 -0.007839733244485274 0.0 0.0
0.0 0.011915846309371135 -0.008575386726058554 0.007848701464292018 0.000726685261766537 -0.009471959876699462 0.0 0.0
0.0 0.011761911148274287 -0.008097945274355683 0.0073007512309081115 0.00079719404344757 -0.010151078346477587 0.0 0.0
0.0 0.008550322172555977 -0.005101045240006447 0.004325952927097894 0.0007750923129085511 -0.008032795991297807 0.0 0.0
0.0 0.008550322172559887 -0.005101045240007724 0.004325952927099079 0.0007750923129086432 0.008032795991305975 0.0 0.0
0.0 0.01176191114827964 -0.008097945274357376 0.0073007512309100075 0.0007971940434473648 0.010151078346491153 0.0 0.0
0.0 0.011915846309372275 -0.008575386726057638 0.007848701464291563 0.0007266852617660736 0.009471959876708572 0.0 0.0
0.0 0.010351822787481082 -0.007642598596849831 0.006970921433118135 0.0006716771637316954 0.00783973324448411 0.0 0.0
0.0 0.008244139491071268 -0.006137398166521521 0.0055353628403608125 0.0006020353261607075 0.006303579822752849 0.0 0.0
0.0 0.006165186224509268 -0.004547442785965391 0.004027091872691712 0.000520350913273678 0.004985292805712218 0.0 0.0
0.0 0.0043827009751754775 -0.003160917812732553 0.0027341692952887395 0.0004267485174438137 0.003881825323423584 0.0 0.0
0.0 0.0029927251231240265 -0.002079307818310583 0.0017518774939591568 0.00032743032435142574 0.002930481824355727 0.0 0.0
0.0 0.001955687688905649 -0.0012782822602718654 0.0010493278265986381 0.00022895443367322755 0.0020856266588690645 0.0 0.0
0.0 0.0011442056190815741 -0.0006968644578601098 0.0005581465777120004 0.00013871788014810932 0.0013700387359754339 0.0 0.0
0.0 0.000628653852755693 -0.0003043997398041383 0.00023984710205931581 6.455263774482234e-05 0.0007726158949084791 0.0 0.0
0.0 0.0003246405641146123 -0.00011983965465195499 9.437712059176942e-05 2.5462534060185562e-05 0.00038828455867060665 0.0 0.0
0.0 0.00013854920584277462 -4.8407732649755506e-05 3.8004802276518586e-05 1.0402930373236918e-05 0.00019562431877979866 0.0 0.0
0.0 6.215513084636487e-05 -9.877557455740511e-06 7.802685313425172e-06 2.0748721423152934e-06 4.63105268015183e-05 0.0 0.0
0.0 1.8592009115066646e-05 -5.304182980050988e-07 3.732193038030906e-07 1.5719899420200977e-07 1.7600580770624074e-06 0.0 0.0
0.0 5.59357349524175e-06 2.2488050827509277e-07 -1.7833069164048388e-07 -4.6549816634625795e-08 -1.250268849792875e-06 0.0 0.0
0.0 4.433390297146278e-06 1.6015753019507324e-07 -1.3149237795953612e-07 -2.8665152235533242e-08 -9.61692924777465e-07 0.0 0.0
0.0 1.1358547078605477e-06 2.919902241766033e-08 -2.441451538947173e-08 -4.7845070281886985e-09 -2.3110359967327132e-07 0.0 0.0
0.0 1.5710527106426096e-07 1.3280899248879184e-09 -5.741504659949382e-10 -7.53939458893311e-10 -3.144508491313459e-08 0.0 0.0
0.0 0.0 0.0 0.0 0.0 0.0 0.0 0.0
0.0 0.0 0.0 0.0 0.0 0.0 0.0 0.0
0.0 0.0 0.0 0.0 0.0 0.0 0.0 0.0
0.0 2.3595770756542535e-06 8.103527067074457e-08 -6.628456757845172e-08 -1.4750703092293867e-08 4.821090557083344e-07 0.0 0.0
0.0 6.5906872819304125e-06 3.108815427979235e-07 -2.5702362177301864e-07 -5.385792102489637e-08 1.4093816020137892e-06 0.0 0.0
0.0 7.818823687818331e-06 3.251802794793379e-07 -2.7011228412516844e-07 -5.506799535415974e-08 1.3732826520315622e-06 0.0 0.0
0.0 2.4476089397231436e-05 -4.261640569197769e-07 3.633315289484251e-07 6.283252797133041e-08 -1.2240297924291443e-06 0.0 0.0
0.0 9.523523948409613e-05 -3.008837337097007e-05 2.3593877639158538e-05 6.494495731811537e-06 -8.09932734729341e-05 0.0 0.0
0.0 0.00028442762528106273 -0.00013970701068250816 0.00010959062651261047 3.0116384169897633e-05 -0.00029791921115320197 0.0 0.0
0.0 0.0008068297639821914 -0.00047795096516482186 0.00037970655260973965 9.824441255508224e-05 -0.0007543971226970267 0.0 0.0
0.0 0.001555601337842321 -0.0011471321828883186 0.000932795826648216 0.00021433635624010266 -0.0014702508575038695 0.0 0.0
0.0 0.002708718963722279 -0.0020480302112376265 0.0017138430332246809 0.0003341871780129451 -0.0022752185969071993 0.0 0.0
0.0 0.0040195890207736585 -0.0031835317887370885 0.0027361224067516164 0.00044740938198547175 -0.003124576550143931 0.0 0.0
0.0 0.005734699911300937 -0.004629619087861759 0.00408040834158498 0.000549210746276777 -0.004043509868176963 0.0 0.0
0.0 0.008015737208529158 -0.0065219658184853015 0.005883712611582906 0.0006382532069023943 -0.005114280349729155 0.0 0.0
0.0 0.010989258832158007 -0.008931379209570298 0.008214219136015267 0.0007171600735550328 -0.006442342639218703 0.0 0.0
0.0 0.01445765721794746 -0.011753222996948896 0.010965116364659485 0.0007881066322894099 -0.008164416146068425 0.0 0.0
0.0 0.018140280448350282 -0.014621121882106083 0.013766198351155293 0.0008549235309507833 -0.010397770210383987 0.0 0.0
0.0 0.020927691526829266 -0.0167937824595984 0.01585849340353125 0.0009352890560671516 -0.012831132439332607 0.0 0.0
0.0 0.021448971272863875 -0.016920791577778125 0.015891148448648338 0.0010296431291297841 -0.014083659231748044 0.0 0.0
0.0 0.01666005823765163 -0.01302127682219099 0.011882426726358964 0.0011388500958320214 -0.011188371057346847 0.0 0.0
0.0 0.01666005823765422 -0.013021276822191355 0.011882426726359047 0.0011388500958323007 0.011188371057357606 0.0 0.0
0.0 0.021448971272865436 -0.016920791577776602 0.01589114844864661 0.001029643129129983 0.014083659231763981 0.0 0.0
0.0 0.02092769152682579 -0.016793782459593443 0.015858493403526477 0.000935289056066962 0.012831132439342575 0.0 0.0
0.0 0.018140280448343697 -0.0146211218821 0.013766198351149627 0.0008549235309503731 0.01039777021038455 0.0 0.0
0.0 0.014457657217939146 -0.01175322299694177 0.01096511636465264 0.0007881066322891299 0.008164416146065568 0.0 0.0
0.0 0.01098925883214889 -0.008931379209562641 0.008214219136007785 0.0007171600735548523 0.006442342639214664 0.0 0.0
0.0 0.008015737208519693 -0.006521965818477345 0.005883712611575264 0.0006382532069020801 0.005114280349724358 0.0 0.0
0.0 0.00573469991129217 -0.004629619087854146 0.004080408341577774 0.0005492107462763718 0.004043509868173112 0.0 0.0
0.0 0.004019589020765379 -0.0031835317887301687 0.0027361224067453294 0.00044740938198483955 0.003124576550139243 0.0 0.0
0.0 0.0027087189637128475 -0.002048030211230085 0.001713843033217976 0.00033418717801210864 0.0022752185969000995 0.0 0.0
0.0 0.0015556013378338683 -0.0011471321828820825 0.0009327958266428487 0.00021433635623923383 0.0014702508574969996 0.0 0.0
0.0 0.000806829763977801 -0.00047795096516168586 0.0003797065526071663 9.824441255451948e-05 0.0007543971226934066 0.0 0.0
0.0 0.0002844276252793968 -0.0001397070106817351 0.00010959062651201115 3.0116384169723974e-05 0.00029791921115206665 0.0 0.0
0.0 9.523523948240933e-05 -3.0088373370676215e-05 2.3593877638919315e-05 6.494495731756894e-06 8.099327347212837e-05 0.0 0.0
0.0 2.447608939636605e-05 -4.2616405695305383e-07 3.633315289746275e-07 6.2832527978381e-08 1.224029792530371e-06 0.0 0.0
0.0 7.818823687500851e-06 3.2518027938386767e-07 -2.70112284049391e-07 -5.5067995334519756e-08 -1.3732826516867967e-06 0.0 0.0
0.0 6.590687281374371e-06 3.1088154276881837e-07 -2.570236217490074e-07 -5.385792101982278e-08 -1.4093816018841068e-06 0.0 0.0
0.0 2.3595770750547986e-06 8.103527064889636e-08 -6.628456756069521e-08 -1.4750703088195763e-08 -4.821090555798598e-07 0.0 0.0
0.0 0.0 0.0 0.0 0.0 0.0 0.0 0.0
0.0 0.0 0.0 0.0 0.0 0.0 0.0 0.0
0.0 0.0 0.0 0.0 0.0 0.0 0.0 0.0
0.0 0.0 0.0 0.0 0.0 0.0 0.0 0.0
0.0 1.762862297087584e-06 7.425115861487428e-08 -6.029149643128876e-08 -1.3959662183589334e-08 3.448992119798501e-07 0.0 0.0
0.0 4.567888438468323e-06 2.816642514112822e-07 -2.2557908395482e-07 -5.6085167456466286e-08 9.161147982519621e-07 0.0 0.0
0.0 1.0652708672196913e-05 8.226055347238993e-07 -6.478885821616355e-07 -1.747169525622491e-07 2.1974362185183357e-06 0.0 0.0
0.0 4.1602964303066325e-05 -8.665100451695172e-06 6.729771054803158e-06 1.9353293968920115e-06 -1.789149576758476e-05 0.0 0.0
0.0 0.0001865719480628266 -8.576482336607034e-05 6.784102658606275e-05 1.7923796780007713e-05 -0.0001514484211544865 0.0 0.0
0.0 0.0006832248620475531 -0.00044723482196162503 0.00035477290421035443 9.246191775127056e-05 -0.0005621824058315704 0.0 0.0
0.0 0.0016069788768113828 -0.0012059891786192279 0.0009821584134111579 0.00022383076520807025 -0.0012310295026375963 0.0 0.0
0.0 0.0028365089937754206 -0.002302519613613398 0.0019335393339367088 0.00036898027967668923 -0.0020544672048902037 0.0 0.0
0.0 0.004375101813335963 -0.0036435269851583466 0.003148273515401325 0.000495253469757021 -0.002903347218819788 0.0 0.0
0.0 0.006298977681876451 -0.005283967770244454 0.004679352395204798 0.0006046153750396553 -0.003765875185104389 0.0 0.0
0.0 0.008785989224857597 -0.007369844906977973 0.0066736746901914544 0.0006961702167865195 -0.004734402804893976 0.0 0.0
0.0 0.011978995569057922 -0.010086294254935957 0.009311836265276596 0.0007744579896593592 -0.0059030743210932626 0.0 0.0
0.0 0.016092058953863477 -0.013537145671342206 0.012692701093091579 0.0008444445782506249 -0.007382449339062348 0.0 0.0
0.0 0.021010561057839987 -0.017627132905607346 0.016712416298605332 0.0009147166070020198 -0.009390429141042374 0.0 0.0
0.0 0.026159310617428686 -0.02188486546733816 0.020892465889369112 0.0009923995779690432 -0.012130378972868103 0.0 0.0
0.0 0.030379043971862647 -0.0252393578806126 0.02414620802899687 0.0010931498516157257 -0.015249192219044316 0.0 0.0
0.0 0.03130238075332608 -0.02579111370140697 0.024570176867707863 0.001220936833699095 -0.01713896138015233 0.0 0.0
0.0 0.025218038265975865 -0.0207050507191078 0.019333437543206555 0.0013716131759012472 -0.014480401080420788 0.0 0.0
0.0 0.025218038265978595 -0.02070505071910774 0.019333437543206385 0.0013716131759013588 0.014480401080435967 0.0 0.0
0.0 0.03130238075332673 -0.025791113701404224 0.024570176867705375 0.0012209368336988527 0.01713896138017297 0.0 0.0
0.0 0.03037904397185868 -0.025239357880606824 0.02414620802899154 0.001093149851615273 0.015249192219058728 0.0 0.0
0.0 0.026159310617419745 -0.0218848654673295 0.02089246588936097 0.000992399577968524 0.012130378972871877 0.0 0.0
0.0 0.02101056105782792 -0.01762713290559662 0.016712416298595323 0.0009147166070012885 0.00939042914103945 0.0 0.0
0.0 0.0160920589538528 -0.013537145671332892 0.01269270109308292 0.0008444445782499677 0.007382449339058239 0.0 0.0
0.0 0.011978995569047881 -0.010086294254927276 0.00931183626526841 0.0007744579896588647 0.0059030743210890455 0.0 0.0
0.0 0.008785989224846165 -0.007369844906967999 0.006673674690181984 0.0006961702167860147 0.004734402804890372 0.0 0.0
0.0 0.006298977681864223 -0.005283967770233807 0.004679352395194866 0.0006046153750389393 0.0037658751850981912 0.0 0.0
0.0 0.004375101813323636 -0.003643526985148019 0.0031482735153917987 0.0004952534697562195 0.002903347218811897 0.0 0.0
0.0 0.002836508993765188 -0.002302519613604929 0.0019335393339292505 0.0003689802796756776 0.002054467204882966 0.0 0.0
0.0 0.0016069788768029846 -0.0012059891786126598 0.000982158413405614 0.0002238307652070464 0.0012310295026322885 0.0 0.0
0.0 0.0006832248620431788 -0.00044723482195847895 0.0003547729042078828 9.246191775059593e-05 0.0005621824058284457 0.0 0.0
0.0 0.00018657194806082555 -8.576482336529953e-05 6.784102658545911e-05 1.792379677984048e-05 0.00015144842115325294 0.0 0.0
0.0 4.1602964301869745e-05 -8.665100451726838e-06 6.729771054827741e-06 1.9353293968991486e-06 1.789149576764242e-05 0.0 0.0
0.0 1.0652708671765672e-05 8.226055346890362e-07 -6.478885821339158e-07 -1.7471695255515656e-07 -2.1974362184231995e-06 0.0 0.0
0.0 4.567888437996252e-06 2.8166425138205025e-07 -2.255790839313278e-07 -5.6085167450732297e-08 -9.161147981532237e-07 0.0 0.0
0.0 1.7628622966370727e-06 7.425115859493936e-08 -6.029149641515662e-08 -1.3959662179784548e-08 -3.4489921188806817e-07 0.0 0.0
0.0 0.0 0.0 0.0 0.0 0.0 0.0 0.0
0.0 0.0 0.0 0.0 0.0 0.0 0.0 0.0
0.0 0.0 0.0 0.0 0.0 0.0 0.0 0.0
0.0 0.0 0.0 0.0 0.0 0.0 0.0 0.0
0.0 0.0 0.0 0.0 0.0 0.0 0.0 0.0
0.0 6.9346823109825144e-06 5.042347017098303e-07 -4.065067840334973e-07 -9.772791767633461e-08 1.3113344896096305e-06 0.0 0.0
0.0 2.5212619995950892e-05 2.4747268596932223e-06 -1.951196794361913e-06 -5.235300653313059e-07 4.953316836308696e-06 0.0 0.0
0.0 8.074342520610479e-05 -3.1115197933659666e-05 2.4661360967330814e-05 6.453836966328882e-06 -4.715076865031779e-05 0.0 0.0
0.0 0.00043492006529899916 -0.00026384306910281216 0.00020853316730338507 5.5309901799427154e-05 -0.0002874946637889875 0.0 0.0
0.0 0.0012830621096981023 -0.0009703867919383501 0.0007841358865645423 0.00018625090537380764 -0.0008374082171458689 0.0 0.0
0.0 0.002549004243790113 -0.0021209453517709626 0.0017716908728312043 0.00034925447893975847 -0.0015851679999444523 0.0 0.0
0.0 0.0041760935085607565 -0.0035758277749862134 0.0030803507117541234 0.0004954770632320884 -0.002386520716389704 0.0 0.0
0.0 0.0061869879066020934 -0.0053252478665814125 0.004707989175910535 0.0006172586906708771 -0.003188167416108071 0.0 0.0
0.0 0.00871046630983195 -0.007480983496112949 0.00676215590811549 0.0007188275879974598 -0.004046175533565051 0.0 0.0
0.0 0.01193559833037019 -0.010226099765615695 0.009422254620104813 0.0008038451455108786 -0.005040451115449778 0.0 0.0
0.0 0.016112282806088788 -0.013775231407796273 0.012897686466032884 0.0008775449417633838 -0.006243719140226435 0.0 0.0
0.0 0.021449663407937285 -0.01827328518712593 0.017326593723825317 0.0009466914633006142 -0.007766687595337167 0.0 0.0
0.0 0.027624707192445554 -0.023632516534754976 0.022611271952380902 0.001021244582374068 -0.009837305457255079 0.0 0.0
0.0 0.03443653475301361 -0.029260460876351334 0.028147362252247444 0.001113098624103883 -0.012703888279427079 0.0 0.0
0.0 0.03995961018845533 -0.033749923764685344 0.032513566475968085 0.001236357288717269 -0.016226024929851087 0.0 0.0
0.0 0.04117655168309127 -0.03458465961434317 0.03319139219239767 0.0013932674219455038 -0.018887962896272707 0.0 0.0
0.0 0.03377689866149626 -0.028185797827501614 0.026631996122866174 0.0015538017046354293 -0.017604282014312682 0.0 0.0
0.0 0.03377689866149956 -0.028185797827501767 0.02663199612286646 0.0015538017046353072 0.017604282014330185 0.0 0.0
0.0 0.04117655168309097 -0.0345846596143399 0.033191392192394586 0.0013932674219453139 0.018887962896294797 0.0 0.0
0.0 0.039959610188449866 -0.03374992376467849 0.03251356647596154 0.0012363572887169492 0.016226024929867734 0.0 0.0
0.0 0.034436534753002325 -0.02926046087634058 0.028147362252237164 0.0011130986241034034 0.012703888279432217 0.0 0.0
0.0 0.02762470719243184 -0.02363251653474289 0.02261127195236923 0.001021244582373649 0.00983730545725293 0.0 0.0
0.0 0.02144966340792399 -0.018273285187114196 0.017326593723813843 0.0009466914633003558 0.0077666875953348695 0.0 0.0
0.0 0.016112282806074674 -0.013775231407783861 0.012897686466020927 0.0008775449417629326 0.006243719140221728 0.0 0.0
0.0 0.01193559833035457 -0.01022609976560178 0.009422254620091447 0.0008038451455103363 0.005040451115446249 0.0 0.0
0.0 0.008710466309816431 -0.007480983496099236 0.006762155908102436 0.0007188275879967997 0.00404617553355904 0.0 0.0
0.0 0.006186987906587 -0.005325247866568334 0.004707989175898241 0.0006172586906700905 0.003188167416100257 0.0 0.0
0.0 0.004176093508547976 -0.003575827774974922 0.0030803507117437325 0.0004954770632311883 0.0023865207163815965 0.0 0.0
0.0 0.0025490042437799746 -0.002120945351762201 0.0017716908728234457 0.00034925447893875456 0.001585167999938914 0.0 0.0
0.0 0.001283062109691719 -0.0009703867919331408 0.0007841358865602333 0.0001862509053729075 0.0008374082171422105 0.0 0.0
0.0 0.00043492006529506606 -0.00026384306910031606 0.0002085331673014205 5.530990179889544e-05 0.00028749466378662756 0.0 0.0
0.0 8.074342520472634e-05 -3.1115197933528315e-05 2.4661360967218525e-05 6.45383696630984e-06 4.715076865004679e-05 0.0 0.0
0.0 2.5212619994963567e-05 2.474726859593644e-06 -1.951196794283381e-06 -5.235300653103639e-07 -4.9533168361263605e-06 0.0 0.0
0.0 6.934682310505462e-06 5.042347016716486e-07 -4.0650678400268413e-07 -9.772791766897146e-08 -1.3113344895102354e-06 0.0 0.0
0.0 0.0 0.0 0.0 0.0 0.0 0.0 0.0
0.0 0.0 0.0 0.0 0.0 0.0 0.0 0.0
0.0 0.0 0.0 0.0 0.0 0.0 0.0 0.0
0.0 0.0 0.0 0.0 0.0 0.0 0.0 0.0
0.0 0.0 0.0 0.0 0.0 0.0 0.0 0.0
0.0 0.0 0.0 0.0 0.0 0.0 0.0 0.0
0.0 3.2006597007079794e-06 2.5707668110242285e-07 -2.054760131561159e-07 -5.160066794626825e-08 5.112391327039601e-07 0.0 0.0
0.0 2.6865678094385345e-05 -7.753486648270692e-07 5.981539876803899e-07 1.77194677146698e-07 -6.910773259016698e-07 0.0 0.0
0.0 0.00018578822841089083 -8.599891978821704e-05 6.788436856500049e-05 1.8114551223216767e-05 -8.586348135904845e-05 0.0 0.0
0.0 0.0008640950896281934 -0.0005812987829713437 0.0004645454994939165 0.00011675328347742687 -0.0004298033624887972 0.0 0.0
0.0 0.0019513988472976305 -0.0016544480458887134 0.0013641381630967648 0.0002903098827919487 -0.0010346666153393535 0.0 0.0
0.0 0.003554953599959271 -0.003115474855678436 0.0026595645787800227 0.000455910276898412 -0.0017332216842367912 0.0 0.0
0.0 0.005584608481380417 -0.004896740082584199 0.004300481374754213 0.0005962587078299861 -0.002445740861636213 0.0 0.0
0.0 0.008088773995537509 -0.007061394535416736 0.0063496433322484756 0.000711751203168256 -0.0031964065234385917 0.0 0.0
0.0 0.011204693695672693 -0.00974712247873808 0.0089392561884135 0.0008078662903245784 -0.004011799011850544 0.0 0.0
0.0 0.015248067179232076 -0.013168593316669313 0.012277699901711849 0.000890893414957461 -0.004971481705288458 0.0 0.0
0.0 0.020294026702465266 -0.017566594207586054 0.016601292264039356 0.0009653019435466939 -0.0061713143953802925 0.0 0.0
0.0 0.026746126433651523 -0.02309262922730701 0.022055842923836215 0.001036786303470805 -0.007627867392419301 0.0 0.0
0.0 0.03451049123964632 -0.029665425345931282 0.028547184905632086 0.0011182404402991972 -0.009478071147868016 0.0 0.0
0.0 0.042522986868244586 -0.03661952551107346 0.03539677546195488 0.001222750049118584 -0.012124037089757563 0.0 0.0
0.0 0.04914129228316114 -0.042212060969955605 0.04084518987015548 0.001366871099800125 -0.015754678391273657 0.0 0.0
0.0 0.05078163927289137 -0.043327648994110596 0.041781854862856085 0.0015457941312545047 -0.019442964939630672 0.0 0.0
0.0 0.04251469941823752 -0.03568375533301567 0.03396724871792407 0.0017165066150915636 -0.020697751682265432 0.0 0.0
0.0 0.042514699418238475 -0.03568375533301393 0.033967248717922366 0.0017165066150915368 0.02069775168228362 0.0 0.0
0.0 0.05078163927288731 -0.04332764899410445 0.041781854862850035 0.0015457941312543924 0.019442964939653803 0.0 0.0
0.0 0.049141292283151145 -0.04221206096994527 0.04084518987014518 0.001366871099800074 0.01575467839129093 0.0 0.0
0.0 0.04252298686823081 -0.03661952551106081 0.03539677546194253 0.0012227500491182866 0.012124037089763362 0.0 0.0
0.0 0.03451049123963028 -0.029665425345917037 0.028547184905618483 0.0011182404402985385 0.009478071147867287 0.0 0.0
0.0 0.026746126433635702 -0.02309262922729278 0.022055842923822774 0.001036786303470002 0.00762786739241828 0.0 0.0
0.0 0.020294026702449973 -0.0175665942075724 0.016601292264026537 0.0009653019435458668 0.006171314395376394 0.0 0.0
0.0 0.015248067179216212 -0.013168593316654835 0.012277699901698112 0.0008908934149567196 0.004971481705285257 0.0 0.0
0.0 0.011204693695655956 -0.009747122478723055 0.008939256188399055 0.0008078662903239977 0.004011799011845755 0.0 0.0
0.0 0.008088773995521926 -0.007061394535402823 0.006349643332235465 0.0007117512031673586 0.0031964065234319425 0.0 0.0
0.0 0.005584608481365199 -0.0048967400825707325 0.004300481374741655 0.0005962587078290757 0.0024457408616287094 0.0 0.0
0.0 0.003554953599947872 -0.003115474855668027 0.0026595645787706223 0.00045591027689740455 0.001733221684231694 0.0 0.0
0.0 0.001951398847289106 -0.001654448045881034 0.0013641381630901635 0.00029030988279087007 0.0010346666153354274 0.0 0.0
0.0 0.0008640950896226973 -0.0005812987829671993 0.00046454549949056704 0.00011675328347663221 0.0004298033624859208 0.0 0.0
0.0 0.00018578822840880174 -8.599891978737972e-05 6.788436856434068e-05 1.8114551223038907e-05 8.586348135823657e-05 0.0 0.0
0.0 2.686567809347793e-05 -7.753486649940888e-07 5.981539878107913e-07 1.7719467718331777e-07 6.910773261263639e-07 0.0 0.0
0.0 3.200659700236418e-06 2.5707668106207243e-07 -2.0547601312382118e-07 -5.1600667938269986e-08 -5.112391326237518e-07 0.0 0.0
0.0 0.0 0.0 0.0 0.0 0.0 0.0 0.0
0.0 0.0 0.0 0.0 0.0 0.0 0.0 0.0
0.0 0.0 0.0 0.0 0.0 0.0 0.0 0.0
0.0 0.0 0.0 0.0 0.0 0.0 0.0 0.0
0.0 0.0 0.0 0.0 0.0 0.0 0.0 0.0
0.0 0.0 0.0 0.0 0.0 0.0 0.0 0.0
0.0 2.6184053184797525e-06 2.3936820084323267e-07 -1.9194239063393857e-07 -4.7425810209277095e-08 3.642394502886807e-07 0.0 0.0
0.0 4.260900075541496e-05 -3.1999661619099262e-06 2.6508625704979366e-06 5.491035914121344e-07 -3.4917186543221724e-06 0.0 0.0
0.0 0.0004057614280951028 -0.00022460446348033215 0.00017808947619086388 4.65149872894687e-05 -0.0001492854272334436 0.0 0.0
0.0 0.0012429764469820406 -0.0010628385075641938 0.0008618034914801473 0.00020103501608404655 -0.0005551999717147365 0.0 0.0
0.0 0.002691717534103277 -0.002408687871007931 0.0020250162211533185 0.00038367164985461194 -0.0010851430070615824 0.0 0.0
0.0 0.004647736994227731 -0.004134812731090452 0.00359082034533121 0.0005439923857592428 -0.0016610162833806555 0.0 0.0
0.0 0.007054338286381679 -0.006251794556759619 0.005574486147370117 0.000677308409389502 -0.0022822913100564598 0.0 0.0
0.0 0.01004146215495527 -0.008838731960560087 0.008051233762999375 0.0007874981975607119 -0.002944480557686357 0.0 0.0
0.0 0.013793921224759254 -0.012068505601395645 0.01118663145654487 0.0008818741448507765 -0.0036722486454947275 0.0 0.0
0.0 0.018570270994012594 -0.016187606786108588 0.015221926223901616 0.0009656805622069691 -0.004554961877651606 0.0 0.0
0.0 0.024689828714784416 -0.021438932993829145 0.020393582968498032 0.0010453500253311179 -0.005656210231243857 0.0 0.0
0.0 0.03226964727276102 -0.02795970151771078 0.026837068690338865 0.0011226328273719163 -0.006967956200859303 0.0 0.0
0.0 0.04098490265300665 -0.03565433731327555 0.03444657074290121 0.0012077665703743388 -0.008453887560219548 0.0 0.0
0.0 0.050445447934945375 -0.043819246156312955 0.04249732003255888 0.0013219261237540825 -0.01041832735456532 0.0 0.0
0.0 0.058303176194744524 -0.050513686495351644 0.04903128675692127 0.00148239973843037 -0.013733956484868906 0.0 0.0
0.0 0.06051077343889799 -0.05210257879631947 0.0504185211434291 0.0016840576528903573 -0.018760038160769116 0.0 0.0
0.0 0.05141772593348166 -0.04343111617856473 0.041556987082288374 0.0018741290962763402 -0.023781146549530015 0.0 0.0
0.0 0.051417725933481324 -0.043431116178562025 0.041556987082285425 0.0018741290962765943 0.0237811465495482 0.0 0.0
0.0 0.0605107734388929 -0.052102578796313 0.050418521143422754 0.0016840576528902571 0.018760038160790908 0.0 0.0
0.0 0.05830317619473496 -0.0505136864953419 0.0490312867569122 0.00148239973842967 0.013733956484885665 0.0 0.0
0.0 0.05044544793492951 -0.043819246156298536 0.042497320032545055 0.0013219261237534812 0.01041832735457128 0.0 0.0
0.0 0.04098490265298814 -0.03565433731325915 0.03444657074288539 0.0012077665703737386 0.008453887560219727 0.0 0.0
0.0 0.032269647272741994 -0.027959701517694002 0.026837068690322558 0.0011226328273714352 0.006967956200858734 0.0 0.0
0.0 0.024689828714765157 -0.021438932993812304 0.02039358296848172 0.0010453500253305706 0.005656210231241056 0.0 0.0
0.0 0.01857027099399123 -0.016187606786089694 0.01522192622388338 0.000965680562206311 0.00455496187764823 0.0 0.0
0.0 0.013793921224737457 -0.012068505601376121 0.011186631456526002 0.0008818741448501189 0.0036722486454902354 0.0 0.0
0.0 0.010041462154935964 -0.00883873196054266 0.008051233762982756 0.0007874981975599003 0.002944480557679704 0.0 0.0
0.0 0.007054338286363826 -0.006251794556743505 0.005574486147354794 0.0006773084093887091 0.00228229131004975 0.0 0.0
0.0 0.004647736994214308 -0.00413481273107796 0.0035908203453196533 0.0005439923857583064 0.001661016283376218 0.0 0.0
0.0 0.0026917175340930456 -0.0024086878709982463 0.00202501622114476 0.00038367164985348616 0.0010851430070578547 0.0 0.0
0.0 0.0012429764469744056 -0.001062838507557404 0.0008618034914744683 0.00020103501608293545 0.000555199971711539 0.0 0.0
0.0 0.00040576142809073016 -0.00022460446347762335 0.00017808947618869154 4.65149872889318e-05 0.00014928542723169553 0.0 0.0
0.0 4.2609000754332765e-05 -3.1999661620165143e-06 2.6508625705787927e-06 5.491035914376344e-07 3.4917186544284852e-06 0.0 0.0
0.0 2.618405318069889e-06 2.393682008043899e-07 -1.9194239060307888e-07 -4.7425810201298124e-08 -3.6423945023065724e-07 0.0 0.0
0.0 0.0 0.0 0.0 0.0 0.0 0.0 0.0
0.0 0.0 0.0 0.0 0.0 0.0 0.0 0.0
0.0 0.0 0.0 0.0 0.0 0.0 0.0 0.0
0.0 0.0 0.0 0.0 0.0 0.0 0.0 0.0
0.0 0.0 0.0 0.0 0.0 0.0 0.0 0.0
0.0 0.0 0.0 0.0 0.0 0.0 0.0 0.0
0.0 2.5053288124497985e-06 2.531774601912513e-07 -2.004950959842307e-07 -5.268236420702641e-08 2.7033984583380355e-07 0.0 0.0
0.0 9.150725273734974e-05 -1.5302220601498176e-05 1.2224361406298426e-05 3.0778591951996784e-06 -9.487327826673262e-06 0.0 0.0
0.0 0.0006957854335910262 -0.0004797850431114623 0.0003828985080243 9.688653508716234e-05 -0.00021160536868815465 0.0 0.0
0.0 0.0017641996742400914 -0.0016070836964920117 0.0013226814273258976 0.000284402269166114 -0.0005536112309243031 0.0 0.0
0.0 0.003514956369301972 -0.003178957372703613 0.00271614895794591 0.00046280841475770295 -0.0009587107326917264 0.0 0.0
0.0 0.00577612400586257 -0.005176116316999111 0.004559487266182119 0.0006166290508169896 -0.0014126859141711256 0.0 0.0
0.0 0.008575923723601355 -0.0076299694626437535 0.006886219865818454 0.0007437495968252969 -0.0019116971762625286 0.0 0.0
0.0 0.012071321736594122 -0.010648023178099672 0.009797202344776828 0.0008508208333228436 -0.0024509706512071787 0.0 0.0
0.0 0.01641286072022822 -0.014437624645906645 0.01349219914163707 0.000945425504269572 -0.00304325244183659 0.0 0.0
0.0 0.022076329142519457 -0.01926602847959378 0.018232688665295198 0.0010333398142985729 -0.003763198712988283 0.0 0.0
0.0 0.029013001923058817 -0.025383272086483926 0.02426401513286256 0.001119256953621366 -0.004715756478520989 0.0 0.0
0.0 0.037589562024991745 -0.03286864716235733 0.03166336375527835 0.001205283407078983 -0.005831997019980294 0.0 0.0
0.0 0.04757676768905055 -0.04153778997733289 0.04024057273319547 0.0012972172441374128 -0.006842728145214563 0.0 0.0
0.0 0.05812027879819252 -0.05070417271774154 0.04929687890106638 0.0014072938166751394 -0.00777338833258363 0.0 0.0
0.0 0.06717545658972668 -0.058528415000248454 0.05695084582770098 0.0015775691725474867 -0.010194094011047468 0.0 0.0
0.0 0.07036216497191944 -0.060986350216469434 0.05917684055973378 0.0018095096567356508 -0.016544171508489042 0.0 0.0
0.0 0.06103310585650209 -0.051703760700601925 0.04966334782454755 0.002040412876054367 -0.026658791156274942 0.0 0.0
0.0 0.0610331058565024 -0.05170376070060009 0.04966334782454601 0.002040412876054082 0.026658791156290353 0.0 0.0
0.0 0.07036216497191244 -0.0609863502164619 0.05917684055972657 0.0018095096567353113 0.01654417150850836 0.0 0.0
0.0 0.0671754565897118 -0.05852841500023491 0.05695084582768754 0.0015775691725473482 0.01019409401106241 0.0 0.0
0.0 0.05812027879817405 -0.05070417271772517 0.04929687890105043 0.0014072938166747287 0.007773388332588319 0.0 0.0
0.0 0.04757676768902963 -0.04153778997731445 0.040240572733177535 0.0012972172441369227 0.00684272814521601 0.0 0.0
0.0 0.03758956202497104 -0.032868647162339 0.03166336375526079 0.0012052834070782085 0.005831997019980476 0.0 0.0
0.0 0.0290130019230359 -0.025383272086463907 0.02426401513284294 0.0011192569536209683 0.004715756478518962 0.0 0.0
0.0 0.022076329142497183 -0.01926602847957397 0.018232688665276192 0.0010333398142977688 0.003763198712985489 0.0 0.0
0.0 0.01641286072020514 -0.014437624645886118 0.013492199141617587 0.0009454255042685343 0.0030432524418340778 0.0 0.0
0.0 0.012071321736571375 -0.010648023178079141 0.009797202344756943 0.000850820833322197 0.002450970651201816 0.0 0.0
0.0 0.008575923723582436 -0.00762996946262656 0.006886219865801945 0.0007437495968246142 0.0019116971762570233 0.0 0.0
0.0 0.005776124005847432 -0.005176116316984999 0.004559487266168938 0.0006166290508160605 0.001412685914168012 0.0 0.0
0.0 0.003514956369289858 -0.0031789573726920804 0.0027161489579354404 0.00046280841475664026 0.0009587107326885952 0.0 0.0
0.0 0.0017641996742319773 -0.0016070836964842182 0.0013226814273192018 0.000284402269165017 0.0005536112309217451 0.0 0.0
0.0 0.000695785433586271 -0.00047978504310777954 0.0003828985080213265 9.688653508645253e-05 0.00021160536868656792 0.0 0.0
0.0 9.150725273601558e-05 -1.530222060131116e-05 1.2224361406140354e-05 3.077859195170934e-06 9.48732782652848e-06 0.0 0.0
0.0 2.505328812068445e-06 2.5317746015048106e-07 -2.004950959519918e-07 -5.2682364198484455e-08 -2.703398457904753e-07 0.0 0.0
0.0 0.0 0.0 0.0 0.0 0.0 0.0 0.0
0.0 0.0 0.0 0.0 0.0 0.0 0.0 0.0
0.0 0.0 0.0 0.0 0.0 0.0 0.0 0.0
0.0 0.0 0.0 0.0 0.0 0.0 0.0 0.0
0.0 0.0 0.0 0.0 0.0 0.0 0.0 0.0
0.0 0.0 0.0 0.0 0.0 0.0 0.0 0.0
0.0 7.217443276911551e-06 8.68179010796905e-07 -6.71359549835835e-07 -1.9681946096104174e-07 5.384504577851146e-07 0.0 0.0
0.0 0.00021569070425568748 -7.359819477504792e-05 5.867934825003985e-05 1.4918846525008266e-05 -2.7969973950651515e-05 0.0 0.0
0.0 0.0009246185648416162 -0.0008575752787003436 0.0006896836275421649 0.00016789165115817868 -0.00021159686568496765 0.0 0.0
0.0 0.0023710084594320063 -0.00217652117223845 0.0018189397854523205 0.0003575813867861294 -0.00042990465699810533 0.0 0.0
0.0 0.004361955358925924 -0.003965036841315038 0.003434355270514908 0.0005306815708001305 -0.0006933382149444474 0.0 0.0
0.0 0.006931394647554088 -0.006229912396032821 0.005553566525160711 0.0006763458708721092 -0.0009991245980519004 0.0 0.0
0.0 0.010128852332329208 -0.009025009998278283 0.008226253554653257 0.0007987564436250278 -0.0013445980737055742 0.0 0.0
0.0 0.0141206568796547 -0.012484580114037329 0.01157930981493179 0.0009052702991055408 -0.0017148966311555259 0.0 0.0
0.0 0.019221438133134303 -0.01684413499840826 0.0158417224642979 0.0010024125341103567 -0.0021213615436819584 0.0 0.0
0.0 0.02547673501113177 -0.02240043713653559 0.021305083193652957 0.0010953539428826325 -0.0026508924554791468 0.0 0.0
0.0 0.033437932312606465 -0.02937385562728427 0.028185161137499127 0.0011886944897851425 -0.00333716587731117 0.0 0.0
0.0 0.043127955081286626 -0.03778884719711338 0.03650305157203692 0.0012857956250764751 -0.004102645460892688 0.0 0.0
0.0 0.05410072218564234 -0.047328665796035306 0.0459411613174271 0.001387504478608205 -0.004709343067578797 0.0 0.0
0.0 0.0654444696597402 -0.05720461854573998 0.05570916321277431 0.0014954553329656923 -0.0047928980804180545 0.0 0.0
0.0 0.07550133787208309 -0.06594215866467593 0.06431664165270012 0.0016255170119758365 -0.0052991766400818435 0.0 0.0
0.0 0.08040164189581617 -0.06996265547721052 0.06804288953415541 0.0019197659430550615 -0.011868660088787845 0.0 0.0
0.0 0.07170238918658153 -0.060948121854285345 0.05871261196819218 0.0022355098860931616 -0.02875157104792102 0.0 0.0
0.0 0.07170238918657917 -0.06094812185428198 0.05871261196818876 0.0022355098860932007 0.028751571047932342 0.0 0.0
0.0 0.08040164189580574 -0.06996265547720071 0.06804288953414603 0.001919765943054669 0.011868660088802434 0.0 0.0
0.0 0.07550133787206581 -0.06594215866466036 0.06431664165268536 0.0016255170119749702 0.005299176640093096 0.0 0.0
0.0 0.06544446965971984 -0.05720461854572174 0.05570916321275717 0.0014954553329645688 0.0047928980804207485 0.0 0.0
0.0 0.054100722185619905 -0.0473286657960154 0.0459411613174082 0.0013875044786072098 0.004709343067579819 0.0 0.0
0.0 0.04312795508126334 -0.03778884719709276 0.03650305157201732 0.0012857956250754553 0.004102645460892521 0.0 0.0
0.0 0.0334379323125818 -0.029373855627262472 0.028185161137478345 0.0011886944897841199 0.0033371658773104144 0.0 0.0
0.0 0.025476735011104538 -0.022400437136511752 0.02130508319362971 0.0010953539428820468 0.0026508924554767537 0.0 0.0
0.0 0.01922143813310643 -0.01684413499838359 0.0158417224642737 0.0010024125341098833 0.002121361543680623 0.0 0.0
0.0 0.014120656879630558 -0.012484580114015759 0.011579309814911233 0.0009052702991045211 0.0017148966311520755 0.0 0.0
0.0 0.01012885233230806 -0.009025009998259148 0.008226253554635118 0.0007987564436240293 0.0013445980737019662 0.0 0.0
0.0 0.006931394647538265 -0.006229912396017855 0.005553566525146743 0.0006763458708711108 0.0009991245980497897 0.0 0.0
0.0 0.004361955358913148 -0.003965036841302828 0.0034343552705038316 0.0005306815707989964 0.0006933382149425314 0.0 0.0
0.0 0.0023710084594228235 -0.0021765211722293643 0.0018189397854444355 0.00035758138678492824 0.0004299046569962244 0.0 0.0
0.0 0.0009246185648367376 -0.0008575752786955913 0.0006896836275382928 0.00016789165115729834 0.0002115968656838325 0.0 0.0
0.0 0.00021569070425308853 -7.359819477367977e-05 5.86793482489512e-05 1.4918846524728411e-05 2.7969973950192003e-05 0.0 0.0
0.0 7.217443276285659e-06 8.681790107182434e-07 -6.713595497753641e-07 -1.9681946094292053e-07 -5.384504577394223e-07 0.0 0.0
0.0 0.0 0.0 0.0 0.0 0.0 0.0 0.0
0.0 0.0 0.0 0.0 0.0 0.0 0.0 0.0
0.0 0.0 0.0 0.0 0.0 0.0 0.0 0.0
0.0 0.0 0.0 0.0 0.0 0.0 0.0 0.0
0.0 0.0 0.0 0.0 0.0 0.0 0.0 0.0
0.0 0.0 0.0 0.0 0.0 0.0 0.0 0.0
0.0 1.3220964968873506e-05 1.7909406834492612e-06 -1.3770654118147467e-06 -4.138752716343679e-07 4.5825818987221563e-07 0.0 0.0
0.0 0.0004538915664734158 -0.00021232271478925885 0.0001686050272561187 4.371768753314008e-05 -3.242419263171536e-05 0.0 0.0
0.0 0.0013465236276997794 -0.0012500630680366495 0.0010157030040408137 0.00023436006399583578 -0.00010705225707168118 0.0 0.0
0.0 0.0029992019474505524 -0.0027621761175782734 0.002340095162916181 0.00042208095466209083 -0.00019396100357998484 0.0 0.0
0.0 0.005242301474089819 -0.004756015710467623 0.004168791144381548 0.0005872245660860742 -0.00029698381732990917 0.0 0.0
0.0 0.008126710053157401 -0.007288510644815915 0.0065623183329954395 0.0007261923118204739 -0.00042643281287016693 0.0 0.0
0.0 0.011748070064774218 -0.010428712417651479 0.00958288709681659 0.0008458253208348872 -0.0005800631619684495 0.0 0.0
0.0 0.016316822252595526 -0.014340765724185668 0.01338812891958309 0.0009526368046025699 -0.0007396763609447724 0.0 0.0
0.0 0.021857261501911147 -0.0192960521888497 0.01824208320177705 0.0010539689870726573 -0.0009366483246492 0.0 0.0
0.0 0.02899455291629117 -0.025570559948079993 0.024417450559374793 0.0011531093887051855 -0.0011840574709645105 0.0 0.0
0.0 0.037970586161977404 -0.03337728561925918 0.032122710058857154 0.0012545755604020103 -0.0014791698871606 0.0 0.0
0.0 0.04869251900074801 -0.04269526824468945 0.04133282791404602 0.0013624403306434331 -0.0017959267903770305 0.0 0.0
0.0 0.06064475901497055 -0.053055890626862987 0.05157937277747777 0.0014765178493852337 -0.001976907385751722 0.0 0.0
0.0 0.07263959980655892 -0.06345548710562837 0.06186477448642143 0.001590712619206909 -0.0017514664647792632 0.0 0.0
0.0 0.08298036567871016 -0.07245469606155808 0.07075862311981561 0.0016960729417424191 -0.0008637463846753531 0.0 0.0
0.0 0.08951605869743828 -0.0780593181739381 0.07623072517795777 0.0018285929959802848 -0.0029520200526198903 0.0 0.0
0.0 0.08442201578630323 -0.07235277663975892 0.06977134777433887 0.0025814288654200383 -0.026849611428442655 0.0 0.0
0.0 0.08442201578630018 -0.07235277663975573 0.06977134777433576 0.002581428865419949 0.026849611428447485 0.0 0.0
0.0 0.08951605869742688 -0.07805931817392789 0.07623072517794821 0.0018285929959796646 0.0029520200526263005 0.0 0.0
0.0 0.08298036567869088 -0.07245469606154094 0.07075862311979943 0.0016960729417414863 0.000863746384680969 0.0 0.0
0.0 0.07263959980653371 -0.06345548710560622 0.06186477448639997 0.0015907126192062464 0.0017514664647792948 0.0 0.0
0.0 0.06064475901494315 -0.053055890626838915 0.051579372777454245 0.0014765178493846782 0.0019769073857519716 0.0 0.0
0.0 0.0486925190007195 -0.042695268244664554 0.041332827914021666 0.0013624403306428865 0.0017959267903759368 0.0 0.0
0.0 0.037970586161948684 -0.033377285619233976 0.03212271005883274 0.0012545755604012451 0.0014791698871612666 0.0 0.0
0.0 0.028994552916262115 -0.025570559948054388 0.024417450559350202 0.0011531093887041717 0.001184057470962906 0.0 0.0
0.0 0.021857261501881317 -0.01929605218882344 0.01824208320175162 0.0010539689870718081 0.0009366483246494187 0.0 0.0
0.0 0.016316822252568988 -0.014340765724162128 0.013388128919560392 0.0009526368046017301 0.0007396763609423894 0.0 0.0
0.0 0.011748070064751391 -0.01042871241763135 0.009582887096797341 0.0008458253208340103 0.0005800631619670175 0.0 0.0
0.0 0.008126710053138652 -0.007288510644798745 0.0065623183329791635 0.000726192311819582 0.0004264328128695767 0.0 0.0
0.0 0.005242301474074568 -0.004756015710453137 0.004168791144368037 0.0005872245660851003 0.0002969838173291021 0.0 0.0
0.0 0.0029992019474391835 -0.002762176117567352 0.0023400951629062943 0.00042208095466105726 0.0001939610035792774 0.0 0.0
0.0 0.0013465236276933399 -0.0012500630680300458 0.0010157030040352016 0.00023436006399484396 0.00010705225707101273 0.0 0.0
0.0 0.0004538915664700989 -0.00021232271478725725 0.00016860502725450475 4.371768753275287e-05 3.242419263141402e-05 0.0 0.0
0.0 1.3220964968205055e-05 1.790940683362012e-06 -1.377065411748653e-06 -4.1387527161337006e-07 -4.582581898558443e-07 0.0 0.0
0.0 0.0 0.0 0.0 0.0 0.0 0.0 0.0
0.0 0.0 0.0 0.0 0.0 0.0 0.0 0.0
0.0 0.0 0.0 0.0 0.0 0.0 0.0 0.0