# vtk DataFile Version 3.0
Some data
ASCII
DATASET UNSTRUCTURED_GRID
POINTS 861 float
0.0 0.0 0.0
0.4 0.0 0.0
0.8 0.0 0.0
1.2000000000000002 0.0 0.0
1.6 0.0 0.0
2.0 0.0 0.0
2.4000000000000004 0.0 0.0
2.8000000000000003 0.0 0.0
3.2 0.0 0.0
3.6 0.0 0.0
4.0 0.0 0.0
4.4 0.0 0.0
4.800000000000001 0.0 0.0
5.2 0.0 0.0
5.6000000000000005 0.0 0.0
6.0 0.0 0.0
6.4 0.0 0.0
6.800000000000001 0.0 0.0
7.2 0.0 0.0
7.6000000000000005 0.0 0.0
8.0 0.0 0.0
8.4 0.0 0.0
8.8 0.0 0.0
9.200000000000001 0.0 0.0
9.600000000000001 0.0 0.0
10.0 0.0 0.0
10.4 0.0 0.0
10.8 0.0 0.0
11.200000000000001 0.0 0.0
11.600000000000001 0.0 0.0
12.0 0.0 0.0
12.4 0.0 0.0
12.8 0.0 0.0
13.200000000000001 0.0 0.0
13.600000000000001 0.0 0.0
14.0 0.0 0.0
14.4 0.0 0.0
14.8 0.0 0.0
15.200000000000001 0.0 0.0
15.600000000000001 0.0 0.0
16.0 0.0 0.0
0.0 0.1 0.0
0.4 0.1 0.0
0.8 0.1 0.0
1.2000000000000002 0.1 0.0
1.6 0.1 0.0
2.0 0.1 0.0
2.4000000000000004 0.1 0.0
2.8000000000000003 0.1 0.0
3.2 0.1 0.0
3.6 0.1 0.0
4.0 0.1 0.0
4.4 0.1 0.0
4.800000000000001 0.1 0.0
5.2 0.1 0.0
5.6000000000000005 0.1 0.0
6.0 0.1 0.0
6.4 0.1 0.0
6.800000000000001 0.1 0.0
7.2 0.1 0.0
7.6000000000000005 0.1 0.0
8.0 0.1 0.0
8.4 0.1 0.0
8.8 0.1 0.0
9.200000000000001 0.1 0.0
9.600000000000001 0.1 0.0
10.0 0.1 0.0
10.4 0.1 0.0
10.8 0.1 0.0
11.200000000000001 0.1 0.0
11.600000000000001 0.1 0.0
12.0 0.1 0.0
12.4 0.1 0.0
12.8 0.1 0.0
13.200000000000001 0.1 0.0
13.600000000000001 0.1 0.0
14.0 0.1 0.0
14.4 0.1 0.0
14.8 0.1 0.0
15.200000000000001 0.1 0.0
15.600000000000001 0.1 0.0
16.0 0.1 0.0
0.0 0.2 0.0
0.4 0.2 0.0
0.8 0.2 0.0
1.2000000000000002 0.2 0.0
1.6 0.2 0.0
2.0 0.2 0.0
2.4000000000000004 0.2 0.0
2.8000000000000003 0.2 0.0
3.2 0.2 0.0
3.6 0.2 0.0
4.0 0.2 0.0
4.4 0.2 0.0
4.800000000000001 0.2 0.0
5.2 0.2 0.0
5.6000000000000005 0.2 0.0
6.0 0.2 0.0
6.4 0.2 0.0
6.800000000000001 0.2 0.0
7.2 0.2 0.0
7.6000000000000005 0.2 0.0
8.0 0.2 0.0
8.4 0.2 0.0
8.8 0.2 0.0
9.200000000000001 0.2 0.0
9.600000000000001 0.2 0.0
10.0 0.2 0.0
10.4 0.2 0.0
10.8 0.2 0.0
11.200000000000001 0.2 0.0
11.600000000000001 0.2 0.0
12.0 0.2 0.0
12.4 0.2 0.0
12.8 0.2 0.0
13.200000000000001 0.2 0.0
13.600000000000001 0.2 0.0
14.0 0.2 0.0
14.4 0.2 0.0
14.8 0.2 0.0
15.200000000000001 0.2 0.0
15.600000000000001 0.2 0.0
16.0 0.2 0.0
0.0 0.30000000000000004 0.0
0.4 0.30000000000000004 0.0
0.8 0.30000000000000004 0.0
1.2000000000000002 0.30000000000000004 0.0
1.6 0.30000000000000004 0.0
2.0 0.30000000000000004 0.0
2.4000000000000004 0.30000000000000004 0.0
2.8000000000000003 0.30000000000000004 0.0
3.2 0.30000000000000004 0.0
3.6 0.30000000000000004 0.0
4.0 0.30000000000000004 0.0
4.4 0.30000000000000004 0.0
4.800000000000001 0.30000000000000004 0.0
5.2 0.30000000000000004 0.0
5.6000000000000005 0.30000000000000004 0.0
6.0 0.30000000000000004 0.0
6.4 0.30000000000000004 0.0
6.800000000000001 0.30000000000000004 0.0
7.2 0.30000000000000004 0.0
7.6000000000000005 0.30000000000000004 0.0
8.0 0.30000000000000004 0.0
8.4 0.30000000000000004 0.0
8.8 0.30000000000000004 0.0
9.200000000000001 0.30000000000000004 0.0
9.600000000000001 0.30000000000000004 0.0
10.0 0.30000000000000004 0.0
10.4 0.30000000000000004 0.0
10.8 0.30000000000000004 0.0
11.200000000000001 0.30000000000000004 0.0
11.600000000000001 0.30000000000000004 0.0
12.0 0.30000000000000004 0.0
12.4 0.30000000000000004 0.0
12.8 0.30000000000000004 0.0
13.200000000000001 0.30000000000000004 0.0
13.600000000000001 0.30000000000000004 0.0
14.0 0.30000000000000004 0.0
14.4 0.30000000000000004 0.0
14.8 0.30000000000000004 0.0
15.200000000000001 0.30000000000000004 0.0
15.600000000000001 0.30000000000000004 0.0
16.0 0.30000000000000004 0.0
0.0 0.4 0.0
0.4 0.4 0.0
0.8 0.4 0.0
1.2000000000000002 0.4 0.0
1.6 0.4 0.0
2.0 0.4 0.0
2.4000000000000004 0.4 0.0
2.8000000000000003 0.4 0.0
3.2 0.4 0.0
3.6 0.4 0.0
4.0 0.4 0.0
4.4 0.4 0.0
4.800000000000001 0.4 0.0
5.2 0.4 0.0
5.6000000000000005 0.4 0.0
6.0 0.4 0.0
6.4 0.4 0.0
6.800000000000001 0.4 0.0
7.2 0.4 0.0
7.6000000000000005 0.4 0.0
8.0 0.4 0.0
8.4 0.4 0.0
8.8 0.4 0.0
9.200000000000001 0.4 0.0
9.600000000000001 0.4 0.0
10.0 0.4 0.0
10.4 0.4 0.0
10.8 0.4 0.0
11.200000000000001 0.4 0.0
11.600000000000001 0.4 0.0
12.0 0.4 0.0
12.4 0.4 0.0
12.8 0.4 0.0
13.200000000000001 0.4 0.0
13.600000000000001 0.4 0.0
14.0 0.4 0.0
14.4 0.4 0.0
14.8 0.4 0.0
15.200000000000001 0.4 0.0
15.600000000000001 0.4 0.0
16.0 0.4 0.0
0.0 0.5 0.0
0.4 0.5 0.0
0.8 0.5 0.0
1.2000000000000002 0.5 0.0
1.6 0.5 0.0
2.0 0.5 0.0
2.4000000000000004 0.5 0.0
2.8000000000000003 0.5 0.0
3.2 0.5 0.0
3.6 0.5 0.0
4.0 0.5 0.0
4.4 0.5 0.0
4.800000000000001 0.5 0.0
5.2 0.5 0.0
5.6000000000000005 0.5 0.0
6.0 0.5 0.0
6.4 0.5 0.0
6.800000000000001 0.5 0.0
7.2 0.5 0.0
7.6000000000000005 0.5 0.0
8.0 0.5 0.0
8.4 0.5 0.0
8.8 0.5 0.0
9.200000000000001 0.5 0.0
9.600000000000001 0.5 0.0
10.0 0.5 0.0
10.4 0.5 0.0
10.8 0.5 0.0
11.200000000000001 0.5 0.0
11.600000000000001 0.5 0.0
12.0 0.5 0.0
12.4 0.5 0.0
12.8 0.5 0.0
13.200000000000001 0.5 0.0
13.600000000000001 0.5 0.0
14.0 0.5 0.0
14.4 0.5 0.0
14.8 0.5 0.0
15.200000000000001 0.5 0.0
15.600000000000001 0.5 0.0
16.0 0.5 0.0
0.0 0.6000000000000001 0.0
0.4 0.6000000000000001 0.0
0.8 0.6000000000000001 0.0
1.2000000000000002 0.6000000000000001 0.0
1.6 0.6000000000000001 0.0
2.0 0.6000000000000001 0.0
2.4000000000000004 0.6000000000000001 0.0
2.8000000000000003 0.6000000000000001 0.0
3.2 0.6000000000000001 0.0
3.6 0.6000000000000001 0.0
4.0 0.6000000000000001 0.0
4.4 0.6000000000000001 0.0
4.800000000000001 0.6000000000000001 0.0
5.2 0.6000000000000001 0.0
5.6000000000000005 0.6000000000000001 0.0
6.0 0.6000000000000001 0.0
6.4 0.6000000000000001 0.0
6.800000000000001 0.6000000000000001 0.0
7.2 0.6000000000000001 0.0
7.6000000000000005 0.6000000000000001 0.0
8.0 0.6000000000000001 0.0
8.4 0.6000000000000001 0.0
8.8 0.6000000000000001 0.0
9.200000000000001 0.6000000000000001 0.0
9.600000000000001 0.6000000000000001 0.0
10.0 0.6000000000000001 0.0
10.4 0.6000000000000001 0.0
10.8 0.6000000000000001 0.0
11.200000000000001 0.6000000000000001 0.0
11.600000000000001 0.6000000000000001 0.0
12.0 0.6000000000000001 0.0
12.4 0.6000000000000001 0.0
12.8 0.6000000000000001 0.0
13.200000000000001 0.6000000000000001 0.0
13.600000000000001 0.6000000000000001 0.0
14.0 0.6000000000000001 0.0
14.4 0.6000000000000001 0.0
14.8 0.6000000000000001 0.0
15.200000000000001 0.6000000000000001 0.0
15.600000000000001 0.6000000000000001 0.0
16.0 0.6000000000000001 0.0
0.0 0.7000000000000001 0.0
0.4 0.7000000000000001 0.0
0.8 0.7000000000000001 0.0
1.2000000000000002 0.7000000000000001 0.0
1.6 0.7000000000000001 0.0
2.0 0.7000000000000001 0.0
2.4000000000000004 0.7000000000000001 0.0
2.8000000000000003 0.7000000000000001 0.0
3.2 0.7000000000000001 0.0
3.6 0.7000000000000001 0.0
4.0 0.7000000000000001 0.0
4.4 0.7000000000000001 0.0
4.800000000000001 0.7000000000000001 0.0
5.2 0.7000000000000001 0.0
5.6000000000000005 0.7000000000000001 0.0
6.0 0.7000000000000001 0.0
6.4 0.7000000000000001 0.0
6.800000000000001 0.7000000000000001 0.0
7.2 0.7000000000000001 0.0
7.6000000000000005 0.7000000000000001 0.0
8.0 0.7000000000000001 0.0
8.4 0.7000000000000001 0.0
8.8 0.7000000000000001 0.0
9.200000000000001 0.7000000000000001 0.0
9.600000000000001 0.7000000000000001 0.0
10.0 0.7000000000000001 0.0
10.4 0.7000000000000001 0.0
10.8 0.7000000000000001 0.0
11.200000000000001 0.7000000000000001 0.0
11.600000000000001 0.7000000000000001 0.0
12.0 0.7000000000000001 0.0
12.4 0.7000000000000001 0.0
12.8 0.7000000000000001 0.0
13.200000000000001 0.7000000000000001 0.0
13.600000000000001 0.7000000000000001 0.0
14.0 0.7000000000000001 0.0
14.4 0.7000000000000001 0.0
14.8 0.7000000000000001 0.0
15.200000000000001 0.7000000000000001 0.0
15.600000000000001 0.7000000000000001 0.0
16.0 0.7000000000000001 0.0
0.0 0.8 0.0
0.4 0.8 0.0
0.8 0.8 0.0
1.2000000000000002 0.8 0.0
1.6 0.8 0.0
2.0 0.8 0.0
2.4000000000000004 0.8 0.0
2.8000000000000003 0.8 0.0
3.2 0.8 0.0
3.6 0.8 0.0
4.0 0.8 0.0
4.4 0.8 0.0
4.800000000000001 0.8 0.0
5.2 0.8 0.0
5.6000000000000005 0.8 0.0
6.0 0.8 0.0
6.4 0.8 0.0
6.800000000000001 0.8 0.0
7.2 0.8 0.0
7.6000000000000005 0.8 0.0
8.0 0.8 0.0
8.4 0.8 0.0
8.8 0.8 0.0
9.200000000000001 0.8 0.0
9.600000000000001 0.8 0.0
10.0 0.8 0.0
10.4 0.8 0.0
10.8 0.8 0.0
11.200000000000001 0.8 0.0
11.600000000000001 0.8 0.0
12.0 0.8 0.0
12.4 0.8 0.0
12.8 0.8 0.0
13.200000000000001 0.8 0.0
13.600000000000001 0.8 0.0
14.0 0.8 0.0
14.4 0.8 0.0
14.8 0.8 0.0
15.200000000000001 0.8 0.0
15.600000000000001 0.8 0.0
16.0 0.8 0.0
0.0 0.9 0.0
0.4 0.9 0.0
0.8 0.9 0.0
1.2000000000000002 0.9 0.0
1.6 0.9 0.0
2.0 0.9 0.0
2.4000000000000004 0.9 0.0
2.8000000000000003 0.9 0.0
3.2 0.9 0.0
3.6 0.9 0.0
4.0 0.9 0.0
4.4 0.9 0.0
4.800000000000001 0.9 0.0
5.2 0.9 0.0
5.6000000000000005 0.9 0.0
6.0 0.9 0.0
6.4 0.9 0.0
6.800000000000001 0.9 0.0
7.2 0.9 0.0
7.6000000000000005 0.9 0.0
8.0 0.9 0.0
8.4 0.9 0.0
8.8 0.9 0.0
9.200000000000001 0.9 0.0
9.600000000000001 0.9 0.0
10.0 0.9 0.0
10.4 0.9 0.0
10.8 0.9 0.0
11.200000000000001 0.9 0.0
11.600000000000001 0.9 0.0
12.0 0.9 0.0
12.4 0.9 0.0
12.8 0.9 0.0
13.200000000000001 0.9 0.0
13.600000000000001 0.9 0.0
14.0 0.9 0.0
14.4 0.9 0.0
14.8 0.9 0.0
15.200000000000001 0.9 0.0
15.600000000000001 0.9 0.0
16.0 0.9 0.0
0.0 1.0 0.0
0.4 1.0 0.0
0.8 1.0 0.0
1.2000000000000002 1.0 0.0
1.6 1.0 0.0
2.0 1.0 0.0
2.4000000000000004 1.0 0.0
2.8000000000000003 1.0 0.0
3.2 1.0 0.0
3.6 1.0 0.0
4.0 1.0 0.0
4.4 1.0 0.0
4.800000000000001 1.0 0.0
5.2 1.0 0.0
5.6000000000000005 1.0 0.0
6.0 1.0 0.0
6.4 1.0 0.0
6.800000000000001 1.0 0.0
7.2 1.0 0.0
7.6000000000000005 1.0 0.0
8.0 1.0 0.0
8.4 1.0 0.0
8.8 1.0 0.0
9.200000000000001 1.0 0.0
9.600000000000001 1.0 0.0
10.0 1.0 0.0
10.4 1.0 0.0
10.8 1.0 0.0
11.200000000000001 1.0 0.0
11.600000000000001 1.0 0.0
12.0 1.0 0.0
12.4 1.0 0.0
12.8 1.0 0.0
13.200000000000001 1.0 0.0
13.600000000000001 1.0 0.0
14.0 1.0 0.0
14.4 1.0 0.0
14.8 1.0 0.0
15.200000000000001 1.0 0.0
15.600000000000001 1.0 0.0
16.0 1.0 0.0
0.0 1.1 0.0
0.4 1.1 0.0
0.8 1.1 0.0
1.2000000000000002 1.1 0.0
1.6 1.1 0.0
2.0 1.1 0.0
2.4000000000000004 1.1 0.0
2.8000000000000003 1.1 0.0
3.2 1.1 0.0
3.6 1.1 0.0
4.0 1.1 0.0
4.4 1.1 0.0
4.800000000000001 1.1 0.0
5.2 1.1 0.0
5.6000000000000005 1.1 0.0
6.0 1.1 0.0
6.4 1.1 0.0
6.800000000000001 1.1 0.0
7.2 1.1 0.0
7.6000000000000005 1.1 0.0
8.0 1.1 0.0
8.4 1.1 0.0
8.8 1.1 0.0
9.200000000000001 1.1 0.0
9.600000000000001 1.1 0.0
10.0 1.1 0.0
10.4 1.1 0.0
10.8 1.1 0.0
11.200000000000001 1.1 0.0
11.600000000000001 1.1 0.0
12.0 1.1 0.0
12.4 1.1 0.0
12.8 1.1 0.0
13.200000000000001 1.1 0.0
13.600000000000001 1.1 0.0
14.0 1.1 0.0
14.4 1.1 0.0
14.8 1.1 0.0
15.200000000000001 1.1 0.0
15.600000000000001 1.1 0.0
16.0 1.1 0.0
0.0 1.2000000000000002 0.0
0.4 1.2000000000000002 0.0
0.8 1.2000000000000002 0.0
1.2000000000000002 1.2000000000000002 0.0
1.6 1.2000000000000002 0.0
2.0 1.2000000000000002 0.0
2.4000000000000004 1.2000000000000002 0.0
2.8000000000000003 1.2000000000000002 0.0
3.2 1.2000000000000002 0.0
3.6 1.2000000000000002 0.0
4.0 1.2000000000000002 0.0
4.4 1.2000000000000002 0.0
4.800000000000001 1.2000000000000002 0.0
5.2 1.2000000000000002 0.0
5.6000000000000005 1.2000000000000002 0.0
6.0 1.2000000000000002 0.0
6.4 1.2000000000000002 0.0
6.800000000000001 1.2000000000000002 0.0
7.2 1.2000000000000002 0.0
7.6000000000000005 1.2000000000000002 0.0
8.0 1.2000000000000002 0.0
8.4 1.2000000000000002 0.0
8.8 1.2000000000000002 0.0
9.200000000000001 1.2000000000000002 0.0
9.600000000000001 1.2000000000000002 0.0
10.0 1.2000000000000002 0.0
10.4 1.2000000000000002 0.0
10.8 1.2000000000000002 0.0
11.200000000000001 1.2000000000000002 0.0
11.600000000000001 1.2000000000000002 0.0
12.0 1.2000000000000002 0.0
12.4 1.2000000000000002 0.0
12.8 1.2000000000000002 0.0
13.200000000000001 1.2000000000000002 0.0
13.600000000000001 1.2000000000000002 0.0
14.0 1.2000000000000002 0.0
14.4 1.2000000000000002 0.0
14.8 1.2000000000000002 0.0
15.200000000000001 1.2000000000000002 0.0
15.600000000000001 1.2000000000000002 0.0
16.0 1.2000000000000002 0.0
0.0 1.3 0.0
0.4 1.3 0.0
0.8 1.3 0.0
1.2000000000000002 1.3 0.0
1.6 1.3 0.0
2.0 1.3 0.0
2.4000000000000004 1.3 0.0
2.8000000000000003 1.3 0.0
3.2 1.3 0.0
3.6 1.3 0.0
4.0 1.3 0.0
4.4 1.3 0.0
4.800000000000001 1.3 0.0
5.2 1.3 0.0
5.6000000000000005 1.3 0.0
6.0 1.3 0.0
6.4 1.3 0.0
6.800000000000001 1.3 0.0
7.2 1.3 0.0
7.6000000000000005 1.3 0.0
8.0 1.3 0.0
8.4 1.3 0.0
8.8 1.3 0.0
9.200000000000001 1.3 0.0
9.600000000000001 1.3 0.0
10.0 1.3 0.0
10.4 1.3 0.0
10.8 1.3 0.0
11.200000000000001 1.3 0.0
11.600000000000001 1.3 0.0
12.0 1.3 0.0
12.4 1.3 0.0
12.8 1.3 0.0
13.200000000000001 1.3 0.0
13.600000000000001 1.3 0.0
14.0 1.3 0.0
14.4 1.3 0.0
14.8 1.3 0.0
15.200000000000001 1.3 0.0
15.600000000000001 1.3 0.0
16.0 1.3 0.0
0.0 1.4000000000000001 0.0
0.4 1.4000000000000001 0.0
0.8 1.4000000000000001 0.0
1.2000000000000002 1.4000000000000001 0.0
1.6 1.4000000000000001 0.0
2.0 1.4000000000000001 0.0
2.4000000000000004 1.4000000000000001 0.0
2.8000000000000003 1.4000000000000001 0.0
3.2 1.4000000000000001 0.0
3.6 1.4000000000000001 0.0
4.0 1.4000000000000001 0.0
4.4 1.4000000000000001 0.0
4.800000000000001 1.4000000000000001 0.0
5.2 1.4000000000000001 0.0
5.6000000000000005 1.4000000000000001 0.0
6.0 1.4000000000000001 0.0
6.4 1.4000000000000001 0.0
6.800000000000001 1.4000000000000001 0.0
7.2 1.4000000000000001 0.0
7.6000000000000005 1.4000000000000001 0.0
8.0 1.4000000000000001 0.0
8.4 1.4000000000000001 0.0
8.8 1.4000000000000001 0.0
9.200000000000001 1.4000000000000001 0.0
9.600000000000001 1.4000000000000001 0.0
10.0 1.4000000000000001 0.0
10.4 1.4000000000000001 0.0
10.8 1.4000000000000001 0.0
11.200000000000001 1.4000000000000001 0.0
11.600000000000001 1.4000000000000001 0.0
12.0 1.4000000000000001 0.0
12.4 1.4000000000000001 0.0
12.8 1.4000000000000001 0.0
13.200000000000001 1.4000000000000001 0.0
13.600000000000001 1.4000000000000001 0.0
14.0 1.4000000000000001 0.0
14.4 1.4000000000000001 0.0
14.8 1.4000000000000001 0.0
15.200000000000001 1.4000000000000001 0.0
15.600000000000001 1.4000000000000001 0.0
16.0 1.4000000000000001 0.0
0.0 1.5 0.0
0.4 1.5 0.0
0.8 1.5 0.0
1.2000000000000002 1.5 0.0
1.6 1.5 0.0
2.0 1.5 0.0
2.4000000000000004 1.5 0.0
2.8000000000000003 1.5 0.0
3.2 1.5 0.0
3.6 1.5 0.0
4.0 1.5 0.0
4.4 1.5 0.0
4.800000000000001 1.5 0.0
5.2 1.5 0.0
5.6000000000000005 1.5 0.0
6.0 1.5 0.0
6.4 1.5 0.0
6.800000000000001 1.5 0.0
7.2 1.5 0.0
7.6000000000000005 1.5 0.0
8.0 1.5 0.0
8.4 1.5 0.0
8.8 1.5 0.0
9.200000000000001 1.5 0.0
9.600000000000001 1.5 0.0
10.0 1.5 0.0
10.4 1.5 0.0
10.8 1.5 0.0
11.200000000000001 1.5 0.0
11.600000000000001 1.5 0.0
12.0 1.5 0.0
12.4 1.5 0.0
12.8 1.5 0.0
13.200000000000001 1.5 0.0
13.600000000000001 1.5 0.0
14.0 1.5 0.0
14.4 1.5 0.0
14.8 1.5 0.0
15.200000000000001 1.5 0.0
15.600000000000001 1.5 0.0
16.0 1.5 0.0
0.0 1.6 0.0
0.4 1.6 0.0
0.8 1.6 0.0
1.2000000000000002 1.6 0.0
1.6 1.6 0.0
2.0 1.6 0.0
2.4000000000000004 1.6 0.0
2.8000000000000003 1.6 0.0
3.2 1.6 0.0
3.6 1.6 0.0
4.0 1.6 0.0
4.4 1.6 0.0
4.800000000000001 1.6 0.0
5.2 1.6 0.0
5.6000000000000005 1.6 0.0
6.0 1.6 0.0
6.4 1.6 0.0
6.800000000000001 1.6 0.0
7.2 1.6 0.0
7.6000000000000005 1.6 0.0
8.0 1.6 0.0
8.4 1.6 0.0
8.8 1.6 0.0
9.200000000000001 1.6 0.0
9.600000000000001 1.6 0.0
10.0 1.6 0.0
10.4 1.6 0.0
10.8 1.6 0.0
11.200000000000001 1.6 0.0
11.600000000000001 1.6 0.0
12.0 1.6 0.0
12.4 1.6 0.0
12.8 1.6 0.0
13.200000000000001 1.6 0.0
13.600000000000001 1.6 0.0
14.0 1.6 0.0
14.4 1.6 0.0
14.8 1.6 0.0
15.200000000000001 1.6 0.0
15.600000000000001 1.6 0.0
16.0 1.6 0.0
0.0 1.7000000000000002 0.0
0.4 1.7000000000000002 0.0
0.8 1.7000000000000002 0.0
1.2000000000000002 1.7000000000000002 0.0
1.6 1.7000000000000002 0.0
2.0 1.7000000000000002 0.0
2.4000000000000004 1.7000000000000002 0.0
2.8000000000000003 1.7000000000000002 0.0
3.2 1.7000000000000002 0.0
3.6 1.7000000000000002 0.0
4.0 1.7000000000000002 0.0
4.4 1.7000000000000002 0.0
4.800000000000001 1.7000000000000002 0.0
5.2 1.7000000000000002 0.0
5.6000000000000005 1.7000000000000002 0.0
6.0 1.7000000000000002 0.0
6.4 1.7000000000000002 0.0
6.800000000000001 1.7000000000000002 0.0
7.2 1.7000000000000002 0.0
7.6000000000000005 1.7000000000000002 0.0
8.0 1.7000000000000002 0.0
8.4 1.7000000000000002 0.0
8.8 1.7000000000000002 0.0
9.200000000000001 1.7000000000000002 0.0
9.600000000000001 1.7000000000000002 0.0
10.0 1.7000000000000002 0.0
10.4 1.7000000000000002 0.0
10.8 1.7000000000000002 0.0
11.200000000000001 1.7000000000000002 0.0
11.600000000000001 1.7000000000000002 0.0
12.0 1.7000000000000002 0.0
12.4 1.7000000000000002 0.0
12.8 1.7000000000000002 0.0
13.200000000000001 1.7000000000000002 0.0
13.600000000000001 1.7000000000000002 0.0
14.0 1.7000000000000002 0.0
14.4 1.7000000000000002 0.0
14.8 1.7000000000000002 0.0
15.200000000000001 1.7000000000000002 0.0
15.600000000000001 1.7000000000000002 0.0
16.0 1.7000000000000002 0.0
0.0 1.8 0.0
0.4 1.8 0.0
0.8 1.8 0.0
1.2000000000000002 1.8 0.0
1.6 1.8 0.0
2.0 1.8 0.0
2.4000000000000004 1.8 0.0
2.8000000000000003 1.8 0.0
3.2 1.8 0.0
3.6 1.8 0.0
4.0 1.8 0.0
4.4 1.8 0.0
4.800000000000001 1.8 0.0
5.2 1.8 0.0
5.6000000000000005 1.8 0.0
6.0 1.8 0.0
6.4 1.8 0.0
6.800000000000001 1.8 0.0
7.2 1.8 0.0
7.6000000000000005 1.8 0.0
8.0 1.8 0.0
8.4 1.8 0.0
8.8 1.8 0.0
9.200000000000001 1.8 0.0
9.600000000000001 1.8 0.0
10.0 1.8 0.0
10.4 1.8 0.0
10.8 1.8 0.0
11.200000000000001 1.8 0.0
11.600000000000001 1.8 0.0
12.0 1.8 0.0
12.4 1.8 0.0
12.8 1.8 0.0
13.200000000000001 1.8 0.0
13.600000000000001 1.8 0.0
14.0 1.8 0.0
14.4 1.8 0.0
14.8 1.8 0.0
15.200000000000001 1.8 0.0
15.600000000000001 1.8 0.0
16.0 1.8 0.0
0.0 1.9000000000000001 0.0
0.4 1.9000000000000001 0.0
0.8 1.9000000000000001 0.0
1.2000000000000002 1.9000000000000001 0.0
1.6 1.9000000000000001 0.0
2.0 1.9000000000000001 0.0
2.4000000000000004 1.9000000000000001 0.0
2.8000000000000003 1.9000000000000001 0.0
3.2 1.9000000000000001 0.0
3.6 1.9000000000000001 0.0
4.0 1.9000000000000001 0.0
4.4 1.9000000000000001 0.0
4.800000000000001 1.9000000000000001 0.0
5.2 1.9000000000000001 0.0
5.6000000000000005 1.9000000000000001 0.0
6.0 1.9000000000000001 0.0
6.4 1.9000000000000001 0.0
6.800000000000001 1.9000000000000001 0.0
7.2 1.9000000000000001 0.0
7.6000000000000005 1.9000000000000001 0.0
8.0 1.9000000000000001 0.0
8.4 1.9000000000000001 0.0
8.8 1.9000000000000001 0.0
9.200000000000001 1.9000000000000001 0.0
9.600000000000001 1.9000000000000001 0.0
10.0 1.9000000000000001 0.0
10.4 1.9000000000000001 0.0
10.8 1.9000000000000001 0.0
11.200000000000001 1.9000000000000001 0.0
11.600000000000001 1.9000000000000001 0.0
12.0 1.9000000000000001 0.0
12.4 1.9000000000000001 0.0
12.8 1.9000000000000001 0.0
13.200000000000001 1.9000000000000001 0.0
13.600000000000001 1.9000000000000001 0.0
14.0 1.9000000000000001 0.0
14.4 1.9000000000000001 0.0
14.8 1.9000000000000001 0.0
15.200000000000001 1.9000000000000001 0.0
15.600000000000001 1.9000000000000001 0.0
16.0 1.9000000000000001 0.0
0.0 2.0 0.0
0.4 2.0 0.0
0.8 2.0 0.0
1.2000000000000002 2.0 0.0
1.6 2.0 0.0
2.0 2.0 0.0
2.4000000000000004 2.0 0.0
2.8000000000000003 2.0 0.0
3.2 2.0 0.0
3.6 2.0 0.0
4.0 2.0 0.0
4.4 2.0 0.0
4.800000000000001 2.0 0.0
5.2 2.0 0.0
5.6000000000000005 2.0 0.0
6.0 2.0 0.0
6.4 2.0 0.0
6.800000000000001 2.0 0.0
7.2 2.0 0.0
7.6000000000000005 2.0 0.0
8.0 2.0 0.0
8.4 2.0 0.0
8.8 2.0 0.0
9.200000000000001 2.0 0.0
9.600000000000001 2.0 0.0
10.0 2.0 0.0
10.4 2.0 0.0
10.8 2.0 0.0
11.200000000000001 2.0 0.0
11.600000000000001 2.0 0.0
12.0 2.0 0.0
12.4 2.0 0.0
12.8 2.0 0.0
13.200000000000001 2.0 0.0
13.600000000000001 2.0 0.0
14.0 2.0 0.0
14.4 2.0 0.0
14.8 2.0 0.0
15.200000000000001 2.0 0.0
15.600000000000001 2.0 0.0
16.0 2.0 0.0
CELLS 800 4000
4 0 1 42 41
4 1 2 43 42
4 2 3 44 43
4 3 4 45 44
4 4 5 46 45
4 5 6 47 46
4 6 7 48 47
4 7 8 49 48
4 8 9 50 49
4 9 10 51 50
4 10 11 52 51
4 11 12 53 52
4 12 13 54 53
4 13 14 55 54
4 14 15 56 55
4 15 16 57 56
4 16 17 58 57
4 17 18 59 58
4 18 19 60 59
4 19 20 61 60
4 20 21 62 61
4 21 22 63 62
4 22 23 64 63
4 23 24 65 64
4 24 25 66 65
4 25 26 67 66
4 26 27 68 67
4 27 28 69 68
4 28 29 70 69
4 29 30 71 70
4 30 31 72 71
4 31 32 73 72
4 32 33 74 73
4 33 34 75 74
4 34 35 76 75
4 35 36 77 76
4 36 37 78 77
4 37 38 79 78
4 38 39 80 79
4 39 40 81 80
4 41 42 83 82
4 42 43 84 83
4 43 44 85 84
4 44 45 86 85
4 45 46 87 86
4 46 47 88 87
4 47 48 89 88
4 48 49 90 89
4 49 50 91 90
4 50 51 92 91
4 51 52 93 92
4 52 53 94 93
4 53 54 95 94
4 54 55 96 95
4 55 56 97 96
4 56 57 98 97
4 57 58 99 98
4 58 59 100 99
4 59 60 101 100
4 60 61 102 101
4 61 62 103 102
4 62 63 104 103
4 63 64 105 104
4 64 65 106 105
4 65 66 107 106
4 66 67 108 107
4 67 68 109 108
4 68 69 110 109
4 69 70 111 110
4 70 71 112 111
4 71 72 113 112
4 72 73 114 113
4 73 74 115 114
4 74 75 116 115
4 75 76 117 116
4 76 77 118 117
4 77 78 119 118
4 78 79 120 119
4 79 80 121 120
4 80 81 122 121
4 82 83 124 123
4 83 84 125 124
4 84 85 126 125
4 85 86 127 126
4 86 87 128 127
4 87 88 129 128
4 88 89 130 129
4 89 90 131 130
4 90 91 132 131
4 91 92 133 132
4 92 93 134 133
4 93 94 135 134
4 94 95 136 135
4 95 96 137 136
4 96 97 138 137
4 97 98 139 138
4 98 99 140 139
4 99 100 141 140
4 100 101 142 141
4 101 102 143 142
4 102 103 144 143
4 103 104 145 144
4 104 105 146 145
4 105 106 147 146
4 106 107 148 147
4 107 108 149 148
4 108 109 150 149
4 109 110 151 150
4 110 111 152 151
4 111 112 153 152
4 112 113 154 153
4 113 114 155 154
4 114 115 156 155
4 115 116 157 156
4 116 117 158 157
4 117 118 159 158
4 118 119 160 159
4 119 120 161 160
4 120 121 162 161
4 121 122 163 162
4 123 124 165 164
4 124 125 166 165
4 125 126 167 166
4 126 127 168 167
4 127 128 169 168
4 128 129 170 169
4 129 130 171 170
4 130 131 172 171
4 131 132 173 172
4 132 133 174 173
4 133 134 175 174
4 134 135 176 175
4 135 136 177 176
4 136 137 178 177
4 137 138 179 178
4 138 139 180 179
4 139 140 181 180
4 140 141 182 181
4 141 142 183 182
4 142 143 184 183
4 143 144 185 184
4 144 145 186 185
4 145 146 187 186
4 146 147 188 187
4 147 148 189 188
4 148 149 190 189
4 149 150 191 190
4 150 151 192 191
4 151 152 193 192
4 152 153 194 193
4 153 154 195 194
4 154 155 196 195
4 155 156 197 196
4 156 157 198 197
4 157 158 199 198
4 158 159 200 199
4 159 160 201 200
4 160 161 202 201
4 161 162 203 202
4 162 163 204 203
4 164 165 206 205
4 165 166 207 206
4 166 167 208 207
4 167 168 209 208
4 168 169 210 209
4 169 170 211 210
4 170 171 212 211
4 171 172 213 212
4 172 173 214 213
4 173 174 215 214
4 174 175 216 215
4 175 176 217 216
4 176 177 218 217
4 177 178 219 218
4 178 179 220 219
4 179 180 221 220
4 180 181 222 221
4 181 182 223 222
4 182 183 224 223
4 183 184 225 224
4 184 185 226 225
4 185 186 227 226
4 186 187 228 227
4 187 188 229 228
4 188 189 230 229
4 189 190 231 230
4 190 191 232 231
4 191 192 233 232
4 192 193 234 233
4 193 194 235 234
4 194 195 236 235
4 195 196 237 236
4 196 197 238 237
4 197 198 239 238
4 198 199 240 239
4 199 200 241 240
4 200 201 242 241
4 201 202 243 242
4 202 203 244 243
4 203 204 245 244
4 205 206 247 246
4 206 207 248 247
4 207 208 249 248
4 208 209 250 249
4 209 210 251 250
4 210 211 252 251
4 211 212 253 252
4 212 213 254 253
4 213 214 255 254
4 214 215 256 255
4 215 216 257 256
4 216 217 258 257
4 217 218 259 258
4 218 219 260 259
4 219 220 261 260
4 220 221 262 261
4 221 222 263 262
4 222 223 264 263
4 223 224 265 264
4 224 225 266 265
4 225 226 267 266
4 226 227 268 267
4 227 228 269 268
4 228 229 270 269
4 229 230 271 270
4 230 231 272 271
4 231 232 273 272
4 232 233 274 273
4 233 234 275 274
4 234 235 276 275
4 235 236 277 276
4 236 237 278 277
4 237 238 279 278
4 238 239 280 279
4 239 240 281 280
4 240 241 282 281
4 241 242 283 282
4 242 243 284 283
4 243 244 285 284
4 244 245 286 285
4 246 247 288 287
4 247 248 289 288
4 248 249 290 289
4 249 250 291 290
4 250 251 292 291
4 251 252 293 292
4 252 253 294 293
4 253 254 295 294
4 254 255 296 295
4 255 256 297 296
4 256 257 298 297
4 257 258 299 298
4 258 259 300 299
4 259 260 301 300
4 260 261 302 301
4 261 262 303 302
4 262 263 304 303
4 263 264 305 304
4 264 265 306 305
4 265 266 307 306
4 266 267 308 307
4 267 268 309 308
4 268 269 310 309
4 269 270 311 310
4 270 271 312 311
4 271 272 313 312
4 272 273 314 313
4 273 274 315 314
4 274 275 316 315
4 275 276 317 316
4 276 277 318 317
4 277 278 319 318
4 278 279 320 319
4 279 280 321 320
4 280 281 322 321
4 281 282 323 322
4 282 283 324 323
4 283 284 325 324
4 284 285 326 325
4 285 286 327 326
4 287 288 329 328
4 288 289 330 329
4 289 290 331 330
4 290 291 332 331
4 291 292 333 332
4 292 293 334 333
4 293 294 335 334
4 294 295 336 335
4 295 296 337 336
4 296 297 338 337
4 297 298 339 338
4 298 299 340 339
4 299 300 341 340
4 300 301 342 341
4 301 302 343 342
4 302 303 344 343
4 303 304 345 344
4 304 305 346 345
4 305 306 347 346
4 306 307 348 347
4 307 308 349 348
4 308 309 350 349
4 309 310 351 350
4 310 311 352 351
4 311 312 353 352
4 312 313 354 353
4 313 314 355 354
4 314 315 356 355
4 315 316 357 356
4 316 317 358 357
4 317 318 359 358
4 318 319 360 359
4 319 320 361 360
4 320 321 362 361
4 321 322 363 362
4 322 323 364 363
4 323 324 365 364
4 324 325 366 365
4 325 326 367 366
4 326 327 368 367
4 328 329 370 369
4 329 330 371 370
4 330 331 372 371
4 331 332 373 372
4 332 333 374 373
4 333 334 375 374
4 334 335 376 375
4 335 336 377 376
4 336 337 378 377
4 337 338 379 378
4 338 339 380 379
4 339 340 381 380
4 340 341 382 381
4 341 342 383 382
4 342 343 384 383
4 343 344 385 384
4 344 345 386 385
4 345 346 387 386
4 346 347 388 387
4 347 348 389 388
4 348 349 390 389
4 349 350 391 390
4 350 351 392 391
4 351 352 393 392
4 352 353 394 393
4 353 354 395 394
4 354 355 396 395
4 355 356 397 396
4 356 357 398 397
4 357 358 399 398
4 358 359 400 399
4 359 360 401 400
4 360 361 402 401
4 361 362 403 402
4 362 363 404 403
4 363 364 405 404
4 364 365 406 405
4 365 366 407 406
4 366 367 408 407
4 367 368 409 408
4 369 370 411 410
4 370 371 412 411
4 371 372 413 412
4 372 373 414 413
4 373 374 415 414
4 374 375 416 415
4 375 376 417 416
4 376 377 418 417
4 377 378 419 418
4 378 379 420 419
4 379 380 421 420
4 380 381 422 421
4 381 382 423 422
4 382 383 424 423
4 383 384 425 424
4 384 385 426 425
4 385 386 427 426
4 386 387 428 427
4 387 388 429 428
4 388 389 430 429
4 389 390 431 430
4 390 391 432 431
4 391 392 433 432
4 392 393 434 433
4 393 394 435 434
4 394 395 436 435
4 395 396 437 436
4 396 397 438 437
4 397 398 439 438
4 398 399 440 439
4 399 400 441 440
4 400 401 442 441
4 401 402 443 442
4 402 403 444 443
4 403 404 445 444
4 404 405 446 445
4 405 406 447 446
4 406 407 448 447
4 407 408 449 448
4 408 409 450 449
4 410 411 452 451
4 411 412 453 452
4 412 413 454 453
4 413 414 455 454
4 414 415 456 455
4 415 416 457 456
4 416 417 458 457
4 417 418 459 458
4 418 419 460 459
4 419 420 461 460
4 420 421 462 461
4 421 422 463 462
4 422 423 464 463
4 423 424 465 464
4 424 425 466 465
4 425 426 467 466
4 426 427 468 467
4 427 428 469 468
4 428 429 470 469
4 429 430 471 470
4 430 431 472 471
4 431 432 473 472
4 432 433 474 473
4 433 434 475 474
4 434 435 476 475
4 435 436 477 476
4 436 437 478 477
4 437 438 479 478
4 438 439 480 479
4 439 440 481 480
4 440 441 482 481
4 441 442 483 482
4 442 443 484 483
4 443 444 485 484
4 444 445 486 485
4 445 446 487 486
4 446 447 488 487
4 447 448 489 488
4 448 449 490 489
4 449 450 491 490
4 451 452 493 492
4 452 453 494 493
4 453 454 495 494
4 454 455 496 495
4 455 456 497 496
4 456 457 498 497
4 457 458 499 498
4 458 459 500 499
4 459 460 501 500
4 460 461 502 501
4 461 462 503 502
4 462 463 504 503
4 463 464 505 504
4 464 465 506 505
4 465 466 507 506
4 466 467 508 507
4 467 468 509 508
4 468 469 510 509
4 469 470 511 510
4 470 471 512 511
4 471 472 513 512
4 472 473 514 513
4 473 474 515 514
4 474 475 516 515
4 475 476 517 516
4 476 477 518 517
4 477 478 519 518
4 478 479 520 519
4 479 480 521 520
4 480 481 522 521
4 481 482 523 522
4 482 483 524 523
4 483 484 525 524
4 484 485 526 525
4 485 486 527 526
4 486 487 528 527
4 487 488 529 528
4 488 489 530 529
4 489 490 531 530
4 490 491 532 531
4 492 493 534 533
4 493 494 535 534
4 494 495 536 535
4 495 496 537 536
4 496 497 538 537
4 497 498 539 538
4 498 499 540 539
4 499 500 541 540
4 500 501 542 541
4 501 502 543 542
4 502 503 544 543
4 503 504 545 544
4 504 505 546 545
4 505 506 547 546
4 506 507 548 547
4 507 508 549 548
4 508 509 550 549
4 509 510 551 550
4 510 511 552 551
4 511 512 553 552
4 512 513 554 553
4 513 514 555 554
4 514 515 556 555
4 515 516 557 556
4 516 517 558 557
4 517 518 559 558
4 518 519 560 559
4 519 520 561 560
4 520 521 562 561
4 521 522 563 562
4 522 523 564 563
4 523 524 565 564
4 524 525 566 565
4 525 526 567 566
4 526 527 568 567
4 527 528 569 568
4 528 529 570 569
4 529 530 571 570
4 530 531 572 571
4 531 532 573 572
4 533 534 575 574
4 534 535 576 575
4 535 536 577 576
4 536 537 578 577
4 537 538 579 578
4 538 539 580 579
4 539 540 581 580
4 540 541 582 581
4 541 542 583 582
4 542 543 584 583
4 543 544 585 584
4 544 545 586 585
4 545 546 587 586
4 546 547 588 587
4 547 548 589 588
4 548 549 590 589
4 549 550 591 590
4 550 551 592 591
4 551 552 593 592
4 552 553 594 593
4 553 554 595 594
4 554 555 596 595
4 555 556 597 596
4 556 557 598 597
4 557 558 599 598
4 558 559 600 599
4 559 560 601 600
4 560 561 602 601
4 561 562 603 602
4 562 563 604 603
4 563 564 605 604
4 564 565 606 605
4 565 566 607 606
4 566 567 608 607
4 567 568 609 608
4 568 569 610 609
4 569 570 611 610
4 570 571 612 611
4 571 572 613 612
4 572 573 614 613
4 574 575 616 615
4 575 576 617 616
4 576 577 618 617
4 577 578 619 618
4 578 579 620 619
4 579 580 621 620
4 580 581 622 621
4 581 582 623 622
4 582 583 624 623
4 583 584 625 624
4 584 585 626 625
4 585 586 627 626
4 586 587 628 627
4 587 588 629 628
4 588 589 630 629
4 589 590 631 630
4 590 591 632 631
4 591 592 633 632
4 592 593 634 633
4 593 594 635 634
4 594 595 636 635
4 595 596 637 636
4 596 597 638 637
4 597 598 639 638
4 598 599 640 639
4 599 600 641 640
4 600 601 642 641
4 601 602 643 642
4 602 603 644 643
4 603 604 645 644
4 604 605 646 645
4 605 606 647 646
4 606 607 648 647
4 607 608 649 648
4 608 609 650 649
4 609 610 651 650
4 610 611 652 651
4 611 612 653 652
4 612 613 654 653
4 613 614 655 654
4 615 616 657 656
4 616 617 658 657
4 617 618 659 658
4 618 619 660 659
4 619 620 661 660
4 620 621 662 661
4 621 622 663 662
4 622 623 664 663
4 623 624 665 664
4 624 625 666 665
4 625 626 667 666
4 626 627 668 667
4 627 628 669 668
4 628 629 670 669
4 629 630 671 670
4 630 631 672 671
4 631 632 673 672
4 632 633 674 673
4 633 634 675 674
4 634 635 676 675
4 635 636 677 676
4 636 637 678 677
4 637 638 679 678
4 638 639 680 679
4 639 640 681 680
4 640 641 682 681
4 641 642 683 682
4 642 643 684 683
4 643 644 685 684
4 644 645 686 685
4 645 646 687 686
4 646 647 688 687
4 647 648 689 688
4 648 649 690 689
4 649 650 691 690
4 650 651 692 691
4 651 652 693 692
4 652 653 694 693
4 653 654 695 694
4 654 655 696 695
4 656 657 698 697
4 657 658 699 698
4 658 659 700 699
4 659 660 701 700
4 660 661 702 701
4 661 662 703 702
4 662 663 704 703
4 663 664 705 704
4 664 665 706 705
4 665 666 707 706
4 666 667 708 707
4 667 668 709 708
4 668 669 710 709
4 669 670 711 710
4 670 671 712 711
4 671 672 713 712
4 672 673 714 713
4 673 674 715 714
4 674 675 716 715
4 675 676 717 716
4 676 677 718 717
4 677 678 719 718
4 678 679 720 719
4 679 680 721 720
4 680 681 722 721
4 681 682 723 722
4 682 683 724 723
4 683 684 725 724
4 684 685 726 725
4 685 686 727 726
4 686 687 728 727
4 687 688 729 728
4 688 689 730 729
4 689 690 731 730
4 690 691 732 731
4 691 692 733 732
4 692 693 734 733
4 693 694 735 734
4 694 695 736 735
4 695 696 737 736
4 697 698 739 738
4 698 699 740 739
4 699 700 741 740
4 700 701 742 741
4 701 702 743 742
4 702 703 744 743
4 703 704 745 744
4 704 705 746 745
4 705 706 747 746
4 706 707 748 747
4 707 708 749 748
4 708 709 750 749
4 709 710 751 750
4 710 711 752 751
4 711 712 753 752
4 712 713 754 753
4 713 714 755 754
4 714 715 756 755
4 715 716 757 756
4 716 717 758 757
4 717 718 759 758
4 718 719 760 759
4 719 720 761 760
4 720 721 762 761
4 721 722 763 762
4 722 723 764 763
4 723 724 765 764
4 724 725 766 765
4 725 726 767 766
4 726 727 768 767
4 727 728 769 768
4 728 729 770 769
4 729 730 771 770
4 730 731 772 771
4 731 732 773 772
4 732 733 774 773
4 733 734 775 774
4 734 735 776 775
4 735 736 777 776
4 736 737 778 777
4 738 739 780 779
4 739 740 781 780
4 740 741 782 781
4 741 742 783 782
4 742 743 784 783
4 743 744 785 784
4 744 745 786 785
4 745 746 787 786
4 746 747 788 787
4 747 748 789 788
4 748 749 790 789
4 749 750 791 790
4 750 751 792 791
4 751 752 793 792
4 752 753 794 793
4 753 754 795 794
4 754 755 796 795
4 755 756 797 796
4 756 757 798 797
4 757 758 799 798
4 758 759 800 799
4 759 760 801 800
4 760 761 802 801
4 761 762 803 802
4 762 763 804 803
4 763 764 805 804
4 764 765 806 805
4 765 766 807 806
4 766 767 808 807
4 767 768 809 808
4 768 769 810 809
4 769 770 811 810
4 770 771 812 811
4 771 772 813 812
4 772 773 814 813
4 773 774 815 814
4 774 775 816 815
4 775 776 817 816
4 776 777 818 817
4 777 778 819 818
4 779 780 821 820
4 780 781 822 821
4 781 782 823 822
4 782 783 824 823
4 783 784 825 824
4 784 785 826 825
4 785 786 827 826
4 786 787 828 827
4 787 788 829 828
4 788 789 830 829
4 789 790 831 830
4 790 791 832 831
4 791 792 833 832
4 792 793 834 833
4 793 794 835 834
4 794 795 836 835
4 795 796 837 836
4 796 797 838 837
4 797 798 839 838
4 798 799 840 839
4 799 800 841 840
4 800 801 842 841
4 801 802 843 842
4 802 803 844 843
4 803 804 845 844
4 804 805 846 845
4 805 806 847 846
4 806 807 848 847
4 807 808 849 848
4 808 809 850 849
4 809 810 851 850
4 810 811 852 851
4 811 812 853 852
4 812 813 854 853
4 813 814 855 854
4 814 815 856 855
4 815 816 857 856
4 816 817 858 857
4 817 818 859 858
4 818 819 860 859
CELL_TYPES 800
9
9
9
9
9
9
9
9
9
9
9
9
9
9
9
9
9
9
9
9
9
9
9
9
9
9
9
9
9
9
9
9
9
9
9
9
9
9
9
9
9
9
9
9
9
9
9
9
9
9
9
9
9
9
9
9
9
9
9
9
9
9
9
9
9
9
9
9
9
9
9
9
9
9
9
9
9
9
9
9
9
9
9
9
9
9
9
9
9
9
9
9
9
9
9
9
9
9
9
9
9
9
9
9
9
9
9
9
9
9
9
9
9
9
9
9
9
9
9
9
9
9
9
9
9
9
9
9
9
9
9
9
9
9
9
9
9
9
9
9
9
9
9
9
9
9
9
9
9
9
9
9
9
9
9
9
9
9
9
9
9
9
9
9
9
9
9
9
9
9
9
9
9
9
9
9
9
9
9
9
9
9
9
9
9
9
9
9
9
9
9
9
9
9
9
9
9
9
9
9
9
9
9
9
9
9
9
9
9
9
9
9
9
9
9
9
9
9
9
9
9
9
9
9
9
9
9
9
9
9
9
9
9
9
9
9
9
9
9
9
9
9
9
9
9
9
9
9
9
9
9
9
9
9
9
9
9
9
9
9
9
9
9
9
9
9
9
9
9
9
9
9
9
9
9
9
9
9
9
9
9
9
9
9
9
9
9
9
9
9
9
9
9
9
9
9
9
9
9
9
9
9
9
9
9
9
9
9
9
9
9
9
9
9
9
9
9
9
9
9
9
9
9
9
9
9
9
9
9
9
9
9
9
9
9
9
9
9
9
9
9
9
9
9
9
9
9
9
9
9
9
9
9
9
9
9
9
9
9
9
9
9
9
9
9
9
9
9
9
9
9
9
9
9
9
9
9
9
9
9
9
9
9
9
9
9
9
9
9
9
9
9
9
9
9
9
9
9
9
9
9
9
9
9
9
9
9
9
9
9
9
9
9
9
9
9
9
9
9
9
9
9
9
9
9
9
9
9
9
9
9
9
9
9
9
9
9
9
9
9
9
9
9
9
9
9
9
9
9
9
9
9
9
9
9
9
9
9
9
9
9
9
9
9
9
9
9
9
9
9
9
9
9
9
9
9
9
9
9
9
9
9
9
9
9
9
9
9
9
9
9
9
9
9
9
9
9
9
9
9
9
9
9
9
9
9
9
9
9
9
9
9
9
9
9
9
9
9
9
9
9
9
9
9
9
9
9
9
9
9
9
9
9
9
9
9
9
9
9
9
9
9
9
9
9
9
9
9
9
9
9
9
9
9
9
9
9
9
9
9
9
9
9
9
9
9
9
9
9
9
9
9
9
9
9
9
9
9
9
9
9
9
9
9
9
9
9
9
9
9
9
9
9
9
9
9
9
9
9
9
9
9
9
9
9
9
9
9
9
9
9
9
9
9
9
9
9
9
9
9
9
9
9
9
9
9
9
9
9
9
9
9
9
9
9
9
9
9
9
9
9
9
9
9
9
9
9
9
9
9
9
9
9
9
9
9
9
9
9
9
9
9
9
9
9
9
9
9
9
9
9
9
9
9
9
9
9
9
9
9
9
9
9
9
9
9
9
9
9
9
9
9
9
9
9
9
9
9
9
9
9
9
9
9
9
9
9
9
9
9
9
9
9
9
9
9
9
9
9
9
9
9
9
9
9
9
9
9
9
9
9
9
9
9
9
9
9
9
9
9
9
9
9
9
9
9
9
9
9
9
9
9
9
9
9
9
9
9
9
9
9
9
9
9
9
9
9
9
9
9
9
9
9
9
9
9
9
9
9
9
9
9
9
9
9
9
9
9
9
9
9
9
9
9
9
9
9
9
9
9
POINT_DATA 861
SCALARS Disp float 2
LOOKUP_TABLE default
0.0 0.0
0.0056610903540420055 -0.2361170508883486
0.006952453164308457 -0.46323026874754814
0.007730448959850391 -0.6893333114748456
0.008725873107254898 -0.9150817445089366
0.01031127170154588 -1.1400871401512915
0.013068202846566781 -1.3638351812541107
0.017700065192621853 -1.5856798466782793
0.02503289738079415 -1.8048152630605623
0.03596702251523586 -2.020195793802009
0.051404346561537556 -2.230413054091956
0.07220287089544589 -2.433617089762313
0.0991557044415049 -2.6275350810194666
0.1329827020343053 -2.8095764387656863
0.17432923915907744 -2.976912378581026
0.2236997734476837 -3.126536875807511
0.2813351387354314 -3.255342454191068
0.347062588953449 -3.360244248267448
0.4201649868279386 -3.43838957015309
0.49932320392464785 -3.48740251251261
0.5824322195693536 -3.5056590077947365
0.6655412352140561 -3.487402512512501
0.7446994523107491 -3.4383895701528684
0.8178018501852098 -3.3602442482671266
0.8835293004031902 -3.2553424541906653
0.9411646656908992 -3.126536875807052
0.9905351999794665 -2.976912378580522
1.0318817371041995 -2.809576438765152
1.0657087346969598 -2.627535081018919
1.092661568242981 -2.4336170897617704
1.1134600925768559 -2.2304130540914318
1.1288974166231298 -2.020195793801516
1.13983154175755 -1.8048152630601058
1.1471643739457063 -1.5856798466778679
1.1517962362917502 -1.3638351812537475
1.1545531674367644 -1.1400871401509836
1.1561385660310521 -0.9150817445086842
1.1571339901784559 -0.689333311474652
1.1579119859739975 -0.46323026874741235
1.1592033487842626 -0.23611705088827312
1.1648644391383012 0.0
0.05889740822318555 -0.0023648593078000263
0.06284429303017039 -0.23636775211416416
0.06352121290903981 -0.46329193792161916
0.06421195109772546 -0.6894217290692212
0.06508707598589943 -0.9152213356933092
0.06643733852352489 -1.1403915856834812
0.06880977165900999 -1.3644632212383705
0.07286890255056166 -1.5868206781661292
0.07939094316974218 -1.8066801454822887
0.08919839062694532 -2.022999863211906
0.10309604570311803 -2.2343626988917134
0.12183418017769547 -2.438904761573332
0.14611041151916135 -2.634339294744961
0.17657979849383484 -2.818061409292225
0.21383246922223306 -2.9872208990142304
0.2583392043291368 -3.1387673028710514
0.31034015071991256 -3.2695146768453855
0.36971128458155506 -3.376264658549337
0.43584112341610687 -3.4560229107527456
0.5074868964392575 -3.5062479014939574
0.5824322195693404 -3.525003805351631
0.6573775426994195 -3.506247901493846
0.7290233157225551 -3.456022910752518
0.7951531545570816 -3.376264658549008
0.8545242884186917 -3.2695146768449743
0.906525234809433 -3.138767302870583
0.9510319699163016 -2.987220899013717
0.9882846406446644 -2.818061409291682
1.0187540276193021 -2.634339294744405
1.043030258960734 -2.4389047615727804
1.061768393435281 -2.2343626988911818
1.0756660485114287 -2.022999863211407
1.0854734959686123 -1.806680145481828
1.091995536587778 -1.5868206781657146
1.09605466747932 -1.3644632212380055
1.098427100614799 -1.1403915856831726
1.0997773631524221 -0.9152213356930566
1.1006524880405955 -0.6894217290690278
1.1013432262292808 -0.4632919379214834
1.1020201461081502 -0.23636775211408834
1.1059670309151295 -0.0023648593077975092
0.11683202146565332 -0.004239282998531032
0.11972117748338391 -0.2364916160339201
0.12010988212096463 -0.4633253659430696
0.12067369689322947 -0.6894996951211555
0.12143785894968942 -0.9153332719497852
0.12257695167794552 -1.1406325010352034
0.12457358175139652 -1.364982841456678
0.12806263423607858 -1.5877982015277532
0.13376014723519072 -1.808312046004405
0.14241359953050323 -2.025480525163295
0.15473508358632362 -2.237873818419945
0.17137677060406142 -2.4436135625080557
0.1929432307762458 -2.6404033736224495
0.2200118374055178 -2.82563017165308
0.2531217679127069 -2.996425646194623
0.292710003589433 -3.1497017954480415
0.33902528039703805 -3.282205881814083
0.3920090319269115 -3.390639550075974
0.45114967283502383 -3.4718740715810767
0.5152745747165544 -3.5231720671478555
0.5824322195693277 -3.542380037546962
0.6495898644220965 -3.523172067147741
0.7137147663036135 -3.471874071580845
0.7728554072117033 -3.390639550075638
0.8258391587415489 -3.2822058818136637
0.8721544355491235 -3.149701795447565
0.9117426712258181 -2.9964256461941017
0.9448526017329756 -2.8256301716525285
0.9719212083622157 -2.6404033736218855
0.9934876685343705 -2.443613562507497
1.010129355552081 -2.2378738184194074
1.022450839607879 -2.0254805251627905
1.0311042919031737 -1.8083120460039406
1.0368018049022727 -1.587798201527336
1.040290857386946 -1.3649828414563112
1.0422874874603922 -1.140632501034894
1.0434265801886466 -0.9153332719495324
1.044190742245106 -0.689499695120962
1.0447545570173709 -0.46332536594293394
1.0451432616549514 -0.23649161603384397
1.0480324176726767 -0.004239282998525775
0.1742595412641574 -0.0057444831831105336
0.1764393362850231 -0.2365759491349176
0.17667663713594745 -0.46334391902101907
0.17711786636273394 -0.689563036682723
0.1777731061438351 -0.915425209210637
0.17872667418920393 -1.1408176017887817
0.1803692722680611 -1.3653977453259416
0.18329469498434825 -1.588613592018181
0.18816309802059664 -1.8097080712852918
0.19564647514893813 -2.027632282123977
0.20636877212530558 -2.240939670081095
0.2208882078233601 -2.4477374270094447
0.2397206607340397 -2.645721290247013
0.2633644578727685 -2.83227431968382
0.2922954742857166 -3.0045163975683757
0.32692396831264786 -3.159329448305002
0.36751114947057695 -3.2934064451411835
0.41406332322101685 -3.403362408973407
0.4661755328044197 -3.485936805784867
0.5228503797620501 -3.5382162428296215
0.582432219569315 -3.5578804833778963
0.6420140593765759 -3.5382162428295048
0.6986889063341941 -3.4859368057846303
0.7508011159175768 -3.4033624089730656
0.7973532896679927 -3.293406445140758
0.8379404708258952 -3.159329448304518
0.8725689648527986 -3.0045163975678473
0.9014999812657191 -2.8322743196832607
0.9251437784044199 -2.645721290246442
0.9439762313150736 -2.4477374270088794
0.9584956670131043 -2.240939670080552
0.9692179639894523 -2.0276322821234682
0.9767013411177778 -1.8097080712848241
0.9815697441540148 -1.5886135920177613
0.9844951668702946 -1.3653977453255735
0.9861377649491477 -1.140817601788472
0.9870913329945153 -0.9154252092103842
0.9877465727756162 -0.6895630366825295
0.9881878020024027 -0.46334391902088345
0.988425102853327 -0.23657594913484112
0.9906048978741878 -0.0057444831831028114
0.2313972966862721 -0.00695981216468012
0.23304813122782223 -0.23664187659337713
0.23320303340340182 -0.46335458813929925
0.23354074006788492 -0.6896122346560603
0.23408933148268424 -0.9155007674677946
0.23487854831481153 -1.1409583588878938
0.23620332338237932 -1.365715634754729
0.2385777819120594 -1.5892696507888258
0.2426226098798901 -1.8108685019203408
0.2489310580480655 -2.0294527804271394
0.258043032590741 -2.243557038608282
0.27042761596450665 -2.451272721296195
0.2865115914211733 -2.6502895835782114
0.3067150810235022 -2.8379900902394115
0.33145423108622213 -3.0114872648526423
0.36109871500075363 -3.167642464966114
0.39591936109717507 -3.3031068034673305
0.43598925881160067 -3.4144218593197246
0.48103931664555627 -3.49821168111461
0.5303016748110316 -3.551411246904227
0.5824322195693028 -3.5715565145795685
0.6345627643275699 -3.5514112469041086
0.683825122493034 -3.4982116811143698
0.7288751803269722 -3.414421859319378
0.7689450780413771 -3.303106803466899
0.8037657241377756 -3.1676424649656236
0.833410208052283 -3.011487264852107
0.8581493581149792 -2.837990090238846
0.8783528477172843 -2.650289583577634
0.8944368231739284 -2.4512727212956236
0.9068214065476742 -2.243557038607734
0.9159333810903327 -2.0294527804266265
0.9222418292584946 -1.8108685019198703
0.9262866572263154 -1.5892696507884037
0.9286611157559894 -1.36571563475436
0.9299858908235542 -1.1409583588875836
0.9307751076556807 -0.9155007674675416
0.9313236990704798 -0.6896122346558667
0.9316614057349629 -0.4633545881391637
0.9318163079105424 -0.23664187659330038
0.9334671424520885 -0.006959812164670232
0.2883435084008954 -0.007935273698958559
0.2895804090538449 -0.23669660560935066
0.28968730677785604 -0.4633621246818016
0.28993944019472445 -0.6896486545446062
0.2903829921067689 -0.9155626003596239
0.2910264855460112 -1.1410646909189777
0.292068155890104 -1.3659494835833625
0.29393116922677426 -1.5897720177210324
0.29716167160067997 -1.8117962166317703
0.3023016124223438 -2.0309430734658984
0.3098040935418432 -2.245725692650004
0.32005211507739845 -2.454219193811214
0.3333870656807921 -2.65410788873749
0.3501496334686171 -2.842776822299537
0.3706911142379248 -3.0173375035304093
0.39534738830961247 -3.1746374485119366
0.4243807769245107 -3.311298165974484
0.4579194613234465 -3.4238063550756137
0.4958582584797772 -3.508695383972043
0.5377001270667454 -3.562772276328317
0.5824322195692903 -3.5834385081243374
0.6271643120718312 -3.562772276328196
0.6690061806587898 -3.508695383971799
0.7069449778151056 -3.423806355075263
0.7404836622140241 -3.3112981659740472
0.7695170508289029 -3.1746374485114406
0.79417332490057 -3.0173375035298684
0.8147148056698581 -2.8427768222989664
0.8314773734576631 -2.6541078887369074
0.8448123240610383 -2.4542191938106384
0.8550603455965772 -2.245725692649452
0.8625628267160625 -2.030943073465382
0.8677027675377149 -1.8117962166312966
0.8709332699116124 -1.589772017720609
0.8727962832482782 -1.3659494835829928
0.8738379535923687 -1.1410646909186672
0.8744814470316105 -0.9155626003593709
0.8749249989436548 -0.6896486545444127
0.8751771323605232 -0.463362124681666
0.8752840300845343 -0.23669660560927366
0.8765209307374805 -0.007935273698946838
0.3451499739691863 -0.008709151060543676
0.34605882959852396 -0.23674283473705154
0.3461344691210875 -0.463368937671189
0.3463137089281766 -0.6896737255739378
0.3466535244462946 -0.9156119198553428
0.3471634866222898 -1.141144631904653
0.34795447549179065 -1.3661146121747993
0.34935211126257565 -1.5901348770824155
0.35180758899387227 -1.8124972935692238
0.35579335555042324 -2.0321073606401083
0.36169925642417705 -2.247448960836315
0.3698212786715387 -2.456579825858146
0.38041794818142194 -2.6571795252583517
0.39375215879514835 -2.8466379789330944
0.41011020017823635 -3.022069587279386
0.4297826451394615 -3.1803154856208695
0.453022704151596 -3.3179763399411026
0.47999918172187445 -3.4315045473748724
0.5107608842974212 -3.5173766159065023
0.5451179145492894 -3.5722985504566154
0.5824322195692776 -3.59353936704834
0.6197465245892623 -3.5722985504564932
0.6541035548411226 -3.517376615906256
0.6848652574166567 -3.4315045473745176
0.711841734986921 -3.3179763399406625
0.7350817939990398 -3.1803154856203695
0.7547542389602482 -3.0220695872788412
0.7711122803433205 -2.84663797893252
0.7844464909570315 -2.6571795252577646
0.7950431604669002 -2.456579825857567
0.8031651827142486 -2.247448960835759
0.8090710835879912 -2.032107360639589
0.813056850144533 -1.812497293568748
0.8155123278758235 -1.5901348770819903
0.816909963646605 -1.3661146121744292
0.8177009525161045 -1.141144631904342
0.8182109146920992 -0.91561191985509
0.8185507302102172 -0.6896737255737442
0.8187299700173062 -0.4633689376710534
0.8188056095398696 -0.2367428347369744
0.8197144651692049 -0.008709151060530395
0.4018514570036632 -0.009312148680975138
0.4025003397750767 -0.2367826620835788
0.40255177139751935 -0.46337553982009133
0.40266529749015834 -0.6896887708164392
0.40290297146501697 -0.9156484247605458
0.40328277896856085 -1.1412042619930771
0.4038568711713895 -1.366225073419981
0.4048354187397119 -1.5903772604336661
0.4065719507126118 -1.8129864796950537
0.4094456954005883 -2.032954036778733
0.41377823140841574 -2.2487336823033273
0.4197951492439164 -2.458361271499396
0.4276777656433016 -2.65951183427142
0.43761079519005047 -2.8495813257977827
0.4498109163279839 -3.025690904572138
0.4645223282462254 -3.1846817993453986
0.4819810621067387 -3.3231422034058604
0.5023763414052179 -3.437507686456902
0.5258863696023593 -3.52423601187775
0.5526370062686913 -3.579971701807311
0.5824322195692644 -3.6018541265281923
0.612227432869835 -3.5799717018071875
0.6389780695361605 -3.5242360118775014
0.6624880977332925 -3.437507686456545
0.6828833770317608 -3.323142203405417
0.7003421108922614 -3.1846817993448946
0.7150535228104902 -3.0256909045715896
0.7272536439484122 -2.849581325797205
0.7371866734951501 -2.6595118342708304
0.7450692898945245 -2.4583612714988137
0.7510862077300151 -2.248733682302769
0.7554187437378342 -2.0329540367782117
0.7582924884258042 -1.8129864796945767
0.7600290203986999 -1.59037726043324
0.76100756796702 -1.3662250734196102
0.7615816601698477 -1.1412042619927665
0.7619614676733913 -0.9156484247602927
0.7621991416482499 -0.6896887708162456
0.7623126677408888 -0.4633755398199557
0.7623640993633314 -0.23678266208350152
0.7630129821347431 -0.00931214868096064
0.4584690083553881 -0.00977327058234101
0.4589207683299564 -0.23681792552202316
0.4589458667830938 -0.46338112674881776
0.45899731483844514 -0.6896948410907401
0.4591355532384509 -0.9156714373912377
0.45938184582282027 -1.1412463327702067
0.4597605616705146 -1.366295478481779
0.4603749191721037 -1.5905213126791249
0.4614572634194018 -1.813287116378853
0.46328478036262916 -2.0335007249362995
0.46609257223564726 -2.249592214574202
0.4700410510568917 -2.4595750139896038
0.47524355912940014 -2.6611169559484034
0.4818149175098592 -2.851619971448952
0.48989977097242215 -3.028213938647162
0.4996844424391917 -3.187746892143901
0.5113855862900466 -3.3268037597043367
0.5252143296036675 -3.441812634561086
0.5414037214927748 -3.5292481441950314
0.5603599819865064 -3.5857536301713133
0.5824322195692508 -3.6083578748315652
0.6045044571519936 -3.585753630171189
0.6234607176457209 -3.5292481441947814
0.6396501095348214 -3.4418126345607263
0.6534788528484345 -3.326803759703891
0.6651799966992809 -3.1877468921433945
0.674964668166042 -3.0282139386466107
0.6830495216285974 -2.851619971448372
0.6896208800090499 -2.6611169559478114
0.6948233880815516 -2.45957501398902
0.6987718669027894 -2.249592214573642
0.701579658775802 -2.033500724935777
0.7034071757190254 -1.813287116378375
0.704489519966321 -1.5905213126786983
0.7051038774679087 -1.366295478481408
0.7054825933156026 -1.141246332769896
0.7057288858999717 -0.9156714373909847
0.7058671242999777 -0.6896948410905466
0.7059185723553288 -0.46338112674868204
0.7059436708084663 -0.2368179255219459
0.7063954307830331 -0.009773270582325591
0.5150172455538752 -0.01012188852250099
0.5153288762288866 -0.2368510040323892
0.5153228727670299 -0.4633839611920533
0.5153138229120927 -0.6896927044331478
0.5153555909771069 -0.9156808550264255
0.5154652089465113 -1.1412701456739667
0.5156518538916343 -1.3663360629298313
0.515951677273306 -1.5905932274439532
0.5164574416714873 -1.8134326037773079
0.5173244174252082 -2.033778478476769
0.518682631365008 -2.250049643166649
0.5206225066676556 -2.4602421725199486
0.5231931139275026 -2.662014970129836
0.5264502757402159 -2.8527751237162353
0.5304720714490341 -3.0296599749631232
0.5353767333590232 -3.1895288331073126
0.5413454177492577 -3.328975691917803
0.5486231744494735 -3.4444313108958955
0.5574978367930219 -3.532393918168507
0.5684445592583272 -3.589583434716558
0.5824322195692367 -3.612997123379893
0.596419879880146 -3.589583434716433
0.6073666023454488 -3.532393918168256
0.6162412646889932 -3.4444313108955344
0.6235190213892046 -3.328975691917355
0.6294877057794349 -3.189528833106804
0.63439236768942 -3.029659974962571
0.6384141633982352 -2.852775123715654
0.6416713252109463 -2.6620149701292433
0.6442419324707901 -2.460242172519363
0.6461818077734347 -2.2500496431660872
0.6475400217132324 -2.033778478476245
0.6484069974669516 -1.8134326037768296
0.6489127618651318 -1.5905932274435266
0.6492125852468031 -1.3663360629294603
0.6493992301919259 -1.1412701456736556
0.6495088481613303 -0.9156808550261726
0.6495506162263445 -0.6896927044329543
0.6495415663714074 -0.4633839611919175
0.6495355629095505 -0.23685100403231193
0.6498471935845612 -0.010121888522484896
0.5715128905596628 -0.010383267628885428
0.5717259544998585 -0.23688451097391194
0.5716877988364216 -0.463382353998658
0.5716193392184156 -0.6896828625773824
0.5715671893722419 -0.9156768567330531
0.5715406465040207 -1.1412749103012538
0.5715305603792031 -1.3663488566814057
0.5715272946447395 -1.5906154897641143
0.5715263832459756 -1.8134718718295757
0.5715264366673425 -2.033849044495731
0.5715266210617269 -2.250166207176145
0.5715258452063808 -2.46041618226349
0.5715190237742559 -2.662256499283136
0.5715028129097205 -2.8530953974294104
0.5714871953013957 -3.030075986887489
0.5715265273083042 -3.1900701123724713
0.5717642590913974 -3.3296933703304394
0.5724837995247374 -3.445400696695526
0.574092936942612 -3.5337052106536375
0.5770458982269515 -3.591406479775115
0.5824322195692223 -3.6156839433997168
0.5878185409114937 -3.5914064797749896
0.5907715021958323 -3.5337052106533857
0.5923806396137059 -3.445400696695164
0.5931001800470456 -3.3296933703299922
0.5933379118301396 -3.1900701123719624
0.5933772438370486 -3.030075986886936
0.593361626228725 -2.853095397428829
0.5933454153641914 -2.6622564992825435
0.5933385939320676 -2.4604161822629034
0.5933378180767228 -2.2501662071755835
0.5933380024711081 -2.0338490444952075
0.5933380558924753 -1.8134718718290972
0.5933371444937118 -1.5906154897636877
0.5933338787592483 -1.366348856681035
0.5933237926344309 -1.1412749103009425
0.5932972497662098 -0.9156768567328001
0.593245099920036 -0.6896828625771889
0.5931766403020301 -0.4633823539985222
0.5931384846385931 -0.23688451097383473
0.5933515485787885 -0.010383267628868903
0.6279669671959066 -0.010581668408303048
0.6281120735256238 -0.2369181653248497
0.6280447261969766 -0.46337595907326307
0.6279187714062522 -0.6896654875108249
0.6277754424455824 -0.9156598628241894
0.6276149080382664 -1.1412604799332988
0.6274088537872483 -1.3663335015386004
0.6271024568406275 -1.5905926058849356
0.6265950227604191 -1.8134325137902632
0.625728399477682 -2.0337785074726247
0.6243709655536114 -2.2500496805743637
0.6224283495462661 -2.4602404607435826
0.6198433398201226 -2.6620095984440564
0.6165542808841957 -2.8527665208234487
0.6125044946470268 -3.0296606791625735
0.607683174119748 -3.189580715693365
0.6021831391606084 -3.329171912964753
0.5962677070702861 -3.4449310677134486
0.5903749461194566 -3.5333794170431227
0.5851415360669923 -3.591337581481853
0.5824322195692078 -3.616522322420947
0.5797229030714226 -3.591337581481728
0.5744894930189585 -3.533379417042871
0.5685967320681322 -3.444931067713087
0.5626812999778151 -3.329171912964306
0.5571812650186815 -3.189580715692857
0.5523599444914076 -3.0296606791620206
0.548310158254244 -2.8527665208228683
0.5450210993183227 -2.662009598443464
0.542436089592185 -2.460240460742997
0.540493473584845 -2.250049680573803
0.5391360396607785 -2.033778507472101
0.5382694163780442 -1.8134325137897849
0.5377619822978371 -1.590592605884509
0.5374555853512171 -1.3663335015382294
0.5372495311001996 -1.1412604799329877
0.5370889966928838 -0.9156598628239365
0.536945667732214 -0.6896654875106314
0.5368197129414897 -0.4633759590731272
0.5367523656128425 -0.23691816532477253
0.5368974719425595 -0.010581668408286296
0.6843924022407476 -0.010733680523930303
0.6844910736842532 -0.23695000555113188
0.684397585114565 -0.4633651915626083
0.6842172357879761 -0.6896407862998902
0.6839861812046153 -0.9156304822503798
0.6836950391403382 -1.141227283900432
0.6832979810149273 -1.366290304736919
0.6826775315426554 -1.590519932001875
0.6815945099891539 -1.8132869863028402
0.6797683188813612 -2.0335009638525303
0.6769608128432225 -2.249591964878374
0.6730087571975637 -2.45957126544954
0.6677933792852113 -2.6611059385356604
0.6611951321444525 -2.8516028971183616
0.653089011875783 -3.0282163814968457
0.6433883370211626 -3.1878531001877004
0.6321288872259191 -3.3271956040883888
0.6195438822545586 -3.4427908418531885
0.606133237547433 -3.531216223232472
0.5930040072113381 -3.589486588853266
0.5824322195691936 -3.6156836067163494
0.5718604319270492 -3.5894865888531413
0.5587312015909558 -3.5312162232322213
0.5453205568838365 -3.4427908418528284
0.5327355519124851 -3.327195604087944
0.521476102117252 -3.187853100187194
0.5117754272626411 -3.0282163814962946
0.5036693069939809 -2.851602897117783
0.4970710598532322 -2.66110593853507
0.49185568194088936 -2.459571265448956
0.4879036262952394 -2.2495919648778147
0.48509612025710835 -2.0335009638520076
0.483269929149321 -1.8132869863023626
0.4821869075958224 -1.5905199320014487
0.48156645812355214 -1.366290304736548
0.481169399998142 -1.1412272839001214
0.48087825793386524 -0.9156304822501269
0.4806472033505047 -0.6896407862996967
0.48046685402391576 -0.4633651915624724
0.4803733654542277 -0.23695000555105472
0.4804720368977332 -0.01073368052391337
0.7408061343040947 -0.010847135153055304
0.7408680800230911 -0.23697842860694426
0.7407511736003151 -0.4633504382904859
0.7405199833007956 -0.689609161115932
0.7402048708552276 -0.9155894672204815
0.7397886537601726 -1.141176414529894
0.7391979704193176 -1.3662168354355642
0.7382148214974059 -1.590375262708592
0.7364800123970178 -1.812986690995289
0.7336077766172183 -2.032954467732696
0.7292745052615046 -2.248732886545702
0.7232537524401178 -2.4583556564868574
0.715362887768791 -2.6594965926632077
0.7054159127854408 -2.849558405629614
0.6932098625451203 -3.025696633812706
0.6785731150831339 -3.184836329536499
0.6614632669257424 -3.323703282240641
0.6420955069653915 -3.4389119300986715
0.6211645698781629 -3.527169917804152
0.6002024699934109 -3.585725584908994
0.5824322195691799 -3.613211085337109
0.5646619691449495 -3.5857255849088694
0.5436998692602012 -3.5271699178039024
0.5227689321729809 -3.438911930098313
0.5034011722126432 -3.3237032822401993
0.486291324055266 -3.184836329535996
0.4716545765932932 -3.0256966338121574
0.45944852635298616 -2.8495584056290375
0.4495015513696503 -2.65949659266262
0.44161068669833703 -2.4583556564862756
0.4355899338769629 -2.2487328865451452
0.4312566625212598 -2.0329544677321754
0.42838442674146804 -1.8129866909948125
0.4266496176410848 -1.5903752627081662
0.4256664687191759 -1.3662168354351931
0.4250757853783221 -1.1411764145295835
0.42465956828326756 -0.9155894672202285
0.4243444558376997 -0.6896091611157384
0.42411326553818035 -0.46335043829034994
0.4239963591154044 -0.2369784286068671
0.42405830483440077 -0.010847135153038227
0.7972190597732901 -0.010928027799412132
0.7972494300168403 -0.2370019743251271
0.797110359723885 -0.4633319289552779
0.7968315525700104 -0.6895711314854015
0.7964364948422229 -0.9155378155886359
0.7959008019968868 -1.141108386663908
0.7950956351090661 -1.3661032009873981
0.7936977786617783 -1.5901330662664364
0.7912451929953428 -1.8124981010480035
0.787260285697749 -2.0321077609737355
0.7813524407205477 -2.2474473774354777
0.773227111188217 -2.4565729003089367
0.7626295347921581 -2.6571628154946167
0.7493017217081085 -2.846614424922064
0.7329625510756657 -3.0220812397629704
0.7133474511052764 -3.180504647703511
0.690325541705624 -3.318661384732871
0.6641298603466587 -3.4332718807801466
0.6356833845099387 -3.521232927056802
0.6070927315270304 -3.5801262290612947
0.5824322195691664 -3.609186163662466
0.557771707611304 -3.580126229061171
0.5291810546284017 -3.521232927056554
0.5007345787916921 -3.433271880779791
0.4745388974327433 -3.318661384732433
0.4515169880331086 -3.1805046477030112
0.4319018880627372 -3.022081239762426
0.415562717430312 -2.846614424921491
0.40223490434628056 -2.6571628154940328
0.3916373279502391 -2.456572900308359
0.3835119984179248 -2.247447377434924
0.37760415344073717 -2.0321077609732177
0.37361924614315345 -1.8124981010475285
0.37116666047672486 -1.5901330662660111
0.369768804029441 -1.3661032009870278
0.3689636371416223 -1.1411083866635972
0.3684279442962866 -0.915537815588383
0.36803288656849953 -0.689571131485208
0.36775407941462507 -0.463331928955142
0.36761500912166983 -0.23700197432504994
0.3676453793652201 -0.010928027799394946
0.8536383249074758 -0.010981865216945382
0.8536411587363911 -0.23701953864216052
0.8534803815250136 -0.4633097215919961
0.8531568999469705 -0.6895272254670406
0.8526872067491229 -0.9154768664406785
0.8520302653393192 -1.1410211064355191
0.8509807359189676 -1.3659358924559437
0.8491197039336944 -1.5897710979771074
0.8458921486234794 -1.811797543611646
0.8407518754772797 -2.0309431461974836
0.8332466045907603 -2.245723203347937
0.822996685193363 -2.454211836390932
0.8096698766843148 -2.654093349723298
0.792937565868519 -2.8427597255559838
0.7724456725413809 -3.0173590803356745
0.7478361633458863 -3.1748453936716188
0.7189027375945105 -3.312058993303227
0.6859012776620187 -3.4258659849892132
0.6500145619967821 -3.51342528823741
0.6139272843018297 -3.5727328034557213
0.582432219569153 -3.6036266305532783
0.5509371548364788 -3.5727328034555974
0.5148498771415345 -3.513425288237165
0.47896316147631135 -3.425865984988861
0.44596170154383863 -3.3120589933027937
0.4170282757924842 -3.1748453936711245
0.39241876659701136 -3.0173590803351344
0.37192687326989493 -2.842759725555416
0.3551945624541213 -2.654093349722719
0.34186775394509455 -2.4542118363903587
0.3316178345477169 -2.2457232033473873
0.32411256366121416 -2.030943146196969
0.31897229051502696 -1.8117975436111733
0.31574473520482094 -1.5897710979766837
0.3138837032195531 -1.365935892455574
0.3128341737992041 -1.1410211064352087
0.3121772323894012 -0.9154768664404255
0.3117075391915539 -0.6895272254668471
0.311384057613511 -0.4633097215918602
0.31122328040213365 -0.2370195386420834
0.311226114231049 -0.010981865216928116
0.9100689186701524 -0.011013951595060007
0.9100484448691286 -0.23703050595775388
0.9098666425001134 -0.4632837536078253
0.909500950866811 -0.689478100429977
0.9089599890995018 -0.9154071108418266
0.9081718596119267 -1.1409092519498214
0.9068467921620953 -1.365701213721058
0.9044754213358339 -1.5892697311668087
0.9004319944236547 -1.8108700488932463
0.8941219393873336 -2.029452256609779
0.8850068932055655 -2.243553720256984
0.8726230824335803 -2.4512661102395548
0.8565567811012916 -2.6502810114013715
0.8364050045889666 -2.8379867577194338
0.8117473911278321 -3.0115248913687824
0.7821658619203644 -3.1678601702743454
0.7473835615067855 -3.3039042197776016
0.7076688871043216 -3.4167089602899967
0.6644404867120559 -3.503766995586365
0.6208794895375152 -3.563549267545355
0.5824322195691398 -3.5965039563372314
0.5439849496007678 -3.5635492675452323
0.5004239524262374 -3.5037669955861226
0.45719555203398804 -3.4167089602896494
0.41748087763154595 -3.303904219777173
0.3826985772179919 -3.1678601702738565
0.35311704801055005 -3.011524891368248
0.32845943454944093 -2.8379867577188715
0.3083076580371419 -2.6502810114007986
0.2922413567048785 -2.4512661102389868
0.2798575459329164 -2.2435537202564393
0.2707424997511676 -2.029452256609268
0.2644324447148616 -1.8108700488927763
0.2603890178026932 -1.5892697311663868
0.25801764697643875 -1.365701213720689
0.25669257952661073 -1.1409092519495112
0.2559044500390369 -0.9154071108415738
0.255363488271728 -0.6894781004297836
0.2549977966384258 -0.4632837536076893
0.25481599426941076 -0.23703050595767675
0.2547955204683871 -0.011013951595042693
0.9665140705600449 -0.011029567673618252
0.9664755528331171 -0.2370347636517293
0.9662746004538656 -0.4632540186498628
0.965868937477782 -0.6894243508624823
0.9652574571544223 -0.9153283219950632
0.9643216186876788 -1.1407661443999617
0.9626850998743881 -1.3653837197009941
0.9597612726674564 -1.5886141748893936
0.954891947574089 -1.8097094152088635
0.9474057442728452 -2.0276309841165747
0.9366809216459386 -2.2409358610363075
0.9221661061730927 -2.447732992834803
0.903360180345796 -2.645721938791808
0.8797832323422428 -2.832290575241198
0.8509615108400495 -3.0045785309688493
0.8164459173292447 -3.159562023201911
0.775940156343873 -3.294225331934568
0.7296904889390774 -3.4058322363999602
0.6792282430054066 -3.492267728202286
0.6281088720260473 -3.5525426647006806
0.5824322195691267 -3.5877514307751066
0.5367555671122102 -3.5525426647005602
0.48563619613286296 -3.4922677282020462
0.43517395019921157 -3.4058322363996183
0.3889242827944409 -3.294225331934146
0.3484185218090977 -3.1595620232014285
0.3139029282983225 -3.0045785309683217
0.2850812067961587 -2.832290575240643
0.26150425879263506 -2.6457219387912416
0.24269833296536758 -2.4477329928342413
0.22818351749254792 -2.240935861035768
0.2174586948656634 -2.0276309841160685
0.20997249156443717 -1.8097094152083968
0.20510316647108245 -1.5886141748889737
0.2021793392641591 -1.3653837197006264
0.20054282045087257 -1.140766144399652
0.19960698198413077 -0.9153283219948106
0.1989955016607715 -0.6894243508622889
0.19858983868468827 -0.46325401864972693
0.1983888863054369 -0.23703476365165213
0.19835036857850916 -0.011029567673600938
1.0229751179535704 -0.011034063721822897
1.0229257517530048 -0.23703277841427434
1.0227101035633552 -0.46322067571093384
1.022266229587846 -0.6893665650342254
1.0215802021236808 -0.9152382772996586
1.0204738557248458 -1.140582587936412
1.0184864361009829 -1.3649694229374019
1.014996113190602 -1.5877984897991761
1.0092949082117049 -1.8083127174644704
1.000637770858461 -2.025478407592186
0.988315074350991 -2.2378701088210295
0.9716825651583596 -2.4436128396519234
0.9501500566790815 -2.640415643553951
0.9231573229317034 -2.82566970565504
0.8901771937998494 -2.9965214661591775
0.8507735872874772 -3.1499704934389223
0.8047059641725374 -3.2830717813677412
0.7522022482887984 -3.3932870517598417
0.6946598569175918 -3.4789301255283904
0.6358207201251526 -3.539643476443218
0.5824322195691135 -3.5772554774707763
0.529043719013079 -3.5396434764430995
0.4702045822206542 -3.4789301255281555
0.4126621908494698 -3.393287051759505
0.3601584749657594 -3.283071781367327
0.3140908518508518 -3.1499704934384476
0.2746872453385128 -2.996521466158658
0.24170711620669222 -2.825669705654493
0.21471438245934787 -2.6404156435533923
0.19318187398010242 -2.4436128396513688
0.1765493647875005 -2.2378701088204966
0.16422666828005514 -2.0254784075916845
0.1555695309268308 -1.8083127174640077
0.14986832594794836 -1.5877984897987591
0.14637800303757725 -1.3649694229370355
0.14439058341371966 -1.1405825879361027
0.14328423701488674 -0.9152382772994061
0.1425982095507223 -0.6893665650340319
0.14215433557521326 -0.463220675710798
0.14193868738556398 -0.23703277841419718
0.14188932118499825 -0.011034063721805584
1.0794508653301063 -0.01103286402259917
1.079401233228729 -0.23702578899144808
1.07917992999481 -0.4631843242227739
1.0786985007453647 -0.689304628809744
1.0779265694070777 -0.9151334834325664
1.0766194868397474 -1.1403460462072263
1.0742564920005917 -1.3644499331756597
1.0701919955611543 -1.586819742581552
1.0636639056716024 -1.8066797324437165
1.0538523185673037 -2.0229970066618232
1.039955202606511 -2.234359831100825
1.0212308361355504 -2.438909216191892
0.9969945038833067 -2.63436483779698
0.9666066375540489 -2.8181263731518214
0.9295005200655464 -2.987359004106195
0.8852558433523818 -3.1391036734357667
0.8337443105929953 -3.2704971594389702
0.7753173142536066 -3.379165083891215
0.711144693544055 -3.4637779077846966
0.6443506854927148 -3.524731503649683
0.5824322195690999 -3.5648281634205716
0.5205137536454905 -3.5247315036495674
0.45371974559416683 -3.4637779077844666
0.3895471248846406 -3.3791650838908858
0.33112012854528444 -3.2704971594385635
0.27960859578593383 -3.1391036734353004
0.23536391907280646 -2.9873590041056843
0.19825780158434125 -2.8181263731512827
0.16786993525512095 -2.63436483779643
0.14363360300291375 -2.438909216191345
0.12490923653198549 -2.234359831100299
0.11101212057122031 -2.0229970066613276
0.10120053346694315 -1.8066797324432582
0.09467244357740759 -1.5868197425811383
0.09060794713798119 -1.364449933175295
0.08824495229883177 -1.140346046206918
0.08693786973150434 -0.9151334834323139
0.08616593839321807 -0.6893046288095505
0.08568450914377314 -0.4631843242226381
0.08546320590985433 -0.23702578899137097
0.08541357380847708 -0.011032864022581836
1.1359362497436891 -0.011031285731385744
1.1359030092913172 -0.23701634240374633
1.1356929940757459 -0.4631462146575087
1.1351712030757461 -0.6892369991576349
1.134291347208572 -0.9150067060006303
1.1327549911629864 -1.140047613839959
1.1300031908468569 -1.3638208015855073
1.1253623490804485 -1.5856769908866977
1.1180218159893893 -1.8048134598628662
1.1070833737950467 -2.0201923517492126
1.0916484034333438 -2.2304117783388775
1.0708675943718742 -2.4336279936282947
1.0439596491361611 -2.627575164109459
1.0102201219807014 -2.8096686934175183
0.969039940540361 -2.9771015615140812
0.9200128866274055 -3.1269753921280397
0.8631196998812695 -3.256535203911651
0.7989457401338107 -3.363567052910348
0.7288297920796921 -3.4469807675620356
0.6549203723440825 -3.5076687764651826
0.582432219569086 -3.5499999999999954
0.5099440667940955 -3.5076687764650702
0.4360346470585041 -3.446980767561812
0.365918699004415 -3.3635670529100263
0.3017447392569931 -3.256535203911253
0.24485155251089727 -3.1269753921275836
0.19582449859798254 -2.97710156151358
0.15464431715768334 -2.809668693416989
0.1209047900022652 -2.6275751641089187
0.09399684476659227 -2.4336279936277565
0.07321603570515824 -2.230411778338359
0.0577810653434851 -2.020192351748723
0.04684262314916608 -1.8048134598624124
0.039502090058124724 -1.5856769908862876
0.034861248291728625 -1.363820801585145
0.03210944797560654 -1.1400476138396518
0.03057309193002421 -0.9150067060003779
0.0296932360628513 -0.6892369991574414
0.029171445062851947 -0.46314621465737293
0.028961429847280895 -0.23701634240366923
0.028928189394909033 -0.011031285731368412
SCALARS Stress float 6
LOOKUP_TABLE default
-1208.7779342033218 -2007.433788151688 -1531.7218740926187 -24.059378817990513 0.0 0.0
1328.7784211475723 778.05016177426 984.9485156932051 -21.769744463289594 0.0 0.0
597.1752920700951 149.70230602003056 238.12566018535347 -40.324011752658485 0.0 0.0
483.4779583293832 25.849693537633485 156.97184059591368 -1.8056038973509323 0.0 0.0
603.5315349241353 72.52832286900605 238.9984339035972 2.17494376297854 0.0 0.0
716.2122867050261 119.1683957478535 356.34774366938143 1.7733949557356086 0.0 0.0
838.2052800774406 166.93753277009702 472.6531977761714 0.6884922306455254 0.0 0.0
961.9575247733876 231.0875334476638 580.7315864206918 -0.6673205364533978 0.0 0.0
1093.8663838180628 309.0799942774778 689.4898399060804 -2.2334748082996603 0.0 0.0
1241.4213533530017 407.24569258396025 813.141642543317 -3.9231343009008794 0.0 0.0
1409.8808209610088 530.3965186157373 958.9038992660523 -5.556448803865768 0.0 0.0
1599.4545983015414 679.085889321786 1127.6991322637502 -6.876555682810241 0.0 0.0
1805.276287997136 846.950465741147 1314.0990805756626 -7.694895282567991 0.0 0.0
2020.4526829304236 1026.9183502266235 1511.2355326323616 -8.326059630670661 0.0 0.0
2235.8952125767278 1209.7418377696163 1709.930416995267 -8.742077969921594 0.0 0.0
2441.3310315810268 1385.2377610419248 1899.9831248970813 -8.887408124507354 0.0 0.0
2626.1996597614657 1543.3223508861674 2071.124408867613 -8.601162418764432 0.0 0.0
2779.765431078458 1673.8774818365707 2212.960735456052 -7.795461063201121 0.0 0.0
2898.9761351505913 1774.5246781588846 2322.6805454111663 -6.672601463706476 0.0 0.0
2970.271188123085 1832.608780613058 2387.1955879111783 -8.039077754790522 0.0 0.0
2961.6614586709047 1822.523209585651 2378.097103150781 2.155431388928264e-11 0.0 0.0
2970.2711881243517 1832.6087806143728 2387.195587911934 8.039077754799104 0.0 0.0
2898.976135151936 1774.5246781602993 2322.680545412082 6.672601463775342 0.0 0.0
2779.7654310770095 1673.8774818352076 2212.9607354550517 7.795461063240701 0.0 0.0
2626.199659758955 1543.322350883766 2071.1244088655676 8.601162418815399 0.0 0.0
2441.3310315802887 1385.2377610413141 1899.9831248962523 8.887408124424775 0.0 0.0
2235.8952125758033 1209.7418377688566 1709.9304169943453 8.742077969994325 0.0 0.0
2020.4526829278288 1026.918350224203 1511.2355326303361 8.326059630734148 0.0 0.0
1805.276287996236 846.9504657404615 1314.0990805748397 7.694895282624854 0.0 0.0
1599.4545982999007 679.0858893203629 1127.6991322625702 6.876555683084655 0.0 0.0
1409.8808209614529 530.396518616433 958.9038992660392 5.5564488038074025 0.0 0.0
1241.4213533528418 407.24569258410963 813.141642542964 3.9231343010099042 0.0 0.0
1093.8663838168382 309.0799942764886 689.4898399051193 2.2334748083889657 0.0 0.0
961.9575247731117 231.08753344767382 580.7315864203835 0.6673205361571863 0.0 0.0
838.2052800768754 166.9375327698238 472.65319777559966 -0.6884922305919048 0.0 0.0
716.2122867041107 119.16839574721135 356.34774366863064 -1.773394955915169 0.0 0.0
603.5315349234552 72.52832286850143 238.99843390308027 -2.174943762744574 0.0 0.0
483.4779583291855 25.849693537649056 156.9718405958366 1.8056038972866952 0.0 0.0
597.1752920695837 149.70230601954103 238.1256601850147 40.324011752572915 0.0 0.0
1328.778421147191 778.0501617738477 984.9485156926877 21.7697444632146 0.0 0.0
-1208.7779342004878 -2007.4337881488814 -1531.7218740898527 24.059378817381006 0.0 0.0
-1539.5602009453069 -2309.2172296938074 -1815.8240569574305 -25.30566350402191 0.0 0.0
905.9772499396247 430.23939926855735 617.2484155219956 -30.085875562159334 0.0 0.0
416.35429109348115 59.398461336035936 141.29055098907025 -34.473378866952395 0.0 0.0
426.74526962517643 4.927022075321684 131.03301556145215 -15.895539351027958 0.0 0.0
536.3553477433674 32.17376296774731 193.51942829181732 -16.087177739448745 0.0 0.0
634.998579590898 45.745803378265094 282.5382029453857 -21.298816551007057 0.0 0.0
719.0311354744777 62.64465123153323 368.90122377393845 -23.202635285099838 0.0 0.0
799.9730268021867 82.31504676159265 435.0569969584134 -23.680603244437005 0.0 0.0
874.7811264142733 102.539326338145 486.6522353808671 -24.184314731032938 0.0 0.0
945.6809361437124 124.26724896314218 533.912495038454 -24.843765565280666 0.0 0.0
1015.1168452237093 149.05223487216313 581.2885691485978 -25.187775827598646 0.0 0.0
1084.751587287813 177.59678940752042 630.4483939762018 -25.13550999845302 0.0 0.0
1154.0182525352288 209.9799708817358 681.2817167128146 -24.708495201617207 0.0 0.0
1220.302608036314 241.4830204646006 730.1682174339938 -24.107862333692744 0.0 0.0
1277.8918788853625 266.90411896737254 771.663615220363 -23.369427695506936 0.0 0.0
1322.1744685204105 281.6559777347565 801.1713884686591 -22.28971765846719 0.0 0.0
1350.1117179411708 283.04296468591303 815.826417596423 -20.619256492838225 0.0 0.0
1361.8956762488388 271.8452384999473 816.1124990582721 -18.322792764365637 0.0 0.0
1354.0247605556365 245.4190276414472 799.0600529002985 -15.91924766171155 0.0 0.0
1292.5614866924645 171.12026032948677 731.8667606349175 -15.693600550592251 0.0 0.0
1187.0944128116366 64.8453031969964 627.1398160301906 4.4290793255186145e-11 0.0 0.0
1292.5614866940189 171.12026033109066 731.8667606359636 15.693600550563907 0.0 0.0
1354.0247605559641 245.41902764181725 799.0600529005408 15.919247661765077 0.0 0.0
1361.8956762482744 271.8452384994713 816.1124990579812 18.32279276433576 0.0 0.0
1350.1117179409594 283.04296468584715 815.8264175963926 20.619256492997856 0.0 0.0
1322.174468520048 281.6559777345153 801.1713884683403 22.28971765848886 0.0 0.0
1277.8918788846797 266.9041189668345 771.6636152198553 23.369427695578402 0.0 0.0
1220.302608035637 241.48302046411118 730.1682174334823 24.107862333697508 0.0 0.0
1154.0182525349323 209.97997088164908 681.2817167126326 24.708495201616913 0.0 0.0
1084.7515872868871 177.59678940683443 630.4483939756512 25.135509998702616 0.0 0.0
1015.116845224033 149.05223487270575 581.2885691488616 25.187775827535454 0.0 0.0
945.6809361435423 124.26724896324872 533.9124950383243 24.843765565333936 0.0 0.0
874.781126413215 102.53932633730327 486.6522353801518 24.184314730975878 0.0 0.0
799.9730268020708 82.31504676175145 435.0569969582917 23.680603244199936 0.0 0.0
719.0311354740303 62.64465123137684 368.9012237735296 23.20263528498915 0.0 0.0
634.9985795902343 45.745803377914775 282.538202944819 21.298816550973562 0.0 0.0
536.3553477430163 32.17376296769492 193.5194282915791 16.087177739634324 0.0 0.0
426.7452696250684 4.927022075648041 131.03301556151337 15.895539350974872 0.0 0.0
416.3542910931956 59.3984613357085 141.29055098889012 34.47337886686236 0.0 0.0
905.9772499389501 430.23939926791735 617.2484155212602 30.0858755620667 0.0 0.0
-1539.560200943366 -2309.2172296917756 -1815.8240569553407 25.30566350351713 0.0 0.0
-1284.4740655784224 -2019.495010715652 -1533.645589818914 -63.60809994970182 0.0 0.0
715.5065116045049 339.6598726256801 473.0039734556615 -98.32163531822053 0.0 0.0
290.48540479240074 67.48228191710115 107.4041959444032 -37.178826687972915 0.0 0.0
365.98684110200065 0.8157634131582352 109.91387968312662 -37.26836398535404 0.0 0.0
491.21261573673087 22.833636501479994 165.8041948894143 -38.45863592645826 0.0 0.0
601.8939605447307 40.724905867647685 252.16762140263617 -40.8424513030283 0.0 0.0
689.6458842517941 58.255959481495324 344.339536173121 -43.24013538090432 0.0 0.0
771.1722010912936 74.36993825901973 413.77665789093214 -44.25235835927814 0.0 0.0
843.5106147783044 91.38365303757051 464.6445336925225 -45.396873210961544 0.0 0.0
910.6672347641851 109.14718867523771 508.47351584105223 -46.43352725961531 0.0 0.0
976.4412532749443 130.6672466057949 552.4454476379804 -46.666711870080256 0.0 0.0
1042.6517831435579 156.99144587198748 598.7851744048857 -46.093130944431664 0.0 0.0
1109.1031305244317 186.1896517036015 646.6352135530819 -45.15328200057648 0.0 0.0
1171.6747976552617 215.19306670118544 692.4418669444144 -43.95922727577424 0.0 0.0
1226.9530108805648 238.78607903703508 731.8683896665874 -42.49709595971808 0.0 0.0
1270.449197646406 253.12103739929228 760.7614827846637 -40.504047067724834 0.0 0.0
1299.6949749336063 255.97365734301417 776.8033391532194 -37.61527668166965 0.0 0.0
1311.4875018428345 244.74052892558356 777.14118279734 -33.896118364641474 0.0 0.0
1294.9841711128922 209.6400531906443 751.6024389203683 -30.0879126717431 0.0 0.0
1259.3547158491515 161.37156412299237 710.0120898056807 -26.995100924341376 0.0 0.0
1133.8814682684174 35.66972341154472 585.8098086230999 5.660361068748898e-11 0.0 0.0
1259.3547158506653 161.37156412452998 710.012089806755 26.995100924374295 0.0 0.0
1294.9841711123997 209.64005319021334 751.602438919961 30.087912671754818 0.0 0.0
1311.4875018430569 244.74052892589245 777.1411827975007 33.89611836460513 0.0 0.0
1299.694974932741 255.9736573422628 776.8033391526109 37.615276681755525 0.0 0.0
1270.4491976463726 253.12103739939948 760.7614827846943 40.50404706779482 0.0 0.0
1226.9530108796805 238.78607903630314 731.8683896659119 42.49709595980495 0.0 0.0
1171.6747976556971 215.1930667018023 692.4418669446263 43.95922727577987 0.0 0.0
1109.1031305239774 186.18965170332467 646.6352135527933 45.153282000500504 0.0 0.0
1042.651783142455 156.99144587109845 598.7851744040867 46.093130944425106 0.0 0.0
976.4412532743859 130.66724660545492 552.4454476376915 46.66671186999071 0.0 0.0
910.6672347634826 109.14718867480013 508.4735158406131 46.43352725968338 0.0 0.0
843.5106147772375 91.38365303670456 464.6445336918137 45.39687321085838 0.0 0.0
771.1722010909781 74.36993825899427 413.7766578906821 44.252358359177606 0.0 0.0
689.6458842511813 58.255959481105705 344.33953617258106 43.24013538076338 0.0 0.0
601.8939605445323 40.72490586785819 252.16762140238507 40.842451303156665 0.0 0.0
491.21261573641505 22.833636501558686 165.80419488926427 38.45863592653617 0.0 0.0
365.9868411019752 0.815763413438116 109.91387968321442 37.26836398536251 0.0 0.0
290.4854047921837 67.48228191668088 107.40419594421239 37.17882668788259 0.0 0.0
715.5065116037398 339.6598726252466 473.0039734549686 98.32163531812267 0.0 0.0
-1284.4740655764194 -2019.4950107135915 -1533.645589816788 63.60809994935991 0.0 0.0
-1048.2965595793855 -1752.6916613171607 -1275.590918393998 -77.1574872773902 0.0 0.0
545.1034446016527 243.71284152928112 346.21723509517085 -145.26134596841382 0.0 0.0
211.49250909716068 58.527343206912704 81.00595569122201 -59.08484789006647 0.0 0.0
304.3960278463391 6.398119287925108 93.15014553369855 -59.066580517514765 0.0 0.0
435.9987808071043 12.523714482059287 138.2436012305932 -63.15520323676691 0.0 0.0
556.0129532783001 34.30402934165261 217.6422132952175 -61.810102206404416 0.0 0.0
657.226491099686 51.81153727011162 313.9917234685691 -64.63184629119692 0.0 0.0
737.451636626318 66.59720803815665 388.4690979888702 -65.08663924397389 0.0 0.0
808.1746931029478 80.43140603274706 440.11671389419644 -66.30830546098537 0.0 0.0
871.9764636813974 94.62436266256438 481.30732948749244 -67.33040149131338 0.0 0.0
933.7669347778005 112.60748843111142 521.6580274634339 -67.24251117213035 0.0 0.0
996.6634600895902 135.65652795569372 564.7134220665298 -66.24738963816603 0.0 0.0
1059.6180866087022 162.73053922595977 609.7827656405442 -64.79036088118143 0.0 0.0
1119.069131492956 188.13955424430165 652.2533182335804 -63.13940554113063 0.0 0.0
1171.6132068273428 209.7238765382305 689.3102965098551 -61.03097113619651 0.0 0.0
1215.0729999890223 224.59696888526693 718.4532264832361 -58.20745897060157 0.0 0.0
1245.5557974453757 228.5569008854723 735.6799862806755 -54.45342658280423 0.0 0.0
1257.033228588696 216.78094535087132 735.6523003350496 -49.79414666563833 0.0 0.0
1245.8840328841832 186.7220349702073 715.2804364577723 -44.30342397126728 0.0 0.0
1224.0025699929824 151.53365870449576 686.943608432066 -36.948017012626266 0.0 0.0
1047.7893861986875 -24.59958990455567 512.9173812686116 3.3857361358968774e-11 0.0 0.0
1224.0025699934722 151.53365870501952 686.9436084324825 36.948017012712015 0.0 0.0
1245.8840328845954 186.72203497067022 715.2804364580782 44.30342397131933 0.0 0.0
1257.0332285893166 216.7809453515771 735.6523003356124 49.794146665630784 0.0 0.0
1245.5557974446617 228.55690088490786 735.6799862800331 54.45342658290196 0.0 0.0
1215.072999988796 224.59696888518184 718.4532264831187 58.2074589706949 0.0 0.0
1171.6132068275688 209.72387653865763 689.3102965099341 61.03097113638151 0.0 0.0
1119.0691314924213 188.1395542438721 652.2533182331383 63.13940554110101 0.0 0.0
1059.6180866089362 162.7305392264469 609.782765640733 64.79036088123891 0.0 0.0
996.6634600894653 135.6565279557205 564.7134220664421 66.24738963802298 0.0 0.0
933.7669347767043 112.60748843018213 521.6580274627283 67.24251117194018 0.0 0.0
871.9764636813521 94.62436266280383 481.30732948745344 67.33040149132975 0.0 0.0
808.1746931020147 80.4314060320614 440.1167138935918 66.30830546098554 0.0 0.0
737.4516366262565 66.59720803841844 388.4690979887272 65.08663924400065 0.0 0.0
657.2264910989251 51.81153726958057 313.9917234679038 64.63184629103621 0.0 0.0
556.0129532778856 34.30402934157581 217.6422132948643 61.81010220628058 0.0 0.0
435.9987808068741 12.52371448236175 138.24360123059228 63.15520323666627 0.0 0.0
304.3960278463163 6.398119287968028 93.15014553370068 59.06658051752012 0.0 0.0
211.492509096976 58.527343206512654 81.0059556910466 59.08484788990076 0.0 0.0
545.1034446010395 243.7128415290183 346.21723509463123 145.26134596835772 0.0 0.0
-1048.2965595775852 -1752.6916613152896 -1275.5909183920728 77.15748727714193 0.0 0.0
-843.3666176510598 -1521.0493385618292 -1049.0171564695445 -76.09445330884076 0.0 0.0
419.34075163421466 159.98021960620767 247.6232908830051 -176.91370785134956 0.0 0.0
155.27855533888567 46.54173164798151 60.54608609606014 -89.19995144699205 0.0 0.0
248.86477543886582 12.587178034634986 78.43969136993191 -82.67744978696788 0.0 0.0
371.5087442492618 7.285610007121497 113.85792760542573 -88.46929485066548 0.0 0.0
501.70213715849064 22.047370527813037 179.77260413353872 -87.29352198372086 0.0 0.0
612.9232595485532 43.9702730065208 275.78182217187384 -86.22126153087409 0.0 0.0
697.8991929366869 59.61660395102755 358.47400692869235 -86.33272457288007 0.0 0.0
768.0216270207421 70.03545327789143 412.37713850957175 -86.88190186514649 0.0 0.0
828.6699022519565 80.46762435833034 451.6483128671048 -87.49180828560635 0.0 0.0
886.9388100710235 94.68538024351007 488.66808518910875 -86.95543188868355 0.0 0.0
945.9853768724432 114.30740048123947 528.1394872448991 -85.50544153757082 0.0 0.0
1005.5279707148082 137.86992295189583 569.7715420123923 -83.71350912171161 0.0 0.0
1061.6303811698817 161.52671743683376 609.7361527577659 -81.58729719097397 0.0 0.0
1111.836636464376 180.71943124255145 644.4502629899421 -78.9020382178232 0.0 0.0
1154.167129108518 194.21107716831764 672.3275332334205 -75.46509667920446 0.0 0.0
1186.1001305621926 199.9899655374579 691.1977024299424 -71.13772428119411 0.0 0.0
1202.101276311119 192.4527175376105 695.5529683734444 -65.79541285430068 0.0 0.0
1198.1275460607442 168.7612540787811 681.9257315636627 -58.462681875405266 0.0 0.0
1182.7063121664728 138.53314980832744 659.241118627935 -47.176063458174816 0.0 0.0
943.9518801299259 -99.75962312494639 423.9268247278664 7.425704495744867e-11 0.0 0.0
1182.7063121663764 138.53314980827338 659.2411186279866 47.17606345819239 0.0 0.0
1198.1275460615145 168.76125407961624 681.9257315642117 58.46268187549934 0.0 0.0
1202.101276311417 192.45271753801757 695.5529683737444 65.7954128543401 0.0 0.0
1186.1001305622683 199.98996553765053 691.1977024298931 71.13772428133584 0.0 0.0
1154.1671291082775 194.21107716819603 672.3275332333047 75.46509667919159 0.0 0.0
1111.8366364650567 180.71943124341837 644.4502629903382 78.90203821790706 0.0 0.0
1061.6303811684222 161.52671743550587 609.7361527567955 81.58729719095197 0.0 0.0
1005.5279707153546 137.86992295266754 569.7715420127138 83.71350912178163 0.0 0.0
945.9853768713251 114.3074004802005 528.1394872441779 85.50544153738701 0.0 0.0
886.9388100698891 94.68538024257849 488.66808518835114 86.95543188861008 0.0 0.0
828.6699022527498 80.46762435941304 451.6483128676199 87.49180828566081 0.0 0.0
768.0216270202422 70.0354532776777 412.37713850920954 86.881901865086 0.0 0.0
697.8991929362376 59.61660395082807 358.47400692829484 86.33272457285855 0.0 0.0
612.9232595484135 43.97027300679811 275.78182217161935 86.22126153084984 0.0 0.0
501.702137157896 22.047370527475085 179.77260413311328 87.29352198358438 0.0 0.0
371.50874424901593 7.285610007321738 113.85792760542068 88.46929485053394 0.0 0.0
248.8647754388108 12.58717803466728 78.43969136992187 82.6774497868767 0.0 0.0
155.2785553387307 46.541731647840216 60.54608609597127 89.19995144682147 0.0 0.0
419.34075163355277 159.98021960586624 247.62329088247765 176.91370785120577 0.0 0.0
-843.3666176495002 -1521.0493385601021 -1049.017156467813 76.0944533087152 0.0 0.0
-663.3150827543758 -1316.2188852321483 -847.6874554855331 -72.76584974826264 0.0 0.0
320.45118486441334 95.03719046438826 171.99025108555088 -195.25221257068986 0.0 0.0
112.54921170579291 32.46666008302473 43.50476153664528 -117.91404466473199 0.0 0.0
198.64146607465568 17.56901253261929 64.86555726923086 -106.58895803467588 0.0 0.0
303.8860363899914 5.399878547750572 92.23646074586767 -113.07263675996111 0.0 0.0
432.5385715191747 11.824321787540189 143.18192938014698 -113.54583322797455 0.0 0.0
551.7454235058091 35.38579842222336 230.85252837294112 -109.23286810678607 0.0 0.0
650.8498168340983 49.909641070448046 319.62212723087674 -108.69611694898042 0.0 0.0
720.0413467706101 60.17348198705072 379.3330462657196 -107.04769047267033 0.0 0.0
779.9564866373724 66.49193099372148 418.61476317288805 -106.93477336034744 0.0 0.0
834.6933765013246 76.88247620630088 452.6827366190231 -105.78804517803744 0.0 0.0
889.9440349504924 93.00999329732942 488.642153719796 -103.83875473629257 0.0 0.0
945.6895289009717 113.51282482981092 526.8924404308443 -101.68779166322 0.0 0.0
998.3368636581375 133.5886462921203 563.3831040517504 -99.30030998832079 0.0 0.0
1045.9199503070092 150.9585111681649 595.9122472854514 -96.18055242028626 0.0 0.0
1086.9303011008242 163.74674489740426 622.8104962301322 -92.1117660245157 0.0 0.0
1120.501647186902 170.33532790905477 642.8674741221464 -87.46122269501016 0.0 0.0
1143.3679744120911 169.41780638799918 653.9200533704848 -81.7459663516597 0.0 0.0
1148.223746618087 153.66942754800385 648.6859356646434 -72.99848345064099 0.0 0.0
1136.711058812039 125.00881754573606 628.7469236165949 -58.40079586143423 0.0 0.0
823.7113293365877 -186.7722839059645 321.04541082002515 9.28910282027573e-11 0.0 0.0
1136.7110588116373 125.00881754541307 628.74692361643 58.40079586162173 0.0 0.0
1148.2237466181548 153.66942754814798 648.6859356647451 72.99848345087412 0.0 0.0
1143.3679744128058 169.4178063888429 653.920053371034 81.74596635179401 0.0 0.0
1120.5016471858314 170.33532790803957 642.8674741213798 87.4612226950216 0.0 0.0
1086.9303011000193 163.74674489674646 622.810496229662 92.11176602456082 0.0 0.0
1045.919950307485 150.95851116880635 595.91224728572 96.18055242037963 0.0 0.0
998.3368636570667 133.5886462912229 563.3831040510806 99.3003099883011 0.0 0.0
945.6895289011783 113.51282483015919 526.8924404308902 101.68779166317992 0.0 0.0
889.9440349481523 93.00999329500551 488.6421537182164 103.83875473605742 0.0 0.0
834.6933765015872 76.88247620690994 452.6827366190654 105.78804517808516 0.0 0.0
779.9564866379268 66.49193099468363 418.61476317330494 106.93477336060997 0.0 0.0
720.0413467703827 60.17348198711772 379.33304626551643 107.04769047266515 0.0 0.0
650.8498168337966 49.909641070431164 319.6221272305235 108.6961169489073 0.0 0.0
551.7454235056322 35.385798422483276 230.8525283727163 109.23286810676112 0.0 0.0
432.5385715189869 11.824321787922948 143.18192938009557 113.54583322798997 0.0 0.0
303.8860363896144 5.399878547476792 92.23646074570017 113.07263675978226 0.0 0.0
198.64146607469124 17.569012532779016 64.86555726928955 106.58895803451193 0.0 0.0
112.54921170579387 32.46666008308923 43.504761536664915 117.91404466451787 0.0 0.0
320.4511848638971 95.03719046411189 171.99025108513865 195.25221257054568 0.0 0.0
-663.3150827530059 -1316.2188852305685 -847.6874554839778 72.7658497481911 0.0 0.0
-507.90716163306803 -1129.1050502781811 -669.105706458083 -69.98433525951009 0.0 0.0
242.29861728810127 43.68456050853102 114.18510657122438 -206.46559539450487 0.0 0.0
78.03792693412683 18.701942714411658 29.021865660122224 -141.6432026098036 0.0 0.0
151.5345374849629 20.863792911698383 51.720568274961295 -128.79770042639808 0.0 0.0
237.2989111375929 6.369643629225029 72.88150174910939 -134.64429624360088 0.0 0.0
353.33912112754854 2.2005145926396112 108.62708246642735 -141.90443058724384 0.0 0.0
476.9498239307298 21.739398939168822 180.2265857626732 -135.84097980689646 0.0 0.0
584.1424958932346 41.144731422882295 269.80192990068423 -130.78143662583227 0.0 0.0
665.2790799703132 47.32475209952244 337.5161896267032 -128.79510778410454 0.0 0.0
722.3829826444669 52.763159761030224 379.73771944737985 -125.51861884825887 0.0 0.0
775.6315327213413 59.276210745462514 412.5700739218529 -123.6547523382115 0.0 0.0
827.112829107226 71.68602811569328 445.1892706009814 -121.22084982939627 0.0 0.0
878.6385680694376 88.61967011338328 479.6780042489572 -118.7267935365876 0.0 0.0
927.537109430609 105.90153978109001 512.9601031827161 -116.10367419316998 0.0 0.0
972.0091157578157 120.78194706313653 542.7602980520228 -112.77832385596211 0.0 0.0
1011.0515153357652 130.97123393194497 567.415150429413 -108.44477393087497 0.0 0.0
1045.888820003958 140.0371264396005 589.315839123212 -103.13013548868871 0.0 0.0
1077.5836394768107 146.88305215619064 608.567446286136 -97.3762956569469 0.0 0.0
1093.6506845238284 140.41876108323024 613.5688072589958 -88.28061270800582 0.0 0.0
1086.3398872809978 113.15070036611928 596.5302597771238 -71.3981458036529 0.0 0.0
685.1790357111025 -285.0435845745518 203.69981421035033 6.041389610800252e-11 0.0 0.0
1086.3398872807522 113.15070036597879 596.5302597770267 71.39814580387228 0.0 0.0
1093.6506845238805 140.41876108334668 613.5688072590497 88.28061270812287 0.0 0.0
1077.5836394762184 146.88305215568516 608.5674462857712 97.3762956570589 0.0 0.0
1045.888820002935 140.03712643862895 589.3158391224915 103.13013548872311 0.0 0.0
1011.051515334938 130.97123393125185 567.415150428867 108.4447739308734 0.0 0.0
972.0091157578412 120.78194706331865 542.760298052046 112.77832385602517 0.0 0.0
927.5371094302303 105.90153978094946 512.9601031825173 116.10367419326745 0.0 0.0
878.6385680690165 88.61967011308502 479.6780042486229 118.72679353663153 0.0 0.0
827.1128291063183 71.68602811505427 445.1892706004512 121.22084982941995 0.0 0.0
775.6315327221013 59.2762107465133 412.5700739222885 123.65475233834692 0.0 0.0
722.3829826443753 52.76315976121731 379.73771944735284 125.51861884824501 0.0 0.0
665.279079969476 47.32475209888044 337.5161896260903 128.79510778400783 0.0 0.0
584.1424958931902 41.14473142322758 269.80192990054064 130.7814366258578 0.0 0.0
476.9498239305454 21.739398939353762 180.22658576246215 135.84097980678916 0.0 0.0
353.3391211270217 2.200514592369455 108.62708246616812 141.90443058712128 0.0 0.0
237.29891113744304 6.369643629343047 72.88150174910085 134.64429624340337 0.0 0.0
151.5345374850335 20.863792912014844 51.72056827507704 128.79770042623414 0.0 0.0
78.03792693401427 18.701942714320776 29.02186566006129 141.64320260958178 0.0 0.0
242.29861728770584 43.68456050842315 114.18510657095514 206.46559539437177 0.0 0.0
-507.9071616318962 -1129.1050502767587 -669.1057064567486 69.98433525950198 0.0 0.0
-371.00986528819624 -966.502473597609 -511.6830013406224 -75.72931195303863 0.0 0.0
175.876494033115 4.862756488822997 69.23028320913205 -209.3292118709543 0.0 0.0
48.47998353536266 7.386210131406769 16.75968418724964 -159.64118552268755 0.0 0.0
106.0059010759033 22.232518321104312 38.47283078318389 -147.9153040614433 0.0 0.0
173.92512094869832 8.579209396498443 54.62775391885305 -153.40734211688863 0.0 0.0
264.58995908849965 -1.2414405530717183 78.58663406372744 -166.34702062873376 0.0 0.0
382.03278025723665 7.613375256158621 128.58793400696922 -164.5466329428957 0.0 0.0
496.912996648127 26.868972206678443 207.0537526364007 -154.64862389549336 0.0 0.0
589.0220093619828 36.3024004915013 281.54147912172505 -149.05921038354842 0.0 0.0
654.0879082174326 36.355014029666435 330.07177215183845 -144.83985622682198 0.0 0.0
705.1456245426574 40.920370214863695 364.2083126040635 -140.46161516155183 0.0 0.0
753.6358031651305 50.49309368334003 395.10967131097243 -137.40199984107488 0.0 0.0
801.1988051374349 63.80183582018123 426.201350247195 -134.57182640825073 0.0 0.0
845.3724251702977 77.4187302549744 455.4467328570613 -131.80152315668605 0.0 0.0
886.6711579596654 89.71765319184775 482.44092951804146 -128.59272743173517 0.0 0.0
923.4036599624914 98.86979913906312 505.55134504326276 -124.18772981669323 0.0 0.0
957.7679566825107 106.07371043985586 526.3671491635287 -118.42349040808193 0.0 0.0
997.1937090964688 120.39184320189116 553.0136669305142 -112.31040026950996 0.0 0.0
1029.9713634658806 129.8548422515207 574.2686126312882 -104.10986610569574 0.0 0.0
1031.5871213048026 107.45713902481302 564.4126822408468 -87.1275443059624 0.0 0.0
522.6573222432651 -394.27530611590055 69.36515152551749 6.31317220722849e-12 0.0 0.0
1031.5871213046123 107.4571390247016 564.4126822408333 87.12754430613235 0.0 0.0
1029.9713634654267 129.85484225101396 574.2686126309377 104.10986610571943 0.0 0.0
997.1937090966876 120.39184320244397 553.0136669306598 112.31040026975592 0.0 0.0
957.7679566815364 106.07371043898374 526.3671491627869 118.4234904082794 0.0 0.0
923.4036599622589 98.86979913888707 505.5513450430716 124.18772981672011 0.0 0.0
886.6711579595668 89.71765319190514 482.4409295179269 128.59272743173617 0.0 0.0
845.3724251706033 77.41873025545033 455.44673285724775 131.80152315670648 0.0 0.0
801.1988051368153 63.80183581969682 426.20135024671197 134.5718264082383 0.0 0.0
753.6358031646058 50.49309368311423 395.10967131070174 137.40199984117083 0.0 0.0
705.1456245425884 40.92037021497803 364.20831260398495 140.46161516158534 0.0 0.0
654.0879082172756 36.35501402970628 330.0717721517368 144.83985622675397 0.0 0.0
589.0220093612425 36.30240049107256 281.54147912116224 149.05921038349086 0.0 0.0
496.91299664763676 26.86897220647056 207.05375263598887 154.6486238954738 0.0 0.0
382.0327802569015 7.613375256062103 128.58793400672053 164.54663294282454 0.0 0.0
264.5899590877124 -1.2414405539313997 78.58663406325854 166.34702062839722 0.0 0.0
173.92512094878805 8.579209396949535 54.62775391901306 153.40734211684537 0.0 0.0
106.00590107581586 22.232518321000153 38.47283078312705 147.915304061305 0.0 0.0
48.47998353535371 7.386210131496616 16.759684187273837 159.64118552247623 0.0 0.0
175.8764940327069 4.862756488706747 69.23028320889803 209.32921187088115 0.0 0.0
-371.0098652872997 -966.5024735964838 -511.6830013395658 75.72931195300151 0.0 0.0
-266.0491642856139 -809.9158856083235 -383.68458571035103 -82.35202750591148 0.0 0.0
118.89437042692217 -26.635877264929192 34.923152128108484 -205.83924735532574 0.0 0.0
20.90257868391974 -0.2977136062843118 6.183272822753548 -172.39681190864218 0.0 0.0
61.57308749711597 22.059401322912706 25.08750400721705 -163.1416316550552 0.0 0.0
110.9629146895209 11.600044729300937 36.6932411156125 -168.1465567832868 0.0 0.0
173.62715632350185 0.3818180079934903 51.912093485770995 -183.85833834062288 0.0 0.0
265.4994180346904 -2.775930166882439 80.4735808083222 -194.47652474859893 0.0 0.0
379.6635434195317 6.853511702375288 134.00401221486175 -184.4019072837121 0.0 0.0
482.64720848932143 18.276804391422516 202.42902556286506 -169.8567497076752 0.0 0.0
557.8976765328292 19.86520059237571 258.20088793752154 -161.64691581123458 0.0 0.0
612.7391899733207 22.004845545811232 298.02299009032015 -155.5237830401155 0.0 0.0
659.6939128335663 28.084369080142775 329.33597530051236 -151.8813299914574 0.0 0.0
703.5016880403077 38.61917559823868 358.7060234264075 -148.79961852957473 0.0 0.0
742.7177969588994 48.59095963896931 384.328849159589 -145.96076835832886 0.0 0.0
779.5866692358946 58.132527361295416 408.0579067717647 -143.1548767774404 0.0 0.0
814.62668088343 66.33475083137692 430.0887370166757 -139.39008994667557 0.0 0.0
848.5024906910262 73.0842611552189 450.8714460954642 -133.5818127415035 0.0 0.0
888.4677998284927 86.36674720808483 477.4388571839773 -126.35256752065035 0.0 0.0
941.2817858220575 113.09394947231772 516.8912770879265 -119.69574871640316 0.0 0.0
969.3979524473564 112.37583326033867 531.7052389720045 -107.16166124476112 0.0 0.0
327.20750900772555 -510.41664649279096 -83.98601333468642 -3.908340318048431e-11 0.0 0.0
969.3979524473083 112.3758332605004 531.7052389720978 107.16166124508709 0.0 0.0
941.281785821263 113.09394947165535 516.8912770873113 119.69574871658546 0.0 0.0
888.4677998298762 86.36674720972405 477.4388571849895 126.35256752107273 0.0 0.0
848.5024906907847 73.08426115519977 450.8714460952784 133.58181274166026 0.0 0.0
814.6266808829195 66.33475083092239 430.08873701639607 139.39008994674688 0.0 0.0
779.586669236175 58.132527361801124 408.057906771864 143.15487677755516 0.0 0.0
742.7177969590294 48.590959639276164 384.32884915962865 145.96076835834322 0.0 0.0
703.5016880400439 38.61917559794425 358.70602342616394 148.79961852960218 0.0 0.0
659.6939128331574 28.084369080101784 329.3359753003118 151.88132999146637 0.0 0.0
612.7391899733123 22.00484554595313 298.02299009020356 155.52378304012245 0.0 0.0
557.8976765334205 19.865200593543054 258.20088793786744 161.64691581126522 0.0 0.0
482.64720848862896 18.27680439098003 202.4290255624039 169.8567497077338 0.0 0.0
379.66354341917025 6.85351170243017 134.00401221465134 184.40190728377593 0.0 0.0
265.4994180341571 -2.7759301670873766 80.47358080807582 194.47652474842167 0.0 0.0
173.62715632334613 0.38181800827427836 51.91209348582717 183.85833834024086 0.0 0.0
110.96291468953157 11.600044729522882 36.693241115690576 168.14655678308168 0.0 0.0
61.573087496856886 22.059401322435107 25.087504006993814 163.14163165485073 0.0 0.0
20.902578683968144 -0.29771360605228425 6.183272822836962 172.39681190852818 0.0 0.0
118.89437042649708 -26.635877265195354 34.9231521278506 205.8392473551888 0.0 0.0
-266.0491642851165 -809.9158856074326 -383.6845857095997 82.35202750591577 0.0 0.0
-182.42273018085245 -672.2419279063972 -280.78961450957206 -96.88862758346016 0.0 0.0
67.53658179487921 -50.88776970204085 7.904566406911664 -196.32204476267125 0.0 0.0
-5.775684503762598 -3.8190765269562834 -2.881686566128909 -180.12632813613905 0.0 0.0
17.92562058062453 20.84085960794247 11.628684503941416 -173.90814977004152 0.0 0.0
47.92001278860701 14.458855114576904 18.68904906953281 -178.54654353551348 0.0 0.0
83.78490393550634 3.787020914320628 26.148569112937125 -195.73600567462145 0.0 0.0
133.16107832665836 -1.9223677182168593 39.358494570600314 -212.22276021658504 0.0 0.0
210.83640932066402 -5.587978806527375 62.80121942031906 -215.27790160987288 0.0 0.0
311.4737064185619 -12.184566184585936 96.78482789911854 -201.78046057393567 0.0 0.0
400.8854523172357 -16.65829505605451 135.71750260990265 -180.99129341138973 0.0 0.0
461.63634853195896 -9.584483115559998 174.27240625688654 -167.82927379096222 0.0 0.0
506.99534817690295 1.369453524072064 207.76611514264238 -162.3897679352778 0.0 0.0
545.815665990595 10.704119629327934 236.9775478987852 -160.81283584982194 0.0 0.0
579.7597570907187 18.863669294961674 262.1600734249607 -159.84813440179892 0.0 0.0
611.4712664820022 26.843416736922435 285.6007277174985 -158.99808949900412 0.0 0.0
643.9763677323284 34.607298128685485 309.20720035338445 -157.51989884179193 0.0 0.0
679.3922132750984 41.525188075591586 334.0817149238542 -153.03284229118498 0.0 0.0
718.0643377120382 47.23592430742728 359.80630423317996 -144.78236494676293 0.0 0.0
775.9035945822409 69.58617338795808 400.20959104580805 -136.59233303320303 0.0 0.0
863.2224019014318 118.10290976961812 470.53991395969115 -133.6909829430736 0.0 0.0
65.65891808065265 -628.1526014376152 -268.10234838372685 -6.050271394997253e-11 0.0 0.0
863.222401901465 118.10290976984197 470.53991395990204 133.6909829434406 0.0 0.0
775.9035945829094 69.58617338910443 400.2095910463179 136.592333033568 0.0 0.0
718.0643377122667 47.23592430759579 359.8063042333071 144.78236494690634 0.0 0.0
679.3922132743046 41.52518807469433 334.0817149232962 153.03284229137017 0.0 0.0
643.9763677324506 34.607298129053504 309.2072003535372 157.51989884174836 0.0 0.0
611.4712664825194 26.843416737563167 285.6007277178608 158.99808949901808 0.0 0.0
579.7597570905529 18.863669294695093 262.16007342479196 159.84813440180707 0.0 0.0
545.8156659900511 10.704119628703605 236.97754789844717 160.81283584979522 0.0 0.0
506.9953481772529 1.3694535249938582 207.76611514291466 162.38976793539513 0.0 0.0
461.63634853161966 -9.584483116091533 174.27240625661423 167.82927379097663 0.0 0.0
400.88545231749185 -16.658295055310877 135.71750261018386 180.99129341148176 0.0 0.0
311.47370641783345 -12.184566185178314 96.78482789867898 201.7804605738758 0.0 0.0
210.8364093202616 -5.587978806692965 62.80121942013794 215.2779016098817 0.0 0.0
133.1610783265295 -1.9223677180415417 39.35849457062562 212.2227602163872 0.0 0.0
83.78490393565623 3.7870209148013867 26.148569113125145 195.7360056743973 0.0 0.0
47.92001278876199 14.458855114950671 18.68904906969379 178.54654353534426 0.0 0.0
17.925620580596576 20.840859607698935 11.628684503859962 173.90814976975182 0.0 0.0
-5.775684503724576 -3.819076526840958 -2.8816865660860556 180.12632813600788 0.0 0.0
67.53658179459912 -50.8877697022199 7.904566406754871 196.32204476241242 0.0 0.0
-182.42273018030593 -672.2419279054426 -280.78961450896355 96.88862758356629 0.0 0.0
-130.01472809281807 -545.2213659390299 -207.88369522865887 -109.12027947348048 0.0 0.0
21.525339150108717 -67.15408612893158 -12.956811198187268 -180.84022115574433 0.0 0.0
-31.277739167482768 -4.596254962070612 -10.755259796756455 -183.93562655773388 0.0 0.0
-24.87633501672127 19.233754247374645 -1.696028535254303 -180.20085633293715 0.0 0.0
-14.352976726757575 16.88965749540302 0.7608783248383992 -184.15101692372917 0.0 0.0
-6.633871971288011 7.607055023082381 0.2980479685483979 -200.0960559834456 0.0 0.0
-2.8107277804997253 1.3171321921200732 -0.4478383853036103 -217.65535037674076 0.0 0.0
-0.8987229864033459 0.09267218745357386 -0.2507599242544636 -221.37236415972362 0.0 0.0
-0.19889575033398188 -0.0376686295374391 -0.07470388165654285 -213.1605441298296 0.0 0.0
0.05207602722802562 0.0015488254819402414 0.02252035243636996 -206.52910705824934 0.0 0.0
-0.31526995393736 -0.006487148918822072 -0.1414252843369468 -205.59142448812983 0.0 0.0
-0.8143657938568225 0.16680852956780967 0.17869350974844878 -196.35966267007805 0.0 0.0
-1.9815375621433589 0.6975338593966356 0.31803273826044176 -186.53567814830487 0.0 0.0
-1.1325530094661929 1.9482495128491806 0.798739925098559 -179.09219109856625 0.0 0.0
5.820682013436112 5.300373379273481 1.9399450966733696 -173.84107536777378 0.0 0.0
26.392374644412058 11.828378483443032 5.237650492242238 -169.35482609779712 0.0 0.0
71.04858103496235 23.577045293331068 13.116891567818485 -164.13760795824652 0.0 0.0
156.080967122176 32.127976010125096 17.82266999370745 -155.13854579359315 0.0 0.0
370.53059541217976 -14.624519084901962 31.658426014792624 -148.9448342187903 0.0 0.0
581.5865776810417 19.233687842851523 225.86446287211794 -192.33682916801672 0.0 0.0
-579.4156315854043 -859.2668247083147 -641.4134685019916 -2.941646926046815e-11 0.0 0.0
581.5865776807635 19.233687842518577 225.86446287202597 192.33682916786256 0.0 0.0
370.5305954128493 -14.62451908375354 31.658426015226937 148.9448342196427 0.0 0.0
156.08096712237477 32.127976010070455 17.822669993762105 155.13854579402158 0.0 0.0
71.0485810340656 23.57704529221492 13.116891567074717 164.13760795840884 0.0 0.0
26.392374644863082 11.828378483929782 5.2376504925549625 169.3548260978085 0.0 0.0
5.820682013862452 5.300373379512685 1.9399450969657153 173.84107536788582 0.0 0.0
-1.1325530093453153 1.9482495127680792 0.7987399250799143 179.09219109855854 0.0 0.0
-1.9815375615278867 0.6975338600022951 0.3180327386197561 186.5356781483103 0.0 0.0
-0.8143657931206576 0.16680853012501018 0.17869351015189494 196.35966267024048 0.0 0.0
-0.3152699538859238 -0.006487150198683622 -0.1414252847409756 205.59142448792562 0.0 0.0
0.052076027787272494 0.0015488259931455417 0.02252035275855846 206.52910705800994 0.0 0.0
-0.1988957501312676 -0.037668629383116325 -0.07470388154549035 213.1605441299693 0.0 0.0
-0.898722986473933 0.09267218710542746 -0.25075992437397154 221.37236415975548 0.0 0.0
-2.810727780450886 1.3171321920532573 -0.4478383853095176 217.65535037655135 0.0 0.0
-6.633871971026435 7.6070550234167476 0.2980479687281661 200.09605598324183 0.0 0.0
-14.352976726636339 16.88965749561961 0.7608783249393118 184.1510169235293 0.0 0.0
-24.87633501691996 19.23375424688233 -1.696028535463144 180.20085633268795 0.0 0.0
-31.277739167390415 -4.596254961886247 -10.755259796672263 183.93562655760022 0.0 0.0
21.525339149864195 -67.15408612915436 -12.95681119833591 180.84022115545915 0.0 0.0
-130.0147280925924 -545.221365938296 -207.88369522834202 109.12027947348261 0.0 0.0
-104.29134492261092 -430.1216577598263 -160.2363227832538 -111.29130171357775 0.0 0.0
-11.64888738001137 -76.91048027524108 -26.577699725752616 -166.72962585944862 0.0 0.0
-55.16312728350496 -4.761273422181281 -17.983333777458075 -183.40496111905466 0.0 0.0
-66.34144650141245 17.797218366563165 -14.567422755109286 -181.83889185438966 0.0 0.0
-75.47900387135664 18.573746041224204 -17.073140477923392 -184.40086582299796 0.0 0.0
-95.8935129719365 11.201436133917227 -25.359832566632267 -197.51929075561145 0.0 0.0
-138.4839179583942 4.708265563864338 -40.12648491309018 -213.50077592740615 0.0 0.0
-212.17699367447443 5.681661469346787 -63.2546539647731 -215.55698977176024 0.0 0.0
-311.63123998591715 11.995353213021996 -96.9361482301642 -201.8038130002087 0.0 0.0
-400.81786867702857 16.662079731357004 -135.67835730819925 -180.95943638060731 0.0 0.0
-462.1033689934645 9.563115983005908 -174.38520969804404 -167.8583408734327 0.0 0.0
-507.5688248009469 -1.3881669052260648 -208.5170568498158 -162.28618468731645 0.0 0.0
-547.0154784512933 -9.861884582147312 -238.0136820716243 -160.24377621916625 0.0 0.0
-579.4813086927834 -15.08355300596726 -260.96259386351227 -159.0203822354846 0.0 0.0
-603.0541682331907 -16.733962641109997 -275.6401202970794 -159.04563028540136 0.0 0.0
-615.54599645405 -13.387706548769188 -279.3830140829142 -161.1659896909219 0.0 0.0
-615.0976248956414 -5.08442185778388 -270.0692540330656 -165.7807043430651 0.0 0.0
-608.6241480282648 1.923809501964513 -248.78320634990365 -175.49462988292453 0.0 0.0
-589.6211066475274 48.86738814710745 -190.6346056465836 -189.35068102909355 0.0 0.0
-322.97324301495155 147.00950788657792 11.486945845003333 -146.69863802970048 0.0 0.0
-1133.6253169058964 -1110.3289521341508 -1141.8496447710086 -1.8706458604356158e-10 0.0 0.0
-322.97324301533047 147.0095078858369 11.486945844507915 146.69863803045683 0.0 0.0
-589.6211066474298 48.86738814725683 -190.63460564646044 189.3506810293277 0.0 0.0
-608.6241480279499 1.9238095022033121 -248.78320634959871 175.494629883053 0.0 0.0
-615.0976248952434 -5.084421857500502 -270.069254032872 165.78070434308142 0.0 0.0
-615.5459964531155 -13.387706547934101 -279.3830140823093 161.16598969083415 0.0 0.0
-603.0541682330406 -16.733962641091622 -275.6401202969166 159.04563028555026 0.0 0.0
-579.4813086926996 -15.083553005949469 -260.9625938634191 159.0203822352824 0.0 0.0
-547.0154784506435 -9.861884581589319 -238.01368207125864 160.2437762192452 0.0 0.0
-507.5688248006241 -1.388166905295023 -208.51705684958975 162.28618468741033 0.0 0.0
-462.1033689928879 9.563115983593178 -174.38520969752904 167.85834087336724 0.0 0.0
-400.81786867596344 16.66207973224538 -135.67835730754263 180.95943638053961 0.0 0.0
-311.6312399851088 11.995353213366059 -96.93614822976625 201.80381300026772 0.0 0.0
-212.17699367411234 5.681661469088455 -63.2546539647203 215.55698977180037 0.0 0.0
-138.4839179579228 4.708265563973262 -40.126484912927516 213.50077592720152 0.0 0.0
-95.89351297188566 11.20143613352919 -25.359832566738902 197.51929075535406 0.0 0.0
-75.47900387113202 18.573746041613433 -17.073140477743 184.4008658227251 0.0 0.0
-66.34144650177585 17.79721836574309 -14.567422755468053 181.8388918542581 0.0 0.0
-55.16312728342868 -4.761273421963736 -17.983333777372344 183.40496111885915 0.0 0.0
-11.648887380146922 -76.91048027549392 -26.577699725866673 166.7296258592622 0.0 0.0
-104.29134492252606 -430.12165775919556 -160.2363227830873 111.29130171340081 0.0 0.0
-86.74547369431887 -328.8886800599668 -124.69340374425406 -103.45336768844543 0.0 0.0
-33.0234307340184 -80.3790264488114 -34.01645191751914 -154.5860244977585 0.0 0.0
-77.47130659104378 -5.110320796032431 -24.765100843229142 -179.46579860943623 0.0 0.0
-105.89318864793589 16.436831071830643 -26.85509890983212 -178.61548187256432 0.0 0.0
-135.4669044430269 19.726150193750325 -34.64314125485063 -180.41256468239354 0.0 0.0
-183.91622130211576 14.530883772055597 -50.57627251254759 -189.7466280037337 0.0 0.0
-267.58935457233184 4.489082721092332 -81.17671911003907 -193.86963958046948 0.0 0.0
-379.91571912744087 -7.06403301628481 -134.33169810538152 -184.86939562547354 0.0 0.0
-482.67369137777337 -18.496715509887874 -202.53051898590982 -169.9508438654546 0.0 0.0
-557.8455462512222 -19.911757846067438 -258.20406228758566 -161.6228388974785 0.0 0.0
-612.734604596125 -21.96393820529667 -298.04243791779345 -155.46766412172988 0.0 0.0
-660.0624400621896 -28.004067713901293 -329.56882416843683 -151.49519002651928 0.0 0.0
-704.1323839076182 -37.98822551521181 -358.88059664996297 -147.76891093765744 0.0 0.0
-741.669150874437 -45.634359305686615 -382.6381361250702 -144.6416354080623 0.0 0.0
-770.9100207973277 -48.78458431566138 -399.4389722733798 -143.33893347068476 0.0 0.0
-788.154193010325 -44.702055558800566 -406.25626543327104 -144.49804722183708 0.0 0.0
-793.1238706380028 -34.63946167973921 -403.444086529224 -148.4312570306997 0.0 0.0
-785.8817688832594 -21.08477896486167 -392.47046426267866 -155.134813089282 0.0 0.0
-739.2961198245671 23.173878325965916 -347.5515630889821 -163.0346457153528 0.0 0.0
-636.9483169491077 109.8914325511609 -256.0879198559498 -170.4648090975977 0.0 0.0
-1909.9230235280102 -1405.301345485321 -1621.417474070924 -1.7394086171407253e-11 0.0 0.0
-636.9483169487374 109.89143255128064 -256.08791985570616 170.46480909781855 0.0 0.0
-739.2961198245982 23.17387832563145 -347.5515630891085 163.0346457157742 0.0 0.0
-785.8817688825029 -21.084778964169487 -392.47046426210034 155.13481308940027 0.0 0.0
-793.1238706381857 -34.63946168009241 -403.44408652943764 148.43125703086403 0.0 0.0
-788.1541930094229 -44.702055557900245 -406.25626543269414 144.49804722172766 0.0 0.0
-770.9100207974506 -48.78458431591557 -399.43897227338186 143.33893347070628 0.0 0.0
-741.6691508740986 -45.634359305485795 -382.6381361248657 144.6416354079353 0.0 0.0
-704.1323839074057 -37.98822551534115 -358.88059664986747 147.76891093777192 0.0 0.0
-660.0624400615881 -28.0040677134878 -329.56882416796697 151.49519002653557 0.0 0.0
-612.734604595489 -21.963938204747897 -298.0424379173615 155.4676641215759 0.0 0.0
-557.8455462511574 -19.91175784647897 -258.20406228750954 161.6228388974356 0.0 0.0
-482.67369137722125 -18.49671550959925 -202.5305189854392 169.95084386541285 0.0 0.0
-379.91571912705655 -7.064033016499554 -134.3316981051698 184.8693956255875 0.0 0.0
-267.5893545716203 4.489082721494146 -81.1767191096692 193.8696395803468 0.0 0.0
-183.91622130205687 14.53088377128759 -50.57627251277984 189.74662800346394 0.0 0.0
-135.46690444262973 19.726150194259038 -34.64314125458533 180.41256468219737 0.0 0.0
-105.89318864790074 16.436831071617842 -26.8550989098903 178.61548187239939 0.0 0.0
-77.47130659092086 -5.110320795809761 -24.7651008431277 179.4657986092722 0.0 0.0
-33.02343073408768 -80.37902644889104 -34.01645191756337 154.5860244976256 0.0 0.0
-86.74547369422487 -328.8886800595919 -124.69340374411135 103.45336768833155 0.0 0.0
-70.42919422269276 -243.7523749765693 -94.25447075977863 -91.91892092373405 0.0 0.0
-48.477449879036236 -77.88534529375886 -37.909579677505214 -141.32777660129142 0.0 0.0
-97.98614544643647 -5.408222590795184 -31.00956507159229 -171.20382897448832 0.0 0.0
-143.84340077759407 15.12046424966918 -38.579242929959555 -171.59327176466957 0.0 0.0
-193.01398711434774 19.54272004989152 -51.94304146504813 -170.0318775987091 0.0 0.0
-268.20387905135874 13.277004274559946 -77.14280635616552 -170.72175512992962 0.0 0.0
-382.3929429009228 -5.122564042080024 -128.37028348423868 -167.24204757232303 0.0 0.0
-497.0628281515926 -27.264750404715354 -207.23184678393704 -155.27117387678183 0.0 0.0
-589.0107946353909 -36.5439694593568 -281.6351489301475 -149.1031046117881 0.0 0.0
-654.0257401816507 -36.34040877059865 -330.0686137558411 -144.84749254059122 0.0 0.0
-704.9868550532481 -40.73746108001902 -364.07218731324355 -140.39923417527996 0.0 0.0
-753.6487993868622 -50.19022713882893 -395.00905491328757 -136.96700332240394 0.0 0.0
-801.4920764446878 -63.218160232208135 -426.1319448871268 -133.3478347027579 0.0 0.0
-844.7526918840642 -75.40535318410078 -454.3022289828029 -130.06561136501665 0.0 0.0
-880.2254428643624 -82.67763716734257 -475.99114922033846 -128.43489969599665 0.0 0.0
-902.5170449949444 -81.32686251082296 -486.6471441318007 -129.79235478328155 0.0 0.0
-909.3467038548615 -69.42017673892542 -484.1898041997571 -134.46702877972618 0.0 0.0
-890.6113932484759 -38.97928759328599 -459.69229129074756 -140.68411800903573 0.0 0.0
-837.1080136836945 17.59768560361175 -405.3973402319606 -145.7678417688712 0.0 0.0
-690.6870919502295 152.52751984548212 -268.65989108249767 -148.57637953764885 0.0 0.0
-2355.101950113566 -1642.3662456600903 -1971.7371998053984 4.900613248537411e-11 0.0 0.0
-690.6870919494818 152.52751984617976 -268.6598910819707 148.57637953775802 0.0 0.0
-837.1080136842794 17.59768560265225 -405.3973402323568 145.767841769379 0.0 0.0
-890.6113932474766 -38.9792875921614 -459.69229129002247 140.68411800896493 0.0 0.0
-909.3467038554895 -69.42017673979541 -484.18980420022007 134.46702877984532 0.0 0.0
-902.5170449944449 -81.32686251043927 -486.6471441314709 129.79235478320456 0.0 0.0
-880.2254428649168 -82.6776371681739 -475.991149220662 128.43489969616058 0.0 0.0
-844.7526918830832 -75.40535318323202 -454.3022289821387 130.06561136497675 0.0 0.0
-801.4920764437775 -63.21816023145688 -426.13194488657945 133.34783470270557 0.0 0.0
-753.6487993864408 -50.19022713859945 -395.0090549130233 136.96700332240587 0.0 0.0
-704.9868550525953 -40.73746107964216 -364.0721873128876 140.39923417524517 0.0 0.0
-654.0257401815846 -36.340408770915765 -330.0686137557656 144.84749254063357 0.0 0.0
-589.0107946352092 -36.54396945952059 -281.6351489298789 149.10310461169595 0.0 0.0
-497.06282815087906 -27.264750404380433 -207.2318467833751 155.27117387676861 0.0 0.0
-382.3929429005291 -5.122564042001383 -128.37028348395648 167.24204757225323 0.0 0.0
-268.20387905078684 13.277004274685396 -77.14280635596882 170.72175512978 0.0 0.0
-193.01398711422326 19.5427200496435 -51.94304146508955 170.0318775985735 0.0 0.0
-143.8434007774529 15.120464249694303 -38.57924292991676 171.59327176444665 0.0 0.0
-97.98614544626835 -5.4082225905121755 -31.009565071456212 171.20382897443034 0.0 0.0
-48.47744987901152 -77.88534529373126 -37.909579677489354 141.3277766011363 0.0 0.0
-70.42919422257299 -243.75237497625503 -94.25447075964841 91.9189209237409 0.0 0.0
-57.287372931620574 -172.6067465202306 -68.96823583555532 -78.76256133694947 0.0 0.0
-60.29864291533747 -71.01862074741963 -39.39535525618246 -126.11223069961252 0.0 0.0
-117.15549255123764 -5.448734457382637 -36.77743103580507 -158.9103372436478 0.0 0.0
-179.57218046905524 13.155473971477674 -49.90972231279343 -159.50068427169165 0.0 0.0
-249.4254095005941 18.280428923528362 -69.07217811758053 -155.74062196279468 0.0 0.0
-351.98824231646427 8.55655922593408 -106.33541419483402 -148.89477203871198 0.0 0.0
-474.5006509298836 -20.47001826291962 -179.56146619884024 -136.76877476394682 0.0 0.0
-584.3054872800876 -41.81070945870577 -269.99829562638547 -131.1064372663651 0.0 0.0
-665.3398613953168 -47.54741664352507 -337.67736537163046 -128.8239862775012 0.0 0.0
-722.2899475783579 -52.68347740164788 -379.6929087364411 -125.53290838557342 0.0 0.0
-775.3334487574534 -58.91579167006299 -412.2768336176296 -123.59878313243959 0.0 0.0
-826.6306802954317 -70.99405451037701 -444.6412306239634 -120.78250242407995 0.0 0.0
-878.34237638876 -87.7752666808185 -479.1434322239073 -117.48917051711715 0.0 0.0
-927.5632227023871 -105.00637630723548 -512.595039723755 -114.22942491748046 0.0 0.0
-969.5302607676782 -117.8091912987644 -540.1959821239471 -112.29355904896511 0.0 0.0
-997.0324443313366 -119.00929171575712 -554.7494580284671 -113.50188208012935 0.0 0.0
-1000.1691113886643 -102.05041069075548 -548.052358521258 -117.72530448382047 0.0 0.0
-969.6318355074065 -56.55177308176181 -510.3018650681447 -123.23844964167749 0.0 0.0
-889.0850246590364 30.11263531383389 -427.6592060674417 -126.59978472240321 0.0 0.0
-721.5009678876098 188.54342392311372 -267.06691083728055 -126.92669568917118 0.0 0.0
-2705.613129437676 -1884.628678453193 -2274.261179858674 1.525535253676935e-11 0.0 0.0
-721.5009678860109 188.54342392462004 -267.06691083613634 126.92669568921825 0.0 0.0
-889.0850246593832 30.112635313189642 -427.65920606770004 126.59978472284988 0.0 0.0
-969.6318355074333 -56.55177308181524 -510.3018650681435 123.23844964181029 0.0 0.0
-1000.169111388257 -102.05041069048943 -548.0523585210882 117.72530448383289 0.0 0.0
-997.032444331039 -119.0092917154968 -554.7494580282969 113.50188208010758 0.0 0.0
-969.530260767822 -117.80919129920034 -540.1959821240023 112.29355904907042 0.0 0.0
-927.5632227018267 -105.00637630681415 -512.595039723325 114.22942491751819 0.0 0.0
-878.342376387965 -87.77526668011038 -479.1434322234501 117.48917051694312 0.0 0.0
-826.6306802962665 -70.99405451160644 -444.641230624564 120.78250242419544 0.0 0.0
-775.3334487561143 -58.91579166883854 -412.27683361679675 123.59878313234448 0.0 0.0
-722.2899475781295 -52.68347740170126 -379.6929087362639 125.53290838548199 0.0 0.0
-665.3398613953234 -47.547416643955316 -337.6773653715751 128.82398627756658 0.0 0.0
-584.3054872794679 -41.81070945833826 -269.9982956258212 131.1064372662686 0.0 0.0
-474.5006509296605 -20.470018263351257 -179.56146619864631 136.76877476395268 0.0 0.0
-351.9882423159353 8.556559226017232 -106.33541419460084 148.8947720386753 0.0 0.0
-249.42540950024943 18.280428923480855 -69.07217811752054 155.7406219625398 0.0 0.0
-179.57218046887286 13.155473971478214 -49.90972231274472 159.5006842715482 0.0 0.0
-117.15549255108915 -5.4487344572522565 -36.77743103571993 158.91033724363746 0.0 0.0
-60.29864291526035 -71.01862074738179 -39.39535525614797 126.11223069949132 0.0 0.0
-57.28737293149036 -172.60674651997016 -68.96823583543814 78.76256133689989 0.0 0.0
-47.66403571923503 -114.8491973388817 -48.75396991743501 -64.99146759427691 0.0 0.0
-69.61458022870437 -61.188262545057896 -39.24085283212867 -108.82663133630714 0.0 0.0
-135.17591447865556 -4.995480189080681 -42.05198008856257 -142.54975120050705 0.0 0.0
-213.4879986363328 11.016055802270985 -60.6846535363688 -143.4762141708432 0.0 0.0
-303.6226138713116 13.467044700128355 -87.22919358773233 -134.74014242489838 0.0 0.0
-427.3832601523985 -1.868031657938129 -139.45619181992757 -121.95656024008933 0.0 0.0
-550.3242086515843 -34.07496605461593 -229.7335379584424 -110.59327467989473 0.0 0.0
-651.2951820462515 -50.697056350120626 -320.0370722149532 -108.82460196139947 0.0 0.0
-720.066640287294 -60.260023322953536 -379.43573475614284 -107.07370642816464 0.0 0.0
-779.8294823223775 -66.35383907989248 -418.52078915539664 -106.95562088432037 0.0 0.0
-834.2401762610658 -76.37175033184354 -452.2390546213793 -105.71269314993472 0.0 0.0
-888.9539808308809 -91.89558649696582 -487.6302007445244 -103.40748000350038 0.0 0.0
-944.5852676481786 -112.16962888184156 -525.6844483843075 -100.59104559326967 0.0 0.0
-998.7530129580701 -133.6118445252852 -563.5947252754638 -97.6484210012144 0.0 0.0
-1047.6094875797837 -152.36471641163507 -597.5313871837911 -95.48138205738783 0.0 0.0
-1079.5823481131954 -157.3139345319432 -616.2444862358831 -95.74117643448884 0.0 0.0
-1078.9453434432176 -133.25368501992654 -604.1921357811332 -99.2921670828749 0.0 0.0
-1030.7530451379926 -68.78513546882525 -548.2703425984821 -104.02351264267907 0.0 0.0
-924.2463439978544 44.501254558343504 -439.17208458701487 -106.80341137185493 0.0 0.0
-745.2669344748264 214.63214562718096 -265.92543857178504 -109.02967556825088 0.0 0.0
-3005.8854391071536 -2114.0875067190727 -2543.3396569312818 2.7036151095671812e-11 0.0 0.0
-745.2669344733029 214.63214562878 -265.9254385707911 109.02967556819026 0.0 0.0
-924.2463439969736 44.501254559058 -439.17208458647553 106.80341137202538 0.0 0.0
-1030.7530451392665 -68.78513547023161 -548.2703425993659 104.02351264294242 0.0 0.0
-1078.9453434414252 -133.2536850181126 -604.1921357799988 99.29216708267504 0.0 0.0
-1079.5823481121147 -157.31393453099957 -616.2444862350933 95.74117643442808 0.0 0.0
-1047.6094875790754 -152.36471641114105 -597.5313871832888 95.4813820575055 0.0 0.0
-998.7530129577646 -133.61184452515906 -563.5947252751427 97.64842100128766 0.0 0.0
-944.5852676481775 -112.16962888198613 -525.6844483844994 100.59104559316482 0.0 0.0
-888.9539808310885 -91.8955864974837 -487.63020074467534 103.40748000355632 0.0 0.0
-834.2401762601326 -76.37175033101808 -452.23905462082166 105.71269314979412 0.0 0.0
-779.8294823224563 -66.35383908022786 -418.5207891554467 106.95562088415194 0.0 0.0
-720.066640286678 -60.26002332265766 -379.4357347556877 107.07370642819046 0.0 0.0
-651.2951820459239 -50.697056350113854 -320.0370722145672 108.8246019613231 0.0 0.0
-550.3242086510505 -34.074966054540795 -229.73353795795964 110.59327467990215 0.0 0.0
-427.3832601522636 -1.868031658395938 -139.45619181989744 121.95656024001475 0.0 0.0
-303.6226138707288 13.467044700385253 -87.22919358750858 134.74014242484637 0.0 0.0
-213.48799863631 11.016055801971804 -60.68465353645312 143.47621417072185 0.0 0.0
-135.17591447853457 -4.995480189006424 -42.05198008850267 142.5497512003716 0.0 0.0
-69.61458022862999 -61.188262545019526 -39.240852832094866 108.8266313361757 0.0 0.0
-47.664035719122225 -114.84919733867142 -48.75396991733808 64.9914675942087 0.0 0.0
-41.301091077278244 -70.1207496626556 -33.42655222198015 -50.97366491463206 0.0 0.0
-76.85737043742355 -49.66965279052161 -37.95810696838355 -89.63707940977817 0.0 0.0
-152.11507192597824 -3.98186239633047 -46.829461793003574 -122.18258066796612 0.0 0.0
-245.95672783579022 7.865607473392335 -71.38074362413164 -122.77992600242689 0.0 0.0
-360.35506225667416 7.64937018637129 -106.61522819431553 -111.07342346334936 0.0 0.0
-489.5192648431927 -17.673560490314514 -176.15017165146043 -91.90335368799359 0.0 0.0
-611.9902086855973 -43.12382836228372 -274.7279981368448 -87.00586438419035 0.0 0.0
-698.1712164224239 -60.033503245896604 -358.7361475721518 -86.3153128559063 0.0 0.0
-768.0654855278427 -70.07818805638924 -412.4615372735401 -86.90303660802363 0.0 0.0
-828.5031280630767 -80.27508175961817 -451.504849210262 -87.51840828261278 0.0 0.0
-886.3299265259714 -94.02742630796028 -488.07246418736514 -86.85588006786706 0.0 0.0
-944.5886267901863 -112.86459301324975 -526.7579550451018 -85.09512915432796 0.0 0.0
-1003.7180411467094 -136.07583922591343 -567.9774437855256 -82.86489609095112 0.0 0.0
-1061.6359483261413 -161.61166404829711 -609.7453340736134 -80.4230863481473 0.0 0.0
-1115.5136033282608 -184.42402438717653 -648.1531230989682 -78.15263497759719 0.0 0.0
-1153.3819950626023 -193.65896312828767 -671.9263806928054 -77.27053567963003 0.0 0.0
-1151.2175342385672 -167.21159523963945 -658.0267089015529 -79.28703690163343 0.0 0.0
-1086.21754105021 -84.2918931412286 -584.5408393816112 -83.53256063808678 0.0 0.0
-954.6710030875474 54.92001816393321 -449.72240651956054 -87.82887877451229 0.0 0.0
-759.8237057172121 240.24580434848357 -260.2421753529645 -93.97196141533568 0.0 0.0
-3266.8142597896767 -2322.9134041911366 -2781.360351057899 2.1582735598713043e-11 0.0 0.0
-759.8237057172937 240.24580434834144 -260.2421753530406 93.9719614154746 0.0 0.0
-954.671003086162 54.92001816525513 -449.7224065186707 87.82887877454866 0.0 0.0
-1086.2175410514235 -84.29189314263871 -584.5408393824825 83.53256063840726 0.0 0.0
-1151.2175342375078 -167.2115952386236 -658.0267089008972 79.28703690158262 0.0 0.0
-1153.381995061852 -193.65896312761907 -671.9263806922957 77.27053567955122 0.0 0.0
-1115.5136033274935 -184.4240243865678 -648.1531230984456 78.15263497760853 0.0 0.0
-1061.6359483259812 -161.61166404833202 -609.7453340733936 80.42308634821663 0.0 0.0
-1003.7180411468638 -136.07583922626716 -567.9774437857332 82.86489609088598 0.0 0.0
-944.5886267892038 -112.8645930125135 -526.7579550444625 85.09512915434688 0.0 0.0
-886.329926526247 -94.02742630844573 -488.0724641875534 86.85588006780561 0.0 0.0
-828.5031280633777 -80.27508176023188 -451.5048492104612 87.51840828252281 0.0 0.0
-768.0654855266336 -70.0781880554153 -412.46153727271263 86.90303660801156 0.0 0.0
-698.1712164218292 -60.03350324558675 -358.73614757163944 86.31531285581622 0.0 0.0
-611.9902086845855 -43.12382836154051 -274.7279981360216 87.00586438407734 0.0 0.0
-489.51926484306796 -17.673560490737785 -176.1501716513477 91.90335368791968 0.0 0.0
-360.35506225626585 7.64937018620493 -106.61522819424799 111.0734234633011 0.0 0.0
-245.95672783576248 7.8656074731049035 -71.38074362421116 122.7799260022918 0.0 0.0
-152.11507192591154 -3.981862396429684 -46.82946179301338 122.1825806678688 0.0 0.0
-76.85737043731044 -49.66965279047814 -37.95810696833657 89.6370794096994 0.0 0.0
-41.30109107714295 -70.12074966251873 -33.426552221898504 50.97366491451832 0.0 0.0
-37.52854317997674 -38.18489956382469 -22.71403282314042 -37.07642524531052 0.0 0.0
-81.90193372599686 -37.59803370726547 -35.84999022997869 -68.77148468654009 0.0 0.0
-167.7573488748791 -2.5808054449979445 -51.10170053584508 -97.66662204911916 0.0 0.0
-278.2918651671046 3.7096719817126114 -82.29387958784443 -97.64482409876908 0.0 0.0
-414.3012778476028 -2.0719619232367847 -128.61714862369715 -82.2683586735659 0.0 0.0
-548.7121700057677 -29.262641505204435 -213.08845498637257 -66.63018588629377 0.0 0.0
-656.1927093845061 -51.34490673075135 -313.2016873837691 -64.84438750167898 0.0 0.0
-737.5112676348544 -66.61750801246643 -388.48799295761046 -65.0008558146657 0.0 0.0
-808.2357646234948 -80.45111815465592 -440.189791915313 -66.32694163757002 0.0 0.0
-871.7686638379377 -94.38367794066761 -481.1163193326633 -67.35734625710994 0.0 0.0
-933.0067349360963 -111.82034031275174 -520.9181472099606 -67.12458301810508 0.0 0.0
-995.0545192604509 -134.08028403345327 -563.1520402164194 -65.88919162471744 0.0 0.0
-1057.4337018083395 -160.7392588455273 -607.7035650761584 -64.22552117820987 0.0 0.0
-1117.91036726228 -187.36221658051406 -651.2656962638797 -62.50221769561669 0.0 0.0
-1173.6258733387529 -212.1200439464281 -691.5129418266381 -60.4691831971042 0.0 0.0
-1216.933079706951 -226.6435579811171 -720.577833864329 -58.45455609562118 0.0 0.0
-1222.0317958850821 -205.86309592284812 -713.1518273965637 -58.356287082088485 0.0 0.0
-1147.895073163065 -112.3889672961526 -629.8904706936438 -62.10454360884693 0.0 0.0
-987.375017197502 56.60074190806584 -465.5611504170511 -69.16439395287627 0.0 0.0
-761.6399608992333 273.16662472719906 -244.56355616162676 -80.31471069802627 0.0 0.0
-3488.6872685834646 -2501.7382156499507 -2984.1929207763296 7.200640084192855e-11 0.0 0.0
-761.6399608994079 273.1666247269229 -244.56355616175182 80.31471069823493 0.0 0.0
-987.375017197224 56.60074190832124 -465.5611504168945 69.1643939529465 0.0 0.0
-1147.8950731630262 -112.38896729625876 -629.8904706935964 62.104543608971184 0.0 0.0
-1222.0317958855642 -205.86309592342323 -713.1518273969109 58.35628708214716 0.0 0.0
-1216.9330797067735 -226.64355798106507 -720.5778338641294 58.45455609556463 0.0 0.0
-1173.6258733388847 -212.1200439467292 -691.5129418267484 60.46918319713207 0.0 0.0
-1117.9103672626632 -187.3622165811172 -651.2656962640248 62.50221769573143 0.0 0.0
-1057.4337018076892 -160.73925884509646 -607.7035650757766 64.22552117826717 0.0 0.0
-995.054519259673 -134.08028403291203 -563.152040215957 65.88919162475757 0.0 0.0
-933.0067349367491 -111.8203403136511 -520.9181472103513 67.12458301803217 0.0 0.0
-871.7686638375525 -94.38367794056109 -481.1163193323968 67.35734625701355 0.0 0.0
-808.2357646227266 -80.45111815413875 -440.18979191480577 66.32694163748646 0.0 0.0
-737.511267634447 -66.61750801240828 -388.48799295727406 65.00085581473961 0.0 0.0
-656.1927093837814 -51.34490673032543 -313.20168738312157 64.84438750158174 0.0 0.0
-548.7121700055002 -29.262641505431006 -213.08845498611112 66.63018588632147 0.0 0.0
-414.30127784709373 -2.0719619231169877 -128.61714862347122 82.26835867348282 0.0 0.0
-278.2918651666262 3.709671982112141 -82.293879587609 97.64482409869113 0.0 0.0
-167.7573488748375 -2.580805445222712 -51.10170053589973 97.66662204912218 0.0 0.0
-81.9019337259153 -37.59803370718623 -35.84999022993045 68.77148468652081 0.0 0.0
-37.52854317998474 -38.184899563834676 -22.71403282314582 37.076425245088544 0.0 0.0
-35.12899017737023 -18.677643022090905 -16.141989959838337 -24.062529294093142 0.0 0.0
-84.00984654475891 -26.14195590248052 -33.04554073417182 -46.52792371765891 0.0 0.0
-181.74625149239756 -1.3039681242567687 -54.91506588499629 -68.50658232431365 0.0 0.0
-311.9743271773335 -1.165851075531589 -93.7430896979615 -67.57563769593045 0.0 0.0
-464.113166153031 -15.109913317822631 -153.9141786620859 -51.77066686782892 0.0 0.0
-596.1771230153047 -38.47206813781784 -248.70909119480444 -43.51074900936594 0.0 0.0
-688.4303218457113 -57.32340639706512 -343.3690423230093 -43.20775968930658 0.0 0.0
-771.0347987957133 -74.05376456341916 -413.5355978353559 -44.153774252143464 0.0 0.0
-843.6044686646815 -91.4157007734004 -464.7368752837277 -45.418635065370204 0.0 0.0
-910.3968552101902 -108.84148264665805 -508.21418821029283 -46.451547634380326 0.0 0.0
-975.5539858891605 -129.78615574173978 -551.5885822272198 -46.55253976458791 0.0 0.0
-1041.0133144655533 -155.45850226801966 -597.2226209324056 -45.82578898031706 0.0 0.0
-1106.8188277372465 -184.19504502671762 -644.5100318253814 -44.84141586805981 0.0 0.0
-1169.1551304298223 -213.1868751886609 -690.1920704588651 -43.71123949986458 0.0 0.0
-1224.4138571166934 -236.90680974799113 -729.6969541402997 -42.2190984764346 0.0 0.0
-1266.519760961052 -249.8464885009432 -757.2778522482688 -39.98839059453948 0.0 0.0
-1283.8485837996354 -241.0366965426676 -761.7703548386177 -37.862121502895235 0.0 0.0
-1235.428477248927 -171.93978377334565 -703.567501453366 -39.56860057624781 0.0 0.0
-1041.4168523488365 32.43809710610341 -504.9253030630317 -49.21763323909931 0.0 0.0
-737.7594943716432 328.4057047017171 -205.01692563455092 -66.90427906384957 0.0 0.0
-3657.8253949259465 -2633.124405382601 -3136.507508400049 4.0879299945117964e-11 0.0 0.0
-737.7594943723237 328.4057047009903 -205.01692563497232 66.90427906395797 0.0 0.0
-1041.4168523487394 32.43809710609693 -504.92530306303695 49.21763323922427 0.0 0.0
-1235.4284772496865 -171.93978377417528 -703.5675014538756 39.56860057631259 0.0 0.0
-1283.848583799607 -241.03669654276214 -761.7703548385699 37.8621215029044 0.0 0.0
-1266.5197609604106 -249.84648850045215 -757.2778522477001 39.98839059453219 0.0 0.0
-1224.4138571171954 -236.90680974861627 -729.6969541405931 42.219098476450384 0.0 0.0
-1169.1551304298578 -213.1868751889372 -690.1920704587969 43.71123949987059 0.0 0.0
-1106.818827737607 -184.19504502729018 -644.51003182571 44.84141586823212 0.0 0.0
-1041.0133144641254 -155.45850226680832 -597.2226209314625 45.82578898023489 0.0 0.0
-975.5539858885785 -129.78615574145033 -551.588582226866 46.55253976459796 0.0 0.0
-910.3968552097792 -108.84148264652453 -508.2141882100381 46.45154763446683 0.0 0.0
-843.6044686640106 -91.41570077301117 -464.73687528328 45.41863506535947 0.0 0.0
-771.034798796038 -74.0537645640982 -413.5355978354709 44.15377425219732 0.0 0.0
-688.430321845124 -57.3234063968 -343.3690423224627 43.20775968921448 0.0 0.0
-596.1771230147573 -38.47206813759296 -248.70909119428808 43.5107490093068 0.0 0.0
-464.11316615231357 -15.109913317468582 -153.91417866169024 51.77066686770112 0.0 0.0
-311.974327176826 -1.1658510750125621 -93.74308969767391 67.57563769586189 0.0 0.0
-181.7462514923841 -1.3039681243212669 -54.9150658850116 68.50658232432606 0.0 0.0
-84.00984654476072 -26.141955902507036 -33.04554073418033 46.52792371758459 0.0 0.0
-35.12899017745812 -18.677643022104977 -16.141989959868926 24.062529293899622 0.0 0.0
-31.80353529014488 -10.57734980881191 -12.714265529687035 -13.588728579044723 0.0 0.0
-81.6978471509076 -16.951813033923727 -29.594898055449384 -23.310581435108737 0.0 0.0
-193.5382087716163 -1.1196131821770008 -58.397346586138 -33.39209314721791 0.0 0.0
-347.5553978957198 -5.853068074148552 -106.02720988637066 -32.031305649533806 0.0 0.0
-513.6039965392986 -25.845002089678253 -181.00644481075437 -23.21364923000889 0.0 0.0
-630.6391864290721 -45.282839536455555 -280.4411119559175 -22.270239734008204 0.0 0.0
-717.2660852693091 -60.998880649314586 -367.3637034656894 -23.14296774973105 0.0 0.0
-799.7641236385739 -82.03381716725731 -434.82123361570495 -23.636614225382708 0.0 0.0
-874.8998287050113 -102.52944653868053 -486.7248419031612 -24.20275282995375 0.0 0.0
-945.3350812263951 -123.88916533302132 -533.5755616896438 -24.846573949482806 0.0 0.0
-1014.1370941223406 -148.1133489768693 -580.3498713677128 -25.109379131060354 0.0 0.0
-1083.1743830395017 -176.17919942255173 -628.968060469168 -24.986606811003114 0.0 0.0
-1151.726140041991 -208.0207172514318 -679.1786449138239 -24.583162014550677 0.0 0.0
-1216.432860088 -238.15990772537478 -726.616524482112 -24.054965268702336 0.0 0.0
-1270.126472894368 -259.96053188612365 -764.3977585201383 -23.243004470565133 0.0 0.0
-1306.4558365499338 -267.18839460830725 -786.2334119795066 -21.670029318536223 0.0 0.0
-1322.7355075451444 -257.71784328507897 -789.6836956791672 -19.15853347508068 0.0 0.0
-1318.1313675921108 -231.9733992431761 -774.6587650164281 -17.888424150369335 0.0 0.0
-1209.8460182535139 -110.44678166756378 -660.4552597508361 -25.428379549576054 0.0 0.0
-717.3033059048275 378.6926310397771 -169.9356143922312 -50.02548105164057 0.0 0.0
-3619.0218038957773 -2558.451402706566 -3081.915520960611 8.732570222491631e-12 0.0 0.0
-717.3033059057218 378.6926310387919 -169.93561439277258 50.02548105179602 0.0 0.0
-1209.8460182535084 -110.44678166759165 -660.4552597509683 25.428379549611023 0.0 0.0
-1318.1313675931392 -231.9733992443377 -774.6587650171595 17.88842415049167 0.0 0.0
-1322.7355075442142 -257.71784328424377 -789.6836956785748 19.158533475123875 0.0 0.0
-1306.45583655079 -267.18839460931093 -786.2334119800267 21.67002931854958 0.0 0.0
-1270.1264728938147 -259.9605318857187 -764.3977585197252 23.24300447050269 0.0 0.0
-1216.4328600869978 -238.1599077245549 -726.6165244814107 24.05496526866231 0.0 0.0
-1151.7261400427817 -208.02071725247401 -679.1786449143915 24.58316201464491 0.0 0.0
-1083.174383038224 -176.1791994214948 -628.9680604683347 24.986606811094195 0.0 0.0
-1014.1370941209138 -148.1133489756713 -580.3498713667586 25.10937913093452 0.0 0.0
-945.3350812256541 -123.88916533254758 -533.5755616891025 24.846573949369336 0.0 0.0
-874.8998287041198 -102.52944653807333 -486.72484190258723 24.202752829992736 0.0 0.0
-799.7641236388515 -82.03381716787271 -434.82123361580136 23.636614225350336 0.0 0.0
-717.2660852688686 -60.99888064916435 -367.363703465271 23.142967749657977 0.0 0.0
-630.6391864289137 -45.282839536692435 -280.4411119556277 22.270239733919325 0.0 0.0
-513.6039965385833 -25.845002089219506 -181.00644481027453 23.213649229944757 0.0 0.0
-347.5553978953741 -5.853068074161271 -106.02720988628688 32.0313056494983 0.0 0.0
-193.53820877138813 -1.1196131821302204 -58.3973465860555 33.39209314733375 0.0 0.0
-81.69784715082731 -16.951813033944127 -29.594898055431422 23.310581434998852 0.0 0.0
-31.803535290172857 -10.57734980879706 -12.714265529690971 13.588728579075985 0.0 0.0
-20.552276157868526 -5.3393464557449555 -7.767486784084045 -8.369041928353058 0.0 0.0
-70.96497936343842 -9.651831371736893 -24.185043220552597 -9.684656290147641 0.0 0.0
-202.308362626571 -2.9462976856885064 -61.576398093677845 -11.167702538229003 0.0 0.0
-390.8415956043822 -21.87872780665937 -125.16070802686082 -8.282807122180845 0.0 0.0
-581.1448305374217 -68.47849571448845 -226.62195954231123 -0.39326718761318347 0.0 0.0
-718.5762278759004 -115.39949487506158 -353.96016698420556 1.269930072572457 0.0 0.0
-837.0951553776146 -165.94344181239512 -471.7047536345483 0.7508083591163022 0.0 0.0
-962.3529916581717 -231.24913749547142 -580.9986824915754 -0.6618514292342503 0.0 0.0
-1094.0964876917874 -309.2072737951112 -689.6928876375052 -2.255622312551603 0.0 0.0
-1240.8547002084497 -406.6512433431032 -812.6023409246554 -3.9395815164744405 0.0 0.0
-1408.311602425571 -528.888818696814 -957.3979086246653 -5.535514709588211 0.0 0.0
-1597.061119079384 -676.8780774300227 -1125.4194212425086 -6.829513828782698 0.0 0.0
-1801.7525995526905 -843.7683240599868 -1310.7808832640344 -7.696601604038513 0.0 0.0
-2012.7433330173697 -1019.7596172457927 -1503.91625059667 -8.414051161848503 0.0 0.0
-2214.2520072916195 -1189.0137967683327 -1689.0433311801266 -8.797175438925823 0.0 0.0
-2384.368163915172 -1329.923082280162 -1844.452627101778 -8.56858430296353 0.0 0.0
-2496.5168007623183 -1416.7032086221282 -1943.968912516229 -7.287586188189824 0.0 0.0
-2534.855432094728 -1434.4016188122537 -1971.78042074363 -5.530679559639527 0.0 0.0
-2572.324901494061 -1457.2175851843044 -2000.6112685979906 -11.305581132780043 0.0 0.0
-2625.5438384625777 -1508.9102948981515 -2050.3927632650575 -39.50511942699183 0.0 0.0
-6042.173476396061 -4953.7242059890705 -5473.476183475004 9.897860309138196e-11 0.0 0.0
-2625.543838463107 -1508.910294898736 -2050.392763265333 39.505119427072195 0.0 0.0
-2572.324901494415 -1457.2175851847142 -2000.6112685981295 11.305581132650545 0.0 0.0
-2534.8554320937073 -1434.4016188113449 -1971.7804207426962 5.530679559702548 0.0 0.0
-2496.516800760538 -1416.7032086204395 -1943.9689125148388 7.287586188131616 0.0 0.0
-2384.368163916104 -1329.9230822812751 -1844.4526271021648 8.568584303033802 0.0 0.0
-2214.2520072898633 -1189.0137967667051 -1689.043331178725 8.797175438800608 0.0 0.0
-2012.7433330151357 -1019.7596172437379 -1503.9162505948746 8.414051161779838 0.0 0.0
-1801.7525995520582 -843.7683240595674 -1310.7808832633486 7.696601603990455 0.0 0.0
-1597.0611190786817 -676.8780774295756 -1125.4194212418802 6.829513828910443 0.0 0.0
-1408.3116024238798 -528.8888186953795 -957.3979086232499 5.535514709407256 0.0 0.0
-1240.8547002063344 -406.65124334125255 -812.6023409230618 3.9395815163469656 0.0 0.0
-1094.0964876903784 -309.2072737939617 -689.6928876365065 2.2556223125349106 0.0 0.0
-962.3529916576481 -231.24913749526618 -580.9986824910999 0.6618514291231072 0.0 0.0
-837.0951553769778 -165.94344181206074 -471.70475363397145 -0.7508083591568031 0.0 0.0
-718.5762278759853 -115.39949487561091 -353.9601669839975 -1.2699300724767895 0.0 0.0
-581.1448305364364 -68.47849571367377 -226.62195954158986 0.39326718764498736 0.0 0.0
-390.84159560411547 -21.878727806894407 -125.16070802682144 8.282807122301378 0.0 0.0
-202.30836262641049 -2.94629768572948 -61.57639809364197 11.167702538413682 0.0 0.0
-70.96497936338548 -9.651831371675586 -24.18504322051832 9.684656290001168 0.0 0.0
-20.55227615789321 -5.339346455774394 -7.7674867841002815 8.36904192858264 0.0 0.0
SCALARS Strain float 6
LOOKUP_TABLE default
0.014152725885105025 -0.023648593078000296 0.0 -0.0013185449890161381 0.0 0.0
0.008690566455385575 -0.002507012258155499 0.0 -0.007205809173151394 0.0 0.0
0.0025866982572604843 -0.0006166917407095267 0.0 -0.000832728285807603 0.0 0.0
0.0022167749286830505 -0.0008841759437571899 0.0 6.766770150369391e-07 0.0 0.0
0.003226028427119364 -0.0013959118437258866 0.0 0.00016974294088778805 0.0 0.0
0.0054279121741398605 -0.003044455321895341 0.0 0.000318872288322651 0.0 0.0
0.00923599186384497 -0.0062803998425975446 0.0 0.0004248049656974737 0.0 0.0
0.014955868167784225 -0.01140831487850074 0.0 0.00046327132133356795 0.0 0.0
0.022833696653267517 -0.01864882421726428 0.0 0.00043552398481840564 0.0 0.0
0.03296431147592928 -0.028040694098968727 0.0 0.00031644232785258173 0.0 0.0
0.04529481047526253 -0.0394964479975769 0.0 0.00014037146542513412 0.0 0.0
0.05968919734995916 -0.052876718110184934 0.0 -8.944083689236388e-05 0.0 0.0
0.07597478892357432 -0.06804213725494634 0.0 -0.0004021154776520367 0.0 0.0
0.09396691839696583 -0.0848497052653868 0.0 -0.0007506573566549188 0.0 0.0
0.11339633926672324 -0.10308520433203991 0.0 -0.0011682456707252419 0.0 0.0
0.13375737447044264 -0.12230427063540261 0.0 -0.0016432856980205706 0.0 0.0
0.15420351938220656 -0.1417222265431761 0.0 -0.0020840957301086174 0.0 0.0
0.17353731011563397 -0.16020410281889186 0.0 -0.002321938671466898 0.0 0.0
0.1903257687139987 -0.1763334059965572 0.0 -0.0021864644247700867 0.0 0.0
0.20283404092676932 -0.18845388981347466 0.0 -0.0024498719059614675 0.0 0.0
0.2077725391117607 -0.1934479755689461 0.0 2.8258645423662188e-15 0.0 0.0
0.2028340409267442 -0.18845388981344285 0.0 0.002449871905968652 0.0 0.0
0.19032576871394238 -0.17633340599649372 0.0 0.002186464424778224 0.0 0.0
0.1735373101155517 -0.16020410281881706 0.0 0.002321938671472061 0.0 0.0
0.15420351938211194 -0.14172222654309546 0.0 0.0020840957301078832 0.0 0.0
0.13375737447034547 -0.1223042706353098 0.0 0.0016432856980159822 0.0 0.0
0.11339633926662532 -0.10308520433194718 0.0 0.001168245670725319 0.0 0.0
0.09396691839686692 -0.08484970526530226 0.0 0.0007506573566543372 0.0 0.0
0.07597478892347719 -0.06804213725485404 0.0 0.00040211547765031663 0.0 0.0
0.059689197349870396 -0.05287671811010465 0.0 8.944083689259264e-05 0.0 0.0
0.04529481047518634 -0.03949644799749849 0.0 -0.0001403714654297254 0.0 0.0
0.03296431147586753 -0.02804069409890772 0.0 -0.0003164423278525883 0.0 0.0
0.022833696653220433 -0.018648824217223508 0.0 -0.0004355239848175163 0.0 0.0
0.01495586816775053 -0.011408314878468197 0.0 -0.00046327132133773096 0.0 0.0
0.00923599186382299 -0.006280399842578385 0.0 -0.00042480496569627174 0.0 0.0
0.005427912174127669 -0.0030444553218877636 0.0 -0.00031887228832421215 0.0 0.0
0.003226028427114532 -0.0013959118437244567 0.0 -0.0001697429408839544 0.0 0.0
0.0022167749286817807 -0.0008841759437564368 0.0 -6.766770157491854e-07 0.0 0.0
0.002586698257258633 -0.000616691740710353 0.0 0.0008327282858053864 0.0 0.0
0.008690566455379798 -0.0025070122581523444 0.0 0.007205809173140527 0.0 0.0
0.014152725885096584 -0.023648593077975035 0.0 0.0013185449889685098 0.0 0.0
0.009867212017462091 -0.021196414992655198 0.0 -0.0008471246876437671 0.0 0.0
0.005779755857317818 -0.0018728257278574556 0.0 -0.005858412620564294 0.0 0.0
0.0017095725844438348 -0.0004754859776066599 0.0 -0.0005303264105402671 0.0 0.0
0.001957328846074527 -0.0008319182315506266 0.0 -0.00019550754771714267 0.0 0.0
0.0027817342822492952 -0.0012576372042434308 0.0 -0.00015239155565227672 0.0 0.0
0.004653369591388207 -0.002726804419559109 0.0 -0.00022395704932798825 0.0 0.0
0.008039455033795972 -0.005738301012836071 0.0 -0.0005094710791608818 0.0 0.0
0.013226464388415238 -0.01059177424737086 0.0 -0.000958310087614312 0.0 0.0
0.020411860095479562 -0.017483914719212987 0.0 -0.0015877320352381435 0.0 0.0
0.029631378166719832 -0.026423656806429198 0.0 -0.0023703066854441554 0.0 0.0
0.0407947369384377 -0.03730382163994879 0.0 -0.003227437827852186 0.0 0.0
0.05376795727005416 -0.049982363728711086 0.0 -0.0041012462734814886 0.0 0.0
0.06843202289517425 -0.06434146301491463 0.0 -0.005008177974911704 0.0 0.0
0.0846525721288397 -0.08026866443696987 0.0 -0.005956328480524453 0.0 0.0
0.10219925729412756 -0.09756633806798125 0.0 -0.0069197232053857805 0.0 0.0
0.12063460187209939 -0.11582459820265184 0.0 -0.007816071580197849 0.0 0.0
0.13921510031552264 -0.13431713811507548 0.0 -0.008420986289822846 0.0 0.0
0.15687621587024278 -0.15197650904262872 0.0 -0.008403077516887446 0.0 0.0
0.17221951482212802 -0.16742250713993326 0.0 -0.007555623645349549 0.0 0.0
0.1832388701915421 -0.17884777317622844 0.0 -0.006469264289074031 0.0 0.0
0.1873633078252026 -0.18360514876112496 0.0 8.706577125927595e-15 0.0 0.0
0.18323887019151813 -0.17884777317619588 0.0 0.0064692642890932335 0.0 0.0
0.17221951482207776 -0.167422507139881 0.0 0.007555623645371125 0.0 0.0
0.1568762158701707 -0.15197650904255927 0.0 0.008403077516898182 0.0 0.0
0.13921510031543913 -0.13431713811499274 0.0 0.008420986289826033 0.0 0.0
0.1206346018720123 -0.11582459820256619 0.0 0.007816071580193665 0.0 0.0
0.10219925729403909 -0.09756633806789643 0.0 0.006919723205384137 0.0 0.0
0.08465257212875062 -0.0802686644368841 0.0 0.0059563284805208595 0.0 0.0
0.06843202289508732 -0.06434146301482893 0.0 0.005008177974907187 0.0 0.0
0.05376795726997394 -0.04998236372863518 0.0 0.0041012462734788 0.0 0.0
0.04079473693836845 -0.0373038216398773 0.0 0.0032274378278431366 0.0 0.0
0.0296313781666641 -0.026423656806373836 0.0 0.0023703066854395506 0.0 0.0
0.020411860095436635 -0.0174839147191753 0.0 0.0015877320352338312 0.0 0.0
0.013226464388384445 -0.010591774247340232 0.0 0.0009583100876076673 0.0 0.0
0.008039455033775863 -0.005738301012817984 0.0 0.0005094710791574996 0.0 0.0
0.004653369591377617 -0.0027268044195516788 0.0 0.00022395704932746542 0.0 0.0
0.002781734282245723 -0.001257637204241143 0.0 0.00015239155565503252 0.0 0.0
0.001957328846073362 -0.0008319182315489013 0.0 0.00019550754771653807 0.0 0.0
0.0017095725844433977 -0.00047548597760780915 0.0 0.0005303264105388542 0.0 0.0
0.005779755857310717 -0.001872825727854461 0.0 0.0058584126205512045 0.0 0.0
0.00986721201744786 -0.02119641499262884 0.0 0.0008471246876074767 0.0 0.0
0.00722289004432649 -0.01689811937655247 0.0 -0.0038201673836135326 0.0 0.0
0.00409732581913913 -0.0010409851037674399 0.0 -0.005882387406409659 0.0 0.0
0.00119064926230693 -0.00025990549699911965 0.0 -0.0004829777245059345 0.0 0.0
0.0016599710359059686 -0.0007065380675093976 0.0 -0.000480306183351885 0.0 0.0
0.002379068480895065 -0.0010193675866398146 0.0 -0.00048585660288149343 0.0 0.0
0.003919653502133889 -0.00213008052650386 0.0 -0.0006152835552204188 0.0 0.0
0.006857103197666329 -0.00467262043785351 0.0 -0.0011596225704314147 0.0 0.0
0.011483206854742769 -0.00896456926026027 0.0 -0.002032543515725944 0.0 0.0
0.017938706618030795 -0.015139629015013995 0.0 -0.0032421302901553158 0.0 0.0
0.02621867043891611 -0.023162094560355173 0.0 -0.004711792909461386 0.0 0.0
0.03620396384194773 -0.03288485594691024 0.0 -0.006302664570013119 0.0 0.0
0.047760183987402706 -0.04416332718056184 0.0 -0.007891805774806976 0.0 0.0
0.06079383350182044 -0.056909977510258225 0.0 -0.00946951535688857 0.0 0.0
0.07522317142057643 -0.07106455195797465 0.0 -0.011104543820549744 0.0 0.0
0.09087270772989418 -0.08647749277072596 0.0 -0.012774504426284803 0.0 0.0
0.10737939060541395 -0.10281072716975308 0.0 -0.0143014746067703 0.0 0.0
0.12412378542184796 -0.11945884147898836 0.0 -0.015317199531593339 0.0 0.0
0.14015549054748214 -0.13548875212035075 0.0 -0.01532504401143271 0.0 0.0
0.15408192848705346 -0.14956947516060543 0.0 -0.013993599398288283 0.0 0.0
0.16410318341788002 -0.15984170667832415 0.0 -0.011315040843393534 0.0 0.0
0.1678941121319281 -0.16438339013132192 0.0 1.607654981361506e-14 0.0 0.0
0.1641031834178572 -0.1598417066782933 0.0 0.011315040843427802 0.0 0.0
0.1540819284870085 -0.1495694751605635 0.0 0.013993599398324171 0.0 0.0
0.14015549054741924 -0.13548875212028613 0.0 0.015325044011452117 0.0 0.0
0.1241237854217753 -0.11945884147892005 0.0 0.01531719953159734 0.0 0.0
0.10737939060533669 -0.10281072716967576 0.0 0.014301474606763832 0.0 0.0
0.09087270772981505 -0.08647749277065127 0.0 0.012774504426281173 0.0 0.0
0.07522317142049709 -0.07106455195789284 0.0 0.011104543820543863 0.0 0.0
0.0607938335017436 -0.056909977510183396 0.0 0.009469515356878705 0.0 0.0
0.04776018398733133 -0.044163327180495954 0.0 0.007891805774795932 0.0 0.0
0.03620396384188561 -0.03288485594685053 0.0 0.0063026645700000015 0.0 0.0
0.02621867043886569 -0.023162094560307878 0.0 0.004711792909452086 0.0 0.0
0.017938706617992125 -0.015139629014980626 0.0 0.0032421302901470377 0.0 0.0
0.011483206854715712 -0.00896456926023439 0.0 0.0020325435157185936 0.0 0.0
0.006857103197649752 -0.00467262043784002 0.0 0.0011596225704264206 0.0 0.0
0.003919653502125967 -0.0021300805264964167 0.0 0.0006152835552210374 0.0 0.0
0.00237906848089219 -0.0010193675866377136 0.0 0.0004858566028826119 0.0 0.0
0.0016599710359055143 -0.0007065380675082589 0.0 0.00048030618335208927 0.0 0.0
0.001190649262306768 -0.0002599054970006141 0.0 0.00048297772450475816 0.0 0.0
0.004097325819131957 -0.0010409851037640437 0.0 0.00588238740639545 0.0 0.0
0.00722289004431288 -0.016898119376526473 0.0 0.0038201673835893232 0.0 0.0
0.005449487552164217 -0.013602645830745323 0.0 -0.004252288776424028 0.0 0.0
0.003021369839737566 -0.0007513027972853522 0.0 -0.005364526075194148 0.0 0.0
0.0008481625971386014 -0.00014611098114801057 0.0 -0.0007681030225708638 0.0 0.0
0.0013705862598596009 -0.0005626976745236751 0.0 -0.0007663968637448819 0.0 0.0
0.0020110097830875074 -0.0008374775900479931 0.0 -0.0008108437175992685 0.0 0.0
0.0032452076552825114 -0.0016292892634521686 0.0 -0.000957686959800955 0.0 0.0
0.00571002599393039 -0.003663966490253659 0.0 -0.0015962796318352227 0.0 0.0
0.009742282190669412 -0.007357246305362721 0.0 -0.002812169069283734 0.0 0.0
0.01543972520573738 -0.012782279579677586 0.0 -0.004461049408748385 0.0 0.0
0.022757092630886235 -0.01986127631922332 0.0 -0.006452205906942602 0.0 0.0
0.03155216584302748 -0.02841610094168274 0.0 -0.008591686084747831 0.0 0.0
0.04168986076091765 -0.03829579394069401 0.0 -0.010722798405170696 0.0 0.0
0.05309531256176054 -0.04943104977881017 0.0 -0.012829312618331788 0.0 0.0
0.06571851693959618 -0.061799592931654504 0.0 -0.014977666061782927 0.0 0.0
0.07944938804984926 -0.07530809329009835 0.0 -0.017156594908901736 0.0 0.0
0.09401959398107544 -0.0897033475903604 0.0 -0.019169002409406243 0.0 0.0
0.10892419363546113 -0.10450460826623799 0.0 -0.020570797334820663 0.0 0.0
0.12333047916730332 -0.11891154621875402 0.0 -0.020761816381158177 0.0 0.0
0.13598382067629147 -0.13168804766766723 0.0 -0.019119073267605566 0.0 0.0
0.1453208584561194 -0.14119589878186067 0.0 -0.014794096518900802 0.0 0.0
0.14895459951815743 -0.14588238516303173 0.0 2.1133268746087452e-14 0.0 0.0
0.14532085845609874 -0.14119589878183697 0.0 0.014794096518948582 0.0 0.0
0.13598382067625123 -0.13168804766762454 0.0 0.019119073267651207 0.0 0.0
0.12333047916724829 -0.11891154621869524 0.0 0.02076181638118398 0.0 0.0
0.10892419363539797 -0.10450460826617874 0.0 0.02057079733482639 0.0 0.0
0.09401959398100726 -0.089703347590293 0.0 0.019169002409399203 0.0 0.0
0.07944938804977972 -0.07530809329002745 0.0 0.017156594908897118 0.0 0.0
0.0657185169395268 -0.06179959293158799 0.0 0.014977666061775422 0.0 0.0
0.05309531256169337 -0.049431049778741076 0.0 0.012829312618320404 0.0 0.0
0.041689860760855645 -0.038295793940632455 0.0 0.01072279840515205 0.0 0.0
0.03155216584297339 -0.028416100941634145 0.0 0.008591686084730673 0.0 0.0
0.02275709263084195 -0.019861276319178726 0.0 0.006452205906927773 0.0 0.0
0.015439725205703116 -0.012782279579647771 0.0 0.004461049408738797 0.0 0.0
0.00974228219064581 -0.007357246305338997 0.0 0.00281216906927598 0.0 0.0
0.005710025993916189 -0.0036639664902433687 0.0 0.001596279631829054 0.0 0.0
0.0032452076552760274 -0.0016292892634473756 0.0 0.0009576869597979695 0.0 0.0
0.002011009783085703 -0.0008374775900460461 0.0 0.0008108437175982998 0.0 0.0
0.0013705862598593352 -0.0005626976745233649 0.0 0.0007663968637449035 0.0 0.0
0.000848162597138541 -0.0001461109811494705 0.0 0.0007681030225687098 0.0 0.0
0.003021369839731544 -0.0007513027972821665 0.0 0.005364526075182392 0.0 0.0
0.005449487552152379 -0.013602645830722283 0.0 0.004252288776406588 0.0 0.0
0.004127086353875291 -0.010953952579240155 0.0 -0.00378532538805263 0.0 0.0
0.002257170896412131 -0.0006032823721652757 0.0 -0.004788106124164768 0.0 0.0
0.0006157610500783661 -9.102830391251119e-05 0.0 -0.0011595993688108966 0.0 0.0
0.001107872599103044 -0.00042808930941617827 0.0 -0.0010748550006662663 0.0 0.0
0.0016722603086582544 -0.0006869557449346366 0.0 -0.0011332254751228545 0.0 0.0
0.002642489874618804 -0.001235445650979119 0.0 -0.0012695273246314833 0.0 0.0
0.0046240419965598205 -0.0027586912871059204 0.0 -0.001894696765950027 0.0 0.0
0.008024108121888474 -0.0057921285142556655 0.0 -0.003258712744884459 0.0 0.0
0.01294159517000764 -0.010440726732391232 0.0 -0.005236044147475053 0.0 0.0
0.01927552838856369 -0.016553956709608898 0.0 -0.007584984492897948 0.0 0.0
0.0268706973955514 -0.02393011284454412 0.0 -0.010098319003631742 0.0 0.0
0.0355856985380403 -0.03240883400884311 0.0 -0.012596144942219147 0.0 0.0
0.045359331323744465 -0.04193299245238627 0.0 -0.015064686445258445 0.0 0.0
0.056178299581311084 -0.05251251307858211 0.0 -0.017571223613795473 0.0 0.0
0.06797954247156435 -0.06410552981017058 0.0 -0.020087268647337817 0.0 0.0
0.08058141251369112 -0.0765400010346706 0.0 -0.022407323283537683 0.0 0.0
0.09361317976355858 -0.08945860416649935 0.0 -0.024126105672343186 0.0 0.0
0.10639994443547639 -0.10221973051103211 0.0 -0.024600406546950723 0.0 0.0
0.11789051999928873 -0.11379289093588224 0.0 -0.02282310610384067 0.0 0.0
0.12674112865468343 -0.12278016749347781 0.0 -0.01743230530772174 0.0 0.0
0.13032636189567287 -0.12779012373220716 0.0 2.463307335887066e-14 0.0 0.0
0.12674112865466378 -0.12278016749345846 0.0 0.017432305307775366 0.0 0.0
0.11789051999925301 -0.11379289093584222 0.0 0.02282310610389192 0.0 0.0
0.10639994443542886 -0.1022197305109825 0.0 0.024600406546981507 0.0 0.0
0.09361317976350404 -0.08945860416644441 0.0 0.024126105672349334 0.0 0.0
0.08058141251363242 -0.07654000103461284 0.0 0.022407323283528076 0.0 0.0
0.06797954247150446 -0.06410552981010675 0.0 0.02008726864732894 0.0 0.0
0.056178299581251555 -0.05251251307853006 0.0 0.017571223613787563 0.0 0.0
0.04535933132368655 -0.04193299245232505 0.0 0.015064686445245778 0.0 0.0
0.03558569853798731 -0.0324088340087959 0.0 0.012596144942199313 0.0 0.0
0.026870697395505374 -0.023930112844503738 0.0 0.010098319003611786 0.0 0.0
0.01927552838852556 -0.01655395670956599 0.0 0.00758498449288004 0.0 0.0
0.012941595169978348 -0.010440726732364089 0.0 0.005236044147462425 0.0 0.0
0.008024108121868451 -0.00579212851423773 0.0 0.0032587127448755588 0.0 0.0
0.004624041996548547 -0.0027586912870948862 0.0 0.001894696765944912 0.0 0.0
0.0026424898746141316 -0.0012354456509771614 0.0 0.0012695273246286299 0.0 0.0
0.0016722603086569783 -0.0006869557449334615 0.0 0.001133225475121635 0.0 0.0
0.0011078725991026685 -0.0004280893094158683 0.0 0.0010748550006649913 0.0 0.0
0.0006157610500779364 -9.10283039128519e-05 0.0 0.001159599368808679 0.0 0.0
0.0022571708964067455 -0.0006032823721629505 0.0 0.004788106124153601 0.0 0.0
0.00412708635386522 -0.010953952579220064 0.0 0.0037853253880410793 0.0 0.0
0.003092251632373708 -0.008746694479317826 0.0 -0.0031399433614096514 0.0 0.0
0.0016797479712007612 -0.0005047907183720559 0.0 -0.00423007187504514 0.0 0.0
0.0004487889260994596 -7.174765944853366e-05 0.0 -0.001532882580641516 0.0 0.0
0.000869606661141038 -0.00030745458938802626 0.0 -0.0013857502958193296 0.0 0.0
0.0013588066891082984 -0.0005557619377410789 0.0 -0.0014490806499129168 0.0 0.0
0.0021064547291688098 -0.0009313650837950863 0.0 -0.0015589124922817037 0.0 0.0
0.0036308546009537973 -0.00199488710035185 0.0 -0.0021283979555119657 0.0 0.0
0.006366894638219989 -0.0043261314679491365 0.0 -0.0034367695579285975 0.0 0.0
0.010463053994462011 -0.00814395824441525 0.0 -0.0055389241111717 0.0 0.0
0.01580302742645404 -0.013272901064846071 0.0 -0.00810035751100399 0.0 0.0
0.02218812831881832 -0.01945961114016502 0.0 -0.01081403126446491 0.0 0.0
0.029478715173686207 -0.026535522809750956 0.0 -0.01350943157419782 0.0 0.0
0.03762189798902335 -0.034449708400700114 0.0 -0.01616525180916094 0.0 0.0
0.0466300606964159 -0.04323944346841194 0.0 -0.01885162963291876 0.0 0.0
0.056497193551244315 -0.05291161213372304 0.0 -0.021545937305428777 0.0 0.0
0.06711207835823242 -0.06336510327377566 0.0 -0.024031177361553274 0.0 0.0
0.0782150912672925 -0.07434768236885622 0.0 -0.025944417932491172 0.0 0.0
0.08934685194408311 -0.08541344027574205 0.0 -0.026696907945579412 0.0 0.0
0.09972583217912366 -0.09582467395946224 0.0 -0.02509956330655414 0.0 0.0
0.10821745136189158 -0.10443651776194275 0.0 -0.01934770649907953 0.0 0.0
0.11183023125635744 -0.10991426234385607 0.0 2.5124000102572097e-14 0.0 0.0
0.10821745136187431 -0.10443651776192746 0.0 0.019347706499135957 0.0 0.0
0.0997258321790928 -0.09582467395943076 0.0 0.025099563306610263 0.0 0.0
0.08934685194404277 -0.08541344027569729 0.0 0.02669690794561229 0.0 0.0
0.07821509126724673 -0.07434768236881623 0.0 0.025944417932496487 0.0 0.0
0.0671120783581825 -0.06336510327372966 0.0 0.024031177361544743 0.0 0.0
0.056497193551193925 -0.05291161213366988 0.0 0.02154593730541797 0.0 0.0
0.04663006069636639 -0.04323944346836765 0.0 0.018851629632908595 0.0 0.0
0.03762189798897525 -0.034449708400650765 0.0 0.01616525180914593 0.0 0.0
0.029478715173642547 -0.026535522809719787 0.0 0.013509431574179127 0.0 0.0
0.022188128318780337 -0.01945961114012522 0.0 0.010814031264443026 0.0 0.0
0.015803027426422114 -0.01327290106481027 0.0 0.00810035751098759 0.0 0.0
0.010463053994437251 -0.00814395824439122 0.0 0.005538924111157663 0.0 0.0
0.0063668946382041 -0.004326131467934595 0.0 0.0034367695579193194 0.0 0.0
0.0036308546009453683 -0.001994887100343704 0.0 0.0021283979555067885 0.0 0.0
0.0021064547291653633 -0.0009313650837913519 0.0 0.001558912492280733 0.0 0.0
0.001358806689107661 -0.0005557619377420785 0.0 0.001449080649911261 0.0 0.0
0.0008696066611408905 -0.00030745458938737075 0.0 0.0013857502958171963 0.0 0.0
0.00044878892609933805 -7.174765944824197e-05 0.0 0.0015328825806387321 0.0 0.0
0.0016797479711966206 -0.0005047907183703244 0.0 0.004230071875035714 0.0 0.0
0.003092251632365604 -0.008746694479300711 0.0 0.0031399433614016587 0.0 0.0
0.0022721390733441787 -0.006884374910082846 0.0 -0.0025444661774309207 0.0 0.0
0.001230618939876482 -0.0004302823711407678 0.0 -0.003725079657147686 0.0 0.0
0.0003185991620657655 -6.7075691448444e-05 0.0 -0.0018412904477915406 0.0 0.0
0.0006488191565089482 -0.00020058135916570293 0.0 -0.0016744412530229108 0.0 0.0
0.0010622221176415634 -0.0004291220046097084 0.0 -0.0017387361221540693 0.0 0.0
0.0016261888068699953 -0.0006978553704967641 0.0 -0.0018468982865720886 0.0 0.0
0.00273578080035726 -0.0013779491830921157 0.0 -0.0022942300657761306 0.0 0.0
0.004816391877601996 -0.0030262135631683937 0.0 -0.003457104178343155 0.0 0.0
0.008051555359809486 -0.005951315316416406 0.0 -0.005414208887457208 0.0 0.0
0.012364584287880983 -0.010054816564175232 0.0 -0.007969169192642376 0.0 0.0
0.017534903901394318 -0.01503994826661701 0.0 -0.010719892189684157 0.0 0.0
0.023398364696556172 -0.02071038844090838 0.0 -0.013448034694955532 0.0 0.0
0.029913600154512117 -0.027019727669648552 0.0 -0.016119191531137906 0.0 0.0
0.03711531499601802 -0.0340225174912292 0.0 -0.018806768919126464 0.0 0.0
0.04503810793039153 -0.04176700520864557 0.0 -0.0214978729094238 0.0 0.0
0.053640629966699646 -0.05022175416730543 0.0 -0.02400874114408118 0.0 0.0
0.06277067072801598 -0.05922018715688249 0.0 -0.02598490128136413 0.0 0.0
0.07217272518228122 -0.0685066569064428 0.0 -0.026965944547892678 0.0 0.0
0.08139841603426841 -0.0777031395285364 0.0 -0.02585194823926798 0.0 0.0
0.08958916908982037 -0.08599712739497195 0.0 -0.02051904291756768 0.0 0.0
0.09328576254996615 -0.09207809201927236 0.0 2.3320755049294206e-14 0.0 0.0
0.08958916908980606 -0.08599712739495857 0.0 0.020519042917624346 0.0 0.0
0.08139841603424294 -0.07770313952851042 0.0 0.025851948239322832 0.0 0.0
0.07217272518224799 -0.06850665690641268 0.0 0.026965944547926453 0.0 0.0
0.06277067072797878 -0.05922018715685064 0.0 0.025984901281369384 0.0 0.0
0.05364062996665888 -0.050221754167268776 0.0 0.02400874114406985 0.0 0.0
0.0450381079303508 -0.04176700520860438 0.0 0.021497872909412734 0.0 0.0
0.037115314995979164 -0.034022517491191756 0.0 0.018806768919117218 0.0 0.0
0.029913600154474737 -0.027019727669613296 0.0 0.016119191531125312 0.0 0.0
0.023398364696521557 -0.020710388440877924 0.0 0.013448034694939114 0.0 0.0
0.017534903901363665 -0.015039948266581855 0.0 0.010719892189661852 0.0 0.0
0.012364584287855307 -0.010054816564149424 0.0 0.007969169192622992 0.0 0.0
0.008051555359790375 -0.005951315316401477 0.0 0.005414208887443774 0.0 0.0
0.00481639187759013 -0.0030262135631562103 0.0 0.0034571041783349942 0.0 0.0
0.0027357808003514515 -0.0013779491830867275 0.0 0.0022942300657708974 0.0 0.0
0.0016261888068677963 -0.0006978553704966778 0.0 0.001846898286570297 0.0 0.0
0.0010622221176406997 -0.00042912200460892575 0.0 0.0017387361221516732 0.0 0.0
0.0006488191565086445 -0.00020058135916439348 0.0 0.0016744412530207533 0.0 0.0
0.0003185991620654359 -6.70756914486432e-05 0.0 0.0018412904477887408 0.0 0.0
0.001230618939873346 -0.00043028237113917764 0.0 0.0037250796571404064 0.0 0.0
0.0022721390733382724 -0.0068843749100690795 0.0 0.0025444661774257932 0.0 0.0
0.0016222069285337921 -0.005320597608986649 0.0 -0.002081111575500157 0.0 0.0
0.000875392992320243 -0.00037545392485810263 0.0 -0.003269545266732933 0.0 0.0
0.00020619714385204863 -6.094538814401043e-05 0.0 -0.0020756476060435685 0.0 0.0
0.00043900008437204325 -0.00010557758401166029 0.0 -0.0019230766242247432 0.0 0.0
0.0007718518480031813 -0.0002975876794750815 0.0 -0.0019842200100156577 0.0 0.0
0.0011923746329656345 -0.0005085043277673234 0.0 -0.0021290148216412835 0.0 0.0
0.0019407997139388286 -0.0009043315348980991 0.0 -0.0024358171571159555 0.0 0.0
0.003393849426527945 -0.0019321779835455325 0.0 -0.0033377182962009535 0.0 0.0
0.0057628458260955105 -0.0039491140481450904 0.0 -0.004972598303685906 0.0 0.0
0.009007850869754981 -0.006966821480957096 0.0 -0.007226879199312319 0.0 0.0
0.012936817304160238 -0.01071626868943706 0.0 -0.009792464343476396 0.0 0.0
0.017374417793607422 -0.014975940657288554 0.0 -0.012373828033349911 0.0 0.0
0.0222695574326676 -0.01968715345025796 0.0 -0.014897013133093228 0.0 0.0
0.027666438355852863 -0.024909962579288188 0.0 -0.01741004430234406 0.0 0.0
0.03363941632021867 -0.030721756838879552 0.0 -0.019927737963592117 0.0 0.0
0.04021268222344341 -0.03715703261515372 0.0 -0.022305137043502364 0.0 0.0
0.04731751644874061 -0.04413709881616885 0.0 -0.02421794819712599 0.0 0.0
0.05488163436952585 -0.051540435931068086 0.0 -0.02529152118089655 0.0 0.0
0.06282583107934174 -0.05935764144264433 0.0 -0.024865833211242624 0.0 0.0
0.0706823124586314 -0.06727539857349048 0.0 -0.02081230612696678 0.0 0.0
0.07448803325142977 -0.07409253891612408 0.0 1.969518298450268e-14 0.0 0.0
0.0706823124586203 -0.06727539857347992 0.0 0.02081230612702007 0.0 0.0
0.06282583107932208 -0.05935764144262734 0.0 0.02486583321129409 0.0 0.0
0.05488163436950056 -0.051540435931041004 0.0 0.025291521180928984 0.0 0.0
0.047317516448711266 -0.044137098816144624 0.0 0.02421794819713114 0.0 0.0
0.04021268222341162 -0.03715703261512324 0.0 0.022305137043489968 0.0 0.0
0.03363941632018838 -0.030721756838849555 0.0 0.01992773796357994 0.0 0.0
0.027666438355825034 -0.024909962579258448 0.0 0.017410044302334653 0.0 0.0
0.022269557432640398 -0.019687153450233936 0.0 0.014897013133081161 0.0 0.0
0.017374417793581357 -0.01497594065726451 0.0 0.012373828033335114 0.0 0.0
0.012936817304137508 -0.010716268689414391 0.0 0.009792464343456465 0.0 0.0
0.009007850869736484 -0.006966821480939045 0.0 0.0072268791992944476 0.0 0.0
0.0057628458260820525 -0.003949114048135102 0.0 0.004972598303675867 0.0 0.0
0.0033938494265197618 -0.0019321779835395699 0.0 0.0033377182961942115 0.0 0.0
0.0019407997139349736 -0.0009043315348956048 0.0 0.002435817157111669 0.0 0.0
0.0011923746329643111 -0.0005085043277702321 0.0 0.002129014821638421 0.0 0.0
0.0007718518480026545 -0.00029758767947315307 0.0 0.001984220010014838 0.0 0.0
0.0004390000843718579 -0.00010557758401197174 0.0 0.0019230766242230761 0.0 0.0
0.0002061971438518601 -6.0945388143611714e-05 0.0 0.002075647606041413 0.0 0.0
0.0008753929923178379 -0.00037545392485721434 0.0 0.0032695452667283295 0.0 0.0
0.0016222069285293163 -0.005320597608976016 0.0 0.0020811115754954886 0.0 0.0
0.0011293999364207113 -0.004048699207629289 0.0 -0.0017826945981460661 0.0 0.0
0.0005960730346320821 -0.00034170974405187934 0.0 -0.0028671379390462206 0.0 0.0
9.568313561097719e-05 -4.210685981019922e-05 0.0 -0.002240637613342699 0.0 0.0
0.00023710806919650333 -1.9668083542011906e-05 0.0 -0.0021202611933534335 0.0 0.0
0.0004806637304689747 -0.00016215132940010601 0.0 -0.002176267038883237 0.0 0.0
0.0007812605400796525 -0.0003294184044451199 0.0 -0.002367901473424384 0.0 0.0
0.0012413416866043166 -0.0005549475492520562 0.0 -0.0026188112849234394 0.0 0.0
0.002120877186109046 -0.0010798350514355083 0.0 -0.0031582547033721636 0.0 0.0
0.003637326488156867 -0.0022306204112696472 0.0 -0.004296810527090373 0.0 0.0
0.005794136020306805 -0.004122208490181352 0.0 -0.005987762621087302 0.0 0.0
0.00844533836782816 -0.006579804316609257 0.0 -0.008070861533669716 0.0 0.0
0.011438733617191095 -0.009404505102762646 0.0 -0.010269139599054594 0.0 0.0
0.014717333066209409 -0.0125156792920795 0.0 -0.012479455403180953 0.0 0.0
0.018320264803777513 -0.015968989592262603 0.0 -0.014673825622621695 0.0 0.0
0.02233690616166559 -0.01984535195492769 0.0 -0.016852875263436776 0.0 0.0
0.026857269147030606 -0.02423516880956763 0.0 -0.018965250757479072 0.0 0.0
0.031912358955594806 -0.029167442559711335 0.0 -0.02076039980888488 0.0 0.0
0.03752266900341018 -0.034618122194969125 0.0 -0.021821315392089254 0.0 0.0
0.04393206547854858 -0.040789531453783945 0.0 -0.021868908559471253 0.0 0.0
0.051285622595595284 -0.04805866454623589 0.0 -0.019849398347487026 0.0 0.0
0.0551805939568592 -0.055714984258498766 0.0 1.582154546264647e-14 0.0 0.0
0.051285622595587534 -0.048058664546227696 0.0 0.019849398347534897 0.0 0.0
0.04393206547853482 -0.04078953145377433 0.0 0.021868908559519402 0.0 0.0
0.03752266900339215 -0.034618122194942945 0.0 0.021821315392116524 0.0 0.0
0.03191235895557424 -0.02916744255969171 0.0 0.020760399808883473 0.0 0.0
0.02685726914700927 -0.02423516880954876 0.0 0.018965250757468296 0.0 0.0
0.022336906161645756 -0.019845351954906085 0.0 0.016852875263426575 0.0 0.0
0.01832026480376001 -0.015968989592244152 0.0 0.014673825622615048 0.0 0.0
0.014717333066192863 -0.012515679292064564 0.0 0.012479455403171453 0.0 0.0
0.011438733617174351 -0.009404505102747205 0.0 0.010269139599040444 0.0 0.0
0.008445338367812779 -0.006579804316593838 0.0 0.008070861533652416 0.0 0.0
0.005794136020294956 -0.004122208490165293 0.0 0.00598776262107478 0.0 0.0
0.0036373264881488254 -0.002230620411264798 0.0 0.004296810527084598 0.0 0.0
0.0021208771861040043 -0.001079835051431501 0.0 0.003158254703367272 0.0 0.0
0.0012413416866018357 -0.0005549475492515446 0.0 0.002618811284919833 0.0 0.0
0.0007812605400787479 -0.0003294184044438525 0.0 0.002367901473421028 0.0 0.0
0.00048066373046873627 -0.00016215132939924616 0.0 0.0021762670388819445 0.0 0.0
0.0002371080691962139 -1.9668083543642248e-05 0.0 0.0021202611933504967 0.0 0.0
9.568313561076372e-05 -4.210685980925806e-05 0.0 0.0022406376133417777 0.0 0.0
0.0005960730346303285 -0.0003417097440520235 0.0 0.0028671379390422763 0.0 0.0
0.0011293999364169376 -0.0040486992076212355 0.0 0.0017826945981430278 0.0 0.0
0.0007790766875284778 -0.003049985232722122 0.0 -0.0016033777533472843 0.0 0.0
0.0003820340164434248 -0.0003329272594439247 0.0 -0.0025516599874294004 0.0 0.0
-1.881664599243853e-05 -6.136249201257048e-06 0.0 -0.0023424652343083793 0.0 0.0
4.089776259604215e-05 5.989256678897471e-05 0.0 -0.0022609953931131523 0.0 0.0
0.0001892325430231015 -2.7096709077667997e-05 0.0 -0.0023136208820680416 0.0 0.0
0.00037032864315906383 -0.0001428876552335357 0.0 -0.00252500647325507 0.0 0.0
0.0006080854084933165 -0.00026689099813523277 0.0 -0.002803858669040144 0.0 0.0
0.0010069847248163157 -0.0004708854249474045 0.0 -0.0031087986961672066 0.0 0.0
0.0017159251898777178 -0.000923777253611528 0.0 -0.0036359646581510946 0.0 0.0
0.0027814871169010054 -0.0017415977971588382 0.0 -0.004563017713110309 0.0 0.0
0.004122611553059493 -0.002869963009712921 0.0 -0.005909373423576564 0.0 0.0
0.00563810320311821 -0.004205841369430977 0.0 -0.007532687956536035 0.0 0.0
0.007284711340700256 -0.005697716673662833 0.0 -0.009288865771080618 0.0 0.0
0.009098696901914451 -0.007377129902293166 0.0 -0.011116779042302849 0.0 0.0
0.01115807202350922 -0.009310241201636376 0.0 -0.01300501509397926 0.0 0.0
0.013591682875279402 -0.0116161011428506 0.0 -0.01493422184778647 0.0 0.0
0.01655805136306261 -0.014448053130513528 0.0 -0.016734733228974848 0.0 0.0
0.020190523804705103 -0.01794031067219981 0.0 -0.01792543320803098 0.0 0.0
0.024776731011067036 -0.022285332293035046 0.0 -0.0179940775266433 0.0 0.0
0.031167978470268615 -0.02826424801900708 0.0 -0.01732442531200667 0.0 0.0
0.0349691507772736 -0.03663034284075497 0.0 1.3249817909510853e-14 0.0 0.0
0.031167978470265006 -0.02826424801900262 0.0 0.017324425312046948 0.0 0.0
0.024776731011058883 -0.022285332293022243 0.0 0.017994077526680377 0.0 0.0
0.020190523804694563 -0.01794031067218822 0.0 0.017925433208048416 0.0 0.0
0.016558051363052047 -0.014448053130507479 0.0 0.016734733228968512 0.0 0.0
0.013591682875269193 -0.011616101142839112 0.0 0.014934221847773918 0.0 0.0
0.011158072023500491 -0.009310241201624605 0.0 0.0130050150939701 0.0 0.0
0.009098696901908093 -0.007377129902288022 0.0 0.011116779042297943 0.0 0.0
0.00728471134069369 -0.005697716673659287 0.0 0.0092888657710718 0.0 0.0
0.005638103203110615 -0.004205841369420291 0.0 0.007532687956525286 0.0 0.0
0.004122611553052956 -0.00286996300970867 0.0 0.005909373423564625 0.0 0.0
0.0027814871168960497 -0.0017415977971513205 0.0 0.004563017713102956 0.0 0.0
0.0017159251898741623 -0.0009237772536114932 0.0 0.003635964658146781 0.0 0.0
0.001006984724814333 -0.00047088542494691987 0.0 0.0031087986961647685 0.0 0.0
0.0006080854084926017 -0.0002668909981343743 0.0 0.002803858669038385 0.0 0.0
0.0003703286431587975 -0.000142887655231632 0.0 0.002525006473252312 0.0 0.0
0.00018923254302310655 -2.7096709076293632e-05 0.0 0.0023136208820668004 0.0 0.0
4.089776259637084e-05 5.989256678794011e-05 0.0 0.002260995393109671 0.0 0.0
-1.8816645992478806e-05 -6.136249200824378e-06 0.0 0.0023424652343077795 0.0 0.0
0.0003820340164425321 -0.0003329272594442637 0.0 0.0025516599874253272 0.0 0.0
0.0007790766875271542 -0.0030499852327165794 0.0 0.0016033777533468077 0.0 0.0
0.0005326598504892816 -0.002298899429010296 0.0 -0.001504500152408919 0.0 0.0
0.0002186353459484422 -0.00033580646230246266 0.0 -0.002332871478529898 0.0 0.0
-0.0001332691018037766 4.00105939511569e-05 0.0 -0.0023886723546048846 0.0 0.0
-0.00015076183022460566 0.0001360846116154038 0.0 -0.0023433859471959856 0.0 0.0
-9.836589299361978e-05 0.00010496101118058748 0.0 -0.0023908023124618798 0.0 0.0
-4.578624129862972e-05 4.832870333931526e-05 0.0 -0.002591504476665146 0.0 0.0
-1.668982410142553e-05 1.280695615405896e-05 0.0 -0.0028907248505051124 0.0 0.0
-5.221416534298152e-06 3.107795087889708e-06 0.0 -0.003149871098605707 0.0 0.0
-1.0724717462626786e-06 4.4993522320673374e-07 0.0 -0.00335403796986242 0.0 0.0
2.9726968917909765e-07 -1.4497927888669092e-07 0.0 -0.0038480089208420944 0.0 0.0
-7.393262020063051e-07 -1.8703857237976364e-07 0.0 -0.004767251266682767 0.0 0.0
-9.496609338635218e-06 8.55888182955478e-06 0.0 -0.006083650740685859 0.0 0.0
-2.8790370825413237e-05 2.6858428896440762e-05 0.0 -0.0075978894943001035 0.0 0.0
-3.978559107528819e-05 4.3014463932250925e-05 0.0 -0.009254333785542714 0.0 0.0
2.964299822956918e-05 -3.520997250802899e-06 0.0 -0.01105627768886268 0.0 0.0
0.00034632973750204233 -0.00025941293026185045 0.0 -0.012989525500063609 0.0 0.0
0.0011965902705415134 -0.0009811052347492891 0.0 -0.014974623347064913 0.0 0.0
0.002910847314018212 -0.0024987840877662 0.0 -0.01679213729993412 0.0 0.0
0.005702623377767617 -0.004927494373083477 0.0 -0.018121682217312904 0.0 0.0
0.010424103283262955 -0.00877073382647093 0.0 -0.0189885318892735 0.0 0.0
0.013465803355677727 -0.01762599520526915 0.0 1.1777037678406543e-14 0.0 0.0
0.010424103283262461 -0.00877073382647184 0.0 0.018988531889296483 0.0 0.0
0.0057026233777653255 -0.004927494373076684 0.0 0.018121682217331216 0.0 0.0
0.002910847314016616 -0.002498784087764202 0.0 0.016792137299936463 0.0 0.0
0.0011965902705422305 -0.0009811052347555185 0.0 0.01497462334705477 0.0 0.0
0.00034632973750389697 -0.00025941293026119977 0.0 0.012989525500053532 0.0 0.0
2.9642998231662774e-05 -3.5209972509815755e-06 0.0 0.011056277688853967 0.0 0.0
-3.9785591071648196e-05 4.301446392865522e-05 0.0 0.009254333785535035 0.0 0.0
-2.8790370821830708e-05 2.685842889601879e-05 0.0 0.007597889494289084 0.0 0.0
-9.496609335730099e-06 8.558881830042183e-06 0.0 0.006083650740675623 0.0 0.0
-7.393261992864214e-07 -1.8703857836477648e-07 0.0 0.004767251266671816 0.0 0.0
2.972696906155571e-07 -1.4497927753753684e-07 0.0 0.003848008920837781 0.0 0.0
-1.0724717455890909e-06 4.499352234694088e-07 0.0 0.0033540379698623283 0.0 0.0
-5.221416533909601e-06 3.1077950864246255e-06 0.0 0.003149871098604116 0.0 0.0
-1.6689824101110407e-05 1.2806956153696138e-05 0.0 0.002890724850502833 0.0 0.0
-4.578624129806411e-05 4.832870334030108e-05 0.0 0.0025915044766625242 0.0 0.0
-9.836589299352634e-05 0.00010496101118137154 0.0 0.0023908023124602374 0.0 0.0
-0.00015076183022460701 0.00013608461161360546 0.0 0.0023433859471935804 0.0 0.0
-0.00013326910180369808 4.0010593951800176e-05 0.0 0.002388672354602692 0.0 0.0
0.00021863534594798338 -0.00033580646230323564 0.0 0.0023328714785269223 0.0 0.0
0.000532659850488497 -0.002298899429006958 0.0 0.0015045001524085005 0.0 0.0
0.00036276582429292496 -0.0017520644752243072 0.0 -0.0014436838859424907 0.0 0.0
9.719875133744547e-05 -0.00032747288609945557 0.0 -0.002167267409227441 0.0 0.0
-0.0002416276492144763 8.581218024818762e-05 0.0 -0.0023852213417520545 0.0 0.0
-0.00033660468924268577 0.0002103813874627686 0.0 -0.0023653968408546538 0.0 0.0
-0.0003798292099821507 0.00023187241336603893 0.0 -0.0023987813662261236 0.0 0.0
-0.00045823582291747416 0.00023813200410817095 0.0 -0.0025700852114251315 0.0 0.0
-0.0006405639970487421 0.0002927597224335019 0.0 -0.002828054260924942 0.0 0.0
-0.0010172887835365877 0.0004777888111967859 0.0 -0.0031225808249987523 0.0 0.0
-0.001717571703681761 0.0009244276336756426 0.0 -0.0036417432687210257 0.0 0.0
-0.002780071508509634 0.001740403216001892 0.0 -0.0045620474100327236 0.0 0.0
-0.0041250624142697865 0.00287121148885278 0.0 -0.005906482681219814 0.0 0.0
-0.005659532166860994 0.004224584069749015 0.0 -0.007535337381201386 0.0 0.0
-0.007342585827588033 0.005752803737377904 0.0 -0.009285797545055506 0.0 0.0
-0.009173556466369606 0.007462501555245082 0.0 -0.01110225472448866 0.0 0.0
-0.011088883455559542 0.00929802695321678 0.0 -0.013008660715458576 0.0 0.0
-0.012901694358023179 0.011085060923851704 0.0 -0.015079993688432356 0.0 0.0
-0.01426933381182749 0.012488831210254518 0.0 -0.0173647993524963 0.0 0.0
-0.01476024130143961 0.013049274211687206 0.0 -0.019958966448856395 0.0 0.0
-0.013907713754117257 0.012444937105823253 0.0 -0.022806639186400433 0.0 0.0
-0.009928408187811126 0.009599454609244381 0.0 -0.024138086800347777 0.0 0.0
-0.0067732912444622255 1.683416840110542e-06 0.0 1.2808330784874755e-14 0.0 0.0
-0.009928408187811731 0.009599454609241756 0.0 0.024138086800372736 0.0 0.0
-0.01390771375411301 0.012444937105819745 0.0 0.022806639186418294 0.0 0.0
-0.014760241301429198 0.0130492742116785 0.0 0.019958966448859007 0.0 0.0
-0.014269333811813431 0.012488831210242215 0.0 0.017364799352486502 0.0 0.0
-0.012901694358009488 0.01108506092384277 0.0 0.015079993688419793 0.0 0.0
-0.011088883455546823 0.00929802695320473 0.0 0.013008660715447921 0.0 0.0
-0.00917355646635602 0.007462501555231878 0.0 0.011102254724475803 0.0 0.0
-0.007342585827573585 0.0057528037373666034 0.0 0.00928579754504398 0.0 0.0
-0.00565953216684701 0.004224584069735989 0.0 0.007535337381187286 0.0 0.0
-0.004125062414258213 0.002871211488844563 0.0 0.005906482681204433 0.0 0.0
-0.0027800715085010558 0.0017404032159985348 0.0 0.004562047410023542 0.0 0.0
-0.0017175717036767356 0.0009244276336737175 0.0 0.0036417432687179006 0.0 0.0
-0.001017288783533921 0.0004777888111944324 0.0 0.003122580824996707 0.0 0.0
-0.0006405639970469745 0.0002927597224332203 0.0 0.0028280542609226333 0.0 0.0
-0.0004582358229165772 0.0002381320041063863 0.0 0.0025700852114227206 0.0 0.0
-0.00037982920998200567 0.0002318724133674826 0.0 0.002398781366223603 0.0 0.0
-0.0003366046892428466 0.00021038138745984496 0.0 0.0023653968408539417 0.0 0.0
-0.00024162764921456368 8.581218024903408e-05 0.0 0.002385221341750148 0.0 0.0
9.719875133725389e-05 -0.00032747288610026894 0.0 0.00216726740922505 0.0 0.0
0.0003627658242926251 -0.001752064475222243 0.0 0.0014436838859411463 0.0 0.0
0.00024667860876412945 -0.0013273337237612094 0.0 -0.00134497702706303 0.0 0.0
6.478592271991689e-06 -0.0003013164104726897 0.0 -0.002009356311011241 0.0 0.0
-0.000342297370346322 0.00012760391388571125 0.0 -0.0023312389192557165 0.0 0.0
-0.0005142548874372979 0.0002816319744654231 0.0 -0.0023255538869972735 0.0 0.0
-0.0006527458095473371 0.0003519780185390825 0.0 -0.0023359799524513623 0.0 0.0
-0.0008602502371099681 0.00042032701702475245 0.0 -0.002456049498642289 0.0 0.0
-0.0012718844971035925 0.0005833305151810353 0.0 -0.0026702269664577723 0.0 0.0
-0.002129338782216713 0.0010867158817184988 0.0 -0.003184028673509459 0.0 0.0
-0.003636515826617573 0.0022291139748704296 0.0 -0.004301341630325874 0.0 0.0
-0.005792121432414062 0.004120198699644308 0.0 -0.005984337521736596 0.0 0.0
-0.008449452104746744 0.0065839701433083155 0.0 -0.008070178456796525 0.0 0.0
-0.011459291947513904 0.009424021283624852 0.0 -0.010265452602349113 0.0 0.0
-0.014767031316389102 0.012565028904243505 0.0 -0.01244179984268514 0.0 0.0
-0.018380459261785477 0.016040575969175092 0.0 -0.014579894195257386 0.0 0.0
-0.022258493904112317 0.019820226749339573 0.0 -0.01678591434620658 0.0 0.0
-0.02620015581232984 0.02372193078432504 0.0 -0.019274323422499573 0.0 0.0
-0.02980556845825496 0.027343153620561028 0.0 -0.022271538256189504 0.0 0.0
-0.03249456209810764 0.03009568807388604 0.0 -0.02588677445457665 0.0 0.0
-0.03317484380402578 0.031047496194850602 0.0 -0.029421564956566282 0.0 0.0
-0.02962627247279951 0.028059982864291712 0.0 -0.03027955972275364 0.0 0.0
-0.02642946910536119 0.016556185419192664 0.0 1.6727071117106362e-14 0.0 0.0
-0.02962627247279702 0.028059982864290706 0.0 0.030279559722795085 0.0 0.0
-0.0331748438040158 0.031047496194839624 0.0 0.029421564956605514 0.0 0.0
-0.03249456209808838 0.03009568807387083 0.0 0.025886774454590693 0.0 0.0
-0.029805568458230618 0.02734315362053518 0.0 0.022271538256182995 0.0 0.0
-0.026200155812305156 0.02372193078430512 0.0 0.0192743234224835 0.0 0.0
-0.022258493904088978 0.01982022674931549 0.0 0.01678591434619226 0.0 0.0
-0.01838045926176121 0.0160405759691523 0.0 0.014579894195242103 0.0 0.0
-0.014767031316364553 0.012565028904219318 0.0 0.012441799842672355 0.0 0.0
-0.011459291947491058 0.009424021283604972 0.0 0.010265452602330105 0.0 0.0
-0.008449452104726297 0.006583970143291098 0.0 0.008070178456775056 0.0 0.0
-0.005792121432398093 0.0041201986996278 0.0 0.005984337521720944 0.0 0.0
-0.003636515826607435 0.0022291139748629152 0.0 0.004301341630317124 0.0 0.0
-0.002129338782210944 0.0010867158817134915 0.0 0.003184028673505444 0.0 0.0
-0.001271884497100388 0.0005833305151807972 0.0 0.0026702269664542113 0.0 0.0
-0.0008602502371086143 0.0004203270170215161 0.0 0.0024560494986400703 0.0 0.0
-0.0006527458095467107 0.00035197801854079853 0.0 0.0023359799524497473 0.0 0.0
-0.0005142548874368529 0.0002816319744645063 0.0 0.00232555388699605 0.0 0.0
-0.0003422973703461972 0.00012760391388648044 0.0 0.002331238919253904 0.0 0.0
6.478592271841466e-06 -0.00030131641047292576 0.0 0.002009356311009376 0.0 0.0
0.00024667860876380246 -0.001327333723759659 0.0 0.0013449770270614972 0.0 0.0
0.00015486429749105815 -0.0009717363774091397 0.0 -0.0011949459720085422 0.0 0.0
-6.870087972454567e-05 -0.000259843869976055 0.0 -0.001837347258852698 0.0 0.0
-0.0004351209028693973 0.00016631303665174944 0.0 -0.002224542589634377 0.0 0.0
-0.0006828784313593903 0.00034827407244362145 0.0 -0.0022272022523232167 0.0 0.0
-0.0009141619257788934 0.00046333330871988463 0.0 -0.0022074985794141113 0.0 0.0
-0.0012586255448874793 0.0005944861826215503 0.0 -0.0022553959861094605 0.0 0.0
-0.001967290328458184 0.0009355187476037009 0.0 -0.002510289752678208 0.0 0.0
-0.0033974475278746637 0.0019343286771941726 0.0 -0.003361083854041843 0.0 0.0
-0.005758806100234493 0.003944426274184702 0.0 -0.004970591249185318 0.0 0.0
-0.009006883919391525 0.006966014393975348 0.0 -0.007222910356077786 0.0 0.0
-0.01294253022137578 0.010722937214482744 0.0 -0.009793346556074972 0.0 0.0
-0.01738952186589222 0.014991825703014265 0.0 -0.012362862693615435 0.0 0.0
-0.022297299568346265 0.019715615205218234 0.0 -0.014822658893712076 0.0 0.0
-0.027691281529588378 0.02494236098148642 0.0 -0.017217103618592054 0.0 0.0
-0.033553497127883684 0.030675708669379617 0.0 -0.019729708884193564 0.0 0.0
-0.039683244524222304 0.036742262420947136 0.0 -0.02271274011435018 0.0 0.0
-0.04559701014717798 0.042671096777590865 0.0 -0.026611228304190906 0.0 0.0
-0.050373371309474446 0.04759480536520943 0.0 -0.031403403993887746 0.0 0.0
-0.05236629621497597 0.04991648087835182 0.0 -0.035766333700375214 0.0 0.0
-0.04841543788622896 0.04680179895985447 0.0 -0.03710783783773436 0.0 0.0
-0.044425626060576796 0.03248721526941871 0.0 1.9829624053890882e-14 0.0 0.0
-0.04841543788622335 0.04680179895985282 0.0 0.03710783783778221 0.0 0.0
-0.05236629621496072 0.04991648087833272 0.0 0.0357663337004243 0.0 0.0
-0.05037337130944734 0.047594805365188016 0.0 0.03140340399390673 0.0 0.0
-0.045597010147143555 0.04267109677755258 0.0 0.026611228304186677 0.0 0.0
-0.03968324452418749 0.03674226242091474 0.0 0.022712740114335175 0.0 0.0
-0.033553497127849684 0.030675708669342196 0.0 0.01972970888417773 0.0 0.0
-0.027691281529553677 0.024942360981456756 0.0 0.017217103618577517 0.0 0.0
-0.02229729956831147 0.019715615205187838 0.0 0.014822658893695457 0.0 0.0
-0.01738952186585934 0.014991825702983214 0.0 0.012362862693593175 0.0 0.0
-0.012942530221346527 0.010722937214456265 0.0 0.00979334655605277 0.0 0.0
-0.009006883919368441 0.006966014393951909 0.0 0.007222910356059313 0.0 0.0
-0.005758806100218825 0.003944426274169604 0.0 0.004970591249172372 0.0 0.0
-0.0033974475278652186 0.0019343286771879502 0.0 0.0033610838540351585 0.0 0.0
-0.0019672903284534147 0.0009355187476004403 0.0 0.0025102897526729064 0.0 0.0
-0.0012586255448854907 0.0005944861826213501 0.0 0.0022553959861085658 0.0 0.0
-0.0009141619257779542 0.0004633333087186158 0.0 0.0022074985794128797 0.0 0.0
-0.0006828784313589746 0.0003482740724436241 0.0 0.00222720225232126 0.0 0.0
-0.0004351209028691533 0.0001663130366526797 0.0 0.002224542589633476 0.0 0.0
-6.870087972448578e-05 -0.0002598438699759786 0.0 0.0018373472588506614 0.0 0.0
0.00015486429749099007 -0.0009717363774079432 0.0 0.0011949459720086318 0.0 0.0
7.592560887557588e-05 -0.0006736503194503889 0.0 -0.0010239132973803434 0.0 0.0
-0.00013587506175650479 -0.00020555017608137443 0.0 -0.0016394828783317754 0.0 0.0
-0.0005223468085375977 0.00020358349244874703 0.0 -0.002065406826848695 0.0 0.0
-0.0008423311020775901 0.00040967824445684796 0.0 -0.0020727750608222242 0.0 0.0
-0.0011634382164043562 0.0005630038990150633 0.0 -0.002009889503655656 0.0 0.0
-0.0016760746664461514 0.000776540471875423 0.0 -0.0019986738527181646 0.0 0.0
-0.00275377916888599 0.0014047148981027031 0.0 -0.00236702200490909 0.0 0.0
-0.004813052642154226 0.003020823657423866 0.0 -0.0034692128943142517 0.0 0.0
-0.008046866205036515 0.005945736918215569 0.0 -0.005407687251813896 0.0 0.0
-0.012365940343493732 0.010056607676060847 0.0 -0.007966101184036315 0.0 0.0
-0.017541468136915015 0.015048415988824719 0.0 -0.010720927522721638 0.0 0.0
-0.02340363241048697 0.020719100479627408 0.0 -0.013429633807696592 0.0 0.0
-0.0299067368501355 0.027016214699548534 0.0 -0.016016961188789574 0.0 0.0
-0.03708372964561553 0.033993400368148755 0.0 -0.01853976492005018 0.0 0.0
-0.044942838253540146 0.04168776738515935 0.0 -0.021183728495505653 0.0 0.0
-0.05329626171255209 0.04995467932440097 0.0 -0.024409939898613318 0.0 0.0
-0.06152198844827203 0.05822144468707059 0.0 -0.028761688001952272 0.0 0.0
-0.06830269649460653 0.06522972554729196 0.0 -0.03418557442177663 0.0 0.0
-0.07129641102453538 0.06872314783371007 0.0 -0.03931797475833893 0.0 0.0
-0.06656395617596544 0.06496390726636192 0.0 -0.041317474214986154 0.0 0.0
-0.06165127989465795 0.047922273919158764 0.0 1.9683039920170842e-14 0.0 0.0
-0.06656395617595585 0.06496390726636082 0.0 0.04131747421503599 0.0 0.0
-0.07129641102451496 0.06872314783368715 0.0 0.03931797475839256 0.0 0.0
-0.06830269649457311 0.06522972554725816 0.0 0.03418557442180353 0.0 0.0
-0.06152198844822952 0.05822144468702989 0.0 0.028761688001951204 0.0 0.0
-0.05329626171250768 0.04995467932435795 0.0 0.024409939898599183 0.0 0.0
-0.04494283825349573 0.04168776738511367 0.0 0.021183728495489954 0.0 0.0
-0.037083729645570815 0.033993400368106885 0.0 0.018539764920035402 0.0 0.0
-0.029906736850091202 0.02701621469950815 0.0 0.016016961188769593 0.0 0.0
-0.023403632410444766 0.020719100479579873 0.0 0.013429633807674202 0.0 0.0
-0.017541468136877476 0.01504841598879398 0.0 0.010720927522697044 0.0 0.0
-0.012365940343464266 0.01005660767603209 0.0 0.00796610118401462 0.0 0.0
-0.0080468662050154 0.005945736918193694 0.0 0.005407687251800905 0.0 0.0
-0.00481305264214055 0.0030208236574132945 0.0 0.003469212894304214 0.0 0.0
-0.0027537791688782036 0.0014047148980948882 0.0 0.0023670220049036993 0.0 0.0
-0.001676074666442945 0.0007765404718739067 0.0 0.0019986738527168653 0.0 0.0
-0.0011634382164033808 0.0005630038990148022 0.0 0.002009889503653799 0.0 0.0
-0.0008423311020769047 0.00040967824445662597 0.0 0.0020727750608210103 0.0 0.0
-0.0005223468085371353 0.00020358349244901244 0.0 0.002065406826848384 0.0 0.0
-0.0001358750617562276 -0.00020555017608135255 0.0 0.0016394828783301999 0.0 0.0
7.592560887566049e-05 -0.0006736503194494578 0.0 0.0010239132973796988 0.0 0.0
7.084572288299856e-06 -0.00042961897823940343 0.0 -0.0008448890787256 0.0 0.0
-0.00019742922807774196 -0.00014265816313404006 0.0 -0.0014147462073719926 0.0 0.0
-0.000605323486775701 0.00024087673726310327 0.0 -0.001853194649957902 0.0 0.0
-0.0009914684698632927 0.0004651552771224314 0.0 -0.001861939576849801 0.0 0.0
-0.0014082932595641522 0.0006535237340463208 0.0 -0.001749879924202735 0.0 0.0
-0.0021330885376940967 0.0009956735704335677 0.0 -0.001718494443882267 0.0 0.0
-0.003638201757030856 0.0020099363317015694 0.0 -0.0021817041618381982 0.0 0.0
-0.006360734119360316 0.004316675498137665 0.0 -0.003438850574350224 0.0 0.0
-0.010459785570518416 0.008140260773785636 0.0 -0.005531053133910317 0.0 0.0
-0.015806930040898795 0.013277521819783466 0.0 -0.008098806222441449 0.0 0.0
-0.02219398785489592 0.01946828589246733 0.0 -0.010813600316720904 0.0 0.0
-0.029470909883057 0.026533950346912267 0.0 -0.013482826742384662 0.0 0.0
-0.03757389915605501 0.034409020466226334 0.0 -0.0160486299106472 0.0 0.0
-0.04653025517866742 0.04313833601314984 0.0 -0.018565748861179728 0.0 0.0
-0.05637675315329094 0.05278174197094046 0.0 -0.02118288488371169 0.0 0.0
-0.06692866868358793 0.06322238714582594 0.0 -0.024282837134001842 0.0 0.0
-0.07741860710483434 0.07378582477634575 0.0 -0.028485640141184716 0.0 0.0
-0.08611021949716041 0.08281460245074962 0.0 -0.03401273487941447 0.0 0.0
-0.08996749170023624 0.08732965735218316 0.0 -0.03979801207254805 0.0 0.0
-0.08447792803453653 0.0828848075796977 0.0 -0.04381788784241123 0.0 0.0
-0.07873766183168905 0.06341103662617399 0.0 2.1120258320017626e-14 0.0 0.0
-0.08447792803452318 0.08288480757969262 0.0 0.04381788784245951 0.0 0.0
-0.08996749170020929 0.08732965735216053 0.0 0.03979801207259824 0.0 0.0
-0.0861102194971199 0.08281460245070214 0.0 0.03401273487944312 0.0 0.0
-0.07741860710478395 0.07378582477630481 0.0 0.028485640141182857 0.0 0.0
-0.0669286686835341 0.06322238714577776 0.0 0.024282837133990032 0.0 0.0
-0.05637675315323652 0.05278174197088955 0.0 0.021182884883700376 0.0 0.0
-0.04653025517861262 0.04313833601309644 0.0 0.01856574886116497 0.0 0.0
-0.03757389915600048 0.03440902046617114 0.0 0.01604862991062845 0.0 0.0
-0.02947090988300547 0.026533950346858945 0.0 0.01348282674236212 0.0 0.0
-0.02219398785485054 0.019468285892426586 0.0 0.010813600316695196 0.0 0.0
-0.01580693004086241 0.013277521819746153 0.0 0.00809880622241866 0.0 0.0
-0.01045978557049149 0.008140260773761437 0.0 0.005531053133897064 0.0 0.0
-0.006360734119342269 0.004316675498121062 0.0 0.003438850574339517 0.0 0.0
-0.003638201757021165 0.0020099363316940636 0.0 0.0021817041618335206 0.0 0.0
-0.002133088537690027 0.0009956735704289125 0.0 0.0017184944438792052 0.0 0.0
-0.001408293259562682 0.0006535237340469779 0.0 0.0017498799242032601 0.0 0.0
-0.0009914684698626398 0.000465155277121057 0.0 0.0018619395768484479 0.0 0.0
-0.0006053234867752646 0.0002408767372631771 0.0 0.0018531946499560363 0.0 0.0
-0.00019742922807747834 -0.0001426581631340104 0.0 0.0014147462073702839 0.0 0.0
7.08457228840307e-06 -0.0004296189782386666 0.0 0.0008448890787247131 0.0 0.0
-5.1184502559437604e-05 -0.00023851228336439051 0.0 -0.0006626576438902167 0.0 0.0
-0.00025284521254876014 -7.612504784389738e-05 0.0 -0.0011652820323271162 0.0 0.0
-0.0006843675028970216 0.000278514710666397 0.0 -0.001588398446020052 0.0 0.0
-0.0011333167507645424 0.0005143730227914835 0.0 -0.0015940088884455245 0.0 0.0
-0.0016613640686053972 0.00074272222807616 0.0 -0.0014376873733081487 0.0 0.0
-0.002641496171758065 0.001274810177788129 0.0 -0.0014108618572418283 0.0 0.0
-0.004620547845116019 0.0027608637747465687 0.0 -0.0019287792441323951 0.0 0.0
-0.00801849717305073 0.00578461543856978 0.0 -0.0032532002964267355 0.0 0.0
-0.012941852435625447 0.010440642013909896 0.0 -0.0052291620506652575 0.0 0.0
-0.019281376522611603 0.016560810404545715 0.0 -0.0075852452268460775 0.0 0.0
-0.026873571192191505 0.02393671155814888 0.0 -0.010095731761328657 0.0 0.0
-0.03556264013034232 0.03239421778064524 0.0 -0.012562009031834916 0.0 0.0
-0.045272597305767145 0.041857054657450786 0.0 -0.01494929104244325 0.0 0.0
-0.056011737466824335 0.05234575157392824 0.0 -0.01732651759064583 0.0 0.0
-0.06779892833575285 0.06390274683412414 0.0 -0.019762574200297593 0.0 0.0
-0.0804547870263082 0.07641685234854069 0.0 -0.022425390594233863 0.0 0.0
-0.09312121852005337 0.08916830684329376 0.0 -0.02587389377275207 0.0 0.0
-0.10367884349341211 0.10016874294626608 0.0 -0.030882413375661326 0.0 0.0
-0.10848674695850812 0.10578780017562153 0.0 -0.037481979026075335 0.0 0.0
-0.10251033392864524 0.10095069377520186 0.0 -0.04501326231749549 0.0 0.0
-0.09611817492093423 0.07937599889085684 0.0 2.0757701113538474e-14 0.0 0.0
-0.10251033392862793 0.10095069377518386 0.0 0.0450132623175439 0.0 0.0
-0.10848674695847474 0.10578780017559543 0.0 0.037481979026121694 0.0 0.0
-0.10367884349336431 0.10016874294621121 0.0 0.030882413375688596 0.0 0.0
-0.09312121851999527 0.08916830684324124 0.0 0.025873893772753485 0.0 0.0
-0.08045478702624491 0.07641685234848135 0.0 0.022425390594224992 0.0 0.0
-0.06779892833568867 0.0639027468340636 0.0 0.01976257420028687 0.0 0.0
-0.05601173746676036 0.0523457515738649 0.0 0.01732651759063188 0.0 0.0
-0.04527259730570311 0.04185705465738539 0.0 0.014949291042425924 0.0 0.0
-0.03556264013028184 0.03239421778058948 0.0 0.012562009031815466 0.0 0.0
-0.02687357119213865 0.023936711558094174 0.0 0.010095731761304438 0.0 0.0
-0.019281376522568467 0.016560810404500304 0.0 0.007585245226825554 0.0 0.0
-0.012941852435592953 0.01044064201388343 0.0 0.0052291620506531395 0.0 0.0
-0.008018497173028525 0.00578461543855042 0.0 0.003253200296416281 0.0 0.0
-0.00462054784510304 0.0027608637747387425 0.0 0.0019287792441263895 0.0 0.0
-0.0026414961717523217 0.0012748101777820143 0.0 0.0014108618572384892 0.0 0.0
-0.0016613640686034743 0.0007427222280748564 0.0 0.0014376873733080568 0.0 0.0
-0.0011333167507638795 0.0005143730227901417 0.0 0.0015940088884438173 0.0 0.0
-0.0006843675028965261 0.0002785147106658169 0.0 0.0015883984460187902 0.0 0.0
-0.00025284521254833014 -7.612504784392023e-05 0.0 0.0011652820323260929 0.0 0.0
-5.118450255908892e-05 -0.00023851228336403154 0.0 0.0006626576438887381 0.0 0.0
-9.629431731943605e-05 -0.00010056063381444769 0.0 -0.0004819935281890367 0.0 0.0
-0.0002993376327241181 -1.136228260236406e-05 0.0 -0.000894029300925021 0.0 0.0
-0.000758269194168877 0.00031538948445743257 0.0 -0.0012696786972319616 0.0 0.0
-0.001271429124304024 0.000557676978757551 0.0 -0.0012664855763269511 0.0 0.0
-0.001934148487628845 0.000844167710839771 0.0 -0.0010761768009549717 0.0 0.0
-0.0032154466000426144 0.0016333200670479236 0.0 -0.0010592665678176082 0.0 0.0
-0.005700432525277961 0.0036589539182799065 0.0 -0.0016118184173524982 0.0 0.0
-0.009741440375373844 0.0073562068381639815 0.0 -0.002803660110995884 0.0 0.0
-0.015444410493263894 0.012786657143876957 0.0 -0.004456442593726516 0.0 0.0
-0.022763782410187897 0.019869245087965358 0.0 -0.006453899928669304 0.0 0.0
-0.031549547624690644 0.028418057179773012 0.0 -0.008586605170658948 0.0 0.0
-0.041650926625178296 0.038266352938157625 0.0 -0.010685183570478799 0.0 0.0
-0.052978592288562366 0.049326839237102404 0.0 -0.012730600119044814 0.0 0.0
-0.06549833688218325 0.06158526032196976 0.0 -0.014809148507617869 0.0 0.0
-0.07917164376624773 0.0750171260480241 0.0 -0.01694029659080535 0.0 0.0
-0.09377669312022051 0.08944838417711579 0.0 -0.019019874371585588 0.0 0.0
-0.10844428548770894 0.10416219204929997 0.0 -0.021225753168801927 0.0 0.0
-0.12088989167308298 0.11710954265077722 0.0 -0.024886189412263567 0.0 0.0
-0.12697702114128762 0.12418435028987468 0.0 -0.0322911843482212 0.0 0.0
-0.12099502929534992 0.11952895551068277 0.0 -0.044648475277837774 0.0 0.0
-0.11419163114229638 0.09624239433227681 0.0 1.8719401029265725e-14 0.0 0.0
-0.12099502929532953 0.11952895551066103 0.0 0.04464847527788137 0.0 0.0
-0.1269770211412483 0.12418435028983663 0.0 0.032291184348262315 0.0 0.0
-0.12088989167302765 0.11710954265072185 0.0 0.02488618941228468 0.0 0.0
-0.10844428548764232 0.10416219204923048 0.0 0.021225753168804942 0.0 0.0
-0.09377669312014808 0.08944838417704414 0.0 0.01901987437158036 0.0 0.0
-0.07917164376617365 0.07501712604794894 0.0 0.016940296590796114 0.0 0.0
-0.06549833688210933 0.06158526032189368 0.0 0.014809148507608026 0.0 0.0
-0.052978592288489036 0.04932683923703198 0.0 0.012730600119033536 0.0 0.0
-0.04165092662510897 0.03826635293809194 0.0 0.010685183570463257 0.0 0.0
-0.03154954762463024 0.028418057179708724 0.0 0.00858660517063744 0.0 0.0
-0.02276378241013843 0.0198692450879174 0.0 0.006453899928651583 0.0 0.0
-0.015444410493226209 0.012786657143842865 0.0 0.0044564425937143924 0.0 0.0
-0.009741440375347568 0.007356206838139312 0.0 0.0028036601109885013 0.0 0.0
-0.005700432525262369 0.003658953918267911 0.0 0.0016118184173467727 0.0 0.0
-0.0032154466000354127 0.0016333200670413275 0.0 0.0010592665678162126 0.0 0.0
-0.0019341484876263001 0.0008441677108389357 0.0 0.0010761768009540692 0.0 0.0
-0.0012714291243031458 0.0005576769787588998 0.0 0.0012664855763264463 0.0 0.0
-0.0007582691941682425 0.00031538948445632213 0.0 0.0012696786972319853 0.0 0.0
-0.00029933763272390154 -1.1362282602162534e-05 0.0 0.0008940293009247704 0.0 0.0
-9.629431731945295e-05 -0.00010056063381447759 0.0 0.000481993528186151 0.0 0.0
-0.00012341550141395727 -1.6481744904641707e-05 0.0 -0.0003128128808232109 0.0 0.0
-0.0003312679877688161 4.487330140599352e-05 0.0 -0.0006048630083295657 0.0 0.0
-0.0008244027064481082 0.0003484721354448068 0.0 -0.0008905855702160776 0.0 0.0
-0.0014123767995927491 0.0005986102636910955 0.0 -0.0008741856479930809 0.0 0.0
-0.002240467328750332 0.0009741928124844521 0.0 -0.0006744673644580122 0.0 0.0
-0.0038672075283724726 0.0021004909636766185 0.0 -0.0006745912868363693 0.0 0.0
-0.006847178167804601 0.004668932626673031 0.0 -0.0011629166974378776 0.0 0.0
-0.011489409861597535 0.00897216153920857 0.0 -0.0020255036903460747 0.0 0.0
-0.017947927915176357 0.015148413825732735 0.0 -0.003240106753695058 0.0 0.0
-0.026224792325892476 0.023169887273758204 0.0 -0.004713867723407104 0.0 0.0
-0.03619400712512685 0.03288014967741058 0.0 -0.006296635271808775 0.0 0.0
-0.04770627208988682 0.04411888321455483 0.0 -0.0078582686038631 0.0 0.0
-0.06065655278332034 0.05678550497414166 0.0 -0.009399464816341458 0.0 0.0
-0.07496607859904014 0.07082101044688545 0.0 -0.011015252197503909 0.0 0.0
-0.09047966955528274 0.08609763431327279 0.0 -0.012680938602368547 0.0 0.0
-0.10683903703414009 0.10229174883071952 0.0 -0.014138263895019064 0.0 0.0
-0.12321417374834828 0.11864086247798655 0.0 -0.015124926655537748 0.0 0.0
-0.1375576340686818 0.13333576254373045 0.0 -0.016688803628165754 0.0 0.0
-0.14547691020455725 0.14244910208794556 0.0 -0.023363278160978704 0.0 0.0
-0.14028454668559814 0.139055805254989 0.0 -0.041697622594643914 0.0 0.0
-0.13347125139009233 0.11461633677267496 0.0 1.3383391617161067e-14 0.0 0.0
-0.14028454668557416 0.13905580525496156 0.0 0.04169762259467654 0.0 0.0
-0.14547691020451164 0.14244910208790051 0.0 0.023363278161012836 0.0 0.0
-0.13755763406861857 0.13333576254366306 0.0 0.01668880362818098 0.0 0.0
-0.12321417374827258 0.11864086247791086 0.0 0.015124926655538908 0.0 0.0
-0.10683903703405831 0.10229174883064122 0.0 0.014138263895016774 0.0 0.0
-0.09047966955519937 0.08609763431318661 0.0 0.012680938602362813 0.0 0.0
-0.07496607859895622 0.07082101044680109 0.0 0.011015252197495357 0.0 0.0
-0.06065655278323732 0.05678550497405607 0.0 0.009399464816335211 0.0 0.0
-0.04770627208980927 0.044118883214484414 0.0 0.007858268603850882 0.0 0.0
-0.036194007125059185 0.032880149677345406 0.0 0.006296635271794227 0.0 0.0
-0.02622479232583714 0.023169887273704438 0.0 0.004713867723395823 0.0 0.0
-0.017947927915133475 0.015148413825692882 0.0 0.003240106753686547 0.0 0.0
-0.011489409861566928 0.008972161539175707 0.0 0.0020255036903399854 0.0 0.0
-0.006847178167785917 0.004668932626657148 0.0 0.0011629166974329306 0.0 0.0
-0.0038672075283631728 0.0021004909636698947 0.0 0.00067459128683441 0.0 0.0
-0.002240467328746658 0.0009741928124837131 0.0 0.0006744673644566204 0.0 0.0
-0.0014123767995918273 0.0005986102636928017 0.0 0.0008741856479923572 0.0 0.0
-0.0008244027064479212 0.0003484721354444872 0.0 0.0008905855702162388 0.0 0.0
-0.0003312679877687726 4.487330140587638e-05 0.0 0.0006048630083285997 0.0 0.0
-0.00012341550141432977 -1.6481744904534313e-05 0.0 0.000312812880820695 0.0 0.0
-0.00012408025344297596 1.3889952185688309e-05 0.0 -0.00017665347152758142 0.0 0.0
-0.0003386691691204782 8.21800526399168e-05 0.0 -0.0003030375586564137 0.0 0.0
-0.0008784156042056094 0.00037230526712574646 0.0 -0.00043409721091383294 0.0 0.0
-0.0015667007346653159 0.000647829382952838 0.0 -0.00041158157273877297 0.0 0.0
-0.0025987673820214714 0.0011578564951420093 0.0 -0.0002460463223964957 0.0 0.0
-0.004587596758107446 0.0026748704822645544 0.0 -0.00023988498816294375 0.0 0.0
-0.008034364098241518 0.005743106759472894 0.0 -0.0005083467385364444 0.0 0.0
-0.013240732911236548 0.010607494562393465 0.0 -0.0009560696358379677 0.0 0.0
-0.020424596242313218 0.017496288008019525 0.0 -0.0015870412119155738 0.0 0.0
-0.029635878831363996 0.026430279214865866 0.0 -0.002372108638457477 0.0 0.0
-0.040776853039691446 0.03729165241075761 0.0 -0.003223616500819974 0.0 0.0
-0.05370087340400567 0.049924230118143266 0.0 -0.004081112302619004 0.0 0.0
-0.06828024822687694 0.06420239722246238 0.0 -0.004973483914512699 0.0 0.0
-0.08436747977220052 0.08000506118760949 0.0 -0.005928712641529102 0.0 0.0
-0.10168849275208397 0.09709952322548275 0.0 -0.006907891652374289 0.0 0.0
-0.11969526184068888 0.11497550655441324 0.0 -0.007726197466327125 0.0 0.0
-0.13742316137346888 0.13268288728045013 0.0 -0.008008084525649902 0.0 0.0
-0.1532495213111753 0.14859999424747206 0.0 -0.00788347620709564 0.0 0.0
-0.16370828595111478 0.15974678983177076 0.0 -0.011108348887581995 0.0 0.0
-0.16089059246869422 0.15987349989017968 0.0 -0.030814558450193083 0.0 0.0
-0.1547961648090306 0.13627738735390477 0.0 6.5052130349130266e-15 0.0 0.0
-0.16089059246866602 0.15987349989014654 0.0 0.03081455845021372 0.0 0.0
-0.16370828595106235 0.15974678983171814 0.0 0.011108348887601328 0.0 0.0
-0.153249521311103 0.14859999424739362 0.0 0.007883476207104638 0.0 0.0
-0.13742316137338353 0.1326828872803695 0.0 0.008008084525649998 0.0 0.0
-0.11969526184059759 0.11497550655431721 0.0 0.007726197466326553 0.0 0.0
-0.10168849275199063 0.09709952322539213 0.0 0.006907891652370483 0.0 0.0
-0.08436747977210698 0.08000506118752097 0.0 0.005928712641524003 0.0 0.0
-0.0682802482267845 0.06420239722236516 0.0 0.00497348391450947 0.0 0.0
-0.05370087340391938 0.049924230118063274 0.0 0.004081112302614296 0.0 0.0
-0.04077685303961685 0.03729165241069018 0.0 0.0032236165008099685 0.0 0.0
-0.029635878831302895 0.026430279214808283 0.0 0.0023721086384489976 0.0 0.0
-0.020424596242265884 0.01749628800797631 0.0 0.001587041211911924 0.0 0.0
-0.013240732911202412 0.010607494562357355 0.0 0.0009560696358341652 0.0 0.0
-0.008034364098219775 0.005743106759453166 0.0 0.0005083467385332137 0.0 0.0
-0.00458759675809608 0.0026748704822536096 0.0 0.00023988498816140678 0.0 0.0
-0.002598767382017141 0.0011578564951409858 0.0 0.00024604632239622054 0.0 0.0
-0.0015667007346640179 0.0006478293829523736 0.0 0.0004115815727383926 0.0 0.0
-0.0008784156042046621 0.0003723052671255142 0.0 0.00043409721091533884 0.0 0.0
-0.0003386691691200731 8.21800526396674e-05 0.0 0.00030303755865498504 0.0 0.0
-0.00012408025344313222 1.3889952185810434e-05 0.0 0.00017665347152798778 0.0 0.0
-8.310113092959914e-05 1.5782912134204077e-05 0.0 -0.00010879754506858976 0.0 0.0
-0.00030406958492875796 9.446587701730204e-05 0.0 -0.0001259005317719193 0.0 0.0
-0.0009147577694638056 0.00038109565265193073 0.0 -0.00014518013299697705 0.0 0.0
-0.001752058583967462 0.0006762965210916566 0.0 -9.859087508432075e-05 0.0 0.0
-0.0030202648909497124 0.0012677743193612685 0.0 0.00013450966204129673 0.0 0.0
-0.005360195452144013 0.002984323672673676 0.0 0.00033742375129657497 0.0 0.0
-0.009240802603172381 0.006291315901523268 0.0 0.0004302671542313726 0.0 0.0
-0.014976718571834477 0.011427516948544035 0.0 0.00046271234624609896 0.0 0.0
-0.02284871910675201 0.018662725808503176 0.0 0.00043490209972750905 0.0 0.0
-0.032966765695056924 0.028046549126104468 0.0 0.0003126541824176503 0.0 0.0
-0.04526972427896588 0.039480527619471774 0.0 0.0001374559194764662 0.0 0.0
-0.059610942871478605 0.05281222563597474 0.0 -8.664984998470356e-05 0.0 0.0
-0.07580934048896602 0.0678967368752126 0.0 -0.0003994222079843823 0.0 0.0
-0.09364963574474972 0.0845767973430301 0.0 -0.0007731524892497328 0.0 0.0
-0.11275904419161989 0.10257442592113959 0.0 -0.001239168640005485 0.0 0.0
-0.1324003008238646 0.12128281307727048 0.0 -0.0017216202467237405 0.0 0.0
-0.1513339331169934 0.1396195552731919 0.0 -0.001985683095142585 0.0 0.0
-0.1678623847519715 0.15598030980867003 0.0 -0.0017726957609393267 0.0 0.0
-0.1800317097371601 0.16797140222660745 0.0 -0.003276169087171517 0.0 0.0
-0.1829969656382579 0.17062727184500626 0.0 -0.023077172033772495 0.0 0.0
-0.18122038193748388 0.14828163420576324 0.0 1.9567680809018384e-15 0.0 0.0
-0.18299696563822723 0.1706272718449727 0.0 0.023077172033780107 0.0 0.0
-0.18003170973710075 0.16797140222654625 0.0 0.003276169087177337 0.0 0.0
-0.16786238475188872 0.15598030980859345 0.0 0.001772695760941849 0.0 0.0
-0.151333933116897 0.13961955527310516 0.0 0.0019856830951386455 0.0 0.0
-0.13240030082376314 0.12128281307716389 0.0 0.0017216202467250918 0.0 0.0
-0.11275904419151728 0.10257442592104654 0.0 0.0012391686400014049 0.0 0.0
-0.09364963574464677 0.08457679734293916 0.0 0.0007731524892454506 0.0 0.0
-0.07580934048886391 0.06789673687511405 0.0 0.0003994222079811271 0.0 0.0
-0.05961094287138371 0.05281222563588335 0.0 8.664984998432972e-05 0.0 0.0
-0.045269724278884 0.039480527619398985 0.0 -0.00013745591948119851 0.0 0.0
-0.032966765694990144 0.028046549126048842 0.0 -0.0003126541824217191 0.0 0.0
-0.022848719106700444 0.01866272580845877 0.0 -0.00043490209972880684 0.0 0.0
-0.0149767185717968 0.011427516948508768 0.0 -0.00046271234624716755 0.0 0.0
-0.009240802603147741 0.006291315901501714 0.0 -0.00043026715423166 0.0 0.0
-0.0053601954521305265 0.002984323672659341 0.0 -0.0003374237512940583 0.0 0.0
-0.0030202648909440333 0.0012677743193606331 0.0 -0.00013450966203991128 0.0 0.0
-0.0017520585839653241 0.0006762965210896608 0.0 9.859087508598373e-05 0.0 0.0
-0.000914757769462995 0.0003810956526514312 0.0 0.00014518013299937786 0.0 0.0
-0.0003040695849286367 9.446587701747778e-05 0.0 0.0001259005317700152 0.0 0.0
-8.310113092965406e-05 1.5782912134118276e-05 0.0 0.00010879754507157432 0.0 0.0
SCALARS Statev float 8
LOOKUP_TABLE default
0.0 0.018564798988481256 0.014887882062755176 -0.017722173849685767 0.002834291786930578 -0.0010057730643822605 0.0 0.0
0.0 0.006366482587333312 0.0046911723658489115 -0.0029266726617656323 -0.0017644997040832777 -0.006922802495128628 0.0 0.0
0.0 0.00013216760597399796 0.00018256374621808532 -0.00011225184242650663 -7.03119037915787e-05 -0.00030851613302304294 0.0 0.0
0.0 0.00015837459894040161 7.361743823645497e-05 -5.274971305741191e-05 -2.0867725179043177e-05 2.4149527680599098e-05 0.0 0.0
0.0 0.0009922508632446599 0.0006756608876575924 -0.0004947585048293182 -0.00018090238282827379 0.00014146867196906707 0.0 0.0
0.0 0.0025917074399361625 0.0025601249497405796 -0.002031457255072996 -0.0005286676946675872 0.00029581815389808806 0.0 0.0
0.0 0.006548452057367555 0.0060043515592771695 -0.00514879978966761 -0.0008555517696095518 0.00041585456669908176 0.0 0.0
0.0 0.012588699787575043 0.011363809223719823 -0.01024971887894794 -0.001114090344771882 0.0004719464883074624 0.0 0.0
0.0 0.021128319835393185 0.018862219485452542 -0.017519189853065453 -0.0013430296323870916 0.000464559157326301 0.0 0.0
0.0 0.03229698888664054 0.02858778571185518 -0.026995078068044055 -0.0015927076438111407 0.00036744307376429406 0.0 0.0
0.0 0.046013910284819944 0.040479356997280176 -0.038595253510315 -0.0018841034869651451 0.00021260529987538878 0.0 0.0
0.0 0.06179160795474839 0.054402101890829765 -0.05218141696094595 -0.002220684929883761 -4.561301583042975e-08 0.0 0.0
0.0 0.07979766103478744 0.07018998180306385 -0.06759782653079291 -0.0025921552722708886 -0.0003020818389786508 0.0 0.0
0.0 0.09977498173448299 0.08767188580660215 -0.08468676469317574 -0.00298512111342624 -0.0006424185814562009 0.0 0.0
0.0 0.12143979168478689 0.10659637158598692 -0.10321517507653005 -0.00338119650945682 -0.001054598657116262 0.0 0.0
0.0 0.14427872803211253 0.12647855064144595 -0.12271848820589505 -0.0037600624355509813 -0.001527749392401974 0.0 0.0
0.0 0.16730676261249303 0.14649419122302987 -0.1423928521946633 -0.004101339028366612 -0.00197228061866468 0.0 0.0
0.0 0.1891570448003378 0.16546874028618064 -0.16108440097827295 -0.004384339307907719 -0.0022205976776452827 0.0 0.0
0.0 0.2081710173866704 0.18197669587360082 -0.17737354436650898 -0.004603151507091616 -0.0020997206057419017 0.0 0.0
0.0 0.222155080782763 0.19431239153894017 -0.18958073355248856 -0.004731657986451676 -0.0023453638951491883 0.0 0.0
0.0 0.2280377112485917 0.1992651622875108 -0.19455095377414186 -0.004714208513369075 2.5439719775199876e-15 0.0 0.0
0.0 0.22215508078273052 0.19431239153891194 -0.1895807335524603 -0.004731657986451586 0.0023453638951562647 0.0 0.0
0.0 0.20817101738660176 0.18197669587354123 -0.1773735443664492 -0.004603151507092059 0.0020997206057491473 0.0 0.0
0.0 0.18915704480024745 0.16546874028610206 -0.161084400978195 -0.004384339307906936 0.002220597677649932 0.0 0.0
0.0 0.16730676261239158 0.14649419122294116 -0.14239285219457756 -0.00410133902836376 0.0019722806186632837 0.0 0.0
0.0 0.14427872803200376 0.12647855064135038 -0.12271848820580153 -0.003760062435548859 0.0015277493923984593 0.0 0.0
0.0 0.12143979168467717 0.10659637158589114 -0.10321517507643624 -0.0033811965094547388 0.0010545986571153963 0.0 0.0
0.0 0.09977498173437742 0.08767188580650959 -0.08468676469308603 -0.0029851211134236336 0.0006424185814547932 0.0 0.0
0.0 0.07979766103467852 0.07018998180296898 -0.06759782653069973 -0.002592155272269152 0.0003020818389761937 0.0 0.0
0.0 0.06179160795465162 0.05440210189074529 -0.05218141696086276 -0.0022206849298824576 4.5613012493363886e-08 0.0 0.0
0.0 0.046013910284731493 0.040479356997202794 -0.03859525351023943 -0.0018841034869633664 -0.00021260529987922132 0.0 0.0
0.0 0.03229698888657059 0.02858778571179393 -0.026995078067984568 -0.0015927076438093921 -0.00036744307376571756 0.0 0.0
0.0 0.021128319835343565 0.018862219485408657 -0.017519189853023018 -0.001343029632385607 -0.00046455915732657274 0.0 0.0
0.0 0.012588699787538534 0.011363809223687057 -0.010249718878916323 -0.0011140903447707392 -0.0004719464883077744 0.0 0.0
0.0 0.006548452057345749 0.006004351559256749 -0.005148799789648795 -0.0008555517696079492 -0.00041585456669857685 0.0 0.0
0.0 0.002591707439926554 0.0025601249497308786 -0.0020314572550647093 -0.0005286676946661702 -0.0002958181538973149 0.0 0.0
0.0 0.0009922508632404094 0.000675660887654628 -0.0004947585048271606 -0.00018090238282746638 -0.0001414686719682749 0.0 0.0
0.0 0.0001583745989391563 7.36174382360808e-05 -5.274971305714907e-05 -2.0867725178931175e-05 -2.414952768047616e-05 0.0 0.0
0.0 0.00013216760597324373 0.00018256374621754864 -0.00011225184242616089 -7.031190379138727e-05 0.0003085161330219386 0.0 0.0
0.0 0.0063664825873230215 0.004691172365843644 -0.0029266726617617656 -0.0017644997040818801 0.006922802495118738 0.0 0.0
0.0 0.018564798988460057 0.014887882062740925 -0.01772217384966614 0.0028342917869252087 0.0010057730643425575 0.0 0.0
0.0 0.015160010688898723 0.011377451092211768 -0.014683405231040265 0.0033059541388284846 -0.0005181510620914841 0.0 0.0
0.0 0.003929625579243941 0.0028211013298055235 -0.0017391842260078122 -0.0010819171037977054 -0.005467296238256225 0.0 0.0
0.0 -7.666522615938011e-05 -7.116535253591162e-05 6.398897883698733e-05 7.176373698924248e-06 -8.217248526988586e-05 0.0 0.0
0.0 3.602070508694578e-05 2.7542554403805746e-05 -1.9885914147292057e-05 -7.656640256513716e-06 1.1134463846220872e-05 0.0 0.0
0.0 0.0005499227958504628 0.00043849733042180514 -0.0003236938550293904 -0.00011480347539241468 5.674175496055686e-05 0.0 0.0
0.0 0.0022612728770188832 0.0019708027029191914 -0.001579228262646009 -0.0003915744402731838 5.2927565835103365e-05 0.0 0.0
0.0 0.005564616771454861 0.005091618168931792 -0.004419625730121113 -0.0006719924388106761 -0.000207836820454584 0.0 0.0
0.0 0.01116886102820278 0.010002657319984313 -0.009150804445537921 -0.0008518528744463988 -0.0006504622454366313 0.0 0.0
0.0 0.019136987122280614 0.016921741805986712 -0.015954461308211 -0.0009672804977757085 -0.001273335943734715 0.0 0.0
0.0 0.029480363342899794 0.025890243102003666 -0.02482560290447166 -0.0010646401975319894 -0.002047337733095507 0.0 0.0
0.0 0.04212115004668202 0.03681466391835029 -0.035654474692751154 -0.00116018922559918 -0.0028999967420934043 0.0 0.0
0.0 0.05699852126881947 0.049556267108690676 -0.04829754770385267 -0.0012587194048380096 -0.0037744846435015995 0.0 0.0
0.0 0.07338704207634872 0.06399882416388991 -0.06263841291545122 -0.0013604112484386275 -0.00468696753729068 0.0 0.0
0.0 0.09187453038617027 0.08000853594550603 -0.07855037330108744 -0.001458162644418597 -0.005642926270186442 0.0 0.0
0.0 0.1119112418567152 0.09736764950098234 -0.09582652542165951 -0.0015411240793227127 -0.006615920645344188 0.0 0.0
0.0 0.13303719651800122 0.1156479705788025 -0.114047859305842 -0.001600111272960544 -0.00752630525063778 0.0 0.0
0.0 0.15442778489097214 0.13411284579924027 -0.13248344573519866 -0.0016294000640414898 -0.008152935955415953 0.0 0.0
0.0 0.17484505652516458 0.15169867409533588 -0.15006872297216783 -0.0016299511231681815 -0.008164881210950693 0.0 0.0
0.0 0.1926291503452255 0.16701610964016245 -0.16541997505795664 -0.0015961345822058672 -0.007348673425747303 0.0 0.0
0.0 0.2056150231406304 0.1781305432895264 -0.17666673210688483 -0.0014638111826416607 -0.006265247481916334 0.0 0.0
0.0 0.211186390856691 0.18246581343998514 -0.18120802393384722 -0.0012577895061380024 8.128914208427318e-15 0.0 0.0
0.0 0.20561502314059846 0.1781305432894986 -0.17666673210685632 -0.001463811182642153 0.006265247481935907 0.0 0.0
0.0 0.1926291503451664 0.16701610964011146 -0.1654199750579053 -0.0015961345822060337 0.00734867342576818 0.0 0.0
0.0 0.17484505652508292 0.15169867409526555 -0.15006872297209728 -0.0016299511231682886 0.008164881210961815 0.0 0.0
0.0 0.1544277848908761 0.1341128457991577 -0.13248344573511597 -0.0016294000640417537 0.008152935955417063 0.0 0.0
0.0 0.13303719651790194 0.11564797057871634 -0.11404785930575619 -0.0016001112729598567 0.007526305250633308 0.0 0.0
0.0 0.11191124185661573 0.09736764950089574 -0.09582652542157381 -0.0015411240793220067 0.006615920645341616 0.0 0.0
0.0 0.09187453038606977 0.08000853594541885 -0.07855037330100098 -0.0014581626444177891 0.005642926270182792 0.0 0.0
0.0 0.07338704207624949 0.06399882416380409 -0.06263841291536584 -0.00136041124843829 0.004686967537286167 0.0 0.0
0.0 0.05699852126873035 0.049556267108613224 -0.048297547703775555 -0.0012587194048376733 0.0037744846434956667 0.0 0.0
0.0 0.042121150046601254 0.03681466391828064 -0.03565447469268147 -0.0011601892255992 0.002899996742085176 0.0 0.0
0.0 0.02948036334283722 0.02589024310194874 -0.024825602904417272 -0.0010646401975314362 0.00204733773309021 0.0 0.0
0.0 0.019136987122235643 0.016921741805946744 -0.015954461308171762 -0.000967280497774982 0.001273335943731144 0.0 0.0
0.0 0.01116886102816898 0.010002657319954157 -0.009150804445508445 -0.0008518528744457248 0.0006504622454330684 0.0 0.0
0.0 0.0055646167714344125 0.005091618168913072 -0.00441962573010353 -0.0006719924388095373 0.00020783682045264067 0.0 0.0
0.0 0.0022612728770090573 0.0019708027029105447 -0.0015792282626386725 -0.00039157444027187105 -5.2927565835190894e-05 0.0 0.0
0.0 0.0005499227958471887 0.00043849733041955325 -0.0003236938550277245 -0.00011480347539182881 -5.674175496021372e-05 0.0 0.0
0.0 3.602070508616434e-05 2.7542554403761663e-05 -1.988591414726903e-05 -7.656640256492495e-06 -1.1134463846135294e-05 0.0 0.0
0.0 -7.666522615949524e-05 -7.116535253568264e-05 6.398897883677701e-05 7.176373698905469e-06 8.217248526964348e-05 0.0 0.0
0.0 0.0039296255792334 0.0028211013297997326 -0.0017391842260037317 -0.0010819171037960006 0.005467296238244339 0.0 0.0
0.0 0.015160010688875545 0.011377451092194017 -0.014683405231018022 0.003305954138823991 0.0005181510620617535 0.0 0.0
0.0 0.01132011330875396 0.008315549471416751 -0.011027823806070213 0.00271227433465346 -0.002993262084267409 0.0 0.0
0.0 0.002731119382541369 0.001738789030238619 -0.0009565187393055909 -0.0007822702909330296 -0.004604206147272792 0.0 0.0
0.0 -3.9245780099517607e-07 5.519551371824886e-07 -4.825054794194373e-07 -6.944965776304741e-08 3.470224377136601e-07 0.0 0.0
0.0 -1.932265652601848e-06 -3.868704959607423e-06 3.2341966025021326e-06 6.3450835710516e-07 4.18254845771767e-06 0.0 0.0
0.0 0.00024205479152912372 0.00020596214929775248 -0.00014801055320799703 -5.79515960897556e-05 1.4105664162463929e-05 0.0 0.0
0.0 0.0016099752349665155 0.0013495224903156621 -0.0010526126829210486 -0.0002969098073946132 -8.433168828105089e-05 0.0 0.0
0.0 0.004313145257243357 0.004012767019889284 -0.0034129221046236137 -0.0005998449152656709 -0.0005975008104796585 0.0 0.0
0.0 0.009327908719419527 0.008359565743511228 -0.007558995663082033 -0.0008005700804291909 -0.0014572628570553282 0.0 0.0
0.0 0.016451113407000933 0.014555195824234415 -0.013634314557495602 -0.0009208812667388011 -0.002651970938412815 0.0 0.0
0.0 0.02579626013915306 0.02259176532186962 -0.02157911937782351 -0.0010126459440461275 -0.004108157055086386 0.0 0.0
0.0 0.037137337410616734 0.032346426616938664 -0.03124486212856983 -0.0011015644883687922 -0.005695997315702077 0.0 0.0
0.0 0.05019607927355792 0.043680590002100235 -0.04248612897359911 -0.001194461028501111 -0.007292595072529366 0.0 0.0
0.0 0.06520991458877795 0.05649755514708331 -0.05520731825265995 -0.0012902368944233606 -0.008882522690881077 0.0 0.0
0.0 0.08139422145675743 0.07072624983276853 -0.06934434229458106 -0.001381907538187403 -0.01053307386596468 0.0 0.0
0.0 0.09928850382764359 0.0861939243785468 -0.08473319106509042 -0.0014607333134565375 -0.012222042178808467 0.0 0.0
0.0 0.11820251964934131 0.10254796839745783 -0.10102951633610296 -0.0015184520613547717 -0.013774921994889878 0.0 0.0
0.0 0.13744081001498887 0.11917447604192428 -0.11762396229457318 -0.001550513747351167 -0.014828200934731632 0.0 0.0
0.0 0.15590016425931774 0.13513087560585238 -0.1335795117380184 -0.001551363867834073 -0.014884394472692368 0.0 0.0
0.0 0.17203549556479913 0.1490488713696555 -0.14754779551150876 -0.001501075858146537 -0.013602456533555622 0.0 0.0
0.0 0.18375235650916621 0.1591134853195273 -0.15769451429045694 -0.0014189710290701898 -0.010964104531377094 0.0 0.0
0.0 0.18900580836192063 0.16315692408863797 -0.1619822018330424 -0.0011747222555955577 1.533755761284894e-14 0.0 0.0
0.0 0.18375235650913666 0.15911348531950076 -0.15769451429042985 -0.0014189710290709804 0.010964104531410935 0.0 0.0
0.0 0.17203549556474965 0.14904887136961179 -0.14754779551146602 -0.0015010758581458841 0.013602456533591356 0.0 0.0
0.0 0.15590016425924458 0.135130875605789 -0.1335795117379548 -0.0015513638678340794 0.01488439447271225 0.0 0.0
0.0 0.1374408100149068 0.1191744760418539 -0.11762396229450332 -0.0015505137473505487 0.014828200934734519 0.0 0.0
0.0 0.11820251964925259 0.10254796839738095 -0.10102951633602615 -0.0015184520613548142 0.013774921994882498 0.0 0.0
0.0 0.09928850382755511 0.08619392437846998 -0.08473319106501441 -0.0014607333134555847 0.012222042178803705 0.0 0.0
0.0 0.08139422145666485 0.07072624983268821 -0.06934434229450136 -0.0013819075381868817 0.010533073865958724 0.0 0.0
0.0 0.06520991458869063 0.05649755514700787 -0.05520731825258485 -0.0012902368944230132 0.008882522690872198 0.0 0.0
0.0 0.05019607927347901 0.04368059000203184 -0.042486128973531656 -0.001194461028500104 0.007292595072518407 0.0 0.0
0.0 0.037137337410547366 0.03234642661687839 -0.031244862128509687 -0.0011015644883686979 0.00569599731569012 0.0 0.0
0.0 0.02579626013909822 0.022591765321821392 -0.02157911937777573 -0.0010126459440456424 0.004108157055076202 0.0 0.0
0.0 0.016451113406960403 0.014555195824198716 -0.013634314557460572 -0.0009208812667381556 0.002651970938405878 0.0 0.0
0.0 0.009327908719390016 0.008359565743485339 -0.007558995663056871 -0.0008005700804284518 0.0014572628570492842 0.0 0.0
0.0 0.004313145257227228 0.004012767019874377 -0.003412922104609905 -0.0005998449152644753 0.000597500810476497 0.0 0.0
0.0 0.0016099752349582818 0.0013495224903086718 -0.0010526126829153314 -0.0002969098073933397 8.433168828000096e-05 0.0 0.0
0.0 0.00024205479152683177 0.00020596214929634885 -0.00014801055320698796 -5.795159608936108e-05 -1.4105664162358167e-05 0.0 0.0
0.0 -1.9322656525267215e-06 -3.868704959382391e-06 3.2341966023347174e-06 6.345083570477032e-07 -4.182548457623197e-06 0.0 0.0
0.0 -3.9245780091570876e-07 5.519551371896624e-07 -4.825054794244822e-07 -6.944965776518098e-08 -3.4702243771562944e-07 0.0 0.0
0.0 0.002731119382532809 0.0017387890302335799 -0.0009565187393022145 -0.0007822702909313637 0.004604206147259855 0.0 0.0
0.0 0.011320113308730569 0.008315549471399408 -0.01102782380604833 0.0027122743346489242 0.002993262084247644 0.0 0.0
0.0 0.008592382021922765 0.0061485464804944085 -0.008325018741119593 0.0021764722606251704 -0.0032492414418179546 0.0 0.0
0.0 0.001974405101791757 0.0011807477316659804 -0.0006328859853865224 -0.000547861746279454 -0.003476128577604769 0.0 0.0
0.0 0.0 0.0 0.0 0.0 0.0 0.0 0.0
0.0 -1.8211056145063367e-06 -2.0714821396593166e-06 1.6309891067558526e-06 4.404930329034614e-07 1.4686829828103695e-06 0.0 0.0
0.0 7.974042610469186e-05 5.716685262096444e-05 -3.873258940174346e-05 -1.8434263219220664e-05 1.0173924478701527e-05 0.0 0.0
0.0 0.0009551241542618531 0.0008430622528463145 -0.0006403266603001552 -0.00020273559254615838 -0.00015415563111769747 0.0 0.0
0.0 0.003371434226939506 0.0029725984295399807 -0.002466196854751834 -0.000506401574788149 -0.0007560656300496628 0.0 0.0
0.0 0.00753559712831315 0.006737623466578365 -0.0060013512436307235 -0.0007362722229476395 -0.001966042759112073 0.0 0.0
0.0 0.013838202186030551 0.012179673920113055 -0.011311999499345601 -0.0008676744207674401 -0.003599041437755575 0.0 0.0
0.0 0.022109403869490646 0.01926110785070433 -0.018304472442782806 -0.0009566354079215195 -0.005576910687555528 0.0 0.0
0.0 0.03206697562364973 0.0278347294429803 -0.02679600094047645 -0.001038728502503801 -0.007717533439510135 0.0 0.0
0.0 0.043673336133254664 0.03775709838550305 -0.036632011257238306 -0.0011250871282647234 -0.009861582339874535 0.0 0.0
0.0 0.056534662009788586 0.04895599208601679 -0.04774060119656608 -0.0012153908894507284 -0.011987037926876434 0.0 0.0
0.0 0.07118073812275896 0.06138376059084825 -0.06008330702828621 -0.0013004535625620172 -0.014156853789748224 0.0 0.0
0.0 0.08678699733909587 0.07493987327528469 -0.07356532741778371 -0.0013745458575009164 -0.01636319228413118 0.0 0.0
0.0 0.10329938647544847 0.08935880427418309 -0.08792604309507834 -0.0014327611791047482 -0.018412305442788424 0.0 0.0
0.0 0.12048405267093437 0.10414276997898346 -0.10267553909507626 -0.001467230883907106 -0.0198629027892442 0.0 0.0
0.0 0.1370597902896588 0.11847396289288874 -0.11700642265212272 -0.0014675402407658981 -0.020114492474504878 0.0 0.0
0.0 0.1516429385128005 0.1311074042190125 -0.12967991113850535 -0.0014274930805072761 -0.018543128755979084 0.0 0.0
0.0 0.16240175118921862 0.1404585615068593 -0.1390871478077455 -0.0013714136991141127 -0.014313772297736662 0.0 0.0
0.0 0.16765508819336827 0.14444812927421005 -0.14341832706230803 -0.0010298022119018604 2.0685710089285436e-14 0.0 0.0
0.0 0.1624017511891954 0.14045856150683766 -0.1390871478077231 -0.0013714136991146754 0.014313772297783328 0.0 0.0
0.0 0.15164293851275426 0.1311074042189714 -0.12967991113846386 -0.0014274930805074915 0.018543128756024048 0.0 0.0
0.0 0.1370597902895941 0.11847396289283249 -0.11700642265206575 -0.0014675402407667215 0.020114492474530773 0.0 0.0
0.0 0.12048405267086362 0.10414276997892208 -0.10267553909501624 -0.001467230883905811 0.01986290278924866 0.0 0.0
0.0 0.1032993864753705 0.08935880427411572 -0.08792604309501104 -0.0014327611791046277 0.018412305442780164 0.0 0.0
0.0 0.08678699733901556 0.07493987327521477 -0.0735653274177145 -0.0013745458575003307 0.016363192284124157 0.0 0.0
0.0 0.07118073812268091 0.06138376059078021 -0.06008330702821901 -0.0013004535625612522 0.014156853789741113 0.0 0.0
0.0 0.056534662009709954 0.048955992085949473 -0.04774060119649881 -0.00121539088945059 0.011987037926864296 0.0 0.0
0.0 0.043673336133183784 0.037757098385441556 -0.03663201125717719 -0.001125087128264432 0.009861582339857754 0.0 0.0
0.0 0.03206697562359084 0.027834729442929244 -0.02679600094042591 -0.0010387285025033129 0.007717533439495447 0.0 0.0
0.0 0.022109403869440176 0.019261107850660587 -0.018304472442739538 -0.0009566354079210336 0.005576910687540486 0.0 0.0
0.0 0.013838202185994271 0.012179673920081525 -0.01131199949931467 -0.0008676744207668451 0.003599041437745985 0.0 0.0
0.0 0.007535597128287536 0.006737623466555243 -0.006001351243608613 -0.0007362722229466237 0.0019660427591039714 0.0 0.0
0.0 0.0033714342269249974 0.002972598429527789 -0.0024661968547410287 -0.0005064015747867604 0.0007560656300455831 0.0 0.0
0.0 0.000955124154255383 0.0008430622528412598 -0.0006403266602961303 -0.00020273559254512937 0.00015415563111632172 0.0 0.0
0.0 7.974042610377879e-05 5.716685262076319e-05 -3.87325894016556e-05 -1.8434263219107633e-05 -1.0173924478361716e-05 0.0 0.0
0.0 -1.821105614968168e-06 -2.071482139743309e-06 1.6309891068202684e-06 4.404930329230618e-07 -1.468682982857804e-06 0.0 0.0
0.0 0.0 0.0 0.0 0.0 0.0 0.0 0.0
0.0 0.0019744051017845476 0.0011807477316618197 -0.0006328859853837518 -0.0005478617462780695 0.0034761285775937426 0.0 0.0
0.0 0.00859238202190328 0.006148546480479262 -0.008325018741100318 0.002176472260621052 0.0032492414418037433 0.0 0.0
0.0 0.0063074576999145706 0.00448881969958353 -0.006187281547611916 0.0016984618480283898 -0.0027960974950377 0.0 0.0
0.0 0.0015765670952460815 0.000771872403974877 -0.0004027374064204842 -0.00036913499755439257 -0.0024882279220972245 0.0 0.0
0.0 0.0 0.0 0.0 0.0 0.0 0.0 0.0
0.0 -3.3938578521653045e-07 8.902601556509652e-08 -6.849937615665138e-08 -2.052663940844381e-08 -4.8153435684035106e-08 0.0 0.0
0.0 -1.4867097482701727e-05 -3.5681061692332437e-06 4.666212811787022e-06 -1.0981066425537635e-06 1.6875357935796484e-05 0.0 0.0
0.0 0.0005315665300796404 0.00043670915081837783 -0.00032347039168014027 -0.00011323875913823779 -0.00013471153884311217 0.0 0.0
0.0 0.002459494410588891 0.0020390538415846456 -0.0016454850295578843 -0.0003935688120267581 -0.0007738203660486635 0.0 0.0
0.0 0.005826831417602731 0.0051617480735246185 -0.004505651734212733 -0.00065609633931189 -0.0021363873254370185 0.0 0.0
0.0 0.01126707855799092 0.009825105922585122 -0.00902030585048522 -0.0008048000720999084 -0.004106579423228147 0.0 0.0
0.0 0.018420968466737752 0.015930352783142063 -0.015035817508721964 -0.0008945352744200933 -0.006447590985185064 0.0 0.0
0.0 0.027084818842419995 0.023311033543345207 -0.022340129402871473 -0.0009709041404737431 -0.008967898389078851 0.0 0.0
0.0 0.03706976865315812 0.03181944198526728 -0.03076918371507329 -0.0010502582701939715 -0.011484574202230724 0.0 0.0
0.0 0.04835177645816642 0.04139315366761687 -0.040259392798054947 -0.0011337608695619042 -0.013976410826676191 0.0 0.0
0.0 0.0605307274537605 0.05202704198075358 -0.050813096864874806 -0.0012139451158787555 -0.01651058875031281 0.0 0.0
0.0 0.07416910194975058 0.06365811383059122 -0.062374696617201866 -0.0012834172133893212 -0.019061542150506112 0.0 0.0
0.0 0.08872278461280586 0.07611038478375115 -0.07477131442699927 -0.0013390703567518485 -0.021426277026708018 0.0 0.0
0.0 0.10352650452838028 0.0890194606126987 -0.08764260724469845 -0.001376853368000238 -0.023201315256687654 0.0 0.0
0.0 0.11818276049789522 0.10172144658278738 -0.10033551273169333 -0.0013859338510941275 -0.023745066179844804 0.0 0.0
0.0 0.13136075559542493 0.11317591274744866 -0.11181661728983956 -0.0013592954576090264 -0.02206309123946041 0.0 0.0
0.0 0.14146447054913366 0.12202425849650549 -0.12070991209632789 -0.0013143464001774746 -0.016819016482765462 0.0 0.0
0.0 0.14690964612420185 0.12609285329742764 -0.12523950755929575 -0.000853345738131862 2.366596502101359e-14 0.0 0.0
0.0 0.14146447054911435 0.12202425849648631 -0.1207099120963083 -0.0013143464001779588 0.01681901648281886 0.0 0.0
0.0 0.13136075559538368 0.11317591274741119 -0.1118166172898017 -0.0013592954576093633 0.022063091239510422 0.0 0.0
0.0 0.11818276049784097 0.10172144658273942 -0.10033551273164487 -0.0013859338510945707 0.02374506617987509 0.0 0.0
0.0 0.10352650452831683 0.08901946061264401 -0.08764260724464443 -0.0013768533679995873 0.02320131525669196 0.0 0.0
0.0 0.08872278461273903 0.07611038478369331 -0.07477131442694145 -0.001339070356751814 0.02142627702669858 0.0 0.0
0.0 0.07416910194967966 0.0636581138305298 -0.062374696617140776 -0.0012834172133889777 0.019061542150496137 0.0 0.0
0.0 0.06053072745369648 0.052027041980697894 -0.050813096864819766 -0.001213945115878085 0.016510588750305186 0.0 0.0
0.0 0.04835177645809811 0.04139315366755786 -0.040259392797996285 -0.0011337608695615358 0.013976410826662622 0.0 0.0
0.0 0.03706976865309997 0.03181944198521726 -0.03076918371502366 -0.001050258270193601 0.011484574202213282 0.0 0.0
0.0 0.027084818842369823 0.023311033543302315 -0.02234012940282927 -0.0009709041404730538 0.008967898389059852 0.0 0.0
0.0 0.01842096846669113 0.015930352783102356 -0.015035817508682497 -0.0008945352744198544 0.006447590985166448 0.0 0.0
0.0 0.011267078557959066 0.009825105922557469 -0.009020305850458297 -0.0008048000720991685 0.004106579423216307 0.0 0.0
0.0 0.005826831417581357 0.005161748073505948 -0.004505651734195073 -0.0006560963393108761 0.0021363873254283965 0.0 0.0
0.0 0.0024594944105758294 0.002039053841574105 -0.001645485029548827 -0.0003935688120252792 0.0007738203660438638 0.0 0.0
0.0 0.0005315665300755329 0.00043670915081553435 -0.0003234703916780236 -0.00011323875913751027 0.0001347115388420327 0.0 0.0
0.0 -1.4867097483015953e-05 -3.5681061689877058e-06 4.666212811584733e-06 -1.0981066425970823e-06 -1.687535793530639e-05 0.0 0.0
0.0 -3.3938578505461995e-07 8.902601549760925e-08 -6.849937610557875e-08 -2.0526639392036944e-08 4.815343559403578e-08 0.0 0.0
0.0 0.0 0.0 0.0 0.0 0.0 0.0 0.0
0.0 0.001576567095239153 0.0007718724039714976 -0.00040273740641823556 -0.0003691349975532601 0.002488227922087926 0.0 0.0
0.0 0.006307457699898422 0.0044888196995708516 -0.006187281547595522 0.0016984618480246618 0.0027960974950277813 0.0 0.0
0.0 0.004596038466389577 0.0031629675350690646 -0.0044321038605169465 0.0012691363254478793 -0.0021939873146822374 0.0 0.0
0.0 0.0009612890534466513 0.00047803320920360355 -0.00024131451676905134 -0.0002367186924345521 -0.001691793111626171 0.0 0.0
0.0 0.0 0.0 0.0 0.0 0.0 0.0 0.0
0.0 -4.0308485542253975e-07 5.1185470534618036e-08 -3.9117035292793e-08 -1.2068435241825067e-08 -9.384136854284621e-08 0.0 0.0
0.0 -1.8364336711447843e-05 -1.4168983901231207e-05 1.1422415223956833e-05 2.746568677274387e-06 2.0863627966577596e-05 0.0 0.0
0.0 0.00019113642860562927 0.00017627124832446706 -0.00012690594138380442 -4.9365306940662705e-05 -8.281666031803426e-05 0.0 0.0
0.0 0.0014379252393186422 0.0012714849736174983 -0.0009979191646448413 -0.0002735658089726574 -0.0007083706701237467 0.0 0.0
0.0 0.004498233256600903 0.003666943206501484 -0.0031199717572039133 -0.000546971449297564 -0.0020237200375918525 0.0 0.0
0.0 0.008633756766884557 0.007522107052988115 -0.006795764064796008 -0.0007263429881921074 -0.004147304135026985 0.0 0.0
0.0 0.014816323944326124 0.01263090503451709 -0.011807503845099291 -0.0008234011894177999 -0.006710205457319472 0.0 0.0
0.0 0.02211620324628805 0.01880900925554968 -0.017912959351516006 -0.0008960499040336775 -0.009438786677150422 0.0 0.0
0.0 0.030476204761618927 0.02590147321945944 -0.024932693493232166 -0.0009687797262272476 -0.012159527762626018 0.0 0.0
0.0 0.03983158677448882 0.033854058242409474 -0.032808399570851444 -0.0010456586715580471 -0.014843310517539083 0.0 0.0
0.0 0.05027996095005318 0.04268383400364103 -0.0415648067483077 -0.0011190272553333646 -0.01756072560307059 0.0 0.0
0.0 0.06158622034029192 0.052387899937389674 -0.051203656393175166 -0.0011842435442144961 -0.020295590123965052 0.0 0.0
0.0 0.07366079722876076 0.0628572627144196 -0.061619225802266246 -0.0012380369121533189 -0.022833724403234563 0.0 0.0
0.0 0.08670014947755286 0.07383238723440483 -0.07255430532643796 -0.0012780819079667985 -0.02480742203745604 0.0 0.0
0.0 0.09935310077423717 0.0848650188616604 -0.08356459726600818 -0.0013004215956522887 -0.02563421038300784 0.0 0.0
0.0 0.11100027512173226 0.0951882464908522 -0.09389765657377815 -0.0012905899170740818 -0.024150583021695815 0.0 0.0
0.0 0.12066000749560228 0.10366452967957486 -0.10241337487602847 -0.001251154803546313 -0.01858849615288088 0.0 0.0
0.0 0.12647886248487675 0.1079130843000456 -0.10726326581409135 -0.0006498184859541907 2.3912295754602297e-14 0.0 0.0
0.0 0.12066000749558792 0.1036645296795589 -0.10241337487601242 -0.001251154803546573 0.018588496152934873 0.0 0.0
0.0 0.1110002751217001 0.09518824649082136 -0.09389765657374717 -0.001290589917074271 0.024150583021748905 0.0 0.0
0.0 0.09935310077419034 0.08486501886161857 -0.08356459726596574 -0.001300421595652698 0.025634210383038966 0.0 0.0
0.0 0.08670014947750287 0.07383238723436172 -0.0725543053263956 -0.0012780819079660948 0.02480742203746121 0.0 0.0
0.0 0.07366079722870564 0.06285726271437203 -0.06161922580221887 -0.0012380369121531615 0.022833724403225446 0.0 0.0
0.0 0.06158622034023233 0.052387899937338285 -0.05120365639312412 -0.0011842435442141642 0.020295590123953034 0.0 0.0
0.0 0.05027996094999983 0.04268383400359449 -0.04156480674826154 -0.001119027255332969 0.017560725603060684 0.0 0.0
0.0 0.039831586774431965 0.03385405824236092 -0.03280839957080346 -0.0010456586715574452 0.014843310517524593 0.0 0.0
0.0 0.030476204761574855 0.025901473219421618 -0.024932693493195265 -0.000968779726226345 0.01215952776261038 0.0 0.0
0.0 0.022116203246242267 0.018809009255511367 -0.017912959351478793 -0.0008960499040325815 0.009438786677127919 0.0 0.0
0.0 0.014816323944287531 0.01263090503448446 -0.011807503845066843 -0.000823401189417609 0.006710205457299664 0.0 0.0
0.0 0.008633756766857046 0.007522107052964285 -0.006795764064772959 -0.0007263429881913322 0.004147304135013015 0.0 0.0
0.0 0.004498233256582456 0.0036669432064865485 -0.0031199717571902697 -0.0005469714492962758 0.0020237200375835245 0.0 0.0
0.0 0.00143792523930915 0.001271484973610006 -0.000997919164638598 -0.00027356580897140844 0.0007083706701188937 0.0 0.0
0.0 0.00019113642860260423 0.00017627124832245652 -0.00012690594138234303 -4.936530694011333e-05 8.281666031686351e-05 0.0 0.0
0.0 -1.8364336711738958e-05 -1.4168983900645011e-05 1.1422415223509273e-05 2.746568677135716e-06 -2.0863627965908836e-05 0.0 0.0
0.0 -4.030848552570782e-07 5.1185470537280876e-08 -3.9117035294756845e-08 -1.2068435242520904e-08 9.384136854061575e-08 0.0 0.0
0.0 0.0 0.0 0.0 0.0 0.0 0.0 0.0
0.0 0.0009612890534409943 0.0004780332092010106 -0.00024131451676733006 -0.00023671869243368 0.001691793111618619 0.0 0.0
0.0 0.004596038466376503 0.003162967535058814 -0.004432103860503345 0.0012691363254445278 0.0021939873146751745 0.0 0.0
0.0 0.003052829451752174 0.0021143587464051232 -0.0030043689608286687 0.0008900102144235424 -0.0016346698190572893 0.0 0.0
0.0 0.0005927305419128775 0.00025593035405560875 -0.00011397958789443414 -0.00014195076616117382 -0.0010410269170191228 0.0 0.0
0.0 3.547722962352453e-07 -4.760043067899587e-09 4.283870871274896e-09 4.761721966247399e-10 7.118613590585807e-08 0.0 0.0
0.0 -3.9933846218285653e-07 2.3010864123224606e-08 -1.7665084308602554e-08 -5.345779814626124e-09 -7.114747973550936e-08 0.0 0.0
0.0 -7.69133975411313e-06 -5.395719978899601e-06 4.30039657421984e-06 1.0953234046798059e-06 1.1639729012742932e-05 0.0 0.0
0.0 2.6675052941276456e-05 2.5734596820853217e-05 -1.590863806899848e-05 -9.825958751854674e-06 -2.1406889379175964e-06 0.0 0.0
0.0 0.000805487575789009 0.0006539806577563736 -0.0005008815632478556 -0.00015309909450851825 -0.0005282973282864767 0.0 0.0
0.0 0.002795297343269764 0.0023620993901211744 -0.001951020581591927 -0.00041107880852924616 -0.0017569455022073354 0.0 0.0
0.0 0.006652521729416239 0.005302421372547256 -0.004683746172518494 -0.0006186752000287628 -0.0037398724862638486 0.0 0.0
0.0 0.011142765263408454 0.009401420693471262 -0.008665451309842616 -0.0007359693836286533 -0.006337427147615008 0.0 0.0
0.0 0.017216921619174975 0.014364515664788587 -0.013554026910379532 -0.0008104887544090591 -0.009112380409287408 0.0 0.0
0.0 0.023988919513093666 0.020038113499095053 -0.019160365431924533 -0.0008777480671705276 -0.01187216364717338 0.0 0.0
0.0 0.031497125745830835 0.026372853825708444 -0.02542535116173787 -0.0009475026639705561 -0.01457574321516226 0.0 0.0
0.0 0.03982260013183062 0.03340592191331069 -0.032391279371214665 -0.0010146425420960318 -0.017297421154615255 0.0 0.0
0.0 0.04894437583724087 0.04117337571927518 -0.040098760823246496 -0.0010746148960286861 -0.020031754699296293 0.0 0.0
0.0 0.05912922116974963 0.04963295196656284 -0.04850891033831739 -0.0011240416282454991 -0.022598959082979795 0.0 0.0
0.0 0.06927988446648178 0.058635256076340424 -0.05746756580038975 -0.0011676902759507218 -0.02464420952001118 0.0 0.0
0.0 0.08022653607439999 0.06791798273256067 -0.06671184553857933 -0.0012061371939811783 -0.025700052704352373 0.0 0.0
0.0 0.09084529958975887 0.07706114396416265 -0.07584440409627832 -0.0012167398678843925 -0.024704300274063895 0.0 0.0
0.0 0.09997804870589452 0.08522199109363027 -0.08403857567621535 -0.0011834154174149426 -0.0195908670221202 0.0 0.0
0.0 0.10639062255453738 0.08973785171586432 -0.08931955582151743 -0.0004182958943469259 2.253145586772476e-14 0.0 0.0
0.0 0.09997804870588399 0.08522199109361679 -0.08403857567620181 -0.0011834154174150376 0.019590867022174004 0.0 0.0
0.0 0.09084529958973375 0.07706114396413713 -0.07584440409625275 -0.0012167398678844072 0.024704300274117224 0.0 0.0
0.0 0.08022653607436603 0.0679179827325291 -0.06671184553854813 -0.0012061371939810015 0.02570005270438469 0.0 0.0
0.0 0.06927988446644129 0.05863525607630578 -0.05746756580035564 -0.0011676902759501116 0.02464420952001598 0.0 0.0
0.0 0.05912922116970472 0.04963295196652437 -0.04850891033827931 -0.0011240416282450511 0.0225989590829685 0.0 0.0
0.0 0.04894437583719416 0.04117337571923465 -0.040098760823206146 -0.001074614896028491 0.020031754699284404 0.0 0.0
0.0 0.03982260013178723 0.03340592191327319 -0.03239127937117739 -0.0010146425420958184 0.01729742115460474 0.0 0.0
0.0 0.031497125745787974 0.026372853825672213 -0.025425351161702265 -0.0009475026639699629 0.014575743215149104 0.0 0.0
0.0 0.023988919513055415 0.020038113499063218 -0.019160365431893044 -0.0008777480671701975 0.011872163647156653 0.0 0.0
0.0 0.01721692161913527 0.014364515664756362 -0.013554026910347839 -0.0008104887544085202 0.00911238040926334 0.0 0.0
0.0 0.011142765263378047 0.009401420693446287 -0.008665451309817917 -0.0007359693836283752 0.006337427147595809 0.0 0.0
0.0 0.0066525217293945315 0.00530242137253045 -0.004683746172502527 -0.0006186752000279173 0.0037398724862516726 0.0 0.0
0.0 0.0027952973432555915 0.00236209939010983 -0.0019510205815817527 -0.00041107880852807684 0.001756945502198843 0.0 0.0
0.0 0.0008054875757821103 0.000653980657751447 -0.000500881563243985 -0.00015309909450746177 0.0005282973282826386 0.0 0.0
0.0 2.6675052940069132e-05 2.573459682049392e-05 -1.5908638068740294e-05 -9.825958751753788e-06 2.1406889377206477e-06 0.0 0.0
0.0 -7.691339754936719e-06 -5.3957199788495115e-06 4.30039657417466e-06 1.0953234046748503e-06 -1.1639729012570549e-05 0.0 0.0
0.0 -3.9933846203843063e-07 2.3010864114477826e-08 -1.766508430182229e-08 -5.345779812654833e-09 7.114747970917023e-08 0.0 0.0
0.0 3.5477229582550476e-07 -4.760043062279326e-09 4.283870866217358e-09 4.761721960621147e-10 -7.118613582206866e-08 0.0 0.0
0.0 0.0005927305419087862 0.0002559303540538841 -0.00011397958789330195 -0.0001419507661605824 0.001041026917013574 0.0 0.0
0.0 0.003052829451742357 0.0021143587463974935 -0.003004368960818252 0.000890010214420762 0.0016346698190522677 0.0 0.0
0.0 0.0022945248461363962 0.001259978042567426 -0.001812124540941832 0.0005521464983744048 -0.0010966305201106545 0.0 0.0
0.0 0.00022122664087778667 0.0001071500817016003 -3.210754143884701e-05 -7.504254026275327e-05 -0.0005482655124105279 0.0 0.0
0.0 4.22344419601501e-07 1.6067653219913586e-08 -1.69372171258426e-08 8.69563905929672e-10 -3.1219424863028595e-07 0.0 0.0
0.0 -7.221053110737644e-07 2.8602648959144552e-08 -2.207782855107665e-08 -6.52482040806819e-09 -1.7767142598042643e-07 0.0 0.0
0.0 -4.925491444328728e-06 -2.9633117672833606e-06 2.3455858437534e-06 6.177259235299658e-07 1.0075437503895026e-05 0.0 0.0
0.0 -2.3604148960567303e-05 -1.4557372210880733e-05 1.2467764726375987e-05 2.0896074845047104e-06 3.3496446532256e-05 0.0 0.0
0.0 0.0003193112722166004 0.0002349377765473371 -0.0001764673397825834 -5.847043676475344e-05 -0.0002967109288583113 0.0 0.0
0.0 0.001564941101713868 0.0012601685305519289 -0.0010105727206521334 -0.00024959580989979526 -0.00132728618555954 0.0 0.0
0.0 0.004121077938828268 0.0032945015987054355 -0.002824780817877035 -0.0004697207808283994 -0.003034828568699777 0.0 0.0
0.0 0.008072473982296845 0.006287051507940073 -0.005672357030551522 -0.0006146944773885433 -0.00534396106836363 0.0 0.0
0.0 0.01241412296658727 0.010018782205675342 -0.009316839634791298 -0.0007019425708840362 -0.007966463346376223 0.0 0.0
0.0 0.017526109464419834 0.01427464292527324 -0.0135052879139911 -0.0007693550112821563 -0.010587602035415939 0.0 0.0
0.0 0.023258962319271846 0.01899856818608149 -0.018165062396281916 -0.0008335057897995517 -0.013147579389785967 0.0 0.0
0.0 0.02954116552310913 0.02423887442466942 -0.023345827493522018 -0.0008930469311473985 -0.015696624501307134 0.0 0.0
0.0 0.0365892338142312 0.030064298404485174 -0.029116676973622246 -0.0009476214308629373 -0.018256032506979554 0.0 0.0
0.0 0.044203636737355154 0.03650229563990444 -0.03550794910334041 -0.0009943465365639817 -0.020690696555885353 0.0 0.0
0.0 0.05259845390188185 0.04347733795473313 -0.04244126470959906 -0.0010360732451340949 -0.02267844282182092 0.0 0.0
0.0 0.061171685726547 0.05090577408924212 -0.04981708408303708 -0.0010886900062050326 -0.023831485977392933 0.0 0.0
0.0 0.06997616665184224 0.058732159444336546 -0.05760055568975619 -0.0011316037545803393 -0.023512404951868578 0.0 0.0
0.0 0.07888410232495478 0.06653218158400585 -0.06541868456329607 -0.0011134970207098108 -0.01967964805098927 0.0 0.0
0.0 0.08618942095571529 0.0713873814083279 -0.07123312867489139 -0.00015425273343654044 1.9609314172441827e-14 0.0 0.0
0.0 0.07888410232494882 0.06653218158399556 -0.06541868456328526 -0.001113497020710196 0.019679648051040353 0.0 0.0
0.0 0.06997616665182611 0.05873215944431786 -0.057600555689737876 -0.0011316037545800284 0.023512404951919738 0.0 0.0
0.0 0.06117168572652036 0.050905774089216774 -0.04981708408301221 -0.0010886900062046028 0.023831485977422157 0.0 0.0
0.0 0.05259845390185036 0.04347733795470625 -0.042441264709573066 -0.0010360732451331544 0.022678442821823512 0.0 0.0
0.0 0.04420363673731786 0.036502295639873276 -0.035507949103309684 -0.00099434653656364 0.020690696555872606 0.0 0.0
0.0 0.03658923381419619 0.03006429840445529 -0.029116676973592836 -0.0009476214308624273 0.018256032506967362 0.0 0.0
0.0 0.02954116552307573 0.024238874424641073 -0.023345827493493926 -0.0008930469311471585 0.01569662450129747 0.0 0.0
0.0 0.02325896231924107 0.018998568186055928 -0.018165062396257134 -0.0008335057897987923 0.013147579389774056 0.0 0.0
0.0 0.01752610946439039 0.01427464292524905 -0.013505287913967122 -0.0007693550112819296 0.010587602035399891 0.0 0.0
0.0 0.012414122966558597 0.010018782205653009 -0.009316839634769421 -0.000701942570883575 0.007966463346355857 0.0 0.0
0.0 0.008072473982273688 0.006287051507922273 -0.005672357030534058 -0.0006146944773882115 0.005343961068346649 0.0 0.0
0.0 0.004121077938813863 0.0032945015986941928 -0.002824780817866858 -0.0004697207808273385 0.0030348285686904856 0.0 0.0
0.0 0.001564941101705053 0.0012601685305452684 -0.0010105727206464845 -0.0002495958098987836 0.0013272861855530517 0.0 0.0
0.0 0.0003193112722126514 0.00023493777654464006 -0.0001764673397804826 -5.847043676415731e-05 0.00029671092885494917 0.0 0.0
0.0 -2.3604148960831124e-05 -1.4557372210259941e-05 1.2467764725881302e-05 2.0896074843786787e-06 -3.349644653074225e-05 0.0 0.0
0.0 -4.925491444901867e-06 -2.963311767342053e-06 2.3455858438009654e-06 6.177259235410795e-07 -1.007543750415156e-05 0.0 0.0
0.0 -7.221053114045528e-07 2.8602648969461308e-08 -2.2077828558180216e-08 -6.524820411280997e-09 1.77671426111572e-07 0.0 0.0
0.0 4.2234441943866814e-07 1.6067653247165257e-08 -1.693721715343717e-08 8.695639062723301e-10 3.12194249223071e-07 0.0 0.0
0.0 0.00022122664087535256 0.00010715008170071054 -3.210754143834089e-05 -7.504254026236972e-05 0.0005482655124068747 0.0 0.0
0.0 0.002294524846127036 0.0012599780425617403 -0.0018121245409338954 0.0005521464983721542 0.0010966305201064684 0.0 0.0
0.0 0.001138589460108441 0.0006692450508707694 -0.0009737204045816186 0.0003044753537108495 -0.0007121182405692171 0.0 0.0
0.0 5.409254389571238e-05 1.4032094792240208e-05 2.2195926105312633e-05 -3.622802089755292e-05 -0.00019122772342698542 0.0 0.0
0.0 1.980316163533701e-06 -1.4189839176679856e-09 1.0485481232267514e-08 -9.066497314598614e-09 5.209414696487947e-07 0.0 0.0
0.0 1.62205914815234e-06 -3.701029388186124e-08 2.579709992409844e-08 1.1213193957762654e-08 5.800181622836368e-07 0.0 0.0
0.0 -5.498821855840027e-06 -1.7109142112595256e-06 1.3326806610893425e-06 3.7823355017018256e-07 9.638199299490958e-06 0.0 0.0
0.0 -2.2395599776438094e-05 -8.434374297209987e-06 6.9813802288219875e-06 1.452994068388004e-06 2.2256925003713567e-05 0.0 0.0
0.0 8.385984172531701e-05 3.0391072393024244e-05 -2.210840015312516e-05 -8.282672239899156e-06 -9.061646319165303e-05 0.0 0.0
0.0 0.0007228118393020108 0.0004338457548872427 -0.00034360127649579476 -9.024447839144827e-05 -0.0007610299086839063 0.0 0.0
0.0 0.0021699601881075272 0.0015551491906416915 -0.0012943900821484804 -0.0002607591084932094 -0.0020886727808905946 0.0 0.0
0.0 0.004662496637046506 0.0034217467704375057 -0.0029973866464377045 -0.0004243601239998005 -0.003886352715541254 0.0 0.0
0.0 0.007644893025617429 0.005861684171415754 -0.005323685274242851 -0.0005379988971729026 -0.006049052354148212 0.0 0.0
0.0 0.01124212862973015 0.008676394569594246 -0.008061382115962242 -0.0006150124536319982 -0.008294682309165649 0.0 0.0
0.0 0.015156165640676572 0.01179581242454484 -0.011115463602870617 -0.0006803488216742178 -0.010545060362296481 0.0 0.0
0.0 0.019452675299930135 0.015256055532180852 -0.014521374421279716 -0.0007346811109011414 -0.012776335633963418 0.0 0.0
0.0 0.024286282327571282 0.019138258466685706 -0.018354547727722676 -0.0007837107389630393 -0.014991861865330044 0.0 0.0
0.0 0.0297359951133985 0.023528770974385528 -0.022699769436874358 -0.0008290015375111683 -0.017153179588172286 0.0 0.0
0.0 0.03574057650563298 0.02845578006301569 -0.027583802960307692 -0.0008719771027079538 -0.01902383624324533 0.0 0.0
0.0 0.04207000140405123 0.033926038410855806 -0.03300109594549084 -0.0009249424653650211 -0.0201787320143208 0.0 0.0
0.0 0.04923404440139966 0.040170634389278675 -0.03916774160678056 -0.0010028927824980705 -0.02031286382615801 0.0 0.0
0.0 0.05769543263930525 0.047404754441707005 -0.04636888892540855 -0.0010358655162984798 -0.018456296751305126 0.0 0.0
0.0 0.06596164204904437 0.05265295242207935 -0.05279806878252524 0.00014511636044583443 1.632548263241773e-14 0.0 0.0
0.0 0.057695432639304225 0.0474047544416999 -0.04636888892540109 -0.0010358655162987771 0.01845629675134877 0.0 0.0
0.0 0.049234044401392035 0.040170634389266956 -0.03916774160676975 -0.0010028927824971806 0.020312863826203793 0.0 0.0
0.0 0.04207000140402765 0.03392603841083485 -0.033001095945469267 -0.0009249424653655472 0.020178732014342574 0.0 0.0
0.0 0.035740576505607864 0.028455780062996032 -0.027583802960288627 -0.0008719771027074157 0.019023836243241887 0.0 0.0
0.0 0.029735995113373943 0.023528770974365648 -0.022699769436854405 -0.0008290015375112185 0.017153179588160584 0.0 0.0
0.0 0.024286282327546475 0.019138258466665375 -0.018354547727703032 -0.0007837107389623555 0.014991861865318357 0.0 0.0
0.0 0.019452675299909065 0.015256055532163217 -0.014521374421262546 -0.0007346811109006855 0.012776335633956585 0.0 0.0
0.0 0.015156165640656572 0.011795812424528805 -0.01111546360285497 -0.0006803488216738377 0.010545060362286625 0.0 0.0
0.0 0.011242128629709679 0.008676394569579185 -0.008061382115947511 -0.0006150124536316697 0.008294682309151383 0.0 0.0
0.0 0.007644893025597054 0.005861684171400453 -0.00532368527422833 -0.0005379988971721199 0.006049052354130825 0.0 0.0
0.0 0.00466249663702955 0.003421746770424969 -0.0029973866464260775 -0.00042436012399889176 0.0038863527155283324 0.0 0.0
0.0 0.0021699601880991273 0.0015551491906357568 -0.0012943900821431494 -0.0002607591084926062 0.0020886727808840586 0.0 0.0
0.0 0.0007228118392962927 0.00043384575488377564 -0.0003436012764929194 -9.024447839085614e-05 0.0007610299086781856 0.0 0.0
0.0 8.385984172272979e-05 3.0391072392533453e-05 -2.2108400152758536e-05 -8.282672239774871e-06 9.061646319035073e-05 0.0 0.0
0.0 -2.2395599776695955e-05 -8.434374296830774e-06 6.9813802285360326e-06 1.4529940682947073e-06 -2.225692500210249e-05 0.0 0.0
0.0 -5.4988218556027935e-06 -1.7109142111014572e-06 1.332680660972686e-06 3.7823355012878123e-07 -9.638199298116328e-06 0.0 0.0
0.0 1.6220591475564175e-06 -3.7010293927142514e-08 2.579709995826707e-08 1.1213193968876309e-08 -5.800181625630305e-07 0.0 0.0
0.0 1.9803161634362162e-06 -1.4189838999826081e-09 1.0485481211004158e-08 -9.066497311021154e-09 -5.209414690896132e-07 0.0 0.0
0.0 5.4092543893348026e-05 1.4032094791825621e-05 2.2195926105474867e-05 -3.622802089730042e-05 0.00019122772342482078 0.0 0.0
0.0 0.0011385894601016894 0.0006692450508669723 -0.0009737204045761473 0.000304475353709175 0.0007121182405661229 0.0 0.0
0.0 0.000513793655653608 0.0002616430248087865 -0.0003835941102257726 0.00012195108541698617 -0.0003438255947623024 0.0 0.0
0.0 -3.1062045710078404e-05 -2.012369747366495e-05 3.46733113689657e-05 -1.454961389530076e-05 5.265944853258024e-07 0.0 0.0
0.0 8.944948790633633e-07 1.0631886746665617e-08 -2.692317131289806e-08 1.6291284566233543e-08 -8.229685385714203e-07 0.0 0.0
0.0 5.661486400773318e-07 -2.6024139254691038e-08 1.9726376111279974e-08 6.297763143408931e-09 -1.8944610261290122e-07 0.0 0.0
0.0 -4.22498446890913e-06 -6.456646437690089e-07 5.226081366572259e-07 1.230565071117912e-07 7.4841838936339866e-06 0.0 0.0
0.0 -9.023968538310017e-06 -3.692491477581175e-06 3.0774497675263537e-06 6.15041710054791e-07 1.9561600515008953e-05 0.0 0.0
0.0 3.816625447276438e-05 -1.5657928614002535e-06 1.500199801739579e-06 6.559305966071575e-08 -4.496278622453837e-05 0.0 0.0
0.0 0.00020538343503005943 3.862253913368348e-05 -3.2489087803293194e-05 -6.1334513303904035e-06 -0.0003101859752388586 0.0 0.0
0.0 0.0007139085751980681 0.00028545705035670695 -0.0002504666212120778 -3.499042914462883e-05 -0.0010128186706899306 0.0 0.0
0.0 0.0017951498900727401 0.0009556486666455988 -0.000853401889487858 -0.00010224677715774149 -0.002210130898762241 0.0 0.0
0.0 0.0035492554989197847 0.002061461695111688 -0.0018681774619518524 -0.00019328423315983449 -0.0037275928642940552 0.0 0.0
0.0 0.005379672123539043 0.0034168298152337665 -0.0031405464420720193 -0.0002762833731617496 -0.005421620973377422 0.0 0.0
0.0 0.007559166461986169 0.004927155512039451 -0.004577047450975403 -0.0003501080610640419 -0.007198298905032931 0.0 0.0
0.0 0.010014870237768335 0.006621433730540741 -0.0062085685029944545 -0.0004128652275462827 -0.009038753295079466 0.0 0.0
0.0 0.012763034981372353 0.008569381907780841 -0.008098850294021737 -0.0004705316137591061 -0.0109380399304922 0.0 0.0
0.0 0.015950059953302377 0.010887522784340863 -0.010359362281365457 -0.0005281605029754015 -0.012886463162843175 0.0 0.0
0.0 0.019747915559926825 0.013724500651186283 -0.01313546817859306 -0.000589032472593236 -0.014745306279189442 0.0 0.0
0.0 0.024206376125290734 0.017210765458955824 -0.01655968433081912 -0.0006510811281367021 -0.01604326246372306 0.0 0.0
0.0 0.029324244964896887 0.021601906684806483 -0.02086909338153276 -0.0007328133032737428 -0.016218377197211656 0.0 0.0
0.0 0.03614339854867045 0.027734830696355416 -0.026854119094063492 -0.0008807116022918802 -0.01558644253374671 0.0 0.0
0.0 0.04671389253641585 0.033296473762138325 -0.03379324497902151 0.0004967712168831896 1.40391170910803e-14 0.0 0.0
0.0 0.03614339854867494 0.0277348306963523 -0.02685411909405978 -0.0008807116022925506 0.015586442533782217 0.0 0.0
0.0 0.029324244964890105 0.02160190668479747 -0.020869093381523922 -0.0007328133032735691 0.016218377197243988 0.0 0.0
0.0 0.024206376125276905 0.01721076545894459 -0.01655968433080784 -0.0006510811281367415 0.016043262463738626 0.0 0.0
0.0 0.019747915559910813 0.01372450065117751 -0.013135468178584549 -0.0005890324725929823 0.014745306279180699 0.0 0.0
0.0 0.015950059953287493 0.010887522784330828 -0.0103593622813554 -0.0005281605029754295 0.01288646316283119 0.0 0.0
0.0 0.012763034981359112 0.00856938190777103 -0.008098850294011849 -0.0004705316137591814 0.010938039930482864 0.0 0.0
0.0 0.010014870237758761 0.0066214337305345585 -0.00620856850298848 -0.0004128652275460876 0.009038753295074451 0.0 0.0
0.0 0.007559166461976539 0.004927155512034161 -0.004577047450970057 -0.00035010806106410377 0.007198298905024459 0.0 0.0
0.0 0.005379672123526506 0.003416829815226214 -0.0031405464420650097 -0.00027628337316120316 0.005421620973365148 0.0 0.0
0.0 0.003549255498908918 0.002061461695105642 -0.0018681774619458622 -0.00019328423315977903 0.0037275928642819278 0.0 0.0
0.0 0.001795149890064097 0.0009556486666409 -0.0008534018894832527 -0.00010224677715764784 0.0022101308987536915 0.0 0.0
0.0 0.0007139085751952465 0.00028545705035524577 -0.00025046662121083296 -3.4990429144412174e-05 0.0010128186706863935 0.0 0.0
0.0 0.0002053834350280373 3.8622539133192636e-05 -3.248908780285583e-05 -6.1334513303368846e-06 0.00031018597523630565 0.0 0.0
0.0 3.816625447230015e-05 -1.565792861169807e-06 1.5001998015660193e-06 6.559305960380843e-08 4.496278622535094e-05 0.0 0.0
0.0 -9.023968539537517e-06 -3.6924914775938295e-06 3.0774497675331426e-06 6.150417100606832e-07 -1.9561600514852916e-05 0.0 0.0
0.0 -4.224984468815371e-06 -6.456646437366983e-07 5.226081366366675e-07 1.2305650710002758e-07 -7.4841838926745456e-06 0.0 0.0
0.0 5.661486397200402e-07 -2.6024139273683813e-08 1.9726376130230755e-08 6.297763143453909e-09 1.8944610289852195e-07 0.0 0.0
0.0 8.94494879399465e-07 1.0631886753547164e-08 -2.6923171335538067e-08 1.62912845819869e-08 8.229685396767648e-07 0.0 0.0
0.0 -3.106204571112063e-05 -2.0123697473661024e-05 3.4673311368866635e-05 -1.454961389520555e-05 -5.265944860350461e-07 0.0 0.0
0.0 0.0005137936556498192 0.0002616430248070748 -0.00038359411022327063 0.00012195108541619525 0.000343825594760447 0.0 0.0
0.0 9.201771295481244e-05 5.307589920183896e-05 -7.964023429736141e-05 2.6564335095522397e-05 -8.593651925367262e-05 0.0 0.0
0.0 -1.614825569898735e-05 -9.157695792779601e-06 1.2816760270077495e-05 -3.6590644772978808e-06 1.805139649477901e-05 0.0 0.0
0.0 3.2224054364858387e-06 9.232189539664187e-08 -5.7629684848851546e-08 -3.4692210547795726e-08 2.4907906456549934e-06 0.0 0.0
0.0 1.6660722633686426e-06 -7.356657281880824e-08 5.729505056721774e-08 1.627152225159396e-08 -7.748148678034746e-07 0.0 0.0
0.0 -2.0565835066167124e-06 -1.2520562946977606e-07 1.2457610069360151e-07 6.29528776173804e-10 3.1609075465993416e-06 0.0 0.0
0.0 -9.197444819963787e-07 -7.5922695474352e-07 7.896922197939502e-07 -3.0465265050430314e-08 9.744251119647356e-06 0.0 0.0
0.0 4.912092742220147e-05 -1.3322444887021674e-06 1.3334459447536016e-06 -1.201456051447069e-09 -6.12052956074825e-05 0.0 0.0
0.0 0.00015888570720867925 -9.649332074827797e-07 9.202097846351312e-07 4.4723422847683646e-08 -0.0002720303645293001 0.0 0.0
0.0 0.0003830698470174645 -2.4655176138375265e-07 2.2787892290818317e-07 1.8672838475585143e-08 -0.000582950896174636 0.0 0.0
0.0 0.0006236571533987756 7.2993319916543e-08 -4.08288367997775e-08 -3.216448311691458e-08 -0.0011631305290848522 0.0 0.0
0.0 0.0011224674168195787 6.151549177967508e-07 -8.396456851971054e-07 2.2449076740046299e-07 -0.0020945627483370793 0.0 0.0
0.0 0.0017714050136436075 -4.906527310376919e-06 6.771330755552836e-06 -1.8648034451756052e-06 -0.003530975125974846 0.0 0.0
0.0 0.002797824132965085 -1.7359333118210907e-05 2.0875502363633825e-05 -3.5161692454222676e-06 -0.005172925678372139 0.0 0.0
0.0 0.0040059403270991415 -3.0002341871035497e-05 3.277249674145399e-05 -2.7701548704184124e-06 -0.006926135301261348 0.0 0.0
0.0 0.005370860387580894 1.1400065876308809e-05 -1.8381923482005858e-05 6.981857605697727e-06 -0.008796343709081623 0.0 0.0
0.0 0.006857482245164446 0.0002399669077435099 -0.00027110978497408287 3.114287723057126e-05 -0.010787912760792245 0.0 0.0
0.0 0.008517002035581731 0.0008963882706584266 -0.0009727422523117727 7.635398165334762e-05 -0.012840834443607708 0.0 0.0
0.0 0.010284699714562836 0.0022053684474130815 -0.002398568512143001 0.00019320006472991444 -0.014775336204617406 0.0 0.0
0.0 0.01275478162381948 0.0038755212611015547 -0.0042510882455185075 0.0003755669844169535 -0.01618539937246863 0.0 0.0
0.0 0.018593984268451075 0.007883817620930201 -0.007655725704855449 -0.0002280919160747484 -0.01648815311008928 0.0 0.0
0.0 0.032886508104826156 0.014111861073789289 -0.015160904731858672 0.0010490436580693789 1.2160411566597418e-14 0.0 0.0
0.0 0.0185939842684592 0.007883817620930461 -0.007655725704855248 -0.00022809191607520596 0.01648815311011427 0.0 0.0
0.0 0.012754781623813289 0.0038755212610982887 -0.0042510882455158005 0.0003755669844175083 0.016185399372475862 0.0 0.0
0.0 0.010284699714550538 0.0022053684474104907 -0.0023985685121403486 0.00019320006472985755 0.014775336204614176 0.0 0.0
0.0 0.00851700203557286 0.0008963882706608364 -0.0009727422523148834 7.635398165404742e-05 0.012840834443595458 0.0 0.0
0.0 0.006857482245157302 0.00023996690774430766 -0.0002711097849747216 3.1142877230414375e-05 0.010787912760782021 0.0 0.0
0.0 0.005370860387572223 1.1400065877067316e-05 -1.8381923482302495e-05 6.981857605234447e-06 0.008796343709071452 0.0 0.0
0.0 0.00400594032709314 -3.000234186815011e-05 3.2772496738417195e-05 -2.7701548702653773e-06 0.006926135301253773 0.0 0.0
0.0 0.0027978241329585547 -1.7359333116258096e-05 2.087550236164529e-05 -3.5161692453872614e-06 0.005172925678361048 0.0 0.0
0.0 0.0017714050136348456 -4.906527309711626e-06 6.771330754964467e-06 -1.8648034452529901e-06 0.0035309751259624956 0.0 0.0
0.0 0.0011224674168133638 6.151549177333792e-07 -8.396456853114616e-07 2.2449076757812306e-07 0.0020945627483287812 0.0 0.0
0.0 0.0006236571533987396 7.29933198067201e-08 -4.082883668450648e-08 -3.216448312211875e-08 0.0011631305290836513 0.0 0.0
0.0 0.00038306984701617713 -2.4655176132584863e-07 2.2787892286984477e-07 1.867283845588697e-08 0.0005829508961727271 0.0 0.0
0.0 0.00015888570720753694 -9.649332074427921e-07 9.202097846257075e-07 4.472342281708506e-08 0.00027203036452729505 0.0 0.0
0.0 4.9120927421325e-05 -1.3322444887403535e-06 1.3334459447892285e-06 -1.2014560488537619e-09 6.120529560766581e-05 0.0 0.0
0.0 -9.197444833072548e-07 -7.592269547145563e-07 7.896922197699187e-07 -3.046526505536846e-08 -9.744251119619889e-06 0.0 0.0
0.0 -2.056583506483511e-06 -1.2520562950627214e-07 1.2457610072792636e-07 6.295287783489859e-10 -3.160907545643301e-06 0.0 0.0
0.0 1.6660722633270808e-06 -7.356657287846297e-08 5.729505061917581e-08 1.6271522259286217e-08 7.748148686371614e-07 0.0 0.0
0.0 3.2224054356703116e-06 9.232189541627539e-08 -5.7629684862593186e-08 -3.469221055367227e-08 -2.490790646111994e-06 0.0 0.0
0.0 -1.6148255699339566e-05 -9.157695792573022e-06 1.2816760269828691e-05 -3.65906447725568e-06 -1.8051396494046827e-05 0.0 0.0
0.0 9.201771295331471e-05 5.3075899201502316e-05 -7.964023429688002e-05 2.65643350953778e-05 8.593651925322633e-05 0.0 0.0
0.0 1.3374421293003858e-06 -1.3144219086405228e-06 1.752312016027341e-06 -4.3789010738683495e-07 3.1030363340203767e-06 0.0 0.0
0.0 -6.177080261569671e-07 2.1091823601176343e-07 -2.6036538189618147e-07 4.944714588442063e-08 2.1772694539162183e-07 0.0 0.0
0.0 5.115789552393624e-07 7.10764035894855e-08 -1.0114423235052549e-07 3.0067828761039595e-08 -9.56847204343782e-07 0.0 0.0
0.0 2.631320758219393e-06 -5.2763318442564414e-08 3.199174517009777e-08 2.077157327246543e-08 -1.4912467475878708e-06 0.0 0.0
0.0 1.3931072887974623e-06 -1.8328228041618116e-07 1.754666359978482e-07 7.815644418332143e-09 -1.5701105271505423e-06 0.0 0.0
0.0 -1.6026525109801838e-06 -5.852706864167469e-09 2.448051307317406e-07 -2.389524238675312e-07 -2.3344316021828915e-06 0.0 0.0
0.0 6.246059415587978e-05 -1.2717362806097167e-06 1.3027903069535484e-06 -3.105402634388616e-08 -5.254417386866089e-05 0.0 0.0
0.0 0.00021747193264984443 -4.276330390735465e-05 3.6233032391180494e-05 6.5302715161741224e-06 -0.00032033995796586885 0.0 0.0
0.0 0.0007170023006379093 -0.00028682669627788865 0.0002515997852864104 3.5226910991478384e-05 -0.0010182936997183134 0.0 0.0
0.0 0.0017928829522240325 -0.0009545065814897541 0.0008523484783672655 0.00010215810312248891 -0.0022095747370848274 0.0 0.0
0.0 0.0035605979900137485 -0.0020617787098750205 0.0018686630409004866 0.00019311566897453204 -0.003724324249865188 0.0 0.0
0.0 0.005412242221395613 -0.003436545878488823 0.0031573960817990005 0.00027914979668981966 -0.0054256169802662695 0.0 0.0
0.0 0.007617856943940085 -0.004979321785312225 0.004624569419504264 0.00035475236580796065 -0.007202628454206347 0.0 0.0
0.0 0.010085125108393602 -0.006690219143209912 0.006277253466440475 0.0004129656767694357 -0.009034989755427362 0.0 0.0
0.0 0.012667096911268064 -0.008512173738800873 0.008063655333626924 0.00044851840517394563 -0.010941067521748362 0.0 0.0
0.0 0.015241958049051643 -0.010263120456700452 0.009809605940790108 0.00045351451591034246 -0.012984835822450372 0.0 0.0
0.0 0.017441161920049204 -0.011606576201185556 0.011186503001150374 0.0004200732000351905 -0.015209650196036458 0.0 0.0
0.0 0.0190541432738838 -0.012087409656570187 0.011753544132610132 0.0003338655239600678 -0.017677536260378372 0.0 0.0
0.0 0.01918377681941409 -0.01117225904712883 0.011030216596646549 0.00014204245048228775 -0.020345080333022222 0.0 0.0
0.0 0.015643730753976827 -0.008075797292138993 0.00839717762405657 -0.00032138033191757623 -0.022231004505961677 0.0 0.0
0.0 0.03166636369641385 -0.0044834325552904845 0.002140115734995504 0.0023433168202949737 1.5243882545146192e-14 0.0 0.0
0.0 0.0156437307539828 -0.008075797292139562 0.008397177624056337 -0.00032138033191677934 0.022231004505976804 0.0 0.0
0.0 0.019183776819411386 -0.011172259047124666 0.011030216596642623 0.00014204245048204364 0.02034508033303703 0.0 0.0
0.0 0.019054143273870696 -0.012087409656560539 0.011753544132601162 0.00033386552395937396 0.017677536260379316 0.0 0.0
0.0 0.017441161920031093 -0.011606576201172772 0.011186503001137542 0.0004200732000352446 0.01520965019602644 0.0 0.0
0.0 0.015241958049036356 -0.010263120456689277 0.009809605940779308 0.00045351451590997145 0.012984835822438947 0.0 0.0
0.0 0.012667096911252335 -0.008512173738788634 0.008063655333615251 0.00044851840517338515 0.010941067521735766 0.0 0.0
0.0 0.010085125108376732 -0.006690219143196571 0.006277253466427445 0.00041296567676912214 0.00903498975541713 0.0 0.0
0.0 0.007617856943922415 -0.00497932178529964 0.004624569419491695 0.0003547523658079443 0.007202628454193791 0.0 0.0
0.0 0.005412242221377524 -0.003436545878476214 0.0031573960817871437 0.00027914979668907004 0.005425616980250953 0.0 0.0
0.0 0.0035605979899975583 -0.0020617787098646764 0.0018686630408909723 0.00019311566897370304 0.0037243242498506595 0.0 0.0
0.0 0.001792882952214063 -0.000954506581484184 0.0008523484783620486 0.00010215810312213614 0.002209574737076527 0.0 0.0
0.0 0.0007170023006340974 -0.0002868266962757916 0.0002515997852845746 3.522691099121726e-05 0.0010182936997144207 0.0 0.0
0.0 0.00021747193264756183 -4.27633039068067e-05 3.623303239074115e-05 6.530271516065607e-06 0.00032033995796330314 0.0 0.0
0.0 6.246059415483776e-05 -1.2717362807918932e-06 1.3027903070785015e-06 -3.105402628663076e-08 5.2544173869012467e-05 0.0 0.0
0.0 -1.6026525116925588e-06 -5.852706963294981e-09 2.4480513080346914e-07 -2.389524238401694e-07 2.334431603118103e-06 0.0 0.0
0.0 1.3931072882189741e-06 -1.8328228054010436e-07 1.7546663610293202e-07 7.815644437162533e-09 1.5701105281765713e-06 0.0 0.0
0.0 2.6313207577770514e-06 -5.2763318554814835e-08 3.199174526368841e-08 2.0771573291127198e-08 1.491246748586903e-06 0.0 0.0
0.0 5.115789548447146e-07 7.107640357568218e-08 -1.0114423234880114e-07 3.006782877311446e-08 9.568472049786655e-07 0.0 0.0
0.0 -6.177080260013786e-07 2.10918235947635e-07 -2.603653818197173e-07 4.944714587208122e-08 -2.177269453578965e-07 0.0 0.0
0.0 1.3374421278542015e-06 -1.3144219081686107e-06 1.7523120153144184e-06 -4.378901071457929e-07 -3.1030363330643052e-06 0.0 0.0
0.0 -5.791226492451871e-07 3.285152939261595e-08 -4.863961923435168e-08 1.5788089841737027e-08 -8.324711323925468e-08 0.0 0.0
0.0 1.295480746049114e-06 2.528392587924623e-09 1.889779406103785e-08 -2.142618664896851e-08 2.620074596195711e-07 0.0 0.0
0.0 -4.3379722380788114e-07 2.460301500045623e-07 -1.9909328553595636e-07 -4.693686446861462e-08 1.8164626669548247e-06 0.0 0.0
0.0 1.465755166803186e-06 -4.1634595462064056e-07 3.2538776961792354e-07 9.095818500270523e-08 -3.5526226539368413e-06 0.0 0.0
0.0 3.305022245991418e-06 2.213226076147113e-06 -1.8178009764853333e-06 -3.9542509966171775e-07 9.383388419755225e-06 0.0 0.0
0.0 1.3302460271957828e-05 5.262786289872616e-06 -4.06614255752042e-06 -1.1966437323522015e-06 1.0656665406249138e-05 0.0 0.0
0.0 9.886080729726188e-05 -4.8969178825353334e-05 3.7735991052017236e-05 1.1233187773336184e-05 -0.00014992165191166887 0.0 0.0
0.0 0.0007410821245438399 -0.0004418537832620084 0.00035066492095068896 9.118886231131915e-05 -0.0007807265303783022 0.0 0.0
0.0 0.0021700100714775925 -0.001554688221472403 0.0012937912368743444 0.00026089698459805786 -0.0020919806600749645 0.0 0.0
0.0 0.004658989400341619 -0.003420067431358429 0.0029956830760664325 0.0004243843552919937 -0.003883240616069377 0.0 0.0
0.0 0.00764905396283967 -0.005865788645950751 0.00532762427056392 0.0005381643753868349 -0.006049098823214038 0.0 0.0
0.0 0.011264427672507816 -0.008695339085026465 0.008079594725848419 0.0006157443591780479 -0.008296015132004364 0.0 0.0
0.0 0.015203684775076463 -0.011841672630098775 0.011160450560983191 0.0006812220691155702 -0.0105208040004956 0.0 0.0
0.0 0.01949873199903539 -0.01531452225055943 0.01458228683520426 0.0007322354153551653 -0.012699552934952578 0.0 0.0
0.0 0.02418298470931869 -0.01907627913500924 0.018308626181311818 0.0007676529536974159 -0.014922508211087678 0.0 0.0
0.0 0.02905990079684737 -0.022935822328766328 0.02215382537445365 0.0007819969543126666 -0.017395848808615694 0.0 0.0
0.0 0.033659735498083196 -0.026497074427378385 0.025721498993208886 0.0007755754341695076 -0.020341931914790407 0.0 0.0
0.0 0.03719863254798683 -0.029185486118532653 0.028433583618991436 0.0007519024995412118 -0.02387002188441598 0.0 0.0
0.0 0.038999925479210905 -0.02996492973204746 0.029301355278850444 0.0006635744531970091 -0.02730211456226669 0.0 0.0
0.0 0.03625502017781004 -0.02666082561901115 0.026170971346328314 0.0004898542726828291 -0.028063517204484866 0.0 0.0
0.0 0.03887987590672428 -0.021419932217055515 0.01828568140022087 0.003134250816834624 1.6949115722031394e-14 0.0 0.0
0.0 0.03625502017781924 -0.02666082561900996 0.02617097134632763 0.0004898542726823456 0.028063517204523443 0.0 0.0
0.0 0.038999925479206374 -0.02996492973203802 0.029301355278840906 0.0006635744531970915 0.02730211456230045 0.0 0.0
0.0 0.03719863254796781 -0.029185486118515274 0.02843358361897479 0.0007519024995404926 0.023870021884428487 0.0 0.0
0.0 0.03365973549805265 -0.026497074427353988 0.0257214989931842 0.0007755754341697717 0.020341931914781765 0.0 0.0
0.0 0.029059900796819665 -0.022935822328743936 0.022153825374431446 0.0007819969543124857 0.01739584880860104 0.0 0.0
0.0 0.024182984709289795 -0.01907627913498567 0.01830862618128882 0.0007676529536968599 0.01492250821107308 0.0 0.0
0.0 0.019498731999008048 -0.015314522250536242 0.014582286835181285 0.000732235415354952 0.01269955293493894 0.0 0.0
0.0 0.01520368477504734 -0.011841672630075333 0.011160450560960112 0.000681222069115217 0.01052080400048132 0.0 0.0
0.0 0.011264427672480199 -0.008695339085005301 0.008079594725828077 0.0006157443591772218 0.008296015131985142 0.0 0.0
0.0 0.007649053962815125 -0.005865788645932015 0.005327624270545563 0.0005381643753864519 0.006049098823194567 0.0 0.0
0.0 0.0046589894003212975 -0.003420067431343287 0.0029956830760521948 0.0004243843552910934 0.003883240616054281 0.0 0.0
0.0 0.0021700100714661715 -0.0015546882214638863 0.0012937912368669207 0.00026089698459696515 0.0020919806600667584 0.0 0.0
0.0 0.0007410821245379613 -0.0004418537832581655 0.00035066492094764984 9.118886231051505e-05 0.0007807265303728074 0.0 0.0
0.0 9.886080729435211e-05 -4.8969178824548964e-05 3.773599105139227e-05 1.1233187773156696e-05 0.00014992165190970248 0.0 0.0
0.0 1.3302460271632245e-05 5.2627862894312435e-06 -4.066142557176788e-06 -1.1966437322545566e-06 -1.0656665404960635e-05 0.0 0.0
0.0 3.3050222451892198e-06 2.2132260759488227e-06 -1.8178009763193868e-06 -3.954250996294276e-07 -9.383388418818612e-06 0.0 0.0
0.0 1.4657551665870402e-06 -4.1634595475763665e-07 3.2538776973050513e-07 9.095818502713742e-08 3.552622654858126e-06 0.0 0.0
0.0 -4.3379722448014737e-07 2.4603015000103317e-07 -1.990932855436022e-07 -4.69368644574261e-08 -1.816462666634395e-06 0.0 0.0
0.0 1.295480745597867e-06 2.52839259832712e-09 1.8897794052894612e-08 -2.142618665122316e-08 -2.6200745975635346e-07 0.0 0.0
0.0 -5.791226488939735e-07 3.285152937202806e-08 -4.863961920387383e-08 1.57880898318369e-08 8.324711318699175e-08 0.0 0.0
0.0 0.0 0.0 0.0 0.0 0.0 0.0 0.0
0.0 -4.234055499951766e-07 -6.017786260616705e-09 2.3121579271663233e-09 3.705628333450793e-09 -8.616303590934079e-08 0.0 0.0
0.0 9.916661730703888e-07 1.8314286920366806e-07 -1.3941617131771064e-07 -4.3726697885951826e-08 1.1071870339716807e-06 0.0 0.0
0.0 6.991992688361386e-07 1.150404508144369e-06 -9.62214366054892e-07 -1.8819014208947694e-07 3.5102806174879528e-06 0.0 0.0
0.0 1.6785518844948323e-06 2.3075276701102533e-06 -1.8158343986666752e-06 -4.916932714436125e-07 2.9158293691069614e-06 0.0 0.0
0.0 1.0133002691304471e-05 -1.3404852753093536e-05 1.008113313746416e-05 3.3237196156294155e-06 -3.601316942037509e-05 0.0 0.0
0.0 0.0003966060716214901 -0.0002555648852430479 0.00019498672823635836 6.0578157006689485e-05 -0.0003361431342380087 0.0 0.0
0.0 0.0015811217365557936 -0.0012638782828996798 0.0010142104168144551 0.0002496678660852237 -0.0013425585936436791 0.0 0.0
0.0 0.00411694797344398 -0.0032910208046417946 0.002821177206133179 0.0004698435985086159 -0.0030322508892320714 0.0 0.0
0.0 0.008071290662175719 -0.006286368752272932 0.0056715749069221055 0.0006147938453508316 -0.005339892953050101 0.0 0.0
0.0 0.012416717291930052 -0.010024810418699431 0.009323035956333103 0.0007017744623663178 -0.00796815651179633 0.0 0.0
0.0 0.017543125245086263 -0.014289076792036084 0.013519790057258183 0.0007692867347779024 -0.010582291650424182 0.0 0.0
0.0 0.023279938391279075 -0.01902386434380183 0.01819026997438155 0.0008335943694202905 -0.013089137042576223 0.0 0.0
0.0 0.0295378602437252 -0.024262079443418412 0.02337080536610663 0.000891274077311766 -0.015526250670846835 0.0 0.0
0.0 0.03645447797481172 -0.029990373093143393 0.02905477196708929 0.0009356011260541352 -0.01806005518814561 0.0 0.0
0.0 0.04364992069907104 -0.03602262030921152 0.035065150449811136 0.0009574698594003528 -0.021025439502167526 0.0 0.0
0.0 0.05099787094238257 -0.0418806915993117 0.04092789289920356 0.000952798700108106 -0.024863156930054465 0.0 0.0
0.0 0.05707114446773509 -0.04666832171155811 0.04576424627636702 0.0009040754351910961 -0.029574510459770276 0.0 0.0
0.0 0.0601986481674716 -0.0487624556285 0.04796473441946028 0.000797721209039679 -0.03387135175737989 0.0 0.0
0.0 0.05665428233955963 -0.045136200983333326 0.04460014088607797 0.0005360600972553673 -0.03517634490374492 0.0 0.0
0.0 0.05409754007773278 -0.03807127147820721 0.034208787772840706 0.0038624837053665107 1.9192113176469405e-14 0.0 0.0
0.0 0.056654282339565806 -0.04513620098332963 0.044600140886074745 0.0005360600972549011 0.03517634490379135 0.0 0.0
0.0 0.060198648167460456 -0.048762455628483886 0.0479647344194445 0.0007977212090393433 0.03387135175742237 0.0 0.0
0.0 0.05707114446770898 -0.04666832171153323 0.04576424627634257 0.0009040754351906555 0.02957451045979019 0.0 0.0
0.0 0.050997870942340325 -0.041880691599276126 0.04092789289916799 0.0009527987001081728 0.024863156930048688 0.0 0.0
0.0 0.043649920699031355 -0.03602262030917812 0.035065150449778065 0.0009574698594000284 0.021025439502153513 0.0 0.0
0.0 0.03645447797476944 -0.02999037309310834 0.029054771967054697 0.0009356011260536751 0.018060055188127644 0.0 0.0
0.0 0.029537860243687635 -0.024262079443386316 0.02337080536607508 0.0008912740773112204 0.015526250670832818 0.0 0.0
0.0 0.02327993839124015 -0.019023864343769632 0.01819026997434959 0.0008335943694200463 0.013089137042560282 0.0 0.0
0.0 0.017543125245046837 -0.01428907679200457 0.013519790057227013 0.0007692867347775564 0.010582291650401898 0.0 0.0
0.0 0.01241671729189607 -0.010024810418672344 0.00932303595630625 0.0007017744623660818 0.007968156511774585 0.0 0.0
0.0 0.0080712906621473 -0.006286368752250539 0.005671574906900462 0.0006147938453500775 0.005339892953031075 0.0 0.0
0.0 0.004116947973424874 -0.0032910208046268786 0.002821177206119574 0.00046984359850729993 0.0030322508892203243 0.0 0.0
0.0 0.0015811217365464206 -0.0012638782828924562 0.0010142104168084707 0.0002496678660839859 0.0013425585936371668 0.0 0.0
0.0 0.00039660607161600846 -0.00025556488523970566 0.00019498672823371882 6.05781570059868e-05 0.0003361431342336145 0.0 0.0
0.0 1.0133002690776241e-05 -1.340485275348156e-05 1.0081133137789581e-05 3.323719615691962e-06 3.6013169421425296e-05 0.0 0.0
0.0 1.678551883924702e-06 2.307527669992729e-06 -1.8158343985708457e-06 -4.916932714218795e-07 -2.9158293685760704e-06 0.0 0.0
0.0 6.99199268242681e-07 1.1504045079559082e-06 -9.622143659018597e-07 -1.8819014205404672e-07 -3.5102806165465557e-06 0.0 0.0
0.0 9.916661724668802e-07 1.8314286923595102e-07 -1.3941617134623395e-07 -4.3726697889723525e-08 -1.1071870341170116e-06 0.0 0.0
0.0 -4.2340554990147885e-07 -6.017786259055686e-09 2.3121579264505912e-09 3.705628332607287e-09 8.61630358901863e-08 0.0 0.0
0.0 0.0 0.0 0.0 0.0 0.0 0.0 0.0
0.0 0.0 0.0 0.0 0.0 0.0 0.0 0.0
0.0 -1.2025212151614905e-07 -2.8111852206668733e-09 1.9303984439410896e-09 8.807867767261456e-10 -2.3879236813071873e-08 0.0 0.0
0.0 -1.367660388808424e-07 9.14059788087514e-08 -7.222064490378765e-08 -1.9185333904966715e-08 4.2755731872730903e-07 0.0 0.0
0.0 -2.3253676583659995e-06 3.9842775571254927e-07 -3.219795733133946e-07 -7.644818239914449e-08 7.338347097667166e-07 0.0 0.0
0.0 -1.6963325302013402e-06 7.501207307536194e-06 -6.144627029840335e-06 -1.356580277695851e-06 1.4738581860675139e-05 0.0 0.0
0.0 0.00011699857169622917 -6.280173731718056e-05 4.6272190978805266e-05 1.6529546338375165e-05 -6.304181621490936e-05 0.0 0.0
0.0 0.0008281825522374955 -0.0006813231409292113 0.0005259718137242156 0.00015535132720499628 -0.0005890279329777809 0.0 0.0
0.0 0.0028005258452848025 -0.0023592387133814243 0.0019484215303576854 0.0004108171830237374 -0.0017648292098515045 0.0 0.0
0.0 0.006646362729471743 -0.005298004071082661 0.004678948161282774 0.00061905590979989 -0.003732975430206379 0.0 0.0
0.0 0.011143111983349904 -0.009403055184809075 0.008667050778596886 0.0007360044062121971 -0.006334173375023861 0.0 0.0
0.0 0.017226411439764184 -0.014371589831059284 0.013561579523612408 0.0008100103074468738 -0.009114143341999921 0.0 0.0
0.0 0.023995446522103316 -0.02004393193671132 0.019167162885800202 0.0008767690509111036 -0.011859461276183553 0.0 0.0
0.0 0.03148024087213844 -0.026365403016548786 0.025418862320033618 0.0009465406965151687 -0.014489601972067055 0.0 0.0
0.0 0.03975252911647459 -0.03337231565615009 0.03235819485604571 0.0010141208001043416 -0.017054782396122934 0.0 0.0
0.0 0.04878244931834784 -0.041082194709835824 0.04001222397731573 0.0010699707325200723 -0.019723912227869102 0.0 0.0
0.0 0.05875453095244441 -0.049321737615511736 0.04822205292944006 0.0010996846860716948 -0.02293441543157164 0.0 0.0
0.0 0.0681868270306899 -0.057496297045146735 0.0564093645356595 0.0010869325094871607 -0.02723125904366261 0.0 0.0
0.0 0.0767979947057982 -0.06430481777429436 0.06329258386183743 0.0010122339124569713 -0.032583474576434825 0.0 0.0
0.0 0.08130824503958692 -0.06744730575737061 0.06659746831105118 0.0008498374463194053 -0.037672177556947684 0.0 0.0
0.0 0.07684947113002383 -0.06307423656689864 0.06253833832865899 0.0005358982382396592 -0.03966742717102693 0.0 0.0
0.0 0.0707894107784625 -0.054361549034937375 0.049875605847480194 0.004485943187457068 1.9480944635219544e-14 0.0 0.0
0.0 0.07684947113002713 -0.06307423656689307 0.06253833832865448 0.0005358982382385962 0.03966742717107615 0.0 0.0
0.0 0.08130824503956999 -0.06744730575734982 0.06659746831103056 0.0008498374463192099 0.037672177556995506 0.0 0.0
0.0 0.07679799470576233 -0.06430481777426088 0.06329258386180388 0.0010122339124568449 0.03258347457645999 0.0 0.0
0.0 0.06818682703064223 -0.057496297045105615 0.05640936453561832 0.0010869325094873207 0.02723125904366137 0.0 0.0
0.0 0.05875453095239304 -0.04932173761546817 0.04822205292939644 0.0010996846860716802 0.02293441543155779 0.0 0.0
0.0 0.048782449318295965 -0.041082194709791416 0.04001222397727194 0.0010699707325194786 0.01972391222785204 0.0 0.0
0.0 0.039752529116424434 -0.03337231565610689 0.03235819485600323 0.0010141208001036635 0.01705478239610766 0.0 0.0
0.0 0.031480240872088325 -0.026365403016506722 0.025418862319991582 0.0009465406965151376 0.014489601972049335 0.0 0.0
0.0 0.023995446522050934 -0.020043931936667692 0.019167162885756667 0.0008767690509110102 0.011859461276159665 0.0 0.0
0.0 0.01722641143972324 -0.014371589831025355 0.01356157952357881 0.0008100103074465543 0.009114143341976563 0.0 0.0
0.0 0.011143111983315742 -0.009403055184780571 0.008667050778569005 0.0007360044062115742 0.006334173375003353 0.0 0.0
0.0 0.006646362729445528 -0.005298004071062076 0.004678948161263123 0.0006190559097989574 0.003732975430192541 0.0 0.0
0.0 0.002800525845269576 -0.0023592387133694504 0.0019484215303470524 0.0004108171830223973 0.0017648292098427225 0.0 0.0
0.0 0.0008281825522287564 -0.0006813231409228983 0.0005259718137191845 0.00015535132720371456 0.0005890279329723141 0.0 0.0
0.0 0.00011699857169393123 -6.280173731614344e-05 4.627219097801642e-05 1.6529546338127113e-05 6.30418162140862e-05 0.0 0.0
0.0 -1.6963325303433658e-06 7.501207306807115e-06 -6.14462702925707e-06 -1.3565802775500285e-06 -1.4738581859217678e-05 0.0 0.0
0.0 -2.325367658658449e-06 3.9842775555964236e-07 -3.2197957319143486e-07 -7.644818236819086e-08 -7.338347091169541e-07 0.0 0.0
0.0 -1.3676603902644506e-07 9.140597885237618e-08 -7.2220644939885e-08 -1.9185333912488315e-08 -4.2755731890270356e-07 0.0 0.0
0.0 -1.2025212151506954e-07 -2.8111852205958148e-09 1.930398443898689e-09 8.807867766964716e-10 2.387923681280424e-08 0.0 0.0
0.0 0.0 0.0 0.0 0.0 0.0 0.0 0.0
0.0 0.0 0.0 0.0 0.0 0.0 0.0 0.0
0.0 0.0 0.0 0.0 0.0 0.0 0.0 0.0
0.0 -3.0435968358254407e-07 -1.5104798888011697e-08 1.2296357679532312e-08 2.808441208478015e-09 -4.7884351310045925e-08 0.0 0.0
0.0 -1.500241187917997e-06 1.4686267172244523e-06 -1.1839801479758903e-06 -2.8464656924853704e-07 3.2512073711609414e-06 0.0 0.0
0.0 -9.354496040668392e-06 -8.234135389998794e-07 -8.920064288692516e-08 9.126141818867834e-07 1.7419273209437897e-06 0.0 0.0
0.0 0.0002986573208462926 -0.0002081585721489022 0.00015475455076476924 5.3404021384132995e-05 -0.0001330591607611056 0.0 0.0
0.0 0.0014791483006322305 -0.0012822934697925223 0.0010102245420596091 0.0002720689277329122 -0.0007439915909995665 0.0 0.0
0.0 0.004495537161221558 -0.003660359401976667 0.0031131623984964607 0.000547197003480208 -0.002024130748852031 0.0 0.0
0.0 0.008630015876097411 -0.007518996006200592 0.006792307327835249 0.0007266886783653429 -0.004139094950344178 0.0 0.0
0.0 0.014820300379669056 -0.012635094571639843 0.011811765607966266 0.0008233289636735785 -0.006708383150945282 0.0 0.0
0.0 0.022124310502832 -0.01881570318102042 0.01792042579780289 0.0008952773832175322 -0.009439335305771752 0.0 0.0
0.0 0.030468700376408447 -0.025895428659764845 0.02492855200703399 0.000966876652730852 -0.012138529502339158 0.0 0.0
0.0 0.03977092784491074 -0.033807753933713346 0.03276446403658682 0.0010432898971265078 -0.014740946317934694 0.0 0.0
0.0 0.050136517226620624 -0.042582299968578194 0.04146287362842596 0.001119426340152286 -0.017296319388163936 0.0 0.0
0.0 0.06139162459350407 -0.05226354987078514 0.05107585424085327 0.0011876956299318275 -0.019941626916965643 0.0 0.0
0.0 0.07344140581200899 -0.0626910945741737 0.061465216566962036 0.001225878007211707 -0.02303820184035348 0.0 0.0
0.0 0.08603386061069315 -0.07313004911881982 0.07192738698260887 0.0012026621362109498 -0.027194841969107344 0.0 0.0
0.0 0.09649759901090907 -0.0818820374885714 0.08078999304648901 0.0010920444420821846 -0.03266042921505965 0.0 0.0
0.0 0.10163273190764267 -0.08593826622529 0.08506202343651413 0.0008762427887758081 -0.03840956772471393 0.0 0.0
0.0 0.09666750673121469 -0.08082853330157931 0.08029485829199189 0.0005336750095874566 -0.04240050206002398 0.0 0.0
0.0 0.08874114103587252 -0.07069437538162883 0.06565763651571169 0.005036738865917071 2.0761170560490427e-14 0.0 0.0
0.0 0.09666750673121138 -0.08082853330156967 0.08029485829198256 0.0005336750095871711 0.042400502060073036 0.0 0.0
0.0 0.10163273190762068 -0.08593826622526556 0.08506202343649005 0.0008762427887755056 0.038409567724761895 0.0 0.0
0.0 0.09649759901086088 -0.08188203748852796 0.08078999304644537 0.0010920444420825823 0.032660429215084864 0.0 0.0
0.0 0.08603386061064044 -0.07313004911877398 0.07192738698256321 0.0012026621362106868 0.027194841969108076 0.0 0.0
0.0 0.07344140581195 -0.0626910945741227 0.06146521656691194 0.0012258780072107957 0.023038201840342467 0.0 0.0
0.0 0.061391624593443314 -0.05226354987073278 0.051075854240801716 0.0011876956299311189 0.019941626916952806 0.0 0.0
0.0 0.05013651722655856 -0.04258229996852425 0.041462873628372865 0.0011194263401513283 0.017296319388148233 0.0 0.0
0.0 0.03977092784484707 -0.033807753933659326 0.032764464036532055 0.0010432898971272527 0.014740946317917305 0.0 0.0
0.0 0.030468700376347357 -0.025895428659713275 0.02492855200698272 0.0009668766527305194 0.012138529502315889 0.0 0.0
0.0 0.022124310502780936 -0.018815703180977635 0.017920425797760244 0.0008952773832173827 0.00943933530574787 0.0 0.0
0.0 0.014820300379625935 -0.012635094571603642 0.01181176560793044 0.0008233289636732075 0.006708383150924686 0.0 0.0
0.0 0.008630015876069246 -0.007518996006175613 0.006792307327811176 0.0007266886783644348 0.004139094950330588 0.0 0.0
0.0 0.004495537161200401 -0.0036603594019596723 0.0031131623984808933 0.00054719700347878 0.002024130748842317 0.0 0.0
0.0 0.0014791483006224588 -0.001282293469784664 0.0010102245420532522 0.00027206892773141137 0.0007439915909947921 0.0 0.0
0.0 0.0002986573208417526 -0.00020815857214614967 0.00015475455076265085 5.3404021383498364e-05 0.00013305916075901316 0.0 0.0
0.0 -9.354496040633315e-06 -8.234135397233718e-07 -8.920064230433187e-08 9.126141820276651e-07 -1.7419273197426432e-06 0.0 0.0
0.0 -1.5002411885554037e-06 1.4686267171884331e-06 -1.1839801479467077e-06 -2.846465692417205e-07 -3.251207370936405e-06 0.0 0.0
0.0 -3.043596834525266e-07 -1.5104798855334628e-08 1.2296357653438221e-08 2.8084412018969405e-09 4.788435120560752e-08 0.0 0.0
0.0 0.0 0.0 0.0 0.0 0.0 0.0 0.0
0.0 0.0 0.0 0.0 0.0 0.0 0.0 0.0
0.0 0.0 0.0 0.0 0.0 0.0 0.0 0.0
0.0 0.0 0.0 0.0 0.0 0.0 0.0 0.0
0.0 -1.4540377758426309e-07 -9.12955113141702e-09 7.222069576636487e-09 1.9074815547816038e-09 -2.4897336491865533e-08 0.0 0.0
0.0 -3.0060237441711157e-06 1.1941841882994219e-06 -9.612217653609367e-07 -2.329624229385132e-07 2.130149586024775e-06 0.0 0.0
0.0 2.4182243568126568e-05 -8.03754433394225e-06 4.01994146781884e-06 4.017602866123499e-06 6.267131715393264e-06 0.0 0.0
0.0 0.0005078756618117804 -0.00048463544575476304 0.0003646738254977218 0.00011996162025704137 -0.00021611825929791157 0.0 0.0
0.0 0.002487747116971949 -0.0020373745414367255 0.0016464056063243235 0.00039096893511240233 -0.0007977030071379208 0.0 0.0
0.0 0.005820630877466265 -0.005155795567165681 0.004499421908807398 0.0006563736583582786 -0.002131101229299953 0.0 0.0
0.0 0.011267255490921783 -0.009825334595981129 0.00902024241998977 0.0008050921759913529 -0.004099422574760948 0.0 0.0
0.0 0.018428086133793813 -0.01593653077875104 0.015042173847433794 0.0008943569313172681 -0.006447505919172111 0.0 0.0
0.0 0.027090043815493042 -0.02331507139530463 0.02234524510361868 0.0009698262916859278 -0.008966605320446382 0.0 0.0
0.0 0.03704583978509256 -0.031799130818478905 0.030751520872958557 0.0010476099455203548 -0.011455772352828653 0.0 0.0
0.0 0.04825067021516386 -0.041310087024550746 0.040179890626182 0.0011301963983686928 -0.01387204739326088 0.0 0.0
0.0 0.0603218430366965 -0.051860593222376496 0.05064673797057009 0.0012138552518064093 -0.016281017468119916 0.0 0.0
0.0 0.0739179605267884 -0.06347022604034076 0.06217936686641917 0.0012908591739216849 -0.01874658994558883 0.0 0.0
0.0 0.08854206974812871 -0.07598625506672685 0.074647184600549 0.0013390704661776919 -0.02142087363039867 0.0 0.0
0.0 0.1030990153819666 -0.08860298830507235 0.08729049845478179 0.001312489850290455 -0.02484316229303084 0.0 0.0
0.0 0.11569392476120438 -0.09925100488694533 0.09808406484132452 0.0011669400456208994 -0.0297964900873662 0.0 0.0
0.0 0.12211282190413339 -0.10430559552560383 0.1034066099703912 0.0008989855552123806 -0.03634020360200667 0.0 0.0
0.0 0.11661743922414543 -0.0987412099565659 0.09821936593185415 0.0005218440247117307 -0.043791626819096124 0.0 0.0
0.0 0.10715158179662412 -0.0874405142548594 0.08191830399554116 0.005522210259318275 2.0480145357382185e-14 0.0 0.0
0.0 0.11661743922413173 -0.09874120995654852 0.09821936593183664 0.000521844024711774 0.043791626819142726 0.0 0.0
0.0 0.12211282190410386 -0.10430559552557404 0.10340660997036188 0.0008989855552119936 0.03634020360205255 0.0 0.0
0.0 0.11569392476114722 -0.09925100488689487 0.09808406484127351 0.0011669400456213188 0.029796490087389306 0.0 0.0
0.0 0.103099015381903 -0.08860298830501703 0.08729049845472675 0.00131248985029029 0.02484316229303291 0.0 0.0
0.0 0.08854206974805812 -0.07598625506666551 0.0746471846004882 0.001339070466177272 0.021420873630390826 0.0 0.0
0.0 0.07391796052671641 -0.0634702260402787 0.062179366866357555 0.0012908591739211376 0.018746589945577957 0.0 0.0
0.0 0.0603218430366231 -0.05186059322231304 0.05064673797050751 0.0012138552518054981 0.01628101746810506 0.0 0.0
0.0 0.04825067021508978 -0.041310087024486804 0.040179890626117834 0.001130196398368969 0.013872047393244404 0.0 0.0
0.0 0.03704583978502538 -0.03179913081842127 0.030751520872901547 0.0010476099455197369 0.011455772352808957 0.0 0.0
0.0 0.027090043815430658 -0.02331507139525141 0.022345245103565708 0.0009698262916857279 0.008966605320422965 0.0 0.0
0.0 0.018428086133743277 -0.015936530778707613 0.015042173847390703 0.0008943569313168913 0.006447505919152757 0.0 0.0
0.0 0.011267255490888575 -0.009825334595951977 0.009020242419961487 0.0008050921759904906 0.004099422574748988 0.0 0.0
0.0 0.005820630877442655 -0.00515579556714522 0.004499421908788148 0.0006563736583570736 0.0021311012292906705 0.0 0.0
0.0 0.002487747116958978 -0.0020373745414264547 0.0016464056063155341 0.00039096893511091877 0.0007977030071333844 0.0 0.0
0.0 0.0005078756618055473 -0.0004846354457501101 0.0003646738254940796 0.00011996162025602982 0.00021611825929553337 0.0 0.0
0.0 2.4182243567348673e-05 -8.03754433420937e-06 4.019941468060903e-06 4.0176028661485995e-06 -6.267131714857416e-06 0.0 0.0
0.0 -3.006023744211198e-06 1.1941841882739099e-06 -9.61221765343279e-07 -2.3296242293063056e-07 -2.1301495859762304e-06 0.0 0.0
0.0 -1.4540377760687656e-07 -9.129551133026106e-09 7.222069577956299e-09 1.907481555070548e-09 2.4897336495308385e-08 0.0 0.0
0.0 0.0 0.0 0.0 0.0 0.0 0.0 0.0
0.0 0.0 0.0 0.0 0.0 0.0 0.0 0.0
0.0 0.0 0.0 0.0 0.0 0.0 0.0 0.0
0.0 0.0 0.0 0.0 0.0 0.0 0.0 0.0
0.0 -8.449213319138698e-08 -6.2087657459101835e-09 4.937566336019683e-09 1.2711994098909265e-09 -1.2610593412718111e-08 0.0 0.0
0.0 -3.2790457370160746e-06 2.15389012230159e-06 -1.7499982834356087e-06 -4.0389183886597445e-07 2.897136957046882e-06 0.0 0.0
0.0 8.663810976262121e-05 -5.8675764211231314e-05 4.014988074900495e-05 1.8525883462226542e-05 -6.688138198615032e-06 0.0 0.0
0.0 0.0009729737973177821 -0.0008354123947511417 0.000636932337085736 0.000198480057665405 -0.000193074151295789 0.0 0.0
0.0 0.003371421694798003 -0.0029662888695272116 0.0024615868567812505 0.0005047020127459594 -0.0007688413798306718 0.0 0.0
0.0 0.00753572750658423 -0.006736542288654685 0.006000295487337617 0.0007362468013170713 -0.0019586489854052304 0.0 0.0
0.0 0.01384348768238887 -0.012184193035251367 0.011316274399842024 0.0008679186354093385 -0.003594192352438107 0.0 0.0
0.0 0.022118083332300816 -0.019268189086908208 0.0183118360029128 0.000956353083995409 -0.005578254427326875 0.0 0.0
0.0 0.0320665034648226 -0.027833621681294236 0.02679627155811769 0.0010373501231765309 -0.007713985591423581 0.0 0.0
0.0 0.04363208571220353 -0.037721502515250846 0.036599444519109584 0.0011220579961412412 -0.00982862407935747 0.0 0.0
0.0 0.056402632809615064 -0.0488440880154032 0.0476328296310033 0.0012112583843999919 -0.011895668343728086 0.0 0.0
0.0 0.07092296679662696 -0.06116672691513844 0.059868307309583126 0.0012984196055552076 -0.013996619677574849 0.0 0.0
0.0 0.08644778689432533 -0.07465896387821355 0.07328001804500814 0.00137894583320542 -0.016154197209242993 0.0 0.0
0.0 0.10298912285665898 -0.08911285980945392 0.08767533559666445 0.0014375242127895446 -0.01825996514234251 0.0 0.0
0.0 0.11997234735512169 -0.10371264889326265 0.10228873209399174 0.0014239167992709236 -0.020467121436734775 0.0 0.0
0.0 0.13464389885446243 -0.11626383546425234 0.11500480917147289 0.0012590262927793935 -0.024078830345348554 0.0 0.0
0.0 0.1424920267686603 -0.1226535866680636 0.12172194232891251 0.0009316443391511022 -0.0313920472268338 0.0 0.0
0.0 0.13723800889860027 -0.11714392488800532 0.11665381711145546 0.0004901077765500825 -0.043604384038763426 0.0 0.0
0.0 0.12705711590994223 -0.10497709150401847 0.09904176512648688 0.005935326377531525 1.7791323969618134e-14 0.0 0.0
0.0 0.13723800889858148 -0.11714392488798472 0.11665381711143472 0.0004901077765500318 0.04360438403880431 0.0 0.0
0.0 0.14249202676861836 -0.12265358666802505 0.1217219423288738 0.0009316443391511186 0.03139204722687402 0.0 0.0
0.0 0.13464389885439956 -0.11626383546419729 0.11500480917141823 0.0012590262927790546 0.024078830345368053 0.0 0.0
0.0 0.11997234735504346 -0.10371264889319501 0.10228873209392389 0.0014239167992710752 0.020467121436737033 0.0 0.0
0.0 0.10298912285657623 -0.08911285980938201 0.0876753355965931 0.0014375242127888897 0.018259965142338023 0.0 0.0
0.0 0.08644778689423922 -0.07465896387813949 0.07328001804493416 0.0013789458332053213 0.016154197209233397 0.0 0.0
0.0 0.07092296679654098 -0.061166726915063724 0.05986830730950924 0.0012984196055544532 0.013996619677563521 0.0 0.0
0.0 0.056402632809532394 -0.04884408801533192 0.04763282963093226 0.001211258384399705 0.01189566834371606 0.0 0.0
0.0 0.04363208571212642 -0.03772150251518392 0.03659944451904305 0.001122057996140908 0.009828624079341408 0.0 0.0
0.0 0.032066503464751 -0.027833621681232504 0.02679627155805633 0.001037350123176157 0.007713985591403023 0.0 0.0
0.0 0.022118083332245218 -0.019268189086860104 0.018311836002865286 0.0009563530839948133 0.005578254427310405 0.0 0.0
0.0 0.013843487682348492 -0.012184193035215994 0.011316274399807263 0.0008679186354087306 0.0035941923524270684 0.0 0.0
0.0 0.007535727506556477 -0.006736542288629856 0.006000295487313773 0.0007362468013160872 0.001958648985396885 0.0 0.0
0.0 0.003371421694782108 -0.0029662888695136305 0.0024615868567691834 0.0005047020127444471 0.0007688413798262103 0.0 0.0
0.0 0.0009729737973102114 -0.0008354123947452247 0.0006369323370810654 0.00019848005766415875 0.00019307415129403362 0.0 0.0
0.0 8.663810976122331e-05 -5.8675764210713676e-05 4.014988074867343e-05 1.8525883462040127e-05 6.688138198792663e-06 0.0 0.0
0.0 -3.279045737285763e-06 2.153890121740042e-06 -1.749998283013813e-06 -4.0389183872621984e-07 -2.897136956538427e-06 0.0 0.0
0.0 -8.449213308768496e-08 -6.208765738185114e-09 4.937566329875185e-09 1.2711994083088753e-09 1.2610593397016244e-08 0.0 0.0
0.0 0.0 0.0 0.0 0.0 0.0 0.0 0.0
0.0 0.0 0.0 0.0 0.0 0.0 0.0 0.0
0.0 0.0 0.0 0.0 0.0 0.0 0.0 0.0
0.0 0.0 0.0 0.0 0.0 0.0 0.0 0.0
0.0 0.0 0.0 0.0 0.0 0.0 0.0 0.0
0.0 -5.191571333675579e-06 5.131425133679281e-06 -4.136606244189142e-06 -9.948188894901576e-07 4.297642054014963e-06 0.0 0.0
0.0 0.00017553714833387038 -0.00017343763595503988 0.00012270136185089025 5.0736274104149436e-05 -1.4486951762361448e-06 0.0 0.0
0.0 0.0015708535816826104 -0.0013170936522948831 0.0010255219830505437 0.00029157166924433873 -0.00010895154971461224 0.0 0.0
0.0 0.004306968813928688 -0.004006065231656155 0.003407850612405275 0.0005982146192508817 -0.000601215821476892 0.0 0.0
0.0 0.00934380284092762 -0.008365619911217132 0.00756557476707906 0.0008000451441380807 -0.0014515046250682096 0.0 0.0
0.0 0.016460470252310202 -0.014564134435938644 0.013642980313677123 0.0009211541222615163 -0.002649664497845245 0.0 0.0
0.0 0.02580487300004289 -0.02259839155612695 0.021586178121860776 0.0010122134342661923 -0.004109997604160162 0.0 0.0
0.0 0.03712905865868843 -0.032338299302634474 0.031238366603944707 0.0010999326986897487 -0.005691452254869132 0.0 0.0
0.0 0.050138429544765106 -0.043630227202359685 0.04243882182279799 0.0011914053795616696 -0.007262533347118976 0.0 0.0
0.0 0.06505716344894504 -0.056365516259912256 0.055079486909931315 0.001286029349980961 -0.008816526410056678 0.0 0.0
0.0 0.081104406517049 -0.07047537136536232 0.06909792402149571 0.0013774473438666012 -0.010447006084005669 0.0 0.0
0.0 0.09884317401980997 -0.08580750591553168 0.08435100214512724 0.0014565037704044725 -0.012132090322174896 0.0 0.0
0.0 0.11758431815388055 -0.10201712474045863 0.10050528485341025 0.0015118398870483524 -0.013618414817290056 0.0 0.0
0.0 0.13640238896232074 -0.11829914140642203 0.11677761755274252 0.0015215238536796342 -0.01463271907600011 0.0 0.0
0.0 0.15305573144902462 -0.13269375261027724 0.13128696749454374 0.0014067851157334216 -0.01617441182067454 0.0 0.0
0.0 0.16293676442515923 -0.14097855675174847 0.13996739836929728 0.001011158382451059 -0.02272344892887042 0.0 0.0
0.0 0.1588102564474129 -0.13641066604513916 0.13599961210147107 0.00041105394366786627 -0.04082786696681387 0.0 0.0
0.0 0.14859088732921932 -0.12383657228613656 0.11759045944459899 0.006246112841537424 1.2869913468271932e-14 0.0 0.0
0.0 0.15881025644738633 -0.13641066604511354 0.1359996121014457 0.0004110539436678616 0.04082786696684508 0.0 0.0
0.0 0.16293676442510888 -0.1409785567517034 0.13996739836925232 0.0010111583824512203 0.02272344892890292 0.0 0.0
0.0 0.15305573144894918 -0.1326937526102122 0.1312869674944786 0.0014067851157335855 0.016174411820688912 0.0 0.0
0.0 0.13640238896223372 -0.11829914140634656 0.11677761755266741 0.0015215238536792964 0.01463271907600115 0.0 0.0
0.0 0.11758431815378827 -0.10201712474037847 0.10050528485333135 0.0015118398870472057 0.013618414817287854 0.0 0.0
0.0 0.0988431740197123 -0.0858075059154472 0.084351002145043 0.0014565037704042485 0.012132090322168956 0.0 0.0
0.0 0.08110440651695229 -0.07047537136527852 0.06909792402141281 0.0013774473438657926 0.010447006083997037 0.0 0.0
0.0 0.0650571634488484 -0.0563655162598288 0.055079486909847555 0.001286029349981205 0.008816526410048193 0.0 0.0
0.0 0.050138429544679966 -0.043630227202286063 0.04243882182272506 0.0011914053795609126 0.00726253334710783 0.0 0.0
0.0 0.037129058658613254 -0.03233829930256877 0.031238366603879485 0.0010999326986892875 0.005691452254854453 0.0 0.0
0.0 0.02580487299998145 -0.02259839155607308 0.021586178121807333 0.0010122134342657357 0.004109997604147753 0.0 0.0
0.0 0.016460470252264117 -0.014564134435897857 0.013642980313637004 0.0009211541222608683 0.002649664497836874 0.0 0.0
0.0 0.009343802840892798 -0.008365619911186095 0.007565574767048936 0.0008000451441371511 0.0014515046250614203 0.0 0.0
0.0 0.004306968813910175 -0.004006065231639192 0.0034078506123897696 0.0005982146192494274 0.0006012158214731424 0.0 0.0
0.0 0.0015708535816735582 -0.0013170936522872074 0.0010255219830442915 0.00029157166924291496 0.00010895154971342137 0.0 0.0
0.0 0.0001755371483316007 -0.0001734376359538284 0.0001227013618500503 5.073627410377798e-05 1.448695176505996e-06 0.0 0.0
0.0 -5.191571333600125e-06 5.131425133273653e-06 -4.136606243885446e-06 -9.94818889388228e-07 -4.297642053847379e-06 0.0 0.0
0.0 0.0 0.0 0.0 0.0 0.0 0.0 0.0
0.0 0.0 0.0 0.0 0.0 0.0 0.0 0.0
0.0 0.0 0.0 0.0 0.0 0.0 0.0 0.0
0.0 0.0 0.0 0.0 0.0 0.0 0.0 0.0
0.0 0.0 0.0 0.0 0.0 0.0 0.0 0.0
0.0 0.0 0.0 0.0 0.0 0.0 0.0 0.0
0.0 -4.801160210669886e-06 3.255837872503973e-06 -3.2791883495547213e-06 2.3350477050764687e-08 4.825400705166598e-06 0.0 0.0
0.0 0.0004199696120670945 -0.00034102456967562763 0.00024516584356532094 9.585872611030672e-05 5.573111759361983e-05 0.0 0.0
0.0 0.0021587389158117913 -0.0019229867532006449 0.001534664232369348 0.0003883225208312964 4.962812837916291e-05 0.0 0.0
0.0 0.0055564483006402795 -0.005090577548067477 0.004421156479616967 0.0006694210684505118 -0.0002074881577899407 0.0 0.0
0.0 0.011173867664916421 -0.010017194869218121 0.009165785612348333 0.0008514092568697775 -0.0006487936509079926 0.0 0.0
0.0 0.019157171343556004 -0.016933978531450927 0.015966498234800668 0.0009674802966502693 -0.0012724054251261755 0.0 0.0
0.0 0.029487456350929316 -0.025895400515766012 0.02483135907715691 0.0010640414386090943 -0.0020491031771142005 0.0 0.0
0.0 0.042104218094070035 -0.03679886239959662 0.03564048870740687 0.0011583736921897498 -0.002897194572116189 0.0 0.0
0.0 0.056926418371190675 -0.04949272237864575 0.04823691244999302 0.0012558099286527598 -0.003756286414075963 0.0 0.0
0.0 0.07321929949441366 -0.06385241656991486 0.062496143631285826 0.001356272938628986 -0.004653902808323539 0.0 0.0
0.0 0.09155949170385325 -0.07973248012007175 0.07828128664938121 0.0014511934706904974 -0.005615998093035973 0.0 0.0
0.0 0.11135132879990386 -0.09687439782322149 0.0953475395377916 0.0015268582854299538 -0.006605732594256942 0.0 0.0
0.0 0.1320055964946536 -0.11474311536782095 0.11317241465466062 0.001570700713160172 -0.007444487085186158 0.0 0.0
0.0 0.15241854120807377 -0.13238058614418954 0.13080284769203904 0.0015777384521505026 -0.007759023590473854 0.0 0.0
0.0 0.17068123951830796 -0.1481688127196042 0.1466206760447751 0.0015481366748292084 -0.007650926693140839 0.0 0.0
0.0 0.18301919187652424 -0.15881540892197482 0.15749357182310206 0.0013218370988725648 -0.010777779953437507 0.0 0.0
0.0 0.18175951425030562 -0.15699094041419875 0.15664917835453518 0.00034176205966358105 -0.03016422719652175 0.0 0.0
0.0 0.17299546000253144 -0.14516160617505255 0.139018238380153 0.006143367794899543 6.395925455926488e-15 0.0 0.0
0.0 0.1817595142502722 -0.1569909404141684 0.15664917835450487 0.0003417620596634689 0.030164227196540376 0.0 0.0
0.0 0.183019191876464 -0.15881540892192264 0.1574935718230494 0.0013218370988731915 0.010777779953456383 0.0 0.0
0.0 0.17068123951822126 -0.14816881271952959 0.1466206760446999 0.001548136674829581 0.007650926693148245 0.0 0.0
0.0 0.15241854120797796 -0.13238058614410672 0.13080284769195655 0.0015777384521501866 0.007759023590473385 0.0 0.0
0.0 0.13200559649454593 -0.1147431153677276 0.11317241465456754 0.0015707007131599822 0.007444487085185409 0.0 0.0
0.0 0.11135132879979795 -0.0968743978231297 0.09534753953770045 0.0015268582854293267 0.006605732594253948 0.0 0.0
0.0 0.0915594917037486 -0.07973248011998094 0.07828128664929114 0.0014511934706897248 0.005615998093031396 0.0 0.0
0.0 0.0732192994943049 -0.06385241656982088 0.062496143631191776 0.0013562729386290737 0.004653902808319088 0.0 0.0
0.0 0.05692641837109541 -0.049492722378563 0.04823691244991091 0.0012558099286520954 0.003756286414070071 0.0 0.0
0.0 0.042104218093988614 -0.03679886239952593 0.03564048870733702 0.0011583736921889156 0.00289719457210782 0.0 0.0
0.0 0.029487456350862345 -0.025895400515707094 0.024831359077098894 0.001064041438608211 0.0020491031771071966 0.0 0.0
0.0 0.019157171343505655 -0.016933978531406275 0.015966498234756613 0.0009674802966496464 0.0012724054251220182 0.0 0.0
0.0 0.01117386766487791 -0.010017194869183663 0.00916578561231474 0.0008514092568689203 0.0006487936509046107 0.0 0.0
0.0 0.00555644830061802 -0.005090577548047086 0.004421156479597777 0.0006694210684493061 0.00020748815778765992 0.0 0.0
0.0 0.002158738915799684 -0.0019229867531899906 0.0015346642323602595 0.0003883225208297298 -4.9628128379544496e-05 0.0 0.0
0.0 0.0004199696120638245 -0.00034102456967346454 0.00024516584356379644 9.585872610966808e-05 -5.573111759306132e-05 0.0 0.0
0.0 -4.801160210834467e-06 3.255837872180033e-06 -3.2791883493113874e-06 2.33504771314306e-08 -4.825400705085379e-06 0.0 0.0
0.0 0.0 0.0 0.0 0.0 0.0 0.0 0.0
0.0 0.0 0.0 0.0 0.0 0.0 0.0 0.0
0.0 0.0 0.0 0.0 0.0 0.0 0.0 0.0
0.0 0.0 0.0 0.0 0.0 0.0 0.0 0.0
0.0 0.0 0.0 0.0 0.0 0.0 0.0 0.0
0.0 0.0 0.0 0.0 0.0 0.0 0.0 0.0
0.0 1.9706223894650843e-05 -1.8409759695830623e-05 1.1686704678089057e-05 6.72305501774165e-06 9.08561750403021e-06 0.0 0.0
0.0 0.0007256738867348267 -0.0005571914211478029 0.00039851661281411154 0.00015867480833369136 0.00013962213548026804 0.0 0.0
0.0 0.00276986189189846 -0.0024713538055534117 0.0019525165547588249 0.0005188372507945846 0.0003209146603531331 0.0 0.0
0.0 0.006537898040231284 -0.006011799119454725 0.0051578332470669985 0.0008539658723877277 0.0004205066455628605 0.0 0.0
0.0 0.01261733401357924 -0.011383325343524188 0.01026873512479677 0.0011145902187274124 0.0004713164148261442 0.0 0.0
0.0 0.021146318794507873 -0.018876586910442 0.017533078114484794 0.001343508795957179 0.00046422518979067945 0.0 0.0
0.0 0.032302489961420724 -0.028591372570416315 0.02699961978112033 0.001591752789295948 0.0003638687421318185 0.0 0.0
0.0 0.045990663580546765 -0.040457596357820244 0.03857640744638049 0.00188118891143975 0.00020941761070111331 0.0 0.0
0.0 0.06170947042032522 -0.05432908352409048 0.05211289521264202 0.0022161883114484348 2.133829789471159e-06 0.0 0.0
0.0 0.0796189619876328 -0.0700324013021886 0.06744677827128745 0.0025856230309011553 -0.0002993663871318818 0.0 0.0
0.0 0.09943613439170314 -0.08737143288142657 0.084400606053838 0.002970826827588606 -0.0006637698241457029 0.0 0.0
0.0 0.12077774865208446 -0.10600486984708449 0.10266455189727365 0.003340317949810707 -0.0011248053592994509 0.0 0.0
0.0 0.14289900985293244 -0.12524002356836164 0.12158919730214587 0.00365082626621589 -0.0016102286507852157 0.0 0.0
0.0 0.16440898152266475 -0.14389235729488933 0.14004234274638472 0.003850014548504475 -0.001890944474696116 0.0 0.0
0.0 0.1833576266508813 -0.16029738065083166 0.1563923641234738 0.003905016527357679 -0.001700796926664012 0.0 0.0
0.0 0.1970745867172525 -0.17235682851036327 0.16839808589739091 0.0039587426129724075 -0.0031291965324453785 0.0 0.0
0.0 0.19976347091044694 -0.1752082010331898 0.17115791841690559 0.004050282616284197 -0.022563605481221598 0.0 0.0
0.0 0.19560578290947028 -0.1666503151396997 0.15577678074590198 0.010873534393797325 6.800116025829084e-16 0.0 0.0
0.0 0.1997634709104104 -0.17520820103315776 0.17115791841687372 0.0040502826162838994 0.02256360548122817 0.0 0.0
0.0 0.1970745867171829 -0.17235682851030293 0.16839808589733102 0.003958742612971956 0.0031291965324528777 0.0 0.0
0.0 0.18335762665078909 -0.16029738065075128 0.15639236412339558 0.0039050165273559036 0.0017007969266657173 0.0 0.0
0.0 0.16440898152255937 -0.14389235729479727 0.14004234274629423 0.003850014548502729 0.0018909444746929363 0.0 0.0
0.0 0.14289900985281287 -0.12524002356825778 0.12158919730204285 0.003650826266214755 0.0016102286507856493 0.0 0.0
0.0 0.12077774865197198 -0.10600486984698612 0.10266455189717721 0.0033403179498087713 0.0011248053592969997 0.0 0.0
0.0 0.0994361343915916 -0.087371432881329 0.08440060605374282 0.0029708268275860645 0.000663769824142315 0.0 0.0
0.0 0.07961896198751764 -0.070032401302088 0.06744677827118876 0.002585623030899306 0.00029936638712924936 0.0 0.0
0.0 0.06170947042021833 -0.05432908352399749 0.05211289521255038 0.0022161883114470192 -2.133829791506857e-06 0.0 0.0
0.0 0.04599066358045836 -0.04045759635774254 0.03857640744630519 0.001881188911437361 -0.00020941761070349292 0.0 0.0
0.0 0.03230248996135071 -0.028591372570354948 0.02699961978106101 0.0015917527892939287 -0.00036386874213423107 0.0 0.0
0.0 0.021146318794453625 -0.018876586910394257 0.01753307811443825 0.001343508795956023 -0.0004642251897917604 0.0 0.0
0.0 0.012617334013539072 -0.011383325343488113 0.010268735124761976 0.0011145902187261283 -0.00047131641482576776 0.0 0.0
0.0 0.006537898040206441 -0.006011799119431902 0.005157833247045595 0.0008539658723862992 -0.00042050664556262155 0.0 0.0
0.0 0.0027698618918842533 -0.002471353805540012 0.0019525165547474204 0.0005188372507925939 -0.00032091466035186016 0.0 0.0
0.0 0.0007256738867306861 -0.0005571914211447461 0.0003985166128119626 0.00015867480833278404 -0.00013962213547929605 0.0 0.0
0.0 1.9706223893910374e-05 -1.8409759695319876e-05 1.1686704677727546e-05 6.723055017592304e-06 -9.085617503934235e-06 0.0 0.0
0.0 0.0 0.0 0.0 0.0 0.0 0.0 0.0
0.0 0.0 0.0 0.0 0.0 0.0 0.0 0.0
0.0 0.0 0.0 0.0 0.0 0.0 0.0 0.0
SCALARS Wm float 4
LOOKUP_TABLE default
12.89250050192478 2.0243935552383285 5.4129575617654595 5.45514938492099
6.482534452235679 3.105721795186735 1.5174841288003615 1.8593285282485867
0.7294057375530988 0.6745379844003075 0.008518694308493493 0.046349058844297436
0.5444529206349731 0.512511346969675 0.0087777613691748 0.02316381229612372
1.116152709507137 0.7876540539949649 0.11783752520033486 0.2106611303118368
2.442914522174007 1.145520054475963 0.4833098845250937 0.8140845831729502
5.094454606844363 1.6485299159157771 1.4912324432142927 1.9546922477142967
9.431151093674615 2.281917478587254 3.376619460604897 3.7726141544824605
15.876400651778933 3.092945682593486 6.448248306089171 6.3352066630962725
24.73568904783914 4.113799104061948 10.95407985764127 9.667810086135933
36.145576745986546 5.364054112080953 17.03696500341067 13.74455763049492
50.00313468345156 6.845145903406408 24.641375734367575 18.516613045677623
66.38864144185577 8.535476835634872 33.924007442663395 23.92915716355749
85.18669008349737 10.41156143731857 44.847570773045696 29.927557873133136
106.08287196000838 12.332235457288848 57.33204742825654 36.41858907446293
128.40640902088273 14.056301816658095 71.11650495895695 43.23360224526767
150.97821320747013 15.298815360106284 85.56335755628967 50.116040291074164
172.2370945446993 15.848850146846122 99.7406622057643 56.6475821920887
190.51555877490236 15.765951092772873 112.4162864620893 62.333321220040325
203.35879368495372 14.838086809075364 121.92773247044572 66.59297440543249
207.5051737564666 13.095892866921682 125.97779454150184 68.4314863480432
203.35879368494508 14.838086809098476 121.92773247042342 66.5929744054232
190.51555877486402 15.765951092802272 112.41628646204256 62.33332122001902
172.2370945446106 15.848850146844313 99.74066220570467 56.64758219206159
150.97821320734994 15.298815360081319 85.56335755622493 50.116040291043596
128.40640902077823 14.056301816653313 71.11650495888978 43.23360224523515
106.08287195990683 12.332235457285154 57.332047428191856 36.41858907442983
85.1866900833913 10.41156143730368 44.847570772986344 29.927557873101293
66.38864144175767 8.535476835627488 33.9240074426055 23.929157163524703
50.00313468335947 6.845145903391684 24.641375734319247 18.516613045648565
36.145576745916465 5.364054112078408 17.036965003369655 13.744557630468377
24.735689047788192 4.11379910406155 10.954079857611633 9.66781008611503
15.87640065173855 3.0929456825870565 6.448248306070225 6.335206663081273
9.431151093648264 2.2819174785843255 3.3766194605926403 3.772614154471298
5.0944546068289895 1.6485299159134632 1.491232443208045 1.9546922477074826
2.442914522165933 1.1455200544732798 0.4833098845230844 0.8140845831695678
1.1161527095040369 0.787654053993414 0.11783752519970458 0.21066113031091804
0.5444529206342766 0.512511346969172 0.008777761369102063 0.023163812296002746
0.7294057375519647 0.6745379843993438 0.008518694308453478 0.046349058844167054
6.482534452230393 3.1057217951875793 1.517484128797351 1.859328528245461
12.89250050189598 2.024393555223745 5.412957561757622 5.4551493849146295
15.404823454157315 6.711125810363066 4.2062486750586565 4.487448968735584
2.6163364422557245 0.5740976529121601 0.8615231360525766 1.1807156532909873
0.27277991437969085 0.3166540636094125 -0.014464282426986353 -0.029409866802735232
0.42317520733131636 0.4129205118234319 0.0019210223483365858 0.008333673159547831
0.8416661637639445 0.6443567262304916 0.06107758593985707 0.1362318515935963
1.9508164467278357 0.9481109293468215 0.3764766458718027 0.6262288715092124
4.179452967698337 1.2991389431077125 1.2148125875344273 1.6655014370561954
7.979576102302815 1.7319695725896898 2.903651594446681 3.3439549352664457
13.660410093522845 2.238267158383404 5.693452353013992 5.72869058212545
21.415337340838448 2.8166314195139273 9.770311157815717 8.828394763508795
31.327628500245922 3.4585024885649758 15.26060228685649 12.608523724824458
43.449184460177605 4.174828558248606 22.25792672364086 17.016429178288135
57.54263802751561 4.974479068179008 30.554406469336115 22.0137524900005
73.83557453665799 5.826281887333988 40.45528247606969 27.554010173254362
91.99975626524525 6.670319006605005 51.761132226120495 33.56830503251978
111.52627129460166 7.379064646138719 64.24394628138889 39.90326036707399
131.50215499881898 7.799212790443617 77.41316036674311 46.289781841632205
150.61258357764282 7.823503912768783 90.4097236476316 52.37935601724252
167.09768220303806 7.366119226572041 102.03834849743691 57.69321447902904
178.75098748506093 6.484879837672735 110.70226973997369 61.56383790741449
183.16372967149607 5.482314546356939 114.46221533145768 63.21919979368152
178.75098748504146 6.484879837684108 110.70226973995224 61.5638379074051
167.09768220297735 7.366119226568314 102.03834849739773 57.69321447901136
150.61258357756702 7.823503912770073 90.40972364757877 52.37935601721823
131.50215499873696 7.79921279045057 77.41316036668292 46.28978184160344
111.52627129450701 7.379064646133868 64.24394628132885 39.903260367044254
91.9997562651499 6.670319006597261 51.76113222606286 33.568305032489796
73.83557453657401 5.826281887335346 40.455282476014354 27.554010173224302
57.54263802742976 4.97447906817467 30.554406469284444 22.013752489970624
43.44918446009959 4.174828558241041 22.257926723597283 17.016429178261266
31.327628500180094 3.458502488560001 15.260602286819895 12.608523724800198
21.415337340791275 2.8166314195116473 9.770311157789747 8.828394763489875
13.66041009348783 2.2382671583789815 5.693452352997184 5.728690582111657
7.97957610227913 1.7319695725873798 2.9036515944356736 3.343954935256079
4.179452967684826 1.2991389431060714 1.2148125875288875 1.6655014370498653
1.95081644672096 0.9481109293448036 0.37647664586971313 0.626228871506445
0.8416661637619649 0.6443567262296338 0.061077585939432105 0.1362318515928995
0.4231752073308176 0.41292051182297634 0.0019210223483073735 0.008333673159533683
0.2727799143796051 0.31665406360916376 -0.014464282426924463 -0.02940986680263412
2.6163364422479 0.5740976529103565 0.8615231360496282 1.1807156532879173
15.404823454131567 6.711125810352449 4.206248675050532 4.487448968728572
11.635284905988797 5.338019579662682 2.924321058163652 3.372944268162459
1.6265971906623977 0.23306076767855016 0.5747647099786777 0.8187717130051715
0.17077472127332013 0.17055531569136556 2.948983963104906e-05 0.0001899157423235049
0.31401414882086315 0.31595604964292234 -0.0005620461251506481 -0.0013798546969085342
0.6367876964514632 0.5519764428782722 0.021955005835827622 0.0628562477373634
1.5170582888298487 0.8493707710431253 0.24152166904380795 0.4261658487429159
3.3831211418415923 1.1861829380685398 0.8892661231189077 1.307672080654144
6.69697023843682 1.5887044737274225 2.3153569013641517 2.7929088633452457
11.689338417617916 2.0424964427384267 4.711548237740806 4.9352937371386885
18.533032999109945 2.5445481851198783 8.26518344553279 7.723301368457275
27.236703552840478 3.096492712878646 13.031672636020538 11.108538203941283
37.752236413098984 3.710471321033161 19.000851688594942 15.040913403470885
50.224730333648736 4.407290402679207 26.336049440501988 19.481390490467554
64.35774451730973 5.1723664076231195 34.77029606511827 24.4150820445683
80.28968397619042 5.942134346166887 44.57015609696569 29.777393533057797
97.49982597226307 6.6298674616019495 55.41829689409113 35.45166161657003
115.2329787415174 7.106480833941502 66.8976902363388 41.228807671237085
132.28795635728096 7.219742382045206 78.3156013902139 46.75261258502185
146.99502034307844 6.847560493348319 88.58244575962273 51.565014090107425
157.4207140307468 6.177963759344835 96.19864108945947 55.044109181942474
161.20285901307454 4.941757025957888 99.6442842512092 56.61681773590754
157.42071403072245 6.177963759348843 96.19864108944016 55.0441091819334
146.99502034304103 6.847560493357666 88.5824457595909 51.56501409009247
132.28795635722292 7.2197423820552 78.31560139016801 46.75261258499973
115.23297874142418 7.1064808339229 66.89769023628887 41.22880767121241
97.49982597218553 6.629867461603003 55.41829689403905 35.45166161654348
80.28968397611054 5.942134346163041 44.570156096916094 29.77739353303141
64.35774451723036 5.1723664076210865 34.770296065068806 24.41508204454044
50.22473033357746 4.407290402678289 26.33604944045786 19.481390490441328
37.75223641303227 3.710471321027446 19.00085168855762 15.040913403447242
27.236703552782636 3.09649271287243 13.031672635990013 11.108538203920189
18.533032999068055 2.544548185116722 8.265183445510765 7.7233013684405725
11.689338417586615 2.042496442734033 4.7115482377262685 4.9352937371263135
6.696970238416067 1.588704473724726 2.3153569013550235 2.7929088633363195
3.383121141829977 1.1861829380661026 0.8892661231148511 1.3076720806490234
1.5170582888249369 0.8493707710420056 0.24152166904226258 0.42616584874066843
0.6367876964499889 0.5519764428774511 0.02195500583560865 0.06285624773692913
0.31401414882065515 0.3159560496426278 -0.0005620461251355124 -0.0013798546968371865
0.17077472127319415 0.17055531569123736 2.9489839630961114e-05 0.00018991574232586479
1.626597190656831 0.23306076767788036 0.5747647099764096 0.81877171300254
11.635284905963239 5.338019579651972 2.924321058155974 3.3729442681552984
8.792629879612596 4.156898480029534 2.070884302623207 2.5648470969598565
1.0924639085162395 0.10967013583850926 0.3836055059469794 0.5991882667307493
0.11969398290688078 0.11969398290688078 0.0 0.0
0.23509398411712817 0.23590598768816523 -0.00010463665919185023 -0.000707366911845305
0.48032485936590114 0.4601806291642329 0.003821763768310515 0.016322466433357642
1.1293495773400488 0.7348376375769791 0.12857767098457185 0.26593426877849824
2.674791343326551 1.075165819995691 0.6302717115328111 0.9693538117980481
5.466856495629239 1.4411436459098885 1.7698533169572142 2.255859532762136
9.785719131675654 1.8463623005668182 3.7906121737817102 4.148744657327122
15.712676067540778 2.2805496348513516 6.812015718017154 6.620110714672269
23.2072863035018 2.7491460078187373 10.8471387315924 9.61100156409066
32.29880698444379 3.276575130090684 15.955370470363059 13.066861383990057
42.88492369672983 3.8770580262280485 22.047028769593577 16.96083690090821
55.20604767836036 4.546894104147276 29.383392355693914 21.275761218519172
68.89878574075564 5.25536245070949 37.65547501294107 25.98794827710511
83.75974901515772 5.9251715054757375 46.832692676904585 31.001884832777403
99.33230299881075 6.445961723890793 56.752816761926795 36.13352451299315
114.42857246390636 6.658916843007962 66.6662005248016 41.10345509609681
127.55940350005554 6.441734836082932 75.63480316132919 45.48286550264339
137.01859284366986 5.907162344641168 82.395804052141 48.71562644688771
140.45885444475243 4.428811307603981 85.75595770542134 50.2740854317271
137.01859284364528 5.9071623446379675 82.39580405212627 48.715626446881004
127.55940350002214 6.441734836092428 75.63480316130028 45.48286550262945
114.42857246384966 6.658916843009872 66.6662005247622 41.1034550960776
99.33230299875835 6.445961723901415 56.752816761885214 36.13352451297171
83.75974901508273 5.925171505468362 46.83269267686036 31.00188483275404
68.89878574068948 5.255362450711223 37.65547501289743 25.987948277080797
55.206047678289735 4.546894104140602 29.383392355653527 21.275761218495617
42.88492369666933 3.8770580262293923 22.047028769555254 16.960836900884676
32.29880698439112 3.276575130092023 15.955370470330612 13.066861383968497
23.207286303452427 2.749146007812265 10.847138731567426 9.611001564072746
15.712676067505608 2.2805496348509657 6.812015717997665 6.620110714656966
9.785719131648511 1.846362300563113 3.7906121737692855 4.148744657316113
5.466856495612123 1.4411436459082798 1.7698533169497632 2.2558595327540782
2.6747913433170054 1.075165819993597 0.6302717115294288 0.9693538117939797
1.1293495773357778 0.7348376375753823 0.12857767098353032 0.2659342687768656
0.48032485936505825 0.4601806291634728 0.00382176376826421 0.01632246643332113
0.23509398411703705 0.23590598768810658 -0.00010463665919526121 -0.000707366911874281
0.11969398290670057 0.11969398290670057 0.0 0.0
1.0924639085119974 0.10967013583823393 0.3836055059451646 0.5991882667285995
8.792629879591527 4.156898480020727 2.070884302617216 2.564847096953583
6.5494542464077945 3.2142456347561703 1.4181951940416728 1.9170134176099543
0.7997457533475402 0.11178564642814062 0.2729619698015954 0.4149981371178039
0.10898193128941977 0.10898193128941977 0.0 0.0
0.18826936519147794 0.1882365760204253 5.346759816105451e-06 2.7442411236536312e-05
0.3642295522883169 0.3691944817608841 -0.0024812047276326177 -0.0024837247449345694
0.8256213753350012 0.6317721544194856 0.05637740634126528 0.13747181457424976
2.028655914926807 0.9438076353643193 0.4165270919264592 0.6683211876360292
4.308105380629669 1.2911152450552659 1.2778439687763774 1.7391461667980264
7.948771574786965 1.6496185506306562 2.92571188143099 3.3734411427253197
12.965765395429756 2.0229961370006437 5.419276824262673 5.52349243416644
19.31694955693172 2.4207976611249746 8.778409693783324 8.117742202023422
26.959387291126887 2.8654734637679544 12.99559859887676 11.098315228482164
35.9342950129357 3.382289008800109 18.10950138164854 14.442504622487068
46.12460253463605 3.9699182138902636 24.00287405822218 18.15181026252358
57.743686808720014 4.600971035460532 30.93820403054312 22.20451174271637
70.4849899337289 5.245792875550253 38.69729620476907 26.541900853409587
83.79400513888106 5.8128853335995085 46.9446163428124 31.036503462469124
96.98208858957149 6.147086749352165 55.396439416241364 35.43856242397798
108.70508740521255 6.095705206989723 63.219329001490024 39.39005319673283
117.4480239657164 5.67708134640961 69.35190304129395 42.41903957801284
120.69316207989516 3.93696051831303 72.7037947733828 44.05240678819939
117.44802396570097 5.6770813464118035 69.35190304128221 42.419039578006945
108.70508740517987 6.095705206994332 63.21932900146517 39.39005319672038
96.98208858952728 6.147086749356387 55.39643941620947 35.43856242396142
83.79400513881365 5.812885333587028 46.944616342776335 31.036503462450273
70.48498993367546 5.245792875553526 38.697296204732496 26.54190085338941
57.7436868086617 4.6009710354605 30.938204030506107 22.204511742695125
46.124602534580546 3.9699182138857063 24.00287405819042 18.1518102625044
35.93429501288202 3.382289008799207 18.109501381616404 14.44250462246639
26.95938729107359 2.865473463757931 12.995598598851178 11.098315228464479
19.316949556892773 2.420797661121683 8.778409693762926 8.117742202008165
12.965765395399085 2.022996137001229 5.419276824245504 5.523492434152358
7.9487715747652805 1.6496185506290555 2.925711881420686 3.373441142715533
4.3081053806146885 1.2911152450526786 1.27784396877048 1.7391461667915293
2.02865591491941 0.9438076353632507 0.41652709192370113 0.6683211876324582
0.8256213753322016 0.6317721544181077 0.056377406340755984 0.13747181457333787
0.364229552287657 0.3691944817600955 -0.002481204727612209 -0.0024837247448262897
0.18826936519125556 0.18823657602023067 5.346759814364859e-06 2.744241121054434e-05
0.10898193128918056 0.10898193128918056 0.0 0.0
0.7997457533440413 0.11178564642793536 0.2729619698000694 0.41499813711603806
6.549454246391024 3.214245634749241 1.4181951940370436 1.9170134176047366
4.788443863782277 2.4645310557514684 0.9455918255456829 1.3783209824851257
0.5668245510289575 0.14311928645496436 0.1499780848143009 0.27372717975969196
0.12292539730600842 0.12292539730600842 0.0 0.0
0.16649112801001364 0.16646747324374442 1.7308526290403173e-06 2.1923913640212514e-05
0.28975825254067616 0.29726866511668837 -0.0017113259330539205 -0.005799086642958202
0.5908612558890384 0.5213467531417741 0.013956018875321417 0.05555848387194309
1.437684500800968 0.7966093936797255 0.2168001230186007 0.4242749841026419
3.2798650489431385 1.1312356002794084 0.8964434599738499 1.25218598868988
6.1725710519513095 1.4507173012732368 2.1075843085010604 2.614269442177016
10.329583954749424 1.7724759099183187 4.119371849020087 4.437736195811015
15.547604687638662 2.1066328337844396 6.808920057575474 6.632051796278742
21.78991851249961 2.4804596984525626 10.171345660880961 9.138113153166092
29.068924976582075 2.918475715541009 14.21579092081969 11.934658340221379
37.47853875140169 3.426812906732685 19.018252257065022 15.033473587604
46.94123055221118 3.9985879972378497 24.50909765539458 18.433544899578724
57.37023657098189 4.5944004375766365 30.682536778685375 22.093299354719893
68.69042894161285 5.183096467120003 37.593114200329815 25.914218274163037
79.98525202884947 5.6564138171290095 44.57913046950052 29.749707742219936
90.32541144392214 5.791431757891658 51.224745563753416 33.309234122277026
98.52412431654643 5.489214746455422 56.85383921069548 36.18107035939553
101.70187851857426 3.474297591152334 60.30267665890351 37.92490426851846
98.52412431652759 5.489214746449648 56.853839210686914 36.18107035939097
90.32541144388931 5.791431757887272 51.22474556373481 33.309234122267256
79.98525202881412 5.656413817133796 44.57913046947417 29.749707742206134
68.69042894156689 5.183096467116002 37.59311420030271 25.914218274148148
57.37023657092552 4.594400437565738 30.68253677865662 22.0932993547032
46.941230552162445 3.998587997236638 24.509097655364883 18.43354489956091
37.47853875135738 3.426812906729861 19.01825225703971 15.033473587587803
29.068924976538533 2.9184757155399845 14.215790920794293 11.934658340204264
21.789918512462105 2.4804596984468477 10.17134566086255 9.138113153152707
15.547604687607993 2.106632833785303 6.808920057557806 6.632051796264886
10.329583954723827 1.7724759099179452 4.11937184900664 4.437736195799239
6.172571051932561 1.4507173012714556 2.1075843084926302 2.614269442168476
3.279865048932352 1.1312356002784754 0.8964434599692146 1.252185988684661
1.4376845007954917 0.7966093936786354 0.2168001230168261 0.4242749841000295
0.5908612558873223 0.5213467531410033 0.013956018875031673 0.05555848387128733
0.28975825254027265 0.2972686651160216 -0.0017113259330074826 -0.005799086642741571
0.1664911280097733 0.16646747324350333 1.7308526290114017e-06 2.192391364097931e-05
0.12292539730567828 0.12292539730567828 0.0 0.0
0.5668245510263251 0.1431192864548681 0.1499780848131809 0.2737271797582762
4.78844386376902 2.4645310557458884 0.9455918255422413 1.3783209824808909
3.377846206545467 1.8612409918568105 0.5757514568561972 0.9408537578324593
0.423834364442514 0.18716727757100907 0.07748050421040453 0.15918658266110042
0.14758754736826157 0.14759997579676457 -6.591917487488861e-07 -1.1769236754219564e-05
0.1623863875724897 0.1623721015563726 9.176681420014073e-07 1.3368347975063384e-05
0.2450590214413053 0.24835756639265588 -0.0006502425396964237 -0.0026483024116542007
0.4306150574350539 0.42684207186019013 -0.002738473739501917 0.0065114593143659385
0.9865017631787181 0.660995440371406 0.09802222519547903 0.2274840976118329
2.2752757393587935 0.9438288469478919 0.5014620495726007 0.8299848428383009
4.610547964622001 1.252055733504952 1.4736335596235268 1.884858671493522
7.781509654881564 1.5237955077107872 2.891807811746224 3.365906335424552
11.933758524928626 1.8055368774776277 4.969650860049748 5.158570787401255
16.840133079011437 2.1173387003168473 7.533733499400051 7.1890608792945345
22.520056251225398 2.485035273323629 10.594114245769848 9.440906732131923
29.060489827211956 2.9214889258654178 14.207961662358699 11.931039238987841
36.49648325822256 3.4245448154871747 18.39551630639067 14.676422136344716
44.90985509961205 3.9800001511336878 23.27636169045089 17.65349325802747
53.7894465726571 4.563679178471259 28.416932258131894 20.80883513605397
63.29624488134436 5.144145885745051 34.12754203942216 24.02455695617712
72.528232586992 5.4993962423666645 39.85520231583775 27.173634028787625
80.22220855826932 5.351641773036403 44.933978456167864 29.936588329065053
83.47721302726848 3.054724958000127 48.56744770707314 31.855040362195197
80.22220855826548 5.351641773041754 44.93397845616194 29.93658832906179
72.52823258697575 5.499396242371701 39.8552023158239 27.17363402878017
63.29624488130021 5.144145885729246 34.127542039404034 24.024556956166922
53.78944657261976 4.563679178466807 28.416932258111125 20.808835136041843
44.90985509957972 3.9800001511369016 23.276361690428725 17.653493258014077
36.49648325818147 3.424544815482299 18.39551630636863 14.676422136330544
29.06048982717853 2.9214889258645034 14.207961662339304 11.931039238974725
22.52005625118958 2.485035273318821 10.594114245751777 9.440906732118986
16.84013307898305 2.117338700315027 7.53373349938501 7.189060879283017
11.93375852490199 1.8055368774774263 4.969650860035369 5.158570787389192
7.781509654861282 1.5237955077095562 2.8918078117363506 3.3659063354153753
4.610547964605958 1.2520557335011062 1.473633559617478 1.884858671487375
2.275275739350296 0.9438288469466973 0.5014620495693738 0.8299848428342242
0.9865017631751453 0.6609954403706415 0.09802222519440582 0.22748409761009805
0.4306150574337967 0.42684207185907874 -0.0027384737395343443 0.006511459314252528
0.2450590214408535 0.24835756639216267 -0.0006502425396858434 -0.0026483024116232745
0.16238638757215731 0.1623721015560456 9.176681415783688e-07 1.336834797013782e-05
0.14758754736786897 0.14759997579635728 -6.591917477816558e-07 -1.1769236740542314e-05
0.42383436444075184 0.18716727757094942 0.07748050420968874 0.15918658266011365
3.377846206535452 1.861240991852367 0.5757514568538583 0.9408537578292284
2.3552394786512325 1.4204314158061595 0.3583008232155525 0.5765072396295206
0.31139954284932325 0.21294611741379837 0.021883318054253035 0.07657010738127185
0.17348965725842963 0.17342938218153336 5.595194150418345e-06 5.4679882745874034e-05
0.16969477012594825 0.16966203520742057 2.4424310454634456e-06 3.0292487482186474e-05
0.220391317534824 0.22278747811849103 -0.000417956426027756 -0.0019782041576392167
0.3344240417974324 0.34652226559864463 -0.004663639291740619 -0.007434584509471766
0.6447859602808513 0.5277940468966118 0.025768703291679386 0.09122321009256018
1.4685023648537086 0.7571578038280748 0.23847050503214431 0.4728740559934895
3.056317051756595 1.0199430884038843 0.815499206728759 1.2208747566239522
5.49014002682056 1.273665053462316 1.8901676447678748 2.326307328590368
8.498304167076057 1.5083307232846204 3.288730144093971 3.7012432996974676
12.110351628583187 1.7677743203025826 5.084276824050154 5.258300484230448
16.28773712723555 2.07392038486007 7.245299428159831 6.968517314215646
21.071299142147865 2.4401595490755357 9.776562713410332 8.854576879662003
26.599576738297756 2.883183808106372 12.773558775303774 10.942834154887615
32.81571665611249 3.3900470319502816 16.18596273386966 13.239706890292567
39.75458818262821 3.9422112914653624 20.11309873152139 15.699278159641466
47.17118261886495 4.5843364790630865 24.288868348039266 18.29797779176262
54.936717755647244 5.173891416844536 28.768187314586978 20.994639024215722
62.31262459255442 5.263575575821931 33.41588759460346 23.63316142212905
65.82955949891245 2.691163936706227 37.33804612897414 25.800349433232068
62.31262459254335 5.263575575815576 33.41588759460025 23.633161422127504
54.93671775562258 5.173891416833269 28.76818731457852 20.99463902421081
47.1711826188616 4.584336479081021 24.288868348026043 18.297977791754555
39.754588182601154 3.9422112914628986 20.113098731506255 15.699278159632001
32.81571665607958 3.390047031945654 16.185962733852538 13.239706890281386
26.599576738269356 2.8831838081039005 12.773558775288425 10.942834154877042
21.07129914212495 2.4401595490764754 9.7765627133965 8.854576879651972
16.287737127213155 2.073920384858964 7.245299428147816 6.968517314206371
12.110351628560228 1.767774320299385 5.084276824039403 5.258300484221435
8.498304167055998 1.5083307232828396 3.2887301440844054 3.7012432996887514
5.490140026806163 1.273665053461549 1.8901676447610174 2.326307328583597
3.0563170517474023 1.019943088402392 0.815499206725201 1.2208747566198086
1.4685023648483342 0.7571578038269189 0.23847050503043224 0.472874055990983
0.6447859602783824 0.5277940468956857 0.025768703291192973 0.09122321009150375
0.3344240417966688 0.34652226559749305 -0.004663639291678809 -0.0074345845091455705
0.22039131753460672 0.2227874781183235 -0.000417956426027067 -0.0019782041576896954
0.16969477012565048 0.1696620352070993 2.4424310464278417e-06 3.029248750476975e-05
0.17348965725809648 0.1734293821810893 5.59519415899274e-06 5.467988284816318e-05
0.31139954284827726 0.21294611741368846 0.02188331805391716 0.07657010738067148
2.3552394786438726 1.4204314158031026 0.35830082321369766 0.5765072396270726
1.5302481366484681 1.052026733468749 0.15844519059052076 0.31977621258919775
0.2441613466063055 0.22504786880254932 0.00014994578397325645 0.018963532019782955
0.1954742596650062 0.195566996198554 -8.927856825304392e-06 -8.380867672248711e-05
0.1833920728996849 0.18349797494148912 -8.476625193975506e-06 -9.742541661024397e-05
0.20939966080224393 0.21153958117272514 -0.00038820624900012845 -0.0017517141214810812
0.2826129473918461 0.2899924831269969 -0.0027417205425103166 -0.004637815192640474
0.43538459749431335 0.41716262698801776 -0.0007005177126526748 0.018922488218948087
0.8559323943786196 0.5799260242782314 0.07915244878014252 0.19685392132024607
1.7753128882365903 0.776354483921945 0.3569216761365938 0.6420367281780504
3.291820324730048 0.9851328074676207 0.9469161540228829 1.3597713632395456
5.273243948275631 1.1864461065338905 1.7932833348399795 2.293514506901761
7.67701654208022 1.4051595017701852 2.908164562737018 3.363692477573016
10.43519508630891 1.6595526192343972 4.236326297592827 4.539316169481684
13.588213750786077 1.9608300492621094 5.795191117731914 5.832192583792051
17.256792364435686 2.335729165374284 7.65044895597574 7.270614243085654
21.531617404532962 2.797218049431457 9.85224057033459 8.882158784766919
26.385469433304387 3.32196843605337 12.39761671497587 10.665884282275142
31.727922323663535 3.907093682345322 15.222464699425228 12.598363941892993
37.98500658645312 4.692233993457797 18.53157485648068 14.761197736514626
45.03651611899827 5.224245617519712 22.576789970600565 17.235480530877982
48.97351245964126 2.4343925858758904 26.71994199036416 19.819177883401235
45.03651611900466 5.2242456175268615 22.576789970600043 17.235480530877744
37.98500658645183 4.692233993462495 18.531574856477064 14.761197736512267
31.727922323638065 3.9070936823375666 15.22246469941447 12.598363941886024
26.385469433286566 3.321968436054076 12.39761671496491 10.665884282267571
21.531617404514332 2.797218049430366 9.852240570324394 8.882158784759579
17.256792364418153 2.335729165373913 7.650448955965979 7.270614243078258
13.588213750769558 1.9608300492597848 5.795191117724035 5.832192583785742
10.435195086293085 1.65955261923187 4.236326297585733 4.53931616947548
7.677016542066761 1.4051595017693976 2.9081645627303825 3.3636924775669845
5.273243948263563 1.1864461065341823 1.793283334833895 2.2935145068954848
3.2918203247225772 0.9851328074692961 0.9469161540185738 1.3597713632347053
1.77531288823052 0.7763544839199982 0.3569216761348288 0.6420367281756939
0.8559323943755222 0.579926024277571 0.07915244877925703 0.19685392131869425
0.43538459749287245 0.41716262698700984 -0.0007005177127951006 0.018922488218657857
0.28261294739112625 0.28999248312592896 -0.002741720542462287 -0.004637815192340269
0.2093996608020364 0.21153958117224736 -0.00038820624897263335 -0.0017517141212384266
0.1833920728991487 0.18349797494100897 -8.476625198428741e-06 -9.742541666179604e-05
0.19547425966485224 0.19556699619829915 -8.927856820291966e-06 -8.38086766266597e-05
0.24416134660548283 0.2250478688022109 0.00014994578380888332 0.018963532019463148
1.5302481366437453 1.0520267334668845 0.1584451905893781 0.3197762125874824
0.9764099976352927 0.7900843127751238 0.05454984031903641 0.13177584454113286
0.20373720124983918 0.21720191715093698 -0.0054362020086056095 -0.008028513892492161
0.21126878061063564 0.21110559372298912 1.9438581632297053e-05 0.00014374830601415205
0.19955470314392082 0.19951758900640448 3.6287042783571313e-06 3.348543323798091e-05
0.21040911459049355 0.2120704768932829 -0.0003515621179741021 -0.0013098001848152931
0.2579673821461343 0.2633580542874625 -0.0018581305992991844 -0.003532541542028973
0.3393284401415451 0.332273081347744 -0.000357680184369002 0.007413038978170113
0.4770682641283718 0.4077421720222223 0.014373872651507991 0.05495221945464159
0.805364146787055 0.5141544091136117 0.08490798013948692 0.2063017575339565
1.4602693754658354 0.6479112831764365 0.2843401970610611 0.5280178952283376
2.4745064726643196 0.7887661716931387 0.6709155302201362 1.0148247707510434
3.701020275955412 0.9418699516510154 1.1543805616927452 1.604769762611652
5.166139032773903 1.1291740193556472 1.776402045257777 2.26056296816048
6.880422678269368 1.360404580534568 2.529587356139267 2.990430741595533
8.900337709344189 1.655095020183144 3.42975052987733 3.8154921592837137
11.355227843594163 2.0465914132467975 4.5332126990377635 4.775423731309597
14.365890016725675 2.5425555729914517 5.915025196161238 5.908309247572983
17.901142163959758 3.0665315778935303 7.622587722476838 7.212022863589397
22.121853224656164 3.716500051549107 9.672707935268368 8.732645237838687
28.307416698516437 4.928819688625977 12.57038836432522 10.808208645565236
33.73468078635988 2.4195493983483294 17.332839985229533 13.982291402782016
28.30741669851126 4.928819688617635 12.570388364327103 10.808208645566516
22.121853224657354 3.7165000515551037 9.672707935265542 8.732645237836707
17.90114216394973 3.066531577893087 7.622587722471392 7.212022863585259
14.365890016702716 2.5425555729793485 5.9150251961550895 5.908309247568281
11.355227843585249 2.0465914132477145 4.533212699032464 4.775423731305072
8.900337709334746 1.6550950201822485 3.429750529872862 3.8154921592796356
6.880422678261539 1.36040458053243 2.529587356136296 2.990430741592812
5.166139032766463 1.1291740193540516 1.7764020452548448 2.260562968157564
3.7010202759490713 0.9418699516518508 1.154380561689328 1.604769762607893
2.474506472655611 0.7887661716904442 0.6709155302173729 1.0148247707477944
1.4602693754607003 0.6479112831752943 0.28434019705935487 0.5280178952260512
0.8053641467854453 0.5141544091132381 0.08490798013906917 0.20630175753313773
0.4770682641272138 0.40774217202175667 0.014373872651291973 0.05495221945416512
0.3393284401410211 0.3322730813470584 -0.00035768018435896817 0.007413038978321658
0.25796738214553544 0.26335805428683745 -0.0018581305992948999 -0.003532541542007171
0.2104091145903339 0.2120704768929316 -0.00035156211794745815 -0.0013098001846502086
0.1995547031433014 0.19951758900573166 3.6287042831867878e-06 3.348543328652165e-05
0.21126878061051776 0.21110559372265783 1.9438581655141694e-05 0.00014374830620483934
0.20373720124928318 0.21720191715047032 -0.005436202008612586 -0.008028513892574472
0.9764099976323628 0.7900843127734861 0.0545498403185673 0.1317758445403091
0.6119424918680707 0.5766057147701168 0.006698577978294809 0.028638199119659452
0.18637308839369263 0.19277072745267865 -0.0012253158592300324 -0.0051723231997560706
0.2207077012109774 0.22118004382717948 -5.143552471133588e-05 -0.0004209070914908197
0.2155272359929336 0.21537256505901103 1.6215358364817533e-05 0.00013845557555776126
0.22111438295542282 0.22192521167060442 -0.00026634815860397616 -0.0005444805565775891
0.25505359186027327 0.25810978896368436 -0.0013892155855324388 -0.0016669815178786468
0.3151165880565899 0.3028758363709174 0.00157700059720908 0.010663751088463413
0.3691542622103262 0.30744307562495954 0.014714257835799563 0.04699692874956711
0.4142992227557713 0.26948704659512074 0.04532243645196102 0.09948973970868963
0.5206173332766455 0.24026711553825597 0.09533469287618895 0.18501552486220071
0.779644835049496 0.2754785368656617 0.19891186284408885 0.30525443533974583
1.1788836886263279 0.3040075975211838 0.3457944557778717 0.5290816353272726
1.7264318839079786 0.30656378438720366 0.5828669536478759 0.8370011458728991
2.4073058648758137 0.3213464519800443 0.8900697205581414 1.1958896923376283
3.2398252076491136 0.3665992368952979 1.2694517182357965 1.603774252518019
4.227996460265659 0.4628403388088694 1.7088465703439153 2.0563095511128755
5.4237740632709155 0.6335756737396891 2.2410508596890604 2.5491475298421666
6.817409436046292 0.8684088425546169 2.869559857830042 3.0794407356616316
8.802867528639624 1.2736716560208716 3.733352556450005 3.795843316168747
13.945807317001279 2.945399318822509 5.453099151278904 5.547308846899866
23.32276327850426 2.5664094391319408 10.932819797357974 9.82353404201435
13.945807317010207 2.94539931882625 5.4530991512818865 5.547308846902071
8.80286752862853 1.2736716560131678 3.733352556448213 3.7958433161671516
6.817409436037689 0.8684088425531709 2.8695598578262245 3.079440735658291
5.423774063269555 0.6335756737438195 2.241050859686064 2.549147529839671
4.227996460259056 0.46284033880680514 1.7088465703417144 2.0563095511105365
3.2398252076432428 0.36659923689413976 1.2694517182334122 1.6037742525156908
2.4073058648735666 0.3213464519810074 0.890069720556668 1.1958896923358917
1.7264318839067445 0.3065637843896323 0.5828669536460453 0.8370011458710666
1.1788836886208185 0.3040075975194677 0.3457944557761221 0.5290816353252289
0.7796448350474977 0.27547853686577073 0.1989118628430827 0.3052544353386433
0.5206173332772924 0.24026711553904867 0.09533469287616839 0.1850155248620757
0.4142992227555806 0.2694870465954435 0.045322436451755495 0.09948973970838129
0.3691542622099413 0.3074430756250903 0.014714257835632105 0.04699692874921907
0.31511658805609366 0.3028758363704247 0.0015770005971784918 0.010663751088490443
0.2550535918597061 0.2581097889631272 -0.0013892155855411785 -0.001666981517879908
0.22111438295512775 0.22192521167012008 -0.0002663481585800098 -0.0005444805564123622
0.21552723599245188 0.21537256505836644 1.621535838344379e-05 0.00013845557570195234
0.2207077012105736 0.22118004382686626 -5.143552472044083e-05 -0.00042090709157231135
0.18637308839338468 0.1927707274521784 -0.00122531585919265 -0.005172323199601027
0.6119424918665828 0.5766057147689252 0.0066985779781732644 0.02863819911948481
0.39574764284670694 0.396711001832709 -0.00021035190516460655 -0.0007530070808374294
0.17580646543821576 0.17580030802743712 1.476401000219404e-05 -8.606599223568909e-06
0.22411917489848496 0.22395473020279852 4.194735920129871e-06 0.000160249959766314
0.22919126458114664 0.22890830291527398 2.2572545248751575e-05 0.00026038912062382845
0.23778078740672937 0.23765185936068794 -0.00014894744252649128 0.00027787548856799044
0.2747506368225392 0.2754915933380166 -0.001126404512574101 0.00038544799709654376
0.34989207591589655 0.3398874053932552 0.0010553688101785194 0.008949301712462974
0.48238306334104414 0.4095592239251026 0.015733453668467633 0.057090385747473785
0.806940171163903 0.5140601752695935 0.08554673736734304 0.2073332585269664
1.4592190808160426 0.6474937787696446 0.2840133620945622 0.5277119399518351
2.477506578450095 0.7905082785715681 0.6718996446951204 1.015098655183406
3.71862371176904 0.9448073566995092 1.162823983997754 1.6109923710717768
5.204648820069336 1.1346302993357456 1.7928293072368664 2.27718921349672
6.921873623598199 1.362105440201817 2.550926986273307 3.0088411971230746
8.815688735614824 1.6277407354928353 3.4015078066859896 3.7864401934359964
10.78892921735798 1.933818378650399 4.296165254220001 4.558945584487585
12.588681121992414 2.2626699751550823 5.1023120527928745 5.223699094044456
14.027961522755376 2.6484792820274357 5.728528390043588 5.650953850684353
14.535061877791929 2.919090154170536 5.900794036061282 5.715177687560117
11.707935191585193 1.9238877130097598 5.085166757193663 4.698880721381767
23.62050707065414 4.1157653823223725 10.079603127393424 9.42513856093833
11.70793519158643 1.9238877130058807 5.085166757196491 4.698880721384056
14.535061877787886 2.9190901541684777 5.900794036060114 5.715177687559299
14.027961522743697 2.6484792820248364 5.728528390038478 5.650953850680371
12.588681121977949 2.2626699751529276 5.102312052786106 5.223699094038923
10.788929217347775 1.9338183786501877 4.296165254214633 4.558945584482948
8.815688735602238 1.627740735490725 3.4015078066805415 3.7864401934309724
6.921873623585033 1.3621054401990509 2.5509269862679136 3.008841197118068
5.204648820053141 1.1346302993302706 1.7928293072314991 2.2771892134913734
3.7186237117572976 0.9448073566981582 1.1628239839927808 1.6109923710663563
2.4775065784408454 0.7905082785707296 0.6718996446912705 1.0150986551788446
1.4592190808092242 0.6474937787670909 0.28401336209274297 0.5277119399493906
0.8069401711615058 0.5140601752687631 0.08554673736677365 0.20733325852596907
0.48238306333989156 0.40955922392467936 0.015733453668228405 0.057090385746983684
0.3498920759151473 0.3398874053924397 0.001055368810172372 0.008949301712535215
0.2747506368218381 0.27549159333715745 -0.0011264045125762459 0.0003854479972568467
0.23778078740631586 0.23765185936007188 -0.00014894744250297935 0.0002778754887469838
0.22919126458098246 0.2289083029149163 2.2572545267962157e-05 0.0002603891207983383
0.22411917489811553 0.2239547302023143 4.194735926335833e-06 0.00016024995987479887
0.17580646543798356 0.17580030802721802 1.476400999711503e-05 -8.606599231525576e-06
0.395747642845858 0.3967110018315581 -0.0002103519051307666 -0.0007530070805693008
0.25617419263973923 0.25615345350961705 1.3476233019465938e-06 1.9391506820260498e-05
0.16208020084868952 0.1621264041557534 -2.3642743891860056e-06 -4.383903267473405e-05
0.22107404223912797 0.22144539475123082 -4.752382479473377e-05 -0.0003238286873081732
0.23885966483589402 0.23817756607678892 5.905485419673699e-05 0.0006230439049084894
0.25875506998465503 0.2610515743750852 -0.0005530434179696264 -0.0017434609724605447
0.31521152444058226 0.31898534259583 -0.001474174798397427 -0.002299643356850556
0.45209278602404784 0.41858783055538784 0.0027140406216618965 0.030790914846998
0.8639829441769227 0.5807917004794376 0.08206340726411283 0.20112783643337215
1.7754253617573743 0.7761050300681933 0.3570355556126236 0.6422847760765571
3.290188555997441 0.9850433383525035 0.9460558185751708 1.3590893990697652
5.27661832117394 1.1871291356766176 1.794512083036319 2.2949771024610013
7.693135072722219 1.407425950083055 2.915345211523826 3.3703639111153363
10.468608029900594 1.6623931149996438 4.252889663196626 4.553325251704331
13.613538626912908 1.955733473399781 5.812476463795104 5.845328689718017
17.143669140622904 2.2950603605224225 7.610723448655283 7.2378853314452005
20.924523059233746 2.670661733201511 9.576508844980689 8.677352481051528
24.644453976204858 3.0842489487013918 11.513605453077556 10.046599574425905
27.82366343908425 3.5604824607048844 13.090251262281203 11.172929716098164
29.384605362652078 3.7626842474499416 13.916732839524228 11.705188275677905
27.24906913816914 3.677703723400083 12.795994860787035 10.775370553982018
33.51202506663331 8.09064630863099 13.747503268676335 11.673875489325972
27.249069138183916 3.677703723407864 12.795994860791302 10.775370553984752
29.38460536264531 3.7626842474465763 13.916732839522158 11.705188275676573
27.823663439070454 3.5604824607051913 13.090251262272764 11.172929716092508
24.644453976176685 3.0842489486955293 11.513605453064384 10.046599574416764
20.9245230592056 2.6706617331931772 9.576508844969224 8.677352481043195
17.143669140600863 2.2950603605205098 7.610723448643845 7.237885331436507
13.613538626894686 1.9557334734001692 5.8124764637848445 5.845328689709671
10.468608029882434 1.6623931150004656 4.25288966318641 4.553325251695562
7.693135072704311 1.4074259500823327 2.915345211514871 3.3703639111071064
5.276618321156333 1.187129135673763 1.7945120830290175 2.2949771024535517
3.2901885559851882 0.9850433383512648 0.9460558185699512 1.3590893990639743
1.7754253617501474 0.7761050300665953 0.3570355556102178 0.6422847760733337
0.86398294417383 0.5807917004788569 0.08206340726320549 0.20112783643176754
0.4520927860223666 0.41858783055435295 0.0027140406214568487 0.030790914846556987
0.3152115244398902 0.3189853425948271 -0.0014741747983459908 -0.002299643356590966
0.25875506998429054 0.2610515743745143 -0.0005530434179335 -0.0017434609722903334
0.2388596648356189 0.2381775660763343 5.905485421247337e-05 0.0006230439050721611
0.22107404223877825 0.22144539475082492 -4.7523824791530415e-05 -0.0003238286872551096
0.16208020084847155 0.16212640415556115 -2.364274390547724e-06 -4.383903269906035e-05
0.2561741926391778 0.25615345350906865 1.3476233008971399e-06 1.9391506808273514e-05
0.1585387524315178 0.1585387524315178 0.0 0.0
0.14319168867420423 0.14317660985181246 9.21328551617892e-07 1.4157493840152975e-05
0.2111841642589981 0.21140894162583712 -2.6925353248019822e-05 -0.00019785201359104982
0.24473354839745287 0.24558418520789776 -0.0001519102489188778 -0.0006987265615261069
0.28341464279929957 0.2846381758165376 -0.00044136149491210645 -0.0007821715223259306
0.37351543201747 0.36758663077216275 -0.0016762565307565167 0.007605057776063943
0.6706996255624077 0.535949494414852 0.03367592029704697 0.10107421085050863
1.4745044949492725 0.7577197954424574 0.24129373002965995 0.4754909694771551
3.054082061379403 1.019926062926047 0.8144247101106598 1.2197312883426947
5.489704569066096 1.273970014283475 1.890050836543055 2.325683718239569
8.50220986949251 1.5087975249995722 3.289267663378917 3.704144681114025
12.122550320240052 1.7687597203958183 5.090488163996988 5.263302435847251
16.302497034859748 2.0740138163170676 7.253667604199652 6.974815614343024
21.059354195678292 2.4303786223766712 9.775500348534738 8.853475224766873
26.454156167860546 2.837092229272825 12.715092766250814 10.901971172336905
32.282493602442656 3.2765368471055023 15.933511344864772 13.072445410472376
38.31295669010652 3.741011408545937 19.35387565232307 15.218069629237512
43.447583518313124 4.091759550695259 22.284324632351513 17.07149933526635
46.05262906446222 4.1615680108942765 23.862790307816724 18.02827074575122
42.85735626960867 3.671381615328708 22.198553044069804 16.98742161021016
48.07828606173005 11.040565626973267 20.840973185663895 16.196747249092894
42.857356269603734 3.671381615318837 22.19855304407288 16.987421610212
46.052629064452326 4.161568010893313 23.862790307811146 18.028270745747875
43.447583518287274 4.09175955069004 22.284324632338713 17.071499335258533
38.312956690072994 3.74101140854522 19.35387565230294 15.218069629224825
32.28249360240989 3.276536847102802 15.933511344846618 13.07244541046046
26.4541561678274 2.83709222927086 12.715092766232324 10.901971172324211
21.059354195648567 2.430378622373764 9.775500348519186 8.853475224755618
16.302497034828903 2.074013816313122 7.253667604184438 6.974815614331347
12.122550320209307 1.7687597203912357 5.090488163982623 5.26330243583544
8.502209869469347 1.5087975249978873 3.2892676633676046 3.7041446811038554
5.489704569048172 1.2739700142823094 1.8900508365346136 2.3256837182312484
3.054082061368109 1.019926062924956 0.814424710105917 1.2197312883372364
1.474504494943508 0.7577197954411657 0.24129373002784948 0.4754909694744923
0.6706996255593298 0.5359494944137864 0.033675920296370246 0.10107421084917306
0.3735154320168144 0.3675866307712583 -0.001676256530724579 0.007605057776280775
0.2834146427988281 0.284638175815959 -0.000441361494900274 -0.000782171522230726
0.24473354839703904 0.2455841852072892 -0.00015191024889515178 -0.0006987265613550632
0.21118416425880948 0.2114089416256815 -2.692535325294419e-05 -0.00019785201361911282
0.14319168867392978 0.14317660985154135 9.213285513969881e-07 1.4157493836999314e-05
0.1585387524312731 0.1585387524312731 0.0 0.0
0.09284549321889507 0.09284549321889507 0.0 0.0
0.11990557759256362 0.11990135151883619 2.3276924337965782e-07 3.99330448403657e-06
0.19545212750561416 0.19554273749685125 -1.0920566385444071e-05 -7.968942485163958e-05
0.24719132025336682 0.24744874996856964 -7.612966091230485e-05 -0.00018130005429041043
0.31056823245616616 0.31531569345182603 -0.0012769208985502006 -0.0034705400971096227
0.4741028511065912 0.4471828706490734 0.00421968306494242 0.022700297392575473
1.0034597600935473 0.6579654576774524 0.10453142864277416 0.2409628737733207
2.2764972475945235 0.9442777795755463 0.5022542222474564 0.8299652457715219
4.607556659017556 1.2525843644293264 1.4718622557566448 1.8831100388315845
7.782537102257554 1.5243169477549818 2.891877372068045 3.366342782434529
11.939685657947193 1.8055046612392593 4.973164275820374 5.161016720887561
16.842978571845165 2.11557253363408 7.5363972136234985 7.191008824587586
22.5022551590149 2.479236591962837 10.587251640985938 9.43576692606615
28.994005053654956 2.9071628604656756 14.177011229792477 11.90983096339679
36.339901582794056 3.392532225951014 18.319599276491147 14.627770080351905
44.54503882050578 3.911307473875288 23.092099214763927 17.541632131866567
52.69083531551133 4.351917369245033 27.85797801600598 20.48093993026032
59.860316152548364 4.543849219463151 32.31928697490338 22.997179958181803
63.28263606001877 4.255947201424812 34.72037518563905 24.3063136729549
59.17093499050644 3.754116870159619 32.41170783013997 23.005110290206844
64.33251669232752 13.910763524830978 29.191760495358995 21.229992672137513
59.17093499051339 3.754116870163748 32.41170783014181 23.00511029020784
63.282636060009324 4.255947201429517 34.72037518562997 24.306313672949848
59.86031615251469 4.543849219459178 32.31928697488439 22.997179958171106
52.69083531547763 4.3519173692500654 27.857978015981622 20.48093993024594
44.54503882045956 3.9113074738698352 23.09209921473861 17.541632131851124
36.33990158275603 3.392532225953058 18.319599276466736 14.627770080336232
28.9940050536127 2.9071628604609674 14.177011229770047 11.909830963381687
22.502255158974464 2.479236591958588 10.587251640964816 9.435766926051052
16.842978571809432 2.115572533634904 7.536397213602851 7.191008824571684
11.939685657916275 1.8055046612356458 4.973164275805576 5.16101672087505
7.782537102233895 1.5243169477528453 2.8918773720569053 3.3663427824241428
4.6075566590014745 1.2525843644280046 1.4718622557493264 1.8831100388241446
2.2764972475847713 0.9442777795735382 0.5022542222440205 0.8299652457672138
1.0034597600889081 0.6579654576764752 0.10453142864137491 0.24096287377105718
0.4741028511050455 0.44718287064801066 0.004219683064812813 0.02270029739222222
0.3105682324556793 0.3153156934509341 -0.0012769208984856064 -0.003470540096769016
0.2471913202530331 0.24744874996810384 -7.612966090152679e-05 -0.0001813000541692154
0.195452127505511 0.19554273749678544 -1.0920566389585049e-05 -7.968942488488864e-05
0.11990557759234452 0.11990135151861717 2.3276924336996675e-07 3.9933044839934034e-06
0.09284549321869971 0.09284549321869971 0.0 0.0
0.05115272461190739 0.05115272461190739 0.0 0.0
0.09493861258455723 0.09493861258455723 0.0 0.0
0.17541436104491515 0.17540488912697677 5.074717645843541e-07 8.96444617385204e-06
0.24702294133612243 0.24790332353539107 -0.00014660396357596246 -0.0007337782356927048
0.34413482581512644 0.345702242440562 -0.0015281263734407014 -3.929025199499343e-05
0.6270604155562305 0.5348934939550892 0.02302100265954359 0.06914591894159752
1.4504847262162253 0.796649659094257 0.22311828350290108 0.430716783619067
3.2778748667495443 1.1323083262675286 0.8951938905482675 1.2503726499337469
6.170914638150266 1.4516283421128449 2.1064305246981467 2.612855771339275
10.332831198411533 1.7729879407805043 4.120774723563671 4.439068534067356
15.552305592994932 2.1057009673230156 6.812079548404884 6.634525077267035
21.778665915569327 2.4744690937098803 10.168316240097997 9.135880581761448
29.008854682772945 2.903539360632167 14.1889226509238 11.916392671216972
37.34980050608768 3.408793258571893 18.950673911923257 14.990333335592538
46.782470840708925 3.994547745007817 24.412595595106446 18.37532750059467
57.17004315601746 4.574069307813619 30.568010773641024 22.027963074562802
67.91607492591967 4.969384780537991 37.23168741813404 25.715002727247665
76.77486608711813 4.899854571514605 42.98303154837313 28.891979967230373
80.65462761009837 4.25595102412775 45.89173649432979 30.506940091640843
76.05074751547824 3.951122928434028 43.14472943706111 28.954895149983102
82.05874930942493 16.805812680474425 38.71776145287415 26.53517517607637
76.05074751545574 3.951122928414393 43.14472943705928 28.954895149982107
80.65462761008091 4.2559510241292555 45.891736494317335 30.50694009163429
76.77486608707922 4.899854571517135 42.98303154834627 28.891979967215825
67.91607492587079 4.969384780533493 37.23168741810542 25.715002727231873
57.17004315596938 4.574069307813934 30.568010773610375 22.027963074545088
46.78247084065766 3.994547745005169 24.412595595076162 18.3753275005763
37.349800506037916 3.4087932585702356 18.95067391189384 14.99033333557384
29.008854682720305 2.9035393606272373 14.188922650895334 11.916392671197753
21.778665915527355 2.4744690937118703 10.168316240072492 9.135880581742992
15.552305592953921 2.1057009673171763 6.812079548385178 6.634525077251569
10.332831198381625 1.7729879407785938 4.120774723548664 4.439068534054368
6.170914638131502 1.4516283421115848 2.10643052468951 2.6128557713304073
3.2778748667364734 1.1323083262657452 0.8951938905429361 1.250372649927791
1.4504847262102876 0.7966496590928414 0.22311828350107535 0.43071678361637183
0.6270604155538984 0.5348934939541785 0.023021002659073347 0.06914591894064642
0.3441348258146858 0.34570224243974856 -0.001528126373377147 -3.929025168559065e-05
0.2470229413357617 0.2479033235349908 -0.00014660396357294597 -0.0007337782356562
0.1754143610445985 0.17540488912668262 5.074717624321535e-07 8.964446153456787e-06
0.09493861258436544 0.09493861258436544 0.0 0.0
0.051152724611770214 0.051152724611770214 0.0 0.0
0.026429111945640692 0.026429111945640692 0.0 0.0
0.07110932989568103 0.07110932989568103 0.0 0.0
0.15346543570736199 0.15346024910016182 3.2864464628742965e-07 4.857962553844154e-06
0.24643527607620083 0.24708821785527174 -0.00011838824665599053 -0.0005345535324148683
0.3961578309893381 0.3954419995872453 -0.0009002865259313026 0.0016161179280242454
0.8343573822162537 0.6179518888040321 0.05961284847709299 0.15679264493512812
2.033636746310204 0.9440299390416081 0.41987850966701623 0.6697282976015787
4.305784645547133 1.2924338820823054 1.2759259752754497 1.7374247881893792
7.949540770834972 1.6506274316708591 2.9258235204027163 3.3730898187613976
12.97080740624736 2.0233143953030166 5.421904049973254 5.5255889609710955
19.318221262332642 2.4183420474064095 8.780563045343477 8.119316169582756
26.930854101318992 2.8545565534591755 12.985180750468679 11.091116797391143
35.83244160362751 3.3580711362238516 18.062251259357794 14.412119208045869
45.935360838724066 3.9466636243661988 23.899599189452527 18.08909802490534
57.55210320975272 4.615203123618486 30.807566949710058 22.129333136424176
70.35926373102956 5.2714640501845835 38.59914430975492 26.488655371090005
83.20605004995429 5.5949170814790765 46.7020102031032 30.909122765372008
93.83859152220668 5.206893115299449 53.94025621954165 34.691442187365595
98.58578959320798 4.261173902952561 57.709842472087544 36.61477321816791
93.68884384588723 4.189124170420462 54.52290415513563 34.976815520331186
100.86915164970993 19.69664361296496 49.02357290462007 32.148935132124926
93.68884384586798 4.189124170413019 54.52290415512768 34.97681552032722
98.58578959317462 4.261173902945857 57.70984247207001 36.6147732181588
93.83859152216515 5.206893115308321 53.94025621950826 34.69144218734854
83.20605004988576 5.5949170814657645 46.702010203067125 30.90912276535289
70.3592637309567 5.271464050171631 38.59914430971631 26.488655371068738
57.552103209688696 4.615203123613574 30.80756694967254 22.129333136402597
45.93536083866284 3.946663624363393 23.899599189416147 18.089098024883288
35.83244160357164 3.3580711362252247 18.062251259322995 14.412119208023416
26.93085410126541 2.8545565534554282 12.985180750439175 11.091116797370798
19.31822126228616 2.4183420474042396 8.780563045318107 8.119316169563799
12.970807406213103 2.0233143953026946 5.421904049954631 5.52558896095578
7.949540770809945 1.6506274316668745 2.9258235203919756 3.373089818751094
4.305784645530987 1.2924338820797667 1.2759259752689223 1.7374247881822997
2.0336367463012874 0.9440299390388659 0.41987850966429224 0.6697282975981282
0.8343573822127848 0.6179518888030008 0.059612848476209714 0.15679264493357417
0.3961578309885404 0.3954419995862988 -0.0009002865259021242 0.001616117928143749
0.24643527607583515 0.2470882178548952 -0.00011838824665639838 -0.0005345535324035918
0.15346543570713164 0.15346024909993072 3.286446463313423e-07 4.857962554588966e-06
0.07110932989555946 0.07110932989555946 0.0 0.0
0.026429111945534524 0.026429111945534524 0.0 0.0
0.01295280746695683 0.01295280746695683 0.0 0.0
0.05064179521840892 0.05064179521840892 0.0 0.0
0.1323285510120517 0.1323256118882709 1.4049774413010274e-07 2.79862603667179e-06
0.24916465511127892 0.2501938225233032 -0.00017843328735049572 -0.0008507341246738994
0.4737282165679891 0.4521221183221504 0.004125257322676652 0.017480840923162114
1.1256052762638964 0.730535717939312 0.1295585681627111 0.26551099016187324
2.6734973073000163 1.075058609931606 0.6297906010865396 0.9686480962818712
5.467537291069991 1.4421226981619069 1.76996374267849 2.2554508502295927
9.789791331283045 1.8473195578132315 3.792388003636366 4.150083769833449
15.718226302596067 2.2802775568090685 6.8153471787512565 6.622601567035736
23.202347473516394 2.744581113360992 10.846953597829037 9.610812762326374
32.25218617138757 3.2611855168234234 15.93655318231458 13.054447472249585
42.75063760589637 3.846674854759586 21.982757832083518 16.92120491905328
54.963895089715756 4.514910589572123 29.25049422568156 21.198490274462078
68.61596985833789 5.257654785718279 37.47190948254723 25.886405590072368
83.52149642181627 5.9550824580425985 46.65755940748868 30.908854556285004
98.66011130026483 6.22749394157598 56.452279019959505 35.980338338729375
111.1325440028966 5.556393673130672 65.19826312707113 40.377887202694794
117.00331538024014 4.298143517741046 69.96450584606613 42.74066601643295
112.36244245533659 4.408432007757308 66.80009552848017 41.15391491909913
121.29060549933203 22.53495683592049 60.65805148298891 38.097597180422646
112.36244245531658 4.408432007754465 66.80009552846872 41.15391491909344
117.00331538019276 4.298143517731924 69.96450584604034 42.74066601642046
111.13254400284647 5.556393673137357 65.19826312703307 40.37788720267605
98.66011130019193 6.227493941572596 56.45227901991351 35.98033833870582
83.52149642174824 5.955082458046096 46.65755940744182 30.908854556260295
68.6159698582608 5.257654785713682 37.471909482500514 25.886405590046593
54.96389508964372 4.514910589570365 29.25049422563716 21.198490274436182
42.75063760582927 3.8466748547575405 21.982757832043255 16.92120491902846
32.252186171323125 3.261185516817814 15.93655318227923 13.054447472226089
23.20234747346408 2.744581113360715 10.846953597798699 9.610812762304679
15.718226302555104 2.280277556806301 6.815347178729849 6.622601567018942
9.789791331252895 1.8473195578092823 3.792388003622503 4.1500837698211095
5.467537291050818 1.442122698159509 1.7699637426704897 2.25545085022082
2.6734973072891908 1.0750586099290558 0.629790601082797 0.9686480962773389
1.1256052762597442 0.7305357179383007 0.12955856816148587 0.2655109901599575
0.47372821656677666 0.4521221183211454 0.004125257322605042 0.017480840923026018
0.24916465511097233 0.25019382252278916 -0.00017843328733889956 -0.0008507341244778101
0.1323285510119425 0.13232561188816536 1.4049774391209618e-07 2.7986260332292525e-06
0.0506417952183586 0.0506417952183586 0.0 0.0
0.01295280746684245 0.01295280746684245 0.0 0.0
0.006269902323387468 0.006269902323387468 0.0 0.0
0.034897212249802134 0.034897212249802134 0.0 0.0
0.11504197634996499 0.11504197634996499 0.0 0.0
0.2613544446871624 0.2635484692017846 -0.00039944416647159497 -0.0017945803481505913
0.5863418394928129 0.5176206397524438 0.016166284755997674 0.052554914984371585
1.4950402815612436 0.8437752918453677 0.23468415238382645 0.4165808373320495
3.3805682766247713 1.1862248960630353 0.8872647503066999 1.3070786302550341
6.704311013969122 1.5893533550037569 2.3202212248121676 2.794736434153198
11.696278930129685 2.043027594744449 4.714996651148627 4.9382546842366075
18.53757855080689 2.543311423339009 8.268585599256822 7.725681528211064
27.223436539257676 3.089469909186301 13.028015565730367 11.105951064341001
37.68900905589118 3.6918836301463367 18.973565835352126 15.023559590392713
50.068621485178646 4.374237162744546 26.258876839343007 19.43550748309107
64.07399194974889 5.130221897684866 34.61564504704306 24.328125005020993
79.86353540813978 5.899057859897368 44.32065857005269 29.6438189781897
96.8887587630805 6.565471544451283 55.05711597989412 35.266171238735105
114.02503653386356 6.840683529334851 66.27080262529039 40.91355037923831
128.51561309681347 6.084165499860429 76.52378987684841 45.90765772010462
135.9475652205604 4.356741828613024 82.76039802250453 48.83042536944283
132.30285782039903 4.541253059878639 80.17445432157123 47.58715043894915
143.51344083969852 25.1969262926878 73.74962057412236 44.56689397288828
132.30285782036782 4.541253059871774 80.17445432155455 47.587150438941435
135.94756522051767 4.35674182861798 82.76039802247229 48.830425369427495
128.5156130967381 6.084165499854807 76.5237898768013 45.907657720081936
114.02503653379108 6.840683529341343 66.27080262523748 40.91355037921229
96.8887587629924 6.565471544444808 55.05711597984013 35.26617123870746
79.86353540805665 5.899057859898389 44.320658569997875 29.643818978160397
64.0739919496697 5.13022189768627 34.61564504699148 24.32812500499198
50.06862148509782 4.374237162741569 26.258876839294214 19.43550748306202
37.689009055820875 3.6918836301419087 18.973565835311845 15.023559590367126
27.223436539199874 3.089469909184532 13.02801556569727 11.10595106431807
18.537578550758138 2.5433114233336425 8.268585599232145 7.725681528192348
11.696278930095424 2.043027594740858 4.714996651132099 4.938254684222468
6.704311013946234 1.5893533550024252 2.3202212248013225 2.794736434142487
3.3805682766118683 1.1862248960605624 0.887264750302168 1.3070786302491375
1.4950402815554509 0.8437752918437335 0.23468415238213775 0.41658083732958007
0.5863418394909351 0.51762063975114 0.016166284755786207 0.05255491498400838
0.2613544446867667 0.26354846920124 -0.0003994441664518365 -0.0017945803480214485
0.11504197634996165 0.11504197634996165 0.0 0.0
0.03489721224972431 0.03489721224972431 0.0 0.0
0.006269902323338968 0.006269902323338968 0.0 0.0
0.002975717966910712 0.002975717966910712 0.0 0.0
0.024102557034272328 0.024102557034272328 0.0 0.0
0.10571389747238472 0.10571389747238472 0.0 0.0
0.29287958969790234 0.294807042907565 -0.0006875749739019426 -0.001239878235761001
0.7576629179272297 0.6078306901420873 0.04504735007489186 0.1047848777102503
1.914609192807507 0.9429658096546008 0.36066781714757523 0.6109755660053318
4.177474898547891 1.298811507278354 1.2129208505626439 1.6657425407068933
7.986414666873264 1.7316624532122062 2.9056081258158146 3.349144087845243
13.671632391768364 2.238295284788124 5.700441788606994 5.732895318373246
21.41764811042349 2.814186225427086 9.773184171352318 8.830277713644092
31.305184637845105 3.448986496556869 15.252880199290388 12.603317941997846
43.37158309328252 4.154246005830195 22.22263581129029 16.99470127616202
57.371029537423254 4.940514609794152 30.467094812468538 21.963420115160595
73.51354064253742 5.772123403422099 40.281926323368594 27.45949091574669
91.40142490552135 6.563508885946912 51.43791875835711 33.399997261217365
110.3490190994227 7.132509042914876 63.6220515471911 39.594458509316674
129.11998095515898 7.271677147256099 76.15485977560039 45.69344403230255
145.60411902972479 6.737466092424885 87.72791420006884 51.13873873723105
155.2335197619986 4.706883940135696 95.7104262599509 54.81620956191195
153.68592730480614 4.388378795108013 94.89384896227992 54.40369954741821
167.82324652569673 26.76023978940377 89.2249930605963 51.83801367569663
153.6859273047754 4.388378795109182 94.89384896225796 54.403699547408216
155.2335197619336 4.706883940128606 95.7104262599115 54.816209561893466
145.6041190296614 6.7374660924432765 87.72791420001307 51.138738737205074
129.11998095506206 7.271677147247601 76.1548597755406 45.69344403227381
110.34901909932485 7.132509042914472 63.62205154712614 39.59445850928427
91.40142490542705 6.563508885945524 51.43791875829594 33.399997261185604
73.51354064244379 5.772123403417424 40.28192632331106 27.45949091571527
57.37102953733604 4.9405146097961055 30.467094812411954 21.963420115127963
43.37158309319707 4.154246005819967 22.22263581124374 16.99470127613336
31.305184637776605 3.4489864965497268 15.252880199253486 12.60331794197339
21.41764811037241 2.8141862254241463 9.773184171324486 8.83027771362378
13.67163239172895 2.2382952847829367 5.700441788588183 5.732895318357826
7.986414666848047 1.731662453211354 2.9056081258033 3.3491440878333965
4.177474898532379 1.2988115072757664 1.2129208505566438 1.6657425406999704
1.9146091928003621 0.9429658096534217 0.36066781714502893 0.6109755660019118
0.7576629179248516 0.6078306901407616 0.04504735007449928 0.10478487770959086
0.29287958969734595 0.2948070429068966 -0.0006875749738910121 -0.0012398782356595822
0.10571389747224717 0.10571389747224717 0.0 0.0
0.024102557034180617 0.024102557034180617 0.0 0.0
0.002975717966904625 0.002975717966904625 0.0 0.0
0.0009157968116247708 0.0009157968116247708 0.0 0.0
0.017612590215052012 0.017612590215052012 0.0 0.0
0.11069898320088686 0.11069898320088686 0.0 0.0
0.3614069537193051 0.35522538918523217 0.0007684165081017647 0.005413148025971155
1.0034423203371712 0.7437439211109498 0.08702125637331574 0.17267714285290595
2.4408057835511974 1.1633489645336783 0.49361943878046816 0.7838373802370493
5.094595480177523 1.6480243475739997 1.4886757614188735 1.9578953711846498
9.447349938567843 2.282188271052334 3.385783652678093 3.77937801483742
15.887369454566858 3.092245923210962 6.4549966162296855 6.340126915126217
24.733492621587068 4.107986196441607 10.956313188404755 9.669193236740686
36.1105584177446 5.347014523757791 17.026101451292927 13.737442442693887
49.905682196213064 6.813380364398739 24.60035937079229 18.49194246102204
66.18598738542515 8.481480807438306 33.828965438161525 23.875541139825312
84.77011583914651 10.287109207901466 44.657115095698956 29.825891535546102
105.14469052914053 11.982479175459176 56.94045283352244 36.22175852015888
126.24450117649383 13.154693242839095 70.26716207700034 42.82264585665443
146.32191889334513 13.354838062380438 83.71539050576202 49.251690325202695
163.36172547013746 12.512119810718424 95.93429487136179 54.91531078805723
175.23637458383 11.239695328588928 104.97854064399982 59.01813861124132
171.14555314004207 4.483537646093016 106.7632457856605 59.898769708288505
238.26626975153675 75.79861220980972 103.98296860130255 58.4846889404246
171.14555314001674 4.483537646102792 106.76324578563616 59.89876970827779
175.23637458377658 11.239695328602515 104.97854064395344 59.018138611220536
163.36172547004963 12.512119810718945 95.93429487130163 54.91531078802922
146.3219188932283 13.354838062362331 83.71539050569493 49.251690325171054
126.24450117640099 13.154693242855412 70.26716207692675 42.82264585661872
105.144690529029 11.982479175447967 56.940452833456035 36.221758520125036
84.77011583903109 10.287109207881944 44.65711509563631 29.82589153551288
66.18598738532305 8.481480807431911 33.82896543810041 23.875541139790755
49.90568219612149 6.81338036439249 24.600359370739024 18.491942460989954
36.110558417668 5.347014523748692 17.026101451251964 13.737442442667351
24.73349262152542 4.107986196430586 10.956313188375086 9.669193236719755
15.887369454520478 3.0922459232016855 6.454996616208984 6.340126915109815
9.447349938538583 2.2821882710488426 3.385783652664603 3.7793780148251397
5.094595480159443 1.648024347570621 1.4886757614118529 1.957895371176971
2.4408057835428294 1.1633489645328665 0.49361943877733827 0.7838373802326238
1.0034423203337348 0.7437439211090451 0.08702125637272576 0.17267714285196395
0.3614069537184396 0.35522538918457147 0.0007684165080543105 0.005413148025813679
0.11069898320071833 0.11069898320071833 0.0 0.0
0.017612590215017203 0.017612590215017203 0.0 0.0
0.000915796811639983 0.000915796811639983 0.0 0.0
CELL_DATA 800
SCALARS Stress float 6
LOOKUP_TABLE default
165.67189441682336 -517.7060095446898 -181.88274326930514 -109.46964101059565 0.0 0.0
401.7198345926593 -68.46037487262114 115.99122127361032 55.85464907378896 0.0 0.0
408.4283513659567 9.21626788819365 125.09719977134037 -3.0996126004367435 0.0 0.0
467.7372165734214 -13.332315830760601 144.6662996231077 -14.917562919955293 0.0 0.0
544.257462272441 -19.030628003702475 199.469581773844 -11.619587074440267 0.0 0.0
617.5823287369968 -14.264411244819161 271.32096670084945 -10.151561198994205 0.0 0.0
688.6298844922703 -7.796774148817441 328.8589828863726 -10.64045267179156 0.0 0.0
760.2347380829676 6.5209758516870835 378.255016719736 -12.232771728065849 0.0 0.0
834.259807422741 28.718789713576314 428.12469358361557 -13.898194537846697 0.0 0.0
910.6219060309056 57.89250337014393 481.5620180085607 -15.03415191889525 0.0 0.0
987.7662687736795 91.82803804844819 537.5259215414951 -15.51808023675906 0.0 0.0
1064.3452118203027 129.25875908587977 594.8477425135958 -15.457274201561432 0.0 0.0
1140.3918444582969 168.95017884143707 652.937701288619 -15.24769646736567 0.0 0.0
1216.7519294412607 211.48986228208537 712.5357171514183 -14.949165003797916 0.0 0.0
1294.0383541887263 257.5638513643561 774.3224247797632 -14.430753742419613 0.0 0.0
1371.5877705315813 306.7232991937486 837.7594347076079 -13.500545827482561 0.0 0.0
1447.047159890697 357.1915382855826 900.7940110943017 -12.01086793551719 0.0 0.0
1517.7054653635637 406.99332913621265 961.0719447884015 -10.174276983333487 0.0 0.0
1582.2393840994575 455.74725053270765 1017.6832377727485 -9.338995136102557 0.0 0.0
1671.0293837717518 535.8597967063015 1101.6062081606935 -14.408166153211923 0.0 0.0
1671.029383772383 535.8597967069481 1101.606208161049 14.408166153182835 0.0 0.0
1582.2393841005119 455.7472505338091 1017.6832377734828 9.33899513619583 0.0 0.0
1517.7054653639252 406.99332913665114 961.07194478872 10.17427698338366 0.0 0.0
1447.047159889219 357.1915382842083 900.7940110932293 12.010867935531236 0.0 0.0
1371.5877705308749 306.7232991931755 837.759434707024 13.500545827575836 0.0 0.0
1294.0383541885087 257.5638513642734 774.322424779564 14.430753742426736 0.0 0.0
1216.7519294405208 211.48986228150596 712.535717150877 14.949165003801633 0.0 0.0
1140.3918444568587 168.95017884019217 652.9377012876168 15.247696467417992 0.0 0.0
1064.3452118194084 129.2587590852033 594.8477425130295 15.457274201759343 0.0 0.0
987.7662687736829 91.82803804871659 537.5259215414474 15.518080236841607 0.0 0.0
910.621906031886 57.89250337138856 481.56201800911026 15.034151918864222 0.0 0.0
834.2598074223245 28.71878971342852 428.12469358330173 13.89819453799223 0.0 0.0
760.2347380825 6.520975851496985 378.2550167193998 12.232771727902122 0.0 0.0
688.6298844921604 -7.796774148655146 328.85898288625714 10.64045267170542 0.0 0.0
617.5823287363619 -14.264411245173768 271.3209667003753 10.15156119890017 0.0 0.0
544.2574622719707 -19.03062800395361 199.46958177348608 11.619587074552499 0.0 0.0
467.73721657318595 -13.332315830750824 144.66629962301775 14.91756292001784 0.0 0.0
408.4283513657209 9.216267888070792 125.09719977123589 3.0996126003079105 0.0 0.0
401.7198345925432 -68.4603748726626 115.99122127353218 -55.85464907376916 0.0 0.0
165.67189441732356 -517.7060095442563 -181.8827432688239 109.46964101018254 0.0 0.0
65.39696530229307 -545.9006023250395 -242.689873747433 -157.2977229514507 0.0 0.0
267.3829301135753 -57.61328538413366 63.01582503593183 9.862835152469074 0.0 0.0
357.9406560873481 30.99056276261777 116.67919828201588 -9.852403827537954 0.0 0.0
431.96786133922205 -11.250251357054779 129.0809593879539 -35.00012332702315 0.0 0.0
516.0525623820273 -19.468821873411578 177.13428017147737 -33.07941806609169 0.0 0.0
593.8769519373911 -15.198990716769163 250.64761929006482 -30.040610514321315 0.0 0.0
668.6302103187911 -8.464564213477082 314.5900142118192 -30.893539535372355 0.0 0.0
741.2281665980737 5.543814813465666 366.8893206704498 -33.29846203081752 0.0 0.0
813.9938588300281 26.385440040583532 416.27686268904097 -35.83886602405561 0.0 0.0
887.3451360051042 52.985631763490474 467.17749067448074 -37.25225299302634 0.0 0.0
960.0917573984437 83.2708544874019 519.224663421468 -37.391102095961145 0.0 0.0
1031.7668940957778 115.95442836683631 571.7613430394136 -36.7657308543595 0.0 0.0
1102.6538502807002 151.3452169443425 625.1438393815268 -35.89393195969784 0.0 0.0
1173.7074708273626 189.31380823567685 679.8306400599431 -34.89040218428821 0.0 0.0
1245.1663056338982 230.0369760849959 736.0540645936217 -33.51829704144791 0.0 0.0
1316.5410103090742 273.35378515965056 793.5008393006153 -31.378881664442027 0.0 0.0
1386.6860121183672 318.6087007317683 851.2674185125093 -28.309131567989834 0.0 0.0
1454.5766675699438 365.61751972884935 908.724764447709 -24.99922283199068 0.0 0.0
1525.563391967958 421.0233989768194 971.7688189075362 -22.951452034718603 0.0 0.0
1578.4037016799903 464.94661822114557 1020.0100463126703 -21.925227297143444 0.0 0.0
1578.4037016806337 464.94661822182513 1020.0100463131031 21.92522729722571 0.0 0.0
1525.5633919690176 421.0233989779251 971.7688189081774 22.95145203475767 0.0 0.0
1454.5766675685786 365.6175197275483 908.7247644465972 24.999222831931867 0.0 0.0
1386.686012117913 318.6087007314057 851.2674185121851 28.30913156798166 0.0 0.0
1316.5410103087827 273.3537851595014 793.5008393003543 31.378881664567224 0.0 0.0
1245.1663056328696 230.03697608411233 736.0540645928318 33.518297041528896 0.0 0.0
1173.707470826889 189.31380823537296 679.8306400595771 34.89040218430308 0.0 0.0
1102.6538502805786 151.3452169444147 625.1438393813778 35.89393195971455 0.0 0.0
1031.7668940947701 115.95442836601995 571.7613430386301 36.76573085436186 0.0 0.0
960.0917573976975 83.27085448690286 519.2246634210366 37.39110209603761 0.0 0.0
887.3451360046222 52.98563176325456 467.1774906742496 37.252252993054306 0.0 0.0
813.9938588292205 26.38544004002702 416.2768626885362 35.83886602403471 0.0 0.0
741.2281665973649 5.543814812982106 366.88932066997637 33.29846203051315 0.0 0.0
668.6302103186007 -8.46456421337912 314.59001421165465 30.893539535257005 0.0 0.0
593.8769519370115 -15.198990716881305 250.64761928972396 30.04061051424111 0.0 0.0
516.0525623819033 -19.468821873173244 177.13428017138395 33.07941806625911 0.0 0.0
431.9678613393264 -11.25025135645288 129.080959388139 35.000123327087415 0.0 0.0
357.9406560873599 30.990562762755815 116.6791982820638 9.85240382755346 0.0 0.0
267.3829301135948 -57.61328538389678 63.015825036012004 -9.862835152657919 0.0 0.0
65.39696530251376 -545.9006023248903 -242.6898737471896 157.29772295114464 0.0 0.0
13.541827890579412 -553.5863046953799 -265.69433801511286 -172.10357006003156 0.0 0.0
151.3175130851597 -48.21137235582693 30.93184221879983 -44.42928161184463 0.0 0.0
290.98905380557727 34.71548512881323 97.71136168031714 -33.62970210004987 0.0 0.0
385.75646759799764 -2.4791585322860237 115.65178336150561 -54.80350764570583 0.0 0.0
478.7876728230042 -18.215343268436083 154.74561788535746 -56.693328456762096 0.0 0.0
566.7055653132455 -17.664852909610453 225.4653256848632 -51.71444195056006 0.0 0.0
644.5172720229341 -8.292092066842123 297.08592142127964 -51.48522550971648 0.0 0.0
717.8375760360219 4.6488727072885325 352.6716450708937 -54.27154493003398 0.0 0.0
789.6943573990955 24.123556101573662 402.2448723613601 -57.28477964779927 0.0 0.0
859.9592079269555 47.834595929822484 450.54778668046447 -58.70985172068953 0.0 0.0
928.4640528177586 74.26895841031609 498.6782797958632 -58.464181128449 0.0 0.0
995.2198614989743 102.87464461626917 546.7733557952017 -57.2902852296201 0.0 0.0
1061.225401051299 133.50000032099044 595.3653153695861 -55.91545928456298 0.0 0.0
1126.7862773120182 166.634526424319 644.9225101180677 -54.26100554363875 0.0 0.0
1192.2305314658754 201.81535511361494 695.3996014228342 -52.07380654200582 0.0 0.0
1257.5096507930934 239.1577431356763 746.8283743783982 -48.95442812258622 0.0 0.0
1322.6162914214717 279.2828525714295 799.4985948686889 -44.79254374135904 0.0 0.0
1389.0378247413005 324.65130020955905 855.3596791873058 -40.27851264772532 0.0 0.0
1451.569456944754 371.1828366024441 909.8160170361708 -35.356346099933354 0.0 0.0
1495.8878099735614 405.62895028733317 949.1073705126954 -28.351928852255234 0.0 0.0
1495.88780997304 405.62895028680873 949.1073705122596 28.351928852242125 0.0 0.0
1451.5694569458842 371.18283660363386 909.8160170369529 35.35634610005688 0.0 0.0
1389.0378247412816 324.651300209615 855.3596791872706 40.27851264773305 0.0 0.0
1322.6162914201188 279.28285257016955 799.4985948676022 44.79254374140085 0.0 0.0
1257.5096507917556 239.1577431344611 746.8283743773947 48.95442812269569 0.0 0.0
1192.2305314658715 201.8153551137667 695.3996014227982 52.073806542116614 0.0 0.0
1126.7862773119966 166.63452642447731 644.9225101179278 54.26100554372077 0.0 0.0
1061.2254010514914 133.50000032135605 595.3653153696899 55.91545928450378 0.0 0.0
995.2198614981527 102.87464461564548 546.7733557945792 57.290285229586566 0.0 0.0
928.4640528162404 74.26895840895739 498.6782797947514 58.46418112822832 0.0 0.0
859.9592079265888 47.8345959296648 450.54778668018014 58.70985172060662 0.0 0.0
789.6943573981579 24.12355610090495 402.24487236077357 57.28477964785587 0.0 0.0
717.8375760351797 4.648872706680663 352.67164507033925 54.2715449299243 0.0 0.0
644.5172720223671 -8.292092067122724 297.08592142085024 51.48522550975377 0.0 0.0
566.7055653126139 -17.664852909989317 225.4653256843615 51.71444195048801 0.0 0.0
478.78767282302164 -18.215343268045793 154.74561788537642 56.69332845673225 0.0 0.0
385.75646759773423 -2.47915853226805 115.65178336144228 54.80350764569695 0.0 0.0
290.98905380553487 34.71548512866084 97.71136168025868 33.6297021000456 0.0 0.0
151.3175130851856 -48.21137235549253 30.931842218907917 44.42928161175069 0.0 0.0
13.541827890745907 -553.5863046950972 -265.69433801484126 172.1035700598729 0.0 0.0
-6.018055292331496 -541.341088606649 -261.638479663882 -174.2178512253514 0.0 0.0
87.80107041592557 -46.54303217307255 12.3774114728559 -90.37659528938073 0.0 0.0
227.6031797825925 31.756207140397528 77.80781607689698 -65.35425846569368 0.0 0.0
333.0585813234476 5.767418069743502 101.67792180729462 -76.32419579366135 0.0 0.0
431.81225851950967 -15.942918056244345 132.58281729740838 -82.55708053231706 0.0 0.0
529.1696532182309 -18.29546132790161 197.11770487648232 -75.31484943016982 0.0 0.0
613.6272109094346 -9.40725591482548 273.3353251548631 -72.82153677247814 0.0 0.0
689.8548981052443 4.36101804918632 335.3299471612027 -75.25651431016317 0.0 0.0
760.5451925058767 21.70870193270597 385.31457035643393 -78.20407983430951 0.0 0.0
827.9415923277427 42.4599149137468 431.3511162878946 -79.41487901282099 0.0 0.0
892.4096618786045 65.14796726418977 475.7972559019161 -78.74561101966334 0.0 0.0
954.642375674451 89.54887395969854 519.607435085043 -77.11194665178212 0.0 0.0
1015.3922421592817 115.64874730406406 563.3535067233121 -75.23110294806507 0.0 0.0
1075.7218054303312 143.72886995011038 607.8087722665128 -73.03511240027191 0.0 0.0
1135.2570198290714 173.1542103582363 652.4901197814282 -70.15717131253648 0.0 0.0
1194.1736464652668 204.51403271821377 697.7668866372748 -66.27684426917561 0.0 0.0
1254.3600838481943 239.5068334326184 745.4060670995923 -61.395554851614314 0.0 0.0
1315.6269020209338 279.1418574119998 795.8341862656825 -55.54179008599842 0.0 0.0
1372.6822662811774 319.08983323312896 844.2825915535968 -47.51290940295414 0.0 0.0
1414.0255207464393 348.8641673957771 879.7624746236788 -35.13367260292073 0.0 0.0
1414.0255207461978 348.8641673955764 879.7624746235286 35.13367260303703 0.0 0.0
1372.6822662814 319.08983323340135 844.2825915537735 47.51290940301836 0.0 0.0
1315.6269020210718 279.1418574122014 795.8341862658996 55.54179008597473 0.0 0.0
1254.360083848273 239.50683343280764 745.406067099605 61.395554851702606 0.0 0.0
1194.1736464656663 204.51403271876381 697.766886637402 66.27684426925511 0.0 0.0
1135.2570198288668 173.15421035818133 652.4901197811372 70.15717131260686 0.0 0.0
1075.7218054302054 143.72886995018476 607.808772266323 73.0351124004224 0.0 0.0
1015.3922421586136 115.64874730355541 563.3535067228376 75.2311029480461 0.0 0.0
954.6423756747799 89.54887396028528 519.6074350853341 77.11194665185835 0.0 0.0
892.4096618786375 65.14796726439968 475.7972559019843 78.74561101954862 0.0 0.0
827.9415923272662 42.45991491348457 431.35111628756005 79.41487901274164 0.0 0.0
760.5451925054919 21.708701932548266 385.3145703561405 78.20407983423715 0.0 0.0
689.8548981048724 4.361018049122762 335.3299471609013 75.25651431018875 0.0 0.0
613.6272109094542 -9.407255914470305 273.33532515478163 72.82153677242471 0.0 0.0
529.1696532177069 -18.295461328179762 197.11770487607004 75.31484942997281 0.0 0.0
431.8122585193474 -15.942918056014893 132.58281729737953 82.55708053225032 0.0 0.0
333.0585813234544 5.76741807015906 101.67792180742725 76.32419579363578 0.0 0.0
227.60317978260153 31.756207140425815 77.8078160769082 65.35425846554848 0.0 0.0
87.80107041588525 -46.54303217290682 12.377411472893531 90.37659528917578 0.0 0.0
-6.018055292267476 -541.3410886064494 -261.6384796636611 174.2178512252238 0.0 0.0
-10.398449989254473 -517.5236731835429 -242.7197558948779 -171.7862780657597 0.0 0.0
52.18329785697036 -46.059420122658885 1.8371633202934463 -126.1563285063003 0.0 0.0
173.14439408082254 25.900969937595683 59.713609205525444 -97.3348436913862 0.0 0.0
277.1926900605411 10.847460343321517 86.41747793539456 -99.31778147579921 0.0 0.0
374.4198787043755 -11.18639895338612 111.79813257189814 -108.36755636148499 0.0 0.0
480.49178640388266 -18.291207391979363 166.37565398236518 -102.11072509470574 0.0 0.0
575.3175386446753 -10.9265108650816 243.48948658941538 -95.89147798488827 0.0 0.0
655.551117355479 3.605514276028803 312.72072286380234 -96.28877343835731 0.0 0.0
725.9116064369596 19.390992993191652 364.9211437474238 -98.62964530745008 0.0 0.0
790.6311437276933 36.88902427269746 409.146919656082 -99.41993874509296 0.0 0.0
851.4054400213072 55.8991724101254 450.2570640425656 -98.2630772739183 0.0 0.0
908.9993184703005 76.1045807417581 489.7807025823691 -96.17397813403228 0.0 0.0
964.7598892632154 97.61578713519731 528.817143938172 -93.9351770290036 0.0 0.0
1019.3773395521184 120.6530700952589 567.9370156386449 -91.19728349113568 0.0 0.0
1073.2030145098684 144.6361970986449 607.0789708043455 -87.71395626769475 0.0 0.0
1126.466490788611 169.9133640924303 646.5267072553288 -83.36265063837796 0.0 0.0
1179.9837630391373 198.2195240565105 687.5148761509029 -77.93389766548916 0.0 0.0
1235.142131842568 230.9489933655376 731.4467104144754 -70.906282492961 0.0 0.0
1288.2081831594187 265.1011285987542 775.0017047117693 -60.09599587525195 0.0 0.0
1329.7344321587411 292.49361856314516 809.3628151404332 -42.852538923386675 0.0 0.0
1329.7344321586347 292.49361856306865 809.3628151403793 42.85253892345669 0.0 0.0
1288.2081831602115 265.10112859962584 775.0017047123572 60.09599587543464 0.0 0.0
1235.1421318428074 230.94899336587366 731.4467104145747 70.90628249305043 0.0 0.0
1179.983763038327 198.2195240557989 687.5148761502523 77.93389766556471 0.0 0.0
1126.4664907886815 169.91336409261328 646.5267072553552 83.36265063839234 0.0 0.0
1073.2030145098145 144.6361970987491 607.0789708043893 87.71395626775113 0.0 0.0
1019.3773395519011 120.65307009519026 567.9370156385329 91.19728349112577 0.0 0.0
964.7598892626152 97.61578713475319 528.8171439377139 93.93517702894307 0.0 0.0
908.9993184689852 76.10458074056669 489.7807025813807 96.1739781339304 0.0 0.0
851.4054400195511 55.89917240841325 450.2570640412324 98.26307727365514 0.0 0.0
790.6311437274674 36.88902427278893 409.14691965590305 99.41993874523209 0.0 0.0
725.9116064372314 19.390992993781737 364.9211437475949 98.62964530746332 0.0 0.0
655.5511173549675 3.6055142758120127 312.7207228634412 96.28877343833389 0.0 0.0
575.3175386440537 -10.926510865496716 243.48948658889094 95.89147798475858 0.0 0.0
480.4917864035864 -18.291207391808395 166.3756539821709 102.11072509474235 0.0 0.0
374.4198787041853 -11.186398953251619 111.79813257187048 108.36755636136698 0.0 0.0
277.1926900604125 10.84746034329061 86.41747793535285 99.31778147557048 0.0 0.0
173.14439408078087 25.900969937541227 59.713609205496624 97.33484369120683 0.0 0.0
52.18329785706646 -46.0594201222639 1.8371633204407658 126.15632850612522 0.0 0.0
-10.398449989158749 -517.5236731832558 -242.71975589461343 171.78627806566456 0.0 0.0
-7.9258086953498434 -485.94494272881883 -215.29779536138818 -168.12748054029905 0.0 0.0
30.829582738624296 -45.075362439769094 -4.273733910343438 -152.81638989872448 0.0 0.0
126.77905495554006 19.296497487578737 43.82266573293563 -125.53783257877978 0.0 0.0
220.7290609686248 12.834252634232428 70.06501762227359 -122.41339054152135 0.0 0.0
310.24797319040147 -4.968553319961252 92.47913616748873 -132.11498678579645 0.0 0.0
415.7240069383405 -17.15342423106629 134.16748300875332 -131.3910027758836 0.0 0.0
522.4187918755148 -11.38118569634194 206.89820393039923 -121.72136590011598 0.0 0.0
610.9094984769405 1.5236635815615642 281.46365660083023 -118.2686772113462 0.0 0.0
684.1511723192839 16.729298162677424 339.2763617433684 -118.8251880130484 0.0 0.0
746.9167453683947 31.296029044538304 383.13757006850904 -118.73352276339891 0.0 0.0
803.949641327833 46.43578628401244 421.1413536041008 -117.0402874365036 0.0 0.0
857.2318509380825 62.60845334105462 456.7508470359193 -114.523550391084 0.0 0.0
907.8040138935453 79.62536735836939 491.0742336709612 -111.90754759039032 0.0 0.0
956.8448634844054 97.40764163914537 524.8478837885649 -108.8669435731923 0.0 0.0
1005.2885828673782 116.14817448185318 558.7104934466405 -104.91152642573506 0.0 0.0
1052.34790749455 135.75525704780668 592.2739134744102 -99.9836603189126 0.0 0.0
1098.8091516855216 156.3211141253563 625.9303002530733 -94.25199616505846 0.0 0.0
1146.7099754696937 180.5407106709534 662.0010619862041 -86.5636740312989 0.0 0.0
1196.0648813219796 208.76915990102975 700.7125761558452 -73.62893037189542 0.0 0.0
1240.2242709663524 235.1257281464585 735.8158217181248 -52.1343610409284 0.0 0.0
1240.224270965553 235.12572814570635 735.8158217175785 52.13436104113107 0.0 0.0
1196.0648813210948 208.76915990025077 700.7125761552505 73.62893037218248 0.0 0.0
1146.709975469664 180.54071067102495 662.001061986318 86.56367403144114 0.0 0.0
1098.809151685492 156.32111412549 625.9303002531346 94.25199616525228 0.0 0.0
1052.3479074931672 135.75525704648499 592.2739134733994 99.98366031885749 0.0 0.0
1005.2885828664831 116.1481744811098 558.7104934459445 104.91152642580423 0.0 0.0
956.8448634841473 97.40764163905772 524.8478837883296 108.86694357322109 0.0 0.0
907.8040138931642 79.62536735823488 491.0742336707111 111.90754759053931 0.0 0.0
857.2318509372777 62.608453340398 456.7508470353664 114.52355039103045 0.0 0.0
803.9496413279865 46.43578628444274 421.141353604118 117.04028743658529 0.0 0.0
746.9167453687422 31.296029045257697 383.1375700686697 118.7335227635642 0.0 0.0
684.1511723188958 16.729298162604053 339.2763617430943 118.8251880130869 0.0 0.0
610.9094984772846 1.5236635823322189 281.46365660095756 118.26867721141463 0.0 0.0
522.4187918756753 -11.38118569575984 206.8982039304132 121.72136590007551 0.0 0.0
415.72400693821686 -17.153424230661972 134.1674830087294 131.39100277588562 0.0 0.0
310.2479731904433 -4.9685533192819324 92.47913616770437 132.11498678567813 0.0 0.0
220.72906096848118 12.834252634054696 70.06501762217862 122.41339054137472 0.0 0.0
126.77905495556675 19.296497487712177 43.822665732983666 125.53783257855345 0.0 0.0
30.829582738616285 -45.07536243963831 -4.273733910306608 152.81638989851524 0.0 0.0
-7.9258086952208515 -485.94494272849056 -215.29779536109086 168.1274805402043 0.0 0.0
-2.3590643276835976 -448.17954238307607 -182.93731021652573 -164.61645491277108 0.0 0.0
15.978913334421181 -44.17446438206052 -8.45872189751726 -171.51924176210952 0.0 0.0
86.03810582932533 13.085131724801748 29.73697126623813 -148.31303321555671 0.0 0.0
164.61733330788755 13.889349328391713 53.54888121319659 -143.6448508135109 0.0 0.0
242.36860890096972 0.19324760396381357 73.20670913916142 -153.06458926567763 0.0 0.0
337.70090600372197 -13.083409694358958 103.32983988194576 -160.28136144903755 0.0 0.0
450.8723517420499 -11.804777977649195 163.93552209709605 -151.29655229025465 0.0 0.0
551.3955514260963 -0.30870468481811386 239.99552568095856 -142.35711490880988 0.0 0.0
630.4652643187131 12.961453924161923 304.11214845053235 -139.36431174462368 0.0 0.0
694.027862616747 25.49997673709158 351.0011975406213 -137.58260482452195 0.0 0.0
747.722547382059 36.77403097226277 386.92320277787024 -135.10785555751 0.0 0.0
796.8797477063288 49.1341031116708 419.1532066794827 -132.15862955483698 0.0 0.0
842.3221308437774 61.637216560550826 448.92605850119566 -129.22011162718223 0.0 0.0
885.4649294022685 74.35418666615777 477.3720659686839 -125.96742107173978 0.0 0.0
927.8355013815344 87.5348155640617 505.46268951998223 -121.78106213774531 0.0 0.0
970.1772570189648 101.98896856695939 534.1363466034677 -116.34981991359871 0.0 0.0
1009.2579708437754 115.09156011688319 560.4921450446816 -110.08786236863996 0.0 0.0
1047.7976785879516 128.9343396203386 586.7620815283136 -102.37610608320821 0.0 0.0
1092.6638422840622 149.1118416680127 619.1478350633362 -88.64104716363317 0.0 0.0
1141.9086026344262 175.21599537153207 656.5472759753428 -63.90881752548733 0.0 0.0
1141.9086026339771 175.21599537112598 656.547275975033 63.9088175256486 0.0 0.0
1092.6638422846165 149.1118416686977 619.147835063666 88.64104716384892 0.0 0.0
1047.797678587064 128.93433961949023 586.7620815276771 102.37610608322359 0.0 0.0
1009.257970842506 115.09156011573293 560.4921450437402 110.08786236882288 0.0 0.0
970.1772570183841 101.98896856647636 534.1363466030025 116.34981991360583 0.0 0.0
927.8355013807666 87.53481556336826 505.46268951949554 121.78106213767697 0.0 0.0
885.464929402355 74.35418666634868 477.37206596879753 125.96742107172393 0.0 0.0
842.3221308431866 61.63721656018569 448.92605850082583 129.2201116273137 0.0 0.0
796.8797477058297 49.13410311133063 419.15320667909657 132.15862955482004 0.0 0.0
747.7225473819956 36.77403097252434 386.92320277786206 135.10785555764318 0.0 0.0
694.0278626165193 25.499976737008197 351.00119754047296 137.5826048243712 0.0 0.0
630.4652643178276 12.96145392344522 304.1121484499435 139.3643117445029 0.0 0.0
551.3955514254064 -0.30870468524652495 239.9955256804322 142.35711490877384 0.0 0.0
450.87235174179085 -11.804777977484957 163.93552209689236 151.29655229023146 0.0 0.0
337.70090600323266 -13.083409694698975 103.3298398816648 160.2813614488536 0.0 0.0
242.36860890050136 0.19324760349873582 73.20670913888758 153.0645892654453 0.0 0.0
164.61733330795582 13.88934932871768 53.54888121331585 143.64485081339814 0.0 0.0
86.038105829328 13.08513172490049 29.736971266268547 148.31303321538164 0.0 0.0
15.978913334448457 -44.174464381815625 -8.458721897435543 171.51924176196908 0.0 0.0
-2.3590643276034626 -448.1795423826645 -182.937310216233 164.61645491275044 0.0 0.0
2.7261850493743864 -405.6780147447753 -150.1098035915569 -162.04605639279708 0.0 0.0
2.1871913048355323 -43.95276811105995 -12.529043883320341 -182.4864318993489 0.0 0.0
48.79592727212486 8.10117887947485 17.068728774232365 -165.63436542824886 0.0 0.0
109.73026853146857 15.06847512336218 37.4392281533127 -161.32832051036223 0.0 0.0
172.20480734341618 3.442183440379515 52.957044608615796 -171.5377714778273 0.0 0.0
246.47494503944438 -6.540263740446611 74.38075295982799 -183.55609315231328 0.0 0.0
352.2930947224211 -10.030390207309942 117.15969603816093 -183.55121723402854 0.0 0.0
466.65225764194554 -2.1090201405775457 185.53207697679744 -170.83142327320735 0.0 0.0
557.4041902107838 8.628445221762881 253.94378065578886 -161.62046153842113 0.0 0.0
624.4131760530688 18.9020777912595 306.3386005813693 -156.42251825464086 0.0 0.0
677.3073386305155 26.842293534630485 343.5363755936667 -152.7683516499984 0.0 0.0
722.2093804207612 35.46070012773658 373.37229640745704 -149.16028752143401 0.0 0.0
762.5572376720065 43.916824782852096 399.35007166972304 -145.82919066014847 0.0 0.0
799.6694407431858 51.587730183731836 422.65263890032793 -142.47690308311996 0.0 0.0
835.7059635140273 59.09587951087728 444.93308879129444 -138.41434492566762 0.0 0.0
872.4850528823374 67.83359446649102 467.9821798093972 -132.64655972089943 0.0 0.0
907.7482675387571 75.96051887595819 490.0443394975379 -125.47637022512042 0.0 0.0
935.7253707162989 78.21774697146112 505.4933825559786 -117.82138066776388 0.0 0.0
970.5211107296753 85.04147098986434 526.0964401112402 -105.23151034679334 0.0 0.0
1026.4953018298702 110.3076739304855 566.1621578768608 -79.51703118464927 0.0 0.0
1026.495301829193 110.30767392982261 566.1621578764075 79.51703118474231 0.0 0.0
970.5211107287893 85.04147098903081 526.0964401106802 105.23151034695235 0.0 0.0
935.7253707160488 78.21774697128546 505.4933825557481 117.82138066794676 0.0 0.0
907.7482675394772 75.96051887705596 490.0443394980523 125.4763702255166 0.0 0.0
872.4850528822967 67.83359446664531 467.98217980931116 132.6465597210702 0.0 0.0
835.7059635133279 59.095879510286835 444.93308879066797 138.4143449257122 0.0 0.0
799.6694407437948 51.5877301845932 422.65263890065773 142.47690308323635 0.0 0.0
762.5572376717894 43.9168247828122 399.35007166954944 145.82919066021435 0.0 0.0
722.2093804203107 35.4607001273352 373.37229640709893 149.16028752131842 0.0 0.0
677.3073386301401 26.842293534596138 343.53637559342155 152.7683516501402 0.0 0.0
624.4131760528035 18.90207779113929 306.33860058109485 156.42251825454807 0.0 0.0
557.4041902102371 8.628445221413777 253.9437806553611 161.62046153836252 0.0 0.0
466.6522576418167 -2.1090201401463275 185.53207697671704 170.83142327330825 0.0 0.0
352.2930947218303 -10.030390207630605 117.1596960377955 183.5512172338843 0.0 0.0
246.47494503899446 -6.540263740847949 74.3807529595621 183.556093152033 0.0 0.0
172.2048073432627 3.4421834403975593 52.957044608577746 171.53777147762355 0.0 0.0
109.73026853132413 15.068475123119692 37.43922815320001 161.32832051022513 0.0 0.0
48.795927271968836 8.10117887929955 17.068728774133483 165.6343654280431 0.0 0.0
2.187191304890437 -43.952768110916296 -12.529043883262156 182.48643189918442 0.0 0.0
2.7261850492682953 -405.6780147445572 -150.1098035913899 162.04605639269778 0.0 0.0
3.292052352366696 -359.2006477129901 -121.21337496715005 -158.62889136535432 0.0 0.0
-14.292364145064163 -45.591531473233836 -17.96411883521518 -188.06077357976804 0.0 0.0
13.866206188150892 5.175876114071181 5.7123288488096415 -177.74372764333629 0.0 0.0
56.376459458991036 16.162622307483964 21.762514882190974 -174.85122156032133 0.0 0.0
100.02368458898191 7.050272585090038 32.293791565249926 -185.3334038447296 0.0 0.0
148.852694254206 -1.7341226384013404 45.23854436427217 -201.0465674848643 0.0 0.0
223.70724816160828 -4.2270886429746435 70.634860317215 -210.3768430507485 0.0 0.0
333.474743279165 -1.8858196715921647 117.47357160969702 -204.2929220952399 0.0 0.0
441.82905215779255 4.752972926946743 179.3735631970703 -189.03061264273597 0.0 0.0
519.5410773587259 11.076941420889014 235.1802819391655 -177.0862335237539 0.0 0.0
574.3540357115522 17.035788503108634 277.3636962381712 -170.38790806844878 0.0 0.0
616.1998130039402 21.440558812641008 307.62493146198665 -165.8037921215365 0.0 0.0
651.6960780659429 26.204241836872853 332.00867903978286 -161.89511754342985 0.0 0.0
682.6197287335532 29.44117387590427 351.62337139138265 -158.294308487682 0.0 0.0
711.382930645924 31.212421125863102 368.2948102702456 -154.41995405156896 0.0 0.0
741.2013248004897 33.003888009409096 384.7544956774837 -149.1403702535225 0.0 0.0
774.7945739223802 36.60342422590827 403.6431398109852 -141.06571464105002 0.0 0.0
802.2740908949684 34.57192771680923 417.06210608354826 -131.88375234533703 0.0 0.0
817.2730883556533 17.12476224346321 416.0202019966097 -122.29633071650866 0.0 0.0
877.1712299762671 34.39807634456781 453.23414328295803 -101.22303716470873 0.0 0.0
877.1712299764984 34.39807634477455 453.23414328314084 101.22303716487909 0.0 0.0
817.2730883561461 17.12476224428366 416.0202019970028 122.29633071691865 0.0 0.0
802.2740908952035 34.57192771727432 417.06210608370253 131.8837523456611 0.0 0.0
774.7945739220866 36.60342422571719 403.6431398107535 141.06571464118727 0.0 0.0
741.2013248006999 33.00388800985701 384.7544956777549 149.14037025363112 0.0 0.0
711.3829306460846 31.212421126144335 368.29481027042993 154.41995405158121 0.0 0.0
682.6197287335149 29.441173875959493 351.62337139130295 158.29430848766265 0.0 0.0
651.6960780658421 26.204241836917944 332.0086790397008 161.89511754353083 0.0 0.0
616.1998130035805 21.440558812329158 307.6249314616749 165.80379212147562 0.0 0.0
574.3540357120089 17.03578850408242 277.36369623848987 170.3879080686362 0.0 0.0
519.541077359745 11.076941422415281 235.18028193975655 177.0862335238063 0.0 0.0
441.82905215742363 4.7529729271617285 179.373563196919 189.03061264287703 0.0 0.0
333.4747432784231 -1.8858196720393785 117.47357160926245 204.29292209525642 0.0 0.0
223.707248161362 -4.227088642715134 70.63486031718796 210.37684305063524 0.0 0.0
148.8526942543172 -1.7341226377753047 45.23854436449247 201.04656748463083 0.0 0.0
100.02368458909515 7.050272585531204 32.293791565417145 185.333403844492 0.0 0.0
56.376459458957626 16.162622307333212 21.76251488213921 174.85122156011425 0.0 0.0
13.866206188082558 5.175876113968618 5.712328848758493 177.74372764319668 0.0 0.0
-14.292364145036283 -45.59153147312175 -17.96411883517473 188.06077357968582 0.0 0.0
3.2920523523117247 -359.2006477126802 -121.21337496699451 158.6288913652576 0.0 0.0
-1.915111876835855 -309.5797431798101 -97.78613020684767 -151.95712260699528 0.0 0.0
-33.26498221039341 -49.312497328838944 -24.771344087871814 -190.66178543107006 0.0 0.0
-19.47005793653382 4.224001514349412 -4.57474126584606 -185.20230845874 0.0 0.0
4.501001568048746 17.12052567932564 6.490232372406679 -183.60776135392155 0.0 0.0
27.383411297853442 11.039219754990352 11.583472400213092 -193.57877733286955 0.0 0.0
47.98562834267703 2.856331827087984 15.61135536733939 -210.85219189724245 0.0 0.0
74.72924220068579 -0.5089627707441196 23.488070736816923 -225.91895215047947 0.0 0.0
121.33075234405688 0.5810891237880416 39.79535209577552 -230.16123135721162 0.0 0.0
195.1993876562436 4.2078827459651365 67.9007859533164 -219.489377925466 0.0 0.0
272.5743925079408 6.26008237270284 102.33941284095937 -203.77539488215726 0.0 0.0
337.6930297776797 8.59292080418571 139.2168213886484 -190.98195640268514 0.0 0.0
384.69121179944506 8.62166385771981 170.2060245658826 -183.08176625456676 0.0 0.0
416.8758454629467 9.411177005948076 194.8001539545835 -177.16789772248887 0.0 0.0
441.60946980461864 7.988082397985465 213.54966675346094 -172.61418506161584 0.0 0.0
464.31403408319034 4.171779815859679 228.2824103502346 -168.61527824695068 0.0 0.0
491.3567174963382 -1.6638663642653455 241.92306270880874 -164.32566862354648 0.0 0.0
527.9543439798356 -6.224679343237 258.92051316899676 -157.53653103047807 0.0 0.0
574.8484882774724 -6.613731746134107 282.4443824537542 -146.29845161702048 0.0 0.0
600.0780568987915 -32.55357475234703 283.93400216279895 -134.3604958992843 0.0 0.0
631.1537054749293 -73.42161232817864 276.34374414158896 -128.38117699883674 0.0 0.0
631.1537054743933 -73.42161232877135 276.34374414123096 128.38117699898623 0.0 0.0
600.0780568985089 -32.553574752673285 283.93400216263456 134.36049589957258 0.0 0.0
574.8484882785789 -6.61373174437864 282.44438245463965 146.29845161750913 0.0 0.0
527.9543439786117 -6.224679344625855 258.92051316818106 157.53653103056217 0.0 0.0
491.3567174964124 -1.6638663643887242 241.92306270869224 164.32566862343992 0.0 0.0
464.314034083425 4.171779816330513 228.28241035041805 168.61527824707088 0.0 0.0
441.6094698046801 7.988082398084757 213.54966675352185 172.61418506171114 0.0 0.0
416.87584546269096 9.411177005380438 194.80015395431118 177.16789772249982 0.0 0.0
384.691211799631 8.621663857954417 170.20602456594804 183.0817662545791 0.0 0.0
337.6930297776764 8.592920804399405 139.21682138866007 190.98195640271493 0.0 0.0
272.57439250707466 6.26008237108951 102.33941284017754 203.77539488199113 0.0 0.0
195.19938765589163 4.207882745736104 67.90078595310635 219.48937792549975 0.0 0.0
121.33075234385298 0.581089123692351 39.79535209567263 230.1612313571952 0.0 0.0
74.72924220026623 -0.5089627714692497 23.488070736476683 225.91895215029666 0.0 0.0
47.98562834272461 2.856331827104821 15.611355367358247 210.85219189713936 0.0 0.0
27.383411298057215 11.039219755395123 11.583472400395584 193.5787773326785 0.0 0.0
4.501001568094458 17.120525679439723 6.490232372455053 183.60776135367422 0.0 0.0
-19.470057936442906 4.224001514418976 -4.574741265798366 185.2023084584681 0.0 0.0
-33.26498221052256 -49.312497328954 -24.771344087946794 190.66178543085556 0.0 0.0
-1.9151118768685222 -309.5797431795344 -97.78613020674644 151.9571226067878 0.0 0.0
-13.921825497387832 -259.87871595681327 -82.48086573861985 -141.4247667009405 0.0 0.0
-51.22878387622647 -51.91464380852618 -30.94450622471592 -190.68609942422597 0.0 0.0
-51.659141360910795 3.910604497493144 -14.335488711572813 -188.57511403528312 0.0 0.0
-45.8220006846411 17.952661776644085 -8.382476816006244 -187.42248040261546 0.0 0.0
-44.3943520562895 14.943531006381752 -8.911784114358287 -195.76955487876904 0.0 0.0
-53.85317913083564 7.519368277070683 -14.290147143162574 -211.82455778239486 0.0 0.0
-77.00358884145255 2.638370263154287 -23.57640213925268 -226.02388380950782 0.0 0.0
-122.03041073876437 -0.1792819776067418 -39.901435414058206 -230.32635209002473 0.0 0.0
-195.03137977942077 -4.042579171447777 -67.79454835867641 -219.55595973464835 0.0 0.0
-272.3399702392138 -6.083197286768371 -102.19872630995117 -203.75347568733574 0.0 0.0
-337.8678398612434 -7.380974544088275 -138.75079555591492 -190.87400288234412 0.0 0.0
-386.15467593440565 -6.9932776388211835 -170.19062287812818 -182.63301513125217 0.0 0.0
-421.05672547477906 -8.92131733843658 -196.3719698739789 -176.64078685197998 0.0 0.0
-447.9995281027658 -13.541440428809935 -218.87560770800985 -172.88554984199328 0.0 0.0
-466.7333680272462 -21.86698022533963 -238.38146692359194 -171.32419645427424 0.0 0.0
-474.58342372158035 -33.150646263268015 -254.07030306113677 -171.54204083309938 0.0 0.0
-462.33275655340583 -45.081532903927695 -262.30212674743484 -172.11250934787557 0.0 0.0
-400.740436383754 -40.39445787841444 -247.5733323563146 -172.13606326041963 0.0 0.0
-218.14252872271084 -35.84462916058388 -184.5635627525983 -174.89652521528348 0.0 0.0
-7.2018791031409535 -175.36518449538224 -68.00672851715797 -159.44396566639176 0.0 0.0
-7.201879102968178 -175.36518449513287 -68.00672851705565 159.44396566670287 0.0 0.0
-218.14252872313818 -35.84462916128399 -184.56356275299743 174.89652521582678 0.0 0.0
-400.7404363834483 -40.39445787797132 -247.57333235609127 172.13606326066378 0.0 0.0
-462.33275655304345 -45.08153290353752 -262.30212674715983 172.11250934794373 0.0 0.0
-474.5834237211358 -33.150646263009634 -254.07030306082825 171.54204083312308 0.0 0.0
-466.73336802714226 -21.86698022548231 -238.38146692352512 171.32419645433407 0.0 0.0
-447.9995281025592 -13.541440428894191 -218.87560770786965 172.88554984196597 0.0 0.0
-421.0567254735902 -8.921317337347787 -196.3719698732046 176.64078685197777 0.0 0.0
-386.15467593322694 -6.993277637707678 -170.19062287731194 182.6330151312172 0.0 0.0
-337.8678398605395 -7.380974544213032 -138.75079555559248 190.87400288233712 0.0 0.0
-272.3399702380909 -6.083197285915702 -102.19872630927603 203.75347568720616 0.0 0.0
-195.03137977842908 -4.0425791705313685 -67.79454835805876 219.55595973472867 0.0 0.0
-122.03041073841446 -0.17928197762317488 -39.901435413947624 230.32635209006176 0.0 0.0
-77.00358884119304 2.638370263228862 -23.57640213914269 226.02388380932308 0.0 0.0
-53.85317913052741 7.5193682772958805 -14.290147143002132 211.82455778221373 0.0 0.0
-44.394352056235995 14.943531006307092 -8.911784114364881 195.76955487852177 0.0 0.0
-45.822000684807925 17.952661776342264 -8.382476816148223 187.42248040243263 0.0 0.0
-51.659141360924195 3.910604497348535 -14.335488711622986 188.57511403508352 0.0 0.0
-51.22878387630224 -51.91464380860834 -30.944506224766176 190.6860994241161 0.0 0.0
-13.921825497492682 -259.87871595664853 -82.48086573861997 141.4247667007553 0.0 0.0
-24.023007954766257 -212.34076445081232 -70.90597410370522 -128.3795891882299 0.0 0.0
-66.27845839889326 -51.56857920032437 -35.357187928868655 -187.01160057917042 0.0 0.0
-82.51143515280351 3.477636121793767 -23.734470315982463 -188.02270719794012 0.0 0.0
-94.54686939627288 18.594003051666057 -22.83238681383583 -186.40506174341178 0.0 0.0
-114.59360447909971 18.000861620441626 -29.263535195928768 -191.62234854523547 0.0 0.0
-153.68753154688636 11.624533787859585 -43.90015113885065 -203.40589793647396 0.0 0.0
-225.23958936091952 6.274479813973339 -70.6371904059773 -211.33361208508487 0.0 0.0
-333.2873309446494 2.1900811995813427 -117.43409511500492 -204.69827383847982 0.0 0.0
-441.4845199110877 -4.633951292564959 -179.21275408448898 -189.17591758716927 0.0 0.0
-519.2395449650853 -10.766654520641985 -234.9329866860652 -177.05116172364552 0.0 0.0
-573.9520365120896 -16.12205862454951 -276.8182129107602 -170.1438595385225 0.0 0.0
-616.153837754566 -19.98747510072819 -306.962955107178 -165.0798749015063 0.0 0.0
-653.2016254757965 -25.73810906075265 -332.4175296838354 -160.79812435424705 0.0 0.0
-687.5305991004998 -34.07987314477715 -356.0276668661335 -158.13039038827037 0.0 0.0
-720.2363264289611 -46.35319361052345 -379.87466516694514 -157.8952056785823 0.0 0.0
-749.6180967772128 -61.8735045035632 -403.3754151381382 -160.14612777094484 0.0 0.0
-770.7848984445045 -77.64935609906436 -423.00206744767456 -165.24776517512305 0.0 0.0
-779.7538171734434 -90.9956059444821 -435.32993582828834 -173.30482170015296 0.0 0.0
-814.814562968309 -145.2776904616573 -481.0918913274816 -182.3540279519639 0.0 0.0
-817.7915686784163 -231.29752627083076 -527.3301595446706 -201.3023053780923 0.0 0.0
-817.7915686787246 -231.29752627116062 -527.3301595449643 201.3023053784029 0.0 0.0
-814.8145629684607 -145.277690462229 -481.0918913277572 182.3540279523857 0.0 0.0
-779.7538171732253 -90.99560594445737 -435.32993582818574 173.3048217004058 0.0 0.0
-770.7848984437521 -77.64935609846034 -423.00206744715734 165.2477651752027 0.0 0.0
-749.6180967761711 -61.87350450251992 -403.37541513752114 160.14612777080825 0.0 0.0
-720.2363264288401 -46.353193610434914 -379.87466516688227 157.8952056786109 0.0 0.0
-687.530599100473 -34.07987314482813 -356.0276668661347 158.13039038813213 0.0 0.0
-653.201625475955 -25.73810906116846 -332.41752968392586 160.798124354382 0.0 0.0
-616.1538377546514 -19.98747510131782 -306.96295510726407 165.07987490168017 0.0 0.0
-573.9520365115224 -16.122058624150206 -276.8182129103131 170.14385953833226 0.0 0.0
-519.2395449644631 -10.766654520067494 -234.93298668551265 177.05116172342088 0.0 0.0
-441.48451991045755 -4.6339512924500355 -179.21275408409667 189.175917587242 0.0 0.0
-333.2873309442165 2.1900811994843448 -117.43409511478575 204.69827383852217 0.0 0.0
-225.23958936037587 6.27447981395877 -70.63719040578471 211.333612084986 0.0 0.0
-153.6875315465553 11.624533787772823 -43.900151138775755 203.4058979362563 0.0 0.0
-114.59360447909339 18.000861620178455 -29.26353519600496 191.62234854501628 0.0 0.0
-94.54686939614444 18.594003051827688 -22.83238681375118 186.40506174324491 0.0 0.0
-82.51143515285918 3.4776361215536005 -23.73447031607522 188.02270719781538 0.0 0.0
-66.27845839891881 -51.56857920041159 -35.357187928908544 187.01160057893242 0.0 0.0
-24.02300795477256 -212.34076445065838 -70.90597410366291 128.3795891879953 0.0 0.0
-27.798657775689488 -167.8232543625328 -58.68657364146668 -113.91008387980392 0.0 0.0
-78.69514279750724 -48.74582928612033 -38.23035743126609 -179.3288352884756 0.0 0.0
-111.68056535071626 3.0253627879219396 -32.61092355339356 -183.38174331145046 0.0 0.0
-141.54615410798854 18.720204835027086 -36.92790916631511 -180.4169876758751 0.0 0.0
-182.6835674102456 19.739571161309687 -49.44447724233193 -181.6959384241236 0.0 0.0
-248.9649860953411 15.445692701568529 -72.97244329016937 -187.14107386010494 0.0 0.0
-351.79564244201214 11.748556309296026 -116.85542363736619 -184.82840680662775 0.0 0.0
-465.9270255237965 2.412073941933471 -185.2177050135807 -171.38769175573105 0.0 0.0
-557.1773897447149 -8.55153579654624 -253.80931073861683 -161.67125092844367 0.0 0.0
-624.2086999854891 -18.67516165980426 -306.1658782456248 -156.39668746245908 0.0 0.0
-676.9959131318227 -26.18322289615395 -343.10791748844633 -152.5351786196199 0.0 0.0
-722.0190861488975 -34.28061968065174 -372.71482113317325 -148.32062375485182 0.0 0.0
-763.4505181859794 -43.31257720726745 -399.4073291739609 -144.32116745908948 0.0 0.0
-803.5522529803305 -54.936445160402656 -426.019937759056 -141.57879374985282 0.0 0.0
-843.8805267524219 -71.03055881132838 -454.6820239618942 -141.35447281696946 0.0 0.0
-882.6107612967919 -90.99288900183961 -484.47632272551925 -144.31601391968908 0.0 0.0
-916.9477149443774 -112.55382357996751 -512.8925381342603 -150.22590096408624 0.0 0.0
-955.5264351124143 -145.7309299541408 -549.1882993115672 -156.73372736409584 0.0 0.0
-998.4347996958572 -194.8270876983185 -595.5460691569758 -162.69175099364088 0.0 0.0
-1093.041820361434 -328.2740313948522 -708.644630948045 -170.83151929065951 0.0 0.0
-1093.0418203609756 -328.2740313943983 -708.6446309477537 170.83151929069777 0.0 0.0
-998.4347996950594 -194.827087697556 -595.5460691564331 162.69175099385984 0.0 0.0
-955.5264351119183 -145.730929953977 -549.1882993112837 156.73372736439666 0.0 0.0
-916.9477149437375 -112.55382357936517 -512.8925381337359 150.22590096408106 0.0 0.0
-882.610761296967 -90.99288900229223 -484.47632272551544 144.31601391980692 0.0 0.0
-843.8805267527049 -71.03055881180144 -454.68202396201366 141.35447281698978 0.0 0.0
-803.552252980005 -54.93644516021669 -426.01993775882937 141.57879374983168 0.0 0.0
-763.4505181850319 -43.312577206451266 -399.40732917338056 144.3211674590542 0.0 0.0
-722.0190861477363 -34.28061967968315 -372.71482113240785 148.32062375487027 0.0 0.0
-676.9959131311688 -26.183222895781434 -343.10791748801137 152.5351786196682 0.0 0.0
-624.2086999852202 -18.675161659907047 -306.1658782454453 156.39668746246758 0.0 0.0
-557.1773897447135 -8.551535796967782 -253.809310738551 161.67125092842377 0.0 0.0
-465.9270255235478 2.4120739416966246 -185.2177050133634 171.38769175577502 0.0 0.0
-351.7956424414215 11.748556309242616 -116.85542363709148 184.82840680664324 0.0 0.0
-248.96498609479698 15.445692701836457 -72.97244328990584 187.1410738598478 0.0 0.0
-182.68356741008478 19.739571161207685 -49.44447724231443 181.69593842404652 0.0 0.0
-141.5461541076828 18.720204835345015 -36.92790916613382 180.41698767571546 0.0 0.0
-111.68056535054477 3.0253627881124148 -32.61092355329065 183.3817433112369 0.0 0.0
-78.69514279741628 -48.74582928596005 -38.23035743119123 179.32883528835893 0.0 0.0
-27.79865777563898 -167.82325436232242 -58.686573641388414 113.91008387970999 0.0 0.0
-29.185030608145226 -127.27530382071258 -46.93810032865733 -98.85943536779124 0.0 0.0
-89.05292710592677 -43.698558894619055 -39.82491876888806 -167.29623579352284 0.0 0.0
-138.9950560884647 2.5365366751081666 -40.94247461187477 -174.46828708331302 0.0 0.0
-186.68024424766654 17.81797063016207 -50.790928789184335 -169.64782243665059 0.0 0.0
-247.50495082014123 20.71628314039976 -68.9563004852239 -166.54507764862177 0.0 0.0
-336.3193499887405 20.026841569276932 -101.9580991232281 -164.39491613363663 0.0 0.0
-449.13281504374606 13.555947322155887 -162.9742622236337 -152.96823053295756 0.0 0.0
-550.9282332457926 0.46681858191413994 -239.69434099719712 -142.63278701610605 0.0 0.0
-630.4060685767911 -12.974595138104135 -304.0919940405294 -139.35993930242606 0.0 0.0
-693.9064383723274 -25.356346330718395 -350.8952504072869 -137.5682117523449 0.0 0.0
-747.5825967924259 -36.37932257022989 -386.67633134885375 -134.88714360427466 0.0 0.0
-796.821113459161 -48.36994759155492 -418.7512397858193 -131.28614586330653 0.0 0.0
-842.7245318577195 -60.902079925487556 -448.72123998976906 -127.48387146878538 0.0 0.0
-887.4973492526663 -75.83354205860044 -478.99526095233375 -124.56728375252504 0.0 0.0
-932.9706584076915 -95.12479381727769 -511.61948619982996 -124.22214960655768 0.0 0.0
-979.9765786310791 -120.4215714303478 -548.0019711941449 -127.31299555122298 0.0 0.0
-1029.3617177750123 -153.4600197373679 -589.4620213231584 -132.81070580226043 0.0 0.0
-1082.8662978901668 -197.1471098101987 -638.2695050786322 -138.03996792819478 0.0 0.0
-1153.159961467277 -267.82756811302613 -708.6165250831414 -139.7368550236966 0.0 0.0
-1248.4844384294342 -391.92097610189956 -818.1272684218476 -142.49811422903005 0.0 0.0
-1248.4844384297958 -391.92097610238704 -818.1272684221194 142.49811422925896 0.0 0.0
-1153.1599614674783 -267.8275681134653 -708.6165250832701 139.73685502410467 0.0 0.0
-1082.8662978907078 -197.1471098110183 -638.2695050789382 138.03996792851768 0.0 0.0
-1029.3617177740664 -153.4600197364147 -589.4620213224905 132.81070580217695 0.0 0.0
-979.9765786308019 -120.42157143020594 -548.0019711939849 127.31299555123184 0.0 0.0
-932.9706584075951 -95.12479381724557 -511.61948619979046 124.22214960649305 0.0 0.0
-887.4973492525723 -75.83354205879887 -478.995260952305 124.56728375268122 0.0 0.0
-842.7245318568168 -60.90207992473321 -448.72123998914367 127.48387146871632 0.0 0.0
-796.8211134591959 -48.36994759175163 -418.75123978579717 131.28614586321086 0.0 0.0
-747.5825967919067 -36.37932256993691 -386.67633134853224 134.887143604213 0.0 0.0
-693.9064383716825 -25.356346330234572 -350.8952504068245 137.56821175217758 0.0 0.0
-630.4060685766688 -12.974595138345407 -304.0919940403974 139.359939302432 0.0 0.0
-550.9282332452403 0.466818582123139 -239.69434099674368 142.63278701608272 0.0 0.0
-449.1328150432957 13.555947322209224 -162.97426222327684 152.9682305328625 0.0 0.0
-336.3193499881039 20.026841569528088 -101.95809912290852 164.39491613351097 0.0 0.0
-247.50495081983513 20.716283140363288 -68.95630048515349 166.54507764848017 0.0 0.0
-186.68024424763738 17.817970629789084 -50.790928789291506 169.6478224365309 0.0 0.0
-138.9950560883745 2.536536675054849 -40.94247461187003 174.46828708318844 0.0 0.0
-89.05292710579342 -43.6985588945014 -39.82491876881294 167.29623579343536 0.0 0.0
-29.185030608072033 -127.27530382052757 -46.93810032857987 98.85943536768448 0.0 0.0
-30.01886093948767 -91.32867069569078 -36.40425949055353 -83.42735922911143 0.0 0.0
-98.23153727645293 -36.996981636747975 -40.56855567396026 -151.2630285834687 0.0 0.0
-164.55112135800962 2.130280736496694 -48.72616272037809 -161.08004630654793 0.0 0.0
-230.1564022858352 16.125768931445965 -64.30077937160961 -154.5645054628686 0.0 0.0
-308.9947108652519 21.9851052652008 -87.81336299655143 -147.186277175197 0.0 0.0
-412.6250252979799 22.428144266296474 -132.51641196736614 -136.15106502429532 0.0 0.0
-520.7668665656615 12.853016893617358 -205.69936871987287 -122.71324044765016 0.0 0.0
-610.8112123688379 -1.587977037258419 -281.3746067844335 -118.30870775768307 0.0 0.0
-684.184365048222 -16.789159439092032 -339.33372136044966 -118.81860423634294 0.0 0.0
-746.8984176463114 -31.223932135790918 -383.10290556247867 -118.7219286069658 0.0 0.0
-804.0133858188935 -46.31238546112266 -421.10979593632726 -116.81802815834601 0.0 0.0
-857.3938860144178 -62.32934222394104 -456.69311414443933 -113.69867477713287 0.0 0.0
-907.7018489447564 -78.8303403432036 -490.6324046186618 -110.2231895346533 0.0 0.0
-956.4245556995864 -96.63035148963465 -524.2130841088597 -107.30214622769874 0.0 0.0
-1006.8683944466914 -119.14492976458888 -560.833756495726 -106.56664290258088 0.0 0.0
-1062.3379672713604 -151.03053863542533 -604.60230964686 -109.05952712682374 0.0 0.0
-1125.009324445326 -194.6261363160694 -657.8597949563658 -113.96314371373674 0.0 0.0
-1196.7834454376143 -254.09745563730706 -723.5272618351682 -117.8510015482181 0.0 0.0
-1279.3008090418252 -336.0316489731034 -805.7131532350334 -118.494931762687 0.0 0.0
-1363.9914802274975 -447.16524260010016 -903.6819218558696 -122.30531744069549 0.0 0.0
-1363.9914802263152 -447.1652425989131 -903.6819218551177 122.30531744068882 0.0 0.0
-1279.3008090406906 -336.0316489719495 -805.7131532342994 118.49493176272084 0.0 0.0
-1196.7834454380843 -254.09745563798472 -723.5272618354886 117.8510015485513 0.0 0.0
-1125.0093244443176 -194.62613631514515 -657.859794955707 113.96314371371815 0.0 0.0
-1062.3379672704968 -151.0305386346066 -604.6023096461894 109.05952712674029 0.0 0.0
-1006.8683944465449 -119.14492976458834 -560.8337564955259 106.56664290259626 0.0 0.0
-956.4245556992599 -96.63035148953176 -524.213084108635 107.30214622783305 0.0 0.0
-907.7018489441916 -78.83034034280263 -490.6324046183125 110.22318953459745 0.0 0.0
-857.3938860145521 -62.329342224285945 -456.693114144526 113.69867477712339 0.0 0.0
-804.0133858181083 -46.3123854606791 -421.1097959358808 116.81802815847257 0.0 0.0
-746.8984176455187 -31.22393213511929 -383.1029055619132 118.72192860671551 0.0 0.0
-684.1843650480448 -16.789159439227156 -339.333721360312 118.81860423635152 0.0 0.0
-610.8112123689033 -1.5879770377664748 -281.37460678440914 118.30870775773414 0.0 0.0
-520.7668665654503 12.853016893364773 -205.6993687196238 122.71324044765777 0.0 0.0
-412.625025297892 22.42814426564218 -132.51641196738956 136.15106502432 0.0 0.0
-308.9947108649852 21.9851052651122 -87.81336299649352 147.1862771750802 0.0 0.0
-230.1564022854967 16.12576893166467 -64.30077937145211 154.56450546279052 0.0 0.0
-164.55112135781619 2.1302807366646594 -48.726162720274594 161.08004630642733 0.0 0.0
-98.23153727634616 -36.99698163672662 -40.568555673921836 151.26302858335342 0.0 0.0
-30.018860939415212 -91.32867069558574 -36.40425949050029 83.4273592290303 0.0 0.0
-30.775198521891205 -60.50112212256332 -27.382896193336354 -67.56809675513885 0.0 0.0
-106.6369730682816 -29.21730870242277 -40.756284531211314 -131.65790082291923 0.0 0.0
-188.61905734253207 1.6937564881933724 -56.07540315048112 -143.33928548810545 0.0 0.0
-270.89406209759727 13.745278340956489 -77.30897967744922 -135.11001350866735 0.0 0.0
-365.9678088361801 23.496872118354656 -106.67316276941087 -123.62281368556904 0.0 0.0
-475.8704787161593 22.224297051752306 -164.14381074161884 -106.47815298666994 0.0 0.0
-574.3495644704379 11.792033938629103 -242.5803637166279 -96.2136894824379 0.0 0.0
-655.6440406260579 -3.7626582264258843 -312.8033683984579 -96.20689712095181 0.0 0.0
-726.0010294752668 -19.476119186544977 -365.0172001524744 -98.63621390923372 0.0 0.0
-790.6965946418904 -36.891325732021144 -409.1785506608324 -99.39588408442125 0.0 0.0
-851.6399483266148 -56.00453587483591 -450.4137658361932 -98.03102276377128 0.0 0.0
-909.3142486106235 -76.22286446903124 -489.9953544964337 -95.4698402851854 0.0 0.0
-964.2277247692564 -96.85609777845698 -528.2053613364653 -92.58285241772178 0.0 0.0
-1016.9357646562378 -118.13410240970455 -565.4798669996092 -89.74215027391978 0.0 0.0
-1071.5607498072904 -143.6625132004994 -605.6448284301745 -88.31536375850325 0.0 0.0
-1134.968574629742 -181.24157668162823 -656.1263945379139 -89.79032371219148 0.0 0.0
-1210.4588246262483 -236.24772386094463 -721.3818487563789 -93.69868022885304 0.0 0.0
-1297.2175128806507 -309.84964132408095 -801.587006080102 -97.42831279541964 0.0 0.0
-1386.3798915153893 -398.6198880784261 -890.6006103123269 -99.86435172435442 0.0 0.0
-1464.7159070728076 -502.06096073355144 -981.6570043184965 -107.23196048331558 0.0 0.0
-1464.715907073094 -502.060960733866 -981.6570043187452 107.23196048338255 0.0 0.0
-1386.3798915143102 -398.61988807739885 -890.6006103115801 99.86435172444416 0.0 0.0
-1297.2175128806282 -309.84964132422135 -801.5870060800466 97.42831279572972 0.0 0.0
-1210.4588246251228 -236.2477238599615 -721.3818487556175 93.69868022895693 0.0 0.0
-1134.968574627805 -181.24157667975408 -656.1263945365716 89.79032371209361 0.0 0.0
-1071.5607498059935 -143.6625131993021 -605.6448284292592 88.31536375846188 0.0 0.0
-1016.9357646555374 -118.13410240919784 -565.4798669990796 89.74215027399804 0.0 0.0
-964.2277247691314 -96.85609777850935 -528.2053613363738 92.58285241767149 0.0 0.0
-909.3142486105139 -76.22286446913563 -489.9953544964224 95.46984028516897 0.0 0.0
-851.6399483263351 -56.00453587483341 -450.41376583604 98.03102276380929 0.0 0.0
-790.6965946421417 -36.89132573246225 -409.17855066097775 99.39588408420761 0.0 0.0
-726.0010294747929 -19.476119186388523 -365.01720015216887 98.6362139092902 0.0 0.0
-655.6440406249973 -3.7626582256018963 -312.80336839769154 96.2068971208374 0.0 0.0
-574.3495644696989 11.792033939121207 -242.5803637160271 96.21368948229909 0.0 0.0
-475.8704787155382 22.224297052046335 -164.14381074118063 106.47815298656721 0.0 0.0
-365.96780883599 23.49687211799556 -106.67316276942918 123.62281368552318 0.0 0.0
-270.8940620976698 13.74527834027317 -77.30897967768563 135.1100135085377 0.0 0.0
-188.6190573425564 1.6937564878980984 -56.07540315057784 143.33928548799383 0.0 0.0
-106.63697306812148 -29.217308702305342 -40.756284531128046 131.65790082277832 0.0 0.0
-30.77519852179953 -60.50112212247752 -27.382896193283113 67.5680967550022 0.0 0.0
-31.318556060791686 -35.26154878832045 -19.974031454733638 -51.22220435399133 0.0 0.0
-114.11327259721944 -20.908694863575892 -40.506590238238594 -108.8691324271875 0.0 0.0
-211.42825463057625 1.1314656282482094 -63.08852822093445 -121.24239931047086 0.0 0.0
-310.5725009785768 11.55901227396223 -89.91678231829349 -112.06598757383024 0.0 0.0
-419.86451374670696 23.98153322214457 -126.85599936679489 -96.37125472390387 0.0 0.0
-525.865836900868 21.132105241607167 -194.75375798342563 -78.26750658882055 0.0 0.0
-613.4149088225233 9.5785687421128 -273.0366869676769 -72.64972152082537 0.0 0.0
-690.0123231658042 -4.50435614936265 -335.47841965725274 -75.15153072574857 0.0 0.0
-760.6704346116608 -21.80153171367192 -385.4240506862527 -78.21478592444655 0.0 0.0
-828.0873992092866 -42.54449659816193 -431.45682491187097 -79.3746935808566 0.0 0.0
-892.7295609899495 -65.40158379661099 -476.0686946618144 -78.5122556957429 0.0 0.0
-954.9299692115137 -89.83994753229922 -519.8970222086004 -76.57706458564041 0.0 0.0
-1014.6194452500572 -115.01153478959966 -562.6841228868402 -74.34239084541605 0.0 0.0
-1072.5871937131947 -140.81346738030356 -604.8264955651553 -71.9196718390743 0.0 0.0
-1131.2856045162969 -169.52413958858818 -648.6232738959397 -69.78365174777784 0.0 0.0
-1198.9767068136334 -210.57139995853777 -702.9029788998697 -69.55573166670302 0.0 0.0
-1285.4336757747128 -274.99713308450106 -778.2534880030448 -72.45993399557472 0.0 0.0
-1385.0452025906566 -360.6901746088088 -870.940391221261 -77.18263692975286 0.0 0.0
-1483.1234767039782 -458.46678315924123 -968.9642644410733 -83.02430571469205 0.0 0.0
-1560.6435644440119 -560.1856191696753 -1058.8013151988998 -95.0570179705729 0.0 0.0
-1560.6435644441362 -560.1856191698378 -1058.8013151990044 95.05701797067925 0.0 0.0
-1483.1234767036685 -458.46678315900243 -968.9642644409082 83.02430571476826 0.0 0.0
-1385.0452025899422 -360.6901746081337 -870.9403912207385 77.1826369297295 0.0 0.0
-1285.433675774549 -274.9971330844845 -778.253488002892 72.45993399570735 0.0 0.0
-1198.9767068141618 -210.57139995916566 -702.9029789001896 69.55573166661779 0.0 0.0
-1131.2856045163016 -169.52413958872526 -648.623273895927 69.78365174773893 0.0 0.0
-1072.5871937128234 -140.8134673801128 -604.8264955648224 71.91967183915257 0.0 0.0
-1014.6194452495108 -115.01153478927323 -562.6841228864084 74.34239084547335 0.0 0.0
-954.9299692109088 -89.839947531925 -519.8970222081376 76.57706458565885 0.0 0.0
-892.7295609894065 -65.40158379632967 -476.0686946614185 78.51225569573461 0.0 0.0
-828.0873992091886 -42.544496598271365 -431.45682491171505 79.37469358065412 0.0 0.0
-760.6704346112564 -21.80153171356116 -385.4240506859825 78.2147859244762 0.0 0.0
-690.0123231650132 -4.504356148842817 -335.4784196566861 75.15153072569639 0.0 0.0
-613.414908821841 9.578568742492141 -273.0366869671412 72.6497215207284 0.0 0.0
-525.8658369006722 21.132105241393564 -194.75375798320954 78.26750658875807 0.0 0.0
-419.86451374641314 23.981533221947757 -126.8559993666974 96.37125472384818 0.0 0.0
-310.5725009784331 11.559012273676899 -89.91678231834963 112.06598757374195 0.0 0.0
-211.4282546305277 1.1314656280587054 -63.088528220977366 121.24239931040012 0.0 0.0
-114.11327259718153 -20.90869486369385 -40.50659023826262 108.86913242714479 0.0 0.0
-31.31855606075539 -35.261548788292686 -19.97403145471442 51.22220435389312 0.0 0.0
-31.0248664158442 -16.055504013042693 -14.124111128666067 -34.51205931828896 0.0 0.0
-119.82047431251783 -12.5294599978095 -39.7049802930982 -83.11001704651112 0.0 0.0
-233.32756994799158 0.1439724243157645 -69.95507925710274 -94.71544785540823 0.0 0.0
-349.957825909523 10.730090036504652 -102.13832217637875 -85.4192176551482 0.0 0.0
-467.23206861421374 23.34292314278183 -148.4734981288928 -67.14333887509386 0.0 0.0
-564.9863860755809 18.59921084263643 -223.94128013289787 -53.08022574149844 0.0 0.0
-644.7294411774849 8.104105657311308 -297.26385327593664 -51.19826812823235 0.0 0.0
-718.027442922876 -4.765141021565611 -352.83162469429965 -54.167396714537105 0.0 0.0
-789.8348804508825 -24.21369213180013 -402.3536645172954 -57.293466555925626 0.0 0.0
-860.1646684892562 -47.99411278196769 -450.7188285478976 -58.65897686140576 0.0 0.0
-928.7675203446129 -74.57493513230358 -498.97196505205136 -58.258527086561195 0.0 0.0
-995.3250833446231 -103.12257300267112 -546.9527334205244 -56.93892622198422 0.0 0.0
-1060.3983040480814 -133.0113189998691 -594.72941124557 -55.44173279116865 0.0 0.0
-1124.2062763362133 -164.5138679988524 -642.6005123687021 -53.590520786005406 0.0 0.0
-1188.2120582700177 -198.226128393828 -691.5753961707849 -51.20298975773908 0.0 0.0
-1257.9491028656798 -240.29863489314488 -747.4165003997508 -49.23573733933209 0.0 0.0
-1345.631730245325 -304.9879895766157 -823.4068181490271 -50.47443027129408 0.0 0.0
-1460.387333801121 -404.851768756208 -930.6909279547514 -56.47982371005263 0.0 0.0
-1572.9381625536134 -516.3025731451062 -1042.8492932796298 -66.78925128699125 0.0 0.0
-1660.1569747768954 -626.1061434275498 -1141.6036104135644 -84.40289833230803 0.0 0.0
-1660.15697477691 -626.1061434276647 -1141.6036104136092 84.40289833255837 0.0 0.0
-1572.9381625535252 -516.302573145108 -1042.8492932795339 66.7892512871941 0.0 0.0
-1460.3873338009867 -404.85176875617265 -930.6909279545371 56.47982371016495 0.0 0.0
-1345.6317302450086 -304.98798957640753 -823.4068181486779 50.47443027135566 0.0 0.0
-1257.949102865343 -240.29863489293678 -747.4165003994028 49.23573733933836 0.0 0.0
-1188.2120582700045 -198.22612839397584 -691.5753961706595 51.2029897578326 0.0 0.0
-1124.2062763368158 -164.5138679996095 -642.600512369002 53.59052078589848 0.0 0.0
-1060.3983040483513 -133.01131900037802 -594.7294112457348 55.44173279137771 0.0 0.0
-995.3250833436746 -103.12257300194872 -546.952733419931 56.938926221992205 0.0 0.0
-928.7675203446499 -74.57493513259233 -498.9719650520632 58.25852708650522 0.0 0.0
-860.1646684887694 -47.99411278175751 -450.71882854758303 58.65897686145686 0.0 0.0
-789.8348804504299 -24.213692131646496 -402.35366451702555 57.29346655593619 0.0 0.0
-718.0274429227559 -4.765141021736561 -352.831624694198 54.16739671446831 0.0 0.0
-644.7294411770104 8.104105657441785 -297.26385327556164 51.19826812823143 0.0 0.0
-564.9863860751102 18.599210842752196 -223.94128013249528 53.0802257415676 0.0 0.0
-467.2320686138156 23.3429231427643 -148.4734981286768 67.14333887509054 0.0 0.0
-349.9578259089207 10.730090036911442 -102.13832217610066 85.4192176550982 0.0 0.0
-233.32756994778077 0.1439724246013241 -69.95507925695382 94.71544785544239 0.0 0.0
-119.82047431238095 -12.529459997714227 -39.70498029302855 83.11001704647697 0.0 0.0
-31.024866415899048 -16.05550401305324 -14.124111128685685 34.51205931816513 0.0 0.0
-28.592242740385842 -3.254783097582046 -9.554107751390365 -17.954255025064683 0.0 0.0
-122.04658813204264 -4.678305917907929 -38.017468214985165 -54.34624031438804 0.0 0.0
-254.69567418194026 -1.146813505033558 -76.75274630609213 -63.250341766172795 0.0 0.0
-390.8640137854978 11.288242234308594 -114.82325104721266 -55.26649789646547 0.0 0.0
-506.4615598938914 22.276924473204904 -170.86947773808959 -38.91437212805194 0.0 0.0
-593.5877728568046 14.833512522197843 -250.17605173229788 -30.42316121211662 0.0 0.0
-669.1303215681816 8.056730269385085 -315.09605392149786 -30.65960925257412 0.0 0.0
-741.3555316486502 -5.624121547049327 -366.99904363996336 -33.20863878068353 0.0 0.0
-814.1385738393126 -26.46858316849483 -416.3807511656292 -35.842606373273085 0.0 0.0
-887.5849857284647 -53.20438514088352 -467.39679537731024 -37.203564031492036 0.0 0.0
-960.2960932151609 -83.54100003918293 -519.4572459014661 -37.24823549388932 0.0 0.0
-1031.6450279028961 -116.05434991517211 -571.7530368771055 -36.58230912399788 0.0 0.0
-1101.907018206741 -151.0128987994621 -624.6094804159374 -35.694775549473725 0.0 0.0
-1172.2679648788246 -188.4642274196385 -678.6855549210172 -34.54391934638466 0.0 0.0
-1243.3728156649422 -228.9862848124359 -734.6127751379154 -32.672209306488654 0.0 0.0
-1316.022675562087 -273.91783615874454 -793.4270799158274 -29.915823756100412 0.0 0.0
-1396.7704492367438 -331.1771674244273 -862.2730292992553 -28.566304177186105 0.0 0.0
-1503.7426866707324 -421.8337248889831 -960.8421081125832 -34.01956396210121 0.0 0.0
-1663.366119106549 -577.9933340773714 -1118.8797311052067 -49.33423650228561 0.0 0.0
-1772.710505564191 -707.3476617095456 -1238.578773161321 -74.30059265995433 0.0 0.0
-1772.7105055639652 -707.3476617092982 -1238.5787731610503 74.30059265987393 0.0 0.0
-1663.3661191070933 -577.9933340779947 -1118.879731105616 49.334236502442394 0.0 0.0
-1503.742686671413 -421.83372488975294 -960.8421081130122 34.01956396218923 0.0 0.0
-1396.7704492365128 -331.17716742431185 -862.273029299032 28.56630417730951 0.0 0.0
-1316.022675561761 -273.91783615854797 -793.4270799154197 29.91582375607631 0.0 0.0
-1243.3728156643406 -228.9862848119793 -734.6127751373049 32.6722093065179 0.0 0.0
-1172.2679648787619 -188.46422741973382 -678.6855549209212 34.54391934632118 0.0 0.0
-1101.9070182065961 -151.0128987995377 -624.6094804158114 35.694775549617304 0.0 0.0
-1031.6450279020742 -116.0543499145838 -571.7530368764994 36.5823091240738 0.0 0.0
-960.2960932134154 -83.54100003766554 -519.457245900284 37.248235493863014 0.0 0.0
-887.5849857274807 -53.204385140165286 -467.3967953766727 37.20356403146116 0.0 0.0
-814.1385738390094 -26.468583168472684 -416.3807511653884 35.84260637329264 0.0 0.0
-741.3555316485591 -5.624121547299012 -366.99904363984615 33.20863878071916 0.0 0.0
-669.1303215681362 8.056730269104804 -315.09605392139866 30.65960925253733 0.0 0.0
-593.5877728566817 14.833512521985696 -250.17605173209682 30.423161211982357 0.0 0.0
-506.46155989348773 22.27692447330324 -170.86947773779158 38.9143721279127 0.0 0.0
-390.8640137849823 11.28824223447371 -114.82325104702579 55.266497896298795 0.0 0.0
-254.6956741817378 -1.1468135048369916 -76.75274630597244 63.25034176603188 0.0 0.0
-122.0465881318737 -4.678305917908729 -38.01746821493473 54.346240314319715 0.0 0.0
-28.59224274045203 -3.254783097601262 -9.554107751415986 17.95425502494939 0.0 0.0
-21.5292946760302 2.8884109796990276 -5.592265108899352 -2.8211285118924403 0.0 0.0
-117.71900532835215 1.8085064712544128 -34.77314965712932 -22.02374144133063 0.0 0.0
-276.61880469342924 -2.3539741275369668 -83.69183364628985 -25.771484790745227 0.0 0.0
-431.0709597026474 13.42720499233289 -128.70553858987662 -22.298763063810302 0.0 0.0
-539.5630111852723 19.80594312667848 -194.36756700500126 -13.257843073820151 0.0 0.0
-618.5190114349086 12.834235399856674 -272.152302468922 -10.10902031882241 0.0 0.0
-689.1362995337767 7.374985953587682 -329.3668525570247 -10.532269342353075 0.0 0.0
-760.4060939577876 -6.555897952042969 -378.3666817102988 -12.177899685487253 0.0 0.0
-834.4111624988977 -28.805871628761707 -428.2325438712646 -13.887897312124174 0.0 0.0
-910.8583128100365 -58.13340162406777 -481.7930507310871 -15.006844827947877 0.0 0.0
-987.8531432944653 -92.02505880872033 -537.6681918033826 -15.464975480146162 0.0 0.0
-1064.0440156495986 -129.2139205286818 -594.6748659986381 -15.406190357367748 0.0 0.0
-1139.8342652994452 -168.8198687322302 -652.5832393562109 -15.174713970168101 0.0 0.0
-1216.5518659067084 -211.94300942049114 -712.6361391569405 -14.703396764313469 0.0 0.0
-1295.0513834061967 -259.6434231077692 -775.8270852092836 -13.706552974772091 0.0 0.0
-1374.4086802445418 -311.47017307534895 -841.478750015154 -11.847021988285086 0.0 0.0
-1452.129744515044 -365.9377988120107 -907.5637404875375 -9.286361947792528 0.0 0.0
-1533.0575042331216 -429.6703389921261 -979.6996252491274 -10.206752267927488 0.0 0.0
-1652.646924410949 -542.0106200616528 -1095.3163044663302 -26.00617366185562 0.0 0.0
-1974.592679860783 -877.6412649774237 -1424.676229101774 -61.302406971517044 0.0 0.0
-1974.5926798614173 -877.6412649781145 -1424.6762291022446 61.30240697162653 0.0 0.0
-1652.6469244119335 -542.010620062714 -1095.316304467042 26.00617366198486 0.0 0.0
-1533.057504233364 -429.670338992443 -979.6996252492384 10.206752267851726 0.0 0.0
-1452.1297445138812 -365.937798810958 -907.5637404866391 9.286361947910656 0.0 0.0
-1374.4086802451232 -311.47017307605995 -841.4787500155851 11.847021988202886 0.0 0.0
-1295.0513834061198 -259.6434231078533 -775.8270852092405 13.706552974855107 0.0 0.0
-1216.5518659053964 -211.9430094193351 -712.6361391559856 14.703396764196693 0.0 0.0
-1139.8342652987797 -168.81986873176083 -652.5832393557008 15.17471397014255 0.0 0.0
-1064.0440156494546 -129.21392052876996 -594.6748659985162 15.406190357410626 0.0 0.0
-987.8531432940481 -92.02505880856535 -537.6681918030208 15.464975480090406 0.0 0.0
-910.8583128087107 -58.133401622993716 -481.79305073014564 15.006844827813701 0.0 0.0
-834.4111624972156 -28.805871627330603 -428.2325438701823 13.887897312020549 0.0 0.0
-760.4060939573483 -6.555897951905038 -378.36668171001895 12.177899685407137 0.0 0.0
-689.1362995333949 7.374985953661664 -329.36685255676036 10.53226934232368 0.0 0.0
-618.5190114350542 12.834235399351726 -272.15230246890513 10.109020318794919 0.0 0.0
-539.5630111851149 19.805943126469366 -194.36756700483738 13.257843073951463 0.0 0.0
-431.0709597022351 13.42720499233516 -128.70553858973346 22.298763063818466 0.0 0.0
-276.6188046932513 -2.353974127668126 -83.69183364627582 25.77148479086052 0.0 0.0
-117.71900532818951 1.8085064713119294 -34.773149657063264 22.023741441377602 0.0 0.0
-21.52929467605015 2.8884109796729405 -5.592265108913163 2.821128511922331 0.0 0.0
SCALARS Strain float 6
LOOKUP_TABLE default
0.012009968951283551 -0.013077802668077898 0.0 -0.007246875121821317 0.0 0.0
0.002460353361419837 -0.0015618519994325397 0.0 0.0012130575209805539 0.0 0.0
0.0018359174802844817 -0.0007504338422335 0.0 -3.97329305920624e-05 0.0 0.0
0.0023381862944730977 -0.0011400438937415602 0.0 -0.0002215244901259683 0.0 0.0
0.003669576414895563 -0.0022201835828103977 0.0 -0.0002832085375407689 0.0 0.0
0.006411705350632497 -0.004662427582246442 0.0 -0.00043641765002411237 0.0 0.0
0.010863741547008435 -0.008844357360548782 0.0 -0.0007006220879939851 0.0 0.0
0.017318591009191017 -0.015028569547882231 0.0 -0.0011091888886141654 0.0 0.0
0.02592696573955605 -0.02334475915811618 0.0 -0.0016782410855422647 0.0 0.0
0.036668723903093024 -0.0337685710482738 0.0 -0.002359783695743467 0.0 0.0
0.04942082351060717 -0.046186583053879904 0.0 -0.003067580820819038 0.0 0.0
0.06403633110940612 -0.06045942768256651 0.0 -0.0037605737364480585 0.0 0.0
0.08037048070934236 -0.07644592126016558 0.0 -0.004445322680924846 0.0 0.0
0.09824900981646309 -0.09396745479871349 0.0 -0.005117654308256087 0.0 0.0
0.11734658674438765 -0.11269473748372194 0.0 -0.005750321631089184 0.0 0.0
0.13704538959815427 -0.13201324858928842 0.0 -0.006218976117691344 0.0 0.0
0.15637323009957482 -0.15096316468103366 0.0 -0.006296181662478029 0.0 0.0
0.17404029588630185 -0.16826875440772548 0.0 -0.005755306529941884 0.0 0.0
0.18850498764982468 -0.18239364790501478 0.0 -0.004848270862025328 0.0 0.0
0.19756792346848653 -0.1909509326912091 0.0 -0.005447036351768686 0.0 0.0
0.19756792346847657 -0.19095093269119578 0.0 0.00544703635177568 0.0 0.0
0.18850498764978563 -0.18239364790496992 0.0 0.0048482708620480874 0.0 0.0
0.17404029588623435 -0.16826875440765576 0.0 0.005755306529954152 0.0 0.0
0.15637323009948795 -0.1509631646809546 0.0 0.006296181662485023 0.0 0.0
0.137045389598063 -0.13201324858920094 0.0 0.006218976117683739 0.0 0.0
0.11734658674429474 -0.11269473748363001 0.0 0.005750321631088573 0.0 0.0
0.09824900981636964 -0.09396745479862378 0.0 0.005117654308255171 0.0 0.0
0.08037048070924785 -0.07644592126007854 0.0 0.004445322680925123 0.0 0.0
0.06403633110931656 -0.06045942768248125 0.0 0.0037605737364443392 0.0 0.0
0.04942082351052768 -0.04618658305379997 0.0 0.0030675808208150412 0.0 0.0
0.036668723903027056 -0.0337685710482023 0.0 0.0023597836957345297 0.0 0.0
0.025926965739504537 -0.02334475915806644 0.0 0.001678241085541765 0.0 0.0
0.017318591009152617 -0.015028569547845816 0.0 0.0011091888886085588 0.0 0.0
0.01086374154698233 -0.008844357360522803 0.0 0.000700622087991265 0.0 0.0
0.00641170535061647 -0.004662427582233342 0.0 0.00043641765002144783 0.0 0.0
0.0036695764148888532 -0.002220183582805846 0.0 0.0002832085375416571 0.0 0.0
0.002338186294471467 -0.001140043893740561 0.0 0.00022152449012668995 0.0 0.0
0.001835917480283722 -0.0007504338422336665 0.0 3.9732930590397064e-05 0.0 0.0
0.002460353361418255 -0.0015618519994314295 0.0 -0.001213057520978611 0.0 0.0
0.01200996895127221 -0.013077802668063729 0.0 0.007246875121786289 0.0 0.0
0.008545051030894295 -0.009991438052434659 0.0 -0.008761543823784967 0.0 0.0
0.0013320306455626638 -0.0007864597060319167 0.0 0.00013034867993616528 0.0 0.0
0.0015681912011881113 -0.0005569703669241477 0.0 -0.0001280753699653414 0.0 0.0
0.0020491086807923817 -0.0009495115420521394 0.0 -0.0004788355194270677 0.0 0.0
0.0031116940823519706 -0.001764258040991784 0.0 -0.0006348682534342842 0.0 0.0
0.005461329011170135 -0.0038026778501487613 0.0 -0.0010103537364183346 0.0 0.0
0.009435229220292177 -0.007485717899657907 0.0 -0.001678312359024825 0.0 0.0
0.015274442022865826 -0.013047119418701847 0.0 -0.0026519609861872517 0.0 0.0
0.023076124690644538 -0.02056281236752522 0.0 -0.003938181265601748 0.0 0.0
0.0327739239149914 -0.02995890739810525 0.0 -0.0054239272367546665 0.0 0.0
0.044224776865394014 -0.04109960231477938 0.0 -0.006944116914303133 0.0 0.0
0.057303364392062836 -0.053864399061058776 0.0 -0.008403381940276122 0.0 0.0
0.07192249200493184 -0.0681642061917187 0.0 -0.009861849878531309 0.0 0.0
0.08795325154448429 -0.08386754770623828 0.0 -0.011337017318652332 0.0 0.0
0.10511871347953747 -0.10069619878691238 0.0 -0.01272770163395004 0.0 0.0
0.12289527899797588 -0.1181284877284372 0.0 -0.013784680738360866 0.0 0.0
0.1404436067393947 -0.13533048247666946 0.0 -0.014065177344893098 0.0 0.0
0.15658809967833015 -0.15113026177483713 0.0 -0.013209483314271908 0.0 0.0
0.1697133436308513 -0.1638766324111467 0.0 -0.011422594403918906 0.0 0.0
0.17762870997857094 -0.17150198924614335 0.0 -0.008516451434554262 0.0 0.0
0.17762870997855978 -0.1715019892461287 0.0 0.008516451434579575 0.0 0.0
0.16971334363081558 -0.1638766324111054 0.0 0.011422594403957542 0.0 0.0
0.15658809967827064 -0.15113026177478517 0.0 0.013209483314297388 0.0 0.0
0.14044360673931933 -0.13533048247659618 0.0 0.01406517734490531 0.0 0.0
0.12289527899789507 -0.11812848772835771 0.0 0.013784680738352373 0.0 0.0
0.10511871347945387 -0.10069619878683422 0.0 0.012727701633947097 0.0 0.0
0.08795325154440028 -0.08386754770615656 0.0 0.011337017318648446 0.0 0.0
0.07192249200484754 -0.06816420619163477 0.0 0.009861849878526452 0.0 0.0
0.05730336439198347 -0.053864399060984613 0.0 0.008403381940265908 0.0 0.0
0.044224776865321835 -0.04109960231471055 0.0 0.006944116914294529 0.0 0.0
0.032773923914932224 -0.029958907398047963 0.0 0.005423927236742121 0.0 0.0
0.0230761246905975 -0.02056281236748192 0.0 0.003938181265595309 0.0 0.0
0.01527444202283118 -0.013047119418670539 0.0 0.002651960986176871 0.0 0.0
0.009435229220269015 -0.007485717899635258 0.0 0.0016783123590191629 0.0 0.0
0.0054613290111567014 -0.003802677850136993 0.0 0.0010103537364145043 0.0 0.0
0.0031116940823469053 -0.001764258040986677 0.0 0.0006348682534353944 0.0 0.0
0.0020491086807910563 -0.0009495115420490308 0.0 0.0004788355194276783 0.0 0.0
0.0015681912011879517 -0.0005569703669235926 0.0 0.00012807536996556346 0.0 0.0
0.0013320306455623654 -0.0007864597060309453 0.0 -0.00013034867993866328 0.0 0.0
0.008545051030880435 -0.00999143805241957 0.0 0.008761543823755491 0.0 0.0
0.006336188798245337 -0.007947666427885164 0.0 -0.008126355733279078 0.0 0.0
0.0007825068606313393 -0.000514430894735074 0.0 -0.0005775806609539802 0.0 0.0
0.0012563049988141908 -0.0004094731975847754 0.0 -0.0004371861273006483 0.0 0.0
0.001774252296951391 -0.0007763941120969564 0.0 -0.0007226033774289653 0.0 0.0
0.0026158259670311726 -0.001385190072151321 0.0 -0.0009396785524333762 0.0 0.0
0.004549035190385214 -0.0030000231142082168 0.0 -0.001436039808678291 0.0 0.0
0.008018094001211507 -0.006151471798456765 0.0 -0.002400252129472036 0.0 0.0
0.013207395044200668 -0.011057078856572256 0.0 -0.0038353470113258736 0.0 0.0
0.020171036779567497 -0.017738911207843433 0.0 -0.0056867304777651895 0.0 0.0
0.028804726290234853 -0.026088043109160353 0.0 -0.007793030730126604 0.0 0.0
0.03895140339474037 -0.03594858081269248 0.0 -0.00994624747917161 0.0 0.0
0.05049864135358001 -0.0472089056297591 0.0 -0.012022757054489741 0.0 0.0
0.06339050471000099 -0.05981032327651725 0.0 -0.01407453220907473 0.0 0.0
0.07755118365017162 -0.07367449702246276 0.0 -0.016165306331322793 0.0 0.0
0.09277091212957181 -0.08859202115356712 0.0 -0.01817314450643326 0.0 0.0
0.10862807245691755 -0.10414108092030316 0.0 -0.01972718501900944 0.0 0.0
0.12441990660039148 -0.11961711112266826 0.0 -0.02028623827942133 0.0 0.0
0.13906606311439396 -0.13392796550611763 0.0 -0.019360391578197633 0.0 0.0
0.15099968604895098 -0.1455345494277842 0.0 -0.016463465689958268 0.0 0.0
0.1584243558250484 -0.15272310756350116 0.0 -0.010711238456812877 0.0 0.0
0.15842435582503703 -0.15272310756349272 0.0 0.01071123845684896 0.0 0.0
0.15099968604891892 -0.14553454942774602 0.0 0.016463465690012002 0.0 0.0
0.13906606311434075 -0.13392796550606434 0.0 0.01936039157823466 0.0 0.0
0.1244199066003267 -0.11961711112261098 0.0 0.02028623827943865 0.0 0.0
0.1086280724568465 -0.10414108092023922 0.0 0.01972718501900228 0.0 0.0
0.0927709121294974 -0.08859202115349252 0.0 0.01817314450642893 0.0 0.0
0.07755118365009739 -0.0736744970223886 0.0 0.016165306331319407 0.0 0.0
0.06339050470992641 -0.05981032327644131 0.0 0.014074532209066737 0.0 0.0
0.050498641353510565 -0.04720890562969382 0.0 0.012022757054473865 0.0 0.0
0.038951403394676454 -0.03594858081263652 0.0 0.00994624747915529 0.0 0.0
0.028804726290182603 -0.026088043109109726 0.0 0.007793030730107842 0.0 0.0
0.020171036779525142 -0.017738911207805463 0.0 0.005686730477755253 0.0 0.0
0.013207395044170012 -0.01105707885654561 0.0 0.003835347011315382 0.0 0.0
0.008018094001191411 -0.006151471798439223 0.0 0.0024002521294667623 0.0 0.0
0.0045490351903744175 -0.003000023114200445 0.0 0.0014360398086738502 0.0 0.0
0.002615825967027474 -0.0013851900721467691 0.0 0.0009396785524313778 0.0 0.0
0.0017742522969503294 -0.0007763941120965123 0.0 0.0007226033774289098 0.0 0.0
0.001256304998814295 -0.00040947319758538603 0.0 0.0004371861273005928 0.0 0.0
0.000782506860630805 -0.0005144308947336029 0.0 0.000577580660952759 0.0 0.0
0.0063361887982326115 -0.007947666427870998 0.0 0.008126355733256485 0.0 0.0
0.004788286953019742 -0.006406282200145469 0.0 -0.006909161151060883 0.0 0.0
0.0004902537831299528 -0.00038298288369853495 0.0 -0.0011748957387619496 0.0 0.0
0.0009736698640870206 -0.0002993354580872465 0.0 -0.0008496053600540177 0.0 0.0
0.0015047889948756055 -0.000623781152474634 0.0 -0.0009928864545596383 0.0 0.0
0.00217848109687014 -0.001081576781348792 0.0 -0.0012219826755209828 0.0 0.0
0.0037092164330311678 -0.0022932326394975444 0.0 -0.0017421480553644897 0.0 0.0
0.006624851557459031 -0.004869740997160088 0.0 -0.0028766381977731736 0.0 0.0
0.011141538755098879 -0.00908244702846761 0.0 -0.004653669063259258 0.0 0.0
0.017239781620646155 -0.014904644691056124 0.0 -0.006915137889750067 0.0 0.0
0.02479283939880375 -0.022189334151744955 0.0 -0.009470340850012082 0.0 0.0
0.03363002383977512 -0.030763314069685688 0.0 -0.012073456487417589 0.0 0.0
0.04364553545918283 -0.040517938089744465 0.0 -0.014599212758079627 0.0 0.0
0.05480910842632218 -0.05142031943394887 0.0 -0.0171091509331725 0.0 0.0
0.06708770809458513 -0.0634331891992912 0.0 -0.0196271658660378 0.0 0.0
0.08034122242682852 -0.07641941972689104 0.0 -0.022042796119566277 0.0 0.0
0.09425978406793803 -0.0900668749362965 0.0 -0.02401187759822765 0.0 0.0
0.10827758933108166 -0.10379904336232082 0.0 -0.024918038519861574 0.0 0.0
0.12145283427169808 -0.11667162838030087 0.0 -0.024006676099329938 0.0 0.0
0.1324215064038821 -0.1273493970217463 0.0 -0.02027335909237371 0.0 0.0
0.13964048070692064 -0.13435517638138883 0.0 -0.01250541003467398 0.0 0.0
0.13964048070690963 -0.13435517638137906 0.0 0.012505410034723163 0.0 0.0
0.1324215064038529 -0.12734939702171566 0.0 0.020273359092435994 0.0 0.0
0.12145283427165135 -0.11667162838025291 0.0 0.02400667609937146 0.0 0.0
0.10827758933102583 -0.10379904336226442 0.0 0.02491803851988139 0.0 0.0
0.09425978406787622 -0.09006687493623255 0.0 0.024011877598218656 0.0 0.0
0.08034122242676348 -0.07641941972682709 0.0 0.022042796119558283 0.0 0.0
0.06708770809452069 -0.06343318919922725 0.0 0.019627165866032525 0.0 0.0
0.05480910842625761 -0.051420319433887585 0.0 0.017109150933163453 0.0 0.0
0.0436455354591222 -0.040517938089681405 0.0 0.014599212758062086 0.0 0.0
0.03363002383972066 -0.03076331406963062 0.0 0.012073456487396883 0.0 0.0
0.024792839398758065 -0.022189334151701434 0.0 0.0094703408499901 0.0 0.0
0.017239781620609407 -0.01490464469102104 0.0 0.006915137889735468 0.0 0.0
0.011141538755072095 -0.009082447028442298 0.0 0.0046536690632484334 0.0 0.0
0.006624851557442302 -0.0048697409971427685 0.0 0.0028766381977649025 0.0 0.0
0.003709216433022522 -0.002293232639491327 0.0 0.0017421480553576063 0.0 0.0
0.0021784810968676627 -0.0010815767813462385 0.0 0.0012219826755190955 0.0 0.0
0.0015047889948749393 -0.0006237811524728576 0.0 0.0009928864545594163 0.0 0.0
0.0009736698640870067 -0.00029933545808713546 0.0 0.0008496053600521303 0.0 0.0
0.0004902537831294462 -0.0003829828836977023 0.0 0.001174895738759285 0.0 0.0
0.004788286953008758 -0.006406282200133517 0.0 0.0069091611510431195 0.0 0.0
0.0036096689931245235 -0.005150952751259874 0.0 -0.005661797720631356 0.0 0.0
0.00032724987448840004 -0.00031132779237919017 0.0 -0.0016400322705819037 0.0 0.0
0.0007373001016894309 -0.00021978215524154354 0.0 -0.0012653529679880204 0.0 0.0
0.0012401791585546634 -0.0004912639018761489 0.0 -0.0012912945288193756 0.0 0.0
0.0017908878392119132 -0.000840824614566138 0.0 -0.0014916131978947034 0.0 0.0
0.002958056764575695 -0.001700904298587158 0.0 -0.0019887369694028822 0.0 0.0
0.005296839832937897 -0.0036810788041998777 0.0 -0.003129588602510447 0.0 0.0
0.009094162927170538 -0.0071504082181799156 0.0 -0.0050665673752922635 0.0 0.0
0.014310486237299094 -0.012090038750943943 0.0 -0.00761583870081739 0.0 0.0
0.020768069577718623 -0.01829473540240567 0.0 -0.010450520079658354 0.0 0.0
0.028290756136651093 -0.025575632783703117 0.0 -0.013333679491433603 0.0 0.0
0.036773657575075405 -0.03382388837148653 0.0 -0.016132079647812436 0.0 0.0
0.04620757173769238 -0.04302518609701922 0.0 -0.018911666755389966 0.0 0.0
0.0566007885400346 -0.053184853689462575 0.0 -0.021715141821041617 0.0 0.0
0.06787594748277404 -0.06422611111794829 0.0 -0.024391149065941697 0.0 0.0
0.07981754338914951 -0.07593173026487676 0.0 -0.0266058742737314 0.0 0.0
0.09201072764170157 -0.08787929131520844 0.0 -0.02782096449599636 0.0 0.0
0.1037360687378579 -0.0993409930666127 0.0 -0.027102841633809494 0.0 0.0
0.11388028344055445 -0.10922366140761453 0.0 -0.023008602232689856 0.0 0.0
0.12107829657602048 -0.11621511484429581 0.0 -0.014022113060696229 0.0 0.0
0.12107829657600985 -0.1162151148442856 0.0 0.014022113060745744 0.0 0.0
0.11388028344052828 -0.10922366140758388 0.0 0.023008602232756026 0.0 0.0
0.10373606873781749 -0.09934099306657096 0.0 0.027102841633856567 0.0 0.0
0.09201072764165413 -0.08787929131516536 0.0 0.02782096449601812 0.0 0.0
0.07981754338909672 -0.07593173026482347 0.0 0.026605874273723296 0.0 0.0
0.06787594748271825 -0.06422611111789234 0.0 0.024391149065932094 0.0 0.0
0.0566007885399801 -0.05318485368940884 0.0 0.021715141821032402 0.0 0.0
0.0462075717376379 -0.043025186096967705 0.0 0.018911666755379808 0.0 0.0
0.036773657575024016 -0.03382388837144212 0.0 0.01613207964779284 0.0 0.0
0.028290756136605977 -0.02557563278366759 0.0 0.013333679491410955 0.0 0.0
0.020768069577679793 -0.01829473540236748 0.0 0.010450520079635983 0.0 0.0
0.014310486237267855 -0.012090038750910637 0.0 0.007615838700801347 0.0 0.0
0.009094162927147709 -0.007150408218159265 0.0 0.005066567375279274 0.0 0.0
0.005296839832924782 -0.0036810788041898856 0.0 0.0031295886025021202 0.0 0.0
0.0029580567645690614 -0.0017009042985811629 0.0 0.0019887369693988854 0.0 0.0
0.0017908878392104144 -0.0008408246145648057 0.0 0.001491613197892594 0.0 0.0
0.001240179158554261 -0.0004912639018761489 0.0 0.0012912945288166 0.0 0.0
0.0007373001016893477 -0.00021978215524171008 0.0 0.001265352967985689 0.0 0.0
0.00032724987448806697 -0.00031132779237758035 0.0 0.0016400322705796277 0.0 0.0
0.003609668993115406 -0.005150952751249464 0.0 0.0056617977206173675 0.0 0.0
0.002682195352858935 -0.00410053244643005 0.0 -0.004569338918775645 0.0 0.0
0.00022817155821829027 -0.00026521058544126674 0.0 -0.0019866130686834182 0.0 0.0
0.0005392165299469287 -0.0001594200935948198 0.0 -0.001631991823524137 0.0 0.0
0.0009792092877030645 -0.0003719526252528027 0.0 -0.0015911697556396653 0.0 0.0
0.0014418195190468025 -0.0006463024069709444 0.0 -0.0017558361818086343 0.0 0.0
0.002290824016992002 -0.0012253478855599464 0.0 -0.0022018627783373934 0.0 0.0
0.004075811384319075 -0.00263993976409993 0.0 -0.003267190619168636 0.0 0.0
0.0071074751315029355 -0.00531968149418427 0.0 -0.005148972101965188 0.0 0.0
0.011407134222768567 -0.009326820558317905 0.0 -0.007757852274907884 0.0 0.0
0.01676047749156649 -0.014437776802603608 0.0 -0.010720744173324415 0.0 0.0
0.022962554728646167 -0.02041950116621427 0.0 -0.013708825346430531 0.0 0.0
0.029914525141596204 -0.027161342838966096 0.0 -0.016610262434252954 0.0 0.0
0.03762097300193927 -0.03466396577209352 0.0 -0.01949219491018167 0.0 0.0
0.04612440269049464 -0.04296620191267042 0.0 -0.02238230563724175 0.0 0.0
0.05541089879114115 -0.05205060428954944 0.0 -0.025160590302960806 0.0 0.0
0.06534180953379089 -0.061781055377757355 0.0 -0.027516044443803567 0.0 0.0
0.07564395246151759 -0.07188183132938963 0.0 -0.028937257541058026 0.0 0.0
0.08587562466484674 -0.08189712116859305 0.0 -0.02853964070471493 0.0 0.0
0.09524862354854535 -0.09103753031378758 0.0 -0.024646467132043548 0.0 0.0
0.10255799690316655 -0.09813566526150463 0.0 -0.015294873072024928 0.0 0.0
0.102557996903157 -0.0981356652614993 0.0 0.01529487307207722 0.0 0.0
0.09524862354852343 -0.09103753031377027 0.0 0.024646467132112604 0.0 0.0
0.08587562466481238 -0.0818971211685584 0.0 0.028539640704763447 0.0 0.0
0.07564395246147837 -0.07188183132935011 0.0 0.028937257541079453 0.0 0.0
0.06534180953374708 -0.06178105537772094 0.0 0.02751604444379463 0.0 0.0
0.05541089879109434 -0.05205060428950725 0.0 0.025160590302950814 0.0 0.0
0.0461244026904504 -0.042966201912627344 0.0 0.022382305637231648 0.0 0.0
0.0376209730018951 -0.034663965772050886 0.0 0.019492194910173177 0.0 0.0
0.029914525141554876 -0.027161342838928793 0.0 0.016610262434234024 0.0 0.0
0.02296255472860917 -0.02041950116617608 0.0 0.013708825346411047 0.0 0.0
0.016760477491534753 -0.014437776802569413 0.0 0.010720744173300711 0.0 0.0
0.01140713422274267 -0.00932682055829348 0.0 0.007757852274892008 0.0 0.0
0.0071074751314849915 -0.0053196814941638415 0.0 0.005148972101952309 0.0 0.0
0.004075811384309264 -0.0026399397640886058 0.0 0.0032671906191597544 0.0 0.0
0.0022908240169876304 -0.0012253478855550615 0.0 0.002201862778333563 0.0 0.0
0.0014418195190455674 -0.0006463024069678358 0.0 0.0017558361818068025 0.0 0.0
0.000979209287702787 -0.0003719526252533578 0.0 0.0015911697556378335 0.0 0.0
0.0005392165299467899 -0.00015942009359426468 0.0 0.001631991823521195 0.0 0.0
0.00022817155821799884 -0.0002652105854406561 0.0 0.001986613068680698 0.0 0.0
0.002682195352851968 -0.004100532446421572 0.0 0.004569338918764709 0.0 0.0
0.0019471730009389815 -0.0032141248347935525 0.0 -0.003665280293740969 0.0 0.0
0.00015883893125774595 -0.00023214747714805917 0.0 -0.00222966357338944 0.0 0.0
0.00036595737466006695 -0.00010823695701933644 0.0 -0.0019280694318022373 0.0 0.0
0.0007218618662209186 -0.00025775073852196684 0.0 -0.0018671323783687743 0.0 0.0
0.0011122120994238316 -0.0004806749681356415 0.0 -0.0020169897773347767 0.0 0.0
0.0017063513404118047 -0.000850456668029187 0.0 -0.0023800494919628545 0.0 0.0
0.002970229173884273 -0.0017642229821612787 0.0 -0.0032870491179511907 0.0 0.0
0.005240012130245678 -0.003657847385401203 0.0 -0.0049761987058657975 0.0 0.0
0.008574389055659326 -0.006679311322272508 0.0 -0.007388522348681925 0.0 0.0
0.012798046101976629 -0.010656988028187708 0.0 -0.010244982978982242 0.0 0.0
0.017673675103577924 -0.015330835541313537 0.0 -0.013183839989291513 0.0 0.0
0.023099107386585646 -0.02056877327159068 0.0 -0.016019387544000285 0.0 0.0
0.02908405020059407 -0.02637827938878301 0.0 -0.018817662217472997 0.0 0.0
0.03569770315127686 -0.032823320787202626 0.0 -0.02162972117756129 0.0 0.0
0.04297982109933335 -0.039938155086402194 0.0 -0.024343995110873207 0.0 0.0
0.050873491090809686 -0.04766088594643092 0.0 -0.026661367666335756 0.0 0.0
0.059214696085946955 -0.05584501273393627 0.0 -0.028189524913582953 0.0 0.0
0.06783966346586015 -0.06431267526638695 0.0 -0.02823726749919009 0.0 0.0
0.07638458364775005 -0.07266273660971923 0.0 -0.02509914547789094 0.0 0.0
0.08388689790070183 -0.07993955415273923 0.0 -0.016308593043813713 0.0 0.0
0.08388689790069417 -0.0799395541527339 0.0 0.016308593043862563 0.0 0.0
0.07638458364773223 -0.07266273660969835 0.0 0.025099145477957552 0.0 0.0
0.06783966346583281 -0.0643126752663643 0.0 0.02823726749923683 0.0 0.0
0.059214696085915786 -0.05584501273391185 0.0 0.02818952491360638 0.0 0.0
0.05087349109077424 -0.0476608859463985 0.0 0.026661367666326874 0.0 0.0
0.042979821099296156 -0.03993815508636889 0.0 0.024343995110859162 0.0 0.0
0.03569770315124299 -0.03282332078716799 0.0 0.021629721177550576 0.0 0.0
0.029084050200561207 -0.026378279388752812 0.0 0.018817662217464837 0.0 0.0
0.02309910738655388 -0.02056877327156137 0.0 0.016019387543982244 0.0 0.0
0.017673675103549003 -0.015330835541284227 0.0 0.013183839989272195 0.0 0.0
0.012798046101952176 -0.010656988028164172 0.0 0.010244982978955708 0.0 0.0
0.00857438905563962 -0.0066793113222571865 0.0 0.007388522348665605 0.0 0.0
0.005240012130232841 -0.003657847385391655 0.0 0.004976198705855306 0.0 0.0
0.002970229173877015 -0.0017642229821546174 0.0 0.0032870491179439743 0.0 0.0
0.0017063513404093622 -0.0008504566680289649 0.0 0.00238004949195858 0.0 0.0
0.0011122120994227491 -0.00048067496813697375 0.0 0.0020169897773321677 0.0 0.0
0.0007218618662206133 -0.00025775073852063457 0.0 0.0018671323783673865 0.0 0.0
0.00036595737465988654 -0.00010823695701889235 0.0 0.0019280694317999614 0.0 0.0
0.000158838931257399 -0.00023214747714700446 0.0 0.002229663573387719 0.0 0.0
0.0019471730009337773 -0.00321412483478678 0.0 0.0036652802937338635 0.0 0.0
0.001375803432477285 -0.0024819266990512012 0.0 -0.0029540608948340763 0.0 0.0
9.566259447506276e-05 -0.0002042518358541523 0.0 -0.0023724790018633812 0.0 0.0
0.00020621768498790827 -5.8286015136244096e-05 0.0 -0.002153118003530907 0.0 0.0
0.0004698904685805916 -0.00014541452496430463 0.0 -0.002097317197151116 0.0 0.0
0.0007826251098915354 -0.0003254170391067124 0.0 -0.0022551726259085747 0.0 0.0
0.0011910100631537385 -0.0005623791946360868 0.0 -0.0025736596561717895 0.0 0.0
0.001991131337389429 -0.0010722865362828848 0.0 -0.0032565718562043156 0.0 0.0
0.0035235952752475375 -0.002223444646291206 0.0 -0.004594713005485751 0.0 0.0
0.005876577039004807 -0.004236624206828132 0.0 -0.006604468707253119 0.0 0.0
0.008925409851056956 -0.007026102142205559 0.0 -0.009071790006758895 0.0 0.0
0.012456745820931425 -0.010361373805413798 0.0 -0.011711772563303191 0.0 0.0
0.016356405589867104 -0.014094320835955187 0.0 -0.01430715441816055 0.0 0.0
0.0206304849090099 -0.01821883664076074 0.0 -0.0168660547541033 0.0 0.0
0.025356218250620455 -0.022808398630965954 0.0 -0.01941454764447237 0.0 0.0
0.030620104231263795 -0.02794063436763139 0.0 -0.02189996615047829 0.0 0.0
0.036449847139210234 -0.03363324548489377 0.0 -0.024063397644749962 0.0 0.0
0.04278002826512517 -0.039832522013300675 0.0 -0.025505385475949827 0.0 0.0
0.04962427510781081 -0.046585402107323315 0.0 -0.025928093374165684 0.0 0.0
0.05713362145007944 -0.05397030340641784 0.0 -0.024099831841149832 0.0 0.0
0.06483431360414713 -0.06142838333687273 0.0 -0.016993458137409156 0.0 0.0
0.0648343136041418 -0.06142838333687095 0.0 0.01699345813745079 0.0 0.0
0.05713362145006595 -0.05397030340640896 0.0 0.024099831841210673 0.0 0.0
0.049624275107790855 -0.04658540210730466 0.0 0.02592809337421098 0.0 0.0
0.042780028265101855 -0.0398325220132727 0.0 0.025505385475967146 0.0 0.0
0.036449847139183644 -0.033633245484867125 0.0 0.024063397644740414 0.0 0.0
0.03062010423123729 -0.02794063436760874 0.0 0.021899966150466632 0.0 0.0
0.025356218250596946 -0.022808398630938864 0.0 0.01941454764446371 0.0 0.0
0.020630484908988167 -0.018218836640739866 0.0 0.016866054754096305 0.0 0.0
0.016356405589845135 -0.014094320835935648 0.0 0.014307154418143342 0.0 0.0
0.01245674582091058 -0.010361373805394258 0.0 0.011711772563287592 0.0 0.0
0.00892540985103965 -0.007026102142189572 0.0 0.009071790006737745 0.0 0.0
0.0058765770389917205 -0.004236624206817696 0.0 0.006604468707240074 0.0 0.0
0.0035235952752390998 -0.0022234446462823243 0.0 0.004594713005477757 0.0 0.0
0.001991131337384655 -0.0010722865362806644 0.0 0.003256571856196988 0.0 0.0
0.0011910100631521703 -0.0005623791946367529 0.0 0.0025736596561670155 0.0 0.0
0.0007826251098908554 -0.0003254170391063793 0.0 0.0022551726259061877 0.0 0.0
0.00046989046858048056 -0.0001454145249651928 0.0 0.002097317197149895 0.0 0.0
0.00020621768498754744 -5.8286015136743696e-05 0.0 0.0021531180035283537 0.0 0.0
9.566259447507663e-05 -0.0002042518358536527 0.0 0.002372479001862271 0.0 0.0
0.0013758034324731772 -0.002481926699046535 0.0 0.002954060894828192 0.0 0.0
0.0009542383119745534 -0.0019084822526301004 0.0 -0.0024354875748767157 0.0 0.0
2.386873910087406e-05 -0.00017956476800790044 0.0 -0.002444628568741225 0.0 0.0
5.2997750517619346e-05 -3.4889282155559087e-06 0.0 -0.0023105016908522846 0.0 0.0
0.00022500808127495775 -3.6404887977625755e-05 0.0 -0.0022732045557012914 0.0 0.0
0.00044488819221716325 -0.00016615269473851946 0.0 -0.0024382282214029383 0.0 0.0
0.0007067009910215194 -0.00032198675906136565 0.0 -0.002770551985242342 0.0 0.0
0.0011427261040760917 -0.0005624960644043941 0.0 -0.003263496777725139 0.0 0.0
0.001985135806849253 -0.001087010816414713 0.0 -0.004121793274914631 0.0 0.0
0.003368115871185323 -0.002116204694621704 0.0 -0.005500277497812178 0.0 0.0
0.00520750726602251 -0.003675910664584947 0.0 -0.007304836950030369 0.0 0.0
0.007360442654865101 -0.005622935613959434 0.0 -0.009361587260252158 0.0 0.0
0.009716394165444175 -0.007825863558887036 0.0 -0.011488372416526449 0.0 0.0
0.01228565024146544 -0.010265832243580242 0.0 -0.01365439621639064 0.0 0.0
0.015133311464226501 -0.01300594291622481 0.0 -0.01581022952153055 0.0 0.0
0.018361666720948328 -0.016139886396864256 0.0 -0.01792930756894373 0.0 0.0
0.022087285301361698 -0.019769365884386936 0.0 -0.019869046068443752 0.0 0.0
0.026383125017295755 -0.023953042741377217 0.0 -0.021237235768466922 0.0 0.0
0.031330067790819566 -0.028822251541428923 0.0 -0.021732845402931078 0.0 0.0
0.037378728698796077 -0.03487789259360463 0.0 -0.021225290295077248 0.0 0.0
0.04507487236706778 -0.042345265467860216 0.0 -0.017099530295451193 0.0 0.0
0.04507487236706503 -0.04234526546785622 0.0 0.017099530295487053 0.0 0.0
0.03737872869878753 -0.03487789259359264 0.0 0.021225290295132315 0.0 0.0
0.03133006779080619 -0.028822251541413824 0.0 0.021732845402970158 0.0 0.0
0.026383125017280573 -0.02395304274136345 0.0 0.02123723576847736 0.0 0.0
0.022087285301345794 -0.019769365884369172 0.0 0.01986904606843065 0.0 0.0
0.0183616667209327 -0.01613988639684738 0.0 0.01792930756893185 0.0 0.0
0.015133311464213484 -0.013005942916211932 0.0 0.015810229521522334 0.0 0.0
0.012285650241454504 -0.010265832243569584 0.0 0.013654396216386755 0.0 0.0
0.00971639416543199 -0.007825863558876822 0.0 0.01148837241651346 0.0 0.0
0.0073604426548530555 -0.005622935613943891 0.0 0.009361587260238169 0.0 0.0
0.005207507266012795 -0.00367591066456896 0.0 0.007304836950012494 0.0 0.0
0.0033681158711782733 -0.0021162046946152646 0.0 0.005500277497805017 0.0 0.0
0.0019851358068446734 -0.0010870108164133807 0.0 0.004121793274910024 0.0 0.0
0.0011427261040736214 -0.0005624960644019517 0.0 0.0032634967777203094 0.0 0.0
0.00070670099102077 -0.0003219867590587011 0.0 0.0027705519852387894 0.0 0.0
0.0004448881922168302 -0.0001661526947367431 0.0 0.0024382282213999407 0.0 0.0
0.00022500808127515204 -3.640488797829189e-05 0.0 0.0022732045556994596 0.0 0.0
5.2997750517508324e-05 -3.4889282158889756e-06 0.0 0.0023105016908505638 0.0 0.0
2.3868739100790792e-05 -0.00017956476800745635 0.0 0.0024446285687406144 0.0 0.0
0.0009542383119720277 -0.0019084822526267541 0.0 0.0024354875748727745 0.0 0.0
0.0006558682690088746 -0.0014744302395358622 0.0 -0.0020743321848453733 0.0 0.0
-5.519890661700999e-05 -0.00015949874063719838 0.0 -0.0024784785286944833 0.0 0.0
-9.688684117914459e-05 5.7245245803083655e-05 0.0 -0.002409352896200312 0.0 0.0
-1.2977226449384371e-05 6.920074568894652e-05 0.0 -0.0023921074288956734 0.0 0.0
0.00010384387647885407 -3.831669572740282e-06 0.0 -0.0025490005064545684 0.0 0.0
0.0002206985253816185 -8.779189430740963e-05 0.0 -0.002904109319628534 0.0 0.0
0.00037069705901027206 -0.00017528035867675484 0.0 -0.0033831277010265004 0.0 0.0
0.0006310662492717833 -0.0003076518621445423 0.0 -0.0038969032689117333 0.0 0.0
0.0010837864688597043 -0.0005491703561486538 0.0 -0.004549005123907601 0.0 0.0
0.0016979979177304538 -0.0009356501422872476 0.0 -0.005505364518601175 0.0 0.0
0.00242387430912705 -0.0014528687651860217 0.0 -0.006816489373584145 0.0 0.0
0.003204732284652567 -0.0020776944842064715 0.0 -0.008370151359523792 0.0 0.0
0.004051188685222307 -0.002809014332375348 0.0 -0.0101065795845523 0.0 0.0
0.005007722625616801 -0.0036814281877046717 0.0 -0.011993495771877583 0.0 0.0
0.006179992396121964 -0.0047864559476233914 0.0 -0.014004140528251163 0.0 0.0
0.007758020216659445 -0.006294788388977679 0.0 -0.015994469503469166 0.0 0.0
0.009996621416944684 -0.00843532106133349 0.0 -0.01755634959195551 0.0 0.0
0.013104749701778717 -0.011403391423808529 0.0 -0.018055275414134098 0.0 0.0
0.01737460468705601 -0.01567168771843752 0.0 -0.017631286495838783 0.0 0.0
0.02421747706647559 -0.02254932539189891 0.0 -0.016607245516871427 0.0 0.0
0.02421747706647573 -0.02254932539190202 0.0 0.016607245516900293 0.0 0.0
0.017374604687051792 -0.015671687718434857 0.0 0.017631286495881415 0.0 0.0
0.013104749701772445 -0.011403391423794762 0.0 0.018055275414159855 0.0 0.0
0.009996621416938717 -0.008435321061334378 0.0 0.01755634959195629 0.0 0.0
0.007758020216655559 -0.006294788388974126 0.0 0.015994469503454734 0.0 0.0
0.006179992396117523 -0.004786455947617174 0.0 0.014004140528241504 0.0 0.0
0.00500772262561458 -0.003681428187702007 0.0 0.0119934957718707 0.0 0.0
0.00405118868522189 -0.0028090143323771244 0.0 0.010106579584546638 0.0 0.0
0.003204732284649986 -0.002077694484202919 0.0 0.008370151359512579 0.0 0.0
0.0024238743091248294 -0.0014528687651833572 0.0 0.006816489373573376 0.0 0.0
0.0016979979177288163 -0.0009356501422921326 0.0 0.0055053645185908495 0.0 0.0
0.0010837864688579002 -0.0005491703561484318 0.0 0.004549005123903549 0.0 0.0
0.0006310662492707564 -0.0003076518621443203 0.0 0.003896903268908569 0.0 0.0
0.0003706970590097447 -0.00017528035867919733 0.0 0.003383127701023003 0.0 0.0
0.00022069852538178503 -8.779189430740963e-05 0.0 0.0029041093196266465 0.0 0.0
0.00010384387647899285 -3.831669571296992e-06 0.0 0.0025490005064520704 0.0 0.0
-1.2977226449412127e-05 6.920074568939061e-05 0.0 0.002392107428893231 0.0 0.0
-9.688684117889479e-05 5.724524580325019e-05 0.0 0.002409352896197481 0.0 0.0
-5.519890661737081e-05 -0.00015949874063747593 0.0 0.002478478528692152 0.0 0.0
0.0006558682690077922 -0.001474430239534091 0.0 0.002074332184842209 0.0 0.0
0.0004477128373911454 -0.0011602756517767876 0.0 -0.001846197016921347 0.0 0.0
-0.00013187874010514578 -0.00013629712771379143 0.0 -0.002479314034848523 0.0 0.0
-0.00024301801091305975 0.00011884995976307877 0.0 -0.0024557485283999703 0.0 0.0
-0.0002443485085543151 0.00017184487710630858 0.0 -0.0024470355304087033 0.0 0.0
-0.00023384659442149403 0.00015712138409296195 0.0 -0.0025857653087072996 0.0 0.0
-0.000270175469794548 0.0001489275538006929 0.0 -0.002920935270362357 0.0 0.0
-0.00038707835135559643 0.0001911951099204945 0.0 -0.003389893766639007 0.0 0.0
-0.0006354318487153121 0.00031120959245445334 0.0 -0.0039013539118295526 0.0 0.0
-0.0010832123267126847 0.0005494753120935947 0.0 -0.004550946311732085 0.0 0.0
-0.0016965619121076803 0.0009353181244358133 0.0 -0.00550388321657258 0.0 0.0
-0.0024292398283640437 0.0014612406084415497 0.0 -0.006816699911856072 0.0 0.0
-0.003239788947835609 0.002113111794932898 0.0 -0.00837771647138974 0.0 0.0
-0.004131587250577856 0.0028788872252034636 0.0 -0.010115855555374087 0.0 0.0
-0.005081754806867039 0.0037209216543878654 0.0 -0.011999598145974066 0.0 0.0
-0.005977485650462883 0.004523522020110526 0.0 -0.014022971734342748 0.0 0.0
-0.006577878970058182 0.005054270223966206 0.0 -0.016140434633421075 0.0 0.0
-0.006494864571227832 0.0049554317388182945 0.0 -0.018319163318429088 0.0 0.0
-0.005354529416193632 0.003977112962956664 0.0 -0.020611495497765198 0.0 0.0
-0.0028505609601560677 0.0019734595188842796 0.0 -0.022686056865832693 0.0 0.0
0.003346256055607899 -0.003847403639839264 0.0 -0.021349566504489048 0.0 0.0
0.0033462560556076215 -0.003847403639837932 0.0 0.02134956650450459 0.0 0.0
-0.0028505609601569004 0.001973459518882059 0.0 0.02268605686585179 0.0 0.0
-0.005354529416190801 0.0039771129629557755 0.0 0.020611495497769416 0.0 0.0
-0.006494864571221781 0.004955431738814298 0.0 0.01831916331842076 0.0 0.0
-0.006577878970049494 0.005054270223959545 0.0 0.016140434633407086 0.0 0.0
-0.005977485650456166 0.004523522020103865 0.0 0.014022971734332423 0.0 0.0
-0.005081754806858962 0.003720921654380316 0.0 0.011999598145962409 0.0 0.0
-0.004131587250568641 0.002878887225200355 0.0 0.01011585555536565 0.0 0.0
-0.003239788947826727 0.0021131117949302336 0.0 0.008377716471378083 0.0 0.0
-0.0024292398283560224 0.0014612406084353324 0.0 0.006816699911843749 0.0 0.0
-0.0016965619121014908 0.0009353181244349251 0.0 0.005503883216560257 0.0 0.0
-0.0010832123267089655 0.000549475312094927 0.0 0.004550946311729032 0.0 0.0
-0.0006354318487133137 0.0003112095924533431 0.0 0.0039013539118277207 0.0 0.0
-0.0003870783513544862 0.00019119510992027244 0.0 0.003389893766635177 0.0 0.0
-0.0002701754697936043 0.00014892755380113698 0.0 0.002920935270359859 0.0 0.0
-0.00023384659442110545 0.00015712138409251786 0.0 0.00258576530870408 0.0 0.0
-0.00024434850855453716 0.00017184487710530938 0.0 0.002447035530406927 0.0 0.0
-0.00024301801091292097 0.00011884995976252366 0.0 0.0024557485283983604 0.0 0.0
-0.00013187874010534006 -0.00013629712771401348 0.0 0.0024793140348475795 0.0 0.0
0.00044771283739056256 -0.001160275651776085 0.0 0.0018461970169193487 0.0 0.0
0.00030472221652855236 -0.00091926170954712 0.0 -0.0016688514123337495 0.0 0.0
-0.00020104487291910944 -0.00010536357813706321 0.0 -0.0024319293187736735 0.0 0.0
-0.00038288014664172865 0.00017734360794774418 0.0 -0.002449787471992204 0.0 0.0
-0.00046797943003820675 0.0002704089237213214 0.0 -0.0024340733760334077 0.0 0.0
-0.0005645955894912347 0.0003128830333820609 0.0 -0.0025424241434279238 0.0 0.0
-0.0007538904705362559 0.000381964172740501 0.0 -0.0028237614034803404 0.0 0.0
-0.0011585580236160298 0.0005793534237101827 0.0 -0.0032899048655792296 0.0 0.0
-0.0019880695421371775 0.0010910068524170313 0.0 -0.004135893104052546 0.0 0.0
-0.00336601798816219 0.0021153555375859057 0.0 -0.005502930877994361 0.0 0.0
-0.0052061749527616 0.0036762965804180148 0.0 -0.007303884193028298 0.0 0.0
-0.007368339566254989 0.005634554950160187 0.0 -0.009361326220937327 0.0 0.0
-0.009750484548119914 0.00786427601219497 0.0 -0.01147752790131129 0.0 0.0
-0.012359132595857136 0.010336418067416364 0.0 -0.013612897575890126 0.0 0.0
-0.015194883132297832 0.013039606854075014 0.0 -0.015757710951947668 0.0 0.0
-0.018152494227374 0.015859565856961133 0.0 -0.017997543376203073 0.0 0.0
-0.020949355942978948 0.018519621910141115 0.0 -0.020412571631468257 0.0 0.0
-0.023125546327103425 0.020582673683120944 0.0 -0.02308337439395347 0.0 0.0
-0.024129257072443816 0.0215170983545514 0.0 -0.02591983032495293 0.0 0.0
-0.022953300485699185 0.020070932196184277 0.0 -0.027181849712794803 0.0 0.0
-0.016601380174911418 0.013448541665923575 0.0 -0.02491484278106315 0.0 0.0
-0.016601380174911945 0.013448541665922242 0.0 0.024914842781096902 0.0 0.0
-0.022953300485696743 0.020070932196179836 0.0 0.027181849712840656 0.0 0.0
-0.024129257072432048 0.0215170983545403 0.0 0.025919830324979576 0.0 0.0
-0.023125546327085467 0.020582673683106734 0.0 0.02308337439395347 0.0 0.0
-0.020949355942958436 0.018519621910126016 0.0 0.020412571631451715 0.0 0.0
-0.018152494227356125 0.015859565856943814 0.0 0.017997543376190195 0.0 0.0
-0.01519488313227968 0.013039606854056807 0.0 0.01575771095193257 0.0 0.0
-0.012359132595837596 0.010336418067395492 0.0 0.013612897575880023 0.0 0.0
-0.009750484548100569 0.007864276012174098 0.0 0.011477527901295748 0.0 0.0
-0.007368339566237503 0.005634554950145532 0.0 0.009361326220914679 0.0 0.0
-0.005206174952747 0.0036762965804069125 0.0 0.00730388419300676 0.0 0.0
-0.0033660179881521424 0.002115355537578134 0.0 0.005502930877984258 0.0 0.0
-0.0019880695421320704 0.0010910068524130345 0.0 0.00413589310404705 0.0 0.0
-0.0011585580236128101 0.0005793534237084064 0.0 0.0032899048655752883 0.0 0.0
-0.0007538904705345073 0.00038196417273939076 0.0 0.0028237614034769543 0.0 0.0
-0.0005645955894906796 0.00031288303338083967 0.0 0.0025424241434249817 0.0 0.0
-0.00046797943003801246 0.0002704089237218765 0.0 0.0024340733760317423 0.0 0.0
-0.0003828801466416176 0.000177343607946856 0.0 0.002449787471991427 0.0 0.0
-0.00020104487291908169 -0.00010536357813739627 0.0 0.0024319293187713975 0.0 0.0
0.00030472221652824705 -0.0009192617095464348 0.0 0.0016688514123307518 0.0 0.0
0.00020077145312755174 -0.0007093884246869298 0.0 -0.001480831090437451 0.0 0.0
-0.0002629937405801419 -6.834891844964552e-05 0.0 -0.0023310204958331138 0.0 0.0
-0.0005144245326355879 0.00023189228040321197 0.0 -0.002386216960562626 0.0 0.0
-0.0006827087861611125 0.00036320106928255935 0.0 -0.002355316751640135 0.0 0.0
-0.0008841989491650548 0.00045942200218251905 0.0 -0.0024181648470978923 0.0 0.0
-0.0012346768328323765 0.0006216933594644924 0.0 -0.002661282056573566 0.0 0.0
-0.002004497992729476 0.0010906929731893111 0.0 -0.0032986713767761966 0.0 0.0
-0.003522288317361927 0.0022248230041710393 0.0 -0.004609141421506313 0.0 0.0
-0.005873033609490069 0.004233957136930311 0.0 -0.006602392140267033 0.0 0.0
-0.008925971742315492 0.007027872262533652 0.0 -0.00907102402786708 0.0 0.0
-0.012466010583807086 0.010373436476774245 0.0 -0.011709149836219734 0.0 0.0
-0.016382803229599036 0.014124774175673593 0.0 -0.014271992947419654 0.0 0.0
-0.020681527655136284 0.01826918680600187 0.0 -0.016747018813544345 0.0 0.0
-0.02539021313623757 0.022821195864437982 0.0 -0.019231484150343037 0.0 0.0
-0.03042177789575848 0.02768259167670717 0.0 -0.021942374361768158 0.0 0.0
-0.03546162244079376 0.032545462494745436 0.0 -0.025166031947065126 0.0 0.0
-0.03994095616463919 0.036856168011321966 0.0 -0.029074834975256092 0.0 0.0
-0.04292697724294284 0.03962608591418659 0.0 -0.03293942614814127 0.0 0.0
-0.04261416277605887 0.039036546862956545 0.0 -0.034883565343031164 0.0 0.0
-0.035427547582969565 0.031167626617560895 0.0 -0.03111083395370262 0.0 0.0
-0.03542754758296848 0.031167626617562227 0.0 0.03111083395374248 0.0 0.0
-0.042614162776051984 0.03903654686295388 0.0 0.034883565343086675 0.0 0.0
-0.04292697724292455 0.03962608591417016 0.0 0.032939426148177686 0.0 0.0
-0.039940956164611185 0.03685616801129754 0.0 0.029074834975259756 0.0 0.0
-0.03546162244076301 0.03254546249471346 0.0 0.02516603194705158 0.0 0.0
-0.03042177789572957 0.027682591676676527 0.0 0.021942374361752393 0.0 0.0
-0.025390213136208997 0.022821195864410893 0.0 0.01923148415032555 0.0 0.0
-0.02068152765510585 0.018269186805976112 0.0 0.016747018813531356 0.0 0.0
-0.016382803229570156 0.0141247741756505 0.0 0.014271992947401835 0.0 0.0
-0.01246601058378019 0.010373436476750264 0.0 0.011709149836197585 0.0 0.0
-0.008925971742292593 0.007027872262511448 0.0 0.00907102402784532 0.0 0.0
-0.005873033609473902 0.0042339571369134354 0.0 0.006602392140251767 0.0 0.0
-0.003522288317352365 0.0022248230041619355 0.0 0.004609141421496987 0.0 0.0
-0.0020044979927238554 0.0010906929731853143 0.0 0.003298671376770923 0.0 0.0
-0.0012346768328300034 0.0006216933594642704 0.0 0.0026612820565688478 0.0 0.0
-0.000884198949164125 0.0004594220021817419 0.0 0.002418164847096893 0.0 0.0
-0.0006827087861605019 0.00036320106928355855 0.0 0.002355316751638803 0.0 0.0
-0.0005144245326353242 0.0002318922804038781 0.0 0.0023862169605607386 0.0 0.0
-0.00026299374058004477 -6.834891844909041e-05 0.0 0.0023310204958316705 0.0 0.0
0.00020077145312737132 -0.0007093884246860711 0.0 0.0014808310904362298 0.0 0.0
0.00011539495318332871 -0.0005221918226983591 0.0 -0.0012851726597812863 0.0 0.0
-0.0003199708946643731 -2.5181914874494726e-05 0.0 -0.0021747748055193084 0.0 0.0
-0.0006374968167426054 0.0002826948286921427 0.0 -0.0022686297305379854 0.0 0.0
-0.000887712716694411 0.0004484063118810333 0.0 -0.0022177714786782987 0.0 0.0
-0.0011898874254889502 0.0005983974891590194 0.0 -0.0022280368623065483 0.0 0.0
-0.0017448127858447071 0.0009083115707593237 0.0 -0.0024949794041351225 0.0 0.0
-0.002976256711499481 0.001779154451609033 0.0 -0.003332256419477597 0.0 0.0
-0.005234243458529464 0.0036539319472073117 0.0 -0.004979890021842293 0.0 0.0
-0.008571428846741586 0.006676483531230737 0.0 -0.007383347434644305 0.0 0.0
-0.01280139541614364 0.010661079345922975 0.0 -0.01024532139556733 0.0 0.0
-0.017682602942147074 0.015341326440724057 0.0 -0.013178894982555311 0.0 0.0
-0.02311055133423212 0.02058266673255904 0.0 -0.015963535345206004 0.0 0.0
-0.02909348508424975 0.02638878938070377 0.0 -0.018629498262141664 0.0 0.0
-0.035681526090954235 0.03279687378642704 0.0 -0.021313816513932382 0.0 0.0
-0.042814809290469574 0.03973537941361993 0.0 -0.024318756816977927 0.0 0.0
-0.05016469694630482 0.046867896703793654 0.0 -0.028096558156756157 0.0 0.0
-0.056954301649145195 0.053409734131474096 0.0 -0.03279078907588706 0.0 0.0
-0.06172176615493577 0.05788520032937772 0.0 -0.0375079524124553 0.0 0.0
-0.06194094108457551 0.05768173297524859 0.0 -0.039765830559692183 0.0 0.0
-0.053038452977618916 0.048121387611712585 0.0 -0.03623048611857782 0.0 0.0
-0.05303845297761589 0.048121387611707256 0.0 0.036230486118624006 0.0 0.0
-0.06194094108456327 0.05768173297523482 0.0 0.03976583055975469 0.0 0.0
-0.06172176615491243 0.05788520032935107 0.0 0.03750795241249927 0.0 0.0
-0.056954301649108086 0.05340973413144212 0.0 0.03279078907589528 0.0 0.0
-0.05016469694626502 0.04686789670375502 0.0 0.028096558156744722 0.0 0.0
-0.04281480929043015 0.03973537941358085 0.0 0.024318756816961495 0.0 0.0
-0.03568152609091531 0.03279687378638796 0.0 0.021313816513916506 0.0 0.0
-0.029093485084209184 0.0263887893806678 0.0 0.018629498262126398 0.0 0.0
-0.023110551334193458 0.02058266673251996 0.0 0.015963535345183466 0.0 0.0
-0.017682602942110617 0.015341326440689862 0.0 0.013178894982528 0.0 0.0
-0.012801395416113373 0.010661079345895885 0.0 0.010245321395540519 0.0 0.0
-0.008571428846719353 0.0066764835312085324 0.0 0.007383347434627319 0.0 0.0
-0.005234243458514823 0.0036539319471950993 0.0 0.004979890021830358 0.0 0.0
-0.0029762567114908767 0.0017791544516021496 0.0 0.0033322564194681603 0.0 0.0
-0.001744812785840738 0.0009083115707577694 0.0 0.0024949794041304596 0.0 0.0
-0.001189887425487715 0.0005983974891584642 0.0 0.0022280368623052715 0.0 0.0
-0.0008877127166936477 0.00044840631187936797 0.0 0.0022177714786770775 0.0 0.0
-0.0006374968167422446 0.00028269482869186513 0.0 0.0022686297305370973 0.0 0.0
-0.0003199708946639984 -2.518191487421717e-05 0.0 0.002174774805518198 0.0 0.0
0.00011539495318330095 -0.00052219182269766 0.0 0.0012851726597798985 0.0 0.0
4.1505090581928084e-05 -0.0003570086728333921 0.0 -0.0010845556699784487 0.0 0.0
-0.00037480938041620226 2.3215231241879852e-05 0.0 -0.001966419371585093 0.0 0.0
-0.0007528609148970966 0.00033056690821331447 0.0 -0.0020940371160148574 0.0 0.0
-0.0010809386570437562 0.0005242758315917584 0.0 -0.0020151099267882167 0.0 0.0
-0.0014907928189247521 0.000741146881731547 0.0 -0.00199263759097823 0.0 0.0
-0.0023183703852154847 0.0012729437992173853 0.0 -0.002314179668222782 0.0 0.0
-0.004073610540701322 0.0026463841039174874 0.0 -0.0032962080911633773 0.0 0.0
-0.007100176220813242 0.005312628628432181 0.0 -0.005144946019868257 0.0 0.0
-0.011406475554741752 0.009325861063046226 0.0 -0.007751351101124515 0.0 0.0
-0.016766394829650838 0.014443944318961677 0.0 -0.010720823766528054 0.0 0.0
-0.022969061162160076 0.020426190027727387 0.0 -0.013699005518772012 0.0 0.0
-0.029905481131383832 0.027152648446618244 0.0 -0.01653970616104361 0.0 0.0
-0.03757515487480659 0.03462082568699332 0.0 -0.01926655131232924 0.0 0.0
-0.04603882994947625 0.042884293966880094 0.0 -0.021987883895117077 0.0 0.0
-0.05528076145735475 0.051907067295940745 0.0 -0.025027983063980908 0.0 0.0
-0.06494416893878524 0.06130822730767793 0.0 -0.028883380178727824 0.0 0.0
-0.07399642661432113 0.0700414361028856 0.0 -0.0337787936453432 0.0 0.0
-0.08041648937744583 0.07606767305162565 0.0 -0.03888746289504741 0.0 0.0
-0.08084741334732576 0.0760053221248258 0.0 -0.04192237022029066 0.0 0.0
-0.0701944708631761 0.06476479357380915 0.0 -0.04076943824948076 0.0 0.0
-0.07019447086317077 0.06476479357381004 0.0 0.04076943824952617 0.0 0.0
-0.08084741334730816 0.07600532212481426 0.0 0.041922370220348726 0.0 0.0
-0.08041648937741597 0.07606767305159279 0.0 0.03888746289509426 0.0 0.0
-0.0739964266142769 0.07004143610284652 0.0 0.033778793645353355 0.0 0.0
-0.06494416893873657 0.06130822730763397 0.0 0.02888338017871811 0.0 0.0
-0.05528076145730519 0.051907067295891895 0.0 0.02502798306396703 0.0 0.0
-0.046038829949426985 0.04288429396683213 0.0 0.0219878838951017 0.0 0.0
-0.03757515487475642 0.0346208256869458 0.0 0.019266551312313362 0.0 0.0
-0.029905481131335246 0.027152648446568506 0.0 0.01653970616102235 0.0 0.0
-0.022969061162114987 0.020426190027685642 0.0 0.01369900551874692 0.0 0.0
-0.01676639482961302 0.014443944318927926 0.0 0.010720823766499465 0.0 0.0
-0.011406475554713635 0.00932586106301847 0.0 0.007751351101107418 0.0 0.0
-0.0071001762207932445 0.005312628628411087 0.0 0.00514494601985549 0.0 0.0
-0.004073610540689582 0.002646384103906163 0.0 0.0032962080911543845 0.0 0.0
-0.002318370385209781 0.001272943799210502 0.0 0.0023141796682180638 0.0 0.0
-0.00149079281892317 0.0007411468817304367 0.0 0.0019926375909762872 0.0 0.0
-0.001080938657042882 0.0005242758315923135 0.0 0.002015109926787828 0.0 0.0
-0.0007528609148966664 0.00033056690821381407 0.0 0.002094037116013747 0.0 0.0
-0.0003748093804157582 2.321523124176883e-05 0.0 0.0019664193715835943 0.0 0.0
4.1505090582052984e-05 -0.00035700867283305557 0.0 0.001084555669977394 0.0 0.0
-2.204996513560653e-05 -0.00021526846853997528 0.0 -0.000878385257816805 0.0 0.0
-0.000428224475490957 7.500334288712551e-05 0.0 -0.00171155271069795 0.0 0.0
-0.0008614665141817857 0.0003754651061721459 0.0 -0.0018632538967947587 0.0 0.0
-0.0012633187064459983 0.0005944031795778182 0.0 -0.0017641478807630673 0.0 0.0
-0.001806338621723469 0.0009080504227489961 0.0 -0.0017360932636130144 0.0 0.0
-0.002968246087728721 0.001732666102916669 0.0 -0.0020951821609005994 0.0 0.0
-0.005290503514418232 0.003680227725921359 0.0 -0.003145785482307928 0.0 0.0
-0.009088727777992828 0.007144307643490944 0.0 -0.005055638189646772 0.0 0.0
-0.014312910228150982 0.01209192153052241 0.0 -0.007610214326815856 0.0 0.0
-0.020775396335359353 0.018301863393289874 0.0 -0.010450138372779527 0.0 0.0
-0.028292162711728075 0.02557604621165277 0.0 -0.013317849506843893 0.0 0.0
-0.03674138730167123 0.03379032236651902 0.0 -0.016054009831757643 0.0 0.0
-0.04610510916015087 0.04292653079238251 0.0 -0.01869343700131354 0.0 0.0
-0.05643688348534087 0.053035784017209764 0.0 -0.021326074001805972 0.0 0.0
-0.06773879800370289 0.06409706182082697 0.0 -0.024119904497238775 0.0 0.0
-0.07964465770619317 0.07569998461449456 0.0 -0.02751944898481562 0.0 0.0
-0.09089516791869448 0.08655899112420729 0.0 -0.0320224984750872 0.0 0.0
-0.09889389507187799 0.09407658675130826 0.0 -0.0373040023928235 0.0 0.0
-0.0995603435868663 0.09420914280705395 0.0 -0.04197158421682978 0.0 0.0
-0.08742791837631539 0.08153105063206567 0.0 -0.04504961868343205 0.0 0.0
-0.08742791837630781 0.08153105063205635 0.0 0.04504961868347879 0.0 0.0
-0.09956034358684324 0.09420914280703663 0.0 0.04197158421688707 0.0 0.0
-0.09889389507184079 0.09407658675127095 0.0 0.037304002392869906 0.0 0.0
-0.09089516791864344 0.08655899112416199 0.0 0.03202249847509919 0.0 0.0
-0.07964465770613578 0.07569998461444749 0.0 0.027519448984808403 0.0 0.0
-0.06773879800364326 0.06409706182077413 0.0 0.024119904497229838 0.0 0.0
-0.056436883485281905 0.05303578401715425 0.0 0.02132607400179276 0.0 0.0
-0.04610510916009106 0.042926530792323 0.0 0.018693437001297608 0.0 0.0
-0.03674138730161257 0.0337903223664604 0.0 0.016054009831737437 0.0 0.0
-0.028292162711674784 0.025576046211600367 0.0 0.013317849506818247 0.0 0.0
-0.020775396335314417 0.018301863393243245 0.0 0.010450138372751105 0.0 0.0
-0.014312910228116468 0.012091921530489769 0.0 0.007610214326799869 0.0 0.0
-0.009088727777967986 0.007144307643471404 0.0 0.005055638189633449 0.0 0.0
-0.0052905035144028 0.0036802277259095906 0.0 0.0031457854822974918 0.0 0.0
-0.002968246087721352 0.001732666102912006 0.0 0.0020951821608948817 0.0 0.0
-0.001806338621720957 0.0009080504227461095 0.0 0.001736093263611127 0.0 0.0
-0.0012633187064452073 0.0005944031795750426 0.0 0.0017641478807617905 0.0 0.0
-0.0008614665141813416 0.00037546510617086915 0.0 0.001863253896793371 0.0 0.0
-0.0004282244754904574 7.500334288734756e-05 0.0 0.0017115527106961181 0.0 0.0
-2.204996513535673e-05 -0.00021526846853976364 0.0 0.0008783852578150286 0.0 0.0
-7.373940993937733e-05 -9.936886266831424e-05 0.0 -0.0006658886566018873 0.0 0.0
-0.0004784434353333755 0.00012738631993530758 0.0 -0.0014152987215534374 0.0 0.0
-0.0009641932617323601 0.000417422627285835 0.0 -0.0015761259698492958 0.0 0.0
-0.0014405526133361435 0.0006626920712903273 0.0 -0.0014639536010808696 0.0 0.0
-0.0021549599428981603 0.0011094819831154457 0.0 -0.0014388187377540884 0.0 0.0
-0.0037019828289024947 0.0023030078496171225 0.0 -0.0018215874001121235 0.0 0.0
-0.006618997541491423 0.00486525148739525 0.0 -0.0028779205731129243 0.0 0.0
-0.011140940006933164 0.009080949808988326 0.0 -0.004640425147102445 0.0 0.0
-0.017245322921956185 0.014909530887933009 0.0 -0.00691093060057657 0.0 0.0
-0.024799836010843374 0.022195658569404753 0.0 -0.009468759079250932 0.0 0.0
-0.033623282806038796 0.03075488312714203 0.0 -0.012051641326904838 0.0 0.0
-0.04359028394948175 0.04046095007157691 0.0 -0.014522693978443413 0.0 0.0
-0.054660905644847824 0.05127627543899482 0.0 -0.016934843470413852 0.0 0.0
-0.06684916870415986 0.06321271439084253 0.0 -0.019320874393782828 0.0 0.0
-0.08012140339784068 0.07622253736183904 0.0 -0.02167758831779476 0.0 0.0
-0.09411007674868804 0.08988517457734391 0.0 -0.024200946565054005 0.0 0.0
-0.10745542725907425 0.10277805866534973 0.0 -0.027623572863017753 0.0 0.0
-0.11711330790742067 0.11187995637057924 0.0 -0.032820118232835926 0.0 0.0
-0.11835046019237502 0.11252935114376639 0.0 -0.039985816662316154 0.0 0.0
-0.10515490303162009 0.09879564203399482 0.0 -0.04905740614028331 0.0 0.0
-0.10515490303161054 0.09879564203398461 0.0 0.04905740614032805 0.0 0.0
-0.11835046019234688 0.11252935114373974 0.0 0.039985816662369444 0.0 0.0
-0.11711330790737615 0.11187995637053838 0.0 0.03282011823287251 0.0 0.0
-0.10745542725901581 0.102778058665292 0.0 0.027623572863028634 0.0 0.0
-0.09411007674862172 0.08988517457727463 0.0 0.02420094656504801 0.0 0.0
-0.08012140339777124 0.07622253736176932 0.0 0.021677588317786045 0.0 0.0
-0.06684916870409105 0.06321271439077547 0.0 0.01932087439377067 0.0 0.0
-0.0546609056447786 0.05127627543892821 0.0 0.016934843470400862 0.0 0.0
-0.04359028394941353 0.040460950071511625 0.0 0.014522693978426982 0.0 0.0
-0.03362328280597729 0.030754883127082966 0.0 0.012051641326882051 0.0 0.0
-0.024799836010791602 0.022195658569353238 0.0 0.009468759079225286 0.0 0.0
-0.01724532292191531 0.014909530887893707 0.0 0.006910930600562026 0.0 0.0
-0.011140940006903875 0.00908094980896279 0.0 0.004640425147090621 0.0 0.0
-0.0066189975414722435 0.004865251487379263 0.0 0.0028779205731037094 0.0 0.0
-0.0037019828288932174 0.0023030078496082407 0.0 0.001821587400106739 0.0 0.0
-0.002154959942894552 0.001109481983112226 0.0 0.0014388187377517014 0.0 0.0
-0.0014405526133352067 0.000662692071288995 0.0 0.0014639536010800924 0.0 0.0
-0.0009641932617317842 0.0004174226272848913 0.0 0.0015761259698484076 0.0 0.0
-0.00047844343533297307 0.00012738631993469696 0.0 0.0014152987215528823 0.0 0.0
-7.373940993926631e-05 -9.936886266825873e-05 0.0 0.0006658886566006106 0.0 0.0
-0.00010985490936665787 -1.255405374844809e-05 0.0 -0.0004486567711377565 0.0 0.0
-0.0005207507111262277 0.00017664088191937655 0.0 -0.0010804302216046446 0.0 0.0
-0.0010619211894907776 0.0004556438359292203 0.0 -0.001231300822120307 0.0 0.0
-0.0016218847344060539 0.0007391526183072594 0.0 -0.001119418850905829 0.0 0.0
-0.0025527310819731253 0.0013680057947724755 0.0 -0.0011027562699374993 0.0 0.0
-0.004529923046441953 0.0029892661357102668 0.0 -0.001487646558718081 0.0 0.0
-0.008017687646640681 0.006149909269048459 0.0 -0.0023935188140144503 0.0 0.0
-0.01321316259033073 0.011061914173053244 0.0 -0.003822829177147713 0.0 0.0
-0.02017917581810963 0.01774637134390966 0.0 -0.005684137678124479 0.0 0.0
-0.02880939891797074 0.0260916436983325 0.0 -0.007789826232379227 0.0 0.0
-0.03893415583184662 0.03592952699078866 0.0 -0.00992176983514037 0.0 0.0
-0.05042304288321847 0.04713224210368283 0.0 -0.011958010731028423 0.0 0.0
-0.06321210218866424 0.059635824120077174 0.0 -0.013958538574368462 0.0 0.0
-0.07725231329255913 0.07338967197915158 0.0 -0.015975777543434377 0.0 0.0
-0.0923990000289713 0.08824297286330207 0.0 -0.01782388480084518 0.0 0.0
-0.10821673012538927 0.10372540164907207 0.0 -0.019238356892360198 0.0 0.0
-0.12344172911066792 0.11849367603472594 0.0 -0.0208898826799383 0.0 0.0
-0.13500579663109685 0.1294139365700726 0.0 -0.025381340654062723 0.0 0.0
-0.1374481347147481 0.13118395465679145 0.0 -0.03551804921007429 0.0 0.0
-0.12383144126619999 0.11697570780896394 0.0 -0.05246671838201933 0.0 0.0
-0.12383144126618872 0.11697570780895239 0.0 0.05246671838205674 0.0 0.0
-0.13744813471471495 0.13118395465675858 0.0 0.03551804921012275 0.0 0.0
-0.13500579663104495 0.12941393657002154 0.0 0.025381340654095863 0.0 0.0
-0.12344172911060124 0.1184936760346611 0.0 0.02088988267994646 0.0 0.0
-0.10821673012531371 0.10372540164899835 0.0 0.01923835689235881 0.0 0.0
-0.09239900002889269 0.08824297286322347 0.0 0.017823884800842293 0.0 0.0
-0.0772523132924803 0.07338967197906943 0.0 0.01597577754342272 0.0 0.0
-0.06321210218858525 0.05963582411999635 0.0 0.013958538574360801 0.0 0.0
-0.050423042883141124 0.04713224210361 0.0 0.011958010731017737 0.0 0.0
-0.038934155831777104 0.0359295269907185 0.0 0.009921769835120609 0.0 0.0
-0.028809398917912316 0.0260916436982761 0.0 0.007789826232360575 0.0 0.0
-0.020179175818063236 0.01774637134386503 0.0 0.0056841376781120445 0.0 0.0
-0.01321316259029643 0.01106191417301905 0.0 0.0038228291771366663 0.0 0.0
-0.008017687646618067 0.006149909269027809 0.0 0.0023935188140072894 0.0 0.0
-0.004529923046430205 0.002989266135700497 0.0 0.0014876465587149168 0.0 0.0
-0.002552731081968379 0.0013680057947689228 0.0 0.001102756269935834 0.0 0.0
-0.0016218847344045897 0.0007391526183083696 0.0 0.0011194188509056069 0.0 0.0
-0.0010619211894903752 0.0004556438359301085 0.0 0.001231300822120751 0.0 0.0
-0.0005207507111257906 0.00017664088191954308 0.0 0.0010804302216042005 0.0 0.0
-0.00010985490936688685 -1.255405374838911e-05 0.0 0.00044865677113614666 0.0 0.0
-0.0001237478774284706 4.094561024975407e-05 0.0 -0.00023340531532584086 0.0 0.0
-0.0005461892794608736 0.00021670455493100205 0.0 -0.0007065011240870445 0.0 0.0
-0.0011566290311930127 0.0004914385632068807 0.0 -0.0008222544429602463 0.0 0.0
-0.0018224485030651216 0.0008336504578683179 0.0 -0.0007325164057434552 0.0 0.0
-0.0030167862077065677 0.0017066779813890154 0.0 -0.000736099772776333 0.0 0.0
-0.005438018078773255 0.0037801574546394434 0.0 -0.0010349673892276479 0.0 0.0
-0.00944352418727279 0.007491184896832204 0.0 -0.0016689039837793906 0.0 0.0
-0.01528661858556124 0.01305866119188992 0.0 -0.002643372757074547 0.0 0.0
-0.02308590557192819 0.02057192975558131 0.0 -0.0039359795885781645 0.0 0.0
-0.032774765585328214 0.029958393252834892 0.0 -0.005419777262993364 0.0 0.0
-0.04419609457949014 0.04106950590117853 0.0 -0.006923148738895435 0.0 0.0
-0.05721105091440237 0.05377214608501202 0.0 -0.008359440976814292 0.0 0.0
-0.07172575009579485 0.06797069130095057 0.0 -0.009800687687059884 0.0 0.0
-0.08760780827544568 0.08352897278100668 0.0 -0.011242284882928 0.0 0.0
-0.10456035403192099 0.10014641028069038 0.0 -0.01246420910863788 0.0 0.0
-0.12197394484290797 0.1172072096596346 0.0 -0.013015454988215991 0.0 0.0
-0.13866339027890923 0.13348294898698843 0.0 -0.012836931629101045 0.0 0.0
-0.15214376510094788 0.14637092806160323 0.0 -0.01482035912118096 0.0 0.0
-0.15704143105472412 0.15032095268614576 0.0 -0.02700967350464001 0.0 0.0
-0.14413370809956821 0.13669643421869804 0.0 -0.054485999160316045 0.0 0.0
-0.14413370809955467 0.13669643421868605 0.0 0.05448599916033947 0.0 0.0
-0.15704143105468543 0.15032095268610401 0.0 0.0270096735046767 0.0 0.0
-0.15214376510088845 0.14637092806154017 0.0 0.014820359121206383 0.0 0.0
-0.13866339027883307 0.13348294898691337 0.0 0.01283693162910482 0.0 0.0
-0.121973944842823 0.11720720965955156 0.0 0.013015454988214104 0.0 0.0
-0.10456035403183281 0.10014641028060556 0.0 0.012464209108635965 0.0 0.0
-0.08760780827535718 0.08352897278091831 0.0 0.011242284882922088 0.0 0.0
-0.07172575009570606 0.0679706913008622 0.0 0.00980068768705425 0.0 0.0
-0.057211050914315754 0.05377214608492942 0.0 0.008359440976808047 0.0 0.0
-0.04419609457941288 0.04106950590111014 0.0 0.0069231487388818624 0.0 0.0
-0.03277476558526313 0.029958393252774496 0.0 0.005419777262979597 0.0 0.0
-0.023085905571876876 0.020571929755531126 0.0 0.0039359795885706705 0.0 0.0
-0.015286618585522476 0.013058661191851062 0.0 0.002643372757068496 0.0 0.0
-0.009443524187246866 0.007491184896806002 0.0 0.0016689039837736175 0.0 0.0
-0.005438018078758818 0.0037801574546252326 0.0 0.0010349673892227074 0.0 0.0
-0.0030167862077004164 0.0017066779813844635 0.0 0.0007360997727731688 0.0 0.0
-0.001822448503063387 0.0008336504578683179 0.0 0.0007325164057414013 0.0 0.0
-0.001156629031192475 0.0004914385632073803 0.0 0.0008222544429584144 0.0 0.0
-0.0005461892794601034 0.00021670455493066898 0.0 0.0007065011240861563 0.0 0.0
-0.00012374787742873428 4.0945610249795705e-05 0.0 0.00023340531532434206 0.0 0.0
-0.00010359069218635053 5.512439457588947e-05 0.0 -3.6674670654601726e-05 0.0 0.0
-0.0005391480618629485 0.00023778076483449428 0.0 -0.00028630863873729817 0.0 0.0
-0.001254025311806406 0.0005286960868718937 0.0 -0.00033502930227968797 0.0 0.0
-0.00206473400682633 0.0009720354202259474 0.0 -0.0003108011728905069 0.0 0.0
-0.0035542982661449507 0.0021260489960177598 0.0 -0.00031542764381597976 0.0 0.0
-0.0063934939441065985 0.0046378197870986515 0.0 -0.00043532754495312354 0.0 0.0
-0.010881672757307281 0.008859416425032851 0.0 -0.0006972365560539151 0.0 0.0
-0.017335778725763695 0.01504512137852343 0.0 -0.0011042543625079948 0.0 0.0
-0.02593753662330156 0.023354637467303707 0.0 -0.0016753799029152194 0.0 0.0
-0.03666510790311939 0.033763538372789004 0.0 -0.00235653351295273 0.0 0.0
-0.04938146941553795 0.046146376627724806 0.0 -0.0030572051598193317 0.0 0.0
-0.06393034685994636 0.06035448125559251 0.0 -0.003743972661922612 0.0 0.0
-0.08015924185589662 0.07623676710912086 0.0 -0.004425682431089317 0.0 0.0
-0.0978578736610537 0.09357561163208539 0.0 -0.0050673493063342345 0.0 0.0
-0.11658966328265019 0.11192861949920374 0.0 -0.005540806180220237 0.0 0.0
-0.1355058993819033 0.13045118417523316 0.0 -0.005529459417028093 0.0 0.0
-0.153251195108559 0.14779993254092982 0.0 -0.004605640971284131 0.0 0.0
-0.16786071095458785 0.16197585601763898 0.0 -0.0034655511022551044 0.0 0.0
-0.1758792847336871 0.16929933703580913 0.0 -0.010778079025141052 0.0 0.0
-0.16800827337326502 0.15945445302538497 0.0 -0.050186419875357324 0.0 0.0
-0.16800827337324953 0.15945445302536587 0.0 0.05018641987536776 0.0 0.0
-0.17587928473364378 0.16929933703576028 0.0 0.010778079025160536 0.0 0.0
-0.1678607109545194 0.16197585601756925 0.0 0.003465551102265707 0.0 0.0
-0.1532511951084724 0.14779993254084944 0.0 0.0046056409712834645 0.0 0.0
-0.13550589938180818 0.13045118417513457 0.0 0.005529459417025873 0.0 0.0
-0.11658966328255255 0.11192861949910604 0.0 0.005540806180220625 0.0 0.0
-0.09785787366095541 0.0935756116319939 0.0 0.005067349306329516 0.0 0.0
-0.08015924185579834 0.07623676710902583 0.0 0.004425682431085126 0.0 0.0
-0.06393034685985008 0.060354481255496584 0.0 0.0037439726619210023 0.0 0.0
-0.04938146941545303 0.04614637662764176 0.0 0.0030572051598117267 0.0 0.0
-0.036665107903047854 0.03376353837272417 0.0 0.002356533512943848 0.0 0.0
-0.02593753662324521 0.023354637467255746 0.0 0.001675379902911056 0.0 0.0
-0.017335778725721125 0.015045121378482573 0.0 0.001104254362503887 0.0 0.0
-0.010881672757278084 0.008859416425005096 0.0 0.0006972365560517502 0.0 0.0
-0.006393493944089439 0.004637819787080222 0.0 0.0004353275449513472 0.0 0.0
-0.0035542982661371757 0.0021260489960102102 0.0 0.00031542764381692345 0.0 0.0
-0.002064734006823993 0.0009720354202247261 0.0 0.0003108011728905069 0.0 0.0
-0.0012540253118053409 0.00052869608687095 0.0 0.00033502930228118677 0.0 0.0
-0.0005391480618623205 0.00023778076483443877 0.0 0.0002863086387379088 0.0 0.0
-0.00010359069218639043 5.512439457580967e-05 0.0 3.6674670654990305e-05 0.0 0.0
SCALARS Statev float 8
LOOKUP_TABLE default
0.0 0.013104993844556694 0.010132226349978441 -0.010513588893633172 0.00038136254365472616 -0.005823769788683574 0.0 0.0
0.0 0.0007427507215729518 0.0005230504580580243 -0.0004429835412700297 -8.006691678799444e-05 0.0004869470830212973 0.0 0.0
0.0 3.342380937738801e-05 -4.754075056001044e-06 3.773145031477424e-06 9.809300245235895e-07 5.62033213615258e-07 0.0 0.0
0.0 0.0002775304148256095 0.0001965011872945111 -0.00015477704029296364 -4.172414700154748e-05 -2.7596172166549512e-05 0.0 0.0
0.0 0.0015085744369903382 0.0012189475341885703 -0.0010094398767224579 -0.0002095076574661123 -0.00013215390557304546 0.0 0.0
0.0 0.00409144266630052 0.0037093785401315586 -0.003257750582865577 -0.0004516279572659811 -0.0003044473544371877 0.0 0.0
0.0 0.00886489121818584 0.007902185437653416 -0.007279140188736731 -0.0006230452489166837 -0.0005622962032606947 0.0 0.0
0.0 0.01598078811392429 0.014094581307633313 -0.013353439794936611 -0.0007411415126966977 -0.0009501628561493094 0.0 0.0
0.0 0.02561078601583132 0.022440931927388136 -0.021594776355174525 -0.0008461555722136018 -0.0014975645565502575 0.0 0.0
0.0 0.03773486077959966 0.03292479615500655 -0.03196975767906532 -0.0009550384759412294 -0.002164339720797829 0.0 0.0
0.0 0.05223738758072198 0.04542602310612369 -0.04435778495864938 -0.0010682381474742845 -0.00286584577774117 0.0 0.0
0.0 0.06866632482284465 0.05980076480270382 -0.05861693204649506 -0.0011838327562087056 -0.0035596291718277594 0.0 0.0
0.0 0.0871597892060818 0.07590135330724597 -0.0746006778357524 -0.0013006754714934943 -0.004247102626849092 0.0 0.0
0.0 0.10751131750637999 0.09355128853840705 -0.0921309726402349 -0.0014203158981720729 -0.004923315163206713 0.0 0.0
0.0 0.12928030479566424 0.1124242243876602 -0.110880015572091 -0.0015442088155691923 -0.005562721832437729 0.0 0.0
0.0 0.15179002601552294 0.13190417484634837 -0.13023284427739837 -0.0016713305689500454 -0.00604346902193407 0.0 0.0
0.0 0.17389102513390287 0.15102497262419115 -0.14922736061598407 -0.0017976120082070896 -0.006140040379316305 0.0 0.0
0.0 0.19408312094610355 0.16850386647037094 -0.16658555493817861 -0.0019183115321923442 -0.005623040929158548 0.0 0.0
0.0 0.21059673118438238 0.18280393646178558 -0.18077250022487001 -0.0020314362369154956 -0.004726863925255995 0.0 0.0
0.0 0.22067510253356154 0.19166897555692827 -0.18947127828684196 -0.0021976972700863888 -0.00525973019177693 0.0 0.0
0.0 0.22067510253354822 0.19166897555691664 -0.18947127828683036 -0.002197697270086248 0.0052597301917843035 0.0 0.0
0.0 0.21059673118433425 0.182803936461744 -0.18077250022482796 -0.002031436236915933 0.004726863925277542 0.0 0.0
0.0 0.19408312094602442 0.16850386647030277 -0.16658555493811006 -0.0019183115321927354 0.005623040929170164 0.0 0.0
0.0 0.17389102513380747 0.15102497262410802 -0.14922736061590197 -0.001797612008206006 0.0061400403793231174 0.0 0.0
0.0 0.15179002601542002 0.1319041748462589 -0.13023284427730997 -0.001671330568949045 0.0060434690219252525 0.0 0.0
0.0 0.129280304795558 0.11242422438756795 -0.11088001557199927 -0.0015442088155686478 0.005562721832437025 0.0 0.0
0.0 0.10751131750627468 0.09355128853831561 -0.09213097264014422 -0.0014203158981713458 0.004923315163205749 0.0 0.0
0.0 0.08715978920597753 0.07590135330715526 -0.07460067783566278 -0.0013006754714925076 0.004247102626848689 0.0 0.0
0.0 0.06866632482274433 0.05980076480261687 -0.05861693204640861 -0.0011838327562082303 0.0035596291718214676 0.0 0.0
0.0 0.052237387580631074 0.0454260231060445 -0.04435778495857086 -0.001068238147473638 0.0028658457777361005 0.0 0.0
0.0 0.037734860779521 0.032924796154938374 -0.03196975767899775 -0.0009550384759406402 0.002164339720789295 0.0 0.0
0.0 0.02561078601577435 0.02244093192733801 -0.021594776355125148 -0.0008461555722128793 0.0014975645565478662 0.0 0.0
0.0 0.01598078811388288 0.014094581307596462 -0.013353439794900451 -0.0007411415126960038 0.0009501628561458312 0.0 0.0
0.0 0.00886489121815745 0.007902185437627931 -0.007279140188711901 -0.0006230452489160279 0.0005622962032590946 0.0 0.0
0.0 0.004091442666285314 0.0037093785401174626 -0.0032577505828523673 -0.00045162795726509474 0.0003044473544357456 0.0 0.0
0.0 0.001508574436983883 0.0012189475341832985 -0.0010094398767178927 -0.00020950765746540493 0.00013215390557247463 0.0 0.0
0.0 0.00027753041482394517 0.0001965011872939377 -0.00015477704029250142 -4.172414700143628e-05 2.7596172166458022e-05 0.0 0.0
0.0 3.342380937687491e-05 -4.754075055922566e-06 3.7731450314146314e-06 9.80930024507978e-07 -5.620332136057866e-07 0.0 0.0
0.0 0.0007427507215706592 0.0005230504580568432 -0.00044298354126900345 -8.006691678783997e-05 -0.00048694708301961185 0.0 0.0
0.0 0.013104993844538039 0.01013222634996597 -0.010513588893619698 0.0003813625436537205 0.005823769788653916 0.0 0.0
0.0 0.009707930182173984 0.007035180490274122 -0.007527874403477171 0.0004926939132030455 -0.006716673425416108 0.0 0.0
0.0 5.558605328535177e-06 3.2198044724845107e-06 -2.795146386987747e-06 -4.246580854967695e-07 2.1318229540672715e-06 0.0 0.0
0.0 4.7270991761515314e-07 -7.437681678604629e-09 6.6008168092756644e-09 8.368648693262208e-10 5.879792651973646e-09 0.0 0.0
0.0 0.00010337870086992439 6.601543614262006e-05 -5.168705417610163e-05 -1.4328381966518679e-05 -2.383391617576673e-05 0.0 0.0
0.0 0.0010012825377597857 0.0007679294578889326 -0.0006271336677944692 -0.0001407957900944634 -0.00020483581857509223 0.0 0.0
0.0 0.0031345270967590797 0.002845117194343123 -0.0024598960397237317 -0.00038522115461939123 -0.0006198257997321575 0.0 0.0
0.0 0.007353213447120043 0.006551266343695733 -0.005968564741794606 -0.0005827016019011249 -0.0012766963450649845 0.0 0.0
0.0 0.013770946864212475 0.01212695089310133 -0.01141266226186639 -0.0007142886312349403 -0.002219080979786624 0.0 0.0
0.0 0.022482155883055858 0.019670148850588834 -0.01884933348544953 -0.0008208153651392875 -0.003472276007289025 0.0 0.0
0.0 0.033410910023974755 0.029117442918622834 -0.028192051616903323 -0.0009253913017195118 -0.004939647947845324 0.0 0.0
0.0 0.04639336872278882 0.0403280613552651 -0.03929698195598652 -0.0010310793992785708 -0.006458032587055638 0.0 0.0
0.0 0.06132673221128607 0.053176103578693325 -0.052038878847190176 -0.0011372247315031472 -0.00792542743916945 0.0 0.0
0.0 0.07781490631058752 0.06757395633801715 -0.06632923574194707 -0.0012447205960700704 -0.009395228763055237 0.0 0.0
0.0 0.09600350861274427 0.08338843086279091 -0.0820338095810857 -0.001354621281705157 -0.010883442090256585 0.0 0.0
0.0 0.11556890853804011 0.1003420185123859 -0.09887455311199608 -0.0014674654003897676 -0.012291963772411216 0.0 0.0
0.0 0.13583203138890565 0.1179128558831209 -0.11633019387982091 -0.0015826620032999895 -0.013376755276723119 0.0 0.0
0.0 0.15583724302352692 0.1352649908576693 -0.133566595834382 -0.0016983950232873435 -0.01369715863450923 0.0 0.0
0.0 0.17424246991737474 0.15122672976674528 -0.14941339722545488 -0.0018133325412903565 -0.01288449341745603 0.0 0.0
0.0 0.18915369517274444 0.16417471499783806 -0.16223575108971755 -0.0019389639081205166 -0.011124225527467564 0.0 0.0
0.0 0.19809253619777334 0.1719641264669717 -0.16992910171526007 -0.0020350247517116477 -0.008231423479691398 0.0 0.0
0.0 0.19809253619775882 0.171964126466959 -0.16992910171524722 -0.002035024751711828 0.00823142347971564 0.0 0.0
0.0 0.18915369517270084 0.16417471499779965 -0.16223575108967922 -0.001938963908120474 0.011124225527505692 0.0 0.0
0.0 0.17424246991731118 0.15122672976668897 -0.14941339722540015 -0.0018133325412887959 0.012884493417482273 0.0 0.0
0.0 0.1558372430234416 0.13526499085759514 -0.13356659583430805 -0.0016983950232869489 0.013697158634521549 0.0 0.0
0.0 0.13583203138881322 0.11791285588304094 -0.11633019387974151 -0.0015826620032993457 0.013376755276712999 0.0 0.0
0.0 0.11556890853794709 0.10034201851230494 -0.09887455311191624 -0.0014674654003886864 0.012291963772407221 0.0 0.0
0.0 0.09600350861264907 0.08338843086270827 -0.08203380958100373 -0.001354621281704493 0.010883442090252505 0.0 0.0
0.0 0.07781490631049096 0.06757395633793334 -0.06632923574186392 -0.001244720596069399 0.009395228763050163 0.0 0.0
0.0 0.06132673221119801 0.053176103578616594 -0.05203887884711462 -0.0011372247315019654 0.007925427439159204 0.0 0.0
0.0 0.046393368722708196 0.04032806135519526 -0.039296981955916965 -0.0010310793992782826 0.00645803258704604 0.0 0.0
0.0 0.033410910023908405 0.029117442918565366 -0.028192051616845928 -0.0009253913017194328 0.004939647947832415 0.0 0.0
0.0 0.022482155883005294 0.01967014885054424 -0.01884933348540542 -0.0008208153651388096 0.0034722760072828573 0.0 0.0
0.0 0.013770946864175581 0.012126950893068795 -0.011412662261834437 -0.0007142886312343616 0.0022190809797802 0.0 0.0
0.0 0.007353213447095174 0.006551266343673423 -0.005968564741772979 -0.0005827016019004411 0.0012766963450608218 0.0 0.0
0.0 0.003134527096745305 0.0028451171943309076 -0.002459896039712483 -0.00038522115461842444 0.0006198257997293698 0.0 0.0
0.0 0.0010012825377541464 0.0007679294578847049 -0.0006271336677908801 -0.00014079579009382477 0.0002048358185740261 0.0 0.0
0.0 0.0001033787008685024 6.601543614195336e-05 -5.168705417556831e-05 -1.4328381966384902e-05 2.3833916175541913e-05 0.0 0.0
0.0 4.72709917674241e-07 -7.4376816182192035e-09 6.600816763770216e-09 8.36864854447082e-10 -5.879792631535856e-09 0.0 0.0
0.0 5.5586053282472196e-06 3.2198044725641597e-06 -2.7951463870511154e-06 -4.2465808551304037e-07 -2.131822954110368e-06 0.0 0.0
0.0 0.009707930182152248 0.007035180490259746 -0.007527874403462134 0.0004926939132023831 0.006716673425390611 0.0 0.0
0.0 0.007345621555536096 0.005039558694726701 -0.005557963669595064 0.0005184049748683635 -0.005889009322498668 0.0 0.0
0.0 0.0 0.0 0.0 0.0 0.0 0.0 0.0
0.0 0.0 0.0 0.0 0.0 0.0 0.0 0.0
0.0 2.0193380797660793e-05 1.5228896205232251e-05 -1.1885942996271461e-05 -3.3429532089608108e-06 -1.0157778034789604e-05 0.0 0.0
0.0 0.0005509933949455334 0.0004266830148415338 -0.00034381341974659826 -8.286959509493536e-05 -0.0002026652824954689 0.0 0.0
0.0 0.0024223340886811214 0.0020272080729818657 -0.0017234425131630016 -0.0003037655598188634 -0.0007637520633210104 0.0 0.0
0.0 0.005898355176936416 0.005228698385128492 -0.004697606547956234 -0.0005310918371722606 -0.0017309441978457215 0.0 0.0
0.0 0.011584899736226742 0.01015418794068783 -0.009474559388448324 -0.0006796285522395031 -0.0031298169272354318 0.0 0.0
0.0 0.01937616885080419 0.016862117635266422 -0.016071620143710618 -0.0007904974915557967 -0.004942028342343799 0.0 0.0
0.0 0.02912020518929171 0.025252503824515507 -0.024361455596898333 -0.0008910482276171556 -0.00702980265775764 0.0 0.0
0.0 0.04065640688413982 0.03516850398796084 -0.03417921210582363 -0.0009892918821372038 -0.009186213124501774 0.0 0.0
0.0 0.0537616136204699 0.04649701404670235 -0.045410289026899184 -0.001086725019803144 -0.01127798334650468 0.0 0.0
0.0 0.06853708757515663 0.059177675678280355 -0.057992937203490885 -0.001184738474789497 -0.01334763123837541 0.0 0.0
0.0 0.08455957729559217 0.0731345878184251 -0.07185010647343923 -0.0012844813449858338 -0.015459913259255489 0.0 0.0
0.0 0.10186021528982865 0.0881555819070471 -0.08676965272980214 -0.0013859291772449357 -0.01749618502138718 0.0 0.0
0.0 0.11993705160236555 0.1038195033792232 -0.10233036259822431 -0.0014891407809988367 -0.01909077745341582 0.0 0.0
0.0 0.13789560267076834 0.11942499731444431 -0.11783035305609016 -0.001594644258354093 -0.019703935210783664 0.0 0.0
0.0 0.15447859567095718 0.13389089045978275 -0.13218462575127252 -0.0017062647085102404 -0.018836770913777206 0.0 0.0
0.0 0.16791936504526497 0.14566333704468512 -0.14384838539982506 -0.0018149516448600573 -0.016003833190659133 0.0 0.0
0.0 0.1761875673401645 0.15297702125638063 -0.15108375954420844 -0.0018932617121721362 -0.010342663381733558 0.0 0.0
0.0 0.17618756734015367 0.15297702125637044 -0.15108375954419884 -0.0018932617121715251 0.010342663381769812 0.0 0.0
0.0 0.16791936504522634 0.14566333704465037 -0.14384838539978995 -0.0018149516448604877 0.01600383319071126 0.0 0.0
0.0 0.1544785956708975 0.13389089045972968 -0.1321846257512196 -0.0017062647085100088 0.01883677091381413 0.0 0.0
0.0 0.13789560267069895 0.11942499731438276 -0.11783035305603025 -0.0015946442583525781 0.01970393521080044 0.0 0.0
0.0 0.11993705160228772 0.1038195033791555 -0.1023303625981578 -0.0014891407809976484 0.01909077745340724 0.0 0.0
0.0 0.10186021528974308 0.08815558190697288 -0.08676965272972835 -0.0013859291772445345 0.017496185021381415 0.0 0.0
0.0 0.0845595772955072 0.07313458781835101 -0.0718501064733661 -0.0012844813449849283 0.015459913259251036 0.0 0.0
0.0 0.06853708757507034 0.05917767567820552 -0.05799293720341632 -0.0011847384747891792 0.013347631238368188 0.0 0.0
0.0 0.05376161362039221 0.046497014046635136 -0.04541028902683295 -0.0010867250198021983 0.011277983346489238 0.0 0.0
0.0 0.04065640688407124 0.035168503987900814 -0.03417921210576482 -0.0009892918821359608 0.009186213124488323 0.0 0.0
0.0 0.029120205189232917 0.02525250382446443 -0.024361455596847898 -0.0008910482276165208 0.007029802657739955 0.0 0.0
0.0 0.019376168850758886 0.01686211763522687 -0.01607162014367159 -0.000790497491555274 0.0049420283423331265 0.0 0.0
0.0 0.011584899736194646 0.010154187940659642 -0.009474559388420735 -0.0006796285522389058 0.003129816927226366 0.0 0.0
0.0 0.005898355176915832 0.005228698385110166 -0.004697606547938783 -0.0005310918371713847 0.0017309441978399633 0.0 0.0
0.0 0.0024223340886703293 0.002027208072972906 -0.0017234425131550358 -0.00030376555981787056 0.000763752063317506 0.0 0.0
0.0 0.0005509933949411885 0.00042668301483836157 -0.0003438134197439431 -8.286959509441839e-05 0.00020266528249385845 0.0 0.0
0.0 2.019338079726741e-05 1.522889620541968e-05 -1.1885942996407405e-05 -3.342953209012298e-06 1.0157778034849383e-05 0.0 0.0
0.0 0.0 0.0 0.0 0.0 0.0 0.0 0.0
0.0 0.0 0.0 0.0 0.0 0.0 0.0 0.0
0.0 0.007345621555517593 0.005039558694713974 -0.005557963669581656 0.0005184049748676799 0.005889009322478138 0.0 0.0
0.0 0.005494594167207944 0.0036139078770756035 -0.004101061559546545 0.0004871536824709396 -0.004644329085131314 0.0 0.0
0.0 0.0 0.0 0.0 0.0 0.0 0.0 0.0
0.0 0.0 0.0 0.0 0.0 0.0 0.0 0.0
0.0 3.255170625511625e-06 6.640980739248219e-07 -5.134881272382305e-07 -1.5060994668657607e-07 -6.719092420406776e-07 0.0 0.0
0.0 0.0002595787214539063 0.00019437965313433736 -0.00015526957734219316 -3.911007579214401e-05 -0.00014874062860086113 0.0 0.0
0.0 0.001649254591087333 0.0013316015322628841 -0.0011123242957159665 -0.00021927723654691775 -0.0007630550127722819 0.0 0.0
0.0 0.004565487796154419 0.003952607606771914 -0.003492260913489514 -0.000460346693282402 -0.0019299582197309577 0.0 0.0
0.0 0.009450451738760312 0.00820180071238824 -0.007566474850813872 -0.0006353258615743678 -0.0036753343772271373 0.0 0.0
0.0 0.016291294525520684 0.014047590566550482 -0.013294398556426189 -0.0007531920101242959 -0.005898484851904043 0.0 0.0
0.0 0.024836459868704936 0.0213638479839675 -0.02051269466339023 -0.000851153320577239 -0.00843794742284541 0.0 0.0
0.0 0.03490250774618439 0.02997939336513126 -0.029036743529335853 -0.000942649835795389 -0.011049763544161964 0.0 0.0
0.0 0.046342163738800506 0.03978605804437769 -0.038754307743403715 -0.0010317503009739906 -0.01359675745160646 0.0 0.0
0.0 0.05909526866235879 0.05075065059656684 -0.0496304445471453 -0.0011202060494215425 -0.016131146594847656 0.0 0.0
0.0 0.07316167426075826 0.06283640553075841 -0.061626537682496485 -0.0012098678482619024 -0.018677709404834264 0.0 0.0
0.0 0.0883351405276168 0.07590340382289266 -0.07460357006926646 -0.0012998337536261806 -0.0211307528925033 0.0 0.0
0.0 0.10402665485596516 0.08964233721464493 -0.08825153430023376 -0.0013908029144111538 -0.023150278622728365 0.0 0.0
0.0 0.11994693158346206 0.103483158262639 -0.10199692830306223 -0.0014862299595767427 -0.024119896306790588 0.0 0.0
0.0 0.13479920595847025 0.11648716382710994 -0.11490014603493094 -0.001587017792179012 -0.023284632828211957 0.0 0.0
0.0 0.14701574339971224 0.1273031537096563 -0.12561939890115978 -0.0016837548084965254 -0.019655691270135306 0.0 0.0
0.0 0.15489294394892253 0.13441329306621763 -0.13265881522531253 -0.00175447784090507 -0.012048672290836011 0.0 0.0
0.0 0.1548929439489119 0.13441329306620728 -0.13265881522530237 -0.0017544778409049823 0.012048672290883682 0.0 0.0
0.0 0.14701574339968074 0.12730315370962664 -0.1256193989011299 -0.0016837548084966656 0.019655691270196757 0.0 0.0
0.0 0.13479920595841832 0.11648716382706314 -0.11490014603488347 -0.0015870177921795884 0.02328463282825379 0.0 0.0
0.0 0.11994693158339909 0.10348315826258307 -0.10199692830300663 -0.001486229959576405 0.02411989630680926 0.0 0.0
0.0 0.10402665485589267 0.08964233721458215 -0.08825153430017177 -0.0013908029144103651 0.02315027862271834 0.0 0.0
0.0 0.08833514052754259 0.07590340382282812 -0.07460357006920298 -0.0012998337536251144 0.021130752892494394 0.0 0.0
0.0 0.07316167426068494 0.06283640553069443 -0.061626537682433376 -0.0012098678482610292 0.018677709404827034 0.0 0.0
0.0 0.059095268662286794 0.05075065059650413 -0.04963044454708318 -0.0011202060494209343 0.016131146594838854 0.0 0.0
0.0 0.04634216373872965 0.03978605804431673 -0.03875430774334266 -0.001031750300974073 0.013596757451587928 0.0 0.0
0.0 0.034902507746121386 0.029979393365077052 -0.029036743529281688 -0.0009426498357953658 0.011049763544142752 0.0 0.0
0.0 0.024836459868653283 0.021363847983923302 -0.02051269466334662 -0.000851153320576674 0.008437947422824459 0.0 0.0
0.0 0.01629129452547969 0.014047590566514981 -0.013294398556391333 -0.0007531920101236428 0.0058984848518903845 0.0 0.0
0.0 0.009450451738731037 0.008201800712362768 -0.007566474850789252 -0.0006353258615735141 0.00367533437721598 0.0 0.0
0.0 0.00456548779613525 0.003952607606755497 -0.0034922609134740634 -0.0004603466932814324 0.0019299582197233813 0.0 0.0
0.0 0.0016492545910779181 0.0013316015322558223 -0.001112324295709763 -0.0002192772365460594 0.0007630550127679598 0.0 0.0
0.0 0.0002595787214512991 0.00019437965313297251 -0.0001552695773410736 -3.9110075791898985e-05 0.00014874062859984125 0.0 0.0
0.0 3.2551706250566346e-06 6.640980740464657e-07 -5.134881273303842e-07 -1.5060994671607108e-07 6.719092421510556e-07 0.0 0.0
0.0 0.0 0.0 0.0 0.0 0.0 0.0 0.0
0.0 0.0 0.0 0.0 0.0 0.0 0.0 0.0
0.0 0.0054945941671918404 0.0036139078770649298 -0.004101061559535162 0.0004871536824702301 0.00464432908511521 0.0 0.0
0.0 0.003979955226995817 0.0025212960994531646 -0.002943011694168358 0.0004217155947151935 -0.0034285761057764805 0.0 0.0
0.0 0.0 0.0 0.0 0.0 0.0 0.0 0.0
0.0 0.0 0.0 0.0 0.0 0.0 0.0 0.0
0.0 4.997345681049669e-07 1.1311567003196164e-07 -8.595159885303314e-08 -2.7164071178928646e-08 -1.6336963398579916e-07 0.0 0.0
0.0 0.00010392814132973571 6.970604611780364e-05 -5.5565602884797e-05 -1.4140443233006685e-05 -8.283496519539854e-05 0.0 0.0
0.0 0.0010033792092415668 0.0007777245024418603 -0.0006391471010478895 -0.00013857740139397106 -0.0006612975431717076 0.0 0.0
0.0 0.0034200972344921635 0.002769096603301021 -0.002398235712023334 -0.0003708608912776866 -0.0018829993887068994 0.0 0.0
0.0 0.007434634565887422 0.0062908966961028896 -0.005716028029231137 -0.0005748686668717502 -0.0038148133205936183 0.0 0.0
0.0 0.013248490640240208 0.01125739641022522 -0.010550744590633326 -0.0007066518195918923 -0.00633365331182054 0.0 0.0
0.0 0.020591201983913506 0.017483967774973325 -0.016679513428693497 -0.0008044543462798241 -0.009158060875972145 0.0 0.0
0.0 0.029197527407231923 0.024792963291223595 -0.023902634889657937 -0.0008903284015656793 -0.012056259486872667 0.0 0.0
0.0 0.0389089449931131 0.0330774889077101 -0.03210624124361632 -0.0009712476640937577 -0.014881817932070017 0.0 0.0
0.0 0.04978376946466261 0.04232342168798636 -0.04127289948289312 -0.001050522205093241 -0.017690509454012918 0.0 0.0
0.0 0.061626852141616034 0.05253678697087486 -0.05140714750715272 -0.0011296394637221583 -0.020529577135656854 0.0 0.0
0.0 0.07456394712458855 0.06363750516207918 -0.062428869125470195 -0.0012086360366089582 -0.023250867634461665 0.0 0.0
0.0 0.0883113120683248 0.07540987104222809 -0.074121807288273 -0.0012880637539550831 -0.025522159815432485 0.0 0.0
0.0 0.10200232623037375 0.087439410426817 -0.08606914097670594 -0.0013702694501110428 -0.026807823826345 0.0 0.0
0.0 0.11509214358664817 0.09900395163431508 -0.09754585477005483 -0.0014580968642602193 -0.026181059961401 0.0 0.0
0.0 0.1262531694432807 0.10899939677472315 -0.10745435221880151 -0.001545044555921588 -0.022227354286311583 0.0 0.0
0.0 0.1339423751209473 0.11608240906578214 -0.11446893706616278 -0.001613471999619337 -0.013465030054692202 0.0 0.0
0.0 0.133942375120937 0.11608240906577186 -0.11446893706615241 -0.0016134719996193422 0.013465030054740808 0.0 0.0
0.0 0.12625316944325204 0.1089993967746952 -0.10745435221877316 -0.0015450445559220306 0.022227354286375376 0.0 0.0
0.0 0.11509214358660474 0.09900395163427413 -0.09754585477001425 -0.0014580968642598513 0.02618105996144691 0.0 0.0
0.0 0.10200232623032399 0.08743941042677157 -0.08606914097666149 -0.0013702694501100733 0.026807823826365776 0.0 0.0
0.0 0.08831131206826383 0.07540987104217527 -0.07412180728822049 -0.0012880637539548333 0.025522159815424196 0.0 0.0
0.0 0.07456394712452448 0.06363750516202388 -0.062428869125414774 -0.0012086360366091015 0.023250867634451326 0.0 0.0
0.0 0.06162685214155402 0.05253678697082118 -0.05140714750709914 -0.0011296394637220273 0.020529577135647768 0.0 0.0
0.0 0.049783769464602286 0.04232342168793352 -0.04127289948284098 -0.001050522205092517 0.017690509454003547 0.0 0.0
0.0 0.0389089449930575 0.03307748890766201 -0.03210624124356941 -0.0009712476640925759 0.014881817932051743 0.0 0.0
0.0 0.029197527407184568 0.02479296329118269 -0.023902634889618482 -0.0008903284015642156 0.012056259486853437 0.0 0.0
0.0 0.020591201983868167 0.017483967774935494 -0.016679513428656367 -0.000804454346279131 0.009158060875947966 0.0 0.0
0.0 0.013248490640203206 0.011257396410193764 -0.010550744590602307 -0.0007066518195914554 0.0063336533118043235 0.0 0.0
0.0 0.007434634565862079 0.006290896696081751 -0.005716028029210713 -0.0005748686668710369 0.0038148133205809336 0.0 0.0
0.0 0.0034200972344781196 0.002769096603289605 -0.0023982357120129853 -0.0003708608912766195 0.0018829993887002588 0.0 0.0
0.0 0.0010033792092343677 0.000777724502436673 -0.0006391471010434851 -0.00013857740139318765 0.0006612975431672347 0.0 0.0
0.0 0.00010392814132838241 6.970604611741607e-05 -5.5565602884464005e-05 -1.4140443232952003e-05 8.28349651948231e-05 0.0 0.0
0.0 4.997345679472602e-07 1.1311567016368092e-07 -8.595159895398582e-08 -2.7164071209693207e-08 1.6336963418377537e-07 0.0 0.0
0.0 0.0 0.0 0.0 0.0 0.0 0.0 0.0
0.0 0.0 0.0 0.0 0.0 0.0 0.0 0.0
0.0 0.003979955226982242 0.0025212960994443956 -0.0029430116941588425 0.0004217155947144453 0.0034285761057637285 0.0 0.0
0.0 0.0027190599043249086 0.0016699602892003736 -0.0020056431388710627 0.00033568284967068794 -0.0023836816717517574 0.0 0.0
0.0 0.0 0.0 0.0 0.0 0.0 0.0 0.0
0.0 0.0 0.0 0.0 0.0 0.0 0.0 0.0
0.0 1.2459832782016668e-06 -8.711175530045244e-08 6.722946238267231e-08 1.9882292917777628e-08 2.0432140011233723e-07 0.0 0.0
0.0 4.4357747858401646e-05 2.1845527366086278e-05 -1.736897633430292e-05 -4.476551031783359e-06 -3.8341353593280345e-05 0.0 0.0
0.0 0.0005240059975841608 0.0003877250704668301 -0.0003147435294839744 -7.298154098285546e-05 -0.0004937797422509064 0.0 0.0
0.0 0.002250850132717276 0.001756992952292587 -0.0014890583419093495 -0.000267934610383237 -0.0016848128624671285 0.0 0.0
0.0 0.005530198307811637 0.004477408619391821 -0.003988740079475421 -0.0004886685399163982 -0.0036114792982176874 0.0 0.0
0.0 0.01031843869885286 0.008520386851031216 -0.007875325748037315 -0.0006450611029939004 -0.006213124830738254 0.0 0.0
0.0 0.016402890119716785 0.01364754416339409 -0.012899175474670944 -0.000748368688723146 -0.009177208377400228 0.0 0.0
0.0 0.023521773244312028 0.01964417223183917 -0.018814043605236433 -0.0008301286266027364 -0.012187301609755983 0.0 0.0
0.0 0.031535851047279684 0.026407404837471254 -0.025503411058710367 -0.0009039937787608911 -0.015121456279168862 0.0 0.0
0.0 0.040429138813594626 0.03393800233401554 -0.03296377523753861 -0.0009742270964769337 -0.018037396791506597 0.0 0.0
0.0 0.05024840493353151 0.042273561661214175 -0.041230700999956696 -0.001042860661257498 -0.020967035370790255 0.0 0.0
0.0 0.0609906394728912 0.051396743878697 -0.05028534654748768 -0.001111397331209356 -0.02379674045942625 0.0 0.0
0.0 0.07221716245949839 0.061172113752101465 -0.05999289893154295 -0.0011792148205585164 -0.0262162568596577 0.0 0.0
0.0 0.08400654995563715 0.07132328382465762 -0.07007632772210852 -0.0012469561025490504 -0.027711981590912267 0.0 0.0
0.0 0.09547129457319606 0.08140588744648401 -0.08008675816576397 -0.0013191292807200506 -0.027414312942308044 0.0 0.0
0.0 0.1054839226906799 0.09063252174602077 -0.08923620992707601 -0.0013963118189447125 -0.023689291037208904 0.0 0.0
0.0 0.11312183463364003 0.09781328787313166 -0.09634723376321022 -0.001466054109921408 -0.014617126378492861 0.0 0.0
0.0 0.11312183463363376 0.09781328787312417 -0.09634723376320314 -0.0014660541099210042 0.014617126378542516 0.0 0.0
0.0 0.10548392269066259 0.0906325217460012 -0.089236209927057 -0.0013963118189442344 0.023689291037274234 0.0 0.0
0.0 0.09547129457316143 0.08140588744645007 -0.08008675816572956 -0.0013191292807205567 0.02741431294235471 0.0 0.0
0.0 0.08400654995559481 0.07132328382461885 -0.07007632772206962 -0.0012469561025492007 0.027711981590931176 0.0 0.0
0.0 0.07221716245945192 0.06117211375206106 -0.059992898931503516 -0.0011792148205575187 0.026216256859649484 0.0 0.0
0.0 0.06099063947284003 0.05139674387865251 -0.05028534654744416 -0.0011113973312083334 0.023796740459415357 0.0 0.0
0.0 0.05024840493348169 0.042273561661170744 -0.04123070099991392 -0.0010428606612568408 0.020967035370779773 0.0 0.0
0.0 0.04042913881354526 0.03393800233397269 -0.032963775237496246 -0.0009742270964764573 0.018037396791496164 0.0 0.0
0.0 0.03153585104723348 0.026407404837432136 -0.025503411058671818 -0.0009039937787603185 0.015121456279150628 0.0 0.0
0.0 0.023521773244268036 0.01964417223180208 -0.018814043605200136 -0.0008301286266019463 0.012187301609735437 0.0 0.0
0.0 0.0164028901196775 0.013647544163361934 -0.012899175474639583 -0.0007483686887223489 0.009177208377374377 0.0 0.0
0.0 0.010318438698823564 0.008520386851006739 -0.007875325748013516 -0.0006450611029932219 0.006213124830721878 0.0 0.0
0.0 0.005530198307789068 0.004477408619373503 -0.003988740079458139 -0.0004886685399153626 0.003611479298203919 0.0 0.0
0.0 0.0022508501327046858 0.001756992952282867 -0.001489058341900674 -0.00026793461038219276 0.0016848128624587725 0.0 0.0
0.0 0.0005240059975791031 0.0003877250704636471 -0.00031474352948133235 -7.298154098231462e-05 0.0004937797422470498 0.0 0.0
0.0 4.4357747857304413e-05 2.184552736598458e-05 -1.7368976334204713e-05 -4.4765510317798645e-06 3.834135359298686e-05 0.0 0.0
0.0 1.245983277765114e-06 -8.711175526903953e-08 6.722946235833695e-08 1.9882292910690027e-08 -2.0432140003799813e-07 0.0 0.0
0.0 0.0 0.0 0.0 0.0 0.0 0.0 0.0
0.0 0.0 0.0 0.0 0.0 0.0 0.0 0.0
0.0 0.0027190599043141407 0.0016699602891937003 -0.0020056431388635865 0.00033568284966988736 0.0023836816717420534 0.0 0.0
0.0 0.001730259754843332 0.001012293043677997 -0.0012511716846944861 0.00023887864101648922 -0.001525266379874945 0.0 0.0
0.0 4.3237046965141747e-07 -5.414833726629138e-09 5.131917599336839e-09 2.829161272924473e-10 8.656951798426124e-08 0.0 0.0
0.0 0.0 0.0 0.0 0.0 0.0 0.0 0.0
0.0 1.343535810957597e-06 -6.745450613659108e-08 5.1836617700734505e-08 1.5617888435866596e-08 2.5068220686766373e-07 0.0 0.0
0.0 2.337259536995343e-05 1.046899003367059e-05 -8.278229095263841e-06 -2.190760938406751e-06 -2.7150116880967144e-05 0.0 0.0
0.0 0.00027139189211154664 0.00015321645567457494 -0.0001234935007288906 -2.9722954945684402e-05 -0.0002963917931253666 0.0 0.0
0.0 0.0013273738586872179 0.0009440635313531934 -0.0007829872815143138 -0.0001610762498388793 -0.0013201939381778803 0.0 0.0
0.0 0.003730930552384654 0.0028425646046094065 -0.0024692172463165302 -0.0003733473582928756 -0.0031255562120512687 0.0 0.0
0.0 0.007487104305992795 0.0058976731376278015 -0.005342252472739449 -0.0005554206648883495 -0.005576786296001817 0.0 0.0
0.0 0.012297779868343612 0.009892658550309463 -0.009216944321637114 -0.0006757142286723489 -0.008456409116263457 0.0 0.0
0.0 0.01792273943476754 0.014570608217292828 -0.013812737070934956 -0.0007578711463578683 -0.011427437867043881 0.0 0.0
0.0 0.0242187251446317 0.01981713961274073 -0.018990394355570317 -0.0008267452571704142 -0.014301325359787405 0.0 0.0
0.0 0.031200365282461496 0.025638284458967802 -0.024749593187568305 -0.0008886912713994863 -0.017137800766319627 0.0 0.0
0.0 0.038868069061957874 0.03209796788321778 -0.031150836227476986 -0.0009471316557407802 -0.019992144703628673 0.0 0.0
0.0 0.04731921100984109 0.03923013985005174 -0.03822588187787023 -0.0010042579721815169 -0.022760841303082518 0.0 0.0
0.0 0.05640183263846722 0.04697679277847051 -0.04591436038383207 -0.001062432394638452 -0.02514882000745897 0.0 0.0
0.0 0.0658326485046556 0.055181781789470426 -0.054065845360688 -0.0011159364287824207 -0.026758382702790632 0.0 0.0
0.0 0.07544436621049222 0.06367421970464336 -0.06250550732431424 -0.001168712380329133 -0.026906378120108383 0.0 0.0
0.0 0.08472088000035234 0.07207365395142676 -0.07084057830203819 -0.0012330756493885687 -0.023946811864763707 0.0 0.0
0.0 0.09246613512784954 0.07942499979455002 -0.07811795031168224 -0.0013070494828677768 -0.015477778415982378 0.0 0.0
0.0 0.09246613512784461 0.07942499979454354 -0.07811795031167602 -0.0013070494828675112 0.01547777841602913 0.0 0.0
0.0 0.08472088000033662 0.07207365395140769 -0.07084057830201942 -0.0012330756493883586 0.023946811864827517 0.0 0.0
0.0 0.07544436621046928 0.06367421970461824 -0.06250550732428964 -0.0011687123803285546 0.026906378120154922 0.0 0.0
0.0 0.0658326485046274 0.05518178178944246 -0.05406584536066114 -0.0011159364287813434 0.02675838270281168 0.0 0.0
0.0 0.05640183263842807 0.04697679277843654 -0.0459143603837988 -0.0010624323946377221 0.02514882000745 0.0 0.0
0.0 0.0473192110097998 0.03923013985001662 -0.038225881877835335 -0.0010042579721812757 0.02276084130306936 0.0 0.0
0.0 0.03886806906191835 0.03209796788318393 -0.031150836227443003 -0.0009471316557409328 0.019992144703618164 0.0 0.0
0.0 0.03120036528242557 0.02563828445893679 -0.024749593187537722 -0.0008886912713990711 0.01713780076630976 0.0 0.0
0.0 0.02421872514459542 0.019817139612710373 -0.018990394355540632 -0.0008267452571697425 0.014301325359769582 0.0 0.0
0.0 0.01792273943473279 0.014570608217264604 -0.013812737070907062 -0.0007578711463575307 0.011427437867022834 0.0 0.0
0.0 0.012297779868312868 0.009892658550285802 -0.009216944321613725 -0.0006757142286720741 0.008456409116238883 0.0 0.0
0.0 0.007487104305970715 0.005897673137610564 -0.0053422524727227555 -0.0005554206648878085 0.005576786295987067 0.0 0.0
0.0 0.00373093055237052 0.002842564604598587 -0.0024692172463066644 -0.0003733473582919211 0.003125556212041246 0.0 0.0
0.0 0.0013273738586788097 0.0009440635313471715 -0.0007829872815091679 -0.00016107624983800308 0.0013201939381709648 0.0 0.0
0.0 0.0002713918921091211 0.0001532164556736476 -0.00012349350072812397 -2.9722954945523473e-05 0.0002963917931234831 0.0 0.0
0.0 2.33725953695645e-05 1.0468990033821955e-05 -8.278229095384157e-06 -2.190760938437804e-06 2.715011688137883e-05 0.0 0.0
0.0 1.343535810551308e-06 -6.74545061154224e-08 5.1836617684484416e-08 1.561788843093987e-08 -2.5068220678900275e-07 0.0 0.0
0.0 0.0 0.0 0.0 0.0 0.0 0.0 0.0
0.0 4.3237046913438544e-07 -5.414833720036132e-09 5.131917593071955e-09 2.82916126964362e-10 -8.656951787897293e-08 0.0 0.0
0.0 0.001730259754835306 0.0010122930436734486 -0.0012511716846892122 0.00023887864101576316 0.001525266379868108 0.0 0.0
0.0 0.0009707991239076332 0.0005284907797259149 -0.0006746120531405985 0.00014612127341468318 -0.0008474621617277137 0.0 0.0
0.0 9.190706919055798e-07 3.919959314666228e-09 -7.741665797726077e-10 -3.1457927348949597e-09 -1.553871718452746e-07 0.0 0.0
0.0 6.305102464673167e-07 -7.0898921551877894e-09 5.074535917472657e-09 2.0153562377156586e-09 1.2874703632778445e-07 0.0 0.0
0.0 1.001938751535836e-06 6.808382610405519e-10 -2.6555539436568184e-09 1.9747156826184776e-09 -4.903051640720246e-08 0.0 0.0
0.0 1.9261583831707816e-05 6.199915247947483e-06 -4.885178380562013e-06 -1.3147368673854808e-06 -2.518159669681976e-05 0.0 0.0
0.0 0.000147044452500357 6.039607178558849e-05 -4.839432893494519e-05 -1.2001742850643285e-05 -0.00018743044519171686 0.0 0.0
0.0 0.0006896454868888496 0.0003903598225236003 -0.0003179553991054623 -7.240442341813803e-05 -0.0008704060321619442 0.0 0.0
0.0 0.002179024170408377 0.0014654685722921396 -0.001234623043660204 -0.0002308455286319354 -0.0023739045029340555 0.0 0.0
0.0 0.004830254976579846 0.003483414426767215 -0.0030627444766370875 -0.0004206699501301243 -0.0045034027072536455 0.0 0.0
0.0 0.008266559377839254 0.006291204988350555 -0.005724484866210199 -0.0005667201221403542 -0.007038297269448564 0.0 0.0
0.0 0.012475297477529136 0.009625777131471294 -0.008964319701750677 -0.000661457429720615 -0.009725783991853212 0.0 0.0
0.0 0.01702149786555213 0.013358608182566088 -0.012628251821351542 -0.0007303563612145387 -0.012368070680381909 0.0 0.0
0.0 0.022050269920477206 0.01748259906532873 -0.016695559800662407 -0.0007870392646663275 -0.01497027527552137 0.0 0.0
0.0 0.027634820239269987 0.022069231600530616 -0.021232854162419344 -0.0008363774381112638 -0.017562347904391807 0.0 0.0
0.0 0.03387256241074727 0.027197617866146915 -0.026315155186727793 -0.0008824626794191152 -0.02010057966644461 0.0 0.0
0.0 0.04062636200812702 0.03289114553621238 -0.03196171260818862 -0.000929432928023744 -0.02233899236837827 0.0 0.0
0.0 0.04788188165616689 0.039090294214991626 -0.03811563569712602 -0.0009746585178656167 -0.02387419266302326 0.0 0.0
0.0 0.05545315846347446 0.04582121494852048 -0.044814662712272205 -0.0010065522362482531 -0.024396415425484756 0.0 0.0
0.0 0.06344400570101578 0.053197722763082725 -0.05215058443510579 -0.001047138327976892 -0.022731822206641522 0.0 0.0
0.0 0.0712115458304546 0.0607165418427088 -0.05959093551696506 -0.0011256063257437704 -0.015959736732008716 0.0 0.0
0.0 0.07121154583045347 0.06071654184270518 -0.05959093551696166 -0.0011256063257435141 0.01595973673204914 0.0 0.0
0.0 0.06344400570101008 0.053197722763071574 -0.052150584435094904 -0.0010471383279766708 0.022731822206700295 0.0 0.0
0.0 0.055453158463458864 0.045821214948501165 -0.0448146627122534 -0.0010065522362477403 0.024396415425527673 0.0 0.0
0.0 0.04788188165614121 0.03909029421496713 -0.038115635697101684 -0.0009746585178654623 0.02387419266303543 0.0 0.0
0.0 0.04062636200809568 0.03289114553618609 -0.03196171260816294 -0.0009294329280231427 0.022338992368366502 0.0 0.0
0.0 0.033872562410717864 0.02719761786612208 -0.026315155186704183 -0.0008824626794179175 0.020100579666432375 0.0 0.0
0.0 0.02763482023924059 0.022069231600505848 -0.021232854162395152 -0.0008363774381107068 0.017562347904381635 0.0 0.0
0.0 0.02205026992045271 0.01748259906530776 -0.01669555980064192 -0.0007870392646658453 0.014970275275513518 0.0 0.0
0.0 0.017021497865526206 0.013358608182545233 -0.01262825182133121 -0.0007303563612140261 0.012368070680366203 0.0 0.0
0.0 0.012475297477504468 0.009625777131451907 -0.008964319701731897 -0.0006614574297200036 0.00972578399183577 0.0 0.0
0.0 0.008266559377816625 0.006291204988333984 -0.005724484866194422 -0.0005667201221395598 0.007038297269428621 0.0 0.0
0.0 0.004830254976564393 0.0034834144267556974 -0.0030627444766263678 -0.0004206699501293294 0.004503402707241361 0.0 0.0
0.0 0.0021790241703982006 0.0014654685722848724 -0.0012346230436537922 -0.00023084552863107975 0.00237390450292475 0.0 0.0
0.0 0.0006896454868836061 0.0003903598225207507 -0.0003179553991030728 -7.240442341767792e-05 0.0008704060321564923 0.0 0.0
0.0 0.00014704445249864493 6.03960717852692e-05 -4.839432893467839e-05 -1.20017428505908e-05 0.00018743044519058688 0.0 0.0
0.0 1.9261583831298086e-05 6.199915248004878e-06 -4.885178380606484e-06 -1.3147368673983851e-06 2.5181596697081423e-05 0.0 0.0
0.0 1.0019387512752918e-06 6.808383394023789e-10 -2.655554005067091e-09 1.974715665661697e-09 4.903051696788171e-08 0.0 0.0
0.0 6.305102458760242e-07 -7.089892147158693e-09 5.074535912009278e-09 2.015356235150372e-09 -1.2874703620679312e-07 0.0 0.0
0.0 9.190706913869037e-07 3.919959356784563e-09 -7.741666288008182e-10 -3.1457927279838016e-09 1.5538717287343992e-07 0.0 0.0
0.0 0.0009707991239015962 0.0005284907797229151 -0.0006746120531369313 0.00014612127341401623 0.0008474621617231208 0.0 0.0
0.0 0.000404725622736995 0.0002171570161925099 -0.00028936099798732506 7.220398179481522e-05 -0.0003733119871271094 0.0 0.0
0.0 2.2308092307363348e-06 -2.9156364786477637e-09 8.164887849724022e-09 -5.249251371076035e-09 1.6148779575944523e-07 0.0 0.0
0.0 8.129603515550081e-07 -9.729788138728575e-10 -5.062304710215263e-10 1.479209284894036e-09 1.6676851108718092e-07 0.0 0.0
0.0 1.6428301983125965e-06 1.348976451497117e-08 -9.538003272580199e-09 -3.951761242387775e-09 -1.3867541711395756e-07 0.0 0.0
0.0 2.0609907307280412e-05 3.7858654977636025e-06 -2.927843432621911e-06 -8.580220651416978e-07 -2.8893971421453615e-05 0.0 0.0
0.0 0.00011478253913836824 2.7694152339295607e-05 -2.2179287941641714e-05 -5.51486439765389e-06 -0.000156946607939106 0.0 0.0
0.0 0.00036443808644962656 0.0001238015207794107 -9.984745847128605e-05 -2.395406230812458e-05 -0.0005285978180654085 0.0 0.0
0.0 0.001024872625814379 0.0004911437183605852 -0.00040115924572345916 -8.998447263712586e-05 -0.0014659852876765125 0.0 0.0
0.0 0.0024699004938050283 0.0014351604145823858 -0.0012081656362241434 -0.00022699477835824263 -0.0030428795334566106 0.0 0.0
0.0 0.004577450125711828 0.002979187714268962 -0.0025992133327425553 -0.0003799743815264052 -0.005002715914221568 0.0 0.0
0.0 0.007135436868148971 0.00493027170341926 -0.004430537958550393 -0.0004997337448688648 -0.007146544455362324 0.0 0.0
0.0 0.010074925693446016 0.007128993335836415 -0.006547329236251351 -0.0005816640995850615 -0.009332923118946476 0.0 0.0
0.0 0.013259684785484456 0.009564489232450709 -0.008921296317106017 -0.0006431929153446909 -0.011549759688326052 0.0 0.0
0.0 0.016793852489124822 0.012291809638459664 -0.011601784135416928 -0.000690025503042727 -0.013752403511190683 0.0 0.0
0.0 0.020756571268775757 0.015404012914812871 -0.014676431891119317 -0.0007275810236935473 -0.015921848166273334 0.0 0.0
0.0 0.02521385035799071 0.019007916252889587 -0.018245451593717023 -0.0007624646591725703 -0.01793022125514796 0.0 0.0
0.0 0.030193192710486552 0.023169521993739194 -0.02236840329190671 -0.0008011187018324936 -0.01940338147813327 0.0 0.0
0.0 0.03571645810779199 0.027996148387045262 -0.027166106884545193 -0.0008300415025000758 -0.020018356622441696 0.0 0.0
0.0 0.04229711768904776 0.03394208070337792 -0.033113576469293554 -0.0008285042340843744 -0.019635437995762634 0.0 0.0
0.0 0.04993960974283566 0.04142046454662773 -0.04052164778969422 -0.0008988167569335375 -0.01578363081230998 0.0 0.0
0.0 0.04993960974283508 0.041420464546624416 -0.040521647789690626 -0.0008988167569337951 0.015783630812343626 0.0 0.0
0.0 0.04229711768904434 0.033942080703368724 -0.03311357646928434 -0.0008285042340843698 0.019635437995812372 0.0 0.0
0.0 0.035716458107782616 0.027996148387031634 -0.027166106884531836 -0.000830041502499796 0.020018356622476564 0.0 0.0
0.0 0.030193192710472244 0.023169521993724844 -0.022368403291892776 -0.0008011187018320617 0.019403381478141923 0.0 0.0
0.0 0.02521385035796909 0.01900791625287371 -0.018245451593700775 -0.0007624646591729392 0.017930221255133445 0.0 0.0
0.0 0.020756571268755096 0.01540401291479714 -0.01467643189110333 -0.0007275810236938065 0.015921848166261295 0.0 0.0
0.0 0.01679385248910859 0.012291809638446803 -0.011601784135404502 -0.0006900255030423035 0.013752403511182721 0.0 0.0
0.0 0.01325968478547166 0.00956448923244022 -0.008921296317095859 -0.0006431929153443642 0.011549759688320855 0.0 0.0
0.0 0.010074925693430416 0.0071289933358250936 -0.0065473292362405846 -0.0005816640995845101 0.009332923118934276 0.0 0.0
0.0 0.007135436868131007 0.004930271703406869 -0.004430537958538556 -0.0004997337448683126 0.0071465444553458985 0.0 0.0
0.0 0.004577450125693805 0.0029791877142573277 -0.002599213332731784 -0.0003799743815255426 0.0050027159142030115 0.0 0.0
0.0 0.0024699004937968525 0.0014351604145772761 -0.0012081656362195594 -0.0002269947783577172 0.003042879533447616 0.0 0.0
0.0 0.001024872625810158 0.0004911437183583924 -0.0004011592457216556 -8.998447263673679e-05 0.00146598528767169 0.0 0.0
0.0 0.000364438086446743 0.0001238015207785208 -9.984745847055118e-05 -2.395406230796958e-05 0.0005285978180620513 0.0 0.0
0.0 0.00011478253913688662 2.7694152339259557e-05 -2.2179287941610075e-05 -5.514864397649471e-06 0.00015694660793858861 0.0 0.0
0.0 2.0609907306753896e-05 3.7858654977768856e-06 -2.9278434326306835e-06 -8.580220651462029e-07 2.889397142154419e-05 0.0 0.0
0.0 1.6428301982600254e-06 1.3489764572515629e-08 -9.538003312711941e-09 -3.951761259801035e-09 1.386754179739554e-07 0.0 0.0
0.0 8.12960351106587e-07 -9.729788137991681e-10 -5.062304704954294e-10 1.479209284295063e-09 -1.667685109932312e-07 0.0 0.0
0.0 2.2308092302105712e-06 -2.915636472503877e-09 8.164887835887887e-09 -5.249251363384331e-09 -1.6148779530133167e-07 0.0 0.0
0.0 0.0004047256227332335 0.0002171570161909569 -0.0002893609979853768 7.220398179441974e-05 0.0003733119871244256 0.0 0.0
0.0 0.00010779444343316167 5.4395018313067246e-05 -7.608338676233677e-05 2.1688368449269504e-05 -9.888959095443447e-05 0.0 0.0
0.0 2.5503191920247593e-06 2.4230989094018206e-10 9.25655959848986e-09 -9.49886948942879e-09 1.246819094273958e-07 0.0 0.0
0.0 1.923511531710929e-06 -6.266112372046855e-08 5.803942776677479e-08 4.6216959536937145e-09 -1.7228862366921664e-06 0.0 0.0
0.0 4.165815141479081e-06 -6.609721202962748e-08 8.496820300143929e-08 -1.8870990971811148e-08 -5.206531294693489e-06 0.0 0.0
0.0 2.4953198581030397e-05 8.608582223920356e-07 -5.774428005922557e-07 -2.8341542179978624e-07 -3.24764011272643e-05 0.0 0.0
0.0 0.00010995780149853286 8.471914459874383e-06 -6.678077877824925e-06 -1.7938365820494428e-06 -0.00016303082496438184 0.0 0.0
0.0 0.0002791176277765336 3.151950995595226e-05 -2.5409575416780166e-05 -6.109934539172097e-06 -0.00044618132307026756 0.0 0.0
0.0 0.0005852033691284574 8.497714938084433e-05 -6.886815110373394e-05 -1.610899827711028e-05 -0.000904807261267982 0.0 0.0
0.0 0.0010500778773415863 0.0002159525336274086 -0.00017555950946413957 -4.039302416326896e-05 -0.0016956432108765434 0.0 0.0
0.0 0.001862081673186611 0.0004980251980112428 -0.0004045798461274115 -9.344535188383142e-05 -0.002856284385133131 0.0 0.0
0.0 0.002844484470787865 0.0009571237735279025 -0.0007804685924574582 -0.00017665518107044394 -0.004333723940349238 0.0 0.0
0.0 0.004135541281497552 0.0015495177582907458 -0.0012884569489470792 -0.0002610608093436659 -0.005990088398214424 0.0 0.0
0.0 0.005642212614383024 0.0022731264543483704 -0.001938556218278793 -0.00033457023606957563 -0.0078033969141599446 0.0 0.0
0.0 0.007386057812785497 0.0031319819003208767 -0.00273862989485748 -0.0003933520054633984 -0.009749511366076576 0.0 0.0
0.0 0.009372468204714636 0.004207103510955153 -0.0037684201800525525 -0.00043868333090259806 -0.011812141911040805 0.0 0.0
0.0 0.01172830633473725 0.005661625423694569 -0.005186549386848632 -0.00047507603684593456 -0.013858235811363062 0.0 0.0
0.0 0.014489257971180142 0.007735893447784146 -0.007223885378894056 -0.0005120080688900861 -0.015508374688559297 0.0 0.0
0.0 0.01772992400704058 0.010644253236452786 -0.010084383458981019 -0.0005598697774717633 -0.01615339554311283 0.0 0.0
0.0 0.022080972239651626 0.014751285043677731 -0.0141829017560834 -0.0005683832875943278 -0.015884600049148087 0.0 0.0
0.0 0.028820019032722466 0.02136609173682106 -0.02082097115583324 -0.000545120580987819 -0.01493829021588655 0.0 0.0
0.0 0.02882001903272763 0.021366091736822454 -0.020820971155834724 -0.0005451205809877218 0.014938290215913473 0.0 0.0
0.0 0.02208097223965445 0.014751285043674189 -0.014182901756079773 -0.0005683832875944198 0.015884600049186973 0.0 0.0
0.0 0.017729924007035148 0.010644253236444943 -0.010084383458973042 -0.0005598697774718984 0.016153395543132235 0.0 0.0
0.0 0.014489257971175524 0.00773589344778099 -0.0072238853788910585 -0.0005120080688899265 0.015508374688558979 0.0 0.0
0.0 0.011728306334726544 0.005661625423689953 -0.0051865493868445255 -0.0004750760368454257 0.013858235811350015 0.0 0.0
0.0 0.009372468204704562 0.00420710351095052 -0.0037684201800480617 -0.0004386833309024573 0.011812141911029583 0.0 0.0
0.0 0.0073860578127788335 0.0031319819003185895 -0.0027386298948551277 -0.00039335200546346217 0.009749511366068456 0.0 0.0
0.0 0.00564221261437934 0.0022731264543479723 -0.0019385562182785236 -0.0003345702360694488 0.00780339691415414 0.0 0.0
0.0 0.004135541281488762 0.001549517758287685 -0.0012884569489443225 -0.0002610608093433622 0.00599008839820305 0.0 0.0
0.0 0.002844484470780491 0.0009571237735260369 -0.0007804685924558497 -0.0001766551810701869 0.004333723940338081 0.0 0.0
0.0 0.001862081673181142 0.0004980251980103431 -0.00040457984612670165 -9.344535188364149e-05 0.002856284385124965 0.0 0.0
0.0 0.0010500778773388617 0.00021595253362670575 -0.00017555950946361536 -4.0393024163090214e-05 0.0016956432108720522 0.0 0.0
0.0 0.0005852033691266668 8.497714938053886e-05 -6.886815110349363e-05 -1.6108998277045133e-05 0.0009048072612650316 0.0 0.0
0.0 0.0002791176277749508 3.151950995592477e-05 -2.540957541673674e-05 -6.109934539188002e-06 0.00044618132306914666 0.0 0.0
0.0 0.00010995780149717994 8.471914459856585e-06 -6.678077877809473e-06 -1.793836582047108e-06 0.0001630308249638348 0.0 0.0
0.0 2.4953198580457535e-05 8.608582223928533e-07 -5.774428005934334e-07 -2.834154217994235e-07 3.2476401127249796e-05 0.0 0.0
0.0 4.165815141343169e-06 -6.609721204225474e-08 8.496820301625413e-08 -1.8870990973999455e-08 5.2065312954658035e-06 0.0 0.0
0.0 1.9235115316153075e-06 -6.26611237493313e-08 5.8039427793396275e-08 4.62169595593481e-09 1.7228862373955248e-06 0.0 0.0
0.0 2.550319191530778e-06 2.423098908263016e-10 9.2565595900259e-09 -9.498869480849661e-09 -1.2468190897055877e-07 0.0 0.0
0.0 0.0001077944434316674 5.439501831271364e-05 -7.608338676184168e-05 2.168836844912798e-05 9.888959095396753e-05 0.0 0.0
0.0 9.371144142778207e-06 3.7825923349348355e-06 -5.4861088467324124e-06 1.7035165117975664e-06 -7.675049809120521e-06 0.0 0.0
0.0 2.3657789635637143e-06 -2.354577387652596e-08 1.6156177425896877e-08 7.3895964506339544e-09 -3.947423335854713e-07 0.0 0.0
0.0 4.367356150974847e-06 -3.596304296252185e-07 3.049921668876381e-07 5.463826273758116e-08 -4.272045941289847e-06 0.0 0.0
0.0 7.714479691158225e-06 -8.832276901528561e-07 7.748519721171451e-07 1.0837571803571164e-07 -1.054328517470254e-05 0.0 0.0
0.0 3.157541110532749e-05 -2.827213802011315e-06 2.4445248050815038e-06 3.826889969298228e-07 -4.076109528330197e-05 0.0 0.0
0.0 0.00011742618978509725 -1.1065742439507624e-05 9.115723004342161e-06 1.9500194351654576e-06 -0.00016721601919122362 0.0 0.0
0.0 0.0002823208751529125 -3.3467454962481246e-05 2.713327213366522e-05 6.3341828288160004e-06 -0.0004515832771154052 0.0 0.0
0.0 0.0005859352350601296 -8.540087110898764e-05 6.920823311325322e-05 1.6192637995734368e-05 -0.0009071113346592314 0.0 0.0
0.0 0.0010492873994143112 -0.00021581111911076712 0.0001754493157436878 4.036180336707925e-05 -0.0016967188351816563 0.0 0.0
0.0 0.0018607333783060018 -0.0004972849463066904 0.00040392606604590776 9.335888026078262e-05 -0.0028550880326372163 0.0 0.0
0.0 0.002856231817093618 -0.0009590982842078312 0.0007832175280362535 0.00017588075617157713 -0.0043353378743855985 0.0 0.0
0.0 0.004156421892734409 -0.0015747914189390044 0.0013135602349082032 0.0002612311840308006 -0.006003487274683462 0.0 0.0
0.0 0.005692314379261239 -0.002334243554022584 0.0019973507688725097 0.00033689278515007135 -0.007819525326298347 0.0 0.0
0.0 0.007428046270725852 -0.00319038273855844 0.002788316152815752 0.00040206658574268566 -0.009752085998028156 0.0 0.0
0.0 0.00922248510730458 -0.004034191481050048 0.003575184668810967 0.000459006812239081 -0.011795757180437183 0.0 0.0
0.0 0.010943443592909729 -0.004635793275436887 0.004127042865108471 0.0005087504103284113 -0.013910388102590784 0.0 0.0
0.0 0.012269153690523334 -0.004644276277937846 0.004093887078386672 0.0005503891995511741 -0.016081700696906707 0.0 0.0
0.0 0.013066241260101318 -0.003782778919626955 0.0032066145992386327 0.0005761643203883207 -0.01837372667537974 0.0 0.0
0.0 0.013317778700111265 -0.0020904606044122864 0.0015486235274742351 0.0005418370769380496 -0.02041240203803401 0.0 0.0
0.0 0.013061948044368383 0.0030172075816047935 -0.0030833906287928013 6.618304718800512e-05 -0.019276794950825956 0.0 0.0
0.0 0.013061948044372645 0.0030172075816041794 -0.0030833906287923035 6.618304718812682e-05 0.019276794950837454 0.0 0.0
0.0 0.013317778700113834 -0.0020904606044126316 0.001548623527474276 0.0005418370769383538 0.02041240203804604 0.0 0.0
0.0 0.013066241260096496 -0.003782778919624653 0.0032066145992363233 0.0005761643203883269 0.018373726675380786 0.0 0.0
0.0 0.012269153690512763 -0.00464427627793261 0.0040938870783816805 0.0005503891995509277 0.016081700696897495 0.0 0.0
0.0 0.010943443592896555 -0.004635793275429572 0.0041270428651016475 0.0005087504103279232 0.013910388102576485 0.0 0.0
0.0 0.009222485107293447 -0.004034191481043965 0.0035751846688052754 0.00045900681223868894 0.01179575718042608 0.0 0.0
0.0 0.007428046270713522 -0.003190382738551312 0.0027883161528091437 0.00040206658574216817 0.009752085998016852 0.0 0.0
0.0 0.005692314379251224 -0.0023342435540165186 0.0019973507688669017 0.00033689278514961604 0.007819525326289939 0.0 0.0
0.0 0.004156421892722996 -0.0015747914189331218 0.0013135602349029637 0.00026123118403015787 0.006003487274672259 0.0 0.0
0.0 0.0028562318170833544 -0.0009590982842030329 0.0007832175280321997 0.0001758807561708337 0.004335337874373366 0.0 0.0
0.0 0.0018607333782978915 -0.0004972849463038238 0.00040392606604345335 9.335888026037025e-05 0.0028550880326265763 0.0 0.0
0.0 0.0010492873994112826 -0.0002158111191097051 0.000175449315742852 4.0361803366853105e-05 0.001696718835177559 0.0 0.0
0.0 0.0005859352350583828 -8.54008711085975e-05 6.920823311291584e-05 1.6192637995681662e-05 0.0009071113346569182 0.0 0.0
0.0 0.00028232087515124246 -3.346745496239177e-05 2.7133272133624547e-05 6.334182828767219e-06 0.00045158327711397725 0.0 0.0
0.0 0.00011742618978389815 -1.106574243952667e-05 9.115723004363288e-06 1.95001943516339e-06 0.0001672160191910809 0.0 0.0
0.0 3.15754111043747e-05 -2.8272138020121512e-06 2.444524805081096e-06 3.826889969310501e-07 4.076109528329665e-05 0.0 0.0
0.0 7.714479690962097e-06 -8.83227690206456e-07 7.748519721638317e-07 1.0837571804262484e-07 1.0543285175302569e-05 0.0 0.0
0.0 4.367356150525678e-06 -3.5963042971169854e-07 3.049921669602403e-07 5.4638262751458924e-08 4.272045942274944e-06 0.0 0.0
0.0 2.3657789629625432e-06 -2.354577389062588e-08 1.6156177425602884e-08 7.389596465027905e-09 3.9474233407021744e-07 0.0 0.0
0.0 9.371144142299881e-06 3.7825923351233698e-06 -5.486108847011525e-06 1.7035165118881565e-06 7.675049809529745e-06 0.0 0.0
0.0 5.791226492451869e-07 -3.285152939261594e-08 4.863961923435166e-08 -1.578808984173702e-08 8.324711323925464e-08 0.0 0.0
0.0 1.329936495024723e-06 -4.1231618432625994e-08 2.5848372915799374e-08 1.5383245516825075e-08 -7.785112444577502e-07 0.0 0.0
0.0 5.400746549619443e-06 -7.082221689941219e-07 5.865691355963967e-07 1.2165303339772106e-07 -5.492278418982383e-06 0.0 0.0
0.0 1.1966383938412706e-05 -1.6026587000969732e-06 1.3700241478280743e-06 2.3263455226891253e-07 -1.0807573369054655e-05 0.0 0.0
0.0 3.839815346250317e-05 -8.521577458966832e-06 7.093015767310076e-06 1.4285616916567585e-06 -5.1333612339862624e-05 0.0 0.0
0.0 0.0001289318807860036 -3.386623882831072e-05 2.7459979772597583e-05 6.406259055713117e-06 -0.00017948473030617905 0.0 0.0
0.0 0.00037978223200625487 -0.00012890414269943796 0.00010416585498997082 2.473828770946719e-05 -0.000542567908473126 0.0 0.0
0.0 0.0010319734389680015 -0.0004944989082870659 0.00040397430732964327 9.052460095742268e-05 -0.0014748155441523085 0.0 0.0
0.0 0.002468144279648878 -0.001434365446672332 0.0012074793830553657 0.0002268860636169659 -0.00304364394936116 0.0 0.0
0.0 0.004575909003746798 -0.002978526689746234 0.002598871055544499 0.0003796556342017351 -0.005002219090620906 0.0 0.0
0.0 0.007143685660531422 -0.004937989790997505 0.00443900986914866 0.0004989799218488425 -0.007149456046936535 0.0 0.0
0.0 0.010104429794683015 -0.0071601410046589434 0.006579538198405996 0.0005806028062529488 -0.00933148952759171 0.0 0.0
0.0 0.013316319458139301 -0.009630357926595036 0.00898667987998068 0.0006436780466143534 -0.011522521959284915 0.0 0.0
0.0 0.01682910278860954 -0.0123423914468117 0.01164466882084895 0.0006977226259627521 -0.013702015876900151 0.0 0.0
0.0 0.020546858599890343 -0.015190654383395398 0.014441165337619891 0.0007494890457754994 -0.015944905702381502 0.0 0.0
0.0 0.02419067028478592 -0.017899138838555435 0.017099499164785904 0.0007996396737695269 -0.018330671970445977 0.0 0.0
0.0 0.02735538408235485 -0.020022598970201012 0.019180240014778 0.0008423589554230199 -0.020935153446676874 0.0 0.0
0.0 0.029421424086799437 -0.021019976299235753 0.020149450754771214 0.0008705255444645536 -0.023666867642850944 0.0 0.0
0.0 0.028757090684382494 -0.019818782043541348 0.018853460967048877 0.0009653210764924594 -0.024811247349419273 0.0 0.0
0.0 0.0227692094880365 -0.013650363860242588 0.012587346704943098 0.0010630171552994823 -0.02229791281114795 0.0 0.0
0.0 0.022769209488044423 -0.01365036386024251 0.012587346704942512 0.001063017155299994 0.022297912811177663 0.0 0.0
0.0 0.02875709068439003 -0.01981878204353942 0.018853460967046654 0.0009653210764927518 0.024811247349459643 0.0 0.0
0.0 0.02942142408679284 -0.021019976299224884 0.02014945075476047 0.0008705255444644048 0.0236668676428743 0.0 0.0
0.0 0.027355384082337134 -0.020022598970185133 0.01918024001476267 0.0008423589554224687 0.020935153446675833 0.0 0.0
0.0 0.024190670284763165 -0.017899138838537644 0.01709949916476808 0.000799639673769569 0.018330671970431207 0.0 0.0
0.0 0.020546858599867955 -0.0151906543833779 0.014441165337602405 0.0007494890457754987 0.015944905702368253 0.0 0.0
0.0 0.016829102788586577 -0.01234239144679376 0.011644668820831035 0.0006977226259627222 0.013702015876886851 0.0 0.0
0.0 0.01331631945811556 -0.009630357926575463 0.008986679879961513 0.0006436780466139441 0.011522521959273058 0.0 0.0
0.0 0.010104429794658138 -0.007160141004640184 0.006579538198387814 0.0005806028062523668 0.009331489527573905 0.0 0.0
0.0 0.007143685660508716 -0.004937989790981587 0.00443900986913353 0.0004989799218480569 0.007149456046916359 0.0 0.0
0.0 0.004575909003727399 -0.002978526689733055 0.0025988710555322862 0.00037965563420076765 0.005002219090602288 0.0 0.0
0.0 0.00246814427963778 -0.0014343654466646744 0.001207479383048553 0.000226886063616122 0.003043643949350112 0.0 0.0
0.0 0.0010319734389627423 -0.00049449890828394 0.0004039743073271095 9.05246009568306e-05 0.0014748155441462619 0.0 0.0
0.0 0.00037978223200355423 -0.0001289041426986696 0.00010416585498937168 2.4738287709297907e-05 0.0005425679084704704 0.0 0.0
0.0 0.00012893188078445185 -3.386623882823523e-05 2.7459979772530112e-05 6.406259055705101e-06 0.00017948473030562228 0.0 0.0
0.0 3.839815346146152e-05 -8.521577458952238e-06 7.093015767299851e-06 1.4285616916523696e-06 5.133361233976978e-05 0.0 0.0
0.0 1.1966383937758524e-05 -1.6026587001754515e-06 1.370024147894671e-06 2.3263455228078288e-07 1.0807573369558338e-05 0.0 0.0
0.0 5.400746549058693e-06 -7.082221691041775e-07 5.865691356864165e-07 1.216530334177605e-07 5.492278419826994e-06 0.0 0.0
0.0 1.3299364947711496e-06 -4.12316184678191e-08 2.584837292067995e-08 1.5383245547139504e-08 7.785112452763744e-07 0.0 0.0
0.0 5.791226488939735e-07 -3.285152937202806e-08 4.863961920387383e-08 -1.57880898318369e-08 -8.324711318699175e-08 0.0 0.0
0.0 0.0 0.0 0.0 0.0 0.0 0.0 0.0
0.0 1.2508586812791678e-06 1.7693331314728913e-08 -8.022362203851962e-09 -9.670969110877117e-09 2.5436291706895875e-07 0.0 0.0
0.0 4.875042876379007e-06 -4.0004703021388176e-07 3.2823310743753483e-07 7.181392277634306e-08 -2.254297513769581e-06 0.0 0.0
0.0 1.4344612834127707e-05 -2.2895721181018154e-06 1.8889501959684565e-06 4.0062192213336696e-07 -9.895911853758729e-06 0.0 0.0
0.0 4.6568257118591045e-05 -1.533847123536022e-05 1.2532079397104362e-05 2.8063918382558694e-06 -5.61176475842855e-05 0.0 0.0
0.0 0.00017911493473178174 -7.614202823857232e-05 6.155875187838419e-05 1.4583276360188088e-05 -0.0002284480963922022 0.0 0.0
0.0 0.0007164685697927526 -0.0004031800815115206 0.00032897359252376365 7.420648898775689e-05 -0.0008959020882900359 0.0 0.0
0.0 0.002183602493312679 -0.0014668616363504151 0.0012360455386553062 0.00023081609769510906 -0.0023811014286818093 0.0 0.0
0.0 0.004825417844842128 -0.0034806879305692385 0.0030602347651880447 0.00042045316538119235 -0.004500665878197265 0.0 0.0
0.0 0.008266707275602707 -0.006292189802246188 0.005725686203486003 0.0005665035987601839 -0.007037867090855113 0.0 0.0
0.0 0.012484893092572884 -0.009634967728724873 0.008974196845324611 0.0006607708834002667 -0.009726192514164678 0.0 0.0
0.0 0.01704147547144276 -0.013383200960075285 0.012654076413153746 0.0007291245469215426 -0.012343824838606582 0.0 0.0
0.0 0.02207379147187545 -0.01752835492377823 0.016741462920998297 0.0007868920027799342 -0.014870843636576182 0.0 0.0
0.0 0.02761938003532235 -0.022093886445715107 0.021251519804130918 0.0008423666415841805 -0.01739095983159495 0.0 0.0
0.0 0.03364948126004903 -0.0269909441361562 0.026089900644692337 0.0009010434914638454 -0.020104766215147556 0.0 0.0
0.0 0.03977112331145363 -0.03191177245190084 0.03094979631372117 0.0009619761381796493 -0.023289923766109166 0.0 0.0
0.0 0.04550135529919275 -0.03629438713248864 0.03527417674960385 0.001020210382884785 -0.02712189826272297 0.0 0.0
0.0 0.04941466610772839 -0.03919172391127933 0.03809766846232132 0.0010940554489580036 -0.030901887692408023 0.0 0.0
0.0 0.04958072389798109 -0.03880754851286253 0.03761971099816889 0.001187837514693616 -0.032768572580113835 0.0 0.0
0.0 0.0410252515707285 -0.031517716474676744 0.030106467097570935 0.0014112493771057963 -0.02889002420292405 0.0 0.0
0.0 0.041025251570737484 -0.031517716474676834 0.030106467097571123 0.0014112493771057078 0.028890024202963403 0.0 0.0
0.0 0.049580723897986755 -0.03880754851285767 0.03761971099816442 0.001187837514693243 0.0327685725801665 0.0 0.0
0.0 0.04941466610771685 -0.03919172391126284 0.038097668462305244 0.0010940554489575758 0.030901887692440528 0.0 0.0
0.0 0.04550135529916437 -0.03629438713246215 0.035274176749578154 0.0010202103828840256 0.0271218982627267 0.0 0.0
0.0 0.039771123311416974 -0.03191177245186988 0.0309497963136912 0.0009619761381786887 0.02328992376609409 0.0 0.0
0.0 0.03364948126001359 -0.026990944136126772 0.026089900644663454 0.0009010434914633091 0.020104766215131527 0.0 0.0
0.0 0.027619380035288767 -0.022093886445687543 0.021251519804103725 0.0008423666415838143 0.017390959831577738 0.0 0.0
0.0 0.022073791471842696 -0.017528354923750437 0.01674146292097075 0.0007868920027796784 0.01487084363656365 0.0 0.0
0.0 0.017041475471411258 -0.01338320096004961 0.0126540764131287 0.0007291245469209104 0.012343824838588521 0.0 0.0
0.0 0.012484893092541178 -0.009634967728700036 0.008974196845300401 0.0006607708833996316 0.009726192514141899 0.0 0.0
0.0 0.008266707275574213 -0.0062921898022245204 0.005725686203464984 0.0005665035987595357 0.007037867090833242 0.0 0.0
0.0 0.004825417844822014 -0.003480687930553612 0.0030602347651733776 0.00042045316538023316 0.004500665878182258 0.0 0.0
0.0 0.002183602493301264 -0.0014668616363421262 0.0012360455386480856 0.00023081609769404042 0.002381101428671912 0.0 0.0
0.0 0.0007164685697870901 -0.0004031800815085211 0.0003289735925213319 7.42064889871891e-05 0.0008959020882845612 0.0 0.0
0.0 0.0001791149347296278 -7.614202823812239e-05 6.155875187803391e-05 1.4583276360088448e-05 0.0002284480963908261 0.0 0.0
0.0 4.6568257117437264e-05 -1.5338471235361236e-05 1.2532079397104683e-05 2.8063918382565165e-06 5.6117647584288336e-05 0.0 0.0
0.0 1.4344612833549205e-05 -2.28957211827097e-06 1.8889501961085308e-06 4.006219221624279e-07 9.895911854501504e-06 0.0 0.0
0.0 4.875042875998484e-06 -4.0004703036763174e-07 3.2823310756290836e-07 7.181392280472967e-08 2.254297514658805e-06 0.0 0.0
0.0 1.2508586809248778e-06 1.7693331309732382e-08 -8.022362201433076e-09 -9.67096910830339e-09 -2.543629169952669e-07 0.0 0.0
0.0 0.0 0.0 0.0 0.0 0.0 0.0 0.0
0.0 0.0 0.0 0.0 0.0 0.0 0.0 0.0
0.0 3.8538157917848767e-07 8.524370000021943e-09 -5.889213621647465e-09 -2.6351563783748637e-09 7.625979648851619e-08 0.0 0.0
0.0 2.692625983474648e-06 -1.3044320543167285e-07 1.0584926609261553e-07 2.4593939339052428e-08 -5.419984549162827e-07 0.0 0.0
0.0 1.3908082035301529e-05 -3.77093269461185e-06 3.1096991749467484e-06 6.612335196650984e-07 -1.2349787001841053e-05 0.0 0.0
0.0 5.903494853424649e-05 -2.4722697405480284e-05 2.0124196498972922e-05 4.598500906507378e-06 -6.295085287446505e-05 0.0 0.0
0.0 0.0003150294292863963 -0.00018611292223193142 0.00015076118924498623 3.535173298694521e-05 -0.0003578454943978461 0.0 0.0
0.0 0.0013574116028974858 -0.0009547201086329675 0.000793214099097184 0.00016150600953578352 -0.0013436694225491491 0.0 0.0
0.0 0.0037281252393708123 -0.002838443575923425 0.0024656639929332568 0.0003727795829901679 -0.003125663790632914 0.0 0.0
0.0 0.007482198492175022 -0.00589499838762558 0.005339609412995277 0.0005553889746303044 -0.005571668223712766 0.0 0.0
0.0 0.012298903014398302 -0.009896240619389011 0.009220658544407146 0.0006755820749818659 -0.008456934642786847 0.0 0.0
0.0 0.01793175751567272 -0.01457927343906357 0.013821834661363285 0.0007574387777002851 -0.011425362115699741 0.0 0.0
0.0 0.024220278507943893 -0.01982712754800238 0.019001157940649344 0.000825969607353023 -0.014256815448983018 0.0 0.0
0.0 0.03117383012179227 -0.025644297404834034 0.024756131122559973 0.0008881662822740346 -0.016972207933047455 0.0 0.0
0.0 0.038787817187546966 -0.0320762825492073 0.03112630258141254 0.0009499799677947688 -0.019694441825149556 0.0 0.0
0.0 0.04712144158054041 -0.03906007241845677 0.03804411816579504 0.0010159542526616962 -0.022703868872092678 0.0 0.0
0.0 0.05583512444372176 -0.04626744936708616 0.04517803673620756 0.001089412630878584 -0.02644148921459026 0.0 0.0
0.0 0.06399900886610449 -0.05292187612186092 0.05174879862151367 0.0011730775003472216 -0.031064249900457676 0.0 0.0
0.0 0.06993790241546088 -0.05756055958781818 0.056289232173975516 0.001271327413842613 -0.03571343282938877 0.0 0.0
0.0 0.07041059925765747 -0.05763980741703338 0.056228206085988094 0.0014116013310452524 -0.03794925144438413 0.0 0.0
0.0 0.05986690784681669 -0.04861110315225737 0.04698107493194516 0.0016300282203122376 -0.03437801063360043 0.0 0.0
0.0 0.05986690784682047 -0.04861110315225367 0.04698107493194132 0.0016300282203123228 0.03437801063364364 0.0 0.0
0.0 0.07041059925765349 -0.05763980741702099 0.05622820608597603 0.0014116013310449358 0.03794925144444133 0.0 0.0
0.0 0.06993790241544037 -0.057560559587793825 0.056289232173951695 0.0012713274138421021 0.03571343282942854 0.0 0.0
0.0 0.0639990088660672 -0.05292187612182611 0.05174879862147936 0.0011730775003467313 0.031064249900466977 0.0 0.0
0.0 0.05583512444367653 -0.0462674493670473 0.04517803673616887 0.0010894126308784126 0.026441489214578708 0.0 0.0
0.0 0.047121441580494264 -0.03906007241841773 0.038044118165756 0.0010159542526616914 0.022703868872077086 0.0 0.0
0.0 0.038787817187501517 -0.0320762825491691 0.031126302581374637 0.0009499799677944681 0.01969444182513165 0.0 0.0
0.0 0.031173830121747844 -0.025644297404795912 0.02475613112252252 0.0008881662822733937 0.016972207933033084 0.0 0.0
0.0 0.02422027850789793 -0.019827127547963803 0.01900115794061123 0.0008259696073525649 0.014256815448961725 0.0 0.0
0.0 0.01793175751562976 -0.014579273439028786 0.013821834661328887 0.0007574387776998962 0.01142536211567323 0.0 0.0
0.0 0.012298903014362615 -0.00989624061936055 0.009220658544379298 0.0006755820749812471 0.00845693464276221 0.0 0.0
0.0 0.007482198492147967 -0.005894998387604124 0.00533960941297466 0.0005553889746294662 0.005571668223695703 0.0 0.0
0.0 0.0037281252393543147 -0.002838443575910552 0.002465663992921508 0.0003727795829890428 0.0031256637906212823 0.0 0.0
0.0 0.001357411602887584 -0.0009547201086259994 0.0007932140990912447 0.0001615060095347546 0.0013436694225409478 0.0 0.0
0.0 0.00031502942928265834 -0.00018611292223028936 0.00015076118924361038 3.535173298667904e-05 0.00035784549439481683 0.0 0.0
0.0 5.903494853363123e-05 -2.472269740572483e-05 2.012419649916496e-05 4.598500906559815e-06 6.295085287502936e-05 0.0 0.0
0.0 1.3908082034500425e-05 -3.7709326947143393e-06 3.1096991750292245e-06 6.612335196851065e-07 1.2349787002175526e-05 0.0 0.0
0.0 2.6926259830538368e-06 -1.3044320559482862e-07 1.05849266224114e-07 2.4593939370712667e-08 5.419984556472824e-07 0.0 0.0
0.0 3.8538157904294466e-07 8.52436999717895e-09 -5.889213619678072e-09 -2.6351563774992616e-09 -7.62597964614563e-08 0.0 0.0
0.0 0.0 0.0 0.0 0.0 0.0 0.0 0.0
0.0 0.0 0.0 0.0 0.0 0.0 0.0 0.0
0.0 0.0 0.0 0.0 0.0 0.0 0.0 0.0
0.0 7.018683102629354e-07 8.6891712950511e-10 -4.2158675056352857e-10 -4.47330378938464e-10 3.4859702657329523e-09 0.0 0.0
0.0 1.3228968553666898e-05 -2.419161274825537e-06 1.9612144483613572e-06 4.579468264641905e-07 -5.77135577092491e-06 0.0 0.0
0.0 9.497748617605992e-05 -4.4561651195518714e-05 3.600924461283807e-05 8.552406582680632e-06 -7.921598770066886e-05 0.0 0.0
0.0 0.0005883752070685969 -0.00042037766027718963 0.00034309092198788393 7.728673828930573e-05 -0.000544215822906943 0.0 0.0
0.0 0.002267007513020683 -0.0017590457356123975 0.0014924196665210988 0.00026662606909129806 -0.001700935965343925 0.0 0.0
0.0 0.005523315767346682 -0.00447056403470159 0.003982289784888566 0.00048827424981302294 -0.003606932819018377 0.0 0.0
0.0 0.010316088664308767 -0.008519738050699954 0.007874529730628679 0.000645208320071277 -0.006206709246052057 0.0 0.0
0.0 0.016409323981894774 -0.013653392997966685 0.012905061994827447 0.0007483310031392401 -0.0091774386946375 0.0 0.0
0.0 0.0235269031826757 -0.019650127505161784 0.018820067182400167 0.0008300603227616122 -0.012180371152713513 0.0 0.0
0.0 0.03151375892468714 -0.026397045385864314 0.025493164657499665 0.0009038807283646588 -0.015061623388940883 0.0 0.0
0.0 0.040343693255890246 -0.0338908397475256 0.032917476008364206 0.0009733637391613689 -0.017833649848378746 0.0 0.0
0.0 0.05009756735953466 -0.04218797232437606 0.041146489264615595 0.0010414830597604667 -0.020592955994156992 0.0 0.0
0.0 0.06082465624326286 -0.05126638751451176 0.05015123871835006 0.0011151487961617097 -0.023642616706247357 0.0 0.0
0.0 0.0719254716675057 -0.06076592837485186 0.05956296958547773 0.0012029587893741213 -0.02746560632607912 0.0 0.0
0.0 0.08269267230196911 -0.06965010888900314 0.06834026310536341 0.0013098457836397362 -0.03229727277706462 0.0 0.0
0.0 0.09042118837634294 -0.07589900922646647 0.07445769426890302 0.0014413149575634603 -0.03735539987492058 0.0 0.0
0.0 0.09105713065083368 -0.07616352650542885 0.07455795942627604 0.0016055670791527742 -0.04038193610737573 0.0 0.0
0.0 0.07884040972046762 -0.06540078420872256 0.0635991096836846 0.0018016745250379522 -0.03917946912275172 0.0 0.0
0.0 0.07884040972047253 -0.06540078420872024 0.06359910968368246 0.0018016745250377464 0.03917946912279721 0.0 0.0
0.0 0.09105713065082538 -0.07616352650541408 0.07455795942626152 0.001605567079152537 0.04038193610743336 0.0 0.0
0.0 0.09042118837631385 -0.07589900922643576 0.07445769426887235 0.0014413149575633396 0.03735539987496309 0.0 0.0
0.0 0.08269267230192369 -0.06965010888896159 0.06834026310532221 0.0013098457836393405 0.03229727277707502 0.0 0.0
0.0 0.0719254716674524 -0.06076592837480528 0.059562969585431974 0.001202958789373292 0.027465606326070487 0.0 0.0
0.0 0.06082465624320599 -0.05126638751446264 0.05015123871830173 0.0011151487961609293 0.02364261670623328 0.0 0.0
0.0 0.05009756735947855 -0.04218797232432793 0.041146489264567945 0.001041483059759988 0.02059295599413987 0.0 0.0
0.0 0.04034369325583397 -0.033890839747477135 0.03291747600831606 0.0009733637391610716 0.017833649848363598 0.0 0.0
0.0 0.031513758924629987 -0.026397045385815703 0.02549316465745132 0.0009038807283643735 0.015061623388919747 0.0 0.0
0.0 0.023526903182624567 -0.019650127505119283 0.018820067182358055 0.0008300603227612228 0.012180371152686777 0.0 0.0
0.0 0.016409323981851874 -0.013653392997930974 0.012905061994792374 0.0007483310031386089 0.009177438694612164 0.0 0.0
0.0 0.010316088664276007 -0.00851973805067272 0.007874529730602072 0.000645208320070652 0.006206709246034848 0.0 0.0
0.0 0.005523315767322718 -0.0044705640346819914 0.00398228978486995 0.000488274249812041 0.0036069328190049457 0.0 0.0
0.0 0.002267007513006819 -0.0017590457356017183 0.001492419666511728 0.0002666260690899909 0.0017009359653348335 0.0 0.0
0.0 0.0005883752070619864 -0.0004203776602729418 0.00034309092198436873 7.728673828857305e-05 0.0005442158229019038 0.0 0.0
0.0 9.497748617459575e-05 -4.456165119531597e-05 3.6009244612657726e-05 8.552406582658151e-06 7.921598770024485e-05 0.0 0.0
0.0 1.3228968553254156e-05 -2.4191612750794304e-06 1.961214448566957e-06 4.5794682651248344e-07 5.771355771551337e-06 0.0 0.0
0.0 7.018683102367852e-07 8.689169996229026e-10 -4.215866453388432e-10 -4.473303542848442e-10 -3.4859698081316214e-09 0.0 0.0
0.0 0.0 0.0 0.0 0.0 0.0 0.0 0.0
0.0 0.0 0.0 0.0 0.0 0.0 0.0 0.0
0.0 0.0 0.0 0.0 0.0 0.0 0.0 0.0
0.0 0.0 0.0 0.0 0.0 0.0 0.0 0.0
0.0 9.159772724021529e-07 5.630253744311479e-08 -4.536700834069255e-08 -1.0935529102421052e-08 1.5681455061216043e-07 0.0 0.0
0.0 1.0324585927632723e-05 -4.193947962750882e-06 3.3722252104660183e-06 8.217227522849039e-07 -7.717705150391783e-06 0.0 0.0
0.0 0.00015700803302175757 -0.00010126401351915239 8.160460474883631e-05 1.965940877031612e-05 -0.00012899668570061688 0.0 0.0
0.0 0.0010388397976014271 -0.0008017729646827239 0.0006615231834712403 0.00014024978121148377 -0.0007109661720738902 0.0 0.0
0.0 0.003424121959794911 -0.0027649381867330403 0.0023958726639476146 0.0003690655227854262 -0.0018950075190362352 0.0 0.0
0.0 0.007427844622161386 -0.006285356614799864 0.0057104498210863 0.0005749067937135641 -0.0038049485270743983 0.0 0.0
0.0 0.013250131749278454 -0.011259645059783177 0.010552774782013523 0.0007068702777696548 -0.006327943545995818 0.0 0.0
0.0 0.020599039291646845 -0.017491018176739183 0.016686507303995898 0.0008045108727432946 -0.00915799187968205 0.0 0.0
0.0 0.02919596338065937 -0.024793590422661545 0.02390298831978274 0.0008906021028787901 -0.012043446210914866 0.0 0.0
0.0 0.038861268577017175 -0.03304414338706631 0.032072472284203596 0.0009716711028626867 -0.014812901908050232 0.0 0.0
0.0 0.049643119091699654 -0.04222156272497697 0.041172161652116214 0.001049401072860757 -0.017489859919883156 0.0 0.0
0.0 0.0614046009697019 -0.05237762561617365 0.051252831081774516 0.0011247945343991323 -0.020159426048245013 0.0 0.0
0.0 0.0743850261329534 -0.06350495526711245 0.06229956601947327 0.001205389247639188 -0.02297180476837823 0.0 0.0
0.0 0.08818148913673407 -0.07522586678987377 0.07391955004415122 0.0013063167457225148 -0.02635217477655713 0.0 0.0
0.0 0.10105847178011448 -0.08627931815448922 0.08484246873343806 0.0014368494210511052 -0.03080441563211211 0.0 0.0
0.0 0.11036287291721109 -0.09407496247858102 0.09247762817948753 0.001597334299093413 -0.03603743432648304 0.0 0.0
0.0 0.11141332719182465 -0.09456227487687549 0.0927867714947045 0.001775503382170912 -0.040673347644413174 0.0 0.0
0.0 0.09824145860163214 -0.08232991578852943 0.08037179606864647 0.0019581197198829444 -0.04365560319714895 0.0 0.0
0.0 0.09824145860162925 -0.08232991578852127 0.08037179606863791 0.001958119719883287 0.04365560319719482 0.0 0.0
0.0 0.1114133271918085 -0.09456227487685516 0.09278677149468478 0.001775503382170337 0.040673347644469296 0.0 0.0
0.0 0.1103628729171737 -0.09407496247854405 0.09247762817945104 0.001597334299092959 0.036037434326525425 0.0 0.0
0.0 0.10105847178006117 -0.08627931815444119 0.08484246873339069 0.0014368494210504614 0.03080441563212275 0.0 0.0
0.0 0.08818148913667408 -0.07522586678982124 0.0739195500440997 0.0013063167457215195 0.026352174776551184 0.0 0.0
0.0 0.07438502613288878 -0.06350495526705613 0.06229956601941776 0.0012053892476383524 0.022971804768369835 0.0 0.0
0.0 0.061404600969636146 -0.052377625616116634 0.05125283108171831 0.0011247945343982953 0.02015942604823079 0.0 0.0
0.0 0.04964311909163133 -0.04222156272491773 0.04117216165205729 0.001049401072860408 0.01748985991986788 0.0 0.0
0.0 0.03886126857694968 -0.03304414338700833 0.03207247228414568 0.0009716711028626377 0.014812901908030241 0.0 0.0
0.0 0.02919596338059778 -0.024793590422609417 0.023902988319730974 0.0008906021028784475 0.012043446210888726 0.0 0.0
0.0 0.020599039291592968 -0.01749101817669387 0.016686507303950878 0.000804510872742983 0.009157991879656407 0.0 0.0
0.0 0.013250131749239991 -0.011259645059750339 0.010552774781981269 0.0007068702777690729 0.006327943545979096 0.0 0.0
0.0 0.007427844622135697 -0.00628535661477794 0.005710449821065379 0.0005749067937125591 0.0038049485270625627 0.0 0.0
0.0 0.0034241219597783653 -0.0027649381867196642 0.0023958726639353957 0.0003690655227842691 0.0018950075190276036 0.0 0.0
0.0 0.0010388397975939771 -0.0008017729646773622 0.0006615231834666963 0.00014024978121066555 0.0007109661720695081 0.0 0.0
0.0 0.0001570080330193269 -0.00010126401351815744 8.160460474800299e-05 1.9659408770154406e-05 0.00012899668569932567 0.0 0.0
0.0 1.0324585927359357e-05 -4.193947962976858e-06 3.372225210643613e-06 8.21722752333223e-07 7.717705150800665e-06 0.0 0.0
0.0 9.159772720464821e-07 5.630253742091469e-08 -4.5367008322703315e-08 -1.0935529098212496e-08 -1.5681455054918204e-07 0.0 0.0
0.0 0.0 0.0 0.0 0.0 0.0 0.0 0.0
0.0 0.0 0.0 0.0 0.0 0.0 0.0 0.0
0.0 0.0 0.0 0.0 0.0 0.0 0.0 0.0
0.0 0.0 0.0 0.0 0.0 0.0 0.0 0.0
0.0 1.689842663827738e-07 1.2417531491820355e-08 -9.875132672039358e-09 -2.542398819781851e-09 2.52211868254362e-08 0.0 0.0
0.0 9.97371870172455e-06 -5.226763509756237e-06 4.163084975210707e-06 1.0636785345455501e-06 -7.0957626210764275e-06 0.0 0.0
0.0 0.00028690309849037935 -0.00020994907338160108 0.00016949354733447014 4.045552604713099e-05 -0.00018599242634333808 0.0 0.0
0.0 0.0016686888074451255 -0.0013330861235108828 0.0011164179310826463 0.00021666819242823705 -0.0008041098144574562 0.0 0.0
0.0 0.004561801810079345 -0.0039471101747171515 0.0034876812499993856 0.00045942892471776884 -0.0019334741933421944 0.0 0.0
0.0 0.00944938251591009 -0.008200852554814064 0.007565235475500554 0.0006356170793135134 -0.003663455247667713 0.0 0.0
0.0 0.016297240066362944 -0.014052809122497768 0.013299396818554498 0.0007534123039432646 -0.005894138383558765 0.0 0.0
0.0 0.02484374744714144 -0.02137040099706199 0.020519064716213828 0.0008513362808481821 -0.008436888062699797 0.0 0.0
0.0 0.0348913137443277 -0.029971840418776687 0.029028693662647438 0.0009431467561292312 -0.01103098200286018 0.0 0.0
0.0 0.046270623337669355 -0.039730239558035535 0.03869790932210823 0.0010323302359272835 -0.013527192138830088 0.0 0.0
0.0 0.058912878931126594 -0.0506043519051122 0.04948537776073748 0.0011189741443747164 -0.015968392389423443 0.0 0.0
0.0 0.07287263461033688 -0.06260469268001208 0.06140066119382652 0.0012040314861855286 -0.01838591865987486 0.0 0.0
0.0 0.08806350617344766 -0.07569219649548599 0.07440029474216363 0.0012919017533223713 -0.020770400845073648 0.0 0.0
0.0 0.10384978289868792 -0.0894854047829075 0.08808521204856634 0.001400192734341092 -0.023296722053386863 0.0 0.0
0.0 0.11910370405765286 -0.10260813481183201 0.10105751358510559 0.0015506212267264038 -0.026681593721075283 0.0 0.0
0.0 0.13024614002540497 -0.11203552774321249 0.11029942885290542 0.0017360988903071077 -0.03181674395274914 0.0 0.0
0.0 0.13203423011905174 -0.11307598938025559 0.11114355344784502 0.0019324359324105374 -0.038906500688025154 0.0 0.0
0.0 0.11816757386793258 -0.09978016561095289 0.09766740281037883 0.002112762800573968 -0.04782166490666587 0.0 0.0
0.0 0.11816757386792734 -0.09978016561094312 0.09766740281036909 0.0021127628005740617 0.04782166490670922 0.0 0.0
0.0 0.1320342301190257 -0.1130759893802284 0.1111435534478179 0.0019324359324105356 0.03890650068807746 0.0 0.0
0.0 0.13024614002535903 -0.11203552774316974 0.11029942885286304 0.0017360988903065795 0.031816743952786025 0.0 0.0
0.0 0.11910370405758736 -0.10260813481177412 0.10105751358504825 0.001550621226725911 0.02668159372108444 0.0 0.0
0.0 0.10384978289861009 -0.08948540478283994 0.08808521204849892 0.0014001927343409572 0.02329672205338198 0.0 0.0
0.0 0.08806350617336765 -0.07569219649541671 0.0744002947420946 0.0012919017533220953 0.02077040084506544 0.0 0.0
0.0 0.07287263461025856 -0.06260469267994434 0.061400661193759566 0.0012040314861847083 0.018385918659861687 0.0 0.0
0.0 0.05891287893104867 -0.050604351905044566 0.049485377760670704 0.001118974144373866 0.015968392389409707 0.0 0.0
0.0 0.046270623337592916 -0.03973023955796908 0.03869790932204268 0.0010323302359264376 0.013527192138813416 0.0 0.0
0.0 0.03489131374425844 -0.02997184041871688 0.029028693662588374 0.0009431467561284884 0.011030982002837501 0.0 0.0
0.0 0.024843747447081753 -0.02137040099701064 0.02051906471616324 0.0008513362808473858 0.008436888062676782 0.0 0.0
0.0 0.016297240066317567 -0.014052809122458342 0.013299396818515654 0.0007534123039426862 0.005894138383543836 0.0 0.0
0.0 0.009449382515879255 -0.008200852554787101 0.007565235475474456 0.0006356170793126466 0.003663455247656568 0.0 0.0
0.0 0.004561801810059393 -0.003947110174700012 0.003487681249983329 0.0004594289247166826 0.0019334741933342402 0.0 0.0
0.0 0.0016686888074343292 -0.0013330861235025804 0.0011164179310754504 0.00021666819242712983 0.0008041098144528839 0.0 0.0
0.0 0.00028690309848682387 -0.00020994907337961067 0.00016949354733282148 4.045552604678899e-05 0.0001859924263416749 0.0 0.0
0.0 9.973718701339043e-06 -5.226763510050307e-06 4.163084975436451e-06 1.063678534613869e-06 7.095762621446892e-06 0.0 0.0
0.0 1.6898426617536985e-07 1.2417531476370223e-08 -9.875132659750366e-09 -2.5423988166177494e-09 -2.522118679403248e-08 0.0 0.0
0.0 0.0 0.0 0.0 0.0 0.0 0.0 0.0
0.0 0.0 0.0 0.0 0.0 0.0 0.0 0.0
0.0 0.0 0.0 0.0 0.0 0.0 0.0 0.0
0.0 0.0 0.0 0.0 0.0 0.0 0.0 0.0
0.0 0.0 0.0 0.0 0.0 0.0 0.0 0.0
0.0 1.4575675268929136e-05 -9.207953068249753e-06 7.3579459958835074e-06 1.8500070723662343e-06 -8.969021388902163e-06 0.0 0.0
0.0 0.0005261990797246316 -0.00040426660138122316 0.00032773282894390675 7.653377243731628e-05 -0.0002298928645612791 0.0 0.0
0.0 0.0024105249687886208 -0.00201300421999944 0.0017128785821843666 0.0003001256378150727 -0.0007976036240786012 0.0 0.0
0.0 0.005896745033087978 -0.005227780062181195 0.0046963987990817704 0.000531381263099423 -0.00172794132834743 0.0 0.0
0.0 0.011591763792550589 -0.010159420524290147 0.009479451276735308 0.0006799692475548359 -0.0031186530198587304 0.0 0.0
0.0 0.019385359994133003 -0.016869852450828858 0.016079156987116396 0.0007906954637124532 -0.004939322612897446 0.0 0.0
0.0 0.029124800797398334 -0.025256644987519256 0.024365289016686605 0.0008913559708326525 -0.007027259533180952 0.0 0.0
0.0 0.04063371331460459 -0.03515063858040009 0.03416079243835518 0.0009898461420448828 -0.009164408983015074 0.0 0.0
0.0 0.053670075503337106 -0.04642153042613015 0.04533443824354847 0.0010870921825816807 -0.011217804690142628 0.0 0.0
0.0 0.06832818650871214 -0.059001721763791995 0.057818189142136045 0.0011835326216559248 -0.01323779604808327 0.0 0.0
0.0 0.08421361824447271 -0.0728419534814294 0.07156203113608847 0.0012799223453409119 -0.015279100773216306 0.0 0.0
0.0 0.10142132922537925 -0.08779264202446813 0.08641442232361 0.0013782197008581558 -0.01715824593399457 0.0 0.0
0.0 0.11942105012522311 -0.10340855731400021 0.10191884641863964 0.001489710895360517 -0.01859829230694888 0.0 0.0
0.0 0.13670786453383985 -0.11840616267102975 0.11676505816001748 0.0016411045110122254 -0.020233715086411478 0.0 0.0
0.0 0.14988092196507674 -0.1297071740071577 0.12785157802121982 0.0018555959859377638 -0.02464710294583204 0.0 0.0
0.0 0.15306176525981438 -0.13192217170161713 0.12984178633876708 0.0020803853628500704 -0.0346497889433434 0.0 0.0
0.0 0.13930979939321642 -0.11818222102307718 0.115903597648316 0.0022786233747611544 -0.05136948070369933 0.0 0.0
0.0 0.13930979939320792 -0.11818222102306608 0.11590359764830493 0.0022786233747611848 0.05136948070373348 0.0 0.0
0.0 0.15306176525978013 -0.13192217170158432 0.12984178633873455 0.0020803853628497205 0.03464978894338922 0.0 0.0
0.0 0.14988092196501954 -0.1297071740071061 0.12785157802116912 0.0018555959859369465 0.024647102945863718 0.0 0.0
0.0 0.1367078645337646 -0.11840616267096382 0.11676505815995261 0.001641104511011265 0.020233715086418837 0.0 0.0
0.0 0.1194210501251374 -0.10340855731392551 0.10191884641856591 0.0014897108953595955 0.018598292306947414 0.0 0.0
0.0 0.1014213292252891 -0.08779264202438962 0.08641442232353234 0.0013782197008573274 0.01715824593399047 0.0 0.0
0.0 0.08421361824438003 -0.07284195348134914 0.07156203113600876 0.0012799223453403728 0.01527910077320604 0.0 0.0
0.0 0.06832818650862069 -0.059001721763712656 0.05781818914205711 0.0011835326216555807 0.013237796048072892 0.0 0.0
0.0 0.053670075503251036 -0.04642153042605557 0.045334438243474336 0.0010870921825812201 0.011217804690131838 0.0 0.0
0.0 0.04063371331452482 -0.03515063858033084 0.03416079243828639 0.000989846142044453 0.009164408982996041 0.0 0.0
0.0 0.02912480079733288 -0.02525664498746248 0.024365289016630362 0.0008913559708321247 0.007027259533161636 0.0 0.0
0.0 0.01938535999408173 -0.016869852450784095 0.01607915698707208 0.0007906954637120135 0.004939322612884873 0.0 0.0
0.0 0.011591763792512354 -0.010159420524256554 0.009479451276702302 0.0006799692475542515 0.0031186530198485784 0.0 0.0
0.0 0.005896745033064261 -0.005227780062160194 0.004696398799061741 0.0005313812630984552 0.001727941328340281 0.0 0.0
0.0 0.0024105249687764022 -0.002013004219989268 0.0017128785821753276 0.0003001256378139393 0.000797603624074538 0.0 0.0
0.0 0.0005261990797200906 -0.00040426660137816967 0.00032773282894136283 7.6533772436807e-05 0.0002298928645596572 0.0 0.0
0.0 1.4575675268694113e-05 -9.207953068769828e-06 7.357945996280426e-06 1.8500070724894066e-06 8.969021389330389e-06 0.0 0.0
0.0 0.0 0.0 0.0 0.0 0.0 0.0 0.0
0.0 0.0 0.0 0.0 0.0 0.0 0.0 0.0
0.0 0.0 0.0 0.0 0.0 0.0 0.0 0.0
0.0 0.0 0.0 0.0 0.0 0.0 0.0 0.0
0.0 0.0 0.0 0.0 0.0 0.0 0.0 0.0
0.0 0.0 0.0 0.0 0.0 0.0 0.0 0.0
0.0 3.458028447602511e-05 -2.3430947356989132e-05 1.8678349447709453e-05 4.752597909279707e-06 -1.4051933089404275e-05 0.0 0.0
0.0 0.0009063330508606611 -0.0007073672381344377 0.0005792968025750194 0.00012807043555941838 -0.00023021293511165782 0.0 0.0
0.0 0.003113411633518193 -0.0028230930233043815 0.0024403441551448008 0.00038274886815957936 -0.0006394662934701318 0.0 0.0
0.0 0.007359897905167114 -0.00655843156491005 0.005974561682250759 0.0005838698826592949 -0.0012703290634959268 0.0 0.0
0.0 0.013776827909686044 -0.012138775675098508 0.011424249936692246 0.0007145257384062674 -0.0022116604529256612 0.0 0.0
0.0 0.022493725711330154 -0.019679486704232814 0.018858493683916372 0.0008209930203164351 -0.003470025705725615 0.0 0.0
0.0 0.03341118639903726 -0.02911774242746318 0.028191942506880646 0.0009257999205825291 -0.004936130930583968 0.0 0.0
0.0 0.04635872172702782 -0.04029911148232531 0.0392675808926995 0.001031530589625815 -0.006438921677474873 0.0 0.0
0.0 0.061219172711920095 -0.0530845368550763 0.05194732073741788 0.0011372161176584255 -0.007883870958202319 0.0 0.0
0.0 0.07758909232185975 -0.06737964857358424 0.06613598104701386 0.0012436675265703823 -0.009336655604916725 0.0 0.0
0.0 0.09560729762965522 -0.08304719312456253 0.08169486363840511 0.001352329486157392 -0.010793213931424999 0.0 0.0
0.0 0.11491741733113192 -0.0997888885435218 0.09832436331854827 0.0014645252249735098 -0.012039470387653529 0.0 0.0
0.0 0.13472661199988847 -0.11699484883920938 0.11541262420721146 0.0015822246319978897 -0.012626549279386685 0.0 0.0
0.0 0.1536663892919216 -0.13346971332781105 0.13175026960630656 0.0017194437215045208 -0.012465569674797625 0.0 0.0
0.0 0.16894730320786794 -0.14669906541709657 0.14478321949387318 0.0019158459232233435 -0.014378104789673643 0.0 0.0
0.0 0.17475411992175832 -0.15126991005696525 0.14903755058121498 0.0022323594757501534 -0.026368328430110295 0.0 0.0
0.0 0.1622272783238845 -0.13818904522405356 0.1357162386091575 0.0024728066148959993 -0.053520091455736635 0.0 0.0
0.0 0.16222727832387238 -0.13818904522404035 0.135716238609145 0.0024728066148953583 0.05352009145576111 0.0 0.0
0.0 0.17475411992171389 -0.15126991005692542 0.14903755058117493 0.0022323594757504475 0.02636832843014495 0.0 0.0
0.0 0.1689473032077982 -0.14669906541703556 0.1447832194938123 0.0019158459232233123 0.014378104789697924 0.0 0.0
0.0 0.15366638929183485 -0.13346971332773552 0.13175026960623162 0.0017194437215039234 0.012465569674799795 0.0 0.0
0.0 0.13472661199979177 -0.11699484883912516 0.11541262420712851 0.001582224631996636 0.012626549279385111 0.0 0.0
0.0 0.11491741733103246 -0.09978888854343504 0.09832436331846298 0.0014645252249720455 0.012039470387651234 0.0 0.0
0.0 0.09560729762955346 -0.08304719312447434 0.08169486363831746 0.001352329486156862 0.010793213931419913 0.0 0.0
0.0 0.07758909232175809 -0.0673796485734961 0.06613598104692628 0.0012436675265698562 0.009336655604909224 0.0 0.0
0.0 0.06121917271182342 -0.05308453685499201 0.051947320737334476 0.00113721611765751 0.007883870958195087 0.0 0.0
0.0 0.04635872172694443 -0.04029911148225272 0.03926758089262791 0.001031530589624799 0.0064389216774616434 0.0 0.0
0.0 0.033411186398965814 -0.02911774242740098 0.02819194250681909 0.0009257999205818946 0.004936130930570602 0.0 0.0
0.0 0.022493725711273282 -0.01967948670418262 0.018858493683866894 0.0008209930203157193 0.003470025705717866 0.0 0.0
0.0 0.013776827909643017 -0.012138775675060397 0.011424249936654949 0.0007145257384054434 0.002211660452919147 0.0 0.0
0.0 0.007359897905138719 -0.006558431564884624 0.005974561682226176 0.0005838698826584464 0.0012703290634906322 0.0 0.0
0.0 0.003113411633502886 -0.0028230930232905765 0.0024403441551321364 0.00038274886815844013 0.0006394662934669367 0.0 0.0
0.0 0.0009063330508543468 -0.0007073672381297099 0.0005792968025710283 0.00012807043555868128 0.0002302129351103037 0.0 0.0
0.0 3.458028447538433e-05 -2.34309473573037e-05 1.867834944793738e-05 4.75259790936627e-06 1.405193308951699e-05 0.0 0.0
0.0 0.0 0.0 0.0 0.0 0.0 0.0 0.0
0.0 0.0 0.0 0.0 0.0 0.0 0.0 0.0
0.0 0.0 0.0 0.0 0.0 0.0 0.0 0.0
0.0 0.0 0.0 0.0 0.0 0.0 0.0 0.0
0.0 0.0 0.0 0.0 0.0 0.0 0.0 0.0
0.0 0.0 0.0 0.0 0.0 0.0 0.0 0.0
0.0 0.00010316362285438387 -8.229670870940827e-05 6.523464782549697e-05 1.7062060883911425e-05 -2.091725306097296e-05 0.0 0.0
0.0 0.001435458251450111 -0.0011183256460360733 0.0009261234130989572 0.00019220223293711576 -0.00014307568385631781 0.0 0.0
0.0 0.004069644928350668 -0.003689875987535653 0.0032376416392436223 0.0004522343482920323 -0.0003039102808084322 0.0 0.0
0.0 0.008875159385872989 -0.007918979059543554 0.0072947867671287105 0.0006241922924148401 -0.0005603170546033252 0.0 0.0
0.0 0.01600174347965424 -0.01411113212546827 0.013369741704781515 0.0007413904206867484 -0.0009459416665966605 0.0 0.0
0.0 0.025623522276098817 -0.022451038434057113 0.02160470126589227 0.0008463371681648343 -0.001494837237857605 0.0 0.0
0.0 0.037730283799993526 -0.03292070601760194 0.03196522833559766 0.0009554776820042792 -0.0021614445301894073 0.0 0.0
0.0 0.052191641422021914 -0.045386743574983776 0.04431821991912163 0.001068523655862135 -0.0028561604785774315 0.0 0.0
0.0 0.06854489378810233 -0.05969595996148935 0.05851247253576356 0.0011834874257257702 -0.0035436921872768305 0.0 0.0
0.0 0.08691813593644825 -0.07569217519153205 0.07439224019579853 0.0012999349957335418 -0.004228411149477132 0.0 0.0
0.0 0.10705995332823322 -0.0931619830543863 0.09174154467159237 0.0014204383827939038 -0.00487620514839816 0.0 0.0
0.0 0.12839396375958742 -0.11166761212809478 0.11012051891181937 0.00154709321627547 -0.0053626209915482 0.0 0.0
0.0 0.14996523986474664 -0.13036327936531633 0.12868470389522035 0.0016785754700959338 -0.0053754481311803866 0.0 0.0
0.0 0.17018497462171772 -0.1479007986949331 0.14609008130748602 0.001810717387447106 -0.004484918265962827 0.0 0.0
0.0 0.18675910575388044 -0.16230947837978413 0.16035507201837623 0.001954406361407766 -0.003332863322772047 0.0 0.0
0.0 0.19589343125007355 -0.17007204049842434 0.16788744529280147 0.002184595205622749 -0.010439998767536929 0.0 0.0
0.0 0.18850689681001725 -0.16158878621507988 0.15874375598682824 0.0028450302282515606 -0.0493894885847276 0.0 0.0
0.0 0.18850689680999833 -0.16158878621506298 0.15874375598681095 0.0028450302282519253 0.049389488584736616 0.0 0.0
0.0 0.1958934312500209 -0.17007204049837873 0.16788744529275537 0.00218459520562324 0.010439998767554734 0.0 0.0
0.0 0.1867591057538009 -0.1623094783797151 0.16035507201830757 0.001954406361407482 0.0033328633227836346 0.0 0.0
0.0 0.17018497462162158 -0.14790079869484937 0.14609008130740345 0.001810717387445937 0.004484918265960626 0.0 0.0
0.0 0.1499652398646351 -0.13036327936522005 0.12868470389512382 0.0016785754700961513 0.0053754481311792356 0.0 0.0
0.0 0.12839396375947515 -0.11166761212799758 0.11012051891172228 0.0015470932162752425 0.005362620991547509 0.0 0.0
0.0 0.10705995332812406 -0.09316198305429141 0.0917415446714985 0.0014204383827928315 0.004876205148394959 0.0 0.0
0.0 0.08691813593633718 -0.07569217519143565 0.07439224019570291 0.0012999349957326942 0.004228411149473274 0.0 0.0
0.0 0.06854489378799207 -0.05969595996139374 0.05851247253566848 0.0011834874257252443 0.0035436921872746643 0.0 0.0
0.0 0.052191641421925936 -0.045386743574900176 0.044318219919038976 0.0010685236558611842 0.002856160478570551 0.0 0.0
0.0 0.03773028379991549 -0.03292070601753401 0.03196522833553085 0.000955477682003172 0.00216144453018227 0.0 0.0
0.0 0.025623522276040027 -0.0224510384340054 0.021604701265841304 0.0008463371681640927 0.001494837237854789 0.0 0.0
0.0 0.01600174347960805 -0.014111132125427271 0.013369741704741048 0.0007413904206862152 0.0009459416665935942 0.0 0.0
0.0 0.00887515938584188 -0.007918979059515757 0.007294786767101554 0.000624192292414202 0.0005603170546015423 0.0 0.0
0.0 0.004069644928332015 -0.003689875987518498 0.0032376416392275245 0.0004522343482909721 0.00030391028080701323 0.0 0.0
0.0 0.0014354582514413284 -0.0011183256460291528 0.000926123413092935 0.00019220223293621856 0.0001430756838555544 0.0 0.0
0.0 0.0001031636228530917 -8.22967087089151e-05 6.52346478250975e-05 1.7062060883817567e-05 2.0917253060866834e-05 0.0 0.0
0.0 0.0 0.0 0.0 0.0 0.0 0.0 0.0
0.0 0.0 0.0 0.0 0.0 0.0 0.0 0.0
0.0 0.0 0.0 0.0 0.0 0.0 0.0 0.0