# vtk DataFile Version 3.0
Some data
ASCII
DATASET UNSTRUCTURED_GRID
POINTS 861 float
0.0 0.0 0.0
0.4 0.0 0.0
0.8 0.0 0.0
1.2000000000000002 0.0 0.0
1.6 0.0 0.0
2.0 0.0 0.0
2.4000000000000004 0.0 0.0
2.8000000000000003 0.0 0.0
3.2 0.0 0.0
3.6 0.0 0.0
4.0 0.0 0.0
4.4 0.0 0.0
4.800000000000001 0.0 0.0
5.2 0.0 0.0
5.6000000000000005 0.0 0.0
6.0 0.0 0.0
6.4 0.0 0.0
6.800000000000001 0.0 0.0
7.2 0.0 0.0
7.6000000000000005 0.0 0.0
8.0 0.0 0.0
8.4 0.0 0.0
8.8 0.0 0.0
9.200000000000001 0.0 0.0
9.600000000000001 0.0 0.0
10.0 0.0 0.0
10.4 0.0 0.0
10.8 0.0 0.0
11.200000000000001 0.0 0.0
11.600000000000001 0.0 0.0
12.0 0.0 0.0
12.4 0.0 0.0
12.8 0.0 0.0
13.200000000000001 0.0 0.0
13.600000000000001 0.0 0.0
14.0 0.0 0.0
14.4 0.0 0.0
14.8 0.0 0.0
15.200000000000001 0.0 0.0
15.600000000000001 0.0 0.0
16.0 0.0 0.0
0.0 0.1 0.0
0.4 0.1 0.0
0.8 0.1 0.0
1.2000000000000002 0.1 0.0
1.6 0.1 0.0
2.0 0.1 0.0
2.4000000000000004 0.1 0.0
2.8000000000000003 0.1 0.0
3.2 0.1 0.0
3.6 0.1 0.0
4.0 0.1 0.0
4.4 0.1 0.0
4.800000000000001 0.1 0.0
5.2 0.1 0.0
5.6000000000000005 0.1 0.0
6.0 0.1 0.0
6.4 0.1 0.0
6.800000000000001 0.1 0.0
7.2 0.1 0.0
7.6000000000000005 0.1 0.0
8.0 0.1 0.0
8.4 0.1 0.0
8.8 0.1 0.0
9.200000000000001 0.1 0.0
9.600000000000001 0.1 0.0
10.0 0.1 0.0
10.4 0.1 0.0
10.8 0.1 0.0
11.200000000000001 0.1 0.0
11.600000000000001 0.1 0.0
12.0 0.1 0.0
12.4 0.1 0.0
12.8 0.1 0.0
13.200000000000001 0.1 0.0
13.600000000000001 0.1 0.0
14.0 0.1 0.0
14.4 0.1 0.0
14.8 0.1 0.0
15.200000000000001 0.1 0.0
15.600000000000001 0.1 0.0
16.0 0.1 0.0
0.0 0.2 0.0
0.4 0.2 0.0
0.8 0.2 0.0
1.2000000000000002 0.2 0.0
1.6 0.2 0.0
2.0 0.2 0.0
2.4000000000000004 0.2 0.0
2.8000000000000003 0.2 0.0
3.2 0.2 0.0
3.6 0.2 0.0
4.0 0.2 0.0
4.4 0.2 0.0
4.800000000000001 0.2 0.0
5.2 0.2 0.0
5.6000000000000005 0.2 0.0
6.0 0.2 0.0
6.4 0.2 0.0
6.800000000000001 0.2 0.0
7.2 0.2 0.0
7.6000000000000005 0.2 0.0
8.0 0.2 0.0
8.4 0.2 0.0
8.8 0.2 0.0
9.200000000000001 0.2 0.0
9.600000000000001 0.2 0.0
10.0 0.2 0.0
10.4 0.2 0.0
10.8 0.2 0.0
11.200000000000001 0.2 0.0
11.600000000000001 0.2 0.0
12.0 0.2 0.0
12.4 0.2 0.0
12.8 0.2 0.0
13.200000000000001 0.2 0.0
13.600000000000001 0.2 0.0
14.0 0.2 0.0
14.4 0.2 0.0
14.8 0.2 0.0
15.200000000000001 0.2 0.0
15.600000000000001 0.2 0.0
16.0 0.2 0.0
0.0 0.30000000000000004 0.0
0.4 0.30000000000000004 0.0
0.8 0.30000000000000004 0.0
1.2000000000000002 0.30000000000000004 0.0
1.6 0.30000000000000004 0.0
2.0 0.30000000000000004 0.0
2.4000000000000004 0.30000000000000004 0.0
2.8000000000000003 0.30000000000000004 0.0
3.2 0.30000000000000004 0.0
3.6 0.30000000000000004 0.0
4.0 0.30000000000000004 0.0
4.4 0.30000000000000004 0.0
4.800000000000001 0.30000000000000004 0.0
5.2 0.30000000000000004 0.0
5.6000000000000005 0.30000000000000004 0.0
6.0 0.30000000000000004 0.0
6.4 0.30000000000000004 0.0
6.800000000000001 0.30000000000000004 0.0
7.2 0.30000000000000004 0.0
7.6000000000000005 0.30000000000000004 0.0
8.0 0.30000000000000004 0.0
8.4 0.30000000000000004 0.0
8.8 0.30000000000000004 0.0
9.200000000000001 0.30000000000000004 0.0
9.600000000000001 0.30000000000000004 0.0
10.0 0.30000000000000004 0.0
10.4 0.30000000000000004 0.0
10.8 0.30000000000000004 0.0
11.200000000000001 0.30000000000000004 0.0
11.600000000000001 0.30000000000000004 0.0
12.0 0.30000000000000004 0.0
12.4 0.30000000000000004 0.0
12.8 0.30000000000000004 0.0
13.200000000000001 0.30000000000000004 0.0
13.600000000000001 0.30000000000000004 0.0
14.0 0.30000000000000004 0.0
14.4 0.30000000000000004 0.0
14.8 0.30000000000000004 0.0
15.200000000000001 0.30000000000000004 0.0
15.600000000000001 0.30000000000000004 0.0
16.0 0.30000000000000004 0.0
0.0 0.4 0.0
0.4 0.4 0.0
0.8 0.4 0.0
1.2000000000000002 0.4 0.0
1.6 0.4 0.0
2.0 0.4 0.0
2.4000000000000004 0.4 0.0
2.8000000000000003 0.4 0.0
3.2 0.4 0.0
3.6 0.4 0.0
4.0 0.4 0.0
4.4 0.4 0.0
4.800000000000001 0.4 0.0
5.2 0.4 0.0
5.6000000000000005 0.4 0.0
6.0 0.4 0.0
6.4 0.4 0.0
6.800000000000001 0.4 0.0
7.2 0.4 0.0
7.6000000000000005 0.4 0.0
8.0 0.4 0.0
8.4 0.4 0.0
8.8 0.4 0.0
9.200000000000001 0.4 0.0
9.600000000000001 0.4 0.0
10.0 0.4 0.0
10.4 0.4 0.0
10.8 0.4 0.0
11.200000000000001 0.4 0.0
11.600000000000001 0.4 0.0
12.0 0.4 0.0
12.4 0.4 0.0
12.8 0.4 0.0
13.200000000000001 0.4 0.0
13.600000000000001 0.4 0.0
14.0 0.4 0.0
14.4 0.4 0.0
14.8 0.4 0.0
15.200000000000001 0.4 0.0
15.600000000000001 0.4 0.0
16.0 0.4 0.0
0.0 0.5 0.0
0.4 0.5 0.0
0.8 0.5 0.0
1.2000000000000002 0.5 0.0
1.6 0.5 0.0
2.0 0.5 0.0
2.4000000000000004 0.5 0.0
2.8000000000000003 0.5 0.0
3.2 0.5 0.0
3.6 0.5 0.0
4.0 0.5 0.0
4.4 0.5 0.0
4.800000000000001 0.5 0.0
5.2 0.5 0.0
5.6000000000000005 0.5 0.0
6.0 0.5 0.0
6.4 0.5 0.0
6.800000000000001 0.5 0.0
7.2 0.5 0.0
7.6000000000000005 0.5 0.0
8.0 0.5 0.0
8.4 0.5 0.0
8.8 0.5 0.0
9.200000000000001 0.5 0.0
9.600000000000001 0.5 0.0
10.0 0.5 0.0
10.4 0.5 0.0
10.8 0.5 0.0
11.200000000000001 0.5 0.0
11.600000000000001 0.5 0.0
12.0 0.5 0.0
12.4 0.5 0.0
12.8 0.5 0.0
13.200000000000001 0.5 0.0
13.600000000000001 0.5 0.0
14.0 0.5 0.0
14.4 0.5 0.0
14.8 0.5 0.0
15.200000000000001 0.5 0.0
15.600000000000001 0.5 0.0
16.0 0.5 0.0
0.0 0.6000000000000001 0.0
0.4 0.6000000000000001 0.0
0.8 0.6000000000000001 0.0
1.2000000000000002 0.6000000000000001 0.0
1.6 0.6000000000000001 0.0
2.0 0.6000000000000001 0.0
2.4000000000000004 0.6000000000000001 0.0
2.8000000000000003 0.6000000000000001 0.0
3.2 0.6000000000000001 0.0
3.6 0.6000000000000001 0.0
4.0 0.6000000000000001 0.0
4.4 0.6000000000000001 0.0
4.800000000000001 0.6000000000000001 0.0
5.2 0.6000000000000001 0.0
5.6000000000000005 0.6000000000000001 0.0
6.0 0.6000000000000001 0.0
6.4 0.6000000000000001 0.0
6.800000000000001 0.6000000000000001 0.0
7.2 0.6000000000000001 0.0
7.6000000000000005 0.6000000000000001 0.0
8.0 0.6000000000000001 0.0
8.4 0.6000000000000001 0.0
8.8 0.6000000000000001 0.0
9.200000000000001 0.6000000000000001 0.0
9.600000000000001 0.6000000000000001 0.0
10.0 0.6000000000000001 0.0
10.4 0.6000000000000001 0.0
10.8 0.6000000000000001 0.0
11.200000000000001 0.6000000000000001 0.0
11.600000000000001 0.6000000000000001 0.0
12.0 0.6000000000000001 0.0
12.4 0.6000000000000001 0.0
12.8 0.6000000000000001 0.0
13.200000000000001 0.6000000000000001 0.0
13.600000000000001 0.6000000000000001 0.0
14.0 0.6000000000000001 0.0
14.4 0.6000000000000001 0.0
14.8 0.6000000000000001 0.0
15.200000000000001 0.6000000000000001 0.0
15.600000000000001 0.6000000000000001 0.0
16.0 0.6000000000000001 0.0
0.0 0.7000000000000001 0.0
0.4 0.7000000000000001 0.0
0.8 0.7000000000000001 0.0
1.2000000000000002 0.7000000000000001 0.0
1.6 0.7000000000000001 0.0
2.0 0.7000000000000001 0.0
2.4000000000000004 0.7000000000000001 0.0
2.8000000000000003 0.7000000000000001 0.0
3.2 0.7000000000000001 0.0
3.6 0.7000000000000001 0.0
4.0 0.7000000000000001 0.0
4.4 0.7000000000000001 0.0
4.800000000000001 0.7000000000000001 0.0
5.2 0.7000000000000001 0.0
5.6000000000000005 0.7000000000000001 0.0
6.0 0.7000000000000001 0.0
6.4 0.7000000000000001 0.0
6.800000000000001 0.7000000000000001 0.0
7.2 0.7000000000000001 0.0
7.6000000000000005 0.7000000000000001 0.0
8.0 0.7000000000000001 0.0
8.4 0.7000000000000001 0.0
8.8 0.7000000000000001 0.0
9.200000000000001 0.7000000000000001 0.0
9.600000000000001 0.7000000000000001 0.0
10.0 0.7000000000000001 0.0
10.4 0.7000000000000001 0.0
10.8 0.7000000000000001 0.0
11.200000000000001 0.7000000000000001 0.0
11.600000000000001 0.7000000000000001 0.0
12.0 0.7000000000000001 0.0
12.4 0.7000000000000001 0.0
12.8 0.7000000000000001 0.0
13.200000000000001 0.7000000000000001 0.0
13.600000000000001 0.7000000000000001 0.0
14.0 0.7000000000000001 0.0
14.4 0.7000000000000001 0.0
14.8 0.7000000000000001 0.0
15.200000000000001 0.7000000000000001 0.0
15.600000000000001 0.7000000000000001 0.0
16.0 0.7000000000000001 0.0
0.0 0.8 0.0
0.4 0.8 0.0
0.8 0.8 0.0
1.2000000000000002 0.8 0.0
1.6 0.8 0.0
2.0 0.8 0.0
2.4000000000000004 0.8 0.0
2.8000000000000003 0.8 0.0
3.2 0.8 0.0
3.6 0.8 0.0
4.0 0.8 0.0
4.4 0.8 0.0
4.800000000000001 0.8 0.0
5.2 0.8 0.0
5.6000000000000005 0.8 0.0
6.0 0.8 0.0
6.4 0.8 0.0
6.800000000000001 0.8 0.0
7.2 0.8 0.0
7.6000000000000005 0.8 0.0
8.0 0.8 0.0
8.4 0.8 0.0
8.8 0.8 0.0
9.200000000000001 0.8 0.0
9.600000000000001 0.8 0.0
10.0 0.8 0.0
10.4 0.8 0.0
10.8 0.8 0.0
11.200000000000001 0.8 0.0
11.600000000000001 0.8 0.0
12.0 0.8 0.0
12.4 0.8 0.0
12.8 0.8 0.0
13.200000000000001 0.8 0.0
13.600000000000001 0.8 0.0
14.0 0.8 0.0
14.4 0.8 0.0
14.8 0.8 0.0
15.200000000000001 0.8 0.0
15.600000000000001 0.8 0.0
16.0 0.8 0.0
0.0 0.9 0.0
0.4 0.9 0.0
0.8 0.9 0.0
1.2000000000000002 0.9 0.0
1.6 0.9 0.0
2.0 0.9 0.0
2.4000000000000004 0.9 0.0
2.8000000000000003 0.9 0.0
3.2 0.9 0.0
3.6 0.9 0.0
4.0 0.9 0.0
4.4 0.9 0.0
4.800000000000001 0.9 0.0
5.2 0.9 0.0
5.6000000000000005 0.9 0.0
6.0 0.9 0.0
6.4 0.9 0.0
6.800000000000001 0.9 0.0
7.2 0.9 0.0
7.6000000000000005 0.9 0.0
8.0 0.9 0.0
8.4 0.9 0.0
8.8 0.9 0.0
9.200000000000001 0.9 0.0
9.600000000000001 0.9 0.0
10.0 0.9 0.0
10.4 0.9 0.0
10.8 0.9 0.0
11.200000000000001 0.9 0.0
11.600000000000001 0.9 0.0
12.0 0.9 0.0
12.4 0.9 0.0
12.8 0.9 0.0
13.200000000000001 0.9 0.0
13.600000000000001 0.9 0.0
14.0 0.9 0.0
14.4 0.9 0.0
14.8 0.9 0.0
15.200000000000001 0.9 0.0
15.600000000000001 0.9 0.0
16.0 0.9 0.0
0.0 1.0 0.0
0.4 1.0 0.0
0.8 1.0 0.0
1.2000000000000002 1.0 0.0
1.6 1.0 0.0
2.0 1.0 0.0
2.4000000000000004 1.0 0.0
2.8000000000000003 1.0 0.0
3.2 1.0 0.0
3.6 1.0 0.0
4.0 1.0 0.0
4.4 1.0 0.0
4.800000000000001 1.0 0.0
5.2 1.0 0.0
5.6000000000000005 1.0 0.0
6.0 1.0 0.0
6.4 1.0 0.0
6.800000000000001 1.0 0.0
7.2 1.0 0.0
7.6000000000000005 1.0 0.0
8.0 1.0 0.0
8.4 1.0 0.0
8.8 1.0 0.0
9.200000000000001 1.0 0.0
9.600000000000001 1.0 0.0
10.0 1.0 0.0
10.4 1.0 0.0
10.8 1.0 0.0
11.200000000000001 1.0 0.0
11.600000000000001 1.0 0.0
12.0 1.0 0.0
12.4 1.0 0.0
12.8 1.0 0.0
13.200000000000001 1.0 0.0
13.600000000000001 1.0 0.0
14.0 1.0 0.0
14.4 1.0 0.0
14.8 1.0 0.0
15.200000000000001 1.0 0.0
15.600000000000001 1.0 0.0
16.0 1.0 0.0
0.0 1.1 0.0
0.4 1.1 0.0
0.8 1.1 0.0
1.2000000000000002 1.1 0.0
1.6 1.1 0.0
2.0 1.1 0.0
2.4000000000000004 1.1 0.0
2.8000000000000003 1.1 0.0
3.2 1.1 0.0
3.6 1.1 0.0
4.0 1.1 0.0
4.4 1.1 0.0
4.800000000000001 1.1 0.0
5.2 1.1 0.0
5.6000000000000005 1.1 0.0
6.0 1.1 0.0
6.4 1.1 0.0
6.800000000000001 1.1 0.0
7.2 1.1 0.0
7.6000000000000005 1.1 0.0
8.0 1.1 0.0
8.4 1.1 0.0
8.8 1.1 0.0
9.200000000000001 1.1 0.0
9.600000000000001 1.1 0.0
10.0 1.1 0.0
10.4 1.1 0.0
10.8 1.1 0.0
11.200000000000001 1.1 0.0
11.600000000000001 1.1 0.0
12.0 1.1 0.0
12.4 1.1 0.0
12.8 1.1 0.0
13.200000000000001 1.1 0.0
13.600000000000001 1.1 0.0
14.0 1.1 0.0
14.4 1.1 0.0
14.8 1.1 0.0
15.200000000000001 1.1 0.0
15.600000000000001 1.1 0.0
16.0 1.1 0.0
0.0 1.2000000000000002 0.0
0.4 1.2000000000000002 0.0
0.8 1.2000000000000002 0.0
1.2000000000000002 1.2000000000000002 0.0
1.6 1.2000000000000002 0.0
2.0 1.2000000000000002 0.0
2.4000000000000004 1.2000000000000002 0.0
2.8000000000000003 1.2000000000000002 0.0
3.2 1.2000000000000002 0.0
3.6 1.2000000000000002 0.0
4.0 1.2000000000000002 0.0
4.4 1.2000000000000002 0.0
4.800000000000001 1.2000000000000002 0.0
5.2 1.2000000000000002 0.0
5.6000000000000005 1.2000000000000002 0.0
6.0 1.2000000000000002 0.0
6.4 1.2000000000000002 0.0
6.800000000000001 1.2000000000000002 0.0
7.2 1.2000000000000002 0.0
7.6000000000000005 1.2000000000000002 0.0
8.0 1.2000000000000002 0.0
8.4 1.2000000000000002 0.0
8.8 1.2000000000000002 0.0
9.200000000000001 1.2000000000000002 0.0
9.600000000000001 1.2000000000000002 0.0
10.0 1.2000000000000002 0.0
10.4 1.2000000000000002 0.0
10.8 1.2000000000000002 0.0
11.200000000000001 1.2000000000000002 0.0
11.600000000000001 1.2000000000000002 0.0
12.0 1.2000000000000002 0.0
12.4 1.2000000000000002 0.0
12.8 1.2000000000000002 0.0
13.200000000000001 1.2000000000000002 0.0
13.600000000000001 1.2000000000000002 0.0
14.0 1.2000000000000002 0.0
14.4 1.2000000000000002 0.0
14.8 1.2000000000000002 0.0
15.200000000000001 1.2000000000000002 0.0
15.600000000000001 1.2000000000000002 0.0
16.0 1.2000000000000002 0.0
0.0 1.3 0.0
0.4 1.3 0.0
0.8 1.3 0.0
1.2000000000000002 1.3 0.0
1.6 1.3 0.0
2.0 1.3 0.0
2.4000000000000004 1.3 0.0
2.8000000000000003 1.3 0.0
3.2 1.3 0.0
3.6 1.3 0.0
4.0 1.3 0.0
4.4 1.3 0.0
4.800000000000001 1.3 0.0
5.2 1.3 0.0
5.6000000000000005 1.3 0.0
6.0 1.3 0.0
6.4 1.3 0.0
6.800000000000001 1.3 0.0
7.2 1.3 0.0
7.6000000000000005 1.3 0.0
8.0 1.3 0.0
8.4 1.3 0.0
8.8 1.3 0.0
9.200000000000001 1.3 0.0
9.600000000000001 1.3 0.0
10.0 1.3 0.0
10.4 1.3 0.0
10.8 1.3 0.0
11.200000000000001 1.3 0.0
11.600000000000001 1.3 0.0
12.0 1.3 0.0
12.4 1.3 0.0
12.8 1.3 0.0
13.200000000000001 1.3 0.0
13.600000000000001 1.3 0.0
14.0 1.3 0.0
14.4 1.3 0.0
14.8 1.3 0.0
15.200000000000001 1.3 0.0
15.600000000000001 1.3 0.0
16.0 1.3 0.0
0.0 1.4000000000000001 0.0
0.4 1.4000000000000001 0.0
0.8 1.4000000000000001 0.0
1.2000000000000002 1.4000000000000001 0.0
1.6 1.4000000000000001 0.0
2.0 1.4000000000000001 0.0
2.4000000000000004 1.4000000000000001 0.0
2.8000000000000003 1.4000000000000001 0.0
3.2 1.4000000000000001 0.0
3.6 1.4000000000000001 0.0
4.0 1.4000000000000001 0.0
4.4 1.4000000000000001 0.0
4.800000000000001 1.4000000000000001 0.0
5.2 1.4000000000000001 0.0
5.6000000000000005 1.4000000000000001 0.0
6.0 1.4000000000000001 0.0
6.4 1.4000000000000001 0.0
6.800000000000001 1.4000000000000001 0.0
7.2 1.4000000000000001 0.0
7.6000000000000005 1.4000000000000001 0.0
8.0 1.4000000000000001 0.0
8.4 1.4000000000000001 0.0
8.8 1.4000000000000001 0.0
9.200000000000001 1.4000000000000001 0.0
9.600000000000001 1.4000000000000001 0.0
10.0 1.4000000000000001 0.0
10.4 1.4000000000000001 0.0
10.8 1.4000000000000001 0.0
11.200000000000001 1.4000000000000001 0.0
11.600000000000001 1.4000000000000001 0.0
12.0 1.4000000000000001 0.0
12.4 1.4000000000000001 0.0
12.8 1.4000000000000001 0.0
13.200000000000001 1.4000000000000001 0.0
13.600000000000001 1.4000000000000001 0.0
14.0 1.4000000000000001 0.0
14.4 1.4000000000000001 0.0
14.8 1.4000000000000001 0.0
15.200000000000001 1.4000000000000001 0.0
15.600000000000001 1.4000000000000001 0.0
16.0 1.4000000000000001 0.0
0.0 1.5 0.0
0.4 1.5 0.0
0.8 1.5 0.0
1.2000000000000002 1.5 0.0
1.6 1.5 0.0
2.0 1.5 0.0
2.4000000000000004 1.5 0.0
2.8000000000000003 1.5 0.0
3.2 1.5 0.0
3.6 1.5 0.0
4.0 1.5 0.0
4.4 1.5 0.0
4.800000000000001 1.5 0.0
5.2 1.5 0.0
5.6000000000000005 1.5 0.0
6.0 1.5 0.0
6.4 1.5 0.0
6.800000000000001 1.5 0.0
7.2 1.5 0.0
7.6000000000000005 1.5 0.0
8.0 1.5 0.0
8.4 1.5 0.0
8.8 1.5 0.0
9.200000000000001 1.5 0.0
9.600000000000001 1.5 0.0
10.0 1.5 0.0
10.4 1.5 0.0
10.8 1.5 0.0
11.200000000000001 1.5 0.0
11.600000000000001 1.5 0.0
12.0 1.5 0.0
12.4 1.5 0.0
12.8 1.5 0.0
13.200000000000001 1.5 0.0
13.600000000000001 1.5 0.0
14.0 1.5 0.0
14.4 1.5 0.0
14.8 1.5 0.0
15.200000000000001 1.5 0.0
15.600000000000001 1.5 0.0
16.0 1.5 0.0
0.0 1.6 0.0
0.4 1.6 0.0
0.8 1.6 0.0
1.2000000000000002 1.6 0.0
1.6 1.6 0.0
2.0 1.6 0.0
2.4000000000000004 1.6 0.0
2.8000000000000003 1.6 0.0
3.2 1.6 0.0
3.6 1.6 0.0
4.0 1.6 0.0
4.4 1.6 0.0
4.800000000000001 1.6 0.0
5.2 1.6 0.0
5.6000000000000005 1.6 0.0
6.0 1.6 0.0
6.4 1.6 0.0
6.800000000000001 1.6 0.0
7.2 1.6 0.0
7.6000000000000005 1.6 0.0
8.0 1.6 0.0
8.4 1.6 0.0
8.8 1.6 0.0
9.200000000000001 1.6 0.0
9.600000000000001 1.6 0.0
10.0 1.6 0.0
10.4 1.6 0.0
10.8 1.6 0.0
11.200000000000001 1.6 0.0
11.600000000000001 1.6 0.0
12.0 1.6 0.0
12.4 1.6 0.0
12.8 1.6 0.0
13.200000000000001 1.6 0.0
13.600000000000001 1.6 0.0
14.0 1.6 0.0
14.4 1.6 0.0
14.8 1.6 0.0
15.200000000000001 1.6 0.0
15.600000000000001 1.6 0.0
16.0 1.6 0.0
0.0 1.7000000000000002 0.0
0.4 1.7000000000000002 0.0
0.8 1.7000000000000002 0.0
1.2000000000000002 1.7000000000000002 0.0
1.6 1.7000000000000002 0.0
2.0 1.7000000000000002 0.0
2.4000000000000004 1.7000000000000002 0.0
2.8000000000000003 1.7000000000000002 0.0
3.2 1.7000000000000002 0.0
3.6 1.7000000000000002 0.0
4.0 1.7000000000000002 0.0
4.4 1.7000000000000002 0.0
4.800000000000001 1.7000000000000002 0.0
5.2 1.7000000000000002 0.0
5.6000000000000005 1.7000000000000002 0.0
6.0 1.7000000000000002 0.0
6.4 1.7000000000000002 0.0
6.800000000000001 1.7000000000000002 0.0
7.2 1.7000000000000002 0.0
7.6000000000000005 1.7000000000000002 0.0
8.0 1.7000000000000002 0.0
8.4 1.7000000000000002 0.0
8.8 1.7000000000000002 0.0
9.200000000000001 1.7000000000000002 0.0
9.600000000000001 1.7000000000000002 0.0
10.0 1.7000000000000002 0.0
10.4 1.7000000000000002 0.0
10.8 1.7000000000000002 0.0
11.200000000000001 1.7000000000000002 0.0
11.600000000000001 1.7000000000000002 0.0
12.0 1.7000000000000002 0.0
12.4 1.7000000000000002 0.0
12.8 1.7000000000000002 0.0
13.200000000000001 1.7000000000000002 0.0
13.600000000000001 1.7000000000000002 0.0
14.0 1.7000000000000002 0.0
14.4 1.7000000000000002 0.0
14.8 1.7000000000000002 0.0
15.200000000000001 1.7000000000000002 0.0
15.600000000000001 1.7000000000000002 0.0
16.0 1.7000000000000002 0.0
0.0 1.8 0.0
0.4 1.8 0.0
0.8 1.8 0.0
1.2000000000000002 1.8 0.0
1.6 1.8 0.0
2.0 1.8 0.0
2.4000000000000004 1.8 0.0
2.8000000000000003 1.8 0.0
3.2 1.8 0.0
3.6 1.8 0.0
4.0 1.8 0.0
4.4 1.8 0.0
4.800000000000001 1.8 0.0
5.2 1.8 0.0
5.6000000000000005 1.8 0.0
6.0 1.8 0.0
6.4 1.8 0.0
6.800000000000001 1.8 0.0
7.2 1.8 0.0
7.6000000000000005 1.8 0.0
8.0 1.8 0.0
8.4 1.8 0.0
8.8 1.8 0.0
9.200000000000001 1.8 0.0
9.600000000000001 1.8 0.0
10.0 1.8 0.0
10.4 1.8 0.0
10.8 1.8 0.0
11.200000000000001 1.8 0.0
11.600000000000001 1.8 0.0
12.0 1.8 0.0
12.4 1.8 0.0
12.8 1.8 0.0
13.200000000000001 1.8 0.0
13.600000000000001 1.8 0.0
14.0 1.8 0.0
14.4 1.8 0.0
14.8 1.8 0.0
15.200000000000001 1.8 0.0
15.600000000000001 1.8 0.0
16.0 1.8 0.0
0.0 1.9000000000000001 0.0
0.4 1.9000000000000001 0.0
0.8 1.9000000000000001 0.0
1.2000000000000002 1.9000000000000001 0.0
1.6 1.9000000000000001 0.0
2.0 1.9000000000000001 0.0
2.4000000000000004 1.9000000000000001 0.0
2.8000000000000003 1.9000000000000001 0.0
3.2 1.9000000000000001 0.0
3.6 1.9000000000000001 0.0
4.0 1.9000000000000001 0.0
4.4 1.9000000000000001 0.0
4.800000000000001 1.9000000000000001 0.0
5.2 1.9000000000000001 0.0
5.6000000000000005 1.9000000000000001 0.0
6.0 1.9000000000000001 0.0
6.4 1.9000000000000001 0.0
6.800000000000001 1.9000000000000001 0.0
7.2 1.9000000000000001 0.0
7.6000000000000005 1.9000000000000001 0.0
8.0 1.9000000000000001 0.0
8.4 1.9000000000000001 0.0
8.8 1.9000000000000001 0.0
9.200000000000001 1.9000000000000001 0.0
9.600000000000001 1.9000000000000001 0.0
10.0 1.9000000000000001 0.0
10.4 1.9000000000000001 0.0
10.8 1.9000000000000001 0.0
11.200000000000001 1.9000000000000001 0.0
11.600000000000001 1.9000000000000001 0.0
12.0 1.9000000000000001 0.0
12.4 1.9000000000000001 0.0
12.8 1.9000000000000001 0.0
13.200000000000001 1.9000000000000001 0.0
13.600000000000001 1.9000000000000001 0.0
14.0 1.9000000000000001 0.0
14.4 1.9000000000000001 0.0
14.8 1.9000000000000001 0.0
15.200000000000001 1.9000000000000001 0.0
15.600000000000001 1.9000000000000001 0.0
16.0 1.9000000000000001 0.0
0.0 2.0 0.0
0.4 2.0 0.0
0.8 2.0 0.0
1.2000000000000002 2.0 0.0
1.6 2.0 0.0
2.0 2.0 0.0
2.4000000000000004 2.0 0.0
2.8000000000000003 2.0 0.0
3.2 2.0 0.0
3.6 2.0 0.0
4.0 2.0 0.0
4.4 2.0 0.0
4.800000000000001 2.0 0.0
5.2 2.0 0.0
5.6000000000000005 2.0 0.0
6.0 2.0 0.0
6.4 2.0 0.0
6.800000000000001 2.0 0.0
7.2 2.0 0.0
7.6000000000000005 2.0 0.0
8.0 2.0 0.0
8.4 2.0 0.0
8.8 2.0 0.0
9.200000000000001 2.0 0.0
9.600000000000001 2.0 0.0
10.0 2.0 0.0
10.4 2.0 0.0
10.8 2.0 0.0
11.200000000000001 2.0 0.0
11.600000000000001 2.0 0.0
12.0 2.0 0.0
12.4 2.0 0.0
12.8 2.0 0.0
13.200000000000001 2.0 0.0
13.600000000000001 2.0 0.0
14.0 2.0 0.0
14.4 2.0 0.0
14.8 2.0 0.0
15.200000000000001 2.0 0.0
15.600000000000001 2.0 0.0
16.0 2.0 0.0
CELLS 800 4000
4 0 1 42 41
4 1 2 43 42
4 2 3 44 43
4 3 4 45 44
4 4 5 46 45
4 5 6 47 46
4 6 7 48 47
4 7 8 49 48
4 8 9 50 49
4 9 10 51 50
4 10 11 52 51
4 11 12 53 52
4 12 13 54 53
4 13 14 55 54
4 14 15 56 55
4 15 16 57 56
4 16 17 58 57
4 17 18 59 58
4 18 19 60 59
4 19 20 61 60
4 20 21 62 61
4 21 22 63 62
4 22 23 64 63
4 23 24 65 64
4 24 25 66 65
4 25 26 67 66
4 26 27 68 67
4 27 28 69 68
4 28 29 70 69
4 29 30 71 70
4 30 31 72 71
4 31 32 73 72
4 32 33 74 73
4 33 34 75 74
4 34 35 76 75
4 35 36 77 76
4 36 37 78 77
4 37 38 79 78
4 38 39 80 79
4 39 40 81 80
4 41 42 83 82
4 42 43 84 83
4 43 44 85 84
4 44 45 86 85
4 45 46 87 86
4 46 47 88 87
4 47 48 89 88
4 48 49 90 89
4 49 50 91 90
4 50 51 92 91
4 51 52 93 92
4 52 53 94 93
4 53 54 95 94
4 54 55 96 95
4 55 56 97 96
4 56 57 98 97
4 57 58 99 98
4 58 59 100 99
4 59 60 101 100
4 60 61 102 101
4 61 62 103 102
4 62 63 104 103
4 63 64 105 104
4 64 65 106 105
4 65 66 107 106
4 66 67 108 107
4 67 68 109 108
4 68 69 110 109
4 69 70 111 110
4 70 71 112 111
4 71 72 113 112
4 72 73 114 113
4 73 74 115 114
4 74 75 116 115
4 75 76 117 116
4 76 77 118 117
4 77 78 119 118
4 78 79 120 119
4 79 80 121 120
4 80 81 122 121
4 82 83 124 123
4 83 84 125 124
4 84 85 126 125
4 85 86 127 126
4 86 87 128 127
4 87 88 129 128
4 88 89 130 129
4 89 90 131 130
4 90 91 132 131
4 91 92 133 132
4 92 93 134 133
4 93 94 135 134
4 94 95 136 135
4 95 96 137 136
4 96 97 138 137
4 97 98 139 138
4 98 99 140 139
4 99 100 141 140
4 100 101 142 141
4 101 102 143 142
4 102 103 144 143
4 103 104 145 144
4 104 105 146 145
4 105 106 147 146
4 106 107 148 147
4 107 108 149 148
4 108 109 150 149
4 109 110 151 150
4 110 111 152 151
4 111 112 153 152
4 112 113 154 153
4 113 114 155 154
4 114 115 156 155
4 115 116 157 156
4 116 117 158 157
4 117 118 159 158
4 118 119 160 159
4 119 120 161 160
4 120 121 162 161
4 121 122 163 162
4 123 124 165 164
4 124 125 166 165
4 125 126 167 166
4 126 127 168 167
4 127 128 169 168
4 128 129 170 169
4 129 130 171 170
4 130 131 172 171
4 131 132 173 172
4 132 133 174 173
4 133 134 175 174
4 134 135 176 175
4 135 136 177 176
4 136 137 178 177
4 137 138 179 178
4 138 139 180 179
4 139 140 181 180
4 140 141 182 181
4 141 142 183 182
4 142 143 184 183
4 143 144 185 184
4 144 145 186 185
4 145 146 187 186
4 146 147 188 187
4 147 148 189 188
4 148 149 190 189
4 149 150 191 190
4 150 151 192 191
4 151 152 193 192
4 152 153 194 193
4 153 154 195 194
4 154 155 196 195
4 155 156 197 196
4 156 157 198 197
4 157 158 199 198
4 158 159 200 199
4 159 160 201 200
4 160 161 202 201
4 161 162 203 202
4 162 163 204 203
4 164 165 206 205
4 165 166 207 206
4 166 167 208 207
4 167 168 209 208
4 168 169 210 209
4 169 170 211 210
4 170 171 212 211
4 171 172 213 212
4 172 173 214 213
4 173 174 215 214
4 174 175 216 215
4 175 176 217 216
4 176 177 218 217
4 177 178 219 218
4 178 179 220 219
4 179 180 221 220
4 180 181 222 221
4 181 182 223 222
4 182 183 224 223
4 183 184 225 224
4 184 185 226 225
4 185 186 227 226
4 186 187 228 227
4 187 188 229 228
4 188 189 230 229
4 189 190 231 230
4 190 191 232 231
4 191 192 233 232
4 192 193 234 233
4 193 194 235 234
4 194 195 236 235
4 195 196 237 236
4 196 197 238 237
4 197 198 239 238
4 198 199 240 239
4 199 200 241 240
4 200 201 242 241
4 201 202 243 242
4 202 203 244 243
4 203 204 245 244
4 205 206 247 246
4 206 207 248 247
4 207 208 249 248
4 208 209 250 249
4 209 210 251 250
4 210 211 252 251
4 211 212 253 252
4 212 213 254 253
4 213 214 255 254
4 214 215 256 255
4 215 216 257 256
4 216 217 258 257
4 217 218 259 258
4 218 219 260 259
4 219 220 261 260
4 220 221 262 261
4 221 222 263 262
4 222 223 264 263
4 223 224 265 264
4 224 225 266 265
4 225 226 267 266
4 226 227 268 267
4 227 228 269 268
4 228 229 270 269
4 229 230 271 270
4 230 231 272 271
4 231 232 273 272
4 232 233 274 273
4 233 234 275 274
4 234 235 276 275
4 235 236 277 276
4 236 237 278 277
4 237 238 279 278
4 238 239 280 279
4 239 240 281 280
4 240 241 282 281
4 241 242 283 282
4 242 243 284 283
4 243 244 285 284
4 244 245 286 285
4 246 247 288 287
4 247 248 289 288
4 248 249 290 289
4 249 250 291 290
4 250 251 292 291
4 251 252 293 292
4 252 253 294 293
4 253 254 295 294
4 254 255 296 295
4 255 256 297 296
4 256 257 298 297
4 257 258 299 298
4 258 259 300 299
4 259 260 301 300
4 260 261 302 301
4 261 262 303 302
4 262 263 304 303
4 263 264 305 304
4 264 265 306 305
4 265 266 307 306
4 266 267 308 307
4 267 268 309 308
4 268 269 310 309
4 269 270 311 310
4 270 271 312 311
4 271 272 313 312
4 272 273 314 313
4 273 274 315 314
4 274 275 316 315
4 275 276 317 316
4 276 277 318 317
4 277 278 319 318
4 278 279 320 319
4 279 280 321 320
4 280 281 322 321
4 281 282 323 322
4 282 283 324 323
4 283 284 325 324
4 284 285 326 325
4 285 286 327 326
4 287 288 329 328
4 288 289 330 329
4 289 290 331 330
4 290 291 332 331
4 291 292 333 332
4 292 293 334 333
4 293 294 335 334
4 294 295 336 335
4 295 296 337 336
4 296 297 338 337
4 297 298 339 338
4 298 299 340 339
4 299 300 341 340
4 300 301 342 341
4 301 302 343 342
4 302 303 344 343
4 303 304 345 344
4 304 305 346 345
4 305 306 347 346
4 306 307 348 347
4 307 308 349 348
4 308 309 350 349
4 309 310 351 350
4 310 311 352 351
4 311 312 353 352
4 312 313 354 353
4 313 314 355 354
4 314 315 356 355
4 315 316 357 356
4 316 317 358 357
4 317 318 359 358
4 318 319 360 359
4 319 320 361 360
4 320 321 362 361
4 321 322 363 362
4 322 323 364 363
4 323 324 365 364
4 324 325 366 365
4 325 326 367 366
4 326 327 368 367
4 328 329 370 369
4 329 330 371 370
4 330 331 372 371
4 331 332 373 372
4 332 333 374 373
4 333 334 375 374
4 334 335 376 375
4 335 336 377 376
4 336 337 378 377
4 337 338 379 378
4 338 339 380 379
4 339 340 381 380
4 340 341 382 381
4 341 342 383 382
4 342 343 384 383
4 343 344 385 384
4 344 345 386 385
4 345 346 387 386
4 346 347 388 387
4 347 348 389 388
4 348 349 390 389
4 349 350 391 390
4 350 351 392 391
4 351 352 393 392
4 352 353 394 393
4 353 354 395 394
4 354 355 396 395
4 355 356 397 396
4 356 357 398 397
4 357 358 399 398
4 358 359 400 399
4 359 360 401 400
4 360 361 402 401
4 361 362 403 402
4 362 363 404 403
4 363 364 405 404
4 364 365 406 405
4 365 366 407 406
4 366 367 408 407
4 367 368 409 408
4 369 370 411 410
4 370 371 412 411
4 371 372 413 412
4 372 373 414 413
4 373 374 415 414
4 374 375 416 415
4 375 376 417 416
4 376 377 418 417
4 377 378 419 418
4 378 379 420 419
4 379 380 421 420
4 380 381 422 421
4 381 382 423 422
4 382 383 424 423
4 383 384 425 424
4 384 385 426 425
4 385 386 427 426
4 386 387 428 427
4 387 388 429 428
4 388 389 430 429
4 389 390 431 430
4 390 391 432 431
4 391 392 433 432
4 392 393 434 433
4 393 394 435 434
4 394 395 436 435
4 395 396 437 436
4 396 397 438 437
4 397 398 439 438
4 398 399 440 439
4 399 400 441 440
4 400 401 442 441
4 401 402 443 442
4 402 403 444 443
4 403 404 445 444
4 404 405 446 445
4 405 406 447 446
4 406 407 448 447
4 407 408 449 448
4 408 409 450 449
4 410 411 452 451
4 411 412 453 452
4 412 413 454 453
4 413 414 455 454
4 414 415 456 455
4 415 416 457 456
4 416 417 458 457
4 417 418 459 458
4 418 419 460 459
4 419 420 461 460
4 420 421 462 461
4 421 422 463 462
4 422 423 464 463
4 423 424 465 464
4 424 425 466 465
4 425 426 467 466
4 426 427 468 467
4 427 428 469 468
4 428 429 470 469
4 429 430 471 470
4 430 431 472 471
4 431 432 473 472
4 432 433 474 473
4 433 434 475 474
4 434 435 476 475
4 435 436 477 476
4 436 437 478 477
4 437 438 479 478
4 438 439 480 479
4 439 440 481 480
4 440 441 482 481
4 441 442 483 482
4 442 443 484 483
4 443 444 485 484
4 444 445 486 485
4 445 446 487 486
4 446 447 488 487
4 447 448 489 488
4 448 449 490 489
4 449 450 491 490
4 451 452 493 492
4 452 453 494 493
4 453 454 495 494
4 454 455 496 495
4 455 456 497 496
4 456 457 498 497
4 457 458 499 498
4 458 459 500 499
4 459 460 501 500
4 460 461 502 501
4 461 462 503 502
4 462 463 504 503
4 463 464 505 504
4 464 465 506 505
4 465 466 507 506
4 466 467 508 507
4 467 468 509 508
4 468 469 510 509
4 469 470 511 510
4 470 471 512 511
4 471 472 513 512
4 472 473 514 513
4 473 474 515 514
4 474 475 516 515
4 475 476 517 516
4 476 477 518 517
4 477 478 519 518
4 478 479 520 519
4 479 480 521 520
4 480 481 522 521
4 481 482 523 522
4 482 483 524 523
4 483 484 525 524
4 484 485 526 525
4 485 486 527 526
4 486 487 528 527
4 487 488 529 528
4 488 489 530 529
4 489 490 531 530
4 490 491 532 531
4 492 493 534 533
4 493 494 535 534
4 494 495 536 535
4 495 496 537 536
4 496 497 538 537
4 497 498 539 538
4 498 499 540 539
4 499 500 541 540
4 500 501 542 541
4 501 502 543 542
4 502 503 544 543
4 503 504 545 544
4 504 505 546 545
4 505 506 547 546
4 506 507 548 547
4 507 508 549 548
4 508 509 550 549
4 509 510 551 550
4 510 511 552 551
4 511 512 553 552
4 512 513 554 553
4 513 514 555 554
4 514 515 556 555
4 515 516 557 556
4 516 517 558 557
4 517 518 559 558
4 518 519 560 559
4 519 520 561 560
4 520 521 562 561
4 521 522 563 562
4 522 523 564 563
4 523 524 565 564
4 524 525 566 565
4 525 526 567 566
4 526 527 568 567
4 527 528 569 568
4 528 529 570 569
4 529 530 571 570
4 530 531 572 571
4 531 532 573 572
4 533 534 575 574
4 534 535 576 575
4 535 536 577 576
4 536 537 578 577
4 537 538 579 578
4 538 539 580 579
4 539 540 581 580
4 540 541 582 581
4 541 542 583 582
4 542 543 584 583
4 543 544 585 584
4 544 545 586 585
4 545 546 587 586
4 546 547 588 587
4 547 548 589 588
4 548 549 590 589
4 549 550 591 590
4 550 551 592 591
4 551 552 593 592
4 552 553 594 593
4 553 554 595 594
4 554 555 596 595
4 555 556 597 596
4 556 557 598 597
4 557 558 599 598
4 558 559 600 599
4 559 560 601 600
4 560 561 602 601
4 561 562 603 602
4 562 563 604 603
4 563 564 605 604
4 564 565 606 605
4 565 566 607 606
4 566 567 608 607
4 567 568 609 608
4 568 569 610 609
4 569 570 611 610
4 570 571 612 611
4 571 572 613 612
4 572 573 614 613
4 574 575 616 615
4 575 576 617 616
4 576 577 618 617
4 577 578 619 618
4 578 579 620 619
4 579 580 621 620
4 580 581 622 621
4 581 582 623 622
4 582 583 624 623
4 583 584 625 624
4 584 585 626 625
4 585 586 627 626
4 586 587 628 627
4 587 588 629 628
4 588 589 630 629
4 589 590 631 630
4 590 591 632 631
4 591 592 633 632
4 592 593 634 633
4 593 594 635 634
4 594 595 636 635
4 595 596 637 636
4 596 597 638 637
4 597 598 639 638
4 598 599 640 639
4 599 600 641 640
4 600 601 642 641
4 601 602 643 642
4 602 603 644 643
4 603 604 645 644
4 604 605 646 645
4 605 606 647 646
4 606 607 648 647
4 607 608 649 648
4 608 609 650 649
4 609 610 651 650
4 610 611 652 651
4 611 612 653 652
4 612 613 654 653
4 613 614 655 654
4 615 616 657 656
4 616 617 658 657
4 617 618 659 658
4 618 619 660 659
4 619 620 661 660
4 620 621 662 661
4 621 622 663 662
4 622 623 664 663
4 623 624 665 664
4 624 625 666 665
4 625 626 667 666
4 626 627 668 667
4 627 628 669 668
4 628 629 670 669
4 629 630 671 670
4 630 631 672 671
4 631 632 673 672
4 632 633 674 673
4 633 634 675 674
4 634 635 676 675
4 635 636 677 676
4 636 637 678 677
4 637 638 679 678
4 638 639 680 679
4 639 640 681 680
4 640 641 682 681
4 641 642 683 682
4 642 643 684 683
4 643 644 685 684
4 644 645 686 685
4 645 646 687 686
4 646 647 688 687
4 647 648 689 688
4 648 649 690 689
4 649 650 691 690
4 650 651 692 691
4 651 652 693 692
4 652 653 694 693
4 653 654 695 694
4 654 655 696 695
4 656 657 698 697
4 657 658 699 698
4 658 659 700 699
4 659 660 701 700
4 660 661 702 701
4 661 662 703 702
4 662 663 704 703
4 663 664 705 704
4 664 665 706 705
4 665 666 707 706
4 666 667 708 707
4 667 668 709 708
4 668 669 710 709
4 669 670 711 710
4 670 671 712 711
4 671 672 713 712
4 672 673 714 713
4 673 674 715 714
4 674 675 716 715
4 675 676 717 716
4 676 677 718 717
4 677 678 719 718
4 678 679 720 719
4 679 680 721 720
4 680 681 722 721
4 681 682 723 722
4 682 683 724 723
4 683 684 725 724
4 684 685 726 725
4 685 686 727 726
4 686 687 728 727
4 687 688 729 728
4 688 689 730 729
4 689 690 731 730
4 690 691 732 731
4 691 692 733 732
4 692 693 734 733
4 693 694 735 734
4 694 695 736 735
4 695 696 737 736
4 697 698 739 738
4 698 699 740 739
4 699 700 741 740
4 700 701 742 741
4 701 702 743 742
4 702 703 744 743
4 703 704 745 744
4 704 705 746 745
4 705 706 747 746
4 706 707 748 747
4 707 708 749 748
4 708 709 750 749
4 709 710 751 750
4 710 711 752 751
4 711 712 753 752
4 712 713 754 753
4 713 714 755 754
4 714 715 756 755
4 715 716 757 756
4 716 717 758 757
4 717 718 759 758
4 718 719 760 759
4 719 720 761 760
4 720 721 762 761
4 721 722 763 762
4 722 723 764 763
4 723 724 765 764
4 724 725 766 765
4 725 726 767 766
4 726 727 768 767
4 727 728 769 768
4 728 729 770 769
4 729 730 771 770
4 730 731 772 771
4 731 732 773 772
4 732 733 774 773
4 733 734 775 774
4 734 735 776 775
4 735 736 777 776
4 736 737 778 777
4 738 739 780 779
4 739 740 781 780
4 740 741 782 781
4 741 742 783 782
4 742 743 784 783
4 743 744 785 784
4 744 745 786 785
4 745 746 787 786
4 746 747 788 787
4 747 748 789 788
4 748 749 790 789
4 749 750 791 790
4 750 751 792 791
4 751 752 793 792
4 752 753 794 793
4 753 754 795 794
4 754 755 796 795
4 755 756 797 796
4 756 757 798 797
4 757 758 799 798
4 758 759 800 799
4 759 760 801 800
4 760 761 802 801
4 761 762 803 802
4 762 763 804 803
4 763 764 805 804
4 764 765 806 805
4 765 766 807 806
4 766 767 808 807
4 767 768 809 808
4 768 769 810 809
4 769 770 811 810
4 770 771 812 811
4 771 772 813 812
4 772 773 814 813
4 773 774 815 814
4 774 775 816 815
4 775 776 817 816
4 776 777 818 817
4 777 778 819 818
4 779 780 821 820
4 780 781 822 821
4 781 782 823 822
4 782 783 824 823
4 783 784 825 824
4 784 785 826 825
4 785 786 827 826
4 786 787 828 827
4 787 788 829 828
4 788 789 830 829
4 789 790 831 830
4 790 791 832 831
4 791 792 833 832
4 792 793 834 833
4 793 794 835 834
4 794 795 836 835
4 795 796 837 836
4 796 797 838 837
4 797 798 839 838
4 798 799 840 839
4 799 800 841 840
4 800 801 842 841
4 801 802 843 842
4 802 803 844 843
4 803 804 845 844
4 804 805 846 845
4 805 806 847 846
4 806 807 848 847
4 807 808 849 848
4 808 809 850 849
4 809 810 851 850
4 810 811 852 851
4 811 812 853 852
4 812 813 854 853
4 813 814 855 854
4 814 815 856 855
4 815 816 857 856
4 816 817 858 857
4 817 818 859 858
4 818 819 860 859
CELL_TYPES 800
9
9
9
9
9
9
9
9
9
9
9
9
9
9
9
9
9
9
9
9
9
9
9
9
9
9
9
9
9
9
9
9
9
9
9
9
9
9
9
9
9
9
9
9
9
9
9
9
9
9
9
9
9
9
9
9
9
9
9
9
9
9
9
9
9
9
9
9
9
9
9
9
9
9
9
9
9
9
9
9
9
9
9
9
9
9
9
9
9
9
9
9
9
9
9
9
9
9
9
9
9
9
9
9
9
9
9
9
9
9
9
9
9
9
9
9
9
9
9
9
9
9
9
9
9
9
9
9
9
9
9
9
9
9
9
9
9
9
9
9
9
9
9
9
9
9
9
9
9
9
9
9
9
9
9
9
9
9
9
9
9
9
9
9
9
9
9
9
9
9
9
9
9
9
9
9
9
9
9
9
9
9
9
9
9
9
9
9
9
9
9
9
9
9
9
9
9
9
9
9
9
9
9
9
9
9
9
9
9
9
9
9
9
9
9
9
9
9
9
9
9
9
9
9
9
9
9
9
9
9
9
9
9
9
9
9
9
9
9
9
9
9
9
9
9
9
9
9
9
9
9
9
9
9
9
9
9
9
9
9
9
9
9
9
9
9
9
9
9
9
9
9
9
9
9
9
9
9
9
9
9
9
9
9
9
9
9
9
9
9
9
9
9
9
9
9
9
9
9
9
9
9
9
9
9
9
9
9
9
9
9
9
9
9
9
9
9
9
9
9
9
9
9
9
9
9
9
9
9
9
9
9
9
9
9
9
9
9
9
9
9
9
9
9
9
9
9
9
9
9
9
9
9
9
9
9
9
9
9
9
9
9
9
9
9
9
9
9
9
9
9
9
9
9
9
9
9
9
9
9
9
9
9
9
9
9
9
9
9
9
9
9
9
9
9
9
9
9
9
9
9
9
9
9
9
9
9
9
9
9
9
9
9
9
9
9
9
9
9
9
9
9
9
9
9
9
9
9
9
9
9
9
9
9
9
9
9
9
9
9
9
9
9
9
9
9
9
9
9
9
9
9
9
9
9
9
9
9
9
9
9
9
9
9
9
9
9
9
9
9
9
9
9
9
9
9
9
9
9
9
9
9
9
9
9
9
9
9
9
9
9
9
9
9
9
9
9
9
9
9
9
9
9
9
9
9
9
9
9
9
9
9
9
9
9
9
9
9
9
9
9
9
9
9
9
9
9
9
9
9
9
9
9
9
9
9
9
9
9
9
9
9
9
9
9
9
9
9
9
9
9
9
9
9
9
9
9
9
9
9
9
9
9
9
9
9
9
9
9
9
9
9
9
9
9
9
9
9
9
9
9
9
9
9
9
9
9
9
9
9
9
9
9
9
9
9
9
9
9
9
9
9
9
9
9
9
9
9
9
9
9
9
9
9
9
9
9
9
9
9
9
9
9
9
9
9
9
9
9
9
9
9
9
9
9
9
9
9
9
9
9
9
9
9
9
9
9
9
9
9
9
9
9
9
9
9
9
9
9
9
9
9
9
9
9
9
9
9
9
9
9
9
9
9
9
9
9
9
9
9
9
9
9
9
9
9
9
9
9
9
9
9
9
9
9
9
9
9
9
9
9
9
9
9
9
9
9
9
9
9
9
9
9
9
9
9
9
9
9
9
9
9
9
9
9
9
9
9
9
9
9
9
9
9
9
9
9
9
9
9
9
9
9
9
9
9
9
9
9
9
9
9
9
9
9
9
9
9
9
9
9
9
9
9
9
9
9
9
9
9
9
9
9
9
9
9
9
9
9
9
9
9
9
9
9
9
9
9
9
9
9
9
9
9
9
9
9
9
9
9
POINT_DATA 861
SCALARS Disp float 2
LOOKUP_TABLE default
0.0 0.0
0.01645194701872998 -0.3006716373071847
0.0293036003671632 -0.5547282656851981
0.039612361080353625 -0.8044239946028731
0.05138971166597692 -1.0493172859692041
0.0655540624396598 -1.28929924355295
0.08255705960003323 -1.5232230851427118
0.10257996604286344 -1.7498497994482682
0.1256821183581554 -1.9678990473733646
0.15187726904367754 -2.176106231398513
0.18116336149510184 -2.37322139834261
0.21353565445161707 -2.5580060573703327
0.24899123004018084 -2.729229333954392
0.2875333182491203 -2.885666254334859
0.32918058323966876 -3.0260936777612297
0.3739841356687576 -3.149273476481348
0.4220446533250813 -3.253904534268632
0.4734954528663164 -3.338526092402278
0.5283779421536344 -3.401392923094694
0.5863349877964454 -3.4404594684782546
0.6462208704220345 -3.453777122599347
0.7061067530476234 -3.4404594684782537
0.7640637986904346 -3.4013929230946935
0.8189462879777522 -3.3385260924022764
0.8703970875189873 -3.253904534268632
0.9184576051753109 -3.1492734764813477
0.9632611576043998 -3.026093677761229
1.0049084225949483 -2.8856662543348586
1.0434505108038878 -2.7292293339543923
1.0789060863924518 -2.558006057370332
1.111278379348967 -2.3732213983426096
1.1405644718003907 -2.1761062313985127
1.1667596224859131 -1.9678990473733644
1.189861774801205 -1.749849799448268
1.2098846812440356 -1.52322308514271
1.2268876784044087 -1.2892992435529504
1.2410520291780915 -1.0493172859692037
1.2528293797637147 -0.8044239946028736
1.2631381404769053 -0.5547282656851974
1.2759897938253386 -0.30067163730718377
1.2924417408440683 0.0
0.07448042565403028 -0.01021697760561622
0.0847250892971015 -0.2998751885579652
0.09181592013202686 -0.5561709348758219
0.10136796546850857 -0.8054298209453992
0.11184234394647848 -1.0506424861772898
0.12463073787537862 -1.290877737303998
0.13995457550957888 -1.5251072577854679
0.15798944613635435 -1.7520443476250278
0.17878783734104353 -1.9704081520577508
0.20236588440011585 -2.178929989094121
0.22872416124842482 -2.376359494199271
0.2578599287823665 -2.56145809029802
0.28977169285495885 -2.732995262959441
0.3244632854837596 -2.8897469612563507
0.3619513343309102 -3.03049220903739
0.40227739708039134 -3.1539968582794984
0.4455168015458202 -3.2589644184677176
0.491754717396413 -3.3439330257461806
0.5409721618847443 -3.4071357626069583
0.59279675427414 -3.4464672656985664
0.6462208704220344 -3.4598899866615156
0.6996449865699289 -3.446467265698566
0.7514695789593246 -3.4071357626069574
0.8006870234476556 -3.343933025746179
0.8469249392982484 -3.258964418467717
0.8901643437636771 -3.1539968582794984
0.9304904065131584 -3.030492209037389
0.967978455360309 -2.8897469612563498
1.00267004798911 -2.7329952629594416
1.0345818120617023 -2.5614580902980197
1.0637175795956437 -2.376359494199271
1.0900758564439526 -2.178929989094121
1.113653903503025 -1.9704081520577508
1.1344522947077142 -1.7520443476250274
1.1524871653344897 -1.525107257785466
1.1678110029686897 -1.2908777373039986
1.1805993968975899 -1.0506424861772894
1.1910737753755598 -0.8054298209453998
1.2006258207120417 -0.5561709348758214
1.207716651546967 -0.2998751885579642
1.2179613151900381 -0.010216977605616245
0.14388949189497516 -0.018993082479737317
0.151237545428707 -0.2992910750358789
0.1550537919100065 -0.55696582525586
0.16270178843044983 -0.8064090224387134
0.1719897600726015 -1.0517897791346966
0.18330713334866394 -1.292295391828213
0.19694022131362227 -1.5267919235005318
0.21297812613880332 -1.7540088834427103
0.231471366389272 -1.9726534961420936
0.2524324202360644 -2.1814567683423935
0.2758634134922454 -2.379167407960998
0.3017629727733012 -2.5645468979195942
0.330130531965507 -2.736364940857743
0.3609694438862604 -2.8933981338632
0.3942923005351675 -3.0344270186395668
0.4301290297278015 -3.158220324027141
0.4685315939340234 -3.26348508130987
0.5095525173902763 -3.3487588824330703
0.5531521982656379 -3.4122582440535014
0.5989969534721973 -3.451828427479083
0.6462208704220344 -3.4653493828021498
0.6934447873718717 -3.4518284274790823
0.7392895425784309 -3.412258244053501
0.7828892234537923 -3.348758882433069
0.8239101469100453 -3.2634850813098697
0.8623127111162672 -3.1582203240271407
0.8981494403089011 -3.0344270186395654
0.9314722969578083 -2.8933981338631996
0.9623112088785617 -2.736364940857743
0.9906787680707673 -2.5645468979195933
1.0165783273518232 -2.379167407960998
1.040009320608004 -2.181456768342393
1.0609703744547967 -1.9726534961420936
1.0794636147052652 -1.7540088834427094
1.0955015195304463 -1.5267919235005303
1.1091346074954043 -1.2922953918282134
1.1204519807714668 -1.051789779134696
1.1297399524136187 -0.806409022438714
1.137387948934062 -0.5569658252558595
1.1412041954153613 -0.299291075035878
1.1485522489490934 -0.018993082479737345
0.21030207781001756 -0.026493956695855445
0.21613890414230938 -0.29911932842452305
0.2181624641819664 -0.557317830122745
0.22385487925718864 -0.8072180743247157
0.23179682544182212 -1.0527881491390363
0.241642523618865 -1.2935355615547877
0.2535575703294704 -1.5282778597313211
0.26759445264925785 -1.7557420213813848
0.28378001639322536 -1.9746351517472158
0.30212402615357975 -2.1836865930835296
0.3226279652302003 -2.381645221956652
0.3452914508685617 -2.5672724802416242
0.3701143318999277 -2.7393381786022784
0.3970986631629465 -2.896619139622701
0.42625167807624503 -3.0378966624304464
0.4575907352009569 -3.161941495096893
0.49114733059012416 -3.267464479903763
0.5269553680688294 -3.3530066142951944
0.5649866535717275 -3.416777249182599
0.6049845589584375 -3.4565809442917375
0.6462208704220344 -3.470205188175596
0.6874571818856314 -3.4565809442917366
0.7274550872723414 -3.4167772491825987
0.7654863727752392 -3.353006614295193
0.8012944102539445 -3.2674644799037624
0.8348510056431118 -3.161941495096893
0.8661900627678235 -3.0378966624304455
0.8953430776811222 -2.896619139622701
0.922327408944141 -2.739338178602278
0.9471502899755068 -2.567272480241624
0.9698137756138682 -2.381645221956652
0.9903177146904888 -2.183686593083529
1.0086617244508431 -1.974635151747216
1.0248472881948105 -1.7557420213813841
1.0388841705145981 -1.5282778597313196
1.0507992172252032 -1.293535561554788
1.0606449154022461 -1.052788149139036
1.0685868615868799 -0.8072180743247165
1.074279276662102 -0.5573178301227445
1.076302836701759 -0.29911932842452216
1.0821396630340507 -0.02649395669585549
0.2747999963660468 -0.03288264764706816
0.2797264053754479 -0.2993388361608934
0.280795335678806 -0.5574165506133664
0.2848070765225474 -0.8078159613136654
0.2913122879833013 -1.0536288278284143
0.29966952203660463 -1.294597421709127
0.30985560891905684 -1.5295619838716792
0.3218849370044881 -1.7572435993466928
0.3357613112460958 -1.9763528450666934
0.35148774621481715 -2.18561951268025
0.3690646944120977 -2.3837929606552324
0.38849207507729716 -2.5696348200652253
0.4097698056166554 -2.741914808927513
0.4328980843823957 -2.8994094991790216
0.45787809655754197 -3.0409001403415123
0.48471453602722697 -3.1651588904964165
0.5134214811629676 -3.2709018102379392
0.5440256762765511 -3.3566798594582887
0.5765349220283947 -3.420707754013798
0.6107980469504555 -3.4607565043592636
0.6462208704220342 -3.4744989718877948
0.6816436938936133 -3.460756504359263
0.715906818815674 -3.420707754013797
0.7484160645675176 -3.3566798594582887
0.7790202596811013 -3.270901810237939
0.8077272048168415 -3.165158890496416
0.8345636442865266 -3.0409001403415123
0.859543656461673 -2.899409499179021
0.8826719352274132 -2.7419148089275125
0.9039496657667713 -2.5696348200652244
0.9233770464319707 -2.383792960655232
0.9409539946292514 -2.1856195126802493
0.9566804295979726 -1.976352845066693
0.9705568038395803 -1.7572435993466922
0.9825861319250118 -1.5295619838716779
0.9927722188074638 -1.2945974217091272
1.001129452860767 -1.053628827828414
1.007634664321521 -0.8078159613136662
1.0116464051652625 -0.5574165506133657
1.0127153354686205 -0.2993388361608925
1.0176417444780215 -0.03288264764706819
0.338004699801288 -0.03830908195132605
0.3422857271879285 -0.2998595340102376
0.34285040317017385 -0.5573930785271174
0.3455031633023403 -0.8082129825680833
0.35057528505546515 -1.0543016862448529
0.3574269682985308 -1.2954805712105333
0.36587948073587184 -1.5306428706911426
0.3758967878646423 -1.758513093638613
0.3874623423789464 -1.9778064604037668
0.4005706685908373 -2.1872554876882604
0.41522046640347504 -2.385610630745658
0.4314116056495207 -2.5716338842592164
0.44914376432929964 -2.744094707543376
0.4684150294124118 -2.9017689133679827
0.48922041270555056 -3.043436906086283
0.511552465261897 -3.1678718260726906
0.5354104936929278 -3.273797106954975
0.5608222570924234 -3.3597820919985324
0.5878492666873223 -3.4240620026455395
0.6164686571184416 -3.464381355621322
0.6462208704220344 -3.4782664829394783
0.6759730837256271 -3.464381355621321
0.7045924741567465 -3.4240620026455386
0.7316194837516452 -3.359782091998532
0.757031247151141 -3.2737971069549747
0.7808892755821714 -3.16787182607269
0.8032213281385181 -3.0434369060862827
0.8240267114316567 -2.901768913367982
0.8432979765147689 -2.744094707543376
0.8610301351945477 -2.5716338842592155
0.8772212744405934 -2.385610630745658
0.8918710722532313 -2.18725548768826
0.9049793984651221 -1.9778064604037662
0.9165449529794261 -1.7585130936386129
0.9265622601081968 -1.530642870691141
0.9350147725455377 -1.2954805712105335
0.9418664557886033 -1.0543016862448527
0.946938577541728 -0.808212982568084
0.9495913376738946 -0.5573930785271168
0.9501560136561399 -0.29985953401023674
0.9544370410427805 -0.038309081951326096
0.40030371862142966 -0.04290362351505952
0.40405594929710503 -0.3005814489456073
0.4043414935845899 -0.5573254954429819
0.4059112070541413 -0.8084384934651663
0.409613005309861 -1.0548042853578656
0.41495630370782227 -1.2961842879942116
0.42167356274831497 -1.5315201944243217
0.4296768412706666 -1.7595500961443715
0.4389301720687406 -1.9789958830117322
0.4494198048034096 -2.1885944656680842
0.46114216025975785 -2.3870982079686183
0.4740968325496671 -2.573269637360289
0.4882830880306093 -2.7458778024038746
0.5036969092284234 -2.9036972728437744
0.5203275190486938 -3.045506853237634
0.5381563151873094 -3.170080315990931
0.5571697500444426 -3.2761509322051343
0.5774010418210883 -3.3623160024151555
0.5989767323071257 -3.426848969740328
0.6220225096669342 -3.4674769203194558
0.6462208704220344 -3.481539517930851
0.6704192311771345 -3.4674769203194553
0.6934650085369432 -3.4268489697403277
0.7150406990229803 -3.362316002415155
0.7352719907996261 -3.276150932205134
0.754285425656759 -3.1700803159909303
0.7721142217953748 -3.045506853237633
0.7887448316156452 -2.903697272843774
0.8041586528134592 -2.745877802403874
0.8183449082944014 -2.5732696373602884
0.8312995805843105 -2.3870982079686187
0.843021936040659 -2.188594465668084
0.8535115687753279 -1.9789958830117316
0.8627648995734019 -1.759550096144371
0.8707681780957536 -1.5315201944243202
0.8774854371362462 -1.296184287994212
0.8828287355342075 -1.0548042853578654
0.8865305337899271 -0.8084384934651669
0.8881002472594786 -0.5573254954429814
0.8883857915469634 -0.30058144894560634
0.8921380222226387 -0.04290362351505958
0.46195615110346877 -0.0467758730762859
0.46523017788712817 -0.30141599311389716
0.46533452685685456 -0.557253696811498
0.46603046057821407 -0.8085244425155157
0.4684499589581506 -1.0551413494917679
0.47229872400792816 -1.296708801315913
0.4772825390219242 -1.5321941673742745
0.48327159676854586 -1.7603544722884965
0.49021180394744046 -1.9799210036070525
0.4980821213966547 -2.189636384581505
0.5068766496616689 -2.388255648260746
0.5165945691570633 -2.574542044907133
0.527234692458182 -2.7472640775669177
0.5387911390174018 -2.905194650363602
0.5512481697487869 -3.047110282686716
0.564577427277485 -3.171784988249452
0.5787536132392144 -3.2779641705477007
0.5938158989748762 -3.3642830948338416
0.6099608611186028 -3.429073950692291
0.6274820925997515 -3.470060143860553
0.6462208704220344 -3.4843474853492484
0.6649596482443171 -3.4700601438605525
0.6824808797254658 -3.42907395069229
0.6986258418691924 -3.3642830948338407
0.7136881276048541 -3.2779641705477
0.7278643135665837 -3.1717849882494513
0.7411935710952816 -3.047110282686715
0.7536506018266667 -2.905194650363601
0.7652070483858865 -2.7472640775669177
0.7758471716870052 -2.5745420449071323
0.7855650911823994 -2.3882556482607464
0.7943596194474137 -2.1896363845815046
0.8022299368966279 -1.9799210036070518
0.8091701440755227 -1.7603544722884963
0.8151592018221443 -1.532194167374273
0.8201430168361404 -1.2967088013159132
0.8239917818859178 -1.0551413494917674
0.8264112802658543 -0.8085244425155164
0.827107213987214 -0.5572536968114973
0.8272115629569402 -0.3014159931138963
0.8304855897405997 -0.04677587307628595
0.523146153099656 -0.05001662924861441
0.5259643859194074 -0.3022918406478335
0.5259161087854187 -0.5571928277391852
0.5258856774910893 -0.8084983143939931
0.5271142619510442 -1.0553219364547002
0.5294951054660665 -1.297055911681196
0.5327514281825182 -1.532665408772651
0.5367274636957119 -1.7609263229910894
0.5413541547379724 -1.9805817513349955
0.5466045520896305 -2.1903811719459334
0.5524707971602697 -2.389082895124057
0.5589516410335121 -2.5754510763075102
0.5660455007095454 -2.748253569406352
0.5737450641258828 -2.906261278647864
0.582030826624339 -3.048247853294275
0.5908665024215347 -3.172987018663392
0.6002155083977176 -3.2792379412536894
0.6101195004677189 -3.3656834858441096
0.6208432946780638 -3.4307381919738114
0.6328674055277541 -3.4721435554976505
0.6462208704220342 -3.486718875196005
0.6595743353163144 -3.47214355549765
0.6715984461660048 -3.4307381919738105
0.6823222403763497 -3.3656834858441087
0.6922262324463508 -3.2792379412536885
0.7015752384225339 -3.172987018663392
0.7104109142197295 -3.0482478532942743
0.7186966767181857 -2.906261278647863
0.7263962401345231 -2.748253569406351
0.7334900998105562 -2.57545107630751
0.7399709436837986 -2.389082895124057
0.7458371887544379 -2.190381171945933
0.751087586106096 -1.9805817513349948
0.7557142771483566 -1.7609263229910888
0.7596903126615503 -1.5326654087726492
0.762946635378002 -1.2970559116811966
0.7653274788930243 -1.0553219364546995
0.7665560633529792 -0.8084983143939939
0.7665256320586497 -0.5571928277391847
0.7664773549246611 -0.30229184064783265
0.7692955877444125 -0.05001662924861448
0.5840119805379675 -0.05270119902142675
0.5863864557936657 -0.30315474260713043
0.5861783540893929 -0.5571432192837179
0.5855194004554896 -0.8083809752723847
0.585640205629383 -1.0553568122948935
0.5865869419811262 -1.2972288807955488
0.5881255372162804 -1.5329349490019
0.5900909020380164 -1.7612659196152882
0.5924040766615352 -1.9809781026609563
0.5950339949823529 -2.1908287497463212
0.5979714526439958 -2.3895798833338633
0.6012148756498186 -2.5759967061605544
0.6047624195596464 -2.7488463573344224
0.6086059025220483 -2.906897515964457
0.612723529648242 -3.0489205154336028
0.6170734117258373 -3.1736880795145934
0.6216079701463549 -3.279973631914161
0.6263641819827783 -3.366515908110048
0.631665379473415 -3.431838522313487
0.6381969563677448 -3.473734988442693
0.6462208704220341 -3.4886828033050814
0.6542447844763238 -3.4737349884426925
0.6607763613706537 -3.4318385223134866
0.6660775588612902 -3.366515908110048
0.6708337706977135 -3.2799736319141606
0.6753683291182313 -3.173688079514593
0.6797182111958265 -3.0489205154336028
0.6838358383220201 -2.906897515964456
0.6876793212844221 -2.748846357334422
0.6912268651942498 -2.575996706160554
0.6944702882000724 -2.389579883333864
0.6974077458617155 -2.1908287497463212
0.7000376641825332 -1.9809781026609556
0.7023508388060521 -1.7612659196152876
0.7043162036277881 -1.5329349490018982
0.7058547988629422 -1.2972288807955494
0.7068015352146854 -1.055356812294893
0.7069223403885789 -0.8083809752723853
0.7062633867546755 -0.5571432192837174
0.7060552850504028 -0.3031547426071295
0.7084297603061009 -0.052701199021426816
0.6446625502165125 -0.05489299420021032
0.6466034545526311 -0.3039652508220546
0.6462118658188155 -0.5570971259740957
0.644985483330117 -0.8081868197168501
0.6440685596040598 -1.0552566444177123
0.6436172436246932 -1.2972319523294817
0.6434505482175572 -1.5330041926037756
0.6434084779407158 -1.7613736520327183
0.6434083888300945 -1.981110071494381
0.6434173111158962 -2.1909790391363493
0.6434254510991344 -2.389746541857049
0.6434310948965096 -2.576178913503712
0.643432321530326 -2.7490425509200023
0.64342070739509 -2.9071038028153082
0.6433738005147138 -3.049129425501455
0.6432469941700489 -3.1738902890663807
0.642982579759909 -3.2801730486923475
0.6426027404509582 -3.3667779480369884
0.6424699128408063 -3.4323669871182703
0.6434887888889785 -3.474836859654126
0.6462208704220341 -3.4902707958967847
0.6489529519550898 -3.474836859654126
0.6499718280032621 -3.43236698711827
0.6498390003931103 -3.3667779480369875
0.6494591610841595 -3.280173048692347
0.6491947466740197 -3.1738902890663807
0.6490679403293547 -3.049129425501455
0.6490210334489785 -2.907103802815307
0.6490094193137425 -2.749042550920002
0.6490106459475588 -2.576178913503711
0.6490162897449339 -2.3897465418570496
0.6490244297281722 -2.190979039136349
0.6490333520139738 -1.9811100714943808
0.6490332629033526 -1.7613736520327177
0.6489911926265114 -1.533004192603774
0.6488244972193752 -1.2972319523294824
0.6483731812400086 -1.0552566444177118
0.6474562575139514 -0.8081868197168508
0.6462298750252529 -0.5570971259740953
0.6458382862914374 -0.3039652508220538
0.647779190627556 -0.05489299420021037
0.7051871538500906 -0.056646903457116385
0.7067069704714245 -0.3046960046128972
0.7061027827034941 -0.5570430694722214
0.704344420370381 -0.8079248483343917
0.7024458319802964 -1.055030971204374
0.7006310682932397 -1.2970697849766504
0.6987726696751034 -1.532874801722602
0.696726886840737 -1.7612499815416185
0.694413896633886 -1.9809776923231408
0.6918013260183175 -2.1908319623375836
0.6888796105104176 -2.3895827966629843
0.6856471105809568 -2.5759976794935824
0.6821020331828869 -2.748842274927468
0.6782363508481734 -2.9068806145350967
0.6740285927699878 -3.048875840179499
0.6694348429120918 -3.1735961364539116
0.6643897039876732 -3.279838664104066
0.658889072347323 -3.3664665773688505
0.653303186426075 -3.432310541190527
0.648761759856546 -3.4754448410879557
0.6462208704220342 -3.4915189982402652
0.6436799809875223 -3.475444841087956
0.6391385544179935 -3.432310541190527
0.6335526684967454 -3.36646657736885
0.6280520368563954 -3.2798386641040667
0.6230068979319768 -3.173596136453912
0.6184131480740804 -3.0488758401794986
0.614205389995895 -2.9068806145350954
0.6103397076611815 -2.7488422749274672
0.6067946302631115 -2.5759976794935815
0.6035621303336508 -2.389582796662985
0.6006404148257509 -2.190831962337583
0.5980278442101824 -1.9809776923231404
0.5957148540033314 -1.7612499815416178
0.593669071168965 -1.5328748017226006
0.5918106725508288 -1.2970697849766508
0.5899959088637721 -1.0550309712043737
0.5880973204736875 -0.8079248483343924
0.5863389581405742 -0.557043069472221
0.5857347703726439 -0.30469600461289637
0.5872545869939779 -0.056646903457116475
0.7656611638791458 -0.05801224754689557
0.7667767994949203 -0.3053292226101053
0.765931819994227 -0.5569685478156714
0.763660274117994 -0.8076000034123179
0.7608232160549381 -1.0546877350032509
0.7576756886608649 -1.2967469411914845
0.7541387599279373 -1.532548522584103
0.7500929644338808 -1.760895388123953
0.745467397336344 -1.9805810023892358
0.7402328313225623 -2.1903874424937433
0.7343807308829386 -2.389088573447446
0.7279097234916948 -2.5754529842401728
0.7208183298131692 -2.748245653234899
0.7130995249827476 -2.906228415835926
0.7047343044554267 -3.0481609940954084
0.6956831127995311 -3.172808344804984
0.6858779407996085 -3.278973914564312
0.675278466865078 -3.3655790706899604
0.6642175053601274 -3.4316509402711017
0.6540374051101628 -3.4755456557045545
0.6462208704220342 -3.4924710222790463
0.6384043357339054 -3.475545655704555
0.6282242354839411 -3.4316509402711013
0.6171632739789904 -3.3655790706899604
0.6065638000444602 -3.2789739145643115
0.5967586280445375 -3.172808344804983
0.5877074363886416 -3.0481609940954084
0.5793422158613206 -2.906228415835925
0.5716234110308992 -2.748245653234898
0.5645320173523735 -2.5754529842401723
0.5580610099611298 -2.389088573447446
0.552208909521506 -2.1903874424937433
0.5469743435077242 -1.9805810023892358
0.5423487764101875 -1.760895388123952
0.538302980916131 -1.5325485225841013
0.5347660521832036 -1.296746941191485
0.5316185247891304 -1.0546877350032506
0.5287814667260745 -0.8076000034123184
0.5265099208498414 -0.556968547815671
0.5256649413491481 -0.3053292226101046
0.5267805769649225 -0.05801224754689566
0.826149222669337 -0.05903528200313257
0.8268833179825037 -0.30585460771524986
0.8257742688912565 -0.5568617052963782
0.8229988517132742 -0.8072144599201971
0.8192555893572608 -1.054233161672286
0.8148004926411221 -1.2962674782626091
0.8095963702843602 -1.5320269901747705
0.803553683575252 -1.760310310464752
0.7966156753372385 -1.9799200250363345
0.7887585847316125 -2.1896454030609753
0.7799755943315791 -2.3882638004651824
0.7702657264554634 -2.574544803779147
0.759627938351966 -2.7472527916090117
0.7480567508590699 -2.905147622793574
0.7355368612839503 -3.046985975671105
0.7220364331800561 -3.1715296295813906
0.7074931982259701 -3.277583444472525
0.6918271945084173 -3.36411442482697
0.6752743587074217 -3.430365126373587
0.65934299891243 -3.4751135912498827
0.6462208704220341 -3.4931816744319812
0.6330987419316384 -3.4751135912498827
0.6171673821366466 -3.4303651263735864
0.6006145463356509 -3.36411442482697
0.5849485426180984 -3.2775834444725245
0.5704053076640124 -3.1715296295813906
0.5569048795601179 -3.046985975671104
0.5443849899849985 -2.9051476227935726
0.5328138024921024 -2.7472527916090113
0.5221760143886048 -2.5745448037791463
0.5124661465124893 -2.388263800465183
0.5036831561124557 -2.1896454030609753
0.4958260655068298 -1.9799200250363342
0.4888880572688163 -1.7603103104647513
0.4828453705597083 -1.5320269901747692
0.4776412482029463 -1.2962674782626096
0.47318615148680754 -1.054233161672286
0.4694428891307942 -0.8072144599201978
0.46666747195281194 -0.5568617052963778
0.4655584228615647 -0.305854607715249
0.4662925181747315 -0.059035282003132704
0.886706694169761 -0.05976127228786419
0.887088812680656 -0.3062677043235275
0.8857004772200617 -0.5567124037752337
0.8824268346888839 -0.8067687517132273
0.8778007123080181 -1.053671809963095
0.8720567120678874 -1.2956346371271588
0.8651936924591941 -1.5313115402507047
0.8571561297605359 -1.7594950841138528
0.8479054897778787 -1.9789947554178424
0.837425308350713 -2.188605768070172
0.8257109660185347 -2.3871084116435517
0.8127619100685372 -2.5732731087728467
0.7985775535988296 -2.745863759010327
0.783154385018868 -2.9036385723267113
0.7664818458100474 -3.0453516331602652
0.7485380776065603 -3.1697623246345548
0.729277442400462 -3.275673094193037
0.7085907192332346 -3.3620753813592668
0.6865483084915748 -3.4284266920331063
0.6647169760844319 -3.474105133828905
0.6462208704220341 -3.493721780040394
0.6277247647596363 -3.4741051338289055
0.6058934323524935 -3.428426692033106
0.5838510216108338 -3.3620753813592668
0.5631642984436065 -3.2756730941930363
0.543903663237508 -3.169762324634554
0.525959895034021 -3.045351633160265
0.5092873558252001 -2.90363857232671
0.4938641872452388 -2.745863759010326
0.47967983077553117 -2.5732731087728458
0.4667307748255337 -2.3871084116435517
0.45501643249335527 -2.188605768070172
0.44453625106618955 -1.9789947554178422
0.4352856110835324 -1.7594950841138521
0.4272480483848743 -1.5313115402507034
0.42038502877618106 -1.2956346371271594
0.4146410285360502 -1.0536718099630948
0.4100149061551844 -0.806768751713228
0.40674126362400675 -0.5567124037752332
0.40535292816341234 -0.30626770432352673
0.40573504667430743 -0.059761272287864306
0.9473797289114636 -0.0602361698229351
0.9474479554922779 -0.3065687087724822
0.9457766623350888 -0.5565130224230308
0.9420116657618252 -0.806262687940297
0.9365186466666382 -1.0530066544315444
0.929497040564705 -1.2948506049472148
0.9209794172853584 -1.5304030485611912
0.9109474507498446 -1.7584498859347621
0.899383555889618 -1.9778051500996097
0.886279686013887 -2.187268464361379
0.8716335968975083 -2.3856223497509714
0.8554450669929929 -2.571637866506365
0.8377138725281132 -2.744078570487229
0.818438633138843 -2.901701486012659
0.7976145780696909 -3.043258555558347
0.7752305748431376 -3.167507920396745
0.7512674940772766 -3.2732492730410185
0.7256193521427271 -3.359471010298743
0.6981311895201925 -3.4258095638104655
0.6702191306765959 -3.4724508964052334
0.6462208704220341 -3.4941841141259236
0.6222226101674724 -3.4724508964052334
0.5943105513238757 -3.4258095638104655
0.5668223887013413 -3.359471010298743
0.5411742467667917 -3.2732492730410176
0.5172111660009306 -3.167507920396745
0.4948271627743773 -3.0432585555583462
0.47400310770522514 -2.9017014860126578
0.454727868315955 -2.7440785704872277
0.4369966738510753 -2.5716378665063644
0.4208081439465601 -2.385622349750971
0.4061620548301813 -2.1872684643613787
0.3930581849544501 -1.9778051500996094
0.38149429009422364 -1.7584498859347615
0.37146232355871 -1.5304030485611901
0.3629447002793635 -1.2948506049472155
0.35592309417743023 -1.0530066544315442
0.3504300750822432 -0.8062626879402978
0.34666507850897965 -0.5565130224230305
0.3449937853517905 -0.3065687087724815
0.3450620119326047 -0.060236169822935226
1.00820397354807 -0.0605078809411464
1.008007542260738 -0.30676177575021657
1.0060661495208967 -0.5562592373866843
1.001822080531227 -0.8056960221756666
0.995471329439093 -1.0522390957204026
0.987175169102814 -1.2939163286118034
0.9770025227639275 -1.5293018099026525
0.9649747803349827 -1.7571746927472587
0.9510965217104664 -1.9763511225493107
0.9353683597698212 -2.1856334266716506
0.917790230189816 -2.383805569749778
0.8983619930935252 -2.56963904429109
0.8770836315359501 -2.7418971848405853
0.8539556384691064 -2.8993364015515835
0.8289799829187445 -3.040707140906137
0.8021567503371889 -3.164766748386913
0.7734951144417774 -3.2703171844225034
0.7429495454423672 -3.3563192907305766
0.7101345297227333 -3.422496119002046
0.6759509071486917 -3.470043870302739
0.6462208704220342 -3.494689685103823
0.6164908336953766 -3.470043870302739
0.5823072111213349 -3.4224961190020466
0.5494921954017009 -3.3563192907305766
0.5189466264022911 -3.2703171844225025
0.4902849905068794 -3.164766748386913
0.4634617579253237 -3.0407071409061355
0.4384861023749617 -2.899336401551582
0.4153581093081182 -2.7418971848405844
0.39407974775054316 -2.5696390442910886
0.3746515106542524 -2.3838055697497778
0.3570733810742469 -2.18563342667165
0.3413452191336017 -1.97635112254931
0.32746696050908564 -1.7571746927472582
0.31543921808014086 -1.5293018099026512
0.3052665717412544 -1.293916328611804
0.2969704114049753 -1.0522390957204026
0.2906196603128415 -0.8056960221756674
0.2863755913231718 -0.5562592373866838
0.2844341985833305 -0.3067617757502158
0.2842377672959987 -0.06050788094114653
1.069201620138373 -0.060627045588603934
1.0688055828888652 -0.30685498354667584
1.0666313905752824 -0.5559509793908799
1.0619292017313315 -0.8050687890428085
1.0547221637929198 -1.0513688179775489
1.045145254309489 -1.2928313711461845
1.03331201267568 -1.5280074638630172
1.019285139513806 -1.755669260594674
1.0030909429623434 -1.974632547007115
0.9847379269883213 -2.183700604989745
0.9642276070197067 -2.3816580457803167
0.9415595047059824 -2.567276604721584
0.9167335844149553 -2.7393195358474673
0.8897517520571248 -2.896543078725925
0.8606222611148348 -3.0376975922047955
0.8293602554830625 -3.1615383932675303
0.7959912992823708 -3.2668774668950618
0.7605893378511972 -3.3526475292223985
0.72268239192892 -3.418494021294776
0.6820983996470895 -3.4667234590227114
0.6462208704220342 -3.4953911913012594
0.6103433411969786 -3.4667234590227114
0.5697593489151482 -3.4184940212947765
0.5318524029928708 -3.3526475292223985
0.4964504415616976 -3.2668774668950613
0.46308148536100574 -3.16153839326753
0.4318194797292334 -3.037697592204794
0.4026899887869433 -2.896543078725924
0.375708156429113 -2.739319535847467
0.35088223613808595 -2.567276604721583
0.3282141338243617 -2.3816580457803163
0.30770381385574697 -2.1837006049897445
0.28935079788172496 -1.9746325470071149
0.27315660133026215 -1.7556692605946735
0.25912972816838825 -1.528007463863016
0.2472964865345793 -1.2928313711461854
0.23771957705114868 -1.0513688179775489
0.23051253911273673 -0.8050687890428093
0.22581035026878582 -0.5559509793908795
0.22363615795520314 -0.3068549835466751
0.22324012070569552 -0.06062704558860409
1.130375983733428 -0.060647114528717905
1.129869874898468 -0.3068613659883384
1.1275375230753215 -0.555593700119684
1.1224080000864278 -0.8043811118621617
1.1143354261380432 -1.050393458178159
1.1034613539108475 -1.2915938235167785
1.0899566171070352 -1.526518967313847
1.073925324089875 -1.7539331304169412
1.0554132572809913 -1.9726492735869001
1.034434946287647 -2.1814699715249746
1.0109924540608828 -2.37917978536355
0.9850844989115063 -2.564550495740204
0.9567104223904538 -2.7363455510398986
0.9258737257686618 -2.8933210850054096
0.8925855372951332 -3.03422930156149
0.8568824053787414 -3.157823559950776
0.8187987927722077 -3.262922462954116
0.7785035731098412 -3.3484838817183964
0.7358670998996106 -3.4138699028132793
0.6890307571056816 -3.4622577104453103
0.6462208704220342 -3.4964629035371346
0.6034109837383866 -3.4622577104453103
0.5565746409444577 -3.4138699028132797
0.513938167734227 -3.3484838817183964
0.4736429480718605 -3.2629224629541165
0.4355593354653267 -3.157823559950776
0.399856203548935 -3.034229301561488
0.3665680150754063 -2.893321085005408
0.3357313184536145 -2.736345551039898
0.30735724193256214 -2.564550495740203
0.28144928678318576 -2.3791797853635495
0.25800679455642134 -2.181469971524974
0.23702848356307693 -1.9726492735868997
0.2185164167541932 -1.7539331304169408
0.20248512373703312 -1.5265189673138455
0.18898038693322067 -1.2915938235167792
0.17810631470602525 -1.050393458178159
0.17003374075764072 -0.8043811118621627
0.1649042177687468 -0.5555937001196835
0.16257186594560055 -0.30686136598833763
0.16206575711064045 -0.06064711452871804
1.1917018383736018 -0.06062329535567624
1.1912164008830717 -0.3068019183775441
1.1888590337636338 -0.5551999080829051
1.1833383836186528 -0.8036320862548376
1.1743753692669598 -1.0493081756630642
1.1621768870353628 -1.290200282056665
1.146984441447546 -1.5248346094300977
1.1289417990629305 -1.7519656695574455
1.1081097646808302 -1.970401149661782
1.0845059323947348 -2.1789415401689687
1.0581315262528301 -2.376370812279242
1.0289838274969736 -2.5614607389261
0.9970612762497908 -2.732974916414824
0.9623672699656036 -2.8896704814729453
0.9249183178773703 -3.0302994283957694
0.8847532703695627 -3.1536253631766207
0.8419827373284061 -3.2584414895901683
0.7966473806549775 -3.3438205369016205
0.7495686939334064 -3.408814001979851
0.697547747068115 -3.45633928255199
0.6462208704220342 -3.4980417659373604
0.5948939937759535 -3.45633928255199
0.5428730469106618 -3.4088140019798514
0.49579436018909046 -3.3438205369016214
0.45045900351566204 -3.2584414895901683
0.40768847047450507 -3.15362536317662
0.36752342296669777 -3.030299428395768
0.3300744708784646 -2.889670481472944
0.29538046459427747 -2.7329749164148236
0.26345791334709495 -2.561460738926099
0.2343102145912381 -2.3763708122792417
0.20793580844933368 -2.1789415401689687
0.18433197616323824 -1.970401149661781
0.16349994178113778 -1.751965669557445
0.14545729939652216 -1.5248346094300962
0.13026485380870545 -1.2902002820566658
0.1180663715771083 -1.0493081756630647
0.10910335722541552 -0.8036320862548383
0.1035827070804345 -0.5551999080829046
0.1012253399609968 -0.3068019183775433
0.10073990247046673 -0.06062329535567637
1.2531078321518392 -0.06060951108519096
1.252848337327457 -0.3067125721503399
1.2506930617180243 -0.5547904082682433
1.2448031655709237 -0.8028170389432772
1.2349058669440582 -1.048105563792034
1.2213438328907273 -1.2886457573452823
1.204442658594857 -1.5229521241677193
1.1843805949195119 -1.7497661350944562
1.1612266152834225 -1.967888057814113
1.1349973727980391 -2.176115371041027
1.1056915763179662 -2.373231209916979
1.0733044676912948 -2.5580072971914323
1.0378330493173153 -2.7292076324249073
0.9992799343670237 -2.885589903753277
0.9576628742876934 -3.0259096191450072
0.9130309897636925 -3.14892836024809
0.8655057661877005 -3.2534772656940527
0.8153141312219955 -3.338495185935041
0.7627625559879556 -3.4037519849899707
0.7095761495443113 -3.4486651311359475
0.6462208704220342 -3.5
0.5828655912997571 -3.448665131135948
0.5296791848561129 -3.4037519849899707
0.4771276096220726 -3.338495185935042
0.42693597465636746 -3.253477265694053
0.3794107510803753 -3.148928360248089
0.3347788665563746 -3.025909619145006
0.29316180647704476 -2.8855899037532757
0.25460869152675286 -2.729207632424907
0.2191372731527735 -2.5580072971914314
0.18675016452610213 -2.3732312099169786
0.1574443680460294 -2.1761153710410266
0.1312151255606459 -1.967888057814112
0.10806114592455657 -1.7497661350944558
0.08799908224921105 -1.5229521241677177
0.07109790795334102 -1.2886457573452832
0.057535873900010026 -1.0481055637920347
0.04763857527314466 -0.8028170389432779
0.04174867912604404 -0.5547904082682428
0.03959340351661121 -0.3067125721503392
0.03933390869222932 -0.06060951108519109
SCALARS Stress float 6
LOOKUP_TABLE default
-715.3944361812136 -22761.493452025385 -7043.066366461979 -528.833594435302 0.0 0.0
10780.767911125507 6370.765916239507 5145.460148209505 -821.4545632909524 0.0 0.0
6129.75182001888 -543.6650235608518 1675.8260389374082 -351.3268439210672 0.0 0.0
6272.257061109094 477.5028228354987 2024.9279651833772 -52.32549795830933 0.0 0.0
7201.30310197548 173.74482813112016 2212.51437903198 -120.59526019849348 0.0 0.0
8667.672380444368 245.49969920589274 2673.951623895078 -124.2688161304669 0.0 0.0
10286.595278667248 267.50205842638474 3166.2292011280906 -131.77198259164626 0.0 0.0
11981.069955030249 311.56146037687313 3687.789424622138 -134.62706564668457 0.0 0.0
13695.317720213043 354.9060902316487 4215.0671431334085 -135.64231607111606 0.0 0.0
15413.390253078827 399.6778104233745 4743.920419050661 -135.9065497825511 0.0 0.0
17129.538331524254 444.3167428261396 5272.15652230512 -135.90653319579081 0.0 0.0
18843.5716130319 488.9308502289391 5799.750738978251 -135.93663132563134 0.0 0.0
20557.757233718286 533.7003418149121 6327.437272659961 -136.20138906752376 0.0 0.0
22278.293571183367 579.2534612944969 6857.264109743362 -136.98133939656495 0.0 0.0
24018.79669757751 626.6683074004549 7393.639501493388 -138.57821313059463 0.0 0.0
25802.275357801944 677.0591134528725 7943.800341376445 -140.8428090704016 0.0 0.0
27651.057673309777 729.828675185213 8514.2659045485 -141.8682841364612 0.0 0.0
29546.47218972253 779.4038089980099 9097.762799616161 -135.98774858551118 0.0 0.0
31348.490202719015 813.4419280565287 9648.579639232661 -113.42482952865345 0.0 0.0
32726.604066890446 821.7375224878359 10064.502476813488 -66.35266183618904 0.0 0.0
33254.50092626008 817.062897697803 10221.469147187363 -2.3646862246096134e-11 0.0 0.0
32726.604066890246 821.737522487443 10064.502476813308 66.35266183626686 0.0 0.0
31348.490202719426 813.4419280575922 9648.57963923311 113.42482952857608 0.0 0.0
29546.472189721855 779.4038089967288 9097.762799615579 135.98774858547273 0.0 0.0
27651.057673310806 729.82867518748 8514.265904549484 141.86828413630917 0.0 0.0
25802.275357801584 677.0591134520309 7943.800341376084 140.84280907051556 0.0 0.0
24018.796697577836 626.6683074013147 7393.639501493745 138.5782131305357 0.0 0.0
22278.293571184542 579.253461297053 6857.26410974448 136.98133939656782 0.0 0.0
20557.757233718454 533.7003418151352 6327.437272660078 136.2013890676369 0.0 0.0
18843.571613031185 488.93085022728303 5799.750738977542 135.9366313256608 0.0 0.0
17129.538331523636 444.3167428251104 5272.156522304623 135.9065331956282 0.0 0.0
15413.39025307818 399.6778104221115 4743.920419050086 135.90654978264044 0.0 0.0
13695.317720212946 354.9060902312832 4215.067143133269 135.64231607107914 0.0 0.0
11981.069955030485 311.56146037727024 3687.789424622328 134.6270656467973 0.0 0.0
10286.595278667279 267.50205842632596 3166.229201128082 131.77198259155904 0.0 0.0
8667.672380444154 245.4996992055831 2673.9516238949195 124.26881613029974 0.0 0.0
7201.303101975362 173.74482813113877 2212.5143790319503 120.59526019854053 0.0 0.0
6272.257061108947 477.50282283523165 2024.927965183254 52.32549795824063 0.0 0.0
6129.751820018885 -543.6650235610721 1675.8260389373436 351.32684392115783 0.0 0.0
10780.767911125595 6370.76591623975 5145.460148209603 821.4545632909869 0.0 0.0
-715.3944361814466 -22761.493452025556 -7043.066366462101 528.8335944354104 0.0 0.0
-4062.100901627445 -22612.419594914307 -8002.356148962527 -361.38983892281 0.0 0.0
6630.538875079137 4358.760914930452 3296.789937002877 -654.9580413747868 0.0 0.0
4310.068189995413 -611.6845896306096 1109.5150801094414 -245.5640592366031 0.0 0.0
5594.453493801786 216.27365576082408 1743.2181448687836 -203.25402895030962 0.0 0.0
6402.379272220474 26.85137436697438 1928.7691939762349 -293.05026270198204 0.0 0.0
7732.300078776379 21.37225874720948 2326.1017012570765 -331.9699973232077 0.0 0.0
9167.543150624477 7.146671344476529 2752.4069465906873 -349.4195641032327 0.0 0.0
10669.414658026342 2.1843100969284412 3201.4796904369814 -356.5628738964873 0.0 0.0
12191.427049114576 0.2283301381751277 3657.4966137758265 -358.52397544493476 0.0 0.0
13718.645385822296 -0.29147627445234914 4115.506172864352 -358.72474730509344 0.0 0.0
15245.490156494725 -0.2950080832373603 4573.558544523447 -358.4512707042937 0.0 0.0
16771.280512240883 -0.04521921620389513 5031.370587907404 -358.3168724454474 0.0 0.0
18297.894907189406 0.6286928053453771 5489.557079998426 -358.8137747140395 0.0 0.0
19830.525768825264 2.225847802943015 5949.825484988464 -360.81187782586426 0.0 0.0
21379.744742133407 5.2302979062262835 6415.492512011892 -365.6757539570568 0.0 0.0
22961.350959367977 8.878382813726596 6891.068802654511 -374.29165328388825 0.0 0.0
24585.3210441006 8.49249006707445 7378.144060250304 -383.50048374172763 0.0 0.0
26220.86740398885 -7.309607951626411 7864.067338811166 -379.14288878850334 0.0 0.0
27736.077242230473 -53.02289487685939 8304.91630420609 -330.50149080499654 0.0 0.0
28861.223641879216 -124.2656928524071 8621.087384708046 -202.53474534129563 0.0 0.0
29282.23575177391 -167.23984572560914 8734.498771814493 5.078959475213196e-11 0.0 0.0
28861.22364187936 -124.26569285213058 8621.087384708173 202.53474534148774 0.0 0.0
27736.077242230655 -53.02289487635794 8304.91630420629 330.5014908050789 0.0 0.0
26220.867403988366 -7.309607952649046 7864.0673388107125 379.1428887884599 0.0 0.0
24585.321044100947 8.492490067917814 7378.144060250656 383.50048374151663 0.0 0.0
22961.35095936806 8.8783828140037 6891.068802654621 374.29165328394924 0.0 0.0
21379.744742133676 5.2302979069792315 6415.492512012199 365.67575395709343 0.0 0.0
19830.525768825664 2.225847803783523 5949.825484988837 360.811877825751 0.0 0.0
18297.894907189842 0.6286928061415011 5489.557079998794 358.81377471396536 0.0 0.0
16771.280512240653 -0.04521921661351769 5031.370587907214 358.3168724454501 0.0 0.0
15245.49015649443 -0.2950080837545954 4573.558544523203 358.4512707042046 0.0 0.0
13718.645385822341 -0.29147627440853086 4115.50617286438 358.72474730513824 0.0 0.0
12191.42704911452 0.228330137945008 3657.4966137757388 358.5239754449134 0.0 0.0
10669.414658026575 2.1843100975408447 3201.4796904372342 356.5628738965162 0.0 0.0
9167.54315062436 7.146671344394342 2752.4069465906264 349.4195641032027 0.0 0.0
7732.300078776316 21.372258747128853 2326.1017012570333 331.9699973230559 0.0 0.0
6402.379272220627 26.851374367148523 1928.7691939763336 293.05026270208106 0.0 0.0
5594.453493801761 216.27365576064093 1743.2181448687209 203.25402895024976 0.0 0.0
4310.0681899954025 -611.6845896306947 1109.5150801094123 245.56405923664417 0.0 0.0
6630.538875079103 4358.760914930431 3296.78993700286 654.9580413747954 0.0 0.0
-4062.100901627571 -22612.419594914416 -8002.356148962597 361.38983892288593 0.0 0.0
-4444.759596664669 -19791.687179053246 -7270.934032715375 -1664.3631238782714 0.0 0.0
4193.289505121421 2627.7396048785863 2046.3087330000026 -1184.3734033934027 0.0 0.0
3196.48836774626 109.59913900867134 991.8262520264792 -166.51646183427013 0.0 0.0
4667.920028190711 35.42355129435477 1411.0030738455198 -468.87487731888217 0.0 0.0
5696.608600314646 83.53229931484672 1734.0422698888476 -583.5041738581497 0.0 0.0
6863.429696041953 20.78387985381287 2065.26407276873 -668.7501338355348 0.0 0.0
8156.236835612372 11.352109929293295 2450.276683662499 -702.068493743403 0.0 0.0
9487.785117945265 2.8158677378446715 2847.180295704933 -715.5333259565298 0.0 0.0
10839.233769579174 0.33129744046039766 3251.8695201058904 -719.1508356688145 0.0 0.0
12195.436627303305 -0.4216535829463748 3658.5044921161075 -719.3600774085384 0.0 0.0
13552.169936157901 -0.4192112962030343 4065.5252174585094 -718.741697124911 0.0 0.0
14908.51682642251 -0.07514428436394738 4472.532504641443 -718.4081299965673 0.0 0.0
16265.880292147609 0.85458362703341 4880.020462732393 -719.2961311279981 0.0 0.0
17628.184595741208 3.0918966906873635 5289.382947729569 -723.131448565039 0.0 0.0
19003.060585293944 7.406851877439134 5703.140231151417 -732.7706906348479 0.0 0.0
20400.933268425746 12.886986034514319 6124.146076338081 -750.4529026962435 0.0 0.0
21825.176750229923 12.920325873213649 6551.429122830941 -770.8117527608811 0.0 0.0
23243.325371785257 -9.551268151275814 6970.132231090194 -766.4000051889144 0.0 0.0
24539.09681085345 -78.2844169322705 7338.243718176356 -674.190220969219 0.0 0.0
25486.373171958057 -191.20116055724884 7588.551603420244 -417.3000011017687 0.0 0.0
25834.250919651644 -263.5644565015373 7671.205938945032 8.58335624798201e-11 0.0 0.0
25486.373171957915 -191.20116055745396 7588.551603420135 417.3000011017609 0.0 0.0
24539.096810853385 -78.28441693225083 7338.24371817634 674.1902209692994 0.0 0.0
23243.325371784886 -9.55126815219829 6970.132231089808 766.4000051890107 0.0 0.0
21825.17675022989 12.92032587291159 6551.42912283084 770.8117527609194 0.0 0.0
20400.933268425626 12.886986034253724 6124.146076337964 750.4529026962902 0.0 0.0
19003.060585293722 7.406851876984476 5703.140231151211 732.7706906347626 0.0 0.0
17628.18459574097 3.0918966899660205 5289.382947729279 723.1314485649792 0.0 0.0
16265.88029214822 0.8545836284776556 4880.02046273301 719.2961311279745 0.0 0.0
14908.516826422527 -0.07514428435285936 4472.532504641452 718.40812999645 0.0 0.0
13552.169936157927 -0.4192112961969343 4065.52521745852 718.741697124796 0.0 0.0
12195.436627303503 -0.4216535824603227 3658.5044921163135 719.360077408586 0.0 0.0
10839.233769579103 0.3312974403740512 3251.869520105844 719.1508356688039 0.0 0.0
9487.78511794528 2.8158677379906365 2847.180295704981 715.533325956429 0.0 0.0
8156.236835612414 11.352109929418155 2450.2766836625497 702.0684937434371 0.0 0.0
6863.42969604186 20.783879853714264 2065.264072768671 668.7501338353882 0.0 0.0
5696.6086003145165 83.53229931439512 1734.0422698886734 583.50417385826 0.0 0.0
4667.920028190678 35.42355129415673 1411.0030738454507 468.87487731885756 0.0 0.0
3196.488367746166 109.59913900860198 991.8262520264309 166.51646183427897 0.0 0.0
4193.289505121285 2627.7396048783467 2046.3087329998898 1184.3734033934566 0.0 0.0
-4444.759596664667 -19791.68717905325 -7270.934032715376 1664.3631238782395 0.0 0.0
-4084.5775651867425 -17013.791667861165 -6329.510769914373 -2077.7620743316083 0.0 0.0
2617.7678415128503 1069.415750742278 1106.1550776765384 -1621.9647730698207 0.0 0.0
2336.6885343306794 506.13535261824785 852.8471660846784 -493.51642548026416 0.0 0.0
3776.791457671513 72.53823465936776 1154.7989076992642 -677.8044853750736 0.0 0.0
4925.236836880823 89.88315677551866 1504.5359980969022 -868.0168833916083 0.0 0.0
5995.233444354584 39.6825960271643 1810.474812114524 -965.3996000502062 0.0 0.0
7135.710517258824 14.13926437773418 2144.9549344909674 -1013.9335966210166 0.0 0.0
8304.833249927477 4.581388449405391 2492.8243915130643 -1031.7354378034324 0.0 0.0
9486.289780531564 0.3341646237090936 2845.987183546581 -1036.9992571970813 0.0 0.0
10672.24566368036 -0.6247571656779929 3201.486271954405 -1037.381374463961 0.0 0.0
11858.910609330263 -0.6346775767910326 3557.4827795260417 -1036.611872950525 0.0 0.0
13045.649083678816 -0.13077252341251722 3913.655493346622 -1036.2064836194966 0.0 0.0
14233.272558819772 1.2178331532889572 4270.347117591918 -1037.4581515849427 0.0 0.0
15424.280742517421 4.5100810551318204 4628.637247071767 -1042.6847926564585 0.0 0.0
16623.41556936202 11.000406709797065 4990.324792821543 -1055.6895562206878 0.0 0.0
17836.86394066597 19.571942400667115 5356.930764919993 -1079.4031034244738 0.0 0.0
19064.984756647922 20.456183542377488 5725.632282057091 -1106.3048348581838 0.0 0.0
20279.977719644612 -12.951334677504327 6080.107915490133 -1098.0897820900857 0.0 0.0
21385.106572293258 -120.13010670557581 6379.492939676303 -965.7148986073447 0.0 0.0
22187.624778365232 -302.09144683168097 6565.659999460064 -598.4197192272904 0.0 0.0
22476.60055108718 -421.66469310039406 6616.480757396038 4.780531526193954e-11 0.0 0.0
22187.624778364683 -302.0914468330451 6565.659999459493 598.4197192272691 0.0 0.0
21385.106572293647 -120.13010670442007 6379.492939676769 965.7148986073651 0.0 0.0
20279.977719643277 -12.951334680521214 6080.107915488827 1098.089782090136 0.0 0.0
19064.98475664807 20.456183542567345 5725.632282057192 1106.3048348582074 0.0 0.0
17836.863940665775 19.57194240024564 5356.930764919805 1079.4031034244103 0.0 0.0
16623.415569361176 11.000406707864435 4990.324792820712 1055.6895562206107 0.0 0.0
15424.28074251738 4.51008105502666 4628.6372470717215 1042.6847926564656 0.0 0.0
14233.272558820063 1.2178331541099823 4270.34711759225 1037.4581515848827 0.0 0.0
13045.649083678749 -0.13077252343849466 3913.6554933465927 1036.2064836193813 0.0 0.0
11858.910609330424 -0.6346775764737558 3557.482779526185 1036.611872950481 0.0 0.0
10672.24566368029 -0.6247571658446631 3201.4862719543344 1037.381374463949 0.0 0.0
9486.289780531912 0.3341646245465313 2845.9871835469376 1036.9992571969717 0.0 0.0
8304.833249927266 4.5813884487615795 2492.8243915128082 1031.7354378035684 0.0 0.0
7135.71051725873 14.139264377617376 2144.954934490905 1013.9335966211734 0.0 0.0
5995.23344435447 39.68259602710951 1810.4748121144737 965.399600050259 0.0 0.0
4925.236836880785 89.88315677520814 1504.5359980967978 868.0168833916753 0.0 0.0
3776.7914576713356 72.53823465887113 1154.798907699062 677.80448537514 0.0 0.0
2336.688534330734 506.1353526184575 852.8471660847573 493.5164254802878 0.0 0.0
2617.7678415127903 1069.4157507421687 1106.1550776764882 1621.9647730698146 0.0 0.0
-4084.577565186818 -17013.791667861187 -6329.510769914403 2077.762074331452 0.0 0.0
-3500.5661987515114 -14483.896783498545 -5395.338894675018 -2125.181640631599 0.0 0.0
1590.6205846509602 -131.71819527546364 437.6707168126492 -1917.943344598266 0.0 0.0
1666.428710443589 631.4931787917577 689.3765667706041 -935.1316538406109 0.0 0.0
2965.3734236084792 177.56856246127387 942.8825958209258 -924.9174071577744 0.0 0.0
4128.590063875118 106.16815285144115 1270.4274650179675 -1121.8867250855217 0.0 0.0
5118.419744295415 56.23521376911935 1552.39648741936 -1230.3247427501376 0.0 0.0
6111.912175832934 20.47778983876266 1839.7169897015092 -1284.4746165345948 0.0 0.0
7119.569673198551 6.109797053722382 2137.703841075683 -1305.9154166804253 0.0 0.0
8132.882720850548 0.5665984403798969 2440.034795787279 -1312.1739798723797 0.0 0.0
9148.891678136875 -0.908626656178491 2744.39491544421 -1312.8409461066021 0.0 0.0
10165.644065831291 -0.8874761884858415 3049.426976892841 -1312.0483357572773 0.0 0.0
11182.640875999774 -0.1912922554249441 3354.734875123305 -1311.6566488889155 0.0 0.0
12200.17874242848 1.6931521417285573 3660.5615683710616 -1313.1682111835094 0.0 0.0
13219.266905905128 6.308074748705604 3967.6724941961484 -1319.2179246287178 0.0 0.0
14241.934502104574 15.50637360851186 4277.232262713926 -1334.08200001668 0.0 0.0
15271.140410019898 27.927235286417073 4589.720293591896 -1361.0336204487155 0.0 0.0
16307.041208207822 29.801120866990633 4901.052698722444 -1391.1842837170439 0.0 0.0
17331.17084701589 -17.93524505714877 5193.970680587623 -1378.6911232194147 0.0 0.0
18268.728517406376 -175.76850675968893 5427.888003194007 -1214.056965249631 0.0 0.0
18951.764557714672 -449.6957715116371 5550.6206358609115 -755.2716571135566 0.0 0.0
19191.538049784824 -633.620796116144 5567.375176100604 -2.8535396268125623e-11 0.0 0.0
18951.764557714898 -449.6957715111381 5550.620635861128 755.2716571134958 0.0 0.0
18268.728517406682 -175.76850675888755 5427.888003194339 1214.0569652495628 0.0 0.0
17331.170847015404 -17.935245058499433 5193.970680587072 1378.6911232194357 0.0 0.0
16307.041208207702 29.801120866712644 4901.052698722325 1391.1842837171787 0.0 0.0
15271.140410020076 27.927235286998204 4589.720293592122 1361.0336204485443 0.0 0.0
14241.934502104325 15.506373607893686 4277.2322627136655 1334.0820000165995 0.0 0.0
13219.266905905362 6.3080747493237865 3967.672494196406 1319.21792462873 0.0 0.0
12200.178742428345 1.693152141581983 3660.561568370978 1313.1682111834987 0.0 0.0
11182.640875999827 -0.1912922552062497 3354.7348751233862 1311.6566488888557 0.0 0.0
10165.644065831293 -0.8874761886301599 3049.4269768927998 1312.0483357573512 0.0 0.0
9148.89167813677 -0.9086266564593686 2744.3949154440934 1312.8409461066196 0.0 0.0
8132.882720851045 0.5665984416761702 2440.0347957878153 1312.1739798723538 0.0 0.0
7119.569673198313 6.109797053112555 2137.7038410754276 1305.915416680426 0.0 0.0
6111.912175833003 20.47778983884531 1839.716989701554 1284.4746165346783 0.0 0.0
5118.419744295431 56.23521376927131 1552.3964874194112 1230.3247427502554 0.0 0.0
4128.5900638752055 106.16815285164415 1270.4274650180548 1121.8867250855837 0.0 0.0
2965.3734236084247 177.56856246099514 942.882595820826 924.9174071578008 0.0 0.0
1666.428710443656 631.493178791909 689.3765667706693 935.1316538405098 0.0 0.0
1590.6205846508917 -131.71819527548962 437.6707168126206 1917.9433445981429 0.0 0.0
-3500.5661987516064 -14483.896783498622 -5395.33889467507 2125.1816406316416 0.0 0.0
-2899.8714905254838 -12254.863460765153 -4546.420485387192 -2027.50145156652 0.0 0.0
913.8735656554977 -973.848455063968 -17.99246682254092 -2092.867393188764 0.0 0.0
1135.322829110287 586.6275535574673 516.5851148003262 -1362.386243722121 0.0 0.0
2240.566700914715 276.14160643483376 755.0124922048647 -1201.162076092294 0.0 0.0
3334.6704144191754 137.43289249703724 1041.630992074864 -1352.3768592511426 0.0 0.0
4234.950689511223 71.16976244501596 1291.8361355868724 -1460.9670924441511 0.0 0.0
5086.067804378214 27.863616554612488 1534.1794262798473 -1515.4526068314442 0.0 0.0
5932.791823527631 8.013201644868177 1782.24150755175 -1538.0742930683234 0.0 0.0
6778.880276100891 0.7971018027399062 2033.9032133710894 -1544.8991114488974 0.0 0.0
7625.357322965952 -1.1688262388540096 2287.256549018129 -1545.763075723273 0.0 0.0
8472.288060103216 -1.1593076331584236 2541.3386257410193 -1545.0512673380906 0.0 0.0
9319.48451634682 -0.23992712957442208 2795.7733767651735 -1544.7160488690229 0.0 0.0
10166.732914610338 2.233363006754228 3050.689883285128 -1546.3364858605837 0.0 0.0
11013.618012342653 8.282813254046339 3306.57024767901 -1552.5864575766536 0.0 0.0
11859.687316967844 20.401271972886484 3564.026576682219 -1567.8098788558316 0.0 0.0
12705.454854686084 37.03505364107147 3822.7469724981484 -1595.488868111701 0.0 0.0
13552.840346506844 40.09425048618178 4077.880379097906 -1626.6529230712736 0.0 0.0
14396.043051843812 -23.83095236093378 4311.663629844865 -1611.868606962966 0.0 0.0
15184.1447819122 -241.09808965234294 4482.914007677959 -1426.156010371767 0.0 0.0
15767.126664455387 -627.7324846759612 4541.818253933829 -894.8682142330747 0.0 0.0
15963.6746987322 -895.2889126926066 4520.515735811877 1.219291334564332e-10 0.0 0.0
15767.126664455905 -627.732484674792 4541.818253934334 894.8682142331115 0.0 0.0
15184.144781911737 -241.09808965346812 4482.91400767748 1426.1560103716888 0.0 0.0
14396.043051844212 -23.830952359993873 4311.663629845265 1611.868606962948 0.0 0.0
13552.84034650658 40.094250485757414 4077.8803790977013 1626.6529230712476 0.0 0.0
12705.454854686206 37.03505364154132 3822.7469724983243 1595.4888681118587 0.0 0.0
11859.687316968473 20.401271974348468 3564.026576682848 1567.8098788558925 0.0 0.0
11013.618012342482 8.282813253682235 3306.5702476788497 1552.5864575766457 0.0 0.0
10166.732914610697 2.2333630076287463 3050.6898832854977 1546.3364858606988 0.0 0.0
9319.484516346347 -0.23992713062546045 2795.773376764717 1544.7160488691677 0.0 0.0
8472.288060102806 -1.1593076341693447 2541.338625740591 1545.0512673379776 0.0 0.0
7625.357322965867 -1.1688262390187774 2287.256549018055 1545.7630757232387 0.0 0.0
6778.880276101162 0.7971018034900297 2033.9032133713963 1544.899111448886 0.0 0.0
5932.791823527705 8.01320164503402 1782.2415075518213 1538.0742930684073 0.0 0.0
5086.067804378485 27.86361655516084 1534.1794262800943 1515.4526068315126 0.0 0.0
4234.950689511084 71.16976244467818 1291.8361355867287 1460.9670924441048 0.0 0.0
3334.6704144191403 137.43289249692094 1041.6309920748186 1352.3768592511474 0.0 0.0
2240.56670091491 276.1416064351929 755.012492205031 1201.1620760922856 0.0 0.0
1135.3228291102123 586.6275535572998 516.5851148002537 1362.3862437220405 0.0 0.0
913.8735656555835 -973.8484550638316 -17.992466822474512 2092.867393188753 0.0 0.0
-2899.8714905253573 -12254.86346076515 -4546.4204853871515 2027.5014515666617 0.0 0.0
-2359.1473096183972 -10315.229204078058 -3802.312954108936 -1879.7928511897019 0.0 0.0
460.9093989522795 -1512.8620198551107 -315.5857862708494 -2177.314339531132 0.0 0.0
704.7781195522502 455.2144859832716 347.99778166065664 -1723.1297858496487 0.0 0.0
1594.3780147936325 341.04118498569795 580.6257599337994 -1477.8462318642985 0.0 0.0
2559.601808307092 174.26533881848462 820.1601441376731 -1562.2210498369275 0.0 0.0
3350.247154068411 86.1167963814236 1030.90918513495 -1656.6236758525824 0.0 0.0
4059.0482087658024 34.87045965586397 1228.1756005265004 -1707.0745198029208 0.0 0.0
4745.178915595159 10.15508483381704 1426.6002001286927 -1728.5050934419364 0.0 0.0
5424.337802392862 1.0423512609275356 1627.614046096137 -1735.242620167001 0.0 0.0
6101.593972028222 -1.4013672016025787 1830.0577814479855 -1736.2032436170186 0.0 0.0
6778.79730974722 -1.4138069087324254 2033.2150508515465 -1735.6191018681525 0.0 0.0
7456.18108754657 -0.27475139871673804 2236.771900844356 -1735.3596543351564 0.0 0.0
8133.081560999397 2.7821815907473706 2440.759122777043 -1736.9156699958216 0.0 0.0
8807.796787460027 10.223902737204401 2645.406207059169 -1742.7511936346114 0.0 0.0
9477.659735913807 25.176589641142314 2850.850897666484 -1756.9245167511242 0.0 0.0
10141.234175437869 46.06500182382207 3056.189753178507 -1783.0991254950516 0.0 0.0
10803.284775179944 50.788428125741106 3256.221960991706 -1813.7700229882676 0.0 0.0
11472.925087262804 -29.189067337512498 3433.1208059775868 -1800.3336543636804 0.0 0.0
12125.331651918512 -311.0645082451649 3544.2801431020034 -1607.16732492105 0.0 0.0
12623.245573730173 -830.4642477762154 3537.8343977861873 -1022.7698332002429 0.0 0.0
12779.087579526915 -1205.6684107194799 3472.0257506422304 6.73594513500575e-11 0.0 0.0
12623.245573730124 -830.4642477762866 3537.8343977861505 1022.769833200236 0.0 0.0
12125.33165191841 -311.0645082452784 3544.2801431019398 1607.1673249209093 0.0 0.0
11472.925087263135 -29.18906733656037 3433.1208059779738 1800.3336543638065 0.0 0.0
10803.284775180271 50.788428126565165 3256.22196099205 1813.770022988166 0.0 0.0
10141.234175437578 46.06500182309287 3056.189753178201 1783.0991254951448 0.0 0.0
9477.659735914134 25.176589641878707 2850.8508976668036 1756.9245167510433 0.0 0.0
8807.796787459898 10.2239027370208 2645.4062070590767 1742.7511936345575 0.0 0.0
8133.08156099959 2.782181591226532 2440.7591227772455 1736.9156699957557 0.0 0.0
7456.181087546151 -0.27475139958843187 2236.7719008439694 1735.3596543352141 0.0 0.0
6778.797309746908 -1.413806909559149 2033.2150508512045 1735.6191018682114 0.0 0.0
6101.593972028266 -1.401367201609375 1830.0577814479975 1736.2032436170023 0.0 0.0
5424.337802393039 1.0423512614082142 1627.6140460963343 1735.2426201668713 0.0 0.0
4745.178915595105 10.155084833595268 1426.6002001286101 1728.505093442096 0.0 0.0
4059.0482087658897 34.870459656071716 1228.1756005265884 1707.0745198028847 0.0 0.0
3350.2471540684014 86.11679638141075 1030.9091851349435 1656.6236758525893 0.0 0.0
2559.6018083071235 174.2653388185892 820.160144137714 1562.221049836832 0.0 0.0
1594.3780147937025 341.0411849859745 580.6257599339032 1477.8462318642962 0.0 0.0
704.778119552238 455.2144859833088 347.99778166066415 1723.1297858496187 0.0 0.0
460.9093989522607 -1512.8620198550645 -315.58578627084114 2177.3143395311536 0.0 0.0
-2359.147309618452 -10315.22920407808 -3802.3129541089593 1879.792851189755 0.0 0.0
-1899.985280357042 -8630.769222960591 -3159.2263509952895 -1722.1636694536046 0.0 0.0
150.18893495125653 -1815.1846347200208 -499.49870993062916 -2196.5458890386685 0.0 0.0
345.86496553658804 294.016527863678 191.9644480200798 -2000.9604421445094 0.0 0.0
1013.9506520745358 368.8129950354347 414.8290941329912 -1729.7856665844106 0.0 0.0
1810.8668675954411 207.2384412392996 605.4315926504222 -1748.0127149677508 0.0 0.0
2469.643086663605 100.59023825767619 771.0699974763844 -1817.077966300923 0.0 0.0
3032.093131941043 40.99117926136691 921.9252933607231 -1859.0585803625581 0.0 0.0
3557.21789990391 12.184762906365782 1070.8207988430831 -1877.3410127496604 0.0 0.0
4069.3871402690665 1.310616968286709 1221.209327171206 -1883.2674630846973 0.0 0.0
4577.569455068009 -1.5980113980175297 1372.791433100998 -1884.1976450778388 0.0 0.0
5085.138868153713 -1.6296668775816094 1525.0527603828393 -1883.760838805768 0.0 0.0
5592.741933121599 -0.2962563784798746 1677.7337030229355 -1883.5764779607266 0.0 0.0
6099.364663107747 3.280457290820955 1830.7935361195705 -1884.899494300495 0.0 0.0
6602.224585824881 11.936026793420279 1984.2481837854905 -1889.7678394192412 0.0 0.0
7096.731593312093 29.36842280309487 2137.830004834556 -1901.6449599297637 0.0 0.0
7579.695786704798 54.2622904987447 2290.1874231610623 -1924.3402811619014 0.0 0.0
8058.9035239938785 61.498160222256544 2436.1205052648406 -1953.372420316258 0.0 0.0
8559.66028885903 -32.10540252661457 2558.2664658997237 -1945.7639959681194 0.0 0.0
9086.186950592582 -379.79046456297533 2611.918945808882 -1760.653802207624 0.0 0.0
9510.598220465521 -1052.1998595750056 2537.5195082671544 -1143.64915516127 0.0 0.0
9624.548188947461 -1566.79502358774 2417.3259496079163 1.2789769243681803e-11 0.0 0.0
9510.59822046562 -1052.199859574737 2537.519508267265 1143.6491551613144 0.0 0.0
9086.186950593145 -379.79046456175286 2611.9189458094174 1760.6538022075574 0.0 0.0
8559.660288859159 -32.1054025262347 2558.2664658998774 1945.7639959680837 0.0 0.0
8058.903523994395 61.498160223354475 2436.1205052653254 1953.372420316153 0.0 0.0
7579.695786704153 54.26229049723369 2290.1874231604165 1924.3402811618832 0.0 0.0
7096.731593311844 29.368422802660344 2137.8300048343517 1901.6449599296764 0.0 0.0
6602.224585825021 11.936026793737547 1984.2481837856278 1889.767839419184 0.0 0.0
6099.364663108164 3.280457291879742 1830.793536120013 1884.8994943004805 0.0 0.0
5592.741933121639 -0.2962563781687422 1677.7337030230415 1883.5764779606993 0.0 0.0
5085.138868153847 -1.6296668771771579 1525.0527603830014 1883.760838805748 0.0 0.0
4577.569455067745 -1.5980113986383273 1372.7914331007319 1884.1976450778077 0.0 0.0
4069.3871402693944 1.3106169690163512 1221.209327171523 1883.267463084677 0.0 0.0
3557.2178999039047 12.18476290631993 1070.8207988430675 1877.3410127497377 0.0 0.0
3032.0931319411984 40.991179261604486 921.9252933608407 1859.0585803626345 0.0 0.0
2469.6430866635365 100.59023825747545 771.0699974763036 1817.0779663008973 0.0 0.0
1810.8668675956444 207.2384412398823 605.431592650658 1748.0127149676796 0.0 0.0
1013.9506520745628 368.8129950353126 414.82909413296267 1729.785666584411 0.0 0.0
345.86496553665006 294.01652786371795 191.96444802011038 2000.9604421444815 0.0 0.0
150.18893495119846 -1815.1846347201208 -499.4987099306767 2196.5458890387276 0.0 0.0
-1899.9852803570193 -8630.769222960604 -3159.226350995287 1722.1636694536664 0.0 0.0
-1521.5698012100956 -7163.448535838199 -2605.5055011144896 -1569.9139481195275 0.0 0.0
-70.92808261828606 -1941.1114785213579 -603.6118683418931 -2168.373736963572 0.0 0.0
37.2486218813455 137.36757177322275 52.38485809637048 -2195.304309231341 0.0 0.0
485.99418639181016 365.93953387228675 255.58011607922919 -1939.74511600123 0.0 0.0
1090.405874390864 230.5444921830399 396.2851099721713 -1903.5202502185473 0.0 0.0
1597.077397340915 112.94583003003353 513.0069682112846 -1941.4038870344536 0.0 0.0
2006.5926959622457 45.922553626326064 615.7545748765716 -1971.001781968203 0.0 0.0
2369.3133637825176 13.829544047510868 714.9428723490087 -1984.530911967498 0.0 0.0
2714.1552937778874 1.5620996365114408 814.7152180243198 -1989.0152017755358 0.0 0.0
3053.274758571823 -1.7450648049698856 915.4589081300558 -1989.7739852181649 0.0 0.0
3391.288544700263 -1.7940007516970091 1016.8483631845697 -1989.4896569488742 0.0 0.0
3729.182202109072 -0.3079061529929845 1118.6622887868236 -1989.3700299301167 0.0 0.0
4065.702136372161 3.6747974513614565 1220.8130801470568 -1990.3167244708252 0.0 0.0
4397.254528523662 13.256775020813276 1323.153391063342 -1993.7721028209278 0.0 0.0
4717.657457063688 32.58644106399758 1425.0731694383057 -2002.3365786257289 0.0 0.0
5021.907559228614 60.93701423944995 1524.8533720404193 -2019.8221313466315 0.0 0.0
5320.069707969523 71.83057104151624 1617.5700837033119 -2046.0614953994682 0.0 0.0
5653.881954228088 -30.54869676663975 1686.9999772384353 -2048.761412357077 0.0 0.0
6060.5998060525035 -440.5908756436892 1686.0026791226446 -1888.6534840665822 0.0 0.0
6420.427654909264 -1286.6788975005074 1540.1246272226272 -1261.6565529058223 0.0 0.0
6486.764088938991 -1984.0439133476414 1350.8160526774052 -2.404476617812179e-11 0.0 0.0
6420.427654909227 -1286.6788975006211 1540.124627222582 1261.6565529059187 0.0 0.0
6060.5998060526035 -440.5908756434759 1686.002679122739 1888.6534840665843 0.0 0.0
5653.881954227385 -30.54869676815757 1686.9999772377691 2048.761412357012 0.0 0.0
5320.069707969073 71.83057104054572 1617.5700837028858 2046.0614953994286 0.0 0.0
5021.907559228836 60.93701424000834 1524.8533720406538 2019.822131346594 0.0 0.0
4717.657457063064 32.58644106263242 1425.073169437709 2002.3365786258582 0.0 0.0
4397.254528523585 13.256775020647595 1323.1533910632702 1993.7721028209537 0.0 0.0
4065.70213637267 3.6747974525746514 1220.8130801475734 1990.3167244708272 0.0 0.0
3729.182202109192 -0.3079061525768907 1118.6622887869846 1989.3700299301095 0.0 0.0
3391.288544700027 -1.7940007522957302 1016.8483631843192 1989.4896569489715 0.0 0.0
3053.274758571329 -1.7450648062706833 915.4589081295175 1989.7739852180996 0.0 0.0
2714.1552937782635 1.5620996373823033 814.7152180246937 1989.0152017754378 0.0 0.0
2369.3133637827336 13.829544048052126 714.9428723492358 1984.5309119675546 0.0 0.0
2006.592695962097 45.92255362605093 615.7545748764444 1971.001781968133 0.0 0.0
1597.0773973406813 112.94583002951778 513.0069682110596 1941.403887034395 0.0 0.0
1090.4058743909375 230.54449218323256 396.28510997225123 1903.5202502186364 0.0 0.0
485.99418639187235 365.93953387252753 255.58011607931996 1939.7451160012329 0.0 0.0
37.24862188135362 137.36757177325214 52.384858096381734 2195.30430923131 0.0 0.0
-70.9280826181679 -1941.1114785212012 -603.6118683418109 2168.373736963614 0.0 0.0
-1521.5698012100913 -7163.448535838257 -2605.5055011145046 1569.9139481195755 0.0 0.0
-1215.0829730469604 -5879.392649543064 -2128.3426867770077 -1427.0671830751262 0.0 0.0
-236.3609245517341 -1940.2098184575107 -652.9712229027737 -2104.3986278265634 0.0 0.0
-236.5849127961527 3.773240768005124 -69.8435016084443 -2311.846589583393 0.0 0.0
-1.399187228589092 341.70219134479646 102.09090123486227 -2097.5355437562034 0.0 0.0
396.9372655436561 241.86546214254074 191.640818305859 -2022.184126067428 0.0 0.0
734.8477561948488 121.48349080247122 256.899374099196 -2027.8446223556246 0.0 0.0
983.7651165739105 49.323697076078375 309.9266440949967 -2042.3614114984068 0.0 0.0
1181.8186354440916 14.923325488249887 359.0225882797024 -2049.913142215471 0.0 0.0
1358.7408027754677 1.7458831835344846 408.14600578770063 -2052.4897848600235 0.0 0.0
1528.7127688572666 -1.834297320610812 458.06354146099676 -2052.9562084466634 0.0 0.0
1697.2309555942031 -1.8974289121396595 508.60005800461903 -2052.8212171899063 0.0 0.0
1865.5154834202049 -0.314458975130151 559.5603073335226 -2052.755629670184 0.0 0.0
2032.1831702791144 3.9229920424999634 610.8318486964843 -2053.223703921135 0.0 0.0
2193.148106290304 14.069883526408574 662.1653969450142 -2054.9600983029823 0.0 0.0
2341.043170209795 34.54354857346578 712.6760156349782 -2059.4873065997635 0.0 0.0
2468.8383966792026 65.46876012774699 760.2921470420847 -2070.3028352405486 0.0 0.0
2587.216468014009 81.2164657884319 800.5298801407323 -2092.2637641046927 0.0 0.0
2753.284566099524 -22.726606703732116 819.1673878187374 -2108.8394679200846 0.0 0.0
3042.4941808297995 -485.9586966321077 766.9606452593077 -1991.5968924685556 0.0 0.0
3344.653209741938 -1526.2520930503695 545.5203350074706 -1380.6488025670146 0.0 0.0
3351.526363014884 -2466.8411200031755 265.40557290351245 5.206857167650014e-11 0.0 0.0
3344.6532097413365 -1526.2520930519077 545.5203350068286 1380.6488025670014 0.0 0.0
3042.494180829549 -485.9586966324596 766.9606452591266 1991.596892468589 0.0 0.0
2753.2845660996904 -22.7266067031439 819.1673878189639 2108.83946792002 0.0 0.0
2587.2164680132296 81.21646578659558 800.5298801399476 2092.263764104732 0.0 0.0
2468.8383966793826 65.46876012815912 760.2921470422625 2070.302835240499 0.0 0.0
2341.0431702092314 34.54354857229091 712.6760156344566 2059.4873065998004 0.0 0.0
2193.1481062903495 14.069883526424064 662.1653969450321 2054.9600983030996 0.0 0.0
2032.1831702789734 3.9229920420752578 610.8318486963146 2053.223703921062 0.0 0.0
1865.5154834204725 -0.3144589742060191 559.56030733388 2052.7556296700054 0.0 0.0
1697.230955593695 -1.897428913251808 508.60005800413285 2052.8212171898635 0.0 0.0
1528.7127688573717 -1.8342973205741622 458.0635414610392 2052.956208446566 0.0 0.0
1358.7408027752863 1.7458831830150423 408.14600578749037 2052.4897848600604 0.0 0.0
1181.8186354438674 14.923325487741476 359.0225882794826 2049.9131422155 0.0 0.0
983.7651165735556 49.32369707542213 309.9266440946933 2042.3614114984118 0.0 0.0
734.847756194918 121.48349080275692 256.8993740993025 2027.8446223556818 0.0 0.0
396.93726554349894 241.86546214211984 191.6408183056856 2022.1841260674983 0.0 0.0
-1.3991872284271238 341.7021913451349 102.09090123501235 2097.5355437561266 0.0 0.0
-236.58491279613435 3.7732407680201234 -69.84350160843428 2311.846589583384 0.0 0.0
-236.36092455172894 -1940.209818457498 -652.9712229027681 2104.3986278265547 0.0 0.0
-1215.082973047011 -5879.392649543072 -2128.342686777026 1427.0671830750432 0.0 0.0
-969.9900251256449 -4751.648951086378 -1716.4916928636064 -1292.6749995381242 0.0 0.0
-367.7853294750272 -1851.3167958923884 -665.7306376102246 -2011.7377945048122 0.0 0.0
-486.7308086366182 -98.54418007891124 -175.58249661465894 -2358.0629267683616 0.0 0.0
-458.1548195853401 304.88632786220904 -45.980547516939296 -2198.02296000485 0.0 0.0
-272.4800409485789 241.28997203271123 -9.357020674760292 -2098.3295393248127 0.0 0.0
-116.19855186236634 125.03119084856037 2.6497916958582124 -2074.138744000829 0.0 0.0
-35.55732866676547 50.85705617336947 4.589918251981182 -2072.4201796100124 0.0 0.0
-4.993212894276127 15.37441828691157 3.1143616177906353 -2073.2634307425988 0.0 0.0
3.20943654083959 1.826393479681883 1.510749006156459 -2073.6641552141864 0.0 0.0
3.888691736767555 -1.8637378961894342 0.6074861521734718 -2073.764059500914 0.0 0.0
2.9580055214181584 -1.933743920168304 0.3072784803749613 -2073.7733559303033 0.0 0.0
1.7506260582077005 -0.3193284228936051 0.4293892905942016 -2073.7566671538348 0.0 0.0
-1.1405589654851553 3.997350503304517 0.8570374613458256 -2073.695655637956 0.0 0.0
-9.943747930972762 14.311393040635675 1.310293532898882 -2073.565507399244 0.0 0.0
-32.68699644461208 35.08497306586744 0.7193929863766186 -2073.676323470191 0.0 0.0
-78.6167574736607 67.34343435938042 -3.381996934284018 -2076.7210044109834 0.0 0.0
-138.95011117784924 88.76622718158308 -15.055165198879848 -2092.3772697437116 0.0 0.0
-144.0720932379637 -7.5355771048684375 -45.482301102849675 -2124.4593238215334 0.0 0.0
25.870795272603516 -507.61457899235387 -144.52313511592513 -2068.0465198555235 0.0 0.0
275.8880444925712 -1760.7212174838517 -445.44995189738427 -1504.2879637798235 0.0 0.0
202.63472310443967 -3029.854278212217 -848.1658665323334 2.859223968698643e-11 0.0 0.0
275.88804449201683 -1760.7212174853244 -445.44995189799204 1504.2879637797168 0.0 0.0
25.870795272222495 -507.61457899333834 -144.52313511633477 2068.0465198555107 0.0 0.0
-144.07209323776465 -7.535577104346217 -45.482301102633244 2124.4593238215434 0.0 0.0
-138.95011117885866 88.76622717923152 -15.055165199888151 2092.3772697436693 0.0 0.0
-78.61675747423124 67.34343435803967 -3.3819969348575682 2076.7210044110816 0.0 0.0
-32.686996444191266 35.08497306677271 0.7193929867744515 2073.676323470155 0.0 0.0
-9.94374793105382 14.311393040555743 1.3102935328505225 2073.5655073994485 0.0 0.0
-1.1405589653214179 3.9973505038495105 0.8570374615584058 2073.695655637918 0.0 0.0
1.7506260585330438 -0.3193284220614174 0.42938929094145806 2073.7566671538134 0.0 0.0
2.958005521512405 -1.933743919977914 0.3072784804603472 2073.773355930511 0.0 0.0
3.88869173714221 -1.8637378954158592 0.6074861525179216 2073.7640595009493 0.0 0.0
3.2094365406396435 1.8263934790986092 1.5107490059214896 2073.6641552141778 0.0 0.0
-4.993212894301195 15.37441828658601 3.114361617685425 2073.263430742558 0.0 0.0
-35.55732866699071 50.85705617282655 4.589918251750788 2072.42017961003 0.0 0.0
-116.19855186220603 125.0311908489119 2.6497916960117536 2074.1387440008957 0.0 0.0
-272.48004094875307 241.28997203215974 -9.357020674977967 2098.3295393248854 0.0 0.0
-458.15481958539306 304.8863278621121 -45.980547516984316 2198.0229600047933 0.0 0.0
-486.7308086366123 -98.54418007901029 -175.5824966146868 2358.062926768337 0.0 0.0
-367.78532947504647 -1851.3167958925233 -665.7306376102712 2011.7377945047901 0.0 0.0
-969.9900251256821 -4751.64895108638 -1716.4916928636185 1292.6749995381206 0.0 0.0
-776.6157433437162 -3760.5862489992096 -1361.1605977028782 -1163.8218904834698 0.0 0.0
-478.76247513391604 -1704.0540146736369 -654.8449469422656 -1894.498677495063 0.0 0.0
-720.9092695294761 -167.66643592544276 -266.57271163647556 -2341.2525980623286 0.0 0.0
-892.156702307636 262.50020948591686 -188.8969478465158 -2239.3017866003884 0.0 0.0
-921.4688253102167 230.25996987957882 -207.36265662919132 -2127.52988834091 0.0 0.0
-956.3462730953262 123.11658405514326 -249.9689067120549 -2077.8894589943284 0.0 0.0
-1051.0206697811047 50.298855448414116 -300.21654429980714 -2060.3220887930224 0.0 0.0
-1190.973287660462 15.147611623917172 -352.7477028109636 -2054.3215988344405 0.0 0.0
-1352.4084853460258 1.7909844615060173 -405.185250265356 -2052.4948818238036 0.0 0.0
-1521.194382356262 -1.8342489155952038 -456.90858938155714 -2052.2137993441243 0.0 0.0
-1691.5330358793642 -1.9005213078683383 -508.0300671561695 -2052.3651943059162 0.0 0.0
-1862.1101024154718 -0.32272132156672484 -558.7298471211114 -2052.40037343681 0.0 0.0
-2034.2570148193504 3.8873069493950396 -609.1109123609866 -2051.8174913598045 0.0 0.0
-2211.9922662361255 13.967028076637241 -659.4075714478465 -2049.8360482115754 0.0 0.0
-2403.3355134623207 34.20940197363009 -710.7378334466075 -2045.5294380734836 0.0 0.0
-2619.6581893960497 66.23908520075267 -766.0257312585893 -2040.2259044844707 0.0 0.0
-2857.2492508151945 93.19441782149666 -829.2164498981094 -2047.0189188597562 0.0 0.0
-3039.379556098813 14.856395768293453 -907.3569480991558 -2093.1703298059456 0.0 0.0
-2995.1262148757237 -496.7608534427376 -1047.5661204955384 -2114.220542482839 0.0 0.0
-2792.392530453174 -1975.6364146210472 -1430.4086835222665 -1635.9607850962798 0.0 0.0
-2979.5754168417056 -3694.79208223082 -2002.310249721758 2.5295321393059567e-11 0.0 0.0
-2792.392530453223 -1975.6364146210942 -1430.4086835222959 1635.9607850962238 0.0 0.0
-2995.1262148759583 -496.76085344336025 -1047.5661204957953 2114.220542482881 0.0 0.0
-3039.379556099394 14.856395766783507 -907.3569480997833 2093.17032980589 0.0 0.0
-2857.249250815653 93.1944178203007 -829.2164498986053 2047.0189188596637 0.0 0.0
-2619.65818939569 66.23908520182661 -766.0257312581596 2040.225904484601 0.0 0.0
-2403.335513462183 34.209401973995305 -710.7378334464565 2045.5294380734676 0.0 0.0
-2211.9922662359136 13.967028077002926 -659.4075714476734 2049.836048211663 0.0 0.0
-2034.257014819025 3.8873069501348922 -609.1109123606668 2051.8174913597704 0.0 0.0
-1862.1101024159143 -0.3227213226944414 -558.7298471215828 2052.400373436752 0.0 0.0
-1691.5330358790673 -1.900521307180373 -508.0300671558741 2052.365194306058 0.0 0.0
-1521.1943823564745 -1.834248916091365 -456.90858938176984 2052.213799344179 0.0 0.0
-1352.4084853461286 1.790984461353471 -405.1852502654326 2052.494881823715 0.0 0.0
-1190.9732876603948 15.147611624146059 -352.74770281087467 2054.321598834472 0.0 0.0
-1051.020669781045 50.29885544845937 -300.21654429977553 2060.3220887930283 0.0 0.0
-956.3462730952649 123.1165840552695 -249.9689067119986 2077.889458994411 0.0 0.0
-921.468825310288 230.25996987946257 -207.3626566292476 2127.529888340979 0.0 0.0
-892.1567023075779 262.50020948603594 -188.8969478464626 2239.3017866005 0.0 0.0
-720.9092695294155 -167.66643592535576 -266.5727116364314 2341.2525980624023 0.0 0.0
-478.7624751339148 -1704.0540146737596 -654.8449469423025 1894.49867749501 0.0 0.0
-776.6157433436243 -3760.5862489991696 -1361.1605977028385 1163.8218904835178 0.0 0.0
-627.0021120842038 -2893.306999702211 -1056.0927335359247 -1037.0841201378762 0.0 0.0
-577.3386741664968 -1520.6210827226218 -629.3879270667355 -1754.895213890271 0.0 0.0
-944.197477325292 -205.35476957551958 -344.86567407024353 -2267.772697227212 0.0 0.0
-1309.4022406099887 219.47422017216235 -326.9784061313479 -2221.2944053852225 0.0 0.0
-1553.7684526368953 210.81300610951246 -402.8866339582148 -2106.529641472041 0.0 0.0
-1786.707323101503 115.92401981491581 -501.2349909859761 -2036.8355951271278 0.0 0.0
-2062.7562987936712 47.622627804498514 -604.5401012967521 -2005.1581245616671 0.0 0.0
-2376.1290970553755 14.264537379323215 -708.5593679028157 -1992.8166218339272 0.0 0.0
-2708.121362382491 1.6483027219637805 -811.9419178981584 -1988.936495805762 0.0 0.0
-3046.5362430065093 -1.7470968836003706 -914.4850019670332 -1988.3207889452574 0.0 0.0
-3386.240405886885 -1.7995170262090383 -1016.411976873928 -1988.6160059407018 0.0 0.0
-3726.072063229236 -0.32130793910359756 -1117.9180113505022 -1988.7131047525054 0.0 0.0
-4067.1918144783717 3.602759131946378 -1219.0767166039275 -1987.674126868946 0.0 0.0
-4413.090221438735 13.062148529053289 -1320.0084218729053 -1984.0135400888098 0.0 0.0
-4770.986114509205 32.065850258388224 -1421.6760792752452 -1975.6591262700413 0.0 0.0
-5153.676111561494 62.16833957338823 -1527.4523315964313 -1962.1691727928837 0.0 0.0
-5565.859902051548 92.89480191373444 -1641.8895300413437 -1957.3797049796258 0.0 0.0
-5932.558537202124 42.25792568291455 -1767.0901834557621 -2011.9747175396396 0.0 0.0
-6026.079542361608 -444.7870380007504 -1941.259974108708 -2123.2592201160674 0.0 0.0
-5865.454159123927 -2149.755257126899 -2404.562824875247 -1778.3774792701615 0.0 0.0
-6220.3653814612735 -4492.987571962505 -3214.005886027134 -1.1669953892123885e-10 0.0 0.0
-5865.45415912348 -2149.7552571258225 -2404.5628248747907 1778.3774792701454 0.0 0.0
-6026.079542361559 -444.7870380006219 -1941.259974108654 2123.2592201160774 0.0 0.0
-5932.558537202252 42.25792568251532 -1767.0901834559213 2011.974717539619 0.0 0.0
-5565.859902051141 92.89480191452944 -1641.8895300409836 1957.3797049797977 0.0 0.0
-5153.676111561199 62.1683395741975 -1527.4523315961 1962.169172792825 0.0 0.0
-4770.986114508995 32.065850259081856 -1421.676079274974 1975.6591262699992 0.0 0.0
-4413.09022143862 13.062148529454014 -1320.00842187275 1984.0135400888942 0.0 0.0
-4067.191814478746 3.6027591311371694 -1219.0767166042824 1987.6741268689082 0.0 0.0
-3726.0720632291795 -0.32130793893627896 -1117.9180113504349 1988.7131047524563 0.0 0.0
-3386.240405886869 -1.7995170261842297 -1016.4119768739159 1988.6160059406993 0.0 0.0
-3046.536243006812 -1.7470968840941978 -914.4850019672717 1988.3207889450941 0.0 0.0
-2708.121362382597 1.6483027217078003 -811.9419178982666 1988.9364958057713 0.0 0.0
-2376.129097055355 14.264537379200958 -708.5593679028464 1992.8166218339472 0.0 0.0
-2062.7562987936926 47.622627804449515 -604.5401012967732 2005.1581245616858 0.0 0.0
-1786.7073231015645 115.92401981475592 -501.2349909860428 2036.835595127126 0.0 0.0
-1553.7684526369383 210.8130061094055 -402.8866339582599 2106.529641471988 0.0 0.0
-1309.4022406100762 219.47422017207276 -326.9784061314012 2221.2944053852166 0.0 0.0
-944.1974773253129 -205.354769575408 -344.8656740702163 2267.7726972271876 0.0 0.0
-577.3386741665512 -1520.6210827226685 -629.3879270667658 1754.8952138903123 0.0 0.0
-627.002112084249 -2893.30699970226 -1056.0927335359524 1037.084120137844 0.0 0.0
-514.9501205427813 -2142.6981186596627 -797.2944717607331 -909.2817559398883 0.0 0.0
-667.6181253667824 -1317.4206399067893 -595.5116295820717 -1594.0740913752238 0.0 0.0
-1159.496894199704 -215.4502728573798 -412.4841501171251 -2142.8099328469475 0.0 0.0
-1714.2180936962209 178.7985082957976 -460.62587562012675 -2144.7321242641924 0.0 0.0
-2172.9525491920276 185.13576480330747 -596.345035316616 -2032.9839740472753 0.0 0.0
-2608.9848431920614 104.17579723170496 -751.4427137881067 -1949.0129686916748 0.0 0.0
-3071.340166360939 43.03260276674544 -908.4922690782582 -1906.067507414969 0.0 0.0
-3560.635409069567 12.809011607905127 -1064.3479192384987 -1888.4974572061546 0.0 0.0
-4063.977319651574 1.4239744281021913 -1218.7660035670408 -1882.9541182773032 0.0 0.0
-4572.138170997683 -1.6038056231700395 -1372.1225929862562 -1882.1026265619785 0.0 0.0
-5081.157032995522 -1.6367461247492159 -1524.838133736081 -1882.5442476718395 0.0 0.0
-5590.148377374042 -0.3103295052640789 -1677.1376120637915 -1882.7158496595293 0.0 0.0
-6100.004734610135 3.178437444020517 -1829.0478891498344 -1881.3388338254674 0.0 0.0
-6613.433527188966 11.653223748514208 -1980.534091032136 -1876.3215305395745 0.0 0.0
-7136.052525547173 28.90159360391037 -2132.1452795829787 -1864.6001316667869 0.0 0.0
-7680.451892341854 55.65267298447913 -2287.439765807212 -1844.0009205099045 0.0 0.0
-8262.251261835241 86.31030676814781 -2452.782286520129 -1825.6527732851105 0.0 0.0
-8821.519454880614 69.55686075833444 -2625.5887782366826 -1878.1415796572128 0.0 0.0
-9072.037995959883 -344.8863521195908 -2825.0773044238417 -2084.226336261736 0.0 0.0
-8946.545937015724 -2251.242900865129 -3359.3366513642563 -1932.5254001267574 0.0 0.0
-9553.792884697865 -5468.941743274734 -4506.8203883917795 -4.615685611497611e-11 0.0 0.0
-8946.545937015531 -2251.2429008647614 -3359.3366513640885 1932.5254001267333 0.0 0.0
-9072.037995959665 -344.8863521190603 -2825.0773044236175 2084.226336261774 0.0 0.0
-8821.519454880576 69.55686075825932 -2625.5887782366945 1878.1415796572105 0.0 0.0
-8262.251261834617 86.31030676947279 -2452.7822865195435 1825.6527732850645 0.0 0.0
-7680.45189234198 55.65267298430774 -2287.4397658073026 1844.0009205098397 0.0 0.0
-7136.052525546895 28.901593604629216 -2132.1452795826804 1864.6001316669003 0.0 0.0
-6613.433527188977 11.653223748545317 -1980.5340910321295 1876.3215305394895 0.0 0.0
-6100.004734610331 3.1784374436164278 -1829.0478891500143 1881.3388338254429 0.0 0.0
-5590.148377373698 -0.3103295046691663 -1677.1376120635105 1882.715849659559 0.0 0.0
-5081.157032995537 -1.636746124742519 -1524.8381337360843 1882.544247671779 0.0 0.0
-4572.138170997747 -1.6038056231971822 -1372.1225929862833 1882.1026265620155 0.0 0.0
-4063.9773196515125 1.4239744281610882 -1218.766003567006 1882.954118277389 0.0 0.0
-3560.635409069696 12.809011607572309 -1064.3479192386374 1888.4974572060673 0.0 0.0
-3071.340166361176 43.03260276625324 -908.4922690784769 1906.0675074149244 0.0 0.0
-2608.984843192385 104.17579723107724 -751.4427137883924 1949.0129686916569 0.0 0.0
-2172.952549191986 185.13576480335698 -596.3450353165886 2032.9839740472228 0.0 0.0
-1714.2180936963068 178.79850829550213 -460.6258756202414 2144.732124264125 0.0 0.0
-1159.4968941996926 -215.45027285736415 -412.4841501171171 2142.8099328469284 0.0 0.0
-667.6181253667073 -1317.4206399067002 -595.5116295820222 1594.074091375242 0.0 0.0
-514.9501205426893 -2142.698118659651 -797.2944717607019 909.2817559397647 0.0 0.0
-435.6247444759873 -1506.3532638990866 -582.5934025125223 -777.9652983481251 0.0 0.0
-750.6120833982734 -1106.417329404086 -557.1088238407078 -1412.7482161799335 0.0 0.0
-1367.7717049151624 -203.0198808455524 -471.23747572821463 -1970.3340013817199 0.0 0.0
-2109.4755108415075 141.84234139779664 -590.2899508331132 -2010.3990378516064 0.0 0.0
-2782.3447816384764 155.3766768158195 -788.0904314467972 -1905.1592477328206 0.0 0.0
-3425.3201517806274 89.00929252735506 -1000.8932577759817 -1812.840249353583 0.0 0.0
-4077.7296532937416 36.95280087328708 -1212.2330557261369 -1762.3325944903718 0.0 0.0
-4744.823288910181 10.926865181034046 -1420.1689271187443 -1741.1679296890952 0.0 0.0
-5420.060126349 1.1554807131473126 -1625.6713936907556 -1734.5347833461155 0.0 0.0
-6098.000092319848 -1.4080619872862457 -1829.82244629214 -1733.5818362125808 0.0 0.0
-6776.26824061068 -1.4218677224019558 -2033.307032499925 -1734.16638836128 0.0 0.0
-7454.35767617999 -0.28815486547642166 -2236.393749313641 -1734.421655447764 0.0 0.0
-8132.789513764039 2.6738586974379075 -2439.03469651998 -1732.858350891911 0.0 0.0
-8813.284286081545 9.841658618883457 -2641.0327882387983 -1726.9562529658745 0.0 0.0
-9499.28416024319 24.944275014413677 -2842.3019655686335 -1712.7774197001477 0.0 0.0
-10200.495848622666 47.81956448647347 -3045.802885240859 -1687.0090750428385 0.0 0.0
-10943.339011307427 72.82331549148122 -3261.1547087447843 -1655.3724345659537 0.0 0.0
-11701.103991513957 87.89447421557807 -3483.9628551895144 -1690.8622406567727 0.0 0.0
-12136.992850200417 -195.45565764546464 -3699.7345523537647 -1981.0028094763597 0.0 0.0
-12035.563863028627 -2232.0605076176125 -4280.287311193873 -2095.2462452522664 0.0 0.0
-13027.63248081163 -6684.853144460634 -5913.74568758168 -3.6834535421803594e-11 0.0 0.0
-12035.563863028625 -2232.0605076176635 -4280.287311193885 2095.246245252274 0.0 0.0
-12136.992850200211 -195.4556576449856 -3699.7345523535596 1981.0028094764432 0.0 0.0
-11701.103991513935 87.89447421565043 -3483.9628551894857 1690.8622406567906 0.0 0.0
-10943.339011307358 72.8233154916206 -3261.1547087447225 1655.372434566001 0.0 0.0
-10200.495848622842 47.81956448609099 -3045.802885241026 1687.0090750427476 0.0 0.0
-9499.284160243109 24.944275014732398 -2842.3019655685143 1712.777419700131 0.0 0.0
-8813.284286081522 9.84165861891859 -2641.0327882387814 1726.956252965841 0.0 0.0
-8132.789513763419 2.673858698819469 -2439.0346965193803 1732.8583508917518 0.0 0.0
-7454.3576761802715 -0.2881548660702684 -2236.393749313903 1734.4216554477323 0.0 0.0
-6776.268240610114 -1.421867721048642 -2033.3070324993482 1734.16638836124 0.0 0.0
-6098.000092319591 -1.408061986635202 -1829.822446291868 1733.581836212633 0.0 0.0
-5420.060126349168 1.1554807127341356 -1625.6713936909302 1734.5347833461797 0.0 0.0
-4744.823288909976 10.926865181377785 -1420.1689271185799 1741.1679296891048 0.0 0.0
-4077.7296532938444 36.95280087298787 -1212.2330557262571 1762.3325944904382 0.0 0.0
-3425.320151780713 89.00929252713381 -1000.8932577760739 1812.8402493536346 0.0 0.0
-2782.3447816383286 155.3766768160997 -788.0904314466686 1905.1592477328686 0.0 0.0
-2109.475510841476 141.84234139773648 -590.2899508331221 2010.3990378515969 0.0 0.0
-1367.7717049152516 -203.01988084583917 -471.2374757283272 1970.3340013817365 0.0 0.0
-750.6120833982825 -1106.417329404135 -557.1088238407254 1412.7482161800015 0.0 0.0
-435.62474447591075 -1506.3532638990253 -582.5934025124808 777.9652983480053 0.0 0.0
-384.81402442245405 -985.3693657219435 -411.05501704331925 -641.9192678710127 0.0 0.0
-824.5347670621217 -896.307676750902 -516.2527331439071 -1211.7244499776286 0.0 0.0
-1568.0784351238574 -174.0485726910973 -522.6381023444865 -1753.0086504303104 0.0 0.0
-2496.7959244435756 108.76827145903395 -716.4082958953626 -1818.523907609685 0.0 0.0
-3385.086801323721 123.65976942424973 -978.4281095698411 -1721.6777387133789 0.0 0.0
-4238.216513687175 71.87260990929309 -1249.903171133365 -1627.1698067250218 0.0 0.0
-5083.1906022787425 29.98462984974589 -1515.9617917286994 -1573.457670058896 0.0 0.0
-5929.150642838915 8.816061414460137 -1776.100374427337 -1550.7210808299167 0.0 0.0
-6776.478785063502 0.8858707220401314 -2032.677874302438 -1543.6971823332547 0.0 0.0
-7624.116161659392 -1.1691258529566184 -2287.5855862537046 -1542.7878822046873 0.0 0.0
-8471.549539470125 -1.167501780338796 -2541.8151123751404 -1543.494755755712 0.0 0.0
-9318.716192532953 -0.2580586056806169 -2795.6922753415897 -1543.8354457986084 0.0 0.0
-10165.680141449473 2.1526533806887613 -3049.0582464206345 -1542.2411305589628 0.0 0.0
-11012.933264780095 7.831650399262308 -3301.5304843142503 -1536.0549298234278 0.0 0.0
-11861.658702903558 20.26962636960411 -3552.416722960186 -1520.5659566632849 0.0 0.0
-12715.513123808141 40.13860368766581 -3802.612356036142 -1491.9256307844055 0.0 0.0
-13606.136618098577 54.41372469969334 -4065.5168680196657 -1451.192474686066 0.0 0.0
-14561.58867092837 84.69345827217681 -4343.068563796857 -1454.3255704726996 0.0 0.0
-15222.820860106021 -6.952861958171098 -4568.932116619258 -1791.8270367169462 0.0 0.0
-15126.782277553497 -2019.979738548934 -5144.02860483073 -2253.7332748479616 0.0 0.0
-16711.081938702562 -8225.524197278088 -7480.981840794195 -5.286437954055145e-12 0.0 0.0
-15126.782277553233 -2019.979738548351 -5144.028604830476 2253.733274848035 0.0 0.0
-15222.820860106378 -6.952861959039957 -4568.932116619627 1791.8270367169418 0.0 0.0
-14561.588670928128 84.69345827283854 -4343.068563796586 1454.3255704727226 0.0 0.0
-13606.136618099485 54.413724697714954 -4065.5168680205306 1451.192474686065 0.0 0.0
-12715.513123808661 40.13860368644569 -3802.6123560366655 1491.9256307842306 0.0 0.0
-11861.658702903069 20.269626370734198 -3552.4167229597 1520.565956663306 0.0 0.0
-11012.933264780146 7.83165039912808 -3301.530484314306 1536.0549298236108 0.0 0.0
-10165.680141449327 2.152653380989147 -3049.0582464205013 1542.2411305587905 0.0 0.0
-9318.716192532422 -0.2580586045351865 -2795.692275341088 1543.835445798597 0.0 0.0
-8471.549539469857 -1.1675017796693563 -2541.815112374858 1543.4947557558357 0.0 0.0
-7624.1161616592835 -1.1691258524481274 -2287.5855862535195 1542.787882204571 0.0 0.0
-6776.4787850634775 0.8858707221579829 -2032.6778743023965 1543.6971823332483 0.0 0.0
-5929.150642838971 8.81606141419358 -1776.100374427434 1550.7210808298996 0.0 0.0
-5083.190602278688 29.98462984985001 -1515.9617917286514 1573.4576700590164 0.0 0.0
-4238.216513687176 71.87260990928687 -1249.9031711333666 1627.1698067250165 0.0 0.0
-3385.0868013238987 123.65976942388508 -978.4281095700042 1721.6777387132668 0.0 0.0
-2496.795924443509 108.76827145911294 -716.4082958953189 1818.523907609767 0.0 0.0
-1568.0784351238815 -174.04857269116746 -522.6381023445146 1753.0086504302685 0.0 0.0
-824.5347670622027 -896.3076767509315 -516.2527331439402 1211.7244499777269 0.0 0.0
-384.81402442248606 -985.3693657219403 -411.0550170433279 641.9192678710995 0.0 0.0
-357.71861589775244 -582.8417866691885 -282.1681207700823 -501.94468370225724 0.0 0.0
-884.6185327181007 -693.7098922567995 -473.4985274924701 -992.3891210759357 0.0 0.0
-1757.390178883034 -135.53751386104778 -567.8783078232248 -1491.8589869880504 0.0 0.0
-2876.7766251328344 79.07254251290959 -839.3112247859775 -1568.24177458589 0.0 0.0
-3984.343391872343 92.24453974207461 -1167.6296556390805 -1481.3690318280128 0.0 0.0
-5050.521207393845 54.429154007532 -1498.827616015894 -1391.3326156840083 0.0 0.0
-6089.2165863812825 22.846406027717208 -1819.9110541060695 -1339.22909367009 0.0 0.0
-7114.158812171501 6.7070366389327845 -2132.235532659771 -1317.1689991165858 0.0 0.0
-8133.351290682562 0.6550429980522807 -2439.8088743053536 -1310.4986186050182 0.0 0.0
-9150.467701199097 -0.9044305861010997 -2745.4116395355604 -1309.758009877987 0.0 0.0
-10166.967263760385 -0.8936947383337497 -3050.3582875496154 -1310.5362625621904 0.0 0.0
-11183.22351729279 -0.21471094867150953 -3355.0314684724376 -1310.9484845047832 0.0 0.0
-12198.849360278542 1.6300980800337896 -3659.165778659553 -1309.4720878005073 0.0 0.0
-13212.723696136556 5.983566197794289 -3962.022038981628 -1303.6038838869579 0.0 0.0
-14224.07003273076 14.918726139493344 -4262.745391977382 -1288.4244860341687 0.0 0.0
-15228.834316740047 33.276643611135 -4558.6673019386735 -1258.7808612180188 0.0 0.0
-16249.459640012712 37.93064434314436 -4863.45869870087 -1217.0501464698248 0.0 0.0
-17386.65000563346 46.90942214002236 -5201.92217504803 -1182.5953601598212 0.0 0.0
-18327.113359012474 184.58055568604686 -5442.759840997927 -1492.2855708896475 0.0 0.0
-18205.11377474167 -1508.3043842054942 -5914.025447684147 -2372.739444211723 0.0 0.0
-20706.992321020592 -10200.883714871625 -9272.362810767665 5.650235834764317e-11 0.0 0.0
-18205.113774741592 -1508.304384205188 -5914.025447684035 2372.739444211689 0.0 0.0
-18327.11335901269 184.5805556855205 -5442.759840998154 1492.2855708897182 0.0 0.0
-17386.650005633426 46.909422139856524 -5201.922175048072 1182.5953601598758 0.0 0.0
-16249.45964001334 37.9306443416961 -4863.458698701495 1217.050146469901 0.0 0.0
-15228.834316739956 33.27664361148517 -4558.667301938542 1258.7808612180274 0.0 0.0
-14224.070032730771 14.91872613950318 -4262.745391977382 1288.42448603419 0.0 0.0
-13212.723696136518 5.983566197856039 -3962.0220389815986 1303.603883886965 0.0 0.0
-12198.849360278851 1.6300980791789073 -3659.1657786599044 1309.4720878005492 0.0 0.0
-11183.223517292623 -0.21471094830548054 -3355.0314684722794 1310.9484845048323 0.0 0.0
-10166.967263760449 -0.8936947382595797 -3050.358287549612 1310.5362625621028 0.0 0.0
-9150.467701199237 -0.9044305862945654 -2745.411639535661 1309.758009877975 0.0 0.0
-8133.351290682478 0.6550429980576 -2439.808874305326 1310.4986186049937 0.0 0.0
-7114.158812171612 6.707036638521174 -2132.2355326599277 1317.1689991166163 0.0 0.0
-6089.216586381188 22.846406028028355 -1819.9110541059488 1339.2290936701079 0.0 0.0
-5050.521207394181 54.429154006929295 -1498.8276160161759 1391.3326156840355 0.0 0.0
-3984.343391872469 92.24453974177615 -1167.629655639208 1481.3690318280364 0.0 0.0
-2876.776625132773 79.07254251297162 -839.3112247859408 1568.2417745858454 0.0 0.0
-1757.3901788829091 -135.5375138608107 -567.878307823116 1491.858986988021 0.0 0.0
-884.618532718076 -693.7098922568503 -473.4985274924779 992.3891210758816 0.0 0.0
-357.7186158976697 -582.8417866691419 -282.1681207700435 501.944683702299 0.0 0.0
-346.89060307522186 -301.6713437042557 -194.56858403384325 -362.29184372230765 0.0 0.0
-922.4370095717593 -504.7699690711596 -428.1620935928758 -757.1733895535283 0.0 0.0
-1930.2029278236635 -95.87019214397287 -607.8219359902907 -1185.4145460032132 0.0 0.0
-3249.310755503773 52.39463610822363 -959.074835818665 -1257.1308044101606 0.0 0.0
-4583.652954133387 63.75042871590081 -1355.9707576252458 -1183.2880103438472 0.0 0.0
-5865.432532710451 38.44660139339673 -1748.0957793951168 -1105.183332051398 0.0 0.0
-7097.437139621087 16.310004783592767 -2124.3381404512484 -1059.7607765441378 0.0 0.0
-8300.420193728252 4.833466773031908 -2488.676018086566 -1040.664242743119 0.0 0.0
-9490.783660070629 0.4871812997185998 -2847.088943631272 -1035.038664708853 0.0 0.0
-10677.013934535593 -0.6376788928652601 -3203.2954840285374 -1034.533913644087 0.0 0.0
-11862.478045270795 -0.6396169530409779 -3558.9352986671515 -1035.298485343539 0.0 0.0
-13047.864212626335 -0.13021103112762944 -3914.3983270972394 -1035.7179610794813 0.0 0.0
-14232.435717969673 1.0811765691752626 -4269.40636242015 -1034.5490948390814 0.0 0.0
-15413.243487824948 4.5621823318186046 -4622.604391647939 -1029.3949191448733 0.0 0.0
-16586.846340513104 9.856342688845501 -4973.096999347278 -1016.6439457741839 0.0 0.0
-17745.11882661539 24.826476656352767 -5316.087704987711 -988.1975503900866 0.0 0.0
-18877.873355885124 35.550395155904 -5652.696888218765 -951.3867916487668 0.0 0.0
-20150.838621537885 -25.734121120032896 -6052.971822797376 -903.8888201748164 0.0 0.0
-21438.55640209365 291.40570544024024 -6344.145208996024 -1071.6970281541646 0.0 0.0
-21240.227512454523 -546.735024646503 -6536.088761130308 -2363.247132550428 0.0 0.0
-25171.347613005837 -12736.312090532218 -11372.297911061418 -4.8203219193965197e-11 0.0 0.0
-21240.22751245455 -546.7350246465788 -6536.088761130338 2363.247132550368 0.0 0.0
-21438.556402093564 291.4057054405195 -6344.145208995914 1071.6970281542815 0.0 0.0
-20150.838621538198 -25.73412112081411 -6052.971822797704 903.8888201749976 0.0 0.0
-18877.873355885844 35.550395154216254 -5652.696888219487 951.3867916487217 0.0 0.0
-17745.118826615664 24.826476655893266 -5316.087704987932 988.1975503900342 0.0 0.0
-16586.846340513097 9.85634268891095 -4973.0969993472545 1016.6439457741841 0.0 0.0
-15413.24348782455 4.5621823327273 -4622.604391647547 1029.3949191449124 0.0 0.0
-14232.435717969776 1.081176568900439 -4269.406362420263 1034.5490948391073 0.0 0.0
-13047.864212626617 -0.13021103172637716 -3914.3983270975023 1035.717961079496 0.0 0.0
-11862.47804527096 -0.6396169534082707 -3558.93529866731 1035.2984853435219 0.0 0.0
-10677.013934535684 -0.6376788930726027 -3203.2954840286266 1034.533913644164 0.0 0.0
-9490.783660070745 0.48718129955360767 -2847.0889436313573 1035.0386647088296 0.0 0.0
-8300.420193728154 4.833466773179073 -2488.676018086493 1040.6642427431748 0.0 0.0
-7097.437139620948 16.310004783732445 -2124.3381404511656 1059.7607765440953 0.0 0.0
-5865.432532710394 38.44660139345787 -1748.0957793950806 1105.1833320513083 0.0 0.0
-4583.65295413353 63.75042871572292 -1355.9707576253425 1183.2880103439006 0.0 0.0
-3249.3107555039874 52.39463610793501 -959.0748358188159 1257.1308044102354 0.0 0.0
-1930.2029278236016 -95.87019214380415 -607.8219359902215 1185.4145460032007 0.0 0.0
-922.4370095718349 -504.7699690712643 -428.1620935929298 757.173389553534 0.0 0.0
-346.89060307523755 -301.6713437042369 -194.56858403384234 362.29184372220504 0.0 0.0
-338.4865814572331 -140.9445426820297 -143.82933724177883 -233.42595945441616 0.0 0.0
-924.6366623636584 -337.95948262636506 -378.77884349700724 -509.93400135964106 0.0 0.0
-2077.897499451104 -65.17441407818953 -642.9215740587882 -827.8051077325272 0.0 0.0
-3614.1463992931094 29.87438708430863 -1075.28160366264 -881.0606258837025 0.0 0.0
-5187.4430507331135 41.2522249436445 -1543.857247736841 -826.912476774728 0.0 0.0
-6686.47087225084 25.676317958447456 -1998.238366287718 -769.1325223263411 0.0 0.0
-8109.517093835299 11.145897058980474 -2429.5113590328956 -735.5376742979327 0.0 0.0
-9488.482035363679 3.387959820434915 -2845.528222662973 -721.5065458225858 0.0 0.0
-10848.840214980617 0.3842433965041465 -3254.5367914752333 -717.4571378929147 0.0 0.0
-12203.694456319627 -0.41320570174364946 -3661.2322986064114 -717.1625145187678 0.0 0.0
-13557.996616350623 -0.42327395868422 -4067.5259670927935 -717.773777186212 0.0 0.0
-14912.684237845771 -0.08907392927535795 -4473.831993532514 -718.1225492677553 0.0 0.0
-16266.345135009478 0.8184944936843124 -4879.657992154737 -717.2905697946014 0.0 0.0
-17615.53022266755 2.7917210325556283 -5283.8215504905 -713.6229699688208 0.0 0.0
-18950.06139524667 8.395455911915704 -5682.499781800425 -703.677682233159 0.0 0.0
-20266.86781584435 9.836970033428685 -6077.109253743278 -684.7213314063637 0.0 0.0
-21510.58164536477 51.48402549514031 -6437.729285960891 -643.7086137961924 0.0 0.0
-22817.208762444658 -78.81219403944066 -6868.806286945231 -645.6989080809716 0.0 0.0
-24526.417319712375 126.06215410675773 -7320.1065496816855 -598.9058374006988 0.0 0.0
-24178.533110306525 1048.9544590133069 -6938.873595387969 -1999.5779845916597 0.0 0.0
-30343.524480975364 -15917.087015035364 -13878.18344880322 1.6484591469634324e-11 0.0 0.0
-24178.53311030665 1048.9544590130495 -6938.873595388079 1999.5779845917664 0.0 0.0
-24526.417319712167 126.06215410742249 -7320.1065496814235 598.9058374007752 0.0 0.0
-22817.208762445236 -78.81219404058936 -6868.806286945747 645.6989080808806 0.0 0.0
-21510.581645364644 51.48402549548949 -6437.729285960747 643.708613795921 0.0 0.0
-20266.86781584424 9.83697003364582 -6077.10925374318 684.7213314063719 0.0 0.0
-18950.061395246732 8.3954559116819 -5682.499781800516 703.6776822331848 0.0 0.0
-17615.53022266755 2.7917210325376516 -5283.821550490504 713.622969968817 0.0 0.0
-16266.345135009335 0.8184944937739314 -4879.657992154669 717.2905697945984 0.0 0.0
-14912.684237845371 -0.08907392845206807 -4473.831993532147 718.1225492677904 0.0 0.0
-13557.99661635088 -0.4232739591620218 -4067.5259670930122 717.7737771860836 0.0 0.0
-12203.694456319796 -0.41320570210047414 -3661.2322986065697 717.1625145188823 0.0 0.0
-10848.840214980495 0.38424339684937436 -3254.536791475093 717.4571378928807 0.0 0.0
-9488.482035363631 3.3879598206165458 -2845.528222662905 721.5065458226845 0.0 0.0
-8109.517093835302 11.145897059056109 -2429.5113590328738 735.5376742979415 0.0 0.0
-6686.47087225077 25.67631795842078 -1998.2383662877046 769.1325223261637 0.0 0.0
-5187.443050733202 41.25222494300173 -1543.8572477370603 826.9124767745395 0.0 0.0
-3614.1463992930985 29.87438708433224 -1075.2816036626298 881.0606258837068 0.0 0.0
-2077.8974994511227 -65.17441407819413 -642.921574058795 827.8051077325435 0.0 0.0
-924.6366623635353 -337.9594826262243 -378.77884349692795 509.93400135970353 0.0 0.0
-338.4865814571901 -140.94454268200465 -143.82933724175842 233.42595945440084 0.0 0.0
-305.0424781296329 -89.41002521275689 -118.33575100271693 -137.48580481635193 0.0 0.0
-870.8704910477671 -209.72049836282815 -324.1772968231786 -256.03490492994644 0.0 0.0
-2187.818203540451 -54.89807465928312 -672.8148834599203 -404.61666408481636 0.0 0.0
-3971.9604062548988 16.492703785990884 -1186.6403107406718 -435.3466963629545 0.0 0.0
-5801.718435073527 27.718897193952486 -1732.1998613638725 -412.15697863140554 0.0 0.0
-7517.293301823976 17.936026137441914 -2249.8071827059603 -384.28056226100074 0.0 0.0
-9127.091252571663 7.997316071391424 -2735.728180950081 -367.42514898967374 0.0 0.0
-10678.788148903534 2.4922466070909195 -3202.888770688933 -360.1400878014706 0.0 0.0
-12207.522952111483 0.30969391663554546 -3662.1639774584546 -357.9267886344761 0.0 0.0
-13730.406884068998 -0.2837371866731502 -4119.207186376701 -357.68813229714516 0.0 0.0
-15253.453313724964 -0.2981821780941374 -4576.1254487709175 -357.9528585382076 0.0 0.0
-16777.56574211593 -0.057242476070115345 -5033.286895377599 -358.0989438872715 0.0 0.0
-18301.003814407926 0.5792608494119094 -5490.127366067554 -357.61873455750197 0.0 0.0
-19818.58334525763 2.1249972325423414 -5944.937504407525 -355.73822956708443 0.0 0.0
-21320.279239158364 5.2456189132328745 -6394.510086073538 -350.5320897533302 0.0 0.0
-22779.166702428734 12.444712899871448 -6830.016596858656 -341.1272744802044 0.0 0.0
-24201.868311602695 7.108372020036697 -7258.427981874799 -323.77692913736655 0.0 0.0
-25338.170882920338 117.3726802368664 -7566.239460805042 -300.9884558716916 0.0 0.0
-27513.577943670112 -672.9423898055463 -8455.956100042697 -474.7039708643649 0.0 0.0
-26938.64484938723 3391.7668330786687 -7064.06340489257 -677.5186733644788 0.0 0.0
-36587.568778822795 -19567.30580945727 -16846.462376484018 1.2164491636212915e-11 0.0 0.0
-26938.644849387543 3391.766833077947 -7064.06340489288 677.5186733644072 0.0 0.0
-27513.577943670047 -672.9423898050954 -8455.956100042546 474.70397086438095 0.0 0.0
-25338.17088292055 117.37268023657111 -7566.2394608051945 300.9884558717093 0.0 0.0
-24201.86831160252 7.108372020656997 -7258.427981874559 323.7769291373942 0.0 0.0
-22779.16670242812 12.444712901244522 -6830.016596858062 341.12727448024305 0.0 0.0
-21320.279239158455 5.245618912598111 -6394.510086073759 350.53208975323304 0.0 0.0
-19818.583345257706 2.12499723226314 -5944.937504407633 355.738229567096 0.0 0.0
-18301.00381440806 0.5792608489849247 -5490.127366067724 357.6187345575519 0.0 0.0
-16777.565742115774 -0.05724247560997142 -5033.286895377415 358.09894388725183 0.0 0.0
-15253.453313725508 -0.29818217915685374 -4576.1254487713995 357.95285853803654 0.0 0.0
-13730.406884068667 -0.2837371859768827 -4119.207186376393 357.68813229731046 0.0 0.0
-12207.522952111529 0.3096939166035142 -3662.163977458478 357.9267886344963 0.0 0.0
-10678.788148903535 2.492246607115888 -3202.888770688926 360.14008780163067 0.0 0.0
-9127.091252571749 7.997316071276632 -2735.728180950142 367.4251489895719 0.0 0.0
-7517.293301824329 17.936026136770526 -2249.807182706268 384.28056226092747 0.0 0.0
-5801.718435073713 27.718897193332452 -1732.1998613641142 412.1569786313833 0.0 0.0
-3971.9604062547937 16.492703786122775 -1186.6403107406006 435.3466963629591 0.0 0.0
-2187.818203540514 -54.8980746594701 -672.8148834599953 404.6166640847937 0.0 0.0
-870.8704910477433 -209.72049836282724 -324.1772968231712 256.03490492989465 0.0 0.0
-305.0424781297038 -89.41002521280892 -118.33575100275377 137.48580481636597 0.0 0.0
-158.75505046645395 -37.74277880368351 -58.94934878104125 -92.13191388425935 0.0 0.0
-709.5713261443738 -107.73666240441972 -245.19239656463813 -108.21207961225926 0.0 0.0
-2235.009939607933 -57.861810025579416 -687.8615248900539 -137.7156882511849 0.0 0.0
-4372.5590355917375 -82.6410997359136 -1336.5600405982955 -153.54806784813337 0.0 0.0
-6507.33864695424 -145.75640686991903 -1995.928516147248 -152.3785562709532 0.0 0.0
-8458.358912078142 -208.47313510471332 -2600.049614154856 -145.2878396892025 0.0 0.0
-10267.452860645402 -263.0066932909098 -3159.137866180894 -139.86928564277397 0.0 0.0
-12005.936349437394 -311.25961571647696 -3695.1587895461616 -137.0737301673007 0.0 0.0
-13719.632235877263 -356.5636007184347 -4222.85875097871 -136.002992868386 0.0 0.0
-15428.712196519145 -400.94450632921047 -4748.897010854507 -135.73354581047914 0.0 0.0
-17139.417262158262 -445.2395689178871 -5275.397049322845 -135.7236182033722 0.0 0.0
-18852.263815986902 -489.5598009881985 -5802.54708509253 -135.70201474591374 0.0 0.0
-20565.236418840268 -533.927718145887 -6329.749241095848 -135.4251943890548 0.0 0.0
-22271.98845842906 -576.8352301665451 -6854.647106578682 -134.6799527633184 0.0 0.0
-23960.92260601082 -621.0344118897501 -7374.587105370172 -132.88511656034666 0.0 0.0
-25594.792616116196 -646.1134760705338 -7872.271827656019 -129.41263423136377 0.0 0.0
-27157.530590629733 -728.5594924329605 -8365.827024918808 -132.94180890335952 0.0 0.0
-28432.40616347645 -481.2488687881674 -8674.096509679388 -90.4533422859447 0.0 0.0
-29744.108845512666 -1622.1631538345841 -9409.881599804175 -444.1393042799716 0.0 0.0
-30365.969470021082 3852.2799327210564 -7954.106861190007 -1.9995385056035957 0.0 0.0
-44902.47717380914 -23547.72991545579 -20535.062126779478 -8.549250196665525e-11 0.0 0.0
-30365.969470021533 3852.2799327196954 -7954.106861190554 1.9995385054309054 0.0 0.0
-29744.108845512736 -1622.1631538346028 -9409.881599804201 444.1393042802131 0.0 0.0
-28432.406163476193 -481.2488687871729 -8674.09650967901 90.4533422860568 0.0 0.0
-27157.53059063068 -728.5594924348131 -8365.827024919647 132.9418089034566 0.0 0.0
-25594.792616115723 -646.113476069488 -7872.271827655565 129.4126342316191 0.0 0.0
-23960.92260601064 -621.0344118899133 -7374.5871053701685 132.8851165603362 0.0 0.0
-22271.988458428787 -576.8352301659921 -6854.6471065784335 134.6799527634579 0.0 0.0
-20565.236418840737 -533.9277181467879 -6329.749241096257 135.42519438911245 0.0 0.0
-18852.263815987142 -489.5598009887439 -5802.547085092766 135.70201474575492 0.0 0.0
-17139.417262159106 -445.23956891987547 -5275.397049323696 135.7236182034443 0.0 0.0
-15428.712196518356 -400.9445063273597 -4748.897010853716 135.73354581061812 0.0 0.0
-13719.632235877381 -356.5636007185359 -4222.858750978776 136.00299286830352 0.0 0.0
-12005.936349437707 -311.25961571699315 -3695.15878954641 137.07373016751865 0.0 0.0
-10267.452860645442 -263.006693290909 -3159.1378661809063 139.86928564260347 0.0 0.0
-8458.358912078287 -208.47313510504563 -2600.0496141549993 145.28783968912234 0.0 0.0
-6507.338646954238 -145.7564068699233 -1995.928516147248 152.37855627091574 0.0 0.0
-4372.559035591955 -82.64109973636647 -1336.5600405984967 153.54806784833804 0.0 0.0
-2235.009939608108 -57.86181002569941 -687.8615248901424 137.7156882511313 0.0 0.0
-709.5713261445269 -107.73666240471154 -245.19239656477157 108.2120796121197 0.0 0.0
-158.7550504663301 -37.742778803624596 -58.949348780986426 92.13191388431476 0.0 0.0
SCALARS Strain float 6
LOOKUP_TABLE default
0.041129867546825 -0.10216977605616215 0.0 -0.006874836727658922 0.0 0.0
0.03662950045895403 0.00796448749219502 0.0 -0.010678909322782378 0.0 0.0
0.028950517577029565 -0.01442669190623869 0.0 -0.004567248970973872 0.0 0.0
0.027607639123517158 -0.01005826342526122 0.0 -0.0006802314734580215 0.0 0.0
0.032427126699132745 -0.013252002080855592 0.0 -0.0015677383825804159 0.0 0.0
0.03895918491757038 -0.015784937510479703 0.0 -0.0016154946096960691 0.0 0.0
0.04628237950400454 -0.018841726427561097 0.0 -0.0017130357736914025 0.0 0.0
0.053906323447652726 -0.021945481767594227 0.0 -0.001750151853406898 0.0 0.0
0.06162162875101765 -0.025091046843861445 0.0 -0.0017633501089245095 0.0 0.0
0.0693515539211831 -0.028237576956077363 0.0 -0.0017667851471731637 0.0 0.0
0.07707298175992444 -0.03138095856661338 0.0 -0.00176678493154528 0.0 0.0
0.08478483568134873 -0.034520329276870536 0.0 -0.0017671762072332077 0.0 0.0
0.09249707974687915 -0.037659290050492816 0.0 -0.0017706180578778079 0.0 0.0
0.10023669149936007 -0.04080706921491762 0.0 -0.0017807574121553437 0.0 0.0
0.10806352177454684 -0.043985312761604084 0.0 -0.0018015167706977291 0.0 0.0
0.11608008760676577 -0.04723381798150324 0.0 -0.0018309565179152197 0.0 0.0
0.12438914649694835 -0.05059884199086137 0.0 -0.0018442876937739953 0.0 0.0
0.13291661103569138 -0.054069333439017986 0.0 -0.001767840731611645 0.0 0.0
0.1410494186626613 -0.057428395122644874 0.0 -0.0014745227838724923 0.0 0.0
0.14730366033550032 -0.06007797220311674 0.0 -0.0008625846038704554 0.0 0.0
0.14971470656397262 -0.061128640621682134 0.0 -3.0704605524789486e-16 0.0 0.0
0.14730366033550013 -0.06007797220311813 0.0 0.000862584603871468 0.0 0.0
0.14104941866266116 -0.05742839512264086 0.0 0.0014745227838714918 0.0 0.0
0.13291661103569088 -0.054069333439022524 0.0 0.001767840731611142 0.0 0.0
0.1243891464969486 -0.050598841990853044 0.0 0.0018442876937720173 0.0 0.0
0.11608008760676575 -0.04723381798150636 0.0 0.0018309565179167025 0.0 0.0
0.10806352177454662 -0.04398531276160081 0.0 0.0018015167706969685 0.0 0.0
0.10023669149936044 -0.04080706921490828 0.0 0.001780757412155381 0.0 0.0
0.09249707974687948 -0.03765929005049213 0.0 0.0017706180578792785 0.0 0.0
0.08478483568134872 -0.03452032927687667 0.0 0.001767176207233591 0.0 0.0
0.07707298175992358 -0.031380958566616844 0.0 0.0017667849315431672 0.0 0.0
0.06935155392118258 -0.02823757695608184 0.0 0.0017667851471743277 0.0 0.0
0.06162162875101791 -0.02509104684386291 0.0 0.0017633501089240277 0.0 0.0
0.05390632344765303 -0.021945481767592874 0.0 0.0017501518534083636 0.0 0.0
0.046282379504004795 -0.018841726427561413 0.0 0.0017130357736902667 0.0 0.0
0.038959184917570014 -0.015784937510480705 0.0 0.0016154946096938964 0.0 0.0
0.03242712669913218 -0.01325200208085528 0.0 0.0015677383825810282 0.0 0.0
0.027607639123517012 -0.010058263425262145 0.0 0.0006802314734571271 0.0 0.0
0.028950517577030016 -0.014426691906239703 0.0 0.004567248970975053 0.0 0.0
0.03662950045895394 0.00796448749219595 0.0 0.010678909322782834 0.0 0.0
0.04112986754682425 -0.1021697760561625 0.0 0.00687483672766033 0.0 0.0
0.025611659107678035 -0.09496541239868658 0.0 -0.004698067905996534 0.0 0.0
0.021669368097495693 0.006902811356529242 0.0 -0.00851445453787224 0.0 0.0
0.02080359521425883 -0.011187797853310331 0.0 -0.00319233277007584 0.0 0.0
0.025033029768064527 -0.009925139179201738 0.0 -0.0026423023763540257 0.0 0.0
0.029078465508587573 -0.012362465827460195 0.0 -0.0038096534151257667 0.0 0.0
0.03514028945387548 -0.014980741376314138 0.0 -0.004315609965201701 0.0 0.0
0.04169838532621966 -0.01784419178910037 0.0 -0.0045424543333420254 0.0 0.0
0.04854157728933086 -0.020795419972210346 0.0 -0.004635317360654334 0.0 0.0
0.0554705478297019 -0.02377224384364474 0.0 -0.004660811680784154 0.0 0.0
0.062420404884226635 -0.026752684719402238 0.0 -0.004663421714966213 0.0 0.0
0.06936755547781334 -0.029730048091943462 0.0 -0.0046598665191558185 0.0 0.0
0.0763094145081676 -0.03270420274630345 0.0 -0.0046581193417908175 0.0 0.0
0.08325419587674136 -0.035678034516755025 0.0 -0.004664579071282512 0.0 0.0
0.09022455184493923 -0.03865939764170589 0.0 -0.004690554411736237 0.0 0.0
0.09726763949578991 -0.041666704391686835 0.0 -0.004753784801441742 0.0 0.0
0.10445683401863755 -0.04473423772896511 0.0 -0.004865791492690548 0.0 0.0
0.11184665039502698 -0.04790273520619099 0.0 -0.004985506288642458 0.0 0.0
0.11931920042365496 -0.051163950153958165 0.0 -0.004928857554250543 0.0 0.0
0.12630254609715857 -0.054326604794039154 0.0 -0.004296519380464958 0.0 0.0
0.13156088567161267 -0.05684479500414294 0.0 -0.0026329516894368454 0.0 0.0
0.13356029036973632 -0.057861301014010685 0.0 6.596286017401809e-16 0.0 0.0
0.13156088567161278 -0.05684479500414198 0.0 0.002632951689439344 0.0 0.0
0.12630254609715838 -0.05432660479403721 0.0 0.004296519380466028 0.0 0.0
0.11931920042365474 -0.05116395015396188 0.0 0.004928857554249978 0.0 0.0
0.11184665039502685 -0.04790273520618782 0.0 0.00498550628863972 0.0 0.0
0.10445683401863738 -0.04473423772896402 0.0 0.004865791492691342 0.0 0.0
0.09726763949578962 -0.04166670439168392 0.0 0.004753784801442217 0.0 0.0
0.09022455184493944 -0.03865939764170285 0.0 0.004690554411734766 0.0 0.0
0.08325419587674181 -0.035678034516752256 0.0 0.004664579071281552 0.0 0.0
0.0763094145081674 -0.03270420274630488 0.0 0.004658119341790851 0.0 0.0
0.06936755547781301 -0.02973004809194523 0.0 0.004659866519154657 0.0 0.0
0.062420404884226774 -0.02675268471940213 0.0 0.004663421714966797 0.0 0.0
0.05547054782970207 -0.02377224384364567 0.0 0.004660811680783873 0.0 0.0
0.04854157728933073 -0.020795419972208014 0.0 0.004635317360654707 0.0 0.0
0.04169838532621928 -0.017844191789100513 0.0 0.004542454333341637 0.0 0.0
0.03514028945387534 -0.014980741376314381 0.0 0.004315609965199726 0.0 0.0
0.02907846550858792 -0.0123624658274597 0.0 0.003809653415127054 0.0 0.0
0.025033029768064763 -0.00992513917920252 0.0 0.002642302376353247 0.0 0.0
0.020803595214258935 -0.011187797853310701 0.0 0.0031923327700763737 0.0 0.0
0.02166936809749559 0.006902811356529207 0.0 0.008514454537872345 0.0 0.0
0.025611659107677653 -0.09496541239868683 0.0 0.004698067905997516 0.0 0.0
0.01837013383432958 -0.08138489545119618 0.0 -0.02163672061041754 0.0 0.0
0.013955375018789224 0.0037793006672107964 0.0 -0.015396854244114234 0.0 0.0
0.014330303752178575 -0.0057344762346157535 0.0 -0.002164714003845513 0.0 0.0
0.02116996020324375 -0.008941266896582574 0.0 -0.006095373405145468 0.0 0.0
0.025756681147767694 -0.010728314808731012 0.0 -0.007585554260155945 0.0 0.0
0.031188076551275958 -0.013289121253946962 0.0 -0.008693751739861954 0.0 0.0
0.037088740987674174 -0.015853009729265847 0.0 -0.009126890418664236 0.0 0.0
0.04316393134456216 -0.018488368781786075 0.0 -0.00930193323743489 0.0 0.0
0.04931786762157637 -0.021134998447325307 0.0 -0.009348960863694593 0.0 0.0
0.0554900588787168 -0.023783019947043862 0.0 -0.009351681006311003 0.0 0.0
0.06166319067154606 -0.026428638786905635 0.0 -0.009343642062623841 0.0 0.0
0.06783389809157694 -0.029071949718017756 0.0 -0.009339305689955378 0.0 0.0
0.07400808889119892 -0.03171457821418485 0.0 -0.009350849704663976 0.0 0.0
0.08020221071207567 -0.034360891831752734 0.0 -0.009400708831345509 0.0 0.0
0.08644948230192649 -0.03702226696528086 0.0 -0.009526018978253023 0.0 0.0
0.09279911674856987 -0.03972318408697319 0.0 -0.009755887735051167 0.0 0.0
0.0992793595780934 -0.04250030718022523 0.0 -0.010020552785891455 0.0 0.0
0.10577575541451795 -0.04536794274506957 0.0 -0.009963200067455888 0.0 0.0
0.11180554510240116 -0.048207432878206086 0.0 -0.008764472872599845 0.0 0.0
0.11633584019549584 -0.05056839296585371 0.0 -0.005424900014322995 0.0 0.0
0.11805979237459299 -0.051576007570402704 0.0 1.117595599398058e-15 0.0 0.0
0.1163358401954955 -0.050568392965854345 0.0 0.0054249000143228926 0.0 0.0
0.11180554510240082 -0.04820743287820585 0.0 0.008764472872600893 0.0 0.0
0.10577575541451804 -0.04536794274507306 0.0 0.009963200067457139 0.0 0.0
0.09927935957809382 -0.042500307180226536 0.0 0.01002055278589195 0.0 0.0
0.09279911674856983 -0.039723184086974124 0.0 0.009755887735051774 0.0 0.0
0.08644948230192631 -0.03702226696528247 0.0 0.00952601897825191 0.0 0.0
0.08020221071207596 -0.034360891831755544 0.0 0.00940070883134473 0.0 0.0
0.0740080888911989 -0.03171457821417946 0.0 0.00935084970466367 0.0 0.0
0.067833898091577 -0.029071949718017742 0.0 0.009339305689953848 0.0 0.0
0.06166319067154617 -0.026428638786905656 0.0 0.009343642062622348 0.0 0.0
0.05549005887871676 -0.02378301994704204 0.0 0.009351681006311617 0.0 0.0
0.049317867621576195 -0.02113499844732555 0.0 0.009348960863694453 0.0 0.0
0.043163931344561944 -0.01848836878178544 0.0 0.009301933237433578 0.0 0.0
0.037088740987674125 -0.015853009729265358 0.0 0.009126890418664685 0.0 0.0
0.031188076551275715 -0.013289121253947224 0.0 0.00869375173986005 0.0 0.0
0.025756681147767975 -0.010728314808732809 0.0 0.00758555426015738 0.0 0.0
0.02116996020324398 -0.008941266896583411 0.0 0.0060953734051451495 0.0 0.0
0.01433030375217829 -0.00573447623461589 0.0 0.0021647140038456277 0.0 0.0
0.013955375018789073 0.0037793006672099685 0.0 0.015396854244114938 0.0 0.0
0.018370133834329616 -0.0813848954511962 0.0 0.021636720610417125 0.0 0.0
0.014592065830729598 -0.06944782583665415 0.0 -0.027010906966310907 0.0 0.0
0.009825482964936025 -0.000238805625072694 0.0 -0.021085542049907667 0.0 0.0
0.009644968893599011 -0.0022536267875317983 0.0 -0.006415713531243431 0.0 0.0
0.017042951574819616 -0.0070346943747593305 0.0 -0.008811458309875956 0.0 0.0
0.022234555452095482 -0.009195243468588998 0.0 -0.011284219484090904 0.0 0.0
0.027200931109560386 -0.011510149404567844 0.0 -0.012550194800652689 0.0 0.0
0.03243991128799108 -0.01385030185573602 0.0 -0.013181136756073217 0.0 0.0
0.037778057579693686 -0.016173579519913786 0.0 -0.013412560691444628 0.0 0.0
0.04316196688040237 -0.01849674462299867 0.0 -0.013480990343562059 0.0 0.0
0.04855993604621871 -0.020813721689280543 0.0 -0.01348595786803149 0.0 0.0
0.05395928089372745 -0.02312776347116842 0.0 -0.013475954348356824 0.0 0.0
0.05935795833715929 -0.02543961072815523 0.0 -0.013470684287053452 0.0 0.0
0.06475901536798108 -0.027749340348851098 0.0 -0.013486955970604252 0.0 0.0
0.0701716827203968 -0.030056826579108124 0.0 -0.013554902304533961 0.0 0.0
0.07561509004751306 -0.03236560850972636 0.0 -0.013723964230868942 0.0 0.0
0.08111956564234889 -0.034692832346375636 0.0 -0.014032240344518153 0.0 0.0
0.08670579108484042 -0.037083644640345644 0.0 -0.014381962853156387 0.0 0.0
0.09229915372700416 -0.03960488512608965 0.0 -0.014275167167171117 0.0 0.0
0.09753648861201018 -0.04224754980148222 0.0 -0.012554293681895472 0.0 0.0
0.1015427710628836 -0.04464038440089635 0.0 -0.0077794563499547715 0.0 0.0
0.10309077865899248 -0.045747945428226806 0.0 6.2363308961366215e-16 0.0 0.0
0.10154277106288376 -0.0446403844009015 0.0 0.007779456349954494 0.0 0.0
0.09753648861200975 -0.042247549801477734 0.0 0.012554293681895746 0.0 0.0
0.09229915372700394 -0.039604885126100775 0.0 0.014275167167171764 0.0 0.0
0.08670579108484072 -0.037083644640345075 0.0 0.014381962853156693 0.0 0.0
0.08111956564234882 -0.034692832346377156 0.0 0.014032240344517336 0.0 0.0
0.075615090047513 -0.03236560850973351 0.0 0.013723964230867945 0.0 0.0
0.0701716827203968 -0.030056826579108527 0.0 0.013554902304534055 0.0 0.0
0.06475901536798077 -0.02774934034884792 0.0 0.013486955970603478 0.0 0.0
0.05935795833715901 -0.025439610728155208 0.0 0.013470684287051962 0.0 0.0
0.05395928089372755 -0.02312776347116728 0.0 0.013475954348356252 0.0 0.0
0.04855993604621874 -0.02081372168928117 0.0 0.013485957868031334 0.0 0.0
0.043161966880402323 -0.01849674462299554 0.0 0.01348099034356063 0.0 0.0
0.03777805757969398 -0.016173579519916305 0.0 0.01341256069144639 0.0 0.0
0.032439911287990876 -0.013850301855736373 0.0 0.013181136756075258 0.0 0.0
0.027200931109559977 -0.01151014940456787 0.0 0.012550194800653364 0.0 0.0
0.02223455545209592 -0.009195243468590335 0.0 0.011284219484091777 0.0 0.0
0.01704295157481978 -0.007034694374761242 0.0 0.00881145830987682 0.0 0.0
0.009644968893598851 -0.0022536267875309505 0.0 0.006415713531243743 0.0 0.0
0.00982548296493597 -0.00023880562507307048 0.0 0.021085542049907587 0.0 0.0
0.014592065830729304 -0.06944782583665413 0.0 0.027010906966308874 0.0 0.0
0.012316022523502786 -0.05907562627735294 0.0 -0.027627361328210788 0.0 0.0
0.0074941741409490234 -0.0037010279285727326 0.0 -0.02493326347977746 0.0 0.0
0.006350838933874407 -0.00037624202186250247 0.0 -0.012156711499927947 0.0 0.0
0.013146190380619097 -0.004974541216837739 0.0 -0.012023926293051067 0.0 0.0
0.01857805689257148 -0.007567685529082423 0.0 -0.014584527426111781 0.0 0.0
0.02317915116969435 -0.009725048278726568 0.0 -0.0159942216557518 0.0 0.0
0.027769268709854272 -0.011825054799107854 0.0 -0.01669817001494973 0.0 0.0
0.03238212790879866 -0.013855361286142748 0.0 -0.01697690041684553 0.0 0.0
0.03700351151291126 -0.015856543282754848 0.0 -0.017058261738340942 0.0 0.0
0.041629228957502346 -0.017844473023652524 0.0 -0.017066932299385825 0.0 0.0
0.046255411078099926 -0.019827043945028638 0.0 -0.017056628364844607 0.0 0.0
0.05088138900569705 -0.021807020087961742 0.0 -0.017051536435555903 0.0 0.0
0.05550751163137322 -0.02378264470549068 0.0 -0.01707118674538562 0.0 0.0
0.06013536367610833 -0.025748868726408383 0.0 -0.01714983302017332 0.0 0.0
0.06477056455603922 -0.027701218279185192 0.0 -0.017343066000216845 0.0 0.0
0.06942923075678203 -0.02965165487898562 0.0 -0.017693437065833303 0.0 0.0
0.07413892531165497 -0.03166313525606046 0.0 -0.018085395688321567 0.0 0.0
0.07889180108178376 -0.03387738851669103 0.0 -0.017922984601852387 0.0 0.0
0.08346546334238042 -0.03642376731469903 0.0 -0.015782740548245203 0.0 0.0
0.0871074354920495 -0.03900205664792157 0.0 -0.009818531542476236 0.0 0.0
0.08855705867894742 -0.04030647381940886 0.0 -3.699297812520541e-16 0.0 0.0
0.08710743549204952 -0.03900205664791973 0.0 0.009818531542475445 0.0 0.0
0.08346546334238023 -0.036423767314695966 0.0 0.015782740548244318 0.0 0.0
0.07889180108178417 -0.03387738851669623 0.0 0.01792298460185266 0.0 0.0
0.07413892531165496 -0.03166313525606148 0.0 0.018085395688323323 0.0 0.0
0.06942923075678172 -0.029651654878983316 0.0 0.01769343706583108 0.0 0.0
0.0647705645560393 -0.02770121827918752 0.0 0.017343066000215793 0.0 0.0
0.060135363676108236 -0.02574886872640604 0.0 0.017149833020173495 0.0 0.0
0.0555075116313729 -0.023782644705491084 0.0 0.017071186745385485 0.0 0.0
0.05088138900569687 -0.021807020087960854 0.0 0.017051536435555122 0.0 0.0
0.04625541107810023 -0.0198270439450293 0.0 0.017056628364845568 0.0 0.0
0.041629228957502415 -0.0178444730236536 0.0 0.017066932299386058 0.0 0.0
0.03700351151291098 -0.015856543282749914 0.0 0.017058261738340602 0.0 0.0
0.03238212790879876 -0.013855361286145056 0.0 0.016976900416845537 0.0 0.0
0.02776926870985441 -0.011825054799107613 0.0 0.016698170014950817 0.0 0.0
0.02317915116969414 -0.009725048278725909 0.0 0.01599422165575332 0.0 0.0
0.018578056892571485 -0.00756768552908167 0.0 0.01458452742611259 0.0 0.0
0.013146190380619394 -0.004974541216838902 0.0 0.012023926293051407 0.0 0.0
0.006350838933874413 -0.0003762420218619432 0.0 0.012156711499926625 0.0 0.0
0.007494174140948761 -0.0037010279285727156 0.0 0.02493326347977585 0.0 0.0
0.012316022523502506 -0.0590756262773531 0.0 0.027627361328211336 0.0 0.0
0.010702568466601106 -0.05010487933995676 0.0 -0.026357518870364756 0.0 0.0
0.006057129211107253 -0.0062130639235692744 0.0 -0.027207276111453925 0.0 0.0
0.004021795143014744 0.000455275851921417 0.0 -0.017711021168387568 0.0 0.0
0.009656102356614028 -0.003112660757505202 0.0 -0.015615106989199823 0.0 0.0
0.01490475624523803 -0.005877287647255875 0.0 -0.017580899170264855 0.0 0.0
0.019130244600508287 -0.007934331425422065 0.0 -0.01899257220177397 0.0 0.0
0.023087274457639376 -0.009791052763214032 0.0 -0.019700883888808775 0.0 0.0
0.026978577053843236 -0.011532483988394734 0.0 -0.019994965809888198 0.0 0.0
0.03084235090774371 -0.013215189725194273 0.0 -0.020083688448835662 0.0 0.0
0.03469765503066086 -0.014874764939170396 0.0 -0.020094919984402552 0.0 0.0
0.03855117132335432 -0.01652623656693215 0.0 -0.020085666475395177 0.0 0.0
0.04240412240728071 -0.018174086475315866 0.0 -0.0200813086352973 0.0 0.0
0.04625427970361387 -0.01981496738180943 0.0 -0.020102374316187586 0.0 0.0
0.050095810470313695 -0.02143886832376227 0.0 -0.020183623948496494 0.0 0.0
0.053921794811856556 -0.02303356448061067 0.0 -0.02038152842512581 0.0 0.0
0.057737601234221614 -0.024607127472570996 0.0 -0.020741355285452116 0.0 0.0
0.06158723978815807 -0.026245609835976222 0.0 -0.021146487999926557 0.0 0.0
0.0655484662429932 -0.028180714784337688 0.0 -0.02095429189051855 0.0 0.0
0.0695580000325226 -0.03070607863264696 0.0 -0.018540028134832975 0.0 0.0
0.07296450466839012 -0.03360207980096363 0.0 -0.011633286785029968 0.0 0.0
0.0743805332589821 -0.03520273021527916 0.0 1.584236214435819e-15 0.0 0.0
0.07296450466839023 -0.03360207980095934 0.0 0.011633286785030453 0.0 0.0
0.06955800003252266 -0.030706078632651172 0.0 0.018540028134831958 0.0 0.0
0.06554846624299317 -0.028180714784334197 0.0 0.020954291890518326 0.0 0.0
0.06158723978815772 -0.026245609835977637 0.0 0.021146487999926227 0.0 0.0
0.05773760123422124 -0.024607127472569098 0.0 0.02074135528545416 0.0 0.0
0.05392179481185659 -0.02303356448060525 0.0 0.020381528425126607 0.0 0.0
0.05009581047031363 -0.021438868323763596 0.0 0.02018362394849639 0.0 0.0
0.04625427970361379 -0.019814967381806155 0.0 0.02010237431618908 0.0 0.0
0.0424041224072806 -0.01817408647531972 0.0 0.02008130863529918 0.0 0.0
0.0385511713233544 -0.01652623656693595 0.0 0.02008566647539371 0.0 0.0
0.034697655030660794 -0.014874764939170986 0.0 0.0200949199844021 0.0 0.0
0.030842350907743496 -0.01321518972519139 0.0 0.020083688448835516 0.0 0.0
0.02697857705384324 -0.01153248398839412 0.0 0.019994965809889294 0.0 0.0
0.023087274457639553 -0.009791052763212066 0.0 0.019700883888809667 0.0 0.0
0.01913024460050831 -0.00793433142542333 0.0 0.018992572201773365 0.0 0.0
0.014904756245238092 -0.005877287647256334 0.0 0.01758089917026491 0.0 0.0
0.009656102356614217 -0.0031126607575039473 0.0 0.015615106989199708 0.0 0.0
0.004021795143014734 0.0004552758519207993 0.0 0.017711021168386534 0.0 0.0
0.0060571292111073795 -0.006213063923568825 0.0 0.02720727611145378 0.0 0.0
0.010702568466601664 -0.05010487933995698 0.0 0.026357518870366595 0.0 0.0
0.009380576689188512 -0.0423339556247993 0.0 -0.024437307065466124 0.0 0.0
0.005047218703950338 -0.0077822955182977 0.0 -0.02830508641390473 0.0 0.0
0.002319072196295359 0.0006969085780969978 0.0 -0.022400687216045434 0.0 0.0
0.00658938965658892 -0.0015572997371626589 0.0 -0.019212001014235883 0.0 0.0
0.011306370817101225 -0.0041983162345747265 0.0 -0.020308873647880057 0.0 0.0
0.015075696798067497 -0.006141150526897924 0.0 -0.021536107786083572 0.0 0.0
0.018400671953555468 -0.007756483415659137 0.0 -0.022191968757437973 0.0 0.0
0.021570761650532032 -0.009206893249416695 0.0 -0.02247056621474517 0.0 0.0
0.024678704415928718 -0.010572716016428863 0.0 -0.02255815406217102 0.0 0.0
0.02776498523877154 -0.011904484466222326 0.0 -0.022570642167021242 0.0 0.0
0.030846284682821884 -0.013225087575441816 0.0 -0.022563048324285982 0.0 0.0
0.0339261597135644 -0.014540803239579975 0.0 -0.022559675506357027 0.0 0.0
0.037000095848445304 -0.015846850117710923 0.0 -0.022579903709945677 0.0 0.0
0.04005553877260558 -0.01712868497809277 0.0 -0.022655765517249942 0.0 0.0
0.04307425744860759 -0.018366883002164724 0.0 -0.02284001871776462 0.0 0.0
0.04605278874468585 -0.019565810883805455 0.0 -0.023180288631435675 0.0 0.0
0.049055908292223546 -0.020835317963628773 0.0 -0.023579010298847482 0.0 0.0
0.052258727828353904 -0.02250501417654815 0.0 -0.02340433750672785 0.0 0.0
0.055776834807307295 -0.025059740233756594 0.0 -0.020893175223973656 0.0 0.0
0.05905517264363591 -0.028393941196155625 0.0 -0.013296007831603163 0.0 0.0
0.060495901887750475 -0.030405012048851127 0.0 8.74734312761305e-16 0.0 0.0
0.05905517264363583 -0.028393941196155847 0.0 0.01329600783160307 0.0 0.0
0.05577683480730706 -0.025059740233756924 0.0 0.020893175223971824 0.0 0.0
0.05225872782835357 -0.02250501417654447 0.0 0.02340433750672949 0.0 0.0
0.049055908292223414 -0.02083531796362565 0.0 0.023579010298846154 0.0 0.0
0.046052788744685956 -0.019565810883808207 0.0 0.02318028863143688 0.0 0.0
0.043074257448607656 -0.01836688300216202 0.0 0.02284001871776356 0.0 0.0
0.040055538772605356 -0.01712868497809336 0.0 0.022655765517249248 0.0 0.0
0.03700009584844524 -0.015846850117709123 0.0 0.022579903709944824 0.0 0.0
0.03392615971356419 -0.014540803239583129 0.0 0.02255967550635779 0.0 0.0
0.030846284682822078 -0.013225087575444966 0.0 0.022563048324286746 0.0 0.0
0.027764985238771755 -0.011904484466222446 0.0 0.022570642167021034 0.0 0.0
0.02467870441592859 -0.01057271601642702 0.0 0.02255815406216933 0.0 0.0
0.02157076165053221 -0.009206893249417597 0.0 0.022470566214747245 0.0 0.0
0.018400671953555457 -0.00775648341565836 0.0 0.022191968757437508 0.0 0.0
0.015075696798067476 -0.006141150526897965 0.0 0.021536107786083662 0.0 0.0
0.011306370817101168 -0.004198316234574312 0.0 0.020308873647878818 0.0 0.0
0.0065893896565886985 -0.0015572997371615378 0.0 0.01921200101423585 0.0 0.0
0.0023190721962952315 0.0006969085780971912 0.0 0.022400687216045042 0.0 0.0
0.005047218703950163 -0.007782295518297453 0.0 0.028305086413905008 0.0 0.0
0.009380576689188298 -0.04233395562479928 0.0 0.02443730706546681 0.0 0.0
0.008185066959148614 -0.03556502866777446 0.0 -0.02238812770289686 0.0 0.0
0.0042229696917322574 -0.008551958511131046 0.0 -0.028555096557502692 0.0 0.0
0.0010003533638573037 0.0006633385189833881 0.0 -0.02601248574787862 0.0 0.0
0.0038942901266200416 -0.0002991046441341171 0.0 -0.02248721366559734 0.0 0.0
0.007835329287142626 -0.002588255484172299 0.0 -0.02272416529458076 0.0 0.0
0.011040725079716936 -0.0043581184349216024 0.0 -0.023622013561912 0.0 0.0
0.013716090950772081 -0.005726071741645815 0.0 -0.02416776154471326 0.0 0.0
0.016161581156895383 -0.006881134233588663 0.0 -0.02440543316574558 0.0 0.0
0.0185131557851361 -0.007929341616318978 0.0 -0.024482477020101076 0.0 0.0
0.020831057142785582 -0.008933531389243604 0.0 -0.024494569386011907 0.0 0.0
0.02314055970051068 -0.009923435777192737 0.0 -0.02448889090447498 0.0 0.0
0.025447553495641314 -0.010907194736109203 0.0 -0.02448649421348945 0.0 0.0
0.027745712325423152 -0.011878835012386875 0.0 -0.02450369342590644 0.0 0.0
0.030016846613256043 -0.012820029020448459 0.0 -0.02456698191245014 0.0 0.0
0.032232860325103994 -0.013705000283204502 0.0 -0.02472138447908693 0.0 0.0
0.03438180436303427 -0.01453351336230507 0.0 -0.025016423655104727 0.0 0.0
0.03654808962173874 -0.015435045242776797 0.0 -0.025393841464111357 0.0 0.0
0.03900905984923548 -0.016837417144771206 0.0 -0.025294931947585555 0.0 0.0
0.04208274203109406 -0.01944611116741708 0.0 -0.022888499428699107 0.0 0.0
0.04532501162928938 -0.023333175890974046 0.0 -0.014867439017096506 0.0 0.0
0.04684694455570706 -0.02589678632577177 0.0 1.6523241108679088e-16 0.0 0.0
0.04532501162928932 -0.023333175890973012 0.0 0.01486743901709709 0.0 0.0
0.04208274203109423 -0.01944611116741261 0.0 0.02288849942869825 0.0 0.0
0.03900905984923534 -0.016837417144769728 0.0 0.02529493194758509 0.0 0.0
0.036548089621738965 -0.015435045242772814 0.0 0.025393841464109983 0.0 0.0
0.034381804363034306 -0.01453351336231069 0.0 0.025016423655104477 0.0 0.0
0.0322328603251037 -0.013705000283205997 0.0 0.024721384479085784 0.0 0.0
0.030016846613256064 -0.01282002902044729 0.0 0.024566981912449392 0.0 0.0
0.027745712325422982 -0.011878835012382866 0.0 0.02450369342590625 0.0 0.0
0.025447553495640894 -0.010907194736107868 0.0 0.024486494213489085 0.0 0.0
0.023140559700510505 -0.009923435777191163 0.0 0.024488890904474734 0.0 0.0
0.02083105714278559 -0.00893353138924591 0.0 0.024494569386011498 0.0 0.0
0.018513155785136168 -0.007929341616316298 0.0 0.024482477020100795 0.0 0.0
0.016161581156895442 -0.006881134233588859 0.0 0.024405433165746587 0.0 0.0
0.013716090950772324 -0.005726071741645038 0.0 0.024167761544714245 0.0 0.0
0.011040725079717015 -0.004358118434922383 0.0 0.023622013561911664 0.0 0.0
0.00783532928714241 -0.0025882554841700424 0.0 0.022724165294579834 0.0 0.0
0.0038942901266204016 -0.0002991046441347254 0.0 0.022487213665597344 0.0 0.0
0.0010003533638575082 0.000663338518983449 0.0 0.02601248574787826 0.0 0.0
0.004222969691732189 -0.008551958511131387 0.0 0.028555096557503462 0.0 0.0
0.008185066959148739 -0.03556502866777455 0.0 0.022388127702897664 0.0 0.0
0.007045582049378558 -0.029626629725704137 0.0 -0.02040888132555385 0.0 0.0
0.0034624446072034462 -0.008693747466166519 0.0 -0.028188858580526444 0.0 0.0
-9.838553539766236e-05 0.0005523876388995397 0.0 -0.02853895602000743 0.0 0.0
0.001497691457031778 0.0007173362156548748 0.0 -0.025216686508015992 0.0 0.0
0.0045117849687215045 -0.0010773140156293542 0.0 -0.024745763252841113 0.0 0.0
0.0070464577893426 -0.002600397398178132 0.0 -0.02523825053144791 0.0 0.0
0.009040447787056885 -0.0037039081381265975 0.0 -0.025623023165586636 0.0 0.0
0.010753408194317813 -0.0045572366339597355 0.0 -0.02579890185557748 0.0 0.0
0.012346360492398194 -0.005285495269520754 0.0 -0.025857197623081956 0.0 0.0
0.013895803027871486 -0.0059618258240776685 0.0 -0.02586706180783614 0.0 0.0
0.015433861179852012 -0.006621175365585735 0.0 -0.02586336554033537 0.0 0.0
0.01696837943659462 -0.007273306267108811 0.0 -0.02586181038909153 0.0 0.0
0.01849177886546318 -0.007911398837522022 0.0 -0.02587411741812073 0.0 0.0
0.019981657393492072 -0.00851432800427644 0.0 -0.02591903733667206 0.0 0.0
0.02140179786956499 -0.009051163734433003 0.0 -0.026030375522134473 0.0 0.0
0.022730852216723274 -0.009515456325706306 0.0 -0.026257687707506215 0.0 0.0
0.024066247557730378 -0.010047306832301674 0.0 -0.02659879944019309 0.0 0.0
0.02578473285043276 -0.01116406638103299 0.0 -0.026633898360642012 0.0 0.0
0.028434881325044094 -0.013822858105981172 0.0 -0.024552495292865555 0.0 0.0
0.03172196967996315 -0.018374222910700375 0.0 -0.01640153518777569 0.0 0.0
0.03338366223570032 -0.021676589779162807 0.0 -3.131175874138137e-16 0.0 0.0
0.031721969679963206 -0.018374222910700823 0.0 0.016401535187776945 0.0 0.0
0.02843488132504413 -0.013822858105980395 0.0 0.0245524952928656 0.0 0.0
0.02578473285043252 -0.011164066381038522 0.0 0.02663389836064116 0.0 0.0
0.024066247557730222 -0.010047306832305212 0.0 0.026598799440192583 0.0 0.0
0.022730852216723198 -0.009515456325704197 0.0 0.026257687707505716 0.0 0.0
0.021401797869564806 -0.009051163734437997 0.0 0.026030375522136166 0.0 0.0
0.019981657393492055 -0.008514328004277047 0.0 0.0259190373366724 0.0 0.0
0.018491778865463132 -0.007911398837517495 0.0 0.02587411741812075 0.0 0.0
0.016968379436594357 -0.007273306267107153 0.0 0.025861810389091425 0.0 0.0
0.015433861179852099 -0.006621175365588001 0.0 0.025863365540336643 0.0 0.0
0.013895803027871776 -0.005961825824082625 0.0 0.025867061807835295 0.0 0.0
0.012346360492398208 -0.0052854952695175275 0.0 0.025857197623080693 0.0 0.0
0.010753408194317738 -0.004557236633957695 0.0 0.025798901855578208 0.0 0.0
0.009040447787056744 -0.0037039081381275594 0.0 0.025623023165585734 0.0 0.0
0.007046457789342541 -0.0026003973981800223 0.0 0.025238250531447133 0.0 0.0
0.004511784968721463 -0.00107731401562862 0.0 0.024745763252842272 0.0 0.0
0.0014976914570315907 0.0007173362156558495 0.0 0.025216686508016024 0.0 0.0
-9.83855353976827e-05 0.0005523876388996578 0.0 0.028538956020007028 0.0 0.0
0.00346244460720368 -0.008693747466166041 0.0 0.028188858580526985 0.0 0.0
0.007045582049378689 -0.0296266297257044 0.0 0.02040888132555448 0.0 0.0
0.005936188139245311 -0.02438182475797938 0.0 -0.01855187337997664 0.0 0.0
0.0027079669392817566 -0.008367050871105794 0.0 -0.027357182161745326 0.0 0.0
-0.001083819172720105 0.0004785088254469213 0.0 -0.03005400566458411 0.0 0.0
-0.0006726855750124332 0.0015574733857145729 0.0 -0.027267962068830642 0.0 0.0
0.0013344269070456806 0.0003264601849384311 0.0 -0.02628839363887656 0.0 0.0
0.003106664483621743 -0.0008802032414287112 0.0 -0.026361980090623124 0.0 0.0
0.004379950071112941 -0.0016939191556229695 0.0 -0.0265506983494793 0.0 0.0
0.005348174306568531 -0.0022366452081444424 0.0 -0.026648870848801128 0.0 0.0
0.0061788661804204875 -0.0026416007969270808 0.0 -0.026682367203180304 0.0 0.0
0.006959219978075754 -0.00298933595208045 0.0 -0.026688430709806633 0.0 0.0
0.007726100834332301 -0.0033182336649589337 0.0 -0.026686675823468793 0.0 0.0
0.008488708644563437 -0.0036391859810062425 0.0 -0.026685823185712398 0.0 0.0
0.009238783590287097 -0.0039449075682508996 0.0 -0.02669190815097475 0.0 0.0
0.009951387610744392 -0.004212620837220937 0.0 -0.02671448127793877 0.0 0.0
0.01058438650473631 -0.004407861035899832 0.0 -0.026773334985796926 0.0 0.0
0.011105550622641264 -0.0045163520149431955 0.0 -0.02691393685812713 0.0 0.0
0.011613462821176302 -0.004675537193289953 0.0 -0.027199428933361004 0.0 0.0
0.012571761658825113 -0.0054723109643960545 0.0 -0.027414913082961106 0.0 0.0
0.014790967981208202 -0.008143975722294201 0.0 -0.02589075960209123 0.0 0.0
0.01819436368577404 -0.013466520782375964 0.0 -0.017948434433371185 0.0 0.0
0.02005978513572391 -0.017759603503893474 0.0 6.743737512859838e-16 0.0 0.0
0.0181943636857743 -0.013466520782381787 0.0 0.01794843443337102 0.0 0.0
0.014790967981207744 -0.008143975722295312 0.0 0.025890759602091654 0.0 0.0
0.012571761658824723 -0.005472310964393703 0.0 0.02741491308296027 0.0 0.0
0.011613462821176333 -0.004675537193296789 0.0 0.027199428933361518 0.0 0.0
0.011105550622641281 -0.004516352014941674 0.0 0.026913936858126493 0.0 0.0
0.010584386504736034 -0.004407861035904077 0.0 0.026773334985797405 0.0 0.0
0.009951387610744563 -0.004212620837220953 0.0 0.026714481277940294 0.0 0.0
0.009238783590287285 -0.003944907568252557 0.0 0.026691908150973817 0.0 0.0
0.008488708644562856 -0.00363918598100256 0.0 0.02668582318571007 0.0 0.0
0.007726100834332153 -0.003318233664963001 0.0 0.02668667582346822 0.0 0.0
0.006959219978076162 -0.0029893359520804883 0.0 0.02668843070980537 0.0 0.0
0.006178866180420673 -0.00264160079692909 0.0 0.026682367203180783 0.0 0.0
0.005348174306568502 -0.002236645208146319 0.0 0.026648870848801503 0.0 0.0
0.004379950071112606 -0.001693919155625263 0.0 0.026550698349479356 0.0 0.0
0.003106664483621502 -0.0008802032414275463 0.0 0.02636198009062387 0.0 0.0
0.0013344269070457867 0.00032646018493682203 0.0 0.026288393638877475 0.0 0.0
-0.0006726855750123564 0.001557473385715797 0.0 0.027267962068829643 0.0 0.0
-0.001083819172720051 0.00047850882544695395 0.0 0.030054005664583994 0.0 0.0
0.0027079669392817544 -0.008367050871105746 0.0 0.027357182161745208 0.0 0.0
0.005936188139245094 -0.024381824757979318 0.0 0.01855187337997556 0.0 0.0
0.004852260840296753 -0.01972852217844801 0.0 -0.016804774993995613 0.0 0.0
0.0019366445028787835 -0.0077063100288340645 0.0 -0.02615259132856256 0.0 0.0
-0.002022464028142736 0.0005007490574823589 0.0 -0.03065481804798871 0.0 0.0
-0.0026791327684446056 0.002280634689964465 0.0 -0.028574298480063043 0.0 0.0
-0.001710299631779821 0.001629205452598565 0.0 -0.027278284011222564 0.0 0.0
-0.0007725142331284598 0.0007954790944925639 0.0 -0.026963803672010785 0.0 0.0
-0.0002609571049718532 0.0003007363964890236 0.0 -0.02694146233493016 0.0 0.0
-5.2699234328433954e-05 7.96903683492859e-05 0.0 -0.026952424599653784 0.0 0.0
1.1041468975440775e-05 2.0516890779152905e-06 0.0 -0.02695763401778442 0.0 0.0
2.1327836299862607e-05 -1.6062956314358794e-05 0.0 -0.02695893277351188 0.0 0.0
1.7229725766780557e-05 -1.456664560353085e-05 0.0 -0.026959053627093936 0.0 0.0
8.588038989487332e-06 -4.8666651376712495e-06 0.0 -0.026958836672999854 0.0 0.0
-1.2984376774401239e-05 2.0412034772730953e-05 0.0 -0.026958043523293423 0.0 0.0
-7.315126951516521e-05 8.450714680028937e-05 0.0 -0.026956351596190177 0.0 0.0
-0.00021714153130142594 0.00022337627051669011 0.0 -0.02695779220511248 0.0 0.0
-0.0004890259435059471 0.0004597153034088192 0.0 -0.026997373057342792 0.0 0.0
-0.0008053171488633006 0.0006748390504730096 0.0 -0.02720090450666825 0.0 0.0
-0.0006408336488782417 0.0002466537059868784 0.0 -0.027617971209679928 0.0 0.0
0.0011075605475254365 -0.0023600943851967873 0.0 -0.02688460475812181 0.0 0.0
0.004688696976534711 -0.008549263226312042 0.0 -0.019555743529137703 0.0 0.0
0.006830203832639025 -0.01418097467591925 0.0 3.707971429900425e-16 0.0 0.0
0.0046886969765350586 -0.008549263226317659 0.0 0.01955574352913632 0.0 0.0
0.0011075605475256228 -0.0023600943852005235 0.0 0.02688460475812164 0.0 0.0
-0.000640833648878354 0.0002466537059888659 0.0 0.027617971209680063 0.0 0.0
-0.0008053171488633089 0.0006748390504642783 0.0 0.027200904506667706 0.0 0.0
-0.0004890259435059293 0.0004597153034038315 0.0 0.026997373057344065 0.0 0.0
-0.00021714153130127675 0.0002233762705199889 0.0 0.026957792205112012 0.0 0.0
-7.315126951537815e-05 8.450714680008337e-05 0.0 0.026956351596192835 0.0 0.0
-1.2984376774719236e-05 2.0412034774892147e-05 0.0 0.026958043523292945 0.0 0.0
8.58803898934541e-06 -4.866665134519067e-06 0.0 0.026958836672999573 0.0 0.0
1.7229725766839212e-05 -1.4566645602848995e-05 0.0 0.026959053627096635 0.0 0.0
2.132783630005798e-05 -1.606295631156944e-05 0.0 0.026958932773512335 0.0 0.0
1.1041468975667916e-05 2.0516890756512595e-06 0.0 0.026957634017784317 0.0 0.0
-5.269923432791321e-05 7.969036834785348e-05 0.0 0.026952424599653246 0.0 0.0
-0.00026095710497181914 0.00030073639648699256 0.0 0.026941462334930395 0.0 0.0
-0.000772514233128416 0.0007954790944938504 0.0 0.02696380367201165 0.0 0.0
-0.0017102996317795382 0.0016292054525963956 0.0 0.027278284011223508 0.0 0.0
-0.002679132768444658 0.002280634689964128 0.0 0.0285742984800623 0.0 0.0
-0.002022464028142516 0.0005007490574818973 0.0 0.030654818047988384 0.0 0.0
0.0019366445028789606 -0.007706310028834646 0.0 0.026152591328562267 0.0 0.0
0.00485226084029659 -0.019728522178447956 0.0 0.01680477499399557 0.0 0.0
0.003799541553334552 -0.015596266733426158 0.0 -0.015129684576285114 0.0 0.0
0.001144536066754274 -0.006819858940253911 0.0 -0.024628482807435823 0.0 0.0
-0.002953187626304503 0.0006428907921217137 0.0 -0.030436283774810273 0.0 0.0
-0.004571188403997284 0.0029340815226608125 0.0 -0.029110923225805052 0.0 0.0
-0.004641690096426666 0.002844547072307008 0.0 -0.02765788854843183 0.0 0.0
-0.004591452881491266 0.002425055689986789 0.0 -0.027012562966926272 0.0 0.0
-0.004880226815628436 0.0022783500983634387 0.0 -0.0267841871543093 0.0 0.0
-0.0054484663015217415 0.0023913195438267252 0.0 -0.026706180784847725 0.0 0.0
-0.006156951028024355 0.002645345525724603 0.0 -0.026682433463709444 0.0 0.0
-0.006917857654335582 0.0029579832130287526 0.0 -0.026678779391473614 0.0 0.0
-0.007692769296700765 0.0032898420480139603 0.0 -0.026680747525976902 0.0 0.0
-0.008471971659413343 0.0036296463176970425 0.0 -0.02668120485467853 0.0 0.0
-0.009263449665979369 0.003984488425517484 0.0 -0.02667362738767745 0.0 0.0
-0.010091800516123817 0.004376934896909147 0.0 -0.026647868626750483 0.0 0.0
-0.011001884920102144 0.004842157030231546 0.0 -0.026591882694955292 0.0 0.0
-0.012048610977893498 0.0054097213069857234 0.0 -0.02652293675829812 0.0 0.0
-0.013182213205961055 0.005995670640177443 0.0 -0.02661124594517683 0.0 0.0
-0.013858146951997774 0.0059943867351384215 0.0 -0.027211214287477296 0.0 0.0
-0.012659140613471209 0.003580234235843207 0.0 -0.027484867052276915 0.0 0.0
-0.008852895005050902 -0.003543980252142075 0.0 -0.02126749020625164 0.0 0.0
-0.006352223586279661 -0.011001131911308908 0.0 3.2742905609062234e-16 0.0 0.0
-0.008852895005051037 -0.003543980252142194 0.0 0.021267490206250912 0.0 0.0
-0.012659140613471058 0.0035802342358408276 0.0 0.027484867052277456 0.0 0.0
-0.013858146951997476 0.0059943867351326865 0.0 0.027211214287476575 0.0 0.0
-0.013182213205960809 0.005995670640172892 0.0 0.02661124594517563 0.0 0.0
-0.012048610977893958 0.00540972130698991 0.0 0.02652293675829981 0.0 0.0
-0.011001884920102227 0.0048421570302329365 0.0 0.026591882694955084 0.0 0.0
-0.010091800516123567 0.0043769348969103965 0.0 0.02664786862675162 0.0 0.0
-0.009263449665979327 0.003984488425520213 0.0 0.02667362738767702 0.0 0.0
-0.008471971659413156 0.0036296463176927743 0.0 0.026681204854677777 0.0 0.0
-0.007692769296700756 0.0032898420480165108 0.0 0.026680747525978758 0.0 0.0
-0.0069178576543355835 0.002957983213026912 0.0 0.02667877939147433 0.0 0.0
-0.006156951028024528 0.00264534552572411 0.0 0.026682433463708292 0.0 0.0
-0.005448466301521883 0.0023913195438276355 0.0 0.026706180784848127 0.0 0.0
-0.00488022681562825 0.0022783500983635276 0.0 0.026784187154309365 0.0 0.0
-0.0045914528814912335 0.0024250556899872437 0.0 0.027012562966927344 0.0 0.0
-0.0046416900964267645 0.0028445470723066166 0.0 0.02765788854843273 0.0 0.0
-0.004571188403997251 0.0029340815226612423 0.0 0.02911092322580649 0.0 0.0
-0.0029531876263043967 0.0006428907921219915 0.0 0.030436283774811217 0.0 0.0
0.0011445360667545197 -0.006819858940254476 0.0 0.02462848280743514 0.0 0.0
0.003799541553334891 -0.015596266733426161 0.0 0.015129684576285734 0.0 0.0
0.0027890890394361868 -0.011941892730080866 0.0 -0.013482093561792391 0.0 0.0
0.0003383201438515509 -0.00579301551176326 0.0 -0.02281363778057352 0.0 0.0
-0.0038956567211578174 0.0009068208792157059 0.0 -0.029481045063953763 0.0 0.0
-0.006385754924111167 0.0035519420709728177 0.0 -0.028876827270007892 0.0 0.0
-0.007480731821411428 0.0039890476604402285 0.0 -0.027384885339136533 0.0 0.0
-0.008355570158750927 0.0040115335702057995 0.0 -0.02647886273665267 0.0 0.0
-0.009478405283729983 0.00423905773915813 0.0 -0.02606705561930168 0.0 0.0
-0.01083920323949164 0.0046983553843339045 0.0 -0.02590661608384106 0.0 0.0
-0.012325166389148169 0.005288336434030794 0.0 -0.0258561744454749 0.0 0.0
-0.0138583330667566 0.005932796383042313 0.0 -0.025848170256288355 0.0 0.0
-0.015403884788584222 0.006594980989010174 0.0 -0.025852008077229132 0.0 0.0
-0.016953001337211775 0.0072643785721740895 0.0 -0.025853270361782567 0.0 0.0
-0.018512748136183886 0.007947416592283183 0.0 -0.02583976364929631 0.0 0.0
-0.020105031697177908 0.008664958707612731 0.0 -0.025792176021154536 0.0 0.0
-0.02177051522902074 0.009449322541968619 0.0 -0.025683568641510543 0.0 0.0
-0.023570454569772907 0.010332534362603833 0.0 -0.02550819924630749 0.0 0.0
-0.025505807418066323 0.01127609815770801 0.0 -0.025445936164735138 0.0 0.0
-0.027075544299351342 0.011760762709401401 0.0 -0.026155671328015315 0.0 0.0
-0.02655132719364386 0.009727074084701724 0.0 -0.02760236986150887 0.0 0.0
-0.02249579367261642 0.001656249190364267 0.0 -0.023118907230512097 0.0 0.0
-0.019541336720321906 -0.00831338095857992 0.0 -1.5170156797417178e-15 0.0 0.0
-0.02249579367261648 0.0016562491903682928 0.0 0.023118907230511885 0.0 0.0
-0.026551327193643885 0.009727074084702211 0.0 0.02760236986150901 0.0 0.0
-0.02707554429935117 0.011760762709399844 0.0 0.026155671328015054 0.0 0.0
-0.02550580741806603 0.011276098157710837 0.0 0.025445936164737372 0.0 0.0
-0.023570454569773146 0.010332534362606944 0.0 0.025508199246306734 0.0 0.0
-0.02177051522902114 0.009449322541971365 0.0 0.025683568641509984 0.0 0.0
-0.020105031697178158 0.008664958707614327 0.0 0.025792176021155643 0.0 0.0
-0.018512748136184018 0.007947416592280232 0.0 0.025839763649295803 0.0 0.0
-0.016953001337211844 0.00726437857217474 0.0 0.02585327036178193 0.0 0.0
-0.015403884788584198 0.006594980989010256 0.0 0.025852008077229087 0.0 0.0
-0.01385833306675701 0.005932796383040655 0.0 0.02584817025628622 0.0 0.0
-0.01232516638914815 0.005288336434029837 0.0 0.02585617444547502 0.0 0.0
-0.010839203239491309 0.00469835538433331 0.0 0.025906616083841313 0.0 0.0
-0.009478405283729983 0.004239057739157949 0.0 0.026067055619301914 0.0 0.0
-0.008355570158750898 0.004011533570205192 0.0 0.026478862736652627 0.0 0.0
-0.00748073182141141 0.003989047660439826 0.0 0.027384885339135842 0.0 0.0
-0.006385754924111391 0.0035519420709725818 0.0 0.028876827270007822 0.0 0.0
-0.003895656721158128 0.0009068208792162539 0.0 0.02948104506395343 0.0 0.0
0.00033832014385139605 -0.005793015511763368 0.0 0.02281363778057405 0.0 0.0
0.0027890890394360736 -0.011941892730080995 0.0 0.013482093561791971 0.0 0.0
0.001835238282916687 -0.008745123704843042 0.0 -0.011820662827218551 0.0 0.0
-0.00046869222260062006 -0.004692408567110669 0.0 -0.02072296318787791 0.0 0.0
-0.004855582836536763 0.0012807202021883452 0.0 -0.027856529127010327 0.0 0.0
-0.008148349417494613 0.004156258495453511 0.0 -0.027881517615434503 0.0 0.0
-0.01024794884019018 0.005079625200779504 0.0 -0.02642879166261459 0.0 0.0
-0.012074023841125705 0.005561520321628779 0.0 -0.025337168592991757 0.0 0.0
-0.014058511332337428 0.006184911666992522 0.0 -0.02477887759639459 0.0 0.0
-0.016225868683901946 0.007001520050501624 0.0 -0.024550466943680013 0.0 0.0
-0.01849387355454946 0.007931234856968434 0.0 -0.024478403537604942 0.0 0.0
-0.02080010125707429 0.008908372117860063 0.0 -0.024467334145305723 0.0 0.0
-0.023116072845186367 0.00990080901947366 0.0 -0.02447307521973392 0.0 0.0
-0.025434569974516628 0.01089937733663043 0.0 -0.024475306045573873 0.0 0.0
-0.027761219495491957 0.01190947112286006 0.0 -0.024457404839731082 0.0 0.0
-0.030113846335019408 0.01294921754607423 0.0 -0.02439217989701447 0.0 0.0
-0.03252539709876727 0.014046804675714782 0.0 -0.02423980171166823 0.0 0.0
-0.03505457882247519 0.015230100852145996 0.0 -0.023972011966628754 0.0 0.0
-0.037761548339548257 0.016504101856373805 0.0 -0.023733486052706435 0.0 0.0
-0.040273549398185546 0.01751844665346762 0.0 -0.024415840535543774 0.0 0.0
-0.04060524449498427 0.01612124118997764 0.0 -0.02709494237140256 0.0 0.0
-0.03631686035673456 0.00720260937824433 0.0 -0.025122830201647846 0.0 0.0
-0.03280532122598954 -0.006253788806739217 0.0 -6.019490461639521e-16 0.0 0.0
-0.03631686035673438 0.0072026093782456245 0.0 0.02512283020164753 0.0 0.0
-0.0406052444949843 0.01612124118997962 0.0 0.027094942371403072 0.0 0.0
-0.04027354939818523 0.01751844665346721 0.0 0.02441584053554374 0.0 0.0
-0.03776154833954799 0.01650410185637861 0.0 0.02373348605270584 0.0 0.0
-0.035054578822475424 0.015230100852145469 0.0 0.02397201196662791 0.0 0.0
-0.032525397098767415 0.014046804675717513 0.0 0.024239801711669708 0.0 0.0
-0.030113846335019526 0.012949217546074393 0.0 0.02439217989701336 0.0 0.0
-0.027761219495492068 0.011909471122858603 0.0 0.02445740483973076 0.0 0.0
-0.02543456997451623 0.010899377336632475 0.0 0.024475306045574276 0.0 0.0
-0.02311607284518645 0.00990080901947372 0.0 0.024473075219733128 0.0 0.0
-0.020800101257074512 0.008908372117860063 0.0 0.02446733414530621 0.0 0.0
-0.018493873554549307 0.007931234856968587 0.0 0.024478403537606056 0.0 0.0
-0.016225868683901887 0.0070015200505003615 0.0 0.024550466943678875 0.0 0.0
-0.014058511332337546 0.006184911666990747 0.0 0.02477887759639402 0.0 0.0
-0.012074023841125959 0.005561520321626555 0.0 0.02533716859299154 0.0 0.0
-0.01024794884019008 0.005079625200779648 0.0 0.026428791662613898 0.0 0.0
-0.008148349417494427 0.004156258495452335 0.0 0.027881517615433636 0.0 0.0
-0.004855582836536742 0.0012807202021883942 0.0 0.027856529127010064 0.0 0.0
-0.00046869222260045363 -0.004692408567110406 0.0 0.020722963187878148 0.0 0.0
0.0018352382829170822 -0.008745123704843165 0.0 0.011820662827216945 0.0 0.0
0.0009552962772374767 -0.00600443909901267 0.0 -0.010113548878525624 0.0 0.0
-0.0012577711871241764 -0.003570505286161958 0.0 -0.018365726810339142 0.0 0.0
-0.005827472489715166 0.001743414366737305 0.0 -0.025614342017962345 0.0 0.0
-0.009874706140054564 0.0047588598995009146 0.0 -0.02613518749207088 0.0 0.0
-0.012962653276245923 0.006132536203707011 0.0 -0.024767070220526665 0.0 0.0
-0.0157587748110302 0.007084366576971691 0.0 -0.023566923241596576 0.0 0.0
-0.018625727884189442 0.008119708067896254 0.0 -0.022910323728374836 0.0 0.0
-0.02161025335164435 0.009302122649948561 0.0 -0.022635183085958244 0.0 0.0
-0.024663526762278593 0.010574374683625373 0.0 -0.022548952183499504 0.0 0.0
-0.027743154699180102 0.011884693497981552 0.0 -0.02253656387076355 0.0 0.0
-0.030829247852719913 0.013207253571053899 0.0 -0.022544163048696643 0.0 0.0
-0.03391676552463128 0.014534686363913068 0.0 -0.022547481520820936 0.0 0.0
-0.03700940631208639 0.01587110560891323 0.0 -0.022527158561594842 0.0 0.0
-0.040119634735977856 0.017230683904574932 0.0 -0.022450431288556373 0.0 0.0
-0.043270384265384626 0.01863710056378981 0.0 -0.022266106456101924 0.0 0.0
-0.046505504261981766 0.020108545923227663 0.0 -0.0219311179755569 0.0 0.0
-0.049934197966657184 0.02167085715753573 0.0 -0.021519841649357403 0.0 0.0
-0.053411417386108904 0.023217072641133107 0.0 -0.02198120912853805 0.0 0.0
-0.05484217893600324 0.02277781281560395 0.0 -0.025753036523192677 0.0 0.0
-0.050409297586925916 0.013313474223245695 0.0 -0.02723820118827946 0.0 0.0
-0.04624026415599467 -0.005012198469713218 0.0 -4.848552115355176e-16 0.0 0.0
-0.0504092975869258 0.013313474223245452 0.0 0.02723820118827957 0.0 0.0
-0.054842178936003266 0.022777812815605734 0.0 0.025753036523193766 0.0 0.0
-0.05341141738610893 0.023217072641133388 0.0 0.02198120912853828 0.0 0.0
-0.04993419796665715 0.02167085715753623 0.0 0.021519841649358017 0.0 0.0
-0.04650550426198183 0.020108545923226268 0.0 0.021931117975555726 0.0 0.0
-0.04327038426538489 0.018637100563791108 0.0 0.022266106456101706 0.0 0.0
-0.04011963473597782 0.017230683904575054 0.0 0.022450431288555932 0.0 0.0
-0.03700940631208626 0.015871105608918298 0.0 0.022527158561592778 0.0 0.0
-0.03391676552463141 0.014534686363910917 0.0 0.022547481520820523 0.0 0.0
-0.030829247852719975 0.013207253571058954 0.0 0.02254416304869612 0.0 0.0
-0.027743154699180206 0.011884693497984019 0.0 0.022536563870764224 0.0 0.0
-0.024663526762278554 0.010574374683623825 0.0 0.022548952183500327 0.0 0.0
-0.021610253351644085 0.009302122649949727 0.0 0.022635183085958358 0.0 0.0
-0.018625727884189328 0.008119708067895094 0.0 0.022910323728375693 0.0 0.0
-0.015758774811030163 0.007084366576970853 0.0 0.023566923241597256 0.0 0.0
-0.012962653276245795 0.006132536203707997 0.0 0.024767070220527286 0.0 0.0
-0.009874706140054305 0.004758859899500582 0.0 0.02613518749207076 0.0 0.0
-0.00582747248971501 0.0017434143667361727 0.0 0.02561434201796257 0.0 0.0
-0.0012577711871241213 -0.003570505286162165 0.0 0.018365726810340023 0.0 0.0
0.000955296277237705 -0.006004439099012537 0.0 0.010113548878524066 0.0 0.0
0.00017056645203562365 -0.0037330432664110565 0.0 -0.008344950482323164 0.0 0.0
-0.0020038332204683944 -0.0024703571334454676 0.0 -0.015752417849709176 0.0 0.0
-0.006795362163065916 0.0022658319427470304 0.0 -0.022789112455594035 0.0 0.0
-0.01157251958556339 0.005363647687803581 0.0 -0.0236408107989259 0.0 0.0
-0.015643281496400218 0.007163571213461596 0.0 -0.022381810603273926 0.0 0.0
-0.01942403672659977 0.00859154257677728 0.0 -0.021153207487425277 0.0 0.0
-0.023186987268575293 0.010048651740259896 0.0 -0.020454949710765648 0.0 0.0
-0.026994826744675272 0.01160195683297168 0.0 -0.020159374050788922 0.0 0.0
-0.03083470591994692 0.013218164342659112 0.0 -0.020068063370332314 0.0 0.0
-0.03468744874013698 0.014861706992604865 0.0 -0.020056242468660935 0.0 0.0
-0.03854327377611742 0.01651420946886621 0.0 -0.020065431824824263 0.0 0.0
-0.04239965546174388 0.018170322408783416 0.0 -0.020069860795381908 0.0 0.0
-0.04625804231768743 0.019832870848708602 0.0 -0.02004913469726652 0.0 0.0
-0.050124118073027996 0.02151085387563783 0.0 -0.01996871408770455 0.0 0.0
-0.05401007286963194 0.023222461270643646 0.0 -0.019767357436622706 0.0 0.0
-0.057933854990517994 0.024977881238204755 0.0 -0.019395033200197268 0.0 0.0
-0.06201402837551294 0.026779548852675836 0.0 -0.018865502170918858 0.0 0.0
-0.06642038069635485 0.02878045314344873 0.0 -0.018906232416145093 0.0 0.0
-0.06925027683266398 0.029652865155297067 0.0 -0.0232937514773203 0.0 0.0
-0.06488789887269802 0.02030631763083168 0.0 -0.029298532573023506 0.0 0.0
-0.05999565063640441 -0.004839525317145295 0.0 -6.505213034913027e-17 0.0 0.0
-0.06488789887269795 0.020306317630833827 0.0 0.02929853257302445 0.0 0.0
-0.06925027683266391 0.029652865155293813 0.0 0.023293751477320244 0.0 0.0
-0.06642038069635502 0.028780453143451276 0.0 0.018906232416145394 0.0 0.0
-0.0620140283755132 0.0267795488526686 0.0 0.018865502170918848 0.0 0.0
-0.057933854990517994 0.024977881238200227 0.0 0.019395033200195005 0.0 0.0
-0.054010072869631914 0.023222461270647834 0.0 0.019767357436622984 0.0 0.0
-0.050124118073027975 0.021510853875637326 0.0 0.019968714087706937 0.0 0.0
-0.04625804231768736 0.019832870848709695 0.0 0.020049134697264274 0.0 0.0
-0.04239965546174368 0.018170322408787593 0.0 0.020069860795381762 0.0 0.0
-0.03854327377611751 0.016514209468868737 0.0 0.02006543182482586 0.0 0.0
-0.03468744874013748 0.014861706992606964 0.0 0.020056242468659415 0.0 0.0
-0.030834705919947053 0.013218164342659607 0.0 0.020068063370332234 0.0 0.0
-0.026994826744675002 0.01160195683297058 0.0 0.02015937405078869 0.0 0.0
-0.023186987268575238 0.010048651740260263 0.0 0.020454949710767212 0.0 0.0
-0.01942403672659976 0.008591542576777252 0.0 0.02115320748742521 0.0 0.0
-0.01564328149640032 0.0071635712134602795 0.0 0.022381810603272462 0.0 0.0
-0.011572519585563238 0.00536364768780381 0.0 0.023640810798926975 0.0 0.0
-0.006795362163065882 0.0022658319427467564 0.0 0.022789112455593494 0.0 0.0
-0.0020038332204687054 -0.0024703571334454438 0.0 0.015752417849710453 0.0 0.0
0.00017056645203547161 -0.003733043266410981 0.0 0.008344950482324292 0.0 0.0
-0.0004910782183298558 -0.001954378828344191 0.0 -0.006525280888129344 0.0 0.0
-0.0026722800339665986 -0.0014313738709681432 0.0 -0.012901058573987163 0.0 0.0
-0.007731827161888766 0.0028102151607541505 0.0 -0.019394166830844654 0.0 0.0
-0.013243525102254574 0.005969494487442767 0.0 -0.020387143069616573 0.0 0.0
-0.018308639285516216 0.00818918226997751 0.0 -0.019257797413764162 0.0 0.0
-0.023086008343956684 0.01009616900515227 0.0 -0.018087324003892104 0.0 0.0
-0.027750485959788886 0.011977923490869614 0.0 -0.01740997821771117 0.0 0.0
-0.03238250131682626 0.013903126700441578 0.0 -0.01712319698851562 0.0 0.0
-0.03700802570645187 0.015863015462472138 0.0 -0.017036482041865232 0.0 0.0
-0.04163286440081301 0.017839296858171486 0.0 -0.017026854128413833 0.0 0.0
-0.04625795834536999 0.019821519853273337 0.0 -0.01703697141330848 0.0 0.0
-0.050883248317332284 0.021806308923904488 0.0 -0.017042330298562187 0.0 0.0
-0.05550794328052343 0.023795173198807314 0.0 -0.0170231371414066 0.0 0.0
-0.06012956077150704 0.02579203643366626 0.0 -0.016946850490530456 0.0 0.0
-0.064748610164897 0.027804816767759692 0.0 -0.016749518318444193 0.0 0.0
-0.06935608559620896 0.029847635646073768 0.0 -0.01636415119583425 0.0 0.0
-0.07400900611852698 0.0318590307297861 0.0 -0.015821651904107722 0.0 0.0
-0.07920073089880529 0.03411740538172235 0.0 -0.015373739682077676 0.0 0.0
-0.08374829786709455 0.036577712578445845 0.0 -0.01939971242156542 0.0 0.0
-0.0798920741258739 0.028637186912611266 0.0 -0.030845612774752396 0.0 0.0
-0.07432509181664403 -0.00603538587667575 0.0 7.320533068622126e-16 0.0 0.0
-0.07989207412587417 0.028637186912612515 0.0 0.03084561277475195 0.0 0.0
-0.08374829786709455 0.036577712578443874 0.0 0.01939971242156634 0.0 0.0
-0.07920073089880485 0.03411740538172155 0.0 0.015373739682078391 0.0 0.0
-0.07400900611852702 0.031859030729780746 0.0 0.015821651904108704 0.0 0.0
-0.06935608559620923 0.029847635646075184 0.0 0.01636415119583436 0.0 0.0
-0.06474861016489704 0.027804816767759755 0.0 0.016749518318444474 0.0 0.0
-0.06012956077150697 0.025792036433666465 0.0 0.016946850490530553 0.0 0.0
-0.055507943280523206 0.02379517319880404 0.0 0.017023137141407137 0.0 0.0
-0.05088324831733228 0.02180630892390584 0.0 0.01704233029856282 0.0 0.0
-0.04625795834537044 0.019821519853273798 0.0 0.017036971413307334 0.0 0.0
-0.041632864400813256 0.017839296858170883 0.0 0.017026854128413677 0.0 0.0
-0.03700802570645149 0.015863015462471992 0.0 0.01703648204186492 0.0 0.0
-0.03238250131682596 0.01390312670043992 0.0 0.017123196988516012 0.0 0.0
-0.027750485959789066 0.011977923490870852 0.0 0.017409978217711404 0.0 0.0
-0.023086008343957045 0.010096169005150184 0.0 0.018087324003892465 0.0 0.0
-0.01830863928551621 0.0081891822699764 0.0 0.01925779741376447 0.0 0.0
-0.013243525102254416 0.00596949448744293 0.0 0.02038714306961599 0.0 0.0
-0.007731827161888657 0.002810215160754984 0.0 0.019394166830844262 0.0 0.0
-0.0026722800339663883 -0.0014313738709684205 0.0 0.01290105857398646 0.0 0.0
-0.0004910782183295706 -0.0019543788283441403 0.0 0.006525280888129888 0.0 0.0
-0.0009900931237689613 -0.0006961679378576808 0.0 -0.00470979396839 0.0 0.0
-0.0032127869538627453 -0.0004979511906088456 0.0 -0.009843254064195867 0.0 0.0
-0.008595476446916923 0.0033276863350010684 0.0 -0.015410389098041773 0.0 0.0
-0.014886533477953205 0.006574551567524774 0.0 -0.016342700457332087 0.0 0.0
-0.020979934277302922 0.009228187711217459 0.0 -0.015382744134470012 0.0 0.0
-0.026762688896549685 0.01161252547512534 0.0 -0.014367383316668174 0.0 0.0
-0.03232514349460396 0.013914212944026474 0.0 -0.013776890095073793 0.0 0.0
-0.037776337141670974 0.01620781165158739 0.0 -0.013528635155660551 0.0 0.0
-0.043184015656855805 0.018509244812051438 0.0 -0.01345550264121509 0.0 0.0
-0.04857916992829587 0.02081727573338188 0.0 -0.013448940877373135 0.0 0.0
-0.05397302785292371 0.02312892193114172 0.0 -0.01345888030946601 0.0 0.0
-0.059367528255939134 0.025442742754429724 0.0 -0.013464333494033259 0.0 0.0
-0.06475969081107193 0.027758169003430623 0.0 -0.013449138232908062 0.0 0.0
-0.0701391541251506 0.03007658273086844 0.0 -0.01338213394888335 0.0 0.0
-0.0754893707175779 0.032389196723234814 0.0 -0.013216371295064394 0.0 0.0
-0.08078870229057991 0.03471594218068642 0.0 -0.012846568155071129 0.0 0.0
-0.08596364703983132 0.03697360734193536 0.0 -0.012368028291433969 0.0 0.0
-0.09163613419181332 0.03917704506090274 0.0 -0.011750554662272612 0.0 0.0
-0.09811367275513459 0.043131080943835734 0.0 -0.01393206136600414 0.0 0.0
-0.09557690188360742 0.038930799287144754 0.0 -0.03072221272315557 0.0 0.0
-0.08969382306263876 -0.008866092166560199 0.0 -6.314393452555578e-16 0.0 0.0
-0.09557690188360739 0.03893079928714445 0.0 0.030722212723154785 0.0 0.0
-0.09811367275513475 0.043131080943836816 0.0 0.013932061366005659 0.0 0.0
-0.09163613419181323 0.0391770450608998 0.0 0.01175055466227497 0.0 0.0
-0.0859636470398313 0.03697360734192908 0.0 0.01236802829143338 0.0 0.0
-0.0807887022905803 0.03471594218068486 0.0 0.012846568155070442 0.0 0.0
-0.07548937071757797 0.03238919672323509 0.0 0.01321637129506439 0.0 0.0
-0.07013915412515055 0.030076582730871798 0.0 0.013382133948883858 0.0 0.0
-0.06475969081107186 0.02775816900342957 0.0 0.013449138232908404 0.0 0.0
-0.059367528255939245 0.025442742754427546 0.0 0.013464333494033448 0.0 0.0
-0.05397302785292372 0.023128921931140366 0.0 0.013458880309465786 0.0 0.0
-0.04857916992829587 0.02081727573338111 0.0 0.013448940877374128 0.0 0.0
-0.04318401565685602 0.018509244812050928 0.0 0.01345550264121479 0.0 0.0
-0.03777633714167081 0.01620781165158787 0.0 0.01352863515566127 0.0 0.0
-0.03232514349460361 0.013914212944026835 0.0 0.013776890095073237 0.0 0.0
-0.026762688896549536 0.0116125254751255 0.0 0.01436738331666701 0.0 0.0
-0.020979934277303224 0.009228187711216926 0.0 0.01538274413447071 0.0 0.0
-0.014886533477953618 0.00657455156752388 0.0 0.01634270045733306 0.0 0.0
-0.008595476446916968 0.0033276863350017137 0.0 0.015410389098041613 0.0 0.0
-0.003212786953862884 -0.0004979511906091746 0.0 0.009843254064195943 0.0 0.0
-0.0009900931237690695 -0.0006961679378575645 0.0 0.004709793968388664 0.0 0.0
-0.0012652720874004532 1.875116463836964e-05 0.0 -0.003034537472907409 0.0 0.0
-0.0035480758226332353 0.0002653258456591733 0.0 -0.006629142017675334 0.0 0.0
-0.00932734351505006 0.0037553565398738926 0.0 -0.010761466400522859 0.0 0.0
-0.016502621171598054 0.007183513939855168 0.0 -0.011453788136488133 0.0 0.0
-0.02368330771947578 0.010303211572423159 0.0 -0.010749862198071466 0.0 0.0
-0.03047351128876031 0.01315544544760008 0.0 -0.009998722790242436 0.0 0.0
-0.03692003727621562 0.015864272164597196 0.0 -0.00956198976587313 0.0 0.0
-0.043179199782554606 0.018517955186142153 0.0 -0.009379585095693617 0.0 0.0
-0.049362972252784985 0.021156986726666296 0.0 -0.009326942792607892 0.0 0.0
-0.055526004025135925 0.023795324103880345 0.0 -0.009323112688743983 0.0 0.0
-0.06168805922017591 0.026436167505371717 0.0 -0.009331059103420754 0.0 0.0
-0.06785253958803618 0.029079328977421055 0.0 -0.009335593140480821 0.0 0.0
-0.0740134664285558 0.03172309716321474 0.0 -0.009324777407329819 0.0 0.0
-0.08015610636915087 0.03436298626489986 0.0 -0.009277098609594669 0.0 0.0
-0.08623915048740058 0.03699081904513023 0.0 -0.009147809869031066 0.0 0.0
-0.092233430653657 0.0395651504545486 0.0 -0.008901377308282726 0.0 0.0
-0.09797354033612525 0.04217988652446421 0.0 -0.008368211979350504 0.0 0.0
-0.1036646160907463 0.04413496160388765 0.0 -0.008394085805052628 0.0 0.0
-0.11184102000519949 0.048400096574624886 0.0 -0.007785775886209083 0.0 0.0
-0.11205778684697068 0.05192088235360829 0.0 -0.02599451379969157 0.0 0.0
-0.10702471670911895 -0.013252873180508955 0.0 2.1684043449710089e-16 0.0 0.0
-0.11205778684697071 0.05192088235360734 0.0 0.025994513799692965 0.0 0.0
-0.11184102000519984 0.0484000965746275 0.0 0.007785775886210079 0.0 0.0
-0.10366461609074669 0.04413496160388353 0.0 0.008394085805051452 0.0 0.0
-0.09797354033612535 0.04217988652446553 0.0 0.008368211979346974 0.0 0.0
-0.09223343065365694 0.03956515045454937 0.0 0.008901377308282834 0.0 0.0
-0.08623915048740044 0.03699081904512929 0.0 0.009147809869031404 0.0 0.0
-0.08015610636915083 0.03436298626489979 0.0 0.009277098609594619 0.0 0.0
-0.07401346642855533 0.031723097163214885 0.0 0.009324777407329775 0.0 0.0
-0.06785253958803596 0.029079328977424032 0.0 0.009335593140481276 0.0 0.0
-0.06168805922017616 0.026436167505370034 0.0 0.00933105910341909 0.0 0.0
-0.055526004025135994 0.023795324103879047 0.0 0.00932311268874547 0.0 0.0
-0.049362972252785124 0.021156986726667642 0.0 0.00932694279260745 0.0 0.0
-0.04317919978255474 0.018517955186142895 0.0 0.0093795850956949 0.0 0.0
-0.0369200372762158 0.015864272164597546 0.0 0.00956198976587324 0.0 0.0
-0.030473511288759927 0.01315544544759982 0.0 0.00999872279024013 0.0 0.0
-0.023683307719474928 0.010303211572420406 0.0 0.010749862198069015 0.0 0.0
-0.01650262117159805 0.007183513939855253 0.0 0.01145378813648819 0.0 0.0
-0.009327343515050131 0.0037553565398739065 0.0 0.010761466400523069 0.0 0.0
-0.003548075822632948 0.0002653258456595726 0.0 0.006629142017676147 0.0 0.0
-0.001265272087400306 1.875116463839933e-05 0.0 0.0030345374729072116 0.0 0.0
-0.001213593726324954 0.00018801721763474027 0.0 -0.0017873154626125752 0.0 0.0
-0.0035535057624598273 0.0007439691899922786 0.0 -0.003328453764089304 0.0 0.0
-0.009847521580523454 0.0040164592572041425 0.0 -0.005260016633102612 0.0 0.0
-0.018104580620842463 0.007820364594423312 0.0 -0.005659507052718408 0.0 0.0
-0.02645187072911276 0.011439471930625864 0.0 -0.005358040722208272 0.0 0.0
-0.034238659774267106 0.014740330857482116 0.0 -0.00499564730939301 0.0 0.0
-0.041543859965540275 0.017834215730639577 0.0 -0.004776526936865759 0.0 0.0
-0.048593345958394915 0.02083497661242416 0.0 -0.004681821141419117 0.0 0.0
-0.055544833335244695 0.023806078863938086 0.0 -0.004653048252248189 0.0 0.0
-0.06247279803499994 0.02677300241973519 0.0 -0.004649945719862888 0.0 0.0
-0.06940263112220131 0.029742877232853356 0.0 -0.004653387160996698 0.0 0.0
-0.07633781250379916 0.03271599274385995 0.0 -0.004655286270534529 0.0 0.0
-0.08327069691421243 0.03568959307496029 0.0 -0.004649043549247527 0.0 0.0
-0.09017869796552566 0.03865590626066044 0.0 -0.004624596984372099 0.0 0.0
-0.09701749949505134 0.04159841208241401 0.0 -0.004556917166793291 0.0 0.0
-0.10366947568620549 0.04447599851343045 0.0 -0.004434654568242657 0.0 0.0
-0.11013236214323135 0.04722598630031645 0.0 -0.004209100078785769 0.0 0.0
-0.11551755424374946 0.049943478916772414 0.0 -0.003912849926331988 0.0 0.0
-0.12387454198357822 0.050589589116541496 0.0 -0.006171151621236742 0.0 0.0
-0.12918477938921535 0.06796289654681308 0.0 -0.008807742753738225 0.0 0.0
-0.12831719161520197 -0.017685482314326158 0.0 1.734723475976807e-16 0.0 0.0
-0.12918477938921535 0.0679628965468104 0.0 0.008807742753737293 0.0 0.0
-0.12387454198357878 0.050589589116543404 0.0 0.0061711516212369505 0.0 0.0
-0.11551755424374982 0.049943478916771485 0.0 0.0039128499263322205 0.0 0.0
-0.11013236214323176 0.0472259863003189 0.0 0.004209100078786124 0.0 0.0
-0.10366947568620538 0.0444759985134355 0.0 0.004434654568243159 0.0 0.0
-0.09701749949505056 0.04159841208241132 0.0 0.004556917166792027 0.0 0.0
-0.0901786979655255 0.03865590626065934 0.0 0.0046245969843722486 0.0 0.0
-0.08327069691421221 0.035689593074958614 0.0 0.004649043549248177 0.0 0.0
-0.07633781250379935 0.03271599274386175 0.0 0.004655286270534275 0.0 0.0
-0.0694026311222017 0.029742877232849567 0.0 0.004653387160994475 0.0 0.0
-0.06247279803499981 0.02677300241973772 0.0 0.0046499457198650365 0.0 0.0
-0.05554483333524484 0.023806078863938034 0.0 0.00465304825224845 0.0 0.0
-0.048593345958394964 0.020834976612424276 0.0 0.0046818211414211995 0.0 0.0
-0.04154385996554045 0.017834215730639227 0.0 0.004776526936864435 0.0 0.0
-0.034238659774267405 0.014740330857479753 0.0 0.004995647309392058 0.0 0.0
-0.0264518707291124 0.011439471930623408 0.0 0.005358040722207984 0.0 0.0
-0.018104580620842255 0.007820364594423706 0.0 0.005659507052718468 0.0 0.0
-0.009847521580523372 0.004016459257203414 0.0 0.005260016633102319 0.0 0.0
-0.0035535057624597197 0.0007439691899922356 0.0 0.00332845376408863 0.0 0.0
-0.0012135937263251745 0.00018801721763464177 0.0 0.0017873154626127578 0.0 0.0
-0.0006487370609551829 0.00013784270485282536 0.0 -0.0011977148804953714 0.0 0.0
-0.003018463042268284 0.0008934622720414198 0.0 -0.0014067570349593711 0.0 0.0
-0.010056464695666217 0.004094998146619085 0.0 -0.0017903039472654037 0.0 0.0
-0.019733993467457377 0.008150473115605484 0.0 -0.0019961248820257343 0.0 0.0
-0.02932416585024546 0.012026118710302642 0.0 -0.001980921231522392 0.0 0.0
-0.03807901043650136 0.015545247113825936 0.0 -0.001888741915959633 0.0 0.0
-0.046204047464019314 0.018824852623784902 0.0 -0.0018183007133560601 0.0 0.0
-0.054020054139293026 0.021995344629892957 0.0 -0.0017819584921749104 0.0 0.0
-0.061729027651840615 0.025130918476691792 0.0 -0.0017680389072890204 0.0 0.0
-0.06941879870682016 0.028261691279414435 0.0 -0.001764536095536228 0.0 0.0
-0.07711613138343024 0.03139602362263223 0.0 -0.0017644070366438398 0.0 0.0
-0.08482315875081343 0.034534417346678156 0.0 -0.0017641261916968767 0.0 0.0
-0.09253066665533875 0.037672839899174755 0.0 -0.0017605275270577113 0.0 0.0
-0.10021271878702748 0.040805777196678904 0.0 -0.0017508393859231412 0.0 0.0
-0.10781118075416427 0.04389809250762276 0.0 -0.0017275065152845062 0.0 0.0
-0.11519638512499117 0.04697002928530568 0.0 -0.0016823642450077298 0.0 0.0
-0.12214607317712103 0.049642238961158026 0.0 -0.0017282435157436778 0.0 0.0
-0.128429012749681 0.053253509665792946 0.0 -0.0011758934497172815 0.0 0.0
-0.13217247709710522 0.05062016989880236 0.0 -0.005773810955639627 0.0 0.0
-0.14567710695740202 0.07674151416042194 0.0 -2.599400057284873e-05 0.0 0.0
-0.15838819780569277 -0.019582340626396046 0.0 -1.1102230246251565e-15 0.0 0.0
-0.14567710695740144 0.07674151416041664 0.0 2.5994000570602263e-05 0.0 0.0
-0.13217247709710547 0.0506201698988024 0.0 0.0057738109556427705 0.0 0.0
-0.12842901274968171 0.053253509665796964 0.0 0.0011758934497187422 0.0 0.0
-0.12214607317712169 0.04964223896115143 0.0 0.0017282435157449354 0.0 0.0
-0.11519638512499109 0.046970029285309516 0.0 0.0016823642450110431 0.0 0.0
-0.10781118075416311 0.04389809250762167 0.0 0.001727506515284371 0.0 0.0
-0.10021271878702731 0.04080577719668088 0.0 0.0017508393859249523 0.0 0.0
-0.09253066665533913 0.037672839899171556 0.0 0.001760527527058459 0.0 0.0
-0.08482315875081345 0.034534417346676144 0.0 0.001764126191694814 0.0 0.0
-0.0771161313834302 0.031396023622624836 0.0 0.0017644070366447748 0.0 0.0
-0.06941879870682019 0.028261691279421314 0.0 0.001764536095538033 0.0 0.0
-0.06172902765184096 0.025130918476691567 0.0 0.001768038907287944 0.0 0.0
-0.054020054139293436 0.021995344629891212 0.0 0.0017819584921777432 0.0 0.0
-0.046204047464019495 0.01882485262378498 0.0 0.0018183007133538449 0.0 0.0
-0.038079010436501366 0.015545247113824701 0.0 0.0018887419159585887 0.0 0.0
-0.029324165850245443 0.012026118710302616 0.0 0.0019809212315219055 0.0 0.0
-0.019733993467457484 0.008150473115603848 0.0 0.001996124882028395 0.0 0.0
-0.010056464695666777 0.004094998146618879 0.0 0.0017903039472647068 0.0 0.0
-0.00301846304226841 0.0008934622720403902 0.0 0.0014067570349575562 0.0 0.0
-0.000648737060954734 0.0001378427048528518 0.0 0.001197714880496092 0.0 0.0