# vtk DataFile Version 3.0
Some data
ASCII
DATASET UNSTRUCTURED_GRID
POINTS 861 float
0.0 0.0 0.0
0.4 0.0 0.0
0.8 0.0 0.0
1.2000000000000002 0.0 0.0
1.6 0.0 0.0
2.0 0.0 0.0
2.4000000000000004 0.0 0.0
2.8000000000000003 0.0 0.0
3.2 0.0 0.0
3.6 0.0 0.0
4.0 0.0 0.0
4.4 0.0 0.0
4.800000000000001 0.0 0.0
5.2 0.0 0.0
5.6000000000000005 0.0 0.0
6.0 0.0 0.0
6.4 0.0 0.0
6.800000000000001 0.0 0.0
7.2 0.0 0.0
7.6000000000000005 0.0 0.0
8.0 0.0 0.0
8.4 0.0 0.0
8.8 0.0 0.0
9.200000000000001 0.0 0.0
9.600000000000001 0.0 0.0
10.0 0.0 0.0
10.4 0.0 0.0
10.8 0.0 0.0
11.200000000000001 0.0 0.0
11.600000000000001 0.0 0.0
12.0 0.0 0.0
12.4 0.0 0.0
12.8 0.0 0.0
13.200000000000001 0.0 0.0
13.600000000000001 0.0 0.0
14.0 0.0 0.0
14.4 0.0 0.0
14.8 0.0 0.0
15.200000000000001 0.0 0.0
15.600000000000001 0.0 0.0
16.0 0.0 0.0
0.0 0.1 0.0
0.4 0.1 0.0
0.8 0.1 0.0
1.2000000000000002 0.1 0.0
1.6 0.1 0.0
2.0 0.1 0.0
2.4000000000000004 0.1 0.0
2.8000000000000003 0.1 0.0
3.2 0.1 0.0
3.6 0.1 0.0
4.0 0.1 0.0
4.4 0.1 0.0
4.800000000000001 0.1 0.0
5.2 0.1 0.0
5.6000000000000005 0.1 0.0
6.0 0.1 0.0
6.4 0.1 0.0
6.800000000000001 0.1 0.0
7.2 0.1 0.0
7.6000000000000005 0.1 0.0
8.0 0.1 0.0
8.4 0.1 0.0
8.8 0.1 0.0
9.200000000000001 0.1 0.0
9.600000000000001 0.1 0.0
10.0 0.1 0.0
10.4 0.1 0.0
10.8 0.1 0.0
11.200000000000001 0.1 0.0
11.600000000000001 0.1 0.0
12.0 0.1 0.0
12.4 0.1 0.0
12.8 0.1 0.0
13.200000000000001 0.1 0.0
13.600000000000001 0.1 0.0
14.0 0.1 0.0
14.4 0.1 0.0
14.8 0.1 0.0
15.200000000000001 0.1 0.0
15.600000000000001 0.1 0.0
16.0 0.1 0.0
0.0 0.2 0.0
0.4 0.2 0.0
0.8 0.2 0.0
1.2000000000000002 0.2 0.0
1.6 0.2 0.0
2.0 0.2 0.0
2.4000000000000004 0.2 0.0
2.8000000000000003 0.2 0.0
3.2 0.2 0.0
3.6 0.2 0.0
4.0 0.2 0.0
4.4 0.2 0.0
4.800000000000001 0.2 0.0
5.2 0.2 0.0
5.6000000000000005 0.2 0.0
6.0 0.2 0.0
6.4 0.2 0.0
6.800000000000001 0.2 0.0
7.2 0.2 0.0
7.6000000000000005 0.2 0.0
8.0 0.2 0.0
8.4 0.2 0.0
8.8 0.2 0.0
9.200000000000001 0.2 0.0
9.600000000000001 0.2 0.0
10.0 0.2 0.0
10.4 0.2 0.0
10.8 0.2 0.0
11.200000000000001 0.2 0.0
11.600000000000001 0.2 0.0
12.0 0.2 0.0
12.4 0.2 0.0
12.8 0.2 0.0
13.200000000000001 0.2 0.0
13.600000000000001 0.2 0.0
14.0 0.2 0.0
14.4 0.2 0.0
14.8 0.2 0.0
15.200000000000001 0.2 0.0
15.600000000000001 0.2 0.0
16.0 0.2 0.0
0.0 0.30000000000000004 0.0
0.4 0.30000000000000004 0.0
0.8 0.30000000000000004 0.0
1.2000000000000002 0.30000000000000004 0.0
1.6 0.30000000000000004 0.0
2.0 0.30000000000000004 0.0
2.4000000000000004 0.30000000000000004 0.0
2.8000000000000003 0.30000000000000004 0.0
3.2 0.30000000000000004 0.0
3.6 0.30000000000000004 0.0
4.0 0.30000000000000004 0.0
4.4 0.30000000000000004 0.0
4.800000000000001 0.30000000000000004 0.0
5.2 0.30000000000000004 0.0
5.6000000000000005 0.30000000000000004 0.0
6.0 0.30000000000000004 0.0
6.4 0.30000000000000004 0.0
6.800000000000001 0.30000000000000004 0.0
7.2 0.30000000000000004 0.0
7.6000000000000005 0.30000000000000004 0.0
8.0 0.30000000000000004 0.0
8.4 0.30000000000000004 0.0
8.8 0.30000000000000004 0.0
9.200000000000001 0.30000000000000004 0.0
9.600000000000001 0.30000000000000004 0.0
10.0 0.30000000000000004 0.0
10.4 0.30000000000000004 0.0
10.8 0.30000000000000004 0.0
11.200000000000001 0.30000000000000004 0.0
11.600000000000001 0.30000000000000004 0.0
12.0 0.30000000000000004 0.0
12.4 0.30000000000000004 0.0
12.8 0.30000000000000004 0.0
13.200000000000001 0.30000000000000004 0.0
13.600000000000001 0.30000000000000004 0.0
14.0 0.30000000000000004 0.0
14.4 0.30000000000000004 0.0
14.8 0.30000000000000004 0.0
15.200000000000001 0.30000000000000004 0.0
15.600000000000001 0.30000000000000004 0.0
16.0 0.30000000000000004 0.0
0.0 0.4 0.0
0.4 0.4 0.0
0.8 0.4 0.0
1.2000000000000002 0.4 0.0
1.6 0.4 0.0
2.0 0.4 0.0
2.4000000000000004 0.4 0.0
2.8000000000000003 0.4 0.0
3.2 0.4 0.0
3.6 0.4 0.0
4.0 0.4 0.0
4.4 0.4 0.0
4.800000000000001 0.4 0.0
5.2 0.4 0.0
5.6000000000000005 0.4 0.0
6.0 0.4 0.0
6.4 0.4 0.0
6.800000000000001 0.4 0.0
7.2 0.4 0.0
7.6000000000000005 0.4 0.0
8.0 0.4 0.0
8.4 0.4 0.0
8.8 0.4 0.0
9.200000000000001 0.4 0.0
9.600000000000001 0.4 0.0
10.0 0.4 0.0
10.4 0.4 0.0
10.8 0.4 0.0
11.200000000000001 0.4 0.0
11.600000000000001 0.4 0.0
12.0 0.4 0.0
12.4 0.4 0.0
12.8 0.4 0.0
13.200000000000001 0.4 0.0
13.600000000000001 0.4 0.0
14.0 0.4 0.0
14.4 0.4 0.0
14.8 0.4 0.0
15.200000000000001 0.4 0.0
15.600000000000001 0.4 0.0
16.0 0.4 0.0
0.0 0.5 0.0
0.4 0.5 0.0
0.8 0.5 0.0
1.2000000000000002 0.5 0.0
1.6 0.5 0.0
2.0 0.5 0.0
2.4000000000000004 0.5 0.0
2.8000000000000003 0.5 0.0
3.2 0.5 0.0
3.6 0.5 0.0
4.0 0.5 0.0
4.4 0.5 0.0
4.800000000000001 0.5 0.0
5.2 0.5 0.0
5.6000000000000005 0.5 0.0
6.0 0.5 0.0
6.4 0.5 0.0
6.800000000000001 0.5 0.0
7.2 0.5 0.0
7.6000000000000005 0.5 0.0
8.0 0.5 0.0
8.4 0.5 0.0
8.8 0.5 0.0
9.200000000000001 0.5 0.0
9.600000000000001 0.5 0.0
10.0 0.5 0.0
10.4 0.5 0.0
10.8 0.5 0.0
11.200000000000001 0.5 0.0
11.600000000000001 0.5 0.0
12.0 0.5 0.0
12.4 0.5 0.0
12.8 0.5 0.0
13.200000000000001 0.5 0.0
13.600000000000001 0.5 0.0
14.0 0.5 0.0
14.4 0.5 0.0
14.8 0.5 0.0
15.200000000000001 0.5 0.0
15.600000000000001 0.5 0.0
16.0 0.5 0.0
0.0 0.6000000000000001 0.0
0.4 0.6000000000000001 0.0
0.8 0.6000000000000001 0.0
1.2000000000000002 0.6000000000000001 0.0
1.6 0.6000000000000001 0.0
2.0 0.6000000000000001 0.0
2.4000000000000004 0.6000000000000001 0.0
2.8000000000000003 0.6000000000000001 0.0
3.2 0.6000000000000001 0.0
3.6 0.6000000000000001 0.0
4.0 0.6000000000000001 0.0
4.4 0.6000000000000001 0.0
4.800000000000001 0.6000000000000001 0.0
5.2 0.6000000000000001 0.0
5.6000000000000005 0.6000000000000001 0.0
6.0 0.6000000000000001 0.0
6.4 0.6000000000000001 0.0
6.800000000000001 0.6000000000000001 0.0
7.2 0.6000000000000001 0.0
7.6000000000000005 0.6000000000000001 0.0
8.0 0.6000000000000001 0.0
8.4 0.6000000000000001 0.0
8.8 0.6000000000000001 0.0
9.200000000000001 0.6000000000000001 0.0
9.600000000000001 0.6000000000000001 0.0
10.0 0.6000000000000001 0.0
10.4 0.6000000000000001 0.0
10.8 0.6000000000000001 0.0
11.200000000000001 0.6000000000000001 0.0
11.600000000000001 0.6000000000000001 0.0
12.0 0.6000000000000001 0.0
12.4 0.6000000000000001 0.0
12.8 0.6000000000000001 0.0
13.200000000000001 0.6000000000000001 0.0
13.600000000000001 0.6000000000000001 0.0
14.0 0.6000000000000001 0.0
14.4 0.6000000000000001 0.0
14.8 0.6000000000000001 0.0
15.200000000000001 0.6000000000000001 0.0
15.600000000000001 0.6000000000000001 0.0
16.0 0.6000000000000001 0.0
0.0 0.7000000000000001 0.0
0.4 0.7000000000000001 0.0
0.8 0.7000000000000001 0.0
1.2000000000000002 0.7000000000000001 0.0
1.6 0.7000000000000001 0.0
2.0 0.7000000000000001 0.0
2.4000000000000004 0.7000000000000001 0.0
2.8000000000000003 0.7000000000000001 0.0
3.2 0.7000000000000001 0.0
3.6 0.7000000000000001 0.0
4.0 0.7000000000000001 0.0
4.4 0.7000000000000001 0.0
4.800000000000001 0.7000000000000001 0.0
5.2 0.7000000000000001 0.0
5.6000000000000005 0.7000000000000001 0.0
6.0 0.7000000000000001 0.0
6.4 0.7000000000000001 0.0
6.800000000000001 0.7000000000000001 0.0
7.2 0.7000000000000001 0.0
7.6000000000000005 0.7000000000000001 0.0
8.0 0.7000000000000001 0.0
8.4 0.7000000000000001 0.0
8.8 0.7000000000000001 0.0
9.200000000000001 0.7000000000000001 0.0
9.600000000000001 0.7000000000000001 0.0
10.0 0.7000000000000001 0.0
10.4 0.7000000000000001 0.0
10.8 0.7000000000000001 0.0
11.200000000000001 0.7000000000000001 0.0
11.600000000000001 0.7000000000000001 0.0
12.0 0.7000000000000001 0.0
12.4 0.7000000000000001 0.0
12.8 0.7000000000000001 0.0
13.200000000000001 0.7000000000000001 0.0
13.600000000000001 0.7000000000000001 0.0
14.0 0.7000000000000001 0.0
14.4 0.7000000000000001 0.0
14.8 0.7000000000000001 0.0
15.200000000000001 0.7000000000000001 0.0
15.600000000000001 0.7000000000000001 0.0
16.0 0.7000000000000001 0.0
0.0 0.8 0.0
0.4 0.8 0.0
0.8 0.8 0.0
1.2000000000000002 0.8 0.0
1.6 0.8 0.0
2.0 0.8 0.0
2.4000000000000004 0.8 0.0
2.8000000000000003 0.8 0.0
3.2 0.8 0.0
3.6 0.8 0.0
4.0 0.8 0.0
4.4 0.8 0.0
4.800000000000001 0.8 0.0
5.2 0.8 0.0
5.6000000000000005 0.8 0.0
6.0 0.8 0.0
6.4 0.8 0.0
6.800000000000001 0.8 0.0
7.2 0.8 0.0
7.6000000000000005 0.8 0.0
8.0 0.8 0.0
8.4 0.8 0.0
8.8 0.8 0.0
9.200000000000001 0.8 0.0
9.600000000000001 0.8 0.0
10.0 0.8 0.0
10.4 0.8 0.0
10.8 0.8 0.0
11.200000000000001 0.8 0.0
11.600000000000001 0.8 0.0
12.0 0.8 0.0
12.4 0.8 0.0
12.8 0.8 0.0
13.200000000000001 0.8 0.0
13.600000000000001 0.8 0.0
14.0 0.8 0.0
14.4 0.8 0.0
14.8 0.8 0.0
15.200000000000001 0.8 0.0
15.600000000000001 0.8 0.0
16.0 0.8 0.0
0.0 0.9 0.0
0.4 0.9 0.0
0.8 0.9 0.0
1.2000000000000002 0.9 0.0
1.6 0.9 0.0
2.0 0.9 0.0
2.4000000000000004 0.9 0.0
2.8000000000000003 0.9 0.0
3.2 0.9 0.0
3.6 0.9 0.0
4.0 0.9 0.0
4.4 0.9 0.0
4.800000000000001 0.9 0.0
5.2 0.9 0.0
5.6000000000000005 0.9 0.0
6.0 0.9 0.0
6.4 0.9 0.0
6.800000000000001 0.9 0.0
7.2 0.9 0.0
7.6000000000000005 0.9 0.0
8.0 0.9 0.0
8.4 0.9 0.0
8.8 0.9 0.0
9.200000000000001 0.9 0.0
9.600000000000001 0.9 0.0
10.0 0.9 0.0
10.4 0.9 0.0
10.8 0.9 0.0
11.200000000000001 0.9 0.0
11.600000000000001 0.9 0.0
12.0 0.9 0.0
12.4 0.9 0.0
12.8 0.9 0.0
13.200000000000001 0.9 0.0
13.600000000000001 0.9 0.0
14.0 0.9 0.0
14.4 0.9 0.0
14.8 0.9 0.0
15.200000000000001 0.9 0.0
15.600000000000001 0.9 0.0
16.0 0.9 0.0
0.0 1.0 0.0
0.4 1.0 0.0
0.8 1.0 0.0
1.2000000000000002 1.0 0.0
1.6 1.0 0.0
2.0 1.0 0.0
2.4000000000000004 1.0 0.0
2.8000000000000003 1.0 0.0
3.2 1.0 0.0
3.6 1.0 0.0
4.0 1.0 0.0
4.4 1.0 0.0
4.800000000000001 1.0 0.0
5.2 1.0 0.0
5.6000000000000005 1.0 0.0
6.0 1.0 0.0
6.4 1.0 0.0
6.800000000000001 1.0 0.0
7.2 1.0 0.0
7.6000000000000005 1.0 0.0
8.0 1.0 0.0
8.4 1.0 0.0
8.8 1.0 0.0
9.200000000000001 1.0 0.0
9.600000000000001 1.0 0.0
10.0 1.0 0.0
10.4 1.0 0.0
10.8 1.0 0.0
11.200000000000001 1.0 0.0
11.600000000000001 1.0 0.0
12.0 1.0 0.0
12.4 1.0 0.0
12.8 1.0 0.0
13.200000000000001 1.0 0.0
13.600000000000001 1.0 0.0
14.0 1.0 0.0
14.4 1.0 0.0
14.8 1.0 0.0
15.200000000000001 1.0 0.0
15.600000000000001 1.0 0.0
16.0 1.0 0.0
0.0 1.1 0.0
0.4 1.1 0.0
0.8 1.1 0.0
1.2000000000000002 1.1 0.0
1.6 1.1 0.0
2.0 1.1 0.0
2.4000000000000004 1.1 0.0
2.8000000000000003 1.1 0.0
3.2 1.1 0.0
3.6 1.1 0.0
4.0 1.1 0.0
4.4 1.1 0.0
4.800000000000001 1.1 0.0
5.2 1.1 0.0
5.6000000000000005 1.1 0.0
6.0 1.1 0.0
6.4 1.1 0.0
6.800000000000001 1.1 0.0
7.2 1.1 0.0
7.6000000000000005 1.1 0.0
8.0 1.1 0.0
8.4 1.1 0.0
8.8 1.1 0.0
9.200000000000001 1.1 0.0
9.600000000000001 1.1 0.0
10.0 1.1 0.0
10.4 1.1 0.0
10.8 1.1 0.0
11.200000000000001 1.1 0.0
11.600000000000001 1.1 0.0
12.0 1.1 0.0
12.4 1.1 0.0
12.8 1.1 0.0
13.200000000000001 1.1 0.0
13.600000000000001 1.1 0.0
14.0 1.1 0.0
14.4 1.1 0.0
14.8 1.1 0.0
15.200000000000001 1.1 0.0
15.600000000000001 1.1 0.0
16.0 1.1 0.0
0.0 1.2000000000000002 0.0
0.4 1.2000000000000002 0.0
0.8 1.2000000000000002 0.0
1.2000000000000002 1.2000000000000002 0.0
1.6 1.2000000000000002 0.0
2.0 1.2000000000000002 0.0
2.4000000000000004 1.2000000000000002 0.0
2.8000000000000003 1.2000000000000002 0.0
3.2 1.2000000000000002 0.0
3.6 1.2000000000000002 0.0
4.0 1.2000000000000002 0.0
4.4 1.2000000000000002 0.0
4.800000000000001 1.2000000000000002 0.0
5.2 1.2000000000000002 0.0
5.6000000000000005 1.2000000000000002 0.0
6.0 1.2000000000000002 0.0
6.4 1.2000000000000002 0.0
6.800000000000001 1.2000000000000002 0.0
7.2 1.2000000000000002 0.0
7.6000000000000005 1.2000000000000002 0.0
8.0 1.2000000000000002 0.0
8.4 1.2000000000000002 0.0
8.8 1.2000000000000002 0.0
9.200000000000001 1.2000000000000002 0.0
9.600000000000001 1.2000000000000002 0.0
10.0 1.2000000000000002 0.0
10.4 1.2000000000000002 0.0
10.8 1.2000000000000002 0.0
11.200000000000001 1.2000000000000002 0.0
11.600000000000001 1.2000000000000002 0.0
12.0 1.2000000000000002 0.0
12.4 1.2000000000000002 0.0
12.8 1.2000000000000002 0.0
13.200000000000001 1.2000000000000002 0.0
13.600000000000001 1.2000000000000002 0.0
14.0 1.2000000000000002 0.0
14.4 1.2000000000000002 0.0
14.8 1.2000000000000002 0.0
15.200000000000001 1.2000000000000002 0.0
15.600000000000001 1.2000000000000002 0.0
16.0 1.2000000000000002 0.0
0.0 1.3 0.0
0.4 1.3 0.0
0.8 1.3 0.0
1.2000000000000002 1.3 0.0
1.6 1.3 0.0
2.0 1.3 0.0
2.4000000000000004 1.3 0.0
2.8000000000000003 1.3 0.0
3.2 1.3 0.0
3.6 1.3 0.0
4.0 1.3 0.0
4.4 1.3 0.0
4.800000000000001 1.3 0.0
5.2 1.3 0.0
5.6000000000000005 1.3 0.0
6.0 1.3 0.0
6.4 1.3 0.0
6.800000000000001 1.3 0.0
7.2 1.3 0.0
7.6000000000000005 1.3 0.0
8.0 1.3 0.0
8.4 1.3 0.0
8.8 1.3 0.0
9.200000000000001 1.3 0.0
9.600000000000001 1.3 0.0
10.0 1.3 0.0
10.4 1.3 0.0
10.8 1.3 0.0
11.200000000000001 1.3 0.0
11.600000000000001 1.3 0.0
12.0 1.3 0.0
12.4 1.3 0.0
12.8 1.3 0.0
13.200000000000001 1.3 0.0
13.600000000000001 1.3 0.0
14.0 1.3 0.0
14.4 1.3 0.0
14.8 1.3 0.0
15.200000000000001 1.3 0.0
15.600000000000001 1.3 0.0
16.0 1.3 0.0
0.0 1.4000000000000001 0.0
0.4 1.4000000000000001 0.0
0.8 1.4000000000000001 0.0
1.2000000000000002 1.4000000000000001 0.0
1.6 1.4000000000000001 0.0
2.0 1.4000000000000001 0.0
2.4000000000000004 1.4000000000000001 0.0
2.8000000000000003 1.4000000000000001 0.0
3.2 1.4000000000000001 0.0
3.6 1.4000000000000001 0.0
4.0 1.4000000000000001 0.0
4.4 1.4000000000000001 0.0
4.800000000000001 1.4000000000000001 0.0
5.2 1.4000000000000001 0.0
5.6000000000000005 1.4000000000000001 0.0
6.0 1.4000000000000001 0.0
6.4 1.4000000000000001 0.0
6.800000000000001 1.4000000000000001 0.0
7.2 1.4000000000000001 0.0
7.6000000000000005 1.4000000000000001 0.0
8.0 1.4000000000000001 0.0
8.4 1.4000000000000001 0.0
8.8 1.4000000000000001 0.0
9.200000000000001 1.4000000000000001 0.0
9.600000000000001 1.4000000000000001 0.0
10.0 1.4000000000000001 0.0
10.4 1.4000000000000001 0.0
10.8 1.4000000000000001 0.0
11.200000000000001 1.4000000000000001 0.0
11.600000000000001 1.4000000000000001 0.0
12.0 1.4000000000000001 0.0
12.4 1.4000000000000001 0.0
12.8 1.4000000000000001 0.0
13.200000000000001 1.4000000000000001 0.0
13.600000000000001 1.4000000000000001 0.0
14.0 1.4000000000000001 0.0
14.4 1.4000000000000001 0.0
14.8 1.4000000000000001 0.0
15.200000000000001 1.4000000000000001 0.0
15.600000000000001 1.4000000000000001 0.0
16.0 1.4000000000000001 0.0
0.0 1.5 0.0
0.4 1.5 0.0
0.8 1.5 0.0
1.2000000000000002 1.5 0.0
1.6 1.5 0.0
2.0 1.5 0.0
2.4000000000000004 1.5 0.0
2.8000000000000003 1.5 0.0
3.2 1.5 0.0
3.6 1.5 0.0
4.0 1.5 0.0
4.4 1.5 0.0
4.800000000000001 1.5 0.0
5.2 1.5 0.0
5.6000000000000005 1.5 0.0
6.0 1.5 0.0
6.4 1.5 0.0
6.800000000000001 1.5 0.0
7.2 1.5 0.0
7.6000000000000005 1.5 0.0
8.0 1.5 0.0
8.4 1.5 0.0
8.8 1.5 0.0
9.200000000000001 1.5 0.0
9.600000000000001 1.5 0.0
10.0 1.5 0.0
10.4 1.5 0.0
10.8 1.5 0.0
11.200000000000001 1.5 0.0
11.600000000000001 1.5 0.0
12.0 1.5 0.0
12.4 1.5 0.0
12.8 1.5 0.0
13.200000000000001 1.5 0.0
13.600000000000001 1.5 0.0
14.0 1.5 0.0
14.4 1.5 0.0
14.8 1.5 0.0
15.200000000000001 1.5 0.0
15.600000000000001 1.5 0.0
16.0 1.5 0.0
0.0 1.6 0.0
0.4 1.6 0.0
0.8 1.6 0.0
1.2000000000000002 1.6 0.0
1.6 1.6 0.0
2.0 1.6 0.0
2.4000000000000004 1.6 0.0
2.8000000000000003 1.6 0.0
3.2 1.6 0.0
3.6 1.6 0.0
4.0 1.6 0.0
4.4 1.6 0.0
4.800000000000001 1.6 0.0
5.2 1.6 0.0
5.6000000000000005 1.6 0.0
6.0 1.6 0.0
6.4 1.6 0.0
6.800000000000001 1.6 0.0
7.2 1.6 0.0
7.6000000000000005 1.6 0.0
8.0 1.6 0.0
8.4 1.6 0.0
8.8 1.6 0.0
9.200000000000001 1.6 0.0
9.600000000000001 1.6 0.0
10.0 1.6 0.0
10.4 1.6 0.0
10.8 1.6 0.0
11.200000000000001 1.6 0.0
11.600000000000001 1.6 0.0
12.0 1.6 0.0
12.4 1.6 0.0
12.8 1.6 0.0
13.200000000000001 1.6 0.0
13.600000000000001 1.6 0.0
14.0 1.6 0.0
14.4 1.6 0.0
14.8 1.6 0.0
15.200000000000001 1.6 0.0
15.600000000000001 1.6 0.0
16.0 1.6 0.0
0.0 1.7000000000000002 0.0
0.4 1.7000000000000002 0.0
0.8 1.7000000000000002 0.0
1.2000000000000002 1.7000000000000002 0.0
1.6 1.7000000000000002 0.0
2.0 1.7000000000000002 0.0
2.4000000000000004 1.7000000000000002 0.0
2.8000000000000003 1.7000000000000002 0.0
3.2 1.7000000000000002 0.0
3.6 1.7000000000000002 0.0
4.0 1.7000000000000002 0.0
4.4 1.7000000000000002 0.0
4.800000000000001 1.7000000000000002 0.0
5.2 1.7000000000000002 0.0
5.6000000000000005 1.7000000000000002 0.0
6.0 1.7000000000000002 0.0
6.4 1.7000000000000002 0.0
6.800000000000001 1.7000000000000002 0.0
7.2 1.7000000000000002 0.0
7.6000000000000005 1.7000000000000002 0.0
8.0 1.7000000000000002 0.0
8.4 1.7000000000000002 0.0
8.8 1.7000000000000002 0.0
9.200000000000001 1.7000000000000002 0.0
9.600000000000001 1.7000000000000002 0.0
10.0 1.7000000000000002 0.0
10.4 1.7000000000000002 0.0
10.8 1.7000000000000002 0.0
11.200000000000001 1.7000000000000002 0.0
11.600000000000001 1.7000000000000002 0.0
12.0 1.7000000000000002 0.0
12.4 1.7000000000000002 0.0
12.8 1.7000000000000002 0.0
13.200000000000001 1.7000000000000002 0.0
13.600000000000001 1.7000000000000002 0.0
14.0 1.7000000000000002 0.0
14.4 1.7000000000000002 0.0
14.8 1.7000000000000002 0.0
15.200000000000001 1.7000000000000002 0.0
15.600000000000001 1.7000000000000002 0.0
16.0 1.7000000000000002 0.0
0.0 1.8 0.0
0.4 1.8 0.0
0.8 1.8 0.0
1.2000000000000002 1.8 0.0
1.6 1.8 0.0
2.0 1.8 0.0
2.4000000000000004 1.8 0.0
2.8000000000000003 1.8 0.0
3.2 1.8 0.0
3.6 1.8 0.0
4.0 1.8 0.0
4.4 1.8 0.0
4.800000000000001 1.8 0.0
5.2 1.8 0.0
5.6000000000000005 1.8 0.0
6.0 1.8 0.0
6.4 1.8 0.0
6.800000000000001 1.8 0.0
7.2 1.8 0.0
7.6000000000000005 1.8 0.0
8.0 1.8 0.0
8.4 1.8 0.0
8.8 1.8 0.0
9.200000000000001 1.8 0.0
9.600000000000001 1.8 0.0
10.0 1.8 0.0
10.4 1.8 0.0
10.8 1.8 0.0
11.200000000000001 1.8 0.0
11.600000000000001 1.8 0.0
12.0 1.8 0.0
12.4 1.8 0.0
12.8 1.8 0.0
13.200000000000001 1.8 0.0
13.600000000000001 1.8 0.0
14.0 1.8 0.0
14.4 1.8 0.0
14.8 1.8 0.0
15.200000000000001 1.8 0.0
15.600000000000001 1.8 0.0
16.0 1.8 0.0
0.0 1.9000000000000001 0.0
0.4 1.9000000000000001 0.0
0.8 1.9000000000000001 0.0
1.2000000000000002 1.9000000000000001 0.0
1.6 1.9000000000000001 0.0
2.0 1.9000000000000001 0.0
2.4000000000000004 1.9000000000000001 0.0
2.8000000000000003 1.9000000000000001 0.0
3.2 1.9000000000000001 0.0
3.6 1.9000000000000001 0.0
4.0 1.9000000000000001 0.0
4.4 1.9000000000000001 0.0
4.800000000000001 1.9000000000000001 0.0
5.2 1.9000000000000001 0.0
5.6000000000000005 1.9000000000000001 0.0
6.0 1.9000000000000001 0.0
6.4 1.9000000000000001 0.0
6.800000000000001 1.9000000000000001 0.0
7.2 1.9000000000000001 0.0
7.6000000000000005 1.9000000000000001 0.0
8.0 1.9000000000000001 0.0
8.4 1.9000000000000001 0.0
8.8 1.9000000000000001 0.0
9.200000000000001 1.9000000000000001 0.0
9.600000000000001 1.9000000000000001 0.0
10.0 1.9000000000000001 0.0
10.4 1.9000000000000001 0.0
10.8 1.9000000000000001 0.0
11.200000000000001 1.9000000000000001 0.0
11.600000000000001 1.9000000000000001 0.0
12.0 1.9000000000000001 0.0
12.4 1.9000000000000001 0.0
12.8 1.9000000000000001 0.0
13.200000000000001 1.9000000000000001 0.0
13.600000000000001 1.9000000000000001 0.0
14.0 1.9000000000000001 0.0
14.4 1.9000000000000001 0.0
14.8 1.9000000000000001 0.0
15.200000000000001 1.9000000000000001 0.0
15.600000000000001 1.9000000000000001 0.0
16.0 1.9000000000000001 0.0
0.0 2.0 0.0
0.4 2.0 0.0
0.8 2.0 0.0
1.2000000000000002 2.0 0.0
1.6 2.0 0.0
2.0 2.0 0.0
2.4000000000000004 2.0 0.0
2.8000000000000003 2.0 0.0
3.2 2.0 0.0
3.6 2.0 0.0
4.0 2.0 0.0
4.4 2.0 0.0
4.800000000000001 2.0 0.0
5.2 2.0 0.0
5.6000000000000005 2.0 0.0
6.0 2.0 0.0
6.4 2.0 0.0
6.800000000000001 2.0 0.0
7.2 2.0 0.0
7.6000000000000005 2.0 0.0
8.0 2.0 0.0
8.4 2.0 0.0
8.8 2.0 0.0
9.200000000000001 2.0 0.0
9.600000000000001 2.0 0.0
10.0 2.0 0.0
10.4 2.0 0.0
10.8 2.0 0.0
11.200000000000001 2.0 0.0
11.600000000000001 2.0 0.0
12.0 2.0 0.0
12.4 2.0 0.0
12.8 2.0 0.0
13.200000000000001 2.0 0.0
13.600000000000001 2.0 0.0
14.0 2.0 0.0
14.4 2.0 0.0
14.8 2.0 0.0
15.200000000000001 2.0 0.0
15.600000000000001 2.0 0.0
16.0 2.0 0.0
CELLS 800 4000
4 0 1 42 41
4 1 2 43 42
4 2 3 44 43
4 3 4 45 44
4 4 5 46 45
4 5 6 47 46
4 6 7 48 47
4 7 8 49 48
4 8 9 50 49
4 9 10 51 50
4 10 11 52 51
4 11 12 53 52
4 12 13 54 53
4 13 14 55 54
4 14 15 56 55
4 15 16 57 56
4 16 17 58 57
4 17 18 59 58
4 18 19 60 59
4 19 20 61 60
4 20 21 62 61
4 21 22 63 62
4 22 23 64 63
4 23 24 65 64
4 24 25 66 65
4 25 26 67 66
4 26 27 68 67
4 27 28 69 68
4 28 29 70 69
4 29 30 71 70
4 30 31 72 71
4 31 32 73 72
4 32 33 74 73
4 33 34 75 74
4 34 35 76 75
4 35 36 77 76
4 36 37 78 77
4 37 38 79 78
4 38 39 80 79
4 39 40 81 80
4 41 42 83 82
4 42 43 84 83
4 43 44 85 84
4 44 45 86 85
4 45 46 87 86
4 46 47 88 87
4 47 48 89 88
4 48 49 90 89
4 49 50 91 90
4 50 51 92 91
4 51 52 93 92
4 52 53 94 93
4 53 54 95 94
4 54 55 96 95
4 55 56 97 96
4 56 57 98 97
4 57 58 99 98
4 58 59 100 99
4 59 60 101 100
4 60 61 102 101
4 61 62 103 102
4 62 63 104 103
4 63 64 105 104
4 64 65 106 105
4 65 66 107 106
4 66 67 108 107
4 67 68 109 108
4 68 69 110 109
4 69 70 111 110
4 70 71 112 111
4 71 72 113 112
4 72 73 114 113
4 73 74 115 114
4 74 75 116 115
4 75 76 117 116
4 76 77 118 117
4 77 78 119 118
4 78 79 120 119
4 79 80 121 120
4 80 81 122 121
4 82 83 124 123
4 83 84 125 124
4 84 85 126 125
4 85 86 127 126
4 86 87 128 127
4 87 88 129 128
4 88 89 130 129
4 89 90 131 130
4 90 91 132 131
4 91 92 133 132
4 92 93 134 133
4 93 94 135 134
4 94 95 136 135
4 95 96 137 136
4 96 97 138 137
4 97 98 139 138
4 98 99 140 139
4 99 100 141 140
4 100 101 142 141
4 101 102 143 142
4 102 103 144 143
4 103 104 145 144
4 104 105 146 145
4 105 106 147 146
4 106 107 148 147
4 107 108 149 148
4 108 109 150 149
4 109 110 151 150
4 110 111 152 151
4 111 112 153 152
4 112 113 154 153
4 113 114 155 154
4 114 115 156 155
4 115 116 157 156
4 116 117 158 157
4 117 118 159 158
4 118 119 160 159
4 119 120 161 160
4 120 121 162 161
4 121 122 163 162
4 123 124 165 164
4 124 125 166 165
4 125 126 167 166
4 126 127 168 167
4 127 128 169 168
4 128 129 170 169
4 129 130 171 170
4 130 131 172 171
4 131 132 173 172
4 132 133 174 173
4 133 134 175 174
4 134 135 176 175
4 135 136 177 176
4 136 137 178 177
4 137 138 179 178
4 138 139 180 179
4 139 140 181 180
4 140 141 182 181
4 141 142 183 182
4 142 143 184 183
4 143 144 185 184
4 144 145 186 185
4 145 146 187 186
4 146 147 188 187
4 147 148 189 188
4 148 149 190 189
4 149 150 191 190
4 150 151 192 191
4 151 152 193 192
4 152 153 194 193
4 153 154 195 194
4 154 155 196 195
4 155 156 197 196
4 156 157 198 197
4 157 158 199 198
4 158 159 200 199
4 159 160 201 200
4 160 161 202 201
4 161 162 203 202
4 162 163 204 203
4 164 165 206 205
4 165 166 207 206
4 166 167 208 207
4 167 168 209 208
4 168 169 210 209
4 169 170 211 210
4 170 171 212 211
4 171 172 213 212
4 172 173 214 213
4 173 174 215 214
4 174 175 216 215
4 175 176 217 216
4 176 177 218 217
4 177 178 219 218
4 178 179 220 219
4 179 180 221 220
4 180 181 222 221
4 181 182 223 222
4 182 183 224 223
4 183 184 225 224
4 184 185 226 225
4 185 186 227 226
4 186 187 228 227
4 187 188 229 228
4 188 189 230 229
4 189 190 231 230
4 190 191 232 231
4 191 192 233 232
4 192 193 234 233
4 193 194 235 234
4 194 195 236 235
4 195 196 237 236
4 196 197 238 237
4 197 198 239 238
4 198 199 240 239
4 199 200 241 240
4 200 201 242 241
4 201 202 243 242
4 202 203 244 243
4 203 204 245 244
4 205 206 247 246
4 206 207 248 247
4 207 208 249 248
4 208 209 250 249
4 209 210 251 250
4 210 211 252 251
4 211 212 253 252
4 212 213 254 253
4 213 214 255 254
4 214 215 256 255
4 215 216 257 256
4 216 217 258 257
4 217 218 259 258
4 218 219 260 259
4 219 220 261 260
4 220 221 262 261
4 221 222 263 262
4 222 223 264 263
4 223 224 265 264
4 224 225 266 265
4 225 226 267 266
4 226 227 268 267
4 227 228 269 268
4 228 229 270 269
4 229 230 271 270
4 230 231 272 271
4 231 232 273 272
4 232 233 274 273
4 233 234 275 274
4 234 235 276 275
4 235 236 277 276
4 236 237 278 277
4 237 238 279 278
4 238 239 280 279
4 239 240 281 280
4 240 241 282 281
4 241 242 283 282
4 242 243 284 283
4 243 244 285 284
4 244 245 286 285
4 246 247 288 287
4 247 248 289 288
4 248 249 290 289
4 249 250 291 290
4 250 251 292 291
4 251 252 293 292
4 252 253 294 293
4 253 254 295 294
4 254 255 296 295
4 255 256 297 296
4 256 257 298 297
4 257 258 299 298
4 258 259 300 299
4 259 260 301 300
4 260 261 302 301
4 261 262 303 302
4 262 263 304 303
4 263 264 305 304
4 264 265 306 305
4 265 266 307 306
4 266 267 308 307
4 267 268 309 308
4 268 269 310 309
4 269 270 311 310
4 270 271 312 311
4 271 272 313 312
4 272 273 314 313
4 273 274 315 314
4 274 275 316 315
4 275 276 317 316
4 276 277 318 317
4 277 278 319 318
4 278 279 320 319
4 279 280 321 320
4 280 281 322 321
4 281 282 323 322
4 282 283 324 323
4 283 284 325 324
4 284 285 326 325
4 285 286 327 326
4 287 288 329 328
4 288 289 330 329
4 289 290 331 330
4 290 291 332 331
4 291 292 333 332
4 292 293 334 333
4 293 294 335 334
4 294 295 336 335
4 295 296 337 336
4 296 297 338 337
4 297 298 339 338
4 298 299 340 339
4 299 300 341 340
4 300 301 342 341
4 301 302 343 342
4 302 303 344 343
4 303 304 345 344
4 304 305 346 345
4 305 306 347 346
4 306 307 348 347
4 307 308 349 348
4 308 309 350 349
4 309 310 351 350
4 310 311 352 351
4 311 312 353 352
4 312 313 354 353
4 313 314 355 354
4 314 315 356 355
4 315 316 357 356
4 316 317 358 357
4 317 318 359 358
4 318 319 360 359
4 319 320 361 360
4 320 321 362 361
4 321 322 363 362
4 322 323 364 363
4 323 324 365 364
4 324 325 366 365
4 325 326 367 366
4 326 327 368 367
4 328 329 370 369
4 329 330 371 370
4 330 331 372 371
4 331 332 373 372
4 332 333 374 373
4 333 334 375 374
4 334 335 376 375
4 335 336 377 376
4 336 337 378 377
4 337 338 379 378
4 338 339 380 379
4 339 340 381 380
4 340 341 382 381
4 341 342 383 382
4 342 343 384 383
4 343 344 385 384
4 344 345 386 385
4 345 346 387 386
4 346 347 388 387
4 347 348 389 388
4 348 349 390 389
4 349 350 391 390
4 350 351 392 391
4 351 352 393 392
4 352 353 394 393
4 353 354 395 394
4 354 355 396 395
4 355 356 397 396
4 356 357 398 397
4 357 358 399 398
4 358 359 400 399
4 359 360 401 400
4 360 361 402 401
4 361 362 403 402
4 362 363 404 403
4 363 364 405 404
4 364 365 406 405
4 365 366 407 406
4 366 367 408 407
4 367 368 409 408
4 369 370 411 410
4 370 371 412 411
4 371 372 413 412
4 372 373 414 413
4 373 374 415 414
4 374 375 416 415
4 375 376 417 416
4 376 377 418 417
4 377 378 419 418
4 378 379 420 419
4 379 380 421 420
4 380 381 422 421
4 381 382 423 422
4 382 383 424 423
4 383 384 425 424
4 384 385 426 425
4 385 386 427 426
4 386 387 428 427
4 387 388 429 428
4 388 389 430 429
4 389 390 431 430
4 390 391 432 431
4 391 392 433 432
4 392 393 434 433
4 393 394 435 434
4 394 395 436 435
4 395 396 437 436
4 396 397 438 437
4 397 398 439 438
4 398 399 440 439
4 399 400 441 440
4 400 401 442 441
4 401 402 443 442
4 402 403 444 443
4 403 404 445 444
4 404 405 446 445
4 405 406 447 446
4 406 407 448 447
4 407 408 449 448
4 408 409 450 449
4 410 411 452 451
4 411 412 453 452
4 412 413 454 453
4 413 414 455 454
4 414 415 456 455
4 415 416 457 456
4 416 417 458 457
4 417 418 459 458
4 418 419 460 459
4 419 420 461 460
4 420 421 462 461
4 421 422 463 462
4 422 423 464 463
4 423 424 465 464
4 424 425 466 465
4 425 426 467 466
4 426 427 468 467
4 427 428 469 468
4 428 429 470 469
4 429 430 471 470
4 430 431 472 471
4 431 432 473 472
4 432 433 474 473
4 433 434 475 474
4 434 435 476 475
4 435 436 477 476
4 436 437 478 477
4 437 438 479 478
4 438 439 480 479
4 439 440 481 480
4 440 441 482 481
4 441 442 483 482
4 442 443 484 483
4 443 444 485 484
4 444 445 486 485
4 445 446 487 486
4 446 447 488 487
4 447 448 489 488
4 448 449 490 489
4 449 450 491 490
4 451 452 493 492
4 452 453 494 493
4 453 454 495 494
4 454 455 496 495
4 455 456 497 496
4 456 457 498 497
4 457 458 499 498
4 458 459 500 499
4 459 460 501 500
4 460 461 502 501
4 461 462 503 502
4 462 463 504 503
4 463 464 505 504
4 464 465 506 505
4 465 466 507 506
4 466 467 508 507
4 467 468 509 508
4 468 469 510 509
4 469 470 511 510
4 470 471 512 511
4 471 472 513 512
4 472 473 514 513
4 473 474 515 514
4 474 475 516 515
4 475 476 517 516
4 476 477 518 517
4 477 478 519 518
4 478 479 520 519
4 479 480 521 520
4 480 481 522 521
4 481 482 523 522
4 482 483 524 523
4 483 484 525 524
4 484 485 526 525
4 485 486 527 526
4 486 487 528 527
4 487 488 529 528
4 488 489 530 529
4 489 490 531 530
4 490 491 532 531
4 492 493 534 533
4 493 494 535 534
4 494 495 536 535
4 495 496 537 536
4 496 497 538 537
4 497 498 539 538
4 498 499 540 539
4 499 500 541 540
4 500 501 542 541
4 501 502 543 542
4 502 503 544 543
4 503 504 545 544
4 504 505 546 545
4 505 506 547 546
4 506 507 548 547
4 507 508 549 548
4 508 509 550 549
4 509 510 551 550
4 510 511 552 551
4 511 512 553 552
4 512 513 554 553
4 513 514 555 554
4 514 515 556 555
4 515 516 557 556
4 516 517 558 557
4 517 518 559 558
4 518 519 560 559
4 519 520 561 560
4 520 521 562 561
4 521 522 563 562
4 522 523 564 563
4 523 524 565 564
4 524 525 566 565
4 525 526 567 566
4 526 527 568 567
4 527 528 569 568
4 528 529 570 569
4 529 530 571 570
4 530 531 572 571
4 531 532 573 572
4 533 534 575 574
4 534 535 576 575
4 535 536 577 576
4 536 537 578 577
4 537 538 579 578
4 538 539 580 579
4 539 540 581 580
4 540 541 582 581
4 541 542 583 582
4 542 543 584 583
4 543 544 585 584
4 544 545 586 585
4 545 546 587 586
4 546 547 588 587
4 547 548 589 588
4 548 549 590 589
4 549 550 591 590
4 550 551 592 591
4 551 552 593 592
4 552 553 594 593
4 553 554 595 594
4 554 555 596 595
4 555 556 597 596
4 556 557 598 597
4 557 558 599 598
4 558 559 600 599
4 559 560 601 600
4 560 561 602 601
4 561 562 603 602
4 562 563 604 603
4 563 564 605 604
4 564 565 606 605
4 565 566 607 606
4 566 567 608 607
4 567 568 609 608
4 568 569 610 609
4 569 570 611 610
4 570 571 612 611
4 571 572 613 612
4 572 573 614 613
4 574 575 616 615
4 575 576 617 616
4 576 577 618 617
4 577 578 619 618
4 578 579 620 619
4 579 580 621 620
4 580 581 622 621
4 581 582 623 622
4 582 583 624 623
4 583 584 625 624
4 584 585 626 625
4 585 586 627 626
4 586 587 628 627
4 587 588 629 628
4 588 589 630 629
4 589 590 631 630
4 590 591 632 631
4 591 592 633 632
4 592 593 634 633
4 593 594 635 634
4 594 595 636 635
4 595 596 637 636
4 596 597 638 637
4 597 598 639 638
4 598 599 640 639
4 599 600 641 640
4 600 601 642 641
4 601 602 643 642
4 602 603 644 643
4 603 604 645 644
4 604 605 646 645
4 605 606 647 646
4 606 607 648 647
4 607 608 649 648
4 608 609 650 649
4 609 610 651 650
4 610 611 652 651
4 611 612 653 652
4 612 613 654 653
4 613 614 655 654
4 615 616 657 656
4 616 617 658 657
4 617 618 659 658
4 618 619 660 659
4 619 620 661 660
4 620 621 662 661
4 621 622 663 662
4 622 623 664 663
4 623 624 665 664
4 624 625 666 665
4 625 626 667 666
4 626 627 668 667
4 627 628 669 668
4 628 629 670 669
4 629 630 671 670
4 630 631 672 671
4 631 632 673 672
4 632 633 674 673
4 633 634 675 674
4 634 635 676 675
4 635 636 677 676
4 636 637 678 677
4 637 638 679 678
4 638 639 680 679
4 639 640 681 680
4 640 641 682 681
4 641 642 683 682
4 642 643 684 683
4 643 644 685 684
4 644 645 686 685
4 645 646 687 686
4 646 647 688 687
4 647 648 689 688
4 648 649 690 689
4 649 650 691 690
4 650 651 692 691
4 651 652 693 692
4 652 653 694 693
4 653 654 695 694
4 654 655 696 695
4 656 657 698 697
4 657 658 699 698
4 658 659 700 699
4 659 660 701 700
4 660 661 702 701
4 661 662 703 702
4 662 663 704 703
4 663 664 705 704
4 664 665 706 705
4 665 666 707 706
4 666 667 708 707
4 667 668 709 708
4 668 669 710 709
4 669 670 711 710
4 670 671 712 711
4 671 672 713 712
4 672 673 714 713
4 673 674 715 714
4 674 675 716 715
4 675 676 717 716
4 676 677 718 717
4 677 678 719 718
4 678 679 720 719
4 679 680 721 720
4 680 681 722 721
4 681 682 723 722
4 682 683 724 723
4 683 684 725 724
4 684 685 726 725
4 685 686 727 726
4 686 687 728 727
4 687 688 729 728
4 688 689 730 729
4 689 690 731 730
4 690 691 732 731
4 691 692 733 732
4 692 693 734 733
4 693 694 735 734
4 694 695 736 735
4 695 696 737 736
4 697 698 739 738
4 698 699 740 739
4 699 700 741 740
4 700 701 742 741
4 701 702 743 742
4 702 703 744 743
4 703 704 745 744
4 704 705 746 745
4 705 706 747 746
4 706 707 748 747
4 707 708 749 748
4 708 709 750 749
4 709 710 751 750
4 710 711 752 751
4 711 712 753 752
4 712 713 754 753
4 713 714 755 754
4 714 715 756 755
4 715 716 757 756
4 716 717 758 757
4 717 718 759 758
4 718 719 760 759
4 719 720 761 760
4 720 721 762 761
4 721 722 763 762
4 722 723 764 763
4 723 724 765 764
4 724 725 766 765
4 725 726 767 766
4 726 727 768 767
4 727 728 769 768
4 728 729 770 769
4 729 730 771 770
4 730 731 772 771
4 731 732 773 772
4 732 733 774 773
4 733 734 775 774
4 734 735 776 775
4 735 736 777 776
4 736 737 778 777
4 738 739 780 779
4 739 740 781 780
4 740 741 782 781
4 741 742 783 782
4 742 743 784 783
4 743 744 785 784
4 744 745 786 785
4 745 746 787 786
4 746 747 788 787
4 747 748 789 788
4 748 749 790 789
4 749 750 791 790
4 750 751 792 791
4 751 752 793 792
4 752 753 794 793
4 753 754 795 794
4 754 755 796 795
4 755 756 797 796
4 756 757 798 797
4 757 758 799 798
4 758 759 800 799
4 759 760 801 800
4 760 761 802 801
4 761 762 803 802
4 762 763 804 803
4 763 764 805 804
4 764 765 806 805
4 765 766 807 806
4 766 767 808 807
4 767 768 809 808
4 768 769 810 809
4 769 770 811 810
4 770 771 812 811
4 771 772 813 812
4 772 773 814 813
4 773 774 815 814
4 774 775 816 815
4 775 776 817 816
4 776 777 818 817
4 777 778 819 818
4 779 780 821 820
4 780 781 822 821
4 781 782 823 822
4 782 783 824 823
4 783 784 825 824
4 784 785 826 825
4 785 786 827 826
4 786 787 828 827
4 787 788 829 828
4 788 789 830 829
4 789 790 831 830
4 790 791 832 831
4 791 792 833 832
4 792 793 834 833
4 793 794 835 834
4 794 795 836 835
4 795 796 837 836
4 796 797 838 837
4 797 798 839 838
4 798 799 840 839
4 799 800 841 840
4 800 801 842 841
4 801 802 843 842
4 802 803 844 843
4 803 804 845 844
4 804 805 846 845
4 805 806 847 846
4 806 807 848 847
4 807 808 849 848
4 808 809 850 849
4 809 810 851 850
4 810 811 852 851
4 811 812 853 852
4 812 813 854 853
4 813 814 855 854
4 814 815 856 855
4 815 816 857 856
4 816 817 858 857
4 817 818 859 858
4 818 819 860 859
CELL_TYPES 800
9
9
9
9
9
9
9
9
9
9
9
9
9
9
9
9
9
9
9
9
9
9
9
9
9
9
9
9
9
9
9
9
9
9
9
9
9
9
9
9
9
9
9
9
9
9
9
9
9
9
9
9
9
9
9
9
9
9
9
9
9
9
9
9
9
9
9
9
9
9
9
9
9
9
9
9
9
9
9
9
9
9
9
9
9
9
9
9
9
9
9
9
9
9
9
9
9
9
9
9
9
9
9
9
9
9
9
9
9
9
9
9
9
9
9
9
9
9
9
9
9
9
9
9
9
9
9
9
9
9
9
9
9
9
9
9
9
9
9
9
9
9
9
9
9
9
9
9
9
9
9
9
9
9
9
9
9
9
9
9
9
9
9
9
9
9
9
9
9
9
9
9
9
9
9
9
9
9
9
9
9
9
9
9
9
9
9
9
9
9
9
9
9
9
9
9
9
9
9
9
9
9
9
9
9
9
9
9
9
9
9
9
9
9
9
9
9
9
9
9
9
9
9
9
9
9
9
9
9
9
9
9
9
9
9
9
9
9
9
9
9
9
9
9
9
9
9
9
9
9
9
9
9
9
9
9
9
9
9
9
9
9
9
9
9
9
9
9
9
9
9
9
9
9
9
9
9
9
9
9
9
9
9
9
9
9
9
9
9
9
9
9
9
9
9
9
9
9
9
9
9
9
9
9
9
9
9
9
9
9
9
9
9
9
9
9
9
9
9
9
9
9
9
9
9
9
9
9
9
9
9
9
9
9
9
9
9
9
9
9
9
9
9
9
9
9
9
9
9
9
9
9
9
9
9
9
9
9
9
9
9
9
9
9
9
9
9
9
9
9
9
9
9
9
9
9
9
9
9
9
9
9
9
9
9
9
9
9
9
9
9
9
9
9
9
9
9
9
9
9
9
9
9
9
9
9
9
9
9
9
9
9
9
9
9
9
9
9
9
9
9
9
9
9
9
9
9
9
9
9
9
9
9
9
9
9
9
9
9
9
9
9
9
9
9
9
9
9
9
9
9
9
9
9
9
9
9
9
9
9
9
9
9
9
9
9
9
9
9
9
9
9
9
9
9
9
9
9
9
9
9
9
9
9
9
9
9
9
9
9
9
9
9
9
9
9
9
9
9
9
9
9
9
9
9
9
9
9
9
9
9
9
9
9
9
9
9
9
9
9
9
9
9
9
9
9
9
9
9
9
9
9
9
9
9
9
9
9
9
9
9
9
9
9
9
9
9
9
9
9
9
9
9
9
9
9
9
9
9
9
9
9
9
9
9
9
9
9
9
9
9
9
9
9
9
9
9
9
9
9
9
9
9
9
9
9
9
9
9
9
9
9
9
9
9
9
9
9
9
9
9
9
9
9
9
9
9
9
9
9
9
9
9
9
9
9
9
9
9
9
9
9
9
9
9
9
9
9
9
9
9
9
9
9
9
9
9
9
9
9
9
9
9
9
9
9
9
9
9
9
9
9
9
9
9
9
9
9
9
9
9
9
9
9
9
9
9
9
9
9
9
9
9
9
9
9
9
9
9
9
9
9
9
9
9
9
9
9
9
9
9
9
9
9
9
9
9
9
9
9
9
9
9
9
9
9
9
9
9
9
9
9
9
9
9
9
9
9
9
9
9
9
9
9
9
9
9
9
9
9
9
9
9
9
9
9
9
9
9
9
9
9
9
9
9
9
9
9
9
9
9
9
9
9
9
9
9
9
9
9
9
9
9
9
9
9
9
9
9
9
9
9
9
9
9
9
9
9
9
9
9
9
9
9
9
9
9
9
9
9
9
9
9
9
9
9
9
9
9
9
POINT_DATA 861
SCALARS Disp float 2
LOOKUP_TABLE default
0.0 0.0
0.006404109850430909 -0.31448178222758677
0.0078916601792065 -0.618907423590857
0.008711245063859554 -0.9221154356722108
0.009818356651424909 -1.2248999861998824
0.011735378827483807 -1.5267496479236589
0.015255021179827072 -1.826974112676009
0.021368619608298778 -2.124701377122184
0.03124762689625459 -2.4188315184698324
0.04616443738929939 -2.7079105355569864
0.06737384105246903 -2.989964938406145
0.09602998072528006 -3.2624272131846936
0.13314901241086663 -3.522196567783516
0.17959714379372896 -3.765783674247792
0.2360784633699938 -3.9894086951628474
0.30306146112527466 -4.189089103176557
0.38065680412352193 -4.360759507751123
0.46848035162737883 -4.500457309157035
0.5655454927503367 -4.6045978583338805
0.6702303252328177 -4.670232108920514
0.7799799516707967 -4.695408901958666
0.889729578108769 -4.670232108920365
0.9944144105912269 -4.60459785833358
1.0914795517141456 -4.5004573091566
1.179303099217954 -4.360759507750579
1.2568984422161495 -4.189089103175936
1.3238814399713768 -3.989408695162166
1.3803627595475876 -3.76578367424707
1.4268108909303956 -3.5221965677827765
1.463929922615931 -3.2624272131839605
1.4925860622886973 -2.9899649384054374
1.5137954659518291 -2.707910535556321
1.5287122764448442 -2.418831518469218
1.5385912837327786 -2.1247013771216294
1.5447048821612352 -1.8269741126755215
1.5482245245135693 -1.526749647923246
1.550141546689624 -1.2248999861995453
1.5512486582771883 -0.9221154356719536
1.552068243161841 -0.6189074235906777
1.5535557934906152 -0.31448178222748907
1.5599599033410427 0.0
0.0784397872481 -0.002625511917211399
0.08298043585069055 -0.31480684223353256
0.08374359546522275 -0.6189724259412076
0.08446423446795888 -0.92221083639904
0.08542476646214976 -1.225073399114388
0.08704141229070053 -1.5271572783398346
0.09005985132555641 -1.8278385459093889
0.09541563855616432 -2.126289381927034
0.10420636414400164 -2.421441209357876
0.11759099958929682 -2.711844761821757
0.13668835723507883 -2.995508191584388
0.1625141902849997 -3.26983433660308
0.19596940610564165 -3.5316905121021813
0.23783970791737868 -3.7775533437820408
0.28876637378172515 -4.003599542954802
0.34918700569286193 -4.205779695840905
0.4192294207081631 -4.379929436137834
0.4985897557513016 -4.5219562540040235
0.5864182799914861 -4.628120481890585
0.6811406513528209 -4.6952861759569835
0.7799799516707784 -4.7211007834687875
0.8788192519887293 -4.695286175956832
0.9735416233500431 -4.628120481890278
1.061370147590193 -4.521956254003578
1.1407304826332898 -4.379929436137278
1.2107728976485441 -4.2057796958402704
1.2711935295596328 -4.003599542954108
1.3221201954239306 -3.7775533437813062
1.3639904972356187 -3.53169051210143
1.397445713056215 -3.2698343366023357
1.423271546106095 -2.995508191583671
1.442368903751843 -2.7118447618210837
1.4557535391971113 -2.4214412093572557
1.464544264784929 -2.1262893819264757
1.4699000520155234 -1.8278385459088986
1.4729184910503714 -1.5271572783394205
1.4745351368789186 -1.2250733991140506
1.475495668873109 -0.9222108363987827
1.4762163078758448 -0.6189724259410283
1.476979467490377 -0.31480684223343447
1.4815201160929616 -0.0026255119172088376
0.15582128924380764 -0.004726182514156962
0.1591824333541008 -0.31497120278932644
0.15961501115374796 -0.6190028534064704
0.16020042324454237 -0.922294053531834
0.16102631131781145 -1.225209113121763
0.1623727728754064 -1.5274800056341993
0.16490387595405093 -1.8285574553866497
0.16950471361185931 -2.1276570221359328
0.1771866337739376 -2.423733147915044
0.18899854001974148 -2.715333395574861
0.20593036400302484 -3.000444399329949
0.22887007712804028 -3.276441444320907
0.2586048513674325 -3.540166372318009
0.29582934594842974 -3.7880690659678553
0.3411268228601143 -4.016288667063117
0.39490848713121623 -4.220719277452141
0.457332738796939 -4.3971128339457675
0.5281905159692487 -4.541261452439697
0.6067457433467085 -4.649271996711749
0.6914826467008894 -4.7177752332887195
0.7799799516707604 -4.744156619655048
0.8684772566406256 -4.717775233288564
0.9532141599947874 -4.649271996711435
1.0317693873722171 -4.541261452439242
1.1026271645444903 -4.397112833945202
1.1650514162101713 -4.220719277451495
1.2188330804812306 -4.016288667062412
1.2641305573928716 -3.7880690659671092
1.3013550519738255 -3.540166372317247
1.3310898262131774 -3.276441444320152
1.3540295393381565 -3.000444399329223
1.3709613633214095 -2.7153333955741807
1.3827732695671897 -2.4237331479144184
1.3904551897292499 -2.127657022135371
1.3950560273870463 -1.828557455386157
1.3975871304656844 -1.527480005633784
1.3989335920232768 -1.2252091131214249
1.3997594800965452 -0.9222940535315766
1.4003448921873396 -0.6190028534062912
1.4007774699869868 -0.3149712027892279
1.404138614097274 -0.004726182514151526
0.2326402731874425 -0.0064223380278719796
0.23520135282837376 -0.3150831193694847
0.2354634510687413 -0.6190190792269858
0.23592028692419337 -0.9223599082477735
0.23661856510784265 -1.2253166028035791
0.2377265403324681 -1.5277272673986615
0.23979840884394518 -1.8291356916881807
0.2436539148372008 -2.128804917207497
0.2502197062519826 -2.4257025274994595
0.2604357024236039 -2.7183679558599443
0.2751683759849468 -3.004763096900172
0.2951823690664697 -3.282237861235881
0.32115521159595295 -3.547612690362594
0.35368970754639684 -3.7973167941246584
0.39330226018952796 -4.027460391644911
0.44038478806974274 -4.233892421718424
0.49513042516062816 -4.412296621807163
0.5574215941195739 -4.558362537935385
0.6266493291209387 -4.668041726217253
0.7015157440486776 -4.737760417786697
0.7799799516707431 -4.76471378285541
0.8584441592928034 -4.737760417786539
0.9333105742205251 -4.668041726216933
1.0025383092218638 -4.558362537934923
1.064829478180777 -4.412296621806587
1.1195751152716265 -4.233892421717768
1.1666576431518039 -4.027460391644195
1.2062701957948965 -3.7973167941239017
1.2388046917453028 -3.547612690361822
1.2647775342747503 -3.2822378612351177
1.2847915273562418 -3.004763096899438
1.2995242009175583 -2.718367955859258
1.3097401970891585 -2.425702527498829
1.3163059885039246 -2.1288049172069323
1.3201614944971698 -1.829135691687686
1.3222333630086418 -1.5277272673982458
1.3233413382332653 -1.2253166028032407
1.324039616416914 -0.9223599082475161
1.3244964522723663 -0.6190190792268067
1.3247585505127337 -0.31508311936938577
1.3273196301536596 -0.006422338027863857
0.30914000788822016 -0.007798538709828738
0.31109792364959704 -0.31516924317409334
0.3112681843752209 -0.6190282779158074
0.3116177565770485 -0.922410475981568
0.3121974638203582 -1.225401611365177
0.3130954182706152 -1.5279123807667117
0.3147514574279822 -1.8295824144300634
0.3178799729904864 -2.129736227703439
0.32333714169038946 -2.427348933604189
0.33195077093311937 -2.7209446435936613
0.34446880565001403 -3.0084588266567938
0.36153668032873965 -3.287216887490903
0.38372179233316006 -3.5540221214460876
0.41153741562009627 -3.8052884516791488
0.44543700593320906 -4.037104601955129
0.48578015557542403 -4.245286892315762
0.5327883434537635 -4.425466111716343
0.5864394126422501 -4.57324308342093
0.6463016227441978 -4.684432823221038
0.7113645685884846 -4.755288082331852
0.7799799516707263 -4.782845611007942
0.8485953347529623 -4.755288082331691
0.9136582805972349 -4.684432823220713
0.9735204906991591 -4.573243083420461
1.027171559887618 -4.425466111715759
1.0741797477659267 -4.2452868923150975
1.1145228974081096 -4.037104601954403
1.1484224877211886 -3.8052884516783836
1.1762381110080928 -3.554022121445307
1.1984232230124827 -3.287216887490131
1.2154910976911821 -3.0084588266560535
1.2280091324080538 -2.7209446435929694
1.2366227616507652 -2.4273489336035543
1.2420799303506551 -2.1297362277028715
1.2452084459131507 -1.829582414429567
1.2468644850705137 -1.5279123807662953
1.2477624395207694 -1.2254016113648385
1.2483421467640787 -0.9224104759813108
1.2486917189659064 -0.6190282779156284
1.2488619796915303 -0.31516924317399403
1.2508198954529026 -0.007798538709818263
0.38542981646270535 -0.008908694381414712
0.3869097396649786 -0.3152384014662853
0.387027103095731 -0.6190351267036771
0.3872891073818354 -0.9224479952344917
0.3877569440677648 -1.2254688832727358
0.38847332791414957 -1.528048140998123
0.3897569825431093 -1.8299123400999453
0.39220587706428156 -2.1304580277484955
0.39657043459733865 -2.428675698052054
0.40359166068858543 -2.723064434260683
0.4138974004407296 -3.011530719538417
0.4280162818153976 -3.291376742448306
0.446408263013641 -3.5593919407517522
0.4694961413897542 -3.811980619528679
0.49766832386501714 -4.045217406376922
0.5312552640526748 -4.254895141451784
0.5704857135945639 -4.436606918471052
0.6154267641972331 -4.585887252769945
0.6658642658667937 -4.698443491334409
0.7211279770857264 -4.77038238429028
0.779979951670709 -4.798595695321559
0.8388319262556873 -4.770382384290116
0.8940956374746076 -4.698443491334079
0.9445331391441483 -4.585887252769471
0.989474189746794 -4.436606918470463
1.0287046392886574 -4.254895141451112
1.0622915794762877 -4.04521740637619
1.0904637619515225 -3.811980619527907
1.1135516403276091 -3.559391940750965
1.1319436215258272 -3.2913767424475275
1.1460625029004734 -3.0115307195376717
1.1563682426525985 -2.723064434259986
1.16338946874383 -2.428675698051416
1.1677540262768764 -2.1304580277479253
1.1702029207980418 -1.829912340099448
1.1714865754269983 -1.5280481409977065
1.1722029592733825 -1.2254688832723977
1.1726707959593117 -0.9224479952342344
1.172932800245416 -0.6190351267034981
1.1730501636761683 -0.31523840146618576
1.174530086878438 -0.008908694381402243
0.46156607463633004 -0.009793971734009475
0.462662188757681 -0.3152942161231624
0.46274590850839625 -0.6190419596105322
0.46293411010691027 -0.9224740860552105
0.46329389512065006 -1.2255215490795353
0.46385146133622557 -1.5281462123824716
0.464806611965424 -1.8301436045117763
0.4666326126162116 -2.1309861332256297
0.4699538756222871 -2.429690641222161
0.4754068213000404 -2.724732777901165
0.4835203193213057 -3.0139829414920998
0.49470620342857397 -3.2947206152590707
0.5093179401449461 -3.5637247275822177
0.5276888619197463 -3.8173952654739387
0.5501424917917364 -4.051799496751183
0.5769712774637766 -4.262715185140992
0.6084048776800002 -4.445709878167517
0.6445831082244918 -4.596278744732774
0.6855100588026627 -4.710060676102659
0.7309027039964116 -4.7830457129755715
0.7799799516706916 -4.811983435856444
0.8290571993449686 -4.783045712975405
0.8744498445387071 -4.710060676102325
0.9153767951168611 -4.5962787447322935
0.9515550256613335 -4.445709878166921
0.9829886258775362 -4.262715185140315
1.0098174115495544 -4.051799496750444
1.032271041421522 -3.8173952654731607
1.0506419631963013 -3.563724727581424
1.0652536999126536 -3.2947206152582873
1.0764395840199044 -3.0139829414913493
1.0845530820411544 -2.7247327779004644
1.0900060277188957 -2.4296906412215202
1.093327290724963 -2.1309861332250577
1.0951532913757456 -1.830143604511278
1.0961084420049418 -1.5281462123820548
1.0966660082205169 -1.225521549079197
1.0970257932342564 -0.9224740860549532
1.0972139948327706 -0.6190419596103532
1.0972977145834857 -0.3152942161230627
1.0983938287048338 -0.009793971733995321
0.5375858187059213 -0.010487731986579615
0.5383740897785402 -0.31533938372497755
0.5384328599338218 -0.619049257056845
0.5385549249145618 -0.922489990565363
0.5388083663232223 -1.2255606650857285
0.5392198571082929 -1.5282161205105598
0.5398944209159394 -1.8302951131284466
0.5411586013165232 -2.1313424026370638
0.5435062441195659 -2.4304107725229516
0.547447210728598 -2.725960674368364
0.5534056636404009 -3.0158246565834177
0.5616912458940814 -3.297257072967413
0.5725565527960005 -3.5670289114356932
0.5862426597673213 -3.821540056044115
0.603002742882922 -4.056857341041111
0.6230934859289426 -4.2687510285241235
0.6467387624175377 -4.452772670674368
0.674118529881809 -4.6044027777682395
0.7054281532947775 -4.719258965597286
0.7407970891861103 -4.793256759567339
0.7799799516706738 -4.82300408656796
0.8191628141552355 -4.793256759567172
0.8545317500465602 -4.719258965596949
0.8858413734595154 -4.604402777767756
0.913221140923772 -4.4527726706737685
0.9368664174123511 -4.268751028523441
0.9569571604583545 -4.056857341040367
0.973717243573939 -3.821540056043332
0.9874033505452448 -3.5670289114348956
0.9982686574471493 -3.297257072966626
1.0065542397008165 -3.0158246565826636
1.0125126926126082 -2.72596067436766
1.0164536592216316 -2.4304107725223085
1.0188013020246685 -2.131342402636491
1.0200654824252486 -1.8302951131279483
1.020740046232894 -1.528216120510143
1.0211515370179642 -1.2255606650853903
1.0214049784266246 -0.9224899905651055
1.0215270434073647 -0.6190492570566659
1.0215858135626463 -0.3153393837248777
1.022374084635263 -0.010487731986564193
0.6135122812296891 -0.011020968770482621
0.6140625641164908 -0.31537638463814416
0.6140955578503022 -0.6190561750018964
0.6141551216354882 -0.9224966577983528
0.6143040055590234 -1.225585814937442
0.6145717999845948 -1.5282638277754268
0.6150039034228173 -1.8303872277117144
0.6157799052341068 -2.131554342036475
0.6172377167238197 -2.4308625933264003
0.6197505911308836 -2.7267689552245264
0.6236218986787438 -3.0170719090859355
0.6290625887314765 -3.299001138069574
0.6362324393014508 -3.569319590471974
0.645286102964436 -3.824429701443659
0.6564010068669506 -4.060403500743234
0.6697872012274048 -4.273013152088503
0.6856712848264093 -4.4578029981001785
0.7042653563691504 -4.610250966868292
0.7258512148834001 -4.72600211303667
0.7509484995711225 -4.800966899028385
0.7799799516706556 -4.831625571720752
0.8090114037701873 -4.800966899028216
0.8341086884579051 -4.726002113036332
0.8556945469721454 -4.610250966867804
0.8742886185148756 -4.4578029980995755
0.8901727021138692 -4.273013152087817
0.9035588964743123 -4.0604035007424875
0.9146738003768164 -3.824429701442874
0.9237274640397926 -3.569319590471174
0.9308973146097574 -3.2990011380687836
0.9363380046624814 -3.017071909085179
0.9402093122103344 -2.726768955223821
0.942722186617393 -2.4308625933257564
0.9441799981071022 -2.1315543420359013
0.9449559999183896 -1.8303872277112159
0.9453881033566116 -1.52826382777501
0.9456558977821828 -1.2255858149371037
0.9458047817057179 -0.9224966577980953
0.9458643454909038 -0.6190561750017173
0.9458973392247151 -0.3153763846380443
0.9464476221115155 -0.011020968770466155
0.689362817826497 -0.011424158707120564
0.6897388642442573 -0.31540825493827623
0.6897412257876294 -0.6190608287307423
0.6897387783964178 -0.9224948126106521
0.689785883479619 -1.225596504655084
0.6899062718928601 -1.5282910086862178
0.6901172252408373 -1.8304368965301703
0.6904802150607109 -2.1316564293853917
0.6911506148215212 -2.4310852357398764
0.6923438767358951 -2.7271923770101476
0.6942256671327613 -3.017753779609623
0.6969048333251973 -3.299978428796157
0.7004503106064068 -3.5706212567791127
0.7049392162072738 -3.8260888909195496
0.7104750858409538 -4.06246080301174
0.7172073886868637 -4.275519614064066
0.725353586330569 -4.46081733382254
0.7351926735677219 -4.613834782157283
0.7470489854240686 -4.730257830681105
0.7615666484700682 -4.806094224006059
0.7799799516706369 -4.837777274438818
0.7983932548712055 -4.806094224005889
0.8129109179172029 -4.730257830680766
0.8247672297735443 -4.613834782156792
0.8346063170106904 -4.460817333821934
0.8427525146543905 -4.275519614063379
0.8494848175002955 -4.062460803010992
0.8550206871339715 -3.826088890918763
0.8595095927348352 -3.570621256778311
0.8630550700160403 -3.2999784287953644
0.8657342362084726 -3.0177537796088654
0.8676160266053355 -2.727192377009441
0.8688092885197073 -2.4310852357392316
0.8694796882805159 -2.1316564293848175
0.8698426781003888 -1.8304368965296713
0.8700536314483658 -1.528291008685801
0.8701740198616068 -1.225596504654746
0.8702211249448081 -0.9224948126103947
0.8702186775535964 -0.6190608287305631
0.8702210390969685 -0.31540825493817637
0.8705970855147278 -0.011424158707103348
0.7651559557886011 -0.011724001488942115
0.7654082555552106 -0.31543845151571637
0.7653751646943656 -0.619061064706873
0.7653106922313438 -0.9224848715900433
0.765258462455114 -1.225592730176675
0.7652313633416898 -1.5282969820643475
0.7652203977922584 -1.830452311053532
0.7652159578689269 -2.1316854045411597
0.76521405491471 -2.4311415832240697
0.7652136508918765 -2.7272986209865713
0.7652136192982747 -3.0179312376791065
0.7652109262200267 -3.300243976827409
0.7651986957128163 -3.570986731168453
0.7651766069601672 -3.826568581017564
0.765171023065051 -4.063077597389097
0.7652724855025951 -4.2763125943911575
0.7656826359375407 -4.461850510551049
0.7667603197261526 -4.6151969197812805
0.7689836855495703 -4.732053816252297
0.7728900092166765 -4.808553739713912
0.7799799516706176 -4.841335821195018
0.7870698941245594 -4.808553739713743
0.7909762177916654 -4.732053816251956
0.7931995836150816 -4.615196919780791
0.7942772674036928 -4.461850510550442
0.7946874178386398 -4.276312594390468
0.7947888802761849 -4.0630775973883475
0.7947832963810705 -3.826568581016776
0.794761207628424 -3.570986731167651
0.794748977121215 -3.300243976826617
0.7947462840429688 -3.0179312376783476
0.7947462524493678 -2.7272986209858647
0.7947458484265348 -2.4311415832234244
0.7947439454723182 -2.1316854045405855
0.794739505548987 -1.830452311053033
0.7947285399995556 -1.528296982063931
0.7947014408861316 -1.2255927301763367
0.7946492111099018 -0.922484871589786
0.7945847386468801 -0.6190610647066939
0.7945516477860348 -0.31543845151561656
0.7948039475526439 -0.011724001488924355
0.8409033965426866 -0.011947021013945236
0.8410695323754375 -0.3154687172085144
0.8410021220999019 -0.6190557042157789
0.840876285967633 -0.9224670064141439
0.8407273450577885 -1.225574823165121
0.8405549299430746 -1.5282814395221773
0.8403224066728983 -1.8304343417298006
0.8399501519307044 -2.1316554523588724
0.8392765256398965 -2.4310848815591863
0.8380832772679007 -2.72719233453098
0.836201463823108 -3.0177533481129175
0.8335151818970014 -3.2999749412224793
0.8299447125960955 -3.5706126541333685
0.8254139571351022 -3.82607957606158
0.8198733613892322 -4.062475098730632
0.8133519130972029 -4.275621675157125
0.8060172252099778 -4.461132878103834
0.7982342016791031 -4.614560244719763
0.7905406887917915 -4.731607635410299
0.7837146689908346 -4.808460240637201
0.7799799516705976 -4.842381872318628
0.7762452343503602 -4.8084602406370305
0.769419214549404 -4.731607635409957
0.7617257016620973 -4.614560244719272
0.7539426781312291 -4.4611328781032284
0.7466079902440121 -4.275621675156436
0.7400865419519903 -4.062475098729883
0.7345459462061277 -3.8260795760607937
0.7300151907451423 -3.570612654132567
0.7264447214442441 -3.299974941221688
0.7237584395181444 -3.01775334811216
0.7218766260733572 -2.7271923345302733
0.7206833777013649 -2.4310848815585415
0.7200097514105589 -2.131655452358298
0.7196374966683663 -1.830434341729302
0.7194049733981904 -1.5282814395217605
0.7192325582834768 -1.2255748231647832
0.7190836173736325 -0.9224670064138866
0.7189577812413636 -0.6190557042155997
0.718890370965828 -0.31546871720841463
0.7190565067985786 -0.011947021013927181
0.9166152935459047 -0.012115607586761707
0.9167239004381622 -0.3154979099825274
0.9166259740377383 -0.6190449570353762
0.9164412326098024 -0.9224413333995216
0.9161989931732851 -1.2255433835138985
0.9158848856799198 -1.5282447762212639
0.9154309721688083 -1.8303817096321262
0.914646922662542 -2.131552108911596
0.9131882045814231 -2.4308620603873097
0.9106765783112616 -2.726769003019666
0.9068043871060487 -3.017070575294812
0.9013559413405268 -3.2989937938927043
0.8941646664526565 -3.5693025782033354
0.8850784481110956 -3.8244124098640326
0.8739712333660095 -4.060435333375773
0.8608018292966041 -4.273222363336747
0.8456983039957054 -4.458433369223799
0.8290149873550676 -4.611674483331641
0.811400372079355 -4.728710811891591
0.7941602325412943 -4.805936029369729
0.7799799516705784 -4.841096273276917
0.7657996707998631 -4.805936029369558
0.7485595312618053 -4.72871081189125
0.7309449159861012 -4.611674483331153
0.7142615993454757 -4.458433369223196
0.6991580740445908 -4.273222363336059
0.6859886699751987 -4.060435333375027
0.674881455230126 -3.824412409863249
0.6657952368885787 -3.5693025782025365
0.6586039620007216 -3.298993793891915
0.6531555162352115 -3.0170705752940568
0.6492833250300087 -2.726769003018961
0.6467716987598539 -2.430862060386665
0.6453129806787393 -2.131552108911022
0.6445289311724752 -1.8303817096316282
0.6440750176613649 -1.5282447762208473
0.6437609101679999 -1.2255433835135605
0.6435186707314828 -0.9224413333992644
0.6433339293035469 -0.619044957035197
0.6432360029031232 -0.31549790998242766
0.6433446097953804 -0.012115607586743446
0.9923089976764892 -0.012241347538996222
0.9923758690706458 -0.31552432916526185
0.9922513395016258 -0.6190294701254598
0.9920111651446155 -0.9224081756133561
0.991679426254391 -1.2254992379514187
0.9912282293767973 -1.5281875722961424
0.9905336349801779 -1.8302859617855676
0.9892649553400038 -2.131339446565514
0.9869196794800513 -2.430410602051575
0.9829799062800628 -2.725960694005306
0.9770192320782254 -3.0158221419881217
0.9687270041273977 -3.297246533818814
0.9578499462376201 -3.567006149740735
0.9441521634533663 -3.821518996156567
0.9274199829053711 -4.056909128586099
0.9075278009921568 -4.269059611206097
0.884538873557402 -4.45368529754294
0.8588264529980435 -4.606469503851799
0.8312907971227382 -4.723316605386093
0.80375040371461 -4.800881094427135
0.7799799516705598 -4.837558931521977
0.7562094996265111 -4.800881094426964
0.7286691062183884 -4.7233166053857545
0.7011334503430949 -4.606469503851313
0.6754210297837533 -4.45368529754234
0.6524321023490184 -4.269059611205414
0.6325399204358233 -4.056909128585357
0.6158077398878469 -3.821518996155787
0.6021099571036121 -3.5670061497399406
0.5912328992138532 -3.297246533818029
0.582940671263042 -3.01582214198737
0.5769799970612192 -2.7259606940046033
0.5730402238612408 -2.4304106020509324
0.5706949480012949 -2.1313394465649407
0.5694262683611246 -1.8302859617850697
0.5687316739645067 -1.528187572295726
0.5682804770869138 -1.225499237951081
0.5679487381966895 -0.9224081756130988
0.5677085638396792 -0.6190294701252806
0.5675840342706595 -0.3155243291651621
0.5676509056648159 -0.012241347538977765
1.067999161432674 -0.01233112119112516
1.0680315187874538 -0.31554648591173645
1.0678827143235339 -0.619009708874823
1.0675908284800644 -0.9223680864087846
1.067174035940992 -1.2254434522794686
1.0665857558740286 -1.5281081751522827
1.0656149544230429 -1.8301311228826245
1.0637903419766486 -2.130983708193428
1.060472729081543 -2.42969105102759
1.055019879279118 -2.7247324302524882
1.0469029211190284 -3.013979132251984
1.0357134341839125 -3.2947084322308307
1.0211051801208133 -3.563701147117059
1.0027544114310805 -3.8173777778507785
0.9803565188502098 -4.0518728979968115
0.953687701694966 -4.2631026853628065
0.922739957282559 -4.4468505343177
0.8879504754952677 -4.598921707324119
0.8505250656575597 -4.715426700843194
0.8129794871151422 -4.793391859207536
0.7799799516705415 -4.83188191113297
0.7469804162259435 -4.793391859207366
0.7094348376835345 -4.715426700842858
0.672009427845842 -4.598921707323639
0.6372199460585712 -4.446850534317105
0.6062722016461892 -4.26310268536213
0.57960338449097 -4.051872897996074
0.5572054919101241 -3.817377777850004
0.5388547232204162 -3.5637011471162707
0.5242464691573406 -3.2947084322300504
0.513056982222246 -3.0139791322512366
0.504940024062175 -2.7247324302517892
0.49948717425976336 -2.4296910510269503
0.4961695613646673 -2.1309837081928555
0.49434494891827824 -1.830131122882127
0.493374147467295 -1.5281081751518664
0.4927858674003323 -1.225443452279131
0.49236907486126047 -0.9223680864085275
0.492077189017791 -0.6190097088746437
0.4919283845538711 -0.3155464859116368
0.49196074190865124 -0.012331121191106598
1.1436946547675 -0.01239107621453789
1.143697382809101 -0.31556308852255555
1.1435253112858215 -0.618985914487504
1.143185393885488 -0.9223218020741855
1.1426885032835872 -1.2253770814385883
1.1419537837112435 -1.5280018048932482
1.1406631075758504 -1.829898169177752
1.1382181225289727 -2.130456926817754
1.1338569181759701 -2.4286765056853707
1.1268342685258679 -2.723063351677766
1.1165246468382035 -3.0115257815882632
1.1024070451263723 -3.291365173914544
1.0840369892723378 -3.559374048786493
1.0610064570758402 -3.8119763559159043
1.0329241718981108 -4.045314416467521
0.9994656456145858 -4.255337483690518
0.9605635921665184 -4.437917498953859
0.9167331141536799 -4.589030300603026
0.869536154248918 -4.705074904631522
0.8221526760545822 -4.7835248137243
0.7799799516705235 -4.824085334576227
0.7378072272864681 -4.783524813724132
0.6904237490921442 -4.705074904631189
0.6432267891874011 -4.589030300602549
0.5993963111745877 -4.437917498953272
0.5604942577265496 -4.255337483689847
0.5270357314430548 -4.04531441646679
0.4989534462653556 -3.8119763559151365
0.4759229140688881 -3.559374048785711
0.45755285821488273 -3.29136517391377
0.4434352565030773 -3.011525781587521
0.43312563481543537 -2.723063351677071
0.42610298516535033 -2.4286765056847335
0.4217417808123597 -2.130456926817184
0.41929679576548895 -1.8298981691772553
0.4180061196300997 -1.5280018048928325
0.41727140005775704 -1.2253770814382507
0.4167745094558566 -0.9223218020739281
0.41643459205552324 -0.6189859144873247
0.4162625205322439 -0.3155630885224559
0.41626524857384467 -0.012391076214519276
1.2194014433107225 -0.012427064489887006
1.2193791993290979 -0.31557331565403207
1.2191847551316786 -0.6189581369960362
1.2187997480889572 -0.9222701503846543
1.2182246834339685 -1.2252998733803115
1.2173250838639234 -1.5278602529010896
1.2156703495397676 -1.8295682649643843
1.2125463699661565 -2.129736384031118
1.2070905893008443 -2.4273497650039584
1.1984741352118546 -2.7209425674232754
1.1859529904672212 -3.008453301820139
1.1688931369884556 -3.28720865192098
1.1467483370367286 -3.554016667134176
1.119024399553769 -3.8053076751304693
1.0852559948103806 -4.037230637112399
1.0450490536154498 -4.245768397678613
0.998277354126995 -4.426897948094659
0.945525872703375 -4.576816989322583
0.8886767277796663 -4.692288227245212
0.8314746407865842 -4.771283712922381
0.7799799516705057 -4.814134035267079
0.7284852625544316 -4.771283712922216
0.6712831755613639 -4.692288227244884
0.6144340306376779 -4.576816989322112
0.5616825492140872 -4.426897948094079
0.5149108497256666 -4.245768397677951
0.4747039085307711 -4.037230637111676
0.4409355037874183 -3.8053076751297104
0.4132115663044943 -3.554016667133402
0.3910667663528011 -3.287208651920213
0.3740069128740661 -3.0084533018194035
0.36148576812945876 -2.720942567422586
0.35286931404048955 -2.427349765003325
0.34741353337519226 -2.1297363840305503
0.34428955380158993 -1.8295682649638887
0.34263481947743885 -1.5278602529006744
0.34173521990739525 -1.2252998733799738
0.3411601552524071 -0.9222701503843971
0.34077514820968596 -0.618958136995857
0.3405807040122667 -0.31557331565393243
0.3405584600306421 -0.012427064489868337
1.2951233733715766 -0.012444862150888457
1.2950817313657155 -0.31557688881611745
1.2948667935449585 -0.6189263959954702
1.2944388710717127 -0.9222138075182635
1.2937839033691898 -1.2252104699133968
1.2926932912145384 -1.5276732522216039
1.2906282102100912 -1.829122511388875
1.2867751063054964 -2.1288057019517264
1.2802080165539083 -2.4257028968797245
1.269988108425197 -2.718364832226261
1.255254576100282 -3.0047579572883465
1.2352566288093079 -3.282235841213399
1.2093397937356412 -3.5476253537248765
1.176922941084167 -3.7973686658609944
1.1374867571882497 -4.027626606691288
1.0906061346755465 -4.234416426280143
1.036133766134507 -4.4138280089370365
0.9746665193357728 -4.562318250839449
0.90827205619563 -4.677075403968782
0.8411324038399174 -4.756627055442252
0.779979951670488 -4.801948054962488
0.718827499501064 -4.756627055442089
0.6516878471453679 -4.677075403968458
0.5852933840052517 -4.562318250838985
0.523826137206552 -4.4138280089364645
0.4693537686655512 -4.23441642627949
0.42247314615288856 -4.027626606690575
0.3830369622570121 -3.7973686658602444
0.3506201096055786 -3.547625353724112
0.3247032745319509 -3.2822358412126404
0.3047053272410118 -3.004757957287618
0.28997179491612673 -2.7183648322255776
0.27975188678743923 -2.4257028968790957
0.2731847970358678 -2.1288057019511615
0.26933169313128436 -1.8291225113883811
0.2672666121268428 -1.5276732522211893
0.2661759999721937 -1.2252104699130595
0.2655210322696712 -0.9222138075180064
0.26509310979642564 -0.618926395995291
0.264878171975669 -0.31557688881601775
0.264836529969808 -0.012444862150869776
1.3708621735295503 -0.01245029441999496
1.3708086683292628 -0.31557415044934245
1.3705776229456264 -0.6188908509174845
1.3701082689280886 -0.9221532979329686
1.369364914985128 -1.2251052337957595
1.368051223681397 -1.527427997960126
1.3655288507901917 -1.828545046395313
1.3609269556780983 -2.1276575511951177
1.353240651154981 -2.4237325473942906
1.3414244225142973 -2.7153294230569234
1.3244952313947853 -3.000440972297353
1.3015799116206228 -3.276448371628682
1.2719133176792037 -3.5402012633037057
1.234824029996814 -3.7881606677237554
1.1897459572373852 -4.01651083529238
1.136281714026374 -4.221314007151717
1.0743367889298183 -4.398769399108169
1.0044723627521523 -4.545588142615476
0.9286653784500066 -4.659431224007171
0.8513638399433393 -4.739469127113674
0.7799799516704697 -4.787393210636368
0.7085960633976067 -4.739469127113514
0.6312945248909587 -4.659431224006852
0.5554875405888438 -4.545588142615021
0.48562311441121714 -4.398769399107607
0.42367818931470547 -4.221314007151076
0.3702139461037401 -4.016510835291678
0.3251358733443573 -3.788160667723016
0.2880465856620135 -3.540201263302951
0.25837999172063825 -3.276448371627933
0.23546467194651516 -3.0004409722966336
0.21853548082703675 -2.7153294230562466
0.20671925218637963 -2.4237325473936666
0.199032947663282 -2.127657551194557
0.19443105255120144 -1.8285450463948216
0.19190867966000308 -1.527427997959712
0.19059498835627517 -1.2251052337954222
0.18985163441331526 -0.9221532979327116
0.18938228039577776 -0.6188908509173053
0.18915123501214134 -0.3155741504492428
0.18909772981185388 -0.01245029441997627
1.4466168406584765 -0.012449258168774312
1.4465625399704134 -0.31556626465783055
1.4463245342589688 -0.6188521210802729
1.4458133530532171 -0.9220880697709409
1.4449637191994482 -1.2249784194479987
1.4433899380656985 -1.5271095922396254
1.440379548110099 -1.8278261711937167
1.435018022162371 -2.1262886195573
1.4262202941310764 -2.4214392377059344
1.412831680763486 -2.711840362671277
1.3937410020521555 -2.9955079604436214
1.3679473412402456 -3.2698525976786637
1.3345697317869007 -3.5317504947873206
1.2928479227913625 -3.7776900944430043
1.2421819187346785 -4.003895354424409
1.182216610548557 -4.206493158905755
1.1129906223781032 -4.381795012391632
1.0351451563330847 -4.526725245299992
0.9503592375741384 -4.63936448125474
0.8625490562753798 -4.719663105183739
0.7799799516704514 -4.770251832188395
0.6974108470655308 -4.7196631051835825
0.6096006657667936 -4.639364481254428
0.5248147470078832 -4.526725245299545
0.44696928096290883 -4.3817950123910805
0.37774329279250474 -4.2064931589051255
0.31777798460643436 -4.00389535442372
0.26711198054980173 -3.777690094442277
0.2253901715543144 -3.531750494786578
0.1920125621010183 -3.2698525976779265
0.16621890128915195 -2.995507960442911
0.14712822257785857 -2.7118403626706082
0.13373960921029748 -2.421439237705317
0.12494188117902477 -2.126288619556743
0.11958035523131197 -1.8278261711932278
0.11656996527572051 -1.5271095922392126
0.1149961841419744 -1.2249784194476616
0.11414655028820653 -0.9220880697706839
0.1136353690824551 -0.6188521210800936
0.1133973633710109 -0.31556626465773097
0.11334306268294746 -0.012449258168755587
1.5223823018617202 -0.012447533575973531
1.522344565148344 -0.31555578999387596
1.5221173036184867 -0.6188115342371383
1.5215584413908902 -0.9220153574350635
1.520573999870955 -1.2248203422901869
1.518706502846055 -1.5267073753942655
1.515189962219106 -1.826960425785194
1.50906622735047 -2.124698472641486
1.499178620176703 -2.4188279602365514
1.4842586603646406 -2.7079062404003222
1.4630597924921926 -2.9899693155933766
1.4344424633478974 -3.262458824791446
1.3974094189120378 -3.522284007861813
1.3511243345147084 -3.765970867728594
1.2949499967821656 -3.989797005386508
1.2285681578516734 -4.189977395795511
1.152163506574445 -4.362958691297953
1.0666233266532088 -4.505855502142548
0.9736684707199088 -4.617036840516875
0.8760504458474805 -4.697024318484497
0.7799799516704329 -4.749999999999991
0.683909457493393 -4.6970243184843445
0.5862914326209884 -4.617036840516571
0.4933365766877299 -4.505855502142112
0.40779639676654417 -4.362958691297414
0.3313917454893709 -4.189977395794895
0.26500990655893514 -3.9897970053858307
0.20883556882644846 -3.7659708677278805
0.16255048442917558 -3.5222840078610838
0.12551743999336956 -3.262458824790721
0.09690011084912206 -2.9899693155926768
0.07570124297671486 -2.7079062403996614
0.06078128316468425 -2.4188279602359404
0.05089367599094146 -2.1246984726409335
0.044769941122322424 -1.8269604257847079
0.04125340049538298 -1.526707375393854
0.039385903470486865 -1.2248203422898505
0.03840146195055304 -0.9220153574348066
0.037842599722957025 -0.618811534236959
0.037615338193100006 -0.3155557899937763
0.03757760147972399 -0.012447533575954841
SCALARS Stress float 6
LOOKUP_TABLE default
-1328.7336599861983 -2136.5163742851582 -1657.172238746999 -31.604864093275445 0.0 0.0
1408.1903338979978 832.9056583487242 1065.891590028355 -19.010656772503406 0.0 0.0
650.9165712538266 188.13808817398575 277.89309721210316 -42.98064688482315 0.0 0.0
513.6253784138003 38.80299609266834 174.75328648414384 -0.28623677698857364 0.0 0.0
648.0394319020681 95.01484483201904 279.9647530025128 3.5980396690037275 0.0 0.0
782.6195646460677 155.6165966188018 421.52708810782815 1.6378564366019805 0.0 0.0
924.7272524848082 221.60384832450427 552.2782203018265 0.1288813422673245 0.0 0.0
1072.8806081617686 305.9902914707515 676.4836488842107 -1.4183434410489593 0.0 0.0
1232.6819717634564 407.54635967693406 808.7033414672467 -3.2990226380722527 0.0 0.0
1412.2950442828412 533.7677830367359 961.6896964635712 -5.354966123066924 0.0 0.0
1617.4868138793245 690.1173423881132 1142.0945375036613 -7.232716693084558 0.0 0.0
1847.7176109171369 876.2953916888712 1349.852004461458 -8.605264382613559 0.0 0.0
2096.7331986101203 1084.8393480651712 1578.1827777777698 -9.444806671723601 0.0 0.0
2356.35559702564 1307.3646085987784 1818.8389725885438 -10.076179911365621 0.0 0.0
2616.239123180002 1533.341656699037 2061.3785925599022 -10.452373383720243 0.0 0.0
2864.2150398364192 1750.6191564977657 2293.6654528826484 -10.455824194734632 0.0 0.0
3087.439787299828 1946.6747012875603 2503.0501416744028 -9.922883287719841 0.0 0.0
3273.6158017144685 2109.637917113343 2677.452437987848 -8.865623254921744 0.0 0.0
3423.05936882772 2240.286998168572 2817.269352878513 -7.891974316767069 0.0 0.0
3520.152252150241 2323.793311528846 2907.256079261354 -11.058762064206118 0.0 0.0
3512.4506648509405 2315.6922869835557 2899.482545026797 1.2168044349891716e-12 0.0 0.0
3520.1522521470642 2323.7933115256615 2907.25607925914 11.058762064272486 0.0 0.0
3423.0593688239464 2240.2869981648337 2817.2693528758296 7.8919743167108845 0.0 0.0
3273.6158017164475 2109.6379171154495 2677.452437989075 8.865623255006323 0.0 0.0
3087.4397872973664 1946.674701285231 2503.0501416721113 9.922883287826373 0.0 0.0
2864.2150398360113 1750.6191564974724 2293.6654528822232 10.455824194600051 0.0 0.0
2616.239123181306 1533.3416567005715 2061.3785925603574 10.452373383629636 0.0 0.0
2356.3555970232997 1307.3646085966252 1818.8389725866843 10.076179911507142 0.0 0.0
2096.7331986076592 1084.8393480629209 1578.1827777757383 9.444806671790305 0.0 0.0
1847.7176109162413 876.2953916882245 1349.852004460548 8.605264382780684 0.0 0.0
1617.4868138779523 690.1173423869911 1142.0945375023837 7.232716692926845 0.0 0.0
1412.2950442813574 533.7677830355401 961.6896964624093 5.354966123191675 0.0 0.0
1232.6819717625597 407.5463596763268 808.7033414664413 3.2990226382353995 0.0 0.0
1072.880608159817 305.9902914690097 676.4836488828068 1.4183434410730893 0.0 0.0
924.7272524843679 221.6038483244385 552.2782203013404 -0.128881342322142 0.0 0.0
782.6195646451441 155.61659661811305 421.5270881069998 -1.6378564365124628 0.0 0.0
648.0394319017619 95.01484483203616 279.9647530021639 -3.598039669037723 0.0 0.0
513.6253784135885 38.80299609266588 174.75328648404002 0.28623677704904615 0.0 0.0
650.916571253271 188.1380881735636 277.89309721175135 42.98064688463935 0.0 0.0
1408.190333897748 832.9056583484694 1065.8915900279646 19.010656772595475 0.0 0.0
-1328.7336599832456 -2136.5163742822656 -1657.1722387441403 31.604864092734385 0.0 0.0
-1691.8432949121266 -2471.427175604313 -1976.3750616377713 -34.714417886559 0.0 0.0
961.0271649417656 458.81063401372546 671.4909323971253 -26.537056917841177 0.0 0.0
456.80195554038 73.30777567009225 158.68986554850665 -37.96328088079418 0.0 0.0
451.5737147160868 10.077324679863057 142.53618462520373 -15.495868440194375 0.0 0.0
571.7420785985829 43.22294813816594 222.95380777539117 -17.49411003936228 0.0 0.0
679.4804812621968 62.73286714604875 328.82041486994626 -23.70409730891271 0.0 0.0
772.8200232744553 85.00706776793922 417.70754827148494 -24.818065002699523 0.0 0.0
861.5659322394517 108.36011238160066 482.5319325354452 -25.100938682256807 0.0 0.0
941.4845810131812 129.52611898446474 534.5163326801074 -25.937305576493447 0.0 0.0
1014.0909443047848 149.08939346685884 580.915299466447 -26.944961932958638 0.0 0.0
1082.8849701834883 169.7484329958524 625.7084721237565 -27.517722734366476 0.0 0.0
1150.4798680193212 193.30070736586038 671.2971281833386 -27.561441850914242 0.0 0.0
1216.5013548825962 219.8406954674037 717.59513365456 -27.192173406354325 0.0 0.0
1278.3667009574856 245.0906093586616 761.1681870778721 -26.61710035372506 0.0 0.0
1330.9072533714193 264.2062326747939 797.0178729554107 -25.811569943199558 0.0 0.0
1369.9882223170018 273.00034376300624 820.9800739853441 -24.519363368117357 0.0 0.0
1393.2677416953738 269.3324306604654 830.8031275589635 -22.51620960174512 0.0 0.0
1401.2852285881058 254.16158584758443 827.2320309861922 -19.965775665756176 0.0 0.0
1386.029584226179 220.19115202310064 802.7430700264898 -17.89391916054445 0.0 0.0
1295.3689010045464 116.54928349845932 706.3156945423187 -19.47831137737963 0.0 0.0
1148.6045877962117 -29.664407352932898 560.8909760424966 -1.0837375441496988e-10 0.0 0.0
1295.3689010027742 116.54928349674616 706.3156945410246 19.478311377407145 0.0 0.0
1386.0295842250498 220.19115202205228 802.7430700258658 17.893919160629412 0.0 0.0
1401.285228589328 254.16158584889754 827.2320309872723 19.965775665982072 0.0 0.0
1393.2677416941556 269.3324306593171 830.8031275581384 22.516209601756017 0.0 0.0
1369.988222316147 273.0003437622787 820.9800739847692 24.51936336788433 0.0 0.0
1330.9072533715605 264.2062326750838 797.0178729554484 25.81156994305063 0.0 0.0
1278.366700957399 245.09060935877883 761.1681870778036 26.617100353747126 0.0 0.0
1216.5013548808809 219.84069546589774 717.5951336534404 27.192173406357785 0.0 0.0
1150.4798680197855 193.3007073665603 671.2971281836977 27.5614418509817 0.0 0.0
1082.884970183564 169.7484329961881 625.7084721237946 27.517722734245485 0.0 0.0
1014.0909443043627 149.0893934666904 580.915299466165 26.94496193287033 0.0 0.0
941.484581012807 129.5261189844137 534.5163326798371 25.937305576664542 0.0 0.0
861.5659322376837 108.360112380056 482.53193253432494 25.10093868228241 0.0 0.0
772.8200232740799 85.00706776787663 417.7075482711543 24.81806500258275 0.0 0.0
679.4804812615777 62.73286714573756 328.8204148693859 23.704097308996133 0.0 0.0
571.7420785984195 43.22294813835004 222.95380777518295 17.494110039318592 0.0 0.0
451.5737147160555 10.077324680299714 142.53618462530883 15.495868440127385 0.0 0.0
456.8019555400479 73.30777566988864 158.68986554835692 37.96328088066602 0.0 0.0
961.0271649412069 458.8106340132007 671.4909323964679 26.53705691780142 0.0 0.0
-1691.8432949100782 -2471.4271756022194 -1976.3750616356535 34.71441788611048 0.0 0.0
-1429.6585642966347 -2174.071806119696 -1686.9047683687352 -73.25590436046525 0.0 0.0
784.7487253487648 366.26713932071135 529.36748916298 -94.40902144936769 0.0 0.0
315.5759196096768 84.07402654003067 119.96052093056682 -42.63618146171915 0.0 0.0
388.0491198124597 3.3918390651721633 117.94202182796201 -37.45138843191197 0.0 0.0
526.3687391613958 32.826400087729134 190.51415706377657 -40.07597758261849 0.0 0.0
645.3133858903731 56.48349839125673 296.70836630096755 -44.16918616976613 0.0 0.0
741.9544671322357 78.7909530526955 393.8530931185459 -45.75662288152426 0.0 0.0
829.7316535987425 97.98581066238806 460.16797201052333 -46.612543323046225 0.0 0.0
906.0262346121009 115.09444114677481 509.22547520850725 -48.237559885023565 0.0 0.0
974.5530002544199 130.65432968706375 551.6389677708971 -49.60350055482545 0.0 0.0
1040.1953759575813 148.70814439402983 593.5438828741505 -49.977674112475306 0.0 0.0
1105.0659609409822 170.6830858862658 636.993973923921 -49.493077725621724 0.0 0.0
1168.6250819152253 194.66785240148198 680.8044273961535 -48.59134619640501 0.0 0.0
1227.5320687116437 218.08199671261622 721.9922609561135 -47.388208528455685 0.0 0.0
1278.8904963450404 236.53828488651754 756.9127327387478 -45.80817199511088 0.0 0.0
1318.6925606020254 246.42278421441085 781.7674219050388 -43.5281135497454 0.0 0.0
1344.2321531579842 245.14522455184593 793.9264727390877 -40.26535569416161 0.0 0.0
1350.5155553141853 228.20446476855633 788.6979951211848 -36.41044404792806 0.0 0.0
1322.086631253809 181.14127537748107 751.2429839742088 -33.17605935477696 0.0 0.0
1272.0535859907388 118.47146525931812 695.2505769963976 -31.77305774114063 0.0 0.0
1105.4311688841817 -46.787020846268774 530.4885977408354 -2.3490542844228912e-11 0.0 0.0
1272.05358599089 118.47146525948995 695.2505769964439 31.77305774114354 0.0 0.0
1322.0866312536098 181.1412753773516 751.2429839741386 33.176059354704705 0.0 0.0
1350.515555312537 228.2044647669571 788.6979951201444 36.410444047956986 0.0 0.0
1344.2321531578827 245.14522455188418 793.9264727390241 40.26535569412703 0.0 0.0
1318.6925606003979 246.42278421288555 781.7674219038686 43.52811354968474 0.0 0.0
1278.890496344041 236.53828488568846 756.9127327379807 45.808171995085644 0.0 0.0
1227.532068712736 218.08199671389394 721.9922609567768 47.388208528494665 0.0 0.0
1168.6250819145287 194.66785240104875 680.8044273957435 48.59134619647726 0.0 0.0
1105.0659609412594 170.6830858867092 636.9939739241917 49.49307772556059 0.0 0.0
1040.1953759587007 148.70814439545293 593.5438828749417 49.97767411243498 0.0 0.0
974.5530002537296 130.65432968662597 551.6389677704414 49.60350055485958 0.0 0.0
906.0262346118742 115.09444114685971 509.2254752083371 48.23755988511948 0.0 0.0
829.7316535971486 97.98581066110131 460.1679720095306 46.61254332313853 0.0 0.0
741.9544671318064 78.7909530525842 393.8530931181539 45.75662288155131 0.0 0.0
645.3133858895437 56.48349839066868 296.70836630029316 44.169186169767464 0.0 0.0
526.3687391613099 32.82640008798672 190.5141570636785 40.075977582538904 0.0 0.0
388.04911981254673 3.391839065692597 117.94202182813792 37.451388431814394 0.0 0.0
315.5759196096579 84.07402653987924 119.9605209305116 42.63618146173161 0.0 0.0
784.7487253480549 366.2671393203015 529.3674891622885 94.40902144915779 0.0 0.0
-1429.6585642944474 -2174.071806117438 -1686.9047683664808 73.2559043601642 0.0 0.0
-1176.4445044190252 -1890.1362824693433 -1412.9601511269927 -87.09266099837788 0.0 0.0
603.2515740907215 271.1699617651744 394.96367803862813 -145.9819144724616 0.0 0.0
227.2809883987484 69.46711663580041 89.02443151036461 -63.85538388430734 0.0 0.0
322.6985480543282 8.984445849401006 99.20715619959103 -60.87169308713885 0.0 0.0
470.2625408217238 20.036030679506855 157.36420013574286 -65.24696591354571 0.0 0.0
599.1653051527475 48.67231637135202 258.62688225949444 -65.80014109611719 0.0 0.0
707.265859521942 70.76056236505728 364.185035035962 -67.98787969899352 0.0 0.0
793.0397516072072 87.80381378178355 434.4533958686412 -68.26417834709034 0.0 0.0
866.4257024144603 100.96209650135151 481.7652197246174 -70.08499201258427 0.0 0.0
931.2406472898039 112.86096279822704 520.6969260153937 -71.4285299644158 0.0 0.0
993.3335455633819 127.92919807502543 559.3355910388909 -71.47234560504697 0.0 0.0
1055.5038466856074 147.44545290921775 600.2150322935403 -70.57931189054116 0.0 0.0
1116.161873119856 169.7732137236606 641.7786429146655 -69.1455202636729 0.0 0.0
1172.5849073541629 190.4789683804446 680.37721701511 -67.39647390587763 0.0 0.0
1222.4142805380675 208.07986601902618 714.0939505049521 -65.10925824034865 0.0 0.0
1263.4430227660828 219.69660516439245 740.4263199554171 -62.00956865682609 0.0 0.0
1290.6291640852562 219.96694712887316 754.2132434908114 -57.96092293961242 0.0 0.0
1295.748417310904 201.68377398306708 747.8053308177887 -53.25904965754748 0.0 0.0
1275.621955554352 162.6725670227907 718.4829098918156 -48.23016245280542 0.0 0.0
1246.4472868988753 120.2040691040247 682.8651297929034 -42.33274146444965 0.0 0.0
1014.2787854070916 -109.9942576252538 453.4966175635617 8.058975708991056e-11 0.0 0.0
1246.4472868989812 120.20406910418328 682.8651297930099 42.33274146445287 0.0 0.0
1275.6219555536936 162.67256702224003 718.4829098912168 48.230162453154094 0.0 0.0
1295.7484173091714 201.6837739814246 747.8053308167905 53.25904965761558 0.0 0.0
1290.629164086429 219.96694713015523 754.213243491604 57.9609229396869 0.0 0.0
1263.4430227660255 219.69660516457327 740.426319955355 62.00956865707055 0.0 0.0
1222.414280538949 208.07986602014753 714.0939505055754 65.10925824076094 0.0 0.0
1172.5849073551062 190.47896838145397 680.3772170156763 67.39647390563563 0.0 0.0
1116.1618731200313 169.77321372404458 641.7786429147382 69.1455202635676 0.0 0.0
1055.5038466862193 147.44545291013515 600.2150322939578 70.57931189061706 0.0 0.0
993.3335455645108 127.9291980764122 559.3355910395909 71.47234560518942 0.0 0.0
931.2406472891618 112.86096279793587 520.6969260149923 71.42852996450185 0.0 0.0
866.4257024140504 100.96209650115537 481.76521972436126 70.08499201249032 0.0 0.0
793.0397516064039 87.80381378136057 434.45339586814225 68.26417834723105 0.0 0.0
707.2658595219608 70.76056236549947 364.18503503581525 67.98787969919766 0.0 0.0
599.1653051517382 48.67231637062733 258.6268822587281 65.80014109604738 0.0 0.0
470.262540821292 20.036030679482927 157.3642001355078 65.24696591336274 0.0 0.0
322.6985480541141 8.98444584931844 99.20715619950427 60.87169308708774 0.0 0.0
227.28098839866226 69.46711663559296 89.02443151027653 63.85538388413309 0.0 0.0
603.2515740900262 271.16996176492313 394.96367803803264 145.98191447239026 0.0 0.0
-1176.4445044171537 -1890.136282467372 -1412.9601511249912 87.09266099821457 0.0 0.0
-954.4991578931262 -1642.7581456272283 -1171.2388786153836 -85.44717021477132 0.0 0.0
468.3887856910808 185.2360151496166 288.2802615334187 -179.5129587143054 0.0 0.0
165.68561403189491 53.37353052864143 65.71774336816088 -94.86775956881706 0.0 0.0
262.05931072635786 15.339645776208902 83.18322991264078 -86.44984805890891 0.0 0.0
403.98678995586585 11.435824973587325 127.41477065761589 -92.13084994826839 0.0 0.0
543.1334893608446 35.626901458340626 215.30161529168006 -90.95135961840097 0.0 0.0
661.5519211660816 61.442763079817425 325.73098626163153 -90.50649067473162 0.0 0.0
750.5419554027624 78.15035388649996 404.584002220227 -90.2934526328684 0.0 0.0
822.098103481439 87.46164789866515 451.76258127824656 -91.39383125027416 0.0 0.0
883.2440545609102 95.43579474599831 487.41412361273984 -92.38723329031433 0.0 0.0
942.0509122138665 107.26068214530875 522.8251822904949 -92.0217104565752 0.0 0.0
1001.0077596053192 124.1187480516944 560.7871382468364 -90.71931668231605 0.0 0.0
1058.8942321916386 143.78239314884067 599.6569588625003 -88.91958395008547 0.0 0.0
1112.7572928456614 163.28497596383596 636.4027211693469 -86.5989709868356 0.0 0.0
1161.0969379743522 179.4279488382273 668.6507552374648 -83.64679431831308 0.0 0.0
1202.0780004725234 190.8584077825255 694.8502086884428 -79.99766209212092 0.0 0.0
1231.5154428793867 193.70945861349625 711.0691055497383 -75.54541114270076 0.0 0.0
1242.5270797710994 181.05213757025925 710.4332527820304 -70.16728269936345 0.0 0.0
1232.2351480091306 151.05576574731452 690.5187597510828 -63.078652018401435 0.0 0.0
1212.9985375327994 117.00856230977676 664.0322202825178 -53.12404367702024 0.0 0.0
900.8447062501918 -192.36223199055604 355.96521316729456 -2.474465077284549e-12 0.0 0.0
1212.9985375334334 117.00856231047914 664.0322202830989 53.12404367695542 0.0 0.0
1232.2351480093455 151.05576574761147 690.5187597511455 63.07865201863964 0.0 0.0
1242.5270797689197 181.05213756811523 710.43325278054 70.1672826992443 0.0 0.0
1231.515442878695 193.70945861286754 711.0691055492088 75.5454111426593 0.0 0.0
1202.0780004738917 190.85840778416818 694.8502086892655 79.99766209247663 0.0 0.0
1161.0969379748103 179.42794883891997 668.6507552377442 83.64679431859722 0.0 0.0
1112.7572928451407 163.28497596339218 636.4027211690088 86.59897098663367 0.0 0.0
1058.894232190794 143.78239314818015 599.6569588619217 88.91958395006154 0.0 0.0
1001.0077596063085 124.11874805295199 560.787138247458 90.71931668246812 0.0 0.0
942.0509122133552 107.2606821450437 522.8251822901184 92.02171045663088 0.0 0.0
883.2440545606995 95.43579474602788 487.41412361263366 92.38723329025605 0.0 0.0
822.0981034816677 87.46164789913539 451.7625812783626 91.39383125011089 0.0 0.0
750.5419554016436 78.15035388569908 404.5840022194753 90.29345263285822 0.0 0.0
661.5519211657786 61.44276307986898 325.7309862612735 90.50649067479806 0.0 0.0
543.1334893607293 35.62690145857669 215.30161529146613 90.9513596182597 0.0 0.0
403.9867899554203 11.435824973321377 127.41477065738195 92.13084994799166 0.0 0.0
262.05931072640226 15.33964577622988 83.18322991265863 86.44984805883497 0.0 0.0
165.68561403199118 53.37353052869277 65.71774336820518 94.86775956854545 0.0 0.0
468.3887856904547 185.23601514938505 288.28026153289903 179.51295871425623 0.0 0.0
-954.4991578916254 -1642.7581456255855 -1171.2388786136585 85.44717021464098 0.0 0.0
-758.6971446546245 -1424.3075595863652 -955.6738533692991 -80.31126851735883 0.0 0.0
362.4065742920378 118.03638449183367 205.42881418460115 -199.57388660689736 0.0 0.0
119.77901735673025 36.298424840587444 46.823144026108 -124.87690853159462 0.0 0.0
208.90602406529047 19.648003117481906 68.57139623174841 -112.32909802782109 0.0 0.0
331.9875820594373 6.997455309346481 101.30850943163291 -119.45671577362877 0.0 0.0
472.09093030503374 22.327057097391283 171.02702028691482 -117.63972820126793 0.0 0.0
600.2944401462711 51.3406790776772 278.23289532644975 -114.18483511499267 0.0 0.0
700.5593554654918 66.32067653615357 366.76369641603884 -113.20984641480698 0.0 0.0
770.2988344452951 74.24991009842016 417.2969757142746 -112.17712746182791 0.0 0.0
829.7289830162536 78.1814180856211 451.107482258316 -112.46764717224087 0.0 0.0
885.1412748526609 86.66097674798004 483.29886439121367 -111.5863335377577 0.0 0.0
940.8683519531363 100.79400134605955 518.3073343516952 -109.84875606161539 0.0 0.0
995.6884046301668 118.18078120815969 554.5277078105746 -107.69452352475334 0.0 0.0
1046.860080996766 135.01780550477858 588.6256586336107 -105.01984131419498 0.0 0.0
1093.185354978964 149.81179083621868 619.2175283741211 -101.49833954375698 0.0 0.0
1133.661863995823 161.28509025753473 645.1895636357082 -97.28071843670863 0.0 0.0
1166.4428488950782 166.90595735962947 664.4226561597499 -92.71185644625297 0.0 0.0
1186.576047842807 163.10523182823687 672.7606108646116 -87.00084157175874 0.0 0.0
1187.243430939337 143.0507531900013 663.3316671277898 -78.315424956941 0.0 0.0
1173.980822500668 112.60032922921395 641.6458664200353 -64.94696920555748 0.0 0.0
767.9702676059134 -289.2176631913734 241.65350555651622 -5.289280124998186e-11 0.0 0.0
1173.9808225008067 112.60032922937614 641.6458664202218 64.94696920570279 0.0 0.0
1187.2434309404362 143.05075319124603 663.3316671286952 78.31542495710842 0.0 0.0
1186.576047842607 163.10523182813688 672.7606108643547 87.0008415718677 0.0 0.0
1166.4428488942158 166.90595735892384 664.4226561590226 92.71185644630089 0.0 0.0
1133.6618639970852 161.28509025894004 645.1895636367092 97.2807184369558 0.0 0.0
1093.1853549779073 149.81179083520456 619.2175283733861 101.49833954355881 0.0 0.0
1046.8600809956179 135.0178055037317 588.6256586328977 105.01984131409748 0.0 0.0
995.6884046295094 118.1807812076783 554.5277078101061 107.69452352461013 0.0 0.0
940.8683519527762 100.79400134579811 518.3073343514676 109.84875606156395 0.0 0.0
885.1412748528398 86.66097674840589 483.2988643913374 111.58633353767446 0.0 0.0
829.7289830157224 78.18141808536498 451.10748225796357 112.46764717222419 0.0 0.0
770.2988344458536 74.24991009923764 417.2969757145964 112.17712746181697 0.0 0.0
700.5593554644255 66.32067653533382 366.7636964152693 113.2098464146532 0.0 0.0
600.2944401456361 51.340679077276825 278.23289532584073 114.18483511488179 0.0 0.0
472.0909303051023 22.32705709778807 171.0270202868574 117.63972820106386 0.0 0.0
331.98758205897434 6.9974553090988145 101.30850943143443 119.45671577332993 0.0 0.0
208.90602406529482 19.648003117795458 68.57139623184199 112.32909802758323 0.0 0.0
119.77901735676832 36.298424840773265 46.82314402617523 124.87690853153288 0.0 0.0
362.406574291493 118.0363844915352 205.4288141841514 199.57388660679803 0.0 0.0
-758.6971446530639 -1424.307559584697 -955.6738533676478 80.31126851719603 0.0 0.0
-588.5261499451161 -1225.7859126486815 -763.1392986296861 -75.1774880520566 0.0 0.0
278.3209506739373 65.22360019929566 141.3959724373885 -212.44860212458207 0.0 0.0
83.35962845419024 20.197916388410253 31.06741550627838 -149.69831956458705 0.0 0.0
160.19340947317488 22.50233316630012 54.80756284078848 -136.19397509912562 0.0 0.0
258.2734978431539 6.740346348536565 78.87614164818835 -143.5986294715023 0.0 0.0
389.12939064190135 8.43257633584902 127.93727991307163 -147.65644520818293 0.0 0.0
523.5245123162159 36.22737418505807 221.5350922368866 -140.76518668399146 0.0 0.0
633.4736976181173 55.21715551217509 317.41171098907216 -135.95980438502218 0.0 0.0
711.5797687786207 58.735735045514346 375.8787463230866 -133.9014360137218 0.0 0.0
767.6383533925658 60.99627703703733 409.7924122555347 -131.54993080916012 0.0 0.0
821.199795929213 66.2240636094664 439.8473582926803 -130.0533838033502 0.0 0.0
873.5505249313862 77.38118750423459 471.7550045722339 -127.88650027718252 0.0 0.0
924.8342435901106 92.02893363643658 504.87166990472275 -125.4208180503426 0.0 0.0
973.1646842676993 106.9607894797614 536.6280169068144 -122.50375854994581 0.0 0.0
1016.9346262819909 119.74162469042255 564.9968035769537 -118.65149300698292 0.0 0.0
1055.8788526499222 129.1960457272748 589.1986009360866 -114.03074454836161 0.0 0.0
1091.8639615855611 139.06169239242595 612.0880631821626 -109.04604575922994 0.0 0.0
1123.8573627581745 146.26410081952798 631.8042423481673 -103.54360346007037 0.0 0.0
1138.1240953719473 137.8758708507358 635.0617340352338 -94.40286937903392 0.0 0.0
1130.3323669682907 109.93573985052122 617.4767430554186 -78.6677708969903 0.0 0.0
614.212759408303 -399.1970420631425 110.56575950029743 -9.966427683139045e-11 0.0 0.0
1130.3323669655676 109.93573984782323 617.4767430534281 78.66777089707023 0.0 0.0
1138.1240953727147 137.87587085157932 635.0617340358974 94.40286937924627 0.0 0.0
1123.8573627588282 146.2641008202676 631.804242348788 103.54360346009233 0.0 0.0
1091.863961583866 139.06169239076266 612.0880631808209 109.0460457592361 0.0 0.0
1055.8788526504104 129.19604572785522 589.1986009365676 114.03074454836178 0.0 0.0
1016.9346262805864 119.74162468906165 564.9968035760174 118.65149300676592 0.0 0.0
973.1646842671051 106.96078947945998 536.6280169064177 122.5037585501326 0.0 0.0
924.8342435895271 92.02893363603191 504.87166990431365 125.4208180503692 0.0 0.0
873.5505249306167 77.38118750364802 471.7550045717868 127.88650027724319 0.0 0.0
821.1997959302879 66.22406361089128 439.8473582934197 130.05338380345893 0.0 0.0
767.6383533918678 60.99627703660039 409.79241225512527 131.54993080920036 0.0 0.0
711.5797687793938 58.73573504674326 375.87874632351867 133.90143601380933 0.0 0.0
633.4736976171217 55.21715551141592 317.411710988385 135.95980438500905 0.0 0.0
523.5245123153716 36.227374184273145 221.53509223616896 140.76518668380535 0.0 0.0
389.1293906417587 8.432576336189399 127.9372799130187 147.65644520812 0.0 0.0
258.27349784304556 6.740346348867376 78.87614164827743 143.59862947121007 0.0 0.0
160.19340947340672 22.50233316659333 54.807562840944264 136.19397509885226 0.0 0.0
83.35962845429692 20.197916388546943 31.067415506351363 149.6983195645774 0.0 0.0
278.320950673344 65.22360019905518 141.3959724369908 212.44860212453136 0.0 0.0
-588.5261499440873 -1225.785912647456 -763.1392986284036 75.17748805196115 0.0 0.0
-438.32804878284617 -1051.9297558407955 -591.8959457854909 -77.25166709581944 0.0 0.0
207.33434849430532 25.264278233242205 91.3808532558904 -217.55890958794348 0.0 0.0
52.63996828263259 6.963292718179003 17.88022060257088 -168.29269673391175 0.0 0.0
113.35178914340761 23.773398762527602 41.136947613832895 -156.45322726519814 0.0 0.0
187.88830257795175 8.435931432056401 58.59374230466115 -163.9863384008605 0.0 0.0
294.3757972936527 0.28795372118944473 90.08188704527515 -176.1331874382915 0.0 0.0
424.58490037872537 18.544040408745357 159.52818951081662 -169.79250672900486 0.0 0.0
545.8104546410642 39.12413119993583 251.93288931289484 -159.96519679893964 0.0 0.0
634.2399089881503 44.66990358011169 321.590809380805 -154.41266835742525 0.0 0.0
695.0786757792808 41.70675590766672 359.9084604317412 -150.73395198495552 0.0 0.0
745.9046712527655 45.08157239342159 389.11675019280335 -147.24812761375068 0.0 0.0
795.2756833529713 53.982744749584995 418.7402678891788 -144.55396881482997 0.0 0.0
842.9741210347645 65.78821523536388 448.71411011363807 -141.80623644487295 0.0 0.0
887.4760788170519 78.05250300752024 477.2502982000046 -138.80125778742413 0.0 0.0
928.931405929676 89.15844457560931 503.66652038161595 -135.03032662653976 0.0 0.0
965.9427914400485 97.63458496163993 526.517463953584 -130.11446687186094 0.0 0.0
1002.1850326258058 106.59098478408274 549.0766214813309 -124.59465243584603 0.0 0.0
1045.4985863122142 124.96609082057708 579.8492823458913 -119.29881940713486 0.0 0.0
1080.567847858494 136.4363449845242 603.5030373189242 -111.33809201398118 0.0 0.0
1083.0112972572354 114.53376134418569 594.3637943022513 -95.37507366790541 0.0 0.0
434.0625050762768 -521.3589127703217 -39.4651473709944 1.2677503491431708e-10 0.0 0.0
1083.011297256451 114.5337613433949 594.3637943017117 95.37507366796454 0.0 0.0
1080.5678478566356 136.436344982584 603.5030373176683 111.33809201391777 0.0 0.0
1045.4985863126224 124.96609082127169 579.8492823462411 119.29881940732673 0.0 0.0
1002.1850326230394 106.59098478119691 549.0766214791043 124.59465243571857 0.0 0.0
965.9427914413113 97.63458496324034 526.5174639544299 130.11446687200726 0.0 0.0
928.9314059289018 89.15844457492949 503.6665203810294 135.03032662657074 0.0 0.0
887.4760788164981 78.05250300708154 477.25029819958513 138.80125778748342 0.0 0.0
842.9741210342487 65.78821523509023 448.71411011330065 141.80623644492152 0.0 0.0
795.2756833528754 53.98274474975483 418.74026788914114 144.55396881493567 0.0 0.0
745.9046712526191 45.08157239352261 389.1167501926664 147.24812761381514 0.0 0.0
695.0786757792107 41.70675590783575 359.908460431719 150.73395198488868 0.0 0.0
634.2399089877028 44.66990357989028 321.5908093804963 154.41266835746995 0.0 0.0
545.8104546398674 39.124131198936944 251.93288931201596 159.96519679881743 0.0 0.0
424.5849003779976 18.544040408185197 159.5281895102417 169.79250672891393 0.0 0.0
294.3757972932517 0.2879537211531238 90.0818870451234 176.13318743811388 0.0 0.0
187.8883025778517 8.435931432240373 58.59374230469471 163.98633840064164 0.0 0.0
113.35178914340929 23.773398762588297 41.13694761385711 156.45322726499057 0.0 0.0
52.6399682826997 6.963292718280557 17.88022060261984 168.29269673374728 0.0 0.0
207.33434849383232 25.264278233012387 91.380853255576 217.55890958776968 0.0 0.0
-438.32804878210356 -1051.929755839734 -591.8959457844544 77.25166709585385 0.0 0.0
-318.796145318734 -886.1151209309385 -448.3019266005908 -80.88565434306294 0.0 0.0
146.5531902009384 -7.072383479390334 52.88904791497804 -216.41645744414757 0.0 0.0
24.464621473497324 -2.217476813323332 6.67211997018976 -181.32752982481088 0.0 0.0
67.40349982688261 23.54578068473075 27.27542421627314 -172.58673868588662 0.0 0.0
120.11054004351631 11.401417596799936 39.31308716208626 -179.82760919208303 0.0 0.0
193.2508792339816 -0.7679973386057688 57.73284383140737 -197.91990172303682 0.0 0.0
300.5597807697385 1.7560997882260314 98.29139607755451 -202.09348078279248 0.0 0.0
426.05682788862913 16.19046186166375 168.81915255694904 -188.0510756116244 0.0 0.0
528.4657131489483 24.73481662305455 242.32011340245452 -174.47382322043353 0.0 0.0
597.6676579241712 22.413162525476977 290.7762969175477 -167.55553679399398 0.0 0.0
649.9850792192719 23.613413491582776 323.59244214666575 -162.51153961420812 0.0 0.0
696.7319011256803 29.680507902247374 351.78590830351027 -159.31928055401903 0.0 0.0
740.4508693177687 39.2418244020803 379.1403433300231 -156.36960724035808 0.0 0.0
780.414227279708 48.70934690768616 404.14396566202913 -153.4334959249552 0.0 0.0
818.4052638143438 58.07939254142002 428.0468314284472 -150.1428822235327 0.0 0.0
854.9009005211321 66.6780407337679 450.8809335498207 -145.72434594094372 0.0 0.0
890.1720612362238 74.33666662969583 472.6803652977673 -139.73915876387866 0.0 0.0
935.2073898452254 92.85894750529602 504.37897566040704 -133.6030228844046 0.0 0.0
997.2572276192814 128.96010991008689 553.5844541553806 -128.40609119035287 0.0 0.0
1030.4732631533316 132.874264822325 573.451867259938 -116.95319074945151 0.0 0.0
217.8721103957883 -650.9685993204637 -210.5580638037045 1.8713208760345879e-10 0.0 0.0
1030.4732631539623 132.87426482301316 573.4518672605418 116.95319074962765 0.0 0.0
997.257227618225 128.96010990929727 553.584454154595 128.40609119057464 0.0 0.0
935.2073898469544 92.85894750750552 504.3789756618262 133.60302288520748 0.0 0.0
890.1720612347226 74.33666662811248 472.68036529658843 139.7391587638015 0.0 0.0
854.9009005212403 66.6780407338097 450.8809335499759 145.72434594097646 0.0 0.0
818.4052638135244 58.079392540620134 428.04683142791305 150.1428822234452 0.0 0.0
780.4142272794609 48.70934690765395 404.1439656618677 153.43349592501303 0.0 0.0
740.4508693173498 39.241824402113835 379.14034332983175 156.36960724072233 0.0 0.0
696.7319011266926 29.68050790369497 351.7859083041967 159.3192805542869 0.0 0.0
649.9850792187165 23.613413491182726 323.5924421463184 162.5115396142084 0.0 0.0
597.6676579246758 22.413162526206442 290.7762969178307 167.55553679392577 0.0 0.0
528.4657131480284 24.734816622349904 242.3201134017654 174.47382322036256 0.0 0.0
426.05682788824447 16.190461861725655 168.81915255668116 188.05107561166395 0.0 0.0
300.55978076960764 1.7560997887680947 98.29139607761212 202.09348078284265 0.0 0.0
193.2508792334748 -0.7679973392606283 57.732843831069836 197.91990172275302 0.0 0.0
120.1105400434489 11.401417596886537 39.313087162098626 179.8276091916821 0.0 0.0
67.40349982671614 23.545780684533767 27.27542421616294 172.5867386857139 0.0 0.0
24.46462147349211 -2.2174768131798763 6.67211997023111 181.32752982451117 0.0 0.0
146.55319020059727 -7.072383479643772 52.88904791473984 216.41645744392878 0.0 0.0
-318.79614531790196 -886.1151209297666 -448.30192659964234 80.88565434311334 0.0 0.0
-220.89393285058298 -737.7108571967167 -328.91898390106775 -92.65533164314003 0.0 0.0
92.06781515391184 -33.19028603014697 22.46025265344953 -209.2388063779492 0.0 0.0
-2.865261841987082 -6.5625991084752995 -2.8500563906515475 -188.79362490451572 0.0 0.0
21.86559624411434 22.273329061550797 13.237652961346003 -183.61493518526993 0.0 0.0
52.62477470302913 14.637250561798679 20.133311928962808 -190.95801166175005 0.0 0.0
92.96607857607707 2.6216474621698493 28.615152422238356 -211.53101773437223 0.0 0.0
152.9203702515573 -2.8140761357347146 45.89983124638808 -226.20634321965076 0.0 0.0
248.20589037282164 -7.151831712032476 77.15816755569233 -222.4972659821109 0.0 0.0
360.4423581999604 -13.262080399578734 120.13352501546237 -200.10807579123025 0.0 0.0
443.75241025187233 -11.087232244779692 165.07811140555816 -177.96037505246636 0.0 0.0
500.5428277233403 -2.540549687827827 204.27410734959517 -171.44796909679218 0.0 0.0
543.2866009091113 4.9076755460722765 235.11099998489283 -169.9602310869883 0.0 0.0
579.9797788828085 12.585752959709268 261.07202825719634 -169.21876710739244 0.0 0.0
613.7273520258072 20.343737460129688 284.2144973447448 -168.29696567619322 0.0 0.0
646.7834980319328 28.519206905669975 307.0634801505036 -166.82553534552267 0.0 0.0
681.7356242249572 37.2592126605729 331.46221248745485 -164.16580678252447 0.0 0.0
719.3602977751855 45.343055849650796 357.3185697384082 -158.93021957917355 0.0 0.0
759.1262117912548 52.11218550942934 383.50375366523167 -151.37438881865938 0.0 0.0
829.8049355522437 87.77423217275513 436.89710717170044 -146.1166911821746 0.0 0.0
935.0800251947956 154.0038871573964 525.668277934532 -146.27986851660177 0.0 0.0
-67.81549824375006 -778.6038493367704 -412.57533737212975 1.077680167327344e-10 0.0 0.0
935.0800251949339 154.00388715768355 525.6682779345946 146.2798685170402 0.0 0.0
829.8049355540703 87.774232175132 436.8971071729353 146.11669118234872 0.0 0.0
759.126211790388 52.11218550814536 383.5037536648008 151.37438881907497 0.0 0.0
719.3602977739592 45.34305584802199 357.3185697374269 158.93021957902477 0.0 0.0
681.73562422457 37.2592126605347 331.46221248722 164.1658067823062 0.0 0.0
646.7834980320986 28.519206906081465 307.06348015071774 166.82553534556615 0.0 0.0
613.7273520266588 20.34373746129652 284.2144973453388 168.29696567621139 0.0 0.0
579.9797788831619 12.585752960714174 261.072028257382 169.21876710770658 0.0 0.0
543.2866009085758 4.9076755454980585 235.1109999847323 169.96023108721332 0.0 0.0
500.54282772410255 -2.540549686353085 204.27410735012842 171.44796909690203 0.0 0.0
443.75241025183914 -11.08723224455868 165.0781114055865 177.96037505245152 0.0 0.0
360.4423581998993 -13.262080398935781 120.13352501558799 200.10807579142687 0.0 0.0
248.2058903727749 -7.151831711450879 77.15816755581753 222.49726598218803 0.0 0.0
152.9203702516947 -2.8140761349453074 45.89983124666104 226.2063432195971 0.0 0.0
92.96607857536331 2.621647460915739 28.615152421656717 211.5310177339725 0.0 0.0
52.62477470312809 14.637250562094367 20.1333119290849 190.95801166143193 0.0 0.0
21.865596243941287 22.273329061160055 13.237652961176709 183.61493518503744 0.0 0.0
-2.86526184207624 -6.562599108575777 -2.8500563907110257 188.79362490438575 0.0 0.0
92.06781515358759 -33.19028603039517 22.460252653247757 209.23880637781664 0.0 0.0
-220.89393285005568 -737.7108571957966 -328.91898390040404 92.65533164320192 0.0 0.0
-152.47277375605083 -600.392055367372 -238.91622967632 -105.88327031369731 0.0 0.0
41.36974414416553 -53.49862565258175 -2.0212279840929295 -195.3331151398274 0.0 0.0
-29.907490291602045 -7.139125640130206 -11.119174076568928 -192.649573526086 0.0 0.0
-23.149757207693558 20.529873688704217 -0.8035247430200929 -189.96016466229236 0.0 0.0
-14.067206559587378 17.625823032222772 1.064552401493661 -196.66817400541305 0.0 0.0
-6.999328685110671 7.091276703952544 0.04054779815171017 -216.65941243661794 0.0 0.0
-3.328657359796825 0.83716171556196 -0.7499239094303016 -233.61776945456842 0.0 0.0
-1.313733948611798 0.14518322997619215 -0.35318145046271177 -236.3646763857964 0.0 0.0
-0.3818587492501848 -0.04240176633692272 -0.13214841628522933 -230.7851996681301 0.0 0.0
-0.13120627296386544 0.0026579603418710462 -0.037514039897956764 -226.01153440921036 0.0 0.0
-0.5211780130272956 -0.0038205436952267746 -0.09917958572381735 -214.44861415103324 0.0 0.0
-1.1333910669356726 0.22527828277502238 0.29980606770128304 -201.48133978034517 0.0 0.0
-1.7057342293465467 1.1625291968138924 0.6002819781826219 -192.80693093263298 0.0 0.0
1.2919814803282748 3.4528041585036675 1.2469544341270051 -186.18414050204697 0.0 0.0
12.912741736611878 8.324334192970639 2.947715857880894 -181.39396958211046 0.0 0.0
40.03469209573865 16.97409656941059 7.596523991887608 -177.13137705960608 0.0 0.0
92.12509008915623 31.261886290882103 17.648710109069924 -171.50854872176404 0.0 0.0
182.6904987188517 42.284091062634104 24.525011538380113 -162.34866224842386 0.0 0.0
408.13749118428336 3.5073514802837167 44.89926592507845 -158.6272473088045 0.0 0.0
649.0625628104785 42.70599881516247 265.85618617224515 -207.21009529074027 0.0 0.0
-779.1553643643422 -1039.2319176098536 -830.6793501200706 -3.041122909053229e-11 0.0 0.0
649.062562812114 42.70599881770201 265.85618617342936 207.21009529092365 0.0 0.0
408.13749118650253 3.5073514843570877 44.89926592724589 158.62724730952118 0.0 0.0
182.69049871827974 42.284091062152214 24.52501153835209 162.34866224870427 0.0 0.0
92.12509008798133 31.261886289508965 17.648710107986247 171.50854872217207 0.0 0.0
40.034692097260674 16.974096571768413 7.5965239931472865 177.13137705938254 0.0 0.0
12.912741737691448 8.324334194173332 2.9477158587195333 181.39396958218555 0.0 0.0
1.2919814806914758 3.452804158580861 1.2469544342492043 186.18414050223862 0.0 0.0
-1.7057342268585387 1.1625292000722993 0.6002819801091022 192.8069309326866 0.0 0.0
-1.1333910676280112 0.22527828125676308 0.2998060668916409 201.4813397802862 0.0 0.0
-0.5211780127425172 -0.0038205435409075506 -0.09917958567289276 214.44861415137035 0.0 0.0
-0.13120627227684878 0.0026579608081398476 -0.03751403954415622 226.0115344086014 0.0 0.0
-0.3818587491344445 -0.04240176664652573 -0.1321484163449984 230.78519966833653 0.0 0.0
-1.3137339480858792 0.14518323085641605 -0.3531814500258452 236.36467638578347 0.0 0.0
-3.3286573595721354 0.8371617158887484 -0.749923909267002 233.61776945450643 0.0 0.0
-6.999328685305747 7.091276703352501 0.040547797913291106 216.65941243624778 0.0 0.0
-14.067206559580043 17.625823032109608 1.064552401461043 196.66817400519002 0.0 0.0
-23.14975720769276 20.52987368859864 -0.803524743052723 189.9601646620743 0.0 0.0
-29.907490291725814 -7.139125640286251 -11.119174076653847 192.649573525937 0.0 0.0
41.369744143826296 -53.498625652795845 -2.021227984281606 195.33311513959194 0.0 0.0
-152.47277375564494 -600.3920553665644 -238.91622967585897 105.88327031368235 0.0 0.0
-115.07322846602244 -477.6648912323789 -178.60733391218525 -115.174300296826 0.0 0.0
-0.8703938893322487 -66.1008920430506 -19.97140783553922 -177.93385493708047 0.0 0.0
-55.775807867428725 -6.1406894848002445 -18.593328783821377 -191.61641760812773 0.0 0.0
-67.24844181824452 18.893178380857602 -14.534911579628382 -191.34345437048952 0.0 0.0
-79.51644271591786 19.925146869055556 -17.88956256113503 -196.5889584679277 0.0 0.0
-105.56252098736819 11.317785468497837 -28.327147329082443 -212.85747597388308 0.0 0.0
-158.6645675364316 4.470163439383703 -47.288300120848255 -227.17918197141157 0.0 0.0
-249.74418964254056 7.149411351602506 -77.84179342512797 -222.91122235811986 0.0 0.0
-360.74336562125296 13.126829941338027 -120.37303667262583 -200.23693271817925 0.0 0.0
-443.7860590633944 11.035972964972167 -165.11863213159728 -177.9111588002752 0.0 0.0
-501.1026323644204 2.385312215578381 -204.68632592696963 -171.46047014831694 0.0 0.0
-544.2012233775904 -4.720734709165953 -236.09022203411013 -169.7288957197757 0.0 0.0
-580.768629321267 -10.700129185137428 -261.41430488691054 -168.4814230318968 0.0 0.0
-610.4131494784006 -14.019402605812104 -279.7340683762229 -167.61313230965143 0.0 0.0
-630.3224298249198 -13.461405505327363 -289.3336550483757 -167.84152170537837 0.0 0.0
-638.565550492089 -7.831396341191663 -288.1105291748171 -169.81038940059972 0.0 0.0
-634.010109722841 2.559846555024393 -274.2660550212082 -174.3124829910435 0.0 0.0
-625.7653138726623 10.26840172636031 -251.2472251221173 -183.5481248255753 0.0 0.0
-599.2197203733344 66.11676610304099 -184.09407413329114 -197.0867702333593 0.0 0.0
-321.1181679308222 200.16741204770733 64.76591559447672 -171.56501262778292 0.0 0.0
-1363.3072896943177 -1324.1251338760205 -1382.0944314719723 -1.4170353779263678e-10 0.0 0.0
-321.11816793094346 200.16741204828108 64.76591559467545 171.56501262868554 0.0 0.0
-599.2197203713041 66.1167661055789 -184.09407413196863 197.08677023348346 0.0 0.0
-625.7653138711169 10.268401728290513 -251.24722512122318 183.54812482565737 0.0 0.0
-634.010109722843 2.5598465549068408 -274.26605502122493 174.31248299111587 0.0 0.0
-638.5655504892425 -7.83139633757348 -288.1105291727582 169.81038940019482 0.0 0.0
-630.3224298246494 -13.461405505330376 -289.33365504821177 167.84152170527366 0.0 0.0
-610.4131494782515 -14.019402605859518 -279.7340683761024 167.6131323094893 0.0 0.0
-580.7686293202743 -10.70012918360974 -261.41430488626276 168.48142303185972 0.0 0.0
-544.2012233770863 -4.720734709020867 -236.09022203377157 169.72889571966954 0.0 0.0
-501.1026323653689 2.3853122139628447 -204.68632592745695 171.46047014828744 0.0 0.0
-443.78605906256246 11.035972965859788 -165.1186321309648 177.91115880021573 0.0 0.0
-360.7433656198715 13.12682994248569 -120.37303667177812 200.23693271822341 0.0 0.0
-249.74418964220803 7.149411351213452 -77.84179342510583 222.91122235824272 0.0 0.0
-158.6645675362566 4.470163438946852 -47.28830012090995 227.17918197122034 0.0 0.0
-105.562520986978 11.317785468857043 -28.32714732886521 212.85747597363928 0.0 0.0
-79.51644271570912 19.92514686923399 -17.88956256102059 196.5889584676194 0.0 0.0
-67.2484418181016 18.893178381005942 -14.534911579544264 191.34345437029168 0.0 0.0
-55.775807867333555 -6.140689484603408 -18.593328783734243 191.61641760791986 0.0 0.0
-0.8703938894633043 -66.1008920432995 -19.971407835652993 177.93385493714538 0.0 0.0
-115.07322846596446 -477.6648912315428 -178.60733391198667 115.17430029640046 0.0 0.0
-96.68139366857596 -364.9131600796683 -138.4631435572235 -109.85282156018539 0.0 0.0
-28.50265592906042 -73.31380185094463 -30.538126692487126 -163.92316476405546 0.0 0.0
-80.08999783517555 -5.368501148312414 -25.62366794400179 -187.40051820803228 0.0 0.0
-109.61914907654342 17.506614017558654 -27.67350325420803 -187.66089261941428 0.0 0.0
-143.74191791286881 21.588460082522843 -36.60033909102579 -191.66238325155265 0.0 0.0
-202.34419660159773 14.020400258257158 -57.021266367842415 -201.96620096893014 0.0 0.0
-302.4086069168007 -0.9611520634880417 -99.4072662987851 -202.09345212641645 0.0 0.0
-426.18783409123114 -16.387317973164414 -169.1401066554339 -188.75808478443906 0.0 0.0
-528.4329284267933 -24.924225460363147 -242.4092966340644 -174.60857828848566 0.0 0.0
-597.583499510617 -22.42956711069425 -290.7715413034503 -167.5682309064555 0.0 0.0
-650.0954015177217 -23.59770647241109 -323.6896867293076 -162.39731249251557 0.0 0.0
-697.2672524824069 -29.475458062034946 -352.0641886633217 -158.69355263617047 0.0 0.0
-740.6168967320768 -37.82550487268506 -378.7298852047984 -155.11658138889675 0.0 0.0
-776.4772434709673 -43.219794802545294 -399.74887834888295 -152.44279255147978 0.0 0.0
-802.1857442660018 -43.048190378891206 -412.7274630816894 -151.64071615704168 0.0 0.0
-814.9578318463288 -35.26561706183787 -415.19752996054365 -153.0497769901714 0.0 0.0
-816.2939303496465 -22.49428964167376 -409.0365912343846 -156.87880756512794 0.0 0.0
-806.6474873043844 -6.878160626853031 -395.82962987938873 -162.94244269018802 0.0 0.0
-754.6644158877082 42.62779283170224 -344.61007503711073 -169.91314840162354 0.0 0.0
-623.1195881841932 156.65273636333916 -223.4303784981341 -177.5941120022649 0.0 0.0
-2173.912718352943 -1624.3475977545704 -1869.7387806627655 6.469491609095712e-11 0.0 0.0
-623.1195881846504 156.65273636234787 -223.43037849854107 177.59411200267795 0.0 0.0
-754.6644158881779 42.62779283106772 -344.6100750375439 169.91314840204868 0.0 0.0
-806.6474873046075 -6.878160627019938 -395.8296298795524 162.9424426902329 0.0 0.0
-816.2939303483053 -22.4942896406332 -409.0365912337088 156.8788075651432 0.0 0.0
-814.9578318456835 -35.26561706091155 -415.1975299600564 153.04977699036488 0.0 0.0
-802.1857442655325 -43.04819037869681 -412.7274630812959 151.6407161569049 0.0 0.0
-776.4772434697351 -43.21979480130936 -399.7488783481081 152.44279255137664 0.0 0.0
-740.6168967325575 -37.825504873480554 -378.72988520518976 155.11658138893418 0.0 0.0
-697.2672524820046 -29.47545806195989 -352.0641886630614 158.6935526362532 0.0 0.0
-650.0954015179966 -23.597706472935045 -323.68968672952656 162.3973124924127 0.0 0.0
-597.583499510066 -22.4295671104409 -290.7715413030734 167.5682309063474 0.0 0.0
-528.4329284261609 -24.924225460036187 -242.40929663365313 174.60857828860966 0.0 0.0
-426.1878340910173 -16.387317973680794 -169.14010665526607 188.7580847844961 0.0 0.0
-302.4086069162249 -0.9611520634188923 -99.40726629849847 202.0934521263626 0.0 0.0
-202.34419660118942 14.020400258361905 -57.021266367688234 201.9662009687499 0.0 0.0
-143.74191791262623 21.588460082623346 -36.600339090939656 191.66238325125437 0.0 0.0
-109.61914907656433 17.50661401739974 -27.67350325426434 187.66089261915457 0.0 0.0
-80.08999783505297 -5.3685011482377885 -25.623667943948156 187.40051820788838 0.0 0.0
-28.502655929185405 -73.31380185106589 -30.538126692560944 163.92316476406958 0.0 0.0
-96.68139366865823 -364.91316007929146 -138.46314355712084 109.8528215600519 0.0 0.0
-79.32517952732611 -270.82464217480594 -105.04494651063959 -99.08574090899842 0.0 0.0
-47.427974471635764 -73.70796572535532 -36.340242115237636 -149.77059708435118 0.0 0.0
-102.52505871091324 -5.053029742850816 -32.241463932099784 -178.88673770454812 0.0 0.0
-150.38390936540037 16.26091399793315 -40.20530731114454 -179.96527862562712 0.0 0.0
-205.6107770380411 21.417717679461308 -55.31370945270348 -179.74724742385365 0.0 0.0
-295.5426524512845 10.06400727845541 -89.13822875762514 -179.49672231906897 0.0 0.0
-424.4582065966497 -16.809501447929538 -159.31169119679214 -172.50225027590915 0.0 0.0
-545.8922293301036 -39.681823763976176 -252.14633906525034 -160.61107502339374 0.0 0.0
-634.1449983892063 -44.83754168373245 -321.6497230911909 -154.5055750111666 0.0 0.0
-694.9209560160264 -41.60359610176039 -359.823156079736 -150.78066197113648 0.0 0.0
-745.7197727296816 -44.81112030508007 -388.9253453102209 -147.11567737020104 0.0 0.0
-795.319705699256 -53.50320613924235 -418.57658385663035 -143.82768729717952 0.0 0.0
-842.9156250915685 -64.59192823993266 -448.19015224711063 -140.25249073539058 0.0 0.0
-884.4531209426476 -73.84983418570408 -473.844094392014 -137.35857066236593 0.0 0.0
-915.9035129413925 -76.9102943364166 -491.32428357505194 -136.43977678781155 0.0 0.0
-933.2612471221145 -71.05745686924206 -497.1797036388608 -138.3553991892881 0.0 0.0
-935.5081873581952 -55.29179708672805 -490.4552466268211 -142.9076828670712 0.0 0.0
-913.4774626810424 -21.933533822069137 -462.6967563574348 -148.2601406590299 0.0 0.0
-852.9231175172756 41.69803497746521 -401.02809861555284 -152.06278488253406 0.0 0.0
-679.1124148047209 205.1060779864431 -234.84666531058258 -151.57088192054198 0.0 0.0
-2614.010084166737 -1851.9255017518108 -2211.2241092800778 1.3228529383013665e-10 0.0 0.0
-679.112414804528 205.1060779866798 -234.84666531036055 151.57088192070623 0.0 0.0
-852.9231175175329 41.69803497701798 -401.0280986157597 152.0627848826089 0.0 0.0
-913.4774626822367 -21.933533823525607 -462.6967563581701 148.26014065937343 0.0 0.0
-935.5081873573602 -55.29179708585974 -490.4552466263856 142.90768286705136 0.0 0.0
-933.261247123845 -71.05745687145813 -497.17970364001866 138.3553991895729 0.0 0.0
-915.9035129408115 -76.91029433601048 -491.3242835746098 136.4397767879449 0.0 0.0
-884.4531209423617 -73.84983418565768 -473.8440943918174 137.3585706625208 0.0 0.0
-842.9156250917168 -64.5919282403225 -448.190152247321 140.25249073538066 0.0 0.0
-795.3197056990027 -53.503206139282355 -418.57658385647517 143.82768729725913 0.0 0.0
-745.7197727297302 -44.81112030549032 -388.9253453103819 147.11567737024257 0.0 0.0
-694.9209560153752 -41.60359610130419 -359.8231560793644 150.7806619710402 0.0 0.0
-634.1449983899774 -44.83754168525652 -321.64972309165444 154.50557501141213 0.0 0.0
-545.8922293291414 -39.68182376336014 -252.14633906450183 160.6110750234187 0.0 0.0
-424.4582065959323 -16.80950144757483 -159.311691196291 172.5022502758691 0.0 0.0
-295.542652450643 10.064007278852248 -89.13822875727116 179.49672231888846 0.0 0.0
-205.61077703815815 21.41771767855334 -55.3137094530169 179.74724742363287 0.0 0.0
-150.38390936553463 16.26091399731728 -40.205307311380984 179.96527862544033 0.0 0.0
-102.52505871075392 -5.053029742714465 -32.24146393200925 178.8867377045181 0.0 0.0
-47.427974471626776 -73.70796572543243 -36.34024211526045 149.7705970841064 0.0 0.0
-79.3251795272888 -270.8246421744911 -105.04494651053395 99.085740909026 0.0 0.0
-64.60293940297043 -192.22398011957839 -77.04807585676465 -85.3943343441199 0.0 0.0
-61.54964195674639 -68.97161357851483 -39.15658091165493 -133.8953828692224 0.0 0.0
-123.26876741857694 -4.858152879077597 -38.41542693091478 -166.11367808514808 0.0 0.0
-188.8158014250775 14.187351660132943 -52.36169139732567 -167.03504875146604 0.0 0.0
-267.2756638710624 19.187568227877215 -74.69100105276064 -163.25430867717898 0.0 0.0
-385.26318051246693 0.9595031632263211 -125.70376413371886 -153.86032822547685 0.0 0.0
-521.4788511391454 -35.44767333639719 -220.72564184756254 -141.82369435775294 0.0 0.0
-633.7508477783692 -56.05515421560715 -317.7854670425558 -136.29924021475182 0.0 0.0
-711.512864611083 -58.83063990434411 -375.9547659303629 -133.9871493134442 0.0 0.0
-767.3970200984738 -60.77260956810372 -409.6045280541655 -131.59614430240828 0.0 0.0
-820.6870185596197 -65.61475266117777 -439.3254136374882 -129.91259551144344 0.0 0.0
-872.8737632909477 -76.36857054773769 -470.9460293707095 -127.14788050121281 0.0 0.0
-924.3160334853095 -90.78735789769837 -504.03344353245325 -123.80520911052292 0.0 0.0
-971.7143901454758 -104.71582419602808 -534.8824781281284 -120.83243380563147 0.0 0.0
-1009.3637434510069 -112.66337012939073 -557.8861750468886 -119.70327507553291 0.0 0.0
-1030.6130651188819 -108.04411455152041 -566.3750111644299 -121.65554816649174 0.0 0.0
-1027.469885204511 -85.25020049595364 -553.5498164075442 -125.85384976247465 0.0 0.0
-991.3099679537221 -34.64977139756991 -510.33940434153277 -130.33882242529842 0.0 0.0
-899.655759152083 63.26545980217887 -416.2255518021258 -131.67017972089053 0.0 0.0
-711.06104907476 243.99400673315628 -232.92744245778866 -128.45865548027317 0.0 0.0
-2964.062258363731 -2090.580384931181 -2510.7842980821015 1.7674395280664612e-10 0.0 0.0
-711.0610490753755 243.9940067325037 -232.92744245816363 128.45865548047686 0.0 0.0
-899.6557591507882 63.265459803416434 -416.22555180119764 131.6701797208861 0.0 0.0
-991.3099679536936 -34.64977139780373 -510.3394043414281 130.33882242547608 0.0 0.0
-1027.4698852070908 -85.25020049869644 -553.5498164094413 125.85384976278802 0.0 0.0
-1030.613065118282 -108.04411455103318 -566.3750111640484 121.6555481662697 0.0 0.0
-1009.3637434507551 -112.66337012931788 -557.8861750465758 119.703275075546 0.0 0.0
-971.714390145334 -104.7158241961802 -534.8824781280292 120.83243380573518 0.0 0.0
-924.3160334849753 -90.78735789758913 -504.03344353230744 123.8052091105152 0.0 0.0
-872.8737632907681 -76.36857054776772 -470.9460293705184 127.1478805011783 0.0 0.0
-820.6870185592147 -65.61475266098329 -439.3254136372466 129.9125955113473 0.0 0.0
-767.3970200979986 -60.77260956773677 -409.6045280538617 131.59614430214828 0.0 0.0
-711.5128646107784 -58.8306399044987 -375.9547659300952 133.98714931350725 0.0 0.0
-633.7508477781442 -56.05515421594005 -317.78546704232997 136.2992402149649 0.0 0.0
-521.4788511386242 -35.44767333627284 -220.72564184709552 141.82369435766864 0.0 0.0
-385.26318051202867 0.9595031633453504 -125.70376413344752 153.86032822539855 0.0 0.0
-267.27566387073864 19.187568227653845 -74.69100105273844 163.2543086770407 0.0 0.0
-188.81580142477551 14.187351660212618 -52.36169139722317 167.0350487512881 0.0 0.0
-123.26876741837523 -4.858152878890916 -38.415426930797366 166.11367808512824 0.0 0.0
-61.54964195664976 -68.97161357862788 -39.15658091165952 133.89538286913375 0.0 0.0
-64.60293940271096 -192.22398011929792 -77.04807585660264 85.3943343439417 0.0 0.0
-53.51572128494184 -128.3675055637438 -54.56496805460569 -70.66318306172833 0.0 0.0
-72.46929227381347 -60.54150140916643 -39.90323810489397 -115.78039484504419 0.0 0.0
-142.57872360887163 -4.398962076907251 -44.085694605477144 -149.13666017586468 0.0 0.0
-225.7147646437846 11.630590498005596 -64.08076692506017 -150.14468854237563 0.0 0.0
-327.5433641434932 12.761335215506438 -96.02708208274036 -139.9493482895556 0.0 0.0
-465.6682051321968 -13.407127369103344 -166.99135685168594 -124.83353816011672 0.0 0.0
-599.3873381645631 -50.92180161570399 -277.3343035373627 -115.23123797299075 0.0 0.0
-701.0639656398573 -67.15202083576833 -367.3419826736453 -113.37563427833689 0.0 0.0
-770.1914099413816 -74.21267662688088 -417.28960629190556 -112.2582302962864 0.0 0.0
-829.3856291030216 -77.82562198118934 -450.80126198705534 -112.50186496322135 0.0 0.0
-884.2789695663863 -85.72065383389014 -482.4389216718847 -111.4134337584231 0.0 0.0
-939.3974434752014 -99.15586950881763 -516.7818910536306 -109.15359178608273 0.0 0.0
-994.423997551552 -116.6243092646773 -553.1192675598077 -106.27584631564072 0.0 0.0
-1046.9235188878556 -134.77498084852095 -588.5555583813601 -103.47228897173504 0.0 0.0
-1091.3575714269052 -148.29212043239693 -617.7052603964652 -101.98874516296422 0.0 0.0
-1115.5149803976678 -145.5008967365573 -628.6272446254104 -103.14667734968751 0.0 0.0
-1105.6928872929493 -112.98630345788735 -607.6874147151339 -106.79828532741173 0.0 0.0
-1048.1646810693035 -39.6415556509119 -542.5474579374095 -110.38500069857385 0.0 0.0
-930.1675218384042 85.21333799453984 -421.63563313797374 -111.15898981842233 0.0 0.0
-738.0223477981937 269.733645791298 -233.9721966000982 -109.9399681557502 0.0 0.0
-3259.6669212682655 -2313.171881481917 -2773.3770125956034 1.6475709685437323e-10 0.0 0.0
-738.0223477999139 269.7336457894686 -233.97219660145964 109.93996815598234 0.0 0.0
-930.1675218369703 85.21333799594534 -421.6356331370898 111.15898981846696 0.0 0.0
-1048.1646810685506 -39.64155565013543 -542.54745793695 110.38500069841365 0.0 0.0
-1105.692887294005 -112.9863034593468 -607.6874147160012 106.79828532772527 0.0 0.0
-1115.514980396755 -145.50089673571517 -628.6272446248247 103.14667734981745 0.0 0.0
-1091.3575714259964 -148.29212043163687 -617.7052603958058 101.98874516290842 0.0 0.0
-1046.9235188877676 -134.77498084861986 -588.5555583812029 103.47228897176129 0.0 0.0
-994.4239975507649 -116.62430926401248 -553.1192675593462 106.27584631551767 0.0 0.0
-939.3974434747902 -99.15586950859608 -516.7818910533485 109.15359178591169 0.0 0.0
-884.2789695667207 -85.72065383451329 -482.4389216721574 111.41343375841653 0.0 0.0
-829.3856291024586 -77.82562198083197 -450.8012619867338 112.50186496306338 0.0 0.0
-770.1914099410419 -74.21267662680424 -417.2896062916113 112.2582302962546 0.0 0.0
-701.0639656395275 -67.15202083596407 -367.34198267336853 113.37563427847235 0.0 0.0
-599.3873381642699 -50.921801615953285 -277.33430353701795 115.23123797309093 0.0 0.0
-465.668205131699 -13.407127369049938 -166.99135685131324 124.83353816002116 0.0 0.0
-327.54336414256295 12.761335216662475 -96.02708208213657 139.949348289331 0.0 0.0
-225.71476464346853 11.630590498280505 -64.08076692489132 150.1446885422543 0.0 0.0
-142.57872360874327 -4.398962076928999 -44.085694605444004 149.13666017575497 0.0 0.0
-72.46929227396609 -60.54150140938128 -39.90323810500422 115.78039484501917 0.0 0.0
-53.51572128507524 -128.36750556362853 -54.56496805461112 70.66318306145668 0.0 0.0
-46.00225860334224 -78.82067824822524 -37.44688105547024 -55.54114538320018 0.0 0.0
-80.88561423314498 -49.83042100312264 -39.21481057088028 -95.54598843192073 0.0 0.0
-160.66812376568683 -3.455174315051842 -49.23749692269513 -127.9692333533665 0.0 0.0
-261.4116337406507 7.414591859705715 -76.06137938277263 -128.20566224613736 0.0 0.0
-389.3444701548483 4.027683742026963 -119.81954125533073 -113.52608703642474 0.0 0.0
-532.5789703416096 -31.22737381461914 -211.27066060855674 -94.61541278269723 0.0 0.0
-661.1667347939604 -61.31447519462676 -325.07050392198084 -91.04998491278532 0.0 0.0
-750.8122231974436 -78.55211925381582 -404.92364180644876 -90.34104100626665 0.0 0.0
-822.0100128114394 -87.38416339502099 -451.7305311165957 -91.45907670373748 0.0 0.0
-882.7812216336923 -94.94193780750159 -486.977482811663 -92.40283792425889 0.0 0.0
-940.8723866176256 -106.03047016995095 -521.6602830440038 -91.81658767095969 0.0 0.0
-998.8960174354665 -121.98971931270461 -558.6909044468883 -90.11548414000833 0.0 0.0
-1056.8218181464315 -141.7896697921514 -597.6117546982955 -87.88120787316879 0.0 0.0
-1113.0247321261002 -163.72466148440606 -636.7393605837847 -85.45498062105125 0.0 0.0
-1162.8695923615933 -181.512636339289 -670.684542166799 -83.54779469560329 0.0 0.0
-1191.7860459058609 -181.7219145331443 -685.4989407406523 -83.49932743528232 0.0 0.0
-1176.6281938534203 -142.83166875974277 -658.8031653807445 -85.9228198959972 0.0 0.0
-1099.143588170536 -48.10682931268869 -573.0166406524502 -89.29871109531001 0.0 0.0
-957.090198008174 101.39251788532866 -427.57061102052 -91.81428533005186 0.0 0.0
-755.5152205060787 294.7882220204998 -230.36236461844592 -94.4795859592557 0.0 0.0
-3512.144523215468 -2511.6464137978205 -3001.3714237376207 1.3885781413591758e-10 0.0 0.0
-755.5152205063093 294.7882220201159 -230.36236461858687 94.47958595959196 0.0 0.0
-957.0901980082081 101.39251788520652 -427.57061102057696 91.81428533032629 0.0 0.0
-1099.1435881702118 -48.106829312413 -573.0166406521305 89.29871109522566 0.0 0.0
-1176.6281938504571 -142.83166875685106 -658.8031653788154 85.92281989591858 0.0 0.0
-1191.7860459056542 -181.72191453316435 -685.4989407402695 83.49932743546846 0.0 0.0
-1162.8695923614005 -181.51263633921803 -670.684542166751 83.54779469556487 0.0 0.0
-1113.0247321242716 -163.7246614827751 -636.7393605823638 85.45498062099533 0.0 0.0
-1056.8218181466486 -141.78966979266698 -597.6117546985655 87.88120787332178 0.0 0.0
-998.8960174341456 -121.9897193115375 -558.6909044460331 90.11548413986733 0.0 0.0
-940.8723866181534 -106.03047017084751 -521.6602830443923 91.81658767103836 0.0 0.0
-882.7812216336858 -94.94193780775932 -486.977482811706 92.40283792425444 0.0 0.0
-822.0100128108916 -87.38416339477845 -451.73053111622437 91.45907670361218 0.0 0.0
-750.8122231962722 -78.55211925281836 -404.92364180561407 90.34104100608707 0.0 0.0
-661.1667347936992 -61.31447519485994 -325.0705039216605 91.0499849129174 0.0 0.0
-532.5789703409629 -31.22737381425255 -211.27066060800848 94.61541278247213 0.0 0.0
-389.34447015423893 4.027683742528066 -119.81954125497644 113.52608703622718 0.0 0.0
-261.41163374057413 7.414591859366106 -76.06137938286214 128.20566224608208 0.0 0.0
-160.6681237655783 -3.4551743150142142 -49.237496922651225 127.96923335317206 0.0 0.0
-80.88561423315521 -49.83042100311209 -39.21481057088018 95.54598843181033 0.0 0.0
-46.00225860336434 -78.8206782481383 -37.44688105545078 55.54114538312842 0.0 0.0
-41.430155930394605 -43.283176836028034 -25.413999829926787 -40.493505302514194 0.0 0.0
-86.8305927910157 -38.13046868016467 -37.4883184413541 -73.42863883875253 0.0 0.0
-177.52750405338153 -2.143470480957365 -53.901512838005935 -102.4460479238883 0.0 0.0
-297.91163174086626 1.8664778246721443 -88.63007672498998 -101.55183558140716 0.0 0.0
-448.1418819050208 -8.922828044233801 -147.32373940481793 -82.94218877583432 0.0 0.0
-592.8336062225977 -44.52488110690348 -254.31238469793132 -69.10159895333452 0.0 0.0
-706.640893370519 -70.54773410468329 -363.6305179981858 -68.11081511730896 0.0 0.0
-793.1257715519412 -87.87305805570189 -434.5401155062561 -68.24907030031824 0.0 0.0
-866.319439881754 -100.82315070565903 -481.68706043044756 -70.13316830562044 0.0 0.0
-930.659348607589 -112.2446372549548 -520.1353817734193 -71.42199704190047 0.0 0.0
-991.9104040746706 -126.49895468719865 -557.9415942032683 -71.25542636297145 0.0 0.0
-1053.0666847237526 -145.11948776734698 -597.8520746650397 -70.11025592275436 0.0 0.0
-1113.4435643460777 -167.38307108472762 -639.2186166047532 -68.52080868549815 0.0 0.0
-1171.3915477340308 -189.80328872818475 -679.4344888732503 -66.7483408211342 0.0 0.0
-1223.4260501913961 -209.63327721592907 -715.4401279338442 -64.70610812212502 0.0 0.0
-1258.3609555563512 -215.31918714360864 -735.962948649071 -63.15013691820993 0.0 0.0
-1248.007997833397 -179.5951393675066 -713.2839839345886 -63.82597833466519 0.0 0.0
-1157.3062797079454 -70.43841475532417 -613.7072495671171 -67.46889896952472 0.0 0.0
-986.2005210108402 108.70527964701756 -438.8188484391341 -72.96586630709892 0.0 0.0
-758.8469730108002 328.1928590685499 -215.4466925062989 -80.58333546490165 0.0 0.0
-3721.5404062726916 -2676.5143112792275 -3190.448917455584 -5.45874456747697e-11 0.0 0.0
-758.8469730090958 328.1928590702551 -215.44669250492342 80.5833354648772 0.0 0.0
-986.2005210115376 108.70527964617537 -438.8188484397049 72.96586630721323 0.0 0.0
-1157.3062797074779 -70.43841475491516 -613.7072495669155 67.4688989695122 0.0 0.0
-1248.0079978316683 -179.59513936582545 -713.283983933502 63.82597833457115 0.0 0.0
-1258.3609555571063 -215.31918714454815 -735.9629486494381 63.15013691827327 0.0 0.0
-1223.4260501911315 -209.6332772158587 -715.4401279336257 64.70610812215239 0.0 0.0
-1171.3915477325556 -189.80328872687818 -679.4344888722135 66.7483408211552 0.0 0.0
-1113.443564346406 -167.38307108532757 -639.2186166051076 68.5208086856389 0.0 0.0
-1053.0666847227117 -145.11948776648762 -597.8520746643254 70.1102559226215 0.0 0.0
-991.9104040749085 -126.49895468773506 -557.9415942034989 71.25542636303535 0.0 0.0
-930.6593486076093 -112.24463725530399 -520.1353817734358 71.42199704195554 0.0 0.0
-866.3194398807622 -100.82315070492331 -481.68706042984815 70.13316830551774 0.0 0.0
-793.125771551715 -87.87305805580122 -434.5401155060905 68.24907030034188 0.0 0.0
-706.640893369836 -70.54773410431025 -363.63051799756477 68.11081511723002 0.0 0.0
-592.8336062218445 -44.5248811064827 -254.3123846972807 69.10159895316104 0.0 0.0
-448.14188190469474 -8.922828044503074 -147.32373940468364 82.94218877590369 0.0 0.0
-297.91163174065184 1.866477824521929 -88.63007672499474 101.55183558129934 0.0 0.0
-177.5275040532209 -2.143470480832777 -53.901512837920066 102.4460479238548 0.0 0.0
-86.83059279080489 -38.13046868004306 -37.48831844125438 73.42863883858698 0.0 0.0
-41.430155930237326 -43.2831768359503 -25.413999829856287 40.49350530247161 0.0 0.0
-38.54927974293322 -21.351908775385336 -17.970356555495563 -26.331049143824558 0.0 0.0
-89.63289365496267 -26.739198064326075 -34.91162751578662 -49.74250756707294 0.0 0.0
-192.8604243198473 -1.0336816345752649 -58.168231786326764 -71.94082957554704 0.0 0.0
-336.74416933808624 -4.602826591419738 -102.25111107588025 -69.56184012539717 0.0 0.0
-502.14572590936416 -24.71734130409986 -178.66404847288888 -51.95495876578077 0.0 0.0
-640.4584769828349 -54.355044485025786 -293.5766454206437 -45.88414288423553 0.0 0.0
-740.9396079497055 -77.94232721772919 -392.9350789988595 -45.70201155089132 0.0 0.0
-829.6471478290784 -97.76419210829081 -460.00744600319905 -46.56980989475823 0.0 0.0
-905.9036971838539 -114.91595669736414 -509.11563901897756 -48.2747705087983 0.0 0.0
-973.8448936374563 -129.92017464281287 -550.9483943808979 -49.578474248952155 0.0 0.0
-1038.6229962167495 -147.1846590355685 -592.0195414815055 -49.786761679612205 0.0 0.0
-1102.5710778776242 -168.39732238466127 -634.6188351374091 -49.1833933019562 0.0 0.0
-1165.4573797373719 -191.94988682022898 -677.871404433065 -48.29391389287978 0.0 0.0
-1224.0306243747739 -215.27763313527836 -718.8634736502866 -47.13019377283364 0.0 0.0
-1274.5969234079428 -233.10051248529697 -753.1193784360797 -45.419657659626026 0.0 0.0
-1310.0270298682562 -238.76261685489135 -773.7721095333029 -43.1031637361661 0.0 0.0
-1314.8688721708015 -217.62840864098945 -765.8559020659026 -41.660414669552466 0.0 0.0
-1245.9023455401184 -128.8275484575256 -687.3878072396525 -44.36251405691761 0.0 0.0
-1035.073054111072 91.63473320081927 -472.0816494921871 -53.21918450752026 0.0 0.0
-732.8118505889114 387.32814649795927 -173.03238684053082 -67.06996465563807 0.0 0.0
-3874.08586307651 -2790.0991467220383 -3325.118396048143 -4.310329870804708e-11 0.0 0.0
-732.8118505866194 387.3281465001893 -173.0323868388599 67.06996465573322 0.0 0.0
-1035.0730541118078 91.63473320007212 -472.081649493059 53.219184507541016 0.0 0.0
-1245.902345539414 -128.82754845693603 -687.3878072392007 44.362514056931914 0.0 0.0
-1314.8688721697877 -217.6284086400417 -765.8559020652511 41.66041466932869 0.0 0.0
-1310.027029869058 -238.76261685591464 -773.7721095339851 43.103163736233896 0.0 0.0
-1274.5969234081458 -233.10051248567976 -753.1193784362811 45.41965765975682 0.0 0.0
-1224.030624375546 -215.27763313627253 -718.863473650727 47.13019377288396 0.0 0.0
-1165.4573797375376 -191.94988682062564 -677.871404433246 48.2939138929716 0.0 0.0
-1102.5710778783864 -168.39732238566003 -634.6188351378428 49.18339330182623 0.0 0.0
-1038.622996215977 -147.18465903509735 -592.0195414810967 49.78676167964347 0.0 0.0
-973.8448936378411 -129.92017464351983 -550.9483943810662 49.578474249073494 0.0 0.0
-905.9036971836465 -114.91595669740377 -509.11563901884995 48.27477050858741 0.0 0.0
-829.6471478290091 -97.76419210857753 -460.0074460030933 46.56980989479647 0.0 0.0
-740.9396079491256 -77.94232721748658 -392.93507899833844 45.70201155080579 0.0 0.0
-640.458476982276 -54.35504448482115 -293.576645420097 45.88414288424829 0.0 0.0
-502.1457259089269 -24.717341304046307 -178.66404847260796 51.954958765733465 0.0 0.0
-336.74416933766327 -4.602826591264975 -102.25111107572125 69.5618401253941 0.0 0.0
-192.86042431963335 -1.0336816343169113 -58.168231786185096 71.94082957546969 0.0 0.0
-89.63289365511963 -26.739198064582016 -34.91162751591049 49.74250756709301 0.0 0.0
-38.5492797429793 -21.351908775324137 -17.97035655549103 26.3310491435854 0.0 0.0
-34.95574541472007 -11.947139220122189 -14.070865390452674 -14.759581676359218 0.0 0.0
-87.77977552666653 -17.443579108727008 -31.567006390618065 -24.930349535728507 0.0 0.0
-206.37058924112364 -1.2833510524469367 -62.296182088071184 -34.91177131425499 0.0 0.0
-376.9793809912471 -11.211549917095446 -117.46723652937114 -32.141586216585466 0.0 0.0
-552.8520416171367 -37.9524308912012 -211.60113075869674 -23.82621397851537 0.0 0.0
-675.3942172694024 -61.47069726477186 -326.6856016578745 -24.248309892808244 0.0 0.0
-771.2312633104249 -83.48309331767973 -416.18155765414286 -24.735786909144085 0.0 0.0
-861.3936700624901 -108.11755280436599 -482.32612994294146 -25.086080127494252 0.0 0.0
-941.3523734560263 -129.28456438915873 -534.3585421092367 -25.958601765640978 0.0 0.0
-1013.2552949795643 -148.24560073689847 -580.1000121065194 -26.91344283667979 0.0 0.0
-1081.2384182453347 -168.20367163230054 -624.1283522063094 -27.394044551566623 0.0 0.0
-1148.0395119952825 -191.1306307923249 -669.0066799069748 -27.405859853197914 0.0 0.0
-1212.931585755609 -216.7661597603012 -714.300180303391 -27.092653172353533 0.0 0.0
-1272.3843601055255 -239.87342875545866 -755.6253808752856 -26.53784067975348 0.0 0.0
-1319.6012720325796 -254.01691249731965 -786.3772025434384 -25.49756682262309 0.0 0.0
-1348.7876484170088 -253.47211824536868 -800.7720656794479 -23.57295542675307 0.0 0.0
-1358.3388815466358 -237.14416800683261 -797.4063095785707 -21.118653355511327 0.0 0.0
-1342.0400953276967 -200.1009916958866 -770.8732331327938 -21.0522992768834 0.0 0.0
-1205.9367186249328 -51.530893522129105 -629.1361981828227 -29.68671071756176 0.0 0.0
-700.4794011097019 450.91577033716516 -125.46848609221786 -51.147463297764475 0.0 0.0
-3804.8818878961833 -2684.257688836738 -3239.2145884798824 -7.679723523779103e-11 0.0 0.0
-700.4794011084314 450.9157703383929 -125.4684860913282 51.14746329775291 0.0 0.0
-1205.9367186250324 -51.530893522295784 -629.1361981829327 29.686710717566633 0.0 0.0
-1342.0400953273659 -200.1009916956638 -770.8732331326045 21.052299277001854 0.0 0.0
-1358.3388815442304 -237.14416800450465 -797.4063095769061 21.118653355364398 0.0 0.0
-1348.7876484175924 -253.47211824609676 -800.7720656799028 23.572955426665025 0.0 0.0
-1319.6012720314789 -254.01691249640962 -786.3772025427227 25.497566822626094 0.0 0.0
-1272.384360105999 -239.87342875613572 -755.6253808755638 26.537840679635046 0.0 0.0
-1212.9315857563329 -216.7661597612586 -714.3001803039845 27.092653172453993 0.0 0.0
-1148.039511996228 -191.13063079355447 -669.0066799076267 27.40585985314364 0.0 0.0
-1081.238418243928 -168.20367163114116 -624.1283522054252 27.39404455149883 0.0 0.0
-1013.2552949789625 -148.24560073659072 -580.1000121060788 26.913442836721973 0.0 0.0
-941.3523734560629 -129.28456438951284 -534.3585421092536 25.958601765522783 0.0 0.0
-861.3936700617045 -108.11755280387158 -482.3261299424035 25.086080127376007 0.0 0.0
-771.2312633095441 -83.48309331711931 -416.18155765347865 24.735786909192573 0.0 0.0
-675.3942172689462 -61.470697264695985 -326.68560165741525 24.248309892978757 0.0 0.0
-552.8520416169778 -37.952430891449595 -211.60113075850094 23.826213978383333 0.0 0.0
-376.97938099088003 -11.211549916977283 -117.46723652922535 32.141586216569905 0.0 0.0
-206.37058924093185 -1.2833510521653282 -62.29618208792915 34.911771314161506 0.0 0.0
-87.77977552675345 -17.443579108817676 -31.56700639067133 24.930349535819293 0.0 0.0
-34.95574541493389 -11.94713922018335 -14.070865390535166 14.759581676198067 0.0 0.0
-23.40979615620856 -6.2424559333220575 -8.895675626859184 -8.925308639888456 0.0 0.0
-77.09595037149197 -10.019882127273508 -26.13474974962964 -10.365311318910468 0.0 0.0
-217.72990706464049 -4.110964270165777 -66.55226140044188 -11.289669715447157 0.0 0.0
-425.765341739456 -33.19818794697254 -142.03963313376144 -6.477860459473653 0.0 0.0
-630.3808721884841 -92.46962025288619 -269.2253090207497 1.1824161141151563 0.0 0.0
-783.3684986086564 -151.41237801645306 -419.1584289810095 1.414944620768356 0.0 0.0
-923.9761335043055 -220.9381033076709 -551.5309053151765 0.17894802603003868 0.0 0.0
-1073.3208124430093 -306.22743862985135 -676.8059463596032 -1.4369660475677435 0.0 0.0
-1232.5141969180625 -407.29133917699124 -808.5364831324681 -3.3266405488815316 0.0 0.0
-1410.9112527485497 -532.3908138709508 -960.353881426211 -5.356013935537888 0.0 0.0
-1614.8125200867285 -687.5745877449302 -1139.5117764073536 -7.191248751178621 0.0 0.0
-1843.8141047977992 -872.6883097964676 -1346.1166369142188 -8.569669117165702 0.0 0.0
-2090.3420834846015 -1078.952201739026 -1572.1016079800306 -9.482509608046096 0.0 0.0
-2342.0496989890285 -1293.8527838691218 -1805.1027762613016 -10.151788765895251 0.0 0.0
-2580.4399643651295 -1498.8252218653508 -2026.6000386622409 -10.34986550032254 0.0 0.0
-2780.987656716319 -1669.5711222067498 -2212.1820496773616 -9.77455690309122 0.0 0.0
-2917.5253168098952 -1780.5226726181468 -2335.866041220867 -8.208815748452572 0.0 0.0
-2986.947493333412 -1829.2943364138664 -2394.439792120268 -7.360578905469492 0.0 0.0
-3080.950631595168 -1909.0544611642706 -2479.841721501296 -15.32419115413939 0.0 0.0
-3212.8322533939513 -2039.6096065781435 -2608.949049743478 -41.29179514061212 0.0 0.0
-6858.44606585269 -5709.785831953217 -6260.724881482067 -4.189359970041551e-11 0.0 0.0
-3212.8322533932374 -2039.6096065774686 -2608.949049742925 41.2917951406379 0.0 0.0
-3080.9506315928606 -1909.0544611620148 -2479.841721499131 15.324191154082417 0.0 0.0
-2986.947493333193 -1829.2943364137816 -2394.4397921201107 7.3605789055549025 0.0 0.0
-2917.525316805824 -1780.5226726141639 -2335.866041217688 8.208815748544104 0.0 0.0
-2780.9876567176498 -1669.571122208321 -2212.182049677801 9.774556903297459 0.0 0.0
-2580.439964360495 -1498.8252218608104 -2026.6000386586595 10.349865500413927 0.0 0.0
-2342.0496989884555 -1293.85278386876 -1805.1027762605302 10.151788765544786 0.0 0.0
-2090.342083483811 -1078.9522017384504 -1572.1016079792462 9.482509608013068 0.0 0.0
-1843.8141047976326 -872.6883097965899 -1346.1166369138884 8.569669117001855 0.0 0.0
-1614.8125200855081 -687.5745877439751 -1139.5117764062936 7.19124875102824 0.0 0.0
-1410.9112527461261 -532.3908138688219 -960.3538814244071 5.356013935677733 0.0 0.0
-1232.5141969169626 -407.2913391761769 -808.5364831315901 3.326640548910895 0.0 0.0
-1073.320812441646 -306.22743862876416 -676.8059463585836 1.4369660474205084 0.0 0.0
-923.976133503043 -220.93810330673472 -551.5309053141721 -0.1789480260030487 0.0 0.0
-783.3684986081187 -151.41237801622972 -419.1584289804291 -1.4149446204702159 0.0 0.0
-630.3808721887826 -92.46962025369571 -269.2253090207562 -1.1824161142201532 0.0 0.0
-425.76534173895334 -33.198187946714924 -142.03963313349567 6.477860459354382 0.0 0.0
-217.72990706437915 -4.110964270071612 -66.55226140033521 11.289669715548532 0.0 0.0
-77.09595037119016 -10.019882126986685 -26.134749749453057 10.365311318802767 0.0 0.0
-23.40979615605625 -6.2424559333373 -8.895675626818063 8.925308639929707 0.0 0.0
SCALARS Strain float 6
LOOKUP_TABLE default
0.016010274626077278 -0.026255119172113983 0.0 -0.0018065830879670439 0.0 0.0
0.009864575224008123 -0.0032506000594579674 0.0 -0.007871019485975022 0.0 0.0
0.0028839190167858054 -0.0006500235035059739 0.0 -0.0010227139456171759 0.0 0.0
0.0024083705902730084 -0.0009540072682917837 0.0 3.9190779711679244e-05 0.0 0.0
0.003780167204530311 -0.0017341291450571092 0.0 0.00027133279293842835 0.0 0.0
0.006795830660502699 -0.0040763041617573065 0.0 0.00046767653700931526 0.0 0.0
0.012041550976018715 -0.008644332333796433 0.0 0.0006086399591371962 0.0 0.0
0.01999075714553441 -0.015880048048500937 0.0 0.0006484322363764288 0.0 0.0
0.030994772226250786 -0.02609690888043551 0.0 0.0005759244339678248 0.0 0.0
0.04515776769526811 -0.039342262647701826 0.0 0.00034884707958416077 0.0 0.0
0.06233192916997589 -0.05543253178243368 0.0 -6.852085357680242e-07 0.0 0.0
0.08221896419799705 -0.074071234183862 0.0 -0.0004474411245171595 0.0 0.0
0.1044589538355612 -0.09493944318665498 0.0 -0.0009916393811230276 0.0 0.0
0.1286618136989091 -0.11769669534248306 0.0 -0.0015895179876671724 0.0 0.0
0.15433039666443246 -0.1419084779195545 0.0 -0.0022526820436437767 0.0 0.0
0.18072292594191028 -0.1669059266434764 0.0 -0.0029330700594717924 0.0 0.0
0.20677361312762998 -0.1916992838671066 0.0 -0.0034840916291849046 0.0 0.0
0.2311108607835184 -0.21498944846988705 0.0 -0.0037038969892185763 0.0 0.0
0.2521874670067986 -0.23522623556704836 0.0 -0.0034906272928547878 0.0 0.0
0.26804307365057556 -0.25054067036469496 0.0 -0.0044105433309484 0.0 0.0
0.27437406609493975 -0.25691881510121695 0.0 3.2404634531246757e-15 0.0 0.0
0.2680430736505377 -0.25054067036467415 0.0 0.004410543330960713 0.0 0.0
0.252187467006721 -0.23522623556699124 0.0 0.0034906272928665397 0.0 0.0
0.23111086078340926 -0.21498944846976725 0.0 0.003703896989226973 0.0 0.0
0.20677361312750514 -0.191699283866996 0.0 0.003484091629185407 0.0 0.0
0.18072292594177858 -0.16690592664334702 0.0 0.0029330700594607014 0.0 0.0
0.15433039666429763 -0.14190847791941316 0.0 0.0022526820436421287 0.0 0.0
0.12866181369877383 -0.11769669534236063 0.0 0.0015895179876680259 0.0 0.0
0.1044589538354295 -0.09493944318653663 0.0 0.0009916393811194683 0.0 0.0
0.08221896419787754 -0.07407123418374735 0.0 0.0004474411245152495 0.0 0.0
0.06233192916987308 -0.05543253178233844 0.0 6.85208526052597e-07 0.0 0.0
0.04515776769518369 -0.039342262647625144 0.0 -0.00034884707958556015 0.0 0.0
0.030994772226186913 -0.026096908880376232 0.0 -0.0005759244339648823 0.0 0.0
0.019990757145488723 -0.01588004804846542 0.0 -0.0006484322363765902 0.0 0.0
0.012041550975988293 -0.008644332333768004 0.0 -0.0006086399591375341 0.0 0.0
0.006795830660485988 -0.004076304161745484 0.0 -0.00046767653700704656 0.0 0.0
0.0037801672045238805 -0.0017341291450519531 0.0 -0.00027133279293767087 0.0 0.0
0.0024083705902715586 -0.0009540072682909684 0.0 -3.919077971065537e-05 0.0 0.0
0.002883919016783541 -0.0006500235035063668 0.0 0.001022713945613135 0.0 0.0
0.009864575224002105 -0.0032506000594537394 0.0 0.00787101948596692 0.0 0.0
0.016010274626069194 -0.026255119172088517 0.0 0.0018065830879141608 0.0 0.0
0.011351621506476397 -0.023630912570784826 0.0 -0.0013468795717645708 0.0 0.0
0.006629760271403461 -0.00244710280869822 0.0 -0.006542025011645748 0.0 0.0
0.0018547482715854193 -0.0004771490780674611 0.0 -0.0006382378341769894 0.0 0.0
0.0021014637461587706 -0.0008930892981164635 0.0 -0.00018032556306170076 0.0 0.0
0.003221472278427085 -0.0015456346094028042 0.0 -0.0001432790940608493 0.0 0.0
0.005793856079258329 -0.003651788552701948 0.0 -0.0002694632541376062 0.0 0.0
0.010467782831829748 -0.007916713553201981 0.0 -0.0006708556128797993 0.0 0.0
0.01768314102305654 -0.014778225068743552 0.0 -0.0013228592928060299 0.0 0.0
0.027719201291415606 -0.024508147226060085 0.0 -0.002249190479988664 0.0 0.0
0.04060249136384647 -0.037114300089370306 0.0 -0.0034132146309303153 0.0 0.0
0.056153988369628566 -0.05239730461902242 0.0 -0.004704353723874937 0.0 0.0
0.0741013110882035 -0.0700711556810664 0.0 -0.0060274186334399365 0.0 0.0
0.09415689704047378 -0.08984902267246464 0.0 -0.007369564190871464 0.0 0.0
0.11599620959510451 -0.11142695860031648 0.0 -0.008725277792272378 0.0 0.0
0.1391841222193543 -0.13439985950135083 0.0 -0.010041142622978382 0.0 0.0
0.1630788086580475 -0.1581508713779169 0.0 -0.011177236449082438 0.0 0.0
0.1867534375730493 -0.1817666309732196 0.0 -0.011841024336813808 0.0 0.0
0.20898607410415354 -0.20402071641330977 0.0 -0.011687985481589377 0.0 0.0
0.22818861950189903 -0.22337069188934727 0.0 -0.010661149459340265 0.0 0.0
0.24195208959911566 -0.23771562184102496 0.0 -0.009963769632393094 0.0 0.0
0.24709825079488587 -0.24373858848191438 0.0 7.672681934245418e-15 0.0 0.0
0.24195208959908063 -0.23771562184099937 0.0 0.009963769632420287 0.0 0.0
0.22818861950182956 -0.22337069188928343 0.0 0.010661149459370578 0.0 0.0
0.20898607410405845 -0.20402071641320743 0.0 0.011687985481609289 0.0 0.0
0.18675343757293889 -0.18176663097311574 0.0 0.011841024336813992 0.0 0.0
0.16307880865792873 -0.1581508713778019 0.0 0.011177236449070191 0.0 0.0
0.13918412221923307 -0.13439985950122887 0.0 0.010041142622973322 0.0 0.0
0.1159962095949825 -0.11142695860019451 0.0 0.00872527779226747 0.0 0.0
0.09415689704035578 -0.08984902267235535 0.0 0.007369564190864202 0.0 0.0
0.07410131108809541 -0.07007115568095537 0.0 0.006027418633431968 0.0 0.0
0.05615398836953508 -0.052397304618927984 0.0 0.0047043537238607176 0.0 0.0
0.04060249136377056 -0.03711430008929608 0.0 0.003413214630920286 0.0 0.0
0.02771920129135738 -0.024508147226003252 0.0 0.002249190479986474 0.0 0.0
0.017683141023015193 -0.014778225068711084 0.0 0.00132285929280207 0.0 0.0
0.010467782831803222 -0.007916713553176993 0.0 0.0006708556128753018 0.0 0.0
0.005793856079243845 -0.0036517885526904372 0.0 0.00026946325413785855 0.0 0.0
0.0032214722784217457 -0.0015456346093978405 0.0 0.00014327909406080698 0.0 0.0
0.0021014637461576214 -0.0008930892981142929 0.0 0.00018032556306098196 0.0 0.0
0.0018547482715847757 -0.0004771490780681885 0.0 0.0006382378341749438 0.0 0.0
0.006629760271395907 -0.0024471028086941534 0.0 0.006542025011633595 0.0 0.0
0.011351621506461735 -0.023630912570757646 0.0 0.0013468795717238313 0.0 0.0
0.008402860275732843 -0.018984130553302968 0.0 -0.0046101209912115335 0.0 0.0
0.004742152387425375 -0.0013813856797604664 0.0 -0.006741253726976041 0.0 0.0
0.0012724873630519753 -0.00023326642889142675 0.0 -0.0005542854105417713 0.0 0.0
0.0017641252050793655 -0.0007453592436681777 0.0 -0.00047756236294308363 0.0 0.0
0.0027154370385800257 -0.0012160184459542218 0.0 -0.0005134468994920717 0.0 0.0
0.004846955795299302 -0.002849945294134106 0.0 -0.0007597876222700059 0.0 0.0
0.00891492592056612 -0.006485728893959168 0.0 -0.0015284830352228812 0.0 0.0
0.01535344727485832 -0.012577676402315004 0.0 -0.002778234255310831 0.0 0.0
0.024367283009852685 -0.021306590707917895 0.0 -0.004528756258755867 0.0 0.0
0.035929662786359104 -0.032615970190934346 0.0 -0.0066655500970954394 0.0 0.0
0.049839421385373534 -0.046274526578922 0.0 -0.008984967183217181 0.0 0.0
0.06584310920550958 -0.062017623164007274 0.0 -0.011311572327724525 0.0 0.0
0.08369908602548687 -0.07961089130206106 0.0 -0.013605499607129149 0.0 0.0
0.10315246436585239 -0.09881725171309165 0.0 -0.015902870286294963 0.0 0.0
0.12384892647848324 -0.11930424345054283 0.0 -0.01813333231634417 0.0 0.0
0.14525739492103082 -0.14056362938758774 0.0 -0.02004129671890864 0.0 0.0
0.16660253604754033 -0.16183592834664268 0.0 -0.02117269647211857 0.0 0.0
0.18676625568721184 -0.18203141965680417 0.0 -0.021039761616115465 0.0 0.0
0.204115163414551 -0.19960622163333971 0.0 -0.019486980414014702 0.0 0.0
0.21654276040506518 -0.21237120914857183 0.0 -0.016730315199840046 0.0 0.0
0.22124326242467052 -0.21806499693311313 0.0 1.730473403460664e-14 0.0 0.0
0.21654276040503367 -0.21237120914853996 0.0 0.016730315199886138 0.0 0.0
0.20411516341448954 -0.19960622163327957 0.0 0.019486980414060828 0.0 0.0
0.18676625568712862 -0.18203141965672928 0.0 0.021039761616146208 0.0 0.0
0.1666025360474426 -0.16183592834654503 0.0 0.02117269647211894 0.0 0.0
0.14525739492092532 -0.14056362938749103 0.0 0.020041296718899718 0.0 0.0
0.12384892647837517 -0.11930424345043969 0.0 0.018133332316338062 0.0 0.0
0.1031524643657438 -0.09881725171297695 0.0 0.015902870286287077 0.0 0.0
0.0836990860253825 -0.07961089130195986 0.0 0.013605499607119018 0.0 0.0
0.06584310920541392 -0.06201762316390952 0.0 0.011311572327708058 0.0 0.0
0.049839421385290406 -0.04627452657883224 0.0 0.008984967183198213 0.0 0.0
0.03592966278629151 -0.0326159701908699 0.0 0.006665550097081831 0.0 0.0
0.02436728300980023 -0.021306590707866096 0.0 0.004528756258747487 0.0 0.0
0.015353447274820388 -0.012577676402284797 0.0 0.0027782342553045727 0.0 0.0
0.008914925920542984 -0.006485728893937896 0.0 0.0015284830352181194 0.0 0.0
0.004846955795288505 -0.002849945294127494 0.0 0.0007597876222686984 0.0 0.0
0.0027154370385762986 -0.0012160184459503469 0.0 0.0005134468994907836 0.0 0.0
0.0017641252050786696 -0.0007453592436659153 0.0 0.00047756236294192527 0.0 0.0
0.0012724873630521152 -0.00023326642889201732 0.0 0.0005542854105419013 0.0 0.0
0.004742152387418043 -0.0013813856797567467 0.0 0.006741253726959119 0.0 0.0
0.008402860275718254 -0.01898413055327501 0.0 0.004610120991184558 0.0 0.0
0.006402699102328184 -0.015361780978358941 0.0 -0.005058360131969227 0.0 0.0
0.003528972351623502 -0.0009902019238344456 0.0 -0.006168475021411108 0.0 0.0
0.0008986676197744944 -0.0001271225466846673 0.0 -0.0008301199904959952 0.0 0.0
0.001443892548876717 -0.0005821122486700761 0.0 -0.000785237808210821 0.0 0.0
0.0022578167603434602 -0.0009624912170695119 0.0 -0.000853436425876394 0.0 0.0
0.003974804670128197 -0.0021618756625610062 0.0 -0.0011606341297076023 0.0 0.0
0.007409218130915914 -0.00512479521706999 0.0 -0.0021091548913879377 0.0 0.0
0.013026621760046778 -0.010396027837531506 0.0 -0.0038322478709628812 0.0 0.0
0.020977234483003888 -0.018078928445723022 0.0 -0.0062012587332989635 0.0 0.0
0.031185837166205273 -0.028056240093998396 0.0 -0.00906455718400122 0.0 0.0
0.043433333303582206 -0.04007213663422754 0.0 -0.012145173484975064 0.0 0.0
0.0574835445137577 -0.05387721584998094 0.0 -0.015228975824529822 0.0 0.0
0.07313417309990897 -0.06927874564039256 0.0 -0.01826396128233395 0.0 0.0
0.09018381074196889 -0.08609692855646943 0.0 -0.02126927824456462 0.0 0.0
0.1083688506541826 -0.10407967446005846 0.0 -0.024168619126733282 0.0 0.0
0.12728520621387523 -0.12283807431810351 0.0 -0.026686945481774124 0.0 0.0
0.14629600756228878 -0.14176638885287887 0.0 -0.028309621987076955 0.0 0.0
0.16439862995038795 -0.15990815490616433 0.0 -0.028436897147605392 0.0 0.0
0.18011768741137932 -0.1758041325464414 0.0 -0.02646795282669343 0.0 0.0
0.19166327818725576 -0.18756424521566445 0.0 -0.021430461359719984 0.0 0.0
0.19616051905515755 -0.19344495676446682 0.0 2.6879540260260626e-14 0.0 0.0
0.19166327818722748 -0.18756424521563522 0.0 0.02143046135978066 0.0 0.0
0.18011768741132586 -0.17580413254639146 0.0 0.026467952826758512 0.0 0.0
0.16439862995031512 -0.15990815490610033 0.0 0.02843689714764263 0.0 0.0
0.14629600756220357 -0.14176638885278725 0.0 0.02830962198708112 0.0 0.0
0.12728520621378384 -0.1228380743180118 0.0 0.02668694548176742 0.0 0.0
0.10836885065408758 -0.10407967445995833 0.0 0.024168619126728484 0.0 0.0
0.090183810741874 -0.08609692855636962 0.0 0.02126927824455037 0.0 0.0
0.07313417309981725 -0.06927874564029955 0.0 0.018263961282316384 0.0 0.0
0.05748354451367385 -0.0538772158498933 0.0 0.015228975824508953 0.0 0.0
0.043433333303510555 -0.04007213663414947 0.0 0.012145173484954027 0.0 0.0
0.031185837166145744 -0.028056240093941538 0.0 0.009064557183982969 0.0 0.0
0.0209772344829576 -0.018078928445678447 0.0 0.006201258733283927 0.0 0.0
0.013026621760014229 -0.010396027837502415 0.0 0.0038322478709546257 0.0 0.0
0.007409218130896643 -0.005124795217050093 0.0 0.0021091548913838667 0.0 0.0
0.003974804670119159 -0.0021618756625569695 0.0 0.0011606341297051208 0.0 0.0
0.0022578167603397705 -0.0009624912170672045 0.0 0.0008534364258736204 0.0 0.0
0.0014438925488759753 -0.000582112248670102 0.0 0.000785237808210239 0.0 0.0
0.0008986676197745069 -0.00012712254668544335 0.0 0.0008301199904937303 0.0 0.0
0.0035289723516165328 -0.000990201923830571 0.0 0.006168475021397828 0.0 0.0
0.006402699102314656 -0.015361780978333713 0.0 0.005058360131950392 0.0 0.0
0.004894789403442251 -0.012431781767713718 0.0 -0.004479044784346893 0.0 0.0
0.0026602206087509993 -0.0007764104840027673 0.0 -0.005495239824449057 0.0 0.0
0.0006497911593142711 -8.023738345687653e-05 0.0 -0.001233280874394622 0.0 0.0
0.0011615993064214465 -0.00044043493359103084 0.0 -0.0011225645235015227 0.0 0.0
0.0018470771169582798 -0.0007614023457841416 0.0 -0.0011854861818189533 0.0 0.0
0.0031924920095300004 -0.0016043679973082698 0.0 -0.0014920659227003797 0.0 0.0
0.005980693399839006 -0.00388324205882394 0.0 -0.0024869401750882945 0.0 0.0
0.01073210532800904 -0.008265552704990069 0.0 -0.00444833783225302 0.0 0.0
0.017588497428291223 -0.014865852762974533 0.0 -0.007256878135997621 0.0 0.0
0.02641457994953082 -0.023482392003691503 0.0 -0.010607574990849342 0.0 0.0
0.0369823867445254 -0.03383811319122608 0.0 -0.014195182592638701 0.0 0.0
0.04906623335393248 -0.045694406062124764 0.0 -0.017784554741977564 0.0 0.0
0.06250091911419572 -0.05889625194578972 0.0 -0.021324198146866997 0.0 0.0
0.0771440170000613 -0.07331912702010364 0.0 -0.02482093141951487 0.0 0.0
0.09280342494415984 -0.08878507366005976 0.0 -0.028167732418321555 0.0 0.0
0.10918917190069306 -0.10501359866680608 0.0 -0.031099507286859084 0.0 0.0
0.12582407133353243 -0.12155148331944723 0.0 -0.03316879671178238 0.0 0.0
0.14189159911304292 -0.13762357417279597 0.0 -0.033682538992572474 0.0 0.0
0.1561564449327931 -0.15200882558577775 0.0 -0.03148156490937717 0.0 0.0
0.1670979111581608 -0.16310983251791075 0.0 -0.024954819548386138 0.0 0.0
0.1715384577055975 -0.16940956233074347 0.0 3.022321976020592e-14 0.0 0.0
0.16709791115813552 -0.1631098325178815 0.0 0.024954819548454875 0.0 0.0
0.15615644493274583 -0.15200882558572953 0.0 0.031481564909449526 0.0 0.0
0.1418915991129789 -0.1376235741727437 0.0 0.033682538992612185 0.0 0.0
0.12582407133345952 -0.12155148331937793 0.0 0.033168796711789676 0.0 0.0
0.10918917190061464 -0.10501359866671998 0.0 0.031099507286851215 0.0 0.0
0.09280342494407726 -0.0887850736599744 0.0 0.028167732418311567 0.0 0.0
0.07714401699997887 -0.07331912702002374 0.0 0.024820931419499214 0.0 0.0
0.06250091911411758 -0.05889625194571568 0.0 0.021324198146848272 0.0 0.0
0.04906623335386141 -0.04569440606204791 0.0 0.017784554741953618 0.0 0.0
0.036982386744463844 -0.033838113191166815 0.0 0.014195182592612585 0.0 0.0
0.026414579949479006 -0.023482392003640266 0.0 0.010607574990824507 0.0 0.0
0.017588497428251623 -0.014865852762933288 0.0 0.007256878135978438 0.0 0.0
0.010732105327981767 -0.008265552704968135 0.0 0.0044483378322416655 0.0 0.0
0.00598069339982317 -0.003883242058809325 0.0 0.002486940175082314 0.0 0.0
0.0031924920095234145 -0.001604367997301871 0.0 0.0014920659226958846 0.0 0.0
0.0018470771169565542 -0.0007614023457843071 0.0 0.0011854861818156735 0.0 0.0
0.001161599306421572 -0.00044043493359099023 0.0 0.0011225645235005035 0.0 0.0
0.000649791159314609 -8.023738345683064e-05 0.0 0.0012332808743910908 0.0 0.0
0.0026602206087450115 -0.0007764104839995322 0.0 0.0054952398244378095 0.0 0.0
0.004894789403430271 -0.01243178176769202 0.0 0.004479044784333465 0.0 0.0
0.0036998080056830822 -0.009977165120903667 0.0 -0.0036939339716274607 0.0 0.0
0.001996608291282061 -0.0006248647453451137 0.0 -0.004836714862408394 0.0 0.0
0.0004742096460710613 -6.840847362420978e-05 0.0 -0.0016233715443815626 0.0 0.0
0.0009123012150422879 -0.00031805036821324614 0.0 -0.001460428062014713 0.0 0.0
0.0014802756653927408 -0.0005996885717919074 0.0 -0.0015180257030803024 0.0 0.0
0.002500048094180642 -0.0011691580788019626 0.0 -0.0017741057059603906 0.0 0.0
0.004665686437664945 -0.0028059504085641476 0.0 -0.0027365857507567646 0.0 0.0
0.008516815067786716 -0.0062495276109513385 0.0 -0.00469099931151115 0.0 0.0
0.014232229530379815 -0.011708538089863845 0.0 -0.007674338480746501 0.0 0.0
0.02165870730423859 -0.018940671537518213 0.0 -0.011288525023347715 0.0 0.0
0.030530776408515176 -0.02762057417653145 0.0 -0.015132816878071106 0.0 0.0
0.040638578216139254 -0.03751863884083741 0.0 -0.018978911017497314 0.0 0.0
0.05184982446794581 -0.04851303068064805 0.0 -0.02277410729153627 0.0 0.0
0.06407507606422025 -0.06053406897394992 0.0 -0.026524600533213823 0.0 0.0
0.07719890332865081 -0.07347447398027228 0.0 -0.03011572311124524 0.0 0.0
0.0910217371619335 -0.08714146412615531 0.0 -0.033281280675899506 0.0 0.0
0.10521437518069765 -0.10121883225586867 0.0 -0.035657468016517986 0.0 0.0
0.119223190340287 -0.11517830655921574 0.0 -0.03657723816798739 0.0 0.0
0.13212651611061665 -0.12813926440810236 0.0 -0.0345767341080952 0.0 0.0
0.14264460725489436 -0.13878815321859453 0.0 -0.027499577944304052 0.0 0.0
0.14712993646245107 -0.14568912424250877 0.0 3.123022673801046e-14 0.0 0.0
0.14264460725487302 -0.13878815321857219 0.0 0.02749957794437937 0.0 0.0
0.13212651611057627 -0.1281392644080555 0.0 0.03457673410816729 0.0 0.0
0.11922319034023315 -0.11517830655916289 0.0 0.03657723816803139 0.0 0.0
0.10521437518063682 -0.10121883225581242 0.0 0.03565746801652635 0.0 0.0
0.0910217371618675 -0.08714146412608216 0.0 0.03328128067589029 0.0 0.0
0.07719890332858134 -0.07347447398020833 0.0 0.030115723111229113 0.0 0.0
0.0640750760641518 -0.06053406897388729 0.0 0.02652460053319773 0.0 0.0
0.05184982446788081 -0.04851303068058625 0.0 0.02277410729151507 0.0 0.0
0.04063857821608037 -0.037518638840780286 0.0 0.018978911017471265 0.0 0.0
0.030530776408464362 -0.027620574176479205 0.0 0.015132816878040314 0.0 0.0
0.021658707304195633 -0.01894067153747753 0.0 0.011288525023322423 0.0 0.0
0.014232229530347166 -0.011708538089827802 0.0 0.007674338480726744 0.0 0.0
0.008516815067764569 -0.006249527610934512 0.0 0.0046909993114980925 0.0 0.0
0.0046656864376522925 -0.002805950408554784 0.0 0.0027365857507485043 0.0 0.0
0.0025000480941761273 -0.001169158078796631 0.0 0.0017741057059547046 0.0 0.0
0.0014802756653915538 -0.0005996885717925388 0.0 0.0015180257030771654 0.0 0.0
0.0009123012150416551 -0.00031805036821179065 0.0 0.001460428062011542 0.0 0.0
0.0004742096460708745 -6.840847362344076e-05 0.0 0.0016233715443807824 0.0 0.0
0.0019966082912775815 -0.0006248647453432209 0.0 0.004836714862398854 0.0 0.0
0.0036998080056744884 -0.009977165120885308 0.0 0.003693933971617156 0.0 0.0
0.0027402853033774094 -0.007895188025824382 0.0 -0.002970599756803246 0.0 0.0
0.001474792340082728 -0.0005049112934614842 0.0 -0.0042382342778461675 0.0 0.0
0.00033990168653653366 -7.065176583877576e-05 0.0 -0.0019460532246062994 0.0 0.0
0.0006849832653172311 -0.00020997665435670384 0.0 -0.0017703991726219777 0.0 0.0
0.0011466890366441155 -0.0004589090649643572 0.0 -0.0018330466317891402 0.0 0.0
0.0018908960559674373 -0.0008398975621857929 0.0 -0.0020449233195841583 0.0 0.0
0.0034764390999825505 -0.0019138651425062289 0.0 -0.002862709189797506 0.0 0.0
0.0064340795710787985 -0.004421874442840066 0.0 -0.004670174626773177 0.0 0.0
0.010967760854785952 -0.00867537235449151 0.0 -0.007504258233282523 0.0 0.0
0.01695805462377325 -0.014481200538402975 0.0 -0.011087625137359843 0.0 0.0
0.02412422766066693 -0.021469685225004215 0.0 -0.014943480699025322 0.0 0.0
0.03224702602955046 -0.02940165259553478 0.0 -0.018802412219227908 0.0 0.0
0.041228323113965334 -0.03818485341970273 0.0 -0.02260186385678725 0.0 0.0
0.05103068955848785 -0.047797182577179374 0.0 -0.02636086957337213 0.0 0.0
0.061603019430038056 -0.058199673320939255 0.0 -0.02997780449429275 0.0 0.0
0.07282798236032988 -0.06927943536170338 0.0 -0.03319686738907858 0.0 0.0
0.08451478845089405 -0.08082876101657377 0.0 -0.03568920537485687 0.0 0.0
0.09638147640332814 -0.09257762499147629 0.0 -0.03697966899604742 0.0 0.0
0.10789949471489958 -0.10407737131438392 0.0 -0.03563927316357888 0.0 0.0
0.11808736608503631 -0.11437187638528784 0.0 -0.029057889190313733 0.0 0.0
0.12269311918569645 -0.12204195623200562 0.0 2.9461676154252103e-14 0.0 0.0
0.11808736608501932 -0.11437187638528573 0.0 0.02905788919038997 0.0 0.0
0.10789949471486564 -0.1040773713143453 0.0 0.03563927316365289 0.0 0.0
0.09638147640328296 -0.09257762499142723 0.0 0.03697966899609051 0.0 0.0
0.08451478845084384 -0.08082876101653289 0.0 0.03568920537486383 0.0 0.0
0.07282798236027604 -0.06927943536164645 0.0 0.03319686738906468 0.0 0.0
0.06160301942998202 -0.05819967332089063 0.0 0.029977804494275707 0.0 0.0
0.0510306895584335 -0.04779718257712753 0.0 0.02636086957335957 0.0 0.0
0.04122832311391438 -0.03818485341965465 0.0 0.02260186385676997 0.0 0.0
0.03224702602950372 -0.02940165259549163 0.0 0.018802412219205155 0.0 0.0
0.024124227660626184 -0.021469685224956975 0.0 0.014943480698995457 0.0 0.0
0.01695805462373909 -0.014481200538371899 0.0 0.011087625137335648 0.0 0.0
0.010967760854760667 -0.00867537235446136 0.0 0.007504258233265122 0.0 0.0
0.006434079571062794 -0.004421874442828944 0.0 0.00467017462676363 0.0 0.0
0.0034764390999737537 -0.0019138651425021267 0.0 0.0028627091897890826 0.0 0.0
0.0018908960559640706 -0.0008398975621821369 0.0 0.0020449233195811724 0.0 0.0
0.0011466890366434515 -0.000458909064963071 0.0 0.001833046631786463 0.0 0.0
0.0006849832653176786 -0.00020997665435578997 0.0 0.0017703991726183334 0.0 0.0
0.00033990168653675343 -7.065176583836289e-05 0.0 0.0019460532246062226 0.0 0.0
0.001474792340078634 -0.0005049112934598537 0.0 0.004238234277839018 0.0 0.0
0.002740285303369795 -0.007895188025809692 0.0 0.002970599756796099 0.0 0.0
0.0019706776815474726 -0.00613498518236574 0.0 -0.0023980963791986054 0.0 0.0
0.0010588015348758026 -0.00041084257490892653 0.0 -0.003700029543782744 0.0 0.0
0.00022604392002702791 -7.107695682026291e-05 0.0 -0.00219001184095173 0.0 0.0
0.00046938298675052294 -0.00011285871571098665 0.0 -0.002034202393214168 0.0 0.0
0.0008311652421638465 -0.0003213292895345078 0.0 -0.0021071102396290173 0.0 0.0
0.0013575682408965139 -0.0005880769647762791 0.0 -0.0023163668115507817 0.0 0.0
0.002423430260287949 -0.0012181159996913727 0.0 -0.0029213953711634977 0.0 0.0
0.004514779004533232 -0.0028410440542254414 0.0 -0.004408111153656012 0.0 0.0
0.00786076176509366 -0.005859760521195525 0.0 -0.0068536341564620976 0.0 0.0
0.012374274401043793 -0.010180886616806408 0.0 -0.010048505921366881 0.0 0.0
0.0178050439568542 -0.015444837969176207 0.0 -0.013612601461620454 0.0 0.0
0.023938611444499533 -0.021402614052516082 0.0 -0.017223392050831086 0.0 0.0
0.030689267341549913 -0.02797431444878239 0.0 -0.020781233063354006 0.0 0.0
0.038057737608651894 -0.03517217984860269 0.0 -0.024299331783324437 0.0 0.0
0.04606353270202666 -0.043020019960252856 0.0 -0.027721140223940774 0.0 0.0
0.054670024418269465 -0.05148983473755888 0.0 -0.030814543223431946 0.0 0.0
0.06378130494108282 -0.06046559966330041 0.0 -0.03323265082310073 0.0 0.0
0.07336173859654972 -0.0698611106775922 0.0 -0.034696627930354225 0.0 0.0
0.08334819913037671 -0.07970718467005274 0.0 -0.03436169684518804 0.0 0.0
0.09318974796987062 -0.08960593026406323 0.0 -0.029452423339788102 0.0 0.0
0.09795715621140667 -0.09821067932153678 0.0 2.913641550250645e-14 0.0 0.0
0.09318974796985802 -0.08960593026405488 0.0 0.029452423339857134 0.0 0.0
0.08334819913034984 -0.07970718467003601 0.0 0.03436169684525817 0.0 0.0
0.07336173859651474 -0.06986111067755435 0.0 0.034696627930396975 0.0 0.0
0.06378130494104474 -0.060465599663278066 0.0 0.03323265082310317 0.0 0.0
0.05467002441822838 -0.05148983473751046 0.0 0.030814543223417055 0.0 0.0
0.04606353270198477 -0.043020019960215025 0.0 0.027721140223926397 0.0 0.0
0.03805773760861277 -0.035172179848566444 0.0 0.02429933178331287 0.0 0.0
0.030689267341513213 -0.02797431444874793 0.0 0.020781233063339104 0.0 0.0
0.02393861144446473 -0.02140261405248118 0.0 0.017223392050810152 0.0 0.0
0.017805043956823478 -0.015444837969145846 0.0 0.013612601461594199 0.0 0.0
0.012374274401018888 -0.010180886616781354 0.0 0.010048505921343327 0.0 0.0
0.007860761765075244 -0.0058597605211790724 0.0 0.006853634156447987 0.0 0.0
0.004514779004520942 -0.0028410440542193005 0.0 0.004408111153646093 0.0 0.0
0.0024234302602815696 -0.0012181159996887193 0.0 0.002921395371156678 0.0 0.0
0.0013575682408943663 -0.0005880769647753096 0.0 0.0023163668115480504 0.0 0.0
0.0008311652421631878 -0.00032132928953361407 0.0 0.002107110239626802 0.0 0.0
0.0004693829867504849 -0.00011285871571077547 0.0 0.002034202393212551 0.0 0.0
0.00022604392002713276 -7.107695681993259e-05 0.0 0.002190011840949749 0.0 0.0
0.0010588015348728073 -0.0004108425749079663 0.0 0.0037000295437753326 0.0 0.0
0.0019706776815415668 -0.006134985182354151 0.0 0.002398096379194831 0.0 0.0
0.0013757072170042834 -0.00468213360270481 0.0 -0.0020035440662749125 0.0 0.0
0.0007290957757663909 -0.0003443560664933384 0.0 -0.003220135460681548 0.0 0.0
0.00011569689874685526 -5.785836948612774e-05 0.0 -0.0023585121812230367 0.0 0.0
0.0002605596359015846 -2.4110226445811553e-05 0.0 -0.0022427825101521016 0.0 0.0
0.0005208479363832251 -0.00017919784677842003 0.0 -0.002321376689359861 0.0 0.0
0.0008748723297424872 -0.0003744408782889205 0.0 -0.0025696920450041954 0.0 0.0
0.001510131561890022 -0.0007089170086189844 0.0 -0.002999121201820152 0.0 0.0
0.002792266626253049 -0.0015701337416385644 0.0 -0.003986138297418756 0.0 0.0
0.0049633573709711495 -0.003372316084622232 0.0 -0.005796412975287756 0.0 0.0
0.00798022744365525 -0.0061585132089208615 0.0 -0.008278314662934758 0.0 0.0
0.0116399970007411 -0.009645615131026058 0.0 -0.011190211094506533 0.0 0.0
0.01576317577838354 -0.01360677914372066 0.0 -0.014241664576968327 0.0 0.0
0.02027939279119937 -0.017961726717099606 0.0 -0.017316915165574178 0.0 0.0
0.025210709456874814 -0.022744174377175984 0.0 -0.020372105639312632 0.0 0.0
0.03062637282871101 -0.02801730985314258 0.0 -0.023367598515896964 0.0 0.0
0.03658784744932342 -0.03384292769971393 0.0 -0.02617985790657423 0.0 0.0
0.04309769392718213 -0.040223315740854755 0.0 -0.028473148909578843 0.0 0.0
0.05022491257123848 -0.047160021945216686 0.0 -0.029878175241048827 0.0 0.0
0.05835392900246489 -0.05499432541909536 0.0 -0.030290754553659288 0.0 0.0
0.06766092098406944 -0.06418732219359827 0.0 -0.028181526935313138 0.0 0.0
0.07257863024883127 -0.07386593935428809 0.0 2.6313153045354198e-14 0.0 0.0
0.06766092098406191 -0.06418732219358686 0.0 0.02818152693537654 0.0 0.0
0.05835392900244768 -0.05499432541908343 0.0 0.030290754553728885 0.0 0.0
0.05022491257121315 -0.047160021945180555 0.0 0.02987817524109023 0.0 0.0
0.04309769392715463 -0.0402233157408358 0.0 0.028473148909576196 0.0 0.0
0.03658784744929577 -0.0338429276996857 0.0 0.026179857906556712 0.0 0.0
0.030626372828683975 -0.028017309853119864 0.0 0.023367598515882698 0.0 0.0
0.025210709456850482 -0.022744174377152548 0.0 0.02037210563930524 0.0 0.0
0.020279392791176364 -0.017961726717077752 0.0 0.017316915165566417 0.0 0.0
0.01576317577836089 -0.013606779143691723 0.0 0.014241664576949732 0.0 0.0
0.011639997000721028 -0.009645615131008587 0.0 0.011190211094485966 0.0 0.0
0.0079802274436395 -0.006158513208902079 0.0 0.008278314662914003 0.0 0.0
0.004963357370959747 -0.003372316084615457 0.0 0.005796412975278069 0.0 0.0
0.0027922666262457196 -0.0015701337416324174 0.0 0.003986138297411647 0.0 0.0
0.0015101315618868685 -0.0007089170086148925 0.0 0.0029991212018175345 0.0 0.0
0.000874872329741693 -0.0003744408782911251 0.0 0.0025696920450014463 0.0 0.0
0.0005208479363828818 -0.00017919784677801367 0.0 0.0023213766893556164 0.0 0.0
0.000260559635901179 -2.4110226446353244e-05 0.0 0.002242782510149779 0.0 0.0
0.00011569689874658746 -5.785836948550076e-05 0.0 0.0023585121812202993 0.0 0.0
0.0007290957757647808 -0.00034435606649339345 0.0 0.0032201354606761143 0.0 0.0
0.0013757072170011934 -0.0046821336026958175 0.0 0.0020035440662726093 0.0 0.0
0.0009401160444007339 -0.003515163592297468 0.0 -0.0017418677833302763 0.0 0.0
0.00047300995141545763 -0.000310334387861029 0.0 -0.0028173803359280644 0.0 0.0
-1.073097994081499e-07 -2.444852488281971e-05 0.0 -0.002460162870152747 0.0 0.0
5.5822114986963814e-05 5.89310415470585e-05 0.0 -0.002391741926149326 0.0 0.0
0.00020936687055292565 -3.4576196165344435e-05 0.0 -0.0024729606140051347 0.0 0.0
0.0004141772015228994 -0.00016577144460192875 0.0 -0.002752673058381818 0.0 0.0
0.0007174289598133299 -0.00032541670908890855 0.0 -0.0031243040267618467 0.0 0.0
0.00129173697585469 -0.0006553125234217268 0.0 -0.003630160838032249 0.0 0.0
0.00232957709398032 -0.0013949494883486306 0.0 -0.004538243576493092 0.0 0.0
0.00384381538905017 -0.0026483288102248695 0.0 -0.006020381032219084 0.0 0.0
0.0057011957366274795 -0.004296642965857257 0.0 -0.008023961634856405 0.0 0.0
0.007780804342056927 -0.006214193789176777 0.0 -0.0103426590191102 0.0 0.0
0.010042978602595835 -0.008335703482396407 0.0 -0.012806795597412365 0.0 0.0
0.012530969043183678 -0.010694397869522313 0.0 -0.015346912812128593 0.0 0.0
0.015335215599487494 -0.01337048322931128 0.0 -0.01793832294014413 0.0 0.0
0.01859812561201915 -0.016497211513273193 0.0 -0.020519242137548965 0.0 0.0
0.022481606101072672 -0.02023756225434619 0.0 -0.02283720456086401 0.0 0.0
0.027119248866874404 -0.02472976456494256 0.0 -0.024325804288197545 0.0 0.0
0.03296746862793277 -0.03025851607813937 0.0 -0.024661948980120037 0.0 0.0
0.041163707808210485 -0.03793420342763701 0.0 -0.02469175646937105 0.0 0.0
0.04603325800142168 -0.04855124737132697 0.0 2.274829630222186e-14 0.0 0.0
0.041163707808207335 -0.03793420342763297 0.0 0.02469175646942561 0.0 0.0
0.03296746862792353 -0.030258516078119246 0.0 0.024661948980172356 0.0 0.0
0.027119248866859517 -0.02472976456493283 0.0 0.024325804288221974 0.0 0.0
0.022481606101057792 -0.02023756225433901 0.0 0.02283720456085333 0.0 0.0
0.018598125612006255 -0.0164972115132616 0.0 0.020519242137531236 0.0 0.0
0.015335215599476235 -0.013370483229298447 0.0 0.017938322940132256 0.0 0.0
0.012530969043174828 -0.010694397869508241 0.0 0.015346912812120975 0.0 0.0
0.010042978602586093 -0.008335703482383586 0.0 0.012806795597406172 0.0 0.0
0.0077808043420467335 -0.006214193789169114 0.0 0.010342659019095824 0.0 0.0
0.005701195736619081 -0.004296642965843323 0.0 0.00802396163484235 0.0 0.0
0.003843815389043403 -0.002648328810217667 0.0 0.006020381032207944 0.0 0.0
0.0023295770939753754 -0.0013949494883422728 0.0 0.004538243576488408 0.0 0.0
0.0012917369758518834 -0.0006553125234176002 0.0 0.0036301608380279416 0.0 0.0
0.000717428959812282 -0.0003254167090854611 0.0 0.0031243040267598435 0.0 0.0
0.0004141772015222907 -0.00016577144460641906 0.0 0.002752673058377694 0.0 0.0
0.0002093668705528322 -3.457619616421748e-05 0.0 0.002472960614001839 0.0 0.0
5.582211498692354e-05 5.89310415456326e-05 0.0 0.002391741926146926 0.0 0.0
-1.0730979961124638e-07 -2.4448524883114878e-05 0.0 0.0024601628701517845 0.0 0.0
0.00047300995141432605 -0.00031033438786144576 0.0 0.0028173803359247125 0.0 0.0
0.0009401160443984653 -0.003515163592290979 0.0 0.0017418677833286257 0.0 0.0
0.0006307494165239347 -0.002614311534123421 0.0 -0.0015832314859889262 0.0 0.0
0.0002740111322056041 -0.00030231135119062236 0.0 -0.0025179883665126415 0.0 0.0
-0.00012195415483355867 2.562257481695626e-05 0.0 -0.002503543531546291 0.0 0.0
-0.00014587779906461348 0.00013903098254059462 0.0 -0.002477043981176273 0.0 0.0
-9.916111206770978e-05 0.0001084074498159679 0.0 -0.0025578302020340883 0.0 0.0
-4.7580828569620306e-05 4.784582020360745e-05 0.0 -0.002831185844998609 0.0 0.0
-1.9256840953639902e-05 1.2774001846309547e-05 0.0 -0.003209620935710114 0.0 0.0
-7.928596935471223e-06 4.885132597274616e-06 0.0 -0.003511905863204635 0.0 0.0
-2.8837213128870436e-06 1.7709034491423392e-06 0.0 -0.003886966464888084 0.0 0.0
-5.445205440939948e-07 2.1239583905421997e-07 0.0 -0.0047900654087684345 0.0 0.0
-3.405839812298749e-06 2.1574835274062922e-06 0.0 -0.006302711349314772 0.0 0.0
-1.865448182311407e-05 1.7437868390195123e-05 0.0 -0.008267624002662694 0.0 0.0
-4.289907482452082e-05 4.301322871582238e-05 0.0 -0.010433745289249388 0.0 0.0
-3.459080970672759e-05 4.657428985264543e-05 0.0 -0.012739878136663153 0.0 0.0
0.00011984817803473592 -7.147859445980889e-05 0.0 -0.015188638975600273 0.0 0.0
0.0006395160906121702 -0.0005103054652981024 0.0 -0.017743519400744926 0.0 0.0
0.0018597927794468993 -0.0015777214064686797 0.0 -0.020287212340609664 0.0 0.0
0.004126312015037157 -0.0036273128123974208 0.0 -0.022546491569654187 0.0 0.0
0.007662111863154992 -0.006749023645975691 0.0 -0.024237508077175913 0.0 0.0
0.01374533265130919 -0.01183008315571343 0.0 -0.025862403574567407 0.0 0.0
0.01772485613485382 -0.02302298939904235 0.0 1.6528445279107018e-14 0.0 0.0
0.013745332651309797 -0.011830083155703292 0.0 0.02586240357460067 0.0 0.0
0.007662111863152826 -0.006749023645956617 0.0 0.024237508077195546 0.0 0.0
0.004126312015034354 -0.003627312812396784 0.0 0.022546491569657635 0.0 0.0
0.0018597927794478876 -0.0015777214064769366 0.0 0.02028721234059702 0.0 0.0
0.0006395160906151285 -0.0005103054652907782 0.0 0.017743519400726326 0.0 0.0
0.0001198481780383153 -7.147859445714435e-05 0.0 0.01518863897558937 0.0 0.0
-3.4590809701226565e-05 4.657428984826883e-05 0.0 0.012739878136651894 0.0 0.0
-4.2899074819418995e-05 4.301322872606511e-05 0.0 0.01043374528923581 0.0 0.0
-1.8654481818820953e-05 1.743786837986002e-05 0.0 0.00826762400264847 0.0 0.0
-3.4058398088758143e-06 2.1574835249635305e-06 0.0 0.006302711349300352 0.0 0.0
-5.445205424777747e-07 2.1239584045167526e-07 0.0 0.0047900654087608616 0.0 0.0
-2.8837213120343457e-06 1.770903447782316e-06 0.0 0.003886966464886785 0.0 0.0
-7.928596934807448e-06 4.885132600296857e-06 0.0 0.0035119058632026526 0.0 0.0
-1.9256840953212428e-05 1.2774001847311678e-05 0.0 0.003209620935707841 0.0 0.0
-4.758082856933121e-05 4.784582020125125e-05 0.0 0.0028311858449949633 0.0 0.0
-9.916111206747754e-05 0.00010840744981545884 0.0 0.002557830202031829 0.0 0.0
-0.00014587779906446454 0.00013903098254017086 0.0 0.0024770439811743956 0.0 0.0
-0.00012195415483382642 2.5622574816494573e-05 0.0 0.0025035435315448645 0.0 0.0
0.00027401113220482055 -0.0003023113511913229 0.0 0.0025179883665109562 0.0 0.0
0.0006307494165229536 -0.0026143115341190903 0.0 0.0015832314859871063 0.0 0.0
0.0004153395818769619 -0.0019580304890981356 0.0 -0.0015075516999067395 0.0 0.0
0.0001234069465190263 -0.00029729233405487046 0.0 -0.0023076295875335117 0.0 0.0
-0.00024155800975570087 8.053835748360008e-05 0.0 -0.00249381479017395 0.0 0.0
-0.0003434713026419557 0.0002176909526079251 0.0 -0.002496196794385485 0.0 0.0
-0.0004016950306980489 0.0002467333138820543 0.0 -0.0025653877941867196 0.0 0.0
-0.0005061729811128476 0.00026102921541694196 0.0 -0.002806786514699562 0.0 0.0
-0.0007559725154627371 0.00035300710702694483 0.0 -0.003164644163118745 0.0 0.0
-0.00130735129125215 0.000666478147820018 0.0 -0.003658350818657505 0.0 0.0
-0.002333593328504814 0.0013976141837997314 0.0 -0.00455035438156922 0.0 0.0
-0.0038438272709857522 0.002648089834525715 0.0 -0.006020946095238529 0.0 0.0
-0.005710119213624076 0.00430331192147245 0.0 -0.008024419325505143 0.0 0.0
-0.007820939033765658 0.006250914673523925 0.0 -0.010349056923065427 0.0 0.0
-0.010126530952374015 0.008420764825587373 0.0 -0.012800939849674415 0.0 0.0
-0.01258918900857902 0.010780855767658162 0.0 -0.015318849991938437 0.0 0.0
-0.015077555047374083 0.01321132006661684 0.0 -0.017926572364641073 0.0 0.0
-0.0173201702240679 0.015451155272051674 0.0 -0.020675505246458115 0.0 0.0
-0.018897139272624645 0.017085706636246607 0.0 -0.023594871662472764 0.0 0.0
-0.01934567052273296 0.017612182248196117 0.0 -0.02682010848850534 0.0 0.0
-0.018149415860335645 0.01671502180352849 0.0 -0.030291562247874826 0.0 0.0
-0.01320092140149243 0.013088551720915154 0.0 -0.03211667951232068 0.0 0.0
-0.00933679330059324 0.0011977395905085997 0.0 1.872807464664561e-14 0.0 0.0
-0.013200921401492142 0.013088551720916167 0.0 0.032116679512356576 0.0 0.0
-0.018149415860328633 0.016715021803533226 0.0 0.03029156224789787 0.0 0.0
-0.019345670522718766 0.017612182248190666 0.0 0.026820108488509874 0.0 0.0
-0.018897139272606545 0.017085706636228253 0.0 0.023594871662460486 0.0 0.0
-0.01732017022404831 0.015451155272049155 0.0 0.020675505246436316 0.0 0.0
-0.015077555047355501 0.013211320066599103 0.0 0.017926572364621196 0.0 0.0
-0.012589189008560053 0.010780855767639628 0.0 0.015318849991923449 0.0 0.0
-0.010126530952354487 0.008420764825574197 0.0 0.012800939849656377 0.0 0.0
-0.007820939033747335 0.006250914673507573 0.0 0.010349056923042417 0.0 0.0
-0.005710119213608662 0.004303311921450937 0.0 0.008024419325483355 0.0 0.0
-0.003843827270974453 0.0026480898345191193 0.0 0.0060209460952268794 0.0 0.0
-0.0023335933284978428 0.001397614183799515 0.0 0.004550354381564862 0.0 0.0
-0.0013073512912482493 0.0006664781478160477 0.0 0.003658350818652874 0.0 0.0
-0.0007559725154606384 0.00035300710702419893 0.0 0.0031646441631138183 0.0 0.0
-0.0005061729811119569 0.0002610292154179847 0.0 0.002806786514697516 0.0 0.0
-0.00040169503069750864 0.00024673331388251716 0.0 0.002565387794183311 0.0 0.0
-0.00034347130264168415 0.00021769095260840436 0.0 0.0024961967943837185 0.0 0.0
-0.00024155800975566297 8.053835748432045e-05 0.0 0.002493814790171594 0.0 0.0
0.00012340694651880607 -0.00029729233405563775 0.0 0.002307629587534793 0.0 0.0
0.0004153395818764454 -0.001958030489095434 0.0 0.0015075516999030006 0.0 0.0
0.0002715172306440595 -0.0014716326252549952 0.0 -0.0014277503204019994 0.0 0.0
1.335061479208769e-05 -0.0002780597837370721 0.0 -0.0021300033347261146 0.0 0.0
-0.00035333478544974 0.00013117045159476035 0.0 -0.002433192262622304 0.0 0.0
-0.0005337260805662401 0.0002941540039398544 0.0 -0.0024486372132412316 0.0 0.0
-0.0006954336623531586 0.00037792606851041517 0.0 -0.0024938975441657118 0.0 0.0
-0.000960026255595998 0.00046933613017363185 0.0 -0.0026814104791707243 0.0 0.0
-0.0015474537717222248 0.0007418997211640771 0.0 -0.003078024326516113 0.0 0.0
-0.002803459484231495 0.0015800289667918356 0.0 -0.004026421397482837 0.0 0.0
-0.004962930439100402 0.0033713975380579575 0.0 -0.005805348434313851 0.0 0.0
-0.007979771844217824 0.0061582026283683 0.0 -0.008277498573567622 0.0 0.0
-0.011650796213418501 0.009656030623979626 0.0 -0.011192147315711025 0.0 0.0
-0.015799650816740347 0.01364203701832484 0.0 -0.014230892483672604 0.0 0.0
-0.020346866536788973 0.01803252196316984 0.0 -0.017247101756536824 0.0 0.0
-0.02524179135830885 0.02280289952506404 0.0 -0.02022491237422767 0.0 0.0
-0.03034577351811453 0.027829850722661344 0.0 -0.02327933426019853 0.0 0.0
-0.035341161712880154 0.03281031975514274 0.0 -0.02661810533526251 0.0 0.0
-0.039733552426920594 0.037237902804469175 0.0 -0.0304569082564964 0.0 0.0
-0.04287241489543803 0.04045370433981683 0.0 -0.03488554674003803 0.0 0.0
-0.04356844351721655 0.04145515012103027 0.0 -0.03907639089287566 0.0 0.0
-0.03927552551097065 0.03789573105033267 0.0 -0.040303153112780966 0.0 0.0
-0.03545070217678899 0.0241147039832484 0.0 2.341703220221092e-14 0.0 0.0
-0.03927552551096636 0.03789573105032468 0.0 0.04030315311283814 0.0 0.0
-0.04356844351720231 0.041455150121012994 0.0 0.039076390892929226 0.0 0.0
-0.04287241489541196 0.040453704339789585 0.0 0.03488554674005501 0.0 0.0
-0.03973355242688806 0.03723790280444273 0.0 0.03045690825648953 0.0 0.0
-0.03534116171284635 0.03281031975511303 0.0 0.02661810533524335 0.0 0.0
-0.030345773518081078 0.027829850722630042 0.0 0.023279334260176598 0.0 0.0
-0.025241791358275128 0.02280289952503678 0.0 0.02022491237420988 0.0 0.0
-0.020346866536755537 0.018032521963133086 0.0 0.017247101756517478 0.0 0.0
-0.01579965081670888 0.013642037018294827 0.0 0.01423089248364685 0.0 0.0
-0.011650796213390983 0.009656030623950063 0.0 0.011192147315681182 0.0 0.0
-0.007979771844197047 0.006158202628349889 0.0 0.00827749857354821 0.0 0.0
-0.0049629304390868215 0.0033713975380471202 0.0 0.005805348434303201 0.0 0.0
-0.0028034594842232252 0.0015800289667832947 0.0 0.004026421397474365 0.0 0.0
-0.0015474537717179325 0.0007418997211616484 0.0 0.0030780243265115816 0.0 0.0
-0.0009600262555942713 0.00046933613017323926 0.0 0.002681410479168245 0.0 0.0
-0.0006954336623526849 0.0003779260685107998 0.0 0.0024938975441635017 0.0 0.0
-0.0005337260805661003 0.0002941540039392424 0.0 0.0024486372132384734 0.0 0.0
-0.00035333478544937775 0.00013117045159489983 0.0 0.002433192262621392 0.0 0.0
1.3350614791790894e-05 -0.0002780597837374154 0.0 0.002130003334726003 0.0 0.0
0.00027151723064277645 -0.001471632625252918 0.0 0.0014277503203998993 0.0 0.0
0.0001671784853915376 -0.0010775680218170812 0.0 -0.0012881146318169793 0.0 0.0
-7.207271857918317e-05 -0.00024287964604527434 0.0 -0.0019470614866214835 0.0 0.0
-0.00045587990753782285 0.0001762408027660952 0.0 -0.0023211066311391356 0.0 0.0
-0.000714891559043521 0.00036623495368629763 0.0 -0.0023392304311388636 0.0 0.0
-0.0009786697097728036 0.0004996561721502368 0.0 -0.002349032014948428 0.0 0.0
-0.0014322390927664899 0.0006830053449055818 0.0 -0.0024790538221417567 0.0 0.0
-0.0024540925459918773 0.0012529337475091344 0.0 -0.003019931565540283 0.0 0.0
-0.00451744437515825 0.002842003590839587 0.0 -0.004438703761975219 0.0 0.0
-0.007856311324926398 0.005855046798598133 0.0 -0.006853936799139723 0.0 0.0
-0.01237555925228258 0.01018286383588754 0.0 -0.01004792008140265 0.0 0.0
-0.017816127690831626 0.015457215214141645 0.0 -0.01361462970198654 0.0 0.0
-0.023961607300756717 0.021426808309366444 0.0 -0.017192545473837556 0.0 0.0
-0.030718550842539244 0.028007155431382033 0.0 -0.020638009581407622 0.0 0.0
-0.038037454165311256 0.03517316006627049 0.0 -0.023998906956781564 0.0 0.0
-0.04578045307651192 0.04281217689480625 0.0 -0.027499341390910526 0.0 0.0
-0.05360138668496134 0.05059838986970082 0.0 -0.03154084920424138 0.0 0.0
-0.06087668499264143 0.05791417453049787 0.0 -0.036554099372858875 0.0 0.0
-0.0665600955433296 0.0637638800376085 0.0 -0.04236169410294046 0.0 0.0
-0.06884506160429181 0.06642055524198101 0.0 -0.04739102032814756 0.0 0.0
-0.0641385568152231 0.06272085081096541 0.0 -0.04870663480061742 0.0 0.0
-0.05942613011012375 0.04607181071972653 0.0 2.824650235933035e-14 0.0 0.0
-0.06413855681521409 0.06272085081095768 0.0 0.048706634800679834 0.0 0.0
-0.06884506160427016 0.06642055524195756 0.0 0.04739102032821024 0.0 0.0
-0.06656009554329392 0.06376388003756608 0.0 0.04236169410297247 0.0 0.0
-0.060876684992595576 0.05791417453045643 0.0 0.03655409937285238 0.0 0.0
-0.053601386684912475 0.05059838986964179 0.0 0.03154084920422165 0.0 0.0
-0.04578045307646434 0.042812176894761494 0.0 0.02749934139089054 0.0 0.0
-0.038037454165263974 0.0351731600662243 0.0 0.02399890695676078 0.0 0.0
-0.030718550842492115 0.028007155431333385 0.0 0.02063800958138556 0.0 0.0
-0.02396160730071268 0.021426808309323152 0.0 0.01719254547380971 0.0 0.0
-0.01781612769079276 0.015457215214101563 0.0 0.013614629701955375 0.0 0.0
-0.012375559252251676 0.010182863835859587 0.0 0.010047920081376721 0.0 0.0
-0.007856311324905177 0.005855046798571392 0.0 0.006853936799124931 0.0 0.0
-0.004517444375145134 0.0028420035908311284 0.0 0.004438703761966008 0.0 0.0
-0.002454092545985211 0.0012529337475056142 0.0 0.0030199315655347835 0.0 0.0
-0.001432239092763549 0.000683005344905425 0.0 0.002479053822137878 0.0 0.0
-0.000978669709771692 0.0004996561721464483 0.0 0.002349032014945864 0.0 0.0
-0.0007148915590432075 0.0003662349536840108 0.0 0.0023392304311377348 0.0 0.0
-0.00045587990753732835 0.00017624080276637294 0.0 0.0023211066311384404 0.0 0.0
-7.207271857900138e-05 -0.0002428796460456381 0.0 0.001947061486618495 0.0 0.0
0.00016717848539109345 -0.0010775680218157216 0.0 0.001288114631817338 0.0 0.0
8.089338694966224e-05 -0.0007486433777082893 0.0 -0.0011101263464735587 0.0 0.0
-0.00014555888642536107 -0.00019379678646847133 0.0 -0.001740665912344321 0.0 0.0
-0.0005508628842372642 0.00021777818978012544 0.0 -0.002157141700330585 0.0 0.0
-0.0008858479781775972 0.00043186769585305655 0.0 -0.0021710355514448264 0.0 0.0
-0.001256340757544861 0.0006107825641529693 0.0 -0.0021297257833900454 0.0 0.0
-0.0019488518974363207 0.0009288370144704011 0.0 -0.002231816581713625 0.0 0.0
-0.0034942673717249526 0.0019389630390787417 0.0 -0.002947053323067258 0.0 0.0
-0.006427781676874787 0.00441259873880172 0.0 -0.004684074236360298 0.0 0.0
-0.010963078371913215 0.008670481831021634 0.0 -0.00749970909423092 0.0 0.0
-0.016962259953143287 0.014486711637701807 0.0 -0.011088290301467456 0.0 0.0
-0.02413305636900685 0.021481801999290277 0.0 -0.014942928673036801 0.0 0.0
-0.03224717624776883 0.029406799521349995 0.0 -0.018752313586469803 0.0 0.0
-0.04119877844103996 0.03816050477120904 0.0 -0.022401466851344903 0.0 0.0
-0.05093582658825456 0.047713201203315285 0.0 -0.025943220487320742 0.0 0.0
-0.06133338717014315 0.05797356059288858 0.0 -0.029635189426336778 0.0 0.0
-0.07202070195956344 0.06861063757789375 0.0 -0.03403282228896524 0.0 0.0
-0.08217153274962279 0.07883899294540665 0.0 -0.03965018440605787 0.0 0.0
-0.09026861453124904 0.08719601624386333 0.0 -0.046186902378684676 0.0 0.0
-0.09371373547515673 0.09120850377285258 0.0 -0.05186090422337145 0.0 0.0
-0.08818139248377292 0.08678140351417418 0.0 -0.05355765116236014 0.0 0.0
-0.08249883861149873 0.06736798472874456 0.0 3.0765320846448674e-14 0.0 0.0
-0.08818139248375864 0.08678140351415659 0.0 0.05355765116242413 0.0 0.0
-0.09371373547512683 0.09120850377282955 0.0 0.05186090422343637 0.0 0.0
-0.09026861453120409 0.08719601624381808 0.0 0.046186902378721605 0.0 0.0
-0.08217153274956597 0.0788389929453355 0.0 0.03965018440605717 0.0 0.0
-0.07202070195950161 0.06861063757783484 0.0 0.03403282228894318 0.0 0.0
-0.06133338717008141 0.057973560592828155 0.0 0.029635189426313303 0.0 0.0
-0.050935826588192484 0.04771320120325337 0.0 0.025943220487298052 0.0 0.0
-0.041198778440979425 0.03816050477114966 0.0 0.022401466851322063 0.0 0.0
-0.0322471762477128 0.02940679952129467 0.0 0.01875231358644013 0.0 0.0
-0.0241330563689572 0.021481801999242288 0.0 0.014942928673002426 0.0 0.0
-0.01696225995310333 0.014486711637664143 0.0 0.011088290301436933 0.0 0.0
-0.010963078371884595 0.008670481830993854 0.0 0.007499709094213292 0.0 0.0
-0.0064277816768563084 0.004412598738783479 0.0 0.004684074236350238 0.0 0.0
-0.0034942673717153136 0.001938963039071328 0.0 0.0029470533230595833 0.0 0.0
-0.001948851897432526 0.0009288370144682643 0.0 0.002231816581710134 0.0 0.0
-0.001256340757543237 0.0006107825641515908 0.0 0.002129725783388861 0.0 0.0
-0.0008858479781766395 0.0004318676958530675 0.0 0.0021710355514434976 0.0 0.0
-0.0005508628842366807 0.00021777818978055343 0.0 0.002157141700330202 0.0 0.0
-0.00014555888642469952 -0.00019379678646917487 0.0 0.001740665912343144 0.0 0.0
8.089338695029598e-05 -0.000748643377707519 0.0 0.001110126346471242 0.0 0.0
6.820104002815079e-06 -0.0004797164938093979 0.0 -0.0009186213798024684 0.0 0.0
-0.00021167935209797674 -0.00013414871147777107 0.0 -0.0015051451329855742 0.0 0.0
-0.0006399861545165545 0.0002578593939340423 0.0 -0.0019381878988137462 0.0 0.0
-0.0010460100027929002 0.0004896801206512219 0.0 -0.0019443606443910275 0.0 0.0
-0.0015395127178051626 0.0007178944957837081 0.0 -0.001846766058947306 0.0 0.0
-0.0025317446346708487 0.0012396112559648759 0.0 -0.0019547197244805512 0.0 0.0
-0.004669576477838831 0.002814289591203571 0.0 -0.002791926822007394 0.0 0.0
-0.008507736749850373 0.006236620811551836 0.0 -0.004692780686981696 0.0 0.0
-0.014229817503880731 0.011706430118160385 0.0 -0.007668729978508907 0.0 0.0
-0.021665339172208423 0.01894931414606591 0.0 -0.01129031521493162 0.0 0.0
-0.03053402924936948 0.027629152159225116 0.0 -0.01512693105500797 0.0 0.0
-0.040609571957331884 0.03749890154925661 0.0 -0.018911819975071173 0.0 0.0
-0.05175073506316496 0.048422399914412745 0.0 -0.022548192922123813 0.0 0.0
-0.06389102171778367 0.060350513601548306 0.0 -0.026075518987843452 0.0 0.0
-0.0769260143265682 0.07321130442205659 0.0 -0.029704029917413145 0.0 0.0
-0.09045072466449068 0.0866714384209714 0.0 -0.033947093505503775 0.0 0.0
-0.10341566432613243 0.0997629311152005 0.0 -0.03942903691845348 0.0 0.0
-0.11378429739700066 0.11052359000768519 0.0 -0.04606977105654323 0.0 0.0
-0.11822554762387202 0.11569236798990831 0.0 -0.05235983079105934 0.0 0.0
-0.11194525322299315 0.11054073142577919 0.0 -0.05628726907367169 0.0 0.0
-0.10543181096014287 0.0887393793294513 0.0 3.071327914216937e-14 0.0 0.0
-0.11194525322297405 0.11054073142575033 0.0 0.056287269073737614 0.0 0.0
-0.11822554762383389 0.11569236798987773 0.0 0.0523598307911256 0.0 0.0
-0.11378429739694587 0.11052359000763451 0.0 0.04606977105657447 0.0 0.0
-0.10341566432606439 0.09976293111512559 0.0 0.03942903691845838 0.0 0.0
-0.09045072466441594 0.08667143842090128 0.0 0.03394709350549099 0.0 0.0
-0.07692601432649238 0.07321130442198542 0.0 0.029704029917392447 0.0 0.0
-0.06389102171770844 0.06035051360147331 0.0 0.026075518987820026 0.0 0.0
-0.05175073506309106 0.048422399914342766 0.0 0.022548192922099915 0.0 0.0
-0.040609571957263425 0.03749890154918988 0.0 0.018911819975039983 0.0 0.0
-0.030534029249309126 0.027629152159162326 0.0 0.015126931054974077 0.0 0.0
-0.02166533917215868 0.01894931414601861 0.0 0.011290315214902362 0.0 0.0
-0.014229817503844635 0.011706430118125727 0.0 0.007668729978489209 0.0 0.0
-0.008507736749826767 0.006236620811529046 0.0 0.004692780686970895 0.0 0.0
-0.004669576477824994 0.0028142895911905112 0.0 0.002791926822000307 0.0 0.0
-0.0025317446346647923 0.001239611255960668 0.0 0.001954719724476509 0.0 0.0
-0.0015395127178037824 0.0007178944957877082 0.0 0.001846766058945524 0.0 0.0
-0.0010460100027921675 0.0004896801206520085 0.0 0.001944360644389933 0.0 0.0
-0.0006399861545159013 0.0002578593939336687 0.0 0.0019381878988122283 0.0 0.0
-0.00021167935209825213 -0.00013414871147845108 0.0 0.0015051451329852494 0.0 0.0
6.820104001983299e-06 -0.00047971649380861323 0.0 0.0009186213797989369 0.0 0.0
-5.560995406116801e-05 -0.00026892968175290755 0.0 -0.0007220348899816024 0.0 0.0
-0.00027086022380472046 -6.90014678095754e-05 0.0 -0.0012420978496149693 0.0 0.0
-0.0007243140501759332 0.0002975924601690656 0.0 -0.0016636321175936047 0.0 0.0
-0.0012000896221374135 0.0005399727796099781 0.0 -0.0016597845492201814 0.0 0.0
-0.0018433302812918772 0.0008330576259555728 0.0 -0.0015106277175335628 0.0 0.0
-0.0031929173677509954 0.001642763358221424 0.0 -0.0016379519636170621 0.0 0.0
-0.005973392372208361 0.0038782889443872226 0.0 -0.0025196507413307394 0.0 0.0
-0.010724700298654159 0.008256124330138746 0.0 -0.004441956166849505 0.0 0.0
-0.017590293442877457 0.014868044028231334 0.0 -0.00725223735050902 0.0 0.0
-0.026421998542028955 0.023492597257523253 0.0 -0.010610221523581063 0.0 0.0
-0.03697624777924885 0.03383912149958569 0.0 -0.014182959311738514 0.0 0.0
-0.04900581678811565 0.04564666350572549 0.0 -0.01770628822786977 0.0 0.0
-0.06233592179335852 0.058743475308084714 0.0 -0.021109756695345268 0.0 0.0
-0.07686542778293509 0.07303845027454654 0.0 -0.024435042431146244 0.0 0.0
-0.0924691824228989 0.08843904888116363 0.0 -0.027762976734485825 0.0 0.0
-0.10872330085423162 0.10460528705187225 0.0 -0.03138169342302166 0.0 0.0
-0.12440397614009324 0.1204474500841054 0.0 -0.03595986971502093 0.0 0.0
-0.13700078293416074 0.13356024881788947 0.0 -0.04207082302772785 0.0 0.0
-0.1425640398959884 0.13999750331370156 0.0 -0.04940389476618571 0.0 0.0
-0.13587097013645097 0.13448879141024286 0.0 -0.05740862110065699 0.0 0.0
-0.12873672279019083 0.1106863980686891 0.0 2.97088742495788e-14 0.0 0.0
-0.13587097013642718 0.13448879141021744 0.0 0.05740862110072446 0.0 0.0
-0.1425640398959421 0.13999750331365474 0.0 0.049403894766249214 0.0 0.0
-0.13700078293409587 0.13356024881782644 0.0 0.04207082302775802 0.0 0.0
-0.1244039761400141 0.12044745008404176 0.0 0.03595986971502312 0.0 0.0
-0.10872330085414512 0.1046052870517869 0.0 0.03138169342301158 0.0 0.0
-0.09246918242281031 0.08843904888107562 0.0 0.02776297673446986 0.0 0.0
-0.07686542778284615 0.07303845027446726 0.0 0.02443504243112671 0.0 0.0
-0.06233592179327166 0.05874347530799584 0.0 0.021109756695325544 0.0 0.0
-0.049005816788035304 0.045646663505651885 0.0 0.017706288227840976 0.0 0.0
-0.03697624777917804 0.03383912149951129 0.0 0.014182959311708643 0.0 0.0
-0.02642199854197069 0.023492597257464373 0.0 0.010610221523555615 0.0 0.0
-0.01759029344283313 0.01486804402818934 0.0 0.007252237350489332 0.0 0.0
-0.01072470029862457 0.008256124330115154 0.0 0.004441956166835308 0.0 0.0
-0.005973392372191792 0.0038782889443713543 0.0 0.0025196507413249255 0.0 0.0
-0.0031929173677434685 0.001642763358217019 0.0 0.0016379519636118027 0.0 0.0
-0.0018433302812897608 0.0008330576259563854 0.0 0.0015106277175309336 0.0 0.0
-0.0012000896221366218 0.000539972779608482 0.0 0.0016597845492197865 0.0 0.0
-0.0007243140501755113 0.0002975924601690237 0.0 0.0016636321175910723 0.0 0.0
-0.0002708602238047877 -6.900146780950738e-05 0.0 0.0012420978496135344 0.0 0.0
-5.5609954061438124e-05 -0.0002689296817524688 0.0 0.0007220348899806693 0.0 0.0
-0.0001041050146530408 -0.00011614965053965813 0.0 -0.0005264155689326845 0.0 0.0
-0.00032072478327280045 -4.173976552268641e-06 0.0 -0.0009545723049037831 0.0 0.0
-0.0008035753675033126 0.0003364303927586227 0.0 -0.0013318093079433206 0.0 0.0
-0.001353612719710861 0.0005842622584284924 0.0 -0.0013124882017526837 0.0 0.0
-0.002181974821468475 0.0009731979227603296 0.0 -0.0011231481233788887 0.0 0.0
-0.003944616448873689 0.0021612747048188235 0.0 -0.0012593527569801973 0.0 0.0
-0.0073977311363026595 0.005116092845355881 0.0 -0.0021230559105328093 0.0 0.0
-0.013025242070228602 0.010394164180000802 0.0 -0.0038225533038528632 0.0 0.0
-0.020983747350373876 0.018086088048338143 0.0 -0.006198603572486743 0.0 0.0
-0.031191800567032482 0.028065721831760544 0.0 -0.009067388998563634 0.0 0.0
-0.04341434951986138 0.04006164761393108 0.0 -0.012127556596101149 0.0 0.0
-0.05739347795580124 0.05380140146148902 0.0 -0.015150372384829316 0.0 0.0
-0.07291710965642598 0.06907701915235484 0.0 -0.018091127597118735 0.0 0.0
-0.08981629568423923 0.08573503703356823 0.0 -0.021003413992789887 0.0 0.0
-0.10789600801077597 0.1035990091000936 0.0 -0.02385988838891439 0.0 0.0
-0.1266912388171788 0.12227195263448068 0.0 -0.02658845075256423 0.0 0.0
-0.14492451917471708 0.1406427449324461 0.0 -0.02958010668501577 0.0 0.0
-0.15982713742359592 0.15614423353553508 0.0 -0.0343267935457959 0.0 0.0
-0.1669176443698191 0.16428501619021302 0.0 -0.04294275240180348 0.0 0.0
-0.16036513065642774 0.15907292904353082 0.0 -0.05664481795835913 0.0 0.0
-0.15288113042356707 0.1337041231535519 0.0 2.3550605909861133e-14 0.0 0.0
-0.16036513065640004 0.15907292904351258 0.0 0.056644817958413474 0.0 0.0
-0.16691764436976544 0.16428501619015534 0.0 0.04294275240185423 0.0 0.0
-0.15982713742351984 0.1561442335354612 0.0 0.034326793545821015 0.0 0.0
-0.14492451917462576 0.14064274493236362 0.0 0.02958010668501644 0.0 0.0
-0.1266912388170795 0.12227195263437735 0.0 0.026588450752556073 0.0 0.0
-0.10789600801067369 0.1035990090999923 0.0 0.023859888388901965 0.0 0.0
-0.0898162956841375 0.08573503703347427 0.0 0.02100341399277522 0.0 0.0
-0.07291710965632661 0.0690770191522531 0.0 0.01809112759710225 0.0 0.0
-0.05739347795570863 0.05380140146140158 0.0 0.015150372384804541 0.0 0.0
-0.043414349519780286 0.040061647613848 0.0 0.012127556596075756 0.0 0.0
-0.03119180056696569 0.028065721831692966 0.0 0.009067388998542836 0.0 0.0
-0.020983747350323715 0.01808608804829265 0.0 0.00619860357247042 0.0 0.0
-0.013025242070193628 0.010394164179966412 0.0 0.0038225533038414904 0.0 0.0
-0.0073977311362813086 0.00511609284533788 0.0 0.0021230559105251995 0.0 0.0
-0.003944616448863342 0.002161274704812127 0.0 0.0012593527569755118 0.0 0.0
-0.0021819748214644587 0.0009731979227566956 0.0 0.0011231481233791461 0.0 0.0
-0.0013536127197100716 0.0005842622584278222 0.0 0.0013124882017517656 0.0 0.0
-0.0008035753675028181 0.0003364303927588705 0.0 0.0013318093079428713 0.0 0.0
-0.00032072478327207826 -4.1739765521264415e-06 0.0 0.0009545723049016307 0.0 0.0
-0.00010410501465247676 -0.00011614965053961111 0.0 0.0005264155689321308 0.0 0.0
-0.00013376300071834475 -2.1980089429283528e-05 0.0 -0.00034230363886971924 0.0 0.0
-0.00035568822990464437 5.312079143449351e-05 0.0 -0.0006466525983719482 0.0 0.0
-0.0008754992514678837 0.00037137457598638483 0.0 -0.000935230784482111 0.0 0.0
-0.0015158849506230812 0.0006286887366123087 0.0 -0.0008955686903219766 0.0 0.0
-0.002571306558363975 0.001160252326991269 0.0 -0.0006942958826557408 0.0 0.0
-0.004795080243669794 0.002818299909892785 0.0 -0.0008165314936415793 0.0 0.0
-0.008905335004123471 0.006481700975790875 0.0 -0.0015302520437019947 0.0 0.0
-0.015360249544013483 0.012585411972132367 0.0 -0.0027697969643482854 0.0 0.0
-0.024378166454751195 0.021318295868950773 0.0 -0.004528451941417766 0.0 0.0
-0.03593177470024469 0.03262234777492236 0.0 -0.006667669437383171 0.0 0.0
-0.04980563861709292 0.04624998422362526 0.0 -0.008966555955329525 0.0 0.0
-0.06572739214447683 0.06191621767367739 0.0 -0.011246801603253528 0.0 0.0
-0.083444852029761 0.07937429468777979 0.0 -0.013490679862544151 0.0 0.0
-0.10270920055227323 0.0983928570899525 0.0 -0.01576205644986761 0.0 0.0
-0.12317789496305034 0.11865626133439167 0.0 -0.017965866552809153 0.0 0.0
-0.14426146038445867 0.13961633687194583 0.0 -0.01977082540468454 0.0 0.0
-0.16476168909277691 0.1601649827270215 0.0 -0.021058388111718316 0.0 0.0
-0.18208926309976461 0.17796502769729006 0.0 -0.023434096137193706 0.0 0.0
-0.19138565351101622 0.1885546135702113 0.0 -0.031915323730205614 0.0 0.0
-0.18585678347442142 0.1848197512925583 0.0 -0.0528692211091839 0.0 0.0
-0.17845972068216606 0.15848111387047267 0.0 1.851643838257644e-14 0.0 0.0
-0.1858567834743886 0.18481975129253783 0.0 0.05286922110922959 0.0 0.0
-0.1913856535109537 0.18855461357014436 0.0 0.03191532373024471 0.0 0.0
-0.18208926309967693 0.1779650276972057 0.0 0.023434096137213978 0.0 0.0
-0.16476168909267297 0.1601649827269231 0.0 0.021058388111715412 0.0 0.0
-0.1442614603843463 0.13961633687182848 0.0 0.019770825404679976 0.0 0.0
-0.12317789496293509 0.11865626133427495 0.0 0.017965866552803224 0.0 0.0
-0.1027092005521583 0.09839285708983324 0.0 0.015762056449857287 0.0 0.0
-0.08344485202964885 0.0793742946876659 0.0 0.013490679862533151 0.0 0.0
-0.06572739214437298 0.06191621767356918 0.0 0.011246801603234486 0.0 0.0
-0.049805638617001984 0.04624998422353758 0.0 0.008966555955310762 0.0 0.0
-0.03593177470016939 0.03262234777484451 0.0 0.006667669437367307 0.0 0.0
-0.02437816645469337 0.021318295868893587 0.0 0.0045284519414031344 0.0 0.0
-0.015360249543972648 0.012585411972091287 0.0 0.002769796964340001 0.0 0.0
-0.00890533500409859 0.006481700975768696 0.0 0.0015302520436956434 0.0 0.0
-0.004795080243657824 0.0028182999098834314 0.0 0.0008165314936401386 0.0 0.0
-0.00257130655835976 0.0011602523269885964 0.0 0.0006942958826549605 0.0 0.0
-0.001515884950621781 0.0006286887366124818 0.0 0.0008955686903221256 0.0 0.0
-0.0008754992514674139 0.00037137457598714307 0.0 0.0009352307844811062 0.0 0.0
-0.00035568822990485936 5.3120791433635065e-05 0.0 0.000646652598372209 0.0 0.0
-0.00013376300071867375 -2.1980089428915204e-05 0.0 0.0003423036388666102 0.0 0.0
-0.00013575172015773809 1.3804220107148176e-05 0.0 -0.0001918745617926698 0.0 0.0
-0.00036538299938431514 9.180227733229183e-05 0.0 -0.00032409454396447056 0.0 0.0
-0.0009364836464948413 0.0003965834017315577 0.0 -0.0004538530270853149 0.0 0.0
-0.0017010188244004128 0.0006897024895249852 0.0 -0.00040701064564724733 0.0 0.0
-0.0030292687343982075 0.0014244575278641379 0.0 -0.00023147865671982942 0.0 0.0
-0.0057302138616865785 0.0036031128293024794 0.0 -0.0002832938588563468 0.0 0.0
-0.010464894879159328 0.007923103050594833 0.0 -0.0006682270025208355 0.0 0.0
-0.01769906747377809 0.014795392768158475 0.0 -0.0013199747784127188 0.0 0.0
-0.02773292674860628 0.024522935788697443 0.0 -0.0022498337838609272 0.0 0.0
-0.040599115098651634 0.03711591328300566 0.0 -0.003414714170390502 0.0 0.0
-0.056105424404050905 0.05235828351988303 0.0 -0.00469248827219446 0.0 0.0
-0.07396408783156844 0.0699477341861793 0.0 -0.00599040929325044 0.0 0.0
-0.0938742730611038 0.08958627720946512 0.0 -0.0073163647912544766 0.0 0.0
-0.11548476631527779 0.11094899997580515 0.0 -0.008679551956890201 0.0 0.0
-0.13828914030350706 0.13356914952936044 0.0 -0.009983632854537674 0.0 0.0
-0.16148912044571914 0.15668305678103528 0.0 -0.010942353332532117 0.0 0.0
-0.18383931776934 0.1790535390510762 0.0 -0.011156519769662114 0.0 0.0
-0.20328923100495577 0.19866320236464297 0.0 -0.01120701657360151 0.0 0.0
-0.21574512507213095 0.211971917451471 0.0 -0.016156863505172224 0.0 0.0
-0.21297410737960884 0.21222404314587914 0.0 -0.04017615914636317 0.0 0.0
-0.20642276151231148 0.18696605318188572 0.0 9.358833152894874e-15 0.0 0.0
-0.21297410737957206 0.2122240431458492 0.0 0.04017615914638913 0.0 0.0
-0.21574512507205942 0.21197191745139893 0.0 0.01615686350519356 0.0 0.0
-0.20328923100485602 0.19866320236454477 0.0 0.01120701657361347 0.0 0.0
-0.1838393177692232 0.17905353905097182 0.0 0.01115651976965825 0.0 0.0
-0.1614891204455932 0.15668305678090577 0.0 0.010942353332526644 0.0 0.0
-0.13828914030337866 0.1335691495292376 0.0 0.009983632854534023 0.0 0.0
-0.11548476631515002 0.11094899997567448 0.0 0.008679551956882919 0.0 0.0
-0.09387427306097942 0.08958627720933636 0.0 0.007316364791249008 0.0 0.0
-0.07396408783145318 0.06994773418605839 0.0 0.005990409293240152 0.0 0.0
-0.05610542440394976 0.052358283519788794 0.0 0.004692488272182151 0.0 0.0
-0.04059911509856802 0.037115913282924774 0.0 0.003414714170381007 0.0 0.0
-0.027732926748542233 0.02452293578863258 0.0 0.0022498337838532333 0.0 0.0
-0.017699067473731893 0.014795392768115926 0.0 0.001319974778406575 0.0 0.0
-0.010464894879130333 0.007923103050570042 0.0 0.0006682270025187829 0.0 0.0
-0.005730213861671971 0.003603112829289856 0.0 0.00028329385885785506 0.0 0.0
-0.0030292687343924907 0.0014244575278586327 0.0 0.00023147865671831636 0.0 0.0
-0.0017010188243991439 0.0006897024895249786 0.0 0.00040701064564723817 0.0 0.0
-0.0009364836464945175 0.0003965834017324647 0.0 0.00045385302708409955 0.0 0.0
-0.00036538299938453366 9.18022773320488e-05 0.0 0.0003240945439656508 0.0 0.0
-0.00013575172015859162 1.3804220107286816e-05 0.0 0.0001918745617905749 0.0 0.0
-9.434178344077095e-05 1.7245928007991316e-05 0.0 -0.00011602901231854996 0.0 0.0
-0.00033124780404210526 0.00010474663954531489 0.0 -0.0001347490471458361 0.0 0.0
-0.000982654696817291 0.00040586843134679464 0.0 -0.00014676570630081306 0.0 0.0
-0.001929129684414442 0.0007271233587740617 0.0 -6.0126689577403954e-05 0.0 0.0
-0.0035649231810440233 0.001580771578119782 0.0 0.0002377842660683311 0.0 0.0
-0.006730047064811175 0.004022168453598937 0.0 0.0004905434348096317 0.0 0.0
-0.012050344369480818 0.008657454085226527 0.0 0.0006152695310486888 0.0 0.0
-0.020014177553003654 0.015901469158138733 0.0 0.0006476338167945119 0.0 0.0
-0.031009458732286672 0.026112774693831605 0.0 0.0005735507577238727 0.0 0.0
-0.04514853460563744 0.039341222709545924 0.0 0.0003431018155189646 0.0 0.0
-0.06227024627092863 0.05538644850245064 0.0 -2.8260885306715527e-06 0.0 0.0
-0.08206296697519355 0.07393772887217648 0.0 -0.00044214425902610547 0.0 0.0
-0.10414766104148618 0.0946648692550788 0.0 -0.0009931824200626795 0.0 0.0
-0.12807427766234017 0.1171922671441013 0.0 -0.0016271296724101152 0.0 0.0
-0.15319522082879392 0.1409834903790084 0.0 -0.002327379608775314 0.0 0.0
-0.17848311275965065 0.16515763110244974 0.0 -0.0029366343581382365 0.0 0.0
-0.20243103899808043 0.18836321093678238 0.0 -0.003118790970374964 0.0 0.0
-0.2231187948181704 0.20869743157443504 0.0 -0.0028159833224095134 0.0 0.0
-0.23821610100716045 0.223276407378639 0.0 -0.005868688969732664 0.0 0.0
-0.24211064881184508 0.22638786699241403 0.0 -0.03119005363288766 0.0 0.0
-0.2401762354426096 0.20251832188403313 0.0 4.551914400963142e-15 0.0 0.0
-0.24211064881180555 0.22638786699237812 0.0 0.031190053632898035 0.0 0.0
-0.23821610100707905 0.22327640737857077 0.0 0.005868688969737201 0.0 0.0
-0.22311879481805524 0.20869743157432125 0.0 0.0028159833224124 0.0 0.0
-0.20243103899794868 0.18836321093667321 0.0 0.0031187909703744923 0.0 0.0
-0.1784831127595113 0.16515763110230317 0.0 0.002936634358139928 0.0 0.0
-0.1531952208286529 0.14098349037889285 0.0 0.002327379608774275 0.0 0.0
-0.12807427766219953 0.117192267143964 0.0 0.001627129672399627 0.0 0.0
-0.10414766104134876 0.09466486925494566 0.0 0.000993182420058726 0.0 0.0
-0.08206296697506694 0.07393772887205063 0.0 0.00044214425901959245 0.0 0.0
-0.06227024627081845 0.05538644850234689 0.0 2.8260885249400264e-06 0.0 0.0
-0.04514853460554723 0.039341222709468465 0.0 -0.0003431018155195479 0.0 0.0
-0.03100945873221671 0.026112774693767247 0.0 -0.0005735507577252752 0.0 0.0
-0.020014177552952244 0.015901469158094247 0.0 -0.0006476338167965032 0.0 0.0
-0.012050344369448105 0.008657454085200193 0.0 -0.0006152695310469611 0.0 0.0
-0.006730047064794465 0.0040221684535849105 0.0 -0.0004905434348044257 0.0 0.0
-0.003564923181037405 0.0015807715781109384 0.0 -0.00023778426606864368 0.0 0.0
-0.0019291296844122956 0.0007271233587739674 0.0 6.0126689576167896e-05 0.0 0.0
-0.0009826546968162856 0.0004058684313467133 0.0 0.00014676570630213094 0.0 0.0
-0.0003312478040412913 0.00010474663954603138 0.0 0.00013474904714443596 0.0 0.0
-9.43417834400482e-05 1.7245928007624957e-05 0.0 0.0001160290123190862 0.0 0.0
SCALARS Statev float 8
LOOKUP_TABLE default
0.0 0.021057517498897782 0.01696341000646004 -0.020051396148787988 0.00308798614232796 -0.001395719854754463 0.0 0.0
0.0 0.007600206861152409 0.005671819427083755 -0.0037040054653120573 -0.0019678139617716945 -0.0076238809479324795 0.0 0.0
0.0 0.00026942141123557467 0.0003283829385958052 -0.0001974994416770076 -0.0001308834969187974 -0.0004639655361144749 0.0 0.0
0.0 0.0002478147644884093 0.00016057812206922445 -0.00011545425140820886 -4.512387066101607e-05 4.2911857812530714e-05 0.0 0.0
0.0 0.0014389238298194152 0.001102439441771766 -0.0008171970918603333 -0.00028524234991143344 0.0002245582772413799 0.0 0.0
0.0 0.00388183109643868 0.0037484483643623065 -0.0030481671657204704 -0.0007002811986418375 0.00044638440333348963 0.0 0.0
0.0 0.009428541517648456 0.008578737816534171 -0.007536843366239004 -0.0010418944502951638 0.0006069645016877213 0.0 0.0
0.0 0.017957845120006914 0.016100065015258007 -0.014785953120285723 -0.001314111894972274 0.0006668707011100658 0.0 0.0
0.0 0.03000759932763739 0.026655736919149776 -0.025072562708974115 -0.001583174210175648 0.0006188117282627646 0.0 0.0
0.0 0.045719941815163666 0.04033947869310437 -0.03845012445176588 -0.0018893542413384898 0.00041846163918403195 0.0 0.0
0.0 0.06490462168157746 0.05699281292041693 -0.05474374646729979 -0.00224906645311715 9.334010847433186e-05 0.0 0.0
0.0 0.0868884559597419 0.07631959723763686 -0.07365635671923845 -0.0026632405183982786 -0.0003355726875431831 0.0 0.0
0.0 0.1116269640056161 0.09796982103127502 -0.09485126596239904 -0.003118555068875914 -0.0008688568943906194 0.0 0.0
0.0 0.13863053977340078 0.12156934108556194 -0.11797072653105574 -0.003598614554506088 -0.0014585276488194195 0.0 0.0
0.0 0.1673566422997843 0.14664128142242086 -0.14255875962943979 -0.004082521792980956 -0.002116801189655415 0.0 0.0
0.0 0.19702512073402143 0.17246827765679884 -0.16792220168688665 -0.004546075969911962 -0.0027971443449402397 0.0 0.0
0.0 0.22640369831832363 0.19801100145557382 -0.19304692248008315 -0.004964078975490939 -0.003355094146444545 0.0 0.0
0.0 0.25392644042273127 0.22192341730759796 -0.21661103569590023 -0.0053123816116975265 -0.0035886438869045943 0.0 0.0
0.0 0.2777856316328451 0.24265850468923056 -0.23706717747533188 -0.005591327213898127 -0.0033880316267368123 0.0 0.0
0.0 0.2955201622590264 0.2582888864760097 -0.2525185244252219 -0.005770362050788141 -0.004266779424113717 0.0 0.0
0.0 0.3032997388067452 0.26463457501870064 -0.25887937672131806 -0.0057551982973822425 3.219646771412954e-15 0.0 0.0
0.0 0.2955201622589925 0.25828888647597953 -0.2525185244251932 -0.005770362050786611 0.0042667794241251725 0.0 0.0
0.0 0.27778563163276826 0.24265850468916217 -0.23706717747526573 -0.005591327213895981 0.003388031626749298 0.0 0.0
0.0 0.2539264404225993 0.22192341730748377 -0.21661103569578616 -0.0053123816116975265 0.003588643886911892 0.0 0.0
0.0 0.22640369831818682 0.19801100145545433 -0.19304692247996796 -0.004964078975486664 0.0033550941464436674 0.0 0.0
0.0 0.19702512073387204 0.17246827765666806 -0.16792220168675706 -0.00454607596991089 0.002797144344930902 0.0 0.0
0.0 0.16735664229962519 0.14664128142228244 -0.14255875962930356 -0.004082521792978971 0.0021168011896549417 0.0 0.0
0.0 0.1386305397732524 0.1215693410854323 -0.11797072653092881 -0.0035986145545035364 0.0014585276488184324 0.0 0.0
0.0 0.11162696400547202 0.09796982103114919 -0.09485126596227615 -0.003118555068872819 0.0008688568943861922 0.0 0.0
0.0 0.08688845595960759 0.07631959723751947 -0.0736563567191233 -0.00266324051839604 0.00033557268753910087 0.0 0.0
0.0 0.06490462168146371 0.056992812920317396 -0.0547437464672029 -0.0022490664531145043 -9.334010848199717e-05 0.0 0.0
0.0 0.04571994181507161 0.040339478693023824 -0.0384501244516872 -0.001889354241336702 -0.000418461639187052 0.0 0.0
0.0 0.030007599327567525 0.026655736919088274 -0.02507256270891437 -0.001583174210173877 -0.0006188117282619424 0.0 0.0
0.0 0.01795784511996142 0.01610006501521736 -0.014785953120246529 -0.0013141118949707934 -0.0006668707011105407 0.0 0.0
0.0 0.00942854151761673 0.008578737816505127 -0.007536843366211636 -0.0010418944502934924 -0.0006069645016873462 0.0 0.0
0.0 0.0038818310964238633 0.0037484483643479348 -0.003048167165707832 -0.0007002811986401132 -0.00044638440333238455 0.0 0.0
0.0 0.0014389238298125786 0.0011024394417663715 -0.0008171970918562456 -0.0002852423499101229 -0.00022455827724018055 0.0 0.0
0.0 0.0002478147644870001 0.0001605781220686747 -0.00011545425140785521 -4.5123870660818745e-05 -4.2911857812292935e-05 0.0 0.0
0.0 0.0002694214112347527 0.0003283829385951573 -0.00019749944167665148 -0.0001308834969185045 0.00046396553611282345 0.0 0.0
0.0 0.007600206861141075 0.005671819427078012 -0.003704005465307517 -0.0019678139617704945 0.007623880947923177 0.0 0.0
0.0 0.02105751749887603 0.016963410006445814 -0.020051396148768268 0.003087986142322436 0.001395719854708613 0.0 0.0
0.0 0.017365641368682665 0.013139134625173902 -0.016776104227588105 0.0036369696024141952 -0.0008955921392393023 0.0 0.0
0.0 0.004884069066700288 0.0035200767963109053 -0.0022923788327585113 -0.0012276979635523907 -0.006197043271713813 0.0 0.0
0.0 -0.00010216064702482396 -8.126504428858251e-05 7.95497752154075e-05 1.7152690731749846e-06 -0.00014471518272666516 0.0 0.0
0.0 8.160751561351539e-05 7.251543653593699e-05 -5.23110725038429e-05 -2.020436403209398e-05 2.1120726660826117e-05 0.0 0.0
0.0 0.0008863928446114155 0.0007620270193045065 -0.0005697055205326731 -0.00019232149877183312 8.414433645086038e-05 0.0 0.0
0.0 0.0033625582321086746 0.0029837835959713364 -0.002453001544233977 -0.0005307820517373632 3.869001087825926e-05 0.0 0.0
0.0 0.008120192970334157 0.007357754639516609 -0.006555957534722771 -0.0008017971047938332 -0.00034822076784470524 0.0 0.0
0.0 0.016044765797940418 0.014261649429234845 -0.01330387883348921 -0.0009577705957456474 -0.0009965470899366922 0.0 0.0
0.0 0.027290078358759417 0.024007842063846555 -0.02294177645044248 -0.001066065613404069 -0.0019120055074942496 0.0 0.0
0.0 0.04186409542083171 0.0366270436817225 -0.03546723769104776 -0.00115980599067477 -0.003062930125801853 0.0 0.0
0.0 0.059584100358475604 0.05193274887639054 -0.05068315662054081 -0.0012495922558497716 -0.0043466233283281745 0.0 0.0
0.0 0.08022438069241995 0.06964580850143069 -0.0683049937235917 -0.0013408147778389205 -0.00566911988937805 0.0 0.0
0.0 0.10286214000940548 0.08948054400974374 -0.08804708141699594 -0.001433462592747801 -0.007016065936588855 0.0 0.0
0.0 0.12786681539169664 0.1111137642849719 -0.10959310931505674 -0.0015206549699151388 -0.008379255487673959 0.0 0.0
0.0 0.15444991228352498 0.1341214221109425 -0.13252900297523454 -0.0015924191357077333 -0.009705592213716792 0.0 0.0
0.0 0.1819122893917756 0.157869838173085 -0.15622942065227843 -0.0016404175208067084 -0.010858484725296906 0.0 0.0
0.0 0.2092120242363038 0.1814373022019016 -0.1797771868226404 -0.0016601153792610603 -0.011548313611991117 0.0 0.0
0.0 0.23492433998321977 0.2036017383864637 -0.20194874845318628 -0.001652989933277426 -0.011428430397934551 0.0 0.0
0.0 0.25718484807570363 0.22279287291384248 -0.22118848866808383 -0.0016043842457585315 -0.01042852851025319 0.0 0.0
0.0 0.27343111031827827 0.23670954256115415 -0.235295841365197 -0.0014137011959570844 -0.009710551584487165 0.0 0.0
0.0 0.28064681953407583 0.24215206770893918 -0.24102602309939164 -0.0011260446095475625 9.087348928904504e-15 0.0 0.0
0.0 0.2734311103182443 0.23670954256112345 -0.23529584136516737 -0.0014137011959558406 0.009710551584513992 0.0 0.0
0.0 0.2571848480756271 0.2227928729137762 -0.22118848866801727 -0.0016043842457586761 0.010428528510282392 0.0 0.0
0.0 0.23492433998310547 0.20360173838636614 -0.201948748453087 -0.0016529899332790206 0.011428430397951519 0.0 0.0
0.0 0.20921202423617954 0.18143730220179421 -0.17977718682253394 -0.0016601153792604813 0.01154831361199116 0.0 0.0
0.0 0.1819122893916407 0.15786983817296857 -0.15622942065216197 -0.0016404175208062084 0.010858484725287694 0.0 0.0
0.0 0.15444991228338542 0.134121422110821 -0.1325290029751138 -0.0015924191357072751 0.009705592213713662 0.0 0.0
0.0 0.1278668153915562 0.11111376428485037 -0.10959310931493557 -0.001520654969914752 0.00837925548766876 0.0 0.0
0.0 0.10286214000927442 0.08948054400963039 -0.08804708141688336 -0.001433462592747035 0.00701606593658155 0.0 0.0
0.0 0.08022438069229439 0.06964580850132186 -0.06830499372348296 -0.00134081477783897 0.005669119889369205 0.0 0.0
0.0 0.05958410035836762 0.05193274887629724 -0.05068315662044789 -0.0012495922558493457 0.004346623328315526 0.0 0.0
0.0 0.04186409542074643 0.03662704368164803 -0.035467237690973735 -0.001159805990674245 0.0030629301257929717 0.0 0.0
0.0 0.027290078358694986 0.024007842063789725 -0.022941776450386364 -0.0010660656134033552 0.0019120055074898354 0.0 0.0
0.0 0.016044765797899242 0.014261649429198343 -0.013303878833453351 -0.0009577705957450154 0.0009965470899323987 0.0 0.0
0.0 0.008120192970306046 0.007357754639491371 -0.006555957534698522 -0.0008017971047928372 0.0003482207678417261 0.0 0.0
0.0 0.0033625582320942057 0.002983783595958641 -0.00245300154422268 -0.0005307820517359567 -3.869001087909126e-05 0.0 0.0
0.0 0.0008863928446057223 0.000762027019299947 -0.0005697055205291875 -0.00019232149877076074 -8.414433645033467e-05 0.0 0.0
0.0 8.160751561271499e-05 7.251543653575635e-05 -5.2311072503744966e-05 -2.0204364032011195e-05 -2.1120726660674017e-05 0.0 0.0
0.0 -0.00010216064702499418 -8.126504428809587e-05 7.954977521497535e-05 1.715269073120288e-06 0.00014471518272628537 0.0 0.0
0.0 0.004884069066688364 0.0035200767963043745 -0.002292378832753645 -0.0012276979635507284 0.006197043271702177 0.0 0.0
0.0 0.01736564136865825 0.013139134625155322 -0.01677610422756515 0.003636969602409821 0.000895592139204396 0.0 0.0
0.0 0.0131751748845881 0.00975968823548337 -0.012788616521702545 0.0030289282862191813 -0.003657794234525486 0.0 0.0
0.0 0.0033646064152495357 0.0021618607034070876 -0.001241547054596406 -0.0009203136488106853 -0.00551393644813426 0.0 0.0
0.0 -6.164676246589491e-07 6.595862094875418e-07 -3.3190078121473294e-07 -3.2768542827280224e-07 -1.5051539422473925e-08 0.0 0.0
0.0 7.2093352605554335e-06 5.880397356767836e-06 -3.3317265334058196e-06 -2.5486708233621477e-06 9.305686671771905e-06 0.0 0.0
0.0 0.000460707450487487 0.00041860417850030475 -0.00030482610205510895 -0.00011377807644519557 7.540809081968701e-06 0.0 0.0
0.0 0.002472446354129808 0.002150176662885774 -0.001719330157803379 -0.000430846505082393 -0.000185588202063046 0.0 0.0
0.0 0.006451326342425644 0.005914119654161802 -0.005175972318846472 -0.0007381473353153328 -0.0009336469377630654 0.0 0.0
0.0 0.013553421966863759 0.012042019680873976 -0.011132756017213044 -0.0009092636636609214 -0.002172271192111229 0.0 0.0
0.0 0.023634843641426293 0.020773631711325104 -0.019759185348920853 -0.001014446362404224 -0.0039016679802505597 0.0 0.0
0.0 0.03678799267731967 0.03208033773127393 -0.030979953887331695 -0.0011003838439422606 -0.006020704589882707 0.0 0.0
0.0 0.05268697548927925 0.04575182254648791 -0.044567458412644534 -0.0011843641338433355 -0.008335257419754999 0.0 0.0
0.0 0.07091153753569647 0.06152929499051994 -0.06025794869114125 -0.0012713462993787343 -0.010668162317291443 0.0 0.0
0.0 0.09152839000709785 0.07916916903560717 -0.07781008630010142 -0.0013590827355057069 -0.012973812106575885 0.0 0.0
0.0 0.11354998029089573 0.09842491540879722 -0.09698337520215308 -0.0014415402066441786 -0.015286823575425035 0.0 0.0
0.0 0.13730737031784263 0.11894465052319594 -0.11743323003134978 -0.0015114204918464027 -0.017537826080407725 0.0 0.0
0.0 0.16191132937031572 0.14020621742719985 -0.13864505333489918 -0.0015611640923005395 -0.019475431242761944 0.0 0.0
0.0 0.18648226458669737 0.1614399828276868 -0.1598544165305563 -0.0015855662971306958 -0.020649246848094462 0.0 0.0
0.0 0.20972676581191455 0.1815390316004755 -0.17996362165499388 -0.0015754099454818133 -0.020566425843492393 0.0 0.0
0.0 0.2298456883401731 0.19890330664730949 -0.19740193358738517 -0.0015013730599241087 -0.0190556916424026 0.0 0.0
0.0 0.24438801216238276 0.21140307553849508 -0.21001261023038767 -0.0013904653081069029 -0.01631726544920522 0.0 0.0
0.0 0.25117680302860457 0.21644165894559145 -0.21537718217894422 -0.0010644767666473068 1.7601371748998673e-14 0.0 0.0
0.0 0.24438801216234812 0.21140307553846316 -0.2100126102303564 -0.0013904653081066507 0.016317265449251273 0.0 0.0
0.0 0.22984568834010374 0.1989033066472487 -0.19740193358732472 -0.0015013730599242499 0.019055691642449663 0.0 0.0
0.0 0.2097267658118236 0.1815390316003966 -0.17996362165491503 -0.00157540994548148 0.020566425843522772 0.0 0.0
0.0 0.18648226458658407 0.16143998282758956 -0.1598544165304591 -0.0015855662971304698 0.020649246848095285 0.0 0.0
0.0 0.16191132937019917 0.14020621742709852 -0.13864505333479907 -0.0015611640922994178 0.019475431242753815 0.0 0.0
0.0 0.1373073703177213 0.1189446505230905 -0.1174332300312451 -0.0015114204918453104 0.017537826080401952 0.0 0.0
0.0 0.11354998029076706 0.09842491540868613 -0.09698337520204216 -0.001441540206643941 0.015286823575416643 0.0 0.0
0.0 0.09152839000697961 0.07916916903550504 -0.07781008629999969 -0.0013590827355053508 0.01297381210656481 0.0 0.0
0.0 0.07091153753558471 0.061529294990423984 -0.060257948691044894 -0.0012713462993790055 0.01066816231727577 0.0 0.0
0.0 0.05268697548918035 0.04575182254640249 -0.044567458412559054 -0.0011843641338434795 0.008335257419736558 0.0 0.0
0.0 0.03678799267724496 0.03208033773120847 -0.030979953887266775 -0.0011003838439416734 0.006020704589868657 0.0 0.0
0.0 0.02363484364136741 0.020773631711273655 -0.019759185348870074 -0.0010144463624035848 0.0039016679802409333 0.0 0.0
0.0 0.01355342196682548 0.012042019680840592 -0.011132756017180282 -0.000909263663660278 0.0021722711921037716 0.0 0.0
0.0 0.006451326342401497 0.005914119654140058 -0.005175972318825878 -0.0007381473353141831 0.0009336469377579521 0.0 0.0
0.0 0.0024724463541197757 0.002150176662877229 -0.001719330157796082 -0.00043084650508114734 0.00018558820206172145 0.0 0.0
0.0 0.0004607074504834329 0.00041860417849724573 -0.00030482610205279786 -0.00011377807644444764 -7.5408090822221196e-06 0.0 0.0
0.0 7.209335260289489e-06 5.880397356681839e-06 -3.331726533351221e-06 -2.54867082333061e-06 -9.305686671661772e-06 0.0 0.0
0.0 -6.164676245609354e-07 6.595862094120004e-07 -3.319007811595522e-07 -3.276854282524487e-07 1.5051539390403792e-08 0.0 0.0
0.0 0.00336460641524015 0.0021618607034016545 -0.0012415470545927387 -0.0009203136488089085 0.005513936448120066 0.0 0.0
0.0 0.01317517488456273 0.009759688235464617 -0.012788616521679213 0.0030289282862145752 0.0036577942345024225 0.0 0.0
0.0 0.010141928463009873 0.007330276974028805 -0.00979520654933125 0.0024649295753024123 -0.003926155538990315 0.0 0.0
0.0 0.002501345749841442 0.001511914940875597 -0.0008487288544662931 -0.0006631860864092973 -0.004270710133269108 0.0 0.0
0.0 0.0 0.0 0.0 0.0 0.0 0.0 0.0
0.0 -8.184423338695376e-06 -7.312788321436524e-06 5.824078463797725e-06 1.4887098576387936e-06 6.094201921984016e-06 0.0 0.0
0.0 0.00019692601824573648 0.00017260440245771497 -0.00012123125903084605 -5.1373143426868185e-05 -5.22586900029966e-06 0.0 0.0
0.0 0.0015954326786729077 0.0014399269423107297 -0.0011185489632994036 -0.0003213779790113235 -0.0003052322954580786 0.0 0.0
0.0 0.005116481633277536 0.0045253072294077325 -0.0038714216870584205 -0.0006538855423493111 -0.0012253124553010222 0.0 0.0
0.0 0.01111945288653752 0.009844808816486379 -0.008993807185226651 -0.0008510016312597203 -0.0029448135524507064 0.0 0.0
0.0 0.020052159713232723 0.01751919694527054 -0.01656145254502116 -0.0009577444002493694 -0.005290153837135366 0.0 0.0
0.0 0.03170194803803584 0.027479970762976674 -0.026442638548031742 -0.001037332214944922 -0.008135986294463814 0.0 0.0
0.0 0.04569053007899518 0.03949756275943618 -0.03838277891969926 -0.001114783839736844 -0.011216032992109451 0.0 0.0
0.0 0.06186063956119035 0.0533275160081338 -0.05213086479605832 -0.0011966512120754633 -0.014311444769952785 0.0 0.0
0.0 0.07967156037584297 0.06877069151926717 -0.06749070093495908 -0.001279990584308053 -0.017365069518906207 0.0 0.0
0.0 0.09947576932978361 0.08562717048329141 -0.08426988021181776 -0.001357290271473639 -0.020393124083788218 0.0 0.0
0.0 0.1202647410621234 0.10364003997627823 -0.10221531144358904 -0.0014247285326891201 -0.02332219876960875 0.0 0.0
0.0 0.14182396304695877 0.12240817548772459 -0.12093075332984325 -0.0014774221578813718 -0.02588082108923538 0.0 0.0
0.0 0.16376655502053972 0.14130413202779196 -0.13979895997715913 -0.001505172050632865 -0.027556129988861987 0.0 0.0
0.0 0.18462221614845736 0.1593441215210347 -0.1578512431538866 -0.0014928783671479856 -0.027744529502057278 0.0 0.0
0.0 0.20275951663071237 0.17506131084897947 -0.17362633808338615 -0.0014349727655933648 -0.025840960714806963 0.0 0.0
0.0 0.21607019109915387 0.18663564555110673 -0.18527129693614694 -0.001364348614960168 -0.020880135720682137 0.0 0.0
0.0 0.22287886729240983 0.19160437866802957 -0.19069332237188458 -0.0009110562961450526 2.5831767280770634e-14 0.0 0.0
0.0 0.2160701910991239 0.18663564555107845 -0.18527129693611816 -0.0013643486149603015 0.020880135720742776 0.0 0.0
0.0 0.2027595166306554 0.17506131084892756 -0.17362633808333525 -0.0014349727655921848 0.025840960714867498 0.0 0.0
0.0 0.18462221614837956 0.1593441215209666 -0.1578512431538185 -0.001492878367148058 0.027744529502093638 0.0 0.0
0.0 0.16376655502043744 0.1413041320277041 -0.139798959977071 -0.0015051720506331426 0.02755612998886519 0.0 0.0
0.0 0.1418239630468534 0.12240817548763358 -0.12093075332975259 -0.0014774221578808774 0.025880821089225497 0.0 0.0
0.0 0.1202647410620117 0.10364003997618143 -0.10221531144349227 -0.001424728532689233 0.02332219876959859 0.0 0.0
0.0 0.09947576932967139 0.08562717048319415 -0.08426988021172073 -0.0013572902714735415 0.020393124083777095 0.0 0.0
0.0 0.0796715603757358 0.06877069151917525 -0.06749070093486761 -0.0012799905843075764 0.017365069518889997 0.0 0.0
0.0 0.06186063956109205 0.05332751600804889 -0.05213086479597371 -0.0011966512120752581 0.014311444769930931 0.0 0.0
0.0 0.04569053007890885 0.03949756275936201 -0.03838277891962538 -0.0011147838397365696 0.011216032992086566 0.0 0.0
0.0 0.031701948037969524 0.027479970762919324 -0.026442638547974993 -0.001037332214944315 0.008135986294444442 0.0 0.0
0.0 0.02005215971318061 0.01751919694522562 -0.016561452544976606 -0.0009577444002489979 0.00529015383712155 0.0 0.0
0.0 0.011119452886503779 0.009844808816456465 -0.008993807185197397 -0.0008510016312590645 0.0029448135524406216 0.0 0.0
0.0 0.005116481633255102 0.004525307229388813 -0.003871421687040925 -0.0006538855423478861 0.0012253124552942972 0.0 0.0
0.0 0.0015954326786651962 0.0014399269423045 -0.0011185489632944065 -0.0003213779790100924 0.00030523229545650514 0.0 0.0
0.0 0.00019692601824293547 0.0001726044024557963 -0.00012123125902941951 -5.137314342637649e-05 5.225868999904823e-06 0.0 0.0
0.0 -8.184423338888662e-06 -7.3127883213606285e-06 5.824078463733289e-06 1.4887098576273671e-06 -6.094201921901287e-06 0.0 0.0
0.0 0.0 0.0 0.0 0.0 0.0 0.0 0.0
0.0 0.0025013457498332474 0.0015119149408708344 -0.000848728854463098 -0.0006631860864077392 0.004270710133256753 0.0 0.0
0.0 0.010141928462988 0.007330276974011881 -0.009795206549310067 0.0024649295752981683 0.003926155538973602 0.0 0.0
0.0 0.007581205820836383 0.005446289656543965 -0.00740659809434034 0.0019603084377963873 -0.003368231571554867 0.0 0.0
0.0 0.002006570440211988 0.0010285510953201482 -0.0005675869889141011 -0.00046096410640604734 -0.0031615713611630857 0.0 0.0
0.0 0.0 0.0 0.0 0.0 0.0 0.0 0.0
0.0 -9.365591621381957e-07 -9.129336770688545e-07 7.306484864226123e-07 1.822851906462451e-07 1.2835012642927683e-06 0.0 0.0
0.0 2.2337895431177177e-05 3.5419060625755156e-05 -2.1479129731855625e-05 -1.3939930893899565e-05 1.2214867508536205e-05 0.0 0.0
0.0 0.0009817154190741569 0.0008532173378508084 -0.0006448498476211859 -0.0002083674902296226 -0.00030969824766116747 0.0 0.0
0.0 0.003829965771754333 0.0032536944180207718 -0.002709531513081458 -0.0005441629049393091 -0.001310355796316784 0.0 0.0
0.0 0.008784347776494762 0.007703497085155319 -0.006923615537988085 -0.0007798815471672414 -0.003274522948025731 0.0 0.0
0.0 0.01651733788340117 0.014286843254649396 -0.013392369975328331 -0.0008944732793210767 -0.006068758329744057 0.0 0.0
0.0 0.026613579199599405 0.022872634554264377 -0.02190358371016102 -0.0009690508441033364 -0.009406540958075253 0.0 0.0
0.0 0.03877494088032679 0.03321726098010978 -0.03217710246019608 -0.0010401585199137113 -0.012998900356703223 0.0 0.0
0.0 0.05271308052760586 0.04508855338535367 -0.04397230745560501 -0.0011162459297486618 -0.016605203625107458 0.0 0.0
0.0 0.06828614951155235 0.05832160698125455 -0.057127337124952715 -0.0011942698563017834 -0.02016824355551588 0.0 0.0
0.0 0.08493947318962791 0.07277976208153275 -0.07151181187890034 -0.0012679502026324873 -0.023695144796686007 0.0 0.0
0.0 0.10307937195940416 0.08827005831040165 -0.08693759186443316 -0.0013324664459684547 -0.02708032409218349 0.0 0.0
0.0 0.12203196079550366 0.10450734482303688 -0.10312249839197728 -0.0013848464310596412 -0.030059537679661515 0.0 0.0
0.0 0.14101224196368148 0.12102366196538035 -0.11960615378987102 -0.0014175081755093675 -0.03218670636692728 0.0 0.0
0.0 0.15946288864131886 0.1370161917997158 -0.13559939436181756 -0.0014167974378981162 -0.03277036431748076 0.0 0.0
0.0 0.1758367317322893 0.15125763098099504 -0.14987997355287402 -0.0013776574281207465 -0.030661542433137953 0.0 0.0
0.0 0.18831388219104883 0.1622044796443853 -0.16087932919273665 -0.0013251504516487234 -0.024264206980584895 0.0 0.0
0.0 0.19540156366556669 0.16727963864611162 -0.16656253629166445 -0.0007171023544470204 3.0265720485367353e-14 0.0 0.0
0.0 0.18831388219102158 0.16220447964435877 -0.16087932919270906 -0.0013251504516496257 0.02426420698065445 0.0 0.0
0.0 0.17583673173223832 0.1512576309809473 -0.1498799735528268 -0.0013776574281202934 0.030661542433207203 0.0 0.0
0.0 0.15946288864125346 0.13701619179965735 -0.1355993943617601 -0.0014167974378971483 0.032770364317522005 0.0 0.0
0.0 0.14101224196359888 0.12102366196530914 -0.11960615378980045 -0.0014175081755087012 0.032186706366935096 0.0 0.0
0.0 0.12203196079540958 0.10450734482295532 -0.10312249839189612 -0.0013848464310592377 0.03005953767964902 0.0 0.0
0.0 0.10307937195930761 0.0882700583103182 -0.08693759186435016 -0.0013324664459681253 0.0270803240921698 0.0 0.0
0.0 0.08493947318953414 0.07277976208145179 -0.0715118118788195 -0.0012679502026322453 0.02369514479667298 0.0 0.0
0.0 0.06828614951146438 0.058321606981178754 -0.0571273371248775 -0.0011942698563011476 0.020168243555497473 0.0 0.0
0.0 0.05271308052752029 0.04508855338528048 -0.043972307455532024 -0.001116245929748399 0.01660520362508153 0.0 0.0
0.0 0.0387749408802562 0.03321726098004981 -0.03217710246013683 -0.0010401585199129935 0.012998900356676385 0.0 0.0
0.0 0.026613579199539557 0.022872634554213504 -0.02190358371011041 -0.0009690508441030769 0.00940654095805118 0.0 0.0
0.0 0.016517337883354653 0.014286843254609534 -0.01339236997528892 -0.0008944732793206078 0.0060687583297269945 0.0 0.0
0.0 0.008784347776466963 0.0077034970851313075 -0.006923615537964951 -0.0007798815471663621 0.003274522948014508 0.0 0.0
0.0 0.0038299657717361735 0.0032536944180059915 -0.0027095315130680918 -0.0005441629049378962 0.001310355796309939 0.0 0.0
0.0 0.000981715419066539 0.0008532173378448322 -0.0006448498476164611 -0.00020836749022837197 0.0003096982476585085 0.0 0.0
0.0 2.2337895430436765e-05 3.541906062550777e-05 -2.1479129731710548e-05 -1.3939930893797352e-05 -1.22148675082183e-05 0.0 0.0
0.0 -9.365591622448183e-07 -9.129336771070201e-07 7.306484864518054e-07 1.822851906551978e-07 -1.2835012643514556e-06 0.0 0.0
0.0 0.0 0.0 0.0 0.0 0.0 0.0 0.0
0.0 0.00200657044020409 0.0010285510953161633 -0.0005675869889114267 -0.0004609641064047359 0.0031615713611524788 0.0 0.0
0.0 0.007581205820817987 0.005446289656529532 -0.007406598094322018 0.0019603084377924763 0.0033682315715431324 0.0 0.0
0.0 0.005623743260460705 0.003923321609522709 -0.005427183820007726 0.001503862210485011 -0.002649887480901796 0.0 0.0
0.0 0.0012998738674661764 0.0006697732178365238 -0.00036329358508932345 -0.00030647963274719857 -0.002242254336518727 0.0 0.0
0.0 1.4483749750251462e-07 -3.087412547042466e-09 2.644247110450392e-09 4.4316543659177474e-10 2.8266529167811133e-08 0.0 0.0
0.0 -3.4378674803492454e-07 1.0019373968096112e-07 -7.42533550974738e-08 -2.594038458348719e-08 -1.4978765303914216e-07 0.0 0.0
0.0 -2.6026422567819618e-05 -1.720329779297629e-05 1.526828889796524e-05 1.9350088950110473e-06 3.491160197687188e-05 0.0 0.0
0.0 0.00047189202527605074 0.0004296245587319318 -0.0003161164384009961 -0.00011350812033093647 -0.00024478923934390725 0.0 0.0
0.0 0.0024533641541897946 0.0021585745985397806 -0.0017448628007434533 -0.0004137117977963265 -0.0012521828942618593 0.0 0.0
0.0 0.0068535605376943845 0.005663644849887544 -0.004980146415809809 -0.0006834984340777259 -0.0032192713081186583 0.0 0.0
0.0 0.012932329803649525 0.01111805568687238 -0.010298393925116589 -0.0008196617617558 -0.006216035823742737 0.0 0.0
0.0 0.02161457861541564 0.018303995739673232 -0.017410323930034464 -0.0008936718096387685 -0.009826445610108583 0.0 0.0
0.0 0.03187131624994732 0.026960009795960665 -0.026001218851405543 -0.0009587909445551073 -0.013682194542080252 0.0 0.0
0.0 0.043564797292252086 0.03686288845992021 -0.035833845318110465 -0.0010290431418096826 -0.01755087718869631 0.0 0.0
0.0 0.05654260118962213 0.047880445178323086 -0.04677861041802772 -0.0011018347602953843 -0.021374078485714473 0.0 0.0
0.0 0.07077911824064197 0.05992624085544401 -0.05875592939202823 -0.0011703114634157355 -0.025159342596129283 0.0 0.0
0.0 0.08590224249877011 0.0728865205325715 -0.07165492860942377 -0.0012315919231478316 -0.0287962446971764 0.0 0.0
0.0 0.10171485394795245 0.08656313982279425 -0.08527961243599566 -0.0012835273867985051 -0.03201663133622228 0.0 0.0
0.0 0.11833890884592692 0.10062915385650133 -0.09930706378508455 -0.0013220900714166878 -0.034452213882716694 0.0 0.0
0.0 0.13431673261525226 0.11454410886511224 -0.11320482773029578 -0.0013392811348164934 -0.03544622722755452 0.0 0.0
0.0 0.1488550697937986 0.12739987258639668 -0.12607865552695166 -0.0013212170594449413 -0.03355863358365497 0.0 0.0
0.0 0.16077637349633767 0.1379060724358649 -0.1366277148313595 -0.0012783576045053528 -0.026655267344631806 0.0 0.0
0.0 0.16838807660427457 0.14321873888796924 -0.14272860026680823 -0.0004901386211607723 3.191977931971124e-14 0.0 0.0
0.0 0.16077637349631796 0.1379060724358434 -0.13662771483133757 -0.001278357604505837 0.02665526734470524 0.0 0.0
0.0 0.1488550697937538 0.12739987258635402 -0.12607865552690806 -0.0013212170594459538 0.033558633583724885 0.0 0.0
0.0 0.13431673261519383 0.11454410886505889 -0.11320482773024312 -0.0013392811348156564 0.035446227227597105 0.0 0.0
0.0 0.11833890884585921 0.10062915385644268 -0.0993070637850272 -0.0013220900714154059 0.03445221388272443 0.0 0.0
0.0 0.1017148539478723 0.08656313982272557 -0.08527961243592617 -0.0012835273867995085 0.03201663133620987 0.0 0.0
0.0 0.08590224249869292 0.07288652053250472 -0.07165492860935743 -0.0012315919231472643 0.02879624469716285 0.0 0.0
0.0 0.07077911824056644 0.05992624085537866 -0.058755929391963176 -0.0011703114634154643 0.025159342596114465 0.0 0.0
0.0 0.05654260118954806 0.04788044517825995 -0.04677861041796522 -0.0011018347602947498 0.021374078485695138 0.0 0.0
0.0 0.043564797292183585 0.03686288845986238 -0.03583384531805291 -0.0010290431418094772 0.017550877188670932 0.0 0.0
0.0 0.03187131624988587 0.026960009795909786 -0.026001218851354972 -0.0009587909445548186 0.013682194542050555 0.0 0.0
0.0 0.02161457861536684 0.018303995739632015 -0.017410323929993827 -0.0008936718096381877 0.00982644561008351 0.0 0.0
0.0 0.012932329803609883 0.011118055686838652 -0.010298393925083315 -0.0008196617617553456 0.0062160358237231235 0.0 0.0
0.0 0.00685356053767065 0.005663644849868346 -0.0049801464157916385 -0.000683498434076708 0.0032192713081076016 0.0 0.0
0.0 0.0024533641541761887 0.0021585745985287876 -0.0017448628007339531 -0.0004137117977948342 0.0012521828942550408 0.0 0.0
0.0 0.00047189202527028246 0.0004296245587275833 -0.0003161164383976315 -0.00011350812032995174 0.0002447892393408747 0.0 0.0
0.0 -2.602642256818365e-05 -1.7203297792517785e-05 1.5268288897580202e-05 1.935008894937543e-06 -3.4911601976123285e-05 0.0 0.0
0.0 -3.437867479353379e-07 1.0019373963738017e-07 -7.425335506271211e-08 -2.5940384574664854e-08 1.4978765296034433e-07 0.0 0.0
0.0 1.4483749738291524e-07 -3.0874125444692183e-09 2.6442471082460284e-09 4.431654362230215e-10 -2.8266529144286692e-08 0.0 0.0
0.0 0.0012998738674600808 0.0006697732178336468 -0.0003632935850874302 -0.0003064796327462151 0.00224225433651048 0.0 0.0
0.0 0.005623743260446172 0.003923321609511292 -0.005427183819992893 0.0015038622104816002 0.002649887480893609 0.0 0.0
0.0 0.003860458364156173 0.002699528236185439 -0.003793756635443177 0.001094228399257734 -0.0019932924121265102 0.0 0.0
0.0 0.0008512099852970998 0.0003931169456680676 -0.0002014539097909741 -0.00019166303587709338 -0.0014764024502266007 0.0 0.0
0.0 1.1853683892268223e-07 1.5421076153843974e-09 -7.818401241691979e-10 -7.602674912153491e-10 2.4929733331571593e-08 0.0 0.0
0.0 1.0173635880695284e-07 -1.8938038010680172e-08 1.3138282740561985e-08 5.799755270115348e-09 1.225036666551619e-07 0.0 0.0
0.0 -2.5218152102983357e-05 -1.6253720576567285e-05 1.311366252997338e-05 3.1400580465939644e-06 3.373555134038976e-05 0.0 0.0
0.0 0.00017425000539252744 0.0001498038871313112 -0.00010646043803257853 -4.3343449098732664e-05 -0.00012538953187778005 0.0 0.0
0.0 0.0015076990938581742 0.0012454602380343879 -0.0009774126066018653 -0.0002680476314325225 -0.0010327617629056175 0.0 0.0
0.0 0.004563692188496135 0.0038256543827400835 -0.0032716321074901574 -0.000554022275249922 -0.0029026971697678886 0.0 0.0
0.0 0.010025740205682475 0.00806178373294575 -0.007337863257066519 -0.000723920475879231 -0.00576353956510414 0.0 0.0
0.0 0.01655843506230202 0.013826045890749272 -0.013020035775116009 -0.0008060101156332689 -0.00937747603684076 0.0 0.0
0.0 0.02504185598978258 0.02077733581387408 -0.0199092348117187 -0.0008681010021553826 -0.01325278670958177 0.0 0.0
0.0 0.034519475183226705 0.028702977693008235 -0.02777060023880052 -0.0009323774542077388 -0.017139887715624535 0.0 0.0
0.0 0.044970646558724486 0.03749950280132653 -0.03650043921764266 -0.0009990635836837928 -0.02097139322213279 0.0 0.0
0.0 0.05638737162749177 0.04713024934672923 -0.04606729747281642 -0.0010629518739128812 -0.02476832071222284 0.0 0.0
0.0 0.06863990019084867 0.05754545394102916 -0.05642548429960295 -0.001119969641426147 -0.02843533508520196 0.0 0.0
0.0 0.08189643038808289 0.06862618006707533 -0.06745779940996076 -0.0011683806571146371 -0.03171446770994987 0.0 0.0
0.0 0.09501658982809073 0.08018219327632814 -0.07896814144138432 -0.0012140518349438325 -0.03427160677998688 0.0 0.0
0.0 0.10881253569981061 0.09192929210428884 -0.0906754530879144 -0.0012538390163742833 -0.03563360215106651 0.0 0.0
0.0 0.12205208300324853 0.10336828064536879 -0.10210697192452686 -0.0012613087208421445 -0.03441203586165144 0.0 0.0
0.0 0.13338936171821464 0.11352682297455377 -0.11229984141950486 -0.0012269815550488743 -0.028035208168652858 0.0 0.0
0.0 0.14182234557367823 0.11918910846481069 -0.11895880324332697 -0.00023030522148374658 3.076792293166264e-14 0.0 0.0
0.0 0.13338936171821086 0.11352682297454336 -0.11229984141949632 -0.0012269815550470533 0.02803520816872806 0.0 0.0
0.0 0.12205208300321288 0.1033682806453333 -0.10210697192449031 -0.0012613087208430463 0.03441203586172268 0.0 0.0
0.0 0.10881253569975996 0.09192929210424242 -0.09067545308786712 -0.0012538390163752983 0.035633602151109306 0.0 0.0
0.0 0.09501658982803725 0.08018219327628189 -0.07896814144133968 -0.0012140518349421606 0.03427160677999375 0.0 0.0
0.0 0.08189643038801844 0.06862618006702063 -0.06745779940990525 -0.0011683806571154403 0.031714467709935974 0.0 0.0
0.0 0.06863990019078847 0.0575454539409767 -0.056425484299551056 -0.0011199696414256164 0.028435335085187752 0.0 0.0
0.0 0.056387371627430925 0.04713024934667678 -0.04606729747276454 -0.001062951873912241 0.02476832071220784 0.0 0.0
0.0 0.044970646558666214 0.037499502801277264 -0.036500439217594036 -0.0009990635836832293 0.020971393222115175 0.0 0.0
0.0 0.034519475183173005 0.02870297769296378 -0.027770600238756264 -0.0009323774542075354 0.017139887715600995 0.0 0.0
0.0 0.02504185598972939 0.02077733581383122 -0.01990923481167587 -0.0008681010021553301 0.01325278670955049 0.0 0.0
0.0 0.01655843506226301 0.01382604589071734 -0.013020035775084414 -0.0008060101156329238 0.00937747603681604 0.0 0.0
0.0 0.01002574020564874 0.00806178373291909 -0.007337863257040707 -0.0007239204758783882 0.0057635395650856005 0.0 0.0
0.0 0.004563692188479625 0.0038256543827268866 -0.0032716321074777632 -0.000554022275249118 0.002902697169758512 0.0 0.0
0.0 0.0015076990938487226 0.0012454602380275585 -0.000977412606596182 -0.0002680476314313777 0.0010327617628996127 0.0 0.0
0.0 0.000174250005388987 0.00014980388712908962 -0.00010646043803091819 -4.3343449098171406e-05 0.00012538953187561286 0.0 0.0
0.0 -2.521815210280312e-05 -1.6253720576058842e-05 1.3113662529576587e-05 3.1400580464822555e-06 -3.373555133926707e-05 0.0 0.0
0.0 1.0173635851279129e-07 -1.8938038048519628e-08 1.3138282769826338e-08 5.7997552786946584e-09 -1.225036667458679e-07 0.0 0.0
0.0 1.1853683869198745e-07 1.5421076161875886e-09 -7.818401251826872e-10 -7.602674910048665e-10 -2.492973328350805e-08 0.0 0.0
0.0 0.0008512099852921747 0.00039311694566598285 -0.00020145390978962735 -0.00019166303587635526 0.0014764024502201092 0.0 0.0
0.0 0.00386045836414463 0.0026995282361764418 -0.0037937566354311475 0.0010942283992547042 0.001993292412120604 0.0 0.0
0.0 0.0029170328038371396 0.0016965793730222738 -0.0024206723950142674 0.0007240930219919923 -0.0013938247069529524 0.0 0.0
0.0 0.00040561704993217806 0.00019709748963797483 -8.909116344984413e-05 -0.00010800632618813092 -0.00087176371913948 0.0 0.0
0.0 1.4857305520026043e-06 1.0934859498981311e-07 -1.1313708335277169e-07 3.788488362958975e-09 -2.206783410877386e-06 0.0 0.0
0.0 -7.005181721510833e-07 -1.0439401974490135e-08 7.395612236135141e-09 3.04378973835479e-09 -3.104387665915887e-07 0.0 0.0
0.0 -1.3143897246516948e-05 -7.731760120835884e-06 6.214120629129513e-06 1.51763949170637e-06 2.471215958216906e-05 0.0 0.0
0.0 2.720130475558918e-05 2.124401557794711e-05 -1.2830206873834555e-05 -8.41380870411254e-06 -2.6635374852992127e-05 0.0 0.0
0.0 0.0007510962070793885 0.0005676141032736642 -0.0004346665669007863 -0.00013294753637287714 -0.0007140927836864351 0.0 0.0
0.0 0.0027842492392859434 0.002222312262097157 -0.0018400496942941823 -0.0003822625678029744 -0.0023285635952697966 0.0 0.0
0.0 0.006582836173336253 0.005238953289594282 -0.0046493639615426486 -0.0005895893280516324 -0.00484626946781557 0.0 0.0
0.0 0.012129927014696886 0.009501303846656498 -0.008806939692028209 -0.0006943641546282852 -0.008088964545562459 0.0 0.0
0.0 0.01832233840527182 0.01472681808446971 -0.013967713698974961 -0.0007591043854947369 -0.011698375802641693 0.0 0.0
0.0 0.02550446906286411 0.020671317546692825 -0.019851503849400782 -0.0008198136972920603 -0.0153441904562383 0.0 0.0
0.0 0.033490880049472586 0.027246150224399596 -0.026365723178236607 -0.0008804270461629977 -0.018937751989570657 0.0 0.0
0.0 0.042154116103029445 0.034453311416377926 -0.033515352798114705 -0.0009379586182631652 -0.022494915432087925 0.0 0.0
0.0 0.05164005226244058 0.04230811311981412 -0.041316915293663964 -0.0009911978261501525 -0.025965745977795746 0.0 0.0
0.0 0.06166439036781993 0.050776538534442056 -0.049739317279276656 -0.0010372212551653874 -0.029123055154097743 0.0 0.0
0.0 0.07239996006442666 0.05975388118735191 -0.058671662106060105 -0.0010822190812918224 -0.03161292034143472 0.0 0.0
0.0 0.0833016244184933 0.06919146872473836 -0.06804791932870793 -0.00114354939603027 -0.03314574327806147 0.0 0.0
0.0 0.09444986967124765 0.07905526896453943 -0.07786326006720926 -0.001192008897330093 -0.03291430164900628 0.0 0.0
0.0 0.10555430208468335 0.08883803781705409 -0.08766253643344492 -0.001175501383609126 -0.028212547382105338 0.0 0.0
0.0 0.11522540223822245 0.0949456075958133 -0.09501198872112723 6.638112531390548e-05 2.7487560838590497e-14 0.0 0.0
0.0 0.10555430208467985 0.08883803781704343 -0.0876625364334346 -0.0011755013836087917 0.02821254738217359 0.0 0.0
0.0 0.09444986967122955 0.07905526896451703 -0.07786326006718748 -0.001192008897329512 0.03291430164907723 0.0 0.0
0.0 0.0833016244184557 0.06919146872470289 -0.06804791932867241 -0.0011435493960303639 0.03314574327810173 0.0 0.0
0.0 0.0723999600643897 0.05975388118732 -0.05867166210603083 -0.0010822190812891683 0.031612920341438824 0.0 0.0
0.0 0.061664390367767996 0.05077653853439832 -0.04973931727923306 -0.0010372212551653225 0.029123055154080955 0.0 0.0
0.0 0.0516400522623938 0.04230811311977421 -0.04131691529362478 -0.0009911978261494005 0.02596574597778098 0.0 0.0
0.0 0.0421541161029855 0.03445331141634028 -0.03351535279807772 -0.0009379586182625561 0.022494915432075588 0.0 0.0
0.0 0.03349088004943021 0.027246150224364555 -0.026365723178202058 -0.0008804270461624967 0.01893775198955513 0.0 0.0
0.0 0.025504469062822343 0.020671317546658696 -0.019851503849366927 -0.0008198136972917603 0.015344190456215998 0.0 0.0
0.0 0.01832233840523324 0.014726818084439671 -0.013967713698945533 -0.0007591043854941195 0.0116983758026146 0.0 0.0
0.0 0.012129927014665441 0.009501303846632165 -0.008806939692004138 -0.0006943641546280258 0.008088964545539774 0.0 0.0
0.0 0.0065828361733142144 0.00523895328957731 -0.004649363961526225 -0.0005895893280510918 0.004846269467800875 0.0 0.0
0.0 0.002784249239274132 0.0022223122620880324 -0.0018400496942861597 -0.0003822625678018731 0.0023285635952614674 0.0 0.0
0.0 0.000751096207073078 0.0005676141032692217 -0.00043466656689728633 -0.00013294753637193467 0.0007140927836807964 0.0 0.0
0.0 2.720130475402777e-05 2.124401557752215e-05 -1.283020687351245e-05 -8.413808704009655e-06 2.6635374852569827e-05 0.0 0.0
0.0 -1.3143897247583133e-05 -7.73176012066809e-06 6.214120629003546e-06 1.5176394916645182e-06 -2.471215958153919e-05 0.0 0.0
0.0 -7.005181721915707e-07 -1.043940189344863e-08 7.39561218260473e-09 3.0437897108433293e-09 3.1043876767393493e-07 0.0 0.0
0.0 1.485730551685029e-06 1.0934859498490132e-07 -1.1313708335607203e-07 3.788488371171157e-09 2.2067834110333467e-06 0.0 0.0
0.0 0.0004056170499286352 0.00019709748963652832 -8.909116344891566e-05 -0.00010800632618761301 0.0008717637191343271 0.0 0.0
0.0 0.002917032803826902 0.0016965793730158024 -0.0024206723950053167 0.0007240930219895155 0.0013938247069487303 0.0 0.0
0.0 0.0015816556301114 0.0009680623723006597 -0.0014022051059291054 0.0004341427336284453 -0.0009520305598150942 0.0 0.0
0.0 0.00017175203248179357 6.505482141508063e-05 -9.830791922512024e-06 -5.522402949256808e-05 -0.00040672151390762953 0.0 0.0
0.0 3.7871283745856427e-06 5.575611466826276e-08 -6.58732539804319e-08 1.0117139312170214e-08 -1.2542935004957291e-06 0.0 0.0
0.0 1.2357858243435582e-06 -2.260558813226674e-07 1.7925619526831142e-07 4.6799686054355965e-08 8.450927644243088e-07 0.0 0.0
0.0 -8.473898031732458e-06 -3.633006696027272e-06 2.9305060459841654e-06 7.025006500431089e-07 1.6382230137218713e-05 0.0 0.0
0.0 -1.1662232586570146e-05 -5.934796688218531e-06 5.8746930021917815e-06 6.01036860267876e-08 3.266677395283732e-06 0.0 0.0
0.0 0.000297327780007453 0.0001574039018400005 -0.00011942074228917504 -3.798315955082586e-05 -0.00037190595164384956 0.0 0.0
0.0 0.0014474169290781295 0.0009394969084378219 -0.0007587720802785159 -0.00018072482815930602 -0.0015414743144676374 0.0 0.0
0.0 0.003752652349358928 0.002721611200264671 -0.0023398114279104 -0.0003817997723542685 -0.0035282532734221216 0.0 0.0
0.0 0.007378033276446866 0.0054616733431989304 -0.0049379130892856695 -0.0005237602539132665 -0.006100092684612836 0.0 0.0
0.0 0.011658543403102416 0.008910880388102112 -0.008303315916435064 -0.0006075644716670465 -0.009077561079521828 0.0 0.0
0.0 0.016691792216617395 0.012851715897063774 -0.012182404969088111 -0.0006693109279756604 -0.01217051392976608 0.0 0.0
0.0 0.022166335251330188 0.017204711696208675 -0.016478549020138324 -0.0007261626760703426 -0.015284110271449524 0.0 0.0
0.0 0.02812357005530273 0.021987918289330853 -0.02121088382230181 -0.000777034467029055 -0.018377470192288213 0.0 0.0
0.0 0.03468965173566753 0.027263535845594086 -0.0264380286729855 -0.0008255071726085901 -0.021415741046991035 0.0 0.0
0.0 0.041896534893675896 0.03308968140814314 -0.032217645152276334 -0.0008720362558667536 -0.024285441409341954 0.0 0.0
0.0 0.04963150660423893 0.0394673591688922 -0.03855072043420224 -0.0009166387346899579 -0.026656539845648412 0.0 0.0
0.0 0.05770853500693314 0.0464447325067609 -0.04546493713448472 -0.0009797953722762533 -0.028141335943551563 0.0 0.0
0.0 0.06684448465198935 0.05439145971046668 -0.0533128634459838 -0.001078596264482851 -0.028621475368184705 0.0 0.0
0.0 0.07751168731117335 0.06356804386642617 -0.062445805822089986 -0.001122238044336206 -0.026661135455570265 0.0 0.0
0.0 0.08870423271777689 0.0701969797021661 -0.07060012528779763 0.0004031455856315093 2.387760128508276e-14 0.0 0.0
0.0 0.07751168731117317 0.06356804386641743 -0.062445805822080154 -0.0011222380443372463 0.026661135455631365 0.0 0.0
0.0 0.06684448465198152 0.054391459710452394 -0.05331286344597068 -0.00107859626448169 0.028621475368251416 0.0 0.0
0.0 0.05770853500690122 0.046444732506732374 -0.045464937134454916 -0.000979795372277441 0.028141335943582528 0.0 0.0
0.0 0.04963150660420862 0.039467359168868066 -0.03855072043417939 -0.000916638734688689 0.02665653984564678 0.0 0.0
0.0 0.041896534893640675 0.033089681408115246 -0.032217645152247926 -0.0008720362558673043 0.024285441409324017 0.0 0.0
0.0 0.0346896517356371 0.02726353584556914 -0.026438028672960804 -0.0008255071726083483 0.02141574104697791 0.0 0.0
0.0 0.02812357005527505 0.02198791828930747 -0.021210883822278825 -0.0007770344670286667 0.018377470192280074 0.0 0.0
0.0 0.02216633525130345 0.01720471169618754 -0.01647854902011755 -0.0007261626760699632 0.015284110271437027 0.0 0.0
0.0 0.016691792216584622 0.012851715897039264 -0.012182404969063865 -0.0006693109279754015 0.012170513929744005 0.0 0.0
0.0 0.011658543403077544 0.0089108803880837 -0.008303315916416948 -0.0006075644716667433 0.009077561079501258 0.0 0.0
0.0 0.007378033276423498 0.0054616733431821765 -0.004937913089269352 -0.0005237602539128303 0.006100092684592966 0.0 0.0
0.0 0.003752652349346985 0.0027216112002557773 -0.002339811427902516 -0.00038179977235325963 0.0035282532734133547 0.0 0.0
0.0 0.0014474169290697265 0.0009394969084321081 -0.0007587720802736573 -0.00018072482815845086 0.0015414743144600157 0.0 0.0
0.0 0.0002973277800032151 0.0001574039018384005 -0.00011942074228790328 -3.798315955049698e-05 0.0003719059516405796 0.0 0.0
0.0 -1.1662232586911834e-05 -5.934796687967144e-06 5.874693001995037e-06 6.010368597205532e-08 -3.266677394343247e-06 0.0 0.0
0.0 -8.473898032917113e-06 -3.6330066958849297e-06 2.930506045874901e-06 7.025006500100372e-07 -1.638223013625018e-05 0.0 0.0
0.0 1.2357858241183624e-06 -2.260558813567429e-07 1.7925619529655494e-07 4.679968606018879e-08 -8.450927645013197e-07 0.0 0.0
0.0 3.7871283738922976e-06 5.575611470378979e-08 -6.587325401656409e-08 1.0117139312775022e-08 1.2542935016534961e-06 0.0 0.0
0.0 0.0001717520324791226 6.505482141443855e-05 -9.830791922168998e-06 -5.5224029492268936e-05 0.00040672151390504 0.0 0.0
0.0 0.0015816556301044048 0.00096806237229659 -0.0014022051059233013 0.00043414273362670956 0.0009520305598121366 0.0 0.0
0.0 0.000802146131948678 0.00044464094700697224 -0.0006513286814413613 0.00020668773443438976 -0.0005373484719694561 0.0 0.0
0.0 1.6632353691680913e-05 -3.4241744191477084e-06 2.7409144000748024e-05 -2.3984969581600455e-05 -9.727585301472538e-05 0.0 0.0
0.0 4.59930578387991e-06 1.0001616183699402e-07 -2.0850668940116572e-07 1.0849052756417206e-07 -5.8457463940430015e-06 0.0 0.0
0.0 2.9310394992049665e-06 -2.3939319926266654e-07 2.1927004749498246e-07 2.0123151767682023e-08 -4.747768740816402e-06 0.0 0.0
0.0 -3.5787583289000928e-06 -1.601159226077716e-06 1.3746809736500714e-06 2.2647825242765083e-07 9.493537597614958e-06 0.0 0.0
0.0 3.082184054554656e-06 -3.7979915308736974e-06 3.4921645846950838e-06 3.0582694617859273e-07 -2.7698278349787374e-06 0.0 0.0
0.0 0.000120619782716533 1.745574122152362e-05 -1.3116026163317025e-05 -4.3397150582065646e-06 -0.00018362156490638715 0.0 0.0
0.0 0.0004882979489572128 0.00015571702775607133 -0.00013150727796879344 -2.4209749787278012e-05 -0.0007376963802648083 0.0 0.0
0.0 0.0014391792442424826 0.0006876724699043433 -0.0006077752615276028 -7.989720837673943e-05 -0.0019368385912070995 0.0 0.0
0.0 0.0032062335228160246 0.0018560396565319762 -0.0016796468665148255 -0.00017639279001715222 -0.0037068961565370206 0.0 0.0
0.0 0.0057211433855199525 0.0035010819345034283 -0.003226714814808715 -0.00027436711969470735 -0.005795138036598105 0.0 0.0
0.0 0.008375537652996914 0.005424399350807817 -0.005071135765566132 -0.0003532635852416888 -0.008133176014979353 0.0 0.0
0.0 0.011460694524872512 0.007553566380007152 -0.007137054536484948 -0.00041651184352220494 -0.010606951625016263 0.0 0.0
0.0 0.014888483015999945 0.009919169635261954 -0.009449203782767134 -0.0004699658524948188 -0.013159052258338081 0.0 0.0
0.0 0.01868072763920929 0.012604672139912088 -0.012082308796565976 -0.0005223633433461139 -0.015769590980652334 0.0 0.0
0.0 0.02298222524431125 0.015742529628616407 -0.015163710821507437 -0.0005788188071089801 -0.018385086649376152 0.0 0.0
0.0 0.027946139897716455 0.01948879705057884 -0.018849259232324053 -0.0006395378182547868 -0.020771111706334767 0.0 0.0
0.0 0.03358938902506728 0.023977041716680112 -0.023276380544304972 -0.0007006611723751315 -0.022357937233554972 0.0 0.0
0.0 0.04009776640589029 0.029605450959188238 -0.028797334174917234 -0.0008081167842710053 -0.022762431994751774 0.0 0.0
0.0 0.048952441941950406 0.037507815929874386 -0.036513100408729994 -0.0009947155211443718 -0.022790118178655224 0.0 0.0
0.0 0.06344885297225489 0.04458556671257708 -0.045378814378066935 0.000793247665489868 2.1344905010156623e-14 0.0 0.0
0.0 0.048952441941958226 0.03750781592987109 -0.0365131004087271 -0.0009947155211440459 0.022790118178704084 0.0 0.0
0.0 0.04009776640588189 0.029605450959175283 -0.0287973341749044 -0.0008081167842708731 0.022762431994801817 0.0 0.0
0.0 0.03358938902504946 0.023977041716666998 -0.02327638054429078 -0.0007006611723762043 0.022357937233574002 0.0 0.0
0.0 0.02794613989769468 0.01948879705056617 -0.018849259232312034 -0.0006395378182541631 0.020771111706326006 0.0 0.0
0.0 0.02298222524429449 0.015742529628605038 -0.015163710821496588 -0.0005788188071084438 0.018385086649361254 0.0 0.0
0.0 0.01868072763919311 0.012604672139900944 -0.012082308796554628 -0.0005223633433463193 0.015769590980639896 0.0 0.0
0.0 0.014888483015984505 0.009919169635251485 -0.009449203782756727 -0.00046996585249476123 0.013159052258330221 0.0 0.0
0.0 0.011460694524857271 0.007553566379997427 -0.007137054536476339 -0.0004165118435210957 0.010606951625005984 0.0 0.0
0.0 0.008375537652980799 0.0054243993507991995 -0.0050711357655566424 -0.00035326358524255064 0.008133176014962051 0.0 0.0
0.0 0.0057211433855045915 0.0035010819344942325 -0.0032267148148002107 -0.00027436711969401823 0.005795138036582625 0.0 0.0
0.0 0.003206233522805113 0.0018560396565257486 -0.0016796468665087351 -0.0001763927900170119 0.003706896156526073 0.0 0.0
0.0 0.0014391792442363391 0.0006876724699008581 -0.000607775261524363 -7.989720837649493e-05 0.0019368385911998588 0.0 0.0
0.0 0.0004882979489531909 0.0001557170277545587 -0.00013150727796745694 -2.4209749787101674e-05 0.0007376963802594968 0.0 0.0
0.0 0.00012061978271477589 1.7455741221382156e-05 -1.3116026163201e-05 -4.339715058181159e-06 0.00018362156490508107 0.0 0.0
0.0 3.082184054178445e-06 -3.797991530667139e-06 3.4921645845322116e-06 3.0582694613493475e-07 2.7698278360520518e-06 0.0 0.0
0.0 -3.5787583299864773e-06 -1.601159226039345e-06 1.3746809736301847e-06 2.2647825240915417e-07 -9.493537596776442e-06 0.0 0.0
0.0 2.9310394993791724e-06 -2.393931992777099e-07 2.1927004750926643e-07 2.0123151768444108e-08 4.747768741439648e-06 0.0 0.0
0.0 4.599305783693265e-06 1.0001616183975522e-07 -2.0850668941686214e-07 1.0849052757710333e-07 5.845746394770222e-06 0.0 0.0
0.0 1.663235369012436e-05 -3.4241744193329973e-06 2.7409144000783118e-05 -2.3984969581450137e-05 9.727585301309639e-05 0.0 0.0
0.0 0.0008021461319437115 0.0004446409470044427 -0.0006513286814376848 0.00020668773443324173 0.0005373484719670006 0.0 0.0
0.0 0.00023271990327139935 0.00013415085773865103 -0.0001994347624351171 6.528390469646576e-05 -0.00020674897191086118 0.0 0.0
0.0 -2.637453129708637e-05 -1.6117368970235507e-05 2.4204551312395195e-05 -8.08718234215963e-06 2.134213030511522e-05 0.0 0.0
0.0 4.598212193848985e-06 1.9584704940292392e-07 -2.2179353464918184e-07 2.5946485246253867e-08 9.009242928266972e-07 0.0 0.0
0.0 5.574885883009997e-06 -5.394896076194861e-07 4.516911710030236e-07 8.779843661646581e-08 -7.561840566472708e-06 0.0 0.0
0.0 1.1597837982745227e-06 -7.895161191982196e-07 7.743534177134359e-07 1.516270148478324e-08 -1.143939963718985e-06 0.0 0.0
0.0 1.2945655954247607e-05 -1.8864483909105228e-06 1.951265353406267e-06 -6.481696249575008e-08 -1.46134833225753e-05 0.0 0.0
0.0 0.00011304988748928604 -2.482697445458288e-06 2.4703213646590555e-06 1.237608079923152e-08 -0.00017258993280072448 0.0 0.0
0.0 0.0002525787986052873 -1.6719245231420205e-06 1.658843348781904e-06 1.3081174360126254e-08 -0.000439165070189282 0.0 0.0
0.0 0.0005319264416872198 -1.2362528405694039e-06 1.2119015325238275e-06 2.435130804551543e-08 -0.0008867588692023933 0.0 0.0
0.0 0.0009293645115261925 5.92267013907943e-08 -5.397443194772307e-08 -5.252269443057679e-09 -0.0018519154614486993 0.0 0.0
0.0 0.0018860797543016035 -9.544499412907732e-07 1.2460498477558004e-06 -2.91599906464851e-07 -0.0035148793653513406 0.0 0.0
0.0 0.003110422031596651 -1.2199899962721489e-05 1.5061099477468116e-05 -2.8611995147472783e-06 -0.005648366585518205 0.0 0.0
0.0 0.004656965871309058 -3.172618691529318e-05 3.554240435500679e-05 -3.816217439712305e-06 -0.007927255187125158 0.0 0.0
0.0 0.0063939559892817 -3.4001079219421904e-05 3.311867293181081e-05 8.824062876127206e-07 -0.01031948431013654 0.0 0.0
0.0 0.00829086267454183 7.219254442795324e-05 -8.930957903292326e-05 1.7117034604968988e-05 -0.012830517371032836 0.0 0.0
0.0 0.01029777279375981 0.00047619856097542404 -0.0005237291240137143 4.753056303828608e-05 -0.015440811498970052 0.0 0.0
0.0 0.012446150430181957 0.0014725332236010457 -0.0015693701376257511 9.683691402470775e-05 -0.01805760120722673 0.0 0.0
0.0 0.01465660734027395 0.003313073175344422 -0.0035279100023247446 0.00021483682698032795 -0.020435958960424674 0.0 0.0
0.0 0.017647704341476392 0.005694034333341619 -0.006087005267713067 0.0003929709343714581 -0.022175353862161466 0.0 0.0
0.0 0.02526359093891196 0.01096286311473791 -0.010671235026315156 -0.00029162808842276547 -0.023168672335787774 0.0 0.0
0.0 0.045355008850285435 0.018815766055080646 -0.020241581882719697 0.0014258158276390597 1.6933503210747602e-14 0.0 0.0
0.0 0.025263590938919972 0.010962863114735925 -0.010671235026313487 -0.00029162808842242216 0.023168672335818662 0.0 0.0
0.0 0.01764770434146498 0.005694034333337717 -0.00608700526770778 0.00039297093437005976 0.022175353862171773 0.0 0.0
0.0 0.014656607340268775 0.0033130731753437115 -0.0035279100023225965 0.00021483682697888738 0.020435958960424487 0.0 0.0
0.0 0.012446150430165368 0.001472533223604223 -0.0015693701376305281 9.683691402630423e-05 0.018057601207208784 0.0 0.0
0.0 0.010297772793750154 0.00047619856097619816 -0.0005237291240140083 4.753056303780713e-05 0.015440811498954352 0.0 0.0
0.0 0.008290862674532619 7.21925444291966e-05 -8.930957903339456e-05 1.711703460419964e-05 0.012830517371020955 0.0 0.0
0.0 0.0063939559892692 -3.400107921543974e-05 3.3118672927776494e-05 8.824062876624584e-07 0.010319484310122789 0.0 0.0
0.0 0.00465696587129792 -3.1726186914853645e-05 3.5542404355579354e-05 -3.8162174407248685e-06 0.007927255187110885 0.0 0.0
0.0 0.003110422031588188 -1.2199899958458135e-05 1.5061099472471679e-05 -2.8611995140149946e-06 0.005648366585504749 0.0 0.0
0.0 0.0018860797542877793 -9.544499389839162e-07 1.2460498450449697e-06 -2.9159990606074176e-07 0.003514879365332537 0.0 0.0
0.0 0.0009293645115254227 5.92267008025062e-08 -5.3974431320363034e-08 -5.252269482177048e-09 0.0018519154614490443 0.0 0.0
0.0 0.0005319264416849052 -1.236252840849555e-06 1.2119015327958572e-06 2.4351308053570714e-08 0.0008867588691984084 0.0 0.0
0.0 0.00025257879860427846 -1.6719245231322093e-06 1.6588433488471441e-06 1.3081174285018572e-08 0.0004391650701874681 0.0 0.0
0.0 0.00011304988748746749 -2.4826974454191406e-06 2.470321364609259e-06 1.237608080992711e-08 0.00017258993279925793 0.0 0.0
0.0 1.2945655953846903e-05 -1.8864483909037806e-06 1.951265353400094e-06 -6.481696249632574e-08 1.4613483323742621e-05 0.0 0.0
0.0 1.159783797569987e-06 -7.895161192214133e-07 7.743534177322716e-07 1.51627014891468e-08 1.143939964358775e-06 0.0 0.0
0.0 5.574885882175285e-06 -5.394896076818605e-07 4.5169117105943636e-07 8.779843662242379e-08 7.561840567429585e-06 0.0 0.0
0.0 4.598212192975945e-06 1.9584704939255558e-07 -2.217935346436909e-07 2.594648525114403e-08 -9.009242923168873e-07 0.0 0.0
0.0 -2.6374531296933367e-05 -1.6117368969926984e-05 2.4204551311973173e-05 -8.087182342046233e-06 -2.134213030373946e-05 0.0 0.0
0.0 0.00023271990326853732 0.00013415085773754324 -0.00019943476243352434 6.528390469598132e-05 0.00020674897190923577 0.0 0.0
0.0 1.4052744576298697e-05 6.297386490227984e-06 -1.0226876503552445e-05 3.929490013324423e-06 -1.0285796048001238e-05 0.0 0.0
0.0 -2.892920263902191e-06 -1.3495338521972265e-06 1.9494235730754543e-06 -5.998897208782293e-07 5.510526648533814e-06 0.0 0.0
0.0 1.5448872979591303e-06 2.2000217851038375e-07 -3.119000692738486e-07 9.189789076346487e-08 -2.8013612682893127e-06 0.0 0.0
0.0 7.66623001839174e-06 -6.916933488892884e-07 5.500306068277143e-07 1.416627420615725e-07 -8.731887569120215e-06 0.0 0.0
0.0 5.7393021967484165e-06 -1.0594406565788433e-06 9.985716211971348e-07 6.086903538170977e-08 -9.731334103659039e-06 0.0 0.0
0.0 2.0332924944855592e-05 -3.874418966883452e-06 3.605785599776797e-06 2.68633367106711e-07 -3.963932703908261e-05 0.0 0.0
0.0 0.00015813309443345918 -2.6876882802775893e-05 2.1726988344106363e-05 5.149894458669451e-06 -0.00021131479749039337 0.0 0.0
0.0 0.0005092325264752098 -0.0001646689161497357 0.00013935211646050251 2.5316799689232907e-05 -0.0007605049280019466 0.0 0.0
0.0 0.0014455860036818654 -0.0006907458104954802 0.0006103054306522234 8.044037984325687e-05 -0.001947274256232889 0.0 0.0
0.0 0.003205793427165957 -0.0018560209644187177 0.0016795529329083668 0.00017646803151035278 -0.003708101030834953 0.0 0.0
0.0 0.005740632035345684 -0.003508057572369061 0.0032327019229574728 0.00027535564941158594 -0.005795433213577023 0.0 0.0
0.0 0.008427796412846217 -0.005461149351992619 0.005104081178952203 0.00035706817304041597 -0.008142581278708344 0.0 0.0
0.0 0.011543139376729098 -0.007630859456875748 0.007210991070200795 0.0004198683866749459 -0.010610681350259756 0.0 0.0
0.0 0.014934198383997186 -0.009977753467660071 0.009515731953905282 0.00046202151375479556 -0.013139879271912973 0.0 0.0
0.0 0.018382523366400328 -0.01238013548908004 0.011899142966833528 0.0004809925222465074 -0.01574463258247115 0.0 0.0
0.0 0.02167160511535774 -0.014571255359881461 0.014100298134257276 0.0004709572256241649 -0.018467970184250317 0.0 0.0
0.0 0.024343883515698356 -0.016134648036709717 0.01571049315635541 0.00042415488035431684 -0.021328809383589206 0.0 0.0
0.0 0.02616805672608341 -0.01657831218846328 0.016245321431072136 0.00033299075739113356 -0.024433982865772856 0.0 0.0
0.0 0.02616823465757221 -0.015330283220514353 0.015209467281253346 0.00012081593926101464 -0.027729434234841158 0.0 0.0
0.0 0.02138371484791527 -0.011197930570375044 0.0117031862821721 -0.0005052557117970564 -0.029886334348159516 0.0 0.0
0.0 0.04393194740874266 -0.006579586200143639 0.0037002626781392693 0.002879323522004355 2.0566014169443037e-14 0.0 0.0
0.0 0.021383714847921835 -0.011197930570372992 0.011703186282170357 -0.0005052557117973715 0.029886334348183666 0.0 0.0
0.0 0.02616823465757158 -0.015330283220511692 0.015209467281250423 0.00012081593926125539 0.02772943423486259 0.0 0.0
0.0 0.026168056726067472 -0.01657831218845258 0.0162453214310607 0.00033299075739187645 0.024433982865776326 0.0 0.0
0.0 0.024343883515673344 -0.0161346480366918 0.01571049315633762 0.0004241548803542202 0.021328809383575977 0.0 0.0
0.0 0.021671605115338395 -0.014571255359867592 0.014100298134244023 0.0004709572256235675 0.018467970184233778 0.0 0.0
0.0 0.018382523366377253 -0.012380135489062569 0.011899142966816465 0.0004809925222460892 0.01574463258245264 0.0 0.0
0.0 0.014934198383974213 -0.009977753467641735 0.009515731953887394 0.00046202151375434523 0.013139879271900086 0.0 0.0
0.0 0.011543139376703976 -0.007630859456857923 0.007210991070182443 0.0004198683866754872 0.010610681350242202 0.0 0.0
0.0 0.008427796412821938 -0.005461149351976094 0.0051040811789363925 0.0003570681730396967 0.008142581278686712 0.0 0.0
0.0 0.005740632035320281 -0.0035080575723520583 0.0032327019229418845 0.00027535564941017567 0.005795433213555618 0.0 0.0
0.0 0.003205793427152195 -0.0018560209644092982 0.0016795529328995284 0.00017646803150976983 0.0037081010308240726 0.0 0.0
0.0 0.0014455860036767737 -0.0006907458104924235 0.0006103054306496125 8.044037984281181e-05 0.001947274256227957 0.0 0.0
0.0 0.000509232526470373 -0.00016466891614804746 0.00013935211645900973 2.531679968903743e-05 0.0007605049279957198 0.0 0.0
0.0 0.00015813309443065747 -2.6876882802300135e-05 2.1726988343714895e-05 5.149894458585264e-06 0.00021131479748795414 0.0 0.0
0.0 2.0332924944225572e-05 -3.8744189670791895e-06 3.6057855999346088e-06 2.686333671445791e-07 3.963932704020585e-05 0.0 0.0
0.0 5.739302196120576e-06 -1.0594406566429449e-06 9.98571621252656e-07 6.086903539027581e-08 9.731334104260041e-06 0.0 0.0
0.0 7.666230017814877e-06 -6.916933489836892e-07 5.500306069058738e-07 1.416627420778137e-07 8.731887569927175e-06 0.0 0.0
0.0 1.544887297397552e-06 2.200021784983976e-07 -3.1190006926417054e-07 9.189789076576866e-08 2.8013612686348238e-06 0.0 0.0
0.0 -2.892920264310492e-06 -1.3495338523061788e-06 1.949423573185378e-06 -5.99889720879201e-07 -5.510526648097361e-06 0.0 0.0
0.0 1.4052744575921413e-05 6.297386490973624e-06 -1.022687650464605e-05 3.929490013672441e-06 1.0285796049794519e-05 0.0 0.0
0.0 2.1003374692942744e-06 -1.4025646839824997e-07 2.163693046469639e-07 -7.611283624863645e-08 3.3635988041117374e-07 0.0 0.0
0.0 1.1364632200797576e-07 8.600162224216889e-08 -5.1948414670282294e-08 -3.4053207571901244e-08 9.978072066074671e-07 0.0 0.0
0.0 -1.1509367814287554e-06 6.269500876665852e-07 -5.575413324436094e-07 -6.94087552229856e-08 3.014474082116124e-06 0.0 0.0
0.0 4.640131111778099e-06 -8.806690384970337e-07 6.819553559340217e-07 1.98713682563004e-07 -9.045609188845423e-06 0.0 0.0
0.0 1.0162409721030805e-05 7.581086984310098e-07 -5.296174080409544e-07 -2.284912903899931e-07 -2.2865618955266417e-06 0.0 0.0
0.0 5.6459722949523566e-05 -1.2806571752387149e-05 1.0185934428185792e-05 2.6206373242012654e-06 -5.5849866574632555e-05 0.0 0.0
0.0 0.00032785258793723075 -0.00018596336468163115 0.00014398167165813886 4.198169302349244e-05 -0.00045080944887269947 0.0 0.0
0.0 0.0014727061962160736 -0.0009508114507182371 0.00076897364553766 0.00018183780518057625 -0.0015725662952851304 0.0 0.0
0.0 0.003754619953663782 -0.002721766080108077 0.002339755327768487 0.0003820107523395873 -0.003535436916563537 0.0 0.0
0.0 0.0073771008119028975 -0.0054616560092859544 0.004937817902700667 0.0005238381065852853 -0.0060991115717836985 0.0 0.0
0.0 0.011670749824377531 -0.00892125029563247 0.008313341523971136 0.0006079087716613389 -0.009080982253308318 0.0 0.0
0.0 0.016730221138608233 -0.012885624024416347 0.01221541714691642 0.0006702068774999462 -0.012167876299402384 0.0 0.0
0.0 0.022226696605368027 -0.01726861513824481 0.016542629314627945 0.0007259858236168495 -0.01523058619848117 0.0 0.0
0.0 0.028127838268110675 -0.022023858150681155 0.021254659316346992 0.0007691988343341461 -0.018243156071058426 0.0 0.0
0.0 0.034365363029555715 -0.027018508276975387 0.02622272186353426 0.0007957864134411075 -0.021308004950156983 0.0 0.0
0.0 0.0406118725591447 -0.03194206727418208 0.031141414797741615 0.0008006524764404686 -0.024628458234390284 0.0 0.0
0.0 0.046287685304908996 -0.03629937909648644 0.03551237847030148 0.0007870006261849424 -0.028417483758149727 0.0 0.0
0.0 0.05053121742667831 -0.03944323914467545 0.03868437946717543 0.0007588596775000875 -0.03276729498506558 0.0 0.0
0.0 0.052548405564295936 -0.040248094861086124 0.039593099420484536 0.0006549954406015453 -0.03686751996365455 0.0 0.0
0.0 0.04916629501373532 -0.03626009403325188 0.03584264241849248 0.0004174516147593902 -0.037994429656751524 0.0 0.0
0.0 0.05390686614969521 -0.02982226815265027 0.026170964723497687 0.003651303429152558 2.2582630210266075e-14 0.0 0.0
0.0 0.04916629501374426 -0.036260094033247384 0.03584264241848815 0.00041745161475925175 0.03799442965680333 0.0 0.0
0.0 0.05254840556428761 -0.04024809486107114 0.03959309942046907 0.000654995440602054 0.03686751996370259 0.0 0.0
0.0 0.050531217426648414 -0.03944323914464877 0.03868437946714845 0.0007588596775003217 0.03276729498508198 0.0 0.0
0.0 0.04628768530487393 -0.03629937909645804 0.035512378470272866 0.0007870006261851371 0.028417483758142664 0.0 0.0
0.0 0.040611872559103715 -0.03194206727414939 0.031141414797708974 0.0008006524764403889 0.0246284582343686 0.0 0.0
0.0 0.03436536302951675 -0.027018508276943395 0.026222721863503284 0.0007957864134401354 0.02130800495013683 0.0 0.0
0.0 0.02812783826807466 -0.022023858150650586 0.021254659316316562 0.0007691988343339741 0.018243156071041978 0.0 0.0
0.0 0.0222266966053257 -0.017268615138210763 0.016542629314593868 0.0007259858236168919 0.015230586198461332 0.0 0.0
0.0 0.016730221138569035 -0.012885624024386385 0.012215417146887024 0.0006702068774993608 0.012167876299375557 0.0 0.0
0.0 0.011670749824340786 -0.008921250295604689 0.008313341523943453 0.0006079087716612352 0.009080982253279819 0.0 0.0
0.0 0.00737710081187792 -0.0054616560092669904 0.004937817902682387 0.0005238381065846068 0.006099111571765696 0.0 0.0
0.0 0.0037546199536478125 -0.0027217660800965505 0.002339755327757581 0.0003820107523389701 0.0035354369165512744 0.0 0.0
0.0 0.0014727061962062896 -0.0009508114507115581 0.0007689736455322738 0.00018183780517928323 0.0015725662952759155 0.0 0.0
0.0 0.00032785258793270253 -0.00018596336467968457 0.00014398167165665797 4.198169302302688e-05 0.00045080944886886876 0.0 0.0
0.0 5.645972294821027e-05 -1.280657175231301e-05 1.0185934428113113e-05 2.6206373241998013e-06 5.584986657449714e-05 0.0 0.0
0.0 1.0162409720729954e-05 7.581086979718518e-07 -5.296174076658015e-07 -2.284912903060513e-07 2.2865618971951644e-06 0.0 0.0
0.0 4.640131111374973e-06 -8.806690385753494e-07 6.819553560005966e-07 1.987136825747589e-07 9.045609189463606e-06 0.0 0.0
0.0 -1.1509367817570312e-06 6.269500876082099e-07 -5.57541332412878e-07 -6.940875519532729e-08 -3.0144740811563517e-06 0.0 0.0
0.0 1.1364632176394122e-07 8.600162227769794e-08 -5.1948414705467374e-08 -3.405320757222781e-08 -9.978072069014126e-07 0.0 0.0
0.0 2.1003374691233016e-06 -1.4025646855076527e-07 2.1636930487082704e-07 -7.611283632010266e-08 -3.363598807749837e-07 0.0 0.0
0.0 0.0 0.0 0.0 0.0 0.0 0.0 0.0
0.0 2.1149625389752026e-07 -5.157981893780948e-09 7.857701192229463e-09 -2.6997192984529614e-09 -4.37245249186522e-08 0.0 0.0
0.0 -1.21131416924673e-06 8.036455043174045e-07 -6.43832484170277e-07 -1.5981302014712046e-07 4.420959019990643e-06 0.0 0.0
0.0 2.4069792297142486e-06 1.111397813663602e-06 -9.534413181854931e-07 -1.5795649547810916e-07 3.181909942893573e-07 0.0 0.0
0.0 1.1363119483835907e-05 -1.4598122424612477e-06 1.1808540168134867e-06 2.789582256477137e-07 -1.2317798438329849e-05 0.0 0.0
0.0 0.00010004885414887755 -7.313716272882196e-05 5.566398669994016e-05 1.747317602888203e-05 -0.00014559643199386012 0.0 0.0
0.0 0.0008440787258272311 -0.0005959833019757113 0.0004613264080586195 0.00013465689391709186 -0.0007774023119534638 0.0 0.0
0.0 0.0028022162043552495 -0.002225725472751571 0.0018433548570664367 0.00038237061568513226 -0.0023507597866711007 0.0 0.0
0.0 0.006579265452100035 -0.00523531723014275 0.004645542424796198 0.0005897748053465464 -0.004845364323994558 0.0 0.0
0.0 0.012132308036823164 -0.009503094600474694 0.008808765648252698 0.0006943289522220004 -0.008087771475777876 0.0 0.0
0.0 0.018331778530301903 -0.014738133525606162 0.01397930313860719 0.0007588303869989618 -0.011702125896173926 0.0 0.0
0.0 0.02552784536985729 -0.02069312845725424 0.019873479905728835 0.0008196485515254046 -0.015322785538974225 0.0 0.0
0.0 0.03350261435476755 -0.027273145837811964 0.026393456406573687 0.0008796894312383015 -0.018814727201847545 0.0 0.0
0.0 0.04208337811691715 -0.03443672945346459 0.03350496341419701 0.0009317660392675424 -0.022213245538170803 0.0 0.0
0.0 0.051283358627770205 -0.04205328737867218 0.04108588667171367 0.0009674007069585466 -0.025725624292668985 0.0 0.0
0.0 0.06056569252909622 -0.049787436190112916 0.04880801572790558 0.0009794204622072694 -0.02974222901478063 0.0 0.0
0.0 0.069647291076551 -0.0570177646214208 0.056051688364953986 0.0009660762564667223 -0.03469629949558695 0.0 0.0
0.0 0.07694062432551897 -0.06271965366519366 0.06180928637816113 0.0009103672870325078 -0.040434312274373066 0.0 0.0
0.0 0.0805698193087572 -0.06511944111216256 0.06433113824289441 0.0007883028692680496 -0.045414204124674604 0.0 0.0
0.0 0.07629008916008417 -0.06078760562218571 0.06032438180086023 0.00046322382132549705 -0.046736213335650374 0.0 0.0
0.0 0.0744191643660994 -0.0524508041058379 0.048093586938315364 0.004357217167522569 2.652392194768538e-14 0.0 0.0
0.0 0.07629008916008781 -0.06078760562217697 0.06032438180085192 0.0004632238213250299 0.04673621333571065 0.0 0.0
0.0 0.08056981930874262 -0.0651194411121406 0.06433113824287251 0.0007883028692680263 0.04541420412473633 0.0 0.0
0.0 0.07694062432547834 -0.0627196536651553 0.06180928637812313 0.0009103672870322062 0.040434312274400606 0.0 0.0
0.0 0.06964729107649906 -0.05701776462137714 0.05605168836491009 0.0009660762564670993 0.03469629949558071 0.0 0.0
0.0 0.060565692529033335 -0.04978743619006046 0.04880801572785328 0.000979420462207138 0.029742229014757204 0.0 0.0
0.0 0.05128335862771532 -0.04205328737862622 0.0410858866716684 0.0009674007069578161 0.025725624292647256 0.0 0.0
0.0 0.04208337811686222 -0.03443672945341837 0.033504963414151316 0.0009317660392670579 0.022213245538148012 0.0 0.0
0.0 0.03350261435471082 -0.027273145837764995 0.02639345640652645 0.0008796894312385462 0.01881472720182561 0.0 0.0
0.0 0.02552784536980394 -0.0206931284572113 0.019873479905686338 0.0008196485515249483 0.015322785538945337 0.0 0.0
0.0 0.018331778530253407 -0.014738133525567916 0.01397930313856885 0.0007588303869990796 0.011702125896142218 0.0 0.0
0.0 0.012132308036786341 -0.009503094600445804 0.008808765648223998 0.0006943289522218032 0.008087771475753198 0.0 0.0
0.0 0.0065792654520717385 -0.005235317230120656 0.00464554242477523 0.0005897748053454216 0.004845364323976573 0.0 0.0
0.0 0.0028022162043418305 -0.00222572547274122 0.0018433548570574638 0.000382370615683757 0.002350759786661565 0.0 0.0
0.0 0.000844078725820646 -0.0005959833019713481 0.0004613264080551534 0.00013465689391619452 0.000777402311948485 0.0 0.0
0.0 0.00010004885414634118 -7.313716272796248e-05 5.566398669929251e-05 1.7473176028669905e-05 0.0001455964319923277 0.0 0.0
0.0 1.1363119483166699e-05 -1.4598122425962677e-06 1.1808540169189728e-06 2.789582256772894e-07 1.2317798438637759e-05 0.0 0.0
0.0 2.406979229354356e-06 1.111397813370072e-06 -9.534413179490247e-07 -1.579564954210427e-07 -3.1819099298871585e-07 0.0 0.0
0.0 -1.211314169690302e-06 8.036455043558376e-07 -6.438324841995395e-07 -1.5981302015630492e-07 -4.4209590202953635e-06 0.0 0.0
0.0 2.114962531762829e-07 -5.157981906795994e-09 7.857701193309694e-09 -2.6997192865107324e-09 4.3724525111489726e-08 0.0 0.0
0.0 0.0 0.0 0.0 0.0 0.0 0.0 0.0
0.0 0.0 0.0 0.0 0.0 0.0 0.0 0.0
0.0 -1.3075163678298636e-07 -2.968376883690807e-09 1.9471215008150875e-09 1.0212553828761417e-09 -2.5935044429845048e-08 0.0 0.0
0.0 -8.597261605915041e-07 5.705831406319769e-07 -4.5733734872404483e-07 -1.1324579190793449e-07 2.336114776340646e-06 0.0 0.0
0.0 -2.600297143523812e-06 9.69519342001444e-07 -8.353016812129729e-07 -1.3421766078846168e-07 4.2008232423149755e-07 0.0 0.0
0.0 1.559209218927221e-05 -3.217587426873825e-06 1.8947256278484404e-06 1.322861799025411e-06 -7.4197705867187205e-06 0.0 0.0
0.0 0.000300563915242508 -0.00020965238632972445 0.00015758908168499088 5.206330464473333e-05 -0.00023163231478242607 0.0 0.0
0.0 0.0015320872709481917 -0.001271133088805165 0.0010028946662806655 0.00026823842252449897 -0.0011033452964164703 0.0 0.0
0.0 0.004566318787486279 -0.003819788369870183 0.0032655700376483686 0.0005542183322218142 -0.0029121841135685256 0.0 0.0
0.0 0.010020417147095447 -0.00805769215760986 0.007333433584731186 0.0007242585728786737 -0.005757876153156144 0.0 0.0
0.0 0.016563143653104247 -0.013830840559084323 0.013025072363313366 0.0008057681957709611 -0.009377540425536146 0.0 0.0
0.0 0.025054955784572678 -0.02078703152565676 0.0199198571143005 0.0008671744113562455 -0.01325406493138804 0.0 0.0
0.0 0.03451749758819607 -0.028703779331191753 0.027772912685096195 0.0009308666460955193 -0.017099391139954036 0.0 0.0
0.0 0.044915243876894585 -0.03746942947575865 0.03647191734517089 0.0009975121305877545 -0.020791999132908107 0.0 0.0
0.0 0.05622411365567276 -0.0470366520910134 0.04597688502188501 0.0010597670691283867 -0.02437239884784753 0.0 0.0
0.0 0.06827609301918584 -0.057292392770652546 0.05618600256578871 0.001106390204863846 -0.02807904685035485 0.0 0.0
0.0 0.08106318213094683 -0.06787926532254293 0.06675537603622639 0.0011238892863165474 -0.032451300162800845 0.0 0.0
0.0 0.09286933180466167 -0.07799238334895546 0.07689371439546834 0.0010986689534870245 -0.03801408435914572 0.0 0.0
0.0 0.10316229750585292 -0.08612954845508909 0.0851167910424083 0.001012757412680725 -0.04449249768715578 0.0 0.0
0.0 0.10832913813860665 -0.08974489681739622 0.08891835450741041 0.0008265423099857736 -0.05014919188699988 0.0 0.0
0.0 0.103001970864887 -0.08460948739198608 0.08414545074320956 0.0004640366487765381 -0.051887688641116585 0.0 0.0
0.0 0.09701837880024625 -0.07458057434419998 0.06960861681873172 0.004971957525468137 2.846854696425538e-14 0.0 0.0
0.0 0.10300197086488007 -0.08460948739197025 0.08414545074319374 0.00046403664877651095 0.05188768864117792 0.0 0.0
0.0 0.10832913813858601 -0.08974489681736957 0.08891835450738449 0.0008265423099849312 0.05014919188706485 0.0 0.0
0.0 0.1031622975058058 -0.08612954845504449 0.08511679104236441 0.001012757412679895 0.044492497687190415 0.0 0.0
0.0 0.09286933180458781 -0.07799238334889272 0.07689371439540418 0.001098668953488527 0.038014084359140936 0.0 0.0
0.0 0.08106318213087617 -0.06787926532248278 0.06675537603616649 0.0011238892863162694 0.03245130016278166 0.0 0.0
0.0 0.0682760930191145 -0.05729239277059148 0.056186002565728754 0.0011063902048627694 0.028079046850331205 0.0 0.0
0.0 0.0562241136556009 -0.04703665209095214 0.045976885021824225 0.0010597670691278747 0.024372398847823495 0.0 0.0
0.0 0.044915243876824426 -0.037469429475699395 0.03647191734511167 0.000997512130587691 0.020791999132885364 0.0 0.0
0.0 0.0345174975881299 -0.02870377933113638 0.02777291268504159 0.0009308666460947885 0.01709939113992481 0.0 0.0
0.0 0.02505495578451397 -0.020787031525608467 0.019919857114252516 0.0008671744113559356 0.01325406493135491 0.0 0.0
0.0 0.016563143653057624 -0.01383084055904573 0.013025072363275032 0.0008057681957707065 0.009377540425509003 0.0 0.0
0.0 0.010020417147061124 -0.008057692157582591 0.007333433584705039 0.0007242585728775601 0.005757876153137696 0.0 0.0
0.0 0.004566318787464532 -0.0038197883698529913 0.003265570037632469 0.0005542183322205235 0.0029121841135556943 0.0 0.0
0.0 0.0015320872709375234 -0.001271133088797246 0.0010028946662741125 0.00026823842252313255 0.0011033452964098911 0.0 0.0
0.0 0.0003005639152386459 -0.00020965238632753618 0.0001575890816833237 5.206330464421269e-05 0.00023163231477995282 0.0 0.0
0.0 1.5592092188459448e-05 -3.2175874271713045e-06 1.894725628106085e-06 1.3228617990652125e-06 7.41977058733173e-06 0.0 0.0
0.0 -2.6002971435554713e-06 9.695193417219856e-07 -8.353016809935896e-07 -1.3421766072837785e-07 -4.200823232473254e-07 0.0 0.0
0.0 -8.597261608479879e-07 5.705831406632349e-07 -4.573373487508613e-07 -1.132457919123739e-07 -2.3361147764647464e-06 0.0 0.0
0.0 -1.3075163665647826e-07 -2.9683768817357188e-09 1.947121500571764e-09 1.0212553811632798e-09 2.5935044404943458e-08 0.0 0.0
0.0 0.0 0.0 0.0 0.0 0.0 0.0 0.0
0.0 0.0 0.0 0.0 0.0 0.0 0.0 0.0
0.0 0.0 0.0 0.0 0.0 0.0 0.0 0.0
0.0 -5.80202431476397e-07 1.804785042270091e-07 -1.4242300294447507e-07 -3.80555012825354e-08 5.886834724949046e-07 0.0 0.0
0.0 -5.066490488083712e-06 3.888555785440876e-06 -3.1661291920732163e-06 -7.224265933676329e-07 7.520306659856035e-06 0.0 0.0
0.0 2.2637613414894014e-05 -2.6694517388547497e-05 1.8732150366825507e-05 7.962367021721884e-06 -2.7424531183083223e-05 0.0 0.0
0.0 0.0006023706114049235 -0.00047400133534104794 0.00035765754983456844 0.00011634378550647931 -0.00033188372839903417 0.0 0.0
0.0 0.002492253639881785 -0.002165023944745615 0.0017538161367292018 0.000411207808016413 -0.0012939207283585142 0.0 0.0
0.0 0.006847588232961766 -0.005654157926915206 0.004969771993260423 0.0006843859336547882 -0.0032188974413633166 0.0 0.0
0.0 0.012930280836529962 -0.011116113878552 0.010296271976944861 0.0008198419016071347 -0.006209372984657184 0.0 0.0
0.0 0.021622913100355377 -0.018311351352645684 0.01741816191933674 0.0008931894333089597 -0.009827790970409743 0.0 0.0
0.0 0.03187766045661317 -0.026964873764796206 0.026007678591537162 0.0009571951732590097 -0.013678556416148466 0.0 0.0
0.0 0.043531003349024454 -0.036836491380799544 0.03581041189500745 0.001026079485792124 -0.017492823281852095 0.0 0.0
0.0 0.056412185877616906 -0.04778323044064393 0.046684206563069076 0.001099023877574695 -0.02116660692002048 0.0 0.0
0.0 0.07051850363892107 -0.05974139993218921 0.05857116988988708 0.001170230042302237 -0.024730379231210898 0.0 0.0
0.0 0.08552605128770978 -0.07261822254067696 0.07138917077648355 0.0012290517641933714 -0.028378176230294604 0.0 0.0
0.0 0.10110785719851359 -0.0860343419745453 0.08478272956711955 0.0012516124074257139 -0.03260618669995783 0.0 0.0
0.0 0.1166932505138692 -0.09896821046692725 0.0977577921794778 0.0012104182874494145 -0.03804065920919712 0.0 0.0
0.0 0.12924002392892606 -0.10941675751203664 0.1083357295774297 0.0010810279346067252 -0.04463476604746176 0.0 0.0
0.0 0.13515875696134672 -0.11407934345739516 0.11323859656747105 0.0008407468899240721 -0.050914763923419856 0.0 0.0
0.0 0.12932288459535257 -0.10820149931021536 0.10773407138022524 0.00046742792999014655 -0.05485804948764693 0.0 0.0
0.0 0.12121528851015115 -0.09676329969491781 0.09125567283606507 0.0055076268588527474 2.8569160925862036e-14 0.0 0.0
0.0 0.1293228845953354 -0.10820149931019249 0.10773407138020094 0.0004674279299916301 0.05485804948770982 0.0 0.0
0.0 0.13515875696131519 -0.11407934345736073 0.11323859656743691 0.0008407468899239121 0.05091476392348551 0.0 0.0
0.0 0.12924002392886796 -0.10941675751198374 0.10833572957737693 0.001081027934606721 0.0446347660474951 0.0 0.0
0.0 0.1166932505137887 -0.09896821046685737 0.0977577921794073 0.0012104182874499798 0.03804065920919795 0.0 0.0
0.0 0.10110785719842949 -0.08603434197447299 0.08478272956704747 0.0012516124074254177 0.03260618669994336 0.0 0.0
0.0 0.08552605128762411 -0.07261822254060354 0.07138917077641092 0.0012290517641925802 0.028378176230274634 0.0 0.0
0.0 0.07051850363883434 -0.059741399932114365 0.05857116988981298 0.001170230042301433 0.024730379231187125 0.0 0.0
0.0 0.05641218587753323 -0.047783230440572276 0.046684206562997675 0.0010990238775745657 0.02116660691999819 0.0 0.0
0.0 0.04353100334894489 -0.03683649138073238 0.03581041189494065 0.0010260794857916637 0.017492823281823132 0.0 0.0
0.0 0.03187766045654039 -0.02696487376473552 0.026007678591476575 0.0009571951732589355 0.013678556416114662 0.0 0.0
0.0 0.02162291310029812 -0.018311351352597732 0.017418161919288983 0.0008931894333087335 0.009827790970382536 0.0 0.0
0.0 0.01293028083648969 -0.011116113878517048 0.010296271976910765 0.0008198419016062871 0.006209372984637898 0.0 0.0
0.0 0.006847588232934393 -0.005654157926893126 0.0049697719932395214 0.0006843859336536055 0.0032188974413507546 0.0 0.0
0.0 0.002492253639866267 -0.002165023944733102 0.0017538161367183457 0.00041120780801475506 0.0012939207283501248 0.0 0.0
0.0 0.000602370611398851 -0.00047400133533684205 0.0003576575498313993 0.00011634378550544295 0.00033188372839623384 0.0 0.0
0.0 2.263761341483197e-05 -2.669451738917861e-05 1.8732150367346297e-05 7.962367021832291e-06 2.7424531184220477e-05 0.0 0.0
0.0 -5.066490488520526e-06 3.888555785259057e-06 -3.1661291919337295e-06 -7.224265933253231e-07 -7.520306659372471e-06 0.0 0.0
0.0 -5.802024312978167e-07 1.804785042557446e-07 -1.4242300296731301e-07 -3.805550128843021e-08 -5.886834725866905e-07 0.0 0.0
0.0 0.0 0.0 0.0 0.0 0.0 0.0 0.0
0.0 0.0 0.0 0.0 0.0 0.0 0.0 0.0
0.0 0.0 0.0 0.0 0.0 0.0 0.0 0.0
0.0 0.0 0.0 0.0 0.0 0.0 0.0 0.0
0.0 -1.9259891853480113e-07 -1.2438204119640457e-08 9.900711751953166e-09 2.537492367688598e-09 -3.208399983975565e-08 0.0 0.0
0.0 -6.884057068261685e-06 3.998365281239453e-06 -3.309699373685307e-06 -6.88665907554175e-07 6.889059979604533e-06 0.0 0.0
0.0 9.288014463728557e-05 -7.029571678759166e-05 4.917319013016974e-05 2.112252665742191e-05 -3.478858606004104e-05 0.0 0.0
0.0 0.0009552317497559994 -0.0008937695676777106 0.0006831257808692709 0.00021064378680844074 -0.00040795159744199836 0.0 0.0
0.0 0.0038540406043144834 -0.0032471361669134686 0.0027055054622864448 0.0005416307046270238 -0.0013360009374645302 0.0 0.0
0.0 0.008775941104097625 -0.007695852824257338 0.006915281128901985 0.000780571695355355 -0.003267522633768037 0.0 0.0
0.0 0.01651990683616098 -0.014288915420587682 0.01339435402931438 0.0008945613912732882 -0.006063269353360432 0.0 0.0
0.0 0.02662386197762383 -0.022880971564789233 0.02191266888989273 0.0009683026748965242 -0.009408984630565697 0.0 0.0
0.0 0.038771220332211725 -0.033213421975981657 0.03217547484594299 0.0010379471300386545 -0.01298934367201604 0.0 0.0
0.0 0.05264532594595509 -0.04503235763657772 0.043920231719465484 0.0011121259171121853 -0.016534786934049653 0.0 0.0
0.0 0.06808776998533153 -0.058160914839362025 0.056970773297778374 0.0011901415415836035 -0.01996730099299407 0.0 0.0
0.0 0.08458686833511991 -0.07250100015540689 0.07123242744290373 0.0012685727125031634 -0.02332412768307258 0.0 0.0
0.0 0.10264217330038757 -0.08793313022885005 0.08659628086106747 0.001336849367782673 -0.026676855403442987 0.0 0.0
0.0 0.1214950887778815 -0.10406520190761301 0.10269796914456822 0.0013672327630447545 -0.030296202166362994 0.0 0.0
0.0 0.1396443135433928 -0.11972328742203688 0.11840846138905288 0.0013148260329839789 -0.03484287305637297 0.0 0.0
0.0 0.15472301417685122 -0.1324367501982558 0.13129254262121842 0.0011442075770374148 -0.04090993978348881 0.0 0.0
0.0 0.16212048590437098 -0.1382678560456503 0.13741354951073187 0.0008543065349183324 -0.04821030905689503 0.0 0.0
0.0 0.15586155100896837 -0.13199675524781748 0.13153603392245358 0.00046072132536386105 -0.05618038648318666 0.0 0.0
0.0 0.14613308134880962 -0.1194455269304167 0.11347435621724858 0.005971170713168174 2.790476183456292e-14 0.0 0.0
0.0 0.15586155100894913 -0.1319967552477933 0.13153603392242952 0.0004607213253636451 0.05618038648324976 0.0 0.0
0.0 0.1621204859043236 -0.1382678560456041 0.1374135495106855 0.0008543065349183821 0.04821030905695496 0.0 0.0
0.0 0.15472301417677922 -0.13243675019819162 0.131292542621155 0.0011442075770367157 0.040909939783520075 0.0 0.0
0.0 0.139644313543311 -0.11972328742196532 0.11840846138898209 0.0013148260329831146 0.03484287305637618 0.0 0.0
0.0 0.12149508877778299 -0.10406520190752701 0.10269796914448386 0.0013672327630431201 0.030296202166350508 0.0 0.0
0.0 0.10264217330028517 -0.08793313022876227 0.08659628086097947 0.0013368493677828278 0.02667685540342752 0.0 0.0
0.0 0.08458686833502284 -0.07250100015532251 0.07123242744282116 0.0012685727125012498 0.02332412768305378 0.0 0.0
0.0 0.06808776998523071 -0.05816091483927527 0.05697077329769135 0.0011901415415838544 0.01996730099297236 0.0 0.0
0.0 0.05264532594586524 -0.045032357636500916 0.043920231719389316 0.0011121259171116415 0.0165347869340227 0.0 0.0
0.0 0.03877122033212771 -0.03321342197591013 0.03217547484587171 0.0010379471300384607 0.01298934367198514 0.0 0.0
0.0 0.026623861977556215 -0.02288097156473146 0.02191266888983508 0.0009683026748963619 0.009408984630540306 0.0 0.0
0.0 0.016519906836111736 -0.014288915420545176 0.013394354029272562 0.0008945613912726173 0.0060632693533423715 0.0 0.0
0.0 0.008775941104066775 -0.007695852824230857 0.006915281128876417 0.0007805716953544351 0.0032675226337561757 0.0 0.0
0.0 0.0038540406042953403 -0.0032471361668980777 0.0027055054622726147 0.0005416307046254639 0.0013360009374569987 0.0 0.0
0.0 0.000955231749748768 -0.0008937695676720443 0.0006831257808648247 0.0002106437868072192 0.00040795159743966505 0.0 0.0
0.0 9.288014463575647e-05 -7.0295716787238e-05 4.917319012992213e-05 2.112252665731588e-05 3.4788586059979944e-05 0.0 0.0
0.0 -6.884057068228701e-06 3.998365281004272e-06 -3.309699373503e-06 -6.886659075012713e-07 -6.889059979280233e-06 0.0 0.0
0.0 -1.9259891850927365e-07 -1.243820411784055e-08 9.900711750511593e-09 2.5374923673294314e-09 3.208399983580417e-08 0.0 0.0
0.0 0.0 0.0 0.0 0.0 0.0 0.0 0.0
0.0 0.0 0.0 0.0 0.0 0.0 0.0 0.0
0.0 0.0 0.0 0.0 0.0 0.0 0.0 0.0
0.0 0.0 0.0 0.0 0.0 0.0 0.0 0.0
0.0 -7.18462332870173e-08 -5.322214849680892e-09 4.219826328331633e-09 1.102388521349622e-09 -1.0684932772376604e-08 0.0 0.0
0.0 -8.13693180162336e-06 5.800040642994015e-06 -4.882693393652702e-06 -9.173472493413025e-07 7.685660805609742e-06 0.0 0.0
0.0 0.00020882529566306136 -0.0001756352631169481 0.0001246136310167405 5.102163210020777e-05 -4.4899669293042685e-05 0.0 0.0
0.0 0.001613095044994251 -0.0014287043164679515 0.0011131801239725467 0.0003155241924954044 -0.00036103197058684884 0.0 0.0
0.0 0.005113560823557068 -0.0045157940476043676 0.0038634243988262392 0.0006523696487781257 -0.0012376153140077927 0.0 0.0
0.0 0.011118674493594856 -0.009843232972811833 0.008992030639692016 0.0008512023331198161 -0.0029353153899487265 0.0 0.0
0.0 0.02006021821712143 -0.017525915467669264 0.016568194051398137 0.0009577214162711184 -0.005286872384513678 0.0 0.0
0.0 0.031711271107331074 -0.02748707385253709 0.0264507529224638 0.0010363209300732815 -0.008138903037018927 0.0 0.0
0.0 0.04567283852498696 -0.03948145832282374 0.03836936438995016 0.0011120939328735377 -0.011201236053382517 0.0 0.0
0.0 0.061760886717897465 -0.05324260187583106 0.052050620761242554 0.0011919811145885495 -0.014238939057833515 0.0 0.0
0.0 0.07942131882165995 -0.0685597943662298 0.06728494123635224 0.0012748531298775578 -0.01720035708420726 0.0 0.0
0.0 0.09904180371206299 -0.08526319461197122 0.08390781442229825 0.001355380189672928 -0.02013568556211515 0.0 0.0
0.0 0.11969389059201882 -0.10316648786754364 0.10173887621898536 0.0014276116485582332 -0.023018708983326766 0.0 0.0
0.0 0.14112152232027766 -0.12182635724308603 0.12035706271389056 0.0014692945291954152 -0.0257674989726275 0.0 0.0
0.0 0.16230324435355345 -0.1400237978705032 0.13859878265663167 0.001425015213871588 -0.028750368966665118 0.0 0.0
0.0 0.17992587054804898 -0.15506682452153986 0.15383990531539904 0.0012269192061406817 -0.033449697859192086 0.0 0.0
0.0 0.18904687055955802 -0.1624818121179531 0.16160396073780298 0.0008778513801499369 -0.04199419613981119 0.0 0.0
0.0 0.18322921764570102 -0.15640177654153042 0.15597052424991248 0.0004312522916181177 -0.05559723459731542 0.0 0.0
0.0 0.17281563357629295 -0.14307387323530582 0.13671871072435565 0.006355162510950046 2.4261842535011624e-14 0.0 0.0
0.0 0.18322921764568073 -0.15640177654150658 0.15597052424989027 0.00043125229161635414 0.05559723459737005 0.0 0.0
0.0 0.18904687055949787 -0.16248181211789808 0.1616039607377476 0.0008778513801504824 0.041994196139860454 0.0 0.0
0.0 0.17992587054796344 -0.15506682452146522 0.15383990531532418 0.0012269192061409883 0.03344969785921735 0.0 0.0
0.0 0.1623032443534532 -0.1400237978704164 0.13859878265654493 0.0014250152138712683 0.02875036896666702 0.0 0.0
0.0 0.14112152232016112 -0.12182635724298499 0.12035706271379029 0.0014692945291947083 0.025767498972618524 0.0 0.0
0.0 0.11969389059190146 -0.10316648786744229 0.10173887621888446 0.0014276116485576447 0.023018708983313985 0.0 0.0
0.0 0.09904180371195033 -0.08526319461187337 0.0839078144222015 0.0013553801896719162 0.0201356855621002 0.0 0.0
0.0 0.07942131882154398 -0.06855979436613024 0.0672849412362525 0.0012748531298779388 0.017200357084188947 0.0 0.0
0.0 0.061760886717793714 -0.05324260187574129 0.05205062076115345 0.0011919811145878288 0.014238939057810455 0.0 0.0
0.0 0.045672838524892435 -0.039481458322742594 0.03836936438986907 0.0011120939328735293 0.011201236053356295 0.0 0.0
0.0 0.031711271107254115 -0.02748707385247075 0.026450752922397926 0.0010363209300728096 0.008138903036997413 0.0 0.0
0.0 0.020060218217067056 -0.017525915467622062 0.01656819405135135 0.000957721416270713 0.005286872384498688 0.0 0.0
0.0 0.011118674493556179 -0.00984323297277789 0.008992030639658711 0.0008512023331191782 0.0029353153899370453 0.0 0.0
0.0 0.005113560823534298 -0.004515794047584939 0.0038634243988083282 0.0006523696487766045 0.0012376153140012092 0.0 0.0
0.0 0.0016130950449841606 -0.001428704316459764 0.0011131801239658522 0.0003155241924939131 0.0003610319705844181 0.0 0.0
0.0 0.00020882529565984323 -0.00017563526311476535 0.0001246136310151436 5.1021632099621876e-05 4.4899669292397855e-05 0.0 0.0
0.0 -8.136931801885986e-06 5.800040642478519e-06 -4.882693393257317e-06 -9.173472492211945e-07 -7.685660805125876e-06 0.0 0.0
0.0 -7.184623319621463e-08 -5.322214842869262e-09 4.219826322927047e-09 1.1023885199412321e-09 1.0684932758656047e-08 0.0 0.0
0.0 0.0 0.0 0.0 0.0 0.0 0.0 0.0
0.0 0.0 0.0 0.0 0.0 0.0 0.0 0.0
0.0 0.0 0.0 0.0 0.0 0.0 0.0 0.0
0.0 0.0 0.0 0.0 0.0 0.0 0.0 0.0
0.0 0.0 0.0 0.0 0.0 0.0 0.0 0.0
0.0 -8.73222161550645e-06 7.554989566399914e-06 -6.790051051542479e-06 -7.649385148574641e-07 8.735231308186416e-06 0.0 0.0
0.0 0.0003732449410332996 -0.000365650013482637 0.00026262437193838876 0.00010302564154424852 -1.88814187005908e-05 0.0 0.0
0.0 0.0024316932077571916 -0.0021146853936141238 0.0016890224487126951 0.0004256629449014275 -0.00022003763614651718 0.0 0.0
0.0 0.006445069689858782 -0.005906953073699824 0.005170600581456674 0.0007363524922431456 -0.000936125893540408 0.0 0.0
0.0 0.01356974227619277 -0.012048671262035328 0.011139751041925406 0.0009089202201099421 -0.0021643894357164283 0.0 0.0
0.0 0.023646894636769698 -0.02078469536240643 0.01977034664813334 0.001014348714273061 -0.003900879924803388 0.0 0.0
0.0 0.03679356717761222 -0.032083853085592966 0.03098475871610889 0.001099094369484086 -0.006023149272146792 0.0 0.0
0.0 0.052653105701832834 -0.045721329936784794 0.04453994371225572 0.0011813862245290516 -0.008319328053494566 0.0 0.0
0.0 0.07078424417437407 -0.06141906099137182 0.06015241941607812 0.0012666415752936172 -0.0106074174903281 0.0 0.0
0.0 0.09124209070229654 -0.07892229706795408 0.07756905094562529 0.0013532461223289233 -0.01286285898193671 0.0 0.0
0.0 0.11304686751216778 -0.09799025909057774 0.0965549041085913 0.0014353549819863553 -0.015149363930820768 0.0 0.0
0.0 0.13654292654039638 -0.11828424018239268 0.1167801894440521 0.0015040507383405398 -0.017375411003234014 0.0 0.0
0.0 0.16077168861575594 -0.1392301273246997 0.13768445124711792 0.0015456760775817932 -0.01921048427611438 0.0 0.0
0.0 0.18439787634226476 -0.15966257119798322 0.1581320376088714 0.0015305335891118272 -0.020516802721014138 0.0 0.0
0.0 0.2045857431243539 -0.1770840744056098 0.17570923021040796 0.0013748441952017975 -0.02285738345445378 0.0 0.0
0.0 0.21617998293961999 -0.1867809586148979 0.1858357078488023 0.000945250766095557 -0.031223474331607843 0.0 0.0
0.0 0.21178924367173124 -0.18187128058199076 0.18152434420392433 0.00034693637806622703 -0.05199731156866061 0.0 0.0
0.0 0.20145122357796086 -0.16826211768093877 0.16163280321539591 0.006629314465542892 1.909236657660074e-14 0.0 0.0
0.0 0.2117892436717045 -0.18187128058196353 0.18152434420389865 0.0003469363780646559 0.05199731156870507 0.0 0.0
0.0 0.21617998293954754 -0.18678095861483418 0.18583570784873668 0.0009452507660976906 0.03122347433164667 0.0 0.0
0.0 0.2045857431242547 -0.17708407440552415 0.17570923021032253 0.0013748441952014783 0.02285738345447386 0.0 0.0
0.0 0.18439787634214766 -0.1596625711978819 0.15813203760877076 0.001530533589111512 0.020516802721014138 0.0 0.0
0.0 0.16077168861562402 -0.1392301273245859 0.13768445124700346 0.0015456760775824682 0.019210484276108934 0.0 0.0
0.0 0.1365429265402626 -0.1182842401822773 0.1167801894439367 0.0015040507383406666 0.017375411003226388 0.0 0.0
0.0 0.11304686751203301 -0.09799025909046107 0.0965549041084752 0.0014353549819859073 0.015149363930809796 0.0 0.0
0.0 0.09124209070216663 -0.07892229706784194 0.07756905094551284 0.0013532461223289855 0.012862858981924522 0.0 0.0
0.0 0.07078424417425172 -0.061419060991266296 0.060152419415973116 0.0012666415752931447 0.010607417490310744 0.0 0.0
0.0 0.05265310570173105 -0.045721329936696406 0.044539943712167455 0.0011813862245288723 0.008319328053475395 0.0 0.0
0.0 0.03679356717752536 -0.03208385308551706 0.030984758716033754 0.0010990943694832896 0.006023149272129351 0.0 0.0
0.0 0.02364689463670466 -0.020784695362349524 0.01977034664807686 0.0010143487142726746 0.003900879924791497 0.0 0.0
0.0 0.01356974227614723 -0.01204867126199511 0.01113975104188602 0.0009089202201090865 0.002164389435707647 0.0 0.0
0.0 0.006445069689833025 -0.005906953073676697 0.005170600581434933 0.0007363524922417743 0.0009361258935351681 0.0 0.0
0.0 0.0024316932077452025 -0.0021146853936038204 0.0016890224487039788 0.00042566294489983876 0.0002200376361449107 0.0 0.0
0.0 0.0003732449410296031 -0.0003656500134801057 0.0002626243719365253 0.00010302564154357981 1.8881418700425416e-05 0.0 0.0
0.0 -8.732221615482408e-06 7.55498956605579e-06 -6.790051051269907e-06 -7.64938514785922e-07 -8.735231307997206e-06 0.0 0.0
0.0 0.0 0.0 0.0 0.0 0.0 0.0 0.0
0.0 0.0 0.0 0.0 0.0 0.0 0.0 0.0
0.0 0.0 0.0 0.0 0.0 0.0 0.0 0.0
0.0 0.0 0.0 0.0 0.0 0.0 0.0 0.0
0.0 0.0 0.0 0.0 0.0 0.0 0.0 0.0
0.0 0.0 0.0 0.0 0.0 0.0 0.0 0.0
0.0 6.687241143580539e-06 -9.140099113877052e-06 4.090312829535139e-06 5.049786284341929e-06 1.0829975168363775e-05 0.0 0.0
0.0 0.0007285603158746529 -0.0006393388687873706 0.00046753992375639386 0.00017179894503097716 7.826212500087044e-05 0.0 0.0
0.0 0.003260028129437764 -0.0029354772237235372 0.0024073465872354247 0.0005281306364881114 3.193416975016032e-05 0.0 0.0
0.0 0.008114139632821584 -0.0073582355390649345 0.0065593992857363795 0.0007988362533285576 -0.00034666177270196226 0.0 0.0
0.0 0.01605156023509879 -0.014277764647586596 0.013320400832172155 0.0009573638154144234 -0.0009938557367552938 0.0 0.0
0.0 0.027312268426793056 -0.024021629541073744 0.02295579223729534 0.0010658373037784072 -0.0019123719609075948 0.0 0.0
0.0 0.04186379197677148 -0.03662535704301893 0.03546710832606102 0.0011582487169579038 -0.0030648394135136653 0.0 0.0
0.0 0.05953388862079248 -0.05188773034858214 0.05064125172236707 0.0012464786262150944 -0.004336365693024094 0.0 0.0
0.0 0.08007393832561026 -0.06951409623764097 0.06817781805228756 0.0013362781853534633 -0.0056341331151588655 0.0 0.0
0.0 0.10254757250530352 -0.0892062146424213 0.0877792603591781 0.001426954283243089 -0.006964160300013883 0.0 0.0
0.0 0.12729775254871845 -0.11061609272919626 0.10910635250811124 0.001509740221084952 -0.008334560028053405 0.0 0.0
0.0 0.15345738864265973 -0.1332517251159053 0.131680266379983 0.0015714587359223465 -0.009652164485843578 0.0 0.0
0.0 0.18014247144601883 -0.15632654847952132 0.15472607780111747 0.001600470678403674 -0.010635904911984326 0.0 0.0
0.0 0.20591617042168395 -0.17859944907798492 0.17700564210442257 0.0015938069735626503 -0.010881977276040471 0.0 0.0
0.0 0.2283949544596527 -0.19803549186556027 0.19649433733043167 0.0015411545351285954 -0.010933336683002028 0.0 0.0
0.0 0.24314200112768145 -0.21073644211656373 0.20947696254387 0.0012594795726935215 -0.015770936265843923 0.0 0.0
0.0 0.2420930375568782 -0.208983539447693 0.20873054246339043 0.0002529969843022837 -0.039511242123492225 0.0 0.0
0.0 0.23341039550524822 -0.1962835604888055 0.18982119691150529 0.006462363577300032 1.0358033875057515e-14 0.0 0.0
0.0 0.24209303755684197 -0.2089835394476593 0.2087305424633576 0.0002529969843015858 0.03951124212351834 0.0 0.0
0.0 0.2431420011275991 -0.21073644211649212 0.20947696254379847 0.0012594795726936702 0.015770936265865197 0.0 0.0
0.0 0.2283949544595385 -0.19803549186546163 0.19649433733033314 0.0015411545351284794 0.010933336683012447 0.0 0.0
0.0 0.20591617042155605 -0.17859944907787417 0.17700564210431263 0.0015938069735614282 0.010881977276038513 0.0 0.0
0.0 0.18014247144587214 -0.15632654847939426 0.15472607780099004 0.0016004706784039787 0.010635904911979997 0.0 0.0
0.0 0.1534573886425151 -0.13325172511577996 0.13168026637985836 0.0015714587359217792 0.009652164485839885 0.0 0.0
0.0 0.1272977525485696 -0.11061609272906758 0.10910635250798278 0.0015097402210846168 0.008334560028047663 0.0 0.0
0.0 0.10254757250515804 -0.08920621464229564 0.08777926035905216 0.0014269542832435337 0.006964160300007105 0.0 0.0
0.0 0.08007393832547452 -0.06951409623752379 0.06817781805217038 0.0013362781853534602 0.005634133115149285 0.0 0.0
0.0 0.05953388862068032 -0.05188773034848497 0.05064125172227048 0.0012464786262145226 0.004336365693012666 0.0 0.0
0.0 0.04186379197667804 -0.036625357042937214 0.035467108325980164 0.001158248716957065 0.0030648394135036213 0.0 0.0
0.0 0.02731226842672061 -0.024021629541010073 0.02295579223723217 0.0010658373037779046 0.0019123719609014374 0.0 0.0
0.0 0.016051560235049365 -0.014277764647542783 0.013320400832129119 0.0009573638154136549 0.000993855736750687 0.0 0.0
0.0 0.008114139632792339 -0.007358235539038508 0.006559399285711103 0.0007988362533273977 0.00034666177269927984 0.0 0.0
0.0 0.0032600281294227693 -0.002935477223710408 0.0024073465872237946 0.0005281306364866128 -3.193416975086863e-05 0.0 0.0
0.0 0.0007285603158684921 -0.0006393388687825275 0.0004675399237526631 0.00017179894502986382 -7.826212500066693e-05 0.0 0.0
0.0 6.687241143284388e-06 -9.14009911404776e-06 4.09031282970711e-06 5.049786284340758e-06 -1.0829975168170566e-05 0.0 0.0
0.0 0.0 0.0 0.0 0.0 0.0 0.0 0.0
0.0 0.0 0.0 0.0 0.0 0.0 0.0 0.0
0.0 0.0 0.0 0.0 0.0 0.0 0.0 0.0
0.0 0.0 0.0 0.0 0.0 0.0 0.0 0.0
0.0 0.0 0.0 0.0 0.0 0.0 0.0 0.0
0.0 0.0 0.0 0.0 0.0 0.0 0.0 0.0
0.0 6.45086724952074e-05 -6.31597073382628e-05 4.140683619909821e-05 2.1752871139164607e-05 2.4085496395753547e-05 0.0 0.0
0.0 0.0011408121228148366 -0.0009555612140120563 0.0006937104075703625 0.00026185080644169337 0.0002224128565848342 0.0 0.0
0.0 0.004069344037750847 -0.0036690607822640877 0.002975439952296703 0.0006936208299673837 0.00047214915473964297 0.0 0.0
0.0 0.009421560995209027 -0.008589167214893561 0.007548884043535658 0.0010402831713579178 0.0006129432067102985 0.0 0.0
0.0 0.01798935936548926 -0.01612212356827279 0.014807416213084068 0.0013147073551887257 0.0006663143754128923 0.0 0.0
0.0 0.03002649722871297 -0.026670629481160543 0.02508765536964077 0.0015829741115197605 0.0006167970848593323 0.0 0.0
0.0 0.04571471486964512 -0.04033309538484043 0.03844627907763854 0.0018868163072018056 0.00041272999668095665 0.0 0.0
0.0 0.06484291705203536 -0.05693681321672342 0.05469283499643417 0.002243978220289281 9.066014523465091e-05 0.0 0.0
0.0 0.08672176495780984 -0.07617210387127057 0.07351627430859078 0.002655829562679695 -0.00033073856050295277 0.0 0.0
0.0 0.11128985706149222 -0.09767253133864176 0.094565964726577 0.003106566612064714 -0.0008699097951580803 0.0 0.0
0.0 0.13800249601701092 -0.12101246250759068 0.11744080235057142 0.0035716601570192855 -0.0014951564184534777 0.0 0.0
0.0 0.16616788062790505 -0.14558115889775966 0.14156705648379408 0.004014102413965482 -0.00219283135727112 0.0 0.0
0.0 0.1947137345358087 -0.17040080423389523 0.16601573215389295 0.004385072080002208 -0.0028095651183980518 0.0 0.0
0.0 0.22193510774905023 -0.19401799548478946 0.18938573726282693 0.004632258221962272 -0.0030120763656450826 0.0 0.0
0.0 0.24556788047543399 -0.21451965854430455 0.2097718223283239 0.004747836215980423 -0.0027202957966384125 0.0 0.0
0.0 0.26243131605185965 -0.22939469212318297 0.2244804911548156 0.004914200968367323 -0.0056694744847288515 0.0 0.0
0.0 0.2659992169132483 -0.23301932552935775 0.22785324307059865 0.005166082458759252 -0.030653260296059706 0.0 0.0
0.0 0.2621745444893132 -0.22383977118349907 0.21138849462279707 0.012451276560701476 5.093148125467906e-15 0.0 0.0
0.0 0.26599921691320527 -0.23301932552931998 0.2278532430705612 0.005166082458758573 0.030653260296069743 0.0 0.0
0.0 0.26243131605177317 -0.22939469212310648 0.22448049115474286 0.004914200968363345 0.005669474484734129 0.0 0.0
0.0 0.2455678804753015 -0.21451965854419008 0.20977182232821023 0.0047478362159800915 0.002720295796640189 0.0 0.0
0.0 0.2219351077489115 -0.19401799548466736 0.1893857372627088 0.004632258221958459 0.0030120763656434207 0.0 0.0
0.0 0.19471373453564433 -0.17040080423375226 0.1660157321537516 0.004385072080000048 0.0028095651183970595 0.0 0.0
0.0 0.16616788062775714 -0.14558115889762963 0.14156705648366819 0.004014102413961341 0.0021928313572688943 0.0 0.0
0.0 0.13800249601685113 -0.12101246250745117 0.11744080235043433 0.0035716601570168266 0.0014951564184475415 0.0 0.0
0.0 0.11128985706133657 -0.09767253133850624 0.09456596472644332 0.003106566612062839 0.0008699097951545554 0.0 0.0
0.0 0.08672176495766468 -0.07617210387114451 0.0735162743084663 0.0026558295626781087 0.00033073856049856826 0.0 0.0
0.0 0.06484291705191278 -0.056936813216616304 0.05469283499632907 0.0022439782202872426 -9.066014523842827e-05 0.0 0.0
0.0 0.04571471486954908 -0.04033309538475644 0.03844627907755678 0.0018868163071996131 -0.0004127299966833588 0.0 0.0
0.0 0.03002649722863667 -0.026670629481093548 0.0250876553695753 0.0015829741115182408 -0.0006167970848611174 0.0 0.0
0.0 0.017989359365435647 -0.01612212356822503 0.014807416213037723 0.0013147073551873028 -0.0006663143754129697 0.0 0.0
0.0 0.009421560995176832 -0.00858916721486425 0.007548884043508043 0.0010402831713561943 -0.0006129432067089212 0.0 0.0
0.0 0.004069344037734455 -0.003669060782248859 0.0029754399522832374 0.0006936208299656236 -0.00047214915473831314 0.0 0.0
0.0 0.0011408121228065843 -0.0009555612140051698 0.0006937104075651083 0.00026185080644006354 -0.0002224128565837815 0.0 0.0
0.0 6.450867249459064e-05 -6.31597073378448e-05 4.140683619886871e-05 2.1752871138976084e-05 -2.4085496395438996e-05 0.0 0.0
0.0 0.0 0.0 0.0 0.0 0.0 0.0 0.0
0.0 0.0 0.0 0.0 0.0 0.0 0.0 0.0
0.0 0.0 0.0 0.0 0.0 0.0 0.0 0.0
SCALARS Wm float 4
LOOKUP_TABLE default
14.651012519647468 2.102361240827176 6.345686341395172 6.202964937425106
7.751496774046661 3.638640043440678 1.8834111939236968 2.229445536682288
0.9045781873125178 0.7911909815242217 0.025862021078894293 0.0875251847094013
0.640031843921223 0.5702525815451832 0.0197833986053524 0.04999586377068687
1.4582971418525237 0.9109065915969669 0.2027275547656115 0.34466299548994417
3.396979251418115 1.4031966455610874 0.792661157125893 1.2011214487311341
7.274908062449326 2.1027027645458896 2.3534864639480757 2.8187188339553577
13.69808188902644 3.0498479396380778 5.264876286183172 5.383357663205189
23.31538203632259 4.318013534199431 9.998378031584458 8.998990470538699
36.53306486299492 5.921401052053483 16.91696788683208 13.694695924109372
53.44900187777903 7.838507011011776 26.198723878910172 19.411770987857096
73.81216756829798 10.030015044489945 37.736485148572434 26.045667375235602
97.53352498800493 12.441395776212891 51.614181237590415 33.47794797420165
124.25027385957901 15.005647165100756 67.66040149852716 41.584225195951134
153.32113442551957 17.51295090196268 85.61453935636604 50.19364416719078
183.69225856010235 19.64293119774811 104.9918073853686 59.05751997698569
213.80357555629053 21.060416926635803 124.89803768186563 67.84512094778918
241.78903312231944 21.566216744844045 144.144415544327 76.07840083314824
265.806272054036 21.330973491872612 161.25759317669815 83.21770538546542
282.63701242301266 19.81398766201775 174.22052664476672 88.60249811622796
287.8284895233105 16.845648426266784 179.97274814309884 91.01009295394498
282.637012422936 19.813987661975304 174.22052664474165 88.60249811621907
265.8062720539103 21.330973491826587 161.25759317664182 83.21770538544172
241.78903312222906 21.56621674488738 144.14441554423325 76.07840083310818
213.80357555612528 21.06041692660542 124.8980376817716 67.84512094774827
183.6922585599623 19.64293119775303 104.99180738526873 59.057519976940675
153.321134425399 17.51295090199181 85.61453935626449 50.193644167142786
124.25027385942728 15.00564716508409 67.66040149843661 41.5842251959066
97.53352498786127 12.441395776195707 51.614181237507154 33.47794797415844
73.81216756817554 10.030015044480841 37.73648514849941 26.04566737519532
53.44900187767433 7.838507010998547 26.19872387885273 19.411770987823044
36.533064862910074 5.921401052038758 16.91696788678955 13.694695924081762
23.31538203626444 4.318013534191408 9.998378031555372 8.998990470517672
13.698081888985595 3.0498479396277363 5.264876286166526 5.383357663191333
7.274908062425839 2.1027027645421303 2.3534864639381463 2.81871883394556
3.396979251405919 1.4031966455573717 0.792661157122364 1.2011214487261819
1.458297141848307 0.9109065915956449 0.20272755476441232 0.3446629954882505
0.6400318439204664 0.5702525815446963 0.019783398605254562 0.049995863770515875
0.9045781873109542 0.7911909815228888 0.025862021078814048 0.08752518470925023
7.751496774042069 3.6386400434429387 1.8834111939202955 2.2294455366788335
14.65101251961534 2.102361240809878 6.345686341386862 6.202964937418609
17.746094628826807 7.605638881054428 4.991317738804075 5.149138008968308
3.3159376091946537 0.7304105142128007 1.11847849561038 1.467048599371471
0.31081823602357456 0.3698199056224576 -0.021892031894107756 -0.037109637704775204
0.4861974934635143 0.4579642180816042 0.006209867941187575 0.022023407440722623
1.0871345760935662 0.7333069639685477 0.11665475339229385 0.23717285873272498
2.701105122956132 1.1142248928007663 0.6302659974483075 0.9566142327070578
5.969254250897721 1.587156102418916 1.9499241255231148 2.432174022955691
11.583237438669899 2.208110096536162 4.568401066254842 4.806726275878891
20.024606053110624 2.9759725428681914 8.874015586689985 8.174617923552448
31.55868814633144 3.8669924844070818 15.148181298618677 12.543514363305691
46.24320808153846 4.849240202165169 23.546559093761736 17.84740878561154
64.0389728964404 5.919766524620641 34.13501940738358 23.98418696443618
84.52634341377772 7.069836692462768 46.60022490489086 30.856281816424126
107.75480597703822 8.243037896280933 61.16007247475231 38.351695606004995
133.11973493619146 9.35135399005767 77.43847486250739 46.32990608362651
159.80985347392607 10.23455585941063 95.00950945204309 54.56578816247225
186.60117976010127 10.714233615889375 113.16189254587158 62.725053598340246
211.8816500317485 10.674947056210446 130.80356197064128 70.40314100489675
233.50517710453695 9.978388108028245 146.46686535455976 77.0599236419489
248.79178968207322 8.766976441050703 158.1161500635086 81.90866317751392
254.79628400468184 7.39184159991185 163.3471157606335 84.0573266441365
248.79178968204727 8.766976441059457 158.1161500634842 81.90866317750357
233.50517710447957 9.978388108048478 146.46686535450527 77.05992364192586
211.8816500316223 10.67494705619792 130.80356197056162 70.40314100486293
186.60117975997247 10.714233615881696 113.16189254578751 62.72505359830313
159.80985347378174 10.234555859394382 95.00950945195495 54.56578816243228
133.11973493604847 9.351353990044416 77.4384748624197 46.32990608358439
107.75480597691356 8.243037896282331 61.16007247466834 38.35169560596287
84.52634341365504 7.069836692453825 46.60022490481661 30.85628181638461
64.0389728963322 5.919766524617159 34.135019407316705 23.984186964398315
46.243208081449474 4.849240202162038 23.54655909370838 17.84740878557906
31.558688146261357 3.8669924844012313 15.148181298580075 12.543514363280057
20.02460605306036 2.975972542863835 8.874015586663742 8.17461792353277
11.58323743863546 2.208110096528954 4.568401066240179 4.806726275866328
5.969254250877388 1.587156102415611 1.9499241255147113 2.432174022947063
2.701105122946358 1.1142248927985714 0.630265997444886 0.9566142327029032
1.0871345760903477 0.7333069639676725 0.11665475339137386 0.23717285873130162
0.4861974934630337 0.45796421808122567 0.006209867941137605 0.022023407440670436
0.3108182360235263 0.3698199056221053 -0.02189203189400895 -0.03710963770456986
3.315937609185953 0.7304105142109736 1.1184784956069909 1.46704859936799
17.746094628798573 7.605638881042408 4.991317738795229 5.149138008960927
13.59333323568591 6.124337070593443 3.5395336314517865 3.9294625336406708
2.09600191154635 0.3368116379790553 0.7503724963719612 1.0088177771953362
0.18952644737927585 0.1892788217500223 0.00011118420988426035 0.00013644141936922636
0.35404135527307734 0.35308302896706756 -0.0004006286342952271 0.0013589549403050002
0.8116000996472404 0.6312193376125466 0.05192870934834415 0.1284520526863501
2.104681958607208 0.9949603834228776 0.42481457698438974 0.6849069981999415
4.858881859258183 1.4417328470131947 1.4680229493502281 1.94912606289476
9.757993832760782 2.001512669711146 3.6959184635450133 4.0605626995046205
17.173318573855408 2.6713165760902595 7.411589222010185 7.090412775754959
27.334624396651495 3.430739607962233 12.883063677361339 11.020821111327926
40.223082216985915 4.267487164495309 20.182165447164333 15.773429605326278
55.7059347779685 5.184273698844575 29.266110223482713 21.2555508556412
73.81222091795345 6.188185521924133 40.247102315350006 27.37693308067933
94.03182092868133 7.249855920376533 52.720155359583195 34.061809648721564
116.3156185577771 8.285584347314305 66.84698078118612 41.18305342927664
139.8826597773035 9.183226754686604 82.13512853089192 48.564304491725046
163.70388036725757 9.7774670334892 97.9851693230932 55.94124401067512
186.2534467278089 9.86548367753089 113.48737005993657 62.900592990341565
205.47596834859996 9.305325302143629 127.26257134978113 68.9080716966752
219.0423998915081 8.389646308050278 137.4179487416896 73.23480484176818
224.058450490816 6.58840029912416 142.20193591612247 75.26811427556937
219.04239989148306 8.389646308060659 137.41794874166519 73.23480484175711
205.47596834852496 9.305325302137797 127.26257134973321 68.908071696654
186.25344672770672 9.865483677517265 113.48737005987513 62.90059299031426
163.7038803671565 9.777467033496878 97.98516932301874 55.94124401064081
139.88265977718962 9.183226754681527 82.13512853081804 48.564304491690116
116.31561855766815 8.285584347315327 66.84698078111226 41.18305342924055
94.0318209285657 7.249855920374032 52.72015535950853 34.06180964868309
73.81222091785439 6.188185521925702 40.24710231528495 27.376933080643788
55.70593477787004 5.1842736988373295 29.266110223425073 21.255550855607666
40.22308221690928 4.2674871644961 20.1821654471169 15.773429605296279
27.334624396589515 3.430739607955714 12.883063677328563 11.02082111130523
17.17331857381068 2.67131657608646 7.411589221987121 7.090412775737091
9.75799383273167 2.0015126697066186 3.695918463531996 4.060562699493058
4.858881859240749 1.4417328470100514 1.4680229493434596 1.949126062887236
2.1046819585996355 0.994960383420246 0.4248145769822368 0.6849069981971531
0.8116000996450994 0.6312193376119102 0.051928709347801444 0.1284520526853875
0.35404135527272657 0.35308302896674787 -0.00040062863430385525 0.0013589549402825965
0.1895264473793478 0.1892788217501216 0.00011118420988136231 0.0001364414193448752
2.0960019115397848 0.3368116379780129 0.7503724963693177 1.0088177771924531
13.593333235657216 6.124337070581125 3.5395336314431427 3.9294625336329503
10.370493784954109 4.7892861394705335 2.551496825027173 3.029710820456403
1.428151580458412 0.15185256285718823 0.5190285333018652 0.7572704842993575
0.1316887940536474 0.1316887940536474 0.0 0.0
0.2601244067380499 0.2633045813135545 -0.0006208850013608829 -0.002559289574143743
0.5982565149042927 0.5303864951628 0.016407158094349734 0.05146286164714284
1.569358831284425 0.8621894624849431 0.2491426432976122 0.4580267255018701
3.863278337434196 1.2960858686284773 1.0743248445355962 1.4928676242701187
8.006007220907929 1.7936175305235411 2.8813736464221122 3.3310160439622796
14.4142147551046 2.3726139421100805 6.028668938154771 6.012931874839749
23.203516724982226 3.0147558410665054 10.690886930921152 9.497873952994558
34.304284487582734 3.7184055037613004 16.88781109695799 13.698067886863454
47.68706855011878 4.503436758982106 24.66057939564831 18.523052395488378
63.12722358724107 5.373343127327361 33.85197407169258 23.9019063882211
80.73839217062036 6.3151946640747605 44.65892695212879 29.76427055441685
99.94849205082687 7.29154577382056 56.62567491077364 36.031271366232666
120.36879552403374 8.203639002385426 69.60589874248525 42.559257779163005
141.31734030558678 8.892992840972063 83.30607227770165 49.11827518691314
161.27626751541268 9.139926589999218 96.76415814554034 55.3721827798731
178.40369435243605 8.808679462417972 108.77717619193112 60.81783869808694
190.6520622858144 8.064791475772807 117.77111341233537 64.81615739770629
195.20546667218733 5.920513474179562 122.44373599878364 66.84121719922413
190.65206228578427 8.064791475771598 117.77111341231496 64.8161573976977
178.40369435238972 8.808679462427413 108.77717619189265 60.8178386980696
161.2762675153382 9.139926589998874 96.76415814548925 55.372182779850085
141.31734030549052 8.892992840971932 83.30607227763655 49.11827518688205
120.36879552394205 8.2036390023896 69.60589874242066 42.55925777913181
99.94849205072937 7.291545773822715 56.625674910707836 36.03127136619876
80.73839217052273 6.315194664074077 44.65892695206564 29.76427055438304
63.12722358714718 5.373343127322461 33.85197407163572 23.901906388188962
47.68706855004026 4.503436758982469 24.660579395599232 18.523052395458564
34.30428448751703 3.7184055037617183 16.887811096918032 13.698067886837308
23.20351672493182 3.0147558410640722 10.6908869308932 9.497873952974542
14.414214755064327 2.3726139421051657 6.0286689381351835 6.012931874823982
8.00600722088329 1.7936175305202542 2.881373646411242 3.331016043951789
3.863278337420078 1.2960858686267143 1.0743248445296958 1.4928676242636685
1.5693588312791493 0.8621894624831153 0.24914264329617047 0.45802672549986384
0.5982565149021627 0.530386495161571 0.01640715809404547 0.05146286164654577
0.26012440673773485 0.26330458131319806 -0.0006208850013467074 -0.002559289574116441
0.13168879405343598 0.13168879405343598 0.0 0.0
1.4281515804532472 0.15185256285665688 0.5190285332996784 0.7572704842969117
10.370493784930355 4.789286139460775 2.551496825020175 3.029710820449411
7.801005417762818 3.7172024177049825 1.7846653190437793 2.2991376810140625
1.0472647537470705 0.1259095119621108 0.37735608809240684 0.5439991536925516
0.11960482096498723 0.11960482096498723 0.0 0.0
0.2071202138447987 0.2075290706288733 -4.4144931465337305e-05 -0.00036471185260925987
0.43873311548823424 0.43102830622338795 -0.001030039464015574 0.008734848728861952
1.1407933452483057 0.7382715926130361 0.1300053059682211 0.27251644666704855
2.9500195942003677 1.130983816428994 0.7395735692042235 1.079462208567152
6.354014210625363 1.5881469474653778 2.1394665266959563 2.626400736464028
11.753443067161998 2.0815001481621187 4.723424049224028 4.948518869775846
19.18592712480652 2.618807697338275 8.585843781628485 7.981275645839753
28.580674065806647 3.207176679133177 13.748718580532763 11.624778806140695
39.84415833269607 3.8687868855366676 20.184062666305067 15.791308780854335
52.9372909073378 4.623383115246265 27.89109126745598 20.42281652463556
67.5993022559969 5.462972601205941 36.661895683541545 25.474433971249386
83.92753599155476 6.356554023140607 46.693389233745336 30.87759273466881
101.45689853268343 7.2668090013273225 57.65543583882558 36.53465369253054
119.43017094975103 8.057392990274604 69.09055330080609 42.28222465867031
136.899131460567 8.503141829791875 80.57338884484378 47.82260078593135
152.18407744215386 8.408336048366072 91.04289558030602 52.73284581348183
163.4814694706884 7.8205808837373345 99.18702649177345 56.473862095177644
167.78828453227405 5.313365176285407 103.87493936981582 58.599979986172784
163.4814694706788 7.820580883753945 99.18702649175565 56.47386209516914
152.18407744211365 8.408336048374586 91.0428955802728 52.73284581346633
136.89913146048548 8.50314182977162 80.57338884480248 47.82260078591135
119.4301709496536 8.05739299025235 69.09055330075543 42.28222465864586
101.45689853260386 7.266809001331937 57.65543583876981 36.53465369250205
83.92753599146556 6.356554023135145 46.69338923369059 30.877592734639855
67.59930225590509 5.462972601192847 36.661895683490954 25.474433971221274
52.93729090725748 4.623383115237555 27.8910912674109 20.42281652460902
39.84415833262385 3.8687868855313656 20.184062666264012 15.791308780828473
28.580674065748802 3.207176679128046 13.748718580501432 11.624778806119327
19.18592712476051 2.6188076973345087 8.585843781604325 7.981275645821682
11.753443067131322 2.0815001481621946 4.723424049207439 4.948518869761689
6.354014210604224 1.588146947461158 2.1394665266874697 2.6264007364555964
2.9500195941888987 1.1309838164270345 0.7395735691998117 1.0794622085620535
1.1407933452442824 0.7382715926122332 0.13000530596696594 0.2725164466650836
0.4387331154871403 0.4310283062223694 -0.0010300394640467227 0.00873484872881767
0.2071202138447508 0.20752907062884152 -4.414493146584792e-05 -0.0003647118526249011
0.11960482096477715 0.11960482096477715 0.0 0.0
1.0472647537426385 0.1259095119616044 0.3773560880905384 0.5439991536904969
7.801005417744475 3.717202417698039 1.7846653190382673 2.2991376810081654
5.765267951779261 2.859187331184412 1.2194483207020586 1.68663229989279
0.7454692871164752 0.14691096104089357 0.2232427714245808 0.3753155546510003
0.13565592994724165 0.1356609244895475 -1.966034484966458e-07 -4.797938857358676e-06
0.18451447036653162 0.1844694604119108 5.295474729506387e-06 3.971447989128091e-05
0.3370629734188513 0.3490214435397742 -0.003860758933900277 -0.008097711187022549
0.8008496907451003 0.610700509410443 0.05036402335061533 0.13978515798404167
2.1112324008856316 0.9544880220304972 0.42783798760775665 0.7289063912473766
4.87179847082983 1.3735249757828605 1.539489804520068 1.9587836905269025
9.190620760244062 1.799424689043555 3.4873548667396213 3.9038412044608877
15.330980425420995 2.244630209839467 6.609137633787825 6.477212581793697
23.04164849240508 2.730065225086015 10.752997573015518 9.558585694303547
32.250097153579866 3.285170631048827 15.900235615206945 13.0646909073241
42.91160138210115 3.9328361375652325 22.030802587697583 16.94796265683833
55.02961021067239 4.67650408675269 29.169885353636328 21.183220770283377
68.39466128579686 5.503512078297896 37.16279766388476 25.728351543614192
82.8146806061673 6.374757235844462 45.93040701029861 30.50951636002422
98.12170766370747 7.238425807023278 55.47743580876278 35.40584604792144
113.15191872492638 7.91094541095942 65.00217610731148 40.238797206655484
126.68486895624618 8.0844758307747 73.93472081371736 44.66567231175404
137.27879337398522 7.654764573193998 81.40804955964141 48.215979241149775
141.52221183063662 4.768893606859937 86.25565189246616 50.49766633131062
137.27879337395115 7.654764573178371 81.40804955962886 48.21597924114387
126.6848689562193 8.084475830789149 73.93472081368958 44.66567231174063
113.15191872490138 7.910945410987303 65.00217610727599 40.238797206638054
98.12170766365645 7.238425807031959 55.477435808723065 35.40584604790138
82.81468060609964 6.3747572358463795 45.93040701025342 30.50951635999988
68.39466128572211 5.50351207828796 37.162797663842966 25.728351543591195
55.02961021060256 4.67650408674464 29.169885353597362 21.18322077026054
42.91160138204033 3.9328361375627807 22.030802587661505 16.947962656816053
32.25009715352157 3.28517063104255 15.900235615175623 13.064690907303397
23.04164849236306 2.730065225088477 10.752997572989614 9.558585694284973
15.330980425384157 2.244630209836143 6.609137633769143 6.477212581778866
9.190620760217392 1.7994246890424996 3.4873548667261867 3.9038412044487067
4.871798470813849 1.3735249757803736 1.5394898045133836 1.9587836905200922
2.111232400876933 0.9544880220286283 0.42783798760477265 0.7289063912435313
0.8008496907419519 0.610700509409584 0.05036402334980483 0.13978515798256347
0.3370629734181817 0.349021443538856 -0.003860758933846662 -0.008097711186827729
0.18451447036601815 0.18446946041141848 5.295474727350376e-06 3.971447987227843e-05
0.13565592994717435 0.13566092448947603 -1.9660344829240563e-07 -4.797938853403843e-06
0.7454692871136067 0.1469109610408985 0.22324277142326626 0.37531555464944216
5.7652679517640175 2.859187331177856 1.219448320698047 1.6866322998881158
4.120690337617784 2.1666874312539206 0.7708605468434659 1.1831423595203987
0.5533030960875872 0.18929245369008968 0.1273437689939556 0.23666687340354167
0.16366869955023997 0.16367285943386536 -2.3246729076969345e-07 -3.92741633463526e-06
0.18167496085965823 0.18169920571861556 -2.500676156659234e-06 -2.1744182800655317e-05
0.2787992742748506 0.28902323087438686 -0.002396728447703218 -0.007827228151833222
0.5614958850566685 0.5004841812681231 0.010248957491397797 0.0507627462971477
1.4492541474668004 0.7863476639310474 0.22475905985408184 0.4381474236816711
3.4343165709294747 1.1411607947218678 0.9326529995575727 1.3605027766500353
6.9072212288928725 1.523426588745905 2.486970768385459 2.896823871761509
11.621184421168067 1.8889912861174756 4.741585918709176 4.990607216341415
17.736172600544098 2.2873344815429415 7.942787026854437 7.50605109214672
24.97342640637038 2.748436029487614 11.876762799373985 10.348227577508785
33.32173601773804 3.3005794827686232 16.53819356339538 13.482962971574036
42.80932415736507 3.958295463247951 21.95055800843572 16.900470685681405
53.373269341997286 4.710271675044758 28.077918228864007 20.58507943808854
65.01552142741984 5.539572494134308 34.992292922877496 24.483656010408037
77.14200947111668 6.4327799735025035 42.17938278932558 28.52984670828862
89.86594224597718 7.303599670885834 49.96198583355333 32.600356741537965
102.00207506072394 7.8007326181809615 57.66567361053719 36.53566883200577
111.98765894711684 7.579799430444051 64.44787815841018 39.95998135826263
116.36962540548917 4.301639967393498 69.58343046954529 42.484554968550356
111.98765894708916 7.579799430419882 64.44787815840778 39.95998135826146
102.00207506068605 7.800732618174986 57.665673610516016 36.53566883199511
89.86594224591089 7.303599670863967 49.96198583352414 32.60035674152276
77.14200947104227 6.432779973474048 42.17938278929581 28.529846708272416
65.01552142736338 5.539572494131515 34.992292922843006 24.483656010388867
53.37326934194304 4.710271675039602 28.07791822883312 20.58507943807033
42.80932415731339 3.9582954632442857 21.950558008406063 16.900470685663034
33.32173601768606 3.300579482761088 16.538193563368505 13.482962971556475
24.97342640632905 2.7484360294855863 11.876762799350827 10.348227577492617
17.736172600504457 2.2873344815405425 7.942787026833297 7.506051092130618
11.62118442113983 1.888991286114992 4.741585918695181 4.99060721632965
6.907221228873546 1.523426588746834 2.4869707683749613 2.8968238717517503
3.4343165709176224 1.1411607947190205 0.9326529995533417 1.3605027766452609
1.449254147460418 0.7863476639289613 0.22475905985228875 0.4381474236791679
0.561495885054774 0.5004841812673722 0.01024895749104716 0.05076274629635533
0.2787992742743048 0.2890232308735287 -0.002396728447646794 -0.007827228151577326
0.18167496085923507 0.1816992057182151 -2.5006761597093165e-06 -2.1744182820357073e-05
0.1636686995503123 0.16367285943392948 -2.3246729021856114e-07 -3.927416326937905e-06
0.553303096085332 0.1892924536899163 0.1273437689930419 0.2366668734023734
4.120690337607038 2.1666874312498288 0.7708605468405583 1.1831423595166528
2.9099765472281636 1.6481427971220521 0.4985741644494499 0.7632595856566615
0.4029443233913696 0.22004931061240132 0.05106076827806926 0.13183424450089917
0.1926774576145746 0.1922428718742022 5.019408666233941e-05 0.00038439165371006474
0.1904589444494455 0.19041072306067006 -1.6095381333744501e-06 4.983092690886201e-05
0.2500768640180765 0.25632701237157524 -0.001324567414267941 -0.004925580939230677
0.41296051075270807 0.4087969008394761 -0.003772566663593271 0.007936176576824954
0.9308037178181572 0.6220292249063296 0.08801586168552623 0.22075863122630107
2.245827334139162 0.9101262723686832 0.4970349577093586 0.8386661040611212
4.663373023769706 1.2293302595261766 1.4746411118543181 1.9594016523892115
8.257138946270874 1.545281935003638 3.168314007089704 3.543543004177533
12.702849919374207 1.8699538911455558 5.359188139958343 5.473707888270313
18.032663495835184 2.2520100025693384 8.128845139806868 7.651808353458984
24.18873824413992 2.718151001812433 11.43249461485407 10.038092627473418
31.180617029796746 3.2903232646373213 15.251831714932468 12.638462050226943
39.0963403064253 3.9802021511163073 19.658058474594895 15.458079680714114
47.78441962934401 4.758516342972856 24.5479703333197 18.477932953051468
57.2590889095679 5.618051365346158 30.00130757810169 21.639729966120036
67.31162816783156 6.625705718905597 35.74896317229516 24.936959276630798
77.69887647329352 7.501149432167526 41.86097739238901 28.33674964873697
87.3427479522737 7.606941013252825 48.10158645488069 31.63422048414018
92.1244673752068 3.931282252557463 53.682043766395836 34.51114135625349
87.3427479523043 7.606941013286236 48.10158645487879 31.63422048413929
77.69887647325535 7.501149432144964 41.86097739237877 28.33674964873161
67.31162816781352 6.625705718919262 35.74896317227495 24.93695927661935
57.25908890953268 5.618051365341159 30.001307578082535 21.639729966108984
47.78441962931226 4.758516342982542 24.547970333293826 18.47793295303589
39.0963403063858 3.9802021511131667 19.658058474572567 15.458079680700084
31.180617029755783 3.2903232646294867 15.251831714912555 12.638462050213743
24.18873824410961 2.7181510018130193 11.432494614835932 10.038092627460637
18.032663495805654 2.2520100025691794 8.12884513979017 7.651808353446302
12.702849919345299 1.8699538911425297 5.359188139944148 5.473707888258621
8.257138946251192 1.5452819350035452 3.1683140070793714 3.5435430041682787
4.663373023753189 1.2293302595223357 1.4746411118480753 1.9594016523827793
2.2458273341312918 0.9101262723668646 0.49703495770671313 0.8386661040577136
0.9308037178141583 0.6220292249051014 0.08801586168452065 0.22075863122453615
0.41296051075139567 0.40879690083840015 -0.003772566663681562 0.007936176576676932
0.2500768640175992 0.25632701237094546 -0.001324567414234257 -0.0049255809391119225
0.1904589444491747 0.19041072306019807 -1.6095381208161694e-06 4.983092709737384e-05
0.19267745761423272 0.19224287187383376 5.0194086662865646e-05 0.0003843916537361001
0.40294432338946035 0.22004931061196542 0.05106076827749591 0.13183424449999878
2.9099765472204675 1.6481427971192657 0.4985741644472538 0.7632595856539486
1.9166352763997996 1.2206999859216279 0.2432392572890792 0.45269603318909196
0.3079568482294918 0.2390914351076591 0.014604038336865051 0.054261374784967946
0.21653452270385473 0.21626435883356493 4.4295895585311954e-05 0.00022586797470444157
0.20559568042235674 0.2057657405125798 -1.9005603507617238e-05 -0.0001510544867153847
0.23857699206861582 0.24257800592128007 -0.0009636629757181646 -0.003037350876946042
0.3364072413426428 0.3420382973381707 -0.004318553614222144 -0.0013125023813057798
0.5887231743768598 0.48539718569999546 0.020363128415061917 0.08296286026180225
1.3039113317463975 0.684556413944034 0.20511974036917652 0.4142351774331871
2.763738484722091 0.9274043759532383 0.7194903522279709 1.1168437565408813
5.052007423149796 1.1818881751106305 1.695687460543204 2.1744317874959633
7.990525511236795 1.4498816087203987 3.0430345149662017 3.4976093875501952
11.538916000552565 1.7674840028633843 4.772840522935801 4.998591474753376
15.620606361540107 2.159941731029557 6.818297608706017 6.642367021804528
20.2729534950386 2.6479586926104193 9.191533808231672 8.43346099419651
25.606308751236377 3.2617347609853966 11.952948944198551 10.391625046052424
31.668875516923915 4.004037132838563 15.134517712438749 12.530320671646614
38.35675695296896 4.819567802765785 18.70402591547975 14.833163234723417
45.65463482697889 5.759116215460802 22.6055947334405 17.289923878077577
54.21568246235105 7.0047942056939245 27.166558878735184 20.04432937792195
63.61194156320118 7.760346292398019 32.67123932016968 23.180355950633462
69.06514345135865 3.7245651209443373 38.69862592384793 26.64195240656639
63.61194156318116 7.760346292378277 32.67123932016949 23.180355950633412
54.21568246236904 7.004794205718348 27.16655887873118 20.044329377919496
45.65463482695293 5.759116215460029 22.605594733424773 17.289923878068116
38.35675695294297 4.819567802763251 18.704025915465415 14.833163234714293
31.668875516875783 4.00403713281704 15.134517712422687 12.530320671636073
25.606308751207347 3.2617347609785616 11.95294894418544 10.391625046043336
20.27295349502117 2.6479586926125838 9.191533808220361 8.43346099418823
15.620606361515547 2.159941731023654 6.8182976086955795 6.642367021796315
11.5389160005339 1.7674840028662104 4.7728405229240485 4.998591474743643
7.990525511219365 1.4498816087188173 3.04303451495798 3.4976093875425645
5.052007423136117 1.1818881751104846 1.6956874605364394 2.1744317874891985
2.763738484715746 0.9274043759531448 0.7194903522251371 1.1168437565374627
1.3039113317416111 0.6845564139431846 0.20511974036759692 0.4142351774308292
0.5887231743750926 0.4853971856994636 0.020363128414612186 0.08296286026101678
0.33640724134189154 0.3420382973372137 -0.0043185536141963 -0.0013125023811258133
0.2385769920677937 0.24257800592027076 -0.0009636629757024246 -0.003037350876774587
0.20559568042190451 0.20576574051213822 -1.9005603502984672e-05 -0.00015105448673081052
0.21653452270334067 0.21626435883283338 4.42958956054355e-05 0.0002258679749018244
0.3079568482285149 0.2390914351073704 0.014604038336588385 0.054261374784555914
1.916635276393946 1.2206999859188632 0.24323925728777993 0.45269603318730334
1.2272385463687212 0.9085540767514948 0.1004029134211953 0.21828155619603176
0.2428609800806177 0.23917462084356064 -0.0025934455853772994 0.006279804822434219
0.23296954093476469 0.2317919512928439 0.00016175903132743035 0.001015830610593453
0.22312345073850734 0.22218870061181228 0.0001123195058379533 0.0008224306208569677
0.2398508501283023 0.2422859976031222 -0.0007549654039330996 -0.0016801820708867937
0.30595585552881055 0.3077913818556697 -0.002084918050828162 0.0002493917239690927
0.4211773105411444 0.38396440520297453 0.0050638004434105524 0.03214910489475934
0.658743851798658 0.47033578204665977 0.0485815610009561 0.1398265087510422
1.2352231227953194 0.6016468767922238 0.2096939333670902 0.4238823126360053
2.304577594824393 0.7622829102486899 0.5906704671015973 0.9516242174741053
3.8561067945271885 0.9585430707436662 1.231248528003331 1.6663151957801914
5.711866595247092 1.194448970062884 2.013888553329706 2.503529071854504
7.9214247787011525 1.4973508944191392 2.993052754194828 3.4310211300871862
10.50137679798728 1.8912988389739884 4.15756357963555 4.452514379377743
13.52225455847134 2.4046272281110044 5.526827542488166 5.590799787872168
17.119275417374368 3.0715239299512076 7.16267836766576 6.885073119757402
21.37957166524776 3.872045592369568 9.139749795266388 8.367776277611798
26.187799428105563 4.6678034124646235 11.493069576956911 10.026926438684034
32.054723405738045 5.770687352571117 14.319334982363715 11.964701070803207
40.68735878236621 7.657677402780578 18.37876115374836 14.650920225837279
48.323779627189026 3.906585257899379 25.414417656944934 19.002776712344716
40.687358782386205 7.657677402794646 18.378761153752027 14.650920225839524
32.05472340574341 5.770687352582735 14.319334982359948 11.964701070800722
26.187799428059904 4.667803412432172 11.493069576949072 10.026926438678661
21.37957166522224 3.8720455923594708 9.139749795257393 8.367776277605378
17.119275417373245 3.0715239299616943 7.162678367659245 6.885073119752299
13.522254558465395 2.4046272281160164 5.526827542482169 5.590799787867217
10.501376797977429 1.891298838973918 4.15756357963024 4.452514379373266
7.921424778697334 1.4973508944249154 2.993052754189827 3.4310211300825872
5.711866595227026 1.1944489700527052 2.013888553324646 2.503529071849676
3.856106794521948 0.9585430707472431 1.231248527999111 1.6663151957755944
2.3045775948176073 0.7622829102473745 0.5906704670991157 0.9516242174711167
1.2352231227917092 0.6016468767916434 0.20969393336587466 0.42388231263419107
0.658743851796788 0.47033578204643356 0.04858156100038892 0.13982650874996583
0.42117731054052476 0.3839644052027052 0.005063800443296401 0.0321491048945231
0.3059558555278211 0.3077913818544717 -0.0020849180508140065 0.00024939172416347643
0.23985085012768073 0.2422859976023374 -0.0007549654039115144 -0.0016801820707451499
0.22312345073802728 0.2221887006112161 0.00011231950584667666 0.0008224306209643915
0.23296954093457445 0.2317919512925166 0.00016175903133963817 0.0010158306107181051
0.2428609800800764 0.23917462084333832 -0.0025934455854590647 0.006279804822197223
1.2272385463650428 0.9085540767497219 0.1004029134204646 0.21828155619485548
0.7566385959515028 0.6639881968623663 0.021842672410508582 0.07080772667862774
0.20726699036737536 0.2185609013233926 -0.0031304229465174468 -0.008163488009499825
0.24223431574061907 0.24239186751486 -9.661264223962679e-06 -0.00014789051001699844
0.23997061379613507 0.23843994136679483 0.0002077712183622989 0.0013229012109778873
0.2519449290362904 0.2521295588390449 -0.0004012237819884083 0.00021659397923386834
0.30259048533827954 0.30114576565422474 -0.001104329250349826 0.002549048934404852
0.3828018588575621 0.3458563165093092 0.007103099221581008 0.029842443126672138
0.44129559416989117 0.339469844632326 0.02672091571882215 0.07510483381874282
0.5119705875349199 0.29491955022713773 0.07290419669466762 0.14414684061311486
0.7229527681093724 0.29191168181320654 0.15635802727653142 0.27468305901963574
1.2000774588456755 0.3110737009604537 0.35411939759383165 0.5348843602913882
1.8937935066554785 0.313701107039699 0.6493056483091223 0.9307867513066572
2.7973862090431334 0.34385600625200646 1.0587868656297483 1.3947433371613775
3.898368364162427 0.42787165631072843 1.5582025914699411 1.9122941163817606
5.2184699792497975 0.5917649455778378 2.146930338257668 2.4797746954142883
6.754243965297313 0.8583876134387317 2.8074599913896177 3.088396360468961
8.54971884327807 1.2519345206187351 3.569892846499401 3.7278914761599347
10.549180444961978 1.7260768792356247 4.432091089196433 4.391012476529922
13.251229451093979 2.412310626592657 5.575199256197999 5.263719568303323
20.523709794825884 4.961185754256347 8.014334407152708 7.548189633416834
34.28014274112658 4.372615330378882 16.343446028392567 13.564081382355118
20.523709794835447 4.961185754260499 8.01433440715597 7.548189633418985
13.251229451093598 2.4123106265994414 5.575199256193975 5.263719568300187
10.549180444986707 1.7260768792638355 4.432091089194142 4.39101247652873
8.54971884326623 1.2519345206176127 3.569892846493495 3.7278914761551154
6.7542439652900494 0.858387613437971 2.8074599913862106 3.088396360465867
5.21846997924073 0.5917649455741685 2.146930338254765 2.4797746954117965
3.898368364150514 0.4278716563060224 1.5582025914664221 1.9122941163780705
2.7973862090383874 0.34385600625353213 1.0587868656267 1.3947433371581572
1.8937935066545466 0.31370110704304566 0.649305648306798 0.9307867513047043
1.2000774588346903 0.3110737009557083 0.35411939759116945 0.5348843602878116
0.72295276810957 0.291911681812796 0.15635802727675918 0.2746830590200155
0.511970587534382 0.29491955022767624 0.07290419669420774 0.14414684061249755
0.44129559416959047 0.33946984463247576 0.02672091571867983 0.07510483381843489
0.38280185885679785 0.34585631650899273 0.007103099221389078 0.029842443126416096
0.30259048533761224 0.3011457656533256 -0.0011043292503157291 0.0025490489346024258
0.25194492903578136 0.2521295588384196 -0.0004012237819807573 0.0002165939793426395
0.23997061379578688 0.23843994136626434 0.0002077712183803041 0.0013229012111421778
0.2422343157403617 0.2423918675145008 -9.661264206756206e-06 -0.00014789050993235588
0.20726699036728824 0.21856090132296008 -0.0031304229464626733 -0.008163488009209224
0.7566385959491945 0.6639881968609415 0.02184267241020092 0.070807726678052
0.4753169418470256 0.47131930763078944 0.0004210688038629273 0.0035765654123732678
0.1898839123560294 0.19130745926746157 -0.00017607196995385945 -0.0012474749414783585
0.2446681029737377 0.24418539053058044 1.2467537028759886e-05 0.0004702449061285115
0.25395895852900324 0.2521941953470958 0.000233163979029401 0.0015315992028779512
0.2705771947155215 0.2689718961576738 -0.00011497440971957778 0.0017202729675672582
0.32626504757763175 0.3198540016755377 -0.000535118714211376 0.006946164616305422
0.4374914537062074 0.39129883043899666 0.008541563216520408 0.03765106005069072
0.6691560830448593 0.47276991972126614 0.05176767957103131 0.14461848375256167
1.2388540105652686 0.6017458832377867 0.21120042095879987 0.4259077063686818
2.3045048043771375 0.7619819421498184 0.5906731317055633 0.9518497305217536
3.8648919991136377 0.9611000324080161 1.2347545775849325 1.6690373891206893
5.744516387431625 1.1996900587413144 2.0291680787457835 2.5156582499445284
7.977320119139987 1.5033391765880042 3.0192072734967836 3.4547736690552
10.520081471787968 1.882658222852558 4.173860223043846 4.463563025891563
13.264800836111258 2.338495681487081 5.425237068578168 5.501068086046004
16.036134026639118 2.868324084550797 6.6799702476663505 6.487839694421973
18.49375193348922 3.4473316082826067 7.751904810992228 7.294515514214384
20.45004374767909 4.134738153946671 8.53017782879387 7.7851277649385535
21.110190088131976 4.608320662331355 8.691354457846003 7.810514967954606
17.43733719949688 3.563134912257333 7.453327175850688 6.420875111388858
34.73631274682648 6.408871305944686 15.222631475136648 13.10480996574513
17.437337199481565 3.5631349122358356 7.453327175854395 6.420875111391335
21.110190088105735 4.608320662306108 8.691354457845243 7.810514967954392
20.45004374764179 4.134738153920937 8.530177828787116 7.785127764933726
18.493751933475206 3.447331608286317 7.751904810982131 7.294515514206775
16.036134026623778 2.8683240845487403 6.679970247658903 6.487839694416125
13.264800836087485 2.3384956814792726 5.42523706856943 5.501068086038786
10.520081471775333 1.8826582228547757 4.173860223035829 4.463563025884732
7.977320119110493 1.5033391765745425 3.0192072734883397 3.4547736690476065
5.744516387414708 1.1996900587391657 2.0291680787382926 2.5156582499372533
3.8648919991017205 0.9611000324102759 1.2347545775780342 1.669037389113411
2.3045048043679945 0.7619819421474481 0.5906731317025441 0.9518497305180018
1.2388540105623251 0.6017458832371346 0.21120042095789143 0.42590770636729924
0.669156083041957 0.4727699197203719 0.05176767957027943 0.14461848375130518
0.43749145370472203 0.39129883043816455 0.008541563216321673 0.03765106005023555
0.3262650475770553 0.3198540016747579 -0.000535118714208605 0.006946164616505999
0.27057719471487557 0.2689718961569167 -0.00011497440971143823 0.0017202729676703908
0.2539589585286297 0.2521941953465706 0.00023316397904046642 0.0015315992030186223
0.24466810297326191 0.24418539053004593 1.2467537028780862e-05 0.0004702449061869692
0.18988391235642338 0.19130745926779721 -0.0001760719699505708 -0.0012474749414231167
0.4753169418455208 0.4713193076287928 0.00042106880390315566 0.0035765654128247794
0.3048343289943907 0.30492416457502747 -6.747053367020118e-06 -8.308852726976772e-05
0.1751941659368131 0.17538043228943684 -1.789128935535343e-05 -0.00016837506326841905
0.2407305497384618 0.24141734802265705 -0.00013463399243804756 -0.000552164291757197
0.2635830264591008 0.2618501667612095 0.00015750232878055772 0.0015753573691106768
0.29399598234272273 0.29408751628407237 -0.00040526975570954945 0.00031373581436009503
0.3778656961837216 0.36675915068922676 0.00045899804399683955 0.010647547450497735
0.6136437462344488 0.487346373092043 0.026808939844603065 0.09948843329780263
1.3159473465345923 0.685293401012977 0.21003914768696735 0.4206147978346485
2.7646930909154133 0.9269429526665008 0.7200830170189871 1.1176671212299252
5.0520389280177 1.1820615522996478 1.6954551210566735 2.174522254661377
8.000265395229768 1.451753058883519 3.0470267110935922 3.5014856252526556
11.568122220840312 1.7714452254413524 4.786575131109365 5.010101864289592
15.662851981759006 2.16102658208498 6.841596635105386 6.660228764568652
20.25407281141009 2.626078546239127 9.193933706160973 8.43406055900998
25.278381882380362 3.1698666867583443 11.815916383498745 10.292598812123284
30.486993096747202 3.7802905182124595 14.563758617256362 12.142943961278378
35.465348548711866 4.46883685200736 17.161527249473853 13.834984447230653
39.62013023140548 5.246104503818006 19.201320590693108 15.172705136894345
41.64083913019146 5.666306730647587 20.204800150395204 15.769732249148673
38.919910101741216 5.559242814815876 18.711914059524183 14.648753227401153
48.07845060815398 11.207743348963852 20.688737918544696 16.181969340645427
38.91991010175638 5.559242814823978 18.71191405952863 14.64875322740377
41.640839130172886 5.666306730635597 20.204800150391115 15.769732249146156
39.62013023138235 5.24610450381807 19.20132059067882 15.172705136885455
35.465348548681675 4.468836852003976 17.161527249457514 13.834984447220187
30.48699309668602 3.7802905181821727 14.563758617237777 12.142943961266074
25.278381882354072 3.1698666867605367 11.815916383481966 10.292598812111557
20.254072811380293 2.626078546235104 9.193933706146156 8.43406055899904
15.662851981731658 2.161026582086707 6.841596635089015 6.660228764555932
11.568122220811581 1.7714452254384063 4.78657513109528 5.0101018642778925
8.000265395205274 1.4517530588822425 3.0470267110814815 3.50148562524155
5.05203892800183 1.1820615522981417 1.6954551210495015 2.1745222546541867
2.7646930909031076 0.9269429526627178 0.7200830170150528 1.117667121225338
1.3159473465297062 0.6852934010126919 0.2100391476851422 0.4206147978318724
0.6136437462321449 0.4873463730911692 0.026808939844100037 0.09948843329687598
0.3778656961827931 0.3667591506883552 0.00045899804397625706 0.010647547450461474
0.29399598234216723 0.29408751628315344 -0.00040526975566680505 0.00031373581468061604
0.26358302645853865 0.26185016676053363 0.00015750232878678972 0.0015753573692182984
0.24073054973826705 0.2414173480222795 -0.00013463399242051328 -0.0005521642915920466
0.17519416593685153 0.1753804322895268 -1.789128935873009e-05 -0.00016837506331655137
0.30483432899366353 0.3049241645744047 -6.747053378845314e-06 -8.308852736233226e-05
0.1898376811512957 0.1898376811512957 0.0 0.0
0.15614059417811998 0.15613124950457358 1.4960090205836958e-06 7.84866452585905e-06
0.2302010755007327 0.23114915666718153 -0.00014206273235110688 -0.0008060184340977367
0.26947620554737484 0.26981689350064403 -0.0001542929411663152 -0.00018639501210298193
0.32152182065782536 0.3197686774629791 -0.0003700263650329089 0.002123169559879302
0.4633391780122372 0.42451918810974926 0.0042401641685502825 0.03457982573393811
0.9642543383181031 0.6281235700242439 0.10081480595627945 0.2353159623375795
2.252625724000038 0.9100778774954864 0.5007289245029762 0.8418189220015762
4.661437681025813 1.2294353344359472 1.4735763906657715 1.9584259559240902
8.259295930801537 1.545972188723948 3.1693350451430904 3.5439886969345005
12.712236156008817 1.87122005175962 5.3623530957850525 5.478663008464147
18.05024545115539 2.2532332971042552 8.138293694589256 7.658718459461887
24.192813271673565 2.7133223087563607 11.437872567445615 10.041618395471577
31.0950600147877 3.257499565744212 15.220429866843295 12.617130582200204
38.717151508278654 3.8772127608872675 19.48930341423833 15.350635333153063
46.709104590889154 4.5575514122095155 24.004376325194794 18.147176853484837
54.68826448311082 5.2867985486582 28.58857037919966 20.812895555252993
61.30504925516517 5.882219400075115 32.39048661080168 23.032343244288388
64.58606022458574 6.085401384997002 34.361036803022756 24.13962203656596
60.549652664648754 5.481770583342885 32.18971896859765 22.878163112708197
67.64744796346372 14.296590986453186 31.057625647644663 22.29323132936588
60.54965266465214 5.481770583343188 32.189718968599635 22.87816311270929
64.5860602245844 6.085401385007803 34.361036803015025 24.139622036561597
61.305049255122064 5.882219400065707 32.39048661078017 23.032343244276188
54.68826448305468 5.286798548644424 28.588570379172907 20.81289555523734
46.70910459084365 4.557551412214098 24.00437632516358 18.147176853465986
38.71715150822994 3.877212760881155 19.48930341421221 15.35063533313657
31.095060014734745 3.257499565732662 15.220429866818364 12.617130582183718
24.192813271630886 2.713322308755005 11.437872567421332 10.041618395454567
18.05024545111524 2.2532332971013855 8.138293694567944 7.6587184594459075
12.712236155976317 1.8712200517594533 5.362353095767255 5.478663008449611
8.259295930773893 1.5459721887192732 3.16933504513095 3.543988696923666
4.6614376810106055 1.229435334436906 1.4735763906578296 1.9584259559158717
2.252625723990884 0.9100778774931984 0.5007289244999864 0.8418189219976986
0.9642543383140576 0.6281235700228736 0.10081480595527062 0.23531596233591365
0.4633391780105628 0.4245191881086733 0.004240164168337427 0.034579825733552075
0.32152182065699836 0.3197686774620855 -0.0003700263650318162 0.0021231695599447653
0.2694762055470855 0.2698168935000802 -0.00015429294113292655 -0.0001863950118618763
0.2302010755005749 0.23114915666708483 -0.00014206273235703974 -0.0008060184341528444
0.15614059417771495 0.15613124950413393 1.4960090227048871e-06 7.848664558294186e-06
0.18983768115105928 0.18983768115105928 0.0 0.0
0.11158480661244218 0.11158480661244218 0.0 0.0
0.132254084999809 0.1322494993581116 2.4297873496715517e-07 4.342662962442389e-06
0.21386389665811745 0.21437722908324125 -7.050573756327004e-05 -0.0004428266875605083
0.2718015353495309 0.27228170015456693 -0.0002553226853526311 -0.00022484211968350294
0.35486841000054015 0.35425147595116446 -0.0010990578442025706 0.0017159918935781568
0.6162238311186985 0.5139628296587877 0.024491099340594465 0.0777699021193161
1.467321785500885 0.7827892702729207 0.23239834257673928 0.4521341726512251
3.434478898586182 1.1418877116174715 0.9328885777247091 1.3597026092440023
6.904897637051708 1.5243145952532209 2.4852570230960422 2.8953260187024425
11.625459780793282 1.8898764695016745 4.743231086157366 4.992352225134245
17.744569694632016 2.2868761345905204 7.948113543082069 7.509580016959429
24.96720748727272 2.7434558583729376 11.876127487642897 10.34762414125688
33.2644255769675 3.2850144671939043 16.51314328514475 13.466267824628858
42.64284745668571 3.9199305083446205 21.871610628833587 16.851306319507472
53.0002132605879 4.632053347239838 27.892296779243683 20.475863134104376
64.16798087730805 5.385701078638179 34.54805248909095 24.23422730957892
74.92562677351519 6.046808285491819 40.993127318162124 27.885691169861264
84.05167286089025 6.395774762115883 46.749427367199296 30.906470731575055
88.21102039171278 6.086282456329559 49.712156413020054 32.41258152236318
83.13658900823569 5.544886845924241 46.74084294096984 30.85085922134161
89.82160816507599 17.426844141290953 43.2960846693285 29.098679354456507
83.13658900821507 5.5448868459097636 46.74084294096594 30.85085922133936
88.21102039169264 6.086282456327353 49.71215641300816 32.4125815223571
84.05167286087197 6.395774762138532 46.74942736717257 30.906470731560837
74.92562677343575 6.046808285475423 40.9931273181212 27.88569116983916
64.16798087726185 5.38570107865096 34.54805248905328 24.234227309557607
53.000213260528774 4.632053347238775 27.892296779207175 20.47586313408281
42.642847456627095 3.9199305083426537 21.87161062879859 16.851306319485857
33.26442557691491 3.2850144671946246 16.513143285112463 13.466267824607813
24.967207487221987 2.743455858370811 11.876127487614356 10.34762414123682
17.744569694588897 2.2868761345885513 7.948113543058747 7.509580016941601
11.6254597807596 1.889876469498881 4.743231086140611 4.9923522251201105
6.904897637030254 1.5243145952523207 2.4852570230853708 2.895326018692566
3.434478898571811 1.1418877116149542 0.9328885777191209 1.3597026092377362
1.467321785494459 0.78278927027135 0.23239834257472675 0.45213417264838185
0.6162238311163937 0.5139628296577073 0.02449109934019228 0.07776990211849404
0.3548684099999331 0.3542514759503946 -0.001099057844179054 0.0017159918937175985
0.27180153534912943 0.2722817001539569 -0.0002553226853351961 -0.00022484211949243756
0.2138638966579718 0.21437722908312204 -7.050573756591629e-05 -0.00044282668758426015
0.13225408499967567 0.1322494993579826 2.4297873480463597e-07 4.342662958242992e-06
0.11158480661209366 0.11158480661209366 0.0 0.0
0.061629370886982705 0.061629370886982705 0.0 0.0
0.10574794026265164 0.10574794026265164 0.0 0.0
0.19281489544886155 0.19294946085376224 -1.7283653138434203e-05 -0.00011728175176220769
0.27185146407831173 0.2741121314328921 -0.0004686629448520988 -0.0017920044097283765
0.4012012728306456 0.39228262677747194 -0.0006396995991926721 0.00955834565236619
0.8441304904732418 0.6181949016062745 0.06567568752267415 0.1602599013442929
2.1231320539887086 0.9538046875560626 0.4346792327794777 0.734648133653169
4.868437608378325 1.3752504341437841 1.5371996930940188 1.9559874811405202
9.190420159423203 1.800843597011669 3.4866414527822194 3.9029351096293166
15.337440528407358 2.245231434164009 6.612356759415807 6.4798523348275365
23.042919477875422 2.726632298838367 10.755757119156879 9.56053005988018
32.210158766919065 3.270565625592999 15.88502167040644 13.054571470919617
42.77884518663246 3.902430069051742 21.967645039425516 16.908770078155175
54.78098609839696 4.640008576840868 29.036048271194915 21.10492925036117
68.04464655782152 5.469240003855141 36.959751109224 25.615655444742412
82.17930593096422 6.263713596644303 45.5876940650768 30.32789826924313
96.23113789360335 6.803956612556105 54.51436185789531 34.9128194231519
107.41268587194511 6.750692351144722 61.94728617258022 38.7147073482202
112.12542081289007 6.011101077892085 65.54957222122573 40.56474751377222
106.62452728597349 5.795993755180563 62.07702619059133 38.751507340201556
114.03351232117181 20.56682200352683 57.189275187790734 36.27741512985426
106.62452728595771 5.795993755180346 62.07702619058107 38.751507340196284
112.12542081285082 6.011101077881566 65.5495722212065 40.56474751376273
107.41268587187156 6.75069235112353 61.94728617254529 38.714707348202765
96.23113789357167 6.803956612595793 54.51436185784825 34.91281942312763
82.17930593086989 6.263713596622349 45.587694065029375 30.327898269218156
68.0446465577436 5.469240003849401 36.95975110917768 25.615655444716527
54.78098609831748 4.640008576832313 29.036048271150175 21.104929250334983
42.77884518656094 3.9024300690462996 21.967645039384763 16.908770078129912
32.21015876685322 3.27056562558749 15.885021670370046 13.05457147089566
23.042919477820103 2.726632298835797 10.755757119126105 9.560530059858198
15.337440528364368 2.2452314341601483 6.612356759393895 6.47985233481032
9.190420159392918 1.800843597007559 3.486641452768557 3.9029351096168043
4.86843760836163 1.3752504341426124 1.537199693086314 1.9559874811326996
2.123132053979211 0.9538046875543624 0.4346792327760993 0.7346481336487509
0.8441304904697204 0.6181949016049748 0.06567568752186431 0.16025990134288126
0.40120127282997947 0.3922826267764654 -0.000639699599132592 0.009558345652646533
0.27185146407794436 0.27411213143241353 -0.000468662944840801 -0.001792004409628401
0.19281489544852948 0.19294946085344944 -1.7283653139970795e-05 -0.00011728175177999507
0.10574794026266437 0.10574794026266437 0.0 0.0
0.06162937088668001 0.06162937088668001 0.0 0.0
0.031883700938514004 0.031883700938514004 0.0 0.0
0.07982535013873462 0.07982535013873462 0.0 0.0
0.16947850205976706 0.16947168529609916 3.960330448053176e-07 6.420730623111643e-06
0.27259530994464654 0.27485661744278717 -0.0005046699864232554 -0.001756637511717441
0.477156753990952 0.45046885815281257 0.0044624062816401265 0.022225489556499424
1.1486047032148126 0.7253843701329845 0.13222089305285373 0.29099944002897415
2.9536741105674142 1.1315129264880115 0.7425452181875388 1.0796159658918645
6.350835121711605 1.590139892981111 2.136677718969544 2.624017509760947
11.756362528013595 2.0830800719199405 4.72439730459425 4.948885151499401
19.192853007771536 2.6185173043866117 8.590013997747832 7.9843217056370985
28.57021042730935 3.1993992611328608 13.747142048189259 11.623669117987216
39.7661869334926 3.8434518255231054 20.151772468392664 15.770962639576819
52.73158866089817 4.578324753339316 27.790014777095024 20.36324913046384
67.26561198791804 5.4248920540015195 36.47211433505877 25.368605598857776
83.54602378986453 6.353130253659778 46.44629662260823 30.746596913596495
100.91033790546862 7.197018711503894 57.338758320076806 36.374560873887894
117.67908505483238 7.553137632123185 68.25323554448117 41.87271187822806
131.0375568368063 7.047538092702339 77.58984990345841 46.40016884064553
136.86232512872627 5.983940824026744 82.26131198278486 48.617072321914726
131.23510068716848 6.127148722162126 78.35790414870273 46.75004781630368
139.78734769309517 23.681863767604238 72.26210368811654 43.843380237374326
131.23510068716294 6.12714872217399 78.3579041486907 46.750047816298206
136.86232512866613 5.983940824010942 82.26131198275476 48.61707232190048
131.0375568367544 7.04753809271728 77.58984990341327 46.4001688406238
117.67908505474858 7.553137632113871 68.25323554443104 41.87271187820372
100.9103379053806 7.197018711503919 57.33875832001854 36.37456087385817
83.54602378976622 6.353130253649972 46.44629662255033 30.746596913565888
67.26561198783978 5.424892054004504 36.47211433500648 25.368605598828793
52.73158866080823 4.578324753331412 27.79001477704342 20.363249130433392
39.76618693341882 3.8434518255195957 20.151772468349627 15.770962639549596
28.570210427247574 3.199399261133876 13.747142048151924 11.623669117961771
19.19285300772065 2.618517304383494 8.590013997720519 7.984321705616653
11.75636252797885 2.0830800719178506 4.724397304576706 4.948885151484289
6.350835121687575 1.5901398929757822 2.1366777189600934 2.624017509751698
2.9536741105558715 1.1315129264863313 0.7425452181829755 1.0796159658865623
1.1486047032100268 0.7253843701312632 0.13222089305164098 0.2909994400271221
0.4771567539895456 0.4504688581515781 0.004462406281574247 0.022225489556393207
0.27259530994439574 0.2748566174424312 -0.0005046699864109082 -0.0017566375116244396
0.16947850205935705 0.16947168529569007 3.960330447626668e-07 6.4207306222634735e-06
0.07982535013859948 0.07982535013859948 0.0 0.0
0.03188370093843012 0.03188370093843012 0.0 0.0
0.015607422273125303 0.015607422273125303 0.0 0.0
0.057202531850113404 0.057202531850113404 0.0 0.0
0.14695131999837285 0.1469488176737011 1.22441077168008e-07 2.379883594554421e-06
0.2787422012822745 0.28173038441495063 -0.0006958051814350075 -0.00229237795124131
0.5912593754317332 0.5197406430539192 0.01738173568112493 0.05413699669668934
1.565731829508837 0.8577847141272704 0.25039984570105234 0.4575472696805133
3.8611226326733252 1.2967895406061298 1.0730436668777716 1.491289425189424
8.006829491704686 1.7953027280939515 2.8811920379629385 3.330334725647794
14.420730331631626 2.3739592328737693 6.0316682097314755 6.0151028890263785
23.207974535020703 3.0125999635020584 10.69481668403329 9.500557887485355
34.277853392885255 3.7054662234491564 16.879673900977163 13.69271326845895
47.57327530344686 4.469257297348017 24.610930245501805 18.493087760597035
62.863357917394325 5.317289253325704 33.71925796232621 23.82681070174244
80.31194575180047 6.262126152423189 44.41567827855178 29.634141320825456
99.42330099613278 7.272718613744869 56.290345726265826 35.86023665612211
119.6551737096148 8.130733795108132 69.17586564639915 42.348574268107576
139.37764375119357 8.321127052149118 82.3769095906431 48.679607108401335
155.05755018503606 7.400400351688851 93.69467146892393 53.96247836442328
162.37943598768075 6.019017126302409 99.65329984133655 56.707119020041844
157.3077040827641 6.471440832653692 95.8849869145472 54.951276335563286
167.6729031014989 26.734596924101176 89.11315879284327 51.825147384554455
157.3077040827412 6.471440832650121 95.88498691453395 54.95127633555721
162.37943598763195 6.01901712631152 99.65329984129681 56.707119020023526
155.05755018494352 7.400400351677749 93.694671468868 53.96247836439782
139.37764375107804 8.321127052127013 82.37690959057949 48.679607108371435
119.6551737094863 8.130733795085758 69.1758656463278 42.34857426807264
99.42330099603068 7.272718613746881 56.29034572619682 35.860236656087004
80.31194575167827 6.262126152398207 44.41567827848854 29.634141320791535
62.863357917298444 5.317289253326264 33.719257962264685 23.82681070170744
47.57327530335162 4.4692572973360365 24.610930245449953 18.49308776056563
34.27785339280791 3.705466223444171 16.879673900933447 13.692713268430303
23.20797453496281 3.012599963499821 10.694816684000823 9.500557887462156
14.420730331588848 2.3739592328680383 6.03166820971099 6.015102889009823
8.006829491677065 1.7953027280907565 2.8811920379505573 3.3303347256357525
3.8611226326575943 1.296789540603 1.0730436668717669 1.491289425182829
1.5657318295024294 0.8577847141254565 0.2503998456991319 0.45754726967784
0.5912593754297032 0.5197406430529075 0.017381735680788955 0.05413699669600684
0.27874220128190264 0.2817303844143779 -0.0006958051814160572 -0.0022923779510591017
0.14695131999824337 0.14694881767357484 1.2244107697319608e-07 2.3798835915387224e-06
0.05720253184987949 0.05720253184987949 0.0 0.0
0.015607422273082002 0.015607422273082002 0.0 0.0
0.007517370643105205 0.007517370643105205 0.0 0.0
0.039654862918241975 0.039654862918241975 0.0 0.0
0.12862996132057408 0.12862996132057408 0.0 0.0
0.298349078206069 0.30233544578488525 -0.0011295929397117147 -0.0028567746391044745
0.7549684489602236 0.601366390161456 0.041734805703989644 0.11186725309477771
2.0827652918933426 0.991259783657777 0.4166729655757898 0.6748325426597761
4.856652483057048 1.442328457157216 1.4658154773506826 1.9485085485491462
9.766913538122372 2.0029712087397984 3.701424205331845 4.06251812405073
17.182253080152094 2.6716512696952206 7.4164198434095985 7.0941819670472706
27.333622577972015 3.425873490221419 12.885459324009306 11.022289763741282
40.17852750681486 4.249437395412542 20.165924953689725 15.763165157712583
55.56212426974164 5.144368793626409 29.200451521654568 21.217303954460697
73.50565133427577 6.124944204933614 40.08972150814629 27.29098562119583
93.50966352566691 7.170372622472216 52.428427646407016 33.910863256787714
115.5223011665677 8.186089346099777 66.38246712861219 40.95374469185569
138.62020031459042 8.98373497397002 81.41408301639078 48.22238232422958
161.06282898654314 9.128569500244637 96.62206308411254 55.312196402185954
179.33190201299558 7.955047433979321 110.01019388204816 61.36666069696812
188.74007719145015 6.065500220465109 117.87118640463018 64.80339056635485
185.18042399850464 6.784032870120502 114.91554558070749 63.48084554767654
197.97087206523136 29.628349839388935 107.9175326307846 60.424989595057816
185.18042399846303 6.784032870104345 114.9155455806895 63.4808455476692
188.74007719137296 6.065500220459857 117.87118640458021 64.80339056633298
179.33190201291205 7.955047433991885 110.0101938819818 61.36666069693829
161.06282898643647 9.128569500250025 96.62206308403572 55.31219640215074
138.6202003144789 8.983734973981937 81.4140830163073 48.22238232418965
115.52230116643115 8.18608934608464 66.3824671285308 40.95374469181567
93.50966352555257 7.170372622476537 52.42842764632887 33.9108632567472
73.50565133416008 6.124944204928182 40.08972150807488 27.290985621157024
55.562124269639924 5.144368793624684 29.2004515215914 21.21730395442384
40.178527506733374 4.2494373954107125 20.165924953640896 15.76316515768178
27.33362257790403 3.4258734902179437 12.885459323971169 11.022289763714912
17.182253080100168 2.6716512696886436 7.416419843384086 7.094181967027443
9.766913538091483 2.002971208738378 3.7014242053163007 4.062518124036803
4.856652483039111 1.4423284571544692 1.465815477343568 1.9485085485410751
2.0827652918855777 0.9912597836559308 0.41667296557322075 0.6748325426564268
0.7549684489577486 0.6013663901602306 0.04173480570353176 0.11186725309398628
0.2983490782056525 0.3023354457843286 -0.001129592939685661 -0.002856774638990682
0.1286299613203881 0.1286299613203881 0.0 0.0
0.03965486291823092 0.03965486291823092 0.0 0.0
0.0075173706430492395 0.0075173706430492395 0.0 0.0
0.0035713964781439326 0.0035713964781439326 0.0 0.0
0.02765519601128779 0.02765519601128779 0.0 0.0
0.11931032571181821 0.11931032571181821 0.0 0.0
0.34446196859777756 0.34285190769010027 -0.0005965834029497273 0.0022066443106267654
0.9951522976394204 0.704424407363349 0.09336580753090723 0.1973620827451638
2.6647658346435263 1.1112480254366492 0.6121557313156357 0.9413620778912404
5.969051654234981 1.5875801501987683 1.9484218335803631 2.4330496704558513
11.59197333048548 2.208394901628659 4.571126662454747 4.81245176640207
20.036826620923502 2.9748975985973916 8.882504609453 8.179424412873114
31.55023065690429 3.8590814662604798 15.147970811881596 12.543178378762208
46.1805645969913 4.826654802485159 23.521690724859873 17.83221906964623
63.87025953942221 5.876408302815318 34.05489401514306 23.938957221463824
84.18426202025121 7.000250350177922 46.422109708820635 30.76190196125268
107.12946073951451 8.128497170568313 60.819994466105015 38.18096910284114
131.97657251883763 9.127523266698281 76.8172340928426 46.031815159296826
157.65162065869774 9.760412486276921 93.85568721044511 54.0355209619756
182.4478918908118 9.768686997453191 110.93647213868557 61.74273275467307
203.52365241246457 8.794825782726932 126.27597374174954 68.45285288798804
215.60943766192733 6.222598526922853 136.53378761572583 72.85305151927864
215.168502412135 6.8582399038466795 135.80650662749377 72.50375588079447
231.34342423989636 31.6191201048579 129.76181484821845 69.96248928682009
215.16850241208127 6.858239903829828 135.80650662746834 72.50375588078313
215.60943766186557 6.222598526943991 136.53378761566807 72.85305151925354
203.52365241233917 8.794825782715112 126.27597374167041 68.45285288795367
182.4478918906804 9.768686997446167 110.93647213859941 61.74273275463469
157.65162065853855 9.760412486257533 93.85568721034937 54.0355209619317
131.97657251871203 9.127523266706628 76.81723409275209 46.03181515925332
107.1294607393806 8.128497170567748 60.819994466016084 38.18096910279673
84.18426202012957 7.000250350182488 46.4221097087382 30.761901961208835
63.87025953930849 5.876408302814451 34.05489401507091 23.93895722142313
46.18056459689294 4.826654802475978 23.521690724804465 17.83221906961249
31.55023065683011 3.85908146625689 15.147970811839265 12.543178378733955
20.036826620866357 2.9748975985917743 8.88250460942352 8.179424412851052
11.591973330448539 2.2083949016243967 4.571126662437188 4.812451766386956
5.9690516542132706 1.587580150194814 1.948421833571624 2.4330496704468323
2.6647658346337355 1.111248025434677 0.612155731312104 0.9413620778869554
0.9951522976357576 0.7044244073621421 0.09336580752997811 0.19736208274363737
0.3444619685973012 0.34285190768955615 -0.0005965834029433819 0.002206644310688574
0.11931032571167073 0.11931032571167073 0.0 0.0
0.027655196011306542 0.027655196011306542 0.0 0.0
0.003571396478127243 0.003571396478127243 0.0 0.0
0.0011790369113684335 0.0011790369113684335 0.0 0.0
0.020529949614332042 0.020529949614332042 0.0 0.0
0.12711434375602815 0.12711434375602815 0.0 0.0
0.439529243773027 0.4159507841391411 0.004724578343312913 0.01885388129057311
1.3357516898711213 0.8776336763826171 0.16089941291885812 0.29721860056964644
3.4023066233092516 1.419619761808044 0.8090051004715685 1.1736817610296373
7.278175244567155 2.1034420599337804 2.3517391730029287 2.8229940116304424
13.716664532938294 3.049707754182358 5.275971251522764 5.390985527233177
23.32426550110858 4.313965213533093 10.00611988372195 9.004180403853553
36.51228851743018 5.904999394726897 16.91442845321275 13.692860669490521
53.36098174406317 7.800410749306149 26.16745257027901 19.39311842447806
73.60402680484981 9.962500670327113 37.64589538555856 25.995630748964082
97.11267286121098 12.316620769378183 51.419242515393634 33.3768095764392
123.39172557920678 14.718733969664331 67.27719167304785 41.39579993649464
151.5018428796886 16.80931908820261 84.85372574727295 49.838798044212936
179.8919548497325 18.07081411305702 103.45407751191004 58.36706322476551
206.38366147242883 18.04944175423384 121.82469152561626 66.50952819257866
228.67767762254377 16.860140349892117 138.23915042214247 73.57838685050929
243.8716720244314 15.051768363599262 150.19474724906715 78.625156411765
239.55964784355305 7.047782388645273 152.74237217263922 79.7694932822686
325.1215682301639 96.67457757273719 149.99167813031676 78.45531252710998
239.5596478435076 7.0477823886428315 152.74237217260844 79.76949328225633
243.87167202432417 15.051768363579404 150.19474724900525 78.62515641173941
228.67767762242536 16.86014034990716 138.23915042204945 73.57838685046889
206.38366147224798 18.04944175419065 121.82469152552095 66.50952819253645
179.891954849598 18.070814113079827 103.45407751180093 58.36706322471717
151.50184287950808 16.809319088161395 84.8537257471783 49.83879804416841
123.39172557905347 14.718733969656718 67.27719167295041 41.39579993644635
97.11267286107172 12.3166207693753 51.41924251530378 33.376809576392695
73.60402680471859 9.962500670318452 37.645895385479925 25.995630748920192
53.36098174395494 7.800410749296476 26.167452570217115 19.393118424441354
36.512288517341744 5.904999394711561 16.914428453168334 13.69286066946185
23.32426550104209 4.313965213521374 10.006119883690195 9.004180403830539
13.716664532893088 3.049707754173058 5.275971251503144 5.390985527216884
7.278175244541901 2.103442059928429 2.3517391729929003 2.8229940116205707
3.4023066232970303 1.4196197618049378 0.809005100467537 1.1736817610245551
1.3357516898670618 0.8776336763821369 0.16089941291745447 0.2972186005674702
0.4395292437721162 0.4159507841383871 0.004724578343275481 0.018853881290453366
0.1271143437558369 0.1271143437558369 0.0 0.0
0.02052994961423203 0.02052994961423203 0.0 0.0
0.001179036911348359 0.001179036911348359 0.0 0.0
CELL_DATA 800
SCALARS Stress float 6
LOOKUP_TABLE default
172.90724662899635 -526.777561136909 -182.08546024666438 -111.21078690312639 0.0 0.0
405.2570023111376 -89.32284906607316 115.60367058149181 54.00696983491487 0.0 0.0
424.7406651685087 7.009968264396617 129.88160323573874 -2.5286185074873933 0.0 0.0
483.84240646003155 -18.195676081190243 154.5964048816502 -16.02492873643547 0.0 0.0
562.8909748378472 -25.288158636874705 218.33135997649873 -11.674958281100531 0.0 0.0
639.3253371412577 -22.281708385824558 289.09811435567207 -10.576132996538732 0.0 0.0
713.1762789299294 -17.06877321530706 341.16343563528017 -11.736758854003552 0.0 0.0
788.5778906300363 -3.1885973147581694 388.95452182183885 -13.868286014277242 0.0 0.0
867.6638607653879 19.967598176064143 440.97937048609083 -15.825864850750785 0.0 0.0
949.4528361123107 50.790846235506876 497.7835282134221 -17.023916842825606 0.0 0.0
1031.6682022079244 86.50623256838023 557.1170253579098 -17.492189348616893 0.0 0.0
1112.8924253646703 125.72943848151479 617.6134849175811 -17.486111943552217 0.0 0.0
1193.3580429617587 167.63576120339826 678.992310174192 -17.312424631368557 0.0 0.0
1273.9133563765115 212.79861510912124 741.9856133869612 -16.97010599887274 0.0 0.0
1354.9846402666049 261.64126624475625 807.0414942430864 -16.298806443639858 0.0 0.0
1435.6413818084495 313.3500710102413 873.3046780026182 -15.10109400628163 0.0 0.0
1513.3956673813718 365.848519132825 938.4993211080036 -13.301870159545597 0.0 0.0
1586.1736439841848 417.62823080398687 1000.817967942727 -11.355900816176812 0.0 0.0
1655.1951825086107 470.743658215642 1061.8370787253778 -11.34625949059623 0.0 0.0
1764.851175137587 571.6938144461762 1166.6628663990896 -19.20296023376791 0.0 0.0
1764.8511751354297 571.6938144440201 1166.6628663976167 19.202960233793068 0.0 0.0
1655.195182506075 470.7436582131425 1061.8370787236806 11.346259490623051 0.0 0.0
1586.1736439834456 417.6282308033309 1000.817967942168 11.35590081629971 0.0 0.0
1513.3956673817595 365.8485191333332 938.4993211081444 13.30187015972134 0.0 0.0
1435.6413818088365 313.35007101077235 873.3046780028126 15.101094006254973 0.0 0.0
1354.9846402679414 261.64126624624987 807.0414942440129 16.298806443444434 0.0 0.0
1273.9133563764244 212.79861510920506 741.985613386879 16.970105998916807 0.0 0.0
1193.3580429607343 167.63576120257937 678.992310173435 17.312424631410494 0.0 0.0
1112.8924253637515 125.72943848083185 617.61348491686 17.486111943676946 0.0 0.0
1031.6682022070179 86.50623256772798 557.1170253572122 17.492189348582432 0.0 0.0
949.4528361114022 50.79084623484681 497.78352821281004 17.023916842789518 0.0 0.0
867.6638607649365 19.967598175892675 440.97937048579956 15.825864850828028 0.0 0.0
788.5778906290438 -3.1885973154832072 388.95452182116844 13.86828601439994 0.0 0.0
713.1762789293224 -17.068773215622414 341.1634356348576 11.73675885380181 0.0 0.0
639.3253371408534 -22.28170838592675 289.09811435536835 10.576132996730976 0.0 0.0
562.8909748375826 -25.28815863683315 218.33135997625365 11.674958281060109 0.0 0.0
483.8424064600877 -18.195676080865763 154.5964048817117 16.024928736393438 0.0 0.0
424.7406651683986 7.009968264539066 129.88160323575315 2.528618507462271 0.0 0.0
405.2570023110366 -89.32284906616951 115.6036705814 -54.00696983491371 0.0 0.0
172.90724662959371 -526.7775611363215 -182.08546024610223 111.2107869028074 0.0 0.0
72.1501431543104 -552.392105556024 -243.71547389446653 -162.62405013762626 0.0 0.0
285.08891647657623 -85.2105086208937 60.48742336438788 7.66778614877574 0.0 0.0
373.89193209372314 35.4504707656678 122.82803545462447 -9.523849173313163 0.0 0.0
449.3370640860235 -16.84587253690076 136.6935001912474 -36.65262999695808 0.0 0.0
535.7362626391927 -25.18420211883749 195.28680147177573 -33.85831386836178 0.0 0.0
616.3585009047605 -22.728263354458853 270.7416543238028 -31.262598748078023 0.0 0.0
693.8098211126879 -16.692720167183523 329.3992389165752 -32.892158447069114 0.0 0.0
770.1214152386764 -2.822384676494721 379.15764796684454 -36.120370764982255 0.0 0.0
847.5684025367841 18.83315342136862 430.0062252978553 -38.97483755981306 0.0 0.0
925.79118199818 46.661988977173294 483.6816005277815 -40.3190256203765 0.0 0.0
1003.175772633236 78.35239576590732 538.6495324657446 -40.35994230344614 0.0 0.0
1079.291118911654 112.80265947657665 594.2301749972745 -39.774846061858426 0.0 0.0
1154.3879085450942 150.2069004637278 650.6969323436863 -38.939229226165885 0.0 0.0
1229.2178018345512 190.3907090177343 708.3649888448051 -37.858074180056704 0.0 0.0
1303.943696147965 233.3825514990281 767.3445673750895 -36.243584569544964 0.0 0.0
1378.078369718404 278.8853156429115 827.2544423544871 -33.72275259497714 0.0 0.0
1450.8429278277326 326.491761331444 887.4948364805902 -30.33440534937155 0.0 0.0
1522.3972327163242 377.0988218501436 948.5655643663267 -27.21185270609033 0.0 0.0
1601.0647253162047 440.22698147196303 1019.3246081579675 -26.239005013319506 0.0 0.0
1659.6532314705405 490.0550322743445 1073.4362461563958 -27.67035070802452 0.0 0.0
1659.6532314706867 490.0550322744939 1073.4362461564424 27.67035070794493 0.0 0.0
1601.0647253164475 440.22698147225736 1019.3246081581318 26.239005013301888 0.0 0.0
1522.3972327159702 377.09882184987407 948.5655643661842 27.211852706236325 0.0 0.0
1450.8429278258357 326.49176132963646 887.4948364793258 30.334405349349623 0.0 0.0
1378.0783697166357 278.8853156412545 827.2544423532065 33.722752594819966 0.0 0.0
1303.943696146071 233.38255149725688 767.3445673735032 36.24358456937778 0.0 0.0
1229.2178018331508 190.39070901649745 708.3649888437662 37.858074180050004 0.0 0.0
1154.387908544908 150.20690046374153 650.6969323436642 38.939229226185034 0.0 0.0
1079.2911189104161 112.80265947557376 594.2301749963906 39.774846061906885 0.0 0.0
1003.1757726341052 78.35239576701133 538.6495324663013 40.35994230329602 0.0 0.0
925.7911819984072 46.661988977684814 483.6816005279478 40.319025620424895 0.0 0.0
847.5684025364665 18.833153421308907 430.006225297667 38.974837559869854 0.0 0.0
770.1214152377679 -2.8223846770887633 379.1576479663517 36.12037076520668 0.0 0.0
693.8098211113254 -16.692720168278157 329.39923891571345 32.892158446936904 0.0 0.0
616.3585009044751 -22.728263354447947 270.74165432355034 31.262598748045477 0.0 0.0
535.7362626392434 -25.18420211839048 195.28680147174953 33.85831386843017 0.0 0.0
449.33706408615296 -16.845872536382316 136.6935001913939 36.652629996887356 0.0 0.0
373.8919320937821 35.45047076599599 122.82803545474383 9.523849173265653 0.0 0.0
285.08891647669986 -85.2105086204433 60.487423364570176 -7.667786148988375 0.0 0.0
72.15014315457597 -552.3921055558006 -243.71547389419482 162.62405013735787 0.0 0.0
15.909669021714421 -562.9920276471335 -271.70803154252593 -178.74792425588254 0.0 0.0
159.85689769318972 -72.30572590480242 26.265351536516178 -47.90124207501791 0.0 0.0
303.4023647243585 39.831193173200745 102.97006736926775 -34.50141995900221 0.0 0.0
405.2576359473777 -7.487208225929164 121.47248846391807 -57.514774743406946 0.0 0.0
500.15935266872515 -23.906410913815748 170.89143143725713 -58.05075022882383 0.0 0.0
589.657184469751 -24.20324469237979 247.65813906587064 -53.48872414888288 0.0 0.0
670.4218224274291 -15.452782847934884 314.917309597328 -54.42395643242297 0.0 0.0
747.1739084008598 -2.37717285956586 366.8363600468032 -58.175329747302584 0.0 0.0
823.1496642318672 17.662824815482523 416.7768480981656 -61.50294226312157 0.0 0.0
897.7514213555294 42.22042936340891 467.19447640708233 -62.76735493011962 0.0 0.0
970.5521377929892 69.82858731633203 517.899440983905 -62.39077596457997 0.0 0.0
1041.564873045341 100.02124866700645 568.8369599356377 -61.25546731097536 0.0 0.0
1111.4765531064058 132.49944539392203 620.277580179966 -59.86839161421304 0.0 0.0
1180.3700859006544 167.3989677398103 672.3675716271858 -58.082092370176355 0.0 0.0
1248.5641148846748 204.31400287380137 725.0698566255779 -55.600893758956694 0.0 0.0
1316.4227093030786 243.65935553115753 778.7680888522843 -52.08923850199082 0.0 0.0
1384.7109207225756 286.72157885440487 834.475439751492 -47.712739983930696 0.0 0.0
1455.7201205614447 336.6752249642334 894.918638262047 -43.457577410940836 0.0 0.0
1522.831074627068 387.91494325286163 954.0428996145389 -39.42264880795674 0.0 0.0
1571.113254506624 426.5342181376574 997.4286514651261 -34.72676248148855 0.0 0.0
1571.1132545069597 426.53421813800884 997.4286514652454 34.726762481499726 0.0 0.0
1522.8310746269665 387.914943252819 954.0428996144058 39.422648808054134 0.0 0.0
1455.7201205587453 336.67522496159364 894.9186382599535 43.457577410987206 0.0 0.0
1384.7109207213264 286.72157885325834 834.4754397504455 47.712739983928515 0.0 0.0
1316.4227093032205 243.65935553143174 778.7680888523493 52.08923850203901 0.0 0.0
1248.5641148843288 204.31400287361362 725.0698566252593 55.600893759056746 0.0 0.0
1180.370085901192 167.39896774054318 672.3675716273517 58.08209237024495 0.0 0.0
1111.4765531069866 132.49944539466577 620.2775801802753 59.86839161406514 0.0 0.0
1041.5648730457472 100.02124866766019 568.8369599360148 61.25546731103403 0.0 0.0
970.5521377931859 69.82858731674094 517.8994409840235 62.39077596447234 0.0 0.0
897.7514213554416 42.22042936354998 467.194476407009 62.767354930074006 0.0 0.0
823.1496642310819 17.662824815010396 416.7768480976363 61.50294226322052 0.0 0.0
747.1739084006435 -2.3771728595064303 366.83636004664737 58.17532974728455 0.0 0.0
670.4218224266883 -15.452782848291733 314.91730959685077 54.42395643266627 0.0 0.0
589.6571844690973 -24.203244692730777 247.65813906540436 53.488724148911245 0.0 0.0
500.1593526681476 -23.906410914111902 170.89143143687517 58.050750228827326 0.0 0.0
405.257635947172 -7.487208225699192 121.47248846390781 57.5147747432011 0.0 0.0
303.4023647244852 39.83119317327948 102.97006736932941 34.50141995904492 0.0 0.0
159.8568976933501 -72.30572590428227 26.265351536720345 47.901242074889815 0.0 0.0
15.909669021875658 -562.992027646895 -271.70803154228804 178.74792425573133 0.0 0.0
-6.085554131344935 -553.7020729759263 -271.65146286365115 -180.75642729286233 0.0 0.0
90.5116750374115 -65.95927490722045 7.365720039057316 -95.17097003880481 0.0 0.0
236.90669853672458 35.8540547397893 81.82822598295414 -68.67454319316073 0.0 0.0
350.6775527922082 2.7566775304369466 106.36592304596057 -80.3781292971773 0.0 0.0
454.899443660762 -22.081531595848467 145.58331061679874 -84.86246423324653 0.0 0.0
553.9367829411962 -23.882465838028626 220.29770109150326 -77.43561651251196 0.0 0.0
640.4824355288348 -15.31027978584384 294.75822204507926 -76.58869689546052 0.0 0.0
719.5587014137504 -1.3830287314012963 351.88289731742015 -80.10042830639743 0.0 0.0
793.7148015728062 16.289614444226615 400.77687183663033 -83.3837691146393 0.0 0.0
864.933190932734 37.57130828460801 448.14444883414023 -84.38334794364589 0.0 0.0
933.325989999646 61.19502636337225 494.7563046822287 -83.59158479237995 0.0 0.0
999.4930508410406 86.97321856210262 541.1119679974394 -81.98984282459735 0.0 0.0
1063.9384333873413 114.69102205356059 587.473472960985 -80.02722047983792 0.0 0.0
1127.1756140867246 144.17806555812197 634.0660062352656 -77.60872585759593 0.0 0.0
1188.9662296738634 174.88581232882893 680.4941406246337 -74.42626570531249 0.0 0.0
1250.317724433294 208.0599947872032 727.8616202484277 -70.25306482232271 0.0 0.0
1313.8726243410165 246.20362912124767 778.734101868047 -65.23561025918194 0.0 0.0
1379.117753845945 289.83765495922444 833.1540574381028 -59.53037104033684 0.0 0.0
1439.8760144637308 333.65884826540844 885.4117474401612 -52.19595486635853 0.0 0.0
1484.5740611569404 367.04197743476806 924.396407385475 -42.14502726760288 0.0 0.0
1484.574061156723 367.0419774345866 924.3964073853191 42.14502726758873 0.0 0.0
1439.8760144630637 333.65884826478697 885.4117474395848 52.19595486657785 0.0 0.0
1379.1177538453164 289.8376549587302 833.1540574376857 59.530371040516336 0.0 0.0
1313.8726243409913 246.2036291213157 778.7341018681843 65.23561025922552 0.0 0.0
1250.317724433409 208.059994787429 727.8616202484386 70.25306482237322 0.0 0.0
1188.9662296749564 174.88581233020528 680.4941406253066 74.42626570578803 0.0 0.0
1127.1756140877544 144.17806555942707 634.0660062360352 77.60872585777113 0.0 0.0
1063.938433387517 114.6910220538295 587.4734729609729 80.0272204795957 0.0 0.0
999.4930508412946 86.97321856260265 541.1119679974676 81.98984282468354 0.0 0.0
933.3259900011669 61.19502636527196 494.756304683138 83.59158479273195 0.0 0.0
864.9331909326835 37.57130828484679 448.14444883405 84.3833479436849 0.0 0.0
793.7148015724221 16.289614444143098 400.7768718364213 83.38376911466841 0.0 0.0
719.5587014132436 -1.3830287316896204 351.8828973171149 80.10042830626432 0.0 0.0
640.4824355285986 -15.310279785658494 294.75822204490163 76.58869689562448 0.0 0.0
553.9367829414483 -23.882465837331523 220.29770109158724 77.43561651254254 0.0 0.0
454.8994436604878 -22.081531595737975 145.5833106166573 84.86246423318745 0.0 0.0
350.6775527918057 2.7566775301316326 106.36592304575244 80.37812929695087 0.0 0.0
236.90669853681212 35.8540547396804 81.82822598294773 68.67454319301127 0.0 0.0
90.51167503751984 -65.9592749069178 7.3657200391806175 95.17097003855714 0.0 0.0
-6.085554131319725 -553.7020729756605 -271.6514628634402 180.75642729279832 0.0 0.0
-11.660723685686776 -532.1841058858715 -255.79072759187568 -177.79130685020684 0.0 0.0
52.946352591054406 -60.83296983644884 -2.3659851736183306 -132.0020226480188 0.0 0.0
180.22206375012712 28.48193853750631 62.61120068629002 -103.26812455641043 0.0 0.0
291.88653506306684 10.174017320655139 90.67650218382701 -104.53603798581622 0.0 0.0
398.1872668154427 -17.934985069382268 121.12880622869409 -113.02193427686424 0.0 0.0
507.61622632743206 -23.157350388912818 188.6349872825511 -104.37817175352082 0.0 0.0
603.4059485179367 -15.380428450400753 268.54149488522023 -100.0719903287875 0.0 0.0
685.6094192499472 -0.8606295460574671 332.41887359274676 -101.96102291658883 0.0 0.0
758.714431152694 14.976165314759868 381.70620004988604 -104.63471766248891 0.0 0.0
826.6955116687731 32.764336911064945 426.19032295760087 -105.22019675490895 0.0 0.0
890.9480342549941 52.47637490921759 468.9285266411687 -103.96406222536591 0.0 0.0
952.0977363170658 73.78382686827341 510.61603081066136 -101.91781360804552 0.0 0.0
1011.2073569497845 96.60346133134868 551.9098331380967 -99.51363568341127 0.0 0.0
1068.601560579038 120.83911940997943 592.9866344370239 -96.44578010220127 0.0 0.0
1124.3410553167591 145.78559300970906 633.5456008039524 -92.64837342909134 0.0 0.0
1179.461755536815 172.4653341013672 674.5815711749224 -88.13361914198785 0.0 0.0
1235.8885627605382 203.4283431028678 718.3177043016734 -82.6569177923936 0.0 0.0
1294.652185794468 239.7346537509643 765.8393616859337 -75.65617947094762 0.0 0.0
1351.1999166032003 277.5483243984802 812.9872440143822 -65.37619896747329 0.0 0.0
1396.261954090133 308.79966271498296 851.0712450977234 -50.562526729813435 0.0 0.0
1396.2619540907526 308.79966271560016 851.0712450982548 50.56252672978198 0.0 0.0
1351.1999166042624 277.5483243996317 812.9872440150497 65.3761989676186 0.0 0.0
1294.6521857927266 239.7346537492947 765.8393616845289 75.65617947101427 0.0 0.0
1235.8885627578688 203.42834310026092 718.317704299527 82.6569177923948 0.0 0.0
1179.4617555366942 172.46533410140285 674.5815711746368 88.13361914221642 0.0 0.0
1124.341055316664 145.7855930098088 633.5456008036881 92.64837342919824 0.0 0.0
1068.6015605772823 120.83911940835037 592.9866344357409 96.4457801021153 0.0 0.0
1011.2073569489878 96.60346133068788 551.9098331375901 99.51363568332835 0.0 0.0
952.0977363162523 73.78382686765406 510.616030810132 101.91781360805734 0.0 0.0
890.9480342544257 52.47637490877062 468.92852664071455 103.9640622251913 0.0 0.0
826.6955116680468 32.76433691050664 426.19032295707376 105.22019675473663 0.0 0.0
758.714431152996 14.976165315376392 381.70620005005895 104.63471766250242 0.0 0.0
685.6094192495848 -0.8606295461983535 332.4188735924621 101.96102291644267 0.0 0.0
603.4059485170544 -15.380428450973554 268.5414948845737 100.07199032875268 0.0 0.0
507.6162263269481 -23.15735038915428 188.63498728213153 104.37817175331325 0.0 0.0
398.18726681535423 -17.93498506924796 121.12880622865524 113.02193427659981 0.0 0.0
291.88653506281287 10.174017320582264 90.67650218373751 104.53603798559209 0.0 0.0
180.22206375033744 28.481938537840442 62.61120068645335 103.26812455638054 0.0 0.0
52.94635259117023 -60.83296983605759 -2.365985173466207 132.0020226477882 0.0 0.0
-11.660723685657771 -532.1841058856791 -255.79072759167727 177.79130685010804 0.0 0.0
-9.811481399106526 -502.39980081050544 -230.49541420485107 -173.5924099224187 0.0 0.0
31.5296538467931 -55.33109493513949 -7.140479824832257 -159.56373285398757 0.0 0.0
132.51713756930928 20.613138547338643 45.93908283499438 -133.63100235894368 0.0 0.0
233.10341947506654 13.339634337272864 73.92893968511825 -128.91340460088517 0.0 0.0
331.3795599985347 -10.825468871827683 98.82171972803688 -139.5377512375257 0.0 0.0
445.02531655905483 -22.195463788980653 153.0839431296787 -134.84511315387988 0.0 0.0
553.4557551590265 -14.496942685859565 234.42594758854318 -125.72795028090053 0.0 0.0
642.0355853348921 -1.4769903438947765 305.45762386274305 -124.35000696187839 0.0 0.0
716.5929084628198 13.342567374358836 358.20485331424334 -125.51683512738182 0.0 0.0
781.9240272741089 27.95275268965851 400.7328430037277 -125.2817367159625 0.0 0.0
841.9775746457367 43.6333471795939 439.6305932664209 -123.52253594077703 0.0 0.0
898.2830381453009 60.55666727763439 476.83488813541356 -121.04750516484475 0.0 0.0
951.7749518384188 78.45952985803062 512.9336733130801 -118.23150694101776 0.0 0.0
1003.4762573242355 97.31082922780774 548.5048316809059 -114.74408525169451 0.0 0.0
1053.7779169988764 116.97622310113496 583.7393635394791 -110.38460520426877 0.0 0.0
1102.0111243991128 137.29647387805576 618.2150363595199 -105.41439986854468 0.0 0.0
1150.2860517450526 159.5620058712949 653.5735111221724 -99.79263972655616 0.0 0.0
1201.3840086823618 186.91682951119324 692.7899889408276 -92.10464887438452 0.0 0.0
1254.5346697452505 219.03777229144987 735.3666820391398 -79.58680872048895 0.0 0.0
1302.9754850375014 250.11000063814646 775.0053759230217 -60.68645998897697 0.0 0.0
1302.9754850373822 250.110000638004 775.0053759228357 60.68645998897586 0.0 0.0
1254.5346697450834 219.0377722913272 735.3666820390443 79.58680872061524 0.0 0.0
1201.3840086836049 186.91682951258696 692.7899889418661 92.1046488745526 0.0 0.0
1150.2860517471183 159.56200587355028 653.5735111236806 99.79263972674596 0.0 0.0
1102.011124399477 137.29647387855192 618.2150363598568 105.41439986859115 0.0 0.0
1053.777916997885 116.9762231001622 583.7393635389003 110.384605204022 0.0 0.0
1003.4762573229171 97.3108292265465 548.5048316801181 114.7440852515748 0.0 0.0
951.7749518377807 78.45952985748718 512.9336733126447 118.23150694084903 0.0 0.0
898.2830381453072 60.55666727791336 476.83488813541396 121.04750516498392 0.0 0.0
841.9775746458209 43.63334717981451 439.6305932664475 123.52253594065104 0.0 0.0
781.9240272747275 27.95275269060076 400.7328430041551 125.28173671603 0.0 0.0
716.5929084624385 13.34256737422318 358.20485331394656 125.51683512731893 0.0 0.0
642.0355853347457 -1.4769903437757677 305.45762386259844 124.35000696180353 0.0 0.0
553.4557551586535 -14.496942685806104 234.42594758823762 125.72795028094308 0.0 0.0
445.02531655873736 -22.195463788930134 153.08394312943906 134.84511315375937 0.0 0.0
331.3795599985848 -10.825468871338012 98.82171972819104 139.53775123733166 0.0 0.0
233.1034194749886 13.33963433744048 73.92893968514657 128.9134046005549 0.0 0.0
132.51713756950784 20.61313854754574 45.93908283511607 133.63100235873017 0.0 0.0
31.5296538467678 -55.33109493499146 -7.140479824795397 159.56373285393963 0.0 0.0
-9.811481399021318 -502.3998008102634 -230.49541420460082 173.59240992227598 0.0 0.0
-4.436260155188521 -466.00693736446124 -199.1356922123499 -169.77695271765964 0.0 0.0
17.68663232607868 -50.076348685630194 -9.71671271232383 -179.06874964466655 0.0 0.0
91.03256283021011 13.515390122138687 31.363767918530495 -157.87061079194487 0.0 0.0
174.6342818291418 14.377911736391326 56.70302957015086 -151.64028386729044 0.0 0.0
258.68888111546016 -3.371465693668301 77.7828742777253 -162.31001420499007 0.0 0.0
366.3382110279654 -18.493678335187838 117.18512843865551 -166.94213431183982 0.0 0.0
485.24886095815907 -14.251231668620767 190.92045755693377 -155.26378323588193 0.0 0.0
585.2287393156387 -1.867372858459456 268.70298368004336 -148.06972806393352 0.0 0.0
663.3492812232404 10.841608054541599 326.9348699894265 -146.41030841818724 0.0 0.0
727.9551609370991 22.979480897777623 370.0057950420743 -144.77217843939454 0.0 0.0
784.0351895667692 34.657810539280014 405.5414763369102 -142.2841936442367 0.0 0.0
835.594276195053 47.414690978177 438.53938971412526 -139.35714594742768 0.0 0.0
883.3963543908376 60.36279906324421 469.4477537434565 -136.21689077197968 0.0 0.0
928.9077798744083 73.79073695855872 499.28495015259887 -132.47464384166707 0.0 0.0
973.446435296086 88.07493415894622 528.9648966848533 -127.70886367324091 0.0 0.0
1016.5290107255275 102.95851879199144 558.2206860390827 -122.16794634835372 0.0 0.0
1055.7736349922407 116.22797267428336 584.6832920197527 -116.30367460288288 0.0 0.0
1096.6368718736128 132.27239053951547 613.1431568187063 -108.80223096025867 0.0 0.0
1145.8304484063326 156.89077581830253 649.9267379649883 -95.45814207891385 0.0 0.0
1200.711755707552 189.2723109917773 693.3415243703803 -73.56358964114594 0.0 0.0
1200.711755705685 189.27231098994037 693.341524369036 73.56358964133031 0.0 0.0
1145.8304484055507 156.89077581756106 649.9267379643743 95.45814207901182 0.0 0.0
1096.636871871363 132.27239053726407 613.143156817129 108.80223096016451 0.0 0.0
1055.7736349898466 116.22797267191328 584.6832920179886 116.30367460286922 0.0 0.0
1016.5290107241988 102.95851879069431 558.2206860378863 122.16794634830501 0.0 0.0
973.4464352955275 88.07493415853679 528.964896684371 127.70886367326827 0.0 0.0
928.9077798737258 73.79073695797968 499.28495015209137 132.47464384165778 0.0 0.0
883.3963543906156 60.362799063310376 469.44775374330356 136.21689077217113 0.0 0.0
835.5942761940738 47.41469097743493 438.5393897134991 139.35714594756078 0.0 0.0
784.0351895660483 34.65781053879988 405.54147633637984 142.28419364428402 0.0 0.0
727.9551609369574 22.9794808979741 370.00579504200584 144.77217843950385 0.0 0.0
663.3492812235646 10.84160805531603 326.9348699896772 146.41030841834697 0.0 0.0
585.2287393154423 -1.8673728582505191 268.7029836799073 148.06972806400017 0.0 0.0
485.24886095685866 -14.251231669772565 190.92045755604053 155.26378323576085 0.0 0.0
366.33821102738113 -18.493678335616497 117.18512843825265 166.94213431161074 0.0 0.0
258.68888111537166 -3.371465693342264 77.78287427779304 162.31001420476113 0.0 0.0
174.63428182915172 14.377911736633765 56.70302957023156 151.6402838671355 0.0 0.0
91.03256283043888 13.515390122336438 31.363767918659093 157.87061079185293 0.0 0.0
17.686632326119692 -50.076348685329464 -9.716712712221465 179.06874964462955 0.0 0.0
-4.436260155344762 -466.0069373642502 -199.13569221219183 169.7769527176663 0.0 0.0
1.1226543606864325 -424.35853313445364 -165.7621392624094 -167.28124824626997 0.0 0.0
5.528638112311879 -45.87055060156332 -12.102802372333857 -190.6891863261612 0.0 0.0
53.284739804856784 7.910469361240614 18.35982443474197 -175.91344645163701 0.0 0.0
116.96215423997894 15.258331877667977 39.690134746502125 -170.5595773749398 0.0 0.0
184.04434905426695 1.9032690720925312 56.46284707379512 -181.74382690119432 0.0 0.0
269.98694068269054 -10.951201572011955 83.07666922073724 -194.5586932742282 0.0 0.0
388.554580141006 -12.775901231986918 139.20024681381182 -189.43579308518204 0.0 0.0
505.12531589236664 -2.7856032979450878 216.66871322932263 -175.5132367858872 0.0 0.0
592.7563132952524 7.993229315743665 282.64694342207093 -168.15122574819637 0.0 0.0
658.1751281884744 17.463639786839344 329.12812261357135 -163.94867654897206 0.0 0.0
711.7232155159759 25.48133394082743 363.4216303549241 -160.4841173791467 0.0 0.0
758.2853381434827 34.22195861891699 392.60577706549066 -156.92430834988127 0.0 0.0
800.2822945236136 42.61196493754192 418.65129741654584 -153.38262696207252 0.0 0.0
839.2165839068848 50.525301433542325 442.6122468127569 -149.57827607098923 0.0 0.0
877.3105332735878 58.890634002005385 466.17654551352643 -144.81940877505517 0.0 0.0
915.5933878566531 68.65525609404366 490.4739353234911 -138.61064584624367 0.0 0.0
949.7481551697418 76.0057008438857 511.6042087122841 -131.94217208209068 0.0 0.0
977.1791170415887 77.77524798469506 526.3804908961458 -125.17303661356712 0.0 0.0
1016.8876415342382 89.46557102776964 551.8173982734727 -113.30252003784265 0.0 0.0
1080.8052777322107 123.65627274325007 600.4235299916633 -90.76094905419993 0.0 0.0
1080.8052777334935 123.6562727446302 600.4235299926654 90.7609490543227 0.0 0.0
1016.8876415341886 89.46557102779201 551.8173982735372 113.30252003798296 0.0 0.0
977.1791170401463 77.77524798334645 526.3804908951086 125.17303661382576 0.0 0.0
949.7481551697866 76.00570084432724 511.6042087122007 131.9421720824572 0.0 0.0
915.593387857545 68.65525609502299 490.4739353239636 138.61064584628804 0.0 0.0
877.3105332738602 58.89063400257504 466.1765455136924 144.81940877527214 0.0 0.0
839.2165839061792 50.52530143302738 442.6122468122589 149.57827607110806 0.0 0.0
800.282294523072 42.61196493707399 418.65129741619376 153.3826269620726 0.0 0.0
758.2853381438082 34.2219586196145 392.6057770657166 156.9243083500651 0.0 0.0
711.7232155162206 25.481333941337027 363.4216303550675 160.48411737919707 0.0 0.0
658.1751281883363 17.46363978685976 329.1281226133946 163.94867654885212 0.0 0.0
592.7563132942448 7.993229314759375 282.646943421373 168.15122574803388 0.0 0.0
505.125315891088 -2.785603299254902 216.66871322835854 175.51323678568522 0.0 0.0
388.5545801405756 -12.775901231860704 139.20024681357452 189.43579308521575 0.0 0.0
269.9869406822335 -10.951201572353288 83.07666922046695 194.55869327400768 0.0 0.0
184.04434905405853 1.903269071905112 56.46284707367746 181.74382690098173 0.0 0.0
116.96215423993957 15.258331877820149 39.690134746542 170.55957737475052 0.0 0.0
53.28473980482826 7.910469361212999 18.359824434728708 175.91344645133302 0.0 0.0
5.528638112261778 -45.87055060157626 -12.102802372354077 190.68918632571476 0.0 0.0
1.1226543606886992 -424.35853313423576 -165.76213926221698 167.28124824617217 0.0 0.0
3.757732135635962 -378.1914815692621 -134.261027140197 -164.77022420029732 0.0 0.0
-9.18658072151007 -44.04933513122413 -15.977108352679764 -196.31654523514607 0.0 0.0
17.59358480818156 4.460528393147216 6.622280169470742 -187.93071718658604 0.0 0.0
60.756947834153046 16.431042503041738 23.1938140190362 -184.7502593562994 0.0 0.0
107.28236977797732 6.189113144212039 34.46622025330143 -196.84744103124473 0.0 0.0
163.33948334100188 -3.653735656175825 50.10042057345969 -214.3476900647642 0.0 0.0
254.71537739827033 -6.459616548624621 84.22359019639022 -221.52669693475744 0.0 0.0
377.2490269822214 -2.9605367322438045 144.01913534477438 -209.79443630600883 0.0 0.0
483.8584870743657 5.054115095339274 212.2621009844396 -193.69691150685418 0.0 0.0
556.1691758180486 11.147492966501233 265.1387733970984 -183.8546854749356 0.0 0.0
608.1247867329785 16.596490884436626 302.28574993473165 -178.23744946397784 0.0 0.0
649.536362056997 20.856030686452286 329.2949299418113 -173.9004826609578 0.0 0.0
685.3757744394861 25.052133616257436 351.5384242798316 -169.82217662623623 0.0 0.0
717.3259707052356 27.98556302451958 370.19256540104243 -165.84961265307518 0.0 0.0
747.6499652327577 29.996150192613356 387.00402837973877 -161.3484141539194 0.0 0.0
779.4373337002427 32.855036046881 404.63916213787326 -155.35395412237472 0.0 0.0
813.7072236119633 37.33514650850262 424.3043389350797 -147.18482865011342 0.0 0.0
836.8271288156216 31.911633191851962 433.78538605025193 -139.57021697936122 0.0 0.0
852.7557354869191 15.600144946848019 433.3798978683706 -132.1962764325934 0.0 0.0
924.7899721265426 46.82274729516325 483.79010379040415 -115.12625921101453 0.0 0.0
924.7899721265372 46.82274729542354 483.7901037903783 115.12625921156379 0.0 0.0
852.7557354876612 15.600144947647323 433.3798978687719 132.19627643272528 0.0 0.0
836.827128815909 31.911633192457543 433.7853860505386 139.57021697997465 0.0 0.0
813.7072236118948 37.33514650878715 424.3043389352949 147.1848286503677 0.0 0.0
779.4373336988474 32.85503604533062 404.6391621369605 155.35395412214245 0.0 0.0
747.6499652317335 29.996150191296095 387.0040283790237 161.34841415366455 0.0 0.0
717.3259707051066 27.985563024261268 370.1925654009215 165.84961265298392 0.0 0.0
685.375774439151 25.05213361624436 351.5384242796405 169.8221766265769 0.0 0.0
649.5363620570984 20.856030687056716 329.2949299419156 173.9004826613098 0.0 0.0
608.1247867335562 16.596490885524815 302.2857499351907 178.23744946414513 0.0 0.0
556.1691758180698 11.14749296681984 265.1387733971184 183.85468547494298 0.0 0.0
483.8584870747677 5.054115096345733 212.26210098472458 193.69691150701814 0.0 0.0
377.2490269821655 -2.9605367314815894 144.01913534484547 209.79443630615856 0.0 0.0
254.71537739814482 -6.459616548018049 84.22359019647828 221.52669693478146 0.0 0.0
163.33948334068793 -3.6537356564253622 50.100420573287636 214.34769006449235 0.0 0.0
107.28236977764657 6.189113143634225 34.466220253030386 196.84744103094178 0.0 0.0
60.75694783410644 16.431042502927188 23.193814018989194 184.7502593559683 0.0 0.0
17.59358480808596 4.4605283931564275 6.622280169446104 187.9307171863521 0.0 0.0
-9.186580721437132 -44.04933513103854 -15.977108352605217 196.31654523503 0.0 0.0
3.757732135636836 -378.1914815689064 -134.26102713999813 164.7702242002674 0.0 0.0
2.3169162488435333 -328.24010556371246 -106.45884360813758 -160.1158634252788 0.0 0.0
-27.897383361373002 -45.39179934132204 -21.998024644887927 -197.8795677837109 0.0 0.0
-16.87216040898017 3.3645503827403918 -4.054687674636803 -194.84802910955383 0.0 0.0
6.218620502223867 17.67899523526186 7.188198664393677 -193.773504859278 0.0 0.0
29.77091276331392 10.741504434592144 12.296145886729812 -205.77792460170463 0.0 0.0
52.47250830680892 2.036679942797011 17.013432112882068 -225.56436446141035 0.0 0.0
86.32820729918288 -0.9611560241491004 27.75243623929551 -240.35299798003837 0.0 0.0
151.59648589524863 1.2684244301990457 51.6389938919007 -241.32106575589754 0.0 0.0
243.6474029363775 5.461785663970506 89.94834207021856 -226.19282611767005 0.0 0.0
326.5992240202728 7.153643547222835 133.0912697041645 -209.18285685987797 0.0 0.0
385.1171959996492 8.485852554460578 171.67739597352784 -197.0984367393081 0.0 0.0
422.2016270457591 8.6684510248855 199.85310419842912 -189.93263493928433 0.0 0.0
449.2661789919676 8.547026116541076 221.03610664083467 -184.7169778885747 0.0 0.0
472.2259643683551 6.205474265242742 236.78595954071903 -180.23147022590294 0.0 0.0
495.47160699704085 1.8759142183258746 249.31901982324035 -175.90262631708896 0.0 0.0
523.9377574507294 -3.456545120697683 261.84369782823785 -171.01596416949081 0.0 0.0
561.9900006892482 -6.3497229773759045 279.0557321258749 -163.66069363849806 0.0 0.0
608.2106849384312 -5.839004412245856 302.11888135061304 -152.641858360174 0.0 0.0
622.9332287991538 -39.901032648027524 293.20630192480445 -145.24786687596145 0.0 0.0
663.6628947955542 -66.19980120885373 296.90928035172294 -147.20749394886064 0.0 0.0
663.6628947956249 -66.19980120877256 296.9092803517664 147.2074939491843 0.0 0.0
622.9332288009382 -39.90103264579221 293.20630192604546 145.24786687640488 0.0 0.0
608.2106849373256 -5.839004412963675 302.11888135000925 152.64185836063342 0.0 0.0
561.9900006871904 -6.349722980094327 279.0557321242553 163.66069363846222 0.0 0.0
523.937757450894 -3.4565451209088565 261.8436978281304 171.0159641692381 0.0 0.0
495.47160699776106 1.8759142196948915 249.319019823846 175.90262631728763 0.0 0.0
472.2259643702034 6.2054742678838295 236.78595954211437 180.23147022613387 0.0 0.0
449.2661789935612 8.547026118478513 221.03610664192436 184.71697788878487 0.0 0.0
422.20162704455106 8.66845102386759 199.85310419772713 189.9326349393781 0.0 0.0
385.11719600031364 8.485852555214464 171.67739597383115 197.09843673931692 0.0 0.0
326.5992240206676 7.153643548400659 133.09126970453477 209.18285685982585 0.0 0.0
243.64740293599314 5.461785663834892 89.9483420700169 226.19282611781495 0.0 0.0
151.5964858953628 1.2684244309969372 51.63899389214052 241.32106575591376 0.0 0.0
86.32820729925757 -0.9611560238161676 27.752436239415218 240.35299797994256 0.0 0.0
52.472508306768376 2.036679942720056 17.01343211284692 225.56436446110436 0.0 0.0
29.770912763005608 10.74150443397192 12.296145886450981 205.77792460153762 0.0 0.0
6.218620502241977 17.67899523516868 7.188198664371596 193.77350485909432 0.0 0.0
-16.872160409128178 3.3645503824512897 -4.054687674768683 194.84802910940058 0.0 0.0
-27.89738336158198 -45.39179934166515 -21.998024645057498 197.879567783515 0.0 0.0
2.316916248802073 -328.24010556344757 -106.4588436080158 160.11586342513527 0.0 0.0
-8.063046592027415 -276.6822110438465 -86.94553726672206 -151.1427860453409 0.0 0.0
-48.16704419030442 -48.02932108164731 -28.87984922588616 -197.35948479519814 0.0 0.0
-50.459313791220076 3.6563380178128777 -14.075728799576407 -197.3703248885704 0.0 0.0
-46.67456770309208 18.795230910499328 -8.421873370546608 -197.39448892693116 0.0 0.0
-46.8007819393475 15.35037889914485 -9.622105235832827 -207.94402968354905 0.0 0.0
-59.36088694317144 7.313431997422542 -16.353392555469323 -226.47952599752074 0.0 0.0
-89.79096120902756 2.5768617742184823 -28.416301471282445 -240.5199079166558 0.0 0.0
-152.8165795750922 -0.795802365459295 -51.958778273791935 -241.54942028520514 0.0 0.0
-243.5289729556116 -5.185628253184632 -89.8478443732338 -226.30576951534852 0.0 0.0
-326.30827318921274 -6.602629405491157 -132.80219194991065 -209.15731109759224 0.0 0.0
-385.39885888610166 -6.822956378516594 -171.0746346586103 -196.88960920937762 0.0 0.0
-424.24032645383573 -7.147503268259456 -200.01795031673004 -189.45161528872643 0.0 0.0
-453.98969525304153 -10.131917651346185 -223.70104295163725 -184.4801889239444 0.0 0.0
-477.30303522476686 -16.225677620592222 -244.07452664835876 -181.36517534953947 0.0 0.0
-492.21549154685266 -25.440004645822683 -261.2909316180019 -179.9452718904126 0.0 0.0
-495.3346729339484 -36.71756892738517 -274.4044626967101 -179.68393406637256 0.0 0.0
-477.8587435497337 -47.20760308499172 -280.00222044871595 -179.4828590143798 0.0 0.0
-410.5519742223102 -39.49248003217298 -261.65770188967525 -179.13235313834372 0.0 0.0
-229.557358724977 -42.14930150706152 -203.9036266527828 -182.2008577509485 0.0 0.0
-34.3925669605494 -175.54488767393477 -74.42695404764018 -180.3625484617175 0.0 0.0
-34.392566960016325 -175.54488767297215 -74.426954047209 180.3625484621452 0.0 0.0
-229.55735872277035 -42.14930150293986 -203.9036266508682 182.2008577513672 0.0 0.0
-410.5519742196549 -39.49248002795821 -261.6577018873587 179.1323531385343 0.0 0.0
-477.8587435489959 -47.20760308341232 -280.00222044790985 179.48285901430245 0.0 0.0
-495.3346729327486 -36.7175689260651 -274.40446269591285 179.6839340661505 0.0 0.0
-492.21549154577417 -25.440004644187468 -261.2909316171613 179.94527189022858 0.0 0.0
-477.3030352245048 -16.225677620582474 -244.07452664820207 181.36517534957045 0.0 0.0
-453.9896952516756 -10.131917650357565 -223.70104295085565 184.48018892400944 0.0 0.0
-424.24032645248394 -7.14750326626897 -200.0179503156043 189.45161528846631 0.0 0.0
-385.3988588862958 -6.82295637955346 -171.07463465878084 196.8896092094205 0.0 0.0
-326.30827318884565 -6.602629406183468 -132.8021919498627 209.15731109742126 0.0 0.0
-243.52897295461082 -5.185628252507609 -89.84784437266349 226.30576951555076 0.0 0.0
-152.81657957432634 -0.7958023648126407 -51.95877827334479 241.5494202852439 0.0 0.0
-89.79096120869717 2.576861774211329 -28.41630147116159 240.51990791651917 0.0 0.0
-59.36088694304688 7.313431997347995 -16.35339255544995 226.47952599726852 0.0 0.0
-46.80078193922011 15.350378899251433 -9.622105235761483 207.94402968325713 0.0 0.0
-46.67456770304943 18.795230910393116 -8.4218733705663 197.39448892671817 0.0 0.0
-50.459313791196266 3.6563380178335714 -14.075728799565397 197.37032488835592 0.0 0.0
-48.16704419034808 -48.02932108163877 -28.87984922590654 197.35948479512467 0.0 0.0
-8.063046592102054 -276.68221104363016 -86.94553726667812 151.1427860451866 0.0 0.0
-21.631117048675847 -226.63084255116073 -74.47220434361058 -138.37529553954084 0.0 0.0
-66.24652169530825 -48.69702576418716 -34.50585904112533 -193.9852747210609 0.0 0.0
-83.18286876412586 3.960182971177034 -23.837801772707692 -196.05000454489013 0.0 0.0
-97.89646933766059 19.780201346339553 -23.589783873503894 -195.74971179142574 0.0 0.0
-121.59271218528863 19.12904644850457 -31.355583973822565 -203.13909564432532 0.0 0.0
-168.80744494916735 12.483896980595848 -49.46094386754246 -216.5650412170668 0.0 0.0
-256.1221520720672 7.959096997893489 -84.58823783673625 -222.5211414853448 0.0 0.0
-376.73520162478326 3.3432721814683752 -143.9117551273733 -210.41607981990848 0.0 0.0
-483.38063796038557 -4.789192234566094 -211.99511317780556 -193.9048122341184 0.0 0.0
-555.7142026999189 -10.568765412052926 -264.70911459369154 -183.80911732260057 0.0 0.0
-607.6263187847751 -15.297323625369941 -301.48079515720065 -177.86851626163437 0.0 0.0
-649.8144906107566 -19.489081177962944 -328.72839667638976 -173.02588235357413 0.0 0.0
-687.9918251875107 -26.288601512615827 -353.22288094412625 -168.99585606141824 0.0 0.0
-723.778841915281 -36.4599102545987 -377.3139236624948 -166.82655041415185 0.0 0.0
-757.1880071810824 -50.17158207759991 -401.730198545423 -166.84348807222892 0.0 0.0
-785.9315225589155 -66.01375037006557 -424.88621861635517 -168.94617918474273 0.0 0.0
-804.9930721175278 -80.59753015627518 -442.6963345313429 -173.64947462781967 0.0 0.0
-813.2239553208225 -93.73329503563104 -454.1605844601435 -180.97877455248477 0.0 0.0
-844.5163624410909 -146.59459584816426 -497.6516631455309 -190.5967781484952 0.0 0.0
-869.070143615828 -243.38314478464017 -559.8948079871609 -209.17497129043235 0.0 0.0
-869.0701436162764 -243.38314478550376 -559.8948079875627 209.1749712909053 0.0 0.0
-844.516362441571 -146.59459584938446 -497.6516631460537 190.5967781491418 0.0 0.0
-813.2239553208499 -93.73329503590571 -454.1605844603081 180.97877455273834 0.0 0.0
-804.9930721168619 -80.59753015577519 -442.69633453098635 173.64947462801598 0.0 0.0
-785.9315225567193 -66.01375036800206 -424.8862186149661 168.94617918483246 0.0 0.0
-757.1880071795126 -50.171582075383924 -401.7301985441924 166.84348807153268 0.0 0.0
-723.7788419156543 -36.459910255161816 -377.3139236627776 166.8265504141193 0.0 0.0
-687.9918251872439 -26.28860151236556 -353.222880943901 168.99585606135918 0.0 0.0
-649.8144906105937 -19.48908117801588 -328.72839667625016 173.02588235349106 0.0 0.0
-607.626318784756 -15.297323625636906 -301.48079515711913 177.8685162615471 0.0 0.0
-555.7142026997773 -10.568765412245554 -264.7091145935311 183.8091173225507 0.0 0.0
-483.3806379589411 -4.789192233245405 -211.99511317685267 193.90481223404868 0.0 0.0
-376.7352016240919 3.3432721819327558 -143.91175512683617 210.41607981985496 0.0 0.0
-256.1221520719988 7.959096996991196 -84.58823783688763 222.52114148531768 0.0 0.0
-168.8074449489608 12.483896980280614 -49.46094386755868 216.56504121688255 0.0 0.0
-121.59271218484943 19.12904644916692 -31.35558397349469 203.13909564411597 0.0 0.0
-97.89646933733525 19.780201346880414 -23.589783873246 195.7497117912171 0.0 0.0
-83.18286876403546 3.9601829713453442 -23.837801772633348 196.05000454474083 0.0 0.0
-66.24652169520951 -48.69702576411064 -34.50585904107856 193.98527472100298 0.0 0.0
-21.631117048851323 -226.63084255102495 -74.47220434363854 138.37529553929645 0.0 0.0
-28.728923785000696 -179.52023653310644 -62.47474809543213 -123.32624709221899 0.0 0.0
-81.16859892321065 -46.80489274435649 -38.39217128004793 -186.7930594401065 0.0 0.0
-114.61149404808812 3.9300078047843034 -33.27913914302074 -190.77835184682488 0.0 0.0
-147.37844758883244 20.287140201454996 -38.38677521254612 -188.88945782458813 0.0 0.0
-193.87026311340415 21.770444349498952 -52.8416940822832 -191.95410316427882 0.0 0.0
-271.6613410237794 18.51272990810422 -82.28940201617488 -197.79843525789155 0.0 0.0
-387.28803940932113 14.166714703605017 -138.80891021746967 -191.03832611830964 0.0 0.0
-504.19483256474825 3.1930763658032433 -216.192752429782 -176.155749082796 0.0 0.0
-592.4414905819008 -7.827076919999328 -282.4377261049158 -168.24759146812576 0.0 0.0
-657.8388083743289 -17.045965764366414 -328.80030264111264 -163.9217608188123 0.0 0.0
-711.3441072111636 -24.54070173011735 -362.8028123255268 -160.0858164400304 0.0 0.0
-758.3697030110341 -33.069935597011266 -392.04700619611793 -155.80186799590106 0.0 0.0
-802.231201322682 -43.3349320773755 -419.8291450696661 -151.95559669380432 0.0 0.0
-844.9159584708261 -57.1435791350076 -448.5162777224704 -149.77141280290485 0.0 0.0
-886.9432446966014 -75.19962585715413 -478.9560677738839 -150.08556659490432 0.0 0.0
-925.7919199568214 -95.80291853024664 -509.12859252113356 -153.18329857931406 0.0 0.0
-959.8335743587684 -117.49913867978603 -537.3751352055506 -158.56058298604478 0.0 0.0
-997.5859474281723 -150.34123964001805 -573.027318967856 -164.47180535671 0.0 0.0
-1042.7867650424812 -201.08932518398706 -621.1033809110492 -169.32974071015144 0.0 0.0
-1151.382834382634 -341.7566354151208 -745.3768580996052 -172.44788259572044 0.0 0.0
-1151.382834382162 -341.7566354148273 -745.3768580994904 172.4478825959941 0.0 0.0
-1042.7867650438536 -201.08932518553007 -621.103380912122 169.32974071042543 0.0 0.0
-997.5859474286445 -150.3412396407009 -573.0273189682594 164.47180535689483 0.0 0.0
-959.8335743572768 -117.49913867829005 -537.3751352045504 158.56058298595354 0.0 0.0
-925.7919199577182 -95.8029185313475 -509.12859252171836 153.18329857950894 0.0 0.0
-886.9432446971803 -75.19962585807869 -478.9560677742705 150.08556659516324 0.0 0.0
-844.9159584688364 -57.14357913323143 -448.5162777212047 149.77141280300327 0.0 0.0
-802.2312013221608 -43.334932076960726 -419.82914506934526 151.9555966937088 0.0 0.0
-758.3697030105286 -33.06993559677759 -392.04700619584287 155.80186799599656 0.0 0.0
-711.3441072111673 -24.540701730442727 -362.80281232560804 160.08581644003866 0.0 0.0
-657.838808373692 -17.045965763965423 -328.80030264077686 163.9217608187164 0.0 0.0
-592.4414905821907 -7.82707692079013 -282.4377261051253 168.2475914682829 0.0 0.0
-504.194832564625 3.1930763652415286 -216.1927524297322 176.15574908296333 0.0 0.0
-387.2880394087813 14.166714703661844 -138.8089102171225 191.0383261182746 0.0 0.0
-271.6613410231404 18.512729908391655 -82.28940201585235 197.79843525773714 0.0 0.0
-193.87026311333096 21.770444349051253 -52.84169408239439 191.95410316406003 0.0 0.0
-147.37844758891868 20.287140200979515 -38.3867752127199 188.8894578243803 0.0 0.0
-114.61149404814174 3.930007804520859 -33.279139143120005 190.77835184668254 0.0 0.0
-81.1685989230125 -46.804892744349694 -38.39217127998921 186.7930594400214 0.0 0.0
-28.728923785125733 -179.5202365329427 -62.474748095420516 123.32624709214214 0.0 0.0
-31.180939456102948 -136.36369779278553 -50.26339117466654 -107.22042835628396 0.0 0.0
-93.37079156937054 -42.64697258479383 -40.80474602753117 -175.0317370720645 0.0 0.0
-144.27149493823745 3.6177797619404917 -42.25777210253922 -181.43896852192648 0.0 0.0
-194.94708870809214 19.742609789357854 -52.94047308705888 -177.08268195701345 0.0 0.0
-262.41238230793454 24.361542230444293 -73.6652107462057 -175.36626384168733 0.0 0.0
-363.55951027945815 24.259573498940462 -115.98235096567149 -171.01425231211715 0.0 0.0
-483.0754325783483 15.878810608295218 -189.6677445613977 -156.98147007379336 0.0 0.0
-584.7378447503734 2.026181589024958 -268.37031857262593 -148.36311444455876 0.0 0.0
-663.2139368916435 -10.784002514648932 -326.8544950969153 -146.46140563840197 0.0 0.0
-727.779630484782 -22.73883812724047 -369.8180352045754 -144.75341448266943 0.0 0.0
-783.9229092907972 -34.13450104896208 -405.2360830734496 -141.8752997560277 0.0 0.0
-835.7272747314995 -46.629414469101164 -438.2027521995795 -138.11623226929908 0.0 0.0
-884.4537574152263 -60.41562371932241 -469.9229664433574 -134.40594842755516 0.0 0.0
-932.2753300362377 -77.65497662003025 -502.7431611958785 -132.10533987207978 0.0 0.0
-980.2894561255704 -99.51728471421464 -537.926595502315 -132.53866218956162 0.0 0.0
-1028.6924421707965 -126.5912683024057 -575.9135226777057 -135.8990507346633 0.0 0.0
-1078.6133376428722 -160.58159229035846 -618.0946544234725 -140.9139463236948 0.0 0.0
-1133.161381904385 -205.37632824404722 -667.8756840394536 -144.95247720555847 0.0 0.0
-1208.282794772219 -280.00006727983225 -742.6002007961235 -144.5506920872815 0.0 0.0
-1308.16903650115 -403.21083937408116 -854.2232830178389 -141.82335773830704 0.0 0.0
-1308.1690365010254 -403.2108393741522 -854.223283017755 141.82335773863437 0.0 0.0
-1208.282794772124 -280.000067279751 -742.6002007959132 144.5506920872676 0.0 0.0
-1133.161381905367 -205.3763282452315 -667.8756840399536 144.95247720587486 0.0 0.0
-1078.6133376435128 -160.58159229137573 -618.0946544237481 140.91394632408554 0.0 0.0
-1028.692442170655 -126.59126830234018 -575.9135226775318 135.8990507345848 0.0 0.0
-980.2894561264918 -99.51728471542496 -537.926595502967 132.53866218967894 0.0 0.0
-932.2753300359566 -77.65497661993368 -502.74316119564895 132.10533987211363 0.0 0.0
-884.453757416619 -60.41562372115591 -469.92296644424505 134.4059484278236 0.0 0.0
-835.7272747314785 -46.629414469421604 -438.2027521995545 138.1162322694134 0.0 0.0
-783.9229092904098 -34.1345010488822 -405.2360830731588 141.87529975608965 0.0 0.0
-727.7796304841611 -22.73883812692525 -369.81803520416645 144.75341448262913 0.0 0.0
-663.2139368920816 -10.78400251540442 -326.85449509714107 146.46140563836508 0.0 0.0
-584.7378447499292 2.026181589010104 -268.37031857229186 148.3631144446624 0.0 0.0
-483.07543257769265 15.878810608596332 -189.6677445608973 156.98147007374396 0.0 0.0
-363.55951027885277 24.259573499157895 -115.98235096534243 171.01425231203604 0.0 0.0
-262.41238230773484 24.361542230231688 -73.6652107461928 175.36626384141405 0.0 0.0
-194.94708870830138 19.742609788405698 -52.94047308741015 177.08268195691176 0.0 0.0
-144.2714949382504 3.617779761637666 -42.25777210263979 181.4389685218784 0.0 0.0
-93.37079156923716 -42.646972584798476 -40.804746027493394 175.0317370718451 0.0 0.0
-31.18093945608113 -136.36369779273463 -50.26339117464472 107.22042835608327 0.0 0.0
-32.360280582470146 -97.99796006480679 -39.10747219418308 -90.57188487832101 0.0 0.0
-103.83800924989495 -36.59895286534737 -42.13108863457269 -158.86586464360408 0.0 0.0
-172.0576764513206 3.098692640101036 -50.72123877045559 -167.60574088117244 0.0 0.0
-240.87689049258034 18.55048942331394 -67.0876233401958 -160.98114876680708 0.0 0.0
-327.78413461257145 27.229280768183244 -94.46717093561796 -153.7977807237777 0.0 0.0
-440.8980952690735 26.890599799326917 -151.10608624915457 -139.4464498241579 0.0 0.0
-551.8208376814628 15.774622793619017 -233.11451704060954 -126.56923532793179 0.0 0.0
-641.9405927183923 1.397584666381107 -305.4009772815016 -124.42671224402696 0.0 0.0
-716.5693339288707 -13.349262000870056 -358.20876954423613 -125.56571243852397 0.0 0.0
-781.9427474508805 -27.88693013804499 -400.7096311487319 -125.24984253637652 0.0 0.0
-842.1746212107846 -43.55083640219519 -439.68249671027496 -123.1141198369998 0.0 0.0
-898.5237353576821 -60.23220863099385 -476.7961370886707 -119.85170321912025 0.0 0.0
-951.695288229789 -77.77600559861486 -512.541096464856 -116.39243474380534 0.0 0.0
-1003.6866465624754 -97.86427269159282 -548.8015194601869 -114.0263950395565 0.0 0.0
-1057.6824954935378 -123.79556583841764 -588.9035839508045 -114.16948596339446 0.0 0.0
-1116.015294684164 -158.80840350224003 -635.7073742846679 -117.12112653400668 0.0 0.0
-1180.5796198379105 -204.73071522324065 -691.0593276843933 -121.45378332589507 0.0 0.0
-1254.859318157786 -266.8442152878784 -759.2702236847782 -123.84038828680801 0.0 0.0
-1339.6825983157548 -350.41061060248535 -843.4630142830056 -122.3125854940128 0.0 0.0
-1425.5823270217163 -457.7906748166055 -940.2342911280922 -120.5938913737272 0.0 0.0
-1425.5823270225987 -457.7906748176389 -940.2342911288019 120.59389137400515 0.0 0.0
-1339.6825983154176 -350.4106106022229 -843.4630142828797 122.31258549409327 0.0 0.0
-1254.859318156076 -266.8442152862107 -759.2702236836591 123.84038828676084 0.0 0.0
-1180.5796198387907 -204.73071522421748 -691.0593276850323 121.4537833260056 0.0 0.0
-1116.0152946851017 -158.80840350350522 -635.7073742854197 117.12112653425541 0.0 0.0
-1057.6824954919532 -123.7955658368885 -588.903583949672 114.16948596329394 0.0 0.0
-1003.6866465613441 -97.86427269063836 -548.8015194594317 114.02639503955226 0.0 0.0
-951.6952882289502 -77.77600559790393 -512.5410964643463 116.3924347436723 0.0 0.0
-898.5237353569216 -60.2322086303731 -476.79613708811854 119.85170321897262 0.0 0.0
-842.1746212105782 -43.55083640216181 -439.6824967100587 123.11411983683504 0.0 0.0
-781.9427474500687 -27.886930137427914 -400.7096311481871 125.24984253622486 0.0 0.0
-716.5693339277782 -13.349261999971098 -358.2087695435187 125.56571243843031 0.0 0.0
-641.9405927179637 1.3975846663756712 -305.4009772811678 124.42671224414367 0.0 0.0
-551.8208376816171 15.774622792872538 -233.11451704064567 126.56923532804748 0.0 0.0
-440.8980952688037 26.89059979901471 -151.10608624898018 139.44644982418617 0.0 0.0
-327.78413461230423 27.22928076807862 -94.46717093555145 153.79778072374825 0.0 0.0
-240.87689049197974 18.5504894240817 -67.08762333980174 160.98114876671002 0.0 0.0
-172.05767645095256 3.098692640531414 -50.72123877022012 167.6057408810497 0.0 0.0
-103.83800924979141 -36.598952865376205 -42.131088634550274 158.86586464366385 0.0 0.0
-32.360280582446926 -97.99796006477396 -39.10747219416626 90.5718848781801 0.0 0.0
-33.230599138029255 -65.02784669170774 -29.477533748921097 -73.44646339290789 0.0 0.0
-113.22142908644895 -29.237359728059623 -42.73763664435256 -138.7121003401232 0.0 0.0
-198.14909122682394 2.3744669822829136 -58.73020016754181 -149.310983618742 0.0 0.0
-284.2035369273367 17.07303485687292 -80.6921639661208 -140.57071997619602 0.0 0.0
-387.9611473608736 29.546265152566452 -116.1344556970261 -127.46899026881744 0.0 0.0
-503.05090878529427 26.836868319929035 -186.02698293631212 -108.04042249792408 0.0 0.0
-602.6740641857402 15.951099048952472 -267.7624226583307 -100.23854436410687 0.0 0.0
-685.6535151192393 0.7356718527143329 -332.4891230577707 -101.95635891945606 0.0 0.0
-758.7950481882397 -15.047403300587064 -381.78504568691557 -104.67634607259838 0.0 0.0
-826.8819624826924 -32.865237935278344 -426.3217632309953 -105.15683630681224 0.0 0.0
-891.3816425219516 -52.753214356944454 -469.27023302123683 -103.570595854332 0.0 0.0
-952.373294774103 -73.85231756497424 -510.8001515580251 -100.92877182836884 0.0 0.0
-1010.1554342961488 -95.41251279965459 -550.8195081849357 -97.99122903847211 0.0 0.0
-1066.1579007312273 -118.70992135166287 -590.6630272246193 -95.49979930503707 0.0 0.0
-1125.2747325544763 -148.3658762334752 -635.1131476796998 -94.91101065839737 0.0 0.0
-1193.2794644860253 -190.83982130831396 -690.3841217723416 -96.99334467388636 0.0 0.0
-1272.3135318046955 -249.82661573562666 -759.429151138258 -100.44875826958766 0.0 0.0
-1361.1339532824036 -325.8303753110494 -841.8795223173518 -102.78736178659776 0.0 0.0
-1450.8051045588013 -414.57835685229503 -931.1493101513778 -103.11371372972272 0.0 0.0
-1528.6986385204013 -512.9840703213905 -1019.4504510743595 -104.91853848291737 0.0 0.0
-1528.698638521054 -512.9840703222094 -1019.4504510749334 104.91853848328799 0.0 0.0
-1450.8051045589884 -414.5783568526144 -931.1493101517094 103.11371372993997 0.0 0.0
-1361.1339532823422 -325.8303753110706 -841.8795223173937 102.78736178663718 0.0 0.0
-1272.3135318037566 -249.82661573475087 -759.4291511375197 100.44875826948463 0.0 0.0
-1193.279464484025 -190.83982130644682 -690.384121770868 96.99334467397337 0.0 0.0
-1125.274732554476 -148.36587623366626 -635.1131476796888 94.91101065844356 0.0 0.0
-1066.1579007311323 -118.70992135170451 -590.6630272244482 95.49979930496895 0.0 0.0
-1010.1554342962552 -95.41251280002336 -550.8195081849078 97.99122903857666 0.0 0.0
-952.37329477359 -73.85231756467992 -510.8001515576691 100.92877182829898 0.0 0.0
-891.3816425225523 -52.753214357798605 -469.27023302162746 103.57059585429019 0.0 0.0
-826.8819624827711 -32.865237935722305 -426.321763231048 105.1568363069023 0.0 0.0
-758.7950481881414 -15.047403300718464 -381.7850456867721 104.676346072419 0.0 0.0
-685.6535151188145 0.7356718528371786 -332.4891230574965 101.95635891943952 0.0 0.0
-602.6740641852197 15.951099049084476 -267.76242265791404 100.23854436416369 0.0 0.0
-503.0509087849739 26.836868319762765 -186.0269829360563 108.04042249790692 0.0 0.0
-387.9611473600872 29.546265153346248 -116.13445569653143 127.46899026860189 0.0 0.0
-284.20353692694454 17.073034857391434 -80.69216396585183 140.57071997591012 0.0 0.0
-198.1490912268205 2.374466981938535 -58.730200167644945 149.3109836186603 0.0 0.0
-113.22142908641956 -29.237359728169046 -42.737636644376586 138.7121003399225 0.0 0.0
-33.23059913815402 -65.02784669172843 -29.47753374896473 73.44646339272002 0.0 0.0
-33.82941295393404 -37.98274081196356 -21.54364612976928 -55.810523027717444 0.0 0.0
-121.52211853199188 -21.12723928219987 -42.794807344257514 -115.0044924776567 0.0 0.0
-222.76736152731394 1.3273303184390466 -66.43124887857336 -126.42413489244596 0.0 0.0
-326.77408848334693 16.303541633311628 -93.9338433309326 -116.48366443139068 0.0 0.0
-443.0924785602325 29.959831203872522 -139.73931457798798 -97.66970724353514 0.0 0.0
-551.1883531007287 26.20931339736579 -218.01990318487174 -79.4067435514377 0.0 0.0
-640.3714149484986 15.355029695009094 -294.57165137354446 -76.40474183471338 0.0 0.0
-719.6769692510977 1.261075411502702 -352.0026076603514 -80.07449425141584 0.0 0.0
-793.8831525757273 -16.41626606672304 -400.91866430060327 -83.40512760479477 0.0 0.0
-865.2483342892483 -37.81740433125481 -448.4081078296539 -84.28933052722684 0.0 0.0
-933.8358043227867 -61.66703722727419 -495.2345411039879 -83.24091097721417 0.0 0.0
-999.6578453002936 -87.22124301962816 -541.3325103489735 -81.29452746229362 0.0 0.0
-1062.4964970855422 -113.49768318901863 -586.19295681145 -79.00319858628251 0.0 0.0
-1123.5822988010984 -141.00665339994544 -630.6797209010223 -76.6419580643693 0.0 0.0
-1187.0160453967803 -173.8504317296098 -678.8562911931481 -75.05662733254401 0.0 0.0
-1261.3210077374558 -221.6114468876163 -739.8336735811912 -75.59793466679831 0.0 0.0
-1352.7832996947504 -291.6516643720207 -820.5760730147231 -78.49000063662518 0.0 0.0
-1453.886666832147 -379.4005984494142 -915.0633757127877 -82.140090339655 0.0 0.0
-1551.404052659503 -476.1816984592585 -1012.2994504802018 -85.89447182785992 0.0 0.0
-1627.409895921493 -572.0622238763734 -1098.3967218486016 -92.4005076817349 0.0 0.0
-1627.4098959206658 -572.0622238755942 -1098.396721847937 92.400507681887 0.0 0.0
-1551.404052659007 -476.1816984588487 -1012.2994504795311 85.89447182802832 0.0 0.0
-1453.8866668326796 -379.40059845008443 -915.0633757129258 82.14009033979578 0.0 0.0
-1352.7832996913153 -291.6516643686391 -820.5760730122845 78.4900006365767 0.0 0.0
-1261.3210077350013 -221.61144688525826 -739.8336735792899 75.59793466673216 0.0 0.0
-1187.0160453960857 -173.85043172911207 -678.8562911924543 75.05662733266504 0.0 0.0
-1123.5822987994052 -141.0066533984436 -630.6797208998624 76.64195806442012 0.0 0.0
-1062.4964970838187 -113.49768318748384 -586.1929568103332 79.00319858629437 0.0 0.0
-999.6578452996714 -87.2212430192807 -541.3325103485773 81.29452746238802 0.0 0.0
-933.8358043216216 -61.667037226317404 -495.2345411031905 83.24091097711334 0.0 0.0
-865.2483342889027 -37.817404331208735 -448.4081078294497 84.28933052725935 0.0 0.0
-793.8831525752623 -16.416266066562613 -400.9186643003987 83.40512760479552 0.0 0.0
-719.6769692499099 1.261075412450495 -352.0026076595952 80.07449425123971 0.0 0.0
-640.3714149477081 15.355029695610753 -294.5716513729577 76.4047418344836 0.0 0.0
-551.1883531004275 26.20931339731893 -218.01990318457754 79.40674355126835 0.0 0.0
-443.0924785599736 29.95983120361427 -139.73931457787745 97.66970724359291 0.0 0.0
-326.7740884832778 16.303541632771474 -93.93384333107912 116.48366443130993 0.0 0.0
-222.76736152716697 1.3273303185222525 -66.43124887850519 126.42413489226733 0.0 0.0
-121.52211853185736 -21.127239282056824 -42.79480734417425 115.00449247753713 0.0 0.0
-33.82941295384737 -37.98274081180403 -21.543646129695418 55.810523027717444 0.0 0.0
-33.57486879893439 -17.349561717695693 -15.277329154989022 -37.78213543183998 0.0 0.0
-128.0038987320337 -12.789094225132184 -42.23789788714976 -87.99444140711748 0.0 0.0
-246.55189789033128 -0.11052406232958134 -73.99872658579825 -98.93745289449949 0.0 0.0
-369.40619624288144 16.971914071733256 -107.15248892541132 -88.45082480417773 0.0 0.0
-490.2952014359131 28.672258900367886 -164.84077116501922 -66.9661440985821 0.0 0.0
-588.5618384569838 24.73271374847228 -246.5314224750192 -54.17709105207566 0.0 0.0
-670.577136001542 15.306564784082127 -315.06443878596997 -54.17745629675567 0.0 0.0
-747.3673966297295 2.2421870945510136 -366.9956070487533 -58.131241807332614 0.0 0.0
-823.3816225900914 -17.838395277300293 -416.9688260754791 -61.50471254570916 0.0 0.0
-898.1231878581823 -42.558906865625374 -467.5346572144989 -62.66136131051814 0.0 0.0
-970.978280731552 -70.32425739883908 -518.3529383036224 -62.11899334897012 0.0 0.0
-1041.5348874030515 -100.2580817520402 -568.9501505525316 -60.84461083659677 0.0 0.0
-1110.182211883518 -131.68853337773612 -619.2455673774278 -59.316774265899106 0.0 0.0
-1177.3444877812271 -164.98942243334943 -669.6526590094963 -57.33075231380577 0.0 0.0
-1245.5812763661077 -202.0976099732265 -722.3858726474452 -55.019680110166554 0.0 0.0
-1322.1668272085103 -251.008024849528 -785.0612782045977 -53.752219486278065 0.0 0.0
-1417.471433022201 -323.9406990940458 -869.088346031042 -55.704465976528276 0.0 0.0
-1534.4431510696847 -426.7238945585298 -979.0171418405721 -61.216581210388725 0.0 0.0
-1645.1888090724776 -536.0963245417444 -1089.1884299004423 -69.42487634094188 0.0 0.0
-1730.0929306396124 -639.6280779006463 -1183.5601311523928 -81.60373913264232 0.0 0.0
-1730.0929306380156 -639.6280778990365 -1183.560131151256 81.60373913262458 0.0 0.0
-1645.188809070567 -536.0963245398593 -1089.1884298992152 69.42487634094087 0.0 0.0
-1534.4431510696427 -426.72389455854665 -979.0171418408088 61.21658121030466 0.0 0.0
-1417.4714330229715 -323.94069909493726 -869.0883460317019 55.70446597653148 0.0 0.0
-1322.1668272087247 -251.00802484983666 -785.0612782046253 53.752219486078815 0.0 0.0
-1245.5812763668662 -202.09760997417416 -722.3858726479513 55.019680110243264 0.0 0.0
-1177.3444877812315 -164.98942243353557 -669.6526590094468 57.33075231379037 0.0 0.0
-1110.1822118838188 -131.688533378281 -619.2455673775784 59.31677426601937 0.0 0.0
-1041.5348874029403 -100.25808175218681 -568.9501505523764 60.8446108366021 0.0 0.0
-970.9782807319084 -70.32425739944733 -518.3529383038418 62.1189933489443 0.0 0.0
-898.123187858511 -42.55890686627406 -467.5346572146671 62.66136131057793 0.0 0.0
-823.3816225893358 -17.838395276839407 -416.9688260749759 61.504712545665924 0.0 0.0
-747.3673966298 2.2421870941450663 -366.99560704880395 58.13124180739438 0.0 0.0
-670.5771360015672 15.306564783636595 -315.0644387859562 54.17745629680404 0.0 0.0
-588.5618384565792 24.732713748551298 -246.53142247464552 54.17709105203568 0.0 0.0
-490.2952014354014 28.672258900494157 -164.8407711646858 66.9661440986297 0.0 0.0
-369.40619624271295 16.971914071403955 -107.15248892546214 88.4508248040949 0.0 0.0
-246.5518978901578 -0.11052406223083056 -73.99872658571658 98.93745289449949 0.0 0.0
-128.00389873197577 -12.789094225192763 -42.23789788715056 87.994441407015 0.0 0.0
-33.57486879893799 -17.3495617177468 -15.277329155005436 37.78213543167345 0.0 0.0
-31.133495464553427 -3.538484064386373 -10.401593858681938 -19.87571520166111 0.0 0.0
-130.9601019655305 -4.899792354957793 -40.75796829614649 -57.6370262128047 0.0 0.0
-270.0120467381935 -1.479888998503803 -81.44758072100916 -66.3859569489154 0.0 0.0
-412.60648861595865 18.57233537497723 -121.47694524395715 -56.66209865778998 0.0 0.0
-528.6275061685851 26.984666841066872 -189.97726344422097 -38.40001932548641 0.0 0.0
-616.392597785699 22.26378819140895 -270.64566441619206 -31.380321629145914 0.0 0.0
-694.2029602897522 16.37893149422186 -329.7970350574915 -32.678137570216506 0.0 0.0
-770.3022374265156 2.690807092990184 -379.3056007382048 -36.06445237021199 0.0 0.0
-847.8326918978792 -19.040427402558834 -430.22795086467147 -38.96619023497362 0.0 0.0
-926.1559564952796 -47.03913569179093 -484.0429536442794 -40.22997279746701 0.0 0.0
-1003.4244495831172 -78.75261282257361 -538.9712945160203 -40.19237013519535 0.0 0.0
-1079.0948377553132 -112.96239246600322 -594.213725498085 -39.58275171991864 0.0 0.0
-1153.5276130162229 -149.9274556106231 -650.1258622375087 -38.69113805275729 0.0 0.0
-1227.8065623515129 -189.77118829263105 -707.3348876193336 -37.35869130182771 0.0 0.0
-1302.7592645638847 -233.251183447426 -766.6363903633353 -35.227488620269646 0.0 0.0
-1380.4360153741275 -282.96932500570273 -830.3280452537969 -32.67195556837003 0.0 0.0
-1469.2647034481784 -348.71223027575206 -907.4956253997431 -32.44202353739379 0.0 0.0
-1584.092570019289 -447.9485010281087 -1014.4231723471482 -38.61768714958174 0.0 0.0
-1741.252449968864 -601.6595725899924 -1170.0011499192137 -52.10100512439294 0.0 0.0
-1845.988450008776 -722.9395137869301 -1283.19164005816 -71.49207428205625 0.0 0.0
-1845.988450007416 -722.939513785558 -1283.1916400572827 71.49207428198473 0.0 0.0
-1741.2524499692722 -601.6595725904699 -1170.001149919634 52.101005124531014 0.0 0.0
-1584.0925700179387 -447.94850102683273 -1014.4231723459898 38.6176871496412 0.0 0.0
-1469.2647034455224 -348.7122302732173 -907.4956253976462 32.442023537466696 0.0 0.0
-1380.436015371893 -282.96932500356104 -830.3280452522649 32.671955568142025 0.0 0.0
-1302.759264563747 -233.2511834474583 -766.636390363409 35.22748862032691 0.0 0.0
-1227.8065623533532 -189.77118829469435 -707.3348876206309 37.35869130194983 0.0 0.0
-1153.5276130167176 -149.92745561134217 -650.1258622377507 38.69113805282878 0.0 0.0
-1079.0948377558339 -112.96239246677895 -594.2137254983322 39.58275171988429 0.0 0.0
-1003.4244495823959 -78.75261282212313 -538.9712945154932 40.19237013529011 0.0 0.0
-926.1559564944347 -47.03913569124201 -484.04295364372257 40.22997279750079 0.0 0.0
-847.8326918980429 -19.04042740302542 -430.2279508647618 38.96619023486562 0.0 0.0
-770.3022374269358 2.6908070922563496 -379.3056007384526 36.064452370141844 0.0 0.0
-694.2029602890404 16.37893149464532 -329.7970350570059 32.678137570116235 0.0 0.0
-616.3925977854655 22.263788191294417 -270.6456644159611 31.380321629178244 0.0 0.0
-528.6275061680784 26.98466684123711 -189.97726344385387 38.400019325529215 0.0 0.0
-412.6064886156267 18.572335374934568 -121.4769452438613 56.66209865768144 0.0 0.0
-270.01204673793427 -1.4798889981731396 -81.44758072083224 66.38595694886844 0.0 0.0
-130.96010196542122 -4.899792354825549 -40.757968296074026 57.63702621277054 0.0 0.0
-31.133495464719424 -3.538484064535292 -10.401593858776414 19.875715201652568 0.0 0.0
-23.936092740949576 3.147451193777139 -6.23659246415173 -3.395902140311226 0.0 0.0
-127.12175980971227 1.6307920476820552 -37.64729032860906 -23.309857298818677 0.0 0.0
-294.7458598697951 -1.8150619089662676 -88.96827653362838 -27.725105752551823 0.0 0.0
-452.1769707558691 20.563691698757395 -137.71009528409553 -22.526213055421195 0.0 0.0
-560.1655439883727 24.800812670164817 -214.69910990837496 -12.937906708803219 0.0 0.0
-640.3255862069489 20.99846381167295 -290.0988569912041 -10.558486151250595 0.0 0.0
-713.636740697712 16.691999338382644 -341.61245802611637 -11.600563280605698 0.0 0.0
-788.7838668002905 3.1044776347574157 -389.0941510052788 -13.82364552170242 0.0 0.0
-867.9414419683592 -20.19780688384259 -441.2196375872681 -15.808961538546423 0.0 0.0
-949.7684873861391 -51.159550815215425 -498.12077366054785 -16.981939788273372 0.0 0.0
-1031.7456082133479 -86.7844524529323 -557.294318304638 -17.435674158421318 0.0 0.0
-1112.6255157968494 -125.85028930405093 -617.5333438391493 -17.42642931040198 0.0 0.0
-1193.0729336769334 -167.96009959973037 -678.9912374707692 -17.17366075215343 0.0 0.0
-1274.3234786580274 -214.13020262931735 -742.8205562017715 -16.552609967261915 0.0 0.0
-1356.937256488965 -265.0696649551446 -809.6796560746618 -15.30147809559865 0.0 0.0
-1439.944888197044 -320.1958388139013 -878.7984179834149 -13.209292842714659 0.0 0.0
-1522.1895682632917 -379.24621190955236 -949.4323209296765 -11.067379506433008 0.0 0.0
-1611.8777905535685 -452.09302205250106 -1030.553631779051 -13.66434985770968 0.0 0.0
-1742.7736779215813 -576.0243915577396 -1157.762194748746 -29.675061331916943 0.0 0.0
-2052.536199710336 -897.11080646596 -1473.5550134486866 -59.58692369790599 0.0 0.0
-2052.536199709046 -897.1108064646662 -1473.5550134477312 59.58692369782939 0.0 0.0
-1742.7736779209115 -576.0243915571273 -1157.7621947481011 29.675061331999984 0.0 0.0
-1611.8777905529394 -452.09302205195195 -1030.5536317785904 13.664349857627414 0.0 0.0
-1522.189568262265 -379.24621190863905 -949.4323209289539 11.067379506551475 0.0 0.0
-1439.9448881963708 -320.1958388133677 -878.7984179828281 13.20929284254629 0.0 0.0
-1356.9372564884668 -265.06966495481936 -809.6796560741776 15.301478095810253 0.0 0.0
-1274.323478656352 -214.13020262782854 -742.8205562004706 16.552609967053854 0.0 0.0
-1193.0729336772224 -167.96009960022528 -678.991237470969 17.173660752120856 0.0 0.0
-1112.6255157965136 -125.8502893039542 -617.5333438389154 17.426429310193154 0.0 0.0
-1031.7456082136239 -86.78445245347497 -557.2943183048109 17.435674158392196 0.0 0.0
-949.7684873850817 -51.159550814418424 -498.120773659869 16.98193978820896 0.0 0.0
-867.9414419666718 -20.197806882436254 -441.2196375861794 15.808961538505901 0.0 0.0
-788.7838667996119 3.104477635133108 -389.09415100485603 13.82364552174136 0.0 0.0
-713.6367406972383 16.69199933854722 -341.6124580258215 11.600563280486009 0.0 0.0
-640.325586206365 20.998463811961315 -290.0988569907769 10.558486151336677 0.0 0.0
-560.1655439884865 24.8008126696209 -214.69910990836541 12.937906708982604 0.0 0.0
-452.17697075606037 20.56369169805116 -137.71009528428746 22.52621305528678 0.0 0.0
-294.7458598695959 -1.81506190890528 -88.96827653355032 27.725105752530478 0.0 0.0
-127.12175980949402 1.6307920478487858 -37.64729032849357 23.309857298724737 0.0 0.0
-23.936092740954315 3.147451193834585 -6.236592464135918 3.3959021403154965 0.0 0.0
SCALARS Strain float 6
LOOKUP_TABLE default
0.013680948066276833 -0.014752859615785985 0.0 -0.008248324438086763 0.0 0.0
0.0028133874291347526 -0.0019503117814816395 0.0 0.0014022750926978023 0.0 0.0
0.001925279859236479 -0.0008020153858991907 0.0 -3.340472340451761e-05 0.0 0.0
0.0025845544771953034 -0.0013440682066743204 0.0 -0.0002618954796540507 0.0 0.0
0.004417085005762093 -0.00290521665340715 0.0 -0.00035470981682073077 0.0 0.0
0.00817260173399893 -0.0063603182477767195 0.0 -0.0005778473576497078 0.0 0.0
0.014336732073849525 -0.012262190191149713 0.0 -0.0009633801118009155 0.0 0.0
0.023337166094741405 -0.020988478464467164 0.0 -0.0015736799950495928 0.0 0.0
0.035376807422924955 -0.03271958576406986 0.0 -0.0024267147000713307 0.0 0.0
0.0503834516361896 -0.04738739721506713 0.0 -0.003441898851701264 0.0 0.0
0.06810246590341482 -0.06475188298314638 0.0 -0.004491896034903131 0.0 0.0
0.08821780938278567 -0.08450533868525811 0.0 -0.0055088963499310695 0.0 0.0
0.11039804149324925 -0.10631806926457044 0.0 -0.006497633588046059 0.0 0.0
0.13425998180076434 -0.12980258663101907 0.0 -0.007436652432865953 0.0 0.0
0.15925453708302229 -0.15440720228151328 0.0 -0.008258426228173077 0.0 0.0
0.18454719751693535 -0.17930260525529285 0.0 -0.008784375328226568 0.0 0.0
0.20897985318374382 -0.2033443661684995 0.0 -0.00874567054730735 0.0 0.0
0.231117081703928 -0.225107842018466 0.0 -0.007970014503897227 0.0 0.0
0.24925900480476945 -0.2428834529658701 0.0 -0.007084364010526034 0.0 0.0
0.2607361584449216 -0.2537297427329559 0.0 -0.009187620087519166 0.0 0.0
0.2607361584449039 -0.2537297427329497 0.0 0.009187620087530823 0.0 0.0
0.24925900480471425 -0.24288345296582836 0.0 0.007084364010555344 0.0 0.0
0.23111708170383605 -0.22510784201837808 0.0 0.007970014503919876 0.0 0.0
0.20897985318363138 -0.20334436616838492 0.0 0.008745670547317452 0.0 0.0
0.18454719751681237 -0.1793026052551676 0.0 0.008784375328213523 0.0 0.0
0.15925453708289472 -0.15440720228137828 0.0 0.008258426228167304 0.0 0.0
0.1342599818006358 -0.12980258663089073 0.0 0.007436652432865731 0.0 0.0
0.11039804149312049 -0.10631806926444698 0.0 0.006497633588045004 0.0 0.0
0.08821780938266471 -0.08450533868514176 0.0 0.0055088963499234644 0.0 0.0
0.06810246590330815 -0.06475188298304424 0.0 0.004491896034894416 0.0 0.0
0.050383451636099974 -0.04738739721498186 0.0 0.0034418988516876636 0.0 0.0
0.03537680742285426 -0.032719585764001025 0.0 0.0024267147000690548 0.0 0.0
0.02333716609469 -0.020988478464420535 0.0 0.0015736799950469837 0.0 0.0
0.014336732073813974 -0.01226219019111685 0.0 0.0009633801117960861 0.0 0.0
0.008172601733977547 -0.0063603182477569575 0.0 0.0005778473576502074 0.0 0.0
0.004417085005752275 -0.002905216653398268 0.0 0.0003547098168192875 0.0 0.0
0.0025845544771934126 -0.0013440682066715448 0.0 0.0002618954796531625 0.0 0.0
0.0019252798592357956 -0.0008020153858984136 0.0 3.3404723404184544e-05 0.0 0.0
0.0028133874291325633 -0.0019503117814800297 0.0 -0.0014022750926953598 0.0 0.0
0.013680948066265464 -0.014752859615771127 0.0 0.00824832443804946 0.0 0.0
0.00987724089110461 -0.01132515576369697 0.0 -0.01011544074377374 0.0 0.0
0.0014946717677242066 -0.0009739401052840657 0.0 0.00012052305365334304 0.0 0.0
0.0016325638669131698 -0.0005682229902851388 0.0 -0.00012399090345116548 0.0 0.0
0.0022330250843249563 -0.001094655700844216 0.0 -0.0005333597203707185 0.0 0.0
0.003703884232682142 -0.0022922065086978805 0.0 -0.0007789374705152174 0.0 0.0
0.006936927641875479 -0.005208183858127269 0.0 -0.0013214705865031706 0.0 0.0
0.012445781110520387 -0.010432748430796224 0.0 -0.0022725050377127576 0.0 0.0
0.02059080718739447 -0.01829789383033642 0.0 -0.003688218084286876 0.0 0.0
0.03149567711387382 -0.02890286155136179 0.0 -0.005565699852719153 0.0 0.0
0.045036477036331735 -0.04212420749332546 0.0 -0.0077203059051955125 0.0 0.0
0.06095693271867036 -0.057716577316940576 0.0 -0.009914519457128623 0.0 0.0
0.07898748757504272 -0.07541483966827167 0.0 -0.012019718846096816 0.0 0.0
0.0988684954909179 -0.09495791200821291 0.0 -0.014081490197922375 0.0 0.0
0.12028017847003894 -0.11602423147064478 0.0 -0.016081814787828608 0.0 0.0
0.1427528702277986 -0.13814352859775436 0.0 -0.01785380151019117 0.0 0.0
0.16558333335127967 -0.16061489709584809 0.0 -0.019055123352544057 0.0 0.0
0.1877726402693099 -0.18244298121803038 0.0 -0.019198903916533006 0.0 0.0
0.20797968952205542 -0.20228356628418975 0.0 -0.01807734733241939 0.0 0.0
0.22432409339439452 -0.21820286076450213 0.0 -0.01623886978775524 0.0 0.0
0.2341707566097864 -0.22772446758998388 0.0 -0.013535015607413103 0.0 0.0
0.2341707566097701 -0.227724467589967 0.0 0.01353501560744097 0.0 0.0
0.2243240933943443 -0.2182028607644506 0.0 0.01623886978780531 0.0 0.0
0.20797968952197493 -0.2022835662841107 0.0 0.018077347332459137 0.0 0.0
0.18777264026921225 -0.18244298121794245 0.0 0.019198903916547216 0.0 0.0
0.1655833333511692 -0.16061489709574683 0.0 0.019055123352530234 0.0 0.0
0.14275287022768507 -0.13814352859765133 0.0 0.017853801510181455 0.0 0.0
0.12028017846992328 -0.11602423147053642 0.0 0.016081814787825 0.0 0.0
0.09886849549080295 -0.09495791200809833 0.0 0.014081490197915492 0.0 0.0
0.07898748757493523 -0.07541483966817042 0.0 0.012019718846083216 0.0 0.0
0.060956932718574164 -0.057716577316839324 0.0 0.009914519457112525 0.0 0.0
0.04503647703625141 -0.042124207493243304 0.0 0.007720305905176361 0.0 0.0
0.031495677113810516 -0.02890286155129962 0.0 0.00556569985271127 0.0 0.0
0.02059080718734696 -0.0182978938302929 0.0 0.003688218084280881 0.0 0.0
0.01244578111048844 -0.01043274843077091 0.0 0.002272505037705541 0.0 0.0
0.006936927641857771 -0.0052081838581106155 0.0 0.0013214705864988407 0.0 0.0
0.003703884232674648 -0.0022922065086894428 0.0 0.0007789374705143848 0.0 0.0
0.0022330250843233257 -0.0010946557008409963 0.0 0.0005333597203693863 0.0 0.0
0.0016325638669128506 -0.0005682229902838065 0.0 0.00012399090345055486 0.0 0.0
0.0014946717677238874 -0.0009739401052822338 0.0 -0.00012052305365600757 0.0 0.0
0.009877240891089989 -0.011325155763680837 0.0 0.010115440743741877 0.0 0.0
0.007402779689030511 -0.009040360469366404 0.0 -0.0094427349314391 0.0 0.0
0.0008683450500183779 -0.0006407120033685709 0.0 -0.0006227161469752329 0.0 0.0
0.0013028099328080897 -0.00041040268227443555 0.0 -0.00044851845946702884 0.0 0.0
0.001905207821147975 -0.0008667219887772415 0.0 -0.0007791053337576348 0.0 0.0
0.003068045977775505 -0.001773757231391171 0.0 -0.0011218401489339613 0.0 0.0
0.005753714487651995 -0.004127490329965511 0.0 -0.0018658408176818742 0.0 0.0
0.010570429563830017 -0.008630656865476372 0.0 -0.0032423197595711217 0.0 0.0
0.01780963947107507 -0.015586373279898869 0.0 -0.005305801571910129 0.0 0.0
0.02753487802178152 -0.025019699347490487 0.0 -0.00798092061583966 0.0 0.0
0.03958062193078285 -0.036766289276530806 0.0 -0.011006809065223389 0.0 0.0
0.05369213275817289 -0.050575572425986426 0.0 -0.014088242056576272 0.0 0.0
0.06963452096109436 -0.06621367479779838 0.0 -0.01706143557001949 0.0 0.0
0.08719873816430146 -0.08347023100694084 0.0 -0.019954887632451235 0.0 0.0
0.1061375369435198 -0.10209726369298444 0.0 -0.02277500363249013 0.0 0.0
0.12608024018914604 -0.12172434424037792 0.0 -0.025319609238470597 0.0 0.0
0.14646236094576004 -0.14178466063838702 0.0 -0.027127259216876753 0.0 0.0
0.166436182664069 -0.16142436678541205 0.0 -0.02762434570761607 0.0 0.0
0.18472870297353067 -0.17935407500595524 0.0 -0.026438846069623545 0.0 0.0
0.19950414785239956 -0.1937745700174105 0.0 -0.023093994572925713 0.0 0.0
0.20870189073992132 -0.20271173849170232 0.0 -0.016502952554948824 0.0 0.0
0.20870189073990675 -0.20271173849168633 0.0 0.016502952554996675 0.0 0.0
0.1995041478523544 -0.1937745700173661 0.0 0.023093994572995213 0.0 0.0
0.18472870297346095 -0.17935407500590017 0.0 0.026438846069675614 0.0 0.0
0.16643618266398286 -0.161424366785333 0.0 0.027624345707636833 0.0 0.0
0.1464623609456634 -0.14178466063828932 0.0 0.02712725921686676 0.0 0.0
0.12608024018904573 -0.12172434424027934 0.0 0.025319609238463325 0.0 0.0
0.10613753694341693 -0.10209726369287875 0.0 0.022775003632484747 0.0 0.0
0.08719873816420082 -0.08347023100683693 0.0 0.0199548876324398 0.0 0.0
0.06963452096099904 -0.06621367479770024 0.0 0.017061435569999617 0.0 0.0
0.05369213275808865 -0.05057557242590072 0.0 0.014088242056555345 0.0 0.0
0.03958062193071221 -0.036766289276460196 0.0 0.011006809065197243 0.0 0.0
0.027534878021725107 -0.02501969934743764 0.0 0.007980920615827447 0.0 0.0
0.0178096394710327 -0.015586373279857124 0.0 0.00530580157189664 0.0 0.0
0.010570429563801997 -0.008630656865451503 0.0 0.0032423197595663478 0.0 0.0
0.005753714487637729 -0.0041274903299541865 0.0 0.0018658408176769337 0.0 0.0
0.0030680459777698843 -0.0017737572313880623 0.0 0.001121840148932296 0.0 0.0
0.0019052078211461154 -0.0008667219887753541 0.0 0.0007791053337545817 0.0 0.0
0.001302809932808513 -0.0004104026822743245 0.0 0.00044851845946758395 0.0 0.0
0.0008683450500180934 -0.000640712003366517 0.0 0.0006227161469735676 0.0 0.0
0.007402779689016481 -0.0090403604693511 0.0 0.009442734931413843 0.0 0.0
0.005648744252885224 -0.00731162243282707 0.0 -0.008057829647341641 0.0 0.0
0.0005404487074893022 -0.0004766124671508054 0.0 -0.0012372226105044626 0.0 0.0
0.0010080100715995077 -0.00029883211308057156 0.0 -0.0008927690615110895 0.0 0.0
0.0015974817836986732 -0.0006778814769614616 0.0 -0.0010529455974147561 0.0 0.0
0.0025074120936030564 -0.0013506096482396313 0.0 -0.0014129092424579603 0.0 0.0
0.004659884586055138 -0.0031591805496657965 0.0 -0.0022384398301672492 0.0 0.0
0.008730026944699779 -0.0068901661891236365 0.0 -0.0038832648042521623 0.0 0.0
0.015028700143356027 -0.01288858300335649 0.0 -0.0064204272824271436 0.0 0.0
0.023537031767939046 -0.02111546919223173 0.0 -0.009663903197834722 0.0 0.0
0.034063385347797 -0.031362087451694 0.0 -0.013309164256287975 0.0 0.0
0.046352334700310624 -0.043373780058220124 0.0 -0.017017326825585988 0.0 0.0
0.06019744316737957 -0.05694228669257839 0.0 -0.020620618854986672 0.0 0.0
0.0754376490467251 -0.07190544318992131 0.0 -0.024141598439374634 0.0 0.0
0.09189017869530505 -0.08807933932354484 0.0 -0.02753741565838863 0.0 0.0
0.10928209690303738 -0.1051934045377827 0.0 -0.030617334295871212 0.0 0.0
0.12719228121153095 -0.12281980253259306 0.0 -0.032962845367566995 0.0 0.0
0.14492779768429023 -0.14025017697362951 0.0 -0.03392492571195349 0.0 0.0
0.16136243137914064 -0.15635821244665404 0.0 -0.032735599372793245 0.0 0.0
0.17491170096503186 -0.16959380774469324 0.0 -0.028211847534991175 0.0 0.0
0.1838494883803847 -0.17829746348843045 0.0 -0.018894494482052604 0.0 0.0
0.18384948838037024 -0.17829746348841713 0.0 0.018894494482113222 0.0 0.0
0.17491170096499267 -0.1695938077446577 0.0 0.028211847535073775 0.0 0.0
0.16136243137907896 -0.15635821244659542 0.0 0.03273559937285242 0.0 0.0
0.14492779768421504 -0.14025017697355402 0.0 0.03392492571197847 0.0 0.0
0.12719228121144815 -0.12281980253250957 0.0 0.03296284536755789 0.0 0.0
0.10928209690295043 -0.10519340453768944 0.0 0.030617334295864884 0.0 0.0
0.09189017869521443 -0.08807933932344802 0.0 0.027537415658378972 0.0 0.0
0.07543764904663847 -0.07190544318983383 0.0 0.024141598439357925 0.0 0.0
0.060197443167296305 -0.05694228669249357 0.0 0.020620618854962358 0.0 0.0
0.04635233470023892 -0.043373780058139744 0.0 0.01701732682556445 0.0 0.0
0.03406338534773545 -0.03136208745163227 0.0 0.013309164256258499 0.0 0.0
0.023537031767889294 -0.021115469192183323 0.0 0.009663903197816848 0.0 0.0
0.015028700143320084 -0.01288858300332274 0.0 0.006420427282409991 0.0 0.0
0.008730026944676006 -0.006890166189100322 0.0 0.0038832648042441686 0.0 0.0
0.004659884586043661 -0.003159180549652252 0.0 0.0022384398301609765 0.0 0.0
0.002507412093598893 -0.0013506096482360785 0.0 0.0014129092424552403 0.0 0.0
0.0015974817836975075 -0.0006778814769621277 0.0 0.0010529455974118695 0.0 0.0
0.0010080100716001184 -0.0002988321130812377 0.0 0.0008927690615091466 0.0 0.0
0.000540448707489205 -0.0004766124671496397 0.0 0.001237222610501243 0.0 0.0
0.005648744252872373 -0.007311622432813216 0.0 0.008057829647322212 0.0 0.0
0.004297298704562663 -0.00589656981888953 0.0 -0.006617391487084956 0.0 0.0
0.0003595301954703728 -0.00038003540030839833 0.0 -0.0017160262944242444 0.0 0.0
0.0007644706099149412 -0.00022184020396709414 0.0 -0.0013424856192333356 0.0 0.0
0.0013094299115488095 -0.0005239558024137114 0.0 -0.0013608740163486566 0.0 0.0
0.002017922870802255 -0.0010151606948527458 0.0 -0.001675584453947665 0.0 0.0
0.00367461723290842 -0.0023284295064662786 0.0 -0.0025006171631595797 0.0 0.0
0.006971762604595574 -0.005258628574690061 0.0 -0.004217230207796463 0.0 0.0
0.012277157791200227 -0.010242822464606949 0.0 -0.006991985351664232 0.0 0.0
0.019543569167470812 -0.017232775574436143 0.0 -0.010609644435549292 0.0 0.0
0.028529718086298603 -0.025958417743223716 0.0 -0.014628162695175861 0.0 0.0
0.03898344506674198 -0.03615873919513124 0.0 -0.018714123293129492 0.0 0.0
0.05072136650332976 -0.04764837131533772 0.0 -0.022695179487594475 0.0 0.0
0.06362937707881178 -0.06030993577597332 0.0 -0.026592779011791023 0.0 0.0
0.07758971598546974 -0.07402486135661768 0.0 -0.03036595289794941 0.0 0.0
0.0924126122873409 -0.08860526778908007 0.0 -0.03379289974907562 0.0 0.0
0.1077982967752856 -0.1037452794536593 0.0 -0.0365013524345561 0.0 0.0
0.12324014973894448 -0.11892488051861427 0.0 -0.03789802402543263 0.0 0.0
0.13787463971438538 -0.13327418731192253 0.0 -0.03693249956782019 0.0 0.0
0.15040832132902426 -0.1455248503589921 0.0 -0.03186243198416905 0.0 0.0
0.15933419708403093 -0.1542219313602251 0.0 -0.020896507148090215 0.0 0.0
0.1593341970840176 -0.15422193136020823 0.0 0.020896507148155496 0.0 0.0
0.15040832132899093 -0.14552485035895302 0.0 0.031862431984255424 0.0 0.0
0.13787463971433128 -0.13327418731187812 0.0 0.03693249956788447 0.0 0.0
0.12324014973888078 -0.11892488051856542 0.0 0.03789802402546183 0.0 0.0
0.10779829677521546 -0.10374527945359002 0.0 0.036501352434550105 0.0 0.0
0.0924126122872666 -0.08860526778900635 0.0 0.03379289974906441 0.0 0.0
0.077589715985392 -0.07402486135654929 0.0 0.030365952897935644 0.0 0.0
0.06362937707873861 -0.060309935775904044 0.0 0.026592779011775924 0.0 0.0
0.050721366503259646 -0.047648371315271554 0.0 0.022695179487569273 0.0 0.0
0.03898344506668222 -0.036158739195074396 0.0 0.018714123293099183 0.0 0.0
0.028529718086246103 -0.025958417743174866 0.0 0.01462816269514089 0.0 0.0
0.01954356916742861 -0.017232775574391734 0.0 0.010609644435527477 0.0 0.0
0.012277157791170223 -0.010242822464578527 0.0 0.006991985351644914 0.0 0.0
0.006971762604576048 -0.00525862857467474 0.0 0.004217230207786082 0.0 0.0
0.0036746172328994686 -0.002328429506459617 0.0 0.0025006171631509755 0.0 0.0
0.0020179228708000485 -0.0010151606948505254 0.0 0.0016755844539422804 0.0 0.0
0.0013094299115479768 -0.0005239558024137114 0.0 0.0013608740163460475 0.0 0.0
0.0007644706099152465 -0.00022184020396598392 0.0 0.001342485619232947 0.0 0.0
0.00035953019547013687 -0.000380035400306844 0.0 0.0017160262944212468 0.0 0.0
0.004297298704552421 -0.005896569818878452 0.0 0.006617391487069357 0.0 0.0
0.0032200466545302397 -0.004705460047359167 0.0 -0.005343903010894824 0.0 0.0
0.00025135397683452576 -0.00031323781866088307 0.0 -0.002074313379114512 0.0 0.0
0.000562757355773047 -0.00016461863786976227 0.0 -0.0017372030306662678 0.0 0.0
0.0010345271245864457 -0.00039378313759153016 0.0 -0.0016756699384113949 0.0 0.0
0.0015924375774503674 -0.0007536859557408793 0.0 -0.0019294789105988586 0.0 0.0
0.002798506572697715 -0.0016466789808982085 0.0 -0.0026881748169554354 0.0 0.0
0.005343618964949809 -0.003796849444826389 0.0 -0.004353445581781912 0.0 0.0
0.009607275673915686 -0.007715243236208202 0.0 -0.007101839990720948 0.0 0.0
0.01559271471125008 -0.013416434052947235 0.0 -0.010795582927524028 0.0 0.0
0.023024047216761795 -0.020602827970826798 0.0 -0.014955163625681167 0.0 0.0
0.03163095685242029 -0.028980473822236785 0.0 -0.01916541837731245 0.0 0.0
0.041254647393269395 -0.038383298206152716 0.0 -0.0232761445608336 0.0 0.0
0.05182350018864176 -0.0487371638786227 0.0 -0.027312032529324903 0.0 0.0
0.06328226543406637 -0.05998368159760048 0.0 -0.031216830373303806 0.0 0.0
0.07551965732462249 -0.07201067031734354 0.0 -0.03479087264173353 0.0 0.0
0.08833006219764086 -0.08461501692836748 0.0 -0.037707200074551306 0.0 0.0
0.10139910143395081 -0.09747225829647377 0.0 -0.03943396051671133 0.0 0.0
0.11420556530966436 -0.11004338365539557 0.0 -0.03891202760229817 0.0 0.0
0.12582044551585192 -0.12140256726770016 0.0 -0.03405231305321077 0.0 0.0
0.13491152782407875 -0.1302553461008813 0.0 -0.022565157836852423 0.0 0.0
0.1349115278240689 -0.13025534610087242 0.0 0.022565157836921257 0.0 0.0
0.12582044551582353 -0.12140256726767262 0.0 0.03405231305329959 0.0 0.0
0.11420556530961837 -0.11004338365534228 0.0 0.03891202760236201 0.0 0.0
0.10139910143389769 -0.09747225829640893 0.0 0.03943396051673864 0.0 0.0
0.08833006219758288 -0.08461501692830709 0.0 0.03770720007453976 0.0 0.0
0.07551965732456062 -0.0720106703172867 0.0 0.034790872641716986 0.0 0.0
0.06328226543400278 -0.05998368159754364 0.0 0.031216830373288484 0.0 0.0
0.05182350018858256 -0.04873716387856675 0.0 0.027312032529307806 0.0 0.0
0.04125464739321272 -0.03838329820609543 0.0 0.023276144560809287 0.0 0.0
0.03163095685237122 -0.028980473822187047 0.0 0.019165418377281918 0.0 0.0
0.023024047216719135 -0.02060282797078017 0.0 0.014955163625647305 0.0 0.0
0.015592714711215594 -0.013416434052914372 0.0 0.010795582927500713 0.0 0.0
0.009607275673892246 -0.00771524323618511 0.0 0.007101839990702907 0.0 0.0
0.005343618964935015 -0.0037968494448128443 0.0 0.004353445581771753 0.0 0.0
0.0027985065726909286 -0.0016466789808924354 0.0 0.0026881748169474973 0.0 0.0
0.0015924375774493127 -0.0007536859557384368 0.0 0.001929478910595639 0.0 0.0
0.0010345271245857934 -0.000393783137590642 0.0 0.001675669938407176 0.0 0.0
0.0005627573557735466 -0.00016461863786920716 0.0 0.0017372030306634922 0.0 0.0
0.0002513539768341233 -0.0003132378186601614 0.0 0.0020743133791139012 0.0 0.0
0.0032200466545221906 -0.004705460047349962 0.0 0.005343903010881834 0.0 0.0
0.00235548149246248 -0.003694639271926481 0.0 -0.0042816447071867825 0.0 0.0
0.0001781123824960984 -0.0002623252406398491 0.0 -0.0023277587926229804 0.0 0.0
0.0003878332240674909 -0.00011600978232573222 0.0 -0.0020522437761093526 0.0 0.0
0.0007665330280002824 -0.00027510258172891433 0.0 -0.0019712418797437348 0.0 0.0
0.0012113212508076954 -0.0005451206714086609 0.0 -0.0021858135365115383 0.0 0.0
0.002037143046056289 -0.0011070837237934228 0.0 -0.002814457321074826 0.0 0.0
0.0038627263142141655 -0.0025388901405212216 0.0 -0.0042932845239535 0.0 0.0
0.007086132261397843 -0.005382003561123394 0.0 -0.006824311365072 0.0 0.0
0.011742390358481819 -0.009740138839947399 0.0 -0.01027625852633729 0.0 0.0
0.01758993866633521 -0.015348057792581304 0.0 -0.014264013519221574 0.0 0.0
0.0243393329511859 -0.02189086399829998 0.0 -0.018360678765693916 0.0 0.0
0.03184630452286408 -0.02920320780908936 0.0 -0.022351662906474057 0.0 0.0
0.04007128593265119 -0.03724487211825611 0.0 -0.02626505063203166 0.0 0.0
0.04901714123448858 -0.046013174300517434 0.0 -0.03008165064899815 0.0 0.0
0.05864941089757614 -0.05546843836529636 0.0 -0.0335994220592698 0.0 0.0
0.06884859588102324 -0.06549317944991007 0.0 -0.03648995295744473 0.0 0.0
0.07944749751095362 -0.07593412771158103 0.0 -0.03840218509963633 0.0 0.0
0.09029571748892423 -0.08661161265046058 0.0 -0.03853006825150396 0.0 0.0
0.10095197635635206 -0.09704668043197273 0.0 -0.03466614014464009 0.0 0.0
0.11032513769855481 -0.10615848651641535 0.0 -0.02388438640346291 0.0 0.0
0.11032513769854829 -0.1061584865164189 0.0 0.023884386403529412 0.0 0.0
0.10095197635632897 -0.09704668043195408 0.0 0.03466614014472913 0.0 0.0
0.09029571748888643 -0.08661161265043482 0.0 0.038530068251566685 0.0 0.0
0.07944749751091121 -0.07593412771155172 0.0 0.038402185099664754 0.0 0.0
0.06884859588097741 -0.06549317944987187 0.0 0.03648995295743407 0.0 0.0
0.058649410897527066 -0.05546843836525017 0.0 0.03359942205925526 0.0 0.0
0.04901714123443973 -0.04601317430047214 0.0 0.03008165064898427 0.0 0.0
0.040071285932606615 -0.03724487211821215 0.0 0.02626505063202056 0.0 0.0
0.03184630452282117 -0.029203207809051168 0.0 0.022351662906453407 0.0 0.0
0.024339332951147374 -0.021890863998264898 0.0 0.018360678765667826 0.0 0.0
0.01758993866630232 -0.015348057792548442 0.0 0.014264013519190488 0.0 0.0
0.011742390358455645 -0.009740138839918533 0.0 0.010276258526318194 0.0 0.0
0.0070861322613802735 -0.005382003561106075 0.0 0.00682431136505679 0.0 0.0
0.0038627263142034796 -0.002538890140517225 0.0 0.004293284523944008 0.0 0.0
0.0020371430460519035 -0.0011070837237918685 0.0 0.0028144573210672763 0.0 0.0
0.0012113212508065296 -0.0005451206714068846 0.0 0.0021858135365082076 0.0 0.0
0.0007665330279999494 -0.00027510258172791513 0.0 0.0019712418797420694 0.0 0.0
0.000387833224068157 -0.00011600978232528814 0.0 0.0020522437761082424 0.0 0.0
0.00017811238249570982 -0.0002623252406385723 0.0 0.0023277587926226473 0.0 0.0
0.0023554814924557355 -0.0036946392719193095 0.0 0.004281644707178844 0.0 0.0
0.001673192449275801 -0.002851188485348155 0.0 -0.0034341501989810785 0.0 0.0
0.00011470486136636038 -0.000219594291089531 0.0 -0.0024812183473692517 0.0 0.0
0.00022703595740755644 -6.792589020587769e-05 0.0 -0.0022870471941832116 0.0 0.0
0.000502906665244579 -0.00015908542351628085 0.0 -0.0022206097906802835 0.0 0.0
0.0008491065133025555 -0.0003642855829022462 0.0 -0.0024289247680050474 0.0 0.0
0.001383334057336455 -0.0006991092406736232 0.0 -0.002945863776818325 0.0 0.0
0.002550227764841484 -0.001520269913395822 0.0 -0.0041140726694148255 0.0 0.0
0.004756817865944757 -0.003318801014297268 0.0 -0.006206893860580154 0.0 0.0
0.008067301270119981 -0.006300508298053842 0.0 -0.009146064646726737 0.0 0.0
0.012287200574579021 -0.010277666793401252 0.0 -0.012610592892436379 0.0 0.0
0.017157840383016293 -0.014956588023392836 0.0 -0.016264167330851342 0.0 0.0
0.022543946839866796 -0.020173720692211017 0.0 -0.019876716874123068 0.0 0.0
0.02842471329288246 -0.02590162217912706 0.0 -0.023429920962308226 0.0 0.0
0.034843733772644214 -0.032179025508337844 0.0 -0.026905319464998634 0.0 0.0
0.04184617175809349 -0.03904141633251523 0.0 -0.03016927712289863 0.0 0.0
0.04941170010949941 -0.04646225495095102 0.0 -0.03288317166573118 0.0 0.0
0.05746729875876552 -0.05439258262931368 0.0 -0.03470085034641557 0.0 0.0
0.06611935240902259 -0.06295668269717769 0.0 -0.03540972711695978 0.0 0.0
0.07558277572381894 -0.07226643450214798 0.0 -0.03333086508403604 0.0 0.0
0.08526789323012102 -0.08165812306918685 0.0 -0.024750447691265998 0.0 0.0
0.08526789323011688 -0.0816581230691753 0.0 0.024750447691322952 0.0 0.0
0.07558277572380304 -0.072266434502132 0.0 0.03333086508411787 0.0 0.0
0.0661193524089945 -0.06295668269715726 0.0 0.03540972711702395 0.0 0.0
0.05746729875873344 -0.05439258262928082 0.0 0.03470085034643855 0.0 0.0
0.04941170010946591 -0.04646225495091283 0.0 0.03288317166571597 0.0 0.0
0.04184617175805816 -0.03904141633247793 0.0 0.03016927712288331 0.0 0.0
0.034843733772610574 -0.032179025508307646 0.0 0.026905319464986976 0.0 0.0
0.02842471329285265 -0.02590162217909997 0.0 0.02342992096229879 0.0 0.0
0.022543946839836876 -0.0201737206921786 0.0 0.019876716874103306 0.0 0.0
0.017157840382988787 -0.014956588023363526 0.0 0.016264167330826806 0.0 0.0
0.01228720057455579 -0.010277666793378604 0.0 0.01261059289240729 0.0 0.0
0.008067301270102606 -0.006300508298041851 0.0 0.009146064646707752 0.0 0.0
0.004756817865932322 -0.003318801014291939 0.0 0.006206893860566609 0.0 0.0
0.0025502277648344063 -0.0015202699133898268 0.0 0.004114072669406665 0.0 0.0
0.0013833340573340958 -0.0006991092406734012 0.0 0.0029458637768124962 0.0 0.0
0.0008491065133019726 -0.0003642855829026903 0.0 0.002428924768002272 0.0 0.0
0.0005029066652442182 -0.00015908542351561472 0.0 0.002220609790678618 0.0 0.0
0.0002270359574075287 -6.792589020598871e-05 0.0 0.0022870471941799364 0.0 0.0
0.00011470486136619384 -0.000219594291089531 0.0 0.0024812183473643112 0.0 0.0
0.0016731924492713601 -0.0028511884853428884 0.0 0.0034341501989735845 0.0 0.0
0.0011579116307025294 -0.0021753011838501757 0.0 -0.0027902065006500942 0.0 0.0
4.4194096479294176e-05 -0.00018262014489012213 0.0 -0.0025556148698048786 0.0 0.0
7.13954924680682e-05 -1.4042705726469151e-05 0.0 -0.0024464598541745763 0.0 0.0
0.0002449862584203988 -4.422264970793677e-05 0.0 -0.0024108880717771397 0.0 0.0
0.00048522854851559827 -0.00018935314216461663 0.0 -0.0026338969420944824 0.0 0.0
0.0008038209827496701 -0.0003842486462330985 0.0 -0.0030976410938727827 0.0 0.0
0.0014237395389537222 -0.00075878083686165 0.0 -0.0039151507518574435 0.0 0.0
0.002660264063154033 -0.0016236488119645287 0.0 -0.00535528243398431 0.0 0.0
0.004632670401797434 -0.0032303209954891443 0.0 -0.00748596044693195 0.0 0.0
0.007191372430907977 -0.005526461546544681 0.0 -0.010095175280960711 0.0 0.0
0.010149820306460583 -0.008295806251356286 0.0 -0.012962282474023312 0.0 0.0
0.0133941598139799 -0.011394785168609367 0.0 -0.015901020988310033 0.0 0.0
0.016928211579815278 -0.014804278915144131 0.0 -0.018867258651182328 0.0 0.0
0.020813466920243218 -0.01858245872198161 0.0 -0.021796178155503387 0.0 0.0
0.025148121507955284 -0.022818821220345065 0.0 -0.024614245829683745 0.0 0.0
0.030037851553387312 -0.027603988489617315 0.0 -0.027097012394592723 0.0 0.0
0.03554144847486759 -0.03299075505675653 0.0 -0.028783677864914203 0.0 0.0
0.041802712963245364 -0.03919766466712993 0.0 -0.029592304669051828 0.0 0.0
0.049518684667152424 -0.04691521311054814 0.0 -0.02942187694776477 0.0 0.0
0.059305944125127574 -0.056395138478703366 0.0 -0.02483640941177312 0.0 0.0
0.059305944125125354 -0.0563951384787007 0.0 0.02483640941182985 0.0 0.0
0.0495186846671439 -0.0469152131105357 0.0 0.029421876947839154 0.0 0.0
0.04180271296322732 -0.0391976646671095 0.0 0.02959230466911056 0.0 0.0
0.03554144847484539 -0.032990755056733434 0.0 0.028783677864928303 0.0 0.0
0.030037851553367162 -0.02760398848960488 0.0 0.02709701239457374 0.0 0.0
0.025148121507934967 -0.022818821220330854 0.0 0.024614245829666648 0.0 0.0
0.020813466920225315 -0.018582458721964734 0.0 0.021796178155493062 0.0 0.0
0.016928211579799984 -0.01480427891512992 0.0 0.018867258651181662 0.0 0.0
0.013394159813962414 -0.011394785168590271 0.0 0.015901020988298264 0.0 0.0
0.01014982030644529 -0.008295806251336746 0.0 0.012962282474002884 0.0 0.0
0.007191372430894932 -0.005526461546530914 0.0 0.010095175280939617 0.0 0.0
0.004632670401787942 -0.0032303209954762657 0.0 0.007485960446919626 0.0 0.0
0.0026602640631471497 -0.001623648811956091 0.0 0.005355282433975983 0.0 0.0
0.0014237395389504193 -0.0007587808368572091 0.0 0.003915150751852503 0.0 0.0
0.0008038209827486431 -0.0003842486462335426 0.0 0.003097641093868453 0.0 0.0
0.00048522854851523745 -0.00018935314216661503 0.0 0.002633896942090652 0.0 0.0
0.00024498625842042654 -4.422264970838086e-05 0.0 0.002410888071773143 0.0 0.0
7.139549246762411e-05 -1.4042705726247107e-05 0.0 0.0024464598541723004 0.0 0.0
4.4194096479294176e-05 -0.000182620144889456 0.0 0.0025556148698043235 0.0 0.0
0.0011579116306997816 -0.0021753011838463177 0.0 0.0027902065006465415 0.0 0.0
0.0007854327304623876 -0.0016501967963084008 0.0 -0.0023105364571254783 0.0 0.0
-3.841164684126319e-05 -0.00015216276785390281 0.0 -0.0025773326410804542 0.0 0.0
-8.364981779171443e-05 4.8525222389961264e-05 0.0 -0.002542974745538218 0.0 0.0
-6.4058662859467486e-06 6.857749508970556e-05 0.0 -0.0025394742367238488 0.0 0.0
0.0001166116247712512 -1.099449860197943e-05 0.0 -0.002760092776883938 0.0 0.0
0.0002499847481820805 -0.00010693950745710445 0.0 -0.00323520104016628 0.0 0.0
0.0004481873706775885 -0.00022194839564892987 0.0 -0.0038712061303758927 0.0 0.0
0.000835621008241666 -0.0004266131998069689 0.0 -0.0046103167897186825 0.0 0.0
0.0014910723644257495 -0.000812957303084616 0.0 -0.0056641525451146535 0.0 0.0
0.002352198504080305 -0.0014185102295369845 0.0 -0.0072038925075395 0.0 0.0
0.0033455913927349368 -0.0022150305036796603 0.0 -0.009201510116831124 0.0 0.0
0.00441655846749886 -0.003155112102960711 0.0 -0.011459587898803747 0.0 0.0
0.005583521060272406 -0.0042258224367737185 0.0 -0.013882975690419852 0.0 0.0
0.006912857173204556 -0.005482422376855922 0.0 -0.016434520694701082 0.0 0.0
0.008542206604317704 -0.007048873522240484 0.0 -0.019062089868840726 0.0 0.0
0.010695435098313694 -0.009130785277997155 0.0 -0.021573812784440705 0.0 0.0
0.013645963782205922 -0.011976571762530419 0.0 -0.02347134312920618 0.0 0.0
0.0175995970997056 -0.015790615975951994 0.0 -0.024088199823888212 0.0 0.0
0.023029983391382042 -0.021277506395230184 0.0 -0.02413009162266011 0.0 0.0
0.03187905706813757 -0.030090312320260715 0.0 -0.02396461115938464 0.0 0.0
0.031879057068137956 -0.030090312320260715 0.0 0.023964611159428495 0.0 0.0
0.02302998339137924 -0.02127750639521686 0.0 0.02413009162271873 0.0 0.0
0.01759959709969719 -0.01579061597594844 0.0 0.024088199823923406 0.0 0.0
0.01364596378219668 -0.011976571762533972 0.0 0.0234713431292074 0.0 0.0
0.010695435098308947 -0.009130785277992715 0.0 0.021573812784419277 0.0 0.0
0.00854220660431243 -0.007048873522229826 0.0 0.019062089868828624 0.0 0.0
0.006912857173202114 -0.005482422376841711 0.0 0.016434520694691535 0.0 0.0
0.005583521060271435 -0.0042258224367635044 0.0 0.013882975690411636 0.0 0.0
0.004416558467495224 -0.0031551121029629314 0.0 0.011459587898791534 0.0 0.0
0.0033455913927326053 -0.002215030503673887 0.0 0.00920151011681647 0.0 0.0
0.0023521985040775295 -0.0014185102295303231 0.0 0.007203892507524845 0.0 0.0
0.001491072364423418 -0.0008129573030837278 0.0 0.005664152545110657 0.0 0.0
0.0008356210082399729 -0.0004266131998029721 0.0 0.0046103167897132424 0.0 0.0
0.0004481873706770889 -0.00022194839564737556 0.0 0.0038712061303721734 0.0 0.0
0.00024998474818199723 -0.0001069395074573265 0.0 0.003235201040161062 0.0 0.0
0.00011661162477105691 -1.0994498604199876e-05 0.0 0.0027600927768814953 0.0 0.0
-6.405866285696948e-06 6.857749508926148e-05 0.0 0.0025394742367221834 0.0 0.0
-8.364981779185321e-05 4.8525222388962064e-05 0.0 0.002542974745536941 0.0 0.0
-3.841164684154075e-05 -0.00015216276785506855 0.0 0.002577332641078789 0.0 0.0
0.0007854327304606945 -0.0016501967963060173 0.0 0.002310536457121981 0.0 0.0
0.0005230444992004313 -0.0012664260890056234 0.0 -0.002001594905118198 0.0 0.0
-0.00012562642047581063 -0.00012452600851986517 0.0 -0.002570829119211193 0.0 0.0
-0.00023788574411340302 0.0001161283349674358 0.0 -0.0025811306427927505 0.0 0.0
-0.00025146335759310134 0.00017886093726682262 0.0 -0.002597212477193911 0.0 0.0
-0.00024939278517260854 0.00016724776862053758 0.0 -0.0028013392856164887 0.0 0.0
-0.0003043610245098416 0.00016755932950740515 0.0 -0.0032574115858863273 0.0 0.0
-0.00047086833190651545 0.00023960753009433233 0.0 -0.0038867404337880607 0.0 0.0
-0.0008444115562810939 0.00043326923585240706 0.0 -0.004623685919210363 0.0 0.0
-0.0014920654935365874 0.000814940602372527 0.0 -0.005670127911815204 0.0 0.0
-0.002352306297993184 0.0014208801089039547 0.0 -0.007204683338805085 0.0 0.0
-0.003361218755443207 0.00223462585559675 0.0 -0.009207414313292306 0.0 0.0
-0.004478374760145537 0.0032155632000678835 0.0 -0.011474221263647943 0.0 0.0
-0.005691055267052908 0.004315409955340854 0.0 -0.013894129430582214 0.0 0.0
-0.006932724551232811 0.005457518072245371 0.0 -0.016432231305152478 0.0 0.0
-0.008024982318106555 0.006467089462485198 0.0 -0.019068137191748713 0.0 0.0
-0.008655671815349236 0.0070427584062331405 0.0 -0.021741314548026414 0.0 0.0
-0.008381674677828549 0.006771537543661665 0.0 -0.0244248636807618 0.0 0.0
-0.006837683829867214 0.0054142795175788905 0.0 -0.027225932976084 0.0 0.0
-0.003649620167313322 0.0026983995935436766 0.0 -0.029782345778750163 0.0 0.0
0.004194031417130151 -0.004762760234494401 0.0 -0.029256342582473005 0.0 0.0
0.004194031417130456 -0.004762760234490848 0.0 0.029256342582494876 0.0 0.0
-0.0036496201673128226 0.002698399593559664 0.0 0.02978234577877137 0.0 0.0
-0.0068376838298630505 0.005414279517593101 0.0 0.027225932976085554 0.0 0.0
-0.008381674677821416 0.006771537543660777 0.0 0.024424863680750697 0.0 0.0
-0.008655671815337274 0.0070427584062278115 0.0 0.021741314548002322 0.0 0.0
-0.008024982318095897 0.0064670894624816455 0.0 0.019068137191729395 0.0 0.0
-0.006932724551221292 0.005457518072234713 0.0 0.016432231305139045 0.0 0.0
-0.005691055267039974 0.004315409955334193 0.0 0.01389412943056989 0.0 0.0
-0.004478374760133935 0.003215563200065219 0.0 0.011474221263628293 0.0 0.0
-0.0033612187554322437 0.0022346258555829834 0.0 0.009207414313273654 0.0 0.0
-0.0023523062979853016 0.001420880108895517 0.0 0.007204683338786322 0.0 0.0
-0.0014920654935316469 0.0008149406023720829 0.0 0.005670127911813094 0.0 0.0
-0.0008444115562782628 0.00043326923585329524 0.0 0.004623685919207476 0.0 0.0
-0.0004708683319047391 0.00023960753009344415 0.0 0.0038867404337836198 0.0 0.0
-0.0003043610245090367 0.00016755932950673902 0.0 0.003257411585881387 0.0 0.0
-0.00024939278517221997 0.00016724776862075963 0.0 0.002801339285612492 0.0 0.0
-0.00025146335759271277 0.0001788609372662675 0.0 0.0025972124771912464 0.0 0.0
-0.00023788574411340302 0.00011612833496754682 0.0 0.002581130642790752 0.0 0.0
-0.00012562642047603267 -0.00012452600851975415 0.0 0.0025708291192115817 0.0 0.0
0.0005230444991996819 -0.0012664260890045027 0.0 0.0020015949051164217 0.0 0.0
0.00034342840626053195 -0.0009888967341474264 0.0 -0.0017986729082050679 0.0 0.0
-0.00020667084494938037 -9.222796805186118e-05 0.0 -0.002526442572335641 0.0 0.0
-0.0003882219502560347 0.00018210097512472156 0.0 -0.0025656053031086756 0.0 0.0
-0.0004889754329521212 0.0002855633292224713 0.0 -0.0025793597933623236 0.0 0.0
-0.0006081532600990813 0.000340514760677868 0.0 -0.002751992068817488 0.0 0.0
-0.000858045976609767 0.00044647699293753895 0.0 -0.003169688359330236 0.0 0.0
-0.0014453803105752283 0.0007798777247534083 0.0 -0.003962706246939118 0.0 0.0
-0.002665430464908497 0.00163082309576712 0.0 -0.005381977478214339 0.0 0.0
-0.004631093302696704 0.0032307634159511878 0.0 -0.0074930945807495375 0.0 0.0
-0.007192505812506883 0.005530521647095554 0.0 -0.010097110689846978 0.0 0.0
-0.010168409614535773 0.008319600739401078 0.0 -0.012962601001986984 0.0 0.0
-0.013452180235970307 0.011456116299040087 0.0 -0.01587955502646865 0.0 0.0
-0.017021217253192694 0.014886210637904185 0.0 -0.018798717823363398 0.0 0.0
-0.0208097631136952 0.01853465776203045 0.0 -0.021711242962138777 0.0 0.0
-0.024613565451793412 0.022195385876185192 0.0 -0.024678067103441337 0.0 0.0
-0.028047766485154613 0.025494103502063936 0.0 -0.02774778611655704 0.0 0.0
-0.030582925214390655 0.027926351340780364 0.0 -0.031026278596250956 0.0 0.0
-0.03163516020378024 0.028912924534147066 0.0 -0.034402304245468085 0.0 0.0
-0.030082699173771876 0.027105173930902282 0.0 -0.036071044191183455 0.0 0.0
-0.022393747738691128 0.01904905154591585 0.0 -0.034124526733565363 0.0 0.0
-0.02239374773869099 0.0190490515459123 0.0 0.03412452673361299 0.0 0.0
-0.030082699173767435 0.0271051739308934 0.0 0.03607104419124818 0.0 0.0
-0.031635160203763446 0.028912924534129303 0.0 0.03440230424550372 0.0 0.0
-0.030582925214367174 0.027926351340759936 0.0 0.031026278596253176 0.0 0.0
-0.02804776648512733 0.02549410350204795 0.0 0.02774778611654105 0.0 0.0
-0.024613565451767377 0.022195385876169205 0.0 0.02467806710341447 0.0 0.0
-0.020809763113669222 0.018534657762002027 0.0 0.021711242962117905 0.0 0.0
-0.01702121725316591 0.014886210637878872 0.0 0.01879871782334852 0.0 0.0
-0.01345218023594405 0.01145611629901433 0.0 0.015879555026443337 0.0 0.0
-0.010168409614512125 0.008319600739377098 0.0 0.012962601001957785 0.0 0.0
-0.007192505812487565 0.0055305216470764584 0.0 0.010097110689819888 0.0 0.0
-0.004631093302683936 0.0032307634159458587 0.0 0.007493094580736659 0.0 0.0
-0.00266543046490067 0.001630823095762679 0.0 0.005381977478204014 0.0 0.0
-0.0014453803105707597 0.000779877724746969 0.0 0.003962706246930847 0.0 0.0
-0.0008580459766077964 0.0004464769929353185 0.0 0.003169688359325684 0.0 0.0
-0.000608153260098443 0.00034051476068008846 0.0 0.002751992068815101 0.0 0.0
-0.0004889754329517604 0.0002855633292243587 0.0 0.0025793597933600476 0.0 0.0
-0.0003882219502560347 0.0001821009751253877 0.0 0.002565605303107399 0.0 0.0
-0.00020667084494910282 -9.222796805169464e-05 0.0 0.002526442572335641 0.0 0.0
0.0003434284062596715 -0.0009888967341467013 0.0 0.0017986729082023478 0.0 0.0
0.00021934785801780432 -0.000760795674844883 0.0 -0.001603241212198847 0.0 0.0
-0.0002780699618049609 -5.466136409026934e-05 0.0 -0.0024285645344525597 0.0 0.0
-0.0005311447311827089 0.0002432234804100597 0.0 -0.002492362321548258 0.0 0.0
-0.0007174729084271636 0.00038651674322731644 0.0 -0.0024895624859554433 0.0 0.0
-0.000956630463698871 0.000506747438006494 0.0 -0.0026182749251951742 0.0 0.0
-0.0014356348846635836 0.0007647588583998832 0.0 -0.003064121084122795 0.0 0.0
-0.002565911433050405 0.0015420509632040336 0.0 -0.004176377630113248 0.0 0.0
-0.004754992426339255 0.0033206034090818015 0.0 -0.00622884582176797 0.0 0.0
-0.008064249337687568 0.006298836750473935 0.0 -0.009147278895462296 0.0 0.0
-0.012291081758812827 0.01028371160525321 0.0 -0.012612910617564088 0.0 0.0
-0.017175842145437215 0.014978466902903609 0.0 -0.01625497424049238 0.0 0.0
-0.022585415972059764 0.020218442682451432 0.0 -0.019803787431517228 0.0 0.0
-0.028480001407268418 0.025949210850328974 0.0 -0.023233371959491267 0.0 0.0
-0.034799244116351685 0.03209809248569506 0.0 -0.026653995518429507 0.0 0.0
-0.04132698247827468 0.038444784601619375 0.0 -0.03029828455164285 0.0 0.0
-0.0476155659195667 0.044554119057550245 0.0 -0.034463158993623066 0.0 0.0
-0.052994671499995344 0.0497652558035071 0.0 -0.03927147449751334 0.0 0.0
-0.056437838938772356 0.052995929926700214 0.0 -0.043844834186009374 0.0 0.0
-0.055975666182736 0.05224570724046096 0.0 -0.04608415206548022 0.0 0.0
-0.0474384161434577 0.042961383487662985 0.0 -0.04184674538605282 0.0 0.0
-0.047438416143455064 0.0429613834876621 0.0 0.04184674538611155 0.0 0.0
-0.05597566618272534 0.05224570724044231 0.0 0.04608415206555316 0.0 0.0
-0.05643783893874704 0.05299592992667179 0.0 0.043844834186057224 0.0 0.0
-0.0529946714999589 0.04976525580347868 0.0 0.03927147449751878 0.0 0.0
-0.04761556591952473 0.04455411905750317 0.0 0.03446315899360641 0.0 0.0
-0.04132698247823402 0.038444784601574966 0.0 0.030298284551621646 0.0 0.0
-0.03479924411631141 0.032098092485664864 0.0 0.026653995518411855 0.0 0.0
-0.02848000140722773 0.025949210850290783 0.0 0.023233371959472726 0.0 0.0
-0.02258541597201999 0.020218442682413684 0.0 0.01980378743149258 0.0 0.0
-0.017175842145401632 0.014978466902867194 0.0 0.01625497424046063 0.0 0.0
-0.012291081758782102 0.010283711605225232 0.0 0.012612910617532003 0.0 0.0
-0.008064249337666612 0.006298836750450398 0.0 0.009147278895444977 0.0 0.0
-0.004754992426325377 0.0033206034090671466 0.0 0.006228845821755313 0.0 0.0
-0.0025659114330429666 0.0015420509631984824 0.0 0.004176377630103589 0.0 0.0
-0.0014356348846601974 0.000764758858398995 0.0 0.003064121084118021 0.0 0.0
-0.000956630463697622 0.0005067474380042736 0.0 0.0026182749251920656 0.0 0.0
-0.0007174729084267473 0.00038651674322542906 0.0 0.002489562485953223 0.0 0.0
-0.0005311447311825424 0.0002432234804090605 0.0 0.002492362321547037 0.0 0.0
-0.0002780699618041005 -5.4661364090602405e-05 0.0 0.0024285645344518936 0.0 0.0
0.00021934785801691614 -0.0007607956748438942 0.0 0.0016032412121978479 0.0 0.0
0.00012403593617066333 -0.0005596519930177735 0.0 -0.0013938655686316914 0.0 0.0
-0.00034166754117503917 -1.1977479188352014e-05 0.0 -0.002275332210525116 0.0 0.0
-0.0006650752506000002 0.00029925227604232774 0.0 -0.0023661629905369352 0.0 0.0
-0.0009356642866210629 0.0004793743826094765 0.0 -0.002336670150682618 0.0 0.0
-0.0012993461806964923 0.0006759140790491003 0.0 -0.00243064060276027 0.0 0.0
-0.0020817448095063473 0.0011711802340139688 0.0 -0.0029574418242257483 0.0 0.0
-0.003866615108210514 0.0025528863751476116 0.0 -0.0043490572158868535 0.0 0.0
-0.007078610943822505 0.0053764469803545545 0.0 -0.006830941709596194 0.0 0.0
-0.011740778753017045 0.00973907388401063 0.0 -0.01027422597055283 0.0 0.0
-0.01759704045240884 0.015356367444775643 0.0 -0.014266877278599543 0.0 0.0
-0.024352143607429655 0.021905556620603228 0.0 -0.018341519275332674 0.0 0.0
-0.03185663994109578 0.02921552105829539 0.0 -0.022232093811646036 0.0 0.0
-0.0400606893424833 0.037231104647327484 0.0 -0.025949437132403164 0.0 0.0
-0.04891259141108245 0.045887244475378175 0.0 -0.02966264610669267 0.0 0.0
-0.05820124883557265 0.05496578216288839 0.0 -0.033743154244251006 0.0 0.0
-0.06742083980895214 0.06395844534265027 0.0 -0.03866199697483852 0.0 0.0
-0.07562737793331212 0.07191279876459866 0.0 -0.044443693032191534 0.0 0.0
-0.08120133214126654 0.07718850535289068 0.0 -0.04989866365648232 0.0 0.0
-0.08135746493818197 0.07689569881248559 0.0 -0.05209529957996373 0.0 0.0
-0.07096248436081404 0.06583127804302791 0.0 -0.04781444427277681 0.0 0.0
-0.07096248436080849 0.06583127804302258 0.0 0.04781444427284065 0.0 0.0
-0.08135746493816429 0.07689569881246872 0.0 0.05209529958003878 0.0 0.0
-0.08120133214123273 0.0771885053528516 0.0 0.04989866365654183 0.0 0.0
-0.07562737793326532 0.07191279876454804 0.0 0.044443693032209075 0.0 0.0
-0.06742083980889627 0.0639584453425952 0.0 0.03866199697482098 0.0 0.0
-0.058201248835517805 0.05496578216282799 0.0 0.033743154244228246 0.0 0.0
-0.04891259141102794 0.045887244475324884 0.0 0.029662646106668134 0.0 0.0
-0.04006068934242846 0.037231104647264424 0.0 0.02594943713238307 0.0 0.0
-0.03185663994104304 0.0292155210582421 0.0 0.02223209381162028 0.0 0.0
-0.024352143607382387 0.021905556620557487 0.0 0.01834151927529959 0.0 0.0
-0.017597040452367513 0.015356367444737007 0.0 0.014266877278564682 0.0 0.0
-0.011740778752987457 0.009739073883978211 0.0 0.010274225970528184 0.0 0.0
-0.007078610943802327 0.005376446980335903 0.0 0.006830941709580873 0.0 0.0
-0.0038666151081991618 0.002552886375139174 0.0 0.004349057215875529 0.0 0.0
-0.002081744809501379 0.0011711802340113042 0.0 0.002957441824220086 0.0 0.0
-0.001299346180694716 0.0006759140790473239 0.0 0.002430640602755607 0.0 0.0
-0.0009356642866202025 0.00047937438260559073 0.0 0.002336670150681397 0.0 0.0
-0.0006650752505996116 0.0002992522760411065 0.0 0.0023661629905369908 0.0 0.0
-0.00034166754117442855 -1.197747918862957e-05 0.0 0.0022753322105223406 0.0 0.0
0.00012403593617066333 -0.0005596519930175844 0.0 0.0013938655686290824 0.0 0.0
4.385674547613405e-05 -0.00038278817115905417 0.0 -0.0011774345034181732 0.0 0.0
-0.00040109498399959476 3.5958882499964595e-05 0.0 -0.002065256240366853 0.0 0.0
-0.0007897540547542325 0.00035039360959088217 0.0 -0.0021820195622471728 0.0 0.0
-0.0011421039262161647 0.0005632758773972402 0.0 -0.0021181428037642114 0.0 0.0
-0.0016537495491337206 0.0008637054995737081 0.0 -0.0021993320102919878 0.0 0.0
-0.002826846982973419 0.0016966198195356164 0.0 -0.0028182350684429758 0.0 0.0
-0.005336996866590393 0.003798675402733487 0.0 -0.004384510162846189 0.0 0.0
-0.009598521560134798 0.007706633589467771 0.0 -0.007098803893466066 0.0 0.0
-0.015594374315659132 0.013418119584711174 0.0 -0.01079238981572872 0.0 0.0
-0.02303322480969261 0.020612146192217295 0.0 -0.0149558400578651 0.0 0.0
-0.031633860808683745 0.028983044900037225 0.0 -0.019134182073233474 0.0 0.0
-0.04122288739641705 0.03835178323426236 0.0 -0.023124886727799332 0.0 0.0
-0.051726626107788 0.04864260132720144 0.0 -0.02692939834749064 0.0 0.0
-0.06310022219825018 0.05979951732082167 0.0 -0.030692982408758507 0.0 0.0
-0.07515917929846117 0.07161841600789565 0.0 -0.034838083398634145 0.0 0.0
-0.08731224732559295 0.0834911851806508 0.0 -0.039901936254896464 0.0 0.0
-0.09827494975016221 0.09412221042467106 0.0 -0.045948600607623624 0.0 0.0
-0.10577796217808746 0.10121601466382657 0.0 -0.05171836068561053 0.0 0.0
-0.10616132092094133 0.10109420847453876 0.0 -0.054597446667409066 0.0 0.0
-0.09396532478582481 0.088318110199892 0.0 -0.0529472712745912 0.0 0.0
-0.09396532478581676 0.08831811019987867 0.0 0.05294727127465615 0.0 0.0
-0.10616132092091587 0.10109420847451478 0.0 0.05459744666748456 0.0 0.0
-0.1057779621780448 0.10121601466379282 0.0 0.051718360685667264 0.0 0.0
-0.09827494975010506 0.09412221042460889 0.0 0.0459486006076395 0.0 0.0
-0.08731224732552517 0.08349118518057708 0.0 0.039901936254884474 0.0 0.0
-0.07515917929839228 0.07161841600783525 0.0 0.03483808339861527 0.0 0.0
-0.06310022219818143 0.05979951732075861 0.0 0.030692982408734415 0.0 0.0
-0.05172662610771947 0.04864260132713705 0.0 0.026929398347466882 0.0 0.0
-0.04122288739635102 0.03835178323420019 0.0 0.023124886727770466 0.0 0.0
-0.03163386080862511 0.028983044899979493 0.0 0.019134182073196226 0.0 0.0
-0.02303322480964115 0.020612146192169778 0.0 0.014955840057827963 0.0 0.0
-0.015594374315620843 0.013418119584678312 0.0 0.010792389815705294 0.0 0.0
-0.009598521560108417 0.007706633589442902 0.0 0.007098803893450578 0.0 0.0
-0.005336996866574725 0.0037986754027159453 0.0 0.004384510162834809 0.0 0.0
-0.0028268469829656057 0.0016966198195280668 0.0 0.0028182350684363144 0.0 0.0
-0.0016537495491317084 0.0008637054995721538 0.0 0.002199332010290489 0.0 0.0
-0.0011421039262153043 0.0005632758773999047 0.0 0.0021181428037638783 0.0 0.0
-0.000789754054753497 0.00035039360959221444 0.0 0.0021820195622459515 0.0 0.0
-0.0004010949839990674 3.595888249963153e-05 0.0 0.00206525624036763 0.0 0.0
4.3856745476175685e-05 -0.0003827881711589501 0.0 0.0011774345034163414 0.0 0.0
-2.439492502920304e-05 -0.0002310770341281132 0.0 -0.0009548040241078026 0.0 0.0
-0.00045814465087362644 8.77517999559041e-05 0.0 -0.0018032573044216016 0.0 0.0
-0.0009061555538187882 0.00039714590499462243 0.0 -0.0019408859724930339 0.0 0.0
-0.0013399440711114319 0.0006442987390382626 0.0 -0.001853581180824293 0.0 0.0
-0.00204289892798587 0.0010938002521752033 0.0 -0.0019439772039923642 0.0 0.0
-0.0036817630744362395 0.002357281027632885 0.0 -0.0026127598517617368 0.0 0.0
-0.006961205775611046 0.005252235000020811 0.0 -0.004231148877914204 0.0 0.0
-0.012271231272893535 0.010236417340244941 0.0 -0.006981606990282607 0.0 0.0
-0.01954887967386465 0.017237624679513175 0.0 -0.010606871460336564 0.0 0.0
-0.028538458040372583 0.025966320113074648 0.0 -0.014625403809180204 0.0 0.0
-0.0389718189882457 0.0361450088084454 0.0 -0.01867125057839658 0.0 0.0
-0.050643569757201856 0.04756951822940758 0.0 -0.022533914474061945 0.0 0.0
-0.06344308709932167 0.06013031218876019 0.0 -0.02622019269553344 0.0 0.0
-0.07731336240139708 0.07376230070278211 0.0 -0.029827451215942657 0.0 0.0
-0.09208183434806994 0.08826432683513463 0.0 -0.03362488017084453 0.0 0.0
-0.10709219117065244 0.10294318435551908 0.0 -0.03815110729253157 0.0 0.0
-0.12072744929557319 0.11616431069821598 0.0 -0.0437572010455054 0.0 0.0
-0.13005763103558812 0.12499994333376652 0.0 -0.04972814203668885 0.0 0.0
-0.13073195648427224 0.12513889094114727 0.0 -0.05449405214868175 0.0 0.0
-0.11708426687517187 0.11096200055533956 0.0 -0.057653730335860076 0.0 0.0
-0.1170842668751618 0.11096200055532535 0.0 0.0576537303359268 0.0 0.0
-0.13073195648423933 0.12513889094111263 0.0 0.05449405214876013 0.0 0.0
-0.13005763103553664 0.124999943333715 0.0 0.04972814203674614 0.0 0.0
-0.12072744929550505 0.11616431069815292 0.0 0.0437572010455185 0.0 0.0
-0.10709219117057339 0.10294318435545069 0.0 0.03815110729252569 0.0 0.0
-0.09208183434798772 0.08826432683505203 0.0 0.03362488017083087 0.0 0.0
-0.07731336240131502 0.0737623007027004 0.0 0.029827451215919287 0.0 0.0
-0.06344308709923958 0.06013031218867715 0.0 0.026220192695514122 0.0 0.0
-0.050643569757123086 0.0475695182293312 0.0 0.02253391447403541 0.0 0.0
-0.03897181898817563 0.03614500880837168 0.0 0.018671250578361498 0.0 0.0
-0.028538458040311562 0.025966320113012475 0.0 0.014625403809146509 0.0 0.0
-0.019548879673817812 0.017237624679466546 0.0 0.010606871460310696 0.0 0.0
-0.012271231272859923 0.010236417340212967 0.0 0.0069816069902640665 0.0 0.0
-0.006961205775591367 0.005252235000003269 0.0 0.004231148877904101 0.0 0.0
-0.0036817630744254287 0.002357281027622893 0.0 0.002612759851753743 0.0 0.0
-0.0020428989279828585 0.0010938002521763135 0.0 0.0019439772039883119 0.0 0.0
-0.001339944071110738 0.000644298739039928 0.0 0.0018535811808207403 0.0 0.0
-0.0009061555538181221 0.0003971459049930681 0.0 0.0019408859724920347 0.0 0.0
-0.0004581446508732795 8.775179995534899e-05 0.0 0.0018032573044189926 0.0 0.0
-2.4394925029730397e-05 -0.00023107703412796401 0.0 0.0009548040241053601 0.0 0.0
-7.985748435707096e-05 -0.00010685411543426282 0.0 -0.0007255367993603268 0.0 0.0
-0.0005117275227202733 0.00014083919240337472 0.0 -0.001495058402209537 0.0 0.0
-0.0010161618949589002 0.0004404193347840035 0.0 -0.0016434741590882762 0.0 0.0
-0.0015375404468895848 0.0007287316665276489 0.0 -0.001541267148605474 0.0 0.0
-0.0024877646558708055 0.0013820207320021094 0.0 -0.0016418158570508656 0.0 0.0
-0.004649769160753714 0.003163771274977245 0.0 -0.0023162489335151193 0.0 0.0
-0.008721354347757282 0.0068821782745032145 0.0 -0.003881151988665066 0.0 0.0
-0.015028588021125444 0.01288775101812556 0.0 -0.006407401914031219 0.0 0.0
-0.02354545277212583 0.02112301660623972 0.0 -0.00966141987528657 0.0 0.0
-0.03406834633693551 0.0313653986440352 0.0 -0.013302030091671857 0.0 0.0
-0.04632225096217463 0.04334077619686649 0.0 -0.016966155262802873 0.0 0.0
-0.06007704378174222 0.0568206205844044 0.0 -0.02047216705701882 0.0 0.0
-0.07517598766804212 0.07165161339387005 0.0 -0.023842909018961245 0.0 0.0
-0.09150573579913224 0.08771519845292808 0.0 -0.027079608973945346 0.0 0.0
-0.10885945463454272 0.10478000909790364 0.0 -0.030220258004006517 0.0 0.0
-0.12655508503686774 0.12210955278045521 0.0 -0.033608951003133214 0.0 0.0
-0.14277341027794255 0.1378433882037795 0.0 -0.038026310713372924 0.0 0.0
-0.15405451007981413 0.14855780879782543 0.0 -0.04410561357314702 0.0 0.0
-0.15542717418599336 0.14934740378279532 0.0 -0.05191846409181389 0.0 0.0
-0.14080892660688524 0.13421318892359224 0.0 -0.06192533706459169 0.0 0.0
-0.14080892660687255 0.13421318892358425 0.0 0.06192533706465264 0.0 0.0
-0.1554271741859546 0.1493474037827598 0.0 0.05191846409188594 0.0 0.0
-0.15405451007975293 0.14855780879776148 0.0 0.04410561357319598 0.0 0.0
-0.14277341027786275 0.13784338820371822 0.0 0.03802631071338347 0.0 0.0
-0.1265550850367771 0.12210955278037794 0.0 0.03360895100312583 0.0 0.0
-0.10885945463444752 0.10478000909781215 0.0 0.030220258003997635 0.0 0.0
-0.09150573579903651 0.08771519845284104 0.0 0.02707960897392775 0.0 0.0
-0.07517598766794717 0.0716516133937839 0.0 0.023842909018944924 0.0 0.0
-0.060077043781651074 0.05682062058431603 0.0 0.020472167056996227 0.0 0.0
-0.04632225096209282 0.043340776196790554 0.0 0.016966155262771232 0.0 0.0
-0.03406834633686549 0.03136539864396637 0.0 0.01330203009164238 0.0 0.0
-0.023545452772070874 0.02112301660618643 0.0 0.009661419875266697 0.0 0.0
-0.01502858802108592 0.012887751018091809 0.0 0.006407401914013178 0.0 0.0
-0.008721354347732233 0.00688217827448212 0.0 0.00388115198865141 0.0 0.0
-0.004649769160740849 0.0031637712749654767 0.0 0.002316248933506404 0.0 0.0
-0.0024877646558659205 0.0013820207319974465 0.0 0.0016418158570491448 0.0 0.0
-0.0015375404468882664 0.0007287316665250954 0.0 0.0015412671486044749 0.0 0.0
-0.0010161618949584145 0.00044041933478411455 0.0 0.0016434741590860003 0.0 0.0
-0.0005117275227199403 0.0001408391924037633 0.0 0.0014950584022079827 0.0 0.0
-7.98574843569877e-05 -0.00010685411543370597 0.0 0.0007255367993603268 0.0 0.0
-0.00011893400768564488 -1.3469511657593358e-05 0.0 -0.0004911677606139198 0.0 0.0
-0.0005574790054917456 0.0001914172238031142 0.0 -0.0011439277382925273 0.0 0.0
-0.0011215956134794647 0.00048027331640254634 0.0 -0.0012861868876284932 0.0 0.0
-0.0017479020568544335 0.0008287285146613144 0.0 -0.0011837004608360457 0.0 0.0
-0.0030053793229778414 0.001752451895576712 0.0 -0.001287212676732985 0.0 0.0
-0.005734317369565423 0.004113596275198361 0.0 -0.0019150192682754752 0.0 0.0
-0.010568748770860559 0.008628078750853696 0.0 -0.0032321694398076417 0.0 0.0
-0.017816742843381472 0.015592501210213605 0.0 -0.005292819040590757 0.0 0.0
-0.027545170961743748 0.025028793273857985 0.0 -0.007978770310596128 0.0 0.0
-0.03957840430553372 0.03676197080165711 0.0 -0.01099599596012557 0.0 0.0
-0.05364158383142065 0.0505222728785526 0.0 -0.014036913541385254 0.0 0.0
-0.0694792862688573 0.06605780002944206 0.0 -0.01694397145873905 0.0 0.0
-0.08688267541732964 0.08316044279205226 0.0 -0.01975533141416219 0.0 0.0
-0.10564282081918286 0.1016188476807347 0.0 -0.022458690689737715 0.0 0.0
-0.12543108215464327 0.12109095263666969 0.0 -0.02481734231042587 0.0 0.0
-0.14552161704699385 0.14080514478646844 0.0 -0.026690707535987457 0.0 0.0
-0.16416459122049998 0.15894359026420535 0.0 -0.02909190070369383 0.0 0.0
-0.17775180930286058 0.17187144092792295 0.0 -0.03475446479750499 0.0 0.0
-0.18055148857797468 0.1740105414509454 0.0 -0.04636315143597425 0.0 0.0
-0.16567042555287445 0.15856386327348915 0.0 -0.06539917328664435 0.0 0.0
-0.16567042555285869 0.15856386327348204 0.0 0.0653991732866901 0.0 0.0
-0.18055148857793002 0.17401054145091077 0.0 0.04636315143603298 0.0 0.0
-0.17775180930278908 0.171871440927851 0.0 0.03475446479754496 0.0 0.0
-0.1641645912204077 0.15894359026410854 0.0 0.02909190070370149 0.0 0.0
-0.14552161704689093 0.14080514478636452 0.0 0.026690707535979297 0.0 0.0
-0.12543108215453486 0.12109095263655689 0.0 0.024817342310419488 0.0 0.0
-0.1056428208190739 0.10161884768062546 0.0 0.022458690689722893 0.0 0.0
-0.08688267541722187 0.08316044279194257 0.0 0.019755331414148758 0.0 0.0
-0.06947928626875362 0.06605780002933859 0.0 0.016943971458721785 0.0 0.0
-0.053641583831327985 0.050522272878457564 0.0 0.014036913541358387 0.0 0.0
-0.03957840430545429 0.036761970801575394 0.0 0.010995995960100924 0.0 0.0
-0.027545170961680777 0.025028793273798478 0.0 0.007978770310578365 0.0 0.0
-0.017816742843336335 0.01559250121016742 0.0 0.0052928190405777675 0.0 0.0
-0.010568748770829937 0.008628078750822166 0.0 0.0032321694397983713 0.0 0.0
-0.005734317369549942 0.0041135962751845945 0.0 0.001915019268269369 0.0 0.0
-0.0030053793229712356 0.0017524518955720492 0.0 0.0012872126767312642 0.0 0.0
-0.0017479020568529693 0.000828728514659427 0.0 0.00118370046083488 0.0 0.0
-0.001121595613478868 0.00048027331640265736 0.0 0.0012861868876284932 0.0 0.0
-0.0005574790054913639 0.00019141722380272563 0.0 0.001143927738291195 0.0 0.0
-0.00011893400768556162 -1.3469511657818872e-05 0.0 0.0004911677606117548 0.0 0.0
-0.00013475736043816466 4.461021366292117e-05 0.0 -0.00025838429762159443 0.0 0.0
-0.0005863138688509961 0.0002330781436177265 0.0 -0.0007492813407664611 0.0 0.0
-0.0012256690291116978 0.0005197899961962849 0.0 -0.0008630174403359003 0.0 0.0
-0.0019912347459117297 0.0009602125489418523 0.0 -0.0007834152275679185 0.0 0.0
-0.0036093405468505813 0.0022261003413071023 0.0 -0.0008798282018841475 0.0 0.0
-0.006915953558505994 0.005186404610485029 0.0 -0.0013449757155560849 0.0 0.0
-0.012454276324776858 0.010439034197070818 0.0 -0.002259872433336474 0.0 0.0
-0.02060504069301472 0.01831120663087127 0.0 -0.0036784706329191508 0.0 0.0
-0.031506052510342775 0.028911850370012537 0.0 -0.0055629946585493695 0.0 0.0
-0.04502483728855344 0.04211036119689071 0.0 -0.007708789233173197 0.0 0.0
-0.06088622573259039 0.05764392901874693 0.0 -0.009874044322998876 0.0 0.0
-0.07880525424345503 0.07523271233201623 0.0 -0.011944267343002468 0.0 0.0
-0.0985138708474097 0.09460670898568102 0.0 -0.013972220583441275 0.0 0.0
-0.11968009602014112 0.11543027074361412 0.0 -0.015895012978330403 0.0 0.0
-0.14178693924641633 0.13718164556966705 0.0 -0.017396930328473337 0.0 0.0
-0.16396364158376153 0.15897617481249426 0.0 -0.018002906950572495 0.0 0.0
-0.18463736527835528 0.1791864201601081 0.0 -0.01805308537349748 0.0 0.0
-0.20074112882636508 0.19464820033957597 0.0 -0.021269633157732226 0.0 0.0
-0.20638964975678215 0.1993638234118258 0.0 -0.036025281513516916 0.0 0.0
-0.19244124109724817 0.18473700188954023 0.0 -0.0672149314990762 0.0 0.0
-0.19244124109722935 0.18473700188952868 0.0 0.06721493149911051 0.0 0.0
-0.20638964975673127 0.1993638234117725 0.0 0.0360252815135661 0.0 0.0
-0.2007411288262819 0.19464820033950048 0.0 0.021269633157763757 0.0 0.0
-0.1846373652782512 0.1791864201600184 0.0 0.018053085373503308 0.0 0.0
-0.16396364158364496 0.15897617481238946 0.0 0.01800290695056339 0.0 0.0
-0.1417869392462946 0.13718164556954537 0.0 0.01739693032847206 0.0 0.0
-0.11968009602001915 0.11543027074348178 0.0 0.015895012978324907 0.0 0.0
-0.09851387084728917 0.09460670898555756 0.0 0.013972220583433725 0.0 0.0
-0.07880525424333909 0.07523271233189721 0.0 0.01194426734299181 0.0 0.0
-0.06088622573248706 0.05764392901864701 0.0 0.009874044322981224 0.0 0.0
-0.04502483728846469 0.04211036119680589 0.0 0.007708789233155766 0.0 0.0
-0.031506052510272706 0.02891185036994104 0.0 0.005562994658536713 0.0 0.0
-0.02060504069296292 0.018311206630816645 0.0 0.003678470632908548 0.0 0.0
-0.012454276324741644 0.010439034197038843 0.0 0.002259872433327925 0.0 0.0
-0.0069159535584873075 0.005186404610467044 0.0 0.001344975715552199 0.0 0.0
-0.0036093405468424974 0.002226100341301107 0.0 0.0008798282018829817 0.0 0.0
-0.001991234745909738 0.000960212548940631 0.0 0.0007834152275662531 0.0 0.0
-0.0012256690291111635 0.0005197899961972841 0.0 0.0008630174403352897 0.0 0.0
-0.0005863138688507567 0.00023307814361811507 0.0 0.000749281340766017 0.0 0.0
-0.00013475736043862957 4.461021366256729e-05 0.0 0.0002583842976214834 0.0 0.0
-0.000115046751799186 6.099628377653765e-05 0.0 -4.414672782404594e-05 0.0 0.0
-0.0005815840516271709 0.00025530753544589224 0.0 -0.0003030281448846428 0.0 0.0
-0.0013375542916850836 0.0005664958950603038 0.0 -0.00036042637478317374 0.0 0.0
-0.002292594217129851 0.001153947468447436 0.0 -0.0003423231193241394 0.0 0.0
-0.004301597698312343 0.0028014700158591754 0.0 -0.00038853011031109164 0.0 0.0
-0.00815866322818537 0.00633981126941241 0.0 -0.0005771422344543753 0.0 0.0
-0.014356576020454814 0.012279461621683918 0.0 -0.0009575225393111397 0.0 0.0
-0.023356669006326936 0.021007121925985306 0.0 -0.0015674760109944952 0.0 0.0
-0.0353857164745659 0.03272699870168694 0.0 -0.002422728177481903 0.0 0.0
-0.0503619332297231 0.04736383560599933 0.0 -0.0034344910007868545 0.0 0.0
-0.0680137374452564 0.0646620886873146 0.0 -0.004473120302942779 0.0 0.0
-0.08801331736150553 0.08430129906362538 0.0 -0.005479804059833393 0.0 0.0
-0.11000861674108453 0.10592856819958962 0.0 -0.006452580160664856 0.0 0.0
-0.13355042723653354 0.12908787876155525 0.0 -0.007316798194983765 0.0 0.0
-0.15793393389576738 0.1530705607407299 0.0 -0.007874616859917527 0.0 0.0
-0.18203829930960247 0.17676042101961364 0.0 -0.007731778738105488 0.0 0.0
-0.20423205745781814 0.1985303212556131 0.0 -0.006528532108861729 0.0 0.0
-0.22217596836530806 0.2159869194765376 0.0 -0.005838700581871414 0.0 0.0
-0.23178525771398337 0.22483213718552708 0.0 -0.016304513781420282 0.0 0.0
-0.22329949847747063 0.21445309443822058 0.0 -0.061948562789777006 0.0 0.0
-0.22329949847745043 0.21445309443820726 0.0 0.061948562789790884 0.0 0.0
-0.23178525771392716 0.22483213718547468 0.0 0.016304513781444818 0.0 0.0
-0.22217596836521133 0.21598691947644433 0.0 0.00583870058188285 0.0 0.0
-0.20423205745769996 0.1985303212555003 0.0 0.006528532108862395 0.0 0.0
-0.18203829930947196 0.17676042101948664 0.0 0.007731778738097994 0.0 0.0
-0.1579339338956326 0.15307056074059755 0.0 0.007874616859920691 0.0 0.0
-0.13355042723639893 0.12908787876142958 0.0 0.007316798194976104 0.0 0.0
-0.11000861674095061 0.10592856819945373 0.0 0.006452580160658639 0.0 0.0
-0.08801331736137759 0.08430129906349881 0.0 0.005479804059826787 0.0 0.0
-0.06801373744514254 0.0646620886871987 0.0 0.004473120302931732 0.0 0.0
-0.050361933229625684 0.047363835605906957 0.0 0.0034344910007765295 0.0 0.0
-0.03538571647448958 0.03272699870161899 0.0 0.002422728177477018 0.0 0.0
-0.023356669006269374 0.021007121925930683 0.0 0.0015674760109906094 0.0 0.0
-0.014356576020414749 0.012279461621645726 0.0 0.0009575225393068099 0.0 0.0
-0.008158663228163677 0.006339811269393314 0.0 0.0005771422344539867 0.0 0.0
-0.004301597698302757 0.0028014700158482952 0.0 0.00038853011031275697 0.0 0.0
-0.0022925942171271446 0.001153947468442551 0.0 0.0003423231193217524 0.0 0.0
-0.001337554291684296 0.0005664958950601928 0.0 0.0003604263747828962 0.0 0.0
-0.000581584051626503 0.0002553075354462253 0.0 0.00030302814488342156 0.0 0.0
-0.00011504675179931957 6.099628377680827e-05 0.0 4.414672782410145e-05 0.0 0.0
SCALARS Statev float 8
LOOKUP_TABLE default
0.0 0.015103096443746987 0.01175311730105649 -0.012132739130527943 0.000379621829471453 -0.006802584208346119 0.0 0.0
0.0 0.001125323567017523 0.0008265236498521923 -0.0007224065268123295 -0.00010411712303986242 0.0007001844848439089 0.0 0.0
0.0 4.568731423117776e-05 6.913890644138513e-06 -5.131824614802722e-06 -1.7820660293358174e-06 -5.326828071815028e-07 0.0 0.0
0.0 0.00046348533327793663 0.00036994353809583554 -0.0002954316092558467 -7.451192883998898e-05 -5.357140608038957e-05 0.0 0.0
0.0 0.0022543330159678124 0.0018921949335822929 -0.0016069423580012576 -0.0002852525755810348 -0.00020293535916642388 0.0 0.0
0.0 0.00599369289193243 0.005376199657247413 -0.004856274528602203 -0.0005199251286452109 -0.0004403576286947043 0.0 0.0
0.0 0.012737640308952795 0.011256992672829837 -0.010595336753225364 -0.0006616559196044675 -0.0008108022466988693 0.0 0.0
0.0 0.022780782069162803 0.019972925528351844 -0.01920623685921556 -0.0007666886691362771 -0.0013933922768639886 0.0 0.0
0.0 0.03635673800452094 0.03172990857209125 -0.03085645890807296 -0.0008734496640182763 -0.0022209784570115707 0.0 0.0
0.0 0.05339044292254146 0.04645904901730144 -0.04547049689975607 -0.0009885521175453844 -0.003220587932744531 0.0 0.0
0.0 0.07361645151907999 0.06390955977926464 -0.06280123630463953 -0.0011083234746250919 -0.004264497573371112 0.0 0.0
0.0 0.0963866161968574 0.08376836164106097 -0.08253822701224232 -0.0012301346288186284 -0.00528157689466489 0.0 0.0
0.0 0.12162344996665832 0.10570119338550683 -0.1043477225408835 -0.001353470844623225 -0.006272572067838268 0.0 0.0
0.0 0.1488787523253782 0.1293225913616259 -0.12784273125191947 -0.0014798601097063577 -0.007216041054880608 0.0 0.0
0.0 0.1774530463150457 0.154082638022421 -0.15247236941097253 -0.0016102686114483904 -0.008046541744405758 0.0 0.0
0.0 0.20641854666103632 0.17914897273141242 -0.17740593652062742 -0.001743036210785055 -0.008588061106144906 0.0 0.0
0.0 0.2344101785935233 0.2033693966071982 -0.20149576628142954 -0.0018736303257687235 -0.008572746235233256 0.0 0.0
0.0 0.2597586315524111 0.22531388278212713 -0.22331549575459558 -0.0019983870275313777 -0.00782238779328693 0.0 0.0
0.0 0.28051246396155616 0.2432818999976379 -0.24116162286509735 -0.00212027713254051 -0.006936862637148283 0.0 0.0
0.0 0.29335042311267256 0.25451943759050155 -0.2521909407428818 -0.0023284968476198036 -0.008937981604480182 0.0 0.0
0.0 0.29335042311265896 0.2545194375904892 -0.25219094074287024 -0.0023284968476189097 0.008937981604491513 0.0 0.0
0.0 0.28051246396150065 0.24328189999758912 -0.24116162286504944 -0.002120277132539577 0.006936862637177244 0.0 0.0
0.0 0.2597586315523074 0.22531388278203707 -0.2233154957545063 -0.0019983870275306747 0.007822387793307978 0.0 0.0
0.0 0.23441017859339264 0.2033693966070848 -0.2014957662813167 -0.0018736303257680833 0.008572746235241076 0.0 0.0
0.0 0.20641854666089327 0.17914897273128857 -0.177405936520504 -0.0017430362107846505 0.008588061106132208 0.0 0.0
0.0 0.17745304631489467 0.15408263802229039 -0.15247236941084158 -0.001610268611448778 0.008046541744402527 0.0 0.0
0.0 0.14887875232523035 0.12932259136149782 -0.1278427312517918 -0.0014798601097059509 0.007216041054879813 0.0 0.0
0.0 0.12162344996651323 0.10570119338538084 -0.10434772254075862 -0.001353470844622205 0.006272572067836667 0.0 0.0
0.0 0.09638661619672101 0.0837683616409425 -0.082538227012125 -0.0012301346288174245 0.005281576894655664 0.0 0.0
0.0 0.07361645151896047 0.06390955977916048 -0.06280123630453655 -0.0011083234746239422 0.004264497573362844 0.0 0.0
0.0 0.053390442922440974 0.04645904901721445 -0.04547049689966978 -0.0009885521175446769 0.0032205879327314 0.0 0.0
0.0 0.036356738004441835 0.03172990857202212 -0.030856458908004383 -0.0008734496640177543 0.0022209784570082903 0.0 0.0
0.0 0.022780782069107934 0.019972925528303306 -0.0192062368591678 -0.0007666886691355013 0.0013933922768597845 0.0 0.0
0.0 0.012737640308915022 0.011256992672796215 -0.010595336753192469 -0.000661655919603738 0.0008108022466966626 0.0 0.0
0.0 0.0059936928919103296 0.0053761996572274425 -0.004856274528582991 -0.0005199251286444518 0.0004403576286927048 0.0 0.0
0.0 0.0022543330159573425 0.0018921949335734926 -0.0016069423579933482 -0.0002852525755801444 0.00020293535916550607 0.0 0.0
0.0 0.0004634853332751575 0.0003699435380942425 -0.0002954316092545169 -7.451192883972548e-05 5.357140608004782e-05 0.0 0.0
0.0 4.5687314230688756e-05 6.91389064424065e-06 -5.13182461488131e-06 -1.7820660293592925e-06 5.326828071750189e-07 0.0 0.0
0.0 0.001125323567014131 0.0008265236498502258 -0.0007224065268105273 -0.00010411712303969935 -0.0007001844848414815 0.0 0.0
0.0 0.01510309644372771 0.01175311730104386 -0.012132739130514282 0.0003796218294704195 0.006802584208312963 0.0 0.0
0.0 0.011417001136726121 0.008322328806157322 -0.008820543232027085 0.0004982144258697624 -0.008001328091984599 0.0 0.0
0.0 3.976639126403789e-05 3.214255745656677e-05 -2.9523052418151086e-05 -2.6195050384156725e-06 2.0841833719258357e-05 0.0 0.0
0.0 1.127003124249823e-06 5.219657749924717e-07 -3.953927909564818e-07 -1.2657298403599189e-07 -1.8086419809435074e-07 0.0 0.0
0.0 0.00021146578805156206 0.00016611120537635886 -0.00013138049174380592 -3.473071363255313e-05 -5.6875530410263494e-05 0.0 0.0
0.0 0.0015677508799109457 0.0012803568185155861 -0.0010697509019372406 -0.00021060591657834615 -0.0003387793902265143 0.0 0.0
0.0 0.004709928443931878 0.0042271552238056925 -0.0037638923085121295 -0.0004632629152935617 -0.0009150568027781563 0.0 0.0
0.0 0.010702397573909771 0.009445791783081036 -0.008814471239916412 -0.0006313205431646197 -0.0018449069779008591 0.0 0.0
0.0 0.01978270778883782 0.017304703006136613 -0.016559863312145665 -0.0007448396939909505 -0.003218653264342107 0.0 0.0
0.0 0.032076708235698595 0.027931094169268735 -0.027080665376716676 -0.0008504287925520474 -0.0050590269644415825 0.0 0.0
0.0 0.04744410040681497 0.041203036510598263 -0.040243308264422385 -0.0009597282461758778 -0.007196158572130618 0.0 0.0
0.0 0.0655894498078674 0.056866556747851654 -0.05579560133812164 -0.0010709554097300088 -0.009389840207183824 0.0 0.0
0.0 0.08624246563625748 0.07465158123219523 -0.07346857102479117 -0.0011830102074040264 -0.011502645847292657 0.0 0.0
0.0 0.10880802421079094 0.09429791169740355 -0.09300131924919837 -0.0012965924482051987 -0.013575280217982218 0.0 0.0
0.0 0.13321172357628178 0.11548222300765999 -0.11406981082971442 -0.0014124121779455978 -0.015589659823487872 0.0 0.0
0.0 0.15890478545687897 0.1377342424253699 -0.13620350895996491 -0.001530733465404958 -0.017382634910787086 0.0 0.0
0.0 0.1849970500973816 0.16035215113968376 -0.1587013244559533 -0.0016508266837304626 -0.018616727568809353 0.0 0.0
0.0 0.21034695108317814 0.1823394055268893 -0.18056793337822513 -0.0017714721486641867 -0.018804556646991172 0.0 0.0
0.0 0.2334251575350764 0.20235619993779852 -0.20046261619781647 -0.0018935837399819317 -0.017723593247240217 0.0 0.0
0.0 0.2520333164374571 0.21850809715225838 -0.21647341167165068 -0.002034685480607587 -0.015897762722582084 0.0 0.0
0.0 0.26319017575201026 0.22821772737007978 -0.2260751085349152 -0.0021426188351646525 -0.013175301048208785 0.0 0.0
0.0 0.26319017575199155 0.2282177273700631 -0.2260751085348988 -0.002142618835164441 0.013175301048237685 0.0 0.0
0.0 0.25203331643739957 0.21850809715220765 -0.21647341167160003 -0.0020346854806076024 0.015897762722632387 0.0 0.0
0.0 0.2334251575349855 0.2023561999377192 -0.20046261619773686 -0.001893583739982155 0.017723593247278065 0.0 0.0
0.0 0.2103469510830715 0.18233940552679653 -0.1805679333781329 -0.0017714721486634215 0.01880455664700567 0.0 0.0
0.0 0.1849970500972592 0.16035215113957774 -0.15870132445584834 -0.0016508266837291972 0.018616727568797575 0.0 0.0
0.0 0.15890478545675413 0.13773424242526086 -0.13620350895985828 -0.0015307334654025245 0.017382634910779543 0.0 0.0
0.0 0.1332117235761529 0.11548222300754793 -0.11406981082960352 -0.0014124121779443585 0.015589659823484349 0.0 0.0
0.0 0.10880802421065891 0.09429791169728952 -0.0930013192490842 -0.0012965924482053466 0.013575280217975086 0.0 0.0
0.0 0.08624246563613759 0.07465158123209109 -0.07346857102468808 -0.001183010207402968 0.011502645847278427 0.0 0.0
0.0 0.06558944980775401 0.05686655674775361 -0.05579560133802377 -0.0010709554097298318 0.009389840207169677 0.0 0.0
0.0 0.04744410040672191 0.04120303651051782 -0.04024330826434219 -0.000959728246175601 0.007196158572110837 0.0 0.0
0.0 0.032076708235627686 0.02793109416920665 -0.027080665376654964 -0.0008504287925516722 0.005059026964432962 0.0 0.0
0.0 0.019782707788786706 0.017304703006092013 -0.016559863312101276 -0.0007448396939907399 0.003218653264333194 0.0 0.0
0.0 0.010702397573878152 0.009445791783052965 -0.00881447123988896 -0.0006313205431639964 0.0018449069778953614 0.0 0.0
0.0 0.004709928443912869 0.004227155223789049 -0.0037638923084963374 -0.00046326291529271124 0.0009150568027742494 0.0 0.0
0.0 0.0015677508799020398 0.0012803568185084694 -0.0010697509019310012 -0.0002106059165774683 0.0003387793902247926 0.0 0.0
0.0 0.00021146578804946933 0.00016611120537507823 -0.00013138049174276443 -3.4730713632313705e-05 5.68755304098507e-05 0.0 0.0
0.0 1.1270031240882317e-06 5.219657750497551e-07 -3.953927909975798e-07 -1.2657298405217768e-07 1.8086419810137264e-07 0.0 0.0
0.0 3.976639126366246e-05 3.214255745657834e-05 -2.952305241811222e-05 -2.6195050384661175e-06 -2.0841833719158695e-05 0.0 0.0
0.0 0.011417001136702873 0.008322328806142117 -0.008820543232011263 0.0004982144258691371 0.008001328091956224 0.0 0.0
0.0 0.008780876000105914 0.00607118125513745 -0.006609097874911953 0.0005379166197745014 -0.007119011916112627 0.0 0.0
0.0 0.0 0.0 0.0 0.0 0.0 0.0 0.0
0.0 0.0 0.0 0.0 0.0 0.0 0.0 0.0
0.0 5.890086027995272e-05 4.989756176806952e-05 -3.9190761030652006e-05 -1.0706800737417528e-05 -3.141326209334438e-05 0.0 0.0
0.0 0.0009540820280688823 0.0007877267452170408 -0.0006476490006631188 -0.0001400777445539215 -0.00036718039595925154 0.0 0.0
0.0 0.0036952401526027306 0.003140610906863477 -0.002750501121200179 -0.00039010978566329666 -0.0011704874037463968 0.0 0.0
0.0 0.008736560285519411 0.007667517241816961 -0.0070753842531995625 -0.0005921329886173991 -0.002534808325949623 0.0 0.0
0.0 0.016808917028740378 0.014620458709851627 -0.013903472012929545 -0.0007169866969220755 -0.004549522285195196 0.0 0.0
0.0 0.027811456792852577 0.024070789209992654 -0.023248123703072852 -0.0008226655069198038 -0.007181382366419079 0.0 0.0
0.0 0.04151863826907916 0.03585598718266094 -0.03492997257670393 -0.0009260146059570042 -0.010190833451131835 0.0 0.0
0.0 0.057653587673904695 0.0497209641116583 -0.04869203799440275 -0.0010289261172555437 -0.013277161969036732 0.0 0.0
0.0 0.07585065321399292 0.06542998390877162 -0.06429817829166194 -0.0011318056171096672 -0.01626511449497681 0.0 0.0
0.0 0.09603606503579691 0.08277052093713026 -0.0815350970339809 -0.001235423903149339 -0.019176598541466465 0.0 0.0
0.0 0.11758684996531552 0.10149533632306702 -0.10015515204539173 -0.001340184277675232 -0.02201993643167784 0.0 0.0
0.0 0.14034472661304923 0.12123149540397174 -0.11978546329748156 -0.0014460321064901761 -0.02459679761960416 0.0 0.0
0.0 0.16363680790164106 0.1414138885658198 -0.13986017121880975 -0.001553717347010068 -0.026450099116350875 0.0 0.0
0.0 0.18639949993787905 0.16119442358836497 -0.15952919513897296 -0.0016652284493919906 -0.027004080087824973 0.0 0.0
0.0 0.20715996957207566 0.17929749316556287 -0.17751149299254115 -0.001786000173021719 -0.025873897563281314 0.0 0.0
0.0 0.22384558706523944 0.1939029292435653 -0.19199883377231242 -0.0019040954712528017 -0.022581500138422278 0.0 0.0
0.0 0.2341126697123475 0.20298226877179237 -0.20099159672343297 -0.0019906720483592088 -0.016051504642689472 0.0 0.0
0.0 0.23411266971233086 0.20298226877177683 -0.2009915967234181 -0.001990672048358774 0.016051504642737177 0.0 0.0
0.0 0.2238455870651903 0.19390292924352043 -0.19199883377226812 -0.001904095471252352 0.022581500138490508 0.0 0.0
0.0 0.20715996957200594 0.17929749316549956 -0.1775114929924801 -0.0017860001730192598 0.02587389756333278 0.0 0.0
0.0 0.18639949993778515 0.1611944235882818 -0.15952919513889163 -0.001665228449390352 0.02700408008784576 0.0 0.0
0.0 0.16363680790152893 0.14141388856572296 -0.13986017121871314 -0.0015537173470097669 0.026450099116340255 0.0 0.0
0.0 0.14034472661293476 0.1212314954038724 -0.11978546329738302 -0.001446032106489383 0.024596797619595587 0.0 0.0
0.0 0.11758684996519585 0.10149533632296281 -0.10015515204528866 -0.0013401842776741566 0.022019936431671563 0.0 0.0
0.0 0.09603606503567928 0.08277052093702829 -0.08153509703387936 -0.0012354239031488981 0.019176598541456952 0.0 0.0
0.0 0.07585065321388125 0.06542998390867581 -0.0642981782915659 -0.0011318056171099637 0.016265114494956174 0.0 0.0
0.0 0.05765358767380717 0.04972096411157387 -0.04869203799431861 -0.0010289261172552275 0.013277161969017204 0.0 0.0
0.0 0.04151863826899777 0.035855987182590844 -0.03492997257663427 -0.0009260146059565579 0.01019083345110628 0.0 0.0
0.0 0.027811456792790637 0.024070789209938666 -0.023248123703019617 -0.0008226655069190428 0.00718138236640558 0.0 0.0
0.0 0.01680891702869272 0.014620458709810194 -0.013903472012888655 -0.0007169866969215311 0.004549522285181941 0.0 0.0
0.0 0.008736560285490289 0.007667517241791395 -0.007075384253174735 -0.0005921329886166597 0.0025348083259416863 0.0 0.0
0.0 0.003695240152587936 0.0031406109068512524 -0.00275050112118878 -0.000390109785662472 0.0011704874037410874 0.0 0.0
0.0 0.0009540820280639009 0.0007877267452132909 -0.0006476490006599686 -0.00014007774455332227 0.0003671803959575407 0.0 0.0
0.0 5.8900860278784585e-05 4.989756176756843e-05 -3.919076103023855e-05 -1.0706800737329923e-05 3.141326209296745e-05 0.0 0.0
0.0 0.0 0.0 0.0 0.0 0.0 0.0 0.0
0.0 0.0 0.0 0.0 0.0 0.0 0.0 0.0
0.0 0.008780876000085262 0.006071181255123328 -0.006609097874897245 0.0005379166197739113 0.007119011916089336 0.0 0.0
0.0 0.006680560124631982 0.0044411417197825825 -0.004959717593439932 0.0005185758736573492 -0.0057079960925344305 0.0 0.0
0.0 0.0 0.0 0.0 0.0 0.0 0.0 0.0
0.0 0.0 0.0 0.0 0.0 0.0 0.0 0.0
0.0 1.225049981954164e-05 7.777920602228406e-06 -6.099650856393206e-06 -1.678269745835185e-06 -8.029916551451083e-06 0.0 0.0
0.0 0.0005178635551018078 0.00041816754383067157 -0.0003394778588440479 -7.868968498662346e-05 -0.0003096972074257555 0.0 0.0
0.0 0.002636413382211009 0.002184823524229369 -0.0018784164944266044 -0.0003064070298027652 -0.0012317768155045937 0.0 0.0
0.0 0.0069103167085093516 0.005946786680444457 -0.005410753803833546 -0.0005360328766109098 -0.0028876117446111757 0.0 0.0
0.0 0.013893987996999861 0.011956656439166304 -0.011274505461602727 -0.000682150977563577 -0.005379121714443977 0.0 0.0
0.0 0.023566743485387384 0.0201940574894963 -0.019405179754338708 -0.0007888777351576027 -0.008579914199344412 0.0 0.0
0.0 0.035593442011061384 0.030467293028811453 -0.029580327533466726 -0.0008869654953446884 -0.01221218073302058 0.0 0.0
0.0 0.04968769436835575 0.042519631746880795 -0.04153763174801418 -0.0009819999988666163 -0.015930636223285048 0.0 0.0
0.0 0.06558535045244701 0.056142105693013686 -0.055066245257131184 -0.0010758604358824823 -0.019554750898266908 0.0 0.0
0.0 0.08307557009293148 0.07117120362231022 -0.07000178044066663 -0.0011694231816435723 -0.02310124457313674 0.0 0.0
0.0 0.10198417303895567 0.08742166673256152 -0.08615836722085246 -0.0012632995117090582 -0.026528502222239885 0.0 0.0
0.0 0.12194614218274763 0.10462033568409825 -0.1032636430439791 -0.0013566926401191298 -0.02964979284170215 0.0 0.0
0.0 0.14223715874590354 0.12234457501191792 -0.1208928334895065 -0.0014517415224113927 -0.032049555524876795 0.0 0.0
0.0 0.16241942417194352 0.13989584115906908 -0.13834228502992216 -0.001553556129146839 -0.033076862778584126 0.0 0.0
0.0 0.18098663567804535 0.1561513301785069 -0.1544889930045241 -0.0016623371739827603 -0.03196170454926887 0.0 0.0
0.0 0.19611263171846258 0.16954092678627156 -0.16777417034316444 -0.001766756443107097 -0.027533300121728516 0.0 0.0
0.0 0.2058782640069729 0.17836377565183034 -0.17651921767279066 -0.0018445579790398125 -0.018346609127573767 0.0 0.0
0.0 0.2058782640069587 0.1783637756518165 -0.176519217672777 -0.0018445579790396325 0.01834660912763457 0.0 0.0
0.0 0.19611263171842352 0.1695409267862339 -0.16777417034312767 -0.0017667564431061494 0.02753330012180826 0.0 0.0
0.0 0.18098663567797996 0.156151330178447 -0.15448899300446456 -0.0016623371739823587 0.03196170454932571 0.0 0.0
0.0 0.16241942417185867 0.13989584115899434 -0.13834228502984683 -0.0015535561291474627 0.03307686277860854 0.0 0.0
0.0 0.14223715874580767 0.1223445750118349 -0.12089283348942394 -0.0014517415224109369 0.03204955552486704 0.0 0.0
0.0 0.12194614218264416 0.10462033568400891 -0.10326364304389007 -0.001356692640118791 0.029649792841689643 0.0 0.0
0.0 0.10198417303884842 0.08742166673246884 -0.08615836722075948 -0.0012632995117094034 0.026528502222227947 0.0 0.0
0.0 0.08307557009283117 0.07117120362222308 -0.07000178044058024 -0.0011694231816428442 0.02310124457312318 0.0 0.0
0.0 0.06558535045235005 0.05614210569292994 -0.055066245257048445 -0.001075860435881492 0.019554750898241473 0.0 0.0
0.0 0.04968769436826846 0.042519631746805696 -0.041537631747939646 -0.0009819999988660323 0.015930636223258934 0.0 0.0
0.0 0.035593442010989594 0.03046729302875038 -0.029580327533406402 -0.0008869654953439548 0.012212180732990595 0.0 0.0
0.0 0.023566743485331193 0.020194057489448032 -0.019405179754290774 -0.0007888777351572591 0.008579914199326159 0.0 0.0
0.0 0.013893987996959801 0.011956656439132005 -0.011274505461568754 -0.0006821509775632438 0.005379121714428555 0.0 0.0
0.0 0.0069103167084828 0.005946786680421878 -0.005410753803811779 -0.0005360328766100981 0.0028876117446010505 0.0 0.0
0.0 0.002636413382196255 0.002184823524217803 -0.001878416494416041 -0.0003064070298017611 0.0012317768154979235 0.0 0.0
0.0 0.0005178635550975035 0.000418167543827833 -0.0003394778588416712 -7.868968498616189e-05 0.00030969720742380334 0.0 0.0
0.0 1.2250499818866589e-05 7.777920602305095e-06 -6.0996508564487875e-06 -1.6782697458563005e-06 8.029916551508085e-06 0.0 0.0
0.0 0.0 0.0 0.0 0.0 0.0 0.0 0.0
0.0 0.0 0.0 0.0 0.0 0.0 0.0 0.0
0.0 0.006680560124613601 0.004441141719770321 -0.004959717593427053 0.0005185758736567308 0.0057079960925158334 0.0 0.0
0.0 0.004939893324904432 0.0031736400727744767 -0.0036368264663765157 0.000463186393602041 -0.004306104498032266 0.0 0.0
0.0 0.0 0.0 0.0 0.0 0.0 0.0 0.0
0.0 0.0 0.0 0.0 0.0 0.0 0.0 0.0
0.0 2.078000334031601e-06 1.2730154901986176e-06 -9.813331466464276e-07 -2.91682343552189e-07 -1.9055225330456423e-06 0.0 0.0
0.0 0.00024351578784099535 0.00018177726846400934 -0.0001465116599396294 -3.526560852437991e-05 -0.0002062993083484297 0.0 0.0
0.0 0.0017276305061473174 0.0013847525566117167 -0.0011682659341067396 -0.0002164866225049766 -0.001143700930363809 0.0 0.0
0.0 0.005293668273310583 0.004334474461658119 -0.0038738052673333214 -0.0004606691943247973 -0.0029162943335222253 0.0 0.0
0.0 0.011112838703128985 0.009346448061020526 -0.00871147687761262 -0.0006349711834078992 -0.005666492053748577 0.0 0.0
0.0 0.01936981042929103 0.01634502055975431 -0.015597025454206073 -0.0007479951055482494 -0.009249393105936938 0.0 0.0
0.0 0.02970635208972705 0.025084672517757735 -0.02424291067583948 -0.0008417618419182475 -0.013260300137362045 0.0 0.0
0.0 0.04176257957746682 0.03531081224779258 -0.03438130622833308 -0.0009295060194595261 -0.017362590484199733 0.0 0.0
0.0 0.05528937528338525 0.04683747760826283 -0.0458232197989875 -0.0010142578092752982 -0.02137024791068988 0.0 0.0
0.0 0.07022375289235559 0.059546110235767016 -0.05844827729749825 -0.0010978329382687838 -0.02529910174790668 0.0 0.0
0.0 0.0862199420587977 0.07331744681334505 -0.07213667466114349 -0.0011807721522015938 -0.029112157756620797 0.0 0.0
0.0 0.10327147347430674 0.08795990380147761 -0.08669736576994753 -0.0012625380315300597 -0.032588470894497436 0.0 0.0
0.0 0.12099306697765277 0.10317155835551596 -0.10182654113409853 -0.0013450172214173389 -0.03535561538571026 0.0 0.0
0.0 0.13840457030452907 0.1184433259962486 -0.1170107128335353 -0.0014326131627132581 -0.03682348409413151 0.0 0.0
0.0 0.15478957640154284 0.13290973980856838 -0.13138212325945675 -0.0015276165491115204 -0.03594896923469787 0.0 0.0
0.0 0.16860067567696677 0.14528812509862754 -0.14366631124005813 -0.0016218138585693904 -0.031012541397591895 0.0 0.0
0.0 0.17813408342087422 0.15409269367529932 -0.15239492987501824 -0.0016977638002809434 -0.020239194300602642 0.0 0.0
0.0 0.17813408342085943 0.15409269367528464 -0.15239492987500272 -0.0016977638002817453 0.020239194300668333 0.0 0.0
0.0 0.16860067567693057 0.14528812509859163 -0.14366631124002222 -0.0016218138585694071 0.031012541397676383 0.0 0.0
0.0 0.1547895764014913 0.1329097398085184 -0.13138212325940873 -0.0015276165491096123 0.035948969234761284 0.0 0.0
0.0 0.13840457030446718 0.11844332599619112 -0.11701071283348063 -0.0014326131627104407 0.0368234840941607 0.0 0.0
0.0 0.12099306697757281 0.10317155835544606 -0.10182654113403004 -0.0013450172214160391 0.03535561538570129 0.0 0.0
0.0 0.10327147347422176 0.08795990380140353 -0.08669736576987486 -0.0012625380315287316 0.03258847089448483 0.0 0.0
0.0 0.08621994205871364 0.07331744681327172 -0.0721366746610715 -0.001180772152200256 0.029112157756608147 0.0 0.0
0.0 0.07022375289227392 0.05954611023569609 -0.058448277297427624 -0.0010978329382684382 0.025299101747892655 0.0 0.0
0.0 0.055289375283306096 0.046837477608195066 -0.04582321979892025 -0.0010142578092747997 0.021370247910664525 0.0 0.0
0.0 0.041762579577398276 0.035310812247734316 -0.03438130622827554 -0.0009295060194587782 0.017362590484171696 0.0 0.0
0.0 0.029706352089666273 0.02508467251770724 -0.02424291067578972 -0.0008417618419175385 0.013260300137329314 0.0 0.0
0.0 0.01936981042924079 0.016345020559711782 -0.015597025454164035 -0.0007479951055477366 0.009249393105914945 0.0 0.0
0.0 0.01111283870309428 0.009346448060991695 -0.008711476877584466 -0.0006349711834072308 0.005666492053731159 0.0 0.0
0.0 0.005293668273289848 0.004334474461641176 -0.00387380526731743 -0.0004606691943237472 0.0029162943335122975 0.0 0.0
0.0 0.0017276305061373878 0.0013847525566041939 -0.0011682659341002264 -0.0002164866225039671 0.0011437009303579032 0.0 0.0
0.0 0.0002435157878380913 0.0001817772684623885 -0.0001465116599382715 -3.526560852411692e-05 0.0002062993083464828 0.0 0.0
0.0 2.0780003339638927e-06 1.2730154903922849e-06 -9.8133314679729e-07 -2.9168234359499216e-07 1.9055225333502055e-06 0.0 0.0
0.0 0.0 0.0 0.0 0.0 0.0 0.0 0.0
0.0 0.0 0.0 0.0 0.0 0.0 0.0 0.0
0.0 0.004939893324889404 0.0031736400727646755 -0.003636826466366059 0.00046318639360138123 0.004306104498017953 0.0 0.0
0.0 0.0034766713666862263 0.002169761239002738 -0.002553921386712576 0.00038416014770983767 -0.003087201681903381 0.0 0.0
0.0 7.761818097908707e-08 -1.6545393973634885e-09 1.4170477556670242e-09 2.3749164169630387e-10 1.5147987326691532e-08 0.0 0.0
0.0 0.0 0.0 0.0 0.0 0.0 0.0 0.0
0.0 1.2459832782016668e-06 -8.711175530045244e-08 6.722946238267231e-08 1.9882292917777628e-08 2.0432140011233723e-07 0.0 0.0
0.0 0.00011035840156309655 6.753415374200744e-05 -5.425669179188352e-05 -1.3277461950123916e-05 -0.00011548814451102464 0.0 0.0
0.0 0.0010126730202096148 0.0007697127089134876 -0.0006385377724202051 -0.00013117493649328224 -0.0009351883459549965 0.0 0.0
0.0 0.003674296483605231 0.002906233696508702 -0.0025425421772757367 -0.00036369151923296573 -0.002718982228130205 0.0 0.0
0.0 0.008463211995151515 0.006853068697519497 -0.006286618470692276 -0.0005664502268272195 -0.00548528990021653 0.0 0.0
0.0 0.015299764060965547 0.012567071299968886 -0.011870950247153433 -0.0006961210528154493 -0.009163864070868064 0.0 0.0
0.0 0.023881706137798536 0.019757455473931332 -0.018968606428858337 -0.0007888490450729873 -0.013326501048373655 0.0 0.0
0.0 0.033864936218539726 0.02814596488986063 -0.02727622830626652 -0.0008697365835941093 -0.01755962541008235 0.0 0.0
0.0 0.04504226349865941 0.03756931953566246 -0.03662340465311981 -0.0009459148825426652 -0.02170252699369062 0.0 0.0
0.0 0.05730820583435546 0.047951715234206334 -0.0469323985901856 -0.001019316644020727 -0.025775022939091674 0.0 0.0
0.0 0.07058931957872483 0.059233607638808264 -0.05814226411023181 -0.001091343528576465 -0.029725157265031776 0.0 0.0
0.0 0.08476587848586763 0.07130184111958902 -0.07013927551204167 -0.0011625656075473785 -0.03335587277407803 0.0 0.0
0.0 0.09932368146910367 0.08395327384100165 -0.08272116005661981 -0.0012321137843818476 -0.03633681287626023 0.0 0.0
0.0 0.11428715197546292 0.09686737445071575 -0.09556427898152942 -0.0013030954691863406 -0.0381366562002661 0.0 0.0
0.0 0.1286554141170134 0.10951820549393057 -0.10813670680651674 -0.0013814986874138059 -0.03771466716693117 0.0 0.0
0.0 0.14111310153387852 0.12097937884862156 -0.11951290410148081 -0.0014664747471406488 -0.03301768453984441 0.0 0.0
0.0 0.15060028805586378 0.129934323463733 -0.12838892481263123 -0.0015453986511016376 -0.021776233856995723 0.0 0.0
0.0 0.15060028805585618 0.12993432346372324 -0.12838892481262212 -0.001545398651101099 0.02177623385706457 0.0 0.0
0.0 0.14111310153385329 0.12097937884859367 -0.11951290410145307 -0.0014664747471406058 0.03301768453993159 0.0 0.0
0.0 0.12865541411696316 0.10951820549388203 -0.108136706806467 -0.0013814986874150438 0.03771466716699283 0.0 0.0
0.0 0.11428715197539907 0.09686737445065793 -0.09556427898147048 -0.0013030954691874005 0.03813665620029094 0.0 0.0
0.0 0.09932368146903525 0.08395327384094312 -0.08272116005656086 -0.00123211378438224 0.03633681287624807 0.0 0.0
0.0 0.08476587848579888 0.0713018411195298 -0.07013927551198232 -0.0011625656075474305 0.033355872774064696 0.0 0.0
0.0 0.0705893195786556 0.059233607638748194 -0.058142264110171815 -0.0010913435285763954 0.02972515726501801 0.0 0.0
0.0 0.0573082058342889 0.04795171523414886 -0.04693239859012855 -0.0010193166440203225 0.02577502293907677 0.0 0.0
0.0 0.045042263498592694 0.037569319535606174 -0.036623404653063914 -0.0009459148825422394 0.021702526993664498 0.0 0.0
0.0 0.03386493621848063 0.028145964889811505 -0.02727622830621772 -0.0008697365835937848 0.017559625410053452 0.0 0.0
0.0 0.02388170613774459 0.01975745547388763 -0.018968606428814847 -0.0007888490450727831 0.013326501048338914 0.0 0.0
0.0 0.015299764060925498 0.012567071299935655 -0.011870950247120912 -0.0006961210528147405 0.009163864070845566 0.0 0.0
0.0 0.008463211995123291 0.006853068697496752 -0.0062866184706702145 -0.0005664502268265373 0.005485289900199461 0.0 0.0
0.0 0.003674296483588288 0.002906233696495395 -0.0025425421772634774 -0.0003636915192319171 0.0027189822281194933 0.0 0.0
0.0 0.0010126730202016198 0.0007697127089080048 -0.00063853777241552 -0.0001311749364924845 0.0009351883459486256 0.0 0.0
0.0 0.00011035840156165069 6.7534153741668e-05 -5.425669179158295e-05 -1.3277461950085059e-05 0.00011548814451032722 0.0 0.0
0.0 1.245983277765114e-06 -8.711175526903953e-08 6.722946235833695e-08 1.9882292910690027e-08 -2.0432140003799813e-07 0.0 0.0
0.0 0.0 0.0 0.0 0.0 0.0 0.0 0.0
0.0 7.761818091499395e-08 -1.6545393959844891e-09 1.4170477544857094e-09 2.374916414986896e-10 -1.5147987314084823e-08 0.0 0.0
0.0 0.0034766713666739705 0.002169761238995001 -0.002553921386704078 0.0003841601477090771 0.003087201681892247 0.0 0.0
0.0 0.002308682090615336 0.0013799488488732059 -0.0016699625136554824 0.00029001366478227517 -0.0020745443218572073 0.0 0.0
0.0 6.808126749334917e-07 -1.0371231226033877e-08 1.1382208934150606e-08 -1.010977708115995e-09 1.3495275768488005e-07 0.0 0.0
0.0 3.7869285625906513e-07 -1.0853022555903305e-08 7.76318668522007e-09 3.0898358706842675e-09 7.416418593090768e-08 0.0 0.0
0.0 1.4543148081777004e-06 -1.696918561331458e-08 1.3826688067998263e-08 3.1424975453263575e-09 8.181053104092697e-08 0.0 0.0
0.0 5.848804890314776e-05 2.949395810648013e-05 -2.3555709850541358e-05 -5.93824825593879e-06 -7.578335184666758e-05 0.0 0.0
0.0 0.0005670487219261622 0.00035348916607166365 -0.00028933032291755237 -6.415884315411138e-05 -0.0006442095750209076 0.0 0.0
0.0 0.0023347496011004443 0.0017014858482558392 -0.0014533800044054786 -0.00024810584385036137 -0.002274855341887035 0.0 0.0
0.0 0.0059418088017746725 0.004560241981052025 -0.004091769112337574 -0.000468472868714448 -0.004899404900240864 0.0 0.0
0.0 0.011348646526451189 0.008932308669431569 -0.008308920653401107 -0.0006233880160304594 -0.008372924516900854 0.0 0.0
0.0 0.01815414660812065 0.014539640775559491 -0.013816013763101431 -0.0007236270124580567 -0.012381975199509447 0.0 0.0
0.0 0.026050117592378498 0.021079455933666336 -0.02027978805214086 -0.0007996678815254773 -0.016510984248318837 0.0 0.0
0.0 0.03484845224519676 0.028397264262927265 -0.027529080765116475 -0.0008681834978107813 -0.020540020009157497 0.0 0.0
0.0 0.04450485325599768 0.03644901998990706 -0.03551741995137089 -0.0009316000385361598 -0.024494231051995927 0.0 0.0
0.0 0.05493428536616924 0.04523221586578328 -0.044239838890269716 -0.000992376975513544 -0.028359480279056475 0.0 0.0
0.0 0.06613849135093347 0.054707738467361405 -0.05365519603811968 -0.001052542429241719 -0.03193920683151767 0.0 0.0
0.0 0.07789859736436325 0.06475771963464222 -0.06364584749872311 -0.001111872135919135 -0.03490176965491613 0.0 0.0
0.0 0.08993172440244568 0.07521999623303346 -0.07405458218443446 -0.0011654140485989767 -0.036890237329798854 0.0 0.0
0.0 0.10205489728880623 0.0859306564505935 -0.08470830456011968 -0.00122235189047384 -0.0371156392490206 0.0 0.0
0.0 0.1136097063314721 0.09643305038499533 -0.09513749853150726 -0.0012955518534879893 -0.03342518429761421 0.0 0.0
0.0 0.12325371004762231 0.10564549967306029 -0.10426376815125733 -0.0013817315218029081 -0.02292805973812801 0.0 0.0
0.0 0.12325371004762448 0.10564549967305834 -0.10426376815125653 -0.0013817315218017428 0.02292805973819212 0.0 0.0
0.0 0.11360970633145673 0.09643305038497411 -0.095137498531487 -0.0012955518534872043 0.03342518429770197 0.0 0.0
0.0 0.10205489728877751 0.08593065645056121 -0.0847083045600884 -0.0012223518904727055 0.03711563924908455 0.0 0.0
0.0 0.08993172440240906 0.07521999623299683 -0.07405458218439953 -0.0011654140485973029 0.036890237329827456 0.0 0.0
0.0 0.07789859736431438 0.0647577196345993 -0.06364584749868221 -0.0011118721359170923 0.0349017696549061 0.0 0.0
0.0 0.0661384913508783 0.05470773846731379 -0.05365519603807301 -0.0010525424292407587 0.03193920683150277 0.0 0.0
0.0 0.05493428536611471 0.045232215865736204 -0.04423983889022331 -0.0009923769755128989 0.02835948027904272 0.0 0.0
0.0 0.04450485325594711 0.036449019989863454 -0.03551741995132782 -0.0009316000385356291 0.024494231051982333 0.0 0.0
0.0 0.03484845224514881 0.0283972642628872 -0.027529080765076985 -0.0008681834978102327 0.020540020009135115 0.0 0.0
0.0 0.02605011759233385 0.021079455933629903 -0.020279788052105258 -0.0007996678815246274 0.016510984248292133 0.0 0.0
0.0 0.018154146608079243 0.014539640775527501 -0.013816013763069866 -0.0007236270124576322 0.012381975199476938 0.0 0.0
0.0 0.01134864652641792 0.008932308669405312 -0.00830892065337525 -0.0006233880160300653 0.008372924516879683 0.0 0.0
0.0 0.005941808801752969 0.0045602419810355475 -0.004091769112321798 -0.00046847286871374894 0.004899404900224788 0.0 0.0
0.0 0.002334749601090487 0.0017014858482485879 -0.0014533800043990133 -0.00024810584384957353 0.0022748553418791163 0.0 0.0
0.0 0.0005670487219212604 0.00035348916606895185 -0.00028933032291533534 -6.415884315361635e-05 0.0006442095750163369 0.0 0.0
0.0 5.848804890170925e-05 2.949395810634745e-05 -2.355570985042627e-05 -5.938248255921184e-06 7.578335184631275e-05 0.0 0.0
0.0 1.4543148079485463e-06 -1.6969185511432294e-08 1.3826687990989962e-08 3.142497520444229e-09 -8.181053069222633e-08 0.0 0.0
0.0 3.786928558295237e-07 -1.0853022544114866e-08 7.763186676628835e-09 3.0898358674860974e-09 -7.416418584570931e-08 0.0 0.0
0.0 6.808126741997652e-07 -1.0371231215047161e-08 1.1382208922371451e-08 -1.0109777073237724e-09 -1.34952757536912e-07 0.0 0.0
0.0 0.0023086820906060763 0.0013799488488677963 -0.0016699625136493634 0.0002900136647815668 0.0020745443218491825 0.0 0.0
0.0 0.0013892906581253505 0.0007823981688770746 -0.0009763550470284714 0.0001939568781513962 -0.001259493971779569 0.0 0.0
0.0 2.1390577422849413e-06 1.0164134395521892e-07 -1.0278447174735638e-07 1.1431277921361479e-09 -2.25892512915577e-06 0.0 0.0
0.0 8.061931788694114e-07 1.7699077246449427e-08 -1.1390652682660064e-08 -6.308424563788839e-09 -1.723903119304905e-07 0.0 0.0
0.0 2.976134632810122e-06 5.185939809394381e-07 -3.986494248991569e-07 -1.199445560402791e-07 -3.3352848060658613e-06 0.0 0.0
0.0 4.609933982626211e-05 1.643394225005215e-05 -1.3041134070615804e-05 -3.3928081794363622e-06 -6.625501828952114e-05 0.0 0.0
0.0 0.00030572357110062847 0.00014158755539609021 -0.00011475781795842179 -2.6829737437668422e-05 -0.00041660076425335823 0.0 0.0
0.0 0.0013260667692347673 0.0007970913825091912 -0.0006647581668036606 -0.0001323332157055305 -0.001651407359307459 0.0 0.0
0.0 0.003701101277305726 0.00255201595137999 -0.0022221819541250088 -0.000329833997254981 -0.00392522178236362 0.0 0.0
0.0 0.007595460676264944 0.00553947996275044 -0.005027369559556575 -0.0005121104031938607 -0.006960098712000184 0.0 0.0
0.0 0.01252198907590314 0.009516212577237265 -0.008884030116132379 -0.0006321824611048861 -0.010479260097299742 0.0 0.0
0.0 0.018405548346310956 0.01418257875188004 -0.013471277424290624 -0.000711301327589416 -0.014177873804922435 0.0 0.0
0.0 0.024786832696016656 0.019392761752675996 -0.018618493812492143 -0.0007742679401838538 -0.017836700865574612 0.0 0.0
0.0 0.03178149697255874 0.025115196713795522 -0.02428628161590453 -0.0008289150978909958 -0.021435946811801283 0.0 0.0
0.0 0.03941562634969993 0.03138735717547924 -0.030508908769426097 -0.0008784484060531439 -0.024960801876075776 0.0 0.0
0.0 0.04772434061574818 0.03824721986099885 -0.03732063888434459 -0.000926580976654243 -0.028286624808822915 0.0 0.0
0.0 0.056506083327550076 0.04567242695734245 -0.04469643024665102 -0.00097599671069141 -0.031081233269730016 0.0 0.0
0.0 0.06576103984146872 0.05359997284725107 -0.05258058258771006 -0.0010193902595409792 -0.032985602109348394 0.0 0.0
0.0 0.07540384455643716 0.0621396904321359 -0.06109021952519456 -0.0010494709069413044 -0.033782477640983403 0.0 0.0
0.0 0.0855117634186815 0.07146026197009961 -0.07036070479757525 -0.001099557172524352 -0.031857932323544086 0.0 0.0
0.0 0.09527207948752131 0.08094998654556233 -0.07975456122131729 -0.0011954253242451257 -0.0235705553535614 0.0 0.0
0.0 0.09527207948751706 0.08094998654555535 -0.07975456122130922 -0.0011954253242461418 0.023570555353616754 0.0 0.0
0.0 0.08551176341867314 0.0714602619700841 -0.07036070479755936 -0.0010995571725247143 0.03185793232362409 0.0 0.0
0.0 0.07540384455641862 0.062139690432111455 -0.06109021952517111 -0.0010494709069403037 0.03378247764104421 0.0 0.0
0.0 0.06576103984143647 0.0535999728472193 -0.05258058258767947 -0.001019390259539833 0.03298560210936661 0.0 0.0
0.0 0.05650608332750719 0.04567242695730667 -0.04469643024661568 -0.000975996710690967 0.031081233269714223 0.0 0.0
0.0 0.04772434061570521 0.03824721986096326 -0.037320638884309476 -0.0009265809766538097 0.02828662480880477 0.0 0.0
0.0 0.03941562634966237 0.03138735717544761 -0.030508908769395125 -0.0008784484060524845 0.02496080187606257 0.0 0.0
0.0 0.03178149697252569 0.02511519671376719 -0.02428628161587644 -0.0008289150978907499 0.021435946811791846 0.0 0.0
0.0 0.02478683269597905 0.019392761752645832 -0.018618493812462385 -0.0007742679401834496 0.01783670086555246 0.0 0.0
0.0 0.018405548346275356 0.01418257875185229 -0.01347127742426328 -0.0007113013275890015 0.014177873804897245 0.0 0.0
0.0 0.01252198907587196 0.00951621257721449 -0.008884030116110306 -0.0006321824611041787 0.010479260097272212 0.0 0.0
0.0 0.007595460676244616 0.00553947996273558 -0.005027369559542222 -0.0005121104031933591 0.006960098711983312 0.0 0.0
0.0 0.0037011012772929426 0.0025520159513705374 -0.0022221819541164943 -0.00032983399725404326 0.003925221782352701 0.0 0.0
0.0 0.001326066769226461 0.0007970913825040989 -0.0006647581667992981 -0.00013233321570480045 0.0016514073592988605 0.0 0.0
0.0 0.0003057235710976279 0.00014158755539509858 -0.00011475781795758404 -2.6829737437514506e-05 0.00041660076425039603 0.0 0.0
0.0 4.609933982486834e-05 1.643394225005383e-05 -1.3041134070611925e-05 -3.392808179441893e-06 6.625501828950918e-05 0.0 0.0
0.0 2.976134632692937e-06 5.185939810635992e-07 -3.986494249931299e-07 -1.1994455607047228e-07 3.3352848068614196e-06 0.0 0.0
0.0 8.061931786021236e-07 1.769907729995405e-08 -1.1390652718272214e-08 -6.308424581680877e-09 1.7239031260689703e-07 0.0 0.0
0.0 2.139057741670838e-06 1.0164134398946108e-07 -1.0278447178812481e-07 1.1431277986636679e-09 2.2589251300194894e-06 0.0 0.0
0.0 0.0013892906581179372 0.0007823981688732375 -0.0009763550470240016 0.00019395687815076427 0.0012594939717733465 0.0 0.0
0.0 0.0006713278239210394 0.0003704442069601611 -0.00048009871851070643 0.00010965451155054576 -0.000648193586046229 0.0 0.0
0.0 4.349452515660149e-06 8.733486098869206e-08 -1.1900284528620836e-07 3.1667984297516476e-08 -3.49978174797991e-06 0.0 0.0
0.0 3.4519074013036943e-06 5.178127108733735e-08 -2.155022572678489e-08 -3.023104536055267e-08 -3.360530748957518e-06 0.0 0.0
0.0 6.878908982013268e-06 6.388040327504099e-07 -4.5171944336157297e-07 -1.870845893888339e-07 -9.134700145247406e-06 0.0 0.0
0.0 4.898003102061701e-05 9.799699721981839e-06 -7.675822838758723e-06 -2.123876883223121e-06 -7.488020868830081e-05 0.0 0.0
0.0 0.0002091782960017807 5.679359342058646e-05 -4.582011208052709e-05 -1.0973481340059399e-05 -0.00031112112303084786 0.0 0.0
0.0 0.0006967424871691447 0.0002668086124340188 -0.0002180743027265361 -4.873430970748258e-05 -0.001035303691705597 0.0 0.0
0.0 0.0018987207632844942 0.0009856068261617221 -0.0008269438848128162 -0.00015866294134890573 -0.0026279547620061947 0.0 0.0
0.0 0.004166537459931008 0.002539352290545274 -0.002211410688877633 -0.00032794160166764073 -0.004967900597342846 0.0 0.0
0.0 0.007262375500027217 0.004824955951363134 -0.004350237087554467 -0.00047471886380866745 -0.007705064369786549 0.0 0.0
0.0 0.010907675042644291 0.007587519734024443 -0.007013172900776904 -0.000574346833247536 -0.0106451956309916 0.0 0.0
0.0 0.015024988409874932 0.01067170444463731 -0.010030818384043415 -0.0006408860605938828 -0.01364031471371758 0.0 0.0
0.0 0.0194696116103112 0.01406621854446198 -0.013374168285146442 -0.0006920502593155428 -0.016659570355041255 0.0 0.0
0.0 0.024335122262289222 0.01782410425935538 -0.017091108732944792 -0.0007329955264105797 -0.01964013319101341 0.0 0.0
0.0 0.029680868883568932 0.022035371949650027 -0.02126682098088939 -0.0007685509687606379 -0.022516716445682795 0.0 0.0
0.0 0.03553835220572843 0.02679690618216323 -0.025992148926094548 -0.0008047572560686809 -0.02507741099100185 0.0 0.0
0.0 0.041913141441245756 0.03216537158497315 -0.03132041344547847 -0.0008449581394947003 -0.026870275092462727 0.0 0.0
0.0 0.048969691303783605 0.03831712284803041 -0.03745130406079038 -0.0008658187872400496 -0.027777891848320132 0.0 0.0
0.0 0.05742814932490811 0.04592837605394066 -0.045064010385249445 -0.0008643656686912024 -0.027703325354141054 0.0 0.0
0.0 0.06719098961367548 0.05547791354112321 -0.05451638210130376 -0.0009615314398194624 -0.023339768042029932 0.0 0.0
0.0 0.06719098961367927 0.05547791354112137 -0.05451638210130244 -0.0009615314398189506 0.023339768042079524 0.0 0.0
0.0 0.05742814932490681 0.04592837605393023 -0.045064010385239286 -0.0008643656686908968 0.027703325354213725 0.0 0.0
0.0 0.048969691303771795 0.03831712284801227 -0.037451304060772114 -0.000865818787240143 0.027777891848370886 0.0 0.0
0.0 0.04191314144122374 0.03216537158495204 -0.03132041344545659 -0.0008449581394954513 0.02687027509247352 0.0 0.0
0.0 0.03553835220570552 0.026796906182146363 -0.02599214892607782 -0.0008047572560685356 0.025077410990985885 0.0 0.0
0.0 0.029680868883545 0.02203537194963178 -0.0212668209808712 -0.0007685509687605737 0.022516716445669008 0.0 0.0
0.0 0.024335122262266834 0.017824104259337555 -0.017091108732926998 -0.0007329955264105559 0.019640133191004272 0.0 0.0
0.0 0.01946961161029455 0.014066218544448058 -0.013374168285132956 -0.0006920502593151095 0.016659570355036162 0.0 0.0
0.0 0.01502498840985203 0.010671704444620381 -0.010030818384027033 -0.0006408860605933455 0.013640314713701238 0.0 0.0
0.0 0.010907675042620675 0.007587519734008581 -0.007013172900761249 -0.0005743468332473323 0.010645195630968997 0.0 0.0
0.0 0.007262375500007183 0.00482495595135049 -0.004350237087542232 -0.00047471886380825784 0.007705064369765358 0.0 0.0
0.0 0.004166537459916719 0.0025393522905357087 -0.002211410688868756 -0.0003279416016669529 0.004967900597328391 0.0 0.0
0.0 0.0018987207632755122 0.0009856068261563681 -0.0008269438848081667 -0.00015866294134820165 0.0026279547619959217 0.0 0.0
0.0 0.0006967424871649011 0.0002668086124323855 -0.00021807430272518423 -4.873430970720136e-05 0.0010353036917003437 0.0 0.0
0.0 0.0002091782960001264 5.679359342049692e-05 -4.582011208045251e-05 -1.0973481340044394e-05 0.0003111211230300522 0.0 0.0
0.0 4.898003101968329e-05 9.799699722001536e-06 -7.675822838770765e-06 -2.12387688323077e-06 7.488020868840883e-05 0.0 0.0
0.0 6.878908981639113e-06 6.388040327688764e-07 -4.517194433733489e-07 -1.8708458939552476e-07 9.134700145555025e-06 0.0 0.0
0.0 3.451907400501731e-06 5.178127109809088e-08 -2.155022573114679e-08 -3.023104536694339e-08 3.3605307497233186e-06 0.0 0.0
0.0 4.3494525154221776e-06 8.733486101420896e-08 -1.1900284532679899e-07 3.166798431258963e-08 3.499781748933841e-06 0.0 0.0
0.0 0.0006713278239167108 0.0003704442069582407 -0.0004800987185083276 0.00010965451155008652 0.0006481935860430655 0.0 0.0
0.0 0.00023070830600700542 0.00012179972546039494 -0.00016520915952877947 4.340943406838458e-05 -0.00022903023259685418 0.0 0.0
0.0 5.45141206817069e-06 -9.46601371311914e-09 -4.6883156683959385e-08 5.634917039707972e-08 -4.89825989221243e-06 0.0 0.0
0.0 7.583570121944515e-06 -3.2422168465818684e-07 3.121983508338426e-07 1.202333382434494e-08 -9.950367114018116e-06 0.0 0.0
0.0 1.3057548050177117e-05 -1.9817794758278893e-07 2.9274766332259273e-07 -9.456971573980295e-08 -2.0418673553234512e-05 0.0 0.0
0.0 5.61518746480416e-05 2.3135364366645244e-06 -1.6014327998745646e-06 -7.121036367899656e-07 -8.497975706177776e-05 0.0 0.0
0.0 0.00019120189784793362 1.6197374731554514e-05 -1.2893996541553052e-05 -3.303378190001439e-06 -0.0003028643021679456 0.0 0.0
0.0 0.000455100313375587 5.673325450439368e-05 -4.6021650220466796e-05 -1.0711604283926896e-05 -0.0007466171566353935 0.0 0.0
0.0 0.0009245808875118855 0.00015699970624857224 -0.00012810210227724014 -2.8897603971331943e-05 -0.0014731429348920147 0.0 0.0
0.0 0.0016967300221707945 0.0004159505413451457 -0.0003398726138945745 -7.607792745057086e-05 -0.002723645805584943 0.0 0.0
0.0 0.0029754089602693863 0.0009295697538560221 -0.0007647427066864427 -0.00016482704716957918 -0.004484515368361086 0.0 0.0
0.0 0.004539629886849554 0.0016902502855286733 -0.0014222678784921977 -0.0002679824070364745 -0.006639230439220119 0.0 0.0
0.0 0.0064773014097600536 0.0026183326651050363 -0.0022653722612188563 -0.00035296040388617877 -0.008990463644593051 0.0 0.0
0.0 0.00864232410887756 0.0036815648644486316 -0.0032631041389072205 -0.0004184607255414106 -0.011481654977868381 0.0 0.0
0.0 0.011077637056871285 0.004916214502071723 -0.004449931862318525 -0.00046628263975319854 -0.014091511581764346 0.0 0.0
0.0 0.01380110115627376 0.006441640970394849 -0.0059410671531016914 -0.0005005738172931519 -0.01677535572671857 0.0 0.0
0.0 0.01694987868329872 0.008463327040121357 -0.007934830369475216 -0.0005284966706461417 -0.01935060525023732 0.0 0.0
0.0 0.020549469106617577 0.011245072792482429 -0.010683254548420855 -0.0005618182440615658 -0.021343754111905703 0.0 0.0
0.0 0.024691967571156576 0.015002963490420993 -0.014395926604457198 -0.0006070368859637878 -0.02210385566520595 0.0 0.0
0.0 0.030404873277644937 0.020295275151301438 -0.019703791935904106 -0.0005914832153973331 -0.02224186935327261 0.0 0.0
0.0 0.03925890762140431 0.0289068068128741 -0.02831845505149553 -0.000588351761378564 -0.02205091373804945 0.0 0.0
0.0 0.039258907621410315 0.028906806812874324 -0.028318455051495765 -0.0005883517613785534 0.0220509137380891 0.0 0.0
0.0 0.03040487327764643 0.020295275151294926 -0.019703791935897424 -0.0005914832153975089 0.022241869353325467 0.0 0.0
0.0 0.02469196757115684 0.01500296349041613 -0.01439592660445262 -0.0006070368859635033 0.02210385566523517 0.0 0.0
0.0 0.02054946910661034 0.011245072792476968 -0.010683254548416331 -0.0005618182440606319 0.021343754111907393 0.0 0.0
0.0 0.016949878683284146 0.00846332704011531 -0.007934830369469634 -0.0005284966706456749 0.019350605250219182 0.0 0.0
0.0 0.013801101156260428 0.006441640970388936 -0.00594106715309589 -0.0005005738172930462 0.016775355726703883 0.0 0.0
0.0 0.011077637056858701 0.004916214502066094 -0.004449931862312654 -0.00046628263975344113 0.014091511581751794 0.0 0.0
0.0 0.00864232410886669 0.0036815648644442332 -0.003263104138902669 -0.0004184607255415623 0.011481654977857433 0.0 0.0
0.0 0.0064773014097528284 0.0026183326651048606 -0.002265372261218852 -0.0003529604038860079 0.00899046364457962 0.0 0.0
0.0 0.004539629886838256 0.0016902502855246056 -0.0014222678784887423 -0.0002679824070358638 0.006639230439205349 0.0 0.0
0.0 0.002975408960259704 0.0009295697538535944 -0.0007647427066845229 -0.00016482704716907153 0.0044845153683471094 0.0 0.0
0.0 0.001696730022167176 0.0004159505413442301 -0.00033987261389388724 -7.607792745034264e-05 0.0027236458055790625 0.0 0.0
0.0 0.0009245808875084549 0.00015699970624786507 -0.00012810210227670187 -2.8897603971163007e-05 0.0014731429348863634 0.0 0.0
0.0 0.000455100313373201 5.673325450419959e-05 -4.602165022028555e-05 -1.0711604283913999e-05 0.0007466171566329205 0.0 0.0
0.0 0.0001912018978461786 1.6197374731505806e-05 -1.2893996541503841e-05 -3.303378190001966e-06 0.0003028643021667054 0.0 0.0
0.0 5.6151874646701174e-05 2.313536436663217e-06 -1.6014327998745972e-06 -7.121036367886234e-07 8.497975706150637e-05 0.0 0.0
0.0 1.3057548049502336e-05 -1.9817794759643564e-07 2.927476633384262e-07 -9.456971574199054e-08 2.0418673553957075e-05 0.0 0.0
0.0 7.583570121234424e-06 -3.2422168468841427e-07 3.121983508603251e-07 1.2023333828088584e-08 9.950367114733484e-06 0.0 0.0
0.0 5.451412067922396e-06 -9.466013714780685e-09 -4.68831567020188e-08 5.634917041680201e-08 4.898259893093857e-06 0.0 0.0
0.0 0.00023070830600448042 0.00012179972545948918 -0.00016520915952760002 4.340943406811085e-05 0.00022903023259522224 0.0 0.0
0.0 3.673327418266899e-05 1.791810969471557e-05 -2.552790957451504e-05 7.609799879799455e-06 -3.673868652876646e-05 0.0 0.0
0.0 5.118947335651189e-06 -1.5495498558870854e-07 5.025676408548958e-08 1.046982215032238e-07 -5.155816873616984e-06 0.0 0.0
0.0 1.081243648004117e-05 -1.2182613299479286e-06 1.0440809921766932e-06 1.74180337771236e-07 -1.5316419241335387e-05 0.0 0.0
0.0 2.022461492568789e-05 -2.5304827677118588e-06 2.2401211038679423e-06 2.9036166384391837e-07 -3.108412114380581e-05 0.0 0.0
0.0 6.5461368552379e-05 -6.796464980903029e-06 5.861543362042861e-06 9.349216188601763e-07 -9.806689973035102e-05 0.0 0.0
0.0 0.00020248562582328344 -2.1116530631054595e-05 1.7420750272331295e-05 3.6957803587232894e-06 -0.0003131777479185578 0.0 0.0
0.0 0.000463206599297033 -6.0672685406973525e-05 4.941232720277491e-05 1.12603582041986e-05 -0.0007599816308715355 0.0 0.0
0.0 0.0009304329818943763 -0.00015946052936450982 0.0001300852109063774 2.9375318458132537e-05 -0.001483543455502696 0.0 0.0
0.0 0.001698300219321799 -0.00041697083769815684 0.000340803517645182 7.616732005297466e-05 -0.0027281529081156727 0.0 0.0
0.0 0.002975774318240109 -0.0009298721640802229 0.0007652275582227254 0.00016464460585749748 -0.004485638294536385 0.0 0.0
0.0 0.004561013213303883 -0.0017010708475683892 0.0014340303971722653 0.0002670404503961242 -0.006647849393570397 0.0 0.0
0.0 0.006519191735182201 -0.0026679213082538423 0.002314913301253332 0.00035300800700050736 -0.0090113502648945 0.0 0.0
0.0 0.008712211145922834 -0.0037718562316921755 0.0033495334362905675 0.00042232279540160465 -0.011495886974570936 0.0 0.0
0.0 0.011078202143389324 -0.004936659681512403 0.004456580117538644 0.00048007956397375546 -0.014074484025608465 0.0 0.0
0.0 0.013418668193247694 -0.005994001264768028 0.00546402985096703 0.0005299714138009962 -0.016728848657173348 0.0 0.0
0.0 0.015539250740907402 -0.006645681498115637 0.006071737547424079 0.0005739439506915502 -0.01940542340516357 0.0 0.0
0.0 0.0170790418929205 -0.006483195695380441 0.00587078411308895 0.0006124115822914917 -0.02209158651357486 0.0 0.0
0.0 0.017938597836789354 -0.005236649231638435 0.004603427403571777 0.0006332218280666518 -0.02489721238528553 0.0 0.0
0.0 0.018127252604697986 -0.0028709127659282034 0.0022589546230123445 0.0006119581429158561 -0.027413734627987834 0.0 0.0
0.0 0.018189131048254092 0.003991036489350535 -0.004048265077637012 5.7228588286474834e-05 -0.02691162945247068 0.0 0.0
0.0 0.018189131048259345 0.003991036489350267 -0.0040482650776368255 5.722858828656268e-05 0.026911629452486988 0.0 0.0
0.0 0.0181272526047042 -0.0028709127659296823 0.0022589546230139053 0.0006119581429157755 0.027413734628003596 0.0 0.0
0.0 0.017938597836785274 -0.005236649231637752 0.004603427403572372 0.0006332218280653742 0.024897212385284608 0.0 0.0
0.0 0.01707904189290656 -0.006483195695373419 0.00587078411308248 0.0006124115822909369 0.022091586513564763 0.0 0.0
0.0 0.015539250740890052 -0.0066456814981064975 0.006071737547415145 0.0005739439506913439 0.019405423405142366 0.0 0.0
0.0 0.013418668193231346 -0.0059940012647590486 0.005464029850958179 0.0005299714138008642 0.016728848657156424 0.0 0.0
0.0 0.011078202143372327 -0.004936659681501945 0.004456580117528565 0.0004800795639733795 0.014074484025594629 0.0 0.0
0.0 0.008712211145908295 -0.003771856231683416 0.003349533436282184 0.0004223227954012286 0.011495886974557768 0.0 0.0
0.0 0.006519191735165246 -0.002667921308244325 0.0023149133012444313 0.0003530080069998923 0.009011350264878232 0.0 0.0
0.0 0.004561013213285807 -0.001701070847558266 0.0014340303971631357 0.00026704045039513044 0.006647849393551187 0.0 0.0
0.0 0.0029757743182263537 -0.0009298721640751426 0.0007652275582183718 0.00016464460585676992 0.004485638294519846 0.0 0.0
0.0 0.0016983002193180353 -0.0004169708376963494 0.00034080351764370956 7.616732005263984e-05 0.0027281529081109343 0.0 0.0
0.0 0.0009304329818919558 -0.0001594605293638673 0.0001300852109058518 2.9375318458015545e-05 0.0014835434554993053 0.0 0.0
0.0 0.0004632065992946175 -6.0672685406678575e-05 4.9412327202599387e-05 1.1260358204079175e-05 0.00075998163086887 0.0 0.0
0.0 0.00020248562582119662 -2.1116530630955217e-05 1.7420750272253815e-05 3.6957803587014233e-06 0.00031317774791689567 0.0 0.0
0.0 6.546136855091247e-05 -6.796464980884509e-06 5.86154336203008e-06 9.349216188544161e-07 9.806689973014905e-05 0.0 0.0
0.0 2.022461492512976e-05 -2.5304827677253342e-06 2.240121103878326e-06 2.9036166384700686e-07 3.108412114391028e-05 0.0 0.0
0.0 1.0812436479477916e-05 -1.2182613300194402e-06 1.044080992236481e-06 1.7418033778295966e-07 1.5316419242124954e-05 0.0 0.0
0.0 5.1189473355479444e-06 -1.549549856102409e-07 5.025676405779312e-08 1.0469822155245255e-07 5.155816874960949e-06 0.0 0.0
0.0 3.673327418181618e-05 1.7918109694729788e-05 -2.5527909574522083e-05 7.60979987979229e-06 3.673868652899607e-05 0.0 0.0
0.0 1.700352488182536e-06 -7.057883824573382e-08 1.0249651994761899e-07 -3.1917681701866676e-08 2.0593380896295538e-07 0.0 0.0
0.0 3.5660592467688614e-06 -2.425636808078396e-07 1.2858966442428856e-07 1.1397401638354948e-07 -4.634000961848999e-06 0.0 0.0
0.0 1.2191860092616917e-05 -2.124034637701325e-06 1.7690544635860716e-06 3.5498017411525034e-07 -1.6955244025104058e-05 0.0 0.0
0.0 2.6254703463192885e-05 -5.207460054564696e-06 4.4329426740267924e-06 7.74517380537916e-07 -3.4613540073789254e-05 0.0 0.0
0.0 7.460331959158535e-05 -1.852950546061514e-05 1.54470841966784e-05 3.082421263936743e-06 -0.00011118382544125874 0.0 0.0
0.0 0.00023702032193801168 -6.947432219435009e-05 5.665492480949502e-05 1.2819397384855098e-05 -0.0003543428235083674 0.0 0.0
0.0 0.000726664922905699 -0.00027971326147315656 0.00022901665490073582 5.069660657242074e-05 -0.0010699314076296354 0.0 0.0
0.0 0.0019126739149498508 -0.0009926071812034383 0.0008331362997315434 0.00015947088147189424 -0.002646568440555529 0.0 0.0
0.0 0.0041668024222388305 -0.0025393665710133333 0.0022116457504167317 0.0003277208205966005 -0.0049723320217059976 0.0 0.0
0.0 0.007264419330164226 -0.0048268516190159046 0.004352730498215404 0.0004741211208005002 -0.0077075921646531705 0.0 0.0
0.0 0.01092649798788158 -0.007605445198785753 0.007032426686614966 0.0005730185121707859 -0.010650310290585737 0.0 0.0
0.0 0.015073304281872098 -0.010725433999698053 0.010085747373999181 0.0006396866256988695 -0.013630218555872186 0.0 0.0
0.0 0.019533756721522976 -0.014150525350940253 0.013455831586269808 0.0006946937646704419 -0.01660177169456496 0.0 0.0
0.0 0.02429143457222881 -0.017811529654994437 0.017065318164936776 0.0007462114900576548 -0.019542497806754804 0.0 0.0
0.0 0.029143186490138296 -0.021505478086822533 0.020707866477983436 0.0007976116088390917 -0.02250910175850236 0.0 0.0
0.0 0.03369631342003497 -0.024854458825839667 0.02400794564215136 0.0008465131836883045 -0.02555148578715538 0.0 0.0
0.0 0.03748207203523759 -0.027342900650834442 0.026457804881588432 0.0008850957692460107 -0.028768835426089302 0.0 0.0
0.0 0.03982574401761977 -0.028390881246419787 0.027480514199653774 0.0009103670467660374 -0.032049580176285786 0.0 0.0
0.0 0.03898295754719689 -0.026826486750056965 0.02582489487176317 0.0010015918782937722 -0.03359328607525302 0.0 0.0
0.0 0.03190051140928338 -0.019253313949769688 0.01812251984243457 0.001130794107335102 -0.031405252106789745 0.0 0.0
0.0 0.031900511409294015 -0.019253313949769205 0.01812251984243406 0.0011307941073351437 0.03140525210683122 0.0 0.0
0.0 0.03898295754720592 -0.02682648675005274 0.025824894871758885 0.0010015918782938353 0.03359328607530934 0.0 0.0
0.0 0.03982574401760922 -0.028390881246403515 0.027480514199637096 0.0009103670467664075 0.03204958017631812 0.0 0.0
0.0 0.03748207203521375 -0.027342900650813004 0.02645780488156704 0.0008850957692459762 0.02876883542608897 0.0 0.0
0.0 0.03369631342000787 -0.024854458825818184 0.024007945642130428 0.0008465131836877488 0.02555148578713823 0.0 0.0
0.0 0.029143186490108566 -0.021505478086799177 0.02070786647796057 0.0007976116088386173 0.022509101758484543 0.0 0.0
0.0 0.024291434572194525 -0.01781152965496786 0.01706531816491019 0.000746211490057664 0.019542497806734352 0.0 0.0
0.0 0.01953375672149151 -0.01415052535091409 0.013455831586243984 0.000694693764670091 0.016601771694550852 0.0 0.0
0.0 0.015073304281838375 -0.01072543399967248 0.010085747373974142 0.0006396866256983367 0.013630218555847954 0.0 0.0
0.0 0.010926497987848964 -0.007605445198762479 0.00703242668659247 0.0005730185121700066 0.010650310290557673 0.0 0.0
0.0 0.0072644193301369345 -0.004826851618997344 0.0043527304981977235 0.00047412112079962143 0.00770759216462673 0.0 0.0
0.0 0.004166802422226101 -0.002539366571004378 0.002211645750408395 0.0003277208205959837 0.004972332021694026 0.0 0.0
0.0 0.0019126739149409812 -0.0009926071811975651 0.000833136299726623 0.00015947088147094213 0.0026465684405459 0.0 0.0
0.0 0.0007266649228993918 -0.00027971326147061004 0.00022901665489868337 5.069660657192668e-05 0.0010699314076217173 0.0 0.0
0.0 0.00023702032193545562 -6.947432219390927e-05 5.665492480913623e-05 1.281939738477309e-05 0.0003543428235062108 0.0 0.0
0.0 7.460331959080768e-05 -1.8529505460687383e-05 1.544708419673768e-05 3.0824212639496976e-06 0.00011118382544159371 0.0 0.0
0.0 2.6254703462497675e-05 -5.2074600546325225e-06 4.432942674084764e-06 7.745173805477596e-07 3.461354007422524e-05 0.0 0.0
0.0 1.219186009194913e-05 -2.124034637789355e-06 1.7690544636577743e-06 3.5498017413158007e-07 1.6955244025767952e-05 0.0 0.0
0.0 3.5660592464773236e-06 -2.425636808391081e-07 1.285896644265047e-07 1.1397401641260378e-07 4.634000962602188e-06 0.0 0.0
0.0 1.7003524878101506e-06 -7.057883806705761e-08 1.0249651968871584e-07 -3.1917681621658036e-08 -2.059338085060073e-07 0.0 0.0
0.0 0.0 0.0 0.0 0.0 0.0 0.0 0.0
0.0 1.87756858858645e-06 -2.256322551424145e-08 2.194432662526943e-08 6.188988889693625e-10 -2.547617311753741e-07 0.0 0.0
0.0 1.0925640104431682e-05 -2.110957949622896e-06 1.7374915994748888e-06 3.7346635014800235e-07 -1.2243747539534613e-05 0.0 0.0
0.0 2.943883255897125e-05 -7.73012299963815e-06 6.433208017973669e-06 1.2969149816644891e-06 -3.399953423579728e-05 0.0 0.0
0.0 8.994576894025304e-05 -3.3886022731026466e-05 2.7827280465468283e-05 6.058742265558192e-06 -0.00012287158405954987 0.0 0.0
0.0 0.00036418343140903856 -0.00017299318770679252 0.00014126909429943078 3.172409340736167e-05 -0.0004927414257702049 0.0 0.0
0.0 0.0013645072915707977 -0.0008164345292745963 0.0006820719652458223 0.00013436256402877422 -0.0016928793905752232 0.0 0.0
0.0 0.0037078343044332374 -0.0025535177776114817 0.00222405664976099 0.00032946112785049253 -0.003938821083691622 0.0 0.0
0.0 0.00759216327082892 -0.005537439089315437 0.0050256533100437074 0.000511785779271729 -0.006960060206376661 0.0 0.0
0.0 0.012526688004618309 -0.0095206571195494 0.00888898276755188 0.0006316743519975201 -0.010481927726919528 0.0 0.0
0.0 0.018422589466614646 -0.014200136880464863 0.01348995003224916 0.0007101868482157127 -0.014173858626771986 0.0 0.0
0.0 0.02481219913781437 -0.01943124286969429 0.018658167296625762 0.0007730755730685218 -0.017778363147570513 0.0 0.0
0.0 0.031787807098700084 -0.025163591516375573 0.02433279499112733 0.0008307965252482442 -0.02125794920247181 0.0 0.0
0.0 0.039296393829761994 -0.03133315410928377 0.030443662027080157 0.0008894920822036016 -0.024706967151991745 0.0 0.0
0.0 0.04717538856461437 -0.03772349979523823 0.03677193376219942 0.0009515660330387866 -0.028347172185909094 0.0 0.0
0.0 0.0548891889029253 -0.04389400358635966 0.042880752881484546 0.0010132507048750655 -0.03247177611209198 0.0 0.0
0.0 0.06182626143342708 -0.04917781503902951 0.04810693843255955 0.001070876606469922 -0.03721018691869475 0.0 0.0
0.0 0.06642622973527323 -0.052534962039543304 0.051391716225306264 0.0011432458142369953 -0.04170670071637214 0.0 0.0
0.0 0.06652485789642083 -0.05199502141666615 0.0507553186474506 0.0012397027692155438 -0.04388286543624825 0.0 0.0
0.0 0.05642939997509268 -0.043312202211816614 0.04182502712601523 0.001487175085801394 -0.03960492291230845 0.0 0.0
0.0 0.056429399975103545 -0.04331220221181573 0.04182502712601376 0.0014871750858019678 0.03960492291236363 0.0 0.0
0.0 0.0665248578964195 -0.05199502141665255 0.050755318647435994 0.0012397027692165345 0.043882865436317635 0.0 0.0
0.0 0.06642622973525346 -0.05253496203951726 0.05139171622527994 0.001143245814237279 0.04170670071641759 0.0 0.0
0.0 0.061826261433392364 -0.04917781503899678 0.04810693843252739 0.0010708766064694022 0.037210186918701385 0.0 0.0
0.0 0.054889188902873046 -0.04389400358631574 0.04288075288144076 0.0010132507048749933 0.032471776112072796 0.0 0.0
0.0 0.04717538856456369 -0.037723499795196645 0.036771933762158183 0.0009515660330384639 0.028347172185884527 0.0 0.0
0.0 0.0392963938297201 -0.03133315410924888 0.03044366202704596 0.0008894920822029217 0.024706967151972813 0.0 0.0
0.0 0.03178780709865377 -0.025163591516336382 0.024332794991088327 0.000830796525248044 0.02125794920245451 0.0 0.0
0.0 0.02481219913776763 -0.01943124286965628 0.018658167296588014 0.000773075573068255 0.017778363147544628 0.0 0.0
0.0 0.01842258946656969 -0.014200136880429872 0.013489950032214244 0.0007101868482156256 0.014173858626740126 0.0 0.0
0.0 0.012526688004579933 -0.009520657119520756 0.008888982767523356 0.0006316743519973984 0.01048192772688869 0.0 0.0
0.0 0.007592163270802031 -0.005537439089294532 0.005025653310023375 0.0005117857792711554 0.0069600602063573 0.0 0.0
0.0 0.0037078343044160845 -0.002553517777598988 0.0022240566497494034 0.0003294611278495858 0.00393882108367679 0.0 0.0
0.0 0.001364507291561757 -0.0008164345292692508 0.0006820719652413176 0.0001343625640279333 0.0016928793905660196 0.0 0.0
0.0 0.0003641834314058181 -0.00017299318770568636 0.00014126909429854772 3.1724093407138615e-05 0.0004927414257674383 0.0 0.0
0.0 8.994576893894025e-05 -3.3886022730981736e-05 2.7827280465429296e-05 6.058742265552393e-06 0.00012287158405928516 0.0 0.0
0.0 2.9438832558236238e-05 -7.7301229997645e-06 6.43320801807369e-06 1.2969149816907914e-06 3.399953423627905e-05 0.0 0.0
0.0 1.0925640103893933e-05 -2.110957949732307e-06 1.7374915995635907e-06 3.7346635016872284e-07 1.2243747540164074e-05 0.0 0.0
0.0 1.8775685882221014e-06 -2.2563225546276552e-08 2.1944326643493745e-08 6.188989027790966e-10 2.547617316151894e-07 0.0 0.0
0.0 0.0 0.0 0.0 0.0 0.0 0.0 0.0
0.0 0.0 0.0 0.0 0.0 0.0 0.0 0.0
0.0 4.063806097121623e-07 8.83875332606981e-09 -5.922659735395461e-09 -2.916093590674856e-09 8.037141172206253e-08 0.0 0.0
0.0 7.01184754844936e-06 -1.6777644197110245e-06 1.3694766714603035e-06 3.082877482507163e-07 -7.456399751891069e-06 0.0 0.0
0.0 2.8747408923230443e-05 -1.0725638027153838e-05 8.829990969960787e-06 1.8956470571930388e-06 -3.459528524144349e-05 0.0 0.0
0.0 0.00012310808759232925 -6.123977193046169e-05 4.9989978315668526e-05 1.124979361479319e-05 -0.00015087917281833509 0.0 0.0
0.0 0.0006342056758244773 -0.00040153142430915276 0.000330569574651572 7.096184965758085e-05 -0.0007342565441682252 0.0 0.0
0.0 0.002367712570417786 -0.001711921346248426 0.0014643775563965165 0.0002475437898519091 -0.0023082981049275396 0.0 0.0
0.0 0.0059379846412661195 -0.00455443792554604 0.0040866538274249315 0.0004677840981211072 -0.00490222122181693 0.0 0.0
0.0 0.011346044141251455 -0.008931166814976174 0.008307891248601037 0.0006232755663751379 -0.008370227697253605 0.0 0.0
0.0 0.018159937888222438 -0.014546977609982654 0.013823665136877808 0.0007233124731048434 -0.01238508289032484 0.0 0.0
0.0 0.026060077763481706 -0.021091584937159288 0.020292490637301666 0.0007990942998576096 -0.01649714037850431 0.0 0.0
0.0 0.034834992248381 -0.028405251817441298 0.02753777309024428 0.0008674787271969967 -0.020436582792145146 0.0 0.0
0.0 0.044429614266427685 -0.03643392844065119 0.03550161768013622 0.000932310760514964 -0.024202159802844948 0.0 0.0
0.0 0.05473498701326571 -0.04512181196762513 0.04412299162163015 0.0009988203459949906 -0.02794527668835563 0.0 0.0
0.0 0.06565690840352634 -0.054255967375269595 0.053186044509017635 0.0010699228662518973 -0.032020151635786705 0.0 0.0
0.0 0.07666039505498672 -0.06333113478456832 0.06218449273688954 0.001146642047678725 -0.0368953093152879 0.0 0.0
0.0 0.08660504638978753 -0.0714023256151685 0.07017064473795094 0.001231680877217517 -0.0426118117299835 0.0 0.0
0.0 0.09358275806007282 -0.07684540325016986 0.07551383139519516 0.00133157185497462 -0.04801428145281006 0.0 0.0
0.0 0.09397221434874364 -0.0768499513664348 0.07536937465553223 0.0014805767109025414 -0.05021614058282907 0.0 0.0
0.0 0.0816738334434181 -0.06630779036189617 0.06460374376061984 0.0017040466012763482 -0.04597074062217882 0.0 0.0
0.0 0.08167383344342359 -0.06630779036189122 0.06460374376061517 0.0017040466012760093 0.04597074062223841 0.0 0.0
0.0 0.09397221434873702 -0.07684995136641716 0.07536937465551541 0.0014805767109017545 0.0502161405829043 0.0 0.0
0.0 0.09358275806004188 -0.07684540325013367 0.07551383139515978 0.001331571854973871 0.04801428145286546 0.0 0.0
0.0 0.08660504638973633 -0.07140232561512044 0.07017064473790402 0.0012316808772164082 0.042611811729995966 0.0 0.0
0.0 0.07666039505492235 -0.0633311347845128 0.06218449273683462 0.0011466420476781663 0.03689530931527138 0.0 0.0
0.0 0.06565690840345902 -0.05425596737521293 0.053186044508960924 0.00106992286625196 0.03202015163576242 0.0 0.0
0.0 0.05473498701320209 -0.045121811967571535 0.04412299162157714 0.0009988203459944096 0.027945276688330654 0.0 0.0
0.0 0.04442961426635962 -0.03643392844059347 0.03550161768007891 0.000932310760514563 0.02420215980282136 0.0 0.0
0.0 0.034834992248318986 -0.02840525181738911 0.02753777309019266 0.0008674787271964223 0.020436582792117904 0.0 0.0
0.0 0.026060077763425355 -0.021091584937113397 0.020292490637256546 0.0007990942998568561 0.016497140378470422 0.0 0.0
0.0 0.018159937888172946 -0.014546977609943345 0.013823665136839141 0.0007233124731042028 0.012385082890290503 0.0 0.0
0.0 0.011346044141213232 -0.008931166814945869 0.008307891248571399 0.0006232755663744764 0.008370227697229438 0.0 0.0
0.0 0.005937984641242486 -0.004554437925527604 0.004086653827407521 0.00046778409812008075 0.004902221221800262 0.0 0.0
0.0 0.0023677125704048606 -0.0017119213462391495 0.0014643775563883074 0.00024754378985084193 0.0023082981049168576 0.0 0.0
0.0 0.0006342056758192166 -0.00040153142430639173 0.000330569574649222 7.09618496571699e-05 0.0007342565441636178 0.0 0.0
0.0 0.00012310808759047543 -6.123977192998323e-05 4.998997831527399e-05 1.124979361470921e-05 0.00015087917281722443 0.0 0.0
0.0 2.874740892228339e-05 -1.0725638027202238e-05 8.829990969994976e-06 1.8956470572072546e-06 3.459528524154421e-05 0.0 0.0
0.0 7.011847547996984e-06 -1.6777644198628225e-06 1.3694766715828886e-06 3.0828774827993274e-07 7.45639975257138e-06 0.0 0.0
0.0 4.063806093257621e-07 8.838753319458759e-09 -5.922659733024222e-09 -2.916093586432878e-09 -8.037141164573473e-08 0.0 0.0
0.0 0.0 0.0 0.0 0.0 0.0 0.0 0.0
0.0 0.0 0.0 0.0 0.0 0.0 0.0 0.0
0.0 0.0 0.0 0.0 0.0 0.0 0.0 0.0
0.0 3.219751670269573e-06 -8.994916931613903e-07 7.317735577127348e-07 1.6771813544865904e-07 -3.1449307919307488e-06 0.0 0.0
0.0 2.7471629064269905e-05 -1.0525174628585696e-05 8.576659531506285e-06 1.948515097079424e-06 -2.5387869795719295e-05 0.0 0.0
0.0 0.0001982212238332906 -0.0001156857113220154 9.418213741050785e-05 2.1503573911507555e-05 -0.00019996086088287785 0.0 0.0
0.0 0.0010891651060275028 -0.0008086797363027929 0.0006741605482616397 0.00013451918804115306 -0.0010054312207289232 0.0 0.0
0.0 0.0036870081030550787 -0.002903902519553565 0.002542399256682283 0.00036150326287128203 -0.0027391101035830756 0.0 0.0
0.0 0.008454937071834217 -0.0068448236854655176 0.0062786333111360245 0.0005661903743294913 -0.005481256634293715 0.0 0.0
0.0 0.015300680372674931 -0.012568864693332437 0.011872698739505864 0.0006961659538265696 -0.009160035554027909 0.0 0.0
0.0 0.023891639946016906 -0.019766405914368373 0.018977602275008103 0.0007888036393602711 -0.013327592104892205 0.0 0.0
0.0 0.033861755831504414 -0.028147837702298527 0.027278013405166612 0.0008698242971319054 -0.017533698515352476 0.0 0.0
0.0 0.044981005609454595 -0.037535811238208136 0.0365899644687478 0.0009458467694603397 -0.021566814585950767 0.0 0.0
0.0 0.057140835458098074 -0.04785362531973426 0.04683512677815255 0.001018498541581675 -0.025416296695821173 0.0 0.0
0.0 0.07031012657592377 -0.05905178765366548 0.05796010643524564 0.0010916812184198323 -0.02921063927324427 0.0 0.0
0.0 0.08436277705129476 -0.07093981554567731 0.06976751471792123 0.0011723008277560894 -0.033353880081110024 0.0 0.0
0.0 0.09844079886932623 -0.08292394451885249 0.08165764319470875 0.0012663013241437336 -0.03837936160995438 0.0 0.0
0.0 0.11152833732670295 -0.09371573671533412 0.0923384055795038 0.0013773311358302402 -0.044369701424386995 0.0 0.0
0.0 0.1205706472824723 -0.10104283724575752 0.09952904142750212 0.0015137958182553947 -0.05010843563788203 0.0 0.0
0.0 0.1211349787367065 -0.10125371836669078 0.09957154310865304 0.0016821752580376678 -0.0530073830559869 0.0 0.0
0.0 0.10714225687589674 -0.08893445059963327 0.08705833864675032 0.0018761119528829787 -0.05137955068673274 0.0 0.0
0.0 0.107142256875895 -0.08893445059962343 0.08705833864673976 0.001876111952883654 0.05137955068679408 0.0 0.0
0.0 0.12113497873668946 -0.10125371836666644 0.09957154310862845 0.0016821752580379378 0.053007383056061355 0.0 0.0
0.0 0.12057064728243694 -0.10104283724571923 0.09952904142746428 0.0015137958182548658 0.050108435637939375 0.0 0.0
0.0 0.11152833732663774 -0.09371573671527499 0.09233840557944423 0.0013773311358306495 0.04436970142440143 0.0 0.0
0.0 0.09844079886924562 -0.08292394451878304 0.08165764319463882 0.0012663013241441885 0.038379361609939155 0.0 0.0
0.0 0.0843627770512197 -0.07093981554561235 0.06976751471785726 0.001172300827755098 0.033353880081092455 0.0 0.0
0.0 0.07031012657584702 -0.05905178765359981 0.05796010643518064 0.001091681218419185 0.029210639273220235 0.0 0.0
0.0 0.05714083545802083 -0.047853625319668094 0.04683512677808663 0.0010184985415814505 0.025416296695799142 0.0 0.0
0.0 0.04498100560937957 -0.03753581123814415 0.0365899644686845 0.0009458467694596509 0.021566814585923823 0.0 0.0
0.0 0.033861755831434845 -0.028147837702240552 0.02727801340510935 0.0008698242971311831 0.01753369851531737 0.0 0.0
0.0 0.023891639945957385 -0.01976640591431923 0.018977602274959534 0.0007888036393596908 0.013327592104857039 0.0 0.0
0.0 0.015300680372632443 -0.012568864693297186 0.011872698739471221 0.0006961659538259697 0.0091600355540057 0.0 0.0
0.0 0.00845493707180398 -0.006844823685440786 0.0062786333111123265 0.0005661903743284571 0.0054812566342767105 0.0 0.0
0.0 0.0036870081030353982 -0.002903902519538299 0.0025423992566681883 0.00036150326287011147 0.002739110103570192 0.0 0.0
0.0 0.0010891651060183805 -0.0008086797362965355 0.0006741605482563176 0.0001345191880402175 0.001005431220721894 0.0 0.0
0.0 0.00019822122383122447 -0.0001156857113213961 9.418213740997721e-05 2.150357391141881e-05 0.00019996086088176188 0.0 0.0
0.0 2.7471629064089646e-05 -1.0525174628985682e-05 8.576659531823995e-06 1.9485150971616953e-06 2.538786979664792e-05 0.0 0.0
0.0 3.219751670140884e-06 -8.994916932673163e-07 7.317735577983695e-07 1.6771813546894476e-07 3.1449307923052165e-06 0.0 0.0
0.0 0.0 0.0 0.0 0.0 0.0 0.0 0.0
0.0 0.0 0.0 0.0 0.0 0.0 0.0 0.0
0.0 0.0 0.0 0.0 0.0 0.0 0.0 0.0
0.0 0.0 0.0 0.0 0.0 0.0 0.0 0.0
0.0 9.159772724021529e-07 5.630253744311479e-08 -4.536700834069255e-08 -1.0935529102421052e-08 1.5681455061216043e-07 0.0 0.0
0.0 2.5490862591081156e-05 -1.4355080138620202e-05 1.1590013413711803e-05 2.7650667249084327e-06 -2.616182113374465e-05 0.0 0.0
0.0 0.000325215970604562 -0.00023297547699819115 0.00018992552182552143 4.304995517266973e-05 -0.00028688033049773735 0.0 0.0
0.0 0.0017631307060654575 -0.0014052937024343426 0.0011894798484508302 0.00021581385398351273 -0.0012082343592887236 0.0 0.0
0.0 0.005292509443584421 -0.0043255524400964114 0.003866824774509942 0.00045872766558647203 -0.0029280478011808144 0.0 0.0
0.0 0.011105703079019254 -0.009340593874104923 0.008705525023715854 0.0006350688503890663 -0.0056561743243296785 0.0 0.0
0.0 0.019375084059433417 -0.016350153106404704 0.015601991555203379 0.0007481615512013378 -0.009246078961392786 0.0 0.0
0.0 0.029714922319433144 -0.02509282872970853 0.02425084071418051 0.0008419880155280205 -0.013258364937191645 0.0 0.0
0.0 0.04174174038319377 -0.03529794594670321 0.03436779706691534 0.0009301488797878407 -0.017324832832290263 0.0 0.0
0.0 0.055179233933268276 -0.04675868198701584 0.04574401964773426 0.00101466233928151 -0.02122184044029315 0.0 0.0
0.0 0.06997044366236056 -0.05936165795931781 0.05826591233903684 0.0010957456202809735 -0.0249463067180333 0.0 0.0
0.0 0.08585258298670707 -0.07304663232060536 0.07187061891760665 0.0011760134029987612 -0.028585953824977174 0.0 0.0
0.0 0.10287742115108768 -0.08763067922116732 0.08636557439595074 0.0012651048252165715 -0.032391037032285366 0.0 0.0
0.0 0.12032421457220722 -0.1024476297628433 0.10107188808267309 0.0013757416801701997 -0.03689019381177105 0.0 0.0
0.0 0.13603397300464173 -0.11587976528686054 0.11436582975247968 0.001513935534380808 -0.04245136718800076 0.0 0.0
0.0 0.14693154528905444 -0.1250035261156187 0.12332457499692213 0.0016789511186965794 -0.04839190633346308 0.0 0.0
0.0 0.14801253954614232 -0.12549652246198376 0.1236388511033435 0.0018576713586402446 -0.053153573870195356 0.0 0.0
0.0 0.133159465388087 -0.11173942546466349 0.10970469727255437 0.00203472819210911 -0.05628978933558215 0.0 0.0
0.0 0.13315946538808238 -0.11173942546465224 0.10970469727254242 0.0020347281921097725 0.05628978933564406 0.0 0.0
0.0 0.14801253954611326 -0.12549652246195087 0.12363885110330966 0.0018576713586411437 0.053153573870270907 0.0 0.0
0.0 0.14693154528900218 -0.12500352611556764 0.12332457499687076 0.00167895111869685 0.04839190633351985 0.0 0.0
0.0 0.13603397300456868 -0.11587976528679467 0.11436582975241477 0.0015139355343798374 0.042451367188015204 0.0 0.0
0.0 0.1203242145721229 -0.10244762976276924 0.10107188808260059 0.0013757416801686323 0.03689019381176403 0.0 0.0
0.0 0.10287742115099302 -0.08763067922108538 0.08636557439586912 0.0012651048252162308 0.03239103703227111 0.0 0.0
0.0 0.08585258298661218 -0.07304663232052358 0.07187061891752555 0.0011760134029979864 0.028585953824954692 0.0 0.0
0.0 0.06997044366226587 -0.0593616579592357 0.058265912338955526 0.001095745620280121 0.024946306718012623 0.0 0.0
0.0 0.055179233933178674 -0.04675868198693866 0.04574401964765771 0.0010146623392809412 0.021221840440267523 0.0 0.0
0.0 0.04174174038310949 -0.035297945946632006 0.03436779706684441 0.0009301488797876113 0.017324832832255724 0.0 0.0
0.0 0.029714922319360813 -0.02509282872964786 0.02425084071412036 0.0008419880155275003 0.01325836493715678 0.0 0.0
0.0 0.01937508405937886 -0.016350153106358338 0.015601991555157766 0.0007481615512005708 0.00924607896136925 0.0 0.0
0.0 0.011105703078980967 -0.009340593874072838 0.008705525023684314 0.0006350688503885166 0.005656174324311353 0.0 0.0
0.0 0.005292509443562464 -0.004325552440078513 0.0038668247744931463 0.00045872766558536766 0.002928047801169973 0.0 0.0
0.0 0.0017631307060530937 -0.0014052937024249994 0.001189479848442534 0.00021581385398246496 0.0012082343592809532 0.0 0.0
0.0 0.00032521597060213513 -0.00023297547699720027 0.00018992552182465436 4.3049955172545714e-05 0.0002868803304964874 0.0 0.0
0.0 2.5490862590602436e-05 -1.435508013870585e-05 1.1590013413776274e-05 2.7650667249295543e-06 2.6161821133908602e-05 0.0 0.0
0.0 9.159772720464821e-07 5.630253742091469e-08 -4.5367008322703315e-08 -1.0935529098212496e-08 -1.5681455054918204e-07 0.0 0.0
0.0 0.0 0.0 0.0 0.0 0.0 0.0 0.0
0.0 0.0 0.0 0.0 0.0 0.0 0.0 0.0
0.0 0.0 0.0 0.0 0.0 0.0 0.0 0.0
0.0 0.0 0.0 0.0 0.0 0.0 0.0 0.0
0.0 2.633745482838499e-07 1.9034837468267232e-08 -1.5232417022672714e-08 -3.80242044559584e-09 3.959451352121644e-08 0.0 0.0
0.0 2.9509036830869878e-05 -2.011545701928168e-05 1.6152060639671507e-05 3.963396379610193e-06 -2.6979510997395263e-05 0.0 0.0
0.0 0.0005540942425205977 -0.0004369714881308161 0.00035797388627541616 7.899760185540011e-05 -0.0003721096628849088 0.0 0.0
0.0 0.002652508048734179 -0.002181543279931329 0.0018789123235620154 0.00030263095636931433 -0.0012839612673464292 0.0 0.0
0.0 0.006902896659751761 -0.005938322205532592 0.005402988526545105 0.0005353336789874884 -0.002887890344813792 0.0 0.0
0.0 0.013893622120186081 -0.011956315473243228 0.011273926275700872 0.0006823891975423646 -0.005366433488762813 0.0 0.0
0.0 0.02357596804666157 -0.020202039404798186 0.019412895211258836 0.000789144193539341 -0.008577153216424237 0.0 0.0
0.0 0.035597086392509455 -0.03047144293373063 0.029584001002513124 0.0008874419312175149 -0.012206268794817909 0.0 0.0
0.0 0.04964596639725537 -0.04248842430805759 0.0415055058648627 0.0009829184431948486 -0.01588402342009909 0.0 0.0
0.0 0.06543259195262839 -0.056021585185293654 0.05494524126602864 0.0010763439192649855 -0.019415338200009007 0.0 0.0
0.0 0.08275385750992235 -0.07091304114261512 0.06974606762896965 0.0011669735136454092 -0.02281586743733957 0.0 0.0
0.0 0.10151528737508586 -0.08704535386657819 0.08578883869037462 0.001256515176203546 -0.026083263519108547 0.0 0.0
0.0 0.12143192795776096 -0.10420343449194296 0.1028504527516668 0.0013529817402761558 -0.029244521848683445 0.0 0.0
0.0 0.14152106322666125 -0.12169064767888367 0.12021587799291533 0.0014747696859683478 -0.032626177852464834 0.0 0.0
0.0 0.16014238720289234 -0.13767783538554892 0.1360416074665754 0.001636227918973459 -0.0370059407050968 0.0 0.0
0.0 0.17322477563382754 -0.14872677270689671 0.1469013867262551 0.0018253859806415976 -0.0430377923987315 0.0 0.0
0.0 0.17524115956033656 -0.14990287564610502 0.14788275702038206 0.002020118625722867 -0.05080183595805171 0.0 0.0
0.0 0.1598695203125689 -0.13517756554586524 0.13298479011631897 0.0021927754295462095 -0.06072413046472913 0.0 0.0
0.0 0.15986952031256485 -0.13517756554585453 0.13298479011630931 0.002192775429545296 0.06072413046478811 0.0 0.0
0.0 0.17524115956030106 -0.14990287564606714 0.14788275702034623 0.0020201186257208723 0.05080183595812157 0.0 0.0
0.0 0.17322477563376007 -0.14872677270683404 0.14690138672619352 0.0018253859806404839 0.04303779239877863 0.0 0.0
0.0 0.1601423872028124 -0.13767783538547756 0.136041607466506 0.0016362279189714908 0.03700594070510797 0.0 0.0
0.0 0.14152106322656477 -0.12169064767879892 0.12021587799283279 0.0014747696859660606 0.03262617785245831 0.0 0.0
0.0 0.12143192795765376 -0.10420343449184943 0.10285045275157491 0.0013529817402744752 0.02924452184867299 0.0 0.0
0.0 0.1015152873749803 -0.08704535386648694 0.08578883869028435 0.0012565151762025388 0.026083263519090287 0.0 0.0
0.0 0.08275385750981819 -0.07091304114252481 0.06974606762888008 0.001166973513644712 0.022815867437323098 0.0 0.0
0.0 0.06543259195252515 -0.0560215851852045 0.054945241265940054 0.0010763439192644588 0.019415338199985182 0.0 0.0
0.0 0.04964596639716391 -0.04248842430797897 0.04150550586478492 0.0009829184431940443 0.015884023420068758 0.0 0.0
0.0 0.03559708639242913 -0.03047144293366197 0.029584001002444883 0.0008874419312170816 0.012206268794788009 0.0 0.0
0.0 0.023575968046599772 -0.020202039404745003 0.01941289521120575 0.0007891441935392562 0.008577153216404355 0.0 0.0
0.0 0.01389362212014414 -0.011956315473207087 0.011273926275665298 0.0006823891975417869 0.005366433488747061 0.0 0.0
0.0 0.006902896659724845 -0.005938322205509713 0.005402988526523067 0.000535333678986643 0.0028878903448031233 0.0 0.0
0.0 0.002652508048719238 -0.0021815432799196 0.0018789123235513747 0.0003026309563682249 0.0012839612673399155 0.0 0.0
0.0 0.0005540942425154803 -0.0004369714881274472 0.0003579738862725986 7.899760185484836e-05 0.00037210966288243695 0.0 0.0
0.0 2.950903683017112e-05 -2.0115457019338802e-05 1.615206063970269e-05 3.963396379636117e-06 2.697951099744579e-05 0.0 0.0
0.0 2.633745479801639e-07 1.90348374459991e-08 -1.5232417004860948e-08 -3.802420441135515e-09 -3.959451347502403e-08 0.0 0.0
0.0 0.0 0.0 0.0 0.0 0.0 0.0 0.0
0.0 0.0 0.0 0.0 0.0 0.0 0.0 0.0
0.0 0.0 0.0 0.0 0.0 0.0 0.0 0.0
0.0 0.0 0.0 0.0 0.0 0.0 0.0 0.0
0.0 0.0 0.0 0.0 0.0 0.0 0.0 0.0
0.0 4.658406309743137e-05 -3.614193792054345e-05 2.9030916550209035e-05 7.111021370334428e-06 -3.383973838173536e-05 0.0 0.0
0.0 0.0009249160963227233 -0.0007581560841952528 0.0006263866421734743 0.0001317694420217784 -0.0004166528034514175 0.0 0.0
0.0 0.003681353552948098 -0.0031242062403703244 0.002737292815057995 0.000386913425312329 -0.0012107170845984914 0.0 0.0
0.0 0.008733467758933359 -0.00766549990185568 0.007073083564752018 0.00059241633710366 -0.0025278625079498177 0.0 0.0
0.0 0.016817301310096098 -0.014627035990164128 0.013909745769223127 0.000717290220940999 -0.004537112897095433 0.0 0.0
0.0 0.027822790652431394 -0.024080473680822462 0.023257459577246134 0.0008230141035763081 -0.007179209047501909 0.0 0.0
0.0 0.04151400192791373 -0.035852928712362994 0.03492627856837621 0.0009266501439867832 -0.010181398263088835 0.0 0.0
0.0 0.05759008127065793 -0.049669708221316576 0.04863989733699403 0.0010298108843225257 -0.013229366627848642 0.0 0.0
0.0 0.07566442861287788 -0.0652754241802989 0.06414336288126889 0.001132061299030021 -0.01615299151786329 0.0 0.0
0.0 0.09566495355359758 -0.08245816550904479 0.08122474379004951 0.0012334217189952587 -0.018984213348705502 0.0 0.0
0.0 0.11700785580281772 -0.10100806150244099 0.09967329907271535 0.0013347624297256173 -0.02171339090965824 0.0 0.0
0.0 0.13957073208622 -0.12058990099674373 0.1191494899630155 0.0014404110337282259 -0.024102086468993707 0.0 0.0
0.0 0.1624944927338586 -0.1404648868655325 0.1388993427525964 0.0015655441129359318 -0.02599192868266584 0.0 0.0
0.0 0.1837440401152192 -0.1588667776230766 0.15713345409109572 0.0017333235319808402 -0.02836774264599896 0.0 0.0
0.0 0.19932340413540292 -0.1721882051021108 0.1702348699613502 0.001953335140760539 -0.03395864924176994 0.0 0.0
0.0 0.20303594384027468 -0.17476347166427558 0.17258945721519475 0.0021740144490808794 -0.045460628043542006 0.0 0.0
0.0 0.1880309296219012 -0.15975474321325595 0.15739152407030438 0.0023632191429515752 -0.06433832467792 0.0 0.0
0.0 0.18803092962189333 -0.15975474321324404 0.15739152407029333 0.002363219142950702 0.06433832467796598 0.0 0.0
0.0 0.20303594384023355 -0.17476347166423578 0.17258945721515542 0.0021740144490804366 0.04546062804360075 0.0 0.0
0.0 0.19932340413532293 -0.1721882051020399 0.17023486996127807 0.001953335140761761 0.033958649241810995 0.0 0.0
0.0 0.1837440401151108 -0.1588667776229828 0.1571334540910012 0.0017333235319816468 0.02836774264600658 0.0 0.0
0.0 0.16249449273373928 -0.140464886865429 0.1388993427524937 0.0015655441129352851 0.025991928682660273 0.0 0.0
0.0 0.13957073208609289 -0.12058990099663369 0.11914948996290554 0.0014404110337281957 0.024102086468986324 0.0 0.0
0.0 0.11700785580269196 -0.10100806150233221 0.09967329907260712 0.0013347624297250838 0.021713390909643616 0.0 0.0
0.0 0.09566495355347272 -0.08245816550893657 0.08122474378994188 0.0012334217189947426 0.018984213348690507 0.0 0.0
0.0 0.07566442861275871 -0.06527542418019576 0.06414336288116654 0.0011320612990291916 0.01615299151784596 0.0 0.0
0.0 0.05759008127055003 -0.04966970822122338 0.048639897336901175 0.001029810884322176 0.01322936662782211 0.0 0.0
0.0 0.041514001927821426 -0.03585292871228314 0.034926278568297 0.0009266501439861583 0.01018139826306341 0.0 0.0
0.0 0.027822790652361727 -0.02408047368076182 0.023257459577186206 0.0008230141035756167 0.007179209047484708 0.0 0.0
0.0 0.016817301310044632 -0.014627035990119322 0.013909745769178788 0.0007172902209405374 0.004537112897081641 0.0 0.0
0.0 0.008733467758898869 -0.0076654999018255805 0.0070730835647226965 0.0005924163371028854 0.002527862507939919 0.0 0.0
0.0 0.003681353552931193 -0.003124206240356187 0.002737292815045001 0.0003869134253111859 0.0012107170845929052 0.0 0.0
0.0 0.0009249160963162809 -0.0007581560841905157 0.0006263866421694477 0.0001317694420210682 0.0004166528034490781 0.0 0.0
0.0 4.658406309651876e-05 -3.6141937920491834e-05 2.903091655014465e-05 7.111021370347212e-06 3.383973838164612e-05 0.0 0.0
0.0 0.0 0.0 0.0 0.0 0.0 0.0 0.0
0.0 0.0 0.0 0.0 0.0 0.0 0.0 0.0
0.0 0.0 0.0 0.0 0.0 0.0 0.0 0.0
0.0 0.0 0.0 0.0 0.0 0.0 0.0 0.0
0.0 0.0 0.0 0.0 0.0 0.0 0.0 0.0
0.0 0.0 0.0 0.0 0.0 0.0 0.0 0.0
0.0 0.00010025059503614701 -8.255921763540615e-05 6.622572127709249e-05 1.633349635831368e-05 -4.6807945016648676e-05 0.0 0.0
0.0 0.001463821618391221 -0.0012106919109123866 0.001013269852682559 0.0001974220582298276 -0.0003806279506528242 0.0 0.0
0.0 0.004690081438590576 -0.0042065633839146735 0.0037445282762251482 0.00046203510768952545 -0.0009370315343771879 0.0 0.0
0.0 0.01070961970846382 -0.009453388678673002 0.008821139546578843 0.0006322491320941619 -0.0018350566449236595 0.0 0.0
0.0 0.01979075157815035 -0.017318451696349966 0.01657334083815924 0.0007451108581907364 -0.003209632752106395 0.0 0.0
0.0 0.032088459057481096 -0.02794079161825422 0.027089961542881503 0.0008508300753727004 -0.005056434185494713 0.0 0.0
0.0 0.04742905491723943 -0.04119068064008115 0.040230258510140324 0.0009604221299407915 -0.007185799586806125 0.0 0.0
0.0 0.06550521854331677 -0.0567956893456827 0.05572409846671109 0.0010715908789715653 -0.009351543511241336 0.0 0.0
0.0 0.08603025557047406 -0.0744705442316246 0.07328756144946615 0.0011829827821584504 -0.011429691570643526 0.0 0.0
0.0 0.10839860776395813 -0.09394631275910079 0.09265086605085354 0.001295446708247274 -0.01346923578875543 0.0 0.0
0.0 0.13251682555279948 -0.1148867223222515 0.113476414510121 0.0014103078121304523 -0.015409349991406644 0.0 0.0
0.0 0.15776943203883034 -0.13677297428431306 0.13524380800451336 0.001529166279799711 -0.01693897297640983 0.0 0.0
0.0 0.18305936602309897 -0.15873140756228013 0.1570748753465809 0.0016565322156992398 -0.017578171528183684 0.0 0.0
0.0 0.20658585666146603 -0.1791753535446276 0.17736484081821496 0.0018105127264128197 -0.01763133906751136 0.0 0.0
0.0 0.22493365939213164 -0.19501422348633152 0.19299016923116685 0.0020240542551646446 -0.020767603224787663 0.0 0.0
0.0 0.23175433466153772 -0.20034087859070165 0.19800524087494364 0.002335637715757784 -0.03534796844689981 0.0 0.0
0.0 0.21830400838759456 -0.18622049557797193 0.18365792932337446 0.002562566254597241 -0.06628553453340946 0.0 0.0
0.0 0.21830400838758032 -0.1862204955779565 0.18365792932335945 0.0025625662545969534 0.06628553453344471 0.0 0.0
0.0 0.23175433466148043 -0.20034087859065006 0.1980052408748915 0.0023356377157585572 0.035347968446947195 0.0 0.0
0.0 0.22493365939204102 -0.19501422348625141 0.19299016923108875 0.0020240542551627923 0.02076760322481842 0.0 0.0
0.0 0.20658585666135487 -0.17917535354452985 0.1773648408181197 0.001810512726410123 0.017631339067516242 0.0 0.0
0.0 0.1830593660229712 -0.15873140756216925 0.15707487534647102 0.0016565322156981436 0.017578171528177547 0.0 0.0
0.0 0.1577694320386905 -0.13677297428419216 0.13524380800439192 0.0015291662798002374 0.01693897297640781 0.0 0.0
0.0 0.13251682555265323 -0.11488672232212538 0.11347641450999428 0.0014103078121310841 0.015409349991399559 0.0 0.0
0.0 0.10839860776381796 -0.09394631275897922 0.09265086605073257 0.0012954467082466636 0.013469235788746951 0.0 0.0
0.0 0.08603025557033955 -0.07447054423150759 0.07328756144934986 0.0011829827821577422 0.011429691570633314 0.0 0.0
0.0 0.06550521854320004 -0.056795689345581504 0.05572409846661079 0.0010715908789706884 0.009351543511222452 0.0 0.0
0.0 0.04742905491714019 -0.04119068063999496 0.040230258510054864 0.0009604221299400976 0.007185799586788256 0.0 0.0
0.0 0.03208845905740102 -0.027940791618184174 0.027089961542811958 0.000850830075372207 0.0050564341854834605 0.0 0.0
0.0 0.01979075157809048 -0.01731845169629754 0.01657334083810728 0.000745110858190244 0.003209632752096704 0.0 0.0
0.0 0.010709619708426517 -0.009453388678639983 0.008821139546546546 0.0006322491320934374 0.001835056644916414 0.0 0.0
0.0 0.004690081438570621 -0.00420656338389698 0.0037445282762084316 0.000462035107688549 0.0009370315343728818 0.0 0.0
0.0 0.0014638216183830448 -0.0012106919109060304 0.0010132698526770232 0.00019742205822900744 0.0003806279506511019 0.0 0.0
0.0 0.00010025059503470055 -8.255921763499467e-05 6.622572127672621e-05 1.6333496358268385e-05 4.680794501639451e-05 0.0 0.0
0.0 0.0 0.0 0.0 0.0 0.0 0.0 0.0
0.0 0.0 0.0 0.0 0.0 0.0 0.0 0.0
0.0 0.0 0.0 0.0 0.0 0.0 0.0 0.0
0.0 0.0 0.0 0.0 0.0 0.0 0.0 0.0
0.0 0.0 0.0 0.0 0.0 0.0 0.0 0.0
0.0 0.0 0.0 0.0 0.0 0.0 0.0 0.0
0.0 0.00023777118617891976 -0.00020742896872851218 0.00016629841089370217 4.1130557834810104e-05 -4.948234960366384e-05 0.0 0.0
0.0 0.0021735545393566096 -0.001785617424227794 0.00151516897166323 0.000270448452564563 -0.00022033732309664975 0.0 0.0
0.0 0.0059761451277199045 -0.005360685886919922 0.004839182285556816 0.0005215036013631066 -0.00043988191448811754 0.0 0.0
0.0 0.012750347185607188 -0.011275773004997856 0.010613127826906262 0.0006626451780915881 -0.0008067152166632657 0.0 0.0
0.0 0.022804311018391796 -0.019991734182381267 0.019224782511103166 0.0007669516712780946 -0.0013877686192123636 0.0 0.0
0.0 0.03636702355020563 -0.03173813543143077 0.03086424611677271 0.000873889314658038 -0.0022172116774808 0.0 0.0
0.0 0.05336472743028899 -0.04643701127950605 0.04544779946850538 0.000989211811000708 -0.0032137257835393013 0.0 0.0
0.0 0.07351352757942078 -0.06382112756032601 0.06271245105980228 0.0011086765005237696 -0.004246456538883302 0.0 0.0
0.0 0.09615118579590556 -0.08356526523223608 0.08233531222069164 0.0012299530115443965 -0.005253260478798167 0.0 0.0
0.0 0.12117453997468802 -0.1053136790783056 0.10396027244086672 0.001353406637438851 -0.006229322570886861 0.0 0.0
0.0 0.14805504805431352 -0.12861423598149002 0.12713281372241214 0.0014814222590778415 -0.007101614265409359 0.0 0.0
0.0 0.17590554974671918 -0.15276137159486725 0.15114598369666016 0.0016153878982071448 -0.0076756976446747446 0.0 0.0
0.0 0.20345556020401798 -0.1766370662538132 0.17488328525441246 0.0017537809994006572 -0.007560057931150199 0.0 0.0
0.0 0.2287971547410632 -0.1986141274157605 0.1967191194813714 0.0018950079343891175 -0.006384656175278098 0.0 0.0
0.0 0.24921564509052185 -0.21634054939328756 0.21428373745330118 0.0020568119399861523 -0.0056610640337211885 0.0 0.0
0.0 0.2602584629988616 -0.22567206920383517 0.2233614553343103 0.002310613869524749 -0.015918737984105362 0.0 0.0
0.0 0.25251783645677395 -0.2165928162087909 0.21364951165081186 0.00294330455797899 -0.06117393278170422 0.0 0.0
0.0 0.25251783645675585 -0.2165928162087738 0.21364951165079543 0.002943304557978088 0.061173932781719106 0.0 0.0
0.0 0.26025846299879957 -0.22567206920378047 0.22336145533425678 0.0023106138695234493 0.01591873798412882 0.0 0.0
0.0 0.24921564509041233 -0.21634054939319247 0.21428373745320678 0.0020568119399856154 0.005661064033733693 0.0 0.0
0.0 0.22879715474093004 -0.19861412741564502 0.19671911948125667 0.0018950079343884143 0.006384656175277226 0.0 0.0
0.0 0.2034555602038697 -0.17663706625368442 0.17488328525428468 0.001753780999399533 0.007560057931144892 0.0 0.0
0.0 0.17590554974656555 -0.15276137159473374 0.15114598369652768 0.0016153878982059593 0.007675697644675157 0.0 0.0
0.0 0.1480550480541637 -0.12861423598135963 0.1271328137222835 0.0014814222590760829 0.007101614265404404 0.0 0.0
0.0 0.1211745399745328 -0.10531367907817128 0.10396027244073255 0.0013534066374386743 0.006229322570881067 0.0 0.0
0.0 0.09615118579575924 -0.08356526523210932 0.08233531222056543 0.001229953011543875 0.005253260478794276 0.0 0.0
0.0 0.07351352757928897 -0.06382112756021184 0.06271245105968842 0.001108676500523406 0.004246456538872633 0.0 0.0
0.0 0.05336472743018008 -0.0464370112794117 0.045447799468411626 0.000989211811000095 0.003213725783529813 0.0 0.0
0.0 0.036367023550123834 -0.031738135431359144 0.030864246116701896 0.0008738893146572351 0.0022172116774764414 0.0 0.0
0.0 0.022804311018328943 -0.0199917341823259 0.019224782511048318 0.000766951671277562 0.0013877686192079715 0.0 0.0
0.0 0.012750347185563726 -0.011275773004959468 0.0106131278268684 0.0006626451780910715 0.0008067152166604918 0.0 0.0
0.0 0.0059761451276980175 -0.005360685886900075 0.004839182285537795 0.000521503601362279 0.00043988191448660996 0.0 0.0
0.0 0.002173554539345068 -0.0017856174242184405 0.001515168971654913 0.00027044845256352876 0.0002203373230959831 0.0 0.0
0.0 0.0002377711861756368 -0.0002074289687261971 0.0001662984108917735 4.1130557834423586e-05 4.9482349603024276e-05 0.0 0.0
0.0 0.0 0.0 0.0 0.0 0.0 0.0 0.0
0.0 0.0 0.0 0.0 0.0 0.0 0.0 0.0
0.0 0.0 0.0 0.0 0.0 0.0 0.0 0.0