# vtk DataFile Version 3.0
Some data
ASCII
DATASET UNSTRUCTURED_GRID
POINTS 861 float
0.0 0.0 0.0
0.4 0.0 0.0
0.8 0.0 0.0
1.2000000000000002 0.0 0.0
1.6 0.0 0.0
2.0 0.0 0.0
2.4000000000000004 0.0 0.0
2.8000000000000003 0.0 0.0
3.2 0.0 0.0
3.6 0.0 0.0
4.0 0.0 0.0
4.4 0.0 0.0
4.800000000000001 0.0 0.0
5.2 0.0 0.0
5.6000000000000005 0.0 0.0
6.0 0.0 0.0
6.4 0.0 0.0
6.800000000000001 0.0 0.0
7.2 0.0 0.0
7.6000000000000005 0.0 0.0
8.0 0.0 0.0
8.4 0.0 0.0
8.8 0.0 0.0
9.200000000000001 0.0 0.0
9.600000000000001 0.0 0.0
10.0 0.0 0.0
10.4 0.0 0.0
10.8 0.0 0.0
11.200000000000001 0.0 0.0
11.600000000000001 0.0 0.0
12.0 0.0 0.0
12.4 0.0 0.0
12.8 0.0 0.0
13.200000000000001 0.0 0.0
13.600000000000001 0.0 0.0
14.0 0.0 0.0
14.4 0.0 0.0
14.8 0.0 0.0
15.200000000000001 0.0 0.0
15.600000000000001 0.0 0.0
16.0 0.0 0.0
0.0 0.1 0.0
0.4 0.1 0.0
0.8 0.1 0.0
1.2000000000000002 0.1 0.0
1.6 0.1 0.0
2.0 0.1 0.0
2.4000000000000004 0.1 0.0
2.8000000000000003 0.1 0.0
3.2 0.1 0.0
3.6 0.1 0.0
4.0 0.1 0.0
4.4 0.1 0.0
4.800000000000001 0.1 0.0
5.2 0.1 0.0
5.6000000000000005 0.1 0.0
6.0 0.1 0.0
6.4 0.1 0.0
6.800000000000001 0.1 0.0
7.2 0.1 0.0
7.6000000000000005 0.1 0.0
8.0 0.1 0.0
8.4 0.1 0.0
8.8 0.1 0.0
9.200000000000001 0.1 0.0
9.600000000000001 0.1 0.0
10.0 0.1 0.0
10.4 0.1 0.0
10.8 0.1 0.0
11.200000000000001 0.1 0.0
11.600000000000001 0.1 0.0
12.0 0.1 0.0
12.4 0.1 0.0
12.8 0.1 0.0
13.200000000000001 0.1 0.0
13.600000000000001 0.1 0.0
14.0 0.1 0.0
14.4 0.1 0.0
14.8 0.1 0.0
15.200000000000001 0.1 0.0
15.600000000000001 0.1 0.0
16.0 0.1 0.0
0.0 0.2 0.0
0.4 0.2 0.0
0.8 0.2 0.0
1.2000000000000002 0.2 0.0
1.6 0.2 0.0
2.0 0.2 0.0
2.4000000000000004 0.2 0.0
2.8000000000000003 0.2 0.0
3.2 0.2 0.0
3.6 0.2 0.0
4.0 0.2 0.0
4.4 0.2 0.0
4.800000000000001 0.2 0.0
5.2 0.2 0.0
5.6000000000000005 0.2 0.0
6.0 0.2 0.0
6.4 0.2 0.0
6.800000000000001 0.2 0.0
7.2 0.2 0.0
7.6000000000000005 0.2 0.0
8.0 0.2 0.0
8.4 0.2 0.0
8.8 0.2 0.0
9.200000000000001 0.2 0.0
9.600000000000001 0.2 0.0
10.0 0.2 0.0
10.4 0.2 0.0
10.8 0.2 0.0
11.200000000000001 0.2 0.0
11.600000000000001 0.2 0.0
12.0 0.2 0.0
12.4 0.2 0.0
12.8 0.2 0.0
13.200000000000001 0.2 0.0
13.600000000000001 0.2 0.0
14.0 0.2 0.0
14.4 0.2 0.0
14.8 0.2 0.0
15.200000000000001 0.2 0.0
15.600000000000001 0.2 0.0
16.0 0.2 0.0
0.0 0.30000000000000004 0.0
0.4 0.30000000000000004 0.0
0.8 0.30000000000000004 0.0
1.2000000000000002 0.30000000000000004 0.0
1.6 0.30000000000000004 0.0
2.0 0.30000000000000004 0.0
2.4000000000000004 0.30000000000000004 0.0
2.8000000000000003 0.30000000000000004 0.0
3.2 0.30000000000000004 0.0
3.6 0.30000000000000004 0.0
4.0 0.30000000000000004 0.0
4.4 0.30000000000000004 0.0
4.800000000000001 0.30000000000000004 0.0
5.2 0.30000000000000004 0.0
5.6000000000000005 0.30000000000000004 0.0
6.0 0.30000000000000004 0.0
6.4 0.30000000000000004 0.0
6.800000000000001 0.30000000000000004 0.0
7.2 0.30000000000000004 0.0
7.6000000000000005 0.30000000000000004 0.0
8.0 0.30000000000000004 0.0
8.4 0.30000000000000004 0.0
8.8 0.30000000000000004 0.0
9.200000000000001 0.30000000000000004 0.0
9.600000000000001 0.30000000000000004 0.0
10.0 0.30000000000000004 0.0
10.4 0.30000000000000004 0.0
10.8 0.30000000000000004 0.0
11.200000000000001 0.30000000000000004 0.0
11.600000000000001 0.30000000000000004 0.0
12.0 0.30000000000000004 0.0
12.4 0.30000000000000004 0.0
12.8 0.30000000000000004 0.0
13.200000000000001 0.30000000000000004 0.0
13.600000000000001 0.30000000000000004 0.0
14.0 0.30000000000000004 0.0
14.4 0.30000000000000004 0.0
14.8 0.30000000000000004 0.0
15.200000000000001 0.30000000000000004 0.0
15.600000000000001 0.30000000000000004 0.0
16.0 0.30000000000000004 0.0
0.0 0.4 0.0
0.4 0.4 0.0
0.8 0.4 0.0
1.2000000000000002 0.4 0.0
1.6 0.4 0.0
2.0 0.4 0.0
2.4000000000000004 0.4 0.0
2.8000000000000003 0.4 0.0
3.2 0.4 0.0
3.6 0.4 0.0
4.0 0.4 0.0
4.4 0.4 0.0
4.800000000000001 0.4 0.0
5.2 0.4 0.0
5.6000000000000005 0.4 0.0
6.0 0.4 0.0
6.4 0.4 0.0
6.800000000000001 0.4 0.0
7.2 0.4 0.0
7.6000000000000005 0.4 0.0
8.0 0.4 0.0
8.4 0.4 0.0
8.8 0.4 0.0
9.200000000000001 0.4 0.0
9.600000000000001 0.4 0.0
10.0 0.4 0.0
10.4 0.4 0.0
10.8 0.4 0.0
11.200000000000001 0.4 0.0
11.600000000000001 0.4 0.0
12.0 0.4 0.0
12.4 0.4 0.0
12.8 0.4 0.0
13.200000000000001 0.4 0.0
13.600000000000001 0.4 0.0
14.0 0.4 0.0
14.4 0.4 0.0
14.8 0.4 0.0
15.200000000000001 0.4 0.0
15.600000000000001 0.4 0.0
16.0 0.4 0.0
0.0 0.5 0.0
0.4 0.5 0.0
0.8 0.5 0.0
1.2000000000000002 0.5 0.0
1.6 0.5 0.0
2.0 0.5 0.0
2.4000000000000004 0.5 0.0
2.8000000000000003 0.5 0.0
3.2 0.5 0.0
3.6 0.5 0.0
4.0 0.5 0.0
4.4 0.5 0.0
4.800000000000001 0.5 0.0
5.2 0.5 0.0
5.6000000000000005 0.5 0.0
6.0 0.5 0.0
6.4 0.5 0.0
6.800000000000001 0.5 0.0
7.2 0.5 0.0
7.6000000000000005 0.5 0.0
8.0 0.5 0.0
8.4 0.5 0.0
8.8 0.5 0.0
9.200000000000001 0.5 0.0
9.600000000000001 0.5 0.0
10.0 0.5 0.0
10.4 0.5 0.0
10.8 0.5 0.0
11.200000000000001 0.5 0.0
11.600000000000001 0.5 0.0
12.0 0.5 0.0
12.4 0.5 0.0
12.8 0.5 0.0
13.200000000000001 0.5 0.0
13.600000000000001 0.5 0.0
14.0 0.5 0.0
14.4 0.5 0.0
14.8 0.5 0.0
15.200000000000001 0.5 0.0
15.600000000000001 0.5 0.0
16.0 0.5 0.0
0.0 0.6000000000000001 0.0
0.4 0.6000000000000001 0.0
0.8 0.6000000000000001 0.0
1.2000000000000002 0.6000000000000001 0.0
1.6 0.6000000000000001 0.0
2.0 0.6000000000000001 0.0
2.4000000000000004 0.6000000000000001 0.0
2.8000000000000003 0.6000000000000001 0.0
3.2 0.6000000000000001 0.0
3.6 0.6000000000000001 0.0
4.0 0.6000000000000001 0.0
4.4 0.6000000000000001 0.0
4.800000000000001 0.6000000000000001 0.0
5.2 0.6000000000000001 0.0
5.6000000000000005 0.6000000000000001 0.0
6.0 0.6000000000000001 0.0
6.4 0.6000000000000001 0.0
6.800000000000001 0.6000000000000001 0.0
7.2 0.6000000000000001 0.0
7.6000000000000005 0.6000000000000001 0.0
8.0 0.6000000000000001 0.0
8.4 0.6000000000000001 0.0
8.8 0.6000000000000001 0.0
9.200000000000001 0.6000000000000001 0.0
9.600000000000001 0.6000000000000001 0.0
10.0 0.6000000000000001 0.0
10.4 0.6000000000000001 0.0
10.8 0.6000000000000001 0.0
11.200000000000001 0.6000000000000001 0.0
11.600000000000001 0.6000000000000001 0.0
12.0 0.6000000000000001 0.0
12.4 0.6000000000000001 0.0
12.8 0.6000000000000001 0.0
13.200000000000001 0.6000000000000001 0.0
13.600000000000001 0.6000000000000001 0.0
14.0 0.6000000000000001 0.0
14.4 0.6000000000000001 0.0
14.8 0.6000000000000001 0.0
15.200000000000001 0.6000000000000001 0.0
15.600000000000001 0.6000000000000001 0.0
16.0 0.6000000000000001 0.0
0.0 0.7000000000000001 0.0
0.4 0.7000000000000001 0.0
0.8 0.7000000000000001 0.0
1.2000000000000002 0.7000000000000001 0.0
1.6 0.7000000000000001 0.0
2.0 0.7000000000000001 0.0
2.4000000000000004 0.7000000000000001 0.0
2.8000000000000003 0.7000000000000001 0.0
3.2 0.7000000000000001 0.0
3.6 0.7000000000000001 0.0
4.0 0.7000000000000001 0.0
4.4 0.7000000000000001 0.0
4.800000000000001 0.7000000000000001 0.0
5.2 0.7000000000000001 0.0
5.6000000000000005 0.7000000000000001 0.0
6.0 0.7000000000000001 0.0
6.4 0.7000000000000001 0.0
6.800000000000001 0.7000000000000001 0.0
7.2 0.7000000000000001 0.0
7.6000000000000005 0.7000000000000001 0.0
8.0 0.7000000000000001 0.0
8.4 0.7000000000000001 0.0
8.8 0.7000000000000001 0.0
9.200000000000001 0.7000000000000001 0.0
9.600000000000001 0.7000000000000001 0.0
10.0 0.7000000000000001 0.0
10.4 0.7000000000000001 0.0
10.8 0.7000000000000001 0.0
11.200000000000001 0.7000000000000001 0.0
11.600000000000001 0.7000000000000001 0.0
12.0 0.7000000000000001 0.0
12.4 0.7000000000000001 0.0
12.8 0.7000000000000001 0.0
13.200000000000001 0.7000000000000001 0.0
13.600000000000001 0.7000000000000001 0.0
14.0 0.7000000000000001 0.0
14.4 0.7000000000000001 0.0
14.8 0.7000000000000001 0.0
15.200000000000001 0.7000000000000001 0.0
15.600000000000001 0.7000000000000001 0.0
16.0 0.7000000000000001 0.0
0.0 0.8 0.0
0.4 0.8 0.0
0.8 0.8 0.0
1.2000000000000002 0.8 0.0
1.6 0.8 0.0
2.0 0.8 0.0
2.4000000000000004 0.8 0.0
2.8000000000000003 0.8 0.0
3.2 0.8 0.0
3.6 0.8 0.0
4.0 0.8 0.0
4.4 0.8 0.0
4.800000000000001 0.8 0.0
5.2 0.8 0.0
5.6000000000000005 0.8 0.0
6.0 0.8 0.0
6.4 0.8 0.0
6.800000000000001 0.8 0.0
7.2 0.8 0.0
7.6000000000000005 0.8 0.0
8.0 0.8 0.0
8.4 0.8 0.0
8.8 0.8 0.0
9.200000000000001 0.8 0.0
9.600000000000001 0.8 0.0
10.0 0.8 0.0
10.4 0.8 0.0
10.8 0.8 0.0
11.200000000000001 0.8 0.0
11.600000000000001 0.8 0.0
12.0 0.8 0.0
12.4 0.8 0.0
12.8 0.8 0.0
13.200000000000001 0.8 0.0
13.600000000000001 0.8 0.0
14.0 0.8 0.0
14.4 0.8 0.0
14.8 0.8 0.0
15.200000000000001 0.8 0.0
15.600000000000001 0.8 0.0
16.0 0.8 0.0
0.0 0.9 0.0
0.4 0.9 0.0
0.8 0.9 0.0
1.2000000000000002 0.9 0.0
1.6 0.9 0.0
2.0 0.9 0.0
2.4000000000000004 0.9 0.0
2.8000000000000003 0.9 0.0
3.2 0.9 0.0
3.6 0.9 0.0
4.0 0.9 0.0
4.4 0.9 0.0
4.800000000000001 0.9 0.0
5.2 0.9 0.0
5.6000000000000005 0.9 0.0
6.0 0.9 0.0
6.4 0.9 0.0
6.800000000000001 0.9 0.0
7.2 0.9 0.0
7.6000000000000005 0.9 0.0
8.0 0.9 0.0
8.4 0.9 0.0
8.8 0.9 0.0
9.200000000000001 0.9 0.0
9.600000000000001 0.9 0.0
10.0 0.9 0.0
10.4 0.9 0.0
10.8 0.9 0.0
11.200000000000001 0.9 0.0
11.600000000000001 0.9 0.0
12.0 0.9 0.0
12.4 0.9 0.0
12.8 0.9 0.0
13.200000000000001 0.9 0.0
13.600000000000001 0.9 0.0
14.0 0.9 0.0
14.4 0.9 0.0
14.8 0.9 0.0
15.200000000000001 0.9 0.0
15.600000000000001 0.9 0.0
16.0 0.9 0.0
0.0 1.0 0.0
0.4 1.0 0.0
0.8 1.0 0.0
1.2000000000000002 1.0 0.0
1.6 1.0 0.0
2.0 1.0 0.0
2.4000000000000004 1.0 0.0
2.8000000000000003 1.0 0.0
3.2 1.0 0.0
3.6 1.0 0.0
4.0 1.0 0.0
4.4 1.0 0.0
4.800000000000001 1.0 0.0
5.2 1.0 0.0
5.6000000000000005 1.0 0.0
6.0 1.0 0.0
6.4 1.0 0.0
6.800000000000001 1.0 0.0
7.2 1.0 0.0
7.6000000000000005 1.0 0.0
8.0 1.0 0.0
8.4 1.0 0.0
8.8 1.0 0.0
9.200000000000001 1.0 0.0
9.600000000000001 1.0 0.0
10.0 1.0 0.0
10.4 1.0 0.0
10.8 1.0 0.0
11.200000000000001 1.0 0.0
11.600000000000001 1.0 0.0
12.0 1.0 0.0
12.4 1.0 0.0
12.8 1.0 0.0
13.200000000000001 1.0 0.0
13.600000000000001 1.0 0.0
14.0 1.0 0.0
14.4 1.0 0.0
14.8 1.0 0.0
15.200000000000001 1.0 0.0
15.600000000000001 1.0 0.0
16.0 1.0 0.0
0.0 1.1 0.0
0.4 1.1 0.0
0.8 1.1 0.0
1.2000000000000002 1.1 0.0
1.6 1.1 0.0
2.0 1.1 0.0
2.4000000000000004 1.1 0.0
2.8000000000000003 1.1 0.0
3.2 1.1 0.0
3.6 1.1 0.0
4.0 1.1 0.0
4.4 1.1 0.0
4.800000000000001 1.1 0.0
5.2 1.1 0.0
5.6000000000000005 1.1 0.0
6.0 1.1 0.0
6.4 1.1 0.0
6.800000000000001 1.1 0.0
7.2 1.1 0.0
7.6000000000000005 1.1 0.0
8.0 1.1 0.0
8.4 1.1 0.0
8.8 1.1 0.0
9.200000000000001 1.1 0.0
9.600000000000001 1.1 0.0
10.0 1.1 0.0
10.4 1.1 0.0
10.8 1.1 0.0
11.200000000000001 1.1 0.0
11.600000000000001 1.1 0.0
12.0 1.1 0.0
12.4 1.1 0.0
12.8 1.1 0.0
13.200000000000001 1.1 0.0
13.600000000000001 1.1 0.0
14.0 1.1 0.0
14.4 1.1 0.0
14.8 1.1 0.0
15.200000000000001 1.1 0.0
15.600000000000001 1.1 0.0
16.0 1.1 0.0
0.0 1.2000000000000002 0.0
0.4 1.2000000000000002 0.0
0.8 1.2000000000000002 0.0
1.2000000000000002 1.2000000000000002 0.0
1.6 1.2000000000000002 0.0
2.0 1.2000000000000002 0.0
2.4000000000000004 1.2000000000000002 0.0
2.8000000000000003 1.2000000000000002 0.0
3.2 1.2000000000000002 0.0
3.6 1.2000000000000002 0.0
4.0 1.2000000000000002 0.0
4.4 1.2000000000000002 0.0
4.800000000000001 1.2000000000000002 0.0
5.2 1.2000000000000002 0.0
5.6000000000000005 1.2000000000000002 0.0
6.0 1.2000000000000002 0.0
6.4 1.2000000000000002 0.0
6.800000000000001 1.2000000000000002 0.0
7.2 1.2000000000000002 0.0
7.6000000000000005 1.2000000000000002 0.0
8.0 1.2000000000000002 0.0
8.4 1.2000000000000002 0.0
8.8 1.2000000000000002 0.0
9.200000000000001 1.2000000000000002 0.0
9.600000000000001 1.2000000000000002 0.0
10.0 1.2000000000000002 0.0
10.4 1.2000000000000002 0.0
10.8 1.2000000000000002 0.0
11.200000000000001 1.2000000000000002 0.0
11.600000000000001 1.2000000000000002 0.0
12.0 1.2000000000000002 0.0
12.4 1.2000000000000002 0.0
12.8 1.2000000000000002 0.0
13.200000000000001 1.2000000000000002 0.0
13.600000000000001 1.2000000000000002 0.0
14.0 1.2000000000000002 0.0
14.4 1.2000000000000002 0.0
14.8 1.2000000000000002 0.0
15.200000000000001 1.2000000000000002 0.0
15.600000000000001 1.2000000000000002 0.0
16.0 1.2000000000000002 0.0
0.0 1.3 0.0
0.4 1.3 0.0
0.8 1.3 0.0
1.2000000000000002 1.3 0.0
1.6 1.3 0.0
2.0 1.3 0.0
2.4000000000000004 1.3 0.0
2.8000000000000003 1.3 0.0
3.2 1.3 0.0
3.6 1.3 0.0
4.0 1.3 0.0
4.4 1.3 0.0
4.800000000000001 1.3 0.0
5.2 1.3 0.0
5.6000000000000005 1.3 0.0
6.0 1.3 0.0
6.4 1.3 0.0
6.800000000000001 1.3 0.0
7.2 1.3 0.0
7.6000000000000005 1.3 0.0
8.0 1.3 0.0
8.4 1.3 0.0
8.8 1.3 0.0
9.200000000000001 1.3 0.0
9.600000000000001 1.3 0.0
10.0 1.3 0.0
10.4 1.3 0.0
10.8 1.3 0.0
11.200000000000001 1.3 0.0
11.600000000000001 1.3 0.0
12.0 1.3 0.0
12.4 1.3 0.0
12.8 1.3 0.0
13.200000000000001 1.3 0.0
13.600000000000001 1.3 0.0
14.0 1.3 0.0
14.4 1.3 0.0
14.8 1.3 0.0
15.200000000000001 1.3 0.0
15.600000000000001 1.3 0.0
16.0 1.3 0.0
0.0 1.4000000000000001 0.0
0.4 1.4000000000000001 0.0
0.8 1.4000000000000001 0.0
1.2000000000000002 1.4000000000000001 0.0
1.6 1.4000000000000001 0.0
2.0 1.4000000000000001 0.0
2.4000000000000004 1.4000000000000001 0.0
2.8000000000000003 1.4000000000000001 0.0
3.2 1.4000000000000001 0.0
3.6 1.4000000000000001 0.0
4.0 1.4000000000000001 0.0
4.4 1.4000000000000001 0.0
4.800000000000001 1.4000000000000001 0.0
5.2 1.4000000000000001 0.0
5.6000000000000005 1.4000000000000001 0.0
6.0 1.4000000000000001 0.0
6.4 1.4000000000000001 0.0
6.800000000000001 1.4000000000000001 0.0
7.2 1.4000000000000001 0.0
7.6000000000000005 1.4000000000000001 0.0
8.0 1.4000000000000001 0.0
8.4 1.4000000000000001 0.0
8.8 1.4000000000000001 0.0
9.200000000000001 1.4000000000000001 0.0
9.600000000000001 1.4000000000000001 0.0
10.0 1.4000000000000001 0.0
10.4 1.4000000000000001 0.0
10.8 1.4000000000000001 0.0
11.200000000000001 1.4000000000000001 0.0
11.600000000000001 1.4000000000000001 0.0
12.0 1.4000000000000001 0.0
12.4 1.4000000000000001 0.0
12.8 1.4000000000000001 0.0
13.200000000000001 1.4000000000000001 0.0
13.600000000000001 1.4000000000000001 0.0
14.0 1.4000000000000001 0.0
14.4 1.4000000000000001 0.0
14.8 1.4000000000000001 0.0
15.200000000000001 1.4000000000000001 0.0
15.600000000000001 1.4000000000000001 0.0
16.0 1.4000000000000001 0.0
0.0 1.5 0.0
0.4 1.5 0.0
0.8 1.5 0.0
1.2000000000000002 1.5 0.0
1.6 1.5 0.0
2.0 1.5 0.0
2.4000000000000004 1.5 0.0
2.8000000000000003 1.5 0.0
3.2 1.5 0.0
3.6 1.5 0.0
4.0 1.5 0.0
4.4 1.5 0.0
4.800000000000001 1.5 0.0
5.2 1.5 0.0
5.6000000000000005 1.5 0.0
6.0 1.5 0.0
6.4 1.5 0.0
6.800000000000001 1.5 0.0
7.2 1.5 0.0
7.6000000000000005 1.5 0.0
8.0 1.5 0.0
8.4 1.5 0.0
8.8 1.5 0.0
9.200000000000001 1.5 0.0
9.600000000000001 1.5 0.0
10.0 1.5 0.0
10.4 1.5 0.0
10.8 1.5 0.0
11.200000000000001 1.5 0.0
11.600000000000001 1.5 0.0
12.0 1.5 0.0
12.4 1.5 0.0
12.8 1.5 0.0
13.200000000000001 1.5 0.0
13.600000000000001 1.5 0.0
14.0 1.5 0.0
14.4 1.5 0.0
14.8 1.5 0.0
15.200000000000001 1.5 0.0
15.600000000000001 1.5 0.0
16.0 1.5 0.0
0.0 1.6 0.0
0.4 1.6 0.0
0.8 1.6 0.0
1.2000000000000002 1.6 0.0
1.6 1.6 0.0
2.0 1.6 0.0
2.4000000000000004 1.6 0.0
2.8000000000000003 1.6 0.0
3.2 1.6 0.0
3.6 1.6 0.0
4.0 1.6 0.0
4.4 1.6 0.0
4.800000000000001 1.6 0.0
5.2 1.6 0.0
5.6000000000000005 1.6 0.0
6.0 1.6 0.0
6.4 1.6 0.0
6.800000000000001 1.6 0.0
7.2 1.6 0.0
7.6000000000000005 1.6 0.0
8.0 1.6 0.0
8.4 1.6 0.0
8.8 1.6 0.0
9.200000000000001 1.6 0.0
9.600000000000001 1.6 0.0
10.0 1.6 0.0
10.4 1.6 0.0
10.8 1.6 0.0
11.200000000000001 1.6 0.0
11.600000000000001 1.6 0.0
12.0 1.6 0.0
12.4 1.6 0.0
12.8 1.6 0.0
13.200000000000001 1.6 0.0
13.600000000000001 1.6 0.0
14.0 1.6 0.0
14.4 1.6 0.0
14.8 1.6 0.0
15.200000000000001 1.6 0.0
15.600000000000001 1.6 0.0
16.0 1.6 0.0
0.0 1.7000000000000002 0.0
0.4 1.7000000000000002 0.0
0.8 1.7000000000000002 0.0
1.2000000000000002 1.7000000000000002 0.0
1.6 1.7000000000000002 0.0
2.0 1.7000000000000002 0.0
2.4000000000000004 1.7000000000000002 0.0
2.8000000000000003 1.7000000000000002 0.0
3.2 1.7000000000000002 0.0
3.6 1.7000000000000002 0.0
4.0 1.7000000000000002 0.0
4.4 1.7000000000000002 0.0
4.800000000000001 1.7000000000000002 0.0
5.2 1.7000000000000002 0.0
5.6000000000000005 1.7000000000000002 0.0
6.0 1.7000000000000002 0.0
6.4 1.7000000000000002 0.0
6.800000000000001 1.7000000000000002 0.0
7.2 1.7000000000000002 0.0
7.6000000000000005 1.7000000000000002 0.0
8.0 1.7000000000000002 0.0
8.4 1.7000000000000002 0.0
8.8 1.7000000000000002 0.0
9.200000000000001 1.7000000000000002 0.0
9.600000000000001 1.7000000000000002 0.0
10.0 1.7000000000000002 0.0
10.4 1.7000000000000002 0.0
10.8 1.7000000000000002 0.0
11.200000000000001 1.7000000000000002 0.0
11.600000000000001 1.7000000000000002 0.0
12.0 1.7000000000000002 0.0
12.4 1.7000000000000002 0.0
12.8 1.7000000000000002 0.0
13.200000000000001 1.7000000000000002 0.0
13.600000000000001 1.7000000000000002 0.0
14.0 1.7000000000000002 0.0
14.4 1.7000000000000002 0.0
14.8 1.7000000000000002 0.0
15.200000000000001 1.7000000000000002 0.0
15.600000000000001 1.7000000000000002 0.0
16.0 1.7000000000000002 0.0
0.0 1.8 0.0
0.4 1.8 0.0
0.8 1.8 0.0
1.2000000000000002 1.8 0.0
1.6 1.8 0.0
2.0 1.8 0.0
2.4000000000000004 1.8 0.0
2.8000000000000003 1.8 0.0
3.2 1.8 0.0
3.6 1.8 0.0
4.0 1.8 0.0
4.4 1.8 0.0
4.800000000000001 1.8 0.0
5.2 1.8 0.0
5.6000000000000005 1.8 0.0
6.0 1.8 0.0
6.4 1.8 0.0
6.800000000000001 1.8 0.0
7.2 1.8 0.0
7.6000000000000005 1.8 0.0
8.0 1.8 0.0
8.4 1.8 0.0
8.8 1.8 0.0
9.200000000000001 1.8 0.0
9.600000000000001 1.8 0.0
10.0 1.8 0.0
10.4 1.8 0.0
10.8 1.8 0.0
11.200000000000001 1.8 0.0
11.600000000000001 1.8 0.0
12.0 1.8 0.0
12.4 1.8 0.0
12.8 1.8 0.0
13.200000000000001 1.8 0.0
13.600000000000001 1.8 0.0
14.0 1.8 0.0
14.4 1.8 0.0
14.8 1.8 0.0
15.200000000000001 1.8 0.0
15.600000000000001 1.8 0.0
16.0 1.8 0.0
0.0 1.9000000000000001 0.0
0.4 1.9000000000000001 0.0
0.8 1.9000000000000001 0.0
1.2000000000000002 1.9000000000000001 0.0
1.6 1.9000000000000001 0.0
2.0 1.9000000000000001 0.0
2.4000000000000004 1.9000000000000001 0.0
2.8000000000000003 1.9000000000000001 0.0
3.2 1.9000000000000001 0.0
3.6 1.9000000000000001 0.0
4.0 1.9000000000000001 0.0
4.4 1.9000000000000001 0.0
4.800000000000001 1.9000000000000001 0.0
5.2 1.9000000000000001 0.0
5.6000000000000005 1.9000000000000001 0.0
6.0 1.9000000000000001 0.0
6.4 1.9000000000000001 0.0
6.800000000000001 1.9000000000000001 0.0
7.2 1.9000000000000001 0.0
7.6000000000000005 1.9000000000000001 0.0
8.0 1.9000000000000001 0.0
8.4 1.9000000000000001 0.0
8.8 1.9000000000000001 0.0
9.200000000000001 1.9000000000000001 0.0
9.600000000000001 1.9000000000000001 0.0
10.0 1.9000000000000001 0.0
10.4 1.9000000000000001 0.0
10.8 1.9000000000000001 0.0
11.200000000000001 1.9000000000000001 0.0
11.600000000000001 1.9000000000000001 0.0
12.0 1.9000000000000001 0.0
12.4 1.9000000000000001 0.0
12.8 1.9000000000000001 0.0
13.200000000000001 1.9000000000000001 0.0
13.600000000000001 1.9000000000000001 0.0
14.0 1.9000000000000001 0.0
14.4 1.9000000000000001 0.0
14.8 1.9000000000000001 0.0
15.200000000000001 1.9000000000000001 0.0
15.600000000000001 1.9000000000000001 0.0
16.0 1.9000000000000001 0.0
0.0 2.0 0.0
0.4 2.0 0.0
0.8 2.0 0.0
1.2000000000000002 2.0 0.0
1.6 2.0 0.0
2.0 2.0 0.0
2.4000000000000004 2.0 0.0
2.8000000000000003 2.0 0.0
3.2 2.0 0.0
3.6 2.0 0.0
4.0 2.0 0.0
4.4 2.0 0.0
4.800000000000001 2.0 0.0
5.2 2.0 0.0
5.6000000000000005 2.0 0.0
6.0 2.0 0.0
6.4 2.0 0.0
6.800000000000001 2.0 0.0
7.2 2.0 0.0
7.6000000000000005 2.0 0.0
8.0 2.0 0.0
8.4 2.0 0.0
8.8 2.0 0.0
9.200000000000001 2.0 0.0
9.600000000000001 2.0 0.0
10.0 2.0 0.0
10.4 2.0 0.0
10.8 2.0 0.0
11.200000000000001 2.0 0.0
11.600000000000001 2.0 0.0
12.0 2.0 0.0
12.4 2.0 0.0
12.8 2.0 0.0
13.200000000000001 2.0 0.0
13.600000000000001 2.0 0.0
14.0 2.0 0.0
14.4 2.0 0.0
14.8 2.0 0.0
15.200000000000001 2.0 0.0
15.600000000000001 2.0 0.0
16.0 2.0 0.0
CELLS 800 4000
4 0 1 42 41
4 1 2 43 42
4 2 3 44 43
4 3 4 45 44
4 4 5 46 45
4 5 6 47 46
4 6 7 48 47
4 7 8 49 48
4 8 9 50 49
4 9 10 51 50
4 10 11 52 51
4 11 12 53 52
4 12 13 54 53
4 13 14 55 54
4 14 15 56 55
4 15 16 57 56
4 16 17 58 57
4 17 18 59 58
4 18 19 60 59
4 19 20 61 60
4 20 21 62 61
4 21 22 63 62
4 22 23 64 63
4 23 24 65 64
4 24 25 66 65
4 25 26 67 66
4 26 27 68 67
4 27 28 69 68
4 28 29 70 69
4 29 30 71 70
4 30 31 72 71
4 31 32 73 72
4 32 33 74 73
4 33 34 75 74
4 34 35 76 75
4 35 36 77 76
4 36 37 78 77
4 37 38 79 78
4 38 39 80 79
4 39 40 81 80
4 41 42 83 82
4 42 43 84 83
4 43 44 85 84
4 44 45 86 85
4 45 46 87 86
4 46 47 88 87
4 47 48 89 88
4 48 49 90 89
4 49 50 91 90
4 50 51 92 91
4 51 52 93 92
4 52 53 94 93
4 53 54 95 94
4 54 55 96 95
4 55 56 97 96
4 56 57 98 97
4 57 58 99 98
4 58 59 100 99
4 59 60 101 100
4 60 61 102 101
4 61 62 103 102
4 62 63 104 103
4 63 64 105 104
4 64 65 106 105
4 65 66 107 106
4 66 67 108 107
4 67 68 109 108
4 68 69 110 109
4 69 70 111 110
4 70 71 112 111
4 71 72 113 112
4 72 73 114 113
4 73 74 115 114
4 74 75 116 115
4 75 76 117 116
4 76 77 118 117
4 77 78 119 118
4 78 79 120 119
4 79 80 121 120
4 80 81 122 121
4 82 83 124 123
4 83 84 125 124
4 84 85 126 125
4 85 86 127 126
4 86 87 128 127
4 87 88 129 128
4 88 89 130 129
4 89 90 131 130
4 90 91 132 131
4 91 92 133 132
4 92 93 134 133
4 93 94 135 134
4 94 95 136 135
4 95 96 137 136
4 96 97 138 137
4 97 98 139 138
4 98 99 140 139
4 99 100 141 140
4 100 101 142 141
4 101 102 143 142
4 102 103 144 143
4 103 104 145 144
4 104 105 146 145
4 105 106 147 146
4 106 107 148 147
4 107 108 149 148
4 108 109 150 149
4 109 110 151 150
4 110 111 152 151
4 111 112 153 152
4 112 113 154 153
4 113 114 155 154
4 114 115 156 155
4 115 116 157 156
4 116 117 158 157
4 117 118 159 158
4 118 119 160 159
4 119 120 161 160
4 120 121 162 161
4 121 122 163 162
4 123 124 165 164
4 124 125 166 165
4 125 126 167 166
4 126 127 168 167
4 127 128 169 168
4 128 129 170 169
4 129 130 171 170
4 130 131 172 171
4 131 132 173 172
4 132 133 174 173
4 133 134 175 174
4 134 135 176 175
4 135 136 177 176
4 136 137 178 177
4 137 138 179 178
4 138 139 180 179
4 139 140 181 180
4 140 141 182 181
4 141 142 183 182
4 142 143 184 183
4 143 144 185 184
4 144 145 186 185
4 145 146 187 186
4 146 147 188 187
4 147 148 189 188
4 148 149 190 189
4 149 150 191 190
4 150 151 192 191
4 151 152 193 192
4 152 153 194 193
4 153 154 195 194
4 154 155 196 195
4 155 156 197 196
4 156 157 198 197
4 157 158 199 198
4 158 159 200 199
4 159 160 201 200
4 160 161 202 201
4 161 162 203 202
4 162 163 204 203
4 164 165 206 205
4 165 166 207 206
4 166 167 208 207
4 167 168 209 208
4 168 169 210 209
4 169 170 211 210
4 170 171 212 211
4 171 172 213 212
4 172 173 214 213
4 173 174 215 214
4 174 175 216 215
4 175 176 217 216
4 176 177 218 217
4 177 178 219 218
4 178 179 220 219
4 179 180 221 220
4 180 181 222 221
4 181 182 223 222
4 182 183 224 223
4 183 184 225 224
4 184 185 226 225
4 185 186 227 226
4 186 187 228 227
4 187 188 229 228
4 188 189 230 229
4 189 190 231 230
4 190 191 232 231
4 191 192 233 232
4 192 193 234 233
4 193 194 235 234
4 194 195 236 235
4 195 196 237 236
4 196 197 238 237
4 197 198 239 238
4 198 199 240 239
4 199 200 241 240
4 200 201 242 241
4 201 202 243 242
4 202 203 244 243
4 203 204 245 244
4 205 206 247 246
4 206 207 248 247
4 207 208 249 248
4 208 209 250 249
4 209 210 251 250
4 210 211 252 251
4 211 212 253 252
4 212 213 254 253
4 213 214 255 254
4 214 215 256 255
4 215 216 257 256
4 216 217 258 257
4 217 218 259 258
4 218 219 260 259
4 219 220 261 260
4 220 221 262 261
4 221 222 263 262
4 222 223 264 263
4 223 224 265 264
4 224 225 266 265
4 225 226 267 266
4 226 227 268 267
4 227 228 269 268
4 228 229 270 269
4 229 230 271 270
4 230 231 272 271
4 231 232 273 272
4 232 233 274 273
4 233 234 275 274
4 234 235 276 275
4 235 236 277 276
4 236 237 278 277
4 237 238 279 278
4 238 239 280 279
4 239 240 281 280
4 240 241 282 281
4 241 242 283 282
4 242 243 284 283
4 243 244 285 284
4 244 245 286 285
4 246 247 288 287
4 247 248 289 288
4 248 249 290 289
4 249 250 291 290
4 250 251 292 291
4 251 252 293 292
4 252 253 294 293
4 253 254 295 294
4 254 255 296 295
4 255 256 297 296
4 256 257 298 297
4 257 258 299 298
4 258 259 300 299
4 259 260 301 300
4 260 261 302 301
4 261 262 303 302
4 262 263 304 303
4 263 264 305 304
4 264 265 306 305
4 265 266 307 306
4 266 267 308 307
4 267 268 309 308
4 268 269 310 309
4 269 270 311 310
4 270 271 312 311
4 271 272 313 312
4 272 273 314 313
4 273 274 315 314
4 274 275 316 315
4 275 276 317 316
4 276 277 318 317
4 277 278 319 318
4 278 279 320 319
4 279 280 321 320
4 280 281 322 321
4 281 282 323 322
4 282 283 324 323
4 283 284 325 324
4 284 285 326 325
4 285 286 327 326
4 287 288 329 328
4 288 289 330 329
4 289 290 331 330
4 290 291 332 331
4 291 292 333 332
4 292 293 334 333
4 293 294 335 334
4 294 295 336 335
4 295 296 337 336
4 296 297 338 337
4 297 298 339 338
4 298 299 340 339
4 299 300 341 340
4 300 301 342 341
4 301 302 343 342
4 302 303 344 343
4 303 304 345 344
4 304 305 346 345
4 305 306 347 346
4 306 307 348 347
4 307 308 349 348
4 308 309 350 349
4 309 310 351 350
4 310 311 352 351
4 311 312 353 352
4 312 313 354 353
4 313 314 355 354
4 314 315 356 355
4 315 316 357 356
4 316 317 358 357
4 317 318 359 358
4 318 319 360 359
4 319 320 361 360
4 320 321 362 361
4 321 322 363 362
4 322 323 364 363
4 323 324 365 364
4 324 325 366 365
4 325 326 367 366
4 326 327 368 367
4 328 329 370 369
4 329 330 371 370
4 330 331 372 371
4 331 332 373 372
4 332 333 374 373
4 333 334 375 374
4 334 335 376 375
4 335 336 377 376
4 336 337 378 377
4 337 338 379 378
4 338 339 380 379
4 339 340 381 380
4 340 341 382 381
4 341 342 383 382
4 342 343 384 383
4 343 344 385 384
4 344 345 386 385
4 345 346 387 386
4 346 347 388 387
4 347 348 389 388
4 348 349 390 389
4 349 350 391 390
4 350 351 392 391
4 351 352 393 392
4 352 353 394 393
4 353 354 395 394
4 354 355 396 395
4 355 356 397 396
4 356 357 398 397
4 357 358 399 398
4 358 359 400 399
4 359 360 401 400
4 360 361 402 401
4 361 362 403 402
4 362 363 404 403
4 363 364 405 404
4 364 365 406 405
4 365 366 407 406
4 366 367 408 407
4 367 368 409 408
4 369 370 411 410
4 370 371 412 411
4 371 372 413 412
4 372 373 414 413
4 373 374 415 414
4 374 375 416 415
4 375 376 417 416
4 376 377 418 417
4 377 378 419 418
4 378 379 420 419
4 379 380 421 420
4 380 381 422 421
4 381 382 423 422
4 382 383 424 423
4 383 384 425 424
4 384 385 426 425
4 385 386 427 426
4 386 387 428 427
4 387 388 429 428
4 388 389 430 429
4 389 390 431 430
4 390 391 432 431
4 391 392 433 432
4 392 393 434 433
4 393 394 435 434
4 394 395 436 435
4 395 396 437 436
4 396 397 438 437
4 397 398 439 438
4 398 399 440 439
4 399 400 441 440
4 400 401 442 441
4 401 402 443 442
4 402 403 444 443
4 403 404 445 444
4 404 405 446 445
4 405 406 447 446
4 406 407 448 447
4 407 408 449 448
4 408 409 450 449
4 410 411 452 451
4 411 412 453 452
4 412 413 454 453
4 413 414 455 454
4 414 415 456 455
4 415 416 457 456
4 416 417 458 457
4 417 418 459 458
4 418 419 460 459
4 419 420 461 460
4 420 421 462 461
4 421 422 463 462
4 422 423 464 463
4 423 424 465 464
4 424 425 466 465
4 425 426 467 466
4 426 427 468 467
4 427 428 469 468
4 428 429 470 469
4 429 430 471 470
4 430 431 472 471
4 431 432 473 472
4 432 433 474 473
4 433 434 475 474
4 434 435 476 475
4 435 436 477 476
4 436 437 478 477
4 437 438 479 478
4 438 439 480 479
4 439 440 481 480
4 440 441 482 481
4 441 442 483 482
4 442 443 484 483
4 443 444 485 484
4 444 445 486 485
4 445 446 487 486
4 446 447 488 487
4 447 448 489 488
4 448 449 490 489
4 449 450 491 490
4 451 452 493 492
4 452 453 494 493
4 453 454 495 494
4 454 455 496 495
4 455 456 497 496
4 456 457 498 497
4 457 458 499 498
4 458 459 500 499
4 459 460 501 500
4 460 461 502 501
4 461 462 503 502
4 462 463 504 503
4 463 464 505 504
4 464 465 506 505
4 465 466 507 506
4 466 467 508 507
4 467 468 509 508
4 468 469 510 509
4 469 470 511 510
4 470 471 512 511
4 471 472 513 512
4 472 473 514 513
4 473 474 515 514
4 474 475 516 515
4 475 476 517 516
4 476 477 518 517
4 477 478 519 518
4 478 479 520 519
4 479 480 521 520
4 480 481 522 521
4 481 482 523 522
4 482 483 524 523
4 483 484 525 524
4 484 485 526 525
4 485 486 527 526
4 486 487 528 527
4 487 488 529 528
4 488 489 530 529
4 489 490 531 530
4 490 491 532 531
4 492 493 534 533
4 493 494 535 534
4 494 495 536 535
4 495 496 537 536
4 496 497 538 537
4 497 498 539 538
4 498 499 540 539
4 499 500 541 540
4 500 501 542 541
4 501 502 543 542
4 502 503 544 543
4 503 504 545 544
4 504 505 546 545
4 505 506 547 546
4 506 507 548 547
4 507 508 549 548
4 508 509 550 549
4 509 510 551 550
4 510 511 552 551
4 511 512 553 552
4 512 513 554 553
4 513 514 555 554
4 514 515 556 555
4 515 516 557 556
4 516 517 558 557
4 517 518 559 558
4 518 519 560 559
4 519 520 561 560
4 520 521 562 561
4 521 522 563 562
4 522 523 564 563
4 523 524 565 564
4 524 525 566 565
4 525 526 567 566
4 526 527 568 567
4 527 528 569 568
4 528 529 570 569
4 529 530 571 570
4 530 531 572 571
4 531 532 573 572
4 533 534 575 574
4 534 535 576 575
4 535 536 577 576
4 536 537 578 577
4 537 538 579 578
4 538 539 580 579
4 539 540 581 580
4 540 541 582 581
4 541 542 583 582
4 542 543 584 583
4 543 544 585 584
4 544 545 586 585
4 545 546 587 586
4 546 547 588 587
4 547 548 589 588
4 548 549 590 589
4 549 550 591 590
4 550 551 592 591
4 551 552 593 592
4 552 553 594 593
4 553 554 595 594
4 554 555 596 595
4 555 556 597 596
4 556 557 598 597
4 557 558 599 598
4 558 559 600 599
4 559 560 601 600
4 560 561 602 601
4 561 562 603 602
4 562 563 604 603
4 563 564 605 604
4 564 565 606 605
4 565 566 607 606
4 566 567 608 607
4 567 568 609 608
4 568 569 610 609
4 569 570 611 610
4 570 571 612 611
4 571 572 613 612
4 572 573 614 613
4 574 575 616 615
4 575 576 617 616
4 576 577 618 617
4 577 578 619 618
4 578 579 620 619
4 579 580 621 620
4 580 581 622 621
4 581 582 623 622
4 582 583 624 623
4 583 584 625 624
4 584 585 626 625
4 585 586 627 626
4 586 587 628 627
4 587 588 629 628
4 588 589 630 629
4 589 590 631 630
4 590 591 632 631
4 591 592 633 632
4 592 593 634 633
4 593 594 635 634
4 594 595 636 635
4 595 596 637 636
4 596 597 638 637
4 597 598 639 638
4 598 599 640 639
4 599 600 641 640
4 600 601 642 641
4 601 602 643 642
4 602 603 644 643
4 603 604 645 644
4 604 605 646 645
4 605 606 647 646
4 606 607 648 647
4 607 608 649 648
4 608 609 650 649
4 609 610 651 650
4 610 611 652 651
4 611 612 653 652
4 612 613 654 653
4 613 614 655 654
4 615 616 657 656
4 616 617 658 657
4 617 618 659 658
4 618 619 660 659
4 619 620 661 660
4 620 621 662 661
4 621 622 663 662
4 622 623 664 663
4 623 624 665 664
4 624 625 666 665
4 625 626 667 666
4 626 627 668 667
4 627 628 669 668
4 628 629 670 669
4 629 630 671 670
4 630 631 672 671
4 631 632 673 672
4 632 633 674 673
4 633 634 675 674
4 634 635 676 675
4 635 636 677 676
4 636 637 678 677
4 637 638 679 678
4 638 639 680 679
4 639 640 681 680
4 640 641 682 681
4 641 642 683 682
4 642 643 684 683
4 643 644 685 684
4 644 645 686 685
4 645 646 687 686
4 646 647 688 687
4 647 648 689 688
4 648 649 690 689
4 649 650 691 690
4 650 651 692 691
4 651 652 693 692
4 652 653 694 693
4 653 654 695 694
4 654 655 696 695
4 656 657 698 697
4 657 658 699 698
4 658 659 700 699
4 659 660 701 700
4 660 661 702 701
4 661 662 703 702
4 662 663 704 703
4 663 664 705 704
4 664 665 706 705
4 665 666 707 706
4 666 667 708 707
4 667 668 709 708
4 668 669 710 709
4 669 670 711 710
4 670 671 712 711
4 671 672 713 712
4 672 673 714 713
4 673 674 715 714
4 674 675 716 715
4 675 676 717 716
4 676 677 718 717
4 677 678 719 718
4 678 679 720 719
4 679 680 721 720
4 680 681 722 721
4 681 682 723 722
4 682 683 724 723
4 683 684 725 724
4 684 685 726 725
4 685 686 727 726
4 686 687 728 727
4 687 688 729 728
4 688 689 730 729
4 689 690 731 730
4 690 691 732 731
4 691 692 733 732
4 692 693 734 733
4 693 694 735 734
4 694 695 736 735
4 695 696 737 736
4 697 698 739 738
4 698 699 740 739
4 699 700 741 740
4 700 701 742 741
4 701 702 743 742
4 702 703 744 743
4 703 704 745 744
4 704 705 746 745
4 705 706 747 746
4 706 707 748 747
4 707 708 749 748
4 708 709 750 749
4 709 710 751 750
4 710 711 752 751
4 711 712 753 752
4 712 713 754 753
4 713 714 755 754
4 714 715 756 755
4 715 716 757 756
4 716 717 758 757
4 717 718 759 758
4 718 719 760 759
4 719 720 761 760
4 720 721 762 761
4 721 722 763 762
4 722 723 764 763
4 723 724 765 764
4 724 725 766 765
4 725 726 767 766
4 726 727 768 767
4 727 728 769 768
4 728 729 770 769
4 729 730 771 770
4 730 731 772 771
4 731 732 773 772
4 732 733 774 773
4 733 734 775 774
4 734 735 776 775
4 735 736 777 776
4 736 737 778 777
4 738 739 780 779
4 739 740 781 780
4 740 741 782 781
4 741 742 783 782
4 742 743 784 783
4 743 744 785 784
4 744 745 786 785
4 745 746 787 786
4 746 747 788 787
4 747 748 789 788
4 748 749 790 789
4 749 750 791 790
4 750 751 792 791
4 751 752 793 792
4 752 753 794 793
4 753 754 795 794
4 754 755 796 795
4 755 756 797 796
4 756 757 798 797
4 757 758 799 798
4 758 759 800 799
4 759 760 801 800
4 760 761 802 801
4 761 762 803 802
4 762 763 804 803
4 763 764 805 804
4 764 765 806 805
4 765 766 807 806
4 766 767 808 807
4 767 768 809 808
4 768 769 810 809
4 769 770 811 810
4 770 771 812 811
4 771 772 813 812
4 772 773 814 813
4 773 774 815 814
4 774 775 816 815
4 775 776 817 816
4 776 777 818 817
4 777 778 819 818
4 779 780 821 820
4 780 781 822 821
4 781 782 823 822
4 782 783 824 823
4 783 784 825 824
4 784 785 826 825
4 785 786 827 826
4 786 787 828 827
4 787 788 829 828
4 788 789 830 829
4 789 790 831 830
4 790 791 832 831
4 791 792 833 832
4 792 793 834 833
4 793 794 835 834
4 794 795 836 835
4 795 796 837 836
4 796 797 838 837
4 797 798 839 838
4 798 799 840 839
4 799 800 841 840
4 800 801 842 841
4 801 802 843 842
4 802 803 844 843
4 803 804 845 844
4 804 805 846 845
4 805 806 847 846
4 806 807 848 847
4 807 808 849 848
4 808 809 850 849
4 809 810 851 850
4 810 811 852 851
4 811 812 853 852
4 812 813 854 853
4 813 814 855 854
4 814 815 856 855
4 815 816 857 856
4 816 817 858 857
4 817 818 859 858
4 818 819 860 859
CELL_TYPES 800
9
9
9
9
9
9
9
9
9
9
9
9
9
9
9
9
9
9
9
9
9
9
9
9
9
9
9
9
9
9
9
9
9
9
9
9
9
9
9
9
9
9
9
9
9
9
9
9
9
9
9
9
9
9
9
9
9
9
9
9
9
9
9
9
9
9
9
9
9
9
9
9
9
9
9
9
9
9
9
9
9
9
9
9
9
9
9
9
9
9
9
9
9
9
9
9
9
9
9
9
9
9
9
9
9
9
9
9
9
9
9
9
9
9
9
9
9
9
9
9
9
9
9
9
9
9
9
9
9
9
9
9
9
9
9
9
9
9
9
9
9
9
9
9
9
9
9
9
9
9
9
9
9
9
9
9
9
9
9
9
9
9
9
9
9
9
9
9
9
9
9
9
9
9
9
9
9
9
9
9
9
9
9
9
9
9
9
9
9
9
9
9
9
9
9
9
9
9
9
9
9
9
9
9
9
9
9
9
9
9
9
9
9
9
9
9
9
9
9
9
9
9
9
9
9
9
9
9
9
9
9
9
9
9
9
9
9
9
9
9
9
9
9
9
9
9
9
9
9
9
9
9
9
9
9
9
9
9
9
9
9
9
9
9
9
9
9
9
9
9
9
9
9
9
9
9
9
9
9
9
9
9
9
9
9
9
9
9
9
9
9
9
9
9
9
9
9
9
9
9
9
9
9
9
9
9
9
9
9
9
9
9
9
9
9
9
9
9
9
9
9
9
9
9
9
9
9
9
9
9
9
9
9
9
9
9
9
9
9
9
9
9
9
9
9
9
9
9
9
9
9
9
9
9
9
9
9
9
9
9
9
9
9
9
9
9
9
9
9
9
9
9
9
9
9
9
9
9
9
9
9
9
9
9
9
9
9
9
9
9
9
9
9
9
9
9
9
9
9
9
9
9
9
9
9
9
9
9
9
9
9
9
9
9
9
9
9
9
9
9
9
9
9
9
9
9
9
9
9
9
9
9
9
9
9
9
9
9
9
9
9
9
9
9
9
9
9
9
9
9
9
9
9
9
9
9
9
9
9
9
9
9
9
9
9
9
9
9
9
9
9
9
9
9
9
9
9
9
9
9
9
9
9
9
9
9
9
9
9
9
9
9
9
9
9
9
9
9
9
9
9
9
9
9
9
9
9
9
9
9
9
9
9
9
9
9
9
9
9
9
9
9
9
9
9
9
9
9
9
9
9
9
9
9
9
9
9
9
9
9
9
9
9
9
9
9
9
9
9
9
9
9
9
9
9
9
9
9
9
9
9
9
9
9
9
9
9
9
9
9
9
9
9
9
9
9
9
9
9
9
9
9
9
9
9
9
9
9
9
9
9
9
9
9
9
9
9
9
9
9
9
9
9
9
9
9
9
9
9
9
9
9
9
9
9
9
9
9
9
9
9
9
9
9
9
9
9
9
9
9
9
9
9
9
9
9
9
9
9
9
9
9
9
9
9
9
9
9
9
9
9
9
9
9
9
9
9
9
9
9
9
9
9
9
9
9
9
9
9
9
9
9
9
9
9
9
9
9
9
9
9
9
9
9
9
9
9
9
9
9
9
9
9
9
9
9
9
9
9
9
9
9
9
9
9
9
9
9
9
9
9
9
9
9
9
9
9
9
9
9
9
9
9
9
9
9
9
9
9
9
9
9
9
9
9
9
9
9
9
9
9
9
9
9
9
9
9
9
9
9
9
9
9
9
9
9
9
9
9
9
9
9
9
9
9
9
9
9
9
9
9
9
9
9
9
9
9
9
9
9
9
9
9
9
9
9
9
9
9
9
9
9
9
9
9
9
9
9
9
9
POINT_DATA 861
SCALARS Disp float 2
LOOKUP_TABLE default
0.0 0.0
0.005415053761385737 -0.21325121825116258
0.006647643956600286 -0.417843969914062
0.007413470324740026 -0.6214907438771033
0.008378237587897939 -0.824799804029416
0.00987415038592996 -1.0274178743644669
0.012422890536035352 -1.2288814805656314
0.016644258131241575 -1.428612079649556
0.023262348551070823 -1.625890383751097
0.03306480701031583 -1.8197877898487034
0.04684440783663388 -2.009056551052984
0.0653675925860995 -2.192054044765971
0.08936112079265654 -2.3667514012927184
0.11950408396088523 -2.530823533995178
0.15642819483920742 -2.6817214648861163
0.20065206549062561 -2.816726370158401
0.25245738103186643 -2.933013793576952
0.3117346899193546 -3.027760210043349
0.3778458233866941 -3.0983329389218444
0.44955900954307193 -3.1425312332266806
0.5248958777905695 -3.158842517237407
0.6002327460380622 -3.142531233226583
0.6719459321944254 -3.0983329389216463
0.7380570656617393 -3.0277602100430636
0.7973343745491952 -2.9330137935765945
0.849139690090402 -2.8167263701579928
0.8933635607417859 -2.6817214648856686
0.9302876716200738 -2.530823533994703
0.9604306347882666 -2.3667514012922317
0.9844241629947905 -2.1920540447654884
1.0029473477442261 -2.009056551052517
1.0167269485705195 -1.8197877898482635
1.0265294070297448 -1.6258903837506902
1.0331474974495598 -1.4286120796491888
1.037368865044756 -1.2288814805653065
1.039917605194855 -1.0274178743641913
1.0414135179928845 -0.82479980402919
1.0423782852560417 -0.6214907438769299
1.0431441116241813 -0.4178439699139398
1.0443767018193943 -0.21325121825109433
1.049791755580777 0.0
0.05319586757532235 -0.002278043112973396
0.056948596798188006 -0.21347872752784386
0.05760019300463232 -0.4179051836300345
0.05828187351499268 -0.6215772393063078
0.05913336282565498 -0.8249305596124242
0.06041195291341013 -1.0276950923618577
0.0626090436947729 -1.2294455473339292
0.06631075058039719 -1.429629204042264
0.07219779050840282 -1.6275457712947625
0.08098969796135516 -1.8222696390341444
0.09339363403359131 -2.0125469953061015
0.1100783342742661 -2.196726598913844
0.13168137760717002 -2.3727718187403246
0.1588215894163921 -2.538349560477945
0.1920775287685674 -2.6908960922275162
0.23193366146184718 -2.8276546477561126
0.2786662323430107 -2.945727977287148
0.3322053800618633 -3.042183416746106
0.39200834083920905 -3.114250010950949
0.4569243131662313 -3.159566777737826
0.5248958777905574 -3.1763362416988614
0.592867442414879 -3.1595667777377265
0.6577834147418876 -3.1142500109507467
0.7175863755192111 -3.0421834167458135
0.7711255232380354 -2.9457279772867824
0.817858094119169 -2.8276546477556965
0.8577142268124176 -2.6908960922270606
0.8909701661645617 -2.5383495604774624
0.9181103779737521 -2.37277181873983
0.9397134213066259 -2.196726598913354
0.9563981215472738 -2.0125469953056285
0.9688020576194873 -1.8222696390336997
0.977593965072422 -1.627545771294352
0.9834810050004147 -1.429629204041894
0.9871827118860297 -1.2294455473336028
0.9893798026673873 -1.0276950923615813
0.9906583927551402 -0.8249305596121981
0.9915098820658022 -0.6215772393061343
0.9921915625761623 -0.41790518362991236
0.9928431587826065 -0.21347872752777525
0.9965958880054667 -0.002278043112970952
0.10546071401656557 -0.004077933046720791
0.10819729542725859 -0.21359025474519575
0.1085728530068419 -0.4179396081324836
0.1091297752821919 -0.6216537260609647
0.10987658644323396 -0.8250363851502627
0.11096012982721916 -1.0279146123369243
0.11281254502929036 -1.2299117380613414
0.11599678561010793 -1.430499448138169
0.12114063464077604 -1.6289925111355974
0.12889838643142612 -1.8244630839531504
0.13989532261116283 -2.015647373934362
0.15471157542335973 -2.200884268372713
0.17389820187195248 -2.378132876082092
0.19800007654336643 -2.5450577610740277
0.22754684007315604 -2.6990830697269277
0.2629872313419317 -2.837420062108984
0.304599979063714 -2.957109264179691
0.3523716161595978 -3.055121846677315
0.4058533391982544 -3.128557077881667
0.46396740342666715 -3.1748686963227413
0.5248958777905457 -3.1920553252774
0.5858243521544202 -3.17486869632264
0.6439384163828207 -3.1285570778814606
0.6974201394214574 -3.0551218466770167
0.7451917765173168 -2.957109264179319
0.7868045242390727 -2.837420062108561
0.8222449155078203 -2.6990830697264645
0.8517916790375819 -2.5450577610735374
0.875893553708968 -2.3781328760815903
0.8950801801575343 -2.200884268372216
0.9098964329697071 -2.015647373933883
0.9208933691494237 -1.824463083952701
0.9286511209400578 -1.6289925111351833
0.9337949699707142 -1.4304994481377966
0.9369792105515238 -1.2299117380610136
0.9388316257535906 -1.0279146123366474
0.9399151691375742 -0.8250363851500363
0.9406619802986158 -0.6216537260607912
0.9412189025739659 -0.41793960813236153
0.9415944601535492 -0.2135902547451268
0.944331041564237 -0.004077933046715675
0.15723665831099912 -0.005520966002640741
0.159294234566096 -0.21366594951192708
0.15952395758126775 -0.4179588616416773
0.1599599929758331 -0.6217162983301998
0.16060259939929206 -0.8251244065371774
0.16151510729622742 -1.0280836541985952
0.1630425910515214 -1.2302832949721347
0.16571450899397078 -1.4312240642368455
0.17011103885884357 -1.630228219652484
0.17682053570207715 -1.8263635157820692
0.18639070989265033 -2.018352091552831
0.19931699922757015 -2.2045224184617975
0.21606834975016834 -2.3828302358118525
0.2371142110600458 -2.5509414666853987
0.26292168952588213 -2.7062738433310116
0.2939107673089668 -2.846013048319315
0.3303662035402196 -2.967148932147664
0.37233097545438254 -3.06656977311053
0.419456197289542 -3.141248989460918
0.47082706719978873 -3.1884726177947464
0.5248958777905345 -3.2060798224982303
0.5789646883812766 -3.188472617794643
0.6303355582915122 -3.1412489894607076
0.677460780126654 -3.0665697731102264
0.719425552040796 -2.967148932147286
0.7558809882720255 -2.8460130483188846
0.7868700660550855 -2.7062738433305418
0.8126775445208971 -2.550941466684902
0.8337234058307502 -2.382830235811344
0.8504747563533255 -2.204522418461295
0.8634010456882245 -2.0183520915523467
0.8729712198787798 -1.8263635157816156
0.8796807167219992 -1.630228219652067
0.8840772465868617 -1.4312240642364709
0.8867491645293044 -1.2302832949718057
0.8882766482845947 -1.0280836541983178
0.8891891561815289 -0.825124406536951
0.8898317626049876 -0.6217162983300263
0.890267797999553 -0.41795886164155527
0.8904975210147248 -0.2136659495118578
0.8925550972698171 -0.005520966002633203
0.2087324450242885 -0.006684231172702208
0.21028577169269394 -0.21372565219030842
0.2104358650792537 -0.4179699376146632
0.2107694227483023 -0.6217649650333221
0.21130825116034135 -0.8251976345731948
0.21206866367821034 -1.0282131598873339
0.21330530469090717 -1.2305674023383737
0.215475548445061 -1.4318056470820912
0.2191293763294592 -1.6312533505832711
0.22478616232099358 -1.827969027433141
0.232919832124421 -2.0206586428335305
0.24394604472166967 -2.207638379224945
0.258251273656021 -2.386861670397193
0.2762299796952786 -2.5559982927129994
0.29829005405538916 -2.7124638130566403
0.3248081595398052 -2.8534270538964805
0.356073221995538 -2.975838735407939
0.39218661275925487 -3.076517161560615
0.43292314039511426 -3.1523256552124264
0.47758002106629865 -3.2004048854677243
0.5248958777905235 -3.2184545497033556
0.5722117345147449 -3.2004048854676195
0.6168686151859192 -3.1523256552122128
0.6576051428217632 -3.0765171615603073
0.6937185335854621 -2.975838735407556
0.7249835960411748 -2.8534270538960453
0.7515017015255696 -2.7124638130561647
0.7735617758856588 -2.5559982927124967
0.7915404819248955 -2.38686167039668
0.8058457108592273 -2.207638379224437
0.8168719234564584 -2.020658642833042
0.8250055932598703 -1.827969027432684
0.8306623792513925 -1.6312533505828515
0.8343162071357819 -1.4318056470817146
0.8364864508899302 -1.230567402338044
0.8377230919026245 -1.028213159887056
0.8384835044204925 -0.8251976345729685
0.8390223328325314 -0.6217649650331486
0.8393558905015801 -0.41796993761454126
0.8395059838881398 -0.21372565219023887
0.8410593105565413 -0.006684231172692566
0.26004277519226854 -0.007616359600289201
0.26120333005115226 -0.21377603841310353
0.2613068209485811 -0.41797761535683353
0.26155536505333926 -0.6218009149317149
0.26199082247260014 -0.8252580918967507
0.2626147364548129 -1.0283121806638202
0.2635927293719406 -1.230776458918479
0.2652982069226113 -1.4322492820697614
0.26821628877475867 -1.632070631136731
0.27282564285667943 -1.8292807289205157
0.2795233161283069 -2.0225670313876942
0.2886482848181483 -2.2102324128126805
0.3005084725907457 -2.390227590704099
0.31542223031182814 -2.56022849722639
0.3337320626782636 -2.7176532248894545
0.3557786736007727 -2.8596597992418364
0.3818377929146298 -2.9831713534523123
0.41205663676675114 -3.084953695835665
0.4463584935420712 -3.1617834047221285
0.4842900107856731 -3.2106780703829543
0.5248958777905124 -3.229205868140464
0.5655017447953488 -3.2106780703828472
0.6034332620389415 -3.1617834047219118
0.6377351188142489 -3.0849536958353534
0.6679539626663548 -2.983171353451925
0.6940130819801948 -2.859659799241396
0.716059692902686 -2.7176532248889744
0.7343695252691039 -2.5602284972258826
0.749283282990169 -2.3902275907035815
0.7611434707627502 -2.210232412812168
0.7702684394525768 -2.022567031387202
0.7769661127241915 -1.8292807289200559
0.781575466806102 -1.632070631136309
0.7844935486582423 -1.4322492820693833
0.7861990262089087 -1.2307764589181485
0.7871770191260344 -1.0283121806635425
0.7878009331082466 -0.8252580918965243
0.7882363905275073 -0.6218009149315413
0.7884849346322654 -0.41797761535671163
0.7885884255296942 -0.21377603841303375
0.7897489803885748 -0.007616359600277807
0.3112179359396452 -0.008354640613181157
0.31206872289769294 -0.21381949301222858
0.31214158224894556 -0.417984327976586
0.31231748923160974 -0.6218255622531544
0.3126505397227319 -0.8253064246870274
0.313147025560706 -1.028387717837331
0.313895308598339 -1.2309248748531811
0.31517882744439246 -1.4325685785000188
0.3173971839095109 -1.632685573627428
0.3209704074031109 -1.8303025036450538
0.326243034506932 -2.02408041036228
0.3334759403379887 -2.212307506794666
0.34290138563193157 -2.3929315868475194
0.3547634330714253 -2.5636360822610675
0.36933928511286357 -2.7218451549686833
0.386920909401912 -2.864713214202851
0.40777140168806786 -2.9891438990299695
0.43207051353631587 -3.0918694125418336
0.45987763903168327 -3.16961150779731
0.49102185027031653 -3.2192904766360178
0.5248958777905011 -3.238344642936377
0.5587699053106832 -3.219290476635909
0.5899141165493087 -3.169611507797091
0.6177212420446658 -3.0918694125415183
0.6420203538929012 -2.989143899029578
0.662870846179043 -2.8647132142024065
0.6804524704680768 -2.721845154968199
0.695028322509501 -2.5636360822605564
0.7068903699489815 -2.3929315868469976
0.7163158152429113 -2.2123075067941502
0.7235487210739563 -2.024080410361785
0.728821348177767 -1.8303025036445915
0.7323945716713591 -1.6326855736270038
0.734612928136472 -1.4325685784996396
0.7358964469825224 -1.23092487485285
0.736644730020154 -1.0283877178370533
0.7371412158581279 -0.8253064246868008
0.7374742663492497 -0.6218255622529809
0.737650173331914 -0.41798432797646407
0.7377230326831664 -0.21381949301215866
0.7385738196412117 -0.008354640613168264
0.3622918656698258 -0.008928884811224709
0.36289826890221 -0.21385791744108465
0.36294705869052146 -0.41799059828085544
0.36305740662384156 -0.621840263818378
0.3632898134532532 -0.8253420599764119
0.3636597918435458 -1.0284448985658512
0.36420787740608773 -1.231025187980995
0.36511132829959125 -1.4327815800844044
0.36668173487374633 -1.6331121949048004
0.36925659306860154 -1.8310420328387151
0.37312334810443565 -2.0252050409324114
0.37848190105057516 -2.213869847977035
0.38549415834545137 -2.3949807164017565
0.39433023967232533 -2.5662288826036583
0.40519793699001194 -2.7250473853002157
0.41833881624163816 -2.868592931798681
0.43399381850223834 -2.993758033480403
0.45235810826490513 -3.0972571685268813
0.47360483010239995 -3.175792373220524
0.49784947071068636 -3.2262246509523846
0.5248958777904894 -3.2458657663587696
0.5519422848702908 -3.226224650952275
0.5761869254785713 -3.1757923732203035
0.597433647316058 -3.0972571685265637
0.615797937078715 -2.9937580334800087
0.631452939339304 -2.8685929317982337
0.6445938185909191 -2.7250473852997286
0.6554615159085954 -2.5662288826031445
0.6642975972354598 -2.394980716401232
0.6713098545303264 -2.2138698479765173
0.6766684074764572 -2.025205040931914
0.6805351625122836 -1.8310420328382508
0.6831100207071331 -1.633112194904375
0.6846804272812843 -1.4327815800840242
0.6855838781747858 -1.2310251879806642
0.686131963737327 -1.028444898565573
0.6865019421276194 -0.8253420599761854
0.6867343489570308 -0.6218402638182045
0.6868446968903508 -0.41799059828073354
0.6868934866786621 -0.21385791744101468
0.6874998899110447 -0.008928884811210644
0.4132847932899626 -0.009367465526409529
0.41370728660219885 -0.213892934679263
0.4137295339440001 -0.4179956476196058
0.41377808806006555 -0.6218460897816921
0.41391276765321006 -0.8253643772872813
0.414152066395361 -1.0284854871959226
0.41451623190042697 -1.2310903964344477
0.41508899633967944 -1.4329086433597547
0.4160704155983145 -1.633372713060628
0.41770706175566874 -1.831516052638539
0.42021092705575197 -2.0259523407785425
0.42372648559182163 -2.214930031676935
0.42835467071391803 -2.3963863213807177
0.43420052108290785 -2.568019551064652
0.44140089452434245 -2.7272724392734253
0.4501359910202495 -2.871309657630696
0.46061935324147335 -2.997021834292305
0.47306337353090006 -3.101115037359945
0.4876900315346613 -3.180303618802975
0.5048648329621633 -3.2314457141021604
0.5248958777904775 -3.2517464354007783
0.5449269226187905 -3.2314457141020494
0.5621017240462886 -3.180303618802753
0.5767283820500438 -3.1011150373596252
0.5891724023394637 -2.997021834291909
0.5996557645606799 -2.871309657630246
0.6083908610565796 -2.7272724392729355
0.6155912344980076 -2.568019551064136
0.6214370848669917 -2.3963863213801915
0.6260652699890819 -2.214930031676415
0.6295808285251459 -2.0259523407780438
0.6320846938252241 -1.8315160526380736
0.6337213399825748 -1.6333727130602018
0.6347027592412077 -1.432908643359374
0.635275523680459 -1.2310903964341162
0.6356396891855245 -1.0284854871956446
0.6358789879276754 -0.8253643772870546
0.6360136675208198 -0.6218460897815186
0.6360622216368851 -0.4179956476194838
0.6360844689786861 -0.21389293467919301
0.6365069622909213 -0.0093674655263946
0.46421045161919544 -0.009699400805612162
0.464503463504615 -0.2139266971124832
0.4644948198406668 -0.41799781464349134
0.46448348780972243 -0.6218438210640481
0.4645234090926398 -0.8253733951171416
0.46462960047434393 -1.0285083351386592
0.4648090539912101 -1.2311286716475405
0.46509195180182206 -1.432973448826058
0.4655546872123903 -1.6334984942145316
0.46633168077167436 -1.8317543938286995
0.4675413491394566 -2.0263463777753934
0.46926696573853405 -2.215508077315371
0.47155268908878273 -2.3971673783342395
0.4744498648398641 -2.569028376233575
0.47803092145566195 -2.7285411871607366
0.48240564079239945 -2.872881664558106
0.4877441473863032 -2.998949778679639
0.49428054236336555 -3.1034547930245013
0.5022938201931727 -3.1831295635048686
0.5122095886484536 -3.234899083158957
0.5248958777904652 -3.2559383652569593
0.5375821669324763 -3.2348990831588456
0.5474979353877552 -3.1831295635046457
0.5555112132175586 -3.1034547930241803
0.5620476081946171 -2.9989497786792416
0.567386114788517 -2.8728816645576543
0.5717608341252512 -2.728541187160246
0.5753418907410465 -2.569028376233059
0.5782390664921255 -2.397167378333713
0.5805247898423715 -2.215508077314849
0.5822504064414464 -2.026346377774894
0.5834600748092267 -1.8317543938282335
0.5842370683685094 -1.633498494214105
0.5846998037790768 -1.4329734488256771
0.5849827015896882 -1.2311286716472092
0.5851621551065542 -1.0285083351383812
0.5852683464882583 -0.8253733951169149
0.5853082677711756 -0.6218438210638746
0.5852969357402312 -0.41799781464336927
0.5852882920762829 -0.21392669711241324
0.5855813039617017 -0.009699400805596612
0.5150851702506832 -0.009949363073192243
0.5152871114996986 -0.21396140395432336
0.5152478451170981 -0.4179956264257317
0.5151781405753227 -0.6218339729664655
0.5151259795140513 -0.8253693353981624
0.5150996302114873 -1.028512740082885
0.5150896992626705 -1.231140753331104
0.5150867914960308 -1.4329939999679153
0.5150861137562955 -1.633533602992942
0.5150862504824517 -1.831815550114484
0.5150864838809763 -2.026446954720264
0.5150860803227865 -2.215657476171543
0.5150807507060634 -2.3973743237765115
0.5150670716344957 -2.569303646072437
0.515051336439986 -2.7289004677138182
0.5150780517661917 -2.87335179743022
0.5152732299349657 -2.999577964786181
0.5158964933024388 -3.1043121498221606
0.5173331245391617 -3.1843026070142533
0.5200142338880592 -3.2365388758467684
0.5248958777904522 -3.258364542703109
0.5297775216928458 -3.2365388758466573
0.5324586310417427 -3.1843026070140295
0.5338952622784645 -3.104312149821839
0.5345185256459375 -2.9995779647857836
0.5347137038147122 -2.873351797429768
0.5347404191409185 -2.728900467713327
0.5347246839464098 -2.5693036460719205
0.5347110048748435 -2.3973743237759844
0.5347056752581216 -2.215657476171021
0.5347052716999329 -2.026446954719764
0.5347055050984582 -1.8318155501140176
0.5347056418246148 -1.6335336029925154
0.5347049640848799 -1.4329939999675345
0.5347020563182402 -1.2311407533307728
0.5346921253694233 -1.028512740082607
0.5346657760668597 -0.8253693353979357
0.5346136150055882 -0.621833972966292
0.5345439104638128 -0.4179956264256095
0.5345046440812122 -0.21396140395425348
0.5347065853302272 -0.009949363073176275
0.5659200041555376 -0.010140498435184418
0.5660594137034405 -0.21399607351785424
0.5659925254281554 -0.41798898621344505
0.5658667822739283 -0.6218167297445509
0.5657253000404289 -0.8253526371532012
0.5655685763139281 -1.0284986348614003
0.5653701700021865 -1.231126090917397
0.5650812808054365 -1.4329728862221536
0.564617307343891 -1.6334984609781567
0.5638407771152747 -1.8317544359501605
0.5626320021694918 -2.0263464847480908
0.5609046518714477 -2.2155067848492864
0.5586076094879604 -2.397163067103315
0.555683207528185 -2.5690207439431
0.5520731129207593 -2.728539826876214
0.5477555208775631 -2.8729220958093062
0.5428008093677613 -2.999115210357694
0.5374402761817411 -3.103892491321634
0.5320809749206545 -3.184012813428105
0.527322683636694 -3.2364793033366737
0.5248958777904393 -3.259133786069326
0.5224690719441843 -3.2364793033365626
0.5177107806602238 -3.1840128134278816
0.51235147939914 -3.103892491321313
0.5069909462131245 -2.999115210357297
0.5020362347033281 -2.872922095808855
0.49771864266013627 -2.7285398268757235
0.49410854805271526 -2.5690207439425845
0.49118414609294486 -2.397163067102788
0.48888710370946287 -2.215506784848765
0.4871597534114231 -2.0263464847475916
0.48595097846564417 -1.8317544359496942
0.4851744482370299 -1.6334984609777303
0.48471047477548584 -1.4329728862217728
0.4844215855787366 -1.2311260909170658
0.48422317926699526 -1.0284986348611223
0.4840664555404949 -0.8253526371529745
0.4839249733069956 -0.6218167297443772
0.4837992301527685 -0.4179889862133228
0.4837323418774834 -0.21399607351778438
0.48387175142538624 -0.010140498435168257
0.6167288179625853 -0.01028734783361446
0.6168246512167715 -0.21402869084392245
0.6167329416201104 -0.4179782868704335
0.616554340994342 -0.6217923417796151
0.6163270267880423 -0.8253239092163123
0.6160430197367518 -1.0284663970983314
0.6156612792665038 -1.2310852350536496
0.615083049631568 -1.4329074391464822
0.6141010458101807 -1.6333726855529487
0.6124657097822225 -1.8315163192788333
0.6099623675882568 -2.0259522946252058
0.606444315618282 -2.2149271977795046
0.601805965990643 -2.3963773493646374
0.5959368331781104 -2.5680041676412766
0.5887126254307558 -2.727270223442251
0.580033872449923 -2.8713922145855606
0.5699083506497749 -2.997352034878151
0.5585314149525655 -3.1019716849276113
0.5463588665928856 -3.182065776230014
0.5344341835148738 -3.234825352450847
0.5248958777904268 -3.2584138033340806
0.5153575720659797 -3.2348253524507355
0.5034328889879697 -3.1820657762297913
0.4912603406282947 -3.101971684927291
0.4798834049310938 -2.9973520348777556
0.4697578831309549 -2.8713922145851103
0.46107913015013097 -2.727270223441762
0.4538549224027843 -2.568004167640762
0.4479857895902604 -2.3963773493641125
0.44334743996263 -2.2149271977789846
0.4398293879926632 -2.0259522946247075
0.43732604579870454 -1.8315163192783679
0.43569070977075053 -1.633372685552523
0.43470870594936617 -1.4329074391461019
0.4341304763144317 -1.2310852350533181
0.43374873584418444 -1.0284663970980537
0.43346472879289427 -0.8253239092160857
0.43323741458659476 -0.6217923417794414
0.43305881396082646 -0.41797828687031124
0.4329671043641654 -0.2140286908438526
0.43306293761835163 -0.010287347833598135
0.66752762208925 -0.01039696842859319
0.6675881200516791 -0.21405767264105946
0.6674739055655453 -0.41796383266432074
0.6672459464668613 -0.6217612243212682
0.6669364107730857 -0.8252838574707905
0.6665304774507418 -1.0284171721959736
0.6659668078523203 -1.2310170958813504
0.6650588498980303 -1.432779811710377
0.6634899530475847 -1.633112493889212
0.6609166221975457 -1.8310425339690952
0.6570495233246265 -2.02520461832892
0.6516880688391771 -2.213865564805266
0.6446691405799091 -2.394968202503554
0.6358204435242588 -2.5662079145571397
0.6249423288139652 -2.7250455597722607
0.6118503131132883 -2.868712082171679
0.5964703248057764 -2.994228792847527
0.5789694218135303 -3.09848237911589
0.5599788914144027 -3.1784148216782486
0.5409420135491816 -3.231441745271937
0.5248958777904146 -3.256238177521396
0.5088497420316482 -3.231441745271826
0.4898128641664305 -3.1784148216780266
0.47082233376731025 -3.0984823791155716
0.4533214307750756 -2.9942287928471343
0.4379414424675764 -2.8687120821712324
0.4248494267669121 -2.7250455597717735
0.41397131205663007 -2.566207914556628
0.4051226150009922 -2.3949682025030317
0.3981036867417362 -2.2138655648047485
0.3927422322562982 -2.025204618328424
0.38887513338338875 -1.8310425339686316
0.3863018025333564 -1.6331124938887873
0.3847329056829153 -1.432779811709997
0.3838249477286277 -1.2310170958810192
0.3832612781302072 -1.0284171721956958
0.3828553448078637 -0.825283857470564
0.3825458091140883 -0.6217612243210946
0.3823178500154044 -0.4179638326641985
0.38220363552927084 -0.21405767264098965
0.3822641334916999 -0.010396968428576745
0.7183263438961567 -0.010475094646599833
0.7183561329506342 -0.2140815895044479
0.7182203569646054 -0.4179457792430767
0.7179460458424314 -0.6217238674981478
0.7175581470945693 -0.8252334178896971
0.7170370257539539 -1.0283519194169282
0.7162752327586078 -1.2309136854753955
0.7149910831888183 -1.4325669068198865
0.7127753231229267 -1.6326864496409386
0.7092031024513448 -1.8303030572458907
0.7039290388219663 -2.024079377921599
0.6966933752606267 -2.212302138959204
0.6872667661410137 -2.392917721415148
0.675408989744362 -2.563614010063469
0.6608454072336121 -2.721846371964848
0.6433005126015863 -2.864857231428927
0.6226078527749801 -2.9897133765923263
0.5989386337499998 -3.0934024280800383
0.5731293257361687 -3.1730503251494655
0.54715792494115 -3.2263927058463984
0.5248958777904025 -3.252678745671492
0.5026338306396567 -3.2263927058462873
0.47666242984464324 -3.1730503251492452
0.4508531218308219 -3.0934024280797225
0.42718390280585566 -2.9897133765919373
0.4064912429792652 -2.8648572314284833
0.3889463483472558 -2.7218463719643644
0.374382765836521 -2.56361401006296
0.3625249894398853 -2.3929177214146287
0.3530983803202878 -2.2123021389586897
0.3458627167589628 -2.024079377921106
0.3405886531295966 -1.8303030572454293
0.33701643245802365 -1.632686449640515
0.3348006723921381 -1.4325669068195075
0.33351652282235233 -1.2309136854750649
0.3327547298270078 -1.0283519194166504
0.33223360848639294 -0.8252334178894705
0.3318457097385313 -0.6217238674979743
0.3315713986163574 -0.41794577924295445
0.33143562263032883 -0.21408158950437814
0.33146541168480625 -0.010475094646583284
0.7691316535838105 -0.010527032941258478
0.7691345486696902 -0.21409940505434555
0.7689775161695619 -0.4179241241146656
0.7686595818718865 -0.6216807439854528
0.7681985838636948 -0.8251739737085797
0.7675625713985275 -1.0282693813911357
0.7665767163660716 -1.230763007119558
0.7648726463359247 -1.432248349591337
0.7619572958435904 -1.6320720384608423
0.7573478726091242 -1.8292810712501035
0.750647945864398 -2.022565247315544
0.7415210052275334 -2.2102265571447695
0.7296664673958183 -2.3902152552954496
0.7147767977358065 -2.5602114743054236
0.6965075316972765 -2.717661690376268
0.6744921980274492 -2.8598153023701833
0.6484858231046865 -2.983795066160572
0.6186672294907888 -3.0867263028293173
0.586102456541354 -3.1659883910635447
0.5533167931784483 -3.2197186790150707
0.5248958777903906 -3.247753107952465
0.4964749624023355 -3.219718679014961
0.46368929903943695 -3.165988391063326
0.43112452609001417 -3.086726302829005
0.4013059324761335 -2.983795066160187
0.37529955755338934 -2.859815302369744
0.3532842238835816 -2.717661690375788
0.335014957845071 -2.5602114743049196
0.32012528818507835 -2.390215255294935
0.30827075035338236 -2.210226557144259
0.29914380971653526 -2.022565247315055
0.292443882971824 -1.8292810712496448
0.28783445973736893 -1.6320720384604208
0.28491910924504266 -1.432248349590959
0.28321503921490054 -1.2307630071192277
0.2822291841824469 -1.028269381390858
0.2815931717172805 -0.8251739737083531
0.28113217370908894 -0.6216807439852792
0.28081423941141387 -0.41792412411454344
0.2806572069112858 -0.2140994050542758
0.28066010199716546 -0.010527032941241861
0.8199482611228706 -0.010557914248331635
0.8199283678375213 -0.21411056910541224
0.8197507173157951 -0.4178987750602298
0.819391513834167 -0.6216324630386696
0.8188609207838047 -0.825106166890897
0.8181024737167462 -1.028164988966301
0.8168651889554899 -1.2305528955323806
0.814697595468513 -1.4318056100204775
0.8110450736190075 -1.6312550131656456
0.8053870377207171 -1.8279689093171727
0.7972507149919373 -2.0206561140729833
0.7862243616111063 -2.2076328776408327
0.7719321288425953 -2.3868538796568584
0.7539952618489958 -2.5559926165631737
0.7320041431184199 -2.712485507319842
0.7055347157125346 -2.8535869142844397
0.6742702905859316 -2.976480927866193
0.6383868833204565 -3.078466788245605
0.5991584839472858 -3.1572467691553143
0.5595821403728928 -3.2114236532994185
0.524895877790379 -3.2414355123052583
0.49020961520786843 -3.21142365329931
0.4506332716334843 -3.1572467691550985
0.4114048722603284 -3.0784667882452963
0.3755214649948727 -2.976480927865813
0.34425703986829154 -2.8535869142840053
0.3177876124624291 -2.712485507319368
0.29579649373187605 -2.555992616562675
0.27785962673829906 -2.3868538796563485
0.2635673939698106 -2.2076328776403273
0.25254104058899995 -2.020656114072498
0.2444047178602376 -1.8279689093167177
0.23874668196196075 -1.6312550131652268
0.23509416011246478 -1.431805610020101
0.2329265666254941 -1.2305528955320508
0.23168928186424084 -1.0281649889660236
0.2309308347971835 -0.8251061668906705
0.23040024174682147 -0.6216324630384962
0.23004103826519373 -0.4178987750601077
0.22986338774346765 -0.21411056910534246
0.22984349445811844 -0.01055791424831498
0.8707792176778035 -0.010572861335010907
0.8707417011057993 -0.21411502023684545
0.8705453192351604 -0.4178697206848947
0.8701470391936892 -0.6215795597668878
0.8695481620156579 -0.8250300957482769
0.8686535068848014 -1.0280330315117243
0.8671319517762401 -1.2302690137131684
0.864461381516611 -1.4312244747154823
0.860063962703014 -1.6302297378782873
0.8533520525198095 -1.8263627565072083
0.8437794769825253 -2.0183490348218136
0.8308559202212001 -2.2045183552929664
0.8141246484821282 -2.3828296088867384
0.7931329859033793 -2.5509520074250327
0.7674174148288399 -2.706316245245982
0.7365213275922305 -2.8461826282174156
0.7001102301656663 -2.9677967153354388
0.6583309285903112 -3.0686536708937804
0.6125462240955754 -3.1468352710320766
0.5661050470425615 -3.2014773994700336
0.5248958777903677 -3.233663983828828
0.483686708538177 -3.201477399469927
0.43724553148517376 -3.1468352710318643
0.39146082699045515 -3.068653670893476
0.3496815254151226 -2.9677967153350644
0.3132704279885832 -2.8461826282169875
0.2823743407520001 -2.706316245245514
0.25665876967748696 -2.550952007424539
0.2356671070987641 -2.3828296088862344
0.21893583535971806 -2.2045183552924668
0.20601227859841603 -2.018349034821333
0.19643970306115174 -1.826362756506757
0.18972779287796268 -1.6302297378778712
0.1853303740643771 -1.4312244747151077
0.18265980380475536 -1.2302690137128398
0.18113824869619818 -1.0280330315114472
0.1802435935653432 -0.8250300957480505
0.17964471638731236 -0.6215795597667144
0.1792464363458413 -0.4178697206847727
0.17905005447520267 -0.2141150202367757
0.1790125379031985 -0.010572861334994223
0.9216257488252655 -0.010577074209999954
0.9215776913224563 -0.21411325967097072
0.9213670430079758 -0.4178371253874229
0.9209314798433836 -0.6215226031182896
0.9202613851545095 -0.8249439024051988
0.9192104839808637 -1.0278653730633598
0.9173674735903539 -1.2298980196855323
0.9141818786453292 -1.430499539484605
0.9090345081658985 -1.6289934420489964
0.9012734799433337 -1.8244616062729033
0.8902750061529511 -2.015644215631117
0.8754650684229704 -2.200882866474757
0.8563046776737571 -2.378141380407916
0.8322641266126297 -2.545087411091716
0.8028245580375917 -2.6991535749002002
0.7675364839839165 -2.8376182266571113
0.726119611206742 -2.957787699715904
0.6787105447487362 -3.057336882988847
0.6265286042231348 -3.1347588435809777
0.5730807301729395 -3.189815551851362
0.524895877790356 -3.224331893848279
0.4767110254077761 -3.189815551851257
0.4232631513575933 -3.1347588435807694
0.37108121083201173 -3.0573368829885483
0.32367214437403163 -2.957787699715536
0.28225527159688535 -2.83761822665669
0.24696719754323945 -2.699153574899739
0.21752762896823125 -2.545087411091229
0.19348707790713368 -2.3781413804074196
0.17432668715794916 -2.200882866474263
0.15951674942799468 -2.015644215630642
0.1485182756376339 -1.8244616062724566
0.1407572474150866 -1.6289934420485839
0.13560987693566912 -1.4304995394842328
0.13242428199065318 -1.2298980196852047
0.13058127160014832 -1.0278653730630831
0.12953037042650445 -0.8249439024049727
0.12886027573763087 -0.6215226031181161
0.12842471257303903 -0.41783712538730094
0.12821406425855875 -0.21411325967090095
0.12816600675574952 -0.010577074209983278
0.9724866074098382 -0.010575829332780593
0.9724384309973684 -0.2141065425596002
0.9722224984539848 -0.4178015863310895
0.9717505532514974 -0.6214615785392987
0.9709996367014753 -0.8248446816359108
0.9697642893306175 -1.0276501980505894
0.9675770695859722 -1.2294319985856272
0.9638700730933352 -1.4296280799771048
0.9579772947704219 -1.6275457231844417
0.9491815589309792 -1.8222674642777754
0.9367773231473036 -2.0125442978782946
0.9201026587119842 -2.1967290698013513
0.8985308916562074 -2.3727908207571047
0.8714561381118189 -2.5383998018943674
0.8383188346469373 -2.6910011168833448
0.798676894457211 -2.8279081213954904
0.7523521628268008 -2.9465012490972087
0.6996141536299856 -3.0446048529688436
0.6414844224866845 -3.121045557079482
0.5808312427090931 -3.1763265618733083
0.5248958777903441 -3.213260894102848
0.4689605128715992 -3.1763265618732057
0.4083073330940219 -3.1210455570792783
0.35017760195074377 -3.044604852968551
0.29743959275395754 -2.946501249096847
0.25111486112357906 -2.8279081213950765
0.2114729209338854 -2.691001116882891
0.17833561746903714 -2.5383998018938883
0.15126086392468208 -2.372790820756616
0.12968909686893723 -2.196729069800865
0.11301443243364671 -2.0125442978778265
0.10061019664999514 -1.8222674642773335
0.09181446081057174 -1.627545723184033
0.0859216824876734 -1.4296280799767351
0.08221468599504622 -1.2294319985853017
0.08002746625040687 -1.0276501980503134
0.07879211887955151 -0.8248446816356848
0.07804120232953007 -0.6214615785391253
0.0775692571270431 -0.4178015863309677
0.07735332458365969 -0.2141065425595305
0.07730514817118998 -0.01057582933276388
1.0233567347288495 -0.010574302896600402
1.0233248819468435 -0.21409740220855944
1.0231203308208463 -0.4177643376859642
1.0226099844037297 -0.6213952499566603
1.0217581821991464 -0.8247258881545757
1.0203112454461103 -1.0273791771824134
1.0177681938310152 -1.2288668932792428
1.0135381559849521 -1.4286091016480595
1.0069127340661517 -1.6258890490448445
0.9971060959199152 -1.8197849981293086
0.9833275407823331 -2.0090548985314127
0.9648176205995324 -2.192061454613166
0.9408595448911965 -2.366781932661538
0.9107862879529747 -2.530895544365414
0.8739947864757667 -2.681867468495639
0.8300503343374265 -2.817063770995032
0.7788709963403452 -2.9339655940031957
0.7209499768828287 -3.0305493977895086
0.6575119509960514 -3.1058657910496925
0.5905277193189762 -3.1608872721107657
0.5248958777903318 -3.1999999999999966
0.45926403626169204 -3.160887272110666
0.3922798045846322 -3.1058657910494936
0.32884177869788145 -3.0305493977892226
0.2709207592403982 -2.933965594002842
0.219741421243352 -2.817063770994627
0.17579696910504755 -2.6818674684951933
0.13900546762787666 -2.530895544364944
0.10893221068969192 -2.3667819326610573
0.0849741349813909 -2.1920614546126873
0.06646421479862222 -2.0090548985309513
0.05268565966106613 -1.8197849981288725
0.04287902151485058 -1.6258890490444402
0.0362535995960666 -1.4286091016476932
0.032023561750014494 -1.228866893278919
0.029480510134926415 -1.0273791771821383
0.02803357338189323 -0.82472588815435
0.027181771177310802 -0.621395249956487
0.026671424760194667 -0.41776433768584237
0.02646687363419744 -0.21409740220848966
0.02643502085219174 -0.010574302896583726
SCALARS Stress float 6
LOOKUP_TABLE default
-1168.2519642446541 -1963.7504065367004 -1489.3959923534458 -21.259427441252996 0.0 0.0
1301.1220601149398 759.4907535636365 956.6182757902801 -22.68044410768182 0.0 0.0
579.8770472149812 137.12790989567648 225.93681512319873 -39.27689885938613 0.0 0.0
474.04734784512885 22.869268745964384 152.22725694767163 -2.2816776766608196 0.0 0.0
590.396401393189 66.24218717932206 227.50853462949934 1.6471230521139897 0.0 0.0
696.0940759634728 108.90902523943586 336.81500442911897 1.655582115373873 0.0 0.0
811.94493730694 151.19392430342876 447.8446377205032 0.7507771585652492 0.0 0.0
928.2307676154408 209.35339799427484 551.455130247665 -0.5009278636286876 0.0 0.0
1051.6655622740277 280.49163016285064 653.7481386563344 -1.9675137926785558 0.0 0.0
1189.7462735434162 370.72060980277746 769.0742429255675 -3.5466123349712424 0.0 0.0
1347.520578621917 484.5388716286878 904.9602690244338 -5.089130531089393 0.0 0.0
1525.1824252098827 622.5083044586161 1062.484128482706 -6.374664132779777 0.0 0.0
1718.2086450998916 778.4801419657774 1236.5310841481728 -7.1826730146720354 0.0 0.0
1920.175680705315 945.8638225729142 1420.7493619793636 -7.819538518180323 0.0 0.0
2122.309553877833 1115.747056566196 1606.2951386456489 -8.246652444835462 0.0 0.0
2314.850053522185 1278.50342257904 1783.4999057523519 -8.425759398437341 0.0 0.0
2487.9777242100326 1424.8662304623367 1942.8777623031497 -8.205679835596193 0.0 0.0
2631.588454499077 1545.4340701418753 2074.7204333403483 -7.474004581961451 0.0 0.0
2741.968341987609 1637.2545465175235 2175.616730793194 -6.340849711460124 0.0 0.0
2806.4698515795803 1688.654368192666 2233.4372269233268 -7.195792226258857 0.0 0.0
2798.584827126272 1678.9518847053669 2224.9262902652154 -1.5348255999469984e-10 0.0 0.0
2806.469851578262 1688.6543681913702 2233.4372269223363 7.195792226371152 0.0 0.0
2741.968341986769 1637.254546516738 2175.616730792469 6.340849711432453 0.0 0.0
2631.5884544992264 1545.4340701421177 2074.720433340465 7.474004582038022 0.0 0.0
2487.9777242099776 1424.8662304623954 1942.8777623028968 8.205679835642805 0.0 0.0
2314.850053521198 1278.5034225781792 1783.4999057513105 8.425759398474884 0.0 0.0
2122.309553875978 1115.7470565645053 1606.2951386439793 8.246652444811653 0.0 0.0
1920.1756807040713 945.8638225718369 1420.7493619783327 7.819538518256039 0.0 0.0
1718.2086450972677 778.4801419633252 1236.531084146106 7.182673014743759 0.0 0.0
1525.1824252080105 622.5083044569571 1062.4841284812733 6.374664132566052 0.0 0.0
1347.520578621604 484.53887162862554 904.9602690239738 5.089130531237547 0.0 0.0
1189.7462735424665 370.7206098020672 769.0742429247531 3.5466123348771035 0.0 0.0
1051.6655622732947 280.49163016239237 653.7481386557363 1.9675137927372415 0.0 0.0
928.2307676144542 209.35339799356436 551.4551302468772 0.5009278638058952 0.0 0.0
811.9449373057765 151.19392430249974 447.8446377195983 -0.7507771585195613 0.0 0.0
696.0940759627109 108.90902523892083 336.8150044284523 -1.6555821152648686 0.0 0.0
590.3964013927359 66.24218717905703 227.50853462913685 -1.6471230522322795 0.0 0.0
474.04734784489233 22.86926874601097 152.22725694760396 2.281677676739542 0.0 0.0
579.8770472145133 137.12790989533045 225.93681512289896 39.27689885929877 0.0 0.0
1301.1220601145635 759.4907535633065 956.6182757897881 22.680444107894843 0.0 0.0
-1168.2519642417926 -1963.7504065340481 -1489.3959923507316 21.259427440271914 0.0 0.0
-1488.175904140611 -2254.2701518200142 -1761.4750322592656 -21.92187826519192 0.0 0.0
885.7984709895477 420.94330038169716 598.3703868645775 -31.546705182902294 0.0 0.0
403.66526398432205 54.62719386772463 135.9099440967488 -33.16282258840973 0.0 0.0
419.17679242742616 3.727492615342106 127.87139344322028 -16.077561715158716 0.0 0.0
525.466069591489 29.1251522646928 185.25560003790807 -15.753351038481137 0.0 0.0
621.1769168490878 40.896043806129455 268.3826514001559 -20.567107037733127 0.0 0.0
702.1621044547599 56.14979485268678 352.79290328405966 -22.64077478060792 0.0 0.0
780.464391535571 74.62224892553336 419.4588965252974 -23.22024668499135 0.0 0.0
853.2925043455247 94.45621795890347 471.27492954320286 -23.642120454010268 0.0 0.0
923.3878466017896 116.88600542132777 518.8930901025033 -24.185357211137987 0.0 0.0
992.9787930966671 143.16637601519145 567.1953230108484 -24.442487146030334 0.0 0.0
1063.2534642058927 173.45122188486607 617.5760305431734 -24.34194983378486 0.0 0.0
1133.4132373254465 207.6688030069412 669.7654500648403 -23.88777015393292 0.0 0.0
1200.9041668746627 240.98172175299732 720.1408901202057 -23.286175040550553 0.0 0.0
1259.8218178382965 268.08581642984495 763.1252921127555 -22.576810533410146 0.0 0.0
1305.412912697552 284.29633307239357 794.0006117989589 -21.56400334850866 0.0 0.0
1334.4980278387081 286.8490741777697 809.8005161463204 -20.001998171168374 0.0 0.0
1347.200834538236 276.5383083427293 810.9870823262968 -17.804069020236966 0.0 0.0
1341.206277687509 251.97542243010233 795.8040905553613 -15.337512467921034 0.0 0.0
1288.0761161916143 186.03730991448896 736.9394283361561 -14.550550129803524 0.0 0.0
1195.4483030579931 92.15663175209754 644.8307456133236 -1.3746692673066718e-10 0.0 0.0
1288.0761161900107 186.03730991290672 736.9394283349703 14.550550129856935 0.0 0.0
1341.2062776871337 251.97542242978164 795.8040905550333 15.337512467906954 0.0 0.0
1347.2008345393567 276.53830834394245 810.9870823272182 17.80406902024554 0.0 0.0
1334.4980278383687 286.8490741775317 809.8005161461008 20.00199817121237 0.0 0.0
1305.4129126978276 284.29633307279994 794.0006117990731 21.564003348591385 0.0 0.0
1259.8218178379923 268.08581642968744 763.125292112369 22.576810533347874 0.0 0.0
1200.9041668750097 240.9817217535329 720.1408901204088 23.286175040515815 0.0 0.0
1133.4132373241755 207.66880300584785 669.7654500639708 23.887770153986487 0.0 0.0
1063.2534642051162 173.4512218843177 617.5760305426774 24.341949833687686 0.0 0.0
992.9787930971949 143.16637601598194 567.1953230111857 24.442487146220532 0.0 0.0
923.387846601348 116.88600542112295 518.8930901021806 24.18535721106297 0.0 0.0
853.2925043451779 94.4562179588154 471.2749295429462 23.642120454028873 0.0 0.0
780.4643915349484 74.62224892522492 419.45889652484794 23.220246685084813 0.0 0.0
702.1621044539705 56.149794852161435 352.79290328343114 22.640774780673116 0.0 0.0
621.17691684844 40.896043805762666 268.3826513996177 20.567107037710024 0.0 0.0
525.4660695911673 29.125152264618038 185.25560003768027 15.753351038400778 0.0 0.0
419.1767924272633 3.7274926153306103 127.87139344317727 16.077561715146025 0.0 0.0
403.6652639842115 54.627193867703745 135.9099440967129 33.162822588391435 0.0 0.0
885.7984709889765 420.9433003812073 598.3703868639338 31.54670518296138 0.0 0.0
-1488.1759041386267 -2254.2701518180083 -1761.475032257182 21.921878264456794 0.0 0.0
-1236.2495562351673 -1967.8588468492792 -1482.4720577175933 -60.28244034554112 0.0 0.0
692.4619201754218 330.32945362100463 454.2405349182205 -99.36094744073169 0.0 0.0
282.81850238346385 62.25913994450116 103.52723789827684 -35.43559178779639 0.0 0.0
359.28594163989777 0.24487946136662941 107.65501691427987 -37.18035191154475 0.0 0.0
480.24311872466035 20.131751402444294 158.9794086319484 -38.06610255415185 0.0 0.0
588.430855560746 36.25912714654643 238.87954173490658 -39.80021144913129 0.0 0.0
673.133695585184 52.3267735621267 328.0802996438828 -42.36664512155456 0.0 0.0
752.4595190613331 67.29645197129051 398.1495496921191 -43.490796290415595 0.0 0.0
823.1949055630977 84.19241749257394 449.992295964876 -44.49820069912273 0.0 0.0
889.7272018986951 102.73187817445232 494.52903160734866 -45.39699449798208 0.0 0.0
955.5533263046118 125.59034846029171 539.3588283704 -45.569768748020294 0.0 0.0
1022.1422469212656 153.42226133216116 586.6861598564636 -44.94581428893199 0.0 0.0
1089.3600942977791 184.20795704350053 635.7024698448837 -43.97131361573311 0.0 0.0
1152.942352267337 214.8668498011045 682.8241550498533 -42.78744764368334 0.0 0.0
1209.276212778379 239.85350720865785 723.4642703769462 -41.381518226898606 0.0 0.0
1253.6684210141607 255.22918679738956 753.3128532806282 -39.48923387102314 0.0 0.0
1283.741663657734 258.9320885983227 770.1796074958619 -36.73642292111586 0.0 0.0
1296.7898821806696 248.92442274905653 771.7448680956153 -33.10111503658701 0.0 0.0
1283.5143793748184 217.00316960802002 749.4032180141287 -29.13935565392055 0.0 0.0
1252.0829579788688 172.90464234340646 711.9988775591612 -25.463497054864582 0.0 0.0
1140.2023081239463 60.270890005661784 601.1677582938557 -1.524291803889355e-11 0.0 0.0
1252.0829579785018 172.90464234308266 711.9988775589508 25.463497054915294 0.0 0.0
1283.514379374653 217.00316960791076 749.4032180140151 29.139355654050117 0.0 0.0
1296.7898821814501 248.92442274990844 771.7448680962343 33.10111503654161 0.0 0.0
1283.7416636567534 258.93208859746164 770.1796074951136 36.73642292119165 0.0 0.0
1253.6684210154945 255.22918679886988 753.3128532816436 39.48923387111424 0.0 0.0
1209.2762127786716 239.8535072091023 723.4642703769681 41.3815182269424 0.0 0.0
1152.9423522672987 214.8668498012049 682.8241550498506 42.787447643621 0.0 0.0
1089.3600942970793 184.20795704297717 635.7024698444291 43.97131361571751 0.0 0.0
1022.1422469212392 153.42226133236804 586.6861598564506 44.94581428888861 0.0 0.0
955.5533263045581 125.59034846047015 539.3588283704345 45.56976874810574 0.0 0.0
889.7272018982154 102.7318781742122 494.5290316070254 45.39699449790714 0.0 0.0
823.1949055625093 84.19241749221163 449.9922959644494 44.49820069909184 0.0 0.0
752.4595190611913 67.29645197147377 398.14954969197356 43.49079629039896 0.0 0.0
673.1336955850139 52.32677356233983 328.08029964361964 42.36664512174211 0.0 0.0
588.4308555599455 36.25912714591118 238.87954173426508 39.80021144895143 0.0 0.0
480.2431187244469 20.13175140258101 158.97940863185988 38.06610255406031 0.0 0.0
359.2859416396538 0.24487946115949377 107.65501691416297 37.180351911456476 0.0 0.0
282.81850238346846 62.25913994437896 103.52723789824194 35.435591787782094 0.0 0.0
692.4619201748079 330.32945362065294 454.24053491760685 99.3609474405449 0.0 0.0
-1236.2495562332292 -1967.8588468472371 -1482.4720577154953 60.28244034525325 0.0 0.0
-1006.3279256227693 -1707.336006166676 -1230.1110642929852 -73.76175936392102 0.0 0.0
526.0464861832215 234.64545314580076 330.3764918071428 -144.9391293663449 0.0 0.0
206.55553278864429 55.194698470239274 78.52506937766508 -57.528896983220655 0.0 0.0
298.94926678019334 5.73148980360993 91.37294878815848 -58.40601002322033 0.0 0.0
425.2533423430769 10.546819982944108 133.02273058967458 -62.561090683439176 0.0 0.0
542.5716245787852 30.28608139725858 205.7682006440008 -60.57176799424338 0.0 0.0
641.4020133432176 46.33024346258297 297.7331117028552 -63.471986043641635 0.0 0.0
719.4979110764359 60.15222021854292 372.6323884756519 -64.05278532621074 0.0 0.0
789.0563181789724 74.10337110008078 426.0083841030153 -65.09947411956287 0.0 0.0
852.413687443977 89.15284797708175 468.3691607316801 -65.96485126443831 0.0 0.0
914.1741800056735 108.35604238844107 509.5872331188014 -65.82480209185483 0.0 0.0
977.2326499148871 132.612461288044 553.4026691649908 -64.767587403998 0.0 0.0
1040.7304074881622 161.1022771987269 599.4389228588109 -63.25993684835163 0.0 0.0
1101.054477212691 187.92021176782688 643.0335734131762 -61.64864887031477 0.0 0.0
1154.3499941977475 210.61897034986816 681.0203667458048 -59.6303441889331 0.0 0.0
1198.3516642681661 226.2070508308159 710.7830751205687 -56.9219075490937 0.0 0.0
1229.4828770121974 230.824758436538 728.6443848159513 -53.293397672875344 0.0 0.0
1242.4340172268503 220.47758723453975 730.04728061434 -48.687993987919896 0.0 0.0
1233.7329872986074 192.79530609323263 712.0857205894168 -43.05286636628858 0.0 0.0
1213.9055350874974 159.62712905475672 685.7947865207905 -35.18187766067213 0.0 0.0
1056.31098918055 1.4940710564742687 530.1471133022513 6.632205895584775e-11 0.0 0.0
1213.9055350871452 159.62712905442325 685.7947865206911 35.18187766077334 0.0 0.0
1233.732987298383 192.79530609307074 712.0857205893802 43.052866366440895 0.0 0.0
1242.4340172262325 220.47758723396848 730.047280613956 48.687993987877654 0.0 0.0
1229.4828770116217 230.82475843609365 728.6443848154261 53.293397672968226 0.0 0.0
1198.3516642684313 226.2070508311797 710.7830751208343 56.921907549105185 0.0 0.0
1154.349994198094 210.61897035037325 681.0203667459464 59.63034418901618 0.0 0.0
1101.0544772120284 187.92021176734625 643.0335734127531 61.64864887032607 0.0 0.0
1040.7304074868912 161.10227719755017 599.4389228579486 63.25993684826263 0.0 0.0
977.2326499156306 132.61246128901175 553.4026691654083 64.76758740392067 0.0 0.0
914.174180004905 108.35604238788913 509.58723311829334 65.8248020918301 0.0 0.0
852.4136874434478 89.1528479767629 468.3691607313003 65.96485126434465 0.0 0.0
789.056318178097 74.10337109946622 426.00838410245274 65.09947411956104 0.0 0.0
719.4979110765076 60.15222021894817 372.6323884755974 64.05278532623561 0.0 0.0
641.4020133426791 46.33024346234755 297.73311170236207 63.471986043648826 0.0 0.0
542.5716245780603 30.286081396836316 205.7682006434716 60.571767994149575 0.0 0.0
425.25334234271793 10.54681998298498 133.02273058956976 62.56109068324764 0.0 0.0
298.9492667800642 5.73148980336645 91.37294878804165 58.406010023166345 0.0 0.0
206.5555327886116 55.19469847007687 78.52506937760653 57.52889698313601 0.0 0.0
526.0464861827385 234.64545314560056 330.3764918066682 144.93912936613188 0.0 0.0
-1006.3279256209468 -1707.336006164752 -1230.1110642910448 73.76175936371926 0.0 0.0
-807.208106847385 -1480.933028450993 -1008.6845233159826 -73.02352737458175 0.0 0.0
403.2690379852427 151.6304518652802 234.51579156150706 -175.98421186396445 0.0 0.0
151.94773112418898 44.51197800237587 58.93791273796944 -87.29417055387782 0.0 0.0
244.76760047006695 11.922968958908768 77.00922746309206 -81.36410094067713 0.0 0.0
361.2909714231292 6.342376705778747 110.1788341302219 -87.22393282208101 0.0 0.0
488.8186386954462 18.244492630568416 169.77916221488053 -86.2314695199378 0.0 0.0
597.5130285349582 38.88092902942801 259.999155855975 -84.75764956397161 0.0 0.0
680.6914917227566 53.9279771393834 342.3807229429293 -85.00115170174263 0.0 0.0
750.0456694563223 64.54367790797681 398.5156144762261 -85.4280007156269 0.0 0.0
810.4860830783182 75.93126054556632 439.5846821107474 -85.8477760796437 0.0 0.0
868.7176316858353 91.25636513372473 477.6029164442999 -85.2546195922952 0.0 0.0
927.7031945436514 111.80995748654874 517.6519280115609 -83.7154183288028 0.0 0.0
987.5863045003837 136.48538935090596 560.0004340382029 -81.86470276418987 0.0 0.0
1044.3304293764152 161.41966594586796 600.9113018067686 -79.80428736376925 0.0 0.0
1095.0815590602338 181.48613339567245 636.3408142649857 -77.25190321019073 0.0 0.0
1137.677950816249 195.37688351501453 664.5478219582382 -73.93779913260373 0.0 0.0
1170.0334088633804 201.6096669427113 683.8369247281864 -69.69075409754072 0.0 0.0
1187.1023186256489 195.08476351702456 689.2051047557234 -64.38210710658525 0.0 0.0
1184.7469483019463 172.9398441963072 677.1552463776147 -56.960411987656514 0.0 0.0
1170.2748883466002 143.63449599306512 655.4200172724444 -45.196306789866505 0.0 0.0
956.1063040470548 -70.8268771718397 444.42737281902544 -2.2073010086387512e-11 0.0 0.0
1170.2748883464637 143.6344959930165 655.4200172723843 45.1963067900136 0.0 0.0
1184.7469483019534 172.9398441963625 677.1552463776663 56.96041198773449 0.0 0.0
1187.1023186250059 195.0847635164861 689.2051047553009 64.3821071066756 0.0 0.0
1170.033408863186 201.60966694259542 683.8369247278508 69.69075409756347 0.0 0.0
1137.6779508161299 195.3768835150196 664.5478219581777 73.93779913255584 0.0 0.0
1095.0815590598027 181.48613339540077 636.3408142646787 77.25190321029191 0.0 0.0
1044.3304293760755 161.41966594565696 600.9113018065364 79.80428736376453 0.0 0.0
987.5863044992777 136.4853893499837 560.0004340374459 81.86470276414718 0.0 0.0
927.7031945448915 111.8099574880658 517.6519280123076 83.7154183289835 0.0 0.0
868.7176316853619 91.25636513341013 477.6029164439144 85.25461959215619 0.0 0.0
810.4860830776457 75.93126054510645 439.5846821103304 85.84777607954463 0.0 0.0
750.0456694557341 64.5436779076579 398.5156144758179 85.42800071561874 0.0 0.0
680.6914917228936 53.927977139906034 342.3807229428919 85.00115170177598 0.0 0.0
597.5130285343153 38.880929029076775 259.99915585540924 84.75764956390162 0.0 0.0
488.818638695084 18.244492630587544 169.7791622146488 86.2314695199283 0.0 0.0
361.290971422711 6.3423767056385785 110.17883413006905 87.22393282184566 0.0 0.0
244.7676004700728 11.922968958930666 77.0092274630971 81.3641009405501 0.0 0.0
151.94773112412418 44.511978002281865 58.93791273792182 87.29417055366432 0.0 0.0
403.269037984703 151.63045186504564 234.5157915610498 175.9842118637938 0.0 0.0
-807.2081068459333 -1480.933028449433 -1008.6845233143205 73.02352737435112 0.0 0.0
-632.4856920879508 -1280.5989490498107 -812.2453864549537 -70.44455396576498 0.0 0.0
306.7183456024257 87.41022950783788 161.297967784708 -193.6725193784129 0.0 0.0
110.17118616514796 31.402638111642005 42.472147283036996 -115.57767690808666 0.0 0.0
195.2271631456049 17.085258048068972 63.69548173734941 -104.63000944933638 0.0 0.0
295.4371930525572 5.00348431822263 89.6911639686641 -111.00623657406172 0.0 0.0
420.0019395450595 9.167082007221193 135.62791554278775 -112.19772790585681 0.0 0.0
536.29365628074 30.756947055595774 216.43715201928035 -107.58622813137889 0.0 0.0
634.4455761104401 44.747886832496626 303.2026189988534 -107.14158422584981 0.0 0.0
703.0373136098511 55.62705909180648 365.42547569956736 -105.35491456297044 0.0 0.0
763.1497668335005 62.87719863106445 407.1746007206159 -105.08020651770866 0.0 0.0
817.8908566087501 74.28734802372078 442.55419941207754 -103.84860977066512 0.0 0.0
872.8739612490124 91.05480101893825 478.97510245255637 -101.77251575463706 0.0 0.0
928.7541080681802 112.43081255520703 517.7398871109201 -99.54914265650349 0.0 0.0
981.8332676020417 133.49777731142962 554.938889615868 -97.25027504598155 0.0 0.0
1029.7754252060322 151.6125724495956 588.0342778257985 -94.30999932568548 0.0 0.0
1070.8797440582432 164.67517617887714 615.1257115656776 -90.37561535640151 0.0 0.0
1104.4609620474678 171.20926124518735 635.1477003670014 -85.7547113001671 0.0 0.0
1127.698876398751 170.60616315025507 646.5053995553575 -80.03685945027573 0.0 0.0
1133.4224011288081 155.69636382328972 642.1085346644738 -71.24270894037848 0.0 0.0
1122.165692068061 127.28167107550908 622.4398713988197 -56.194166272236714 0.0 0.0
840.4865169381053 -154.14146638816788 345.75562294266746 -9.528378086542943e-12 0.0 0.0
1122.1656920688765 127.2816710764155 622.4398713994584 56.19416627246433 0.0 0.0
1133.42240112886 155.69636382335966 642.1085346645459 71.24270894044525 0.0 0.0
1127.6988763993215 170.6061631509844 646.5053995557887 80.03685945044286 0.0 0.0
1104.4609620478282 171.209261245697 635.1477003671807 85.7547113002721 0.0 0.0
1070.8797440589008 164.67517617968514 615.1257115661891 90.37561535652864 0.0 0.0
1029.7754252061015 151.612572449892 588.0342778257868 94.30999932582785 0.0 0.0
981.8332676018566 133.4977773113565 554.9388896157062 97.25027504597548 0.0 0.0
928.7541080682571 112.43081255560368 517.7398871109052 99.54914265665093 0.0 0.0
872.8739612494006 91.05480101954579 478.9751024528506 101.7725157547711 0.0 0.0
817.8908566079159 74.28734802305252 442.5541994114855 103.84860977058077 0.0 0.0
763.1497668332615 62.877198631048344 407.1746007204666 105.08020651761488 0.0 0.0
703.037313609603 55.62705909190538 365.4254756993405 105.35491456302586 0.0 0.0
634.4455761104595 44.74788683294382 303.20261899875254 107.14158422593101 0.0 0.0
536.2936562803402 30.756947055591418 216.43715201892599 107.58622813141208 0.0 0.0
420.0019395442807 9.167082006542838 135.62791554229156 112.19772790566094 0.0 0.0
295.43719305236 5.003484318442005 89.69116396868282 111.00623657397483 0.0 0.0
195.22716314559426 17.085258048184624 63.69548173738107 104.63000944925504 0.0 0.0
110.17118616521337 31.40263811177642 42.47214728309695 115.5776769078665 0.0 0.0
306.71834560193184 87.41022950758155 161.29796778431879 193.6725193782799 0.0 0.0
-632.4856920866933 -1280.598949048344 -812.2453864534759 70.44455396565544 0.0 0.0
-482.07427531099137 -1097.2240814817733 -638.5309729863097 -68.57437051315937 0.0 0.0
230.5356645161051 36.498351160241754 105.5473576836533 -204.24771210595154 0.0 0.0
76.23002313901186 18.402087535957392 28.389537968051442 -138.95915596860004 0.0 0.0
148.57894431648242 20.4403905319455 50.70686961049129 -126.33399138927118 0.0 0.0
231.2264398185775 6.214637327446933 71.0989293858974 -131.91273753648147 0.0 0.0
341.74905928903485 0.9064875731612158 103.53024531514876 -139.73569430796098 0.0 0.0
462.2385273967699 17.597552147501315 168.21744147092053 -134.28078783867758 0.0 0.0
567.6176338537207 36.619471741510836 253.68992727911294 -128.9397202005589 0.0 0.0
649.3407861964428 43.45630920708991 323.0309586223018 -127.10038231413365 0.0 0.0
706.7682534185773 50.13402507834375 368.4945493917763 -123.49427474691666 0.0 0.0
760.272319786152 57.51107169619239 403.15083102358574 -121.5323362014986 0.0 0.0
811.3383718382181 70.25922850157174 436.2839418979054 -118.93255834174064 0.0 0.0
862.8493842285343 87.84291277512328 471.1764172507181 -116.3553538980516 0.0 0.0
911.9227386659614 105.85707948348374 504.9439142623935 -113.81708089180383 0.0 0.0
956.5652743091134 121.31187306995895 535.1445322710669 -110.69083709122329 0.0 0.0
995.6474408805813 131.67086763840618 559.9231588725354 -106.56183742795756 0.0 0.0
1030.0495535601922 140.3379316960642 581.415028519075 -101.23133630510205 0.0 0.0
1061.2098657700828 146.49885411397338 600.0078918351005 -95.37983493847034 0.0 0.0
1077.2626077918892 139.9718783167277 604.9297266523944 -86.23991635422091 0.0 0.0
1069.7169140083397 112.52159334465634 587.7092933323145 -68.91548188060065 0.0 0.0
707.45607240464 -248.07305998251923 233.40584204360536 2.6910029760074394e-11 0.0 0.0
1069.7169140081155 112.52159334449976 587.7092933321877 68.91548188082088 0.0 0.0
1077.2626077912612 139.9718783161672 604.9297266520739 86.23991635433948 0.0 0.0
1061.209865769952 146.49885411399038 600.0078918349986 95.37983493870502 0.0 0.0
1030.0495535606651 140.33793169668184 581.4150285193565 101.23133630528692 0.0 0.0
995.647440880371 131.6708676382999 559.9231588724521 106.56183742792217 0.0 0.0
956.565274309034 121.31187307002979 535.1445322709901 110.69083709132775 0.0 0.0
911.9227386655101 105.85707948312478 504.9439142621167 113.81708089175137 0.0 0.0
862.8493842287122 87.84291277551705 471.17641725078477 116.35535389815787 0.0 0.0
811.3383718374398 70.25922850086863 436.28394189742204 118.9325583416001 0.0 0.0
760.2723197854494 57.51107169565552 403.1508310230852 121.53233620141376 0.0 0.0
706.7682534187308 50.13402507878362 368.49454939187814 123.49427474687232 0.0 0.0
649.3407861961745 43.45630920713957 323.03095862203145 127.10038231414654 0.0 0.0
567.6176338536061 36.619471741812646 253.6899272789114 128.9397202005269 0.0 0.0
462.2385273955619 17.5975521462714 168.21744147006063 134.280787838565 0.0 0.0
341.7490592886401 0.9064875731955224 103.53024531502112 139.73569430777238 0.0 0.0
231.22643981849995 6.214637327641175 71.09892938593487 131.9127375363623 0.0 0.0
148.57894431637732 20.440390531829806 50.706869610424675 126.33399138914908 0.0 0.0
76.2300231390209 18.402087536022986 28.38953796807395 138.95915596841076 0.0 0.0
230.53566451557705 36.49835115989399 105.54735768327714 204.2477121057649 0.0 0.0
-482.07427530994795 -1097.224081480404 -638.5309729850366 68.57437051321504 0.0 0.0
-349.6366044906963 -938.4550533311223 -485.9665847688221 -75.69672361881697 0.0 0.0
165.59892463049025 -1.9387893566720908 62.23133507485976 -206.28439921271152 0.0 0.0
47.025070622265126 7.715046541907403 16.421851306163607 -156.78107447658783 0.0 0.0
103.50349209789323 21.805542051363908 37.59387121390013 -145.0908230810122 0.0 0.0
169.59516305842678 8.629480010927303 53.38461861098248 -150.10833004033992 0.0 0.0
255.10711771757698 -1.29338992693136 75.55284625244832 -162.74774333278924 0.0 0.0
368.5191658898723 4.808009062232496 120.07915690976944 -162.76819899757237 0.0 0.0
480.52572552573577 22.834707951627767 192.63833446958247 -152.7726081821061 0.0 0.0
573.0541152890315 33.2968489249429 266.59093341785245 -147.1949423104747 0.0 0.0
639.5032484849487 34.46256660099086 318.16997038198946 -142.8975435926049 0.0 0.0
691.1159157745694 39.96167802061294 354.91385428172526 -138.23075067779158 0.0 0.0
739.1632893579106 49.5943668096935 386.68653879402603 -134.95096570830185 0.0 0.0
786.7064155593421 63.366203221079445 418.30268681683856 -132.04272676944424 0.0 0.0
830.839785919476 77.441461509296 447.9083964599968 -129.33210111182527 0.0 0.0
872.0613314935191 90.01603197132692 475.07223050074344 -126.30321912932104 0.0 0.0
908.7151610071412 99.33945953767335 498.2627549845987 -122.15761020436473 0.0 0.0
942.5867287518823 106.02017569933089 518.6124542515004 -116.45637473172009 0.0 0.0
980.5142709169028 118.673161085119 543.6327728202972 -110.09712705834832 0.0 0.0
1011.8276758185625 126.66182053067072 563.334518101995 -101.69349036941188 0.0 0.0
1012.5910700212545 103.51396804840687 552.7061016300906 -84.26920846979455 0.0 0.0
551.2746747559668 -352.50528210004074 104.75829609513828 1.197797416807589e-10 0.0 0.0
1012.591070021001 103.51396804821914 552.7061016298991 84.26920846992863 0.0 0.0
1011.8276758179509 126.66182053017198 563.3345181016682 101.69349036957348 0.0 0.0
980.5142709168172 118.67316108511571 543.6327728201428 110.09712705846755 0.0 0.0
942.5867287513233 106.02017569879854 518.6124542510322 116.45637473177524 0.0 0.0
908.715161006879 99.33945953757765 498.2627549845151 122.15761020433074 0.0 0.0
872.0613314934532 90.01603197144071 475.0722305006417 126.30321912941422 0.0 0.0
830.8397859190164 77.44146150895668 447.90839645970544 129.33210111177826 0.0 0.0
786.7064155595319 63.366203221479644 418.30268681693013 132.04272676954974 0.0 0.0
739.1632893577197 49.59436680976766 386.68653879388603 134.95096570831313 0.0 0.0
691.1159157742937 39.96167802044444 354.9138542814989 138.2307506777202 0.0 0.0
639.5032484841793 34.4625666004215 318.1699703815183 142.8975435925086 0.0 0.0
573.0541152884687 33.29684892463608 266.5909334174055 147.1949423104872 0.0 0.0
480.52572552544325 22.83470795169564 192.638334469328 152.77260818207378 0.0 0.0
368.5191658896035 4.80800906247935 120.07915690965436 162.76819899754386 0.0 0.0
255.10711771724638 -1.2933899268470332 75.55284625240566 162.74774333255434 0.0 0.0
169.59516305841635 8.629480011129457 53.38461861103861 150.10833004017593 0.0 0.0
103.5034920977478 21.805542051250104 37.593871213823 145.09082308086874 0.0 0.0
47.02507062212417 7.715046541761518 16.421851306077485 156.78107447634815 0.0 0.0
165.59892463010107 -1.938789356891597 62.231335074607784 206.28439921252888 0.0 0.0
-349.636604489896 -938.4550533299781 -485.9665847678197 75.69672361888826 0.0 0.0
-249.6661582394509 -785.0230379651616 -363.48414946871367 -83.3218495701805 0.0 0.0
109.82128345152898 -33.06875813423402 29.261204959742443 -201.9878777982911 0.0 0.0
19.664386125784038 0.49587919477505066 6.0497392564064665 -169.46898809097826 0.0 0.0
59.61506955703897 21.63796388774898 24.374920635686195 -160.0679894060208 0.0 0.0
107.96424009889999 11.614813753065636 35.81955388352082 -164.48638047264555 0.0 0.0
167.48882552590936 0.8221956691726906 50.262701295818225 -179.0487795433426 0.0 0.0
254.35123024147126 -3.36199693828973 75.88281553187784 -191.31348316926307 0.0 0.0
364.2111840578015 3.8554168557836688 123.6263561323083 -183.16967531712476 0.0 0.0
466.2964810969346 15.75636399374239 188.4897655751118 -168.35840249454242 0.0 0.0
543.03996796881 18.67691650498269 245.20030146374737 -159.74469855640945 0.0 0.0
599.3819671018637 21.751569257584258 287.6642537806449 -153.20083848488116 0.0 0.0
646.2963408835768 27.57478342837318 320.39531620280934 -149.31181557028768 0.0 0.0
690.2906646718094 38.48436962075807 350.842316427912 -146.1998561434442 0.0 0.0
729.4414086474704 48.665801597812035 377.0485964789021 -143.37850704885273 0.0 0.0
766.0445587722509 58.208963344231364 400.9105374189516 -140.69650232292904 0.0 0.0
800.680733825493 66.25153167333326 422.7725341465538 -137.1977842370445 0.0 0.0
834.1922975340125 72.73810851842357 443.320665013162 -131.5815419801869 0.0 0.0
872.5540023395063 84.30383083023168 468.2548560220531 -124.12286814196241 0.0 0.0
921.7656021870937 107.2684768928834 503.9023545988474 -116.8394491263478 0.0 0.0
947.2897557011646 104.09038799513235 516.193249758833 -103.71054978223357 0.0 0.0
363.19063095495426 -463.64811961223984 -42.23372142388216 2.9475799578904116e-10 0.0 0.0
947.2897557011191 104.09038799506351 516.1932497588778 103.71054978245687 0.0 0.0
921.7656021862426 107.26847689219304 503.9023545983762 116.83944912654884 0.0 0.0
872.5540023401702 84.30383083107375 468.25485602250495 124.12286814227488 0.0 0.0
834.1922975338522 72.73810851839583 443.32066501296407 131.58154198028512 0.0 0.0
800.680733825263 66.25153167317333 422.7725341464802 137.19778423702292 0.0 0.0
766.0445587730131 58.20896334525975 400.9105374194266 140.69650232310133 0.0 0.0
729.4414086461974 48.66580159641944 377.0485964780597 143.37850704879958 0.0 0.0
690.2906646710036 38.4843696200049 350.8423164274254 146.19985614348167 0.0 0.0
646.2963408849728 27.574783430237375 320.39531620368194 149.3118155704543 0.0 0.0
599.381967101595 21.7515692573156 287.6642537803656 153.20083848469298 0.0 0.0
543.0399679681886 18.676916504686154 245.20030146331138 159.74469855630412 0.0 0.0
466.2964810963234 15.756363993447795 188.48976557468478 168.35840249459383 0.0 0.0
364.2111840573918 3.855416855861325 123.62635613211938 183.16967531724802 0.0 0.0
254.3512302414891 -3.361996937404257 75.8828155321351 191.31348316914773 0.0 0.0
167.48882552539962 0.8221956685388493 50.26270129548441 179.0487795429541 0.0 0.0
107.96424009894207 11.614813753356623 35.81955388362501 164.48638047247047 0.0 0.0
59.61506955699553 21.6379638878052 24.37492063568879 160.06798940581467 0.0 0.0
19.664386125806345 0.49587919500418876 6.049739256480791 169.46898809074236 0.0 0.0
109.8212834511472 -33.06875813449423 29.26120495950851 201.98787779812233 0.0 0.0
-249.66615823877072 -785.0230379641617 -363.4841494679205 83.32184957015944 0.0 0.0
-170.88603026908945 -651.2968548011303 -266.296125112133 -98.64030901432704 0.0 0.0
59.526404263415635 -56.33897347007868 3.3695199754192116 -191.67178876883335 0.0 0.0
-6.71043642528272 -2.852476701822155 -2.8689114954002104 -177.30341077780852 0.0 0.0
16.61138047725773 20.43557768185286 11.113362390376011 -170.73088326571872 0.0 0.0
46.37097951761944 14.353629405875914 18.200529262337664 -174.61797692991547 0.0 0.0
80.92050229455536 4.092212775491808 25.383129130570474 -190.6108967729459 0.0 0.0
126.93431610439106 -1.4466534054508169 37.58967533439535 -206.8657055040464 0.0 0.0
198.87195655462645 -4.974105599071433 58.73139188007498 -211.77600010657133 0.0 0.0
294.10188112983536 -11.229366728392879 89.73326097185686 -200.8709698171928 0.0 0.0
384.4051104816383 -17.365748082670496 125.88065215462514 -182.04457565258878 0.0 0.0
447.5734334516285 -12.83013713532014 163.27495366618632 -167.9514994451146 0.0 0.0
492.94224454881174 -1.2112694350651907 196.7452566951622 -160.4209760730927 0.0 0.0
532.6992803980645 9.616566384844454 226.99010206495623 -158.15841826127615 0.0 0.0
567.2430255836503 18.23308471144093 253.1815995422674 -156.9499445275657 0.0 0.0
598.8594000890114 26.208292234359625 277.2211770282235 -156.2026309919819 0.0 0.0
630.7611928703603 33.72194355935902 300.93357141207457 -155.2331504575194 0.0 0.0
665.5092912435156 40.25817382887249 325.719782090827 -151.1577416735642 0.0 0.0
703.8211275909631 45.589106367874926 351.3541147942519 -142.8302737229321 0.0 0.0
757.335137847748 63.34492048156924 387.5033416550922 -133.61480342275186 0.0 0.0
837.6263897608196 104.95827081542237 450.7969762101783 -129.2594110866748 0.0 0.0
110.0840176904922 -577.5330347160309 -219.9578112846678 1.0174971976084635e-10 0.0 0.0
837.6263897606709 104.9582708154148 450.79697621021387 129.25941108689216 0.0 0.0
757.3351378473758 63.344920481522564 387.5033416549024 133.6148034230955 0.0 0.0
703.8211275914811 45.58910636867058 351.3541147946246 142.83027372333174 0.0 0.0
665.5092912435504 40.25817382889305 325.7197820908416 151.15774167376114 0.0 0.0
630.7611928698008 33.72194355859065 300.9335714116297 155.23315045734702 0.0 0.0
598.859400089337 26.208292234759604 277.2211770284914 156.2026309920334 0.0 0.0
567.2430255826401 18.233084710463825 253.1815995415169 156.94994452744777 0.0 0.0
532.6992803968476 9.61656638352964 226.99010206408747 158.15841826113964 0.0 0.0
492.9422445502226 -1.211269432987752 196.74525669613612 160.42097607338252 0.0 0.0
447.57343345152117 -12.830137135292878 163.27495366612763 167.9514994451147 0.0 0.0
384.40511048202103 -17.365748081566885 125.88065215499806 182.0445756525719 0.0 0.0
294.1018811293278 -11.229366728796048 89.73326097156755 200.87096981726086 0.0 0.0
198.87195655442912 -4.974105598773496 58.73139188009929 211.7760001066316 0.0 0.0
126.93431610395972 -1.4466534060402392 37.58967533408625 206.8657055037482 0.0 0.0
80.92050229424379 4.09221277497638 25.38312913032632 190.61089677260955 0.0 0.0
46.37097951760088 14.353629405919655 18.20052926234678 174.617976929669 0.0 0.0
16.611380477298418 20.435577682023386 11.113362390439576 170.73088326546215 0.0 0.0
-6.7104364252711735 -2.8524767015270633 -2.868911495308554 177.3034107775533 0.0 0.0
59.52640426296241 -56.33897347033995 3.3695199751810883 191.67178876865822 0.0 0.0
-170.88603026870354 -651.2968548003685 -266.2961251116176 98.64030901430826 0.0 0.0
-123.93065756306424 -527.4104875833209 -198.97636751492848 -109.6901818394036 0.0 0.0
15.654139993110494 -71.24489150768527 -16.178470403680187 -176.15724585040155 0.0 0.0
-31.586578048618975 -3.82926822108103 -10.619906349223239 -181.05075799310802 0.0 0.0
-25.385374280136304 18.895073742974386 -1.9474026243016203 -177.00414983972385 0.0 0.0
-14.446877855475101 16.619987730896817 0.6528225784444603 -180.18222254959008 0.0 0.0
-6.537233098809207 7.745237914252739 0.36753121920066345 -194.852989647757 0.0 0.0
-2.6698558020151033 1.4637954641468163 -0.3663114638977101 -212.1976792778063 0.0 0.0
-0.7531142209574604 0.11655308689086574 -0.19787058918724654 -216.58704587562983 0.0 0.0
-0.14688800196298502 -0.04812266891817174 -0.06003187864438431 -208.7002981966454 0.0 0.0
0.08891089278425568 0.002056000312945727 0.03505737996661651 -200.27814517810916 0.0 0.0
-0.14157152856266464 -0.10029007081003627 -0.13191993500701926 -199.00112035492955 0.0 0.0
-0.7024061045946866 0.19800044729213084 0.15233654713739497 -194.15786619856323 0.0 0.0
-1.9958927934472257 0.6729740057521525 0.22056591828049932 -184.77932260022524 0.0 0.0
-1.5174230274903096 1.5622712588330074 0.6519616565995534 -176.9512246505366 0.0 0.0
4.173649043251373 4.440901153490692 1.6487434193638535 -171.42101499027976 0.0 0.0
22.70935833283201 10.306140590267617 4.589807439062511 -166.64834309194353 0.0 0.0
64.89862615894158 21.24830191782405 11.799836940308964 -161.46314403798038 0.0 0.0
148.53262936303258 28.683488305506046 15.97226712092639 -152.78164096137888 0.0 0.0
357.964591577724 -21.871517970680173 29.369984314007056 -146.20283842290212 0.0 0.0
555.9367635685511 9.400750873715168 210.8328233203856 -185.56239517004627 0.0 0.0
-511.67496218884855 -797.1832933269335 -577.6388974071003 -1.9348078694747528e-11 0.0 0.0
555.9367635690467 9.400750874750031 210.83282332091505 185.56239516990158 0.0 0.0
357.96459157779464 -21.87151797107336 29.369984313894435 146.20283842375446 0.0 0.0
148.53262936301903 28.683488305403586 15.972267120801376 152.78164096183414 0.0 0.0
64.89862615854167 21.248301917336576 11.799836939943745 161.4631440380908 0.0 0.0
22.70935833250529 10.306140589424395 4.589807438631439 166.64834309199188 0.0 0.0
4.173649043706504 4.4409011540213825 1.6487434197138526 171.4210149903082 0.0 0.0
-1.5174230271720148 1.5622712590852572 0.6519616567835342 176.95122465066746 0.0 0.0
-1.9958927933828363 0.672974005426461 0.2205659181396058 184.7793226004077 0.0 0.0
-0.7024061036546527 0.19800044804423678 0.15233654766181104 194.15786619863167 0.0 0.0
-0.14157152830724584 -0.10029007142306057 -0.1319199351392193 199.00112035485085 0.0 0.0
0.08891089330710855 0.0020560007783423373 0.035057380266572125 200.27814517781837 0.0 0.0
-0.14688800194452512 -0.04812266926215081 -0.06003187874497229 208.70029819671987 0.0 0.0
-0.7531142207956574 0.11655308709632628 -0.19787058906887545 216.58704587566774 0.0 0.0
-2.6698558020136822 1.4637954641112279 -0.3663114639075751 212.19767927744022 0.0 0.0
-6.537233098903473 7.745237913822907 0.36753121904291985 194.8529896475066 0.0 0.0
-14.446877855322098 16.619987731007825 0.6528225785229778 180.1822225492898 0.0 0.0
-25.38537427991971 18.895073743502632 -1.947402624079827 177.00414983955858 0.0 0.0
-31.586578048617724 -3.8292682210220517 -10.619906349204285 181.0507579929293 0.0 0.0
15.654139992933587 -71.2448915078134 -16.17847040377466 176.15724585026936 0.0 0.0
-123.93065756300656 -527.4104875826562 -198.976367514703 109.69018183938378 0.0 0.0
-100.90716305952847 -415.1259531463741 -154.66684997117176 -109.55348047566923 0.0 0.0
-14.44992513932675 -80.06799744679104 -28.373506025515567 -163.29125038393116 0.0 0.0
-54.83046473715959 -4.433084271151538 -17.78220619096786 -180.7580620204539 0.0 0.0
-65.92421680903078 17.50985749971204 -14.523540893802647 -178.72482634484143 0.0 0.0
-74.1368546534745 18.128475588781466 -16.80489131055095 -180.5000566659303 0.0 0.0
-92.83398363389955 11.180168240726573 -24.444997124835204 -192.5081975285707 0.0 0.0
-132.173725781786 4.585678931553854 -38.17595232089558 -208.36169340984313 0.0 0.0
-200.13725077629317 5.120540465622965 -59.12039754053173 -212.02982593093947 0.0 0.0
-294.17765061020987 11.016467768385265 -89.86002352686562 -200.87524302168495 0.0 0.0
-384.29007624739893 17.37415885779211 -125.82272748295199 -182.01655106763414 0.0 0.0
-448.05880678791436 12.920080475534093 -163.28931343376416 -168.0165197944237 0.0 0.0
-493.36516167479806 1.1869179748846292 -197.3712021616618 -160.32871820927582 0.0 0.0
-533.8632710834304 -9.04160515139639 -228.06180861956324 -157.62720319239392 0.0 0.0
-567.5416891567393 -15.14465031616264 -252.67793712717568 -156.1549327544027 0.0 0.0
-592.4582030128882 -17.487646900929747 -269.2476278069632 -156.0437589049832 0.0 0.0
-606.5222499659492 -14.852698717802127 -274.8576602908108 -158.27774359201038 0.0 0.0
-607.6983105638416 -7.239936478122274 -267.2649177709468 -163.0590208528563 0.0 0.0
-601.9032877370945 -0.2846993938897242 -246.54630593710448 -173.05773611793077 0.0 0.0
-584.4782358812464 44.548047317489846 -191.4881914931661 -186.4978380394989 0.0 0.0
-324.4384094771518 127.77060345323437 -10.20941055772343 -139.50473661339328 0.0 0.0
-1057.9323033750497 -1038.6063627247254 -1060.1202191477814 -1.0997780464094831e-10 0.0 0.0
-324.4384094760788 127.77060345484503 -10.20941055701374 139.50473661388483 0.0 0.0
-584.4782358813524 44.54804731686616 -191.48819149331223 186.49783803983505 0.0 0.0
-601.9032877367215 -0.28469939367951724 -246.5463059367062 173.0577361179875 0.0 0.0
-607.6983105638641 -7.239936478098386 -267.2649177709205 163.05902085286283 0.0 0.0
-606.5222499658121 -14.852698717776875 -274.8576602906884 158.2777435919041 0.0 0.0
-592.4582030121694 -17.487646900216966 -269.2476278063499 156.04375890494768 0.0 0.0
-567.5416891561936 -15.144650315817763 -252.67793712681006 156.15493275429273 0.0 0.0
-533.8632710832807 -9.041605151592798 -228.06180861944918 157.62720319249473 0.0 0.0
-493.3651616742535 1.18691797543719 -197.37120216113487 160.3287182092412 0.0 0.0
-448.05880678750896 12.920080475609252 -163.28931343345363 168.01651979439788 0.0 0.0
-384.2900762467208 17.37415885793239 -125.82272748260196 182.01655106762828 0.0 0.0
-294.177650609659 11.016467768231326 -89.86002352670184 200.87524302177633 0.0 0.0
-200.13725077582887 5.120540465319946 -59.12039754047643 212.0298259310261 0.0 0.0
-132.1737257812707 4.585678932011104 -38.17595232060914 208.36169340958222 0.0 0.0
-92.83398363373401 11.1801682406176 -24.444997124821782 192.50819752835432 0.0 0.0
-74.13685465326463 18.128475588895405 -16.80489131045654 180.5000566656482 0.0 0.0
-65.92421680894908 17.50985749977588 -14.52354089376234 178.72482634461588 0.0 0.0
-54.830464737176825 -4.433084271233309 -17.782206191001045 180.75806202031578 0.0 0.0
-14.449925139290732 -80.0679974468253 -28.373506025511713 163.29125038378348 0.0 0.0
-100.90716305932304 -415.1259531457306 -154.66684997096993 109.55348047560403 0.0 0.0
-83.46535996107683 -317.5963770935633 -120.32167873436039 -101.16804693035164 0.0 0.0
-34.15023692157097 -82.3300939456102 -34.94019119258873 -151.56657626939554 0.0 0.0
-76.4794341798711 -5.109797520537048 -24.470784507228686 -176.83007902876818 0.0 0.0
-104.52528400107884 16.127039209566114 -26.534967044354698 -175.64838108917158 0.0 0.0
-132.7810592762665 19.156727828329693 -34.002248519645825 -176.82727657788547 0.0 0.0
-178.07125987510784 14.440376704517533 -48.80465422492208 -185.45924218032656 0.0 0.0
-256.5441280740455 5.466333471826251 -76.41593102088758 -190.64909568456707 0.0 0.0
-364.4650074753064 -4.056487844693107 -123.93813543982532 -183.5436705323318 0.0 0.0
-466.33798334988614 -15.991195430156942 -188.59050469982358 -168.4358465110623 0.0 0.0
-542.9896310746337 -18.72989208739964 -245.19941287649084 -159.7117082712836 0.0 0.0
-599.3465070007943 -21.699039927257076 -287.65975760817645 -153.1497358344787 0.0 0.0
-646.6007143666664 -27.507825800426218 -320.59234829050376 -148.9850534423715 0.0 0.0
-690.9307016823734 -38.00254996703593 -351.0817740559222 -145.26414786613287 0.0 0.0
-728.983095615429 -46.332618773773746 -375.94867063846834 -142.0552628035386 0.0 0.0
-759.2884665987943 -50.3763335682942 -394.0178950667125 -140.557543804741 0.0 0.0
-778.0174013772933 -47.35673146510331 -402.2635112025721 -141.59805294405197 0.0 0.0
-784.2814447776132 -38.116117371352175 -400.5945982806626 -145.58018980945806 0.0 0.0
-777.7655528084632 -25.091613009518397 -390.28985537763026 -152.54993809339118 0.0 0.0
-733.9207608519056 16.531091377891997 -348.40060444148895 -160.83849160599192 0.0 0.0
-643.4907650175346 92.00471263291912 -268.9867873091856 -167.8093400844002 0.0 0.0
-1819.1325942430794 -1329.32705581511 -1535.4011356778012 5.7049476254178444e-11 0.0 0.0
-643.4907650167897 92.00471263367443 -268.98678730868414 167.80934008456273 0.0 0.0
-733.9207608519662 16.53109137764399 -348.4006044415946 160.83849160632138 0.0 0.0
-777.7655528073835 -25.091613008463497 -390.2898553769189 152.54993809350867 0.0 0.0
-784.2814447778784 -38.11611737176588 -400.594598280929 145.5801898095503 0.0 0.0
-778.0174013777834 -47.35673146543364 -402.2635112028323 141.59805294389702 0.0 0.0
-759.2884665978395 -50.37633356757328 -394.0178950660683 140.55754380463006 0.0 0.0
-728.9830956157405 -46.332618774133806 -375.94867063870157 142.05526280366846 0.0 0.0
-690.9307016821289 -38.00254996704391 -351.08177405581836 145.2641478661302 0.0 0.0
-646.6007143662152 -27.507825800026694 -320.5923482900994 148.98505344220877 0.0 0.0
-599.3465069998753 -21.6990399263966 -287.6597576075554 153.14973583424444 0.0 0.0
-542.9896310745567 -18.72989208771961 -245.19941287640472 159.7117082712545 0.0 0.0
-466.3379833492898 -15.991195430109126 -188.5905046994047 168.43584651115017 0.0 0.0
-364.4650074749977 -4.056487845101544 -123.9381354397149 183.54367053247222 0.0 0.0
-256.5441280734007 5.466333472164346 -76.41593102058549 190.64909568444057 0.0 0.0
-178.07125987469686 14.440376704612978 -48.804654224784485 185.45924218006704 0.0 0.0
-132.78105927603946 19.156727828393198 -34.00224851956409 176.82727657773341 0.0 0.0
-104.5252840010311 16.12703920942084 -26.53496704438515 175.64838108896853 0.0 0.0
-76.47943417980387 -5.109797520484401 -24.470784507193176 176.83007902860993 0.0 0.0
-34.1502369216267 -82.33009394564704 -34.940191192616794 151.5665762692772 0.0 0.0
-83.46535996101613 -317.5963770932245 -120.3216787342385 101.16804693023803 0.0 0.0
-67.59568662586976 -235.28475908732347 -90.86413371395794 -89.54852794681044 0.0 0.0
-48.59507990336482 -78.95775498560788 -38.266643740183554 -138.5444813041245 0.0 0.0
-96.41771499344644 -5.578808876353189 -30.592898249476608 -168.70045581734158 0.0 0.0
-141.5269661721232 14.773227422656719 -37.994802869597336 -168.81636209885065 0.0 0.0
-188.89641971682107 18.875693142229913 -50.91909196187617 -166.78833692504696 0.0 0.0
-259.547741464449 13.732765658101805 -73.99264616437925 -167.5391955369268 0.0 0.0
-369.0987992739224 -1.984614261021207 -119.8098612744508 -165.50327018026388 0.0 0.0
-480.7090637971477 -23.182571436386965 -192.81180123648204 -153.38309127082545 0.0 0.0
-573.0626116710122 -33.55441445647556 -266.685506650368 -147.22476478681807 0.0 0.0
-639.4620952305611 -34.468931269423344 -318.18246799180963 -142.89185677417407 0.0 0.0
-690.9644144336761 -39.79925100033009 -354.7904245293033 -138.1747307559274 0.0 0.0
-739.1640935784159 -49.33398907372265 -386.5940820440469 -134.589194813858 0.0 0.0
-787.009249849445 -62.898702322194225 -418.28799592770656 -130.94951755986742 0.0 0.0
-830.6902745725737 -75.93528899229563 -447.2378456301983 -127.61973821042092 0.0 0.0
-867.2603648318795 -84.32861056088105 -470.1138379553245 -125.7744146792334 0.0 0.0
-891.0873853568776 -84.24671395828264 -482.2105142192261 -126.90577617427107 0.0 0.0
-899.4169814623178 -73.43161793029512 -481.06274839385316 -131.589386263618 0.0 0.0
-882.0378900183567 -44.10102147172975 -457.8648391859628 -138.11205392024328 0.0 0.0
-831.4829348776063 9.607087967094401 -406.62661693454896 -143.65580438976002 0.0 0.0
-696.3139055134961 132.98267081484897 -281.9357691718268 -147.46034754812464 0.0 0.0
-2264.4182484925213 -1568.407867768178 -1887.199425726952 1.028190865781653e-10 0.0 0.0
-696.3139055125143 132.9826708156394 -281.935769171183 147.46034754835807 0.0 0.0
-831.4829348784615 9.60708796593643 -406.62661693514144 143.65580439024671 0.0 0.0
-882.0378900179599 -44.10102147153742 -457.86483918569684 138.11205392052983 0.0 0.0
-899.416981463045 -73.43161793108048 -481.06274839437964 131.5893862637048 0.0 0.0
-891.0873853568045 -84.24671395841622 -482.21051421910795 126.90577617418555 0.0 0.0
-867.2603648322017 -84.32861056133342 -470.1138379555589 125.77441467935662 0.0 0.0
-830.6902745726594 -75.9352889925628 -447.2378456301859 127.61973821031701 0.0 0.0
-787.0092498491373 -62.898702322110324 -418.28799592758077 130.94951755991136 0.0 0.0
-739.1640935785754 -49.33398907413384 -386.59408204411596 134.58919481388165 0.0 0.0
-690.9644144331729 -39.79925100003474 -354.79042452901035 138.17473075585167 0.0 0.0
-639.4620952306678 -34.46893126992472 -318.18246799180963 142.89185677415512 0.0 0.0
-573.0626116701228 -33.554414455904926 -266.68550664970115 147.2247647868033 0.0 0.0
-480.7090637969578 -23.18257143670229 -192.8118012362654 153.38309127084003 0.0 0.0
-369.0987992735371 -1.9846142611854651 -119.8098612742799 165.50327018030129 0.0 0.0
-259.54774146382505 13.732765658440812 -73.99264616410939 167.53919553668817 0.0 0.0
-188.89641971662942 18.875693142237907 -50.91909196182364 166.7883369249012 0.0 0.0
-141.52696617204586 14.773227422645636 -37.99480286958164 168.8163620987356 0.0 0.0
-96.41771499328567 -5.578808876223264 -30.592898249389382 168.70045581717469 0.0 0.0
-48.59507990325793 -78.95775498560215 -38.2666437401496 138.54448130402787 0.0 0.0
-67.59568662572244 -235.28475908703442 -90.86413371382703 89.54852794672432 0.0 0.0
-54.986893716208534 -166.49384748857457 -66.44422236143491 -76.62151321666704 0.0 0.0
-59.74511834204128 -71.46479234692899 -39.36295474571378 -123.55505131220012 0.0 0.0
-115.10085431068815 -5.69369888843973 -36.23851528978268 -156.52125366682228 0.0 0.0
-176.4410891905968 12.837358110613364 -49.07659815387867 -157.04692500114294 0.0 0.0
-243.78201714039568 17.830225108946838 -67.47635774008526 -153.17407452843585 0.0 0.0
-341.55415221902354 10.366907225056417 -101.15720288736458 -147.15946963315437 0.0 0.0
-459.6686414895231 -16.20955732042612 -167.6139999186433 -135.1278148254011 0.0 0.0
-567.7383177582848 -37.21348427379823 -253.83642266860542 -129.2629742237898 0.0 0.0
-649.4336477537619 -43.712044518230385 -323.20369772388676 -127.11265061940242 0.0 0.0
-706.7063768167922 -50.08494949587761 -368.47956430840156 -123.49500957379618 0.0 0.0
-760.0283074302845 -57.21181512847083 -402.9118382008999 -121.48759435974748 0.0 0.0
-810.9208905979194 -69.6667567764472 -435.81362697876693 -118.57115416673267 0.0 0.0
-862.578233773204 -87.09306788383037 -470.7016257467227 -115.259208747351 0.0 0.0
-912.1879678796472 -105.23346714682617 -504.8272528103527 -111.99378589316986 0.0 0.0
-955.2318644503839 -119.28483299848253 -533.608026802886 -109.85630219864728 0.0 0.0
-984.576941974645 -122.06653513713744 -549.8785557938315 -110.78193730937777 0.0 0.0
-989.806843321262 -106.90473628093707 -545.1459852506716 -114.9374118039667 0.0 0.0
-961.3606461710914 -63.16095808892783 -509.3670785647213 -120.75775442124568 0.0 0.0
-885.0727642939001 19.292507991139374 -431.08621246747833 -124.84416920006636 0.0 0.0
-726.4310545563211 168.35224309658528 -280.1605124780439 -126.4822477473629 0.0 0.0
-2614.0371718959163 -1811.0563995298253 -2189.791444678975 5.264055857878702e-11 0.0 0.0
-726.4310545561555 168.35224309668882 -280.16051247795696 126.4822477475294 0.0 0.0
-885.0727642943314 19.2925079905596 -431.0862124677494 124.84416920024834 0.0 0.0
-961.3606461714234 -63.16095808937261 -509.36707856498725 120.75775442136582 0.0 0.0
-989.8068433217126 -106.90473628156974 -545.1459852510255 114.93741180404706 0.0 0.0
-984.5769419737799 -122.06653513629786 -549.8785557932694 110.78193730936357 0.0 0.0
-955.2318644506469 -119.28483299894802 -533.6080268030421 109.8563021985978 0.0 0.0
-912.1879678789145 -105.23346714622326 -504.8272528097889 111.99378589319463 0.0 0.0
-862.5782337735087 -87.09306788436133 -470.70162574704295 115.2592087473634 0.0 0.0
-810.9208905982395 -69.66675677709155 -435.81362697896685 118.57115416683243 0.0 0.0
-760.0283074298831 -57.21181512831911 -402.9118382006891 121.48759435973854 0.0 0.0
-706.7063768160758 -50.08494949545668 -368.47956430790947 123.49500957375767 0.0 0.0
-649.4336477535248 -43.71204451832173 -323.2036977236468 127.11265061942655 0.0 0.0
-567.7383177577991 -37.21348427372365 -253.83642266813933 129.26297422372087 0.0 0.0
-459.6686414889598 -16.209557320281533 -167.61399991823163 135.12781482534143 0.0 0.0
-341.5541522185234 10.36690722517461 -101.1572028871545 147.15946963307147 0.0 0.0
-243.78201713990214 17.830225109220475 -67.47635773987561 153.17407452829633 0.0 0.0
-176.44108919039778 12.837358110616616 -49.07659815382311 157.0469250009968 0.0 0.0
-115.10085431062657 -5.693698888469238 -36.238515289771684 156.5212536667779 0.0 0.0
-59.74511834208643 -71.46479234699953 -39.3629547457485 123.5550513121644 0.0 0.0
-54.9868937162197 -166.4938474884173 -66.44422236139107 76.62151321663131 0.0 0.0
-45.83192396467891 -110.65280448133481 -46.945418533804116 -63.18031916529074 0.0 0.0
-68.59216881309959 -61.242359122491756 -38.95035838067738 -106.55304094787648 0.0 0.0
-132.72419852882578 -5.2320677972175815 -41.38752518410025 -140.37067869108603 0.0 0.0
-209.52982840256192 10.797131123291525 -59.58884519215844 -141.29081359014228 0.0 0.0
-296.08347612783945 13.394145511968073 -84.81471823351298 -132.8411775891152 0.0 0.0
-415.5639804779287 1.168539769376542 -131.9456187382952 -121.03247723282496 0.0 0.0
-534.7555804260013 -29.17563075393826 -215.29709540879784 -109.08240100190179 0.0 0.0
-634.8492528561985 -45.49338491928189 -303.5531902524653 -107.2595264460875 0.0 0.0
-703.0973763007007 -55.74624949132358 -365.54876522582185 -105.36367016745263 0.0 0.0
-763.0667679931807 -62.783456140122105 -407.12369106687214 -105.09162831411285 0.0 0.0
-817.5383248188264 -73.88388352266563 -442.2102836142062 -103.7899159220005 0.0 0.0
-872.0378286368469 -90.11013244344518 -478.12278585375674 -101.41339554821164 0.0 0.0
-927.7198674021469 -111.18384172217574 -516.6215774817247 -98.5725220798344 0.0 0.0
-982.2203040830102 -133.50347331938642 -555.1272834482111 -95.65400859370924 0.0 0.0
-1032.0534838390902 -153.49922486735036 -590.1604965030275 -93.35977693273877 0.0 0.0
-1066.220519566707 -160.54336616432275 -611.0111234189014 -93.30797668656547 0.0 0.0
-1068.604662024278 -139.08846886110285 -601.790389193633 -96.70588926505594 0.0 0.0
-1023.7547351957935 -77.64555261645026 -549.1042281858074 -101.7502141840187 0.0 0.0
-921.7391559441787 31.20562530257037 -444.59917919450294 -105.29832907151209 0.0 0.0
-748.679730693082 195.02088686270295 -277.8215080699777 -108.87453163684157 0.0 0.0
-2915.2589782092277 -2042.2977614795345 -2460.504079795956 8.379075211450981e-11 0.0 0.0
-748.6797306940784 195.02088686157228 -277.82150807069365 108.87453163706434 0.0 0.0
-921.7391559437818 31.205625302925384 -444.5991791942279 105.29832907157682 0.0 0.0
-1023.7547351959211 -77.64555261674933 -549.1042281859512 101.7502141842043 0.0 0.0
-1068.6046620243874 -139.0884688613553 -601.7903891938615 96.7058892652066 0.0 0.0
-1066.2205195664515 -160.54336616426238 -611.0111234186943 93.30797668672236 0.0 0.0
-1032.053483838782 -153.49922486709656 -590.160496502829 93.35977693265045 0.0 0.0
-982.2203040831204 -133.50347331977542 -555.1272834481542 95.65400859384414 0.0 0.0
-927.7198674019514 -111.18384172217255 -516.6215774817449 98.57252207981051 0.0 0.0
-872.0378286364122 -90.11013244325969 -478.1227858534642 101.41339554821941 0.0 0.0
-817.538324818193 -73.88388352226333 -442.2102836138561 103.78991592196331 0.0 0.0
-763.0667679928862 -62.7834561400654 -407.12369106668143 105.09162831404973 0.0 0.0
-703.0973763003905 -55.74624949139415 -365.5487652255369 105.36367016753661 0.0 0.0
-634.849252855679 -45.49338491905665 -303.55319025196263 107.25952644599559 0.0 0.0
-534.755580425307 -29.17563075349674 -215.2970954081996 109.08240100176532 0.0 0.0
-415.56398047719347 1.1685397698295894 -131.94561873786375 121.03247723275229 0.0 0.0
-296.0834761275154 13.394145511785451 -84.81471823349338 132.84117758896002 0.0 0.0
-209.52982840247307 10.797131123224926 -59.58884519214942 141.29081358998263 0.0 0.0
-132.7241985286832 -5.232067797227038 -41.38752518405988 140.37067869103953 0.0 0.0
-68.59216881303189 -61.242359122460144 -38.95035838064761 106.55304094781091 0.0 0.0
-45.83192396470128 -110.65280448124518 -46.94541853378394 63.18031916516793 0.0 0.0
-39.82916922687418 -67.43051620977701 -32.17790563099535 -49.52435944140912 0.0 0.0
-75.48984805422575 -49.51233323197164 -37.50065438585921 -87.71644879446112 0.0 0.0
-149.28376577099755 -4.196794266900501 -46.044617631051416 -120.25567786494807 0.0 0.0
-241.14908331231982 7.9324679659578665 -69.94567073546291 -120.9940993365661 0.0 0.0
-351.30387639624917 8.391298389493208 -103.04259462396487 -110.09979396862046 0.0 0.0
-476.12829414559246 -14.014474431512276 -166.31492559204364 -91.07445360762891 0.0 0.0
-596.422010397755 -37.786606354967404 -258.85677241891585 -85.66692313578767 0.0 0.0
-680.9459757353267 -54.33549478578941 -342.6034251438221 -84.96311399419177 0.0 0.0
-750.1179429967781 -64.60979498442575 -398.6193980039321 -85.43392258229058 0.0 0.0
-810.3818358055939 -75.80311597586949 -439.50233289917225 -85.87089862516427 0.0 0.0
-868.250274487788 -90.74410686439057 -477.14695282776256 -85.17763689492268 0.0 0.0
-926.5296709094954 -110.58925540329928 -516.4927875188953 -83.36513250407225 0.0 0.0
-985.9119901160149 -134.81482156064652 -558.3445178648988 -81.09269271608008 0.0 0.0
-1044.1975384367374 -161.3490194813898 -600.7773187132871 -78.68003484915685 0.0 0.0
-1098.868176479901 -185.25539332619113 -640.1049397687045 -76.39111002917294 0.0 0.0
-1139.053459733258 -196.7691687198086 -666.1498224321975 -75.26823932858436 0.0 0.0
-1141.0623647126747 -174.17611141664378 -656.2797060872712 -77.01542083550154 0.0 0.0
-1080.6300756284868 -95.43239751531252 -587.2368371666088 -81.45777706136086 0.0 0.0
-953.2796060590199 39.761233034059686 -456.64589053293355 -86.45564958427195 0.0 0.0
-761.620580443231 221.46827263830983 -270.7776776686159 -93.98622144011087 0.0 0.0
-3178.821991311103 -2254.4398132415977 -2701.756114495371 1.4719603314006235e-10 0.0 0.0
-761.6205804435303 221.4682726379005 -270.77767766885756 93.98622144027863 0.0 0.0
-953.2796060588828 39.76123303416075 -456.64589053281946 86.45564958439772 0.0 0.0
-1080.630075628658 -95.43239751560263 -587.2368371667383 81.45777706143954 0.0 0.0
-1141.0623647126095 -174.17611141670795 -656.2797060873093 77.01542083558684 0.0 0.0
-1139.0534597336505 -196.7691687202988 -666.1498224324196 75.26823932857587 0.0 0.0
-1098.8681764797009 -185.25539332611518 -640.1049397685035 76.3911100290809 0.0 0.0
-1044.1975384359605 -161.34901948087298 -600.7773187127063 78.68003484922771 0.0 0.0
-985.9119901153795 -134.81482156016145 -558.3445178645508 81.09269271611532 0.0 0.0
-926.5296709092321 -110.58925540327414 -516.492787518744 83.3651325040885 0.0 0.0
-868.2502744873001 -90.74410686408748 -477.1469528274738 85.17763689481075 0.0 0.0
-810.3818358052969 -75.80311597581672 -439.5023328989368 85.87089862500869 0.0 0.0
-750.1179429960903 -64.60979498400744 -398.61939800343174 85.43392258227101 0.0 0.0
-680.9459757346742 -54.33549478542464 -342.60342514327044 84.96311399408737 0.0 0.0
-596.4220103971251 -37.78660635464142 -258.85677241831536 85.66692313563965 0.0 0.0
-476.12829414449675 -14.014474430651982 -166.31492559134216 91.0744536075945 0.0 0.0
-351.3038763961491 8.391298388842927 -103.04259462412723 110.09979396854386 0.0 0.0
-241.14908331211157 7.932467966054663 -69.94567073537306 120.99409933648366 0.0 0.0
-149.2837657709306 -4.196794267091366 -46.04461763108857 120.25567786490573 0.0 0.0
-75.48984805415735 -49.512333231935834 -37.50065438582796 87.71644879433396 0.0 0.0
-39.82916922680567 -67.43051620969408 -32.17790563094992 49.52435944125996 0.0 0.0
-36.30536288838564 -36.61434417008735 -21.875912117541894 -35.99682635483315 0.0 0.0
-80.26807140398367 -37.357267479147744 -35.28760166493942 -67.26590482157846 0.0 0.0
-164.55948610994653 -2.778600852684068 -50.20142608878918 -96.08045781923482 0.0 0.0
-272.4151436980969 4.239560268247532 -80.3978778090431 -96.34720542116752 0.0 0.0
-403.80768827951533 -0.42210642314400193 -123.56668410634262 -81.95460085173809 0.0 0.0
-535.0007320688994 -24.942456357495942 -201.148453857052 -65.915373725506 0.0 0.0
-640.2270525693959 -45.7782756960417 -296.8834097337407 -63.74040454696089 0.0 0.0
-719.5416778672325 -60.15087910832514 -372.6242741101079 -63.94579076341791 0.0 0.0
-789.148233225282 -74.1499890896203 -426.1046090629736 -65.1068450320713 0.0 0.0
-852.289133697074 -88.99734737417477 -468.2594835606191 -65.99420025375449 0.0 0.0
-913.5839459270621 -107.73831359446494 -509.0143224430726 -65.73220635787442 0.0 0.0
-975.876925690812 -131.2747036773638 -552.088268191939 -64.4515870699058 0.0 0.0
-1038.751182617175 -159.28084314619355 -597.5538005186154 -62.728263387819794 0.0 0.0
-1099.8900172296503 -187.09466181425063 -642.0226756163148 -61.0269982572051 0.0 0.0
-1156.3362909540817 -212.95520261056595 -683.1639017985193 -59.06282892504125 0.0 0.0
-1201.577499458315 -229.51615759125787 -714.1776891126798 -56.97303324278966 0.0 0.0
-1211.4006877511497 -213.18779011264894 -711.3405226141017 -56.55150275861714 0.0 0.0
-1143.3551444778136 -125.35458610221028 -634.0309213326296 -60.19286000021077 0.0 0.0
-987.0894447019346 39.658483293188596 -473.931070093196 -67.83812118824929 0.0 0.0
-762.1689175790423 255.0017555784176 -254.04565861238643 -80.41893846730318 0.0 0.0
-3404.989411506174 -2438.058086033853 -2909.367925250914 5.923439516664075e-11 0.0 0.0
-762.1689175797273 255.00175557767102 -254.04565861295583 80.41893846738368 0.0 0.0
-987.0894447018911 39.65848329316313 -473.93107009307283 67.83812118837972 0.0 0.0
-1143.3551444775762 -125.35458610204182 -634.0309213325722 60.192860000177525 0.0 0.0
-1211.4006877506852 -213.18779011229424 -711.3405226137994 56.55150275867197 0.0 0.0
-1201.5774994589149 -229.51615759201096 -714.1776891130443 56.97303324284012 0.0 0.0
-1156.3362909536763 -212.95520261031538 -683.163901798187 59.06282892504056 0.0 0.0
-1099.8900172289507 -187.0946618137064 -642.022675615852 61.02699825720655 0.0 0.0
-1038.7511826175505 -159.28084314676713 -597.5538005188812 62.7282633878258 0.0 0.0
-975.8769256898767 -131.27470367668693 -552.0882681913105 64.45158706989035 0.0 0.0
-913.5839459270554 -107.73831359468844 -509.0143224431034 65.73220635790462 0.0 0.0
-852.2891336966111 -88.99734737393558 -468.25948356030835 65.99420025359706 0.0 0.0
-789.1482332247754 -74.14998908933603 -426.104609062608 65.10684503188526 0.0 0.0
-719.5416778662741 -60.150879107597696 -372.62427410939364 63.945790763271106 0.0 0.0
-640.2270525687348 -45.778275695697644 -296.8834097331361 63.74040454685538 0.0 0.0
-535.0007320680065 -24.942456356896084 -201.14845385641254 65.91537372547607 0.0 0.0
-403.8076882793842 -0.42210642369895224 -123.56668410642094 81.95460085169834 0.0 0.0
-272.4151436977424 4.2395602684378755 -80.39787780890973 96.34720542109265 0.0 0.0
-164.55948610997112 -2.7786008529509845 -50.20142608887662 96.08045781910896 0.0 0.0
-80.26807140393878 -37.35726747917316 -35.28760166493357 67.26590482151197 0.0 0.0
-36.30536288838295 -36.614344170090035 -21.875912117541894 35.99682635473722 0.0 0.0
-34.05870252722826 -17.85812280802643 -15.575047600576411 -23.34730709644201 0.0 0.0
-82.17349010024927 -25.901081201996178 -32.422371390673625 -45.49342414872593 0.0 0.0
-178.16673595417308 -1.4842562824358692 -53.89529767098268 -67.36793961748656 0.0 0.0
-304.55008275509033 -0.23303419831751038 -91.29997248987806 -66.8217636291693 0.0 0.0
-452.24984093092974 -12.669874999223898 -147.16741722909438 -51.74474378365346 0.0 0.0
-582.3897175305475 -33.924599750329534 -235.29675747963756 -42.805535787575636 0.0 0.0
-671.8535629466988 -51.38208450819409 -327.1048684018472 -42.35447587973026 0.0 0.0
-752.2979425476442 -66.93921372878748 -397.8793880647968 -43.37671298360712 0.0 0.0
-823.3298486506875 -84.26384243817368 -450.11876304392183 -44.51248975853171 0.0 0.0
-889.5596177627883 -102.5288904700694 -494.36967627656634 -45.4210675015369 0.0 0.0
-954.8489716478405 -124.88542467904 -538.6804451031585 -45.47847935976265 0.0 0.0
-1020.7566797825912 -152.1186465130472 -585.3662441637448 -44.7020024394119 0.0 0.0
-1087.347435114189 -182.4407624890297 -633.8301097742104 -43.664630215255386 0.0 0.0
-1150.6857036939223 -213.06604427497746 -680.8091979723274 -42.538495136197625 0.0 0.0
-1207.0863333850557 -238.2650767204591 -721.6043262465226 -41.13837092989115 0.0 0.0
-1250.719989845401 -252.85732314584547 -750.747401476937 -39.00110029602334 0.0 0.0
-1271.522154356373 -247.39059286035058 -758.6336791960423 -36.69402899998472 0.0 0.0
-1230.1176632073716 -184.91081099999792 -707.3060782049364 -37.9532199023837 0.0 0.0
-1042.6156495209038 13.360811349037704 -515.0943902153276 -47.781141762201024 0.0 0.0
-738.301544163842 309.6593962178018 -214.7178807267469 -67.02019463680828 0.0 0.0
-3579.895204377971 -2575.596115053403 -3067.8498438451047 6.704148347580485e-11 0.0 0.0
-738.3015441648273 309.6593962167527 -214.71788072745812 67.0201946369549 0.0 0.0
-1042.6156495208409 13.360811349014526 -515.0943902152458 47.78114176233255 0.0 0.0
-1230.1176632073204 -184.9108110000009 -707.3060782048949 37.95321990245036 0.0 0.0
-1271.522154355488 -247.3905928595531 -758.6336791954161 36.69402899988038 0.0 0.0
-1250.7199898452322 -252.85732314582046 -750.7474014766659 39.00110029608086 0.0 0.0
-1207.0863333845657 -238.26507672009436 -721.6043262461818 41.13837092978442 0.0 0.0
-1150.6857036933102 -213.06604427456585 -680.8091979719158 42.53849513618584 0.0 0.0
-1087.3474351148666 -182.44076248996078 -633.8301097747013 43.6646302154409 0.0 0.0
-1020.756679782012 -152.1186465126628 -585.3662441633298 44.7020024393704 0.0 0.0
-954.8489716479753 -124.88542467943466 -538.6804451032082 45.47847935977384 0.0 0.0
-889.5596177627365 -102.52889047026054 -494.36967627650955 45.42106750142044 0.0 0.0
-823.3298486500926 -84.26384243784689 -450.11876304349397 44.512489758373356 0.0 0.0
-752.2979425467239 -66.93921372817493 -397.87938806413547 43.37671298360893 0.0 0.0
-671.8535629465428 -51.38208450837724 -327.10486840156227 42.35447587972723 0.0 0.0
-582.3897175296747 -33.92459974974262 -235.29675747894674 42.80553578751997 0.0 0.0
-452.2498409306098 -12.669874999505227 -147.16741722900872 51.74474378352926 0.0 0.0
-304.55008275488336 -0.23303419849854956 -91.29997248988151 66.82176362919968 0.0 0.0
-178.16673595413457 -1.4842562826392558 -53.89529767103214 67.36793961740223 0.0 0.0
-82.17349010019377 -25.90108120204283 -32.42237139067098 45.49342414870364 0.0 0.0
-34.058702527171064 -17.85812280798061 -15.575047600545503 23.34730709643544 0.0 0.0
-30.827596816477445 -10.166427866883907 -12.298207405008402 -13.219503779041595 0.0 0.0
-79.7342856749319 -16.746053848302093 -28.944101856970207 -22.787932765349456 0.0 0.0
-189.50441363431122 -1.2296921525026767 -57.220231736044155 -32.873531559267256 0.0 0.0
-338.65202071132666 -4.419749519021509 -102.83392101464179 -31.90681690454406 0.0 0.0
-501.3741021367597 -22.530225162734183 -172.4749966923452 -23.133476060873058 0.0 0.0
-616.6641706889638 -40.69798324369807 -266.2525908907704 -21.676308683857215 0.0 0.0
-700.336559553982 -54.46884471281899 -351.2637283111202 -22.600818321429166 0.0 0.0
-780.2351516562251 -74.31834997563158 -419.211166723705 -23.16751999261698 0.0 0.0
-853.4609196363665 -94.49032575777015 -471.38759569868535 -23.656827342405133 0.0 0.0
-923.1629654519577 -116.6256964692569 -518.6732435402868 -24.19420307944764 0.0 0.0
-992.1841427436333 -142.39994040761042 -566.4358044607342 -24.379188444564818 0.0 0.0
-1061.917916959464 -172.24750638357284 -616.3246046145189 -24.202862867422223 0.0 0.0
-1131.4648563114474 -206.0076985398783 -667.9834543057959 -23.758358507991034 0.0 0.0
-1197.5967501101766 -238.15553185651189 -717.1165330720746 -23.23223912946414 0.0 0.0
-1253.0040262066364 -262.00090007935887 -756.7563464421161 -22.491193794287394 0.0 0.0
-1291.237886904435 -271.25336563595397 -780.5394798462669 -21.053554078745 0.0 0.0
-1309.4256298502135 -263.64606466116675 -785.8770407330821 -18.60067550430807 0.0 0.0
-1308.275270632831 -241.1370849843149 -774.2123586083878 -16.9618751427513 0.0 0.0
-1209.1875802944464 -128.42640286206176 -669.0740141877295 -23.971419351296415 0.0 0.0
-720.8423847582766 356.49603330633795 -182.7947322704303 -49.66854453637665 0.0 0.0
-3552.306705121622 -2512.3379800493863 -3024.826842557982 1.7003287666739197e-11 0.0 0.0
-720.8423847588923 356.49603330567606 -182.79473227082283 49.66854453647944 0.0 0.0
-1209.18758029419 -128.42640286185343 -669.0740141874973 23.97141935123777 0.0 0.0
-1308.2752706330807 -241.137084984671 -774.2123586085888 16.961875142857927 0.0 0.0
-1309.4256298497953 -263.6460646608312 -785.8770407328037 18.60067550430684 0.0 0.0
-1291.2378869046677 -271.2533656363411 -780.5394798463627 21.053554078741854 0.0 0.0
-1253.004026205132 -262.00090007798576 -756.7563464410206 22.49119379421968 0.0 0.0
-1197.5967501099287 -238.15553185642986 -717.1165330718532 23.23223912936015 0.0 0.0
-1131.4648563110595 -206.0076985397266 -667.9834543055663 23.758358508085376 0.0 0.0
-1061.9179169596089 -172.24750638394585 -616.3246046145733 24.202862867438267 0.0 0.0
-992.1841427433559 -142.3999404076141 -566.4358044604812 24.379188444607163 0.0 0.0
-923.1629654518437 -116.62569646941031 -518.6732435401607 24.194203079444065 0.0 0.0
-853.4609196356913 -94.49032575737377 -471.3875956982384 23.656827342319723 0.0 0.0
-780.2351516554827 -74.31834997516279 -419.2111667231731 23.167519992598262 0.0 0.0
-700.3365595538583 -54.468844713071704 -351.2637283108959 22.60081832141566 0.0 0.0
-616.6641706882665 -40.697983243311775 -266.252590890179 21.676308683973666 0.0 0.0
-501.374102136449 -22.530225162873016 -172.47499669217052 23.133476060889326 0.0 0.0
-338.6520207110033 -4.419749519214731 -102.8339210146255 31.90681690455167 0.0 0.0
-189.50441363411926 -1.229692152458183 -57.22023173597323 32.873531559181586 0.0 0.0
-79.73428567480286 -16.74605384819583 -28.944101856899596 22.787932765253778 0.0 0.0
-30.82759681640333 -10.166427866856662 -12.298207404977997 13.219503779135872 0.0 0.0
-19.678099988406395 -5.078666631947309 -7.427029986106109 -8.190391521638617 0.0 0.0
-69.01244860787753 -9.488080083042622 -23.550158607276042 -9.464153227050662 0.0 0.0
-197.61131340335422 -2.8254087657176825 -60.13101665072155 -11.075847423852744 0.0 0.0
-380.34741643642866 -18.826710822594148 -120.52584811100712 -8.751347915204036 0.0 0.0
-566.3702840143441 -61.68246571334231 -214.6916921088395 -1.0105298378633698 0.0 0.0
-699.0217002403272 -105.25744930277313 -334.3592396580081 1.0588635357268892 0.0 0.0
-810.717726810162 -150.08874535573628 -446.84790913631986 0.8121958834846268 0.0 0.0
-928.5992938853084 -209.47428321116382 -551.6971307167989 -0.4880274919887597 0.0 0.0
-1051.9672018582055 -280.6878560586017 -654.0117847464705 -1.9865354544185116 0.0 0.0
-1189.3754099091702 -370.3162575421415 -768.7233926000864 -3.5642999475943693 0.0 0.0
-1346.2470947773359 -483.3109186559248 -903.7423273965951 -5.074845891821596 0.0 0.0
-1523.1788390242195 -620.6613344173477 -1060.581317592308 -6.3291659360534815 0.0 0.0
-1715.3575619330454 -775.9251810296765 -1233.8596833021334 -7.174939866201576 0.0 0.0
-1914.034759403029 -940.2029580815463 -1414.9486473898985 -7.901472516926518 0.0 0.0
-2104.2754902629517 -1098.5196453209874 -1588.9339356069806 -8.330191768327694 0.0 0.0
-2265.1675474401995 -1230.311777118588 -1735.1375077866164 -8.204589202253732 0.0 0.0
-2370.7873795218024 -1310.5337116058436 -1828.1268479292994 -7.065488491613188 0.0 0.0
-2402.068685435474 -1321.090939682877 -1848.9678183901956 -5.119119997490632 0.0 0.0
-2424.213336711473 -1328.3707302931894 -1862.496761454197 -10.019500933057982 0.0 0.0
-2450.547122918415 -1352.9730706590187 -1885.0767472841678 -38.82607688894262 0.0 0.0
-5787.385330271996 -4719.527478536626 -5228.418587737003 -1.3912426766182762e-11 0.0 0.0
-2450.547122918848 -1352.9730706595208 -1885.07674728435 38.826076889102524 0.0 0.0
-2424.213336709939 -1328.3707302917064 -1862.4967614528632 10.019500933085354 0.0 0.0
-2402.0686854343157 -1321.0909396818042 -1848.9678183892493 5.1191199976155275 0.0 0.0
-2370.7873795217797 -1310.5337116059213 -1828.1268479291189 7.065488491620698 0.0 0.0
-2265.1675474402596 -1230.3117771188147 -1735.1375077865428 8.204589202193524 0.0 0.0
-2104.275490260241 -1098.5196453183835 -1588.9339356047892 8.330191768204532 0.0 0.0
-1914.034759403275 -940.2029580820209 -1414.948647389642 7.901472516763093 0.0 0.0
-1715.3575619309959 -775.9251810278245 -1233.8596833006425 7.174939866312766 0.0 0.0
-1523.1788390228248 -620.6613344161588 -1060.581317591153 6.3291659360186365 0.0 0.0
-1346.2470947763077 -483.3109186551639 -903.7423273957132 5.07484589184304 0.0 0.0
-1189.3754099091157 -370.3162575423662 -768.7233925998464 3.564299947532973 0.0 0.0
-1051.9672018573297 -280.6878560580245 -654.0117847457986 1.9865354543372185 0.0 0.0
-928.5992938845759 -209.47428321074153 -551.6971307161866 0.4880274919929306 0.0 0.0
-810.7177268091581 -150.0887453550428 -446.8479091355225 -0.8121958834395961 0.0 0.0
-699.021700239829 -105.25744930258591 -334.3592396574525 -1.0588635355881166 0.0 0.0
-566.3702840140836 -61.6824657135388 -214.69169210862302 1.0105298380290648 0.0 0.0
-380.34741643604855 -18.826710822595466 -120.525848110883 8.75134791529873 0.0 0.0
-197.6113134031452 -2.825408765440919 -60.13101665057583 11.075847423756407 0.0 0.0
-69.0124486076997 -9.488080082755237 -23.550158607136478 9.464153226888902 0.0 0.0
-19.678099988267554 -5.0786666319846745 -7.42702998607567 8.190391521715089 0.0 0.0
SCALARS Strain float 6
LOOKUP_TABLE default
0.013537634403464352 -0.022780431129733957 0.0 -0.0011693698746829244 0.0 0.0
0.008309554945750364 -0.0022750927668126523 0.0 -0.006969532024554789 0.0 0.0
0.002498020704192864 -0.0006121371597251514 0.0 -0.0007739165521055791 0.0 0.0
0.0021632420391220664 -0.0008649542920445368 0.0 -1.0760741666035981e-05 0.0 0.0
0.003075850076487417 -0.001307555830083395 0.0 0.00014233926836577698 0.0 0.0
0.005055816185171764 -0.00277217997390771 0.0 0.00027592960453271204 0.0 0.0
0.008462634681639523 -0.005640667682977768 0.0 0.0003687749810143327 0.0 0.0
0.013549322518794357 -0.0101712439270796 0.0 0.0004037955097243585 0.0 0.0
0.02052568609884284 -0.016553875436656408 0.0 0.0003847818243859113 0.0 0.0
0.029477574106953862 -0.024818491854410367 0.0 0.00029120038303465074 0.0 0.0
0.040378481969729624 -0.03490444253117948 0.0 0.00015944332298981794 0.0 0.0
0.053145891195028355 -0.04672554147872589 0.0 -1.1145918002236676e-05 0.0 0.0
0.06767061421848222 -0.06020417447605449 0.0 -0.0002592933913742486 0.0 0.0
0.08383384255818875 -0.07526026482767342 0.0 -0.0005375249366789947 0.0 0.0
0.1014349769121757 -0.09174627341399622 0.0 -0.0008852059104288467 0.0 0.0
0.12003648274082393 -0.10928277597711678 0.0 -0.0012994511513290978 0.0 0.0
0.13885328053591114 -0.12714183710196011 0.0 -0.0017037867447419943 0.0 0.0
0.15673555294353453 -0.1442320670275718 0.0 -0.001942030256027326 0.0 0.0
0.17228039952964674 -0.15917072029104984 0.0 -0.0018386044540140828 0.0 0.0
0.18381256800484458 -0.17035544511145362 0.0 -0.0019839366628606695 0.0 0.0
0.18834217061873834 -0.17493724461454463 0.0 -5.221517662690189e-16 0.0 0.0
0.18381256800481993 -0.17035544511143597 0.0 0.0019839366628705037 0.0 0.0
0.17228039952959642 -0.15917072029100449 0.0 0.0018386044540199403 0.0 0.0
0.1567355529434623 -0.14423206702749874 0.0 0.0019420302560325337 0.0 0.0
0.1388532805358285 -0.12714183710187799 0.0 0.0017037867447423586 0.0 0.0
0.12003648274073841 -0.10928277597703723 0.0 0.001299451151326434 0.0 0.0
0.10143497691208962 -0.09174627341392054 0.0 0.0008852059104277523 0.0 0.0
0.08383384255810108 -0.07526026482759272 0.0 0.0005375249366778474 0.0 0.0
0.06767061421839596 -0.06020417447598246 0.0 0.00025929339137429177 0.0 0.0
0.053145891194949266 -0.046725541478656735 0.0 1.1145917997402652e-05 0.0 0.0
0.04037848196966125 -0.03490444253111283 0.0 -0.00015944332298988592 0.0 0.0
0.0294775741068984 -0.024818491854359845 0.0 -0.0002912003830377718 0.0 0.0
0.02052568609880034 -0.016553875436617467 0.0 -0.0003847818243852526 0.0 0.0
0.013549322518763958 -0.010171243927054164 0.0 -0.0004037955097215076 0.0 0.0
0.008462634681619438 -0.005640667682963683 0.0 -0.0003687749810136087 0.0 0.0
0.00505581618516104 -0.0027721799739008693 0.0 -0.0002759296045303433 0.0 0.0
0.003075850076483361 -0.0013075558300815 0.0 -0.00014233926836670712 0.0 0.0
0.0021632420391207705 -0.000864954292043754 0.0 1.0760741667160031e-05 0.0 0.0
0.0024980207041906993 -0.0006121371597252129 0.0 0.0007739165521031248 0.0 0.0
0.008309554945744533 -0.0022750927668092158 0.0 0.006969532024549016 0.0 0.0
0.013537634403456372 -0.02278043112970952 0.0 0.0011693698746321774 0.0 0.0
0.009381823057164125 -0.02038966523360392 0.0 -0.0006981409543483769 0.0 0.0
0.005505406786637454 -0.0016951824701658042 0.0 -0.005622717316962126 0.0 0.0
0.0016665958960058354 -0.00047819109210824355 0.0 -0.0004970944718716468 0.0 0.0
0.0019164622762783134 -0.0008149109193063364 0.0 -0.0002001951907276168 0.0 0.0
0.002662599248021816 -0.001182905604233636 0.0 -0.00015557204275713828 0.0 0.0
0.0043446010863974005 -0.0024836898622866543 0.0 -0.00021383744543497502 0.0 0.0
0.00737349708373382 -0.005151287478550803 0.0 -0.00046936713423292897 0.0 0.0
0.011985933517037396 -0.009436842443064601 0.0 -0.000862642556709987 0.0 0.0
0.01834868422619745 -0.015510636922502177 0.0 -0.0014091132913240816 0.0 0.0
0.026494804406485595 -0.02337647052223434 0.0 -0.002083632908622187 0.0 0.0
0.036360795391138644 -0.03295411440689327 0.0 -0.0028166259769794697 0.0 0.0
0.047859679466973365 -0.04415111803370547 0.0 -0.00356111510647751 0.0 0.0
0.06092906892765751 -0.056907373946863 0.0 -0.0043432965586463765 0.0 0.0
0.07549518895174681 -0.07117113539425104 0.0 -0.005175378946583947 0.0 0.0
0.09139009005681896 -0.0868080242040571 0.0 -0.00603813292796709 0.0 0.0
0.10823587946805405 -0.10346845975291633 0.0 -0.006864027068009234 0.0 0.0
0.12533964825001986 -0.12047735301369414 0.0 -0.007447971078253054 0.0 0.0
0.14167763562024785 -0.1368081831698335 0.0 -0.007467910878535527 0.0 0.0
0.15589866638046 -0.15112069479911402 0.0 -0.006691622181849003 0.0 0.0
0.1661094211891855 -0.16168731548030102 0.0 -0.005565819016914983 0.0 0.0
0.16992891156080972 -0.16606404019996296 0.0 4.214510684885653e-15 0.0 0.0
0.16610942118916258 -0.16168731548028667 0.0 0.0055658190169337604 0.0 0.0
0.15589866638041516 -0.1511206947990712 0.0 0.006691622181867003 0.0 0.0
0.1416776356201849 -0.13680818316976376 0.0 0.007467910878545107 0.0 0.0
0.12533964824994737 -0.12047735301362333 0.0 0.0074479710782549965 0.0 0.0
0.10823587946797782 -0.10346845975283817 0.0 0.006864027068005824 0.0 0.0
0.09139009005674094 -0.08680802420398091 0.0 0.006038132927963831 0.0 0.0
0.07549518895166828 -0.07117113539417023 0.0 0.005175378946579656 0.0 0.0
0.06092906892758049 -0.056907373946792544 0.0 0.004343296558643912 0.0 0.0
0.047859679466902214 -0.04415111803363798 0.0 0.0035611151064709862 0.0 0.0
0.03636079539107674 -0.032954114406828036 0.0 0.0028166259769749225 0.0 0.0
0.026494804406435372 -0.023376470522186065 0.0 0.0020836329086161643 0.0 0.0
0.018348684226159193 -0.015510636922465314 0.0 0.0014091132913210177 0.0 0.0
0.011985933517009323 -0.009436842443039299 0.0 0.0008626425567085221 0.0 0.0
0.007373497083715645 -0.005151287478536513 0.0 0.00046936713423217853 0.0 0.0
0.0043446010863881735 -0.002483689862280532 0.0 0.0002138374454345149 0.0 0.0
0.0026625992480186263 -0.0011829056042316941 0.0 0.0001555720427565129 0.0 0.0
0.0019164622762777974 -0.000814910919306254 0.0 0.00020019519072747886 0.0 0.0
0.0016665958960056363 -0.0004781910921083797 0.0 0.0004970944718710742 0.0 0.0
0.005505406786630701 -0.0016951824701624658 0.0 0.005622717316952069 0.0 0.0
0.009381823057150712 -0.020389665233578352 0.0 0.0006981409543106858 0.0 0.0
0.0068414535267325785 -0.016214614448336665 0.0 -0.0035768505678037115 0.0 0.0
0.0038901737378454248 -0.0009361099204161316 0.0 -0.005598905017663588 0.0 0.0
0.0011655998186666345 -0.0002683900582141502 0.0 -0.00046051626153404757 0.0 0.0
0.0016296667954900867 -0.000695295119458998 0.0 -0.0004803739680218689 0.0 0.0
0.002287943181284086 -0.0009692346237659801 0.0 -0.00047992497676438135 0.0 0.0
0.0036699482325704934 -0.0019428091836860939 0.0 -0.0005784192247617688 0.0 0.0
0.006295819728610971 -0.0041887381910285845 0.0 -0.0010633079678129087 0.0 0.0
0.010410112014357105 -0.007974300972907616 0.0 -0.0018321742749522738 0.0 0.0
0.016127001026647707 -0.013412241788606609 0.0 -0.0028883030165229415 0.0 0.0
0.023443359962983464 -0.02046938373962249 0.0 -0.0041643897948460094 0.0 0.0
0.03226648623991698 -0.02902548123364633 0.0 -0.005541101229157959 0.0 0.0
0.04250359907598705 -0.03897909773976723 0.0 -0.006913552918142099 0.0 0.0
0.05411062640000839 -0.050292085357636046 0.0 -0.008282005161652457 0.0 0.0
0.06706079775150446 -0.06295953103726781 0.0 -0.009724633837776572 0.0 0.0
0.0812339434982067 -0.07688875551747883 0.0 -0.011232072507121754 0.0 0.0
0.09631642373819742 -0.09179200281601292 0.0 -0.012647213830356049 0.0 0.0
0.1117304810220824 -0.10710477430257863 0.0 -0.013627374724368368 0.0 0.0
0.1265667001681753 -0.12193178182212466 0.0 -0.013681790164872946 0.0 0.0
0.13949473408383656 -0.1349948925498426 0.0 -0.012444279805117493 0.0 0.0
0.1488031732403644 -0.1445292002846014 0.0 -0.00985903907687873 0.0 0.0
0.15232118590969163 -0.1487179039968447 0.0 1.2443605174050631e-14 0.0 0.0
0.14880317324034373 -0.14452920028458266 0.0 0.00985903907691096 0.0 0.0
0.1394947340837965 -0.13499489254980354 0.0 0.012444279805151968 0.0 0.0
0.12656670016812022 -0.1219317818220649 0.0 0.013681790164890822 0.0 0.0
0.11173048102201918 -0.1071047743025205 0.0 0.013627374724371848 0.0 0.0
0.09631642373812933 -0.09179200281593732 0.0 0.012647213830350505 0.0 0.0
0.08123394349813637 -0.0768887555174069 0.0 0.011232072507118218 0.0 0.0
0.06706079775143467 -0.06295953103719792 0.0 0.009724633837770832 0.0 0.0
0.05411062639994048 -0.05029208535757147 0.0 0.0082820051616451 0.0 0.0
0.042503599075923784 -0.0389790977397036 0.0 0.006913552918131517 0.0 0.0
0.032266486239861704 -0.029025481233590784 0.0 0.005541101229147841 0.0 0.0
0.023443359962938188 -0.020469383739579277 0.0 0.004164389794835506 0.0 0.0
0.016127001026613116 -0.013412241788574787 0.0 0.002888303016516205 0.0 0.0
0.010410112014332562 -0.007974300972883269 0.0 0.001832174274946652 0.0 0.0
0.0062958197285954655 -0.004188738191013523 0.0 0.0010633079678122317 0.0 0.0
0.003669948232563198 -0.0019428091836829536 0.0 0.0005784192247589298 0.0 0.0
0.0022879431812817667 -0.0009692346237639912 0.0 0.00047992497676328273 0.0 0.0
0.0016296667954897172 -0.0006952951194597646 0.0 0.0004803739680208256 0.0 0.0
0.0011655998186668993 -0.00026839005821472034 0.0 0.00046051626153385903 0.0 0.0
0.003890173737838905 -0.0009361099204127666 0.0 0.005598905017648568 0.0 0.0
0.006841453526719324 -0.016214614448311255 0.0 0.0035768505677813917 0.0 0.0
0.005143940637742218 -0.013031490629907095 0.0 -0.004003803734601252 0.0 0.0
0.0028591240878357927 -0.0006769872255634603 0.0 -0.005104988221619021 0.0 0.0
0.000832198012171365 -0.00015164741089826765 0.0 -0.0007478756607818686 0.0 0.0
0.0013483022725303492 -0.0005561948617864255 0.0 -0.000758693788823191 0.0 0.0
0.0019438929004929025 -0.0008062471146615107 0.0 -0.0008008712499573466 0.0 0.0
0.003049989565286731 -0.0014927377520466407 0.0 -0.0009059412887404178 0.0 0.0
0.005249252122179196 -0.0032783213851618853 0.0 -0.0014617142397286146 0.0 0.0
0.008835559759152695 -0.006530994719611433 0.0 -0.0025373416756712852 0.0 0.0
0.013882533385132973 -0.011304197238368823 0.0 -0.003980605988113895 0.0 0.0
0.02034958879225847 -0.017529717399952988 0.0 -0.005715960427596235 0.0 0.0
0.02812057940686629 -0.025056344495840432 0.0 -0.007576080783369776 0.0 0.0
0.03709704982189756 -0.03377055426116167 0.0 -0.009425333832227331 0.0 0.0
0.04724651479059458 -0.043643971575503246 0.0 -0.011258451359158768 0.0 0.0
0.0585666747196423 -0.05470265819485488 0.0 -0.013154993639388098 0.0 0.0
0.07099569531115134 -0.06690371664856441 0.0 -0.015123407131229897 0.0 0.0
0.08430564251792184 -0.08003495893748273 0.0 -0.016989220031447774 0.0 0.0
0.09802526018176952 -0.0936473561412401 0.0 -0.018329691329898517 0.0 0.0
0.11136249218665292 -0.10697657441650138 0.0 -0.018550088643282336 0.0 0.0
0.12312011468175774 -0.11884288665379525 0.0 -0.01702954987097102 0.0 0.0
0.13179960062624077 -0.1276809457249149 0.0 -0.012975453098482788 0.0 0.0
0.13517202647685994 -0.1319961221297813 0.0 1.948788352912345e-14 0.0 0.0
0.13179960062622198 -0.12768094572489747 0.0 0.012975453098527448 0.0 0.0
0.12312011468172174 -0.11884288665376 0.0 0.017029549871014103 0.0 0.0
0.11136249218660461 -0.10697657441645628 0.0 0.018550088643306144 0.0 0.0
0.09802526018171444 -0.09364735614118817 0.0 0.018329691329903502 0.0 0.0
0.08430564251786214 -0.08003495893742119 0.0 0.016989220031440943 0.0 0.0
0.07099569531108957 -0.06690371664850077 0.0 0.015123407131224259 0.0 0.0
0.05856667471958095 -0.05470265819479672 0.0 0.013154993639382155 0.0 0.0
0.04724651479053553 -0.043643971575450725 0.0 0.01125845135914782 0.0 0.0
0.03709704982184299 -0.03377055426110292 0.0 0.00942533383221111 0.0 0.0
0.02812057940681798 -0.025056344495795788 0.0 0.007576080783356037 0.0 0.0
0.0203495887922184 -0.01752971739991536 0.0 0.005715960427581299 0.0 0.0
0.013882533385102362 -0.011304197238342324 0.0 0.003980605988105325 0.0 0.0
0.008835559759131527 -0.006530994719589414 0.0 0.0025373416756642037 0.0 0.0
0.005249252122166288 -0.0032783213851515112 0.0 0.00146171423972489 0.0 0.0
0.00304998956528058 -0.0014927377520438437 0.0 0.0009059412887382941 0.0 0.0
0.001943892900491144 -0.0008062471146605982 0.0 0.00080087124995524 0.0 0.0
0.0013483022725301339 -0.0005561948617871894 0.0 0.0007586937888224209 0.0 0.0
0.0008321980121715327 -0.00015164741089894278 0.0 0.0007478756607807683 0.0 0.0
0.0028591240878303027 -0.0006769872255602896 0.0 0.005104988221605395 0.0 0.0
0.005143940637730972 -0.013031490629884459 0.0 0.004003803734585273 0.0 0.0
0.0038833166710136088 -0.010476967988242328 0.0 -0.0035729681376681834 0.0 0.0
0.0021292750687064653 -0.0005504445058824045 0.0 -0.004561655627169893 0.0 0.0
0.0006045638195104271 -9.376857578135821e-05 0.0 -0.0011348242172004113 0.0 0.0
0.0010904826013595852 -0.00042308300757544937 0.0 -0.001057760810633312 0.0 0.0
0.0016240511623850538 -0.0006684267978667941 0.0 -0.001119128200974482 0.0 0.0
0.002496316913207255 -0.0011426323261254647 0.0 -0.0012140639135455023 0.0 0.0
0.004258605958563324 -0.002465819731722597 0.0 -0.0017399173913502208 0.0 0.0
0.007280089548190054 -0.005126089164579921 0.0 -0.002938945662918964 0.0 0.0
0.011638267344915697 -0.009212057421234649 0.0 -0.004677975859236561 0.0 0.0
0.017238069743702216 -0.014586065692232943 0.0 -0.006731079539812636 0.0 0.0
0.023949853000845116 -0.021074699174317403 0.0 -0.008923658561472264 0.0 0.0
0.03166430191450007 -0.02854997175441655 0.0 -0.011097356501687375 0.0 0.0
0.04035491871701119 -0.03698677446123216 0.0 -0.013249277657180918 0.0 0.0
0.05004847549921025 -0.04643515270495214 0.0 -0.015462582065397659 0.0 0.0
0.06072272480565834 -0.05689690779221654 0.0 -0.017734085717444868 0.0 0.0
0.07222895992518602 -0.068233754612607 0.0 -0.019879121480094752 0.0 0.0
0.08422306652431198 -0.08011210652324342 0.0 -0.021504687708116962 0.0 0.0
0.09606239799947029 -0.0919196136256736 0.0 -0.021980343193766107 0.0 0.0
0.10674176038380477 -0.1026720763060529 0.0 -0.020348173621239633 0.0 0.0
0.11496592174426186 -0.11102726294103753 0.0 -0.015346400184240034 0.0 0.0
0.11828964181055812 -0.11563022821116964 0.0 2.1034389507956774e-14 0.0 0.0
0.11496592174424453 -0.11102726294102072 0.0 0.015346400184290461 0.0 0.0
0.1067417603837729 -0.10267207630602083 0.0 0.020348173621285912 0.0 0.0
0.09606239799942878 -0.09191961362563525 0.0 0.021980343193794976 0.0 0.0
0.08422306652426448 -0.08011210652319724 0.0 0.021504687708121258 0.0 0.0
0.07222895992513433 -0.0682337546125556 0.0 0.01987912148008603 0.0 0.0
0.060722724805604866 -0.05689690779216505 0.0 0.017734085717438 0.0 0.0
0.0500484754991574 -0.04643515270490082 0.0 0.015462582065389759 0.0 0.0
0.04035491871696069 -0.036986774461187234 0.0 0.013249277657169562 0.0 0.0
0.031664301914453644 -0.0285499717543631 0.0 0.011097356501672446 0.0 0.0
0.023949853000803836 -0.02107469917427847 0.0 0.008923658561453059 0.0 0.0
0.017238069743667535 -0.014586065692201375 0.0 0.006731079539795747 0.0 0.0
0.011638267344889456 -0.009212057421211036 0.0 0.004677975859225868 0.0 0.0
0.0072800895481721015 -0.00512608916456072 0.0 0.002938945662910991 0.0 0.0
0.0042586059585532805 -0.002465819731715679 0.0 0.0017399173913459545 0.0 0.0
0.002496316913203039 -0.0011426323261223969 0.0 0.0012140639135441197 0.0 0.0
0.001624051162383786 -0.0006684267978669486 0.0 0.0011191282009719978 0.0 0.0
0.0010904826013595072 -0.0004230830075753058 0.0 0.0010577608106315704 0.0 0.0
0.0006045638195103155 -9.376857578165964e-05 0.0 0.001134824217197636 0.0 0.0
0.0021292750687013596 -0.0005504445058797615 0.0 0.004561655627158213 0.0 0.0
0.0038833166710036554 -0.01047696798822304 0.0 0.003572968137655768 0.0 0.0
0.0029013871472093095 -0.008352047202394741 0.0 -0.002971742455252545 0.0 0.0
0.001580057195390711 -0.00046920410960076724 0.0 -0.0040368136706856565 0.0 0.0
0.0004400437527337215 -7.195180961406739e-05 0.0 -0.0015025097998051268 0.0 0.0
0.0008550019050237923 -0.00030298609916174575 0.0 -0.0013602632583589141 0.0 0.0
0.0013242142518421374 -0.0005439505691632494 0.0 -0.0014276393531795634 0.0 0.0
0.002002383624175659 -0.0008727897499855211 0.0 -0.001506149364682378 0.0 0.0
0.0033543380847479965 -0.001787362574036765 0.0 -0.001971357220267562 0.0 0.0
0.0057794492535225995 -0.003814657089639015 0.0 -0.003101320276157821 0.0 0.0
0.009409294917585225 -0.007161115220782775 0.0 -0.004950270663184813 0.0 0.0
0.014133784191935336 -0.011667381059564975 0.0 -0.007199274903118011 0.0 0.0
0.019778302451836132 -0.017108837643747037 0.0 -0.009573592952651035 0.0 0.0
0.026231445578048566 -0.023345637848607537 0.0 -0.011926221063910593 0.0 0.0
0.033467431867099835 -0.03034958225163125 0.0 -0.014244545637584522 0.0 0.0
0.04152948760939738 -0.0381889477403387 0.0 -0.016614775850962066 0.0 0.0
0.05044555411118075 -0.046906709560217905 0.0 -0.019042972231936673 0.0 0.0
0.060132162795457786 -0.05643080153185216 0.0 -0.021333911393038044 0.0 0.0
0.07034745395747295 -0.06652581811015362 0.0 -0.023126472279636545 0.0 0.0
0.08065087578430168 -0.07676125490609303 0.0 -0.023845560201966105 0.0 0.0
0.09029171752365237 -0.08642926292441928 0.0 -0.02238297500126665 0.0 0.0
0.09817173031055162 -0.09442795584146677 0.0 -0.017068933252830796 0.0 0.0
0.10151466751209465 -0.0994504661651094 0.0 2.12642403685237e-14 0.0 0.0
0.09817173031053633 -0.09442795584144692 0.0 0.017068933252881724 0.0 0.0
0.0902917175236253 -0.08642926292439183 0.0 0.02238297500131442 0.0 0.0
0.08065087578426662 -0.07676125490605434 0.0 0.023845560201996175 0.0 0.0
0.07034745395743243 -0.06652581811011099 0.0 0.023126472279641888 0.0 0.0
0.06013216279541403 -0.05643080153180448 0.0 0.02133391139303087 0.0 0.0
0.05044555411113638 -0.04690670956017282 0.0 0.01904297223192847 0.0 0.0
0.041529487609353835 -0.03818894774029603 0.0 0.01661477585095309 0.0 0.0
0.03346743186705792 -0.030349582251588375 0.0 0.01424454563757397 0.0 0.0
0.0262314455780098 -0.023345637848566206 0.0 0.011926221063895511 0.0 0.0
0.019778302451801698 -0.017108837643716793 0.0 0.009573592952630916 0.0 0.0
0.01413378419190657 -0.011667381059537005 0.0 0.007199274903099568 0.0 0.0
0.009409294917563375 -0.007161115220761682 0.0 0.004950270663173428 0.0 0.0
0.005779449253508358 -0.003814657089624046 0.0 0.003101320276150914 0.0 0.0
0.003354338084740325 -0.0017873625740306097 0.0 0.0019713572202642964 0.0 0.0
0.002002383624172499 -0.0008727897499862687 0.0 0.0015061493646795156 0.0 0.0
0.0013242142518410662 -0.0005439505691620971 0.0 0.0014276393531787027 0.0 0.0
0.0008550019050235214 -0.0003029860991612015 0.0 0.0013602632583578562 0.0 0.0
0.00044004375273375677 -7.195180961358337e-05 0.0 0.0015025097998022645 0.0 0.0
0.0015800571953867109 -0.0004692041095990457 0.0 0.004036813670676662 0.0 0.0
0.0029013871472014273 -0.008352047202378456 0.0 0.0029717424552444297 0.0 0.0
0.002126967395119395 -0.0065626260546775474 0.0 -0.002416678609832608 0.0 0.0
0.0011545578866254678 -0.00040939513990546683 0.0 -0.003562414948967748 0.0 0.0
0.0003109579173959782 -6.49146201099367e-05 0.0 -0.0018063978414558945 0.0 0.0
0.00063619684223288 -0.00019674443331504156 0.0 -0.001642413035540261 0.0 0.0
0.0010369204113703226 -0.00041984039830647883 0.0 -0.001707739576955976 0.0 0.0
0.0015559610945089215 -0.0006635895101542319 0.0 -0.0017977857640279768 0.0 0.0
0.002539752354608131 -0.0012436453125777478 0.0 -0.002150335657623575 0.0 0.0
0.004377344138964888 -0.0026614900732162 0.0 -0.0031352665829092207 0.0 0.0
0.007239474948398059 -0.005207818840346387 0.0 -0.004840175936355765 0.0 0.0
0.011057313246776376 -0.008806519590998985 0.0 -0.007088794858954876 0.0 0.0
0.015631916168597253 -0.013190047723585396 0.0 -0.009506094056371416 0.0 0.0
0.020822938906249443 -0.018187175821774062 0.0 -0.01189588944441475 0.0 0.0
0.02660936591679578 -0.023765628488287012 0.0 -0.014232290559473532 0.0 0.0
0.03304737435116504 -0.030001926886341394 0.0 -0.016601913348969224 0.0 0.0
0.04019684541310836 -0.03697080205380807 0.0 -0.019017043368488196 0.0 0.0
0.04804014571900538 -0.044665662784222376 0.0 -0.021322716872280257 0.0 0.0
0.056437005168004775 -0.05293340014045414 0.0 -0.023165119985685552 0.0 0.0
0.06513279667951925 -0.06151736345608086 0.0 -0.02407715346840574 0.0 0.0
0.07368917091750081 -0.07004484249197884 0.0 -0.02304464731608671 0.0 0.0
0.08127279844852241 -0.07773290284715179 0.0 -0.01811911929876748 0.0 0.0
0.08468506880045851 -0.08329949109152711 0.0 2.090688733247248e-14 0.0 0.0
0.08127279844850949 -0.07773290284713988 0.0 0.018119119298817876 0.0 0.0
0.07368917091747844 -0.07004484249195947 0.0 0.0230446473161373 0.0 0.0
0.06513279667949075 -0.06151736345605284 0.0 0.024077153468437695 0.0 0.0
0.05643700516797143 -0.052933400140418 0.0 0.023165119985690957 0.0 0.0
0.04804014571896945 -0.044665662784187245 0.0 0.021322716872269526 0.0 0.0
0.04019684541307233 -0.0369708020537722 0.0 0.01901704336847837 0.0 0.0
0.03304737435113083 -0.03000192688630931 0.0 0.016601913348959517 0.0 0.0
0.026609365916763033 -0.02376562848825301 0.0 0.01423229055946285 0.0 0.0
0.020822938906218683 -0.018187175821747233 0.0 0.011895889444397602 0.0 0.0
0.015631916168569626 -0.013190047723561242 0.0 0.00950609405635072 0.0 0.0
0.011057313246753459 -0.008806519590974683 0.0 0.0070887948589368754 0.0 0.0
0.007239474948381216 -0.005207818840330521 0.0 0.004840175936344275 0.0 0.0
0.004377344138954101 -0.002661490073205439 0.0 0.0031352665829014687 0.0 0.0
0.002539752354602466 -0.0012436453125786778 0.0 0.0021503356576201785 0.0 0.0
0.0015559610945068024 -0.0006635895101530891 0.0 0.0017977857640254845 0.0 0.0
0.0010369204113696358 -0.0004198403983054835 0.0 0.0017077395769545412 0.0 0.0
0.0006361968422326197 -0.00019674443331535576 0.0 0.0016424130355386472 0.0 0.0
0.000310957917395897 -6.491462010966115e-05 0.0 0.001806397841453518 0.0 0.0
0.001154557886622223 -0.00040939513990472654 0.0 0.0035624149489598593 0.0 0.0
0.0021269673951133665 -0.006562626054664142 0.0 0.002416678609828578 0.0 0.0
0.0015160080809605452 -0.0050641245661418284 0.0 -0.0019882948230626587 0.0 0.0
0.000818991275869598 -0.0003672083351722421 0.0 -0.003134323314508991 0.0 0.0
0.00019892215203951195 -5.65982150988397e-05 0.0 -0.002038174496344089 0.0 0.0
0.0004284434534146702 -0.00010263764268835562 0.0 -0.0018863329771664846 0.0 0.0
0.0007529815246302841 -0.0002897630012696108 0.0 -0.0019446537819504837 0.0 0.0
0.0011475799410431704 -0.0004888467929569823 0.0 -0.0020787058324535416 0.0 0.0
0.0018144205700567364 -0.0008276079063329878 0.0 -0.002316235387751393 0.0 0.0
0.003092321834573231 -0.0017003242986793389 0.0 -0.003057914178322071 0.0 0.0
0.005181580961262851 -0.003435697165999195 0.0 -0.0044594074988702544 0.0 0.0
0.008052016538361635 -0.0060677449674257705 0.0 -0.006432785771724359 0.0 0.0
0.011531634977467045 -0.00935965208131322 0.0 -0.008695306178800223 0.0 0.0
0.01546351280126964 -0.013112624411346393 0.0 -0.01096686806751636 0.0 0.0
0.01981042327718768 -0.01727367266599314 0.0 -0.01318236787334678 0.0 0.0
0.024629723305700697 -0.021917344017923147 0.0 -0.015397896065661863 0.0 0.0
0.03001072071164107 -0.02713642152370988 0.0 -0.017647014436384063 0.0 0.0
0.03599485189028306 -0.032982217139224196 0.0 -0.019812902133546872 0.0 0.0
0.042524115029083716 -0.03938967631167831 0.0 -0.02159053814322253 0.0 0.0
0.049513764500201986 -0.046228124090557335 0.0 -0.0225786247022316 0.0 0.0
0.056864203057226476 -0.05346055502832401 0.0 -0.02214739051698984 0.0 0.0
0.06411380961011183 -0.06077618733071238 0.0 -0.018376827963572904 0.0 0.0
0.06761601769950552 -0.0670089623220034 0.0 1.911925479047838e-14 0.0 0.0
0.06411380961010225 -0.06077618733070393 0.0 0.01837682796361873 0.0 0.0
0.05686420305720883 -0.05346055502830933 0.0 0.02214739051703853 0.0 0.0
0.04951376450017959 -0.046228124090535457 0.0 0.022578624702258715 0.0 0.0
0.042524115029057556 -0.039389676311655214 0.0 0.021590538143224706 0.0 0.0
0.03599485189025498 -0.032982217139197065 0.0 0.019812902133534722 0.0 0.0
0.03001072071161407 -0.02713642152368298 0.0 0.017647014436374567 0.0 0.0
0.0246297233056759 -0.02191734401790056 0.0 0.015397896065653793 0.0 0.0
0.0198104232771638 -0.0172736726659679 0.0 0.01318236787333621 0.0 0.0
0.015463512801246557 -0.0131126244113238 0.0 0.010966868067501797 0.0 0.0
0.01153163497744643 -0.009359652081293952 0.0 0.008695306178780783 0.0 0.0
0.00805201653834489 -0.00606774496741265 0.0 0.006432785771709222 0.0 0.0
0.005181580961250898 -0.0034356971659898795 0.0 0.004459407498861432 0.0 0.0
0.003092321834565915 -0.0017003242986729807 0.0 0.003057914178315324 0.0 0.0
0.0018144205700533645 -0.0008276079063298899 0.0 0.002316235387748952 0.0 0.0
0.0011475799410420701 -0.0004888467929564599 0.0 0.002078705832451801 0.0 0.0
0.0007529815246298102 -0.0002897630012686414 0.0 0.001944653781948164 0.0 0.0
0.0004284434534142398 -0.00010263764268859798 0.0 0.0018863329771647524 0.0 0.0
0.0001989221520391831 -5.659821509925677e-05 0.0 0.002038174496341578 0.0 0.0
0.000818991275867371 -0.000367208335171736 0.0 0.0031343233145028067 0.0 0.0
0.001516008080956317 -0.005064124566131707 0.0 0.0019882948230600843 0.0 0.0
0.0010562332805906566 -0.0038525799719373094 0.0 -0.0017207431352853266 0.0 0.0
0.0005559258175468102 -0.00034389835699273527 0.0 -0.0027592546044706277 0.0 0.0
8.850182233327663e-05 -3.60818131793455e-05 0.0 -0.0022026381273097233 0.0 0.0
0.00022904213651250122 -1.7786228351552886e-05 0.0 -0.0020805061551899813 0.0 0.0
0.0004674729191193591 -0.00015667570364838609 0.0 -0.0021312685708548295 0.0 0.0
0.0007543303090211224 -0.00031718286403932197 0.0 -0.0023084807799674998 0.0 0.0
0.0011711624303980775 -0.0005174183327279586 0.0 -0.0025230622791783315 0.0 0.0
0.0019427296223593908 -0.0009593437082676035 0.0 -0.002949778271571086 0.0 0.0
0.0032725817699865967 -0.0019314965486550177 0.0 -0.003894499905260601 0.0 0.0
0.005175639321796828 -0.0035618049499217467 0.0 -0.005349096132028646 0.0 0.0
0.0075242797951911074 -0.005706684214910921 0.0 -0.007177468622890402 0.0 0.0
0.010179679572707576 -0.008191146691678053 0.0 -0.009117152312925252 0.0 0.0
0.013092544363857742 -0.01093330966241678 0.0 -0.011069245517989287 0.0 0.0
0.01630777976303051 -0.01399746814958214 0.0 -0.013009521528190876 0.0 0.0
0.019919337421677005 -0.01746900930260615 0.0 -0.014947710879304911 0.0 0.0
0.02402307339641359 -0.021443663797122824 0.0 -0.0168526210197938 0.0 0.0
0.028659228138313172 -0.025958725996181944 0.0 -0.01850508024123641 0.0 0.0
0.033838347866484875 -0.030988122488101316 0.0 -0.019490060146034553 0.0 0.0
0.039751824289079044 -0.03668595142172139 0.0 -0.01946839547390525 0.0 0.0
0.04650730781977046 -0.04337216103286019 0.0 -0.017502931058418304 0.0 0.0
0.050077612070784115 -0.05036299449094649 0.0 1.8694247538864062e-14 0.0 0.0
0.04650730781976372 -0.043372161032853566 0.0 0.01750293105845898 0.0 0.0
0.03975182428906673 -0.036685951421713055 0.0 0.019468395473949598 0.0 0.0
0.03383834786646895 -0.03098812248808143 0.0 0.019490060146058013 0.0 0.0
0.028659228138295235 -0.02595872599616481 0.0 0.018505080241234907 0.0 0.0
0.024023073396395037 -0.021443663797105182 0.0 0.016852621019782826 0.0 0.0
0.019919337421659532 -0.017469009302584132 0.0 0.014947710879296673 0.0 0.0
0.01630777976301504 -0.01399746814957369 0.0 0.013009521528186598 0.0 0.0
0.013092544363842868 -0.010933309662406009 0.0 0.011069245517980884 0.0 0.0
0.010179679572692812 -0.008191146691655023 0.0 0.009117152312911513 0.0 0.0
0.007524279795177891 -0.005706684214899335 0.0 0.007177468622873388 0.0 0.0
0.0051756393217861785 -0.003561804949913806 0.0 0.005349096132017138 0.0 0.0
0.0032725817699792714 -0.0019314965486503573 0.0 0.0038944999052555104 0.0 0.0
0.001942729622355221 -0.000959343708264476 0.0 0.0029497782715691818 0.0 0.0
0.0011711624303959523 -0.0005174183327235119 0.0 0.002523062279175066 0.0 0.0
0.0007543303090202751 -0.00031718286404142917 0.0 0.002308480779963721 0.0 0.0
0.00046747291911907585 -0.00015667570364722832 0.0 0.002131268570853382 0.0 0.0
0.00022904213651216374 -1.7786228351184633e-05 0.0 0.0020805061551871567 0.0 0.0
8.850182233295252e-05 -3.6081813178369865e-05 0.0 0.0022026381273073767 0.0 0.0
0.0005559258175453093 -0.0003438983569929861 0.0 0.0027592546044666166 0.0 0.0
0.0010562332805880996 -0.0038525799719298067 0.0 0.0017207431352822382 0.0 0.0
0.0007325297135488903 -0.0029094877339135967 0.0 -0.0015663559635742744 0.0 0.0
0.00035546027683921246 -0.0003423463753017003 0.0 -0.0024738928098501077 0.0 0.0
-2.4969618615649145e-05 1.0596937063897114e-07 0.0 -0.002304849073966528 0.0 0.0
3.573656496627576e-05 6.0584076132697424e-05 0.0 -0.002219213015776467 0.0 0.0
0.00018264083077693005 -2.479055440526395e-05 0.0 -0.0022645832890579483 0.0 0.0
0.00035705612321295483 -0.00013626443481171946 0.0 -0.0024562765823668404 0.0 0.0
0.0005779391593476548 -0.00025178448328098355 0.0 -0.0027140552980313187 0.0 0.0
0.0009320415264752093 -0.00042678304080394916 0.0 -0.0029733024269820935 0.0 0.0
0.0015496612123153475 -0.0008044496615687481 0.0 -0.0033976904633964814 0.0 0.0
0.002483327408832938 -0.0014974873797257522 0.0 -0.004163910817162285 0.0 0.0
0.0036691062085746065 -0.0024730697086096155 0.0 -0.005314320232217001 0.0 0.0
0.005014174936657573 -0.003637222473039758 0.0 -0.006728277043732944 0.0 0.0
0.0064786238766625336 -0.0049400119789668 0.0 -0.008269973687028441 0.0 0.0
0.008097790458599024 -0.006420475038924302 0.0 -0.009884508275182335 0.0 0.0
0.009944719940669188 -0.008140142201965997 0.0 -0.011564400827446534 0.0 0.0
0.01214153241330149 -0.010210698997617899 0.0 -0.01330043566891709 0.0 0.0
0.014843626963707566 -0.012780652469381136 0.0 -0.014947027115532498 0.0 0.0
0.018187091008586825 -0.01598556231108064 0.0 -0.016059132173842847 0.0 0.0
0.022411307856360002 -0.019994941056391206 0.0 -0.0160898976455672 0.0 0.0
0.028252571996615662 -0.025465808723042795 0.0 -0.015263997560633779 0.0 0.0
0.03171572285502835 -0.03309053651164877 0.0 1.2873382915223885e-14 0.0 0.0
0.028252571996612262 -0.02546580872303969 0.0 0.015263997560667913 0.0 0.0
0.022411307856352765 -0.01999494105638517 0.0 0.016089897645603195 0.0 0.0
0.01818709100857745 -0.015985562311067892 0.0 0.016059132173858792 0.0 0.0
0.014843626963697948 -0.012780652469371389 0.0 0.014947027115527207 0.0 0.0
0.012141532413292556 -0.010210698997612516 0.0 0.013300435668906128 0.0 0.0
0.00994471994066176 -0.008140142201956581 0.0 0.011564400827438932 0.0 0.0
0.008097790458592798 -0.00642047503892356 0.0 0.009884508275177825 0.0 0.0
0.006478623876656229 -0.004940011978967299 0.0 0.008269973687021002 0.0 0.0
0.0050141749366510585 -0.0036372224730243166 0.0 0.006728277043723309 0.0 0.0
0.003669106208568855 -0.0024730697086041407 0.0 0.005314320232205815 0.0 0.0
0.0024833274088287573 -0.0014974873797178533 0.0 0.004163910817155611 0.0 0.0
0.0015496612123127532 -0.0008044496615685538 0.0 0.003397690463394204 0.0 0.0
0.0009320415264734874 -0.0004267830408019777 0.0 0.0029733024269808853 0.0 0.0
0.0005779391593468149 -0.0002517844832828035 0.0 0.0027140552980266393 0.0 0.0
0.0003570561232126215 -0.00013626443481352848 0.0 0.0024562765823632846 0.0 0.0
0.00018264083077676563 -2.479055440503103e-05 0.0 0.0022645832890551146 0.0 0.0
3.5736564966113116e-05 6.0584076133409664e-05 0.0 0.002219213015773609 0.0 0.0
-2.4969618616169423e-05 1.0596937195581515e-07 0.0 0.0023048490739631423 0.0 0.0
0.00035546027683792903 -0.00034234637530232187 0.0 0.0024738928098481418 0.0 0.0
0.0007325297135469674 -0.002909487733908348 0.0 0.0015663559635716016 0.0 0.0
0.0005048531225386408 -0.002205488147861268 0.0 -0.0014823395211171217 0.0 0.0
0.00020334358301867455 -0.0003468820268551845 0.0 -0.0022780781965472353 0.0 0.0
-0.00013621365546985796 4.414215023201145e-05 0.0 -0.002352183327735237 0.0 0.0
-0.00015233200380862524 0.00013545659748569815 0.0 -0.0023006638945086582 0.0 0.0
-9.813795479431478e-05 0.00010378981970204709 0.0 -0.0023390041565795167 0.0 0.0
-4.5350314225873584e-05 4.8501386295162025e-05 0.0 -0.002519393218255709 0.0 0.0
-1.6048394320631736e-05 1.2903650717099668e-05 0.0 -0.0027959948014064985 0.0 0.0
-4.481882968608412e-06 2.813019522100748e-06 0.0 -0.0030444170592247516 0.0 0.0
-6.762669737031188e-07 1.661818746521098e-07 0.0 -0.0032138370257073536 0.0 0.0
4.626558509710356e-07 -2.106073048434038e-07 0.0 -0.0035962079411515626 0.0 0.0
-2.1269958153270893e-07 -5.348634872265237e-07 0.0 -0.004349142421147723 0.0 0.0
-7.166468641066131e-06 6.462330420735606e-06 0.0 -0.005470780655740663 0.0 0.0
-2.3760860363402107e-05 2.155615462457361e-05 0.0 -0.006783110380230013 0.0 0.0
-3.676783259675353e-05 3.816145237263912e-05 0.0 -0.008240966480028812 0.0 0.0
1.3725164619863986e-05 6.801422612347425e-06 0.0 -0.009849231871741306 0.0 0.0
0.00027736686872447335 -0.00020215625600014805 0.0 -0.011597470914635356 0.0 0.0
0.0010230519203088234 -0.0008271583902746756 0.0 -0.013417130582634393 0.0 0.0
0.0025748682552450084 -0.002188491485666082 0.0 -0.015107133693212179 0.0 0.0
0.005147175732025503 -0.004416249616183401 0.0 -0.016347633893349846 0.0 0.0
0.00945344156411312 -0.007901100888587809 0.0 -0.017011944669868054 0.0 0.0
0.012204109755983147 -0.015977104061828923 0.0 9.331077577279245e-15 0.0 0.0
0.009453441564113103 -0.007901100888583666 0.0 0.017011944669889614 0.0 0.0
0.0051471757320234 -0.004416249616182173 0.0 0.016347633893365965 0.0 0.0
0.002574868255243297 -0.0021884914856648485 0.0 0.01510713369321354 0.0 0.0
0.001023051920309554 -0.0008271583902779084 0.0 0.01341713058262645 0.0 0.0
0.000277366868726385 -0.00020215625600526006 0.0 0.011597470914626568 0.0 0.0
1.3725164622063182e-05 6.8014226128197035e-06 0.0 0.009849231871734388 0.0 0.0
-3.676783259385166e-05 3.8161452371246896e-05 0.0 0.00824096648002268 0.0 0.0
-2.376086036028622e-05 2.1556154620652214e-05 0.0 0.0067831103802209695 0.0 0.0
-7.166468638133581e-06 6.462330422236413e-06 0.0 0.0054707806557320665 0.0 0.0
-2.1269957924677707e-07 -5.348634904926014e-07 0.0 0.004349142421138369 0.0 0.0
4.6265585237225846e-07 -2.1060730366789825e-07 0.0 0.0035962079411469474 0.0 0.0
-6.762669729060405e-07 1.6618187300268593e-07 0.0 0.0032138370257059437 0.0 0.0
-4.4818829682655875e-06 2.8130195227291754e-06 0.0 0.003044417059222975 0.0 0.0
-1.604839432057895e-05 1.2903650716958919e-05 0.0 0.002795994801401617 0.0 0.0
-4.535031422548233e-05 4.850138629340704e-05 0.0 0.0025193932182534895 0.0 0.0
-9.81379547938666e-05 0.00010378981970228404 0.0 0.0023390041565764024 0.0 0.0
-0.00015233200380873388 0.0001354565974877401 0.0 0.0023006638945074626 0.0 0.0
-0.0001362136554699473 4.4142150232259174e-05 0.0 0.0023521833277325745 0.0 0.0
0.00020334358301816243 -0.0003468820268554714 0.0 0.0022780781965456953 0.0 0.0
0.0005048531225375425 -0.0022054881478582745 0.0 0.0014823395211170298 0.0 0.0
0.00034852386975699353 -0.0016899238021111426 0.0 -0.0014206991471641824 0.0 0.0
9.065159077210956e-05 -0.00033643444799537635 0.0 -0.002122911137462058 0.0 0.0
-0.00024078928689026322 8.669777649170523e-05 0.0 -0.0023503377683092054 0.0 0.0
-0.0003340317346581383 0.00020815593425189543 0.0 -0.0023235615795989335 0.0 0.0
-0.0003727574500003027 0.00022713090924981463 0.0 -0.002347145026107217 0.0 0.0
-0.00044391254780306265 0.0002317149227670463 0.0 -0.002499869578922725 0.0 0.0
-0.0006091193856145637 0.000277591387272308 0.0 -0.0027349141817756047 0.0 0.0
-0.0009410783228694557 0.00043280410716705167 0.0 -0.002984171898262583 0.0 0.0
-0.0015506296127024526 0.0008045871999650725 0.0 -0.0034022768905832925 0.0 0.0
-0.002481631467999084 0.0014961541782539678 0.0 -0.004162733213564876 0.0 0.0
-0.003670156554783743 0.002473300475291452 0.0 -0.0053110175875043285 0.0 0.0
-0.005030490851914369 0.0036513919601912194 0.0 -0.006729551466552863 0.0 0.0
-0.006526805429078342 0.004984872059369564 0.0 -0.008266372444370073 0.0 0.0
-0.008168120709001195 0.006497392155801036 0.0 -0.009872141998050804 0.0 0.0
-0.009909608313277406 0.008151221357835843 0.0 -0.011570244878910282 0.0 0.0
-0.011590379441247554 0.009797914223298431 0.0 -0.013440125933194484 0.0 0.0
-0.012894055869777505 0.01112964954015169 0.0 -0.01553739081636447 0.0 0.0
-0.013399793058883582 0.011702324472747406 0.0 -0.01794739558738074 0.0 0.0
-0.012646990681309044 0.011184153921195195 0.0 -0.020604804750179766 0.0 0.0
-0.008981371412769178 0.008567616979605903 0.0 -0.02180146766745346 0.0 0.0
-0.006067014615637054 -0.0002463031548580613 0.0 1.1112638587107426e-14 0.0 0.0
-0.008981371412769498 0.008567616979613 0.0 0.021801467667475018 0.0 0.0
-0.012646990681305585 0.011184153921189982 0.0 0.020604804750196812 0.0 0.0
-0.013399793058874197 0.011702324472739981 0.0 0.01794739558738234 0.0 0.0
-0.012894055869764887 0.011129649540139128 0.0 0.015537390816355037 0.0 0.0
-0.011590379441235317 0.009797914223286758 0.0 0.013440125933181685 0.0 0.0
-0.00990960831326613 0.008151221357828656 0.0 0.011570244878900085 0.0 0.0
-0.008168120708989295 0.00649739215579165 0.0 0.009872141998042172 0.0 0.0
-0.006526805429065547 0.0049848720593569 0.0 0.00826637244436023 0.0 0.0
-0.005030490851902264 0.0036513919601823593 0.0 0.006729551466538858 0.0 0.0
-0.0036701565547734667 0.0024733004752827597 0.0 0.005311017587491319 0.0 0.0
-0.0024816314679915515 0.0014961541782487712 0.0 0.004162733213558107 0.0 0.0
-0.0015506296126978495 0.0008045871999615901 0.0 0.0034022768905804654 0.0 0.0
-0.0009410783228665583 0.0004328041071645874 0.0 0.002984171898261985 0.0 0.0
-0.0006091193856132212 0.0002775913872734837 0.0 0.002734914181772201 0.0 0.0
-0.00044391254780218304 0.00023171492276630678 0.0 0.002499869578920589 0.0 0.0
-0.0003727574499996585 0.0002271309092500069 0.0 0.00234714502610436 0.0 0.0
-0.0003340317346579818 0.0002081559342521108 0.0 0.0023235615795969096 0.0 0.0
-0.00024078928689020266 8.669777649138023e-05 0.0 0.0023503377683082574 0.0 0.0
9.065159077226875e-05 -0.0003364344479955243 0.0 0.00212291113746011 0.0 0.0
0.00034852386975726496 -0.0016899238021093122 0.0 0.001420699147164362 0.0 0.0
0.000239583135465894 -0.0012823499670438954 0.0 -0.0013152678572078105 0.0 0.0
5.154571906560014e-06 -0.00030799561602609985 0.0 -0.001970142054830723 0.0 0.0
-0.00033788777803689835 0.00012576774562162463 0.0 -0.0022976629826660464 0.0 0.0
-0.0005073935400851887 0.00027752711641345365 0.0 -0.002286206967683397 0.0 0.0
-0.0006391515719877983 0.0003438984120526331 0.0 -0.002287015485110827 0.0 0.0
-0.0008321844019231089 0.00040731332713208425 0.0 -0.002392151612603002 0.0 0.0
-0.0011999626314796725 0.000544975180233459 0.0 -0.002568113309519467 0.0 0.0
-0.0019502918204039122 0.0009653725588842615 0.0 -0.002971467661155105 0.0 0.0
-0.003271674811681915 0.001929835444722181 0.0 -0.0038978716469696877 0.0 0.0
-0.005173347777404694 0.0035595099053276433 0.0 -0.005345285928967038 0.0 0.0
-0.007526742704925482 0.005709332095853026 0.0 -0.007175992350166304 0.0 0.0
-0.010195501997017294 0.008206100220102106 0.0 -0.009114233585642999 0.0 0.0
-0.013134353050214414 0.01097432299880375 0.0 -0.011038556867471322 0.0 0.0
-0.01636667569985892 0.014064146929803584 0.0 -0.01292991261664747 0.0 0.0
-0.019878700910234238 0.017471335519766627 0.0 -0.014888979214326192 0.0 0.0
-0.02350534347622604 0.0210500681881361 0.0 -0.017128303116250486 0.0 0.0
-0.02687807187169678 0.02443208755083753 0.0 -0.019876760737487353 0.0 0.0
-0.0294368550711116 0.027050561028720374 0.0 -0.02324644853088285 0.0 0.0
-0.030121539297114516 0.02798995874928352 0.0 -0.026577501935303904 0.0 0.0
-0.0268287360030734 0.025187790323685774 0.0 -0.027338384317645556 0.0 0.0
-0.023845764311117887 0.014478042739645886 0.0 1.559776613424546e-14 0.0 0.0
-0.02682873600307143 0.025187790323687842 0.0 0.02733838431768132 0.0 0.0
-0.030121539297106148 0.027989958749274298 0.0 0.02657750193533849 0.0 0.0
-0.02943685507109487 0.027050561028709327 0.0 0.02324644853089571 0.0 0.0
-0.026878071871674777 0.024432087550813622 0.0 0.019876760737480962 0.0 0.0
-0.0235053434762036 0.021050068188111504 0.0 0.017128303116233097 0.0 0.0
-0.019878700910213265 0.017471335519750296 0.0 0.01488897921431451 0.0 0.0
-0.01636667569983829 0.014064146929781134 0.0 0.012929912616635928 0.0 0.0
-0.013134353050192985 0.010974322998782999 0.0 0.011038556867458211 0.0 0.0
-0.01019550199699658 0.008206100220083898 0.0 0.009114233585622402 0.0 0.0
-0.0075267427049068875 0.005709332095839233 0.0 0.007175992350146501 0.0 0.0
-0.005173347777390841 0.0035595099053134776 0.0 0.005345285928953351 0.0 0.0
-0.0032716748116729706 0.001929835444715363 0.0 0.0038978716469645503 0.0 0.0
-0.0019502918203985883 0.0009653725588789593 0.0 0.002971467661152042 0.0 0.0
-0.0011999626314772274 0.0005449751802335839 0.0 0.0025681133095170343 0.0 0.0
-0.0008321844019217804 0.0004073133271320434 0.0 0.0023921516126008523 0.0 0.0
-0.0006391515719870444 0.0003438984120526238 0.0 0.0022870154851096242 0.0 0.0
-0.0005073935400847121 0.0002775271164127211 0.0 0.002286206967680991 0.0 0.0
-0.00033788777803669804 0.000125767745621735 0.0 0.002297662982663987 0.0 0.0
5.154571906380782e-06 -0.00030799561602616187 0.0 0.0019701420548291844 0.0 0.0
0.00023958313546548573 -0.0012823499670424443 0.0 0.0013152678572062818 0.0 0.0
0.00015124490607257328 -0.0009387340649268758 0.0 -0.001164130863308536 0.0 0.0
-6.714565463109327e-05 -0.00026449330262721927 0.0 -0.0018011716253458617 0.0 0.0
-0.00042771698102239415 0.00016253813678384168 0.0 -0.0021923628777860086 0.0 0.0
-0.0006718684905744556 0.0003423714073363278 0.0 -0.002191506767639589 0.0 0.0
-0.0008943362701493136 0.0004524566330763787 0.0 -0.002164333310745795 0.0 0.0
-0.0012120036509567634 0.0005723884070153105 0.0 -0.00219651792718866 0.0 0.0
-0.0018395344408894086 0.0008577478912706188 0.0 -0.0023835319324833066 0.0 0.0
-0.003096068505919461 0.0017026616329794257 0.0 -0.003079079723575114 0.0 0.0
-0.0051777846256057984 0.0034311795600500856 0.0 -0.004457016259666961 0.0 0.0
-0.008050537153697739 0.006066310164714148 0.0 -0.006428192204022929 0.0 0.0
-0.011535691697960667 0.009364583518034035 0.0 -0.00869543237666579 0.0 0.0
-0.015475478430896781 0.0131252941015044 0.0 -0.010959182006569422 0.0 0.0
-0.019834531643647783 0.01729813974744911 0.0 -0.013123936437988409 0.0 0.0
-0.02465851470742988 0.021950787889039734 0.0 -0.015235913754626226 0.0 0.0
-0.02996266301371331 0.027119257387017155 0.0 -0.017466300503893032 0.0 0.0
-0.035590005010235994 0.03267491578316719 0.0 -0.020145840585767356 0.0 0.0
-0.04110111412469747 0.03819329142912454 0.0 -0.02371536055423721 0.0 0.0
-0.045614291739217154 0.04284628423786504 0.0 -0.028196442051229634 0.0 0.0
-0.04753426033043596 0.045077255402745806 0.0 -0.03234691197864183 0.0 0.0
-0.0438537670299853 0.04216323302224436 0.0 -0.03366048767255243 0.0 0.0
-0.0401153393969166 0.028675288312941284 0.0 1.7748823244456702e-14 0.0 0.0
-0.04385376702998006 0.04216323302224397 0.0 0.033660487672596946 0.0 0.0
-0.04753426033042255 0.04507725540272718 0.0 0.03234691197868553 0.0 0.0
-0.04561429173919361 0.042846284237843216 0.0 0.02819644205125081 0.0 0.0
-0.041101114124667375 0.03819329142909039 0.0 0.023715360554233147 0.0 0.0
-0.035590005010204304 0.03267491578313561 0.0 0.02014584058575266 0.0 0.0
-0.029962663013682826 0.027119257386984678 0.0 0.017466300503878696 0.0 0.0
-0.024658514707399867 0.021950787889009036 0.0 0.01523591375461077 0.0 0.0
-0.019834531643617346 0.01729813974741968 0.0 0.013123936437974687 0.0 0.0
-0.015475478430867544 0.013125294101473898 0.0 0.010959182006548815 0.0 0.0
-0.011535691697934228 0.009364583518009784 0.0 0.008695432376644214 0.0 0.0
-0.008050537153677194 0.0060663101646923935 0.0 0.006428192204005807 0.0 0.0
-0.005177784625591856 0.0034311795600403946 0.0 0.0044570162596581945 0.0 0.0
-0.0030960685059109472 0.0017026616329710966 0.0 0.0030790797235682016 0.0 0.0
-0.001839534440885153 0.0008577478912671474 0.0 0.002383531932480845 0.0 0.0
-0.0012120036509550135 0.0005723884070160258 0.0 0.0021965179271866823 0.0 0.0
-0.0008943362701486464 0.0004524566330762162 0.0 0.002164333310744617 0.0 0.0
-0.0006718684905741779 0.0003423714073362141 0.0 0.002191506767638695 0.0 0.0
-0.00042771698102190506 0.0001625381367841084 0.0 0.0021923628777837808 0.0 0.0
-6.714565463061681e-05 -0.0002644933026274026 0.0 0.001801171625344585 0.0 0.0
0.00015124490607267994 -0.0009387340649258476 0.0 0.001164130863307416 0.0 0.0
7.447263619397149e-05 -0.0006503225633264077 0.0 -0.0009960796718166717 0.0 0.0
-0.0001324836644389092 -0.00020866206643045898 0.0 -0.0016062126555394926 0.0 0.0
-0.0005126088852534108 0.00019854274827558953 0.0 -0.0020347944720411192 0.0 0.0
-0.0008277623375450946 0.0004024016790773703 0.0 -0.0020413712831484207 0.0 0.0
-0.0011362751105969166 0.0005494188110538482 0.0 -0.0019741994454296977 0.0 0.0
-0.001603642919951779 0.0007389540241891152 0.0 -0.0019398647431934134 0.0 0.0
-0.002557428206419331 0.001270443808962145 0.0 -0.0022191916849406816 0.0 0.0
-0.004374887044601496 0.002657310595200118 0.0 -0.0031469730174559936 0.0 0.0
-0.007234975921841972 0.005202277141850215 0.0 -0.004833474052475939 0.0 0.0
-0.011057855376200408 0.00880731359495827 0.0 -0.007084908292931285 0.0 0.0
-0.01563715898839765 0.013196855066878331 0.0 -0.009506739442783211 0.0 0.0
-0.020827840851190774 0.0181950383024845 0.0 -0.011883247425154328 0.0 0.0
-0.026605481895330782 0.023764736040523274 0.0 -0.014153204800784875 0.0 0.0
-0.033026698634252054 0.02998220125857838 0.0 -0.016379042129386928 0.0 0.0
-0.04013559642846971 0.03691934697996618 0.0 -0.0187280122902663 0.0 0.0
-0.047796943073289855 0.04448389900747866 0.0 -0.02162433121354295 0.0 0.0
-0.05545234856448297 0.05216863343477713 0.0 -0.02560400431933861 0.0 0.0
-0.061848158798514186 0.05878038143286474 0.0 -0.030682147310131476 0.0 0.0
-0.06472588601106213 0.062132153073521615 0.0 -0.03562002157319453 0.0 0.0
-0.06029180993220776 0.05861533128433219 0.0 -0.03766162750620029 0.0 0.0
-0.05565511787686671 0.04242534784465723 0.0 1.847220293393903e-14 0.0 0.0
-0.060291809932199056 0.05861533128432421 0.0 0.03766162750624513 0.0 0.0
-0.0647258860110436 0.062132153073500535 0.0 0.0356200215732381 0.0 0.0
-0.06184815879848454 0.05878038143283289 0.0 0.03068214731015411 0.0 0.0
-0.05545234856444582 0.05216863343473718 0.0 0.025604004319338142 0.0 0.0
-0.04779694307324989 0.04448389900744317 0.0 0.021624331213531037 0.0 0.0
-0.04013559642843018 0.03691934697992491 0.0 0.018728012290250277 0.0 0.0
-0.03302669863421307 0.029982201258543208 0.0 0.016379042129373852 0.0 0.0
-0.026605481895291574 0.023764736040481755 0.0 0.014153204800768898 0.0 0.0
-0.020827840851153193 0.018195038302444587 0.0 0.011883247425134186 0.0 0.0
-0.01563715898836405 0.013196855066846275 0.0 0.009506739442760747 0.0 0.0
-0.011057855376173901 0.00880731359493502 0.0 0.007084908292913696 0.0 0.0
-0.007234975921823039 0.005202277141832056 0.0 0.004833474052464092 0.0 0.0
-0.004374887044589128 0.0026573105951898032 0.0 0.0031469730174473517 0.0 0.0
-0.002557428206412916 0.0012704438089579698 0.0 0.002219191684936477 0.0 0.0
-0.0016036429199493259 0.0007389540241883191 0.0 0.001939864743192183 0.0 0.0
-0.0011362751105956955 0.0005494188110545808 0.0 0.001974199445428981 0.0 0.0
-0.0008277623375443082 0.00040240167907709944 0.0 0.0020413712831470906 0.0 0.0
-0.0005126088852530369 0.00019854274827530184 0.0 0.0020347944720403703 0.0 0.0
-0.00013248366443897717 -0.00020866206643069181 0.0 0.0016062126555390311 0.0 0.0
7.4472636193614e-05 -0.0006503225633256702 0.0 0.000996079671816207 0.0 0.0
7.23771469931383e-06 -0.00041409800865894965 0.0 -0.0008213441491487796 0.0 0.0
-0.00019267176781074418 -0.0001448980048217933 0.0 -0.0013851895323223943 0.0 0.0
-0.0005937084972545535 0.0002350209142342661 0.0 -0.0018248719079351772 0.0 0.0
-0.0009736653823338628 0.00045702229739100534 0.0 -0.0018349720337147045 0.0 0.0
-0.0013712630916987946 0.0006362549940000257 0.0 -0.0017219283109275224 0.0 0.0
-0.0020273343720288444 0.0009346522531351494 0.0 -0.0016590519497608025 0.0 0.0
-0.0033624063282533543 0.0018039497150758792 0.0 -0.002023929265842243 0.0 0.0
-0.005774275653101446 0.0038064839970455558 0.0 -0.00310372777813255 0.0 0.0
-0.009405967158500717 0.007157182376465024 0.0 -0.0049421495930540025 0.0 0.0
-0.01413668747399053 0.011670739643590184 0.0 -0.007196834721515668 0.0 0.0
-0.01978358422698839 0.017116319243076984 0.0 -0.009573476518477042 0.0 0.0
-0.026226848085724723 0.023346306591856648 0.0 -0.011907578222484064 0.0 0.0
-0.033430259364658745 0.030319208791446617 0.0 -0.014154332942909839 0.0 0.0
-0.041448669623177246 0.038106967501476074 0.0 -0.016376683327853737 0.0 0.0
-0.050355749635446694 0.046804323225027714 0.0 -0.018711105656911097 0.0 0.0
-0.060027135740737564 0.0563515857224377 0.0 -0.021495704175638168 0.0 0.0
-0.06978121067082536 0.06616224363066733 0.0 -0.025326561519159276 0.0 0.0
-0.07797920820416547 0.07467819917216928 0.0 -0.03050040827643226 0.0 0.0
-0.08168804539042557 0.07901777997075334 0.0 -0.03609467917660673 0.0 0.0
-0.07650822343870418 0.07484526273490343 0.0 -0.0400848189524373 0.0 0.0
-0.07105228847014096 0.05621616683117148 0.0 2.020519168643986e-14 0.0 0.0
-0.07650822343869199 0.07484526273488562 0.0 0.040084818952482185 0.0 0.0
-0.08168804539040163 0.07901777997073148 0.0 0.03609467917665013 0.0 0.0
-0.07797920820412929 0.07467819917213202 0.0 0.030500408276457856 0.0 0.0
-0.06978121067078105 0.06616224363062173 0.0 0.02532656151916157 0.0 0.0
-0.060027135740689866 0.05635158572239109 0.0 0.021495704175630265 0.0 0.0
-0.050355749635397844 0.04680432322498047 0.0 0.018711105656897282 0.0 0.0
-0.04144866962312914 0.038106967501427016 0.0 0.016376683327841222 0.0 0.0
-0.03343025936461087 0.0303192087913991 0.0 0.014154332942894522 0.0 0.0
-0.026226848085678812 0.023346306591812516 0.0 0.01190757822246451 0.0 0.0
-0.019783584226947943 0.01711631924303932 0.0 0.009573476518454645 0.0 0.0
-0.014136687473957903 0.011670739643558642 0.0 0.0071968347214969915 0.0 0.0
-0.009405967158476643 0.007157182376441999 0.0 0.004942149593042764 0.0 0.0
-0.005774275653085407 0.003806483997032012 0.0 0.003103727778123435 0.0 0.0
-0.003362406328244701 0.001803949715070694 0.0 0.0020239292658362686 0.0 0.0
-0.002027334372025145 0.0009346522531346892 0.0 0.0016590519497591937 0.0 0.0
-0.0013712630916974716 0.0006362549939990252 0.0 0.0017219283109264428 0.0 0.0
-0.0009736653823332777 0.00045702229739048264 0.0 0.0018349720337125677 0.0 0.0
-0.0005937084972538757 0.00023502091423393574 0.0 0.0018248719079345405 0.0 0.0
-0.00019267176781049788 -0.00014489800482178145 0.0 0.0013851895323215419 0.0 0.0
7.237714699037267e-06 -0.0004140980086584982 0.0 0.0008213441491471832 0.0 0.0
-4.97332133732124e-05 -0.00022914196876208074 0.0 -0.0006438166727383187 0.0 0.0
-0.0002469297588443826 -7.807591249973079e-05 0.0 -0.001140313834327995 0.0 0.0
-0.0006710675041929588 0.00027201714885505984 0.0 -0.0015633520885791378 0.0 0.0
-0.0011122456649879293 0.0005059210928242796 0.0 -0.0015719531793219606 0.0 0.0
-0.0016113001467759297 0.0007193898015144876 0.0 -0.0014177666497245834 0.0 0.0
-0.002494664785393636 0.0011817493970553395 0.0 -0.0013537333704844354 0.0 0.0
-0.004256097810291703 0.002469967031948427 0.0 -0.0017745992668789848 0.0 0.0
-0.007275144170603069 0.005119374379273192 0.0 -0.002933971138151129 0.0 0.0
-0.01163819718474479 0.009211502912774526 0.0 -0.004670789823751395 0.0 0.0
-0.01724294828383764 0.014591573714476377 0.0 -0.006730476580746793 0.0 0.0
-0.023953345137013495 0.021081062468653596 0.0 -0.008922304813939654 0.0 0.0
-0.03164823268667747 0.02854100925901408 0.0 -0.011072632011510429 0.0 0.0
-0.04028637470263814 0.03692823204355498 0.0 -0.013158768221377898 0.0 0.0
-0.04990998215521948 0.046297334401956665 0.0 -0.01525859374086632 0.0 0.0
-0.06057568267057678 0.05672722565142721 0.0 -0.01744345649376779 0.0 0.0
-0.07216731566561049 0.06816337076383987 0.0 -0.019848627859033144 0.0 0.0
-0.0839347904900975 0.07999175412566427 0.0 -0.02297780714655699 0.0 0.0
-0.09388975829830723 0.09036315967768647 0.0 -0.027638806113789643 0.0 0.0
-0.09850592868445465 0.09576560015733872 0.0 -0.03397724354615973 0.0 0.0
-0.09282825769613366 0.09120639772518661 0.0 -0.04129465961686326 0.0 0.0
-0.08671565645628075 0.07044562061818464 0.0 2.1217402834672328e-14 0.0 0.0
-0.09282825769611844 0.09120639772516939 0.0 0.041294659616906794 0.0 0.0
-0.09850592868442512 0.0957656001573099 0.0 0.033977243546201345 0.0 0.0
-0.09388975829826463 0.0903631596776426 0.0 0.02763880611381188 0.0 0.0
-0.08393479049004614 0.07999175412561291 0.0 0.022977807146560048 0.0 0.0
-0.07216731566555454 0.06816337076378177 0.0 0.019848627859025973 0.0 0.0
-0.06057568267051937 0.056727225651370686 0.0 0.01744345649375601 0.0 0.0
-0.04990998215516263 0.046297334401903534 0.0 0.015258593740855579 0.0 0.0
-0.040286374702581826 0.036928232043501694 0.0 0.013158768221364489 0.0 0.0
-0.03164823268662392 0.0285410092589614 0.0 0.011072632011492571 0.0 0.0
-0.023953345136966304 0.021081062468608594 0.0 0.008922304813917436 0.0 0.0
-0.017242948283799003 0.01459157371443889 0.0 0.006730476580728072 0.0 0.0
-0.011638197184716011 0.009211502912748954 0.0 0.004670789823740117 0.0 0.0
-0.007275144170583319 0.00511937437925658 0.0 0.002933971138141934 0.0 0.0
-0.004256097810279963 0.0024699670319397963 0.0 0.0017745992668726047 0.0 0.0
-0.0024946647853882906 0.0011817493970553074 0.0 0.0013537333704834395 0.0 0.0
-0.0016113001467742154 0.0007193898015113488 0.0 0.0014177666497238173 0.0 0.0
-0.0011122456649871925 0.0005059210928243325 0.0 0.0015719531793209414 0.0 0.0
-0.0006710675041922819 0.00027201714885406064 0.0 0.001563352088578587 0.0 0.0
-0.0002469297588441411 -7.807591249970122e-05 0.0 0.0011403138343263417 0.0 0.0
-4.9733213373062416e-05 -0.00022914196876183706 0.0 0.0006438166727363796 0.0 0.0
-9.379143001048433e-05 -9.57998083415455e-05 0.0 -0.0004679587426128311 0.0 0.0
-0.0002923730533037877 -1.3452827792354112e-05 0.0 -0.0008744567626805199 0.0 0.0
-0.000743327390137523 0.00030824836403468316 0.0 -0.0012490459516500524 0.0 0.0
-0.0012464465243780466 0.0005492996019002616 0.0 -0.0012506387831449416 0.0 0.0
-0.0018669153861097642 0.0008113224284917603 0.0 -0.0010645178275221934 0.0 0.0
-0.0030202627992722 0.001498079514705305 0.0 -0.0010085961355273526 0.0 0.0
-0.0052401567102379355 0.0032743792342395774 0.0 -0.0014778808303783691 0.0 0.0
-0.008834986341532715 0.006530352679361388 0.0 -0.0025294893223193624 0.0 0.0
-0.013886661246001977 0.011307855583246214 0.0 -0.003975679505203125 0.0 0.0
-0.020355607150611035 0.017536515221347308 0.0 -0.005716910066325498 0.0 0.0
-0.02812016537326184 0.025059492209332623 0.0 -0.007573042677129516 0.0 0.0
-0.0370685356254964 0.033750055830376165 0.0 -0.00939718352183557 0.0 0.0
-0.04715366789727587 0.043562496244711944 0.0 -0.011179321009275276 0.0 0.0
-0.05838404206661034 0.05452602735728982 0.0 -0.013013971630885275 0.0 0.0
-0.070764572888936 0.06665966209820971 0.0 -0.014936201394620357 0.0 0.0
-0.08413398082896677 0.0798434381366424 0.0 -0.01684174625491239 0.0 0.0
-0.09773799875239904 0.09346614075144324 0.0 -0.018842200241402835 0.0 0.0
-0.10945500758761376 0.10564952628378839 0.0 -0.022179887479398305 0.0 0.0
-0.115282351934687 0.11243962787168307 0.0 -0.02917905934107139 0.0 0.0
-0.1095629328815095 0.1080405072402837 0.0 -0.04104294199570644 0.0 0.0
-0.10302292313048071 0.08551809228489876 0.0 1.7128659601794993e-14 0.0 0.0
-0.10956293288149233 0.10804050724026235 0.0 0.041042941995743404 0.0 0.0
-0.11528235193465235 0.11243962787164874 0.0 0.029179059341108787 0.0 0.0
-0.10945500758756403 0.10564952628373955 0.0 0.02217988747941697 0.0 0.0
-0.09773799875233999 0.09346614075138644 0.0 0.018842200241406072 0.0 0.0
-0.08413398082890325 0.0798434381365753 0.0 0.01684174625490847 0.0 0.0
-0.07076457288887018 0.06665966209814589 0.0 0.014936201394612852 0.0 0.0
-0.058384042066544954 0.054526027357227905 0.0 0.013013971630876068 0.0 0.0
-0.04715366789721124 0.04356249624464487 0.0 0.011179321009264078 0.0 0.0
-0.03706853562543513 0.03375005583031941 0.0 0.00939718352182157 0.0 0.0
-0.028120165373207898 0.025059492209278195 0.0 0.00757304267711204 0.0 0.0
-0.02035560715056666 0.017536515221304953 0.0 0.005716910066308818 0.0 0.0
-0.013886661245968308 0.011307855583214864 0.0 0.003975679505190719 0.0 0.0
-0.008834986341509136 0.006530352679342609 0.0 0.0025294893223103384 0.0 0.0
-0.005240156710223641 0.003274379234228504 0.0 0.0014778808303730683 0.0 0.0
-0.0030202627992652366 0.0014980795147026052 0.0 0.001008596135525856 0.0 0.0
-0.0018669153861072979 0.0008113224284882897 0.0 0.0010645178275216223 0.0 0.0
-0.0012464465243773582 0.0005492996019009292 0.0 0.001250638783144463 0.0 0.0
-0.0007433273901371142 0.00030824836403351666 0.0 0.0012490459516484162 0.0 0.0
-0.0002923730533035339 -1.3452827792557267e-05 0.0 0.0008744567626796552 0.0 0.0
-9.379143001046686e-05 -9.579980834156294e-05 0.0 0.00046795874261158397 0.0 0.0
-0.00012014375702323711 -1.4839988848425143e-05 0.0 -0.0003035149922537461 0.0 0.0
-0.00032338227161224164 4.2388386226403413e-05 0.0 -0.0005914145139334371 0.0 0.0
-0.0008077643488407379 0.0003406717690255543 0.0 -0.0008757832150273251 0.0 0.0
-0.0013820723168328649 0.0005899061379462927 0.0 -0.0008659009831779194 0.0 0.0
-0.002151244828149999 0.0009270705618315024 0.0 -0.000671089002251965 0.0 0.0
-0.003617389455194524 0.001914167305673493 0.0 -0.0006387343713361971 0.0 0.0
-0.006285756669418178 0.004185075637704701 0.0 -0.0010671189778965482 0.0 0.0
-0.010416206780569247 0.0079819736918868 0.0 -0.001825820070710206 0.0 0.0
-0.016135498377494218 0.013420073469228638 0.0 -0.0028859231483340064 0.0 0.0
-0.02344937751618423 0.020476461147165385 0.0 -0.004165934921802273 0.0 0.0
-0.03226051440045419 0.02902368471759411 0.0 -0.005537344428425437 0.0 0.0
-0.042462910598992584 0.0389464274580738 0.0 -0.006887763517078745 0.0 0.0
-0.05400117726292595 0.05019394064817109 0.0 -0.00822446490080338 0.0 0.0
-0.06685014954520677 0.0627610276533243 0.0 -0.009649482073158982 0.0 0.0
-0.08090955328589165 0.0765756418131876 0.0 -0.011156420366257842 0.0 0.0
-0.09588118353856213 0.09137253410962569 0.0 -0.012514821694727823 0.0 0.0
-0.11103242404397523 0.10647733119114977 0.0 -0.013438657108997897 0.0 0.0
-0.12448875872950885 0.12024408962468427 0.0 -0.014797804632970691 0.0 0.0
-0.13203726821974585 0.1289485697629714 0.0 -0.020907344122596868 0.0 0.0
-0.12704090804097373 0.12575418798362792 0.0 -0.03833533450146803 0.0 0.0
-0.12046213095645449 0.10201544862990145 0.0 1.2977466323782494e-14 0.0 0.0
-0.12704090804095333 0.12575418798360227 0.0 0.038335334501498244 0.0 0.0
-0.1320372682197054 0.12894856976293143 0.0 0.020907344122626605 0.0 0.0
-0.12448875872945211 0.1202440896246276 0.0 0.014797804632984912 0.0 0.0
-0.11103242404390806 0.1064773311910873 0.0 0.013438657108997071 0.0 0.0
-0.09588118353849032 0.0913725341095549 0.0 0.012514821694726005 0.0 0.0
-0.08090955328581763 0.07657564181311594 0.0 0.011156420366252145 0.0 0.0
-0.06685014954513234 0.0627610276532528 0.0 0.009649482073150941 0.0 0.0
-0.05400117726285269 0.05019394064809361 0.0 0.008224464900798133 0.0 0.0
-0.04246291059892379 0.038946427458007735 0.0 0.0068877635170679855 0.0 0.0
-0.03226051440039414 0.029023684717532916 0.0 0.005537344428412381 0.0 0.0
-0.023449377516135076 0.020476461147116057 0.0 0.004165934921789515 0.0 0.0
-0.016135498377455995 0.013420073469193137 0.0 0.0028859231483245027 0.0 0.0
-0.010416206780541788 0.007981973691863712 0.0 0.001825820070704717 0.0 0.0
-0.006285756669401023 0.004185075637688063 0.0 0.0010671189778929252 0.0 0.0
-0.0036173894551859145 0.0019141673056691857 0.0 0.0006387343713347216 0.0 0.0
-0.0021512448281467973 0.0009270705618285493 0.0 0.0006710890022504629 0.0 0.0
-0.0013820723168317813 0.0005899061379452542 0.0 0.0008659009831783642 0.0 0.0
-0.0008077643488401657 0.0003406717690245537 0.0 0.0008757832150262289 0.0 0.0
-0.00032338227161189816 4.238838622608296e-05 0.0 0.0005914145139331474 0.0 0.0
-0.00012014375702306615 -1.4839988848328224e-05 0.0 0.00030351499225366076 0.0 0.0
-0.00012044103117454878 1.3856566997809227e-05 0.0 -0.00017185354912754072 0.0 0.0
-0.0003301361948167512 7.928731205634268e-05 0.0 -0.0002962431259495429 0.0 0.0
-0.0008598471823387361 0.0003639385072930197 0.0 -0.0004273559102704742 0.0 0.0
-0.0015285771906369291 0.0006367658081469493 0.0 -0.0004113463292946695 0.0 0.0
-0.002482829901099822 0.001090071253116144 0.0 -0.0002517891659279982 0.0 0.0
-0.004278208894378652 0.0024309794047317865 0.0 -0.00023033886091098772 0.0 0.0
-0.00736777029660274 0.005155632031446896 0.0 -0.00046875120483648816 0.0 0.0
-0.011999718519437801 0.00945218918272667 0.0 -0.0008607690504026883 0.0 0.0
-0.018360642702944994 0.015521965020759358 0.0 -0.0014081008745717761 0.0 0.0
-0.026499964528897992 0.023383040717974972 0.0 -0.002085138484408304 0.0 0.0
-0.03634862527374391 0.03294658549851997 0.0 -0.002814333757558669 0.0 0.0
-0.04780803936387046 0.04410705930795537 0.0 -0.0035453927157019912 0.0 0.0
-0.06080815075020671 0.05679723873189238 0.0 -0.004314079029072493 0.0 0.0
-0.07526507126158757 0.07095933363151002 0.0 -0.0051520634560759 0.0 0.0
-0.09097405456825997 0.08643053202280379 0.0 -0.006034257185528555 0.0 0.0
-0.10745833977517069 0.1027722783103973 0.0 -0.006805913499778939 0.0 0.0
-0.12382842603403171 0.11911052856354282 0.0 -0.007113988798674651 0.0 0.0
-0.13858467542514535 0.13393742599669434 0.0 -0.006983224307378187 0.0 0.0
-0.14847863865111544 0.14446526265642678 0.0 -0.00973540226599729 0.0 0.0
-0.1457356808704255 0.1446413987029808 0.0 -0.028034225549023867 0.0 0.0
-0.13983841229686744 0.12165946924140938 0.0 6.890321646579878e-15 0.0 0.0
-0.14573568087040265 0.14464139870295448 0.0 0.02803422554904185 0.0 0.0
-0.14847863865106944 0.1444652626563822 0.0 0.009735402266012322 0.0 0.0
-0.1385846754250805 0.13393742599662778 0.0 0.006983224307386321 0.0 0.0
-0.12382842603395586 0.11911052856346901 0.0 0.007113988798675093 0.0 0.0
-0.10745833977509017 0.10277227831031538 0.0 0.006805913499777586 0.0 0.0
-0.09097405456817727 0.08643053202272905 0.0 0.0060342571855248155 0.0 0.0
-0.07526507126150422 0.07095933363142772 0.0 0.005152063456070283 0.0 0.0
-0.06080815075012499 0.05679723873181226 0.0 0.004314079029070157 0.0 0.0
-0.047808039363794255 0.044107059307878 0.0 0.0035453927156955485 0.0 0.0
-0.03634862527367768 0.03294658549845478 0.0 0.0028143337575522493 0.0 0.0
-0.026499964528843692 0.02338304071792086 0.0 0.002085138484402278 0.0 0.0
-0.018360642702902143 0.015521965020719532 0.0 0.0014081008745667066 0.0 0.0
-0.011999718519406889 0.009452189182699244 0.0 0.0008607690503997035 0.0 0.0
-0.007367770296583189 0.005155632031427534 0.0 0.00046875120483436616 0.0 0.0
-0.00427820889436842 0.002430979404724904 0.0 0.00023033886091247677 0.0 0.0
-0.002482829901096006 0.0010900712531130203 0.0 0.0002517891659285346 0.0 0.0
-0.0015285771906355164 0.0006367658081458295 0.0 0.0004113463292948736 0.0 0.0
-0.0008598471823379492 0.0003639385072928477 0.0 0.00042735591026936057 0.0 0.0
-0.0003301361948163711 7.928731205657451e-05 0.0 0.00029624312594829917 0.0 0.0
-0.00012044103117426469 1.3856566997788677e-05 0.0 0.00017185354912876633 0.0 0.0
-7.963195501495181e-05 1.5264361802032197e-05 0.0 -0.000106475089781302 0.0 0.0
-0.0002955048850039097 9.140351040751726e-05 0.0 -0.00012303399195165863 0.0 0.0
-0.000893621928892112 0.00037248645125252514 0.0 -0.0001439860165100857 0.0 0.0
-0.0017026857771250373 0.000663285826384977 0.0 -0.00010762656343830751 0.0 0.0
-0.002873423697024392 0.0011879348133513395 0.0 0.00010554594452330898 0.0 0.0
-0.004987485460163921 0.0027102086817617018 0.0 0.00029330474909658455 0.0 0.0
-0.008466361826448023 0.005651053063843588 0.0 0.00037383686837509915 0.0 0.0
-0.013569324706079376 0.01018978329045283 0.0 0.0004031342091697957 0.0 0.0
-0.020540075081295923 0.016566741395969354 0.0 0.00038452235573774004 0.0 0.0
-0.02948149160477332 0.024824661484670517 0.0 0.0002880580311509801 0.0 0.0
-0.04036059415047858 0.034893993468818864 0.0 0.0001566057454755322 0.0 0.0
-0.05308499486392088 0.046676151881853124 0.0 -9.173787172392714e-06 0.0 0.0
-0.06753916580819719 0.06008888095566743 0.0 -0.00025607984041674855 0.0 0.0
-0.08358094801928728 0.07504257528953841 0.0 -0.0005554213810685781 0.0 0.0
-0.10091994201943524 0.09133648387705319 0.0 -0.0009507649987274963 0.0 0.0
-0.11890473766927666 0.1084435040045859 0.0 -0.001388258082288988 0.0 0.0
-0.1363754468182469 0.12535655094013287 0.0 -0.0016686983576511862 0.0 0.0
-0.15169880668036714 0.14055455179334997 0.0 -0.0015170137796877547 0.0 0.0
-0.1630278219548156 0.1517976602978981 0.0 -0.002647057807900404 0.0 0.0
-0.16577009150714975 0.15439289762542646 0.0 -0.020702995089049114 0.0 0.0
-0.1640796038216053 0.13260894102851384 0.0 1.9290125052862095e-15 0.0 0.0
-0.16577009150712427 0.15439289762539876 0.0 0.020702995089058006 0.0 0.0
-0.16302782195476323 0.15179766029785424 0.0 0.002647057807907251 0.0 0.0
-0.15169880668029245 0.1405545517932818 0.0 0.0015170137796901417 0.0 0.0
-0.13637544681816177 0.12535655094004788 0.0 0.0016686983576508635 0.0 0.0
-0.1189047376691883 0.10844350400449695 0.0 0.0013882580822890522 0.0 0.0
-0.10091994201934408 0.09133648387697711 0.0 0.0009507649987234926 0.0 0.0
-0.0835809480191946 0.07504257528944468 0.0 0.0005554213810637695 0.0 0.0
-0.06753916580810725 0.060088880955588356 0.0 0.0002560798404182586 0.0 0.0
-0.05308499486383715 0.04667615188177681 0.0 9.173787168407187e-06 0.0 0.0
-0.040360594150406014 0.03489399346875164 0.0 -0.0001566057454776993 0.0 0.0
-0.02948149160471452 0.024824661484611894 0.0 -0.0002880580311536256 0.0 0.0
-0.020540075081249387 0.01656674139592709 0.0 -0.00038452235573963565 0.0 0.0
-0.013569324706045067 0.010189783290422045 0.0 -0.0004031342091693707 0.0 0.0
-0.00846636182642524 0.005651053063825788 0.0 -0.00037383686837425684 0.0 0.0
-0.004987485460151607 0.0027102086817518724 0.0 -0.0002933047490936214 0.0 0.0
-0.002873423697019511 0.0011879348133470207 0.0 -0.00010554594452042191 0.0 0.0
-0.0017026857771232004 0.0006632858263841458 0.0 0.00010762656343963885 0.0 0.0
-0.0008936219288917011 0.000372486451253377 0.0 0.00014398601650883325 0.0 0.0
-0.00029550488500366105 9.14035104084781e-05 0.0 0.00012303399194955566 0.0 0.0
-7.963195501424727e-05 1.526436180159147e-05 0.0 0.00010647508978229613 0.0 0.0
SCALARS Statev float 8
LOOKUP_TABLE default
0.0 0.01773991522313075 0.014199174626352408 -0.016948151031947602 0.0027489764055951956 -0.0008929973179466355 0.0 0.0
0.0 0.005971475205444215 0.004378108189206539 -0.002685936030773006 -0.0016921721584335365 -0.006674686251154926 0.0 0.0
0.0 9.557191382333608e-05 0.0001432325556462714 -8.905591569626399e-05 -5.417663995000747e-05 -0.0002633168669335591 0.0 0.0
0.0 0.0001399544104077465 5.565008843687625e-05 -3.988872858515813e-05 -1.576135985171832e-05 1.890106813055462e-05 0.0 0.0
0.0 0.0008763257056382278 0.0005644941522347038 -0.0004119093619459732 -0.00015258479028873028 0.00012092666868829513 0.0 0.0
0.0 0.002251254737639818 0.002243931849857232 -0.0017673614795160018 -0.00047657037034123234 0.0002544070370328518 0.0 0.0
0.0 0.005767213573187641 0.005301467838140719 -0.0045069529419537475 -0.0007945148961869625 0.00035901487795298446 0.0 0.0
0.0 0.011102600782782215 0.010049381473080066 -0.008998482070256312 -0.0010508994028237534 0.0004103075719515312 0.0 0.0
0.0 0.01863174695919536 0.016668717940701478 -0.015398213036075118 -0.0012705049046263558 0.0004103595036907328 0.0 0.0
0.0 0.02847330288937601 0.02523853501832929 -0.02373386412872077 -0.0015046708896085475 0.00033730634338927665 0.0 0.0
0.0 0.04057670163146754 0.0357251277875997 -0.033948415617853396 -0.0017767121697462628 0.0002256020198939801 0.0 0.0
0.0 0.05451623758515976 0.048047467718390906 -0.045956583170480084 -0.002090884547910782 7.172471572390062e-05 0.0 0.0
0.0 0.07053180153812397 0.06210208783215367 -0.05966446559201127 -0.0024376222401423613 -0.0001659186421835106 0.0 0.0
0.0 0.0884407259735332 0.07778288393149055 -0.07497819637651097 -0.0028046875549794744 -0.000435870935942649 0.0 0.0
0.0 0.1080373725274715 0.0949064924356043 -0.09173210165804199 -0.0031743907775622013 -0.0007779994286459862 0.0 0.0
0.0 0.12888548358216453 0.1130552374657101 -0.10952776815110019 -0.0035274693146099215 -0.0011899162791494107 0.0 0.0
0.0 0.15006896022350966 0.13146500790400928 -0.12761988502450203 -0.0038451228795071965 -0.0015971129068792426 0.0 0.0
0.0 0.1702747777487187 0.14900784242626247 -0.14489977404652205 -0.004108068379740315 -0.0018448681964618279 0.0 0.0
0.0 0.18788285138235164 0.16428986473567472 -0.15998061541446626 -0.004309249321208273 -0.001756173407765101 0.0 0.0
0.0 0.2007696451313106 0.17566335613962064 -0.17123885633466257 -0.004424499804958265 -0.0018903913639193044 0.0 0.0
0.0 0.20610780291912334 0.18020506374556283 -0.1757967373619842 -0.004408326383578619 1.4736475928422976e-15 0.0 0.0
0.0 0.20076964513128626 0.1756633561395992 -0.17123885633464192 -0.004424499804957235 0.0018903913639276787 0.0 0.0
0.0 0.18788285138229688 0.16428986473562635 -0.15998061541441932 -0.004309249321207083 0.0017561734077713156 0.0 0.0
0.0 0.17027477774863517 0.14900784242619003 -0.14489977404644971 -0.00410806837974031 0.0018448681964660391 0.0 0.0
0.0 0.15006896022341423 0.1314650079039265 -0.12761988502442068 -0.0038451228795059267 0.0015971129068790045 0.0 0.0
0.0 0.12888548358207003 0.11305523746562668 -0.10952776815101933 -0.0035274693146074847 0.0011899162791462591 0.0 0.0
0.0 0.1080373725273785 0.09490649243552246 -0.09173210165796311 -0.003174390777559173 0.0007779994286452015 0.0 0.0
0.0 0.08844072597343632 0.07778288393140598 -0.07497819637642832 -0.002804687554977801 0.00043587093594052006 0.0 0.0
0.0 0.0705318015380328 0.062102087832073744 -0.059664465591934016 -0.002437622240139643 0.00016591864218262406 0.0 0.0
0.0 0.05451623758507507 0.048047467718316555 -0.045956583170407586 -0.002090884547908914 -7.172471572595724e-05 0.0 0.0
0.0 0.04057670163139041 0.03572512778753213 -0.033948415617787595 -0.001776712169744526 -0.00022560201989597342 0.0 0.0
0.0 0.028473302889315478 0.0252385350182763 -0.02373386412866936 -0.0015046708896069676 -0.0003373063433911743 0.0 0.0
0.0 0.018631746959149615 0.01666871794066106 -0.015398213036035883 -0.001270504904625152 -0.00041035950369083655 0.0 0.0
0.0 0.011102600782751658 0.01004938147305235 -0.008998482070229992 -0.0010508994028223578 -0.00041030757195098424 0.0 0.0
0.0 0.005767213573169671 0.005301467838123703 -0.00450695294193812 -0.000794514896185578 -0.00035901487795285424 0.0 0.0
0.0 0.0022512547376313634 0.002243931849848543 -0.0017673614795087288 -0.0004765703703398139 -0.00025440703703190007 0.0 0.0
0.0 0.0008763257056342095 0.0005644941522319722 -0.0004119093619439759 -0.0001525847902879949 -0.00012092666868768752 0.0 0.0
0.0 0.0001399544104067383 5.565008843672997e-05 -3.9888728585064535e-05 -1.5761359851664834e-05 -1.8901068130453984e-05 0.0 0.0
0.0 9.557191382232826e-05 0.0001432325556454759 -8.90559156957466e-05 -5.4176639949728806e-05 0.0002633168669322409 0.0 0.0
0.0 0.005971475205434217 0.00437810818920136 -0.002685936030769223 -0.0016921721584321375 0.006674686251146386 0.0 0.0
0.0 0.01773991522310969 0.014199174626338169 -0.016948151031928073 0.0027489764055898982 0.0008929973179086426 0.0 0.0
0.0 0.014436016049811519 0.01079908480174826 -0.013992790879103663 0.0031937060773553913 -0.0004131565369008827 0.0 0.0
0.0 0.003633814559968611 0.0026053849625591293 -0.0015736456852931022 -0.0010317392772660214 -0.005212610149584397 0.0 0.0
0.0 -6.74391827269422e-05 -6.592471696906536e-05 5.80357506747395e-05 7.888966294325855e-06 -6.597777822232032e-05 0.0 0.0
0.0 2.6502266782774655e-05 1.797664322902613e-05 -1.2976103577077287e-05 -5.0005396519488715e-06 8.81311156944653e-06 0.0 0.0
0.0 0.0004653055177625163 0.0003568400285182722 -0.0002624488611130042 -9.439116740526773e-05 4.922152074311642e-05 0.0 0.0
0.0 0.0019725083969027125 0.0017026345449613885 -0.0013538307289434357 -0.000348803816017954 5.353494605555576e-05 0.0 0.0
0.0 0.004876052583254806 0.004476100608665139 -0.0038496039412060073 -0.0006264966674591286 -0.00017503706208502574 0.0 0.0
0.0 0.00982472754293356 0.008824733277535787 -0.008010068755600966 -0.0008146645219348314 -0.0005607793498050996 0.0 0.0
0.0 0.01684900500923095 0.014930818425722981 -0.013996066861463605 -0.0009347515642593729 -0.001101765725421948 0.0 0.0
0.0 0.025954720722501746 0.022831533816762388 -0.02179747914428454 -0.0010340546724778394 -0.0017692232648773931 0.0 0.0
0.0 0.03709480269082648 0.03246144397419437 -0.03132968511280795 -0.0011317588613864542 -0.0024988736440810753 0.0 0.0
0.0 0.05026445044575835 0.043729953024585946 -0.042497129901006195 -0.0012328231235797292 -0.0032446697586383066 0.0 0.0
0.0 0.06480525913053559 0.056578154120637957 -0.05524094993081228 -0.0013372041898256212 -0.004032755546645249 0.0 0.0
0.0 0.08137435805837351 0.0709323520351833 -0.06949447641752372 -0.0014378756176595389 -0.004872658671056789 0.0 0.0
0.0 0.09949481069300213 0.0866377976304414 -0.08511403262127974 -0.0015237650091615663 -0.005744634391032755 0.0 0.0
0.0 0.11877630785536866 0.10332626032187335 -0.10174082113153356 -0.001585439190339876 -0.006583695024478623 0.0 0.0
0.0 0.13845406130607615 0.12031213249631251 -0.11869515056860544 -0.0016169819277068848 -0.0071879451020278665 0.0 0.0
0.0 0.15733865386575197 0.13657291953356018 -0.1349535928362503 -0.0016193266973100375 -0.007236457981272449 0.0 0.0
0.0 0.1738212433649761 0.1507643042615006 -0.14917505635890024 -0.0015892479026003898 -0.00649223451976603 0.0 0.0
0.0 0.1858468032672676 0.16105350571560348 -0.15957997871308177 -0.001473527002521625 -0.005376661865227534 0.0 0.0
0.0 0.19094387655581657 0.1650571511115679 -0.16376440478571647 -0.0012927463258514808 5.9999748225347815e-15 0.0 0.0
0.0 0.18584680326724665 0.16105350571558436 -0.1595799787130637 -0.0014735270025204754 0.005376661865245616 0.0 0.0
0.0 0.17382124336492558 0.15076430426145673 -0.14917505635885683 -0.0015892479025997944 0.0064922345197842134 0.0 0.0
0.0 0.15733865386567553 0.13657291953349485 -0.13495359283618363 -0.0016193266973111423 0.007236457981281915 0.0 0.0
0.0 0.13845406130599316 0.12031213249624093 -0.11869515056853432 -0.0016169819277066528 0.007187945102029235 0.0 0.0
0.0 0.11877630785527993 0.10332626032179645 -0.10174082113145684 -0.0015854391903394253 0.006583695024474136 0.0 0.0
0.0 0.09949481069291367 0.08663779763036407 -0.0851140326212038 -0.0015237650091603253 0.005744634391030309 0.0 0.0
0.0 0.08137435805828197 0.07093235203510413 -0.06949447641744479 -0.0014378756176592299 0.0048726586710529495 0.0 0.0
0.0 0.06480525913045072 0.056578154120564335 -0.05524094993073957 -0.0013372041898248195 0.004032755546642087 0.0 0.0
0.0 0.050264450445679405 0.043729953024517126 -0.042497129900937895 -0.0012328231235792365 0.003244669758633048 0.0 0.0
0.0 0.037094802690753756 0.03246144397413153 -0.031329685112745385 -0.001131758861386164 0.002498873644074055 0.0 0.0
0.0 0.025954720722446322 0.022831533816713594 -0.021797479144236395 -0.001034054672477196 0.0017692232648723453 0.0 0.0
0.0 0.016849005009189306 0.014930818425685942 -0.013996066861427202 -0.0009347515642587416 0.0011017657254186425 0.0 0.0
0.0 0.00982472754290459 0.008824733277509695 -0.008010068755575727 -0.0008146645219339801 0.0005607793498024196 0.0 0.0
0.0 0.004876052583237568 0.00447610060864918 -0.003849603941191217 -0.0006264966674579578 0.00017503706208342793 0.0 0.0
0.0 0.0019725083968943156 0.0017026345449540443 -0.0013538307289372587 -0.0003488038160167847 -5.35349460557153e-05 0.0 0.0
0.0 0.00046530551775947516 0.0003568400285162367 -0.00026244886111151334 -9.439116740472345e-05 -4.92215207426972e-05 0.0 0.0
0.0 2.6502266782296187e-05 1.7976643229241686e-05 -1.2976103577246107e-05 -5.000539651995406e-06 -8.813111569419456e-06 0.0 0.0
0.0 -6.743918272669256e-05 -6.592471696879613e-05 5.803575067448789e-05 7.888966294308105e-06 6.597777822198567e-05 0.0 0.0
0.0 0.003633814559958325 0.0026053849625535287 -0.0015736456852891369 -0.001031739277264394 0.0052126101495735735 0.0 0.0
0.0 0.014436016049789065 0.010799084801731062 -0.013992790879082026 0.0031937060773509565 0.00041315653687274865 0.0 0.0
0.0 0.01071901081186582 0.007847204951058107 -0.01045340263501941 0.0026061976839612975 -0.0027931788433116773 0.0 0.0
0.0 0.002529446797779682 0.0016047191197771536 -0.0008677035058806919 -0.0007370156138964628 -0.004307212700934077 0.0 0.0
0.0 -5.037472784816508e-07 1.8687351348171078e-07 -1.6714751404503345e-07 -1.972599943667501e-08 1.464317073055904e-07 0.0 0.0
0.0 -3.5196650536759904e-06 -4.91306814593272e-06 3.89192106543537e-06 1.0211470804972214e-06 2.9706068282128757e-06 0.0 0.0
0.0 0.00019023592503041798 0.0001553943277123732 -0.00011105958974328838 -4.433473796908511e-05 1.4934356439592847e-05 0.0 0.0
0.0 0.0013869431993421976 0.001140501958088942 -0.0008831392234753473 -0.00025736273461359426 -6.10164759230621e-05 0.0 0.0
0.0 0.0037429785392747764 0.003500761860494066 -0.0029485510659956176 -0.0005522107944984483 -0.0005125415812326995 0.0 0.0
0.0 0.008170320035860209 0.007345983421545554 -0.006584869629633889 -0.0007611137919116596 -0.001266793923176871 0.0 0.0
0.0 0.01444122326586693 0.012812303569018385 -0.011923423073777518 -0.0008888804952408728 -0.002309826407434346 0.0 0.0
0.0 0.022669920980884745 0.01989061531816269 -0.01890665878023568 -0.000983956537927024 -0.0035742288663722427 0.0 0.0
0.0 0.03266195873095108 0.028486143373639954 -0.02741106474393528 -0.0010750786297046456 -0.004948694235433695 0.0 0.0
0.0 0.04418909788915673 0.03850305047316366 -0.037332966436261446 -0.001170084036902179 -0.006329257332385983 0.0 0.0
0.0 0.0575460180844021 0.04989369156885205 -0.04862553129663956 -0.0012681602722124995 -0.007710378084647926 0.0 0.0
0.0 0.0720122490326101 0.06264262249744425 -0.061280215525297554 -0.0013624069721466046 -0.009168397018408691 0.0 0.0
0.0 0.08819169078722681 0.07663253910069322 -0.07518891232878912 -0.001443626771904176 -0.010694112770172076 0.0 0.0
0.0 0.10545276495805114 0.09156089469324365 -0.09005767683855767 -0.0015032178546858178 -0.012133853790032751 0.0 0.0
0.0 0.1231492423390279 0.10685544024793497 -0.10531855283883984 -0.0015368874090952262 -0.013149801226393865 0.0 0.0
0.0 0.14022466281478768 0.12161375469353898 -0.12007360181045548 -0.001540152883083487 -0.013251475669397317 0.0 0.0
0.0 0.1551986284804292 0.13452677176839573 -0.13303053200179926 -0.0014962397665963844 -0.01206546818161652 0.0 0.0
0.0 0.1660788476126379 0.1438701137303239 -0.14244760074301135 -0.001422512987312393 -0.009528013615165497 0.0 0.0
0.0 0.17088693593670098 0.14761233234152113 -0.1464072033472463 -0.001205128994274867 1.2637894203360034e-14 0.0 0.0
0.0 0.16607884761261668 0.14387011373030426 -0.14244760074299187 -0.001422512987312377 0.009528013615197064 0.0 0.0
0.0 0.15519862848038407 0.13452677176835612 -0.13303053200176004 -0.0014962397665962306 0.012065468181649316 0.0 0.0
0.0 0.1402246628147219 0.12161375469348212 -0.12007360181039793 -0.0015401528830841355 0.013251475669415782 0.0 0.0
0.0 0.12314924233895738 0.10685544024787429 -0.10531855283878 -0.0015368874090942468 0.013149801226396356 0.0 0.0
0.0 0.10545276495796875 0.0915608946931726 -0.09005767683848595 -0.001503217854686672 0.012133853790026013 0.0 0.0
0.0 0.08819169078714505 0.07663253910062214 -0.07518891232871897 -0.0014436267719031793 0.010694112770167965 0.0 0.0
0.0 0.07201224903252987 0.06264262249737475 -0.061280215525228235 -0.001362406972146497 0.009168397018403756 0.0 0.0
0.0 0.057546018084325926 0.049893691568786175 -0.0486255312965741 -0.0012681602722120601 0.007710378084640774 0.0 0.0
0.0 0.04418909788908391 0.03850305047310082 -0.037332966436198906 -0.0011700840369018423 0.006329257332375964 0.0 0.0
0.0 0.0326619587308882 0.028486143373585276 -0.027411064743880647 -0.0010750786297046304 0.004948694235422466 0.0 0.0
0.0 0.022669920980835118 0.01989061531811897 -0.018906658780192466 -0.0009839565379264864 0.003574228866362714 0.0 0.0
0.0 0.014441223265829781 0.01281230356898556 -0.011923423073745408 -0.0008888804952401664 0.0023098264074280107 0.0 0.0
0.0 0.008170320035833194 0.007345983421521772 -0.0065848696296108905 -0.0007611137919108703 0.001266793923171465 0.0 0.0
0.0 0.003742978539258952 0.003500761860479338 -0.0029485510659822715 -0.0005522107944970676 0.0005125415812295841 0.0 0.0
0.0 0.0013869431993359374 0.0011405019580837345 -0.0008831392234711934 -0.0002573627346125407 6.101647592256125e-05 0.0 0.0
0.0 0.00019023592502835345 0.00015539432771119338 -0.00011105958974243599 -4.433473796875735e-05 -1.4934356439501146e-05 0.0 0.0
0.0 -3.519665053595773e-06 -4.913068145568013e-06 3.8919210651630755e-06 1.0211470804049626e-06 -2.970606828108621e-06 0.0 0.0
0.0 -5.037472784485803e-07 1.8687351348809955e-07 -1.6714751404959663e-07 -1.9725999438504133e-08 -1.4643170730826633e-07 0.0 0.0
0.0 0.0025294467977713935 0.0016047191197722547 -0.0008677035058774092 -0.0007370156138948432 0.004307212700921485 0.0 0.0
0.0 0.01071901081184325 0.00784720495104137 -0.010453402634998155 0.0026061976839567777 0.002793178843293099 0.0 0.0
0.0 0.008095210005505803 0.005769409660166573 -0.007849469083947345 0.0020800594237807587 -0.0030449008628702784 0.0 0.0
0.0 0.001807288387879035 0.0010764245743491011 -0.0005655800243069174 -0.0005108445500421811 -0.003220779539856536 0.0 0.0
0.0 0.0 0.0 0.0 0.0 0.0 0.0 0.0
0.0 -3.636212663487462e-07 -7.874034829648584e-07 6.310125480524085e-07 1.5639093491244688e-07 5.84341478673476e-07 0.0 0.0
0.0 5.540092530742289e-05 3.298051463644608e-05 -2.1567105177104224e-05 -1.1413409459341552e-05 1.2422928927362646e-05 0.0 0.0
0.0 0.0007937118890866507 0.0006912128654546946 -0.0005216584211987551 -0.00016955444425593866 -0.00011850830481525402 0.0 0.0
0.0 0.002911129385188156 0.0025583370882112655 -0.0021012699149056905 -0.0004570671733055754 -0.000636578421161273 0.0 0.0
0.0 0.006561205879186668 0.005887247116811806 -0.005193560371376016 -0.0006936867454357917 -0.0017046554664305452 0.0 0.0
0.0 0.0121061208577532 0.010687419427042752 -0.009852117040446244 -0.0008353023865964969 -0.003134312824559578 0.0 0.0
0.0 0.01938466181961054 0.016923803368101724 -0.01599430736757491 -0.0009294960005268127 -0.004858417361158536 0.0 0.0
0.0 0.028146869603769508 0.024476623420098785 -0.023462482588095926 -0.0010141408320028357 -0.006720358356175662 0.0 0.0
0.0 0.038399267141523724 0.03323990926800266 -0.03213766358898207 -0.0011022456790205587 -0.008583355195975358 0.0 0.0
0.0 0.04979703769782817 0.043183674553240084 -0.04198922896597643 -0.0011944455872637224 -0.010436072180130198 0.0 0.0
0.0 0.06292483701709509 0.05430783301135034 -0.05302612717775522 -0.001281705833595105 -0.012353561204074008 0.0 0.0
0.0 0.07701633431635758 0.0665614043458061 -0.06520375595889844 -0.0013576483869076016 -0.01434821265677377 0.0 0.0
0.0 0.09206547755056115 0.07971936938550807 -0.07830229208255372 -0.00141707730295437 -0.016249235233309556 0.0 0.0
0.0 0.10787758852549689 0.09331704951158726 -0.09186428904068059 -0.0014527604709066546 -0.017636877160151138 0.0 0.0
0.0 0.12321647563864649 0.10657610940229198 -0.1051202404059123 -0.0014558689963796155 -0.01791714472143938 0.0 0.0
0.0 0.1367619497126489 0.11830877128528866 -0.11688813512242933 -0.0014206361628593242 -0.016469862608209266 0.0 0.0
0.0 0.14676133406529543 0.12699820582416663 -0.12562953088777626 -0.0013686749363905715 -0.01251808868889405 0.0 0.0
0.0 0.1515601685557119 0.13068793330749526 -0.12962390533133944 -0.0010640279761557204 1.8623991238087e-14 0.0 0.0
0.0 0.14676133406527667 0.12699820582414892 -0.12562953088775786 -0.0013686749363911025 0.012518088688937397 0.0 0.0
0.0 0.13676194971260933 0.11830877128525347 -0.11688813512239372 -0.001420636162859721 0.01646986260825036 0.0 0.0
0.0 0.12321647563859328 0.10657610940224535 -0.10512024040586584 -0.0014558689963794773 0.017917144721463742 0.0 0.0
0.0 0.10787758852543508 0.09331704951153363 -0.09186428904062809 -0.0014527604709055576 0.01763687716015492 0.0 0.0
0.0 0.09206547755049126 0.07971936938544799 -0.0783022920824932 -0.0014170773029547556 0.016249235233302576 0.0 0.0
0.0 0.07701633431628577 0.06656140434574359 -0.06520375595883657 -0.0013576483869070302 0.014348212656767046 0.0 0.0
0.0 0.06292483701702685 0.05430783301129096 -0.05302612717769628 -0.0012817058335947054 0.012353561204067914 0.0 0.0
0.0 0.049797037697763294 0.04318367455318432 -0.04198922896592122 -0.0011944455872630823 0.01043607218012041 0.0 0.0
0.0 0.0383992671414591 0.033239909267946455 -0.03213766358892641 -0.0011022456790200769 0.008583355195960138 0.0 0.0
0.0 0.028146869603716488 0.024476623420052728 -0.023462482588050438 -0.001014140832002276 0.006720358356162245 0.0 0.0
0.0 0.01938466181956626 0.016923803368063255 -0.015994307367537052 -0.0009294960005261848 0.0048584173611448175 0.0 0.0
0.0 0.012106120857721062 0.010687419427014755 -0.009852117040418829 -0.0008353023865959197 0.003134312824551031 0.0 0.0
0.0 0.006561205879163522 0.005887247116790807 -0.005193560371355997 -0.0006936867454348031 0.0017046554664231408 0.0 0.0
0.0 0.0029111293851746436 0.002558337088199957 -0.0021012699148956876 -0.00045706717330427037 0.0006365784211574552 0.0 0.0
0.0 0.0007937118890814354 0.0006912128654507408 -0.0005216584211957277 -0.0001695544442550132 0.00011850830481434919 0.0 0.0
0.0 5.540092530664657e-05 3.298051463638629e-05 -2.1567105177091742e-05 -1.141340945929452e-05 -1.2422928926979538e-05 0.0 0.0
0.0 -3.636212668405065e-07 -7.874034830746259e-07 6.310125481369709e-07 1.5639093493767597e-07 -5.843414787416937e-07 0.0 0.0
0.0 0.0 0.0 0.0 0.0 0.0 0.0 0.0
0.0 0.0018072883878719448 0.0010764245743450133 -0.0005655800243041828 -0.0005108445500408323 0.00322077953984568 0.0 0.0
0.0 0.008095210005487125 0.0057694096601520126 -0.007849469083928688 0.002080059423776677 0.003044900862856923 0.0 0.0
0.0 0.005902231993257541 0.004184930877600071 -0.005796141791232414 0.001611210913632347 -0.0026236622817986197 0.0 0.0
0.0 0.0014415866773975115 0.0006921492439204328 -0.0003519195208886806 -0.0003402297230317515 -0.0022738608729383552 0.0 0.0
0.0 0.0 0.0 0.0 0.0 0.0 0.0 0.0
0.0 -3.864138274330199e-07 4.289364225124953e-08 -3.261047025466774e-08 -1.0283171996580447e-08 -2.7498404509231608e-08 0.0 0.0
0.0 -1.80278513668655e-05 -7.621878476590809e-06 7.066026934338658e-06 5.558515422521655e-07 1.4782925712571565e-05 0.0 0.0
0.0 0.0004216659148023847 0.00033425920199819763 -0.0002459580879128165 -8.830111408538093e-05 -9.305480978631065e-05 0.0 0.0
0.0 0.0021032336370533904 0.0017193609432166355 -0.0013739561002833372 -0.0003454048429332954 -0.00063806794701859 0.0 0.0
0.0 0.005030279756456145 0.00447109513969974 -0.003861120728278309 -0.000609974411421437 -0.0018339306907963107 0.0 0.0
0.0 0.009810705716101535 0.00858262793621039 -0.007811933884875709 -0.0007706940513346818 -0.0035674118499334118 0.0 0.0
0.0 0.0160982440085331 0.013958913242295097 -0.013090615847177179 -0.0008682973951179109 -0.005615058450777271 0.0 0.0
0.0 0.023722537803026224 0.02045955376478298 -0.019511500177790825 -0.0009480535869921592 -0.007815348506772424 0.0 0.0
0.0 0.032533903004798324 0.02796997877002899 -0.02694098885801648 -0.0010289899120125045 -0.010009056063412937 0.0 0.0
0.0 0.042547314066134524 0.036461715929592936 -0.035347821300178814 -0.0011138946294140804 -0.012185036521246454 0.0 0.0
0.0 0.05340949074224294 0.04597031980395713 -0.0447743884379067 -0.001195931366050419 -0.014425126329668659 0.0 0.0
0.0 0.0657325263016152 0.056474057431848156 -0.05520720489920707 -0.0012668525326410692 -0.016729810975712387 0.0 0.0
0.0 0.0790125959809752 0.06783045722931466 -0.06650730037102033 -0.0013231568582942961 -0.018917930091370907 0.0 0.0
0.0 0.09261448025659572 0.07970106936750143 -0.07833934935756964 -0.0013617200099317963 -0.020598707904848933 0.0 0.0
0.0 0.1061763832336655 0.09145332120875116 -0.09008057630818667 -0.0013727449005646064 -0.021143375801380492 0.0 0.0
0.0 0.11842078274543308 0.10209316827815594 -0.10074392223501512 -0.0013492460431406927 -0.019607688265400092 0.0 0.0
0.0 0.12781364271890974 0.1103131290724271 -0.1090068930625743 -0.0013062360098527234 -0.014758848195971773 0.0 0.0
0.0 0.13277471086709647 0.11406951103379366 -0.11317529331001133 -0.0008942177237823063 2.1316715753672e-14 0.0 0.0
0.0 0.12781364271889306 0.11031312907241031 -0.10900689306255752 -0.0013062360098527015 0.01475884819602028 0.0 0.0
0.0 0.11842078274539834 0.10209316827812416 -0.10074392223498321 -0.0013492460431408582 0.01960768826544536 0.0 0.0
0.0 0.1061763832336211 0.09145332120871147 -0.09008057630814723 -0.0013727449005642655 0.021143375801408192 0.0 0.0
0.0 0.09261448025654127 0.07970106936745425 -0.07833934935752364 -0.0013617200099305812 0.020598707904852933 0.0 0.0
0.0 0.07901259598091599 0.06783045722926347 -0.06650730037096923 -0.0013231568582941645 0.018917930091362806 0.0 0.0
0.0 0.06573252630155506 0.05647405743179597 -0.05520720489915534 -0.0012668525326405883 0.016729810975704206 0.0 0.0
0.0 0.053409490742183145 0.04597031980390531 -0.04477438843785519 -0.001195931366050082 0.014425126329660816 0.0 0.0
0.0 0.0425473140660799 0.03646171592954544 -0.03534782130013207 -0.001113894629413338 0.01218503652123565 0.0 0.0
0.0 0.03253390300474123 0.027969978769979753 -0.02694098885796763 -0.0010289899120121018 0.010009056063395659 0.0 0.0
0.0 0.023722537802979567 0.020459553764743014 -0.0195115001777516 -0.0009480535869914144 0.007815348506755027 0.0 0.0
0.0 0.016098244008494928 0.013958913242262465 -0.01309061584714494 -0.0008682973951175238 0.005615058450761665 0.0 0.0
0.0 0.009810705716073492 0.008582627936186 -0.007811933884851995 -0.0007706940513340014 0.003567411849922826 0.0 0.0
0.0 0.005030279756435735 0.004471095139681829 -0.003861120728261571 -0.0006099744114202602 0.0018339306907879025 0.0 0.0
0.0 0.002103233637043107 0.0017193609432084335 -0.0013739561002764765 -0.00034540484293195807 0.0006380679470152338 0.0 0.0
0.0 0.00042166591479833875 0.00033425920199547254 -0.00024595808791073507 -8.830111408473686e-05 9.305480978505145e-05 0.0 0.0
0.0 -1.8027851367026047e-05 -7.62187847620767e-06 7.066026934028514e-06 5.558515421791093e-07 -1.4782925711995606e-05 0.0 0.0
0.0 -3.8641382727026274e-07 4.289364218483386e-08 -3.261047020447603e-08 -1.0283171980364293e-08 2.749840441894536e-08 0.0 0.0
0.0 0.0 0.0 0.0 0.0 0.0 0.0 0.0
0.0 0.0014415866773904683 0.0006921492439169879 -0.00035191952088636065 -0.0003402297230306261 0.0022738608729288936 0.0 0.0
0.0 0.005902231993241762 0.0041849308775876925 -0.0057961417912162526 0.0016112109136285535 0.0026236622817892036 0.0 0.0
0.0 0.004271972759510561 0.002924549104391917 -0.004116149074960045 0.0011915999705681267 -0.0020559632536976 0.0 0.0
0.0 0.0008565225556205552 0.0004195277633174012 -0.00020423078705925643 -0.0002152969762581447 -0.001519070918766288 0.0 0.0
0.0 0.0 0.0 0.0 0.0 0.0 0.0 0.0
0.0 -4.2197408762620697e-07 3.7198973895477576e-08 -2.8422077659179578e-08 -8.776896236298037e-09 -7.313551754139095e-08 0.0 0.0
0.0 -1.3706326307150195e-05 -1.0929740990318671e-05 8.724544777469331e-06 2.205196212849351e-06 1.5441722283238692e-05 0.0 0.0
0.0 0.00012882340091374255 0.00011956642277537409 -8.518037738985614e-05 -3.4386045385517995e-05 -4.757890190623911e-05 0.0 0.0
0.0 0.001180239645726384 0.00104366095195661 -0.000812051096864713 -0.0002316098550918983 -0.0005727362545596363 0.0 0.0
0.0 0.003870914190076999 0.0031291471317174235 -0.0026319242311375573 -0.0004972229005798621 -0.001708479681221773 0.0 0.0
0.0 0.007449395727405792 0.00652568715172303 -0.005836556332277681 -0.0006891308194453502 -0.003580656773866198 0.0 0.0
0.0 0.012894179801613817 0.011023113056795356 -0.010226280501389122 -0.0007968325554062328 -0.005833232218387798 0.0 0.0
0.0 0.019312688892765648 0.01646411048994608 -0.015589606799834394 -0.000874503690111682 -0.008223561025632388 0.0 0.0
0.0 0.026682225164896767 0.022722120627010737 -0.021773138258149877 -0.0009489823688608565 -0.01060317835910031 0.0 0.0
0.0 0.0349671776107776 0.029768917376258117 -0.02874199532163864 -0.00102692205461952 -0.012950406783049977 0.0 0.0
0.0 0.04430117333641872 0.03765297627177812 -0.03655127839106899 -0.0011016978807091332 -0.015350522275364308 0.0 0.0
0.0 0.0544920202042098 0.04640614726056368 -0.04523805786791814 -0.001168089392645551 -0.017816942240702762 0.0 0.0
0.0 0.06548481307875019 0.05594746540678339 -0.05472516922931066 -0.0012222961774727072 -0.02015902839340483 0.0 0.0
0.0 0.07749545179242207 0.06603468458965392 -0.06477245142275784 -0.0012622331668960239 -0.02201166103273438 0.0 0.0
0.0 0.08919321061330727 0.07623804874636635 -0.07495297930791314 -0.0012850694384532787 -0.022805081029112523 0.0 0.0
0.0 0.09999623310244975 0.08582131286573999 -0.08454444833984581 -0.001276864525894224 -0.021456819785041725 0.0 0.0
0.0 0.10897337311860711 0.0936854841639228 -0.09244745585164399 -0.0012380283122787436 -0.016338409091291722 0.0 0.0
0.0 0.11425944314415136 0.09759965616223588 -0.09690039562334742 -0.0006992605388884312 2.1390875182270008e-14 0.0 0.0
0.0 0.10897337311859082 0.09368548416390578 -0.09244745585162648 -0.0012380283122793538 0.01633840909133969 0.0 0.0
0.0 0.09999623310242141 0.08582131286571285 -0.08454444833981851 -0.0012768645258943998 0.021456819785088635 0.0 0.0
0.0 0.08919321061326693 0.07623804874633017 -0.07495297930787664 -0.0012850694384534851 0.022805081029140417 0.0 0.0
0.0 0.07749545179237406 0.0660346845896126 -0.06477245142271697 -0.0012622331668956151 0.022011661032738352 0.0 0.0
0.0 0.0654848130786976 0.055947465406738346 -0.054725169229265264 -0.0012222961774730674 0.020159028393395995 0.0 0.0
0.0 0.05449202020415871 0.04640614726051939 -0.04523805786787444 -0.001168089392644944 0.017816942240692708 0.0 0.0
0.0 0.04430117333636949 0.037652976271735146 -0.03655127839102646 -0.0011016978807087115 0.015350522275355412 0.0 0.0
0.0 0.03496717761072891 0.029768917376216404 -0.02874199532159765 -0.001026922054618736 0.012950406783037513 0.0 0.0
0.0 0.026682225164850366 0.022722120626971386 -0.021773138258110558 -0.0009489823688608335 0.010603178359083486 0.0 0.0
0.0 0.01931268889272711 0.016464110489913926 -0.015589606799802952 -0.0008745036901109746 0.008223561025613363 0.0 0.0
0.0 0.012894179801581071 0.011023113056767534 -0.010226280501361658 -0.0007968325554058684 0.005833232218370571 0.0 0.0
0.0 0.007449395727382028 0.006525687151702229 -0.005836556332257793 -0.0006891308194444402 0.0035806567738540934 0.0 0.0
0.0 0.003870914190059809 0.003129147131703606 -0.0026319242311249468 -0.0004972229005786575 0.0017084796812138106 0.0 0.0
0.0 0.0011802396457184904 0.0010436609519503997 -0.0008120510968596676 -0.0002316098550907325 0.0005727362545559396 0.0 0.0
0.0 0.0001288234009118656 0.00011956642277434773 -8.518037738912494e-05 -3.438604538522269e-05 4.7578901905923166e-05 0.0 0.0
0.0 -1.3706326307841511e-05 -1.0929740990046054e-05 8.724544777257087e-06 2.2051962127889395e-06 -1.544172228296953e-05 0.0 0.0
0.0 -4.2197408745974043e-07 3.7198973898880975e-08 -2.842207766170968e-08 -8.776896237168173e-09 7.313551754027038e-08 0.0 0.0
0.0 0.0 0.0 0.0 0.0 0.0 0.0 0.0
0.0 0.0008565225556150704 0.000419527763314902 -0.00020423078705757765 -0.00021529697625732384 0.001519070918759023 0.0 0.0
0.0 0.0042719727594981004 0.002924549104382166 -0.004116149074946993 0.0011915999705648247 0.00205596325369091 0.0 0.0
0.0 0.0028012539364312273 0.001933706189972228 -0.0027574135197146327 0.0008237073297424025 -0.0015252117931615363 0.0 0.0
0.0 0.0005143255307506033 0.000214948127310785 -8.776236240703807e-05 -0.00012718576490374634 -0.0009071946915903774 0.0 0.0
0.0 3.547722962352453e-07 -4.760043067899587e-09 4.283870871274896e-09 4.761721966247399e-10 7.118613590585807e-08 0.0 0.0
0.0 -3.9933846218285653e-07 2.3010864123224606e-08 -1.7665084308602554e-08 -5.345779814626124e-09 -7.114747973550936e-08 0.0 0.0
0.0 -4.2203854742543385e-06 -3.2414376525483067e-06 2.5744688629988268e-06 6.669687895495248e-07 7.126011018283278e-06 0.0 0.0
0.0 1.044619540348706e-06 3.870897396212422e-06 -2.0299111376259314e-07 -3.66790628244981e-06 1.8778261975516904e-05 0.0 0.0
0.0 0.0006329371083519228 0.0005072822080519151 -0.00038594912001371914 -0.0001213330880381958 -0.00040468541572076646 0.0 0.0
0.0 0.0023328889611738297 0.0019747200682272204 -0.001612626090224504 -0.0003620939780027176 -0.0014590502203019554 0.0 0.0
0.0 0.005730882184621446 0.00454250191915993 -0.003966542769153719 -0.0005759591500062097 -0.0031878709662720266 0.0 0.0
0.0 0.009618216159388161 0.008151414841388671 -0.00744429551217517 -0.0007071193292135002 -0.005483369287244959 0.0 0.0
0.0 0.01497141316372405 0.012521547423746159 -0.011732468355851747 -0.0007890790678944125 -0.007926173685751934 0.0 0.0
0.0 0.020938349296287306 0.01752606180265757 -0.01666703849367773 -0.0008590233089798421 -0.010349766185972121 0.0 0.0
0.0 0.027577164396702547 0.023133647990691873 -0.022203804349943748 -0.0009298436407481044 -0.012719670958798862 0.0 0.0
0.0 0.03499438529031859 0.02940396214845404 -0.028405912304366274 -0.0009980498440877999 -0.01512229129737578 0.0 0.0
0.0 0.04320136567618129 0.03639870364957433 -0.035339796709287594 -0.001058906940286726 -0.017578062486302296 0.0 0.0
0.0 0.05249606321541096 0.044099299554368886 -0.042990661222784735 -0.0011086383315841962 -0.019937412985716805 0.0 0.0
0.0 0.06179651936085469 0.05236938684052652 -0.05121789292581556 -0.0011514939147109914 -0.021849112613719225 0.0 0.0
0.0 0.0719297822478185 0.060946507469592445 -0.059758031090242955 -0.001188476379349419 -0.022837215614205625 0.0 0.0
0.0 0.08178533253344322 0.06942021028599504 -0.06822141338189605 -0.001198796904099046 -0.021923528403481836 0.0 0.0
0.0 0.09024758469985739 0.07697456020849618 -0.0758093715028641 -0.0011651887056320794 -0.017223218034319678 0.0 0.0
0.0 0.0960558704962106 0.08112578761152694 -0.08064783291994213 -0.00047795469158484576 2.0559942637277118e-14 0.0 0.0
0.0 0.09024758469984764 0.07697456020848394 -0.07580937150285191 -0.0011651887056320148 0.017223218034367202 0.0 0.0
0.0 0.08178533253342342 0.0694202102859745 -0.06822141338187529 -0.0011987969040992271 0.02192352840353088 0.0 0.0
0.0 0.07192978224778843 0.060946507469564475 -0.05975803109021538 -0.00118847637934908 0.02283721561423453 0.0 0.0
0.0 0.061796519360814296 0.05236938684049217 -0.05121789292578138 -0.0011514939147107628 0.021849112613722226 0.0 0.0
0.0 0.05249606321536969 0.044099299554333726 -0.0429906612227495 -0.0011086383315842539 0.019937412985706532 0.0 0.0
0.0 0.043201365676140246 0.03639870364953869 -0.03533979670925231 -0.0010589069402863552 0.01757806248629111 0.0 0.0
0.0 0.034994385290280504 0.029403962148421146 -0.028405912304333498 -0.0009980498440876307 0.015122291297366749 0.0 0.0
0.0 0.027577164396663648 0.02313364799065893 -0.022203804349911354 -0.0009298436407475802 0.0127196709587868 0.0 0.0
0.0 0.020938349296252778 0.017526061802628924 -0.016667038493649283 -0.0008590233089796484 0.010349766185956798 0.0 0.0
0.0 0.014971413163692535 0.01252154742372049 -0.011732468355826722 -0.0007890790678937686 0.007926173685732342 0.0 0.0
0.0 0.009618216159360414 0.008151414841365803 -0.0074442955121526875 -0.0007071193292131195 0.005483369287227534 0.0 0.0
0.0 0.005730882184601006 0.004542501919144102 -0.003966542769138912 -0.000575959150005186 0.003187870966260372 0.0 0.0
0.0 0.0023328889611613354 0.0019747200682171564 -0.0016126260902157255 -0.0003620939780014292 0.0014590502202946175 0.0 0.0
0.0 0.000632937108347613 0.0005072822080491539 -0.0003859491200116007 -0.00012133308803755328 0.00040468541571883415 0.0 0.0
0.0 1.0446195392672304e-06 3.870897395927193e-06 -2.0299111357491393e-07 -3.6679062823524057e-06 -1.877826197555608e-05 0.0 0.0
0.0 -4.2203854751026504e-06 -3.241437652499858e-06 2.5744688629627016e-06 6.669687895371578e-07 -7.126011018168481e-06 0.0 0.0
0.0 -3.9933846203843063e-07 2.3010864114477826e-08 -1.766508430182229e-08 -5.345779812654833e-09 7.114747970917023e-08 0.0 0.0
0.0 3.5477229582550476e-07 -4.760043062279326e-09 4.283870866217358e-09 4.761721960621147e-10 -7.118613582206866e-08 0.0 0.0
0.0 0.0005143255307465605 0.00021494812730909438 -8.776236240591561e-05 -0.00012718576490317908 0.0009071946915849146 0.0 0.0
0.0 0.0028012539364218516 0.0019337061899649456 -0.002757413519704598 0.0008237073297396552 0.0015252117931567816 0.0 0.0
0.0 0.002103225229135289 0.0011275586462641107 -0.0016252540833754945 0.000497695437111383 -0.0010042374160180373 0.0 0.0
0.0 0.00016748773181387324 8.14354712944284e-05 -1.5768998830856663e-05 -6.566647246357169e-05 -0.00045262612474374097 0.0 0.0
0.0 2.5319208939171236e-07 2.1457002929089738e-09 -3.064915733659262e-09 9.192154407509497e-10 -2.052814844679275e-08 0.0 0.0
0.0 -7.372227395903849e-07 2.5112823100054517e-08 -1.9307977485099156e-08 -5.80484561495565e-09 -1.5227711332617232e-07 0.0 0.0
0.0 -2.7408987446713837e-06 -1.9731427289852147e-06 1.5592711798665746e-06 4.1387154911864517e-07 6.754508573936158e-06 0.0 0.0
0.0 -2.655680175392497e-05 -1.6566463056438957e-05 1.3610102632712296e-05 2.956360423726647e-06 3.701483087271895e-05 0.0 0.0
0.0 0.00022092711682755392 0.00015915548956537767 -0.00011875046744468756 -4.0405022120690164e-05 -0.00020024880078295084 0.0 0.0
0.0 0.00125478878007122 0.0010129027705763675 -0.0008047517484445006 -0.00020815102213186715 -0.0010718702719546924 0.0 0.0
0.0 0.00345828795042295 0.0027661420583318863 -0.0023427138375635833 -0.00042342822076830056 -0.0025458732488340833 0.0 0.0
0.0 0.006937877669382805 0.005383449101411361 -0.004803547972130318 -0.000579901129281038 -0.004575117705020495 0.0 0.0
0.0 0.010723568497293898 0.008668368697047702 -0.007990415816331843 -0.0006779528807158533 -0.006898306419988931 0.0 0.0
0.0 0.015218156498518983 0.012422117712885664 -0.011671821503166955 -0.0007502962097187241 -0.009212505513308435 0.0 0.0
0.0 0.020284907435374137 0.016599394534447854 -0.015782990028534262 -0.0008164045059135608 -0.011465812425344005 0.0 0.0
0.0 0.025868788175751348 0.02126354916305725 -0.02038642905190042 -0.0008771201111568262 -0.013716578751208134 0.0 0.0
0.0 0.03220577968272057 0.026498046447881573 -0.025565801340575112 -0.000932245107306448 -0.01600507258770289 0.0 0.0
0.0 0.039120389015151844 0.032347679407030754 -0.03136844756292496 -0.000979231844105772 -0.018224853200890127 0.0 0.0
0.0 0.04684381768243471 0.03874813033025056 -0.03772797841566988 -0.0010201519145806828 -0.02007660527171016 0.0 0.0
0.0 0.054757782032090675 0.04560465204647559 -0.04453526933037714 -0.001069382716098453 -0.02114736205047307 0.0 0.0
0.0 0.06288492679342528 0.05284005918608266 -0.051731120840096526 -0.0011089383459861257 -0.020825375142187484 0.0 0.0
0.0 0.07112131858230018 0.06003518436452332 -0.0589458114134774 -0.001089372951045961 -0.01728132825346557 0.0 0.0
0.0 0.07771692600237196 0.06448802384671834 -0.06426238645522654 -0.00022563739149180192 1.7562340470789195e-14 0.0 0.0
0.0 0.07112131858229537 0.06003518436451442 -0.058945811413468684 -0.0010893729510456666 0.017281328253509656 0.0 0.0
0.0 0.0628849267934117 0.05284005918606685 -0.05173112084008075 -0.0011089383459861567 0.020825375142234072 0.0 0.0
0.0 0.054757782032067485 0.04560465204645339 -0.044535269330355585 -0.0010693827160978139 0.021147362050498636 0.0 0.0
0.0 0.04684381768240529 0.03874813033022568 -0.037727978415645666 -0.0010201519145799775 0.02007660527171163 0.0 0.0
0.0 0.03912038901511934 0.03234767940700373 -0.03136844756289786 -0.0009792318441058914 0.01822485320087842 0.0 0.0
0.0 0.032205779682689506 0.02649804644785492 -0.02556580134054904 -0.0009322451073058677 0.016005072587692182 0.0 0.0
0.0 0.02586878817572377 0.02126354916303381 -0.02038642905187726 -0.0008771201111565676 0.013716578751200675 0.0 0.0
0.0 0.020284907435344952 0.016599394534423752 -0.015782990028510604 -0.0008164045059131335 0.011465812425332057 0.0 0.0
0.0 0.015218156498492124 0.012422117712863435 -0.011671821503145236 -0.0007502962097181987 0.009212505513293726 0.0 0.0
0.0 0.010723568497268394 0.00866836869702788 -0.007990415816312484 -0.0006779528807153879 0.006898306419970421 0.0 0.0
0.0 0.006937877669363956 0.005383449101396903 -0.004803547972116212 -0.0005799011292806901 0.0045751177050066105 0.0 0.0
0.0 0.00345828795040958 0.002766142058321618 -0.0023427138375542492 -0.00042342822076737053 0.0025458732488250987 0.0 0.0
0.0 0.0012547887800629489 0.0010129027705702341 -0.0008047517484393024 -0.00020815102213093132 0.0010718702719483648 0.0 0.0
0.0 0.0002209271168248564 0.00015915548956354776 -0.0001187504674434 -4.0405022120147765e-05 0.00020024880078088158 0.0 0.0
0.0 -2.6556801754287236e-05 -1.6566463055824056e-05 1.361010263225337e-05 2.9563604235707197e-06 -3.701483087140559e-05 0.0 0.0
0.0 -2.7408987451968677e-06 -1.9731427290194865e-06 1.5592711798937936e-06 4.1387154912568385e-07 -6.754508574123561e-06 0.0 0.0
0.0 -7.372227399204972e-07 2.5112823110526948e-08 -1.9307977492327186e-08 -5.804845618199666e-09 1.522771134584541e-07 0.0 0.0
0.0 2.531920892360281e-07 2.1457003207848736e-09 -3.064915761881469e-09 9.192154410970017e-10 2.0528149051887513e-08 0.0 0.0
0.0 0.00016748773181126886 8.143547129343964e-05 -1.576899883021468e-05 -6.566647246322487e-05 0.00045262612473993114 0.0 0.0
0.0 0.0021032252291268982 0.0011275586462591006 -0.0016252540833683895 0.0004976954371092883 0.0010042374160145375 0.0 0.0
0.0 0.001006606956215568 0.0005818032906370985 -0.000847190243673747 0.000265386953036649 -0.0006375590908729798 0.0 0.0
0.0 2.3288738109399533e-05 1.1080705274277393e-06 3.0069166295341914e-05 -3.117723682276973e-05 -0.00013341219309284265 0.0 0.0
0.0 2.0162320839085312e-06 -1.680618871283374e-09 9.978920064991684e-09 -8.298301193707393e-09 4.5871787299374406e-07 0.0 0.0
0.0 1.741373878471898e-06 -1.3884487540893269e-08 8.937498789964226e-09 4.946988750928901e-09 3.7770708828879105e-07 0.0 0.0
0.0 -3.9175242979993935e-06 -1.1967299202612407e-06 9.259185599169074e-07 2.708113603443321e-07 7.054375289562951e-06 0.0 0.0
0.0 -1.9888464802972017e-05 -6.4864731609377744e-06 5.333447847405931e-06 1.1530253135318412e-06 1.9153354095954104e-05 0.0 0.0
0.0 4.401312998953247e-05 8.187507081103278e-06 -5.257279376486394e-06 -2.93022770461691e-06 -3.598699797791224e-05 0.0 0.0
0.0 0.0005483611565388034 0.00031289636155252073 -0.0002468644822613572 -6.603187929116382e-05 -0.0005685724924484642 0.0 0.0
0.0 0.0017546706833532282 0.0012474685588552046 -0.0010280989986156599 -0.00021936956023954382 -0.001705840672831549 0.0 0.0
0.0 0.003914105472081742 0.0028562553089058734 -0.002472829128297826 -0.00038342618060804845 -0.0032724150507953222 0.0 0.0
0.0 0.006504105622420816 0.004991493694239134 -0.004484872729875078 -0.0005066209643640532 -0.0051858577225869455 0.0 0.0
0.0 0.009671199154080557 0.00747015301773647 -0.00687898312319034 -0.0005911698945461224 -0.007176098710511511 0.0 0.0
0.0 0.013123021738576914 0.0102250810695717 -0.009564032038870986 -0.0006610490307007094 -0.009168647388124514 0.0 0.0
0.0 0.016933422071652705 0.01329914431690823 -0.012581062149881642 -0.0007180821670265867 -0.011145600936555792 0.0 0.0
0.0 0.02126378663421197 0.016777793878960525 -0.0160096214750405 -0.0007681724039200351 -0.013118656349106835 0.0 0.0
0.0 0.026203460405489893 0.020753205826015957 -0.01993974155353142 -0.0008134642724845301 -0.01506904982471222 0.0 0.0
0.0 0.031708178123198275 0.025262354810940486 -0.024406147094953305 -0.0008562077159871563 -0.016794520195493975 0.0 0.0
0.0 0.037543684850045105 0.030304415885065765 -0.029398428354710134 -0.000905987530355659 -0.017876462860189044 0.0 0.0
0.0 0.044146379230850116 0.03605975252538116 -0.03508379187100689 -0.0009759606543742712 -0.01794948263526273 0.0 0.0
0.0 0.05193512476659057 0.04270128449789559 -0.04169738846464586 -0.001003896033249719 -0.01615469391124926 0.0 0.0
0.0 0.059325941847834074 0.04750283615445515 -0.0475633185285887 6.048237413348173e-05 1.4861376018693306e-14 0.0 0.0
0.0 0.051935124766589125 0.04270128449788904 -0.0416973884646389 -0.0010038960332501155 0.016154693911287037 0.0 0.0
0.0 0.044146379230843795 0.03605975252537137 -0.03508379187099709 -0.0009759606543742264 0.017949482635304458 0.0 0.0
0.0 0.03754368485002576 0.03030441588504847 -0.029398428354692776 -0.0009059875303556582 0.017876462860208435 0.0 0.0
0.0 0.03170817812317617 0.025262354810923014 -0.024406147094936576 -0.0008562077159864482 0.0167945201954912 0.0 0.0
0.0 0.026203460405467713 0.020753205825998197 -0.019939741553513437 -0.0008134642724847465 0.015069049824701527 0.0 0.0
0.0 0.021263786634188764 0.0167777938789415 -0.01600962147502177 -0.0007681724039197239 0.013118656349096355 0.0 0.0
0.0 0.01693342207163793 0.013299144316895772 -0.012581062149869402 -0.0007180821670263734 0.011145600936552199 0.0 0.0
0.0 0.013123021738560786 0.010225081069558994 -0.00956403203885839 -0.0006610490307006141 0.009168647388115621 0.0 0.0
0.0 0.009671199154057009 0.0074701530177188275 -0.0068789831231732285 -0.0005911698945455947 0.007176098710495608 0.0 0.0
0.0 0.006504105622403922 0.004991493694226438 -0.004484872729862971 -0.000506620964363462 0.005185857722572379 0.0 0.0
0.0 0.003914105472069513 0.0028562553088972305 -0.0024728291282899864 -0.0003834261806072445 0.003272415050785184 0.0 0.0
0.0 0.0017546706833457262 0.0012474685588498525 -0.0010280989986110839 -0.00021936956023876707 0.0017058406728257909 0.0 0.0
0.0 0.0005483611565349727 0.00031289636155023344 -0.00024686448225951597 -6.603187929071738e-05 0.0005685724924449582 0.0 0.0
0.0 4.401312998671517e-05 8.187507080602527e-06 -5.257279376054323e-06 -2.930227704548176e-06 3.5986997976145717e-05 0.0 0.0
0.0 -1.9888464803465383e-05 -6.486473160688317e-06 5.3334478472025926e-06 1.1530253134856955e-06 -1.9153354094682366e-05 0.0 0.0
0.0 -3.917524298083417e-06 -1.1967299201621122e-06 9.259185598391672e-07 2.708113603229559e-07 -7.054375288734679e-06 0.0 0.0
0.0 1.7413738779546315e-06 -1.3884487572965e-08 8.937498815826426e-09 4.94698875713944e-09 -3.7770708843377265e-07 0.0 0.0
0.0 2.016232083903825e-06 -1.680618851735501e-09 9.978920039875642e-09 -8.298301188139746e-09 -4.5871787227401455e-07 0.0 0.0
0.0 2.3288738107208706e-05 1.1080705270945102e-06 3.0069166295468647e-05 -3.117723682256307e-05 0.0001334121930910258 0.0 0.0
0.0 0.0010066069562095614 0.0005818032906338307 -0.0008471902436690351 0.00026538695303520387 0.0006375590908701659 0.0 0.0
0.0 0.0004311132563921711 0.0002105703950244426 -0.00030877669297977797 9.820629795533526e-05 -0.00028403194638802303 0.0 0.0
0.0 -3.7711405601738053e-05 -2.1625924719854818e-05 3.369237840694546e-05 -1.2066453687090633e-05 1.7840444144725835e-05 0.0 0.0
0.0 3.640990961219257e-07 4.812149309164902e-10 -6.69001274669132e-10 1.8778634375373976e-10 9.526614498233225e-08 0.0 0.0
0.0 2.8976741347294627e-07 3.0726883304125107e-09 -6.697975116233825e-09 3.6252867858191764e-09 2.884666778772269e-07 0.0 0.0
0.0 -3.03134147288251e-06 -3.828288088468232e-07 2.985617352921233e-07 8.426707355470828e-08 5.4504110309531365e-06 0.0 0.0
0.0 -1.0150617391092986e-05 -3.3333754007286964e-06 2.729948448510245e-06 6.034269522184242e-07 2.166507568145573e-05 0.0 0.0
0.0 2.6763329220705877e-05 -2.5178882808837297e-06 2.234770904450154e-06 2.831173764335899e-07 -2.480112647871656e-05 0.0 0.0
0.0 0.00014827258019263292 1.8317673123582316e-05 -1.550749015653993e-05 -2.810182967042434e-06 -0.00022021442559666502 0.0 0.0
0.0 0.0005447203222410713 0.00019690764803136624 -0.00017255011477424528 -2.4357533257120675e-05 -0.0007863678557729754 0.0 0.0
0.0 0.0014232224355142271 0.000724074212532678 -0.0006452299953580049 -7.8844217174674e-05 -0.00179733133367863 0.0 0.0
0.0 0.0029366270630404446 0.0016569062661127632 -0.0014926464422562928 -0.00016425982385646925 -0.0031309507394305107 0.0 0.0
0.0 0.004524111850621149 0.0028427646948036593 -0.002596634873998471 -0.0002461298208051913 -0.004642804354782741 0.0 0.0
0.0 0.006436397383592256 0.004170037477346913 -0.003848560737196491 -0.00032147674015041785 -0.006213914249631848 0.0 0.0
0.0 0.008607546530610759 0.005668697357061336 -0.005281003524792629 -0.0003876938322687004 -0.007844158996323984 0.0 0.0
0.0 0.011053858083256153 0.0074055671441180075 -0.006957062797461945 -0.000448504346656061 -0.00953376662455077 0.0 0.0
0.0 0.01391880227156007 0.009489709721406838 -0.00898176656899104 -0.0005079431524157936 -0.011282404712969332 0.0 0.0
0.0 0.01737739396992722 0.012065047441369539 -0.011495099728523984 -0.0005699477128455531 -0.012981976473776163 0.0 0.0
0.0 0.02149483931266256 0.015263400202375196 -0.014630744979342192 -0.0006326552230330026 -0.014202338615444727 0.0 0.0
0.0 0.02622126386836812 0.01930090456032626 -0.018594407939544793 -0.0007064966207814854 -0.01435290520107142 0.0 0.0
0.0 0.03242992776497464 0.024898072918349962 -0.024057965028163413 -0.0008401078901865281 -0.013583625216507007 0.0 0.0
0.0 0.04184251574853377 0.02996906649757485 -0.03036768202845987 0.0003986155308850305 1.155065626479157e-14 0.0 0.0
0.0 0.032429927764978654 0.024898072918347353 -0.024057965028160436 -0.0008401078901869423 0.013583625216538317 0.0 0.0
0.0 0.026221263868365475 0.019300904560320523 -0.01859440793953937 -0.0007064966207811647 0.014352905201102953 0.0 0.0
0.0 0.021494839312649262 0.01526340020236498 -0.014630744979332089 -0.0006326552230328955 0.014202338615455482 0.0 0.0
0.0 0.01737739396991079 0.012065047441359802 -0.011495099728514266 -0.0005699477128455432 0.012981976473768312 0.0 0.0
0.0 0.01391880227154853 0.009489709721398886 -0.008981766568983323 -0.0005079431524155619 0.011282404712960614 0.0 0.0
0.0 0.011053858083245136 0.007405567144109951 -0.006957062797453636 -0.00044850434665631256 0.009533766624542498 0.0 0.0
0.0 0.00860754653060471 0.005668697357057567 -0.005281003524789644 -0.0003876938322679286 0.007844158996321002 0.0 0.0
0.0 0.006436397383585735 0.004170037477343417 -0.003848560737193545 -0.0003214767401498715 0.006213914249626184 0.0 0.0
0.0 0.004524111850606732 0.0028427646947946678 -0.0025966348739898397 -0.0002461298208048282 0.004642804354769334 0.0 0.0
0.0 0.0029366270630308213 0.0016569062661075007 -0.0014926464422512036 -0.0001642598238562957 0.0031309507394193248 0.0 0.0
0.0 0.0014232224355072221 0.000724074212528799 -0.0006452299953544902 -7.884421717430911e-05 0.001797331333672177 0.0 0.0
0.0 0.0005447203222387432 0.00019690764803027077 -0.0001725501147732304 -2.4357533257040075e-05 0.0007863678557698134 0.0 0.0
0.0 0.00014827258019103057 1.8317673123330642e-05 -1.5507490156317653e-05 -2.8101829670131e-06 0.0002202144255946753 0.0 0.0
0.0 2.676332921926355e-05 -2.517888280914538e-06 2.2347709044666246e-06 2.8311737644792407e-07 2.4801126477911906e-05 0.0 0.0
0.0 -1.0150617391923253e-05 -3.333375400643434e-06 2.7299484484447896e-06 6.034269521986429e-07 -2.1665075680641018e-05 0.0 0.0
0.0 -3.0313414731293623e-06 -3.828288088391086e-07 2.985617352921947e-07 8.426707354691058e-08 -5.450411030582203e-06 0.0 0.0
0.0 2.897674132273677e-07 3.072688315464486e-09 -6.697975100314121e-09 3.6252867848504532e-09 -2.884666773982534e-07 0.0 0.0
0.0 3.6409909578019637e-07 4.812149330308477e-10 -6.690012784465752e-10 1.8778634541174237e-10 -9.526614505045849e-08 0.0 0.0
0.0 -3.77114056021049e-05 -2.162592471962135e-05 3.369237840659317e-05 -1.206645368697177e-05 -1.7840444144414615e-05 0.0 0.0
0.0 0.00043111325638792446 0.0002105703950225061 -0.00030877669297698637 9.820629795447984e-05 0.00028403194638559404 0.0 0.0
0.0 5.95400625135083e-05 3.4926127706588344e-05 -5.279624756165335e-05 1.7870119855065e-05 -5.636715720487505e-05 0.0 0.0
0.0 -1.0360634268684287e-05 -6.062159813926133e-06 8.555935067387305e-06 -2.4937752534611667e-06 1.196599950798539e-05 0.0 0.0
0.0 3.810681528955045e-06 4.5472917780502575e-08 -2.123525934667615e-08 -2.4237658433831845e-08 1.4765261751675289e-06 0.0 0.0
0.0 9.871101253177507e-07 1.6374270065461785e-08 -1.7936585830681824e-08 1.5623157652235241e-09 3.90053407751864e-07 0.0 0.0
0.0 -1.8605216128244145e-06 5.6499470726737e-09 -1.2018679829441552e-09 -4.4480790897294856e-09 3.3647365651545485e-06 0.0 0.0
0.0 -3.296307772875808e-06 -4.94995031647472e-07 5.206439044855057e-07 -2.564887283803435e-08 1.3695647165132763e-05 0.0 0.0
0.0 3.540706003399024e-05 -1.052889310182535e-06 1.0304224974964165e-06 2.2466812686110205e-08 -3.742497079501702e-05 0.0 0.0
0.0 0.0001342501868588055 -8.382881172656596e-07 8.037768724293757e-07 3.451124483630529e-08 -0.00022878546284156305 0.0 0.0
0.0 0.0003364365957883961 -1.0405878523210892e-07 9.64153983319268e-08 7.643386900192187e-09 -0.0005007331491509632 0.0 0.0
0.0 0.0005491150413292056 7.37714574690743e-08 -3.493489728186391e-08 -3.883656018732389e-08 -0.000992592053836144 0.0 0.0
0.0 0.0009840835252343976 1.4684305255491237e-07 -4.436503285308905e-07 2.968072759761238e-07 -0.0017621278565336396 0.0 0.0
0.0 0.001437297695932433 -3.128932626447967e-06 4.647223848089165e-06 -1.518291221640859e-06 -0.002946728395159339 0.0 0.0
0.0 0.0022832780039332 -1.2441086510117509e-05 1.5528294283063146e-05 -3.0872077729449733e-06 -0.004380979186427084 0.0 0.0
0.0 0.003328425431676314 -2.5859368086153392e-05 2.9051904022137575e-05 -3.1925359359835594e-06 -0.005940600559571837 0.0 0.0
0.0 0.004533626846893598 1.9913862628896358e-06 -6.6694944611826105e-06 4.678108198293761e-06 -0.007620758676867669 0.0 0.0
0.0 0.005864813680140966 0.0001861639991043078 -0.0002127382102936427 2.6574211189337143e-05 -0.009431042454440094 0.0 0.0
0.0 0.007379744548230753 0.0007481309978013152 -0.0008183522052149185 7.022120741360344e-05 -0.011318109710140647 0.0 0.0
0.0 0.009021211037146133 0.0018991887415694935 -0.0020851515824676747 0.00018596284089817633 -0.01312097236071425 0.0 0.0
0.0 0.011360107594861656 0.0033686004736518736 -0.003725890162492404 0.0003572896888405301 -0.014446996993852114 0.0 0.0
0.0 0.016638529212515844 0.0070041081075615155 -0.006797950262622982 -0.00020615784493852843 -0.014599633532657445 0.0 0.0
0.0 0.02928198428730001 0.012700251280826337 -0.013625158384588179 0.000924907103761829 9.588684013461801e-15 0.0 0.0
0.0 0.0166385292125227 0.007004108107561369 -0.006797950262622475 -0.00020615784493888042 0.014599633532680893 0.0 0.0
0.0 0.011360107594856159 0.0033686004736486587 -0.003725890162489272 0.0003572896888406101 0.014446996993857156 0.0 0.0
0.0 0.009021211037133811 0.0018991887415675094 -0.0020851515824661356 0.00018596284089862723 0.013120972360709695 0.0 0.0
0.0 0.007379744548221354 0.0007481309978027665 -0.0008183522052168629 7.022120741409865e-05 0.01131810971013127 0.0 0.0
0.0 0.005864813680134461 0.00018616399910594233 -0.00021273821029567657 2.6574211189736943e-05 0.009431042454430676 0.0 0.0
0.0 0.004533626846887654 1.991386264132999e-06 -6.66949446215617e-06 4.678108198022629e-06 0.007620758676860382 0.0 0.0
0.0 0.003328425431670101 -2.5859368084188493e-05 2.905190402023789e-05 -3.1925359360476764e-06 0.005940600559564003 0.0 0.0
0.0 0.0022832780039249534 -1.2441086508022938e-05 1.5528294280655296e-05 -3.087207772632723e-06 0.004380979186415672 0.0 0.0
0.0 0.0014372976959262005 -3.128932626301356e-06 4.647223848026037e-06 -1.5182912217246339e-06 0.0029467283951498556 0.0 0.0
0.0 0.000984083525227992 1.4684305244607202e-07 -4.436503285468825e-07 2.968072761006207e-07 0.0017621278565253088 0.0 0.0
0.0 0.0005491150413295999 7.37714574038968e-08 -3.4934897199044416e-08 -3.8836560204693146e-08 0.0009925920538353078 0.0 0.0
0.0 0.00033643659578674916 -1.0405878519404962e-07 9.64153982791361e-08 7.643386914837281e-09 0.0005007331491485849 0.0 0.0
0.0 0.00013425018685750694 -8.382881172461385e-07 8.037768724507526e-07 3.451124479538635e-08 0.0002287854628392948 0.0 0.0
0.0 3.540706003294686e-05 -1.0528893102050486e-06 1.0304224975208762e-06 2.246681268419043e-08 3.742497079489498e-05 0.0 0.0
0.0 -3.296307773567725e-06 -4.949950316662192e-07 5.206439045016671e-07 -2.564887283545502e-08 -1.369564716409696e-05 0.0 0.0
0.0 -1.8605216129099904e-06 5.64994704009136e-09 -1.2018679537905517e-09 -4.448079086297321e-09 -3.3647365643658304e-06 0.0 0.0
0.0 9.871101253457686e-07 1.6374269998881425e-08 -1.793658577239468e-08 1.562315773512134e-09 -3.900534067986494e-07 0.0 0.0
0.0 3.8106815282077417e-06 4.5472917801830163e-08 -2.1235259363602972e-08 -2.4237658438217245e-08 -1.4765261755061504e-06 0.0 0.0
0.0 -1.0360634269427979e-05 -6.062159813887552e-06 8.555935067333891e-06 -2.4937752534463555e-06 -1.1965999507806719e-05 0.0 0.0
0.0 5.954006251255703e-05 3.4926127706536824e-05 -5.2796247561557646e-05 1.7870119855020958e-05 5.636715720504066e-05 0.0 0.0
0.0 7.338257663152565e-07 -1.6295196216829637e-06 2.344944074678024e-06 -7.154244529950766e-07 3.4960990195174853e-06 0.0 0.0
0.0 -3.6904836340159354e-07 2.389612602833845e-07 -3.2960750868449956e-07 9.064624840111784e-08 -1.2488247095262495e-07 0.0 0.0
0.0 2.449098910917152e-07 4.0101102355636136e-08 -5.580854472826603e-08 1.5707442372629548e-08 -4.829620433039594e-07 0.0 0.0
0.0 1.3677778580348535e-06 6.882429587985064e-08 -6.498980091492622e-08 -3.83449496492595e-09 -1.3883711599506856e-07 0.0 0.0
0.0 -9.539399866475932e-07 -8.780031558429322e-08 7.591235986909968e-08 1.1887955715194813e-08 -6.442894501236893e-07 0.0 0.0
0.0 -4.0260075181913935e-06 3.601270402721797e-07 -1.0438957468869741e-07 -2.5573746558344424e-07 2.7369889486946178e-06 0.0 0.0
0.0 4.715592966431661e-05 1.3638332103536921e-06 -8.615245394835132e-07 -5.023086708702386e-07 -2.6212167447644105e-05 0.0 0.0
0.0 0.00015851582423242076 -2.1391854600353048e-05 1.831493236369957e-05 3.0769222366534443e-06 -0.00022778416116036915 0.0 0.0
0.0 0.0005466802353263933 -0.00019800669328912446 0.00017344834991753325 2.4558343371591364e-05 -0.0007908987313013875 0.0 0.0
0.0 0.0014209170698261742 -0.0007228539396998294 0.0006441141783694803 7.873976133034997e-05 -0.0017965180496856315 0.0 0.0
0.0 0.0029458282901357598 -0.0016554163702815151 0.001491677892581264 0.00016373847770025037 -0.0031268028301768207 0.0 0.0
0.0 0.004551321563291542 -0.0028579414698205463 0.0026093528245621066 0.000248588645258439 -0.004645278129832276 0.0 0.0
0.0 0.00648567959464995 -0.004213144194317631 0.003887192465572056 0.0003259517287455758 -0.00621721880286895 0.0 0.0
0.0 0.008675045108781178 -0.005732146144382505 0.005342785967955977 0.0003893601764265255 -0.007842127872243568 0.0 0.0
0.0 0.010995715325777236 -0.007377420210274802 0.006946100846110711 0.00043131936416408896 -0.009541676013145498 0.0 0.0
0.0 0.013353826731380487 -0.008992333729930729 0.0085501078515023 0.0004422258784284273 -0.011382515266498354 0.0 0.0
0.0 0.015410768882038784 -0.010267321598331903 0.009853404380040114 0.0004139172182917888 -0.013417623545277339 0.0 0.0
0.0 0.016964143981471 -0.010760523128194602 0.010431073579205554 0.0003294495489890457 -0.015697645017847633 0.0 0.0
0.0 0.017124461064300232 -0.009945009718166328 0.00979746404354613 0.00014754567462019587 -0.018180332855666274 0.0 0.0
0.0 0.014006712868031103 -0.007182837576040152 0.007426792232287415 -0.00024395465624725888 -0.01998790609147934 0.0 0.0
0.0 0.02812215857522985 -0.003925442971570565 0.001769649874981319 0.0021557930965892444 1.2542050731312315e-14 0.0 0.0
0.0 0.01400671286803946 -0.007182837576042356 0.0074267922322891426 -0.00024395465624678115 0.01998790609149452 0.0 0.0
0.0 0.017124461064298366 -0.009945009718163488 0.009797464043543652 0.00014754567461983158 0.01818033285567896 0.0 0.0
0.0 0.01696414398145965 -0.010760523128186168 0.010431073579198237 0.0003294495489879294 0.015697645017848497 0.0 0.0
0.0 0.01541076888202108 -0.010267321598319093 0.009853404380027441 0.0004139172182916585 0.013417623545267819 0.0 0.0
0.0 0.013353826731364538 -0.008992333729918957 0.008550107851490891 0.00044222587842805873 0.011382515266486927 0.0 0.0
0.0 0.010995715325765298 -0.007377420210265134 0.006946100846101962 0.0004313193641631702 0.009541676013135766 0.0 0.0
0.0 0.00867504510876855 -0.005732146144372266 0.0053427859679462345 0.0003893601764260335 0.007842127872236366 0.0 0.0
0.0 0.006485679594633653 -0.004213144194305707 0.0038871924655607707 0.0003259517287449359 0.006217218802857796 0.0 0.0
0.0 0.0045513215632757495 -0.002857941469809542 0.0026093528245520908 0.00024858864525745017 0.004645278129818723 0.0 0.0
0.0 0.002945828290121762 -0.0016554163702726886 0.001491677892573269 0.0001637384776994183 0.0031268028301641463 0.0 0.0
0.0 0.0014209170698175246 -0.0007228539396949519 0.0006441141783651251 7.873976132982784e-05 0.0017965180496789382 0.0 0.0
0.0 0.0005466802353226493 -0.00019800669328725988 0.00017344834991589203 2.455834337136766e-05 0.0007908987312973734 0.0 0.0
0.0 0.00015851582423075542 -2.1391854600148608e-05 1.8314932363529767e-05 3.076922236618859e-06 0.0002277841611586452 0.0 0.0
0.0 4.715592966305427e-05 1.3638332102352206e-06 -8.615245393916218e-07 -5.023086708435969e-07 2.6212167447632548e-05 0.0 0.0
0.0 -4.026007519269967e-06 3.601270401804841e-07 -1.0438957461481049e-07 -2.5573746556567407e-07 -2.7369889480167098e-06 0.0 0.0
0.0 -9.539399866793792e-07 -8.780031567702437e-08 7.591235994817287e-08 1.1887955728846496e-08 6.442894509333183e-07 0.0 0.0
0.0 1.3677778581362844e-06 6.882429578383862e-08 -6.498980083573632e-08 -3.834494948101321e-09 1.3883711690344684e-07 0.0 0.0
0.0 2.449098908209423e-07 4.010110233002619e-08 -5.5808544720067354e-08 1.5707442390036578e-08 4.829620441524021e-07 0.0 0.0
0.0 -3.6904836328658383e-07 2.389612602169203e-07 -3.2960750860139324e-07 9.064624838447192e-08 1.2488247092452535e-07 0.0 0.0
0.0 7.338257649460654e-07 -1.6295196211704425e-06 2.3449440739007334e-06 -7.154244527302782e-07 -3.4960990184895257e-06 0.0 0.0
0.0 -5.791226492451871e-07 3.285152939261595e-08 -4.863961923435168e-08 1.5788089841737027e-08 -8.324711323925468e-08 0.0 0.0
0.0 1.317928498168275e-06 3.288071165446195e-10 1.9211530711577482e-08 -1.9540337828128138e-08 2.2343667141903918e-07 0.0 0.0
0.0 -2.044489093844005e-08 1.3851982080859145e-07 -1.0859480633983479e-07 -2.992501446876539e-08 1.128044707939868e-06 0.0 0.0
0.0 1.1541230151464633e-06 -3.7901183197724677e-07 3.0154379747283274e-07 7.746803450440225e-08 -2.7780135241661322e-06 0.0 0.0
0.0 2.0836738054465835e-06 2.485443356559784e-06 -2.0601887828838047e-06 -4.2525457367592074e-07 1.1739110401684924e-05 0.0 0.0
0.0 8.353943406333229e-06 6.625481171823372e-06 -5.202427540548371e-06 -1.4230536312749943e-06 1.8818535741243288e-05 0.0 0.0
0.0 5.442758768378231e-05 -2.3666387433037295e-05 1.820342423192829e-05 5.46296320110909e-06 -8.967506562009382e-05 0.0 0.0
0.0 0.0005647440795714211 -0.00031995871795415746 0.0002530502837350297 6.690843421912747e-05 -0.0005853999442347921 0.0 0.0
0.0 0.0017542633762015795 -0.0012468574451274543 0.001027398689798401 0.00021945875532905317 -0.0017082056423258776 0.0 0.0
0.0 0.003910174614391284 -0.002854293579477359 0.0024708757998379537 0.0003834177796394041 -0.00326903372144035 0.0 0.0
0.0 0.006506279921453619 -0.004994048366224658 0.004487317898575855 0.0005067304676488053 -0.005185045784318081 0.0 0.0
0.0 0.009688436957768134 -0.007484648686320361 0.006892849755118485 0.0005917989312018801 -0.007177427890892166 0.0 0.0
0.0 0.013163430079219055 -0.010263326027836993 0.009601317035031486 0.0006620089928054975 -0.009150122945211595 0.0 0.0
0.0 0.016981026076791632 -0.01335518215590014 0.01263841237429161 0.0007167697816085378 -0.01108319420020147 0.0 0.0
0.0 0.021203034870665542 -0.016748849920192776 0.015993257645109834 0.0007555922750829298 -0.01306173114486456 0.0 0.0
0.0 0.025671722420166708 -0.020289686833341092 0.01951643047659182 0.0007732563567492668 -0.01528752842797782 0.0 0.0
0.0 0.029953391172098057 -0.023614730721286732 0.022845354073106873 0.0007693766481798644 -0.017984218269964394 0.0 0.0
0.0 0.0332859833563364 -0.026171099509650006 0.02542393598148883 0.0007471635281611794 -0.02126329933566876 0.0 0.0
0.0 0.035027453089743206 -0.02694973976245038 0.026283821244453966 0.0006659185179964248 -0.024486601544426004 0.0 0.0
0.0 0.03250754884733095 -0.02387675529000012 0.023359050432031098 0.000517704857969004 -0.02515686289654835 0.0 0.0
0.0 0.03457309903663758 -0.01904719362714185 0.016092877423840118 0.0029543162033017225 1.4863978103907272e-14 0.0 0.0
0.0 0.03250754884733973 -0.023876755290000003 0.02335905043203126 0.0005177048579687472 0.025156862896582005 0.0 0.0
0.0 0.035027453089739514 -0.02694973976244225 0.026283821244445747 0.0006659185179964898 0.024486601544456314 0.0 0.0
0.0 0.03328598335632108 -0.026171099509636024 0.025423935981475194 0.0007471635281608249 0.0212632993356801 0.0 0.0
0.0 0.029953391172070166 -0.023614730721264424 0.02284535407308424 0.0007693766481801788 0.0179842182699568 0.0 0.0
0.0 0.02567172242013688 -0.02028968683331709 0.019516430476567745 0.0007732563567493364 0.015287528427962433 0.0 0.0
0.0 0.02120303487064347 -0.016748849920174527 0.015993257645092303 0.0007555922750822229 0.013061731144854318 0.0 0.0
0.0 0.01698102607676619 -0.013355182155878836 0.012638412374270136 0.0007167697816086965 0.011083194200188239 0.0 0.0
0.0 0.013163430079193605 -0.010263326027816634 0.009601317035011294 0.0006620089928053324 0.009150122945198517 0.0 0.0
0.0 0.009688436957742297 -0.007484648686300693 0.006892849755099562 0.0005917989312011345 0.007177427890873688 0.0 0.0
0.0 0.006506279921432458 -0.004994048366208438 0.00448731789856007 0.0005067304676483693 0.005185045784301323 0.0 0.0
0.0 0.003910174614373463 -0.002854293579464244 0.0024708757998256337 0.0003834177796386094 0.003269033721427042 0.0 0.0
0.0 0.0017542633761926255 -0.0012468574451207923 0.001027398689792867 0.00021945875532792554 0.001708205642319599 0.0 0.0
0.0 0.0005647440795662284 -0.00031995871795082424 0.0002530502837323982 6.69084342184258e-05 0.0005853999442299028 0.0 0.0
0.0 5.4427587681820944e-05 -2.366638743285589e-05 1.8203424231782944e-05 5.462963201072937e-06 8.967506561930675e-05 0.0 0.0
0.0 8.353943405973294e-06 6.6254811714467115e-06 -5.202427540243423e-06 -1.423053631203387e-06 -1.881853574001967e-05 0.0 0.0
0.0 2.0836738044846404e-06 2.4854433563964886e-06 -2.0601887827476298e-06 -4.2525457364885047e-07 -1.1739110400910179e-05 0.0 0.0
0.0 1.1541230143556907e-06 -3.790118320030584e-07 3.0154379749264124e-07 7.746803451042313e-08 2.7780135244004143e-06 0.0 0.0
0.0 -2.0444891793516397e-08 1.385198208050608e-07 -1.08594806338557e-07 -2.9925014466499064e-08 -1.128044707941834e-06 0.0 0.0
0.0 1.3179284977964492e-06 3.2880711852688006e-10 1.921153070818652e-08 -1.9540337826714824e-08 -2.234366714190253e-07 0.0 0.0
0.0 -5.791226488939735e-07 3.285152937202806e-08 -4.863961920387383e-08 1.57880898318369e-08 8.324711318699175e-08 0.0 0.0
0.0 0.0 0.0 0.0 0.0 0.0 0.0 0.0
0.0 -4.597287996738521e-07 -6.853202956288844e-09 2.886835497529438e-09 3.966367458759904e-09 -9.336839224249032e-08 0.0 0.0
0.0 1.365422949554491e-06 1.140332560934621e-07 -8.373869877700367e-08 -3.029455731645319e-08 7.430478394318434e-07 0.0 0.0
0.0 1.0044676461158688e-06 9.33977115749523e-07 -7.773833395364673e-07 -1.565937762130555e-07 3.105939645469461e-06 0.0 0.0
0.0 1.297293042685745e-06 2.0807302053225616e-06 -1.645100152816701e-06 -4.3563005250589913e-07 3.915069279814788e-06 0.0 0.0
0.0 -3.7018664833034705e-06 -4.654764393934417e-06 3.4139972815591e-06 1.2407671123753717e-06 -1.8508385208610974e-05 0.0 0.0
0.0 0.0002926770709799538 -0.00017673215782300404 0.00013430797175316528 4.242418606983868e-05 -0.0002319894201398766 0.0 0.0
0.0 0.0012702539349737443 -0.0010165147459430257 0.0008082931926109157 0.00020822155333210835 -0.0010850995370543836 0.0 0.0
0.0 0.0034542192063927637 -0.0027628314489110024 0.0023393294548503933 0.0004235019940606085 -0.0025430943174383257 0.0 0.0
0.0 0.0069359342723267405 -0.005382203776436779 0.00480218797622771 0.0005800158002090721 -0.004570598065958665 0.0 0.0
0.0 0.010724057097186475 -0.008672754139086736 0.007994947514591217 0.0006778066244955078 -0.006899160876838733 0.0 0.0
0.0 0.015231959227180673 -0.012433550069681354 0.01168332678343932 0.0007502232862420274 -0.009209522473989267 0.0 0.0
0.0 0.020304330856541264 -0.01662126544177541 0.015804687390394354 0.0008165780513810743 -0.011421592709710132 0.0 0.0
0.0 0.025874952861681687 -0.02128982303650075 0.020413572153697053 0.0008762508828036875 -0.013576857157890755 0.0 0.0
0.0 0.032116118553807055 -0.02645802486232822 0.02553483913564076 0.000923185726687483 -0.015831233113062993 0.0 0.0
0.0 0.03869372269940459 -0.03198425392571787 0.031036202503594443 0.0009480514221233898 -0.018496065495501837 0.0 0.0
0.0 0.04552929421017134 -0.03743577076687211 0.03648972992399176 0.0009460408428803467 -0.022004698532810174 0.0 0.0
0.0 0.05124456605985254 -0.041957051080111905 0.04105693525141721 0.0009001158286946841 -0.02640098535026647 0.0 0.0
0.0 0.05423370019175574 -0.04397237494949912 0.04317205563519211 0.0008003193143069772 -0.03047938652157495 0.0 0.0
0.0 0.050946554808706766 -0.040595627149953295 0.04003094515614213 0.0005646819938111636 -0.03174350315442682 0.0 0.0
0.0 0.0482675157013337 -0.03397665909469669 0.030289901140452966 0.0036867579542437124 1.640788199752663e-14 0.0 0.0
0.0 0.05094655480871312 -0.04059562714995082 0.040030945156140224 0.0005646819938106033 0.03174350315446828 0.0 0.0
0.0 0.054233700191745025 -0.043972374949484055 0.04317205563517709 0.0008003193143069196 0.03047938652161232 0.0 0.0
0.0 0.05124456605982908 -0.041957051080089666 0.04105693525139543 0.0009001158286942382 0.026400985350283922 0.0 0.0
0.0 0.045529294210133506 -0.037435770766840334 0.03648972992395966 0.0009460408428807105 0.022004698532804987 0.0 0.0
0.0 0.03869372269936751 -0.03198425392568656 0.031036202503563818 0.0009480514221227093 0.018496065495488247 0.0 0.0
0.0 0.032116118553769314 -0.026458024862297157 0.0255348391356097 0.0009231857266874918 0.015831233113047054 0.0 0.0
0.0 0.025874952861646355 -0.021289823036470694 0.02041357215366758 0.0008762508828030964 0.01357685715787665 0.0 0.0
0.0 0.020304330856505872 -0.0166212654417462 0.015804687390365155 0.0008165780513810329 0.011421592709695842 0.0 0.0
0.0 0.015231959227144105 -0.012433550069652046 0.011683326783410523 0.0007502232862415161 0.009209522473968355 0.0 0.0
0.0 0.010724057097155194 -0.008672754139061935 0.007994947514566683 0.0006778066244952404 0.006899160876818142 0.0 0.0
0.0 0.006935934272301138 -0.0053822037764164575 0.0048021879762083 0.000580015800208159 0.00457059806594179 0.0 0.0
0.0 0.003454219206378128 -0.002762831448899652 0.002339329454840183 0.00042350199405946436 0.002543094317429751 0.0 0.0
0.0 0.0012702539349640318 -0.001016514745935609 0.0008082931926047727 0.00020822155333083674 0.0010850995370472812 0.0 0.0
0.0 0.00029267707097586497 -0.00017673215782066504 0.00013430797175134924 4.242418606931573e-05 0.0002319894201369286 0.0 0.0
0.0 -3.7018664837554998e-06 -4.654764394390405e-06 3.413997281919852e-06 1.2407671124705842e-06 1.85083852097361e-05 0.0 0.0
0.0 1.297293042255769e-06 2.0807302051218245e-06 -1.6451001526528477e-06 -4.3563005246898125e-07 -3.91506927909751e-06 0.0 0.0
0.0 1.0044676453061615e-06 9.339771156474046e-07 -7.77383339455289e-07 -1.5659377619211233e-07 -3.1059396448681897e-06 0.0 0.0
0.0 1.3654229489894466e-06 1.140332561042209e-07 -8.3738698787766e-08 -3.029455731646075e-08 -7.430478394894747e-07 0.0 0.0
0.0 -4.59728799576089e-07 -6.853202954632321e-09 2.8868354967489913e-09 3.9663674578853385e-09 9.336839222251318e-08 0.0 0.0
0.0 0.0 0.0 0.0 0.0 0.0 0.0 0.0
0.0 0.0 0.0 0.0 0.0 0.0 0.0 0.0
0.0 1.5308091780677812e-08 3.0663233307284843e-10 -2.1432744662428963e-10 -9.23048864485231e-11 3.0115191088803258e-09 0.0 0.0
0.0 -4.248582162288267e-07 -2.934967303572774e-09 2.18831708190315e-09 7.466502216678745e-10 -1.8174372429665136e-08 0.0 0.0
0.0 -1.913345172809619e-06 8.424834299146452e-08 -6.164249240967962e-08 -2.2605850581774812e-08 2.387418664372946e-07 0.0 0.0
0.0 -3.211294234089828e-06 8.165776158354209e-06 -6.61987681160734e-06 -1.5458993467468601e-06 1.7063523439967713e-05 0.0 0.0
0.0 7.826514437877231e-05 -3.2057602350122934e-05 2.3052455404250665e-05 9.00514694587214e-06 -2.6791637962406316e-05 0.0 0.0
0.0 0.0006548147546469717 -0.0005348203348303187 0.0004105676334520261 0.00012425270137829273 -0.00046253009221046724 0.0 0.0
0.0 0.002338916297187305 -0.0019727703162236774 0.0016110159059287738 0.0003617544102949027 -0.0014665543525467259 0.0 0.0
0.0 0.0057247896834475625 -0.004538181296436337 0.003961881346224894 0.0005762999502114459 -0.0031810095944237084 0.0 0.0
0.0 0.009617424678280336 -0.008152170262822864 0.007444959430749868 0.0007072108320730031 -0.0054794731684719355 0.0 0.0
0.0 0.014979067056052044 -0.012527202931240282 0.011738503924073912 0.0007886990071663666 -0.007927400716106495 0.0 0.0
0.0 0.02094474959322987 -0.017531456973833997 0.016673270310001702 0.0008581866638322851 -0.010341822420986805 0.0 0.0
0.0 0.027566507371874244 -0.023129282766910595 0.022200281590662542 0.000929001176248062 -0.012654835087069315 0.0 0.0
0.0 0.03494299456600408 -0.02938084987478958 0.028382845763277504 0.000998004111512054 -0.01492312291277572 0.0 0.0
0.0 0.04308225671700687 -0.03633877639591985 0.03528251130807868 0.0010562650878411304 -0.017299880361683884 0.0 0.0
0.0 0.05222242152560738 -0.04388197599981309 0.042792548436511625 0.0010894275633014853 -0.02018416602852104 0.0 0.0
0.0 0.06095199071411006 -0.051481390430174065 0.05040072787332392 0.0010806625568500604 -0.024109817965887046 0.0 0.0
0.0 0.0690675574969579 -0.05790014762263919 0.05689009463620567 0.0010100529864335774 -0.029112296502655278 0.0 0.0
0.0 0.07339565158787208 -0.06091821274630713 0.060061452068423844 0.0008567606778832512 -0.03399704737359366 0.0 0.0
0.0 0.06925108828795826 -0.056827367063498356 0.05626368271829772 0.000563684345200616 -0.03601735828548458 0.0 0.0
0.0 0.06325915073489206 -0.04858620378370032 0.044274886917444016 0.00431131686625626 1.77939260548321e-14 0.0 0.0
0.0 0.06925108828795666 -0.056827367063490196 0.05626368271828958 0.0005636843452005856 0.036017358285527254 0.0 0.0
0.0 0.0733956515878559 -0.060918212746287746 0.06006145206840461 0.0008567606778830891 0.03399704737363487 0.0 0.0
0.0 0.06906755749692507 -0.057900147622608956 0.05689009463617515 0.0010100529864337413 0.029112296502676355 0.0 0.0
0.0 0.06095199071406618 -0.051481390430136144 0.05040072787328593 0.0010806625568502046 0.02410981796588553 0.0 0.0
0.0 0.05222242152556307 -0.043881975999775336 0.042792548436474086 0.00108942756330123 0.02018416602850931 0.0 0.0
0.0 0.04308225671696002 -0.036338776395879936 0.035282511308039104 0.001056265087840818 0.017299880361668504 0.0 0.0
0.0 0.03494299456596122 -0.029380849874752517 0.028382845763241266 0.0009980041115112389 0.014923122912762321 0.0 0.0
0.0 0.02756650737182712 -0.023129282766871144 0.022200281590622734 0.00092900117624841 0.01265483508705317 0.0 0.0
0.0 0.02094474959318449 -0.01753145697379608 0.016673270309964232 0.0008581866638318377 0.010341822420965364 0.0 0.0
0.0 0.014979067056013234 -0.012527202931208145 0.011738503924042012 0.0007886990071661423 0.007927400716084144 0.0 0.0
0.0 0.00961742467825149 -0.008152170262798571 0.007444959430726326 0.0007072108320722494 0.005479473168454844 0.0 0.0
0.0 0.005724789683424568 -0.004538181296418368 0.0039618813462079065 0.0005762999502104647 0.0031810095944115463 0.0 0.0
0.0 0.0023389162971737005 -0.001972770316212928 0.0016110159059195145 0.0003617544102934125 0.0014665543525389803 0.0 0.0
0.0 0.0006548147546406166 -0.0005348203348258866 0.0004105676334485903 0.0001242527013772964 0.00046253009220703867 0.0 0.0
0.0 7.826514437721984e-05 -3.2057602349678675e-05 2.3052455403929152e-05 9.005146945749474e-06 2.679163796225424e-05 0.0 0.0
0.0 -3.2112942345323637e-06 8.165776157832745e-06 -6.619876811188295e-06 -1.5458993466444289e-06 -1.706352343887246e-05 0.0 0.0
0.0 -1.9133451731591196e-06 8.424834287118737e-08 -6.164249231495236e-08 -2.2605850556218736e-08 -2.387418658685515e-07 0.0 0.0
0.0 -4.2485821630686007e-07 -2.93496726529307e-09 2.1883170505874695e-09 7.466502147058685e-10 1.8174372257997286e-08 0.0 0.0
0.0 1.5308091766584117e-08 3.0663233278746693e-10 -2.1432744642515877e-10 -9.23048863622756e-11 -3.0115191060776662e-09 0.0 0.0
0.0 0.0 0.0 0.0 0.0 0.0 0.0 0.0
0.0 0.0 0.0 0.0 0.0 0.0 0.0 0.0
0.0 0.0 0.0 0.0 0.0 0.0 0.0 0.0
0.0 -3.008317283811859e-07 -1.6894082401111415e-08 1.3667650964936457e-08 3.226431436173586e-09 -5.3084951058647605e-08 0.0 0.0
0.0 -4.028364967489321e-07 7.96188575646041e-07 -6.413686175327506e-07 -1.5481995811326534e-07 1.8085429571461845e-06 0.0 0.0
0.0 -1.2905252010046714e-05 2.02342985808523e-06 -2.063025101843215e-06 3.9595243757978245e-08 5.0069977309757715e-06 0.0 0.0
0.0 0.00022728434508199457 -0.000145680088092579 0.000107545155463931 3.813493262864805e-05 -8.562974573407808e-05 0.0 0.0
0.0 0.0012215047966405014 -0.0010553375153674529 0.0008247488550933717 0.00023058866027408 -0.0006058580528175189 0.0 0.0
0.0 0.0038694059191186868 -0.0031235992515780747 0.002626347256978969 0.0004972519945991059 -0.0017093539343334123 0.0 0.0
0.0 0.007445463214887498 -0.006522422799072931 0.005832944411631857 0.0006894783874410729 -0.0035724218808771166 0.0 0.0
0.0 0.012896758278338895 -0.011026214354835117 0.010229371235700713 0.0007968431191344063 -0.005830643553432201 0.0 0.0
0.0 0.019319742819757228 -0.01647003385359956 0.015596115748040762 0.0008739181055587932 -0.008224207611491034 0.0 0.0
0.0 0.026678519926509867 -0.022719008319986297 0.021771616332337967 0.0009473919876483452 -0.01058920408035731 0.0 0.0
0.0 0.034921327944292084 -0.029733368156453853 0.02870861583273169 0.0010247523237221395 -0.012872890155871992 0.0 0.0
0.0 0.044185467908375714 -0.03757051423791359 0.03646846348677618 0.001102050751137461 -0.01513318121613552 0.0 0.0
0.0 0.0543374387066507 -0.046310971798306816 0.045138498378851276 0.0011724734194554773 -0.01749742855678549 0.0 0.0
0.0 0.06534430834635616 -0.05585336487727885 0.05463845508878091 0.0012149097884979628 -0.020282700478712817 0.0 0.0
0.0 0.07704782528000623 -0.06554950564778607 0.06435209339814597 0.0011974122496400939 -0.02406938495871355 0.0 0.0
0.0 0.08689425216449671 -0.0738005591993899 0.07270713849017911 0.0010934207092106725 -0.029177655492040013 0.0 0.0
0.0 0.09181711009148186 -0.07769943994154258 0.07681224434153246 0.0008871956000101021 -0.03472580089867706 0.0 0.0
0.0 0.08718551603678948 -0.0728890257170497 0.07233040644244533 0.0005586192746043204 -0.03866945004115835 0.0 0.0
0.0 0.07940720703771918 -0.06323019634100804 0.05836401105156139 0.004866185289446637 1.912966313133424e-14 0.0 0.0
0.0 0.0871855160367796 -0.07288902571703529 0.0723304064424306 0.0005586192746047096 0.038669450041200336 0.0 0.0
0.0 0.09181711009146079 -0.07769943994151968 0.07681224434150982 0.0008871956000098549 0.03472580089871963 0.0 0.0
0.0 0.08689425216445704 -0.07380055919935374 0.07270713849014296 0.001093420709210751 0.029177655492063206 0.0 0.0
0.0 0.07704782527995488 -0.06554950564774192 0.06435209339810115 0.0011974122496406937 0.02406938495871388 0.0 0.0
0.0 0.06534430834630191 -0.05585336487723204 0.05463845508873468 0.0012149097884974007 0.020282700478702877 0.0 0.0
0.0 0.05433743870659473 -0.046310971798258826 0.045138498378803536 0.0011724734194553284 0.017497428556772825 0.0 0.0
0.0 0.04418546790832041 -0.03757051423786544 0.03646846348672898 0.0011020507511364283 0.015133181216121243 0.0 0.0
0.0 0.034921327944237156 -0.029733368156406995 0.028708615832684414 0.0010247523237225387 0.012872890155856985 0.0 0.0
0.0 0.026678519926457384 -0.02271900831994184 0.021771616332294005 0.0009473919876478133 0.01058920408033766 0.0 0.0
0.0 0.019319742819711428 -0.01647003385356116 0.015596115748002562 0.0008739181055585959 0.008224207611469124 0.0 0.0
0.0 0.012896758278301461 -0.011026214354803592 0.010229371235669617 0.0007968431191339799 0.0058306435534143455 0.0 0.0
0.0 0.007445463214861994 -0.00652242279905009 0.005832944411610081 0.0006894783874400075 0.0035724218808647888 0.0 0.0
0.0 0.0038694059191005555 -0.0031235992515635403 0.002626347256965832 0.0004972519945977098 0.0017093539343254925 0.0 0.0
0.0 0.0012215047966319752 -0.0010553375153607096 0.0008247488550879172 0.00023058866027279244 0.0006058580528133199 0.0 0.0
0.0 0.00022728434507918844 -0.0001456800880912292 0.00010754515546295573 3.81349326282734e-05 8.562974573341376e-05 0.0 0.0
0.0 -1.2905252010259133e-05 2.023429857543103e-06 -2.0630251014151553e-06 3.9595243872014873e-08 -5.006997730037188e-06 0.0 0.0
0.0 -4.028364975773113e-07 7.961885757007263e-07 -6.413686175756589e-07 -1.5481995812506252e-07 -1.8085429572068764e-06 0.0 0.0
0.0 -3.0083172820327663e-07 -1.6894082390560128e-08 1.3667650956397697e-08 3.226431434162971e-09 5.3084951026648725e-08 0.0 0.0
0.0 0.0 0.0 0.0 0.0 0.0 0.0 0.0
0.0 0.0 0.0 0.0 0.0 0.0 0.0 0.0
0.0 0.0 0.0 0.0 0.0 0.0 0.0 0.0
0.0 0.0 0.0 0.0 0.0 0.0 0.0 0.0
0.0 -1.680433764396781e-07 -1.0793184899027673e-08 8.54508648894806e-09 2.2480984100807976e-09 -2.827633481288059e-08 0.0 0.0
0.0 -1.8984376580986426e-06 4.799474194120453e-07 -3.8337807718373335e-07 -9.656934222834067e-08 9.701120533979073e-07 0.0 0.0
0.0 1.1807732845410994e-05 3.2422908536093183e-06 -4.086396963299659e-06 8.441061096903997e-07 1.3530671867482525e-05 0.0 0.0
0.0 0.00039906942314208707 -0.00038451741470100804 0.00028815693960644665 9.636047509456133e-05 -0.00016976547358525974 0.0 0.0
0.0 0.002132371666045219 -0.0017189528264637526 0.0013759818894982568 0.0003429709369654961 -0.0006609292661137446 0.0 0.0
0.0 0.005024961841451646 -0.004465822671820853 0.003855727751883415 0.0006100949199374366 -0.0018294506562266356 0.0 0.0
0.0 0.009810411812412488 -0.008582451259243439 0.007811445876195588 0.0007710053830478548 -0.003560148830181617 0.0 0.0
0.0 0.016103940531378143 -0.01396399727812223 0.013095763041298574 0.0008682342368236661 -0.005614154898619654 0.0 0.0
0.0 0.023728028265717266 -0.020463930354112786 0.01951668716200223 0.0009472431921105456 -0.00781499553430566 0.0 0.0
0.0 0.032517916809862595 -0.027956207396513274 0.026929421848387987 0.0010267855481252846 -0.009988885288957484 0.0 0.0
0.0 0.042468605693485095 -0.03639655376119639 0.03528592138938684 0.0011106323718095032 -0.012104563216068858 0.0 0.0
0.0 0.05323706598067805 -0.0458321839703278 0.04463661721363857 0.001195566756689244 -0.014235753287827278 0.0 0.0
0.0 0.06552464774343625 -0.05631938228781963 0.05504504294368524 0.0012743393441343853 -0.016450372063388546 0.0 0.0
0.0 0.07890127664938473 -0.06776642685367218 0.06643941168419071 0.0013270151694813872 -0.01887014074776155 0.0 0.0
0.0 0.09238825205298584 -0.07947516239279 0.07816662157654758 0.0013085408162423775 -0.021976606675695474 0.0 0.0
0.0 0.10424508869573637 -0.08951061177218766 0.0883385212960704 0.0011720904761173452 -0.02657985501199195 0.0 0.0
0.0 0.11040372135179455 -0.09436485764040786 0.09345190574728048 0.0009129518931272285 -0.03285332010156421 0.0 0.0
0.0 0.10522536964479685 -0.08909411890146296 0.08855045897482729 0.0005436599266356986 -0.040072838738141825 0.0 0.0
0.0 0.09593045866492672 -0.07825584039133071 0.07289695252568294 0.005358887865647805 1.930400284066991e-14 0.0 0.0
0.0 0.1052253696447844 -0.08909411890144724 0.08855045897481131 0.0005436599266358429 0.040072838738183174 0.0 0.0
0.0 0.11040372135176503 -0.0943648576403787 0.09345190574725154 0.0009129518931270137 0.032853320101604175 0.0 0.0
0.0 0.104245088695688 -0.08951061177214487 0.08833852129602753 0.001172090476117301 0.026579855012013164 0.0 0.0
0.0 0.09238825205292724 -0.07947516239273915 0.07816662157649659 0.0013085408162425718 0.021976606675697424 0.0 0.0
0.0 0.0789012766493191 -0.06776642685361536 0.06643941168413414 0.0013270151694811739 0.018870140747754477 0.0 0.0
0.0 0.06552464774337044 -0.05631938228776278 0.05504504294362897 0.0012743393441337937 0.016450372063377953 0.0 0.0
0.0 0.053237065980615124 -0.04583218397027321 0.04463661721358491 0.0011955667566882825 0.014235753287815619 0.0 0.0
0.0 0.0424686056934223 -0.03639655376114199 0.03528592138933259 0.001110632371809443 0.012104563216054989 0.0 0.0
0.0 0.03251791680980136 -0.027956207396460778 0.026929421848335813 0.0010267855481249611 0.009988885288939422 0.0 0.0
0.0 0.023728028265663816 -0.020463930354067152 0.01951668716195687 0.0009472431921102889 0.007814995534284898 0.0 0.0
0.0 0.016103940531334692 -0.013963997278084648 0.013095763041261619 0.0008682342368230137 0.005614154898602959 0.0 0.0
0.0 0.009810411812382132 -0.00858245125921672 0.007811445876169706 0.0007710053830470124 0.003560148830170593 0.0 0.0
0.0 0.0050249618414311675 -0.004465822671802989 0.0038557277518667847 0.0006100949199362042 0.001829450656218798 0.0 0.0
0.0 0.002132371666032616 -0.0017189528264537725 0.0013759818894898425 0.0003429709369639269 0.000660929266109289 0.0 0.0
0.0 0.0003990694231387021 -0.00038451741469879675 0.00028815693960480886 9.636047509398746e-05 0.00016976547358471045 0.0 0.0
0.0 1.1807732844303136e-05 3.242290853603325e-06 -4.0863969632802456e-06 8.441061096770454e-07 -1.3530671867252926e-05 0.0 0.0
0.0 -1.8984376582540992e-06 4.799474193873813e-07 -3.833780771674354e-07 -9.656934221994479e-08 -9.701120533458504e-07 0.0 0.0
0.0 -1.6804337643450485e-07 -1.0793184898566844e-08 8.545086488621468e-09 2.248098409945835e-09 2.8276334812116163e-08 0.0 0.0
0.0 0.0 0.0 0.0 0.0 0.0 0.0 0.0
0.0 0.0 0.0 0.0 0.0 0.0 0.0 0.0
0.0 0.0 0.0 0.0 0.0 0.0 0.0 0.0
0.0 0.0 0.0 0.0 0.0 0.0 0.0 0.0
0.0 0.0 0.0 0.0 0.0 0.0 0.0 0.0
0.0 -2.6269418285169128e-06 1.3917178012447909e-06 -1.1177317016861674e-06 -2.739860995586152e-07 1.8748873302359146e-06 0.0 0.0
0.0 6.089663446240846e-05 -3.386013050641745e-05 2.2371402028693322e-05 1.1488728477724428e-05 8.919835504018747e-07 0.0 0.0
0.0 0.000811328386151758 -0.000684395504249525 0.0005185680176038575 0.00016582748664566702 -0.00015169627709577424 0.0 0.0
0.0 0.002911906620995458 -0.0025530139755356304 0.0020976049192650806 0.00045540905627054735 -0.0006492555712678771 0.0 0.0
0.0 0.006561771426422681 -0.005886440682024204 0.005192858146937002 0.0006935825350872033 -0.0016981940423949282 0.0 0.0
0.0 0.012110664039101627 -0.010691301977104458 0.009855726265261931 0.0008355757118425151 -0.0031292905197861974 0.0 0.0
0.0 0.019392211901222027 -0.016930046728527867 0.016000679032331645 0.0009293676961962231 -0.0048589854630266905 0.0 0.0
0.0 0.028148436983524917 -0.024477374597682837 0.023464286374749743 0.0010130882229330727 -0.00671852399447715 0.0 0.0
0.0 0.038369698091668424 -0.03321419545484629 0.032114481557938855 0.0010997138969074313 -0.008559312889926793 0.0 0.0
0.0 0.04969294839966947 -0.04309516394968722 0.04190444298573921 0.0011907209639480244 -0.010363853585233618 0.0 0.0
0.0 0.06271204673212982 -0.054128267986607935 0.05284863162709212 0.001279636359515724 -0.012220620653541611 0.0 0.0
0.0 0.07673362368914743 -0.06632707009077922 0.06496518782213362 0.0013618822686456244 -0.014168384618594817 0.0 0.0
0.0 0.09183657273278159 -0.0795416341017311 0.07811738614174218 0.00142424795998904 -0.016101096822756133 0.0 0.0
0.0 0.10756925317813278 -0.09306778778273339 0.09164796788645864 0.001419819896274811 -0.018107030705540806 0.0 0.0
0.0 0.12136274873562182 -0.10487731012637695 0.10361022011558377 0.0012670900107931127 -0.02139738029939556 0.0 0.0
0.0 0.1288711400298602 -0.11099831359137728 0.11004980468302443 0.0009485089083528616 -0.028297163765624134 0.0 0.0
0.0 0.12388586624075257 -0.10575065414816523 0.10524117659810447 0.0005094775500609956 -0.03999749579563149 0.0 0.0
0.0 0.1138620926827242 -0.09401911508987698 0.0882368467099324 0.005782268379944533 1.6361911825413245e-14 0.0 0.0
0.0 0.12388586624073498 -0.10575065414814662 0.10524117659808499 0.0005094775500616947 0.03999749579566743 0.0 0.0
0.0 0.12887114002982322 -0.11099831359134275 0.11004980468299047 0.0009485089083522721 0.028297163765659848 0.0 0.0
0.0 0.12136274873556552 -0.10487731012632807 0.10361022011553457 0.0012670900107934334 0.021397380299414657 0.0 0.0
0.0 0.1075692531780663 -0.09306778778267573 0.0916479678864012 0.0014198198962745287 0.018107030705543335 0.0 0.0
0.0 0.09183657273270664 -0.07954163410166626 0.07811738614167738 0.0014242479599888334 0.01610109682275155 0.0 0.0
0.0 0.07673362368907287 -0.06632707009071458 0.06496518782206966 0.0013618822686449477 0.014168384618587326 0.0 0.0
0.0 0.06271204673205669 -0.05412826798654455 0.052848631627029234 0.0012796363595152752 0.012220620653532382 0.0 0.0
0.0 0.04969294839959372 -0.043095163949621956 0.04190444298567407 0.0011907209639479299 0.010363853585222342 0.0 0.0
0.0 0.038369698091601345 -0.03321419545478773 0.03211448155788107 0.0010997138969067073 0.008559312889912997 0.0 0.0
0.0 0.028148436983462845 -0.024477374597629317 0.0234642863746964 0.001013088222932901 0.00671852399445928 0.0 0.0
0.0 0.01939221190117246 -0.01693004672848497 0.016000679032289248 0.0009293676961957216 0.0048589854630120555 0.0 0.0
0.0 0.012110664039065112 -0.010691301977072345 0.00985572626523047 0.0008355757118418725 0.0031292905197762098 0.0 0.0
0.0 0.006561771426399525 -0.005886440682003252 0.0051928581469170955 0.0006935825350861602 0.0016981940423878138 0.0 0.0
0.0 0.002911906620980939 -0.002553013975523219 0.0020976049192541865 0.00045540905626903174 0.0006492555712639481 0.0 0.0
0.0 0.0008113283861459074 -0.0006843955042451672 0.0005185680176004572 0.00016582748664470919 0.00015169627709466684 0.0 0.0
0.0 6.089663446061883e-05 -3.386013050555723e-05 2.237140202807693e-05 1.1488728477480164e-05 -8.919835504560471e-07 0.0 0.0
0.0 -2.6269418283270037e-06 1.3917178006466331e-06 -1.1177317012383424e-06 -2.7398609940828525e-07 -1.874887329741616e-06 0.0 0.0
0.0 0.0 0.0 0.0 0.0 0.0 0.0 0.0
0.0 0.0 0.0 0.0 0.0 0.0 0.0 0.0
0.0 0.0 0.0 0.0 0.0 0.0 0.0 0.0
0.0 0.0 0.0 0.0 0.0 0.0 0.0 0.0
0.0 0.0 0.0 0.0 0.0 0.0 0.0 0.0
0.0 0.0 0.0 0.0 0.0 0.0 0.0 0.0
0.0 -3.130254643560972e-06 3.378586910293911e-06 -2.703773929572357e-06 -6.748129807215685e-07 2.7819440012817725e-06 0.0 0.0
0.0 0.00013088988290480244 -0.00012975156183782745 9.129404958758573e-05 3.845751225024168e-05 1.5926669355301224e-06 0.0 0.0
0.0 0.0013486335396908848 -0.001109272903386737 0.0008572605919098637 0.00025201231147687253 -8.226240609771388e-05 0.0 0.0
0.0 0.0037367844596588175 -0.003494219284049746 0.002943548413222852 0.0005506708708268972 -0.000516510791460055 0.0 0.0
0.0 0.008186189183271672 -0.007351944970521401 0.006591403764612075 0.0007605412059093368 -0.0012619228019233135 0.0 0.0
0.0 0.014449612419911148 -0.012820423042463922 0.011931219763877595 0.0008892032785863175 -0.0023072607814730943 0.0 0.0
0.0 0.022678021798930827 -0.019896927277490237 0.018913211658456698 0.0009837156190335456 -0.0035754610442822934 0.0 0.0
0.0 0.032657716824832095 -0.02848161834688829 0.027407817715862814 0.0010738006310254719 -0.004946124196748523 0.0 0.0
0.0 0.044146147559086 -0.03846535453609482 0.03729783630471953 0.0011675182313752664 -0.00630663748536639 0.0 0.0
0.0 0.05742490944898397 -0.04978884639574986 0.048524378143283656 0.0012644682524662243 -0.00765682470800506 0.0 0.0
0.0 0.0717755779889301 -0.062437533890108116 0.061079115522199794 0.0013584183679082877 -0.009096481636388416 0.0 0.0
0.0 0.08782523222721274 -0.07631392572341684 0.07487393120734255 0.0014399945160743417 -0.010621621544169254 0.0 0.0
0.0 0.10495543551044274 -0.0911329906762693 0.0896346196383714 0.0014983710378978158 -0.012007807390879519 0.0 0.0
0.0 0.12234856781662425 -0.10618384968027796 0.1046690504051229 0.001514799275155126 -0.012961634731998095 0.0 0.0
0.0 0.13795038234046889 -0.1196764957472794 0.11826250806756583 0.001413987679713628 -0.0143044127742397 0.0 0.0
0.0 0.14736253016856507 -0.1275767903404408 0.12654520064662186 0.0010315896938188386 -0.02028618927968826 0.0 0.0
0.0 0.14342151563279518 -0.12320698804691792 0.12277636186520305 0.00043062618171467416 -0.03746407197118953 0.0 0.0
0.0 0.1333183466740398 -0.11102782387291237 0.10492181163283387 0.006106012240078462 1.2108369862318114e-14 0.0 0.0
0.0 0.14342151563277153 -0.12320698804689528 0.12277636186518012 0.00043062618171517896 0.03746407197121783 0.0 0.0
0.0 0.14736253016852027 -0.12757679034040054 0.1265452006465822 0.001031589693818489 0.020286189279716284 0.0 0.0
0.0 0.1379503823404033 -0.11967649574722283 0.11826250806750932 0.0014139876797134925 0.014304412774253058 0.0 0.0
0.0 0.1223485678165497 -0.10618384968021305 0.10466905040505872 0.001514799275154518 0.012961634731998628 0.0 0.0
0.0 0.10495543551036075 -0.0911329906761979 0.08963461963830116 0.0014983710378967494 0.012007807390876953 0.0 0.0
0.0 0.08782523222712878 -0.0763139257233442 0.07487393120727026 0.00143999451607392 0.010621621544164947 0.0 0.0
0.0 0.07177557798884619 -0.062437533890035514 0.061079115522127816 0.001358418367907764 0.009096481636380525 0.0 0.0
0.0 0.05742490944889788 -0.04978884639567536 0.048524378143209076 0.0012644682524662668 0.007656824707997402 0.0 0.0
0.0 0.04414614755900833 -0.038465354536027715 0.03729783630465302 0.0011675182313746369 0.006306637485356172 0.0 0.0
0.0 0.03265771682476355 -0.028481618346828212 0.027407817715803313 0.001073800631024926 0.0049461241967353195 0.0 0.0
0.0 0.02267802179887544 -0.019896927277441554 0.018913211658408494 0.000983715619033052 0.00357546104427105 0.0 0.0
0.0 0.014449612419870262 -0.012820423042427542 0.011931219763841986 0.0008892032785855607 0.0023072607814656498 0.0 0.0
0.0 0.008186189183244189 -0.007351944970496634 0.0065914037645883 0.0007605412059083297 0.0012619228019178012 0.0 0.0
0.0 0.0037367844596408184 -0.0034942192840332195 0.002943548413207791 0.0005506708708254311 0.000516510791456471 0.0 0.0
0.0 0.0013486335396835259 -0.0011092729033805762 0.0008572605919049669 0.00025201231147560797 8.226240609696223e-05 0.0 0.0
0.0 0.0001308898829024033 -0.00012975156183651923 9.129404958664794e-05 3.845751224987121e-05 -1.5926669354175212e-06 0.0 0.0
0.0 -3.1302546436813256e-06 3.378586910065691e-06 -2.703773929400331e-06 -6.748129806653805e-07 -2.781944001231383e-06 0.0 0.0
0.0 0.0 0.0 0.0 0.0 0.0 0.0 0.0
0.0 0.0 0.0 0.0 0.0 0.0 0.0 0.0
0.0 0.0 0.0 0.0 0.0 0.0 0.0 0.0
0.0 0.0 0.0 0.0 0.0 0.0 0.0 0.0
0.0 0.0 0.0 0.0 0.0 0.0 0.0 0.0
0.0 0.0 0.0 0.0 0.0 0.0 0.0 0.0
0.0 -5.107892489592864e-06 3.8024071192088003e-06 -3.364356846895784e-06 -4.380502723130146e-07 3.442290464403161e-06 0.0 0.0
0.0 0.00034530421495605616 -0.0002684672231986424 0.0001919487306861573 7.651849251248518e-05 4.894602286335145e-05 0.0 0.0
0.0 0.001870430724052609 -0.0016553139021355352 0.001310094178580676 0.00034521972355485916 5.1453151979156246e-05 0.0 0.0
0.0 0.004867298775537283 -0.004474686358368738 0.0038505758232133362 0.0006241105351553991 -0.00017494056665790886 0.0 0.0
0.0 0.009829232217550948 -0.008838837036205678 0.00802461145503493 0.0008142255811707395 -0.0005595912904986676 0.0 0.0
0.0 0.016868125167062795 -0.014942154986947842 0.014007143876545626 0.0009350111104022223 -0.0011005621191205095 0.0 0.0
0.0 0.025962151704071467 -0.022837098111652517 0.021803414886832895 0.0010336832248196124 -0.001770613844375485 0.0 0.0
0.0 0.0370838518884905 -0.032450958177328265 0.03132065527975146 0.001130302897576805 -0.0024974043077793263 0.0 0.0
0.0 0.05020943427471487 -0.04368130794557027 0.042450933057512255 0.0012303748880580388 -0.0032307554984255023 0.0 0.0
0.0 0.06467201958642489 -0.056461813197917966 0.055128104758665905 0.0013337084392519918 -0.00400522036846861 0.0 0.0
0.0 0.08112080281084699 -0.07070999560842958 0.06927804136601921 0.0014319542424103405 -0.004850044347392868 0.0 0.0
0.0 0.09904109154509548 -0.086237170307009 0.08472589596422746 0.0015112743427815882 -0.005741871666202815 0.0 0.0
0.0 0.11792743416745716 -0.10257983960887185 0.10102087908845102 0.0015589605204207506 -0.006532217296755254 0.0 0.0
0.0 0.13676547855263801 -0.11885558254287203 0.1172858048809737 0.0015697776618983409 -0.006872180017118647 0.0 0.0
0.0 0.1537840215569145 -0.13356632323737025 0.13201937997775406 0.0015469432596162214 -0.006762719930522418 0.0 0.0
0.0 0.16543907360931462 -0.14362895137521786 0.14229000227901378 0.001338949096203886 -0.009423773814430438 0.0 0.0
0.0 0.16421820474218585 -0.14187091699508025 0.14150346286090604 0.0003674541341742433 -0.02738853447005097 0.0 0.0
0.0 0.15549980615304249 -0.13038262600517037 0.1243554588201369 0.006027167185033398 6.654399253847032e-15 0.0 0.0
0.0 0.16421820474215895 -0.14187091699505588 0.1415034628608815 0.0003674541341742907 0.02738853447006762 0.0 0.0
0.0 0.16543907360926288 -0.14362895137517245 0.14229000227896896 0.001338949096203422 0.009423773814446233 0.0 0.0
0.0 0.15378402155683873 -0.13356632323730502 0.13201937997768862 0.0015469432596163166 0.0067627199305291714 0.0 0.0
0.0 0.13676547855255164 -0.11885558254279734 0.11728580488089929 0.0015697776618980792 0.006872180017119102 0.0 0.0
0.0 0.11792743416736388 -0.10257983960879088 0.10102087908837055 0.0015589605204203018 0.006532217296753938 0.0 0.0
0.0 0.09904109154500484 -0.0862371703069301 0.08472589596414976 0.0015112743427804247 0.005741871666199957 0.0 0.0
0.0 0.08112080281075171 -0.070709995608347 0.0692780413659372 0.0014319542424097284 0.0048500443473886 0.0 0.0
0.0 0.06467201958633226 -0.05646181319783764 0.05512810475858595 0.0013337084392516518 0.004005220368465047 0.0 0.0
0.0 0.050209434274627006 -0.043681307945493984 0.042450933057436455 0.0012303748880575349 0.0032307554984188497 0.0 0.0
0.0 0.03708385188841546 -0.03245095817726305 0.03132065527968709 0.001130302897575951 0.0024974043077723557 0.0 0.0
0.0 0.025962151704010412 -0.022837098111598834 0.02180341488677991 0.0010336832248189216 0.0017706138443695052 0.0 0.0
0.0 0.01686812516701698 -0.0149421549869071 0.014007143876505502 0.0009350111104015945 0.00110056211911655 0.0 0.0
0.0 0.009829232217519097 -0.008838837036176979 0.00802461145500707 0.0008142255811698967 0.0005595912904959263 0.0 0.0
0.0 0.004867298775516834 -0.004474686358349847 0.0038505758231957613 0.000624110535154085 0.00017494056665596266 0.0 0.0
0.0 0.001870430724043214 -0.001655313902127323 0.001310094178573794 0.00034521972355352814 -5.145315197918083e-05 0.0 0.0
0.0 0.00034530421495258573 -0.00026846722319632496 0.00019194873068445576 7.65184925118694e-05 -4.894602286302657e-05 0.0 0.0
0.0 -5.107892489603772e-06 3.8024071187392895e-06 -3.364356846539978e-06 -4.3805027219925626e-07 -3.442290464298236e-06 0.0 0.0
0.0 0.0 0.0 0.0 0.0 0.0 0.0 0.0
0.0 0.0 0.0 0.0 0.0 0.0 0.0 0.0
0.0 0.0 0.0 0.0 0.0 0.0 0.0 0.0
0.0 0.0 0.0 0.0 0.0 0.0 0.0 0.0
0.0 0.0 0.0 0.0 0.0 0.0 0.0 0.0
0.0 0.0 0.0 0.0 0.0 0.0 0.0 0.0
0.0 1.1293895243410283e-05 -9.977533343295583e-06 6.109483676794158e-06 3.868049666501544e-06 6.140959459344923e-06 0.0 0.0
0.0 0.0006207904446777096 -0.00045613351368594405 0.00032475417773327587 0.00013137933595266807 0.00011868283241553281 0.0 0.0
0.0 0.00242609244305611 -0.0021518019924034555 0.0016864245184280648 0.0004653774739753903 0.00027953952313213503 0.0 0.0
0.0 0.005755741820892233 -0.005308178174135296 0.004515148336702548 0.0007930298374327518 0.0003632783218897991 0.0 0.0
0.0 0.011130302135190003 -0.01006808535754478 0.009016710069605485 0.0010513752879392872 0.0004094785665656499 0.0 0.0
0.0 0.018648792882669706 -0.016682288533212505 0.01541121219635535 0.0012710763368571428 0.0004103473166451805 0.0 0.0
0.0 0.028479839468771303 -0.025243174030440817 0.02373909456861734 0.0015040794618234638 0.0003343939304697068 0.0 0.0
0.0 0.040560751602707584 -0.035709938545670686 0.03393556392883759 0.0017743746168330846 0.0002225787420692127 0.0 0.0
0.0 0.054452798965450966 -0.047990964646814266 0.04590381831901506 0.0020871463277991904 7.310536999630222e-05 0.0 0.0
0.0 0.07039001590553604 -0.06197705529502967 0.059544680992963055 0.0024323743020665863 -0.00016280562215612634 0.0 0.0
0.0 0.08817075630725833 -0.0775435016304793 0.07475011496975677 0.0027933866607226304 -0.0004527022383485329 0.0 0.0
0.0 0.1075041112908578 -0.09442974493951242 0.09128926796485322 0.003140476974658994 -0.0008424725057392373 0.0 0.0
0.0 0.1277414467718658 -0.11202707385943346 0.10859460530733864 0.003432468552094901 -0.0012815984226596903 0.0 0.0
0.0 0.14758253862371323 -0.1292295007599406 0.1256108481569854 0.0036186526029550288 -0.001576847007260216 0.0 0.0
0.0 0.1651668176032356 -0.14444355139029938 0.14078345173602586 0.003660099654273452 -0.0014504652197203753 0.0 0.0
0.0 0.17798105595583702 -0.1556930565088793 0.15200944880211556 0.003683607706763992 -0.002516804295770652 0.0 0.0
0.0 0.1804869993361255 -0.15837443061947243 0.15465432717341768 0.003720103446054691 -0.020198256089492862 0.0 0.0
0.0 0.1762790839359122 -0.1500645962696558 0.1396828725441835 0.01038172372547208 2.123301534595612e-15 0.0 0.0
0.0 0.18048699933609544 -0.15837443061944584 0.15465432717339156 0.003720103446054197 0.020198256089499676 0.0 0.0
0.0 0.17798105595578126 -0.15569305650883036 0.15200944880206857 0.00368360770676185 0.00251680429577714 0.0 0.0
0.0 0.16516681760315294 -0.1444435513902274 0.14078345173595547 0.0036600996542720653 0.001450465219721142 0.0 0.0
0.0 0.14758253862361537 -0.1292295007598554 0.12561084815690116 0.0036186526029540434 0.0015768470072597945 0.0 0.0
0.0 0.12774144677176397 -0.11202707385934503 0.10859460530725082 0.0034324685520941032 0.0012815984226605352 0.0 0.0
0.0 0.10750411129076154 -0.09442974493942763 0.09128926796477148 0.003140476974656011 0.0008424725057368347 0.0 0.0
0.0 0.08817075630715146 -0.07754350163038576 0.07475011496966542 0.0027933866607202664 0.00045270223834584927 0.0 0.0
0.0 0.0703900159054391 -0.061977055294944974 0.05954468099288002 0.0024323743020649826 0.0001628056221561914 0.0 0.0
0.0 0.05445279896535907 -0.04799096464673398 0.045903818318936626 0.0020871463277972904 -7.310536999983498e-05 0.0 0.0
0.0 0.04056075160262786 -0.03570993854560079 0.03393556392876944 0.0017743746168313581 -0.00022257874207165778 0.0 0.0
0.0 0.028479839468704207 -0.02524317403038226 0.02373909456856028 0.0015040794618220099 -0.0003343939304715545 0.0 0.0
0.0 0.01864879288261976 -0.01668228853316847 0.015411212196312519 0.0012710763368559614 -0.00041034731664601944 0.0 0.0
0.0 0.011130302135154323 -0.010068085357512576 0.00901671006957461 0.0010513752879379571 -0.00040947856656527865 0.0 0.0
0.0 0.005755741820870679 -0.005308178174115297 0.004515148336683981 0.0007930298374313114 -0.00036327832188954223 0.0 0.0
0.0 0.0024260924430446213 -0.00215180199239252 0.0016864245184188805 0.0004653774739736405 -0.00027953952313097586 0.0 0.0
0.0 0.0006207904446729664 -0.00045613351368233626 0.0003247541777306551 0.00013137933595168188 -0.00011868283241479969 0.0 0.0
0.0 1.129389524307771e-05 -9.977533343175345e-06 6.10948367672606e-06 3.868049666449268e-06 -6.1409594592446525e-06 0.0 0.0
0.0 0.0 0.0 0.0 0.0 0.0 0.0 0.0
0.0 0.0 0.0 0.0 0.0 0.0 0.0 0.0
0.0 0.0 0.0 0.0 0.0 0.0 0.0 0.0
SCALARS Wm float 4
LOOKUP_TABLE default
12.319078109169677 2.000421483033225 5.110972365136001 5.207684261000446
6.076069329710462 2.932055972478433 1.4031868998972594 1.740826457334772
0.6792924569369126 0.6394876281047399 0.0044344892035927215 0.03537033962858002
0.518798361891247 0.4945736445061028 0.00658696247481541 0.01763775491032895
1.0270665294456187 0.754056249135491 0.09712669310274888 0.17588358720737834
2.1945480241961652 1.0753957390776288 0.4072034383200236 0.711948846798512
4.519750734844983 1.5276116955754366 1.2718182087295686 1.7203208305399795
8.29544794739673 2.0829874950033354 2.8856759462640893 3.326784506129303
13.877044550965916 2.7807221375788096 5.510087599585527 5.586234813801576
21.53313543776518 3.6554755451213254 9.356955596701965 8.520704295941886
31.40554753394085 4.735919549505878 14.55623293387319 12.113395050561788
43.43608785429593 6.033660917694981 21.068424980979092 16.334001955621872
57.75640669247018 7.534573712053183 29.072433642956078 21.149399337460935
74.32180643595794 9.224208906911297 38.57031635994413 26.52728116910253
92.90872014460513 10.978284299163011 49.53257249313472 32.397863352307375
112.95275193738053 12.577345939428456 61.759777065218586 38.61562893273353
133.3835507687059 13.753729266120644 74.68512191151109 44.94469959107416
152.7299466748483 14.298874055883985 87.44817052686489 50.98290209209941
169.37862216245904 14.247483803877204 98.88426690392325 56.24687145465869
181.06803300868467 13.462738795501785 107.42795027609951 60.17734393708323
184.8922710006119 12.028430778336725 111.01132575966153 61.85251446261363
181.0680330086501 13.462738795490255 107.42795027608324 60.17734393707663
169.37862216240282 14.247483803874262 98.88426690388694 56.246871454641536
152.72994667478045 14.298874055895176 87.44817052681115 50.98290209207407
133.38355076861706 13.753729266119603 74.68512191145183 44.94469959104551
112.95275193728983 12.577345939423111 61.75977706516189 38.615628932704865
92.90872014451277 10.978284299152032 49.53257249308145 32.3978633522793
74.32180643587077 9.224208906906236 38.57031635989131 26.527281169073202
57.75640669237894 7.534573712036262 29.072433642909125 21.149399337433575
43.436087854217995 6.033660917683465 21.068424980938083 16.33400195559646
31.405547533876835 4.735919549499677 14.556232933838523 12.113395050538607
21.53313543771567 3.6554755451147196 9.35695559667716 8.520704295923798
13.877044550929813 2.780722137573459 5.510087599568628 5.586234813787729
8.295447947373237 2.0829874949991405 2.8856759462541657 3.3267845061199317
4.519750734830053 1.5276116955711563 1.271818208724586 1.7203208305343105
2.1945480241890083 1.0753957390751965 0.4072034383183352 0.711948846795476
1.0270665294431327 0.7540562491344088 0.09712669310219446 0.1758835872065296
0.5187983618906096 0.49457364450555225 0.006586962474778567 0.017637754910279205
0.6792924569356977 0.6394876281037954 0.004434489203527391 0.03537033962837444
6.076069329706 2.93205597247981 1.4031868998944503 1.7408264573317378
12.319078109141143 2.0004214830187 5.110972365128322 5.207684260994131
14.644948535901682 6.420146925960777 3.9545509464761692 4.27025066346473
2.4010309422220146 0.5259206139403207 0.7831735857998336 1.0919367424818607
0.26219975424349645 0.30077829024434394 -0.012084592981565527 -0.026493943019281894
0.4059486682312717 0.399420176108111 0.001106443157827961 0.005422048965332661
0.7777578783524026 0.6187078618057638 0.04820334977174416 0.11084666677489498
1.755755496766325 0.9017390181981844 0.31441687546607006 0.5395996031020704
3.709025098322548 1.2206028111139617 1.0294899641476307 1.4589323230609534
7.020636977300865 1.6067739816689426 2.473148044404067 2.940714951227857
11.945861876170364 2.0483454541471513 4.855220461068667 5.042295960954545
18.65140298910245 2.5491013778808242 8.331599628119598 7.770701983102021
27.22639657910566 3.1075205186149617 13.018256532778771 11.100619527711931
37.751095408736134 3.7374916381798733 19.017395825477152 14.996207945079123
50.04467881171441 4.450582199199718 26.154878987161798 19.439217625352892
64.38541008533882 5.222110216232267 34.7593413695693 24.403958499537286
80.52430288673764 5.998868487004571 44.682058689050336 29.843375710682743
98.03643727943015 6.661615444188114 55.74982804257748 35.62499379266453
116.09442262121973 7.064240587468903 67.53251725045438 41.4976647832964
133.4642802157676 7.102238992021664 79.23460598676954 47.12743523697638
148.48852454830214 6.70367582335104 89.73400628854532 52.05084243640572
159.10517195571603 5.917457258219609 97.55434244411396 55.63337225338242
163.08724678503359 5.032860366510198 100.90794025100118 57.14644616752226
159.1051719556874 5.917457258210784 97.55434244410029 55.63337225337631
148.48852454825482 6.70367582335161 89.73400628851269 52.05084243639058
133.4642802157046 7.102238992029614 79.23460598672139 47.12743523695363
116.09442262113282 7.06424058745756 67.53251725040383 41.49766478327142
98.03643727935585 6.661615444192434 55.749828042525365 35.62499379263802
80.52430288666068 5.998868487004007 44.682058689000556 29.843375710656108
64.38541008526695 5.222110216236583 34.75934136952041 24.40395849950997
50.04467881164158 4.4505821991952494 26.154878987118984 19.439217625327316
37.751095408670594 3.7374916381756145 19.017395825439706 14.99620794505528
27.22639657905166 3.107520518614743 13.018256532746852 11.100619527690073
18.651402989060113 2.5491013778775593 8.331599628097319 7.770701983085225
11.945861876139185 2.0483454541438175 4.855220461053619 5.042295960941745
7.0206369772808355 1.6067739816669435 2.473148044394952 2.940714951218942
3.709025098309726 1.2206028111110128 1.029489964143127 1.4589323230555857
1.755755496760557 0.9017390181964676 0.31441687546435826 0.5395996030997315
0.7777578783505631 0.6187078618049298 0.04820334977136536 0.11084666677426817
0.40594866823102976 0.3994201761077953 0.0011064431578362989 0.00542204896539813
0.2621997542435979 0.3007782902442486 -0.012084592981489402 -0.026493943019161234
2.4010309422150664 0.5259206139391127 0.7831735857970664 1.091936742478889
14.644948535876 6.420146925949656 3.9545509464683994 4.270250663457934
11.008500869058398 5.085742561002389 2.730144690846683 3.192613617209328
1.4847130700163789 0.20592263567825264 0.520510952049471 0.7582794822886564
0.16481328766557676 0.16474105889276722 7.453049659491681e-06 6.477572315005053e-05
0.30279979034707316 0.30493812159728134 -0.0004915939269579209 -0.00164673732325023
0.5915478101898923 0.5286007594839727 0.015636466494476205 0.047310584211443615
1.3653597391360148 0.8085278153113549 0.19757563640378745 0.35925628742087323
2.997784847360952 1.1156331278743832 0.7455294954134799 1.136622224073089
5.88542532795817 1.4784621621440452 1.9613308110241976 2.4456323547899266
10.213735908540697 1.878299604768122 4.003109588680236 4.3323267150923375
16.133767155821346 2.3163752650126073 7.03199226460822 6.78539962620052
23.662588017003895 2.7988266589122697 11.097836751361031 9.76592460673059
32.779839535335064 3.3392360074795144 16.20178453070623 13.238818997149307
43.6649865460988 3.9604494649924225 22.52231552761121 17.182221553495165
56.08627000909304 4.651781909901208 29.833997762586577 21.600490336605244
70.23473957756536 5.355185742530693 38.43120419391956 26.4483496411151
85.66275592558756 5.989402530040128 48.046618169859386 31.626735225688027
101.68777822849609 6.433982982655228 58.312457865756116 36.941337380084754
117.19290069924173 6.549991362063492 68.59294716567356 42.049962171504596
130.61490580506106 6.2258330854934965 77.8751186778648 46.513954041702824
140.13718110156842 5.6253300138448985 84.76979417527396 49.74205691244953
143.5771170740748 4.551985508580093 87.84397484301859 51.181156722476224
140.13718110156046 5.6253300138569715 84.76979417526049 49.7420569124429
130.61490580502328 6.225833085497544 77.87511867783643 46.51395404168928
117.19290069918138 6.549991362063367 68.59294716563335 42.04996217148464
101.68777822843316 6.433982982655301 58.31245786571432 36.94133738006355
85.66275592552239 5.989402530046625 48.04661816981239 31.626735225663367
70.23473957749428 5.3551857425285645 38.43120419387503 26.44834964109066
56.08627000902311 4.651781909897045 29.833997762544957 21.600490336581096
43.66498654603419 3.960449464988042 22.5223155275739 17.18222155347225
32.77983953527837 3.3392360074780427 16.20178453067287 13.238818997127485
23.66258801695454 2.798826658908886 11.097836751334214 9.765924606711435
16.133767155783993 2.316375265009693 7.031992264588918 6.785399626185381
10.213735908513149 1.8782996047648273 4.003109588667333 4.332326715080988
5.885425327940681 1.4784621621428249 1.9613308110161132 2.445632354781744
2.99778484735082 1.1156331278730958 0.7455294954096623 1.136622224068061
1.365359739131295 0.8085278153094044 0.1975756364026728 0.35925628741921833
0.5915478101886849 0.5286007594833163 0.015636466494290912 0.04731058421107755
0.3027997903468885 0.3049381215969618 -0.0004915939269373211 -0.0016467373231359808
0.1648132876655723 0.16474105889276053 7.45304965953921e-06 6.477572315220967e-05
1.484713070011176 0.20592263567776214 0.5205109520473139 0.7582794822860989
11.008500869033858 5.0857425609920694 2.7301446908393716 3.1926136172024213
8.293310075467428 3.956564418034814 1.921050068919877 2.415695588512739
0.9912049463630749 0.09973611715148978 0.34241558567187913 0.5490532435397059
0.115817251464908 0.115817251464908 0.0 0.0
0.22762911281817705 0.22792821115694373 -2.89766908512174e-05 -0.00027012164791547497
0.4499280198262185 0.43927219070478096 0.0016352156330233913 0.009020613488414077
1.0169779518807789 0.698598209267569 0.10086913331140483 0.2175106093018051
2.3665095957751356 1.013712260324173 0.5215348113736702 0.8312625240772923
4.796545432920488 1.3451864427096054 1.4878166880694776 1.9635423021414047
8.542239651496773 1.706567053161935 3.206552302464388 3.629120295870447
13.670339837321167 2.0889935337613172 5.778658198713675 5.8026881048461725
20.15076081084092 2.5005497398294922 9.215241308957896 8.434969762053539
28.033131556666575 2.965630118656245 13.582860746074779 11.484640691935553
37.252614951300416 3.4999044766661163 18.813160856558337 14.939549618075977
48.08564696859116 4.102839181592759 25.183816886646586 18.798990900351814
60.232319009171086 4.745353356365242 32.43021626986376 23.056749382942094
73.54033152526033 5.354683145605286 40.553936214025086 27.631712165629988
87.60882262078161 5.831027700785236 49.426209640521236 32.35158527947514
101.33530124707703 6.03194885668769 58.35289166566435 36.95046072472499
113.32746890663718 5.843204699376299 66.46569525664142 41.01856895061942
121.977513341306 5.364557231026508 72.58945438590865 44.02350172437083
125.1091058752645 4.080049713189837 75.58344586091143 45.44561030116322
121.97751334127815 5.3645572310157945 72.589454385897 44.0235017243653
113.32746890660287 5.843204699378127 66.4656952566173 41.018568950607474
101.3353012470213 6.031948856679373 58.35289166563274 36.950460724709174
87.60882262072364 5.831027700781363 49.42620964048585 32.351585279456444
73.54033152519216 5.354683145596628 40.55393621398653 27.63171216560903
60.23231900911156 4.745353356365262 32.43021626982588 23.056749382920405
48.08564696853696 4.102839181593375 25.183816886612377 18.798990900331212
37.25261495124222 3.4999044766579757 18.8131608565277 14.939549618056546
28.033131556618883 2.965630118656876 13.58286074604611 11.484640691915896
20.150760810800218 2.500549739826684 9.21524130893616 8.434969762037385
13.670339837287845 2.088993533757958 5.778658198697137 5.8026881048327414
8.542239651472933 1.7065670531585104 3.2065523024537406 3.629120295860681
4.796545432905496 1.3451864427084395 1.4878166880629635 1.963542302134092
2.3665095957664133 1.013712260322266 0.5215348113706273 0.8312625240735209
1.0169779518771198 0.6985982092659397 0.1008691333106315 0.21751060930054894
0.44992801982521174 0.4392721907038058 0.0016352156329872503 0.009020613488418669
0.22762911281806875 0.22792821115687892 -2.897669085671819e-05 -0.00027012164795342405
0.11581725146486432 0.11581725146486432 0.0 0.0
0.9912049463590891 0.09973611715136603 0.3424155856701293 0.5490532435375941
8.293310075446803 3.956564418025896 1.921050068914209 2.415695588506698
6.156388669238217 3.055653594966846 1.3052892923722863 1.7954457818990854
0.7253978970758836 0.10932317380150465 0.24157071543370312 0.3745040078406758
0.10545671320897362 0.10545671320897362 0.0 0.0
0.18219708891401457 0.18218237483215569 1.380082545033658e-06 1.3333999313848167e-05
0.3448973339681664 0.3505186645749434 -0.002189378116439145 -0.003431952490337701
0.7461182636391228 0.6012155504080622 0.04040107956340486 0.10450163366765536
1.7916697081761739 0.891293948682427 0.3389326717127961 0.5614430877809522
3.770827485556912 1.20845834517311 1.0621882713044453 1.500180869079358
6.928802309707319 1.5323709632474158 2.459901984018066 2.9365293624418376
11.270121403765678 1.8649234047736147 4.578522893231835 4.826675105760229
16.763379227379616 2.2167845975703004 7.437536737476249 7.109057892333064
23.384991799823986 2.609237635356327 11.038198627755031 9.737555536712634
31.200462864047715 3.0679811050820005 15.43131584626173 12.701165912703987
40.135080374103424 3.5938516128615117 20.525789503702864 16.01543925753903
50.436149684223686 4.16110547180054 26.601505157843018 19.673539054580136
61.84352350662379 4.740926245253094 33.473752991305496 23.628844270065212
73.85369924194153 5.250907500334285 40.83989555052553 27.762896191081673
85.8395857129995 5.553514970040908 48.449421471412805 31.836649271545753
96.5467843890637 5.5107784995589135 55.52794445984013 35.50806142966469
104.54317192586288 5.13579391355022 61.0835863709575 38.323791641355115
107.49342456455793 3.6209661073216273 64.06053143833884 39.81192701889746
104.54317192586184 5.135793913564041 61.08358637094766 38.32379164135012
96.54678438903714 5.510778499563199 55.527944459819736 35.50806142965418
85.83958571296381 5.553514970044072 48.44942147138741 31.836649271532323
73.85369924189663 5.250907500335657 40.83989555049549 27.762896191065504
61.843523506581015 4.740926245259539 33.473752991274075 23.62884427004738
50.43614968416685 4.16110547179217 26.601505157812582 19.673539054562127
40.135080374052386 3.5938516128571973 20.525789503674098 16.015439257521084
31.20046286400381 3.067981105079553 15.431315846236858 12.701165912687385
23.384991799783624 2.609237635357599 11.038198627730736 9.737555536695288
16.763379227345524 2.2167845975687253 7.437536737457935 7.109057892318862
11.270121403737395 1.8649234047704426 4.578522893218268 4.82667510574869
6.928802309687322 1.532370963244813 2.459901984009312 2.9365293624331947
3.7708274855444923 1.2084583451723019 1.0621882712990416 1.50018086907315
1.791669708169795 0.8912939486808327 0.33893267171074803 0.5614430877782141
0.7461182636366712 0.6012155504069738 0.0404010795629357 0.10450163366676145
0.34489733396744937 0.35051866457403524 -0.0021893781164024875 -0.0034319524901833764
0.1821970889138377 0.18218237483200622 1.380082543448211e-06 1.333399928811245e-05
0.1054567132087433 0.1054567132087433 0.0 0.0
0.7253978970723096 0.10932317380125174 0.24157071543218323 0.3745040078388756
6.156388669222326 3.0556535949605155 1.3052892923678308 1.7954457818939773
4.484137500688147 2.3408071777845025 0.862229001310438 1.281101321593207
0.5135382308215282 0.14273616921857127 0.1285048308561502 0.24229723074680634
0.11872481312696641 0.11872481312696641 0.0 0.0
0.16053868522909856 0.16052124945606558 1.1786290012894202e-06 1.6257144031696065e-05
0.276854919977904 0.28238909412351604 -0.0011325032819662136 -0.0044016708636458145
0.5387978492372527 0.4946233987621199 0.00730987964167457 0.03686457083345844
1.2668914874834252 0.7516352248695357 0.1682868837465479 0.34696937886734136
2.864193985135149 1.062609093155327 0.7375943810297316 1.0639905109500898
5.36618715611516 1.3532506540907259 1.7539752356453842 2.2589612663790524
8.966954990836138 1.6444597099558953 3.461402301158426 3.8610929797218154
13.480628596884388 1.9424790275860033 5.747152075804066 5.790997493494316
18.88620256474884 2.2728036301811465 8.613479659347245 7.999919275220444
25.21442413376456 2.660207929115653 12.078880608181512 10.4753355964674
32.58367722211767 3.111374518190818 16.23246539548891 13.23983730843795
40.955684649781354 3.621005326132643 21.02939446206934 16.305284861579363
50.27675782761011 4.150616570800061 26.485637142613676 19.640504114196375
60.492180527046365 4.67145827519253 32.66791327312193 23.1528089787319
70.74395467629618 5.091156780253092 38.95105717277847 26.701740723264635
80.17441427829064 5.211886456355424 44.954506217354954 30.00802160458021
87.6675304536928 4.94078524329917 50.05166475782887 32.67508045256477
90.54811490083011 3.1833067824693457 53.105728794912444 34.25907932344832
87.66753045367743 4.940785243298259 50.05166475781944 32.6750804525597
80.17441427826547 5.211886456354876 44.95450621733897 30.00802160457165
70.74395467626618 5.091156780257127 38.95105717275635 26.701740723252705
60.49218052700746 4.671458275193252 32.6679132730966 23.152808978717605
50.2767578275678 4.150616570800158 26.4856371425871 19.640504114180576
40.95568464974481 3.6210053261361277 21.02939446204465 16.305284861564033
32.583677222079615 3.1113745181903316 16.232465395466296 13.23983730842299
25.214424133728368 2.660207929115172 12.07888060816046 10.47533559645273
18.88620256471339 2.2728036301785504 8.613479659328476 7.999919275206366
13.480628596854093 1.9424790275817552 5.74715207578971 5.790997493482632
8.96695499081429 1.6444597099550613 3.461402301147431 3.8610929797117914
5.366187156098913 1.353250654088931 1.7539752356383482 2.258961266371635
2.8641939851251403 1.0626090931543137 0.7375943810255776 1.0639905109452477
1.2668914874787311 0.7516352248683573 0.1682868837451642 0.3469693788652095
0.538797849235444 0.494623398760765 0.007309879641531695 0.03686457083314709
0.2768549199775105 0.28238909412300284 -0.0011325032819432701 -0.004401670863549158
0.1605386852289056 0.16052124945587154 1.178629001297811e-06 1.625714403276439e-05
0.11872481312668945 0.11872481312668945 0.0 0.0
0.5135382308189862 0.1427361692184469 0.12850483085509745 0.242297230745442
4.484137500675845 2.3408071777794786 0.8622290013072108 1.281101321589158
3.1488907696655954 1.7660770162193826 0.5174326211726958 0.8653811322735181
0.3854489061563078 0.18647415834654507 0.06330966555056501 0.13566508225919746
0.14235830786788398 0.142370736296387 -6.591917487488861e-07 -1.1769236754219564e-05
0.15611795424534844 0.1561036682292314 9.176681420014073e-07 1.3368347975063384e-05
0.23501967993493822 0.23699562691497505 -0.0003689271936978982 -0.0016070197863389485
0.39851560380625123 0.40371063975615945 -0.004017364487225352 -0.0011776714626828928
0.8711377634491062 0.6249446738539635 0.0704741040671157 0.17571898552802717
1.9762593306272291 0.8865757435043219 0.3984210528297452 0.6912625342931624
3.998892876622754 1.1740794868910207 1.21644633496256 1.6083670547691722
6.737104233102661 1.4216568634035627 2.406905686995584 2.908541682703516
10.332988652440147 1.6761289626458034 4.1719414236860555 4.48491826610829
14.581154565257753 1.95222508677873 6.355039662053717 6.273889816425304
19.51247238502867 2.276054570848354 8.971499482746601 8.264918331433714
25.229131609857912 2.6595068721397337 12.087049947767904 10.482574789950267
31.792584952045175 3.1018960144183247 15.737169847251584 12.953519090375268
39.30979537077967 3.5917575863387468 20.054491905996358 15.663545878444552
47.29770137079006 4.101394830546553 24.632480925004554 18.56382561523896
55.91423678026545 4.606895670422894 29.7718102688133 21.53553084102925
64.32077425662071 4.919475149031461 34.94565509999394 24.45564400759531
71.33483054571279 4.786349925405223 39.53103108403997 27.017449536267627
74.27345151888989 2.780082741606128 42.73875312178078 28.75461565550299
71.33483054570381 4.78634992540448 39.531031084034616 27.01744953626469
64.32077425659956 4.919475149026842 34.9456550999833 24.455644007589434
55.914236780231164 4.606895670413367 29.771810268797633 21.53553084102015
47.2977013707581 4.101394830546821 24.63248092498442 18.563825615226868
39.309795370744055 3.591757586335249 20.05449190597655 15.663545878432243
31.7925849520062 3.101896014410601 15.737169847232794 12.953519090362809
25.229131609824602 2.659506872134444 12.087049947751407 10.482574789938756
19.51247238499963 2.2760545708469024 8.971499482730737 8.264918331421988
14.581154565230516 1.952225086775027 6.355039662040593 6.273889816414901
10.332988652417832 1.6761289626440963 4.171941423675058 4.4849182660986795
6.737104233084783 1.4216568634027809 2.406905686986872 2.908541682695132
3.998892876609743 1.1740794868892352 1.2164463349571002 1.6083670547634077
1.9762593306199547 0.8865757435033017 0.3984210528270636 0.6912625342895894
0.8711377634456694 0.6249446738520744 0.07047410406652584 0.17571898552706935
0.39851560380520396 0.4037106397552097 -0.004017364487246968 -0.0011776714627585298
0.23501967993456122 0.23699562691457138 -0.0003689271936947127 -0.0016070197863154514
0.15611795424505218 0.1561036682289405 9.176681415783688e-07 1.336834797013782e-05
0.14235830786756257 0.14237073629605088 -6.591917477816558e-07 -1.1769236740542314e-05
0.38544890615444405 0.18647415834633638 0.06330966554988235 0.1356650822582252
3.1488907696564015 1.7660770162154809 0.5174326211705034 0.8653811322704179
2.18647231211189 1.3503989674800554 0.3169559728701702 0.5191173717616638
0.28472066697374715 0.2100346721344457 0.014237556830402565 0.060448438008898916
0.16737867224264114 0.1673740831140612 6.549418343044879e-07 3.934186745580613e-06
0.16306062071471505 0.1630328200047227 2.0434509839589774e-06 2.575725900836815e-05
0.21119361389113217 0.21277346669628033 -0.0002570264255272876 -0.0013228263796208292
0.31462844131826256 0.32686312116585853 -0.003914297851201058 -0.008320381996394925
0.5754083028603573 0.49960180443877666 0.014098521954633254 0.061707976466947256
1.271299291414589 0.7119259921228765 0.17954481995470736 0.3798284793370059
2.6324405128933326 0.9577118220536027 0.6526906235234919 1.022038067316238
4.739046286067679 1.1949643651643658 1.5581532722936995 1.9859286486096133
7.339019039821508 1.4084604040425086 2.7364816096310114 3.1940770261479874
10.465539305854437 1.6386024817248603 4.261022214028053 4.5659146101015216
14.08905812543091 1.9074758114441634 6.105281456923859 6.076300857062891
18.258863556371537 2.2253642621137217 8.28063561356644 7.7528636806913775
23.124680604821705 2.60891994360106 10.887962741282026 9.62779791993862
28.656023981752657 3.0499216942444565 13.891369701357362 11.714732586150848
34.899984816348514 3.5298264043752003 17.397271099965128 13.972887312008186
41.599144156751265 4.0820851108127485 21.14325232544437 16.373806720494162
48.62802834190365 4.591450272357801 25.169310881117916 18.867267188427917
55.327406046567525 4.668711016321701 29.35436829672352 21.304326733522306
58.486368886183406 2.421909100787768 32.80585786874086 23.258601916654776
55.32740604656455 4.668711016322448 29.354368296721024 21.304326733521076
48.628028341893035 4.591450272358269 25.169310881111013 18.867267188423757
41.59914415674088 4.082085110820583 21.143252325433156 16.373806720487153
34.8999848163172 3.529826404366553 17.397271099951325 13.972887311999322
28.65602398172813 3.049921694244099 13.891369701342928 11.7147325861411
23.124680604803505 2.608919943605398 10.887962741268872 9.62779791992924
18.258863556351947 2.225364262113456 8.280635613555395 7.752863680683089
14.089058125412112 1.9074758114451782 6.105281456912843 6.076300857054091
10.465539305837204 1.6386024817253073 4.261022214018612 4.5659146100932855
7.3390190398039605 1.4084604040409017 2.7364816096228366 3.1940770261402194
4.739046286053432 1.1949643651609734 1.558153272288323 1.9859286486041363
2.6324405128845485 0.9577118220518378 0.6526906235203079 1.0220380673124025
1.2712992914095524 0.7119259921217013 0.17954481995318786 0.37982847933466257
0.5754083028590824 0.49960180443844077 0.014098521954375474 0.06170797646626612
0.3146284413174525 0.32686312116470717 -0.003914297851156612 -0.008320381996098303
0.2111936138907909 0.21277346669597197 -0.0002570264255240599 -0.001322826379657016
0.16306062071442265 0.1630328200044065 2.0434509849473188e-06 2.575725903115433e-05
0.16737867224224384 0.16737408311355062 6.549418431640409e-07 3.934186850012766e-06
0.28472066697249687 0.21003467213419516 0.014237556830054184 0.06044843800824726
2.1864723121053316 1.3503989674772723 0.31695597286855276 0.5191173717595072
1.41540436373362 1.0005955289706168 0.13462735904936438 0.28018147571363855
0.22638509508383 0.2195877887805807 -0.002925085942953114 0.009722392246202343
0.1888899744229726 0.18896998147758756 -6.972469874898892e-06 -7.303458474007455e-05
0.1764488251189451 0.17651482713208233 -4.368608041209089e-06 -6.163340509605038e-05
0.20061842896420637 0.20214857207477102 -0.00025282722044133956 -0.0012773158901233255
0.2677454556485092 0.2737336863454991 -0.0021025644821062663 -0.0038856662148835878
0.39864189712037945 0.3948771335091189 -0.0032037091718102894 0.006968472783070781
0.7459068691096967 0.5483084695080206 0.05307960498552406 0.14451879461615216
1.5190974142214013 0.7303777331645402 0.27126955292427585 0.517450128132585
2.8185465181033087 0.925933264708199 0.7573588862287144 1.1352543671663966
4.526774803596855 1.1110791257436132 1.464417169136251 1.9512785087169924
6.606328939198507 1.306133712963358 2.407781497226261 2.892413729008887
8.995310941491667 1.5288635696913075 3.5370743301228793 3.929373041677481
11.735242231343488 1.787228264425345 4.871597330603389 5.076416636314755
14.94758387878843 2.1060763976906864 6.477641931438114 6.363865549659624
18.730805462506865 2.499758571219447 8.40864849588112 7.822398395406306
23.080766553803596 2.9541909617698145 10.670410786299579 9.456164805734199
27.898417943988253 3.456501965241825 13.201446952249055 11.240469026497372
33.52476433286429 4.122269207421522 16.167596766974206 13.234898358468556
39.88039119229107 4.582115170843931 19.790887322091397 15.507388699355731
43.38486695969805 2.1542724458782567 23.402125669683933 17.82846884413586
39.8803911922909 4.582115170844943 19.79088732209067 15.50738869935529
33.524764332851404 4.12226920741353 16.167596766971226 13.234898358466644
27.898417943971516 3.45650196523931 13.201446952240513 11.24046902649169
23.08076655379424 2.954190961776453 10.67041078629025 9.456164805727536
18.730805462486313 2.4997585712145014 8.408648495872153 7.822398395399664
14.947583878771319 2.106076397689336 6.477641931429268 6.363865549652708
11.735242231324694 1.7872282644163366 4.871597330598022 5.076416636310339
8.99531094147407 1.5288635696843575 3.5370743301172727 3.9293730416724335
6.606328939187733 1.3061337129668835 2.4077814972189207 2.892413729001933
4.526774803585959 1.1110791257427792 1.4644171691314194 1.9512785087117588
2.8185465180964173 0.9259332647076641 0.7573588862257791 1.135254367162974
1.5190974142168072 0.7303777331634917 0.27126955292281807 0.5174501281304982
0.7459068691076025 0.5483084695074324 0.05307960498500358 0.1445187946151664
0.39864189711876347 0.39487713350804465 -0.0032037091719932056 0.006968472782712087
0.2677454556477409 0.27373368634444645 -0.002102564482051182 -0.003885666214654255
0.20061842896394638 0.2021485720743521 -0.00025282722042876125 -0.0012773158899770259
0.17644882511846588 0.17651482713163238 -4.368608042497338e-06 -6.163340512401417e-05
0.18888997442256894 0.18896998147705252 -6.972469867101027e-06 -7.30345846163994e-05
0.22638509508315297 0.21958778878029936 -0.0029250859430812 0.009722392245934842
1.415404363729028 1.0005955289684867 0.13462735904839418 0.28018147571214663
0.9040737362709577 0.7545670235188779 0.04253496721843446 0.10697174553364537
0.19374235815072002 0.208979818764455 -0.005214124572751913 -0.010023336040982966
0.2045353737149314 0.20455190334448695 -1.1620877643364025e-06 -1.5367541791164718e-05
0.1922990496957845 0.1923544695525577 -5.988319306627296e-06 -4.9431537466473814e-05
0.20170014788233503 0.2028766707494724 -0.00022482533085135684 -0.0009516975362860751
0.24420295293415442 0.24972523270732566 -0.0016517411194230589 -0.003870538653748136
0.31758550378664213 0.31445889652979175 -0.0008655863084760964 0.003992193565326195
0.43323189561982567 0.3863671033992414 0.009045833999398295 0.03781895822118604
0.6988566227741532 0.48396478791320974 0.05952557259606128 0.15536626226488204
1.2408207055862062 0.6117519384728324 0.21258062175906897 0.4164881453543048
2.100934968648752 0.7420291213924163 0.5278692263299517 0.831036620926384
3.149723036994338 0.8731706383347254 0.9284505169432257 1.3481018817163883
4.409204752751413 1.033675271068244 1.4517970545362553 1.923732427146913
5.888542986447972 1.228386465537427 2.0919227360605555 2.5682337848499905
7.639778707394294 1.472996344867606 2.8640431487816516 3.3027392137450393
9.787092077707456 1.7994260283575048 3.821619504011215 4.166046545338731
12.456111955115404 2.2205930468872026 5.038365990877884 5.197152917350318
15.644761954840114 2.679274080829154 6.5669259034195635 6.398561970591398
19.431789448078767 3.223795595095525 8.406242710303069 7.8017511426801756
24.917286193874926 4.24872991268387 10.97438810305987 9.69416817813118
29.711543516710528 2.0870530586211746 15.103611114882927 12.52087934320643
24.917286193876176 4.248729912682275 10.974388103061559 9.694168178132339
19.431789448083688 3.2237955951022372 8.406242710302017 7.801751142679421
15.644761954832944 2.6792740808311044 6.566925903414434 6.398561970587409
12.45611195509612 2.2205930468788355 5.038365990871814 5.197152917345474
9.78709207769814 1.7994260283556698 3.8216195040072614 4.16604654533521
7.63977870738654 1.4729963448668457 2.864043148778062 3.302739213741633
5.88854298644816 1.2283864655409837 2.0919227360588417 2.5682337848483323
4.409204752747481 1.0336752710682122 1.4517970545343413 1.9237324271449254
3.149723036986515 0.8731706383350109 0.928450516939437 1.348101881712067
2.1009349686431533 0.7420291213920238 0.5278692263276211 0.8310366209235083
1.2408207055830598 0.611751938472656 0.21258062175788947 0.41648814535251444
0.698856622772559 0.48396478791266917 0.05952557259569724 0.1553662622641924
0.43323189561907094 0.3863671033990044 0.00904583399923136 0.03781895822083525
0.31758550378554223 0.3144588965289032 -0.0008655863085457844 0.003992193565184563
0.2442029529334274 0.2497252327064208 -0.0016517411193862374 -0.003870538653607112
0.201700147881833 0.2028766707488973 -0.0002248253308410804 -0.0009516975362232069
0.1922990496953298 0.19235446955201124 -5.988319296995971e-06 -4.9431537384401384e-05
0.20453537371430963 0.20455190334387988 -1.1620877664726056e-06 -1.536754180377752e-05
0.19374235815052132 0.20897981876408983 -0.005214124572705942 -0.010023336040862552
0.9040737362681041 0.7545670235174798 0.04253496721793996 0.10697174553268395
0.5712349823807713 0.5484552872825882 0.0038848104651591714 0.01889488463302386
0.18095749077572246 0.185097284695162 -0.0007038037612260289 -0.003435990158213586
0.21405644867121415 0.21432607653831698 -2.5203506843158185e-05 -0.00024442436025968436
0.2079931416312 0.20806792153483317 -9.546862136697973e-06 -6.523304149646602e-05
0.211930260452024 0.21271522076416874 -0.00020250258396541256 -0.0005824577281792528
0.24149834591285552 0.24515398393330773 -0.001301622287410528 -0.0023540157330416574
0.2958049377527115 0.2887866644498095 0.0004687082466891743 0.006549565056213044
0.34825622732168987 0.29697719176338344 0.011672749136578849 0.03960628642172751
0.38945909426248515 0.2652854271363652 0.03793548912849295 0.08623817799762717
0.4718813939996251 0.22942752630956698 0.07999896607397013 0.16245490161608778
0.678484880883646 0.24858747032624312 0.16615817891247525 0.2637392316449278
0.9991112471992081 0.2930410065216229 0.27722064436941557 0.42884959630816977
1.448438043524376 0.3023781446751531 0.4634224004491035 0.6826374984001194
2.0166475543864095 0.30808055749550184 0.7159315858588698 0.992635411032039
2.721311729106273 0.33208784192161833 1.0366195408634076 1.3526043463212472
3.566500127133254 0.3940522264578864 1.413938751715582 1.7585091489597846
4.60500263900403 0.5156334055024951 1.8813987122812341 2.207970521220301
5.839326133559632 0.6940656623502942 2.4448661289380667 2.70039434227127
7.644500538402027 1.0332243329744197 3.2338348360729117 3.3774413693546954
12.181711291438177 2.475413131744612 4.7456248466726585 4.960673313020906
20.343784748274963 2.1484839989572997 9.453123185649149 8.742177563668522
12.181711291449913 2.4754131317519965 4.745624846675192 4.960673313022728
7.644500538390661 1.0332243329660913 3.23383483607126 3.3774413693533063
5.839326133545524 0.6940656623431379 2.444866128934466 2.70039434226792
4.60500263900042 0.5156334055043466 1.8813987122784264 2.2079705212176455
3.566500127128059 0.39405222645675547 1.4139387517136601 1.7585091489576428
2.7213117291032534 0.3320878419216867 1.036619540861831 1.3526043463197346
2.0166475543814806 0.3080805574938552 0.7159315858573901 0.992635411030236
1.4484380435198623 0.3023781446748306 0.46342240044725774 0.6826374983977742
0.9991112471947037 0.2930410065195401 0.2772206443682794 0.42884959630688413
0.678484880880432 0.248587470325197 0.16615817891146678 0.2637392316437679
0.4718813939988571 0.22942752630877877 0.07999896607398793 0.16245490161609072
0.3894590942623093 0.26528542713683895 0.03793548912825461 0.08623817799721575
0.34825622732121864 0.29697719176349424 0.011672749136392171 0.03960628642133227
0.2958049377517107 0.28878666444888795 0.00046870824663273244 0.006549565056189963
0.2414983459124676 0.2451539839327064 -0.0013016222873719757 -0.0023540157328668853
0.2119302604514413 0.21271522076343438 -0.0002025025839496919 -0.000582457728043307
0.20799314163104238 0.20806792153448828 -9.546862114580884e-06 -6.52330413314495e-05
0.21405644867073298 0.2143260765379033 -2.5203506849547517e-05 -0.0002444243603207292
0.1809574907755779 0.1850972846949658 -0.0007038037612119614 -0.0034359901581759895
0.5712349823795045 0.5484552872813998 0.0038848104650915267 0.01889488463301327
0.37262587065979724 0.3737322970483652 -0.00017233453066397303 -0.0009340918579040194
0.17142858106819756 0.1713460262669501 1.656332160863491e-05 6.599147963881612e-05
0.21766360707530708 0.2175819245577216 1.4340158312064616e-06 8.024850175434876e-05
0.22150341748120583 0.22149074493616508 -9.772038125694649e-06 2.244458316639106e-05
0.22798113645406298 0.22798657745457016 -0.00011604989851170812 0.00011060889800444145
0.2602106568290155 0.26179340068682583 -0.001087201154573827 -0.0004955427032365274
0.3269116885742283 0.3224643535018903 8.936896546129272e-05 0.004357966106876744
0.4374821522767263 0.388031931220912 0.010046683319402441 0.039403537736411885
0.6999987170665641 0.48376914656876696 0.060011481194700095 0.15621808930309677
1.2396749403166127 0.6113010673407262 0.21224620672782862 0.4161276662480574
2.1026965785678526 0.7437477081999356 0.5282807391523878 0.8306681312155295
3.1632821491711627 0.875399846716662 0.9351659217777469 1.3527163806767548
4.440902114428367 1.0384695976151848 1.4648963075089958 1.9375362093041857
5.928654350063534 1.231435009453426 2.111401989130711 2.585817351479396
7.586745809756068 1.4535357344998958 2.8481842836208364 3.285025791635334
9.33978092552313 1.7082128807785177 3.639061829686357 3.992506215058255
10.96239982354562 1.9797432224062197 4.368075382633109 4.61458121850629
12.26855385161136 2.293937857898152 4.950661860284547 5.0239541334286635
12.730469126418837 2.509789143020206 5.123296997072808 5.097382986325826
10.201471265248667 1.558234108538226 4.435461779201743 4.207775377508696
20.601240563855857 3.556895098866341 8.682467079449605 8.361878385539912
10.201471265251765 1.5582341085348486 4.435461779205202 4.207775377511704
12.730469126423335 2.5097891430260444 5.123296997072028 5.097382986325265
12.268553851608498 2.293937857903044 4.950661860280252 5.023954133425197
10.962399823529982 1.9797432224024074 4.368075382626703 4.614581218500877
9.339780925515152 1.7082128807807808 3.6390618296809536 3.9925062150534156
7.586745809746468 1.453535734498171 2.8481842836168445 3.2850257916314565
5.92865435005657 1.231435009454056 2.111401989126851 2.585817351475664
4.440902114418096 1.0384695976145795 1.464896307504267 1.9375362092992512
3.163282149161293 0.8753998467156296 0.9351659217736352 1.3527163806720273
2.102696578561 0.7437477082001417 0.528280739149232 0.8306681312116253
1.2396749403119207 0.6113010673394591 0.21224620672645567 0.41612766624600583
0.6999987170642415 0.48376914656793596 0.06001148119416859 0.156218089302137
0.4374821522757337 0.3880319312203778 0.010046683319248368 0.039403537736107504
0.3269116885733507 0.3224643535010272 8.936896544069163e-05 0.004357966106882699
0.26021065682848094 0.261793400686161 -0.0010872011545604982 -0.0004955427031195021
0.22798113645349707 0.22798657745384512 -0.00011604989849432206 0.00011060889814631247
0.22150341748080224 0.22149074493558368 -9.772038107014456e-06 2.244458332557002e-05
0.21766360707513305 0.21758192455739156 1.434015841399455e-06 8.024850190000198e-05
0.17142858106798115 0.1713460262667603 1.656332160217419e-05 6.599147961868376e-05
0.3726258706591526 0.3737322970473932 -0.00017233453062783034 -0.0009340918576128057
0.24138403874119882 0.24136329961107664 1.3476233019465938e-06 1.9391506820260498e-05
0.15778477345209502 0.1578238901061762 -2.011212349801902e-06 -3.710544173134214e-05
0.21473247557427705 0.21495644115613968 -2.4142770804808616e-05 -0.00019982281105785984
0.23113089287204702 0.2305805201518428 5.8621429878619904e-05 0.0004917512903256724
0.24817060939071386 0.25088903671133206 -0.0005615096818946962 -0.002156917638723527
0.29832988892858714 0.3036172072872385 -0.0015184804615880655 -0.003768837897063386
0.4134292925204796 0.3964556034295237 -0.0004872497443276936 0.01746093883528367
0.752803534936788 0.5491034448181116 0.05547359273629208 0.14822649738238433
1.5190202023510029 0.7301712963176654 0.27128788736708537 0.5175610186662518
2.8166724073402665 0.9257906649414511 0.7564364249875292 1.1344453174112858
4.52867454794219 1.1114885156595733 1.4650409185507633 1.9521451137318513
6.618557868988041 1.3078767298882623 2.413114344464501 2.897566794635275
9.023407997600417 1.5315273394577587 3.550631766976786 3.9412488911658783
11.763676477775157 1.7849069930247574 4.888752551098181 5.090016933652219
14.875324044070616 2.0763272238157304 6.4550964326644396 6.343900387590447
18.256613172567803 2.3972174455771516 8.198496743131452 7.660898983859199
21.62815259293688 2.7464006059800266 9.947055684507147 8.934696302449698
24.53760293569848 3.147116839489976 11.39135112048422 9.99913497572428
25.98377497582489 3.3030854453054865 12.167242937475411 10.513446593043993
24.052999085524892 3.234589559445975 11.167280522971243 9.651129003107677
29.488035028091154 7.236460817712402 11.869730539227469 10.381843671151278
24.052999085523776 3.2345895594384135 11.167280522975089 9.651129003110277
25.983774975816686 3.3030854453000016 12.167242937473784 10.513446593042904
24.537602935681566 3.1471168394842723 11.391351120477552 9.999134975719741
21.628152592915917 2.7464006059790815 9.947055684495488 8.934696302441347
18.25661317253976 2.397217445570051 8.198496743119463 7.660898983850241
14.875324044051762 2.0763272238119646 6.455096432655998 6.3439003875837985
11.763676477752718 1.7849069930193897 4.888752551088885 5.090016933644441
9.02340799758306 1.531527339456691 3.550631766968155 3.9412488911582186
6.61855786896972 1.3078767298857392 2.4131143444564063 2.8975667946275756
4.528674547926893 1.1114885156567595 1.4650409185447146 1.9521451137254162
2.8166724073289267 0.9257906649395299 0.7564364249831522 1.1344453174062459
1.5190202023461399 0.7301712963170277 0.2712878873653428 0.5175610186637687
0.7528035349339925 0.549103444817451 0.05547359273555604 0.14822649738098567
0.4134292925191794 0.39645560342847685 -0.00048724974442439445 0.017460938835127005
0.2983298889280305 0.30361720728637787 -0.001518480461525205 -0.0037688378968220985
0.24817060939035898 0.25088903671080975 -0.0005615096818670241 -0.0021569176385836807
0.23113089287157337 0.23058052015133484 5.862142987367426e-05 0.0004917512903648825
0.21473247557390027 0.21495644115576468 -2.4142770804661747e-05 -0.00019982281105967303
0.15778477345189926 0.15782389010597997 -2.0112123488676423e-06 -3.7105441731839446e-05
0.24138403874066974 0.2413632996105606 1.3476233008971399e-06 1.9391506808273514e-05
0.1491479797998465 0.1491479797998465 0.0 0.0
0.1389071335167913 0.13889078038982916 9.89853957466213e-07 1.5363273004669434e-05
0.20499034605144853 0.2051362209954149 -1.4979932322714506e-05 -0.0001308950116435768
0.23696095160463684 0.2376842380833279 -0.00011614766115988195 -0.0006071388175312877
0.27218236864191286 0.2734559766586749 -0.0003770570544326544 -0.0008965509623293479
0.35098068273701105 0.34946727096281144 -0.0019411843602510771 0.0034545961344509346
0.5989960233559699 0.5085919013129223 0.02050860194799114 0.06989552009505638
1.2769867346219779 0.712681497879773 0.18207449019057056 0.3822307465516349
2.6302665694242813 0.9576722308584069 0.6516813722874724 1.0209129662783996
4.738087906041791 1.1951776102152114 1.5578332804112047 1.9850770154153778
7.3413670958682395 1.4087110223565322 2.7363093834800845 3.196346690031623
10.475181909408306 1.639355042194997 4.265874219437453 4.56995264777586
14.102907515398968 1.9080256653526195 6.112748486606575 6.082133363439773
18.25761798422476 2.219673176903467 8.283341791789352 7.75460301553194
23.02612719617035 2.575377706830267 10.850286134360221 9.600463354979853
28.245895873747294 2.9577633350825185 13.702546492193859 11.585586046470924
33.72707878833498 3.35832195946377 16.79126017367772 13.577496655193482
38.447375302095324 3.651088732182555 19.472760737174234 15.323525832738536
40.8718710337 3.690956324581329 20.942128332241253 16.23878637687741
37.96043598913088 3.243926500463873 19.44140596025886 15.275103528408147
42.62514600155073 10.10730674146953 18.070097944831222 14.447741315250001
37.96043598913519 3.2439265004631372 19.441405960261996 15.275103528410057
40.87187103369193 3.690956324581701 20.942128332236024 16.238786376874216
38.44737530207166 3.65108873217714 19.472760737163036 15.323525832731486
33.72707878830421 3.3583219594618408 16.79126017366019 13.577496655182166
28.2458958737287 2.957763335091477 13.702546492177444 11.585586046459774
23.026127196136272 2.5753777068235286 10.850286134344211 9.60046335496853
18.257617984205247 2.219673176908659 8.283341791775225 7.754603015521359
14.102907515372973 1.9080256653506085 6.112748486593207 6.082133363429155
10.475181909382963 1.6393550421934497 4.265874219424604 4.569952647764904
7.34136709584631 1.4087110223539971 2.736309383470051 3.1963466900222595
4.738087906026454 1.1951776102146374 1.5578332804039186 1.985077015407898
2.630266569414808 0.9576722308565164 0.6516813722840099 1.0209129662742824
1.2769867346163557 0.7126814978787168 0.18207449018876926 0.3822307465488698
0.5989960233537697 0.5085919013120644 0.020508601947565888 0.06989552009413903
0.35098068273617344 0.3494672709616993 -0.001941184360216518 0.003454596134690671
0.2721823686415632 0.27345597665816834 -0.00037705705441316807 -0.0008965509621920104
0.23696095160442726 0.23768423808299793 -0.00011614766114551075 -0.0006071388174252043
0.20499034605102787 0.2051362209950083 -1.4979932325470265e-05 -0.00013089501165501955
0.13890713351660425 0.13889078038964564 9.898539572355688e-07 1.5363273001379168e-05
0.149147979799531 0.149147979799531 0.0 0.0
0.08726430440724768 0.08726430440724768 0.0 0.0
0.11588502086275189 0.11588555055842538 -2.2971052855553653e-08 -5.067246206468004e-07
0.18947503789518694 0.18947318538292596 -6.008432480781771e-07 2.453355509006392e-06
0.23942765146368625 0.23951060986225406 -2.5262041740052342e-05 -5.769635682768001e-05
0.2980428535599638 0.3031027296201074 -0.0011348538897423051 -0.003925022170401211
0.4387972082569551 0.4268503345324764 0.0008666073880750904 0.01108026633640357
0.8874893665903378 0.621980234639998 0.07655657314441386 0.18895255880592562
1.9778242716437728 0.8869937092521785 0.399347976314636 0.6914825860769587
3.995922370338324 1.1745214031595228 1.2147625935450161 1.6066383736337837
6.737317020417276 1.4220636989307367 2.4066166523252797 2.908636669161263
10.337583011049125 1.6760806624744038 4.1746889271923315 4.4868134213823945
14.584283722027203 1.950940782325082 6.357543191099938 6.27579974860218
19.50093671769634 2.271935414726935 8.967354424097838 8.261646878871577
25.18191908107839 2.6498391389682845 12.06510934040707 10.466970601703034
31.680367316434513 3.0796090552590942 15.683045947456367 12.917712313719045
39.046823558975426 3.5409809646444916 19.923843231438823 15.581999362892107
46.451842816361186 3.928916030557525 24.212437668235143 18.31048911756854
53.06439826173765 4.084049689012598 28.302299742686095 20.678048830038936
56.28600918189679 3.807737197740077 30.545736315224065 21.932535668932648
52.507392068934934 3.3254485487497942 28.4563476315121 20.725595888673038
57.211115423439736 12.879208805950126 25.360990191959093 18.970916425530504
52.507392068918776 3.3254485487348417 28.45634763151136 20.725595888672576
56.286009181888986 3.8077371977454915 30.545736315215635 21.93253566892786
53.064398261710416 4.084049689012062 28.302299742669145 20.678048830029198
46.45184281633116 3.9289160305625592 24.21243766821335 18.310489117555235
39.04682355893256 3.5409809646361534 19.923843231417607 15.58199936287881
31.680367316402922 3.079609055263064 15.683045947435009 12.917712313704849
25.18191908104118 2.649839138962563 12.065109340388487 10.466970601690122
19.500936717661027 2.2719354147250184 8.967354424078614 8.261646878857395
14.584283721996792 1.9509407823257412 6.357543191082661 6.275799748588389
10.33758301102158 1.6760806624722744 4.174688927178785 4.486813421370519
6.737317020397333 1.4220636989286362 2.406616652316226 2.90863666915247
3.9959223703238687 1.174521403157716 1.2147625935388435 1.6066383736273093
1.9778242716357446 0.8869937092508808 0.39934797631172664 0.6914825860731378
0.8874893665866164 0.6219802346387516 0.0765565731434868 0.18895255880437753
0.4387972082558816 0.42685033453158006 0.0008666073880275601 0.011080266336274094
0.29804285355954524 0.3031027296193903 -0.0011348538896939777 -0.003925022170151045
0.23942765146334818 0.23951060986180192 -2.5262041730273872e-05 -5.7696356723477686e-05
0.18947503789502068 0.18947318538279614 -6.008432525648041e-07 2.453355477106608e-06
0.11588502086270269 0.11588555055837571 -2.297105282889122e-08 -5.067246201801207e-07
0.08726430440712121 0.08726430440712121 0.0 0.0
0.04804722257961551 0.04804722257961551 0.0 0.0
0.09147528369915436 0.09147528369915436 0.0 0.0
0.16979620890014524 0.16978555030585085 6.366593226293898e-07 1.002193497175889e-05
0.23915355972107386 0.23963332513071625 -7.521192050578363e-05 -0.0004045534891365674
0.3287543604965185 0.3311655442772726 -0.0013066663275340738 -0.001104517453220051
0.572664827134063 0.510556282242125 0.014374519077556139 0.04773402581438167
1.2797433524208581 0.7520563290772808 0.1742632237012898 0.353423799642288
2.8627140013448265 1.0635078428755027 0.736672636956774 1.0625335215125495
5.364339768272087 1.3540404443786356 1.7528092137000058 2.257490110193446
8.969164958852772 1.6448727555267868 3.462286273058182 3.862005930267805
13.484833502988463 1.941872398515265 5.749806328577025 5.793154775896179
18.879331921169545 2.2684437249735376 8.612061748763203 7.9988264474328
25.169421652257995 2.6486761022859473 12.059232846473652 10.461512703498395
32.482039723226144 3.0973564546722345 16.17966472391249 13.205018544641423
40.83572496182887 3.6215454866505965 20.95510772496307 16.259071750215202
50.15964230488014 4.146499496142109 26.41430890361815 19.59883390511989
59.957886240716526 4.507135570661948 32.43155841974533 23.019192250309242
68.14832826394023 4.4379897139122875 37.69936258105798 26.010975968969948
71.80822399532148 3.8290203133785248 40.41695009703864 27.562253584904308
67.5318500082285 3.5012037081057104 37.9203477559402 26.110298544182577
73.11340215606944 15.686471610970589 33.6919333700417 23.734997175057135
67.53185000822234 3.501203708107887 37.92034775593489 26.110298544179564
71.8082239953021 3.829020313377119 40.41695009702703 27.562253584897924
68.1483282639104 4.437989713915998 37.69936258103643 26.010975968957986
59.957886240669495 4.507135570657373 32.4315584197182 23.019192250293937
50.15964230483772 4.146499496143374 26.41430890359076 19.598833905103618
40.83572496177937 3.621545486645113 20.955107724935985 16.259071750198245
32.48203972318156 3.097356454669752 16.17966472388708 13.205018544624721
25.169421652219334 2.6486761022876393 12.05923284644991 10.461512703481795
18.879331921131392 2.2684437249724603 8.612061748742002 7.998826447416925
13.48483350295463 1.9418723985123914 5.749806328559946 5.793154775882291
8.969164958825562 1.6448727555234468 3.4622862730455966 3.8620059302565184
5.364339768255586 1.3540404443777616 1.7528092136924516 2.2574901101853717
2.862714001333386 1.0635078428735025 0.7366726369523822 1.0625335215075
1.279743352415152 0.75205632907541 0.1742632236997777 0.35342379963996534
0.5726648271322807 0.5105562822409889 0.014374519077341049 0.04773402581395051
0.32875436049588497 0.3311655442763688 -0.0013066663274989502 -0.001104517452984833
0.23915355972061553 0.23963332513028288 -7.52119205099543e-05 -0.000404553489157413
0.1697962088999749 0.16978555030568704 6.366593221431451e-07 1.0021934965748754e-05
0.09147528369901785 0.09147528369901785 0.0 0.0
0.04804722257947811 0.04804722257947811 0.0 0.0
0.024816871842821595 0.024816871842821595 0.0 0.0
0.06835171020190865 0.06835171020190865 0.0 0.0
0.14831083773363912 0.14830486359059553 3.662909033654852e-07 5.6078521402870744e-06
0.23830150336335423 0.23858180912306587 -4.988176694968613e-05 -0.00023042399276181064
0.3750161199115932 0.378645582668756 -0.0015332270887472917 -0.0020962356684153644
0.755037486239567 0.5869360342697131 0.0439506748918945 0.1241507770779591
1.7969563712227936 0.8915804495957154 0.3422601323250344 0.5631157893020432
3.7688889223233764 1.2095944022528582 1.0605702385884357 1.4987242814820827
6.929125835956455 1.5332246510705418 2.4598643971223346 2.936036787763578
11.27413615608935 1.8652357007727436 4.580555165938259 4.8283452893783485
16.765596009715736 2.2151676682190633 7.439716834717981 7.11071150677869
23.365457571723287 2.601247543559319 11.031470121744123 9.732739906419843
31.122018645531597 3.048829694523799 15.395689094534465 12.677499856473332
39.9810965567621 3.574259223957293 20.44317241676183 15.963664916042982
50.28385906103727 4.1759018216302195 26.49661792338595 19.611339316021102
61.79216638044601 4.780548194154865 33.415200685508815 23.596417500782323
73.50717954061165 5.096409028771436 40.71487660084547 27.695893910994737
83.35348452287163 4.748295306618493 47.34839775132962 31.25679146492354
87.82024795709603 3.8457856351437005 50.872419225430264 33.102043096522095
83.21327317863071 3.707678741110187 47.94639910652069 31.55919533099984
89.97493780355819 18.502891369408598 42.68944566000294 28.78260077414663
83.21327317862192 3.707678741112059 47.94639910651364 31.55919533099619
87.8202479570652 3.8457856351389443 50.87241922541312 33.102043096513135
83.3534845228283 4.748295306617179 47.34839775130209 31.25679146490904
73.507179540564 5.096409028773741 40.71487660081311 27.69589391097713
61.79216638038751 4.780548194150992 33.415200685473934 23.596417500762566
50.28385906098502 4.17590182163099 26.49661792335271 19.611339316001327
39.98109655671334 3.5742592239576516 20.44317241673163 15.963664916024058
31.12201864547803 3.048829694517895 15.39568909450588 12.677499856454247
23.365457571675286 2.60124754355595 11.031470121718066 9.732739906401271
16.765596009675342 2.2151676682159422 7.439716834696974 7.110711506762419
11.274136156059502 1.8652357007715632 4.580555165922787 4.828345289365155
6.92912583593472 1.5332246510677372 2.4598643971128418 2.9360367877541385
3.768888922310022 1.209594402251104 1.0605702385829716 1.498724281475947
1.7969563712149192 0.891580449593709 0.3422601323225052 0.5631157892987031
0.7550374862367624 0.5869360342680311 0.043950674891471864 0.12415077707726005
0.37501611991074296 0.37864558266789394 -0.0015332270887559402 -0.0020962356683950356
0.2383015033630971 0.2385818091227991 -4.988176695142737e-05 -0.00023042399275060123
0.14831083773346 0.1483048635904165 3.662909033509835e-07 5.607852140109466e-06
0.06835171020173435 0.06835171020173435 0.0 0.0
0.02481687184269662 0.02481687184269662 0.0 0.0
0.012168658109225936 0.012168658109225936 0.0 0.0
0.04858505179803671 0.04858505179803671 0.0 0.0
0.12765607449465813 0.12765607449465813 0.0 0.0
0.24036413398165318 0.2410153590203776 -0.00010116149898429283 -0.0005500635397401536
0.443520798330328 0.43198591343054854 0.001776485858746445 0.009758399041033058
1.0131833277259308 0.6944572143698101 0.10170872718325141 0.2170173861728695
2.365435281551176 1.0133972599702656 0.521244284459438 0.8307937371214726
4.79731998485628 1.346005670309339 1.4880501422566 1.9632641722903403
8.545631343769212 1.7073731637269822 3.208021465949056 3.6302367140931766
13.675231780930318 2.0889338620171314 5.781457775986338 5.804840142926849
20.14873364121538 2.497448921899168 9.215891897909403 8.435392821406813
27.999744612011515 2.9542148667183987 13.569798555143985 11.475731190149146
37.14813531313862 3.475764392940879 18.76407131482243 14.908299605375309
47.88868142462627 4.076030852917211 25.077436303022896 18.735214268686153
60.003062202841 4.7491474176378965 32.281758142293604 22.972156642909507
73.3895223191847 5.397878254526712 40.42855451270906 27.563089551948913
87.19892357486447 5.689135502902934 49.25037786478717 32.259410207174355
98.74818454793999 5.09925807501692 57.25538413111734 36.39354234180575
104.23997653712925 3.8876154267724674 61.697961045174196 38.654400065182614
99.80953654842844 3.88850347834824 58.77276024893328 37.14827282114694
108.30131953206373 21.27759302383738 52.88463341934283 34.13909308888353
99.80953654840437 3.8885034783397856 58.772760248922886 37.148272821141745
104.23997653709824 3.887615426774736 61.69796104515202 38.65440006517147
98.74818454789647 5.099258075023267 57.25538413108414 36.39354234178905
87.19892357480153 5.689135502897996 49.25037786474918 32.25941020715433
73.38952231912513 5.397878254530732 40.428554512667816 27.56308955192655
60.00306220277672 4.749147417635323 32.28175814225432 22.972156642887096
47.88868142456012 4.076030852909688 25.077436302986257 18.735214268664198
37.14813531307849 3.4757643929392597 18.764071314786683 14.90829960535254
27.999744611960082 2.954214866717199 13.569798555114224 11.475731190128677
20.148733641168405 2.4974489218964915 9.21589189788395 8.435392821387971
13.675231780892572 2.0889338620128637 5.7814577759678425 5.804840142911865
8.545631343743588 1.7073731637246674 3.208021465936928 3.6302367140819953
4.797319984839175 1.34600567030605 1.4880501422501797 1.9632641722829454
2.365435281541804 1.013397259968306 0.5212442844561451 0.8307937371173535
1.0131833277217506 0.6944572143679153 0.10170872718236486 0.2170173861714703
0.44352079832916164 0.43198591342974596 0.0017764858586357863 0.00975839904077966
0.24036413398139267 0.24101535901989923 -0.00010116149897133729 -0.0005500635395351255
0.12765607449444905 0.12765607449444905 0.0 0.0
0.04858505179795148 0.04858505179795148 0.0 0.0
0.01216865810917901 0.01216865810917901 0.0 0.0
0.0059008880226278345 0.0059008880226278345 0.0 0.0
0.033417940130896384 0.033417940130896384 0.0 0.0
0.11075548347110947 0.11075548347110947 0.0 0.0
0.25093907813227156 0.2523443386413633 -0.00022908936401232834 -0.0011761711450793174
0.543205353177522 0.49292546741386145 0.0111191553216236 0.03916073044203715
1.343406696267861 0.8022940784457531 0.1911977448110349 0.34991487301107294
2.995133800585154 1.1155260706761305 0.7435842473891546 1.1360234825198676
5.892401745029743 1.4789265411421675 1.9660227698244466 2.447452434063131
10.219888958086269 1.8787792115183262 4.0061123914167585 4.334997355151186
16.13839589034751 2.3156846111547704 7.035085106102625 6.787626173090111
23.654444064935237 2.7938868637152954 11.096008681174297 9.764548520045636
32.733216919093806 3.3252531207785156 16.18208879573986 13.225875002575425
43.54321406166179 3.9343812553644644 22.46300150869773 17.14583129759958
55.85887741448304 4.617894165091325 29.711506782874796 21.529476466516904
69.89271542575261 5.3223700387954676 38.23190892968169 26.338436457275467
85.18975465542874 5.947859118551427 47.76438907625776 31.477506460619544
100.78907216454333 6.248350394297794 57.843317682256426 36.6974040879891
114.18999045398535 5.618350564102389 67.19558669045229 41.37605319943065
121.10262400321045 3.9580195324610727 72.98644918319602 44.158155287553384
117.52116947686565 3.9714171164358953 70.57922353502819 42.970528825401566
128.25629526401102 23.879284356398955 64.39187608283684 39.985134824775194
117.52116947684269 3.9714171164344743 70.5792235350137 42.970528825394496
121.10262400316509 3.9580195324571097 72.98644918316815 44.158155287539884
114.18999045392235 5.618350564098935 67.19558669041243 41.37605319941094
100.78907216447668 6.248350394297851 57.84331768221223 36.697404087966646
85.18975465535382 5.947859118547776 47.76438907621112 31.477506460594924
69.89271542568045 5.322370038794054 38.23190892963597 26.338436457250413
55.858877414414785 4.617894165091746 29.71150678283137 21.52947646649166
43.54321406159318 3.934381255363886 22.463001508655605 17.145831297573682
32.73321691902688 3.3252531207705758 16.18208879570423 13.22587500255209
23.65444406488343 2.7938868637136496 11.096008681145062 9.764548520024716
16.138395890307727 2.315684611153429 7.03508510608109 6.787626173073203
10.219888958056421 1.8787792115152453 4.006112391402581 4.334997355138597
5.892401745009797 1.4789265411390107 1.9660227698161623 2.4474524340546226
2.9951338005735413 1.1155260706745356 0.7435842473848792 1.136023482514126
1.3434066962626734 0.8022940784438335 0.1911977448097299 0.34991487300911045
0.5432053531758534 0.49292546741281384 0.011119155321404197 0.039160730441635365
0.2509390781319422 0.2523443386409521 -0.00022908936400100103 -0.0011761711450089358
0.11075548347093013 0.11075548347093013 0.0 0.0
0.03341794013086715 0.03341794013086715 0.0 0.0
0.005900888022614092 0.005900888022614092 0.0 0.0
0.0028003213555059347 0.0028003213555059347 0.0 0.0
0.023012367924740193 0.023012367924740193 0.0 0.0
0.1015131570864999 0.1015131570864999 0.0 0.0
0.27902801690748225 0.2808818467812919 -0.0005219314577892064 -0.0013318984160204913
0.6965312264416157 0.5797637470396773 0.03438222231914449 0.0823852570827941
1.7196930542683293 0.8957682479595446 0.2994416188540093 0.5244831874547756
3.706585599725692 1.220062764207424 1.0275250120736186 1.4589978234446472
7.026977844940668 1.606320301008245 2.4749040285084596 2.9457535154239642
11.956269829217662 2.0484928966411036 4.861595453953598 5.046181478622962
18.654784268478984 2.5475804150501915 8.33451752815904 7.77268632526976
27.211236683496246 3.100626722532965 13.013401871820484 11.097208089142796
37.692725698912646 3.721832531843337 18.99128710670824 14.97960606036106
49.91118131593758 4.424301945804554 26.08764320747774 19.399236162655317
64.13230362895385 5.180434721004895 34.6239846353734 24.327884272575545
80.05085255263477 5.9161233359673915 44.42780311071377 29.706926105953613
97.08758279104008 6.464137058567571 55.25243590832082 35.37100982415167
114.1319430609896 6.63117924617881 66.5032385742746 40.997525240536206
129.28777876292946 6.2132639773330425 77.0049413490695 46.06957343652694
138.2626970455217 4.367295816703994 84.35322679326883 49.542174435548795
136.48590928916684 3.763456558100124 83.58114562932188 49.14130710174486
150.02920651824462 25.352538200814678 78.08734783408558 46.58932048334438
136.48590928913822 3.7634565580966037 83.58114562930474 49.14130710173687
138.2626970454781 4.367295816709288 84.35322679323585 49.54217443553293
129.28777876286472 6.213263977338412 77.00494134902208 46.06957343650425
114.13194306090115 6.631179246168649 66.5032385742221 40.99752524051034
97.08758279095514 6.464137058565433 55.252435908266165 35.37100982412358
80.05085255255162 5.916123335962267 44.42780311066292 29.7069261059264
64.13230362886787 5.180434720998343 34.623984635322536 24.32788427254699
49.91118131586201 4.424301945803493 26.087643207430975 19.399236162627503
37.692725698843546 3.7218325318423173 18.991287106666668 14.979606060334557
27.211236683437356 3.1006267225295305 13.013401871787561 11.097208089120269
18.654784268432945 2.547580415047233 8.334517528134468 7.7726863252512395
11.95626982918311 2.04849289663718 4.861595453937041 5.0461814786088866
7.026977844917363 1.6063203010048177 2.4749040284984254 2.945753515414123
3.706585599712911 1.220062764206373 1.0275250120682753 1.4589978234382637
1.7196930542618531 0.8957682479575757 0.29944161885210835 0.5244831874521692
0.6965312264394817 0.57976374703866 0.03438222231874741 0.08238525708207448
0.2790280169069721 0.2808818467806118 -0.0005219314577667098 -0.0013318984158729274
0.10151315708630783 0.10151315708630783 0.0 0.0
0.023012367924691565 0.023012367924691565 0.0 0.0
0.0028003213555070185 0.0028003213555070185 0.0 0.0
0.0008402179387026107 0.0008402179387026107 0.0 0.0
0.016738879545476117 0.016738879545476117 0.0 0.0
0.10581844185610265 0.10581844185610265 0.0 0.0
0.3409360597910379 0.3378229055514817 0.00022370462989887516 0.0028894496096572627
0.9177125185242723 0.7067762306342154 0.06972417710557342 0.1412121107844833
2.190231229353854 1.0939157071161394 0.4156088902297454 0.6807066320079689
4.519084150021915 1.5267270818453906 1.2691084376290864 1.7232486305474384
8.310800246799278 2.0832863565234296 2.89424538573362 3.333268504542231
13.88764688508668 2.7805047441313864 5.516272985150249 5.59086915580505
21.533562355317578 3.6516170642135313 9.359547193107904 8.522398097996138
31.38075999550634 4.723305669103203 14.548985461599884 12.108468864803253
43.36206498674877 6.009410002753997 21.03771393870384 16.314941045290954
57.60066128982986 7.494495743361513 28.999308207085072 21.106857339383282
74.00189091447223 9.132532790153926 38.423079989338696 26.446278134979586
92.17204270457866 10.70634836401326 49.226027008465415 32.239667332099984
111.1872373193782 11.836803744340232 61.07505663112566 38.27537694391231
129.43559499031025 12.089799683253577 73.14203785163195 44.203757455424714
144.9871052233218 11.346254255069763 84.1827829186225 49.458068049629574
155.91930426433078 10.213383469163118 92.41584102647353 53.290079768694156
151.97752400224476 3.8251002834252734 94.03659534642952 54.115828372389934
213.70942326156768 69.72840103179482 91.29434011228899 52.68668211748394
151.9775240022273 3.825100283436445 94.03659534641 54.11582837238085
155.91930426426933 10.213383469154033 92.41584102643733 53.2900797686779
144.98710522323796 11.346254255063341 84.18278291856996 49.45806804960476
129.43559499022075 12.089799683254341 73.14203785157133 44.20375745539512
111.18723731929182 11.836803744345193 61.07505663106481 38.27537694388172
92.17204270447634 10.706348363995192 49.22602700841021 32.23966733207097
74.00189091438324 9.132532790155121 38.4230799892804 26.44627813494773
57.60066128973903 7.494495743349728 28.999308207035185 21.106857339354157
43.36206498666756 6.009410002744756 21.037713938659426 16.314941045263375
31.380759995436627 4.723305669093238 14.548985461564103 12.108468864779296
21.53356235526686 3.6516170642104004 9.3595471930804 8.522398097976065
13.887646885048117 2.7805047441263624 5.516272985131792 5.590869155789965
8.31080024677346 2.0832863565201665 2.8942453857220034 3.333268504531291
4.519084150005825 1.526727081841899 1.2691084376231818 1.7232486305407448
2.190231229345592 1.0939157071139158 0.41560889022731606 0.6807066320043593
0.9177125185215549 0.706776230633269 0.06972417710492586 0.14121211078336027
0.3409360597902833 0.3378229055507652 0.0002237046298958589 0.0028894496096221944
0.1058184418559617 0.1058184418559617 0.0 0.0
0.016738879545460293 0.016738879545460293 0.0 0.0
0.0008402179386856183 0.0008402179386856183 0.0 0.0
CELL_DATA 800
SCALARS Stress float 6
LOOKUP_TABLE default
162.7653871988207 -514.7625880506106 -182.01940812779284 -108.84667178296205 0.0 0.0
400.3378151299828 -60.72820458544163 116.19940885783146 56.571977896898545 0.0 0.0
402.65631959401253 9.355312809741804 123.40730371622156 -3.410606994870154 0.0 0.0
462.30336909953314 -11.975341972081857 141.70480097841906 -14.539341131102411 0.0 0.0
538.0139754714417 -17.256249325691435 193.3726264734805 -11.54255807242596 0.0 0.0
610.2326016269018 -11.882673857684075 264.5824901766862 -10.018402559265295 0.0 0.0
680.2407602139258 -5.011980839712258 323.7148686304942 -10.338369054710713 0.0 0.0
750.5957571888828 9.639186439431306 374.1916828342322 -11.750493604867938 0.0 0.0
822.9425113314896 31.723694403087677 423.7206666220389 -13.309375955231957 0.0 0.0
897.4095304908573 60.45455188854275 476.112882819676 -14.40227821122436 0.0 0.0
972.7260396286663 93.81262217458442 530.8934545593229 -14.891814137545266 0.0 0.0
1047.6627733181747 130.65641430693427 587.1090358425265 -14.826679968584092 0.0 0.0
1122.1973951108157 169.59958459402566 644.0775552695854 -14.602739617615661 0.0 0.0
1197.154743379441 211.22346182283462 702.5186284419287 -14.315245941011467 0.0 0.0
1273.2125049376323 256.3240750537608 763.2031626660745 -13.84441138298824 0.0 0.0
1349.7698601601671 304.56995783515663 825.6859262374346 -12.998346534974536 0.0 0.0
1424.5127514690348 354.3031092529743 887.993485858099 -11.612613923703728 0.0 0.0
1494.5453175766602 403.4416842324976 947.6250714638519 -9.831626758375744 0.0 0.0
1557.805430102896 450.91665238960866 1002.9606190069742 -8.782062911663774 0.0 0.0
1639.9604119764895 524.3952484710388 1080.2424529430805 -12.911016010634523 0.0 0.0
1639.9604119758524 524.3952484703913 1080.2424529426696 12.911016010573876 0.0 0.0
1557.8054301020793 450.91665238883184 1002.9606190063761 8.782062911671046 0.0 0.0
1494.5453175766083 403.4416842325139 947.6250714638288 9.831626758400429 0.0 0.0
1424.512751468903 354.3031092529437 887.9934858579904 11.61261392374039 0.0 0.0
1349.769860160802 304.5699578359153 825.6859262377909 12.998346535040056 0.0 0.0
1273.2125049372316 256.3240750535015 763.2031626656526 13.844411382972442 0.0 0.0
1197.1547433784801 211.22346182202762 702.5186284411524 14.315245941058338 0.0 0.0
1122.1973951093978 169.59958459279 644.0775552685704 14.602739617714866 0.0 0.0
1047.6627733166233 130.65641430558887 587.1090358414112 14.82667996847182 0.0 0.0
972.7260396275975 93.81262217373882 530.8934545585328 14.891814137596056 0.0 0.0
897.4095304905618 60.454551888498685 476.11288281942444 14.40227821124621 0.0 0.0
822.9425113310552 31.723694402897962 423.7206666217309 13.309375955201995 0.0 0.0
750.5957571885219 9.639186439336797 374.1916828339882 11.7504936049621 0.0 0.0
680.2407602129497 -5.011980840418332 323.7148686298426 10.33836905483365 0.0 0.0
610.2326016263111 -11.882673858014314 264.5824901762258 10.018402559302757 0.0 0.0
538.0139754711317 -17.25624932573217 193.37262647323615 11.542558072496028 0.0 0.0
462.3033690993058 -11.975341972111806 141.70480097832674 14.539341131029762 0.0 0.0
402.65631959396256 9.35531280986941 123.40730371624798 3.410606994916394 0.0 0.0
400.3378151298944 -60.72820458548092 116.19940885774842 -56.571977896831214 0.0 0.0
162.7653871993841 -514.7625880500465 -182.0194081272466 108.846671782507 0.0 0.0
63.0832795247164 -543.6522051586255 -242.15480614013165 -155.33585037436268 0.0 0.0
261.35408213293795 -48.22547116137813 63.963205793184656 10.502909970482131 0.0 0.0
352.85178293988525 29.339823545073997 114.65699181915986 -9.99321524332148 0.0 0.0
426.01531939844983 -9.6655331469278 126.80727732550953 -34.45712792040904 0.0 0.0
509.41260864991034 -17.901606055318165 171.45863498075016 -32.78232506122769 0.0 0.0
586.260036670702 -12.945721614749363 243.35016839287462 -29.623718968603026 0.0 0.0
660.0646471934685 -5.96944816760972 308.53490920714165 -30.30287020857276 0.0 0.0
731.4239747850015 8.248710240605064 362.1730722957452 -32.437979422713695 0.0 0.0
802.5932096507418 28.982312350374386 411.49960564947696 -34.83034603278108 0.0 0.0
874.1932369387155 55.23847579034437 461.55457658738146 -36.226594536807426 0.0 0.0
945.2785835402979 85.09532088180494 512.6015357995655 -36.40078633759327 0.0 0.0
1015.4082946107478 117.21453569681682 564.1037815379948 -35.771141200054444 0.0 0.0
1084.8343867287542 151.90726314185753 616.4175559017016 -34.87784289283294 0.0 0.0
1154.6046930725593 189.07552195603733 670.0638474629347 -33.90021209477123 0.0 0.0
1225.00791799373 228.98670628322543 725.3532213002586 -32.61167312108507 0.0 0.0
1295.5377264138947 271.5374683405261 781.9958185503519 -30.603591042111912 0.0 0.0
1364.9280429425612 316.0197722298477 839.0006346567436 -27.667231700930575 0.0 0.0
1431.8079613321743 361.9570344169241 895.420234434888 -24.338715372468126 0.0 0.0
1500.3906030116623 414.89400154774705 956.0244535048835 -21.93980195455665 0.0 0.0
1551.167161740327 456.6949120033445 1002.1568852523761 -20.068471005850565 0.0 0.0
1551.1671617388392 456.69491200184933 1002.156885251262 20.06847100577827 0.0 0.0
1500.3906030108867 414.8940015470091 956.0244535042305 21.93980195458394 0.0 0.0
1431.8079613318484 361.95703441667087 895.4202344345315 24.33871537246506 0.0 0.0
1364.9280429423043 316.0197722296793 839.0006346565089 27.667231700931534 0.0 0.0
1295.5377264133933 271.5374683401408 781.9958185498739 30.60359104217356 0.0 0.0
1225.0079179936326 228.98670628327005 725.3532213000533 32.61167312106974 0.0 0.0
1154.6046930736832 189.07552195733183 670.0638474636089 33.90021209477242 0.0 0.0
1084.8343867287983 151.90726314207942 616.417555901628 34.87784289284789 0.0 0.0
1015.4082946104181 117.21453569668145 564.1037815377402 35.77114119995029 0.0 0.0
945.2785835406768 85.09532088244183 512.6015357998212 36.40078633771407 0.0 0.0
874.1932369386519 55.23847579053998 461.5545765873599 36.22659453681838 0.0 0.0
802.5932096501128 28.98231234998343 411.49960564905064 34.83034603272556 0.0 0.0
731.4239747849284 8.24871024079134 362.1730722956465 32.43797942263495 0.0 0.0
660.0646471928765 -5.969448167905547 308.5349092067212 30.30287020869247 0.0 0.0
586.2600366703708 -12.945721614759151 243.35016839258097 29.62371896859695 0.0 0.0
509.4126086496763 -17.901606055252284 171.4586349805819 32.78232506120305 0.0 0.0
426.01531939828453 -9.66553314687857 126.80727732547618 34.457127920335125 0.0 0.0
352.85178293980476 29.339823544943332 114.65699181909689 9.993215243308457 0.0 0.0
261.3540821331265 -48.22547116096952 63.96320579336642 -10.502909970618125 0.0 0.0
63.08327952499036 -543.6522051583653 -242.1548061398302 155.33585037408733 0.0 0.0
12.799352142425107 -549.9989538922184 -263.2711637597108 -169.8500769065624 0.0 0.0
148.92234866276857 -40.514901040119696 32.52223428679466 -43.27794846012209 0.0 0.0
286.9612667434244 33.064962199182865 96.00786868278219 -33.29476391686134 0.0 0.0
379.2753106600005 -1.2051427590356973 113.83168203760887 -53.915082587461626 0.0 0.0
471.5529736001427 -16.5759317669597 149.89688727871064 -56.18544870613496 0.0 0.0
558.9341182042563 -15.757894524074947 217.7636935127391 -51.132565196455324 0.0 0.0
635.7315591070992 -6.075928043218415 290.0109223034467 -50.59075397905474 0.0 0.0
707.8733592452468 6.9241641212055995 347.1277474391926 -53.05733824493716 0.0 0.0
778.2906389787178 26.33037882080486 397.0585138644526 -55.89314029528169 0.0 0.0
846.9704956868429 49.808562330268316 444.79130495837614 -57.32207645979859 0.0 0.0
913.9422356244031 75.90430816617301 492.0730292737599 -57.130852192863635 0.0 0.0
979.2240226680226 104.01650591883111 539.2205312951332 -55.94096136088375 0.0 0.0
1043.8702903397404 133.98273462298363 586.8186105175905 -54.5513010351577 0.0 0.0
1108.2794255289987 166.45377694899437 635.4700061514268 -52.947779460813564 0.0 0.0
1172.8366056703358 200.99675771249406 685.1852579923861 -50.87410434608078 0.0 0.0
1237.3791917050698 237.67951811403572 735.9208150684365 -47.906205476081894 0.0 0.0
1301.625043585174 276.91953636306783 787.7250483595997 -43.86205894116541 0.0 0.0
1366.6954702489224 320.85380472108676 842.1962400006923 -39.294264949088735 0.0 0.0
1427.6912205217159 365.75164240561304 895.0583455933061 -34.0552010666495 0.0 0.0
1470.615410629761 398.73217673261695 932.9087771877385 -26.261988013932097 0.0 0.0
1470.6154106304605 398.73217673335057 932.9087771882726 26.261988014061302 0.0 0.0
1427.6912205224182 365.75164240637383 895.0583455938588 34.05520106684577 0.0 0.0
1366.6954702484186 320.85380472066413 842.1962400003891 39.294264949141876 0.0 0.0
1301.6250435851437 276.91953636312473 787.7250483595722 43.86205894118332 0.0 0.0
1237.3791917053613 237.67951811446824 735.9208150685755 47.906205476185434 0.0 0.0
1172.83660567131 200.996757713627 685.1852579930578 50.87410434617459 0.0 0.0
1108.2794255286526 166.4537769487934 635.4700061511786 52.94777946080727 0.0 0.0
1043.8702903384828 133.98273462189078 586.8186105167063 54.551301035162176 0.0 0.0
979.2240226676971 104.0165059186823 539.2205312948673 55.94096136076841 0.0 0.0
913.9422356238008 75.90430816579658 492.0730292733781 57.13085219292928 0.0 0.0
846.9704956861577 49.80856232980088 444.79130495792464 57.322076459724926 0.0 0.0
778.2906389783731 26.330378820717996 397.0585138642286 55.89314029529769 0.0 0.0
707.8733592447933 6.924164121012481 347.12774743887024 53.057338244858656 0.0 0.0
635.7315591070042 -6.075928042950537 290.01092230329823 50.590753979204734 0.0 0.0
558.9341182038065 -15.757894524196018 217.76369351238037 51.13256519645631 0.0 0.0
471.5529735998042 -16.575931767064827 149.89688727849847 56.185448705978295 0.0 0.0
379.27531065979923 -1.2051427589780097 113.83168203757904 53.91508258735114 0.0 0.0
286.96126674338814 33.06496219898431 96.00786868271172 33.29476391686561 0.0 0.0
148.92234866295217 -40.51490103979091 32.522234286948375 43.27794845986588 0.0 0.0
12.799352142619483 -549.9989538919116 -263.271163759421 169.8500769064255 0.0 0.0
-5.993362172135761 -536.7644087035798 -257.8475230423499 -172.04590810561376 0.0 0.0
86.98899017850401 -40.49774197546203 13.94737446091259 -88.79029382398748 0.0 0.0
224.53073711529962 30.576166337010214 76.53207103569295 -64.14567551544964 0.0 0.0
327.28512047093255 6.302134985476954 100.0726688802457 -75.04796681396869 0.0 0.0
423.99760084198357 -14.091417877801762 128.8347643980859 -81.64739269133216 0.0 0.0
520.7473928656244 -16.676345587217696 189.47429527180043 -74.64529509734352 0.0 0.0
604.5092696976553 -7.548938271374098 265.1652002385162 -71.66722404289169 0.0 0.0
679.7244393172335 6.214993122779717 328.74972077178336 -73.72836651587352 0.0 0.0
749.1820504111229 23.535261553410727 379.60300511767707 -76.46880940609235 0.0 0.0
815.1651735521812 44.151210078372 425.4287831915519 -77.69494211578045 0.0 0.0
878.2311729293065 66.58808352063966 469.21434153796275 -77.08931349671072 0.0 0.0
939.1118583695178 90.56400630432597 512.1979246997455 -75.4246966672114 0.0 0.0
998.578449049109 116.08727351671197 555.0373382907597 -73.5413884462069 0.0 0.0
1057.896069730876 143.61810158752647 598.7169618253979 -71.43608768524373 0.0 0.0
1116.7052716208887 172.55321246055885 642.792801120898 -68.69376448922424 0.0 0.0
1174.9649607160488 203.3547658471348 687.4698592008216 -64.95147240334826 0.0 0.0
1234.2539145572118 237.4142160303403 734.2042671875383 -60.16359797090809 0.0 0.0
1294.319681760875 275.7528344184564 783.3853992241737 -54.27709278278994 0.0 0.0
1350.1358218675414 314.34664315330303 830.528087159081 -45.984148345517625 0.0 0.0
1390.2953477313877 342.85958687428933 864.7749419932172 -32.81150082254304 0.0 0.0
1390.2953477306417 342.8595868735481 864.7749419927204 32.81150082257156 0.0 0.0
1350.1358218662574 314.3466431520558 830.5280871582568 45.98414834559201 0.0 0.0
1294.3196817597739 275.75283441740964 783.3853992234281 54.27709278279038 0.0 0.0
1234.2539145559756 237.414216029172 734.2042671865362 60.163597970897875 0.0 0.0
1174.9649607150218 203.35476584620966 687.4698591999769 64.95147240335783 0.0 0.0
1116.70527161984 172.5532124596188 642.7928011201359 68.69376448922637 0.0 0.0
1057.8960697310604 143.618101587902 598.7169618254676 71.43608768534583 0.0 0.0
998.5784490484037 116.08727351615107 555.037338290243 73.54138844614255 0.0 0.0
939.1118583688798 90.56400630381611 512.1979246991754 75.42469666705159 0.0 0.0
878.2311729295592 66.58808352110341 469.2143415380047 77.08931349667394 0.0 0.0
815.1651735513768 44.15121007775588 425.42878319098025 77.69494211565123 0.0 0.0
749.18205041028 23.535261552765647 379.6030051170887 76.46880940598139 0.0 0.0
679.7244393169564 6.214993122795292 328.74972077155076 73.72836651585166 0.0 0.0
604.5092696972522 -7.548938271473304 265.1652002381745 71.66722404286894 0.0 0.0
520.747392864857 -16.676345587753524 189.47429527125084 74.64529509725857 0.0 0.0
423.99760084176364 -14.091417877579833 128.83476439804227 81.64739269126763 0.0 0.0
327.2851204708104 6.302134985452122 100.07266888020877 75.04796681376583 0.0 0.0
224.53073711530092 30.576166336974193 76.53207103568253 64.1456755152959 0.0 0.0
86.98899017863505 -40.49774197517406 13.94737446103829 88.79029382382522 0.0 0.0
-5.993362172024334 -536.7644087033459 -257.8475230420968 172.0459081054593 0.0 0.0
-9.984674304317565 -512.2019032424564 -237.92409385272606 -169.7997094495499 0.0 0.0
51.84242347764516 -41.58837341663094 3.07621501830427 -124.21206316749648 0.0 0.0
170.72984278315872 25.227470464059785 58.787193974165554 -95.26291308484045 0.0 0.0
272.26376224971534 10.74398432936512 84.90284311163842 -97.67163273837119 0.0 0.0
366.5845602915437 -9.22422848921458 109.14848064275165 -106.66024235066459 0.0 0.0
471.3060641132711 -16.80266828383829 159.4494188312472 -101.34395574810578 0.0 0.0
565.7372138558198 -9.52639079132698 234.38607301185664 -94.64186128123076 0.0 0.0
645.2392466623593 5.044653615583908 304.87083223801295 -94.47704776024912 0.0 0.0
714.5893869526632 20.84066807977684 358.4523887908547 -96.60124947010596 0.0 0.0
778.1079686900076 38.28933070690233 402.9670186658377 -97.39668227930984 0.0 0.0
837.6305744353973 57.126627520791935 443.6757477255089 -96.31165180021173 0.0 0.0
893.9988522130777 76.98037774808628 482.5214752776502 -94.17001592549973 0.0 0.0
948.6285149093153 98.04084642113403 520.8084381418765 -91.94567368900438 0.0 0.0
1002.2913155357812 120.62280001011007 559.2367230341818 -89.3401873010419 0.0 0.0
1055.4800419976636 144.20821323187332 597.8665536734832 -86.01860468335359 0.0 0.0
1108.2759870750756 169.05466390188892 636.8744806931438 -81.78285312052702 0.0 0.0
1161.051318887175 196.59292461207576 677.1215928413951 -76.41289027012196 0.0 0.0
1215.1483266641217 228.17700826391376 719.9554601790335 -69.37911051372835 0.0 0.0
1267.0635621178749 261.0577821661526 762.2912901265966 -58.351358223553355 0.0 0.0
1307.3468207420897 287.11844226997107 795.3536868070986 -40.27441411761247 0.0 0.0
1307.3468207429885 287.1184422708999 795.3536868076812 40.274414117734295 0.0 0.0
1267.0635621188285 261.057782167222 762.2912901272114 58.35135822381329 0.0 0.0
1215.1483266639914 228.1770082638572 719.955460178885 69.37911051380567 0.0 0.0
1161.0513188873283 196.59292461236066 677.1215928414308 76.41289027024843 0.0 0.0
1108.275987075689 169.0546639026305 636.8744806934778 81.7828531205839 0.0 0.0
1055.4800419970832 144.20821323143403 597.8665536730515 86.01860468340365 0.0 0.0
1002.2913155349776 120.62280000946777 559.236723033653 89.34018730112298 0.0 0.0
948.6285149089813 98.04084642096004 520.8084381416353 91.94567368901431 0.0 0.0
893.9988522134006 76.98037774873393 482.5214752778296 94.17001592578286 0.0 0.0
837.6305744358472 57.126627521484 443.67574772575244 96.31165180020994 0.0 0.0
778.1079686895572 38.2893307066514 402.96701866553474 97.39668227923585 0.0 0.0
714.5893869521625 20.840668079522004 358.4523887905194 96.60124947006662 0.0 0.0
645.2392466623022 5.044653615862416 304.87083223790984 94.47704776026747 0.0 0.0
565.7372138558144 -9.526390790877436 234.38607301178033 94.64186128135455 0.0 0.0
471.30606411307656 -16.802668283617628 159.44941883111701 101.3439557480794 0.0 0.0
366.5845602911499 -9.224228489259765 109.14848064261466 106.66024235050114 0.0 0.0
272.26376224964025 10.743984329504599 84.90284311166417 97.6716327382315 0.0 0.0
170.7298427832639 25.227470464226855 58.787193974247224 95.26291308456716 0.0 0.0
51.84242347769588 -41.588373416420104 3.0762150183827313 124.21206316723175 0.0 0.0
-9.984674304236435 -512.201903242253 -237.9240938524863 169.79970944937023 0.0 0.0
-7.30397258868183 -480.06650007541367 -209.87992179624683 -166.30313554953412 0.0 0.0
30.406015107676247 -42.09766262149082 -3.5074942541443717 -150.55724235263784 0.0 0.0
124.75184219479186 19.003601388940577 43.12663307511973 -122.78768624136741 0.0 0.0
216.5419610433329 12.589686000501365 68.7355176545667 -120.27280215580424 0.0 0.0
303.54690521182647 -3.528637476598232 90.55671041338707 -129.67310813127673 0.0 0.0
405.8752512162881 -15.471595920193463 128.63604589770844 -130.03638431235058 0.0 0.0
511.72997607995774 -10.380559856019467 197.4924193297904 -120.54744670782935 0.0 0.0
600.0999423186908 2.4733356292789104 272.10336795708656 -116.34510037788071 0.0 0.0
672.8345721945384 17.795236890084205 331.68813752804226 -116.55831058127174 0.0 0.0
734.6716167590819 32.39929707033964 376.48257301646674 -116.44036541331124 0.0 0.0
790.6097757016761 47.4188806529353 414.46052777914326 -114.82159310282474 0.0 0.0
842.8410940408692 63.32474567675412 449.62951335463663 -112.23818258481407 0.0 0.0
892.4596323718881 80.0550804480111 483.41056729539343 -109.6451682119323 0.0 0.0
940.6536531947063 97.48823697947934 516.6230799800552 -106.77189883475714 0.0 0.0
988.4601658945626 115.83833411044206 549.9859066092397 -103.0210036852397 0.0 0.0
1035.184576166168 135.17191544849965 583.2494117135564 -98.19760343201058 0.0 0.0
1081.2774993930248 155.27960213820987 616.5095016349749 -92.47477169571069 0.0 0.0
1128.3188823750233 178.55265783819522 651.6929255910404 -84.77171737636031 0.0 0.0
1176.4532603581529 205.47005880229267 689.1336616240249 -71.64436028112347 0.0 0.0
1219.1072964941472 230.21142194193212 722.6627372616371 -49.24599723800188 0.0 0.0
1219.107296494437 230.21142194223123 722.66273726185 49.24599723807623 0.0 0.0
1176.4532603576915 205.47005880191324 689.1336616237578 71.64436028131954 0.0 0.0
1128.3188823749672 178.55265783820943 651.6929255910376 84.77171737645223 0.0 0.0
1081.277499393598 155.27960213897066 616.5095016354215 92.47477169593853 0.0 0.0
1035.184576166656 135.1719154491635 583.2494117138621 98.19760343215972 0.0 0.0
988.4601658949014 115.83833411097936 549.9859066094111 103.02100368539823 0.0 0.0
940.653653195472 97.48823698049605 516.6230799804972 106.77189883490823 0.0 0.0
892.4596323721079 80.05508044840465 483.41056729545744 109.64516821196419 0.0 0.0
842.8410940407593 63.32474567692813 449.6295133545422 112.23818258495571 0.0 0.0
790.6097757006844 47.41888065206166 414.46052777845955 114.82159310271706 0.0 0.0
734.671616758805 32.39929707024646 376.48257301621123 116.44036541317101 0.0 0.0
672.834572194279 17.79523689011451 331.6881375278197 116.55831058129948 0.0 0.0
600.0999423186518 2.4733356296640494 272.103367956976 116.34510037797506 0.0 0.0
511.7299760796804 -10.380559855854877 197.4924193295563 120.54744670789105 0.0 0.0
405.8752512155225 -15.471595920744505 128.6360458972419 130.03638431219645 0.0 0.0
303.5469052114104 -3.5286374769931586 90.55671041315021 129.67310813112127 0.0 0.0
216.5419610433537 12.589686000906505 68.73551765469591 120.27280215576437 0.0 0.0
124.75184219487885 19.003601389051067 43.12663307517897 122.78768624127348 0.0 0.0
30.406015107682116 -42.0976626212992 -3.507494254085124 150.55724235249266 0.0 0.0
-7.3039725886425515 -480.06650007509467 -209.87992179597396 166.3031355494934 0.0 0.0
-1.69781443547636 -441.89161623444835 -177.33826755912617 -162.84866051870696 0.0 0.0
15.155024370684469 -42.62122744993087 -8.239917506999376 -168.98993032412406 0.0 0.0
84.23663355650194 13.055403949596581 29.18761125182955 -145.1273537365371 0.0 0.0
161.26802129132565 13.787219009611686 52.51344851259402 -140.9706391019422 0.0 0.0
237.01073510121466 0.8476882026342907 71.64167460136 -150.17995659471103 0.0 0.0
328.32969338591045 -11.31583909297136 99.48187998189904 -157.7415259918849 0.0 0.0
439.098234187534 -10.89434949584068 155.3654220324447 -149.98166946014157 0.0 0.0
539.4171194945745 0.15786035433574686 229.34476530159282 -140.60096102619158 0.0 0.0
618.7715859170523 13.569440105316872 294.8338516777255 -137.00964974592307 0.0 0.0
682.0159768374238 26.29204882289814 343.4064021419183 -135.06468084563846 0.0 0.0
734.8524587391166 37.489572673229034 379.8903230828948 -132.65629230050047 0.0 0.0
783.1667647168614 49.65814964024544 412.06236213903287 -129.6324200773805 0.0 0.0
827.8788395131122 62.041111379144276 441.58578601830595 -126.72923245790545 0.0 0.0
870.3470178426379 74.59177857960638 469.7028677238057 -123.64862757618215 0.0 0.0
912.0239140954068 87.37765515846793 497.2933252616714 -119.71214825294352 0.0 0.0
954.0620151949224 101.56051551568801 525.6814453529521 -114.43823582861891 0.0 0.0
993.2212521305652 114.61644750431094 552.0622184845362 -108.11850736603276 0.0 0.0
1031.30962204254 127.91988562366531 577.8715547185183 -100.30802140144496 0.0 0.0
1074.862202674323 146.67492613340622 608.8959265644141 -86.36001455628318 0.0 0.0
1122.140212669026 170.65418761641067 644.2328778088864 -60.61299417433874 0.0 0.0
1122.1402126689252 170.65418761634425 644.2328778087747 60.61299417449713 0.0 0.0
1074.8622026736944 146.67492613287004 608.8959265639855 86.36001455645192 0.0 0.0
1031.3096220416364 127.9198856228661 577.8715547178081 100.30802140161774 0.0 0.0
993.2212521299047 114.6164475037337 552.0622184840022 108.11850736612604 0.0 0.0
954.0620151945546 101.56051551542734 525.681445352675 114.43823582857226 0.0 0.0
912.0239140944766 87.37765515763593 497.2933252610194 119.7121482529384 0.0 0.0
870.3470178413148 74.59177857829252 469.70286772293605 123.64862757603896 0.0 0.0
827.8788395127439 62.04111137887284 441.58578601809336 126.7292324578747 0.0 0.0
783.1667647157972 49.65814963921865 412.0623621383248 129.6324200771976 0.0 0.0
734.8524587389038 37.489572673211 379.890323082733 132.65629230048066 0.0 0.0
682.0159768372073 26.292048822845686 343.40640214174965 135.06468084552367 0.0 0.0
618.7715859166676 13.569440105235756 294.8338516774564 137.0096497459242 0.0 0.0
539.4171194943281 0.1578603543877648 229.3447653013292 140.60096102611834 0.0 0.0
439.09823418703365 -10.894349496065269 155.3654220321008 149.98166946006222 0.0 0.0
328.32969338511685 -11.315839093573917 99.48187998146321 157.7415259917193 0.0 0.0
237.01073510136624 0.8476882032442763 71.64167460159068 150.179956594504 0.0 0.0
161.26802129107367 13.787219009361184 52.51344851244427 140.97063910171408 0.0 0.0
84.23663355640853 13.055403949385749 29.187611251738282 145.12735373627234 0.0 0.0
15.155024370576701 -42.62122744999395 -8.239917507050567 168.9899303238811 0.0 0.0
-1.697814435466391 -441.89161623418005 -177.33826755890047 162.84866051865066 0.0 0.0
3.1323181565021443 -399.157607535291 -144.9092536413675 -160.17559139027932 0.0 0.0
0.7925709920574429 -43.69179606684379 -12.86901092656869 -179.7608307917313 0.0 0.0
47.2035292586837 8.277954415251175 16.644042030932916 -162.26768638722422 0.0 0.0
107.30609826615198 15.057208176109878 36.7075221965388 -158.235916449056 0.0 0.0
168.13604870327964 3.6811540495556585 51.71615267226866 -168.26554427712708 0.0 0.0
239.07821993753052 -5.341737674925946 71.92772618164742 -179.8289376659741 0.0 0.0
340.1579520473823 -8.917864616387355 110.71517353392207 -181.24214398821275 0.0 0.0
452.94450919547023 -1.8670184987790708 174.86007685343367 -169.31751109379016 0.0 0.0
544.4351690960999 8.723226471751323 242.68693543472307 -159.54489378913664 0.0 0.0
612.1441833596598 19.301902973611575 296.8925087284644 -153.8239765573657 0.0 0.0
664.8699703271999 27.259593259610263 335.48124771593535 -150.15407199960964 0.0 0.0
709.1978357671776 35.725783128304116 365.8811945585281 -146.43825409589346 0.0 0.0
749.117968794016 44.26722827450576 392.13851295792534 -143.16843531288995 0.0 0.0
785.7996040718522 51.952129094228916 415.48640577581193 -139.97022141250807 0.0 0.0
821.2861802767645 59.231559853646345 437.5175890160086 -136.16600234381104 0.0 0.0
857.5154427246976 67.53307284139585 460.11267578206633 -130.65859035089437 0.0 0.0
893.0205284985888 75.69832882142201 482.30081282352677 -123.45872569917778 0.0 0.0
921.5281100971802 78.3088054377089 498.2394464628455 -115.50469275245369 0.0 0.0
955.0342485193919 83.7737272343625 517.5714660485485 -102.53665132244883 0.0 0.0
1008.264592556955 106.0565350291104 554.7558355268279 -75.63695910576365 0.0 0.0
1008.2645925569497 106.0565350292793 554.7558355268721 75.6369591061503 0.0 0.0
955.0342485190655 83.77372723409297 517.5714660483223 102.53665132256037 0.0 0.0
921.5281100975632 78.30880543827993 498.2394464631052 115.50469275273872 0.0 0.0
893.020528498332 75.69832882131612 482.30081282332225 123.45872569933138 0.0 0.0
857.5154427238361 67.533072840491 460.11267578143566 130.65859035075562 0.0 0.0
821.2861802775624 59.23155985469245 437.5175890165799 136.16600234398678 0.0 0.0
785.7996040726455 51.95212909533646 415.4864057763556 139.97022141268388 0.0 0.0
749.1179687942981 44.26722827503208 392.1385129580497 143.16843531305858 0.0 0.0
709.1978357676986 35.72578312915462 365.8811945588447 146.43825409604347 0.0 0.0
664.8699703271327 27.259593259802386 335.48124771586424 150.1540719996163 0.0 0.0
612.1441833585137 19.30190297245774 296.8925087276419 153.8239765571259 0.0 0.0
544.4351690952536 8.723226471159641 242.68693543413622 159.54489378918367 0.0 0.0
452.94450919476293 -1.8670184991814054 174.86007685294706 169.3175110937933 0.0 0.0
340.1579520475244 -8.917864615348897 110.71517353417792 181.2421439882574 0.0 0.0
239.07821993757062 -5.341737674213576 71.92772618185948 179.82893766587694 0.0 0.0
168.1360487032216 3.6811540496432302 51.71615267228075 168.26554427690343 0.0 0.0
107.30609826611145 15.057208176302549 36.707522196587874 158.23591644896524 0.0 0.0
47.203529258570896 8.277954415155406 16.64404203087086 162.26768638708253 0.0 0.0
0.7925709920156427 -43.69179606674755 -12.869010926553749 179.76083079154017 0.0 0.0
3.1323181565051783 -399.15760753499075 -144.90925364116168 160.17559139018834 0.0 0.0
2.745865211250951 -352.63852618568603 -117.16087154769036 -156.32912028213428 0.0 0.0
-16.149423536863353 -46.40678358681984 -18.76513698253479 -185.41622151129468 0.0 0.0
12.585482426973426 5.505543295022994 5.427011874741947 -174.4076357843723 0.0 0.0
54.86883816211902 16.095685469586186 21.28824336601113 -171.53148391307923 0.0 0.0
97.51083635700383 7.222984166044963 31.533075394072398 -181.5903754003753 0.0 0.0
144.40866509372213 -1.2575639260336589 43.80289796650712 -196.7972730360006 0.0 0.0
213.86825490706434 -3.5902544457321364 66.80920721399136 -206.30495294892773 0.0 0.0
318.20064865065297 -1.3745035287242935 109.30397261250813 -201.97527450814766 0.0 0.0
425.9740869659833 4.593378885905951 167.65149688623367 -187.57083484242128 0.0 0.0
505.6613476321722 11.005667583414798 223.34605967105514 -174.89567848882282 0.0 0.0
561.5394532634725 17.088756362483295 266.89966162471745 -167.79464726557225 0.0 0.0
603.6434744940541 21.380242766574582 298.41259806176976 -163.0168117827556 0.0 0.0
639.3205930322624 26.42250690502405 323.94291899625625 -159.15817260787145 0.0 0.0
670.2138084544509 29.870585177883513 344.3767515525781 -155.67197064307388 0.0 0.0
698.6822776820248 31.655648719996577 361.40993219808814 -152.01183679097147 0.0 0.0
727.9498773117011 33.12937301415434 377.710472268634 -147.03103895426904 0.0 0.0
761.1190978944451 36.1999187717897 396.190395162668 -139.1354917272976 0.0 0.0
789.9433974482367 35.04495944848588 410.72062295841386 -129.56132405579572 0.0 0.0
805.3509114829802 17.79090897997824 410.1799595515398 -119.06562461775836 0.0 0.0
861.2609687444537 30.616916952044164 443.2085633141163 -96.37684615944403 0.0 0.0
861.2609687444423 30.61691695224181 443.2085633142224 96.37684615987834 0.0 0.0
805.3509114822824 17.790908979424785 410.1799595511794 119.06562461806547 0.0 0.0
789.9433974477482 35.04495944816699 410.72062295810076 129.56132405610697 0.0 0.0
761.1190978949394 36.19991877253281 396.19039516297613 139.13549172752354 0.0 0.0
727.9498773122524 33.12937301501043 377.7104722690409 147.03103895438144 0.0 0.0
698.6822776817227 31.655648719642528 361.4099321978423 152.01183679091173 0.0 0.0
670.2138084528809 29.87058517628384 344.3767515515347 155.6719706430354 0.0 0.0
639.3205930301798 26.422506902605534 323.9429189948273 159.1581726076327 0.0 0.0
603.6434744943489 21.380242766883953 298.41259806184024 163.01681178271457 0.0 0.0
561.5394532639899 17.088756363430704 266.89966162505044 167.79464726562807 0.0 0.0
505.66134763213404 11.005667583528783 223.3460596709308 174.89567848870723 0.0 0.0
425.974086965978 4.593378886569862 167.65149688631055 187.57083484258808 0.0 0.0
318.2006486503111 -1.3745035285153904 109.30397261239827 201.97527450821778 0.0 0.0
213.8682549065814 -3.590254446023428 66.80920721374555 206.30495294878276 0.0 0.0
144.40866509342464 -1.2575639263916454 43.802897966302204 196.79727303567674 0.0 0.0
97.5108363569357 7.222984166021228 31.533075394046282 181.59037540012696 0.0 0.0
54.86883816209134 16.095685469624215 21.28824336601464 171.5314839127594 0.0 0.0
12.585482426962205 5.505543295188913 5.427011874788476 174.40763578408328 0.0 0.0
-16.149423536940112 -46.40678358674783 -18.765136982536983 185.416221511138 0.0 0.0
2.7458652111772395 -352.63852618546696 -117.16087154756504 156.32912028194383 0.0 0.0
-3.713424393666447 -303.2770558805961 -95.33658425451645 -148.96076495905095 0.0 0.0
-34.884417963831034 -50.6871878317412 -25.668733498616273 -188.36891128595238 0.0 0.0
-20.325903204587394 4.513054235021336 -4.744220624407787 -182.0550332702959 0.0 0.0
3.910194876454959 16.950199646608368 6.259285410274526 -180.20383294847161 0.0 0.0
26.588062684429772 11.105915288058831 11.344258373746886 -189.58955657026456 0.0 0.0
46.52957389781433 3.049542213879986 15.155919446094792 -206.14922580234003 0.0 0.0
71.37576516544298 -0.31358452988664354 22.349533294624084 -220.8279616946553 0.0 0.0
112.72140716361037 0.3374592040605773 36.57737723400413 -225.96298229689435 0.0 0.0
179.54018887618585 3.9595102569134077 61.544068779995165 -216.69775633957323 0.0 0.0
253.8085924447349 5.497172798876498 92.54976205982364 -201.96650610717379 0.0 0.0
317.54181139474593 8.70252860217093 127.07430795105019 -188.52503689278862 0.0 0.0
367.7788822448676 8.512889988288407 158.09356511035637 -180.89986029758944 0.0 0.0
403.2522572984081 9.50332923104709 183.891635330844 -174.85726654963145 0.0 0.0
429.6287061692749 8.431018400166536 203.89018387608883 -170.144666929325 0.0 0.0
452.75168814263566 4.923590236386957 219.68782297195986 -166.1807246401684 0.0 0.0
479.65285890636727 -0.9654475595106646 234.06811868662706 -162.09629288258924 0.0 0.0
515.857162290382 -6.1438725381494805 251.21591507818877 -155.53130426343643 0.0 0.0
562.7296577388005 -7.263068367388371 274.725809598464 -144.41365838048668 0.0 0.0
591.6137779678464 -30.56460069371468 279.9089573459072 -131.05118285996326 0.0 0.0
620.2921044670298 -75.14168042072723 269.88239380361875 -121.85903695428365 0.0 0.0
620.292104467179 -75.14168042060271 269.88239380374307 121.85903695436677 0.0 0.0
591.6137779679328 -30.564600693567428 279.9089573459786 131.05118286034912 0.0 0.0
562.7296577393452 -7.26306836648979 274.72580959890854 144.41365838091454 0.0 0.0
515.8571622903828 -6.143872537888029 251.21591507827426 155.53130426364913 0.0 0.0
479.6528589060043 -0.9654475600787009 234.0681186863096 162.09629288256977 0.0 0.0
452.75168814232387 4.923590235866243 219.6878229716548 166.18072464019954 0.0 0.0
429.62870616968553 8.431018400701305 203.89018387636406 170.1446669293951 0.0 0.0
403.2522572989296 9.503329231941976 183.89163533121808 174.8572665498057 0.0 0.0
367.778882245175 8.512889988861474 158.09356511051672 180.89986029767434 0.0 0.0
317.5418113948745 8.702528602601845 127.07430795115674 188.52503689283844 0.0 0.0
253.80859244501693 5.49717279968127 92.54976206009705 201.9665061070484 0.0 0.0
179.5401888761263 3.9595102570935694 61.54406878001335 216.69775633969383 0.0 0.0
112.72140716336844 0.3374592037662829 36.57737723383259 225.96298229689378 0.0 0.0
71.37576516531146 -0.3135845299244293 22.349533294571344 220.82796169441838 0.0 0.0
46.529573897517835 3.049542213302611 15.155919445830703 206.14922580208403 0.0 0.0
26.588062684401237 11.105915287852202 11.34425837367674 189.58955657002826 0.0 0.0
3.9101948765081516 16.95019964672566 6.2592854103260835 180.2038329482411 0.0 0.0
-20.325903204598497 4.5130542351075436 -4.744220624385752 182.05503327003873 0.0 0.0
-34.88441796386314 -50.68718783168699 -25.668733498610617 188.36891128582596 0.0 0.0
-3.713424393767111 -303.27705588030403 -95.33658425443198 148.96076495892143 0.0 0.0
-15.655510126105723 -254.3572291588153 -81.1553264487741 -138.10299209120663 0.0 0.0
-51.89437673540686 -53.04425400755668 -31.481408546009497 -188.38252473749614 0.0 0.0
-51.968580509759086 3.9374909038239583 -14.415134892631155 -185.6846141804625 0.0 0.0
-45.50554730346002 17.69022019470267 -8.358064933613882 -184.08143872039528 0.0 0.0
-43.55218604057694 14.811949490852989 -8.671740501022992 -191.79705433420563 0.0 0.0
-52.19494965491087 7.58917032541145 -13.685920540303545 -207.0957486966342 0.0 0.0
-73.31809285775705 2.6424053604540525 -22.25701594930741 -221.00107944628363 0.0 0.0
-113.2232160605805 0.06760618962935716 -36.611989562033244 -226.12565155311674 0.0 0.0
-179.33475621495188 -3.8336184214358227 -61.437116629746036 -216.76170919225012 0.0 0.0
-253.55497009728833 -5.392726176645798 -92.43042952000991 -201.9467809696368 0.0 0.0
-317.6507944658921 -7.658719651932294 -126.63340995453247 -188.44294871458544 0.0 0.0
-369.0436990257617 -7.006200394276149 -158.06261207873877 -180.48036057757054 0.0 0.0
-407.124535620803 -8.593497517150055 -185.18560511729987 -174.29051739502705 0.0 0.0
-436.02045884214004 -12.700399600595546 -208.5653504143406 -170.19512601350996 0.0 0.0
-456.35817003792533 -20.60571512761065 -228.97791665903034 -168.46065057053215 0.0 0.0
-466.07098735575744 -31.778325500542564 -245.7189017844885 -168.7886265057079 0.0 0.0
-455.6676900184096 -44.155559100206005 -254.9380649389903 -169.68187354434548 0.0 0.0
-395.8906280686226 -40.57729804807903 -241.57062242353055 -169.95708770199283 0.0 0.0
-213.70062167323812 -34.68401275034748 -176.43883438504986 -172.47070472338885 0.0 0.0
1.6633726839737335 -174.58819744348853 -66.97853045928306 -152.43502625158598 0.0 0.0
1.6633726844455055 -174.58819744290503 -66.97853045904952 152.43502625198138 0.0 0.0
-213.70062167320577 -34.68401274997174 -176.43883438494356 172.47070472387782 0.0 0.0
-395.8906280693883 -40.577298049422126 -241.5706224241689 169.95708770225997 0.0 0.0
-455.6676900187538 -44.155559100985755 -254.93806493926644 169.6818735444648 0.0 0.0
-466.0709873555071 -31.778325500277845 -245.7189017842693 168.788626505662 0.0 0.0
-456.3581700380462 -20.605715128174054 -228.9779166591781 168.4606505705628 0.0 0.0
-436.0204588419242 -12.700399600579559 -208.5653504141565 170.19512601352162 0.0 0.0
-407.12453562097085 -8.593497518039982 -185.18560511749172 174.29051739519616 0.0 0.0
-369.04369902515384 -7.006200394419736 -158.06261207845395 180.48036057761811 0.0 0.0
-317.6507944651994 -7.65871965182064 -126.63340995414379 188.44294871447784 0.0 0.0
-253.5549700970469 -5.3927261775732624 -92.43042952012874 201.94678096959416 0.0 0.0
-179.33475621429483 -3.8336184211441804 -61.437116629431934 216.76170919230518 0.0 0.0
-113.2232160601144 0.06760618980687738 -36.61198956183033 226.12565155311535 0.0 0.0
-73.31809285753748 2.6424053604713453 -22.25701594922507 221.00107944605116 0.0 0.0
-52.194949654720226 7.589170325698626 -13.685920540156875 207.09574869642455 0.0 0.0
-43.55218604026361 14.811949491105732 -8.671740500853549 191.79705433396123 0.0 0.0
-45.505547303266795 17.69022019504423 -8.358064933454777 184.08143872013153 0.0 0.0
-51.96858050960821 3.937490904187742 -14.41513489247968 185.68461418024012 0.0 0.0
-51.894376735427024 -53.04425400756627 -31.481408546021378 188.38252473737222 0.0 0.0
-15.655510126180758 -254.35722915860188 -81.15532644875636 138.10299209108473 0.0 0.0
-24.36519011830945 -207.66805415699986 -69.60681566462445 -125.07494318781123 0.0 0.0
-66.01743259171957 -52.381384401214596 -35.51981061495101 -184.58936702579777 0.0 0.0
-82.11887794899366 3.286131355244938 -23.663846034746687 -185.33171388196263 0.0 0.0
-93.35096661271102 18.20705660027801 -22.564110300278728 -183.27041991918333 0.0 0.0
-112.21125047297183 17.720098265593922 -28.551334018435433 -187.91377146472615 0.0 0.0
-148.97916665438 11.410258031189878 -42.28876307981411 -199.12588327889057 0.0 0.0
-215.34715587369215 5.832375716704474 -66.67714109913425 -207.28244974971284 0.0 0.0
-318.08945491977 1.6719600641481343 -109.26205477910287 -202.31546400848669 0.0 0.0
-425.6568254748956 -4.516873305879216 -167.5124702400085 -187.69242440154014 0.0 0.0
-505.39835236772853 -10.766130342487834 -223.14174410222228 -174.86056239499305 0.0 0.0
-561.1858120888769 -16.308808565334907 -266.4388151902218 -167.5803732063413 0.0 0.0
-603.5501237596993 -20.013751225265494 -297.79411082169264 -162.360905809793 0.0 0.0
-640.5138932657849 -25.623124950285685 -324.0871132255887 -158.05127015260666 0.0 0.0
-674.570524133167 -33.429460139605496 -347.9896479980415 -155.23837763095707 0.0 0.0
-707.0888771288489 -45.08521737611403 -371.8299012411575 -154.8684742693549 0.0 0.0
-736.6894656260022 -60.342433009799294 -395.4721618602468 -157.15565947082575 0.0 0.0
-758.6641943114016 -76.50207260489432 -415.7971011858043 -162.45473706287754 0.0 0.0
-768.4311504730406 -90.38992662336719 -428.9759555983681 -170.80604788397622 0.0 0.0
-804.3628844484489 -144.8958990222844 -475.1299829682258 -179.7905438963879 0.0 0.0
-800.584838101546 -227.04809904886787 -515.7277418571766 -198.07874142931874 0.0 0.0
-800.5848381015614 -227.04809904913287 -515.7277418573428 198.07874142954233 0.0 0.0
-804.3628844476975 -144.8958990215151 -475.1299829677633 179.79054389665637 0.0 0.0
-768.431150472145 -90.38992662257911 -428.9759555978191 170.80604788412188 0.0 0.0
-758.6641943109519 -76.50207260439927 -415.7971011854433 162.45473706283138 0.0 0.0
-736.6894656256657 -60.34243300948171 -395.47216186002225 157.1556594707102 0.0 0.0
-707.0888771278819 -45.085217374913356 -371.82990124040543 154.86847426911737 0.0 0.0
-674.570524132328 -33.429460138891585 -347.9896479974824 155.23837763099567 0.0 0.0
-640.5138932647691 -25.623124949160598 -324.0871132248782 158.0512701524508 0.0 0.0
-603.5501237590056 -20.013751224805333 -297.7941108212273 162.3609058097107 0.0 0.0
-561.185812088309 -16.308808564890533 -266.43881518974376 167.58037320616606 0.0 0.0
-505.3983523665091 -10.766130341379188 -223.1417441013303 174.86056239485563 0.0 0.0
-425.6568254746935 -4.516873306252235 -167.51247023988645 187.6924244016378 0.0 0.0
-318.089454919161 1.671960063918835 -109.26205477889283 202.31546400863448 0.0 0.0
-215.34715587332525 5.832375716461277 -66.67714109907757 207.28244974963312 0.0 0.0
-148.97916665412015 11.410258031234747 -42.28876307971634 199.12588327868093 0.0 0.0
-112.21125047272353 17.720098265666874 -28.551334018340334 187.9137714645778 0.0 0.0
-93.35096661277548 18.207056599869293 -22.564110300423103 183.27041991897835 0.0 0.0
-82.11887794907423 3.286131354885447 -23.66384603488253 185.33171388178596 0.0 0.0
-66.01743259170416 -52.381384401263695 -35.519810614965884 184.58936702568465 0.0 0.0
-24.365190118240694 -207.6680541567562 -69.60681566453269 125.07494318770898 0.0 0.0
-27.35145139813384 -164.03237160551865 -57.41514690109574 -110.86109389282143 0.0 0.0
-77.68539858257024 -49.2557271878605 -38.08040353730704 -176.75273257079309 0.0 0.0
-110.52362675199421 2.7014586074877402 -32.348498489431 -180.86296995669514 0.0 0.0
-139.45825745726142 18.249375520304266 -36.39929593870498 -177.58705316563461 0.0 0.0
-178.94917673164684 19.254447022805657 -48.3263841138072 -178.41362044354082 0.0 0.0
-241.73698384253183 14.599416121366385 -70.33353855503812 -183.5237666441032 0.0 0.0
-339.88434473945927 10.812948500106977 -110.37932601566132 -182.44312577581388 0.0 0.0
-452.3019648249609 2.1315783321763853 -174.59478379805176 -169.8322562396409 0.0 0.0
-544.2310417477603 -8.67286675979743 -242.57045655395447 -159.58133944302443 0.0 0.0
-611.9810621274678 -19.12877072159411 -296.76181889402415 -153.79132138335052 0.0 0.0
-664.598609522187 -26.698153963282863 -335.1215948439276 -149.95608778913822 0.0 0.0
-708.9729062383817 -34.62086344497013 -365.2553213278573 -145.69976545168817 0.0 0.0
-749.7485887333512 -43.423652558111755 -391.9715632710648 -141.71573249681813 0.0 0.0
-789.1086120395385 -54.41107098283099 -418.13996768952626 -138.8480206052742 0.0 0.0
-828.8428165016278 -69.70311793497154 -446.19428182775977 -138.4225855700128 0.0 0.0
-867.4923090018276 -89.26181649674479 -475.753580524476 -141.30917855739864 0.0 0.0
-902.1048926224537 -110.83286092128816 -504.341821502369 -147.41509588246277 0.0 0.0
-941.1104201569781 -144.18620286235333 -540.9766925180697 -154.15924936310103 0.0 0.0
-983.8996904867449 -193.2831779857625 -587.3883943584545 -160.48408049672767 0.0 0.0
-1073.0409081977364 -323.3875063242428 -695.7650335003365 -170.00541212095297 0.0 0.0
-1073.0409081976636 -323.38750632432976 -695.7650335003545 170.00541212120146 0.0 0.0
-983.8996904868695 -193.2831779861082 -587.3883943585665 160.48408049707746 0.0 0.0
-941.1104201566737 -144.18620286228176 -540.9766925178684 154.15924936337947 0.0 0.0
-902.1048926221956 -110.83286092124536 -504.34182150223165 147.41509588266015 0.0 0.0
-867.4923090030188 -89.26181649811679 -475.7535805251922 141.30917855742393 0.0 0.0
-828.8428165016645 -69.70311793517268 -446.19428182779797 138.42258557002074 0.0 0.0
-789.1086120399482 -54.41107098339124 -418.13996768982815 138.84802060529626 0.0 0.0
-749.7485887338285 -43.423652558880875 -391.9715632713969 141.7157324969068 0.0 0.0
-708.9729062381871 -34.62086344504936 -365.25532132772025 145.69976545172554 0.0 0.0
-664.5986095215201 -26.698153962750833 -335.12159484344386 149.95608778898526 0.0 0.0
-611.9810621272118 -19.128770721544907 -296.76181889380314 153.79132138320546 0.0 0.0
-544.2310417478393 -8.672866760350553 -242.57045655396809 159.58133944310242 0.0 0.0
-452.3019648242485 2.1315783322696644 -174.59478379760137 169.83225623977648 0.0 0.0
-339.88434473886696 10.812948500171633 -110.37932601538148 182.44312577581104 0.0 0.0
-241.73698384192755 14.599416121740717 -70.33353855473992 183.52376664388893 0.0 0.0
-178.94917673134833 19.254447022990046 -48.326384113665604 178.41362044345647 0.0 0.0
-139.45825745705653 18.249375520460966 -36.399295938601654 177.5870531654138 0.0 0.0
-110.52362675181537 2.7014586077283433 -32.34849848930922 180.86296995643852 0.0 0.0
-77.68539858239654 -49.25572718771357 -38.08040353721136 176.75273257059527 0.0 0.0
-27.35145139810902 -164.03237160539666 -57.4151469010517 110.86109389265489 0.0 0.0
-28.485954730507345 -124.3435205933836 -45.84884259716728 -96.17886989102905 0.0 0.0
-87.51451609722857 -43.949167177528054 -39.43896718781657 -164.66447619776054 0.0 0.0
-137.07538280838727 2.155540777512728 -40.473435094083186 -172.0686305973765 0.0 0.0
-183.7211945386861 17.314221995020034 -49.998542944849675 -167.2098659718028 0.0 0.0
-242.52854885805172 19.819919549202098 -67.46963469394426 -163.6953156720469 0.0 0.0
-327.405269226055 18.64754588946706 -97.99843526717522 -161.93928420720042 0.0 0.0
-437.5315181681651 12.726751527535441 -154.474194795151 -151.62260817490227 0.0 0.0
-538.9696895646414 -0.006088236701664584 -229.06194799935307 -140.86722857089143 0.0 0.0
-618.7343463147729 -13.60490535044886 -294.8280206525503 -136.98916709992844 0.0 0.0
-681.9201815371911 -26.182987964607065 -343.33056811951656 -135.04241144106427 0.0 0.0
-734.7187724980613 -37.142751044127095 -379.6716222429004 -132.47534459193528 0.0 0.0
-783.0747812378463 -48.94622477144573 -411.6725196200424 -128.87967451686842 0.0 0.0
-828.1299458407227 -61.19203065358374 -441.2599760014731 -125.09695430361246 0.0 0.0
-871.9999580365075 -75.47598515111903 -470.8540672550727 -122.06428627539901 0.0 0.0
-916.6012928926419 -93.79097474485664 -502.5803148893103 -121.45745480837375 0.0 0.0
-963.1090422583923 -118.31494332609986 -538.3136033568535 -124.40787557129968 0.0 0.0
-1012.3990304394595 -150.97621267730904 -579.532790017757 -130.04121456420967 0.0 0.0
-1065.9203548904688 -194.53094515915873 -628.3287964617746 -135.6523792114454 0.0 0.0
-1134.8156946944214 -264.07480085531137 -697.4437812961532 -138.10201695240877 0.0 0.0
-1227.987125295108 -387.8954134091897 -805.5535911341299 -142.74431031060826 0.0 0.0
-1227.9871252957496 -387.89541341000404 -805.5535911346369 142.74431031085686 0.0 0.0
-1134.8156946937756 -264.0748008547977 -697.4437812957123 138.10201695269103 0.0 0.0
-1065.9203548910027 -194.53094515995042 -628.3287964620985 135.65237921177487 0.0 0.0
-1012.3990304399144 -150.97621267798857 -579.5327900179564 130.0412145643904 0.0 0.0
-963.1090422581719 -118.31494332596031 -538.3136033566816 124.40787557124078 0.0 0.0
-916.6012928918876 -93.79097474415762 -502.58031488879567 121.45745480829329 0.0 0.0
-871.9999580368835 -75.47598515172325 -470.85406725530424 122.06428627545307 0.0 0.0
-828.1299458400564 -61.192030653005375 -441.2599760010181 125.09695430351994 0.0 0.0
-783.0747812377754 -48.94622477157826 -411.6725196199628 128.87967451685657 0.0 0.0
-734.7187724979109 -37.14275104428192 -379.67162224279525 132.47534459197598 0.0 0.0
-681.9201815369587 -26.18298796466283 -343.3305681193245 135.04241144101633 0.0 0.0
-618.7343463144498 -13.604905350472674 -294.8280206522745 136.98916709993037 0.0 0.0
-538.9696895641439 -0.006088236476668563 -229.06194799888885 140.86722857077473 0.0 0.0
-437.53151816811965 12.726751526928078 -154.47419479512314 151.6226081749259 0.0 0.0
-327.405269225865 18.64754588897921 -97.9984352672174 161.93928420711296 0.0 0.0
-242.528548857643 19.819919549510907 -67.46963469373186 163.69531567191763 0.0 0.0
-183.72119453853003 17.314221994932822 -49.99854294483531 167.2098659716925 0.0 0.0
-137.07538280837176 2.1555407773032718 -40.473435094145984 172.06863059733945 0.0 0.0
-87.51451609710442 -43.94916717748131 -39.438967187765435 164.66447619768633 0.0 0.0
-28.485954730510354 -124.34352059330521 -45.84884259714466 96.17886989098635 0.0 0.0
-29.243132316095412 -89.18534742810995 -35.5285439232616 -81.1505138552574 0.0 0.0
-96.32617600663468 -37.063329812259326 -40.0168517456682 -148.71241374017845 0.0 0.0
-161.94595740130185 1.7859444037207322 -48.04677164325969 -158.84791714881135 0.0 0.0
-226.41409824473692 15.555488940926981 -63.282628699215564 -152.47532852717814 0.0 0.0
-302.9180026042164 20.53221242226399 -85.8673211578589 -144.9239694909835 0.0 0.0
-403.2010613375581 20.98873181460729 -127.02673377792212 -134.86528541470705 0.0 0.0
-510.1074875342812 11.910012727414202 -196.35081418638163 -121.58284262749746 0.0 0.0
-599.9958533511265 -2.5257895215841657 -272.0014344035874 -116.3767601975013 0.0 0.0
-672.8921016825132 -17.87825839565342 -331.76414149324785 -116.53262207011063 0.0 0.0
-734.6568382283044 -32.33825621021228 -376.45738477214394 -116.42625424158739 0.0 0.0
-790.6423634967373 -47.291333454396806 -414.4128757033037 -114.64041179496493 0.0 0.0
-842.9704189789177 -63.06405707062714 -449.5625331985599 -111.529584183544 0.0 0.0
-892.3662551293812 -79.29274259119506 -482.9900933354511 -108.0789975503286 0.0 0.0
-940.1480169591698 -96.48878832396366 -515.8501714539618 -105.0761611644978 0.0 0.0
-989.4517474559437 -117.83099040251466 -551.3333324899095 -104.07349100430449 0.0 0.0
-1043.8951873070669 -148.4634763338883 -593.9393284689497 -106.34284444220539 0.0 0.0
-1106.0495895736658 -191.22919499169956 -646.5149085445503 -111.35444755591722 0.0 0.0
-1177.2121638244475 -249.9277978124406 -711.5122987989763 -115.7338648123229 0.0 0.0
-1258.9589022873383 -331.2833057749581 -793.0205975180639 -117.21329451895826 0.0 0.0
-1342.9842937626836 -443.5599695889143 -891.1459475139505 -123.08741262093838 0.0 0.0
-1342.9842937631697 -443.55996958944576 -891.1459475143798 123.0874126210554 0.0 0.0
-1258.9589022876157 -331.2833057753643 -793.0205975183123 117.21329451913647 0.0 0.0
-1177.2121638247445 -249.92779781281118 -711.5122987992324 115.73386481238728 0.0 0.0
-1106.0495895731333 -191.22919499128312 -646.5149085442681 111.35444755601912 0.0 0.0
-1043.89518730691 -148.46347633390826 -593.939328468854 106.34284444234179 0.0 0.0
-989.4517474556735 -117.83099040239614 -551.3333324897594 104.07349100430145 0.0 0.0
-940.1480169586049 -96.48878832350013 -515.8501714535253 105.07616116445277 0.0 0.0
-892.3662551297369 -79.2927425918255 -482.99009333569404 108.07899755045631 0.0 0.0
-842.9704189791579 -63.064057071165095 -449.562533198746 111.5295841836612 0.0 0.0
-790.6423634961608 -47.291333454107466 -414.4128757029732 114.64041179500538 0.0 0.0
-734.6568382276055 -32.338256209750085 -376.45738477170005 116.42625424152916 0.0 0.0
-672.8921016822055 -17.87825839565962 -331.7641414930173 116.53262207012132 0.0 0.0
-599.9958533507775 -2.5257895215924986 -272.00143440328367 116.3767601974912 0.0 0.0
-510.10748753338066 11.910012727976257 -196.3508141857213 121.58284262746118 0.0 0.0
-403.2010613370339 20.98873181478399 -127.02673377761693 134.8652854145817 0.0 0.0
-302.9180026036826 20.532212422559112 -85.8673211576191 144.92396949087833 0.0 0.0
-226.41409824433816 15.555488941319993 -63.28262869898732 152.47532852699553 0.0 0.0
-161.94595740112396 1.7859444038795451 -48.04677164315925 158.84791714866208 0.0 0.0
-96.32617600656103 -37.06332981234366 -40.016851745671396 148.7124137400845 0.0 0.0
-29.243132316126307 -89.18534742806104 -35.5285439232562 81.15051385523606 0.0 0.0
-29.97748528678238 -59.051183957928075 -26.70860077341313 -65.70385986575369 0.0 0.0
-104.45005348807246 -29.176392847483573 -40.087933900666805 -129.31189989235668 0.0 0.0
-185.41272156805948 1.4601860888992073 -55.1835735379276 -141.33662180892452 0.0 0.0
-266.3907433888364 12.977653943643851 -76.1119109863344 -133.3238185859655 0.0 0.0
-358.7541998960824 21.692303382816515 -103.97720483451559 -122.14526302041494 0.0 0.0
-466.70437736341324 20.828207789252616 -157.32617146535264 -105.91617037656914 0.0 0.0
-564.695949133072 10.490609810330497 -233.45646378687402 -95.04046345799868 0.0 0.0
-645.3471118226864 -5.208869710624128 -304.95206697611616 -94.36896247643287 0.0 0.0
-714.692364866105 -20.940077858783198 -358.56144492951387 -96.59309641684342 0.0 0.0
-778.1533416964566 -38.27960138804703 -402.98503912699357 -97.3773655837047 0.0 0.0
-837.8073536588199 -57.18706595113483 -443.782475205883 -96.11921630549661 0.0 0.0
-894.2903273283405 -77.08843611673849 -482.71500537632136 -93.55639332608338 0.0 0.0
-948.2419353216374 -97.42427270290987 -520.3357483799101 -90.69187830976965 0.0 0.0
-1000.0154393298535 -118.19871732259719 -556.9243273500035 -87.83338334817839 0.0 0.0
-1053.2995018168954 -142.44729223863013 -595.8010228421675 -86.18763713221298 0.0 0.0
-1115.1388771780648 -178.21862722622507 -644.5765761416098 -87.38039359952988 0.0 0.0
-1189.4307149509314 -231.72617177174436 -708.4614676566634 -91.32264710308962 0.0 0.0
-1275.5403674157023 -304.45102272182197 -787.9000816348452 -95.51606198137537 0.0 0.0
-1364.5752146545587 -393.2171594251002 -876.8429020255055 -98.78586520738591 0.0 0.0
-1443.044033345815 -498.515390813511 -968.8734002986114 -108.33017319872496 0.0 0.0
-1443.044033346132 -498.5153908139491 -968.8734002988456 108.33017319895113 0.0 0.0
-1364.5752146550649 -393.21715942574826 -876.8429020258807 98.78586520765131 0.0 0.0
-1275.540367415045 -304.45102272123125 -787.9000816342922 95.516061981443 0.0 0.0
-1189.430714950608 -231.72617177157804 -708.4614676564275 91.32264710323028 0.0 0.0
-1115.1388771785132 -178.21862722682266 -644.5765761418517 87.38039359962349 0.0 0.0
-1053.2995018162037 -142.44729223807718 -595.8010228416061 86.18763713220991 0.0 0.0
-1000.0154393298914 -118.19871732275097 -556.9243273499876 87.83338334807479 0.0 0.0
-948.2419353211991 -97.42427270273879 -520.335748379615 90.69187830994946 0.0 0.0
-894.29032732757 -77.08843611614063 -482.715005375858 93.55639332600097 0.0 0.0
-837.8073536580159 -57.1870659505564 -443.78247520538775 96.11921630546384 0.0 0.0
-778.1533416962087 -38.27960138804306 -402.98503912679854 97.37736558360845 0.0 0.0
-714.6923648659551 -20.940077858936185 -358.56144492937017 96.59309641686876 0.0 0.0
-645.3471118223129 -5.208869710599441 -304.95206697576043 94.36896247641626 0.0 0.0
-564.6959491324369 10.490609810658302 -233.45646378633813 95.04046345791178 0.0 0.0
-466.7043773628918 20.828207789402036 -157.3261714650067 105.91617037654026 0.0 0.0
-358.7541998956203 21.692303382732632 -103.97720483439075 122.14526302034656 0.0 0.0
-266.3907433888918 12.977653943133639 -76.11191098651472 133.32381858581098 0.0 0.0
-185.41272156798962 1.4601860886565161 -55.18357353798028 141.33662180888552 0.0 0.0
-104.45005348797051 -29.17639284749479 -40.08793390063959 129.3118998922713 0.0 0.0
-29.97748528677117 -59.051183957837864 -26.70860077338271 65.70385986562557 0.0 0.0
-30.51190475115876 -34.39325380816901 -19.47154756779833 -49.77446789159969 0.0 0.0
-111.6821067179237 -20.82722826163818 -39.75280049386856 -106.84285118214629 0.0 0.0
-207.6390815525722 1.0751706717833072 -61.96917326423666 -119.52095623881152 0.0 0.0
-305.28387799235946 10.383680145389615 -88.58265889418479 -110.60010631983279 0.0 0.0
-412.1268249207229 22.14983609157572 -123.14039187641058 -95.7186042732447 0.0 0.0
-517.2669697781914 19.687706061986795 -187.09747044857522 -77.93565463291635 0.0 0.0
-604.2519929718778 7.773220095611428 -264.8307582344914 -71.51896403086329 0.0 0.0
-679.9037893634555 -6.371352630079329 -328.9112915621022 -73.59421939525515 0.0 0.0
-749.3052791076393 -23.628601299040042 -379.71217722088124 -76.47175526563781 0.0 0.0
-815.2738892523562 -44.20488560677124 -425.50248859550425 -77.66597392618313 0.0 0.0
-878.4883633166676 -66.77828448035145 -469.4231934605523 -76.88955406628567 0.0 0.0
-939.3974810704447 -90.8368265842591 -512.4732146186693 -74.94440356512857 0.0 0.0
-997.990357554143 -115.60710714747353 -554.5337473639211 -72.71392141460024 0.0 0.0
-1055.0458209145768 -140.94866911381806 -596.008608165914 -70.33929120835033 0.0 0.0
-1112.4516389111004 -168.51318984784604 -638.611470589274 -68.10683337025723 0.0 0.0
-1178.0006829276945 -207.27868453665616 -690.6757338201014 -67.57681080568892 0.0 0.0
-1262.5394964575967 -269.43636553228 -763.8924570825388 -70.3469221917536 0.0 0.0
-1361.579917796732 -354.24203909291776 -855.8292728962944 -75.40236716289616 0.0 0.0
-1459.968336370116 -452.4016944246282 -954.2004797773304 -82.0754146516578 0.0 0.0
-1538.1698128863327 -556.4571052599048 -1045.5622140101484 -96.33676822990833 0.0 0.0
-1538.1698128861026 -556.4571052597466 -1045.5622140100736 96.33676823004089 0.0 0.0
-1459.9683363704398 -452.40169442504373 -954.2004797775778 82.07541465184708 0.0 0.0
-1361.5799177968465 -354.2420390930952 -855.8292728963961 75.40236716289313 0.0 0.0
-1262.5394964570023 -269.4363655317744 -763.892457082086 70.34692219178524 0.0 0.0
-1178.0006829277897 -207.27868453689297 -690.675733820113 67.57681080573786 0.0 0.0
-1112.4516389114488 -168.5131898483379 -638.6114705894668 68.10683337026991 0.0 0.0
-1055.0458209135477 -140.9486691129464 -596.0086081651336 70.33929120835198 0.0 0.0
-997.990357552904 -115.60710714642696 -554.5337473630279 72.71392141465617 0.0 0.0
-939.3974810703851 -90.8368265844058 -512.4732146185934 74.94440356510155 0.0 0.0
-878.4883633164377 -66.77828448039676 -469.42319346038784 76.88955406633622 0.0 0.0
-815.2738892515706 -44.204885606153695 -425.50248859496634 77.66597392593569 0.0 0.0
-749.3052791069547 -23.628601298576392 -379.71217722043025 76.47175526549194 0.0 0.0
-679.9037893626084 -6.371352629435787 -328.91129156151374 73.5942193950799 0.0 0.0
-604.2519929711331 7.773220096076596 -264.83075823389316 71.51896403072145 0.0 0.0
-517.2669697773695 19.687706062554028 -187.0974704479758 77.93565463277513 0.0 0.0
-412.12682492014767 22.149836091688506 -123.14039187616163 95.71860427323885 0.0 0.0
-305.28387799212044 10.383680145350272 -88.58265889414153 110.60010631975368 0.0 0.0
-207.63908155236885 1.0751706718948615 -61.96917326414219 119.52095623870903 0.0 0.0
-111.68210671788101 -20.827228261766283 -39.752800493894185 106.84285118201392 0.0 0.0
-30.511904751142417 -34.39325380817 -19.47154756779372 49.77446789148867 0.0 0.0
-30.213761205100106 -15.643599982726972 -13.75720835634812 -33.48643330092216 0.0 0.0
-117.16062190757215 -12.457999118077694 -38.88558630769494 -81.51059678967155 0.0 0.0
-228.95572546161782 0.28484960449465646 -68.60126275713692 -93.33260796344607 0.0 0.0
-343.6853138844758 9.050954243133202 -100.59807798314327 -84.34512935019825 0.0 0.0
-459.4866351742179 21.74518671197881 -143.6017632451049 -67.06846226351495 0.0 0.0
-556.9679202330362 16.855010496421194 -216.10933718166314 -52.763900282116566 0.0 0.0
-635.9605684019954 5.875795794119746 -290.1953340173561 -50.29597723651946 0.0 0.0
-708.0740822332385 -7.043561432565994 -347.2980140564448 -52.9306196803624 0.0 0.0
-778.4135403912148 -26.40572875270108 -397.15207547172963 -55.89980447786291 0.0 0.0
-847.133440369737 -49.92723560890684 -444.92159130869015 -57.28543394655245 0.0 0.0
-914.1989034479243 -76.15157627258652 -492.31355508155775 -56.94838903905093 0.0 0.0
-979.3467470113974 -104.2500937366784 -539.3989718512933 -55.61334141850352 0.0 0.0
-1043.182831284888 -133.59005912202667 -586.2986041677876 -54.104756023154515 0.0 0.0
-1105.9236968907958 -164.5160644867289 -633.355821861807 -52.324306317695225 0.0 0.0
-1168.7915420170832 -197.30980845156705 -681.3196907430952 -49.99212153005718 0.0 0.0
-1236.5216755207562 -237.2902765346936 -735.1264756836977 -47.819201722784 0.0 0.0
-1321.3572607878555 -298.79924881049436 -808.0647000828731 -48.69498936343268 0.0 0.0
-1434.979747922437 -397.1580958310467 -913.9769038776137 -54.77283166883204 0.0 0.0
-1548.4246590534594 -509.5031963718647 -1027.0414096538502 -65.9058487620041 0.0 0.0
-1636.755684793517 -621.9501496067702 -1127.7136892808937 -85.7626101724576 0.0 0.0
-1636.7556847945339 -621.9501496078194 -1127.7136892816493 85.76261017252352 0.0 0.0
-1548.4246590531038 -509.5031963715927 -1027.0414096535467 65.90584876217885 0.0 0.0
-1434.9797479220379 -397.15809583074605 -913.9769038772188 54.7728316689618 0.0 0.0
-1321.3572607868668 -298.79924880958094 -808.0647000821908 48.694989363369416 0.0 0.0
-1236.5216755201382 -237.29027653418075 -735.1264756831915 47.81920172276412 0.0 0.0
-1168.7915420172626 -197.30980845189833 -681.3196907431106 49.99212153005538 0.0 0.0
-1105.9236968907007 -164.51606448678172 -633.3558218617264 52.3243063176188 0.0 0.0
-1043.182831285202 -133.59005912255265 -586.2986041680047 54.10475602323625 0.0 0.0
-979.3467470107091 -104.25009373621211 -539.3989718508271 55.613341418498344 0.0 0.0
-914.1989034469625 -76.15157627186625 -492.3135550808766 56.94838903909442 0.0 0.0
-847.1334403698498 -49.92723560928174 -444.9215913087769 57.285433946488794 0.0 0.0
-778.4135403912126 -26.405728752938373 -397.1520754717144 55.89980447767947 0.0 0.0
-708.0740822327039 -7.043561432293515 -347.2980140560443 52.930619680226954 0.0 0.0
-635.96056840138 5.875795794434687 -290.1953340168575 50.29597723648949 0.0 0.0
-556.9679202323097 16.855010496843466 -216.10933718109408 52.763900282062856 0.0 0.0
-459.48663517407346 21.745186711616565 -143.60176324505716 67.06846226346406 0.0 0.0
-343.6853138843469 9.050954242620616 -100.59807798327306 84.34512935011915 0.0 0.0
-228.95572546157933 0.28484960432811635 -68.60126275717538 93.33260796340764 0.0 0.0
-117.16062190745338 -12.457999118081698 -38.88558630766052 81.51059678958187 0.0 0.0
-30.213761205079557 -15.64359998275019 -13.757208356348922 33.486433300870914 0.0 0.0
-27.792958840171565 -3.161830063535454 -9.286436671112103 -17.356312485727887 0.0 0.0
-119.18230733661741 -4.642782590525703 -37.14752697814293 -53.28163502474977 0.0 0.0
-249.70168008001968 -0.9011207768113412 -75.18084025704928 -62.245627171634375 0.0 0.0
-383.77981140095864 9.169295347231682 -112.9081375592346 -54.68283636476868 0.0 0.0
-498.97185777034986 20.997075187024357 -164.94110258563427 -39.05592490378889 0.0 0.0
-585.815715853548 12.643547059436145 -242.73138398996258 -30.117640308281857 0.0 0.0
-660.6100486142312 5.521718054298972 -309.0797994657399 -30.059131476633993 0.0 0.0
-731.5435855226012 -8.321447982827593 -362.28203782168333 -32.33661858491717 0.0 0.0
-802.7098064954498 -29.038372808680947 -411.5772102440012 -34.834512520456364 0.0 0.0
-874.3952353156096 -55.41527552953116 -461.7336030660777 -36.19001973084174 0.0 0.0
-945.4619319156296 -85.32544166227245 -512.8029141642443 -36.2697428530028 0.0 0.0
-1015.3086556579804 -117.30007451676806 -564.0990874008539 -35.592933084306445 0.0 0.0
-1084.1446874433814 -151.58209439602336 -615.9164762091157 -34.68983181799557 0.0 0.0
-1153.2162380162758 -188.21727319034503 -668.943478232592 -33.599956505255214 0.0 0.0
-1223.1810798403521 -227.82209971192276 -723.8475263832561 -31.851553929614674 0.0 0.0
-1294.450762439185 -271.36906712408563 -781.2932243871853 -29.09471590324815 0.0 0.0
-1372.5689905251857 -325.76534704232233 -847.3863499480442 -27.34634073235872 0.0 0.0
-1476.2782039898914 -412.7876089184288 -942.4376764075789 -32.40160751653167 0.0 0.0
-1636.6815603083217 -569.6107335618233 -1101.175149623955 -48.35951677624189 0.0 0.0
-1748.423490188132 -702.7077467198698 -1224.0302677148384 -75.65400659348282 0.0 0.0
-1748.4234901887187 -702.7077467205104 -1224.030267715219 75.65400659362074 0.0 0.0
-1636.6815603085201 -569.6107335620775 -1101.1751496240577 48.35951677630071 0.0 0.0
-1476.2782039897563 -412.78760891836987 -942.437676407383 32.40160751662219 0.0 0.0
-1372.5689905244515 -325.7653470416923 -847.3863499473698 27.346340732413736 0.0 0.0
-1294.450762438226 -271.3690671232289 -781.2932243863104 29.094715903153805 0.0 0.0
-1223.1810798394572 -227.82209971117462 -723.8475263825269 31.851553929669755 0.0 0.0
-1153.216238015563 -188.21727318978276 -668.9434782321176 33.59995650519903 0.0 0.0
-1084.1446874423364 -151.5820943951726 -615.9164762083091 34.689831818040965 0.0 0.0
-1015.3086556584478 -117.30007451749637 -564.099087401059 35.5929330844513 0.0 0.0
-945.4619319162448 -85.32544166313902 -512.8029141645609 36.26974285294263 0.0 0.0
-874.3952353153718 -55.41527552955864 -461.73360306585124 36.190019730830315 0.0 0.0
-802.7098064946514 -29.038372808134454 -411.5772102434529 34.83451252034537 0.0 0.0
-731.5435855219513 -8.321447982461663 -362.2820378212453 32.33661858490027 0.0 0.0
-660.6100486140449 5.521718054131135 -309.07979946552985 30.059131476655274 0.0 0.0
-585.8157158532525 12.643547059388666 -242.73138398965827 30.117640308290547 0.0 0.0
-498.9718577697019 20.997075187373845 -164.94110258522292 39.05592490379112 0.0 0.0
-383.77981140058967 9.169295347079391 -112.90813755918923 54.68283636469809 0.0 0.0
-249.70168007998873 -0.9011207771518781 -75.18084025714217 62.245627171544704 0.0 0.0
-119.18230733662023 -4.642782590783109 -37.14752697822099 53.281635024741234 0.0 0.0
-27.792958840108444 -3.1618300634984906 -9.286436671082079 17.356312485736428 0.0 0.0
-20.778986282653978 2.8164643634264883 -5.388756575768246 -2.6441793106905913 0.0 0.0
-114.74604479198527 1.8000425242923122 -33.88380068030787 -21.61980611018978 0.0 0.0
-270.8228175029922 -2.2457923762319822 -81.92058296376726 -25.17792332005305 0.0 0.0
-423.94532626050193 11.217864381985027 -126.16659981589464 -22.127703325214203 0.0 0.0
-532.597662134238 18.51257476643041 -187.8066162875303 -13.356191065541434 0.0 0.0
-611.1450094191973 10.383592956642396 -265.342746973966 -9.955846207762264 0.0 0.0
-680.7660421714731 4.573762704190713 -324.2450936463045 -10.239592250174306 0.0 0.0
-750.7674834859204 -9.668876284562955 -374.3076196944595 -11.692558097201246 0.0 0.0
-823.0608813030635 -31.77612932828748 -423.7960102581055 -13.29978800727947 0.0 0.0
-897.6159429879782 -60.65644217186228 -476.30820225426714 -14.38021075170434 0.0 0.0
-972.8144598711563 -93.98894932188801 -531.025639464083 -14.841323040209563 0.0 0.0
-1047.373948961555 -130.58758076455086 -586.9319884640411 -14.776282742254203 0.0 0.0
-1121.601912143029 -169.37849950755566 -643.6620786794828 -14.542867431326197 0.0 0.0
-1196.8218311272144 -211.46542957965045 -702.4510364520811 -14.116570135963862 0.0 0.0
-1274.0035622277019 -258.06347929255935 -764.431193110504 -13.211515437406817 0.0 0.0
-1352.2485908667313 -308.79946352550894 -828.9817266104151 -11.453521643485548 0.0 0.0
-1428.631195585536 -361.81410871308793 -893.6719212880566 -8.806858669078874 0.0 0.0
-1506.6329841635857 -422.4062293083955 -962.7559075150723 -9.12034182506246 0.0 0.0
-1621.8197448306237 -530.1315495196096 -1073.7913839846929 -24.699121286895082 0.0 0.0
-1948.7419686558655 -871.6398231351855 -1408.662574345689 -62.14217063894475 0.0 0.0
-1948.7419686556889 -871.6398231350222 -1408.662574345507 62.14217063898312 0.0 0.0
-1621.81974483042 -530.1315495194647 -1073.7913839844598 24.699121287002697 0.0 0.0
-1506.6329841626793 -422.4062293075555 -962.7559075143768 9.120341825101658 0.0 0.0
-1428.6311955852482 -361.81410871290575 -893.6719212878344 8.806858669156771 0.0 0.0
-1352.2485908673175 -308.79946352622284 -828.9817266108369 11.453521643371454 0.0 0.0
-1274.0035622274027 -258.0634792924062 -764.4311931102327 13.211515437429085 0.0 0.0
-1196.8218311264206 -211.4654295790192 -702.4510364513978 14.116570135752244 0.0 0.0
-1121.6019121427346 -169.37849950744786 -643.6620786792291 14.542867431356346 0.0 0.0
-1047.373948960374 -130.58758076359146 -586.9319884631784 14.776282742337361 0.0 0.0
-972.8144598701386 -93.9889493211066 -531.0256394633413 14.841323040105012 0.0 0.0
-897.6159429878838 -60.65644217205036 -476.3082022541493 14.380210751762684 0.0 0.0
-823.0608813029571 -31.776129328460385 -423.796010258025 13.299788007217096 0.0 0.0
-750.767483485621 -9.668876284566238 -374.3076196942667 11.692558097197729 0.0 0.0
-680.7660421709408 4.5737627044267555 -324.24509364593035 10.239592250140646 0.0 0.0
-611.1450094186507 10.383592956876978 -265.34274697352316 9.955846207916485 0.0 0.0
-532.5976621341816 18.51257476610965 -187.80661628743405 13.356191065656532 0.0 0.0
-423.94532626027717 11.217864381670298 -126.16659981590342 22.127703325292217 0.0 0.0
-270.82281750274376 -2.245792376210904 -81.92058296368639 25.177923319971917 0.0 0.0
-114.74604479182835 1.8000425245974547 -33.883800680169266 21.619806110130003 0.0 0.0
-20.77898628249949 2.8164643635312054 -5.3887565756904845 2.6441793106265403 0.0 0.0
SCALARS Strain float 6
LOOKUP_TABLE default
0.011459728730314235 -0.012527761948273403 0.0 -0.006917825271918199 0.0 0.0
0.002355233002073581 -0.0014436149632688355 0.0 0.0011564507178089545 0.0 0.0
0.0018093835981251166 -0.0007385457258851647 0.0 -4.377585771969672e-05 0.0 0.0
0.0022703207172752645 -0.0010862550610635235 0.0 -0.0002103334329879858 0.0 0.0
0.003468128607233969 -0.002039867901995507 0.0 -0.0002636150294194062 0.0 0.0
0.005932288664335192 -0.004206423828443384 0.0 -0.00039779803545597625 0.0 0.0
0.009903843101038147 -0.00790595580502873 0.0 -0.0006295917008587171 0.0 0.0
0.015631412934793597 -0.013362559681868502 0.0 -0.0009839171601110086 0.0 0.0
0.023242957390246666 -0.02068618364553343 0.0 -0.00147492775437838 0.0 0.0
0.032729421123192756 -0.02986146719279459 0.0 -0.002062061105313484 0.0 0.0
0.04400985623767548 -0.04081499200495031 0.0 -0.0026715322252913176 0.0 0.0
0.056995714424326174 -0.05346485797739087 0.0 -0.003273227928134781 0.0 0.0
0.07160396872181349 -0.0677322196518646 0.0 -0.003873531699998767 0.0 0.0
0.08772506278812199 -0.0835032691208335 0.0 -0.0044713813763029575 0.0 0.0
0.10510000418087262 -0.10051452469555766 0.0 -0.0050496764981939335 0.0 0.0
0.12317235802800526 -0.11821230653953974 0.0 -0.005498704775153185 0.0 0.0
0.14102057075792568 -0.13568695206476544 0.0 -0.0056046126384282635 0.0 0.0
0.15739261780585656 -0.15170139365931057 0.0 -0.005133115879054684 0.0 0.0
0.17078644810424995 -0.16476308270125095 0.0 -0.004254720986270055 0.0 0.0
0.17913554108978008 -0.1726463448629989 0.0 -0.0045244168489674275 0.0 0.0
0.17913554108976787 -0.17264634486299002 0.0 0.0045244168489725345 0.0 0.0
0.17078644810421448 -0.16476308270121987 0.0 0.004254720986290095 0.0 0.0
0.15739261780579697 -0.15170139365925106 0.0 0.00513311587906462 0.0 0.0
0.14102057075785013 -0.1356869520646904 0.0 0.005604612638435369 0.0 0.0
0.12317235802792567 -0.11821230653945669 0.0 0.005498704775146135 0.0 0.0
0.10510000418079052 -0.10051452469547772 0.0 0.005049676498192768 0.0 0.0
0.08772506278804001 -0.08350326912075667 0.0 0.004471381376302652 0.0 0.0
0.07160396872172928 -0.06773221965178777 0.0 0.0038735316999997105 0.0 0.0
0.056995714424247085 -0.05346485797731981 0.0 0.0032732279281276755 0.0 0.0
0.04400985623760434 -0.04081499200488459 0.0 0.0026715322252890417 0.0 0.0
0.032729421123133595 -0.029861467192736635 0.0 0.0020620611053064897 0.0 0.0
0.02324295739020016 -0.020686183645488798 0.0 0.0014749277543759098 0.0 0.0
0.015631412934759337 -0.01336255968183564 0.0 0.0009839171601093155 0.0 0.0
0.009903843101013943 -0.00790595580500919 0.0 0.0006295917008591889 0.0 0.0
0.005932288664321106 -0.00420642382843206 0.0 0.00039779803545536563 0.0 0.0
0.003468128607228116 -0.002039867901990844 0.0 0.00026361502941985027 0.0 0.0
0.0022703207172738993 -0.0010862550610628574 0.0 0.00021033343298693108 0.0 0.0
0.0018093835981247142 -0.000738545725884554 0.0 4.377585772030734e-05 0.0 0.0
0.0023552330020716328 -0.001443614963267309 0.0 -0.0011564507178060124 0.0 0.0
0.011459728730303487 -0.012527761948259306 0.0 0.006917825271884281 0.0 0.0
0.008111638291948348 -0.009557085755496436 0.0 -0.00832353229011279 0.0 0.0
0.001283942232534526 -0.000729758599005037 0.0 0.0001370312945526697 0.0 0.0
0.0015482534821379332 -0.0005545562855296948 0.0 -0.0001299081588987394 0.0 0.0
0.0019978755896304587 -0.0009115614624763957 0.0 -0.0004643473203769233 0.0 0.0
0.00295266683967544 -0.0016267275645247548 0.0 -0.000596447263178812 0.0 0.0
0.00506188247929245 -0.003428553512394794 0.0 -0.0009260846289776969 0.0 0.0
0.00860743433305234 -0.006682174116586337 0.0 -0.0015165266603122396 0.0 0.0
0.013788611198342161 -0.011584919683699457 0.0 -0.0023676420019887734 0.0 0.0
0.020687074054502992 -0.018200923799201796 0.0 -0.003485387683947294 0.0 0.0
0.02925109031496609 -0.026469117736333203 0.0 -0.004775172578249054 0.0 0.0
0.039376191316089555 -0.036290240435646215 0.0 -0.006095973924290121 0.0 0.0
0.050987087226870856 -0.04759363400317973 0.0 -0.0073669573504444585 0.0 0.0
0.06405260810079505 -0.060346289689250376 0.0 -0.008651726453161118 0.0 0.0
0.07850337860245624 -0.07447589047747316 0.0 -0.009975808345274423 0.0 0.0
0.09412065495256941 -0.08976195926141495 0.0 -0.011255028964950675 0.0 0.0
0.1104316482536821 -0.10573350622707256 0.0 -0.012266581498238338 0.0 0.0
0.12663848101842018 -0.1215985841187619 0.0 -0.012585113353537847 0.0 0.0
0.14160585477000295 -0.13622748430963494 0.0 -0.011821109477594405 0.0 0.0
0.1537875456942936 -0.148044927578165 0.0 -0.010095038437532844 0.0 0.0
0.16112504873525632 -0.15510501081726424 0.0 -0.007229664842497208 0.0 0.0
0.16112504873524505 -0.15510501081726114 0.0 0.007229664842515859 0.0 0.0
0.15378754569426126 -0.14804492757813703 0.0 0.010095038437569315 0.0 0.0
0.14160585476995044 -0.1362274843095843 0.0 0.01182110947761772 0.0 0.0
0.12663848101835457 -0.1215985841186975 0.0 0.012585113353548949 0.0 0.0
0.11043164825361193 -0.10573350622700506 0.0 0.012266581498230789 0.0 0.0
0.09412065495249516 -0.08976195926134123 0.0 0.011255028964946456 0.0 0.0
0.07850337860238207 -0.07447589047739278 0.0 0.009975808345270343 0.0 0.0
0.0640526081007208 -0.06034628968917577 0.0 0.008651726453157815 0.0 0.0
0.05098708722680015 -0.04759363400311045 0.0 0.007366957350433911 0.0 0.0
0.03937619131602593 -0.036290240435580046 0.0 0.006095973924283182 0.0 0.0
0.029251090314912576 -0.02646911773627947 0.0 0.004775172578236786 0.0 0.0
0.02068707405446102 -0.018200923799162716 0.0 0.0034853876839411324 0.0 0.0
0.013788611198311318 -0.011584919683668593 0.0 0.0023676420019816957 0.0 0.0
0.008607434333030628 -0.006682174116567241 0.0 0.001516526660310158 0.0 0.0
0.005061882479280522 -0.003428553512384136 0.0 0.0009260846289750879 0.0 0.0
0.00295266683967077 -0.001626727564520758 0.0 0.0005964472631775353 0.0 0.0
0.001997875589629605 -0.0009115614624758406 0.0 0.0004643473203759241 0.0 0.0
0.001548253482137829 -0.0005545562855301389 0.0 0.00012990815889857288 0.0 0.0
0.0012839422325346683 -0.0007297585990036215 0.0 -0.00013703129455450158 0.0 0.0
0.008111638291935036 -0.009557085755481448 0.0 0.008323532290084978 0.0 0.0
0.005992697082237396 -0.007593638613256404 0.0 -0.00770721434334698 0.0 0.0
0.0007566007434438304 -0.00047474137962494334 0.0 -0.0005626133299815872 0.0 0.0
0.0012411970873941747 -0.00040912889214339554 0.0 -0.00043283193091919747 0.0 0.0
0.0017367719806262588 -0.0007529682807491112 0.0 -0.0007073058718483072 0.0 0.0
0.002495064101150725 -0.0012853162429269371 0.0 -0.0008918914347676998 0.0 0.0
0.004224873696706488 -0.002702993862320646 0.0 -0.0013208406662487127 0.0 0.0
0.007320198154083669 -0.005480865047349015 0.0 -0.0021717521464535428 0.0 0.0
0.011925473619426134 -0.009801623077814847 0.0 -0.003430885006681983 0.0 0.0
0.018084060792354535 -0.01568070172902658 0.0 -0.005044568740329686 0.0 0.0
0.02570888796288738 -0.0230257472369364 0.0 -0.006878399429274817 0.0 0.0
0.03467817768389587 -0.03171433853776717 0.0 -0.008754971255656857 0.0 0.0
0.04492247121398871 -0.04167754909422472 0.0 -0.010567672912161347 0.0 0.0
0.05643466997661424 -0.05290532670565362 0.0 -0.012373732857376418 0.0 0.0
0.06919280249453252 -0.06537239607727363 0.0 -0.01425218677611445 0.0 0.0
0.08303683631482549 -0.078918799072075 0.0 -0.016103319614143685 0.0 0.0
0.09758522994129376 -0.09316327089151866 0.0 -0.01758255515611573 0.0 0.0
0.11217051126255813 -0.1074379720059424 0.0 -0.018163860469160686 0.0 0.0
0.1257586810922701 -0.12069919006232865 0.0 -0.017331972513062843 0.0 0.0
0.1368561676733243 -0.131479165256283 0.0 -0.014606449146582157 0.0 0.0
0.1437466061932809 -0.1381420934641806 0.0 -0.009193973207125672 0.0 0.0
0.14374660619327065 -0.1381420934641664 0.0 0.009193973207160422 0.0 0.0
0.136856167673295 -0.1314791652562497 0.0 0.014606449146633005 0.0 0.0
0.12575868109222324 -0.12069919006228425 0.0 0.017331972513097704 0.0 0.0
0.11217051126250166 -0.107437972005886 0.0 0.018163860469176063 0.0 0.0
0.097585229941232 -0.09316327089145515 0.0 0.017582555156109625 0.0 0.0
0.0830368363147595 -0.0789187990720035 0.0 0.016103319614139355 0.0 0.0
0.0691928024944665 -0.06537239607720924 0.0 0.014252186776110176 0.0 0.0
0.05643466997654917 -0.052905326705595 0.0 0.012373732857371533 0.0 0.0
0.04492247121392681 -0.04167754909416432 0.0 0.010567672912145554 0.0 0.0
0.03467817768383985 -0.03171433853771388 0.0 0.008754971255645394 0.0 0.0
0.025708887962839766 -0.02302574723689199 0.0 0.006878399429257942 0.0 0.0
0.01808406079231681 -0.015680701728990165 0.0 0.0050445687403199435 0.0 0.0
0.011925473619398663 -0.009801623077789312 0.0 0.0034308850066728236 0.0 0.0
0.007320198154065288 -0.005480865047330585 0.0 0.0021717521464500456 0.0 0.0
0.004224873696696413 -0.0027029938623124306 0.0 0.0013208406662451044 0.0 0.0
0.002495064101147415 -0.0012853162429249387 0.0 0.0008918914347647022 0.0 0.0
0.0017367719806254678 -0.0007529682807486671 0.0 0.0007073058718469749 0.0 0.0
0.0012411970873943967 -0.0004091288921442282 0.0 0.000432831930919253 0.0 0.0
0.0007566007434440247 -0.00047474137962380536 0.0 0.0005626133299782565 0.0 0.0
0.005992697082225218 -0.007593638613242647 0.0 0.007707214343325441 0.0 0.0
0.004513628654377905 -0.006114839242214037 0.0 -0.006546386459178932 0.0 0.0
0.0004747705021643442 -0.000353893256836435 0.0 -0.0011542738197118374 0.0 0.0
0.0009619913295174434 -0.0002987133805414377 0.0 -0.0008338937817008452 0.0 0.0
0.0014767935443725025 -0.000609473695699192 0.0 -0.0009755645159704729 0.0 0.0
0.0020911505185054746 -0.001013668623780939 0.0 -0.0011724255042846465 0.0 0.0
0.0034551559599885345 -0.00206806527488812 0.0 -0.0016110039238802498 0.0 0.0
0.006052702120754004 -0.0043284510574244095 0.0 -0.0026050020581555033 0.0 0.0
0.010062947186588747 -0.008033568880165154 0.0 -0.004167939037493684 0.0 0.0
0.015457853543459917 -0.013153212909295497 0.0 -0.0061438957766583036 0.0 0.0
0.022129804992500772 -0.019560314658856548 0.0 -0.008373994710503568 0.0 0.0
0.029940627415210627 -0.027112560219234805 0.0 -0.010646740496125517 0.0 0.0
0.03882072432118698 -0.03573697674243981 0.0 -0.012854038653117739 0.0 0.0
0.04878070918641879 -0.04544130306470562 0.0 -0.015066353781263364 0.0 0.0
0.05983444103243374 -0.05623397876614611 0.0 -0.017326705412868293 0.0 0.0
0.07188397908437594 -0.06801987651397123 0.0 -0.019549273483453256 0.0 0.0
0.08465062335873191 -0.0805190441872039 0.0 -0.02141240324397503 0.0 0.0
0.09759770334734957 -0.09318595855179934 0.0 -0.022310805093474273 0.0 0.0
0.1098271868387736 -0.10512027100796661 0.0 -0.021496735450525772 0.0 0.0
0.12003468822678887 -0.115044667122429 0.0 -0.018029088375996483 0.0 0.0
0.12673083414371367 -0.12153497439051586 0.0 -0.010806316841399433 0.0 0.0
0.1267308341437043 -0.12153497439051053 0.0 0.01080631684144262 0.0 0.0
0.12003468822676222 -0.11504466712240902 0.0 0.018029088376053437 0.0 0.0
0.10982718683873238 -0.10512027100793109 0.0 0.021496735450563853 0.0 0.0
0.09759770334730097 -0.0931859585517576 0.0 0.022310805093490704 0.0 0.0
0.08465062335867793 -0.0805190441871555 0.0 0.021412403243968092 0.0 0.0
0.07188397908431848 -0.06801987651391928 0.0 0.019549273483445706 0.0 0.0
0.059834441032375923 -0.056233978766087045 0.0 0.017326705412862742 0.0 0.0
0.048780709186362375 -0.04544130306465277 0.0 0.015066353781254094 0.0 0.0
0.038820724321133815 -0.03573697674239007 0.0 0.012854038653100086 0.0 0.0
0.029940627415162846 -0.02711256021918551 0.0 0.010646740496108698 0.0 0.0
0.022129804992459035 -0.0195603146588188 0.0 0.008373994710482613 0.0 0.0
0.015457853543426908 -0.013153212909266632 0.0 0.006143895776644981 0.0 0.0
0.010062947186564891 -0.008033568880142283 0.0 0.004167939037483304 0.0 0.0
0.006052702120738773 -0.004328451057410865 0.0 0.0026050020581486755 0.0 0.0
0.0034551559599808324 -0.0020680652748841233 0.0 0.00161100392387592 0.0 0.0
0.002091150518502838 -0.0010136686237783854 0.0 0.0011724255042827592 0.0 0.0
0.0014767935443721347 -0.000609473695699192 0.0 0.0009755645159679749 0.0 0.0
0.0009619913295175198 -0.00029871338054160423 0.0 0.0008338937816988468 0.0 0.0
0.0004747705021643789 -0.0003538932568353803 0.0 0.001154273819709728 0.0 0.0
0.004513628654367219 -0.0061148392422021546 0.0 0.006546386459161113 0.0 0.0
0.0033923519091114684 -0.004912573251910468 0.0 -0.005361932155833804 0.0 0.0
0.00031698035498571586 -0.00029031982482707885 0.0 -0.0016147568211774543 0.0 0.0
0.0007276272172584558 -0.00021813820281568752 0.0 -0.0012384178701029258 0.0 0.0
0.001217857289124949 -0.0004820361097435111 0.0 -0.0012697400446569085 0.0 0.0
0.0017304081251022646 -0.0007973905002121029 0.0 -0.001443797157203941 0.0 0.0
0.0027682924122806735 -0.0015403867829593132 0.0 -0.0018556635939424582 0.0 0.0
0.004844651631030636 -0.0032634578388779367 0.0 -0.0028384190758310446 0.0 0.0
0.008214887170681986 -0.006304577705650072 0.0 -0.004538461095937918 0.0 0.0
0.012832675091818943 -0.010644910204172353 0.0 -0.006775253387141467 0.0 0.0
0.01853917884381863 -0.01610045020769313 0.0 -0.009255074636601857 0.0 0.0
0.0251889766088626 -0.02251211070949921 0.0 -0.011777776768677861 0.0 0.0
0.03270677088368602 -0.029799769473208393 0.0 -0.014225891173566374 0.0 0.0
0.04111557970042504 -0.0379806241014804 0.0 -0.016674663291251113 0.0 0.0
0.05046238340818261 -0.04709808173102248 0.0 -0.019191513811262828 0.0 0.0
0.06070589550865646 -0.05711078589085039 0.0 -0.021649655571068682 0.0 0.0
0.07165522721198735 -0.06782681694864712 0.0 -0.023728619752120872 0.0 0.0
0.08291529326979762 -0.07884576159711632 0.0 -0.024902986037095565 0.0 0.0
0.09379798051397435 -0.0894714189237602 0.0 -0.0242708674005776 0.0 0.0
0.10323549739348277 -0.0986546721246615 0.0 -0.020490655563497828 0.0 0.0
0.10990215466133063 -0.10512251676169226 0.0 -0.0121718788946098 0.0 0.0
0.10990215466132217 -0.10512251676167894 0.0 0.012171878894655541 0.0 0.0
0.10323549739345872 -0.09865467212463219 0.0 0.020490655563558224 0.0 0.0
0.09379798051393948 -0.08947141892372601 0.0 0.024270867400619567 0.0 0.0
0.08291529326975594 -0.07884576159707368 0.0 0.024902986037115604 0.0 0.0
0.07165522721194095 -0.06782681694859738 0.0 0.023728619752114377 0.0 0.0
0.06070589550860733 -0.057110785890804205 0.0 0.021649655571060133 0.0 0.0
0.05046238340813383 -0.047098081730977626 0.0 0.019191513811257388 0.0 0.0
0.04111557970037738 -0.03798062410143421 0.0 0.016674663291242564 0.0 0.0
0.03270677088364127 -0.02979976947316132 0.0 0.014225891173553329 0.0 0.0
0.0251889766088223 -0.022512110709456135 0.0 0.011777776768658543 0.0 0.0
0.01853917884378331 -0.016100450207659822 0.0 0.009255074636578431 0.0 0.0
0.012832675091790785 -0.010644910204146374 0.0 0.006775253387127422 0.0 0.0
0.008214887170662016 -0.006304577705629866 0.0 0.004538461095926649 0.0 0.0
0.004844651631018493 -0.003263457838865058 0.0 0.0028384190758256045 0.0 0.0
0.0027682924122751362 -0.0015403867829539841 0.0 0.0018556635939382393 0.0 0.0
0.0017304081251003356 -0.0007973905002113257 0.0 0.001443797157201443 0.0 0.0
0.0012178572891244632 -0.00048203610974284494 0.0 0.0012697400446552987 0.0 0.0
0.0007276272172586085 -0.0002181382028151324 0.0 0.001238417870099373 0.0 0.0
0.00031698035498553545 -0.00029031982482621843 0.0 0.0016147568211740126 0.0 0.0
0.0033923519091025867 -0.00491257325190054 0.0 0.005361932155818816 0.0 0.0
0.002514177271164361 -0.003908678060085047 0.0 -0.004327896045241031 0.0 0.0
0.000220437810851834 -0.0002508360943877519 0.0 -0.001957244150584292 0.0 0.0
0.0005305638592778689 -0.00015679970596016446 0.0 -0.0015962399211377765 0.0 0.0
0.0009606348879787618 -0.0003649005585819598 0.0 -0.0015633421066253428 0.0 0.0
0.0014004997752336407 -0.00061934981893641 0.0 -0.0017091956165931066 0.0 0.0
0.0021578449434509067 -0.0011197655410633 0.0 -0.002077452426678894 0.0 0.0
0.003736245495905205 -0.002338561824797747 0.0 -0.002979659756753128 0.0 0.0
0.006420547896582279 -0.004671194604772166 0.0 -0.004615351960307046 0.0 0.0
0.010228221969400972 -0.008183586076175642 0.0 -0.006905486345845313 0.0 0.0
0.014962875469310688 -0.012675768495618911 0.0 -0.009507846855223767 0.0 0.0
0.020447343151122677 -0.017942364782855158 0.0 -0.012128727829387786 0.0 0.0
0.02660704133317532 -0.0238954506270308 0.0 -0.014671229625208448 0.0 0.0
0.03346975645072027 -0.03055790589048968 0.0 -0.017211173415884184 0.0 0.0
0.04110710550984213 -0.03799757556953365 0.0 -0.019800124492365623 0.0 0.0
0.049535294014446965 -0.04622672520121851 0.0 -0.02234600080449084 0.0 0.0
0.058637014500016196 -0.055129802693359764 0.0 -0.02454857592410631 0.0 0.0
0.06814744462546156 -0.06444131141912912 0.0 -0.02589739215400777 0.0 0.0
0.07763622783835937 -0.07371909890675088 0.0 -0.025549643881541073 0.0 0.0
0.08634466060279382 -0.08220254664122484 0.0 -0.02196211825313954 0.0 0.0
0.09309986815628021 -0.08875590524488475 0.0 -0.013318257649176268 0.0 0.0
0.09309986815627291 -0.08875590524487587 0.0 0.013318257649221343 0.0 0.0
0.08634466060277288 -0.08220254664120619 0.0 0.021962118253199714 0.0 0.0
0.07763622783833085 -0.07371909890672246 0.0 0.02554964388158454 0.0 0.0
0.06814744462542649 -0.06444131141909049 0.0 0.025897392154027754 0.0 0.0
0.05863701449997741 -0.05512980269331802 0.0 0.02454857592410009 0.0 0.0
0.04953529401440604 -0.046226725201175434 0.0 0.022346000804482236 0.0 0.0
0.04110710550980262 -0.03799757556948968 0.0 0.01980012449235713 0.0 0.0
0.03346975645068209 -0.030557905890450154 0.0 0.017211173415874526 0.0 0.0
0.026607041333138848 -0.023895450626994386 0.0 0.014671229625193849 0.0 0.0
0.020447343151089592 -0.01794236478282718 0.0 0.012128727829369024 0.0 0.0
0.014962875469281683 -0.012675768495591155 0.0 0.009507846855199509 0.0 0.0
0.01022822196937831 -0.008183586076153881 0.0 0.006905486345831047 0.0 0.0
0.00642054789656632 -0.004671194604755735 0.0 0.004615351960296665 0.0 0.0
0.0037362454958960734 -0.002338561824789309 0.0 0.0029796597567472993 0.0 0.0
0.002157844943446674 -0.001119765541062634 0.0 0.0020774524266743977 0.0 0.0
0.0014004997752326553 -0.0006193498189375202 0.0 0.0017091956165913302 0.0 0.0
0.0009606348879780957 -0.00036490055858018344 0.0 0.0015633421066248987 0.0 0.0
0.0005305638592780493 -0.0001567997059598314 0.0 0.0015962399211365552 0.0 0.0
0.00022043781085148706 -0.00025083609438689147 0.0 0.0019572441505824045 0.0 0.0
0.0025141772711574084 -0.003908678060076829 0.0 0.0043278960452314275 0.0 0.0
0.001821487738039973 -0.0030633431344980755 0.0 -0.0034749776126459797 0.0 0.0
0.00015206142445509108 -0.00022347366562758264 0.0 -0.0021967825246956285 0.0 0.0
0.0003578186449803705 -0.00010485934746451431 0.0 -0.0018866555985749822 0.0 0.0
0.0007068216506671832 -0.0002516842730401203 0.0 -0.0018323676261183808 0.0 0.0
0.0010830802853334515 -0.0004640800895230335 0.0 -0.0019699646078733535 0.0 0.0
0.0016204607502186275 -0.000787469281668951 0.0 -0.0022701325857991117 0.0 0.0
0.0027337121744462622 -0.0015665735609979858 0.0 -0.003024771373071 0.0 0.0
0.004735953799091919 -0.0031981143087909114 0.0 -0.004474253337585499 0.0 0.0
0.007685102110569025 -0.005830752355168833 0.0 -0.006579776790794856 0.0 0.0
0.011424227674569007 -0.009320798818964526 0.0 -0.009093647198681887 0.0 0.0
0.015739323471495315 -0.013434858762504831 0.0 -0.01168350779581101 0.0 0.0
0.020547128236023796 -0.01805735368303152 0.0 -0.014175018466436984 0.0 0.0
0.025872660957959648 -0.023209649484138506 0.0 -0.016642930447213544 0.0 0.0
0.03180443669890606 -0.02897515337061396 0.0 -0.01915717686497498 0.0 0.0
0.038403129425843355 -0.035409739636812265 0.0 -0.021634213581418704 0.0 0.0
0.04563186818344503 -0.04246926023131792 0.0 -0.023793114866566933 0.0 0.0
0.05332925201364343 -0.0500094521774046 0.0 -0.0252307529841293 0.0 0.0
0.06131730916607779 -0.05784310704130835 0.0 -0.02527269593987036 0.0 0.0
0.0692360648086495 -0.06557519869790518 0.0 -0.02236500065777769 0.0 0.0
0.07615054324998474 -0.0722764886937961 0.0 -0.014230999931640342 0.0 0.0
0.0761505432499793 -0.07227648869379122 0.0 0.014230999931683308 0.0 0.0
0.06923606480863248 -0.06557519869789141 0.0 0.022365000657836975 0.0 0.0
0.061317309166054795 -0.05784310704129014 0.0 0.025272695939915435 0.0 0.0
0.053329252013615436 -0.050009452177380176 0.0 0.025230752984148563 0.0 0.0
0.0456318681834135 -0.042469260231288164 0.0 0.023793114866556664 0.0 0.0
0.038403129425811006 -0.03540973963678473 0.0 0.021634213581407602 0.0 0.0
0.031804436698875505 -0.028975153370590423 0.0 0.01915717686496521 0.0 0.0
0.02587266095793128 -0.02320964948411186 0.0 0.01664293044720444 0.0 0.0
0.020547128235995554 -0.01805735368300887 0.0 0.014175018466419442 0.0 0.0
0.01573932347146967 -0.013434858762479962 0.0 0.01168350779579197 0.0 0.0
0.011424227674546372 -0.009320798818942766 0.0 0.009093647198658183 0.0 0.0
0.007685102110552011 -0.00583075235515329 0.0 0.0065797767907818105 0.0 0.0
0.004735953799080123 -0.0031981143087800312 0.0 0.004474253337574063 0.0 0.0
0.0027337121744399062 -0.001566573560993767 0.0 0.0030247713730637837 0.0 0.0
0.001620460750215852 -0.0007874692816698392 0.0 0.002270132585796336 0.0 0.0
0.0010830802853329935 -0.000464080089520591 0.0 0.0019699646078708 0.0 0.0
0.0007068216506665448 -0.00025168427304078644 0.0 0.0018323676261154942 0.0 0.0
0.00035781864498035665 -0.00010485934746529146 0.0 0.0018866555985715405 0.0 0.0
0.00015206142445473025 -0.0002234736656276659 0.0 0.0021967825246925754 0.0 0.0
0.0018214877380348937 -0.0030633431344919883 0.0 0.0034749776126384857 0.0 0.0
0.0012861206807755904 -0.0023679897668159033 0.0 -0.00280840062776333 0.0 0.0
8.879641264078475e-05 -0.00020033288464349486 0.0 -0.002336777457804806 0.0 0.0
0.00019862756173198715 -5.437651032225155e-05 0.0 -0.002109351175997587 0.0 0.0
0.0004588580281952165 -0.00014071637091761513 0.0 -0.002056926398624037 0.0 0.0
0.0007615964155544552 -0.00031452970470424724 0.0 -0.002203791863740201 0.0 0.0
0.001140313834509868 -0.0005289854176213638 0.0 -0.002478353086313556 0.0 0.0
0.0018452691659449766 -0.0009613586440151423 0.0 -0.0030381861137578903 0.0 0.0
0.003189782290987625 -0.001937907155887375 0.0 -0.004161611828305212 0.0 0.0
0.005264380440261784 -0.0036726897782566326 0.0 -0.005895724831604943 0.0 0.0
0.007963275419896693 -0.006106598229773219 0.0 -0.008058882100207165 0.0 0.0
0.011092639352761474 -0.009037417730155983 0.0 -0.0103923049659565 0.0 0.0
0.014550553021215704 -0.012328943394307679 0.0 -0.012683463112064364 0.0 0.0
0.018352414619829727 -0.01598136719977683 0.0 -0.014947775962049437 0.0 0.0
0.02258508844890149 -0.020078612171017696 0.0 -0.017223043907098556 0.0 0.0
0.027344969684416562 -0.02470889902612372 0.0 -0.019477794504961232 0.0 0.0
0.03267295560228008 -0.029902633219583752 0.0 -0.02148305033993264 0.0 0.0
0.038510387565116794 -0.03560834822482972 0.0 -0.02283642261649721 0.0 0.0
0.04484172480157003 -0.041845572077574555 0.0 -0.023202399179559796 0.0 0.0
0.05177430254473547 -0.048661543661130846 0.0 -0.021465147870115997 0.0 0.0
0.058846814885146814 -0.05550866095892104 0.0 -0.014850484623928129 0.0 0.0
0.05884681488514282 -0.0555086609589166 0.0 0.014850484623969318 0.0 0.0
0.05177430254472315 -0.04866154366112019 0.0 0.021465147870169288 0.0 0.0
0.04484172480155249 -0.04184557207755457 0.0 0.02320239917960054 0.0 0.0
0.038510387565096116 -0.03560834822481018 0.0 0.02283642261651142 0.0 0.0
0.03267295560225664 -0.0299026332195651 0.0 0.02148305033992093 0.0 0.0
0.0273449696843934 -0.024708899026095743 0.0 0.019477794504950907 0.0 0.0
0.02258508844888016 -0.020078612170991494 0.0 0.017223043907091284 0.0 0.0
0.018352414619810714 -0.015981367199755958 0.0 0.014947775962043774 0.0 0.0
0.014550553021195983 -0.012328943394284586 0.0 0.012683463112051485 0.0 0.0
0.011092639352743378 -0.009037417730137776 0.0 0.010392304965940014 0.0 0.0
0.0079632754198809 -0.006106598229763671 0.0 0.008058882100186904 0.0 0.0
0.005264380440250183 -0.003672689778249083 0.0 0.005895724831595728 0.0 0.0
0.0031897822909799922 -0.0019379071558829342 0.0 0.004161611828298328 0.0 0.0
0.001845269165941188 -0.0009613586440084809 0.0 0.003038186113753838 0.0 0.0
0.0011403138345082442 -0.000528985417617811 0.0 0.002478353086310725 0.0 0.0
0.0007615964155540944 -0.00031452970470380315 0.0 0.0022037918637376475 0.0 0.0
0.00045885802819473076 -0.00014071637091672695 0.0 0.0020569263986234265 0.0 0.0
0.00019862756173166796 -5.437651032247359e-05 0.0 0.002109351175995866 0.0 0.0
8.879641264045168e-05 -0.000200332884643023 0.0 0.002336777457803363 0.0 0.0
0.0012861206807721903 -0.002367989766811485 0.0 0.00280840062775789 0.0 0.0
0.0008943814970697878 -0.001828488562114039 0.0 -0.0023317806664110985 0.0 0.0
1.700459731628079e-05 -0.00017964728552871678 0.0 -0.002409974093774747 0.0 0.0
4.652760640140585e-05 5.08468792070893e-07 0.0 -0.002267132496685753 0.0 0.0
0.0002182510950773653 -3.374556108193261e-05 0.0 -0.002229621002920623 0.0 0.0
0.00043186265481888475 -0.00015932886298464233 0.0 -0.0023791848206357047 0.0 0.0
0.0006795237774151752 -0.00030561577914678395 0.0 -0.0026797763354282633 0.0 0.0
0.0010695778123305105 -0.0005154033969798633 0.0 -0.0030998923651519017 0.0 0.0
0.0018051933365040435 -0.0009529331010351694 0.0 -0.0038002584805920114 0.0 0.0
0.003017049645797909 -0.0018206117203216632 0.0 -0.0049545958396912115 0.0 0.0
0.004641917084831873 -0.0031618909350585866 0.0 -0.006510134609820417 0.0 0.0
0.0065514689189338365 -0.004860413176432488 0.0 -0.008319726895876844 0.0 0.0
0.008642385590431331 -0.006795512959786532 0.0 -0.010201995795429297 0.0 0.0
0.010928782650088967 -0.008949410612221875 0.0 -0.012130973819982294 0.0 0.0
0.013476787571540583 -0.01138786528117075 0.0 -0.014060270478540748 0.0 0.0
0.016387269790805625 -0.014203774073605402 0.0 -0.015973736175953213 0.0 0.0
0.019777336018909464 -0.017499756573720493 0.0 -0.017753143894029155 0.0 0.0
0.023725519083111296 -0.021338500259453497 0.0 -0.019037956879150553 0.0 0.0
0.02829991979196042 -0.02582850183225016 0.0 -0.019474402449361383 0.0 0.0
0.03386321235347864 -0.03139656879344965 0.0 -0.018896796967584062 0.0 0.0
0.04089666746290746 -0.03822649456488625 0.0 -0.014951225814385571 0.0 0.0
0.040896667462904934 -0.03822649456488314 0.0 0.014951225814420877 0.0 0.0
0.033863212353471006 -0.03139656879344521 0.0 0.018896796967632357 0.0 0.0
0.02829991979194843 -0.02582850183224039 0.0 0.01947440244939813 0.0 0.0
0.023725519083097973 -0.021338500259437065 0.0 0.019037956879159768 0.0 0.0
0.019777336018895336 -0.01749975657370273 0.0 0.01775314389401672 0.0 0.0
0.016387269790792275 -0.014203774073593856 0.0 0.015973736175942332 0.0 0.0
0.013476787571529036 -0.011387865281167642 0.0 0.01406027047853542 0.0 0.0
0.010928782650078878 -0.008949410612223652 0.0 0.012130973819978519 0.0 0.0
0.008642385590420243 -0.006795512959774097 0.0 0.010201995795417695 0.0 0.0
0.006551468918923664 -0.004860413176418721 0.0 0.008319726895861801 0.0 0.0
0.004641917084823116 -0.003161890935049927 0.0 0.006510134609804152 0.0 0.0
0.0030170496457918305 -0.0018206117203141137 0.0 0.00495459583968505 0.0 0.0
0.001805193336500227 -0.0009529331010318387 0.0 0.0038002584805882367 0.0 0.0
0.0010695778123284705 -0.0005154033969798633 0.0 0.003099892365148127 0.0 0.0
0.0006795237774143426 -0.00030561577914767213 0.0 0.0026797763354228787 0.0 0.0
0.00043186265481864883 -0.00015932886298464233 0.0 0.002379184820632707 0.0 0.0
0.000218251095077171 -3.374556108171056e-05 0.0 0.002229621002916571 0.0 0.0
4.652760640103115e-05 5.084687928480491e-07 0.0 0.0022671324966820894 0.0 0.0
1.7004597315795067e-05 -0.00017964728552824494 0.0 0.0024099740937728598 0.0 0.0
0.0008943814970674979 -0.001828488562111208 0.0 0.0023317806664063245 0.0 0.0
0.0006186914180437153 -0.0014233455471012735 0.0 -0.0020073383521452826 0.0 0.0
-5.988755818592262e-05 -0.00016259312040245444 0.0 -0.0024483086454457625 0.0 0.0
-0.00010129571589967412 6.0181576711726414e-05 0.0 -0.002367050991455011 0.0 0.0
-1.52997229427021e-05 6.953908280937782e-05 0.0 -0.0023450546709286035 0.0 0.0
9.980259892530818e-05 -1.7261262328371885e-06 0.0 -0.0024849300900257054 0.0 0.0
0.00021190321006175905 -8.243313894618076e-05 0.0 -0.0028070621533555773 0.0 0.0
0.000349987554965292 -0.0001631641271049311 0.0 -0.0032451049408153687 0.0 0.0
0.0005775720885413116 -0.0002782996013379613 0.0 -0.0036994793263052106 0.0 0.0
0.0009714128568003022 -0.00048132532097411307 0.0 -0.004242327146224134 0.0 0.0
0.001512377207883553 -0.0008086661532766826 0.0 -0.00503071342910727 0.0 0.0
0.0021565163011094957 -0.001249879005213561 0.0 -0.006144029610208324 0.0 0.0
0.002850492166907026 -0.0017817214922200009 0.0 -0.007484304772131134 0.0 0.0
0.003604370849392108 -0.0024110764056715084 0.0 -0.009011558184514379 0.0 0.0
0.004456651776610171 -0.003172751959719111 0.0 -0.010698931815899981 0.0 0.0
0.005501793328678867 -0.0041470671259769 0.0 -0.012525629101632463 0.0 0.0
0.006917105953347075 -0.005491594893280105 0.0 -0.014360384234593182 0.0 0.0
0.00894957293066928 -0.007427714521008433 0.0 -0.01582383178737301 0.0 0.0
0.011812386333162533 -0.010152001535222777 0.0 -0.016305258165263514 0.0 0.0
0.015746097255223024 -0.014064180985982944 0.0 -0.015787487680281154 0.0 0.0
0.02195991630550581 -0.02032985066980597 0.0 -0.014557959994965342 0.0 0.0
0.021959916305505728 -0.020329850669805083 0.0 0.014557959994988434 0.0 0.0
0.015746097255219638 -0.014064180985978947 0.0 0.01578748768032001 0.0 0.0
0.011812386333156538 -0.010152001535213007 0.0 0.01630525816528705 0.0 0.0
0.008949572930664201 -0.00742771452100266 0.0 0.01582383178737401 0.0 0.0
0.006917105953343244 -0.005491594893278773 0.0 0.014360384234582302 0.0 0.0
0.005501793328675703 -0.004147067125976012 0.0 0.012525629101624136 0.0 0.0
0.004456651776608173 -0.0031727519597146703 0.0 0.010698931815894097 0.0 0.0
0.0036043708493908033 -0.0024110764056666234 0.0 0.009011558184509383 0.0 0.0
0.002850492166905111 -0.001781721492216004 0.0 0.007484304772122807 0.0 0.0
0.0021565163011077193 -0.0012498790052104525 0.0 0.006144029610199553 0.0 0.0
0.001512377207881832 -0.0008086661532722417 0.0 0.005030713429096834 0.0 0.0
0.0009714128567992475 -0.0004813253209727808 0.0 0.004242327146221747 0.0 0.0
0.0005775720885405622 -0.0002782996013386274 0.0 0.003699479326302657 0.0 0.0
0.00034998755496462586 -0.00016316412710470907 0.0 0.0032451049408102617 0.0 0.0
0.0002119032100614815 -8.243313894817916e-05 0.0 0.0028070621533510254 0.0 0.0
9.980259892558574e-05 -1.7261262337253669e-06 0.0 0.0024849300900228743 0.0 0.0
-1.52997229427021e-05 6.95390828098219e-05 0.0 0.002345054670926383 0.0 0.0
-0.00010129571589992392 6.0181576712170504e-05 0.0 0.0023670509914524573 0.0 0.0
-5.988755818617242e-05 -0.00016259312040214913 0.0 0.0024483086454442637 0.0 0.0
0.0006186914180423275 -0.001423345547099334 0.0 0.002007338352143173 0.0 0.0
0.0004266884961477979 -0.0011290246276151883 0.0 -0.0017988394117710027 0.0 0.0
-0.00013269332235696374 -0.00014014675622098238 0.0 -0.0024490063847538157 0.0 0.0
-0.00024430962000307477 0.00011941717100594218 0.0 -0.0024160025414856623 0.0 0.0
-0.00024205411846367486 0.00016970733437893237 0.0 -0.0023992761755189385 0.0 0.0
-0.00022884128633091083 0.00015401733222941694 0.0 -0.002520419847061195 0.0 0.0
-0.0002604215756980277 0.00014383817595842174 0.0 -0.0028222524204862265 0.0 0.0
-0.00036474620423718185 0.000178880797343961 0.0 -0.0032502521823514763 0.0 0.0
-0.0005808140016008434 0.0002812788027348745 0.0 -0.003703057741281157 0.0 0.0
-0.0009704918780752692 0.00048128089554300146 0.0 -0.004243801514841161 0.0 0.0
-0.0015106769340728077 0.0008079206824849194 0.0 -0.005029092147946335 0.0 0.0
-0.00215969232029245 0.0012558064721477358 0.0 -0.0061430777547097914 0.0 0.0
-0.0028779650002629664 0.0018097399772654121 0.0 -0.007489260670956122 0.0 0.0
-0.003672601289178762 0.0024707940126682537 0.0 -0.00901877554170738 0.0 0.0
-0.004532287252419165 0.00321771483470501 0.0 -0.0107053188458065 0.0 0.0
-0.005363595896238305 0.003951712292589171 0.0 -0.012545770351145125 0.0 0.0
-0.005949416676284708 0.004462280247003125 0.0 -0.014498859659601182 0.0 0.0
-0.005921587273183926 0.004412064645068714 0.0 -0.01653252093940971 0.0 0.0
-0.004903337530454632 0.0035472604333741664 0.0 -0.018680307819228026 0.0 0.0
-0.002596477418828874 0.0017468304812116031 0.0 -0.02059694777571608 0.0 0.0
0.0030685475701729137 -0.0035483542806105106 0.0 -0.019057938243131956 0.0 0.0
0.0030685475701732745 -0.00354835428060829 0.0 0.01905793824314772 0.0 0.0
-0.0025964774188296236 0.0017468304812133795 0.0 0.020596947775734398 0.0 0.0
-0.004903337530452578 0.003547260433366617 0.0 0.01868030781923158 0.0 0.0
-0.0059215872731782915 0.004412064645060276 0.0 0.01653252093940205 0.0 0.0
-0.0059494166762770195 0.004462280246996908 0.0 0.014498859659588081 0.0 0.0
-0.005363595896231976 0.003951712292581178 0.0 0.012545770351134578 0.0 0.0
-0.004532287252412115 0.0032177148346987927 0.0 0.010705318845797618 0.0 0.0
-0.0036726012891710458 0.0024707940126580397 0.0 0.009018775541701829 0.0 0.0
-0.0028779650002548063 0.0018097399772587508 0.0 0.00748926067094613 0.0 0.0
-0.002159692320285622 0.0012558064721432949 0.0 0.00614307775469769 0.0 0.0
-0.00151067693406709 0.000807920682477592 0.0 0.00502909214793551 0.0 0.0
-0.0009704918780720773 0.00048128089554233533 0.0 0.004243801514838552 0.0 0.0
-0.0005808140015987062 0.0002812788027344304 0.0 0.003703057741278548 0.0 0.0
-0.0003647462042360994 0.00017888079734351692 0.0 0.003250252182346758 0.0 0.0
-0.0002604215756976669 0.00014383817595930992 0.0 0.0028222524204826183 0.0 0.0
-0.0002288412863299949 0.00015401733222997205 0.0 0.0025204198470583083 0.0 0.0
-0.00024205411846350833 0.00016970733438015362 0.0 0.002399276175516052 0.0 0.0
-0.0002443096200031858 0.00011941717100738547 0.0 0.0024160025414838304 0.0 0.0
-0.000132693322357047 -0.00014014675622098238 0.0 0.0024490063847527055 0.0 0.0
0.00042668849614732607 -0.0011290246276144042 0.0 0.001798839411769948 0.0 0.0
0.00029405350261149654 -0.0008973336224913642 0.0 -0.0016258910143283067 0.0 0.0
-0.00019824733993284438 -0.00010958991528292605 0.0 -0.0023998673761969624 0.0 0.0
-0.00038042972499438554 0.0001754365397373947 0.0 -0.002412373488515307 0.0 0.0
-0.0004609955497489604 0.0002655795091235369 0.0 -0.0023879162165483248 0.0 0.0
-0.0005509134722391507 0.0003048284997875239 0.0 -0.00247975613558743 0.0 0.0
-0.0007251834774870125 0.000365468134081004 0.0 -0.0027301040784387665 0.0 0.0
-0.0010838985396072476 0.0005315146970950035 0.0 -0.0031218587947420273 0.0 0.0
-0.0018074716036660943 0.0009561125043966445 0.0 -0.003810989990981173 0.0 0.0
-0.0030148328207182384 0.0018194604826766714 0.0 -0.004956155206173651 0.0 0.0
-0.004640146424685548 0.0031615339710606705 0.0 -0.006508539751814757 0.0 0.0
-0.00655675283502366 0.00486888596333479 0.0 -0.008318858241371019 0.0 0.0
-0.00866924001390798 0.006826524042294668 0.0 -0.010192941051367366 0.0 0.0
-0.010991918465384803 0.009011470202501481 0.0 -0.012095708132490945 0.0 0.0
-0.01354287794347539 0.011430898678933765 0.0 -0.014015732618001486 0.0 0.0
-0.016245431280036277 0.01399742328854403 0.0 -0.01604100468372205 0.0 0.0
-0.01885029163743726 0.01646528351644516 0.0 -0.01826170427935525 0.0 0.0
-0.020921836104036973 0.018419909367832776 0.0 -0.020752763502561278 0.0 0.0
-0.02191481202595824 0.0193392179605687 0.0 -0.023422864545814992 0.0 0.0
-0.020853717952465378 0.018004940419587445 0.0 -0.024585624909697956 0.0 0.0
-0.01495638946337724 0.011869668105362052 0.0 -0.02224616762902143 0.0 0.0
-0.014956389463377684 0.011869668105361608 0.0 0.022246167629049518 0.0 0.0
-0.020853717952463185 0.01800494041958922 0.0 0.02458562490973759 0.0 0.0
-0.02191481202594847 0.01933921796056337 0.0 0.023422864545838973 0.0 0.0
-0.020921836104020597 0.01841990936781901 0.0 0.0207527635025595 0.0 0.0
-0.018850291637419067 0.01646528351642873 0.0 0.018261704279339763 0.0 0.0
-0.016245431280019776 0.013997423288533373 0.0 0.016041004683707172 0.0 0.0
-0.013542877943459625 0.011430898678922219 0.0 0.014015732617991439 0.0 0.0
-0.010991918465367997 0.00901147020249038 0.0 0.012095708132481175 0.0 0.0
-0.008669240013890536 0.006826524042280457 0.0 0.010192941051351379 0.0 0.0
-0.006556752835008242 0.004868885963322356 0.0 0.008318858241350868 0.0 0.0
-0.004640146424672004 0.003161533971053565 0.0 0.006508539751798104 0.0 0.0
-0.003014832820710342 0.0018194604826686778 0.0 0.004956155206165602 0.0 0.0
-0.0018074716036604738 0.0009561125043922036 0.0 0.003810989990977842 0.0 0.0
-0.0010838985396046663 0.0005315146970927831 0.0 0.0031218587947391407 0.0 0.0
-0.0007251834774857635 0.0003654681340805599 0.0 0.0027301040784352137 0.0 0.0
-0.000550913472238207 0.0003048284997874129 0.0 0.0024797561355857645 0.0 0.0
-0.0004609955497485302 0.00026557950912187156 0.0 0.00238791621654616 0.0 0.0
-0.0003804297249941496 0.00017543653973600692 0.0 0.002412373488513808 0.0 0.0
-0.00019824733993269172 -0.00010958991528317585 0.0 0.0023998673761960743 0.0 0.0
0.00029405350261135776 -0.000897333622490417 0.0 0.00162589101432703 0.0 0.0
0.0001954140207692523 -0.0006930119605787488 0.0 -0.0014411942206066786 0.0 0.0
-0.0002574051034937852 -7.263795512169047e-05 0.0 -0.002297531160503241 0.0 0.0
-0.0005081996555655333 0.00022785832229765823 0.0 -0.0023514611178901967 0.0 0.0
-0.0006710623750941225 0.00035584601934279814 0.0 -0.002312803444960654 0.0 0.0
-0.0008624254670430154 0.0004463832393977185 0.0 -0.0023605447638351817 0.0 0.0
-0.0011817625858367986 0.0005868203732843913 0.0 -0.002558520551835919 0.0 0.0
-0.0018577344865322032 0.0009788330420221758 0.0 -0.0030745056409297034 0.0 0.0
-0.003188625839791237 0.0019390954992095644 0.0 -0.004173873212295065 0.0 0.0
-0.005260833597496545 0.0036698848673735185 0.0 -0.005892993993573348 0.0 0.0
-0.007963051333605892 0.006107308030119718 0.0 -0.008057233874283087 0.0 0.0
-0.011099383069280266 0.009046546352621476 0.0 -0.010390267251982555 0.0 0.0
-0.014571597358633864 0.01235389917661145 0.0 -0.012656347553470226 0.0 0.0
-0.018397287335228385 0.01602699972610333 0.0 -0.014849238235708717 0.0 0.0
-0.022627903072060418 0.02010458377063662 0.0 -0.017063057623329714 0.0 0.0
-0.027213460851887167 0.024523980419358438 0.0 -0.019504921695537747 0.0 0.0
-0.03188188763457492 0.0290168722225288 0.0 -0.022453589613713798 0.0 0.0
-0.036097298361819324 0.03306273921172709 0.0 -0.026091640312446596 0.0 0.0
-0.03895384844850938 0.03570130181743458 0.0 -0.029743008918542202 0.0 0.0
-0.03870195117904107 0.03517280865337913 0.0 -0.03159385048902674 0.0 0.0
-0.03198055185401763 0.02779616495797299 0.0 -0.027941953744387793 0.0 0.0
-0.0319805518540168 0.027796164957972103 0.0 0.027941953744426318 0.0 0.0
-0.03870195117903469 0.03517280865337158 0.0 0.031593850489076036 0.0 0.0
-0.03895384844849405 0.03570130181742037 0.0 0.02974300891857551 0.0 0.0
-0.03609729836179443 0.03306273921170311 0.0 0.026091640312452424 0.0 0.0
-0.031881887634547704 0.02901687222249505 0.0 0.02245358961370031 0.0 0.0
-0.02721346085186019 0.024523980419330904 0.0 0.01950492169552248 0.0 0.0
-0.022627903072035868 0.02010458377060953 0.0 0.01706305762331556 0.0 0.0
-0.01839728733520224 0.01602699972607402 0.0 0.014849238235696505 0.0 0.0
-0.014571597358608052 0.012353899176586136 0.0 0.01265634755345324 0.0 0.0
-0.011099383069256036 0.009046546352600604 0.0 0.01039026725195935 0.0 0.0
-0.007963051333585075 0.006107308030099956 0.0 0.008057233874260605 0.0 0.0
-0.005260833597482958 0.0036698848673586415 0.0 0.005892993993561357 0.0 0.0
-0.0031886258397818418 0.001939095499202681 0.0 0.004173873212289236 0.0 0.0
-0.0018577344865276652 0.0009788330420195113 0.0 0.003074505640925651 0.0 0.0
-0.0011817625858346892 0.0005868203732848354 0.0 0.0025585205518326437 0.0 0.0
-0.0008624254670420994 0.0004463832393980516 0.0 0.0023605447638344046 0.0 0.0
-0.0006710623750936368 0.0003558460193432422 0.0 0.0023128034449584334 0.0 0.0
-0.0005081996555652835 0.0002278583222984909 0.0 0.002351461117887421 0.0 0.0
-0.0002574051034932856 -7.26379551213574e-05 0.0 0.002297531160500743 0.0 0.0
0.0001954140207691274 -0.0006930119605782423 0.0 0.0014411942206045136 0.0 0.0
0.00011285877113328957 -0.0005102154069754061 0.0 -0.0012503253085833776 0.0 0.0
-0.0003124880902032334 -2.9317210721913067e-05 0.0 -0.0021406157122862424 0.0 0.0
-0.0006278377760725595 0.00027705122182264397 0.0 -0.0022365960168713728 0.0 0.0
-0.0008717930520469874 0.00043898202106995576 0.0 -0.0021810509410701284 0.0 0.0
-0.0011588183286992404 0.0005784618006936526 0.0 -0.002173347192038211 0.0 0.0
-0.0016568282422093905 0.000843315925001864 0.0 -0.002377246132305666 0.0 0.0
-0.002740134405099348 0.0015815764822277867 0.0 -0.003066630481518229 0.0 0.0
-0.00473082114542156 0.003194745693820167 0.0 -0.004477264419208149 0.0 0.0
-0.007681939402026189 0.005827604857390645 0.0 -0.006574057960337276 0.0 0.0
-0.011426453127871883 0.009323585652629252 0.0 -0.009093027538721099 0.0 0.0
-0.01574639755848639 0.013443331266916214 0.0 -0.011680524798490688 0.0 0.0
-0.020556921723601185 0.018069534672342513 0.0 -0.014133115280019037 0.0 0.0
-0.025883091815377374 0.023221927910385798 0.0 -0.016489141971344545 0.0 0.0
-0.031802121526304516 0.02896546150541912 0.0 -0.01887938569687575 0.0 0.0
-0.03829613791587841 0.03527019275082477 0.0 -0.021580337789648296 0.0 0.0
-0.04509081016764738 0.04185133498976468 0.0 -0.025027432511550596 0.0 0.0
-0.05146265252153304 0.04797683645526396 0.0 -0.029394597666727584 0.0 0.0
-0.05599979801619823 0.052222237823175366 0.0 -0.033877193248554205 0.0 0.0
-0.056260348325299775 0.05206767977160798 0.0 -0.036129901794603625 0.0 0.0
-0.04788522863689326 0.04304235637721643 0.0 -0.03277353313341003 0.0 0.0
-0.047885228636890126 0.04304235637720932 0.0 0.03277353313345055 0.0 0.0
-0.056260348325289006 0.05206767977160043 0.0 0.03612990179465769 0.0 0.0
-0.05599979801617708 0.05222223782315094 0.0 0.03387719324859384 0.0 0.0
-0.05146265252150105 0.04797683645522932 0.0 0.029394597666735967 0.0 0.0
-0.045090810167612114 0.04185133498973048 0.0 0.02502743251153955 0.0 0.0
-0.03829613791584205 0.03527019275079235 0.0 0.021580337789634196 0.0 0.0
-0.031802121526270974 0.02896546150538315 0.0 0.01887938569685893 0.0 0.0
-0.025883091815341985 0.023221927910353823 0.0 0.016489141971330612 0.0 0.0
-0.020556921723566962 0.01806953467230832 0.0 0.014133115280000053 0.0 0.0
-0.01574639755845378 0.013443331266883796 0.0 0.01168052479846704 0.0 0.0
-0.011426453127844502 0.009323585652602606 0.0 0.009093027538697396 0.0 0.0
-0.007681939402006607 0.005827604857372215 0.0 0.006574057960322732 0.0 0.0
-0.0047308211454083066 0.0031947456938092866 0.0 0.004477264419196214 0.0 0.0
-0.002740134405091757 0.001581576482219127 0.0 0.0030666304815105683 0.0 0.0
-0.0016568282422062958 0.0008433159249980893 0.0 0.0023772461323020577 0.0 0.0
-0.001158818328698047 0.0005784618006943187 0.0 0.002173347192036712 0.0 0.0
-0.0008717930520462658 0.00043898202106940065 0.0 0.0021810509410692402 0.0 0.0
-0.0006278377760721848 0.0002770512218217558 0.0 0.0022365960168713728 0.0 0.0
-0.0003124880902027616 -2.9317210721940823e-05 0.0 0.0021406157122852987 0.0 0.0
0.00011285877113312304 -0.0005102154069750436 0.0 0.0012503253085828225 0.0 0.0
4.085517544658024e-05 -0.00034876922278151423 0.0 -0.0010549566801183463 0.0 0.0
-0.00036601060769628213 1.919789256715765e-05 0.0 -0.0019332613786223196 0.0 0.0
-0.0007403067748116277 0.00032389320552994594 0.0 -0.0020649089852636804 0.0 0.0
-0.001061120945067301 0.0005128384690612497 0.0 -0.0019836111504419884 0.0 0.0
-0.0014464172572283829 0.0007099110345487603 0.0 -0.001937474443738263 0.0 0.0
-0.002184560034752231 0.0011660819081504847 0.0 -0.002184093473424742 0.0 0.0
-0.0037352744999205323 0.002346177921934034 0.0 -0.0030079709974863422 0.0 0.0
-0.006413888197782408 0.004664842043229811 0.0 -0.004611360274345944 0.0 0.0
-0.01022705488256026 0.00818198587941743 0.0 -0.006898336100550073 0.0 0.0
-0.0149674879676307 0.012680583009209379 0.0 -0.009507234925380581 0.0 0.0
-0.02045325524775532 0.01794856210244644 0.0 -0.012122403536845017 0.0 0.0
-0.026601433689160153 0.02389023967066395 0.0 -0.014618694649723207 0.0 0.0
-0.03343430757082935 0.030525009388717272 0.0 -0.017028088341622505 0.0 0.0
-0.04104106068659996 0.03793608673312576 0.0 -0.019453560189734653 0.0 0.0
-0.049450285377316494 0.04613305323661976 0.0 -0.022186539874855637 0.0 0.0
-0.05837379343671095 0.054801197452491124 0.0 -0.02569660741438695 0.0 0.0
-0.0668597657985974 0.06297217841237757 0.0 -0.03024252984309428 0.0 0.0
-0.07296760120408233 0.06869029668321058 0.0 -0.03512884889969703 0.0 0.0
-0.07344633019740543 0.06867980458624467 0.0 -0.03818084059815641 0.0 0.0
-0.06335370317350661 0.05799832275177552 0.0 -0.037106244766678675 0.0 0.0
-0.06335370317350109 0.057998322751767084 0.0 0.037106244766721086 0.0 0.0
-0.07344633019738996 0.06867980458622736 0.0 0.038180840598208365 0.0 0.0
-0.07296760120405531 0.06869029668318172 0.0 0.035128848899734944 0.0 0.0
-0.06685976579855855 0.06297217841234115 0.0 0.03024252984310477 0.0 0.0
-0.058373793436668306 0.054801197452448935 0.0 0.02569660741438068 0.0 0.0
-0.04945028537727142 0.046133053236575794 0.0 0.022186539874843147 0.0 0.0
-0.04104106068655661 0.03793608673308535 0.0 0.019453560189719055 0.0 0.0
-0.03343430757078561 0.030525009388671087 0.0 0.01702808834161057 0.0 0.0
-0.0266014336891168 0.02389023967061865 0.0 0.014618694649705666 0.0 0.0
-0.020453255247715185 0.017948562102408694 0.0 0.012122403536821647 0.0 0.0
-0.014967487967596838 0.012680583009178736 0.0 0.009507234925356822 0.0 0.0
-0.010227054882534989 0.008181985879393228 0.0 0.006898336100535363 0.0 0.0
-0.006413888197764686 0.00466484204321338 0.0 0.004611360274334453 0.0 0.0
-0.0037352744999098464 0.0023461779219275947 0.0 0.0030079709974790148 0.0 0.0
-0.002184560034747776 0.0011660819081480422 0.0 0.002184093473420079 0.0 0.0
-0.0014464172572266898 0.0007099110345492043 0.0 0.0019374744437371527 0.0 0.0
-0.0010611209450664821 0.000512838469062471 0.0 0.001983611150440212 0.0 0.0
-0.0007403067748111419 0.0003238932055303345 0.0 0.002064908985261793 0.0 0.0
-0.00036601060769578253 1.9197892566630292e-05 0.0 0.0019332613786210984 0.0 0.0
4.0855175446344316e-05 -0.00034876922278123147 0.0 0.0010549566801180688 0.0 0.0
-2.12477493369001e-05 -0.00021022679069934713 0.0 -0.0008541501782547978 0.0 0.0
-0.0004183537773181367 7.092501684569097e-05 0.0 -0.001681054698600637 0.0 0.0
-0.0008464222241293118 0.00036815000609513593 0.0 -0.0018372192689654065 0.0 0.0
-0.0012394888231924417 0.0005804388223293877 0.0 -0.001737322557242127 0.0 0.0
-0.001743074415282292 0.0008609962125867288 0.0 -0.0016815910058072814 0.0 0.0
-0.002778924742140171 0.0015725200600611444 0.0 -0.0019600408299422223 0.0 0.0
-0.004839579396404864 0.003264255790185633 0.0 -0.0028554625898130626 0.0 0.0
-0.008209840427299692 0.006298824330280839 0.0 -0.004527730478315395 0.0 0.0
-0.012834323915945828 0.010645936140637025 0.0 -0.006768946740935977 0.0 0.0
-0.018545311841882378 0.016106475877459392 0.0 -0.009254554830903206 0.0 0.0
-0.02519161752211957 0.022514063732487877 0.0 -0.011766964190781715 0.0 0.0
-0.03268346325028254 0.029775275712639715 0.0 -0.014167036056633497 0.0 0.0
-0.041033170817014214 0.03790116690420531 0.0 -0.016498067095530478 0.0 0.0
-0.050325480961382424 0.04697520399337751 0.0 -0.018853505862729714 0.0 0.0
-0.06060595134464103 0.057022855710845644 0.0 -0.021373128166998656 0.0 0.0
-0.07158850006170697 0.06771263190061516 0.0 -0.02445729588352563 0.0 0.0
-0.08212750109921585 0.07786826439045713 0.0 -0.02862576475563272 0.0 0.0
-0.08974146540325686 0.08500568245971207 0.0 -0.033674180251923924 0.0 0.0
-0.09045250867162324 0.08518323811941286 0.0 -0.03827709211765595 0.0 0.0
-0.07888397246321452 0.07306310681429862 0.0 -0.041231123956878335 0.0 0.0
-0.07888397246320719 0.07306310681428929 0.0 0.04123112395692252 0.0 0.0
-0.0904525086716032 0.08518323811938977 0.0 0.038277092117709244 0.0 0.0
-0.0897414654032235 0.08500568245968232 0.0 0.03367418025196256 0.0 0.0
-0.08212750109917044 0.07786826439041317 0.0 0.0286257647556446 0.0 0.0
-0.07158850006165672 0.06771263190056231 0.0 0.02445729588352069 0.0 0.0
-0.06060595134458768 0.057022855710795906 0.0 0.021373128166990385 0.0 0.0
-0.05032548096132951 0.04697520399332422 0.0 0.018853505862714726 0.0 0.0
-0.04103317081696224 0.037901166904155126 0.0 0.016498067095519264 0.0 0.0
-0.03268346325023046 0.02977527571259131 0.0 0.01416703605661579 0.0 0.0
-0.025191617522072274 0.022514063732444356 0.0 0.011766964190758566 0.0 0.0
-0.01854531184184198 0.016106475877419868 0.0 0.009254554830879669 0.0 0.0
-0.012834323915914908 0.010645936140606382 0.0 0.006768946740921156 0.0 0.0
-0.008209840427277758 0.006298824330260411 0.0 0.004527730478304209 0.0 0.0
-0.004839579396390986 0.0032642557901747526 0.0 0.0028554625898043473 0.0 0.0
-0.002778924742133697 0.0015725200600567035 0.0 0.0019600408299377814 0.0 0.0
-0.0017430744152797314 0.0008609962125851744 0.0 0.0016815910058060601 0.0 0.0
-0.0012394888231919352 0.0005804388223273893 0.0 0.0017373225572405726 0.0 0.0
-0.0008464222241285416 0.0003681500060939147 0.0 0.0018372192689649625 0.0 0.0
-0.000418353777317651 7.092501684544117e-05 0.0 0.0016810546985995267 0.0 0.0
-2.1247749337025e-05 -0.00021022679069895855 0.0 0.0008541501782531324 0.0 0.0
-7.176232169184282e-05 -9.69910905624094e-05 0.0 -0.000647068082590796 0.0 0.0
-0.0004675404904563585 0.00012301621950949748 0.0 -0.0013889570653679018 0.0 0.0
-0.0009468544038741811 0.0004097882355841298 0.0 -0.0015537724311045498 0.0 0.0
-0.0014118377854918929 0.0006448720720095835 0.0 -0.001441466835144456 0.0 0.0
-0.002066377747393877 0.0010401429859827616 0.0 -0.0013858252990228692 0.0 0.0
-0.0034485498372719414 0.002079196368942382 0.0 -0.0016908810153783427 0.0 0.0
-0.0060477046832576875 0.004325085621036173 0.0 -0.0026074750187739526 0.0 0.0
-0.010062425828878063 0.008032052961766789 0.0 -0.004154957224445532 0.0 0.0
-0.015462432601868664 0.013157140486613539 0.0 -0.006139124060066503 0.0 0.0
-0.022136122832579957 0.01956616030567071 0.0 -0.008372969889620108 0.0 0.0
-0.029937387677695354 0.027108007995180206 0.0 -0.010631002045344617 0.0 0.0
-0.03877938063447853 0.035693965589931764 0.0 -0.01279492826411488 0.0 0.0
-0.0486606619654355 0.045324399541304405 0.0 -0.014925200836180763 0.0 0.0
-0.059633362256394346 0.05604935606000572 0.0 -0.01706643189800572 0.0 0.0
-0.07170689330311836 0.06786774070442192 0.0 -0.019210319469460613 0.0 0.0
-0.08459440319145878 0.08044249298888984 0.0 -0.021502368577566378 0.0 0.0
-0.09707838605103769 0.09248664941289286 0.0 -0.024633595674243725 0.0 0.0
-0.10626637983488324 0.10112307737531134 0.0 -0.029543049219285855 0.0 0.0
-0.10752190078425838 0.10178875976311419 0.0 -0.03647053163778502 0.0 0.0
-0.09486928979338474 0.08858891152907189 0.0 -0.045133520857506104 0.0 0.0
-0.09486928979337661 0.08858891152906478 0.0 0.04513352085754774 0.0 0.0
-0.1075219007842341 0.10178875976308799 0.0 0.03647053163783365 0.0 0.0
-0.10626637983484329 0.10112307737527049 0.0 0.029543049219319384 0.0 0.0
-0.09707838605098529 0.09248664941284357 0.0 0.024633595674251774 0.0 0.0
-0.08459440319140087 0.08044249298883122 0.0 0.021502368577564657 0.0 0.0
-0.0717068933030569 0.06786774070435841 0.0 0.019210319469452786 0.0 0.0
-0.05963336225633263 0.05604935605994932 0.0 0.017066431897995338 0.0 0.0
-0.04866066196537494 0.045324399541250227 0.0 0.014925200836170577 0.0 0.0
-0.038779380634418104 0.03569396558987137 0.0 0.012794928264099475 0.0 0.0
-0.029937387677640925 0.02710800799512647 0.0 0.0106310020453243 0.0 0.0
-0.022136122832533252 0.019566160305627855 0.0 0.008372969889596793 0.0 0.0
-0.01546243260183238 0.013157140486580454 0.0 0.006139124060051848 0.0 0.0
-0.010062425828851924 0.008032052961744807 0.0 0.004154957224433292 0.0 0.0
-0.006047704683240528 0.0043250856210226285 0.0 0.0026074750187653206 0.0 0.0
-0.0034485498372630805 0.002079196368937497 0.0 0.001690881015372736 0.0 0.0
-0.0020663777473904493 0.0010401429859812072 0.0 0.001385825299021981 0.0 0.0
-0.001411837785491074 0.0006448720720092505 0.0 0.0014414668351439008 0.0 0.0
-0.0009468544038734733 0.0004097882355842408 0.0 0.0015537724311032175 0.0 0.0
-0.0004675404904559144 0.00012301621950883135 0.0 0.001388957065366181 0.0 0.0
-7.17623216917665e-05 -9.699109056244583e-05 0.0 0.0006470680825893527 0.0 0.0
-0.0001069675935168879 -1.2261545571462529e-05 0.0 -0.00043532363291198806 0.0 0.0
-0.0005087877313992017 0.00017177931673251212 0.0 -0.0010596377582657301 0.0 0.0
-0.0010423040075791257 0.00044775973035060534 0.0 -0.001213323903524799 0.0 0.0
-0.0015862148336318327 0.0007157499583828608 0.0 -0.0011014751426425828 0.0 0.0
-0.0024319453806278812 0.001269258957213193 0.0 -0.0010545068524414614 0.0 0.0
-0.004205706873838783 0.002693262380002226 0.0 -0.001373291478640959 0.0 0.0
-0.007320206505817273 0.005479646292566809 0.0 -0.0021661312875740912 0.0 0.0
-0.011930986616284667 0.00980615530084017 0.0 -0.003418744200982926 0.0 0.0
-0.018091173007211553 0.01568723031798025 0.0 -0.005041614133991845 0.0 0.0
-0.02571381165958367 0.023029847125008995 0.0 -0.006876326621273909 0.0 0.0
-0.03466686811413233 0.03170154004452819 0.0 -0.008736577282509095 0.0 0.0
-0.044864578110356684 0.04161858648515793 0.0 -0.010516322441668113 0.0 0.0
-0.05629026704984519 0.05276412406069575 0.0 -0.012279687023221908 0.0 0.0
-0.06894392456197196 0.0651363333954933 0.0 -0.014096582446782135 0.0 0.0
-0.08273020161285577 0.07863535953043232 0.0 -0.01580229540824274 0.0 0.0
-0.09728496275467322 0.0928670858991949 0.0 -0.017106763057211816 0.0 0.0
-0.11148546004170104 0.10662901762233856 0.0 -0.01856268754160273 0.0 0.0
-0.12245830627542151 0.11696607678015924 0.0 -0.02269446948311049 0.0 0.0
-0.12486131387901131 0.11869137534885299 0.0 -0.03233322959573892 0.0 0.0
-0.1117425270434719 0.1049696879961095 0.0 -0.04850024229280869 0.0 0.0
-0.11174252704346324 0.1049696879960953 0.0 0.04850024229284 0.0 0.0
-0.1248613138789824 0.1186913753488259 0.0 0.032333229595781 0.0 0.0
-0.12245830627537535 0.11696607678011528 0.0 0.02269446948314252 0.0 0.0
-0.11148546004164073 0.1066290176222835 0.0 0.018562687541607892 0.0 0.0
-0.09728496275460727 0.09286708589913228 0.0 0.017106763057209984 0.0 0.0
-0.08273020161278623 0.07863535953036171 0.0 0.015802295408238798 0.0 0.0
-0.06894392456190157 0.06513633339542313 0.0 0.014096582446773587 0.0 0.0
-0.056290267049775744 0.05276412406062425 0.0 0.01227968702321311 0.0 0.0
-0.04486457811028815 0.041618586485092646 0.0 0.010516322441658232 0.0 0.0
-0.03466686811407075 0.031701540044471344 0.0 0.00873657728249369 0.0 0.0
-0.025713811659531294 0.023029847124955483 0.0 0.0068763266212557295 0.0 0.0
-0.018091173007170454 0.015687230317938727 0.0 0.005041614133977856 0.0 0.0
-0.01193098661625383 0.009806155300811747 0.0 0.0034187442009722124 0.0 0.0
-0.007320206505797094 0.005479646292549489 0.0 0.002166131287567513 0.0 0.0
-0.004205706873827576 0.0026932623799944544 0.0 0.001373291478636629 0.0 0.0
-0.0024319453806235583 0.00126925895720853 0.0 0.0010545068524391854 0.0 0.0
-0.0015862148336305282 0.0007157499583805293 0.0 0.0011014751426418057 0.0 0.0
-0.001042304007578626 0.0004477597303497727 0.0 0.0012133239035242993 0.0 0.0
-0.0005087877313986536 0.00017177931673226232 0.0 0.0010596377582645644 0.0 0.0
-0.00010696759351674912 -1.2261545571608246e-05 0.0 0.0004353236329113219 0.0 0.0
-0.00012029239409888648 3.980994294924822e-05 0.0 -0.00022563206231446253 0.0 0.0
-0.0005332260723300841 0.00021128083851951196 0.0 -0.000692661255321747 0.0 0.0
-0.0011343854588493074 0.0004828181766215467 0.0 -0.0008091931532312469 0.0 0.0
-0.0017762640486204129 0.0008012267413944896 0.0 -0.0007188782040045694 0.0 0.0
-0.0028578106806294024 0.0015719789102914827 0.0 -0.0006984493574515582 0.0 0.0
-0.0050377876689438605 0.00340598056337571 0.0 -0.0009510522196526927 0.0 0.0
-0.008615739297077207 0.006687403037025863 0.0 -0.0015080492700665915 0.0 0.0
-0.01380018600292987 0.011595891860275653 0.0 -0.0023595269520143014 0.0 0.0
-0.02069595507750932 0.018209304298413054 0.0 -0.003483053685706561 0.0 0.0
-0.02925338696757293 0.026470298739750486 0.0 -0.00477232378842718 0.0 0.0
-0.03935575270662514 0.036268572131140875 0.0 -0.006079742041539826 0.0 0.0
-0.05091519725623789 0.04752178162108667 0.0 -0.007331309753821125 0.0 0.0
-0.06389413075689473 0.06019084424079768 0.0 -0.008602637368131716 0.0 0.0
-0.07822109004989952 0.07420033607102106 0.0 -0.009902907954154827 0.0 0.0
-0.09366251780425197 0.08931281639238087 0.0 -0.01104113492312031 0.0 0.0
-0.10967700550948078 0.10498277940157985 0.0 -0.011588440483872087 0.0 0.0
-0.12518384456852616 0.12009240319349512 0.0 -0.011385181424181101 0.0 0.0
-0.13788958958612804 0.1322265826074962 0.0 -0.013031195154466158 0.0 0.0
-0.14262631728473318 0.1360113823977449 0.0 -0.02439048733174598 0.0 0.0
-0.130150271626666 0.12279994861742027 0.0 -0.05056078010236187 0.0 0.0
-0.13015027162665588 0.12279994861740695 0.0 0.05056078010238657 0.0 0.0
-0.14262631728470002 0.1360113823977107 0.0 0.024390487331777067 0.0 0.0
-0.13788958958607483 0.1322265826074438 0.0 0.013031195154488806 0.0 0.0
-0.12518384456845777 0.12009240319343073 0.0 0.011385181424184099 0.0 0.0
-0.1096770055094061 0.10498277940151057 0.0 0.0115884404838687 0.0 0.0
-0.09366251780417435 0.08931281639230804 0.0 0.011041134923119061 0.0 0.0
-0.0782210900498205 0.07420033607094556 0.0 0.009902907954149415 0.0 0.0
-0.06389413075681602 0.060190844240724406 0.0 0.008602637368125415 0.0 0.0
-0.050915197256161636 0.04752178162100762 0.0 0.007331309753816739 0.0 0.0
-0.03935575270655639 0.03626857213106849 0.0 0.0060797420415265035 0.0 0.0
-0.029253386967515418 0.026470298739693865 0.0 0.004772323788415023 0.0 0.0
-0.02069595507746335 0.018209304298370865 0.0 0.0034830536856983174 0.0 0.0
-0.01380018600289478 0.011595891860243457 0.0 0.0023595269520080286 0.0 0.0
-0.008615739297053882 0.0066874030370029924 0.0 0.0015080492700626225 0.0 0.0
-0.005037787668930319 0.0034059805633632756 0.0 0.0009510522196498061 0.0 0.0
-0.0028578106806240317 0.0015719789102889292 0.0 0.0006984493574507256 0.0 0.0
-0.0017762640486187788 0.0008012267413933793 0.0 0.0007188782040037922 0.0 0.0
-0.0011343854588485025 0.00048281817661993687 0.0 0.0008091931532300811 0.0 0.0
-0.0005332260723295949 0.00021128083851834623 0.0 0.000692661255321636 0.0 0.0
-0.00012029239409867137 3.9809942949293325e-05 0.0 0.00022563206231457356 0.0 0.0
-0.00010003649309475726 5.333393610476578e-05 0.0 -3.437433103897769e-05 0.0 0.0
-0.0005256045867259029 0.00023194498082990123 0.0 -0.00028105747943246717 0.0 0.0
-0.0012278645245049624 0.0005178861388189793 0.0 -0.0003273130031606897 0.0 0.0
-0.0020033984432569762 0.0009256103198681531 0.0 -0.00030229336863951684 0.0 0.0
-0.003352855154867218 0.0019490717475565411 0.0 -0.000295998737323222 0.0 0.0
-0.005912839199675335 0.004180630872802293 0.0 -0.0003964939871518025 0.0 0.0
-0.009921292923375347 0.00792041817714817 0.0 -0.0006268265170656928 0.0 0.0
-0.015647750302141827 0.013378262343211933 0.0 -0.0009793773184166854 0.0 0.0
-0.023252967482099096 0.02069570144032018 0.0 -0.0014722312989167152 0.0 0.0
-0.03272848865157224 0.029859327476744024 0.0 -0.0020596443834501876 0.0 0.0
-0.0439807307726503 0.04078507267533604 0.0 -0.002663262393121757 0.0 0.0
-0.056912303455141006 0.053382516418760684 0.0 -0.0032597106424677724 0.0 0.0
-0.07143501310326289 0.06756572812260275 0.0 -0.0038592256706977413 0.0 0.0
-0.087411006177612 0.08318952958329406 0.0 -0.0044360405490768695 0.0 0.0
-0.10448299041008327 0.09988999394082176 0.0 -0.0048821752191973156 0.0 0.0
-0.12188008703436418 0.11690002747235884 0.0 -0.004907321418552435 0.0 0.0
-0.1383237858179145 0.1329555513667411 0.0 -0.004085975740495629 0.0 0.0
-0.15195969628759803 0.14617610604562392 0.0 -0.002879612902476514 0.0 0.0
-0.159546764318333 0.15309527896166308 0.0 -0.00925808172237308 0.0 0.0
-0.15195900805924228 0.14350091932696873 0.0 -0.046576442099109716 0.0 0.0
-0.1519590080592306 0.14350091932695808 0.0 0.04657644209911943 0.0 0.0
-0.15954676431829634 0.15309527896162756 0.0 0.009258081722390066 0.0 0.0
-0.15195969628753636 0.14617610604556708 0.0 0.0028796129024873385 0.0 0.0
-0.13832378581783666 0.1329555513666647 0.0 0.004085975740495629 0.0 0.0
-0.12188008703428103 0.11690002747227224 0.0 0.004907321418549521 0.0 0.0
-0.10448299040999753 0.09988999394073739 0.0 0.004882175219197843 0.0 0.0
-0.08741100617752386 0.08318952958321013 0.0 0.004436040549071402 0.0 0.0
-0.07143501310317502 0.06756572812251616 0.0 0.0038592256706950767 0.0 0.0
-0.056912303455057274 0.05338251641868297 0.0 0.0032597106424671063 0.0 0.0
-0.04398073077257416 0.04078507267526499 0.0 0.002663262393114013 0.0 0.0
-0.03272848865150956 0.029859327476681408 0.0 0.002059644383444942 0.0 0.0
-0.023252967482048664 0.020695701440269776 0.0 0.0014722312989133013 0.0 0.0
-0.01564775030210288 0.013378262343173963 0.0 0.0009793773184138543 0.0 0.0
-0.009921292923349081 0.007920418177124189 0.0 0.0006268265170635556 0.0 0.0
-0.005912839199659344 0.004180630872788749 0.0 0.0003964939871526907 0.0 0.0
-0.0033528551548606695 0.0019490717475496577 0.0 0.0002959987373242212 0.0 0.0
-0.0020033984432548425 0.0009256103198658217 0.0 0.0003022933686403495 0.0 0.0
-0.001227864524503873 0.0005178861388185907 0.0 0.00032731300315963496 0.0 0.0
-0.0005256045867257841 0.0002319449808309837 0.0 0.00028105747943169 0.0 0.0
-0.00010003649309425853 5.3333936104940985e-05 0.0 3.437433103814502e-05 0.0 0.0
SCALARS Statev float 8
LOOKUP_TABLE default
0.0 0.01244822993210146 0.009600728800052525 -0.009982830039413807 0.0003821012393612794 -0.005502818538739691 0.0 0.0
0.0 0.00063404293850991 0.00043675073283225166 -0.00036516810435990605 -7.158262847234558e-05 0.0004210150051492733 0.0 0.0
0.0 3.342380937738801e-05 -4.754075056001044e-06 3.773145031477424e-06 9.809300245235895e-07 5.62033213615258e-07 0.0 0.0
0.0 0.00023157472923168406 0.00015339806028710429 -0.00012036609608618597 -3.303196420091833e-05 -2.1321998283654456e-05 0.0 0.0
0.0 0.001314805222573023 0.0010422332955984436 -0.0008565067524496663 -0.000185726543148777 -0.00011356177447786868 0.0 0.0
0.0 0.0035829498345615637 0.0032601753806791867 -0.002834787821449582 -0.0004253875592296044 -0.0002675588021855274 0.0 0.0
0.0 0.0078046175686995985 0.006980693631654691 -0.006374962457563539 -0.0006057311740911509 -0.0004951929031474778 0.0 0.0
0.0 0.01408488351791007 0.01245418045275968 -0.011723574454030987 -0.0007306059987286903 -0.0008311607432477254 0.0 0.0
0.0 0.022569831254949525 0.01981141137512691 -0.018974807350618576 -0.0008366040245083289 -0.0013019058669603647 0.0 0.0
0.0 0.03325068636773894 0.029047224622800794 -0.0281034563322715 -0.0009437682905292803 -0.0018748314885675672 0.0 0.0
0.0 0.046059194293649 0.04008328515463301 -0.03902862587454125 -0.0010546592800917383 -0.0024779386415032293 0.0 0.0
0.0 0.06061062660867104 0.05283404873295949 -0.051665982335184484 -0.001168066397774969 -0.003080481088543188 0.0 0.0
0.0 0.07711433589471182 0.06721349745605483 -0.06593080514926414 -0.0012826923067906656 -0.0036836960849697636 0.0 0.0
0.0 0.09543878096762634 0.08310990220662193 -0.08170987637221562 -0.0014000258344062304 -0.0042852831790698084 0.0 0.0
0.0 0.11522003339104388 0.1002632325127642 -0.0987415215694209 -0.0015217109433432836 -0.004869699150215086 0.0 0.0
0.0 0.13585258016237103 0.11811889255331331 -0.11647197264911911 -0.0016469199041941887 -0.005329726270198516 0.0 0.0
0.0 0.15624585939419114 0.1357614518932471 -0.1339897082550396 -0.0017717436382074818 -0.005453648657420115 0.0 0.0
0.0 0.17494391424264308 0.1519464913515178 -0.1500553464969123 -0.0018911448546055235 -0.0050053047311958004 0.0 0.0
0.0 0.19022315340674545 0.16517823686083033 -0.1631765168895342 -0.0020017199712961146 -0.004140554168418426 0.0 0.0
0.0 0.1994897946641303 0.1733426955820188 -0.17118801680797474 -0.002154678774044111 -0.0043565736408291795 0.0 0.0
0.0 0.19948979466411815 0.1733426955820082 -0.1711880168079642 -0.002154678774043982 0.004356573640835074 0.0 0.0
0.0 0.1902231534067073 0.16517823686079688 -0.16317651688950136 -0.002001719971295514 0.004140554168438371 0.0 0.0
0.0 0.17494391424257438 0.15194649135145843 -0.15005534649685298 -0.0018911448546054615 0.005005304731205414 0.0 0.0
0.0 0.15624585939410457 0.135761451893172 -0.13398970825496476 -0.0017717436382071825 0.005453648657426743 0.0 0.0
0.0 0.13585258016227744 0.11811889255323221 -0.11647197264903839 -0.0016469199041938792 0.005329726270190615 0.0 0.0
0.0 0.11522003339095079 0.1002632325126831 -0.0987415215693409 -0.0015217109433421634 0.004869699150214126 0.0 0.0
0.0 0.09543878096753508 0.08310990220654238 -0.08170987637213736 -0.001400025834405 0.004285283179068894 0.0 0.0
0.0 0.07711433589461933 0.06721349745597432 -0.06593080514918477 -0.0012826923067895705 0.003683696084969417 0.0 0.0
0.0 0.06061062660858495 0.05283404873288447 -0.05166598233511071 -0.001168066397773738 0.003080481088537542 0.0 0.0
0.0 0.04605919429357103 0.04008328515456476 -0.03902862587447409 -0.0010546592800906595 0.002477938641500293 0.0 0.0
0.0 0.03325068636767204 0.029047224622742673 -0.02810345633221415 -0.0009437682905285316 0.001874831488560289 0.0 0.0
0.0 0.022569831254898295 0.019811411375081824 -0.018974807350574108 -0.0008366040245077251 0.001301905866958284 0.0 0.0
0.0 0.01408488351787306 0.012454180452726714 -0.011723574453998558 -0.0007306059987281528 0.0008311607432448082 0.0 0.0
0.0 0.007804617568676047 0.006980693631633331 -0.00637496245754291 -0.0006057311740904164 0.0004951929031463515 0.0 0.0
0.0 0.003582949834548436 0.003260175380666867 -0.002834787821438183 -0.00042538755922868376 0.00026755880218442976 0.0 0.0
0.0 0.0013148052225671943 0.0010422332955937132 -0.0008565067524456313 -0.0001857265431480816 0.00011356177447740191 0.0 0.0
0.0 0.00023157472923018992 0.00015339806028669234 -0.00012036609608584952 -3.303196420084283e-05 2.132199828354419e-05 0.0 0.0
0.0 3.342380937687491e-05 -4.754075055922566e-06 3.7731450314146314e-06 9.80930024507978e-07 -5.620332136057866e-07 0.0 0.0
0.0 0.0006340429385069956 0.00043675073283056193 -0.00036516810435844026 -7.158262847212193e-05 -0.00042101500514720645 0.0 0.0
0.0 0.012448229932083672 0.009600728800040627 -0.00998283003940087 0.00038210123936023945 0.005502818538711691 0.0 0.0
0.0 0.009152960837992307 0.00661751137737663 -0.007107432019626431 0.0004899206422497948 -0.006304166235246075 0.0 0.0
0.0 2.5001750896865024e-06 7.784238175461403e-07 -6.553113089625669e-07 -1.2311250858357842e-07 4.934649364019319e-07 0.0 0.0
0.0 9.430826945183483e-08 -1.020951514236367e-08 7.758883502814768e-09 2.450631639548195e-09 3.6392644398315674e-09 0.0 0.0
0.0 7.918144868125541e-05 4.351160890608243e-05 -3.3999901655817843e-05 -9.511707250264817e-06 -1.6404657411605803e-05 0.0 0.0
0.0 0.0008567349551911424 0.0006359393398140363 -0.0005159126688021734 -0.00012002667101186271 -0.00017027703738285206 0.0 0.0
0.0 0.002717897228037291 0.002476188966106127 -0.0021194095967256824 -0.00035677936938044414 -0.0005409762823858576 0.0 0.0
0.0 0.006442901158002582 0.005760959288644295 -0.005199427541147373 -0.0005615317474969201 -0.0011225893476007939 0.0 0.0
0.0 0.012101602727473515 0.010687123998221679 -0.009985767664281364 -0.0007013563339403166 -0.0019459482694934953 0.0 0.0
0.0 0.019771381496088522 0.01733483088324906 -0.01652469613800334 -0.0008101347452457105 -0.00303259318552114 0.0 0.0
0.0 0.02939245353588293 0.025655313708839098 -0.02474168839499578 -0.0009136253138433174 -0.004304226849270558 0.0 0.0
0.0 0.04084512500712888 0.03554634368341012 -0.03452889686104545 -0.001017446822364673 -0.005622763701901409 0.0 0.0
0.0 0.0540845708409774 0.046932023229669335 -0.0458104385674407 -0.0011215846622286273 -0.0069019325148437505 0.0 0.0
0.0 0.06877950185091238 0.05978092339571661 -0.05855394809101398 -0.0012269753047025904 -0.00819831449555429 0.0 0.0
0.0 0.0851438817162561 0.07401906419122191 -0.07268426527645011 -0.001334798914771779 -0.009535105588042396 0.0 0.0
0.0 0.10292184585806914 0.08942712525397598 -0.0879813510838901 -0.00144577417008586 -0.010831077214376568 0.0 0.0
0.0 0.12149416933422241 0.10553425955194895 -0.10397489325132882 -0.001559366300620129 -0.011868734814690883 0.0 0.0
0.0 0.1399539918136527 0.12154637141403728 -0.11987278996351218 -0.0016735814505251052 -0.01222543934142575 0.0 0.0
0.0 0.1570052909438104 0.1363328808666198 -0.13454642718806895 -0.0017864536785507932 -0.01150470617775232 0.0 0.0
0.0 0.1708346182045318 0.1483419703618142 -0.14643477500112892 -0.001907195360685304 -0.009809821012123607 0.0 0.0
0.0 0.17911351552041357 0.1555574906224383 -0.1535584993067919 -0.001998991315646374 -0.006968774719421152 0.0 0.0
0.0 0.17911351552040547 0.15555749062243052 -0.15355849930678522 -0.0019989913156452785 0.006968774719440742 0.0 0.0
0.0 0.17083461820449775 0.14834197036178368 -0.14643477500109942 -0.001907195360684309 0.009809821012159724 0.0 0.0
0.0 0.15700529094375168 0.136332880866568 -0.13454642718801813 -0.0017864536785498796 0.011504706177775673 0.0 0.0
0.0 0.13995399181357812 0.12154637141397232 -0.11987278996344769 -0.0016735814505245694 0.012225439341436838 0.0 0.0
0.0 0.121494169334143 0.10553425955187998 -0.10397489325126086 -0.0015593663006190687 0.011868734814682532 0.0 0.0
0.0 0.10292184585798406 0.08942712525390198 -0.08798135108381705 -0.0014457741700849137 0.010831077214372549 0.0 0.0
0.0 0.08514388171616737 0.07401906419114507 -0.0726842652763735 -0.0013347989147715223 0.0095351055880383 0.0 0.0
0.0 0.06877950185082699 0.05978092339564237 -0.05855394809094053 -0.0012269753047018232 0.008198314495550793 0.0 0.0
0.0 0.05408457084089725 0.04693202322959969 -0.04581043856737162 -0.001121584662228052 0.006901932514834558 0.0 0.0
0.0 0.04084512500705483 0.03554634368334594 -0.03452889686098151 -0.001017446822364429 0.005622763701892899 0.0 0.0
0.0 0.029392453535821962 0.025655313708786168 -0.024741688394943152 -0.0009136253138430121 0.004304226849258147 0.0 0.0
0.0 0.01977138149604328 0.017334830883209005 -0.01652469613796389 -0.0008101347452451088 0.0030325931855157 0.0 0.0
0.0 0.012101602727439216 0.010687123998191333 -0.009985767664251688 -0.0007013563339396531 0.0019459482694874413 0.0 0.0
0.0 0.006442901157980654 0.0057609592886244685 -0.005199427541128317 -0.0005615317474961495 0.0011225893475971557 0.0 0.0
0.0 0.0027178972280252544 0.0024761889660954006 -0.002119409596715913 -0.00035677936937948766 0.0005409762823833275 0.0 0.0
0.0 0.0008567349551861466 0.0006359393398103826 -0.0005159126687991093 -0.00012002667101127347 0.00017027703738189558 0.0 0.0
0.0 7.918144868054415e-05 4.351160890607887e-05 -3.399990165580674e-05 -9.511707250271988e-06 1.6404657411567412e-05 0.0 0.0
0.0 9.430826938068039e-08 -1.0209515134588993e-08 7.758883496907494e-09 2.4506316376819497e-09 -3.6392644370560787e-09 0.0 0.0
0.0 2.5001750895722825e-06 7.784238176313364e-07 -6.55311309034613e-07 -1.2311250859671903e-07 -4.93464936465951e-07 0.0 0.0
0.0 0.00915296083797142 0.006617511377362792 -0.007107432019611882 0.0004899206422490887 0.006304166235221844 0.0 0.0
0.0 0.00688510095524238 0.004708795145047376 -0.00521935156122124 0.0005105564161738644 -0.005499163343561669 0.0 0.0
0.0 0.0 0.0 0.0 0.0 0.0 0.0 0.0
0.0 0.0 0.0 0.0 0.0 0.0 0.0 0.0
0.0 1.361024434778785e-05 9.335236244115912e-06 -7.282077907518635e-06 -2.053158336597295e-06 -6.40979821130596e-06 0.0 0.0
0.0 0.00045191940878398155 0.00033728066641763773 -0.0002702617927738587 -6.70188736437788e-05 -0.0001614806015879453 0.0 0.0
0.0 0.002089613189111028 0.0017332118041682035 -0.0014591576721247786 -0.00027405413204342397 -0.0006561173186947933 0.0 0.0
0.0 0.005133468551728979 0.004567442849938515 -0.004061871685017104 -0.0005055711649214125 -0.0015140723447258312 0.0 0.0
0.0 0.010141297810100787 0.008917184690540498 -0.008253742238394216 -0.0006634424521462844 -0.0027411396094978 0.0 0.0
0.0 0.016997713134939224 0.014827690936488834 -0.01404932989386585 -0.0007783610426229791 -0.004317957916491024 0.0 0.0
0.0 0.025571518473942612 0.022215935285386134 -0.021337147347619916 -0.0008787879377662143 -0.006133212435297436 0.0 0.0
0.0 0.0357434318035721 0.030960432511933752 -0.029984837181250792 -0.0009755953306829351 -0.00801227017714963 0.0 0.0
0.0 0.04734037994813362 0.04099120665646954 -0.039919964792874144 -0.0010712418635953859 -0.009840440414469857 0.0 0.0
0.0 0.060519427726089904 0.0522965205426264 -0.05112920702748254 -0.001167313515143867 -0.011664565943919368 0.0 0.0
0.0 0.07491983541018987 0.06485429104153817 -0.06358904081449797 -0.001265250227040145 -0.013563865643123873 0.0 0.0
0.0 0.09063088487602519 0.07850192631003113 -0.07713675006514338 -0.0013651762448876864 -0.015441956257644635 0.0 0.0
0.0 0.1071987309228902 0.09285873448254212 -0.09139171847192856 -0.0014670160106135244 -0.01695977448492667 0.0 0.0
0.0 0.12377084930479959 0.10725935292171626 -0.10568854454984059 -0.0015708083718756374 -0.017593653702925538 0.0 0.0
0.0 0.13914240872035966 0.12066977880810814 -0.11899012152055967 -0.001679657287548449 -0.01682114706872469 0.0 0.0
0.0 0.15163044133667714 0.1316089265527141 -0.12982379911913852 -0.0017851274335755373 -0.014163731532715712 0.0 0.0
0.0 0.1592994468798333 0.13839099057101265 -0.13653046806611746 -0.0018605225048951256 -0.008852567362944555 0.0 0.0
0.0 0.1592994468798199 0.1383909905710008 -0.13653046806610505 -0.001860522504895646 0.008852567362977626 0.0 0.0
0.0 0.15163044133664277 0.13160892655268325 -0.12982379911910716 -0.0017851274335761059 0.014163731532764009 0.0 0.0
0.0 0.1391424087203087 0.12066977880806273 -0.11899012152051436 -0.0016796572875483213 0.01682114706875886 0.0 0.0
0.0 0.12377084930473545 0.10725935292165999 -0.10568854454978455 -0.0015708083718754585 0.01759365370294068 0.0 0.0
0.0 0.1071987309228181 0.09285873448247978 -0.09139171847186658 -0.0014670160106131343 0.016959774484919213 0.0 0.0
0.0 0.09063088487594631 0.07850192630996297 -0.07713675006507509 -0.001365176244887884 0.015441956257639085 0.0 0.0
0.0 0.07491983541011514 0.0648542910414732 -0.06358904081443346 -0.0012652502270397248 0.013563865643119682 0.0 0.0
0.0 0.06051942772601915 0.05229652054256465 -0.05112920702742167 -0.0011673135151429707 0.011664565943914424 0.0 0.0
0.0 0.047340379948063074 0.04099120665640865 -0.039919964792813886 -0.0010712418635947679 0.009840440414455564 0.0 0.0
0.0 0.03574343180350992 0.030960432511879608 -0.0299848371811971 -0.0009755953306824946 0.008012270177137314 0.0 0.0
0.0 0.02557151847389021 0.022215935285340563 -0.021337147347574872 -0.0008787879377656854 0.006133212435281518 0.0 0.0
0.0 0.01699771313489746 0.014827690936452363 -0.014049329893829853 -0.0007783610426225066 0.004317957916481073 0.0 0.0
0.0 0.010141297810071328 0.00891718469051452 -0.00825374223836888 -0.0006634424521456426 0.002741139609489661 0.0 0.0
0.0 0.00513346855170917 0.004567442849920789 -0.004061871685000379 -0.000505571164920411 0.001514072344720384 0.0 0.0
0.0 0.0020896131891006706 0.001733211804159657 -0.0014591576721171703 -0.0002740541320424863 0.0006561173186911724 0.0 0.0
0.0 0.00045191940878088 0.00033728066641554403 -0.0002702617927721605 -6.701887364338332e-05 0.00016148060158698436 0.0 0.0
0.0 1.361024434747271e-05 9.335236244373242e-06 -7.282077907709689e-06 -2.0531583366635725e-06 6.409798211410193e-06 0.0 0.0
0.0 0.0 0.0 0.0 0.0 0.0 0.0 0.0
0.0 0.0 0.0 0.0 0.0 0.0 0.0 0.0
0.0 0.006885100955224555 0.004708795145035122 -0.005219351561208291 0.0005105564161731669 0.005499163343541911 0.0 0.0
0.0 0.005117587498482448 0.003351677567619689 -0.0038267785265178674 0.0004751009588981765 -0.0043097896538059535 0.0 0.0
0.0 0.0 0.0 0.0 0.0 0.0 0.0 0.0
0.0 0.0 0.0 0.0 0.0 0.0 0.0 0.0
0.0 2.3779624096536746e-06 -6.985218357622805e-08 5.2313400190600586e-08 1.7538783385642966e-08 5.9052611120038265e-08 0.0 0.0
0.0 0.00020074584308400328 0.00014327753407598301 -0.00011396298653182604 -2.9314547544156822e-05 -0.00011100939929732854 0.0 0.0
0.0 0.0013959894209679448 0.0011106159201872859 -0.0009193510147458943 -0.00019126490544139194 -0.000640615087614784 0.0 0.0
0.0 0.003940020984316715 0.0034165801652164406 -0.002986194661163282 -0.0004303855040531594 -0.0016733281455979115 0.0 0.0
0.0 0.008229785481597468 0.007166772060844424 -0.0065519326056455275 -0.0006148394551988969 -0.0032094702727873286 0.0 0.0
0.0 0.01424523110964931 0.012316650691410934 -0.01157771163376935 -0.0007389390576415848 -0.005149801254379103 0.0 0.0
0.0 0.021759857347644494 0.018758349114644753 -0.017920179774132808 -0.0008381693405119299 -0.007363960462998424 0.0 0.0
0.0 0.030629219422409433 0.026353175188152 -0.025424332365137102 -0.0009288428230148946 -0.009644579420668278 0.0 0.0
0.0 0.040748187373588304 0.03502930792584549 -0.03401283209935754 -0.0010164758264879616 -0.011873517596443992 0.0 0.0
0.0 0.05210355198965383 0.04479450385888445 -0.04369131575127938 -0.0011031881076050676 -0.014110315731462675 0.0 0.0
0.0 0.06474943069018979 0.05565846327889875 -0.054467149726749334 -0.0011913135521493864 -0.016398036272960125 0.0 0.0
0.0 0.07852976641851306 0.06752347174664368 -0.06624339546716135 -0.0012800762794823194 -0.018656254545093343 0.0 0.0
0.0 0.09289357393152768 0.08011203549272361 -0.07874216578656427 -0.001369869706159333 -0.020568034102731503 0.0 0.0
0.0 0.10758624672228036 0.09288386149939033 -0.09142034235933393 -0.0014635191400563638 -0.021528678319852466 0.0 0.0
0.0 0.12136140687500106 0.10494429578043318 -0.10338247755858133 -0.0015618182218518724 -0.020791133244349502 0.0 0.0
0.0 0.13272169495505037 0.11500132121291973 -0.11334540447465559 -0.0016559167382641385 -0.017431294447504752 0.0 0.0
0.0 0.14002719111499132 0.12159080919835799 -0.1198666668903004 -0.001724142308057571 -0.010379767330706374 0.0 0.0
0.0 0.14002719111498388 0.1215908091983505 -0.11986666689029324 -0.0017241423080573183 0.01037976733074919 0.0 0.0
0.0 0.13272169495502617 0.11500132121289641 -0.11334540447463252 -0.0016559167382638143 0.01743129444756074 0.0 0.0
0.0 0.12136140687495925 0.10494429578039477 -0.10338247755854334 -0.0015618182218513658 0.020791133244387576 0.0 0.0
0.0 0.1075862467222297 0.09288386149934466 -0.09142034235928968 -0.00146351914005496 0.02152867831986903 0.0 0.0
0.0 0.09289357393146862 0.0801120354926721 -0.07874216578651405 -0.0013698697061580378 0.02056803410272444 0.0 0.0
0.0 0.07852976641844998 0.06752347174658892 -0.0662433954671074 -0.0012800762794814916 0.018656254545085765 0.0 0.0
0.0 0.06474943069012305 0.05565846327884068 -0.05446714972669177 -0.001191313552148895 0.016398036272953245 0.0 0.0
0.0 0.052103551989591275 0.04479450385882995 -0.043691315751225555 -0.001103188107604383 0.01411031573145424 0.0 0.0
0.0 0.040748187373529095 0.0350293079257939 -0.03401283209930707 -0.001016475826486833 0.011873517596428415 0.0 0.0
0.0 0.03062921942235395 0.026353175188103713 -0.02542433236508968 -0.0009288428230140299 0.009644579420651936 0.0 0.0
0.0 0.02175985734759845 0.018758349114605253 -0.017920179774094044 -0.0008381693405112024 0.007363960462979147 0.0 0.0
0.0 0.014245231109614065 0.01231665069138029 -0.011577711633739407 -0.0007389390576408753 0.0051498012543672225 0.0 0.0
0.0 0.00822978548157131 0.007166772060821627 -0.006551932605623499 -0.0006148394551981264 0.003209470272777232 0.0 0.0
0.0 0.003940020984300545 0.0034165801652025637 -0.0029861946611503586 -0.00043038550405220447 0.0016733281455913792 0.0 0.0
0.0 0.0013959894209604217 0.0011106159201817929 -0.0009193510147411939 -0.00019126490544059903 0.0006406150876115586 0.0 0.0
0.0 0.00020074584308148424 0.0001432775340747129 -0.00011396298653077731 -2.9314547543935682e-05 0.00011100939929628001 0.0 0.0
0.0 2.3779624092329995e-06 -6.985218342595732e-08 5.2313400076098415e-08 1.7538783349869354e-08 -5.905261098088608e-08 0.0 0.0
0.0 0.0 0.0 0.0 0.0 0.0 0.0 0.0
0.0 0.0 0.0 0.0 0.0 0.0 0.0 0.0
0.0 0.005117587498466554 0.003351677567609177 -0.0038267785265066055 0.0004751009588974286 0.004309789653790142 0.0 0.0
0.0 0.003677750454049432 0.002317086284990283 -0.002723426887933752 0.0004063406029434695 -0.003154535932989655 0.0 0.0
0.0 0.0 0.0 0.0 0.0 0.0 0.0 0.0
0.0 0.0 0.0 0.0 0.0 0.0 0.0 0.0
0.0 3.587434195048618e-07 8.719037877634595e-09 -6.123348306149328e-09 -2.595689571485425e-09 -8.819058083035308e-09 0.0 0.0
0.0 7.592084403833298e-05 4.737170187485154e-05 -3.766979636458699e-05 -9.70190551026458e-06 -5.721400664530122e-05 0.0 0.0
0.0 0.0008231090786554921 0.000625732217535431 -0.0005102402171233444 -0.00011549200041208676 -0.0005381921692170829 0.0 0.0
0.0 0.0029266830961041687 0.0023532550850823308 -0.002015640954619787 -0.00033761413046254395 -0.0016080748791750447 0.0 0.0
0.0 0.006431673207038589 0.005453564166150586 -0.004904635855377433 -0.0005489283107731502 -0.003310259475054679 0.0 0.0
0.0 0.011533062308701792 0.009828667742361574 -0.00913955088095596 -0.0006891168614056135 -0.005519437144030089 0.0 0.0
0.0 0.017987108447677324 0.015310523524427702 -0.01452028438019387 -0.0007902391442338238 -0.007988917766970829 0.0 0.0
0.0 0.025566795579570964 0.02175202729955507 -0.020875784363861814 -0.0008762429356932609 -0.01052572529527511 0.0 0.0
0.0 0.03414786002761263 0.02907602940215924 -0.028119890870712733 -0.0009561385314465055 -0.013001680966534876 0.0 0.0
0.0 0.04382524833877491 0.03730071105272297 -0.03626667290400928 -0.001034038148713709 -0.015479369533294055 0.0 0.0
0.0 0.054450146782437356 0.04647071611507014 -0.045358903673218084 -0.0011118124418520719 -0.018030091376349283 0.0 0.0
0.0 0.06619090258695304 0.05654160744902617 -0.05535180706350304 -0.0011898003855231108 -0.020531413710185086 0.0 0.0
0.0 0.07879329228884177 0.06732274099350452 -0.06605436456650424 -0.0012683764270002725 -0.02266544266155402 0.0 0.0
0.0 0.09141586901107784 0.07842060845154195 -0.07707146685258384 -0.0013491415989580996 -0.023909618463583977 0.0 0.0
0.0 0.10355195678207502 0.08914443758331816 -0.08770964828481503 -0.0014347892985031145 -0.02336893896389913 0.0 0.0
0.0 0.11393099384450277 0.0984352031913325 -0.09691592875712556 -0.001519274434206941 -0.019732087906591634 0.0 0.0
0.0 0.12105537741380169 0.10498912875123578 -0.10340405821171834 -0.001585070539517402 -0.011648311511080837 0.0 0.0
0.0 0.12105537741379067 0.1049891287512251 -0.10340405821170744 -0.0015850705395175737 0.011648311511124994 0.0 0.0
0.0 0.1139309938444758 0.09843520319130622 -0.09691592875709924 -0.0015192744342069813 0.01973208790664865 0.0 0.0
0.0 0.1035519567820386 0.08914443758328364 -0.08770964828478098 -0.0014347892985026524 0.023368938963940093 0.0 0.0
0.0 0.09141586901103158 0.07842060845149999 -0.07707146685254235 -0.001349141598957621 0.023909618463602376 0.0 0.0
0.0 0.07879329228878662 0.06732274099345667 -0.06605436456645677 -0.0012683764269999106 0.022665442661546787 0.0 0.0
0.0 0.06619090258689835 0.05654160744897864 -0.055351807063456174 -0.001189800385522482 0.02053141371017589 0.0 0.0
0.0 0.05445014678238396 0.046470716115023625 -0.04535890367317202 -0.0011118124418515974 0.01803009137634279 0.0 0.0
0.0 0.04382524833872161 0.037300711052676364 -0.03626667290396309 -0.0010340381487132652 0.015479369533285377 0.0 0.0
0.0 0.03414786002756025 0.02907602940211411 -0.028119890870668143 -0.0009561385314459468 0.013001680966518152 0.0 0.0
0.0 0.0255667955795228 0.021752027299513917 -0.020875784363821155 -0.0008762429356927656 0.010525725295255813 0.0 0.0
0.0 0.017987108447636527 0.015310523524393806 -0.014520284380160441 -0.0007902391442333615 0.007988917766948366 0.0 0.0
0.0 0.011533062308670749 0.009828667742335033 -0.00913955088092996 -0.0006891168614050706 0.005519437144016556 0.0 0.0
0.0 0.006431673207015411 0.005453564166131164 -0.004904635855358859 -0.0005489283107723024 0.0033102594750431718 0.0 0.0
0.0 0.002926683096089893 0.002353255085070775 -0.0020156409546092787 -0.0003376141304614961 0.0016080748791679953 0.0 0.0
0.0 0.0008231090786491982 0.0006257322175310026 -0.0005102402171196057 -0.0001154920004113968 0.0005381921692132072 0.0 0.0
0.0 7.592084403718237e-05 4.7371701874618285e-05 -3.766979636438011e-05 -9.701905510238112e-06 5.7214006644928224e-05 0.0 0.0
0.0 3.5874341935465705e-07 8.719038014881471e-09 -6.1233484113286255e-09 -2.595689603550959e-09 8.819058289295732e-09 0.0 0.0
0.0 0.0 0.0 0.0 0.0 0.0 0.0 0.0
0.0 0.0 0.0 0.0 0.0 0.0 0.0 0.0
0.0 0.0036777504540360124 0.00231708628498166 -0.0027234268879243596 0.00040634060294269755 0.003154535932977003 0.0 0.0
0.0 0.0024833913397026867 0.0015157775013002798 -0.0018341214012853714 0.000318343899985091 -0.0021659552830970872 0.0 0.0
0.0 0.0 0.0 0.0 0.0 0.0 0.0 0.0
0.0 0.0 0.0 0.0 0.0 0.0 0.0 0.0
0.0 1.2459832782016668e-06 -8.711175530045244e-08 6.722946238267231e-08 1.9882292917777628e-08 2.0432140011233723e-07 0.0 0.0
0.0 3.187319358594773e-05 1.3307358579691547e-05 -1.0551208115598545e-05 -2.756150464092998e-06 -2.344521088650893e-05 0.0 0.0
0.0 0.00040919807242774235 0.00029821536233573835 -0.00024064061579133792 -5.757474654440022e-05 -0.0003869794306183366 0.0 0.0
0.0 0.0018832893202869782 0.001458263404716072 -0.0012228254324030273 -0.0002354379723130446 -0.0014125429495513463 0.0 0.0
0.0 0.004738307519259446 0.003831913240368374 -0.003375256317504895 -0.0004566569228634783 -0.0031028656553945965 0.0 0.0
0.0 0.008929264387777743 0.007388274170055469 -0.006765778196042191 -0.0006224959740132774 -0.00539022830828878 0.0 0.0
0.0 0.014270118904633346 0.011902840190645487 -0.011171033696307286 -0.0007318064943382014 -0.007994122104850721 0.0 0.0
0.0 0.020534688369089147 0.017187113385262413 -0.016371853730898604 -0.0008152596543637995 -0.010636047119051065 0.0 0.0
0.0 0.027611401186936585 0.02316226725151806 -0.022273368444321314 -0.0008888988071967485 -0.013212133251605866 0.0 0.0
0.0 0.035510611165683464 0.029852656760475934 -0.02889437599322881 -0.0009582807672471184 -0.015785786229129063 0.0 0.0
0.0 0.04431485237310921 0.0373250042193079 -0.0362991016546689 -0.0010259025646389976 -0.01841208980751378 0.0 0.0
0.0 0.05405816210871521 0.04559172954605367 -0.04449824776301502 -0.0010934817830386917 -0.021006727756582723 0.0 0.0
0.0 0.06432621081302672 0.05453872360992844 -0.053378011288782674 -0.0011607123211457805 -0.023272007079490172 0.0 0.0
0.0 0.07520798796040205 0.06389874078415622 -0.06267102892827817 -0.0012277118558780224 -0.02469522012196353 0.0 0.0
0.0 0.08583558797340164 0.07324000180162811 -0.07194184448399277 -0.0012981573176353745 -0.02444761155564839 0.0 0.0
0.0 0.09512497599468299 0.08180429988164253 -0.08043151655226304 -0.0013727833293794565 -0.021030741569484934 0.0 0.0
0.0 0.1021895118739717 0.08843364291261484 -0.08699430730396074 -0.0014393356086540667 -0.012678059685082245 0.0 0.0
0.0 0.10218951187396424 0.08843364291260686 -0.08699430730395259 -0.001439335608654248 0.012678059685126353 0.0 0.0
0.0 0.09512497599466484 0.08180429988162292 -0.08043151655224358 -0.0013727833293793819 0.02103074156954256 0.0 0.0
0.0 0.08583558797337326 0.07324000180159988 -0.0719418444839645 -0.0012981573176354233 0.02444761155569066 0.0 0.0
0.0 0.07520798796036243 0.0638987407841201 -0.0626710289282418 -0.001227711855878256 0.024695220121980554 0.0 0.0
0.0 0.06432621081298057 0.054538723609888665 -0.05337801128874306 -0.0011607123211455816 0.023272007079482016 0.0 0.0
0.0 0.05405816210866708 0.045591729546012115 -0.04449824776297386 -0.0010934817830382353 0.021006727756572058 0.0 0.0
0.0 0.04431485237306182 0.03732500421926675 -0.036299101654628206 -0.001025902564638534 0.01841208980750332 0.0 0.0
0.0 0.035510611165639035 0.029852656760437347 -0.02889437599319083 -0.000958280767246519 0.01578578622911899 0.0 0.0
0.0 0.027611401186894386 0.023162267251482255 -0.022273368444286075 -0.0008888988071961801 0.013212133251589424 0.0 0.0
0.0 0.020534688369052985 0.01718711338523195 -0.016371853730868774 -0.000815259654363179 0.010636047119033702 0.0 0.0
0.0 0.014270118904599088 0.011902840190617346 -0.011171033696279864 -0.0007318064943374791 0.007994122104828286 0.0 0.0
0.0 0.008929264387751908 0.007388274170033816 -0.006765778196021305 -0.0006224959740125085 0.005390228308274153 0.0 0.0
0.0 0.00473830751924056 0.003831913240353021 -0.0033752563174906137 -0.00045665692286240645 0.0031028656553829894 0.0 0.0
0.0 0.0018832893202767591 0.0014582634047082235 -0.00122282543239618 -0.00023543797231204326 0.0014125429495447156 0.0 0.0
0.0 0.0004091980724242645 0.0002982153623338076 -0.0002406406157897649 -5.757474654404268e-05 0.0003869794306158436 0.0 0.0
0.0 3.1873193585256005e-05 1.3307358579838741e-05 -1.0551208115713483e-05 -2.75615046412525e-06 2.3445210886753498e-05 0.0 0.0
0.0 1.245983277765114e-06 -8.711175526903953e-08 6.722946235833695e-08 1.9882292910690027e-08 -2.0432140003799813e-07 0.0 0.0
0.0 0.0 0.0 0.0 0.0 0.0 0.0 0.0
0.0 0.0 0.0 0.0 0.0 0.0 0.0 0.0
0.0 0.0024833913396925195 0.001515777501294018 -0.0018341214012782808 0.0003183438999842641 0.002165955283088013 0.0 0.0
0.0 0.0015535917990458223 0.000901131984526993 -0.0011224391763177374 0.000221307191790744 -0.0013579450259027894 0.0 0.0
0.0 4.3237046965141747e-07 -5.414833726629138e-09 5.131917599336839e-09 2.829161272924473e-10 8.656951798426124e-08 0.0 0.0
0.0 0.0 0.0 0.0 0.0 0.0 0.0 0.0
0.0 1.343535810957597e-06 -6.745450613659108e-08 5.1836617700734505e-08 1.5617888435866596e-08 2.5068220686766373e-07 0.0 0.0
0.0 1.6618936730952557e-05 6.760654033369686e-06 -5.339915982343061e-06 -1.4207380510266272e-06 -1.7625172142110206e-05 0.0 0.0
0.0 0.00020792826903261237 0.0001110613446224666 -8.917272615238005e-05 -2.188861847008661e-05 -0.00021949274790460774 0.0 0.0
0.0 0.0010754944752450137 0.0007549276123134982 -0.0006204063291888144 -0.00013452128312468366 -0.0010750096700891595 0.0 0.0
0.0 0.003142660091774296 0.0023831221401029385 -0.002045760783368339 -0.0003373613567345987 -0.0026464408442450076 0.0 0.0
0.0 0.006418009966547445 0.005053849118658327 -0.004528191399303251 -0.0005256577193550739 -0.004798651344097856 0.0 0.0
0.0 0.010632786778633182 0.008568695466829113 -0.007914125494610005 -0.0006545699722191091 -0.007337806347688587 0.0 0.0
0.0 0.015578317762329694 0.012691131021433915 -0.01195019245313796 -0.0007409385682959554 -0.009958975995904503 0.0 0.0
0.0 0.02113212257874731 0.017323875180108406 -0.016512800740948904 -0.000811074439159504 -0.012489797005431038 0.0 0.0
0.0 0.027326061544909137 0.022488707106490265 -0.0216156581027371 -0.0008730490037531452 -0.014995450425260771 0.0 0.0
0.0 0.0341852534450383 0.02826914357914799 -0.027338037435162325 -0.0009311061439856624 -0.01754974470648461 0.0 0.0
0.0 0.041835130174709564 0.03472001632599653 -0.033732652053568984 -0.0009873642724275448 -0.020077955654130435 0.0 0.0
0.0 0.05014674935060701 0.041802421048773374 -0.04075744761807455 -0.0010449734306988447 -0.022305417800794886 0.0 0.0
0.0 0.058837267505844434 0.049363163751973874 -0.04826460920900351 -0.001098554542970367 -0.023825212388370876 0.0 0.0
0.0 0.06773011517657898 0.057219448216378366 -0.05606893470428509 -0.0011505135120932837 -0.023968691661651578 0.0 0.0
0.0 0.07633214937784387 0.0649951100743246 -0.0637829361347141 -0.001212173939610477 -0.02124232046854601 0.0 0.0
0.0 0.08348212504215062 0.07176217278477755 -0.07048019999616129 -0.001281972788616277 -0.01344303100737394 0.0 0.0
0.0 0.0834821250421468 0.07176217278477236 -0.07048019999615639 -0.0012819727886159691 0.013443031007414844 0.0 0.0
0.0 0.07633214937783173 0.06499511007430929 -0.06378293613469924 -0.0012121739396100811 0.021242320468603103 0.0 0.0
0.0 0.06773011517656086 0.05721944821635762 -0.05606893470426531 -0.0011505135120922867 0.023968691661694404 0.0 0.0
0.0 0.058837267505817484 0.04936316375194752 -0.04826460920897799 -0.0010985545429695542 0.023825212388388924 0.0 0.0
0.0 0.0501467493505715 0.04180242104874288 -0.04075744761804446 -0.0010449734306984023 0.022305417800785224 0.0 0.0
0.0 0.04183513017467468 0.03472001632596661 -0.03373265205353967 -0.0009873642724269281 0.020077955654119403 0.0 0.0
0.0 0.03418525344500688 0.028269143579120772 -0.02733803743513551 -0.0009311061439852691 0.017549744706476703 0.0 0.0
0.0 0.02732606154487748 0.022488707106463012 -0.02161565810270997 -0.0008730490037530418 0.01499545042525207 0.0 0.0
0.0 0.02113212257871674 0.01732387518008288 -0.01651280074092378 -0.0008110744391591002 0.012489797005415873 0.0 0.0
0.0 0.015578317762299149 0.012691131021409065 -0.011950192453113562 -0.0007409385682954928 0.009958975995885721 0.0 0.0
0.0 0.01063278677860495 0.00856869546680723 -0.007914125494588559 -0.000654569972218669 0.007337806347666376 0.0 0.0
0.0 0.0064180099665275495 0.005053849118642711 -0.004528191399288283 -0.0005256577193544272 0.0047986513440847955 0.0 0.0
0.0 0.0031426600917600026 0.002383122140092058 -0.002045760783358484 -0.0003373613567335725 0.002646440844234525 0.0 0.0
0.0 0.0010754944752380262 0.000754927612308791 -0.0006204063291847389 -0.0001345212831240514 0.001075009670082975 0.0 0.0
0.0 0.00020792826903113138 0.00011106134462210139 -8.917272615209954e-05 -2.1888618470001718e-05 0.00021949274790398544 0.0 0.0
0.0 1.6618936730368968e-05 6.760654033414693e-06 -5.33991598237702e-06 -1.4207380510376757e-06 1.7625172142247774e-05 0.0 0.0
0.0 1.343535810551308e-06 -6.74545061154224e-08 5.1836617684484416e-08 1.561788843093987e-08 -2.5068220678900275e-07 0.0 0.0
0.0 0.0 0.0 0.0 0.0 0.0 0.0 0.0
0.0 4.3237046913438544e-07 -5.414833720036132e-09 5.131917593071955e-09 2.82916126964362e-10 -8.656951787897293e-08 0.0 0.0
0.0 0.0015535917990379844 0.0009011319845226049 -0.0011224391763126383 0.0002213071917900329 0.0013579450258960268 0.0 0.0
0.0 0.0008473503386002728 0.0004543587982280921 -0.0005848671323667465 0.0001305083341386543 -0.0007261179396896987 0.0 0.0
0.0 7.633069614346383e-07 -7.652809621181202e-09 1.1435788957247876e-08 -3.782979336068012e-09 1.1334248770096698e-07 0.0 0.0
0.0 6.305102464673167e-07 -7.0898921551877894e-09 5.074535917472657e-09 2.0153562377156586e-09 1.2874703632778445e-07 0.0 0.0
0.0 8.89100728928199e-07 -2.5367576570342822e-08 1.8018895871596777e-08 7.34868069874825e-09 1.4051521369072839e-07 0.0 0.0
0.0 1.3655792294882805e-05 4.012132120793508e-06 -3.1571728887030987e-06 -8.549592320904207e-07 -1.6339788137548914e-05 0.0 0.0
0.0 0.00011525242341979096 4.4801717582297484e-05 -3.5767810067967225e-05 -9.03390751433025e-06 -0.00014057689665589288 0.0 0.0
0.0 0.000540570574735489 0.0002971753690843668 -0.00024045963256124893 -5.671573652311786e-05 -0.0006820382419111244 0.0 0.0
0.0 0.0017838985720342755 0.0011845493325422555 -0.000986865184320124 -0.0001976841482221316 -0.0019604841840859394 0.0 0.0
0.0 0.0040739083623813 0.002919319837640996 -0.0025356227538191546 -0.0003836970838218386 -0.0038216412123461664 0.0 0.0
0.0 0.007063797037688715 0.005376846120651507 -0.004839552706509091 -0.0005372934141424151 -0.006059170404961412 0.0 0.0
0.0 0.01076921623526986 0.008312400762588793 -0.007673188869389332 -0.0006392118931994619 -0.008440302029961575 0.0 0.0
0.0 0.014769912902342145 0.011606974308910063 -0.01089495376446064 -0.000712020544449418 -0.010779765808817749 0.0 0.0
0.0 0.01921999874958481 0.015261433387708294 -0.014490818618521448 -0.0007706147691868443 -0.013086586302981866 0.0 0.0
0.0 0.024206252512727153 0.01935724823084729 -0.018536443801717345 -0.0008208044291299388 -0.01540343102873595 0.0 0.0
0.0 0.02984191193102126 0.02398366250633722 -0.023116851171452794 -0.0008668113348844271 -0.017707636474491688 0.0 0.0
0.0 0.03600982673509423 0.029176847011591782 -0.028263856406030588 -0.000912990605561192 -0.019784488665371015 0.0 0.0
0.0 0.042697762636777055 0.03488228363509127 -0.03392385785695366 -0.0009584257781376184 -0.0212314591824079 0.0 0.0
0.0 0.049682978705616186 0.041098906628934964 -0.040107464769923065 -0.0009914418590118935 -0.0217008381737779 0.0 0.0
0.0 0.05704980304422813 0.04790114909206288 -0.04687150372545075 -0.0010296453666121114 -0.020132171402924164 0.0 0.0
0.0 0.06418801366307145 0.054796710478195954 -0.053694412991940915 -0.0011022974862550422 -0.013867204155553202 0.0 0.0
0.0 0.06418801366306981 0.05479671047819229 -0.053694412991937265 -0.0011022974862550173 0.013867204155589364 0.0 0.0
0.0 0.05704980304422112 0.04790114909205144 -0.04687150372543958 -0.0010296453666118741 0.020132171402976004 0.0 0.0
0.0 0.04968297870560084 0.04109890662891674 -0.04010746476990497 -0.000991441859011761 0.021700838173814935 0.0 0.0
0.0 0.042697762636756766 0.03488228363507141 -0.03392385785693428 -0.0009584257781371391 0.02123145918242011 0.0 0.0
0.0 0.03600982673506861 0.029176847011570348 -0.02826385640600965 -0.000912990605560688 0.019784488665361102 0.0 0.0
0.0 0.02984191193099127 0.023983662506312495 -0.02311685117142799 -0.0008668113348845174 0.01770763647447908 0.0 0.0
0.0 0.024206252512699852 0.01935724823082447 -0.018536443801694676 -0.000820804429129805 0.015403431028726393 0.0 0.0
0.0 0.019219998749562102 0.015261433387688846 -0.014490818618502595 -0.0007706147691862535 0.013086586302974011 0.0 0.0
0.0 0.01476991290231671 0.01160697430888949 -0.010894953764440544 -0.0007120205444489437 0.01077976580880292 0.0 0.0
0.0 0.010769216235247299 0.008312400762571214 -0.007673188869372292 -0.000639211893198919 0.008440302029945002 0.0 0.0
0.0 0.007063797037670472 0.005376846120638481 -0.004839552706496726 -0.0005372934141417525 0.0060591704049442665 0.0 0.0
0.0 0.004073908362368977 0.002919319837631858 -0.0025356227538107967 -0.00038369708382106116 0.00382164121233634 0.0 0.0
0.0 0.0017838985720266167 0.0011845493325368256 -0.000986865184315462 -0.000197684148221363 0.0019604841840790152 0.0 0.0
0.0 0.0005405705747308291 0.0002971753690818093 -0.00024045963255918298 -5.6715736522626316e-05 0.0006820382419064918 0.0 0.0
0.0 0.00011525242341779818 4.4801717581860015e-05 -3.576781006759809e-05 -9.033907514261923e-06 0.00014057689665432512 0.0 0.0
0.0 1.3655792294531098e-05 4.012132120872365e-06 -3.1571728887658177e-06 -8.549592321065396e-07 1.6339788137902713e-05 0.0 0.0
0.0 8.891007286727026e-07 -2.5367576490818853e-08 1.8018895809257366e-08 7.3486806815584815e-09 -1.405152131215672e-07 0.0 0.0
0.0 6.305102458760242e-07 -7.089892147158693e-09 5.074535912009278e-09 2.015356235150372e-09 -1.2874703620679312e-07 0.0 0.0
0.0 7.633069609238618e-07 -7.652809578457859e-09 1.1435788907569088e-08 -3.782979329111285e-09 -1.1334248665918407e-07 0.0 0.0
0.0 0.0008473503385947372 0.000454358798225436 -0.0005848671323635161 0.00013050833413808023 0.0007261179396854413 0.0 0.0
0.0 0.00033257793250319947 0.00017595307441346838 -0.00023691844069026756 6.0965366276799164e-05 -0.0002995021027433527 0.0 0.0
0.0 2.0717276247831737e-06 -6.165853434397743e-09 1.47916262852059e-08 -8.625772850807937e-09 4.367858720835785e-07 0.0 0.0
0.0 8.129603515550081e-07 -9.729788138728575e-10 -5.062304710215263e-10 1.479209284894036e-09 1.6676851108718092e-07 0.0 0.0
0.0 1.3942118126280809e-06 -1.7202479833820512e-08 1.1633862331670308e-08 5.568617502153395e-09 2.882879494068393e-07 0.0 0.0
0.0 1.4445854564674276e-05 2.442562374041641e-06 -1.87791618825283e-06 -5.646461857888157e-07 -1.850994043082562e-05 0.0 0.0
0.0 9.314902629526601e-05 2.129845300727474e-05 -1.701061492627181e-05 -4.287838081002926e-06 -0.00012141178596025537 0.0 0.0
0.0 0.0002932537348883764 9.506496694757774e-05 -7.643593156961912e-05 -1.8629035377958542e-05 -0.00041792797681584144 0.0 0.0
0.0 0.0008128443854206644 0.0003760842968764543 -0.00030480365149680624 -7.128064537964775e-05 -0.0011745799119860915 0.0 0.0
0.0 0.0020189702788418282 0.0011455465246262017 -0.0009531402389728674 -0.00019240628565333446 -0.0025161749867397354 0.0 0.0
0.0 0.0038291136398473044 0.0024651379375527165 -0.0021234081620208193 -0.0003417297755318954 -0.004236490789465721 0.0 0.0
0.0 0.006058230271392671 0.004169754279597275 -0.003703198285912619 -0.00046655599368465356 -0.006138396481424406 0.0 0.0
0.0 0.008645605644416639 0.006103857479203577 -0.005549330064785668 -0.0005545274144179061 -0.008082777242253474 0.0 0.0
0.0 0.011459181273174041 0.008257727823779575 -0.007636627878704218 -0.0006210999450753515 -0.010061917576079965 0.0 0.0
0.0 0.014606233389300624 0.010687089534364022 -0.010015332367049623 -0.0006717571673143892 -0.012036534860180787 0.0 0.0
0.0 0.01816880274476628 0.013483456773772627 -0.012771914002385216 -0.0007115427713874087 -0.013997582297670584 0.0 0.0
0.0 0.022220705113003655 0.016753846400275142 -0.016006912914420763 -0.0007469334858543868 -0.01584174038762366 0.0 0.0
0.0 0.026800997485813046 0.020568509064540757 -0.019783535613726776 -0.0007849734508139878 -0.017229195486695683 0.0 0.0
0.0 0.031895339418100535 0.025018851178329585 -0.024202730598882612 -0.0008161205794469858 -0.01779010523663604 0.0 0.0
0.0 0.03793027950949279 0.030478414098861015 -0.029662227031797765 -0.000816187067063262 -0.017348943847553203 0.0 0.0
0.0 0.04490421443133942 0.03730110083958443 -0.036422874851558616 -0.0008782259880258349 -0.0136983268143128 0.0 0.0
0.0 0.044904214431339885 0.03730110083958242 -0.036422874851556354 -0.0008782259880260867 0.013698326814342458 0.0 0.0
0.0 0.03793027950949264 0.030478414098855496 -0.02966222703179214 -0.0008161870670633368 0.017348943847597505 0.0 0.0
0.0 0.03189533941809448 0.02501885117831909 -0.024202730598872457 -0.0008161205794466311 0.01779010523666874 0.0 0.0
0.0 0.026800997485798263 0.02056850906452654 -0.019783535613712856 -0.0007849734508136725 0.01722919548670196 0.0 0.0
0.0 0.022220705112983376 0.01675384640026015 -0.01600691291440584 -0.0007469334858543104 0.01584174038760976 0.0 0.0
0.0 0.018168802744749604 0.013483456773759889 -0.012771914002372722 -0.0007115427713871637 0.01399758229766048 0.0 0.0
0.0 0.014606233389290953 0.01068708953435636 -0.010015332367042438 -0.0006717571673139265 0.01203653486017596 0.0 0.0
0.0 0.011459181273168017 0.008257727823774128 -0.007636627878699169 -0.0006210999450749587 0.010061917576079294 0.0 0.0
0.0 0.008645605644400665 0.006103857479191584 -0.005549330064774233 -0.000554527414417352 0.008082777242242406 0.0 0.0
0.0 0.006058230271376502 0.004169754279586437 -0.003703198285902314 -0.00046655599368412154 0.006138396481408636 0.0 0.0
0.0 0.003829113639833513 0.0024651379375441353 -0.0021234081620129736 -0.00034172977553115994 0.0042364907894509585 0.0 0.0
0.0 0.002018970278834105 0.0011455465246212608 -0.0009531402389685302 -0.00019240628565273096 0.002516174986731405 0.0 0.0
0.0 0.0008128443854166747 0.00037608429687449574 -0.0003048036514951977 -7.12806453792978e-05 0.0011745799119814056 0.0 0.0
0.0 0.0002932537348864761 9.506496694714663e-05 -7.643593156925573e-05 -1.8629035377890837e-05 0.00041792797681395114 0.0 0.0
0.0 9.31490262933708e-05 2.129845300708528e-05 -1.701061492612369e-05 -4.287838080961573e-06 0.00012141178595908108 0.0 0.0
0.0 1.4445854564230833e-05 2.4425623740715665e-06 -1.8779161882755198e-06 -5.646461857960479e-07 1.8509940431056517e-05 0.0 0.0
0.0 1.3942118121365584e-06 -1.7202479827439693e-08 1.1633862327329383e-08 5.568617500112952e-09 -2.8828794930130727e-07 0.0 0.0
0.0 8.12960351106587e-07 -9.729788137991681e-10 -5.062304704954294e-10 1.479209284295063e-09 -1.667685109932312e-07 0.0 0.0
0.0 2.0717276240791394e-06 -6.165853431574411e-09 1.4791626278552993e-08 -8.625772846978897e-09 -4.3678587193397695e-07 0.0 0.0
0.0 0.0003325779324997187 0.0001759530744120638 -0.00023691844068845467 6.0965366276390684e-05 0.0002995021027410547 0.0 0.0
0.0 8.051263647075837e-05 3.933807980937879e-05 -5.553528067056731e-05 1.6197200861188516e-05 -7.084840767762012e-05 0.0 0.0
0.0 2.3409661729961703e-06 6.496376963596438e-10 1.3091562580591183e-08 -1.3741200276949575e-08 4.872012716183131e-07 0.0 0.0
0.0 1.120443483588585e-06 -1.2949460816817434e-08 1.1119793126962506e-08 1.829667689854861e-09 -3.355589411641214e-07 0.0 0.0
0.0 2.5469723192580096e-06 -3.6469739652557274e-08 4.2305006430196575e-08 -5.835266777638701e-09 -2.404842598472591e-06 0.0 0.0
0.0 1.789045568616737e-05 5.375459958678914e-07 -3.572210858663695e-07 -1.8032491000152832e-07 -2.0265854612266327e-05 0.0 0.0
0.0 8.910492957414108e-05 6.5635330626495055e-06 -5.152609999717006e-06 -1.4109230629324862e-06 -0.0001271222179251567 0.0 0.0
0.0 0.00023717663339831215 2.616265228518321e-05 -2.1008256765397294e-05 -5.1543955197859395e-06 -0.00037434143878484997 0.0 0.0
0.0 0.0005006917515948579 6.933730738035673e-05 -5.603872076184241e-05 -1.3298586618514234e-05 -0.000761960556445584 0.0 0.0
0.0 0.00088351467298632 0.00017196728097473559 -0.0001394964857744086 -3.2470795200326925e-05 -0.001425256313809682 0.0 0.0
0.0 0.0015638129862362254 0.0003904046479479285 -0.0003166144855142273 -7.379016243370116e-05 -0.0024051488497140103 0.0 0.0
0.0 0.002391523022620363 0.0007724724989655979 -0.0006264674692057217 -0.00014600502975987577 -0.0036932041306020715 0.0 0.0
0.0 0.0034856087324556828 0.001261507438330655 -0.0010354772711286071 -0.0002260301672020479 -0.005132606588262471 0.0 0.0
0.0 0.0047891707184659765 0.001878202009742904 -0.0015778772128828657 -0.00030032479686003735 -0.0067384137193691705 0.0 0.0
0.0 0.006328307182061954 0.0026269900491781794 -0.0022646287166518983 -0.0003623613325262821 -0.008487051145818755 0.0 0.0
0.0 0.00810083807016898 0.003574952007778209 -0.003163025810486942 -0.00041192619729126537 -0.010365279681310274 0.0 0.0
0.0 0.010226949438920906 0.004868495665505913 -0.0044161861890930606 -0.00045230947641285065 -0.012253132427119522 0.0 0.0
0.0 0.012744456723385506 0.00673789518302743 -0.006246385542264829 -0.0004915096407625951 -0.013801924831948337 0.0 0.0
0.0 0.015730525743848988 0.009399932156315143 -0.008859502992379937 -0.0005404291639352018 -0.014427880606317188 0.0 0.0
0.0 0.01969580667219538 0.013162044900362081 -0.012604073879543739 -0.0005579710208183381 -0.014083822303101632 0.0 0.0
0.0 0.025779267812822512 0.019150566853245 -0.018618880520296362 -0.0005316863329486402 -0.012973792514559655 0.0 0.0
0.0 0.02577926781282451 0.019150566853244542 -0.018618880520295686 -0.0005316863329488512 0.012973792514581667 0.0 0.0
0.0 0.019695806672197225 0.013162044900358591 -0.012604073879540243 -0.0005579710208183449 0.014083822303135473 0.0 0.0
0.0 0.0157305257438448 0.00939993215630844 -0.008859502992373177 -0.0005404291639352599 0.014427880606335163 0.0 0.0
0.0 0.01274445672337865 0.006737895183022867 -0.006246385542260234 -0.0004915096407626288 0.01380192483194657 0.0 0.0
0.0 0.010226949438912704 0.0048684956655025684 -0.0044161861890899086 -0.0004523094764126595 0.012253132427108895 0.0 0.0
0.0 0.00810083807016195 0.003574952007775365 -0.0031630258104843752 -0.00041192619729098933 0.010365279681301541 0.0 0.0
0.0 0.006328307182055449 0.002626990049175343 -0.0022646287166491023 -0.00036236133252624033 0.00848705114581196 0.0 0.0
0.0 0.004789170718460243 0.001878202009740895 -0.0015778772128811117 -0.00030032479685978305 0.006738413719361909 0.0 0.0
0.0 0.003485608732448454 0.001261507438328303 -0.001035477271126774 -0.00022603016720152883 0.005132606588253041 0.0 0.0
0.0 0.0023915230226140534 0.0007724724989639842 -0.0006264674692044147 -0.0001460050297595692 0.003693204130592653 0.0 0.0
0.0 0.0015638129862300524 0.00039040464794641507 -0.0003166144855129771 -7.379016243343809e-05 0.002405148849705205 0.0 0.0
0.0 0.0008835146729838843 0.00017196728097427618 -0.00013949648577403912 -3.247079520023693e-05 0.0014252563138057277 0.0 0.0
0.0 0.0005006917515933131 6.933730738011816e-05 -5.603872076165725e-05 -1.3298586618460873e-05 0.0007619605564430378 0.0 0.0
0.0 0.00023717663339619055 2.616265228503892e-05 -2.1008256765262717e-05 -5.15439551977618e-06 0.00037434143878282256 0.0 0.0
0.0 8.910492957239519e-05 6.5635330625922825e-06 -5.15260999966942e-06 -1.410923062922863e-06 0.00012712221792393302 0.0 0.0
0.0 1.7890455685741768e-05 5.37545995872954e-07 -3.5722108586941085e-07 -1.8032491000354633e-07 2.0265854612506867e-05 0.0 0.0
0.0 2.54697231912458e-06 -3.6469739665239475e-08 4.230500644494089e-08 -5.835266779701504e-09 2.4048425992491538e-06 0.0 0.0
0.0 1.1204434835428666e-06 -1.2949460848749139e-08 1.111979315641319e-08 1.8296676923357337e-09 3.3555894195367227e-07 0.0 0.0
0.0 2.340966172321822e-06 6.496376968874008e-10 1.3091562575233056e-08 -1.3741200272117913e-08 -4.87201271473837e-07 0.0 0.0
0.0 8.051263646931641e-05 3.933807980905911e-05 -5.553528067011257e-05 1.6197200861053397e-05 7.084840767719473e-05 0.0 0.0
0.0 5.441594812913635e-06 1.697213366942505e-06 -2.4547366834315385e-06 7.575233164890251e-07 -3.500514585316636e-06 0.0 0.0
0.0 2.1568011361903107e-06 -9.932510278717764e-09 1.0835894676510236e-08 -9.033843977876145e-10 -3.356316636579381e-08 0.0 0.0
0.0 3.10015797804775e-06 -1.8318343749012897e-07 1.5414338323702935e-07 2.9040054253100444e-08 -2.102557139650182e-06 0.0 0.0
0.0 5.185988844517758e-06 -5.281490547415574e-07 4.608150498081777e-07 6.733400493338e-08 -6.217472153799823e-06 0.0 0.0
0.0 2.29415230835619e-05 -1.87004264328112e-06 1.6216949627520975e-06 2.48347680529032e-07 -2.705814071652181e-05 0.0 0.0
0.0 9.57587549944115e-05 -8.591952745811506e-06 7.071019038542885e-06 1.5209337072686114e-06 -0.00013000768742998177 0.0 0.0
0.0 0.0002388583357842451 -2.757765583167662e-05 2.2306107331094065e-05 5.2715485005825465e-06 -0.00037723814954978923 0.0 0.0
0.0 0.0005008883625664792 -6.95144963565467e-05 5.6187963352807095e-05 1.3326533003739561e-05 -0.0007634242710906393 0.0 0.0
0.0 0.0008835283332900846 -0.00017172419957728257 0.00013929117838313375 3.243302119414868e-05 -0.0014258992953419094 0.0 0.0
0.0 0.0015623646312100193 -0.00038963681713134946 0.0003159062139422011 7.373060318914837e-05 -0.0024037839953410566 0.0 0.0
0.0 0.002401475497498943 -0.0007728765423726866 0.0006276737637767604 0.00014520277859592578 -0.0036933194214201805 0.0 0.0
0.0 0.0035004400729932985 -0.00128034972384368 0.0010541115125800422 0.00022623821126363706 -0.005143015983447704 0.0 0.0
0.0 0.004829868445577869 -0.0019276472650264216 0.0016252962891468497 0.0003023509758795698 -0.006752998815572029 0.0 0.0
0.0 0.006371501718365093 -0.0026840835832308684 0.0023143381188232667 0.0003697454644075997 -0.008492782207630872 0.0 0.0
0.0 0.007997853285498735 -0.0034561804937286392 0.003026736738181791 0.0004294437555468477 -0.010355781893728207 0.0 0.0
0.0 0.009595627279738986 -0.004035307580433467 0.0035534870407954696 0.00048182053963799254 -0.01230460751502698 0.0 0.0
0.0 0.010858588873777164 -0.004091889259150672 0.0035669338081336446 0.0005249554510170281 -0.01432665658333322 0.0 0.0
0.0 0.011643188985047558 -0.003347106270818933 0.002793955047876332 0.0005531512229426002 -0.01647086567910212 0.0 0.0
0.0 0.011914339713239862 -0.0018446585811657799 0.0013350413608759085 0.0005096172202898713 -0.018354828614312025 0.0 0.0
0.0 0.01159148910347383 0.0026978806148988876 -0.0027733860300560324 7.55054151571436e-05 -0.017076282901861334 0.0 0.0
0.0 0.011591489103477941 0.0026978806148981157 -0.0027733860300556707 7.550541515755809e-05 0.017076282901871964 0.0 0.0
0.0 0.011914339713243155 -0.0018446585811659677 0.0013350413608760143 0.0005096172202899518 0.018354828614323984 0.0 0.0
0.0 0.011643188985041379 -0.003347106270816023 0.0027939550478733918 0.0005531512229426291 0.0164708656791022 0.0 0.0
0.0 0.010858588873766006 -0.004091889259144901 0.003566933808128175 0.000524955451016723 0.014326656583324009 0.0 0.0
0.0 0.009595627279726612 -0.004035307580426304 0.003553487040788633 0.00048182053963766907 0.012304607515014476 0.0 0.0
0.0 0.007997853285487924 -0.0034561804937227733 0.0030267367381762115 0.00042944375554656027 0.010355781893717261 0.0 0.0
0.0 0.006371501718354516 -0.0026840835832245983 0.0023143381188175695 0.00036974546440702715 0.008492782207621837 0.0 0.0
0.0 0.004829868445567173 -0.0019276472650194888 0.0016252962891405457 0.0003023509758789424 0.006752998815564279 0.0 0.0
0.0 0.0035004400729826465 -0.0012803497238383474 0.0010541115125754378 0.00022623821126290943 0.005143015983437093 0.0 0.0
0.0 0.002401475497489921 -0.000772876542368572 0.0006276737637733833 0.00014520277859518912 0.003693319421409478 0.0 0.0
0.0 0.001562364631202006 -0.00038963681712840856 0.0003159062139396949 7.373060318871348e-05 0.002403783995330786 0.0 0.0
0.0 0.0008835283332877015 -0.00017172419957646728 0.0001392911783824661 3.2433021194001204e-05 0.0014258992953385848 0.0 0.0
0.0 0.0005008883625645798 -6.95144963561694e-05 5.618796335247895e-05 1.3326533003690416e-05 0.0007634242710880487 0.0 0.0
0.0 0.0002388583357824123 -2.757765583154258e-05 2.230610733101638e-05 5.271548500526192e-06 0.00037723814954809256 0.0 0.0
0.0 9.575875499277606e-05 -8.591952745753127e-06 7.071019038501152e-06 1.5209337072519852e-06 0.00013000768742909896 0.0 0.0
0.0 2.2941523083025024e-05 -1.8700426432986313e-06 1.621694962767671e-06 2.483476805309562e-07 2.7058140716812183e-05 0.0 0.0
0.0 5.185988844287747e-06 -5.281490547901438e-07 4.6081504985010996e-07 6.733400494003433e-08 6.217472154342049e-06 0.0 0.0
0.0 3.1001579776415494e-06 -1.8318343758264152e-07 1.541433833149321e-07 2.9040054267710035e-08 2.1025571407088107e-06 0.0 0.0
0.0 2.1568011355982295e-06 -9.932510293387242e-09 1.0835894676420402e-08 -9.033843830282606e-10 3.3563166866279906e-08 0.0 0.0
0.0 5.441594812550526e-06 1.6972133671925864e-06 -2.454736683800466e-06 7.575233166078819e-07 3.500514585846249e-06 0.0 0.0
0.0 5.791226492451869e-07 -3.285152939261594e-08 4.863961923435166e-08 -1.578808984173702e-08 8.324711323925464e-08 0.0 0.0
0.0 9.97726928590591e-07 -1.196949849495104e-08 1.1141913141102375e-08 8.275853538471196e-10 -2.0560486159164615e-07 0.0 0.0
0.0 3.9591330142813425e-06 -4.019072686699236e-07 3.317969855595271e-07 7.01102831103923e-08 -3.061208049792895e-06 0.0 0.0
0.0 8.465969731893162e-06 -7.762972354063777e-07 6.71610752662265e-07 1.0468648274412616e-07 -5.40075759894173e-06 0.0 0.0
0.0 2.9270965240681677e-05 -6.104073503553779e-06 5.084131722443433e-06 1.019941781110352e-06 -3.68771065459899e-05 0.0 0.0
0.0 0.00010563263783516223 -2.6605401788048853e-05 2.1514949323763454e-05 5.090452464285384e-06 -0.00014146759581318912 0.0 0.0
0.0 0.00030530933368577424 -9.84299083124313e-05 7.931637305224159e-05 1.9113535260189702e-05 -0.0004271869479957605 0.0 0.0
0.0 0.0008181058914857362 -0.00037840947113967617 0.0003067254395275946 7.168403161208158e-05 -0.0011808889588708462 0.0 0.0
0.0 0.0020167945773115494 -0.001144592708662592 0.0009522909056337114 0.00019230180302888024 -0.0025161536889536295 0.0 0.0
0.0 0.0038268779807700353 -0.0024640164745139705 0.0021225544780681836 0.00034146199644578693 -0.004235352440679847 0.0 0.0
0.0 0.006063686298566982 -0.0041749452102126106 0.0037089930652428166 0.0004659521449697913 -0.006140313389688582 0.0 0.0
0.0 0.008668818719919277 -0.006128201188179921 0.005574576446548908 0.0005536247416310161 -0.008082249275840057 0.0 0.0
0.0 0.011508504408656164 -0.008313914356319691 0.00769268431751585 0.0006212300388038381 -0.01004104162050706 0.0 0.0
0.0 0.014650046102901468 -0.010742153985016024 0.01006420572143498 0.0006779482635810487 -0.011997633708799044 0.0 0.0
0.0 0.01802756878826842 -0.01333535957231794 0.012604471207869592 0.000730888364448343 -0.014027714518220434 0.0 0.0
0.0 0.021398711204813632 -0.01585056620161232 0.015068753240264784 0.000781812961347532 -0.016218680706234518 0.0 0.0
0.0 0.02438071076061901 -0.017866963893166013 0.01704072778761144 0.0008262361055545775 -0.01864085192074387 0.0 0.0
0.0 0.02636452716547546 -0.01885170509692564 0.017995056934578424 0.0008566481623472294 -0.0212023859233233 0.0 0.0
0.0 0.025766946336549974 -0.0177619423532089 0.016810180613573856 0.0009517617396350294 -0.02224834783904491 0.0 0.0
0.0 0.0201581918254121 -0.012067629034228575 0.011030439730668307 0.0010371893035602624 -0.019671143990440287 0.0 0.0
0.0 0.020158191825420002 -0.01206762903422959 0.011030439730668917 0.0010371893035606731 0.01967114399046547 0.0 0.0
0.0 0.025766946336558468 -0.017761942353208614 0.016810180613573606 0.0009517617396349977 0.022248347839081056 0.0 0.0
0.0 0.02636452716547246 -0.01885170509691834 0.017995056934571322 0.0008566481623470098 0.021202385923345387 0.0 0.0
0.0 0.02438071076060171 -0.0178669638931506 0.017040727787596414 0.0008262361055541896 0.018640851920742694 0.0 0.0
0.0 0.021398711204791573 -0.015850566201594994 0.015068753240247607 0.0007818129613473904 0.016218680706220533 0.0 0.0
0.0 0.018027568788249827 -0.013335359572303345 0.012604471207855508 0.0007308883644478346 0.014027714518208646 0.0 0.0
0.0 0.014650046102884215 -0.010742153985002546 0.010064205721421962 0.000677948263580583 0.011997633708788494 0.0 0.0
0.0 0.011508504408638976 -0.00831391435630521 0.0076926843175017115 0.0006212300388034966 0.010041041620499316 0.0 0.0
0.0 0.008668818719898816 -0.006128201188164557 0.005574576446534135 0.0005536247416304202 0.00808224927582514 0.0 0.0
0.0 0.006063686298546975 -0.004174945210198649 0.0037089930652297294 0.0004659521449689194 0.00614031338967071 0.0 0.0
0.0 0.003826877980754541 -0.0024640164745035223 0.0021225544780587025 0.00034146199644481906 0.00423535244066498 0.0 0.0
0.0 0.0020167945773021476 -0.0011445927086560824 0.0009522909056280691 0.0001923018030280138 0.0025161536889443106 0.0 0.0
0.0 0.0008181058914812437 -0.00037840947113712965 0.0003067254395255287 7.1684031611601e-05 0.0011808889588655939 0.0 0.0
0.0 0.0003053093336836376 -9.842990831196446e-05 7.93163730518725e-05 1.911353526009195e-05 0.0004271869479939101 0.0 0.0
0.0 0.00010563263783342949 -2.660540178788506e-05 2.151494932363142e-05 5.090452464253617e-06 0.0001414675958123619 0.0 0.0
0.0 2.9270965240059758e-05 -6.1040735035994e-06 5.084131722482707e-06 1.019941781116678e-06 3.687710654625306e-05 0.0 0.0
0.0 8.46596973155709e-06 -7.762972354834872e-07 6.716107527272358e-07 1.0468648275625444e-07 5.400757599441236e-06 0.0 0.0
0.0 3.959133013692785e-06 -4.0190726877403376e-07 3.317969856445635e-07 7.011028312947e-08 3.061208050590576e-06 0.0 0.0
0.0 9.977269281997154e-07 -1.1969498515161421e-08 1.1141913137529843e-08 8.275853776319256e-10 2.0560486217384896e-07 0.0 0.0
0.0 5.791226488939735e-07 -3.285152937202806e-08 4.863961920387383e-08 -1.57880898318369e-08 -8.324711318699175e-08 0.0 0.0
0.0 0.0 0.0 0.0 0.0 0.0 0.0 0.0
0.0 1.2508586812791678e-06 1.7693331314728913e-08 -8.022362203851962e-09 -9.670969110877117e-09 2.5436291706895875e-07 0.0 0.0
0.0 3.6555625170105456e-06 -5.208162847706757e-08 4.284139808174333e-08 9.240230395320496e-09 -2.425084531602606e-07 0.0 0.0
0.0 1.0760122038757154e-05 -9.95968435416296e-07 8.128116473271671e-07 1.83156788089137e-07 -4.171753807403526e-06 0.0 0.0
0.0 3.690973305208733e-05 -1.1287489021283346e-05 9.197663015509165e-06 2.0898260057741933e-06 -4.116769806915094e-05 0.0 0.0
0.0 0.00014073443469269525 -5.667885027464705e-05 4.57175090812045e-05 1.0961341193442501e-05 -0.0001727115854625772 0.0 0.0
0.0 0.000563617856265415 -0.0003076623291082383 0.0002493727933889601 5.8289535719278275e-05 -0.0007027450058441229 0.0 0.0
0.0 0.0017878282864219335 -0.0011858108238652456 0.0009880924846141636 0.0001977183392510822 -0.001966053881179733 0.0 0.0
0.0 0.004068871513281426 -0.002916543373728371 0.0025330469537199335 0.0003834964200084358 -0.00381843658081403 0.0 0.0
0.0 0.00706280579200811 -0.00537698190739198 0.00483983756219545 0.000537144345196528 -0.00605794669629953 0.0 0.0
0.0 0.010776260445609072 -0.008319119644880147 0.007680456815888719 0.0006386628289914336 -0.008440838110723757 0.0 0.0
0.0 0.014786426776028792 -0.011626547104601197 0.010915661152486942 0.0007108859521142588 -0.01076225060259828 0.0 0.0
0.0 0.019242720464465533 -0.015301637215305395 0.014531537760887265 0.0007700994544181296 -0.013006933713250082 0.0 0.0
0.0 0.02420710536262369 -0.01939118656987126 0.018565766255957177 0.0008254203139140773 -0.015258033355461149 0.0 0.0
0.0 0.029688297125243884 -0.023843092869023128 0.022959940361539213 0.0008831525074839002 -0.01770542808312758 0.0 0.0
0.0 0.035337472391005986 -0.02839194918509761 0.027448312470723067 0.0009436367143745218 -0.020616570292467617 0.0 0.0
0.0 0.04071113945515505 -0.03250953592234254 0.03150723344514629 0.0010023024771962322 -0.02417524406597458 0.0 0.0
0.0 0.04442654569837799 -0.035276040690795124 0.03419910216273378 0.001076938528061352 -0.027738938676821888 0.0 0.0
0.0 0.04462720952663368 -0.03495346008512367 0.03378229241604014 0.0011711676690835118 -0.029507557442569284 0.0 0.0
0.0 0.03659596191038299 -0.028144076122765815 0.026759893577047097 0.001384182545718714 -0.025731883386815407 0.0 0.0
0.0 0.036595961910390495 -0.028144076122765503 0.026759893577046726 0.001384182545718783 0.0257318833868507 0.0 0.0
0.0 0.04462720952663595 -0.03495346008511735 0.03378229241603396 0.0011711676690833667 0.029507557442614032 0.0 0.0
0.0 0.04442654569836834 -0.0352760406907809 0.03419910216271997 0.0010769385280609087 0.027738938676851576 0.0 0.0
0.0 0.040711139455129275 -0.032509535922318665 0.03150723344512269 0.0010023024771959967 0.02417524406597784 0.0 0.0
0.0 0.035337472390970244 -0.028391949185067572 0.02744831247069332 0.0009436367143742582 0.020616570292453798 0.0 0.0
0.0 0.02968829712521126 -0.02384309286899632 0.022959940361512575 0.0008831525074837344 0.017705428083112214 0.0 0.0
0.0 0.02420710536259295 -0.019391186569845956 0.018565766255931822 0.0008254203139141318 0.015258033355446707 0.0 0.0
0.0 0.019242720464433587 -0.015301637215278514 0.014531537760860587 0.0007700994544179206 0.013006933713236716 0.0 0.0
0.0 0.014786426775998169 -0.011626547104576269 0.010915661152462522 0.0007108859521137468 0.01076225060258081 0.0 0.0
0.0 0.010776260445580301 -0.008319119644857726 0.007680456815866913 0.000638662828990813 0.008440838110702543 0.0 0.0
0.0 0.007062805791981727 -0.005376981907372038 0.004839837562176158 0.0005371443451958808 0.0060579466962789345 0.0 0.0
0.0 0.004068871513264384 -0.0029165433737152404 0.0025330469537076833 0.00038349642000755596 0.0038184365808010255 0.0 0.0
0.0 0.0017878282864128466 -0.0011858108238585966 0.000988092484608558 0.00019771833925003864 0.001966053881172142 0.0 0.0
0.0 0.0005636178562610482 -0.00030766232910614506 0.00024937279338728055 5.8289535718864435e-05 0.0007027450058401073 0.0 0.0
0.0 0.00014073443469117634 -5.6678850274550016e-05 4.57175090811306e-05 1.0961341193419365e-05 0.00017271158546208748 0.0 0.0
0.0 3.690973305113856e-05 -1.1287489021371168e-05 9.197663015580507e-06 2.0898260057906245e-06 4.1167698069470475e-05 0.0 0.0
0.0 1.0760122038120974e-05 -9.959684355651015e-07 8.128116474501319e-07 1.831567881149575e-07 4.171753808054037e-06 0.0 0.0
0.0 3.655562516431624e-06 -5.2081628577896914e-08 4.284139816231737e-08 9.240230415585971e-09 2.425084537202938e-07 0.0 0.0
0.0 1.2508586809248778e-06 1.7693331309732382e-08 -8.022362201433076e-09 -9.67096910830339e-09 -2.543629169952669e-07 0.0 0.0
0.0 0.0 0.0 0.0 0.0 0.0 0.0 0.0
0.0 0.0 0.0 0.0 0.0 0.0 0.0 0.0
0.0 1.142611525848342e-07 2.288734892542505e-09 -1.5997618405167106e-09 -6.88973052025528e-10 2.247828464461184e-08 0.0 0.0
0.0 2.167223919933127e-06 6.229649452114198e-08 -4.970891862531856e-08 -1.2587575895828272e-08 2.9618089452228095e-07 0.0 0.0
0.0 1.0563257756499958e-05 -2.2135607783012177e-06 1.831304869551932e-06 3.8225590874928144e-07 -7.322683436692018e-06 0.0 0.0
0.0 4.6358391275148416e-05 -1.765015712609503e-05 1.4364927619648161e-05 3.285229506446898e-06 -4.530808830160108e-05 0.0 0.0
0.0 0.00024395051414536964 -0.00013882823014567765 0.00011197263881468338 2.6855591330994234e-05 -0.00027203543761206064 0.0 0.0
0.0 0.0011041301442465989 -0.0007650979791599454 0.0006299341551451353 0.00013516382401481034 -0.0010955365752444992 0.0 0.0
0.0 0.0031402921026692627 -0.0023795747519524345 0.002042728678657683 0.00033684607329475066 -0.00264599044778656 0.0 0.0
0.0 0.00641272829463943 -0.005050917059456823 0.004525285833691904 0.0005256312257649194 -0.004793198788038206 0.0 0.0
0.0 0.010632441752264124 -0.008571122554312112 0.007916624467967225 0.0006544980863448857 -0.007337476189987263 0.0 0.0
0.0 0.015585765453184436 -0.012698025255926625 0.011957459430025406 0.0007405658259012195 -0.00995834531879553 0.0 0.0
0.0 0.021134882217102278 -0.017332475933999184 0.016522144844912906 0.000810331089086274 -0.012457679511299748 0.0 0.0
0.0 0.02730780771914701 -0.02249612009615634 0.021623803180890425 0.0008723169152659059 -0.014862881565397583 0.0 0.0
0.0 0.03412826246931347 -0.028261616814731265 0.027328560393237347 0.0009330564214939239 -0.01729254997529556 0.0 0.0
0.0 0.041697123302601245 -0.03460768838586645 0.033610375212876124 0.0009973131729903038 -0.020001390877139435 0.0 0.0
0.0 0.049732224698607524 -0.04126020777637984 0.040190775737972306 0.0010694320384075295 -0.0234101301291237 0.0 0.0
0.0 0.05736946288309726 -0.04749642087337834 0.04634381978796468 0.001152601085413632 -0.02770406187739286 0.0 0.0
0.0 0.06300591855732514 -0.051904485854177285 0.0506535188219428 0.0012509670322344317 -0.032113712318805415 0.0 0.0
0.0 0.06352424459273198 -0.052028547725054865 0.05063966456189867 0.0013888831631561679 -0.03433457557422231 0.0 0.0
0.0 0.05358865410139601 -0.043535466517232696 0.041931522369618515 0.0016039441476142036 -0.030917857099372118 0.0 0.0
0.0 0.053588654101397966 -0.04353546651722834 0.04193152236961376 0.0016039441476145542 0.03091785709940941 0.0 0.0
0.0 0.06352424459273076 -0.05202854772504589 0.05063966456189019 0.001388883163155702 0.03433457557427271 0.0 0.0
0.0 0.06300591855730633 -0.051904485854155136 0.05065351882192104 0.0012509670322340624 0.03211371231884077 0.0 0.0
0.0 0.05736946288306164 -0.047496420873345394 0.046343819787932464 0.0011526010854129277 0.02770406187739889 0.0 0.0
0.0 0.049732224698567355 -0.04126020777634522 0.040190775737938 0.00106943203840721 0.02341013012911342 0.0 0.0
0.0 0.041697123302560854 -0.03460768838583204 0.03361037521284212 0.0009973131729899107 0.020001390877126383 0.0 0.0
0.0 0.03412826246927261 -0.028261616814697098 0.027328560393203485 0.0009330564214936113 0.01729254997527804 0.0 0.0
0.0 0.02730780771910768 -0.022496120096122736 0.021623803180857243 0.0008723169152654981 0.014862881565384851 0.0 0.0
0.0 0.021134882217062074 -0.017332475933965398 0.016522144844879603 0.000810331089085784 0.012457679511280916 0.0 0.0
0.0 0.015585765453145287 -0.01269802525589484 0.011957459429994146 0.0007405658259006871 0.009958345318771353 0.0 0.0
0.0 0.010632441752231 -0.008571122554285689 0.007916624467941495 0.0006544980863441905 0.007337476189964183 0.0 0.0
0.0 0.006412728294616323 -0.005050917059438479 0.004525285833674492 0.000525631225763989 0.004793198788023638 0.0 0.0
0.0 0.0031402921026542473 -0.0023795747519406354 0.002042728678647121 0.00033684607329351364 0.0026459904477761425 0.0 0.0
0.0 0.0011041301442372147 -0.0007650979791534514 0.0006299341551396225 0.00013516382401382846 0.0010955365752365314 0.0 0.0
0.0 0.00024395051414208773 -0.00013882823014432815 0.00011197263881356974 2.685559133075846e-05 0.0002720354376095888 0.0 0.0
0.0 4.6358391274243277e-05 -1.7650157126163204e-05 1.4364927619701944e-05 3.2852295064612116e-06 4.5308088301782926e-05 0.0 0.0
0.0 1.0563257755839737e-05 -2.2135607784693944e-06 1.8313048696885877e-06 3.8225590878079906e-07 7.322683437237902e-06 0.0 0.0
0.0 2.1672239193583443e-06 6.229649440997102e-08 -4.9708918537167654e-08 -1.2587575872805276e-08 -2.961808940398953e-07 0.0 0.0
0.0 1.1426115247963744e-07 2.288734890412389e-09 -1.5997618390303778e-09 -6.889730513817681e-10 -2.247828462369251e-08 0.0 0.0
0.0 0.0 0.0 0.0 0.0 0.0 0.0 0.0
0.0 0.0 0.0 0.0 0.0 0.0 0.0 0.0
0.0 0.0 0.0 0.0 0.0 0.0 0.0 0.0
0.0 6.301117771691601e-07 3.177133557320747e-08 -2.5610055499987776e-08 -6.161280073216576e-09 1.139376708674144e-07 0.0 0.0
0.0 1.0089683917603297e-05 -6.411634810489719e-07 5.159339406860917e-07 1.2522954036289114e-07 -1.4318795886724934e-06 0.0 0.0
0.0 7.334637492085937e-05 -2.9829907310693558e-05 2.4071986794327546e-05 5.757920516366004e-06 -5.3462840355477436e-05 0.0 0.0
0.0 0.0004684771627327235 -0.0003276117310094125 0.00026579655640422803 6.18151746051844e-05 -0.0004308447630335502 0.0 0.0
0.0 0.0019001922432590893 -0.0014613982644375773 0.0012269404057159688 0.0002344578587216078 -0.0014273940433288752 0.0 0.0
0.0 0.004732134796774607 -0.003825699766914533 0.003369475059205661 0.000456224707708871 -0.0030984623917784267 0.0 0.0
0.0 0.008926186487167514 -0.007387057973981046 0.006764392806632056 0.0006226651673489895 -0.005383412013638634 0.0 0.0
0.0 0.014275001137970615 -0.01190739723796271 0.011175602955759768 0.0007317942822029447 -0.007993693620239946 0.0 0.0
0.0 0.020539909563506382 -0.017192599744008184 0.016377435910918364 0.0008151638330898179 -0.010632078183510472 0.0 0.0
0.0 0.02759628936541066 -0.023155521479669344 0.022266760527750867 0.0008887609519184823 -0.013168810055337135 0.0 0.0
0.0 0.03544348732210245 -0.029815900549072412 0.028858438578976 0.0009574619700963908 -0.015623061373468233 0.0 0.0
0.0 0.044193149211780774 -0.037258829041471 0.03623453339212589 0.0010242956493451095 -0.018087570094596182 0.0 0.0
0.0 0.05394014783929215 -0.045506773124375406 0.04441103056871355 0.00109574255566186 -0.02083358449179968 0.0 0.0
0.0 0.06415843655133738 -0.054267921707379874 0.05308676306049654 0.0011811586468833157 -0.02431415043663828 0.0 0.0
0.0 0.07423613448558138 -0.06258613400603344 0.06129947764015874 0.0012866563658747035 -0.028794922024867355 0.0 0.0
0.0 0.08158056889307816 -0.06852370052987722 0.06710684897833766 0.00141685155153955 -0.03362430865713683 0.0 0.0
0.0 0.08227199654916229 -0.06883799154090828 0.06725825186541137 0.0015797396754968754 -0.036657067769409954 0.0 0.0
0.0 0.07068682803184374 -0.05864084058034749 0.056864927237805146 0.0017759133425423565 -0.03550610840260648 0.0 0.0
0.0 0.07068682803184279 -0.058640840580340976 0.056864927237797985 0.001775913342542976 0.03550610840264737 0.0 0.0
0.0 0.08227199654915143 -0.06883799154089239 0.06725825186539529 0.001579739675497092 0.03665706776945959 0.0 0.0
0.0 0.08158056889305172 -0.06852370052984964 0.06710684897830982 0.0014168515515398292 0.03362430865717391 0.0 0.0
0.0 0.0742361344855404 -0.06258613400599622 0.06129947764012146 0.0012866563658747163 0.028794922024876518 0.0 0.0
0.0 0.06415843655128908 -0.0542679217073379 0.05308676306045484 0.0011811586468830427 0.02431415043663024 0.0 0.0
0.0 0.05394014783924088 -0.04550677312433129 0.04441103056866963 0.001095742555661693 0.02083358449178723 0.0 0.0
0.0 0.04419314921173208 -0.03725882904142912 0.036234533392084656 0.0010242956493444694 0.01808757009458117 0.0 0.0
0.0 0.03544348732205117 -0.029815900549028204 0.02885843857893207 0.0009574619700961265 0.01562306137345464 0.0 0.0
0.0 0.02759628936535957 -0.02315552147962588 0.022266760527707624 0.0008887609519182458 0.013168810055318069 0.0 0.0
0.0 0.020539909563460492 -0.017192599743970003 0.01637743591088053 0.0008151638330894638 0.010632078183486576 0.0 0.0
0.0 0.014275001137932439 -0.011907397237930984 0.011175602955728529 0.000731794282202467 0.007993693620216943 0.0 0.0
0.0 0.008926186487138714 -0.0073870579739569765 0.0067643928066086914 0.0006226651673482889 0.005383412013623786 0.0 0.0
0.0 0.004732134796754535 -0.003825699766898113 0.0033694750591902506 0.0004562247077078635 0.0030984623917670673 0.0 0.0
0.0 0.0019001922432484927 -0.0014613982644295608 0.0012269404057090605 0.00023445785872050007 0.0014273940433220196 0.0 0.0
0.0 0.00046847716272828876 -0.0003276117310068559 0.00026579655640214615 6.18151746047098e-05 0.0004308447630305166 0.0 0.0
0.0 7.334637491995759e-05 -2.9829907310866614e-05 2.4071986794456224e-05 5.757920516410288e-06 5.3462840355734426e-05 0.0 0.0
0.0 1.008968391717044e-05 -6.41163481292204e-07 5.159339408828534e-07 1.2522954040936132e-07 1.4318795892701275e-06 0.0 0.0
0.0 6.301117768796378e-07 3.177133555832444e-08 -2.5610055487985994e-08 -6.161280070339225e-09 -1.1393767081387647e-07 0.0 0.0
0.0 0.0 0.0 0.0 0.0 0.0 0.0 0.0
0.0 0.0 0.0 0.0 0.0 0.0 0.0 0.0
0.0 0.0 0.0 0.0 0.0 0.0 0.0 0.0
0.0 0.0 0.0 0.0 0.0 0.0 0.0 0.0
0.0 9.159772724021529e-07 5.630253744311479e-08 -4.536700834069255e-08 -1.0935529102421052e-08 1.5681455061216043e-07 0.0 0.0
0.0 7.38449010134432e-06 -2.2364918122954972e-06 1.7965710484123307e-06 4.399207638832081e-07 -4.112915624575314e-06 0.0 0.0
0.0 0.00012034839064295927 -7.273076797942839e-05 5.843758857674928e-05 1.429317940267914e-05 -9.370258654188706e-05 0.0 0.0
0.0 0.0008577563737677189 -0.0006501498008372546 0.0005323331978717325 0.00011781660296552232 -0.0005831306150468233 0.0 0.0
0.0 0.0029322149980924614 -0.0023505484317043195 0.0020145741217540616 0.0003359743099502582 -0.0016199365648590794 0.0 0.0
0.0 0.006425313438685935 -0.005448346273216369 0.0048994199106357555 0.000548926362580615 -0.0033009339661217675 0.0 0.0
0.0 0.011533706832780127 -0.009830114375797748 0.009140755815237513 0.0006893585605602373 -0.005513236487517013 0.0 0.0
0.0 0.017993679390513002 -0.015316442094172655 0.014526166313164453 0.000790275781008213 -0.007988649078315044 0.0 0.0
0.0 0.025567558312259864 -0.021754035065560996 0.020877614318946497 0.000876420746614483 -0.010517414378810258 0.0 0.0
0.0 0.03411297292535409 -0.029051716775880428 0.028095209894166414 0.0009565068817139887 -0.012950802943394416 0.0 0.0
0.0 0.04371207803347446 -0.037218601172030255 0.03618542174216754 0.00103317942986273 -0.015319072677503471 0.0 0.0
0.0 0.05426404254183329 -0.04633808833174206 0.04523078792997071 0.0011073004017713415 -0.017711671879203396 0.0 0.0
0.0 0.06605516210749059 -0.056446826308177746 0.0552614413850502 0.0011853849231275493 -0.020252688884279887 0.0 0.0
0.0 0.07876858371762924 -0.0672469984808684 0.06596415185676677 0.0012828466241016148 -0.02332135076673174 0.0 0.0
0.0 0.09079988631346735 -0.0775906289836038 0.07618005697540446 0.0014105720081993042 -0.027438570343292557 0.0 0.0
0.0 0.09963997577553214 -0.08500229022271336 0.08343277689974536 0.0015695133229679395 -0.032432471446166046 0.0 0.0
0.0 0.10073051692177054 -0.08553472269052635 0.08378719674151827 0.0017475259490080395 -0.03699287586995993 0.0 0.0
0.0 0.08817301058529768 -0.07386983548315364 0.07193780761789953 0.0019320278652540687 -0.039822831705294916 0.0 0.0
0.0 0.08817301058529477 -0.07386983548314573 0.07193780761789156 0.0019320278652541069 0.039822831705336154 0.0 0.0
0.0 0.10073051692175247 -0.08553472269050531 0.0837871967414971 0.0017475259490081839 0.036992875870009774 0.0 0.0
0.0 0.0996399757755004 -0.08500229022268158 0.08343277689971446 0.0015695133229670466 0.0324324714462038 0.0 0.0
0.0 0.09079988631341793 -0.07759062898355941 0.07618005697536051 0.0014105720081988593 0.027438570343302607 0.0 0.0
0.0 0.0787685837175703 -0.06724699848081717 0.06596415185671588 0.0012828466241012549 0.023321350766725583 0.0 0.0
0.0 0.06605516210743154 -0.05644682630812619 0.05526144138499958 0.0011853849231266101 0.020252688884271654 0.0 0.0
0.0 0.05426404254177199 -0.046338088331689155 0.04523078792991816 0.001107300401770975 0.017711671879189754 0.0 0.0
0.0 0.043712078033416396 -0.037218601171979775 0.0361854217421176 0.0010331794298621682 0.015319072677489921 0.0 0.0
0.0 0.03411297292529636 -0.029051716775830603 0.02809520989411687 0.0009565068817137243 0.012950802943377776 0.0 0.0
0.0 0.025567558312206952 -0.02175403506551611 0.020877614318902032 0.0008764207466140805 0.010517414378787537 0.0 0.0
0.0 0.017993679390466318 -0.015316442094133197 0.014526166313125572 0.0007902757810076151 0.007988649078292758 0.0 0.0
0.0 0.01153370683274498 -0.009830114375767593 0.009140755815208075 0.0006893585605595141 0.005513236487501861 0.0 0.0
0.0 0.006425313438661902 -0.005448346273195733 0.004899419910616299 0.000548926362579434 0.003300933966110798 0.0 0.0
0.0 0.0029322149980776668 -0.0023505484316923213 0.0020145741217432985 0.0003359743099490229 0.001619936564851494 0.0 0.0
0.0 0.0008577563737611003 -0.0006501498008326451 0.0005323331978678458 0.00011781660296479907 0.000583130615042758 0.0 0.0
0.0 0.00012034839064144879 -7.273076797911703e-05 5.843758857649475e-05 1.4293179402622298e-05 9.370258654155452e-05 0.0 0.0
0.0 7.384490101109438e-06 -2.236491812547883e-06 1.796571048611436e-06 4.399207639364247e-07 4.112915625029607e-06 0.0 0.0
0.0 9.159772720464821e-07 5.630253742091469e-08 -4.5367008322703315e-08 -1.0935529098212496e-08 -1.5681455054918204e-07 0.0 0.0
0.0 0.0 0.0 0.0 0.0 0.0 0.0 0.0
0.0 0.0 0.0 0.0 0.0 0.0 0.0 0.0
0.0 0.0 0.0 0.0 0.0 0.0 0.0 0.0
0.0 0.0 0.0 0.0 0.0 0.0 0.0 0.0
0.0 0.0 0.0 0.0 0.0 0.0 0.0 0.0
0.0 6.658536430703825e-06 -2.7168636532884087e-06 2.1538659528191626e-06 5.629977004692662e-07 -3.665452986629474e-06 0.0 0.0
0.0 0.0002248952496296664 -0.00015722945646751504 0.00012649298032918287 3.073647613833221e-05 -0.00014148344347068826 0.0 0.0
0.0 0.0014160652577847148 -0.001113329634960867 0.0009242111782922981 0.00018911845666856947 -0.00067771750515043 0.0 0.0
0.0 0.0039374994571849 -0.0034120310256066187 0.0029825953937485626 0.00042943563185805767 -0.0016777284863727297 0.0 0.0
0.0 0.008228763292069152 -0.0071658308483490574 0.00655068710352885 0.0006151437448202088 -0.0031982323723072155 0.0 0.0
0.0 0.0142500354840589 -0.01232091737411035 0.011581757308615959 0.0007391600654943875 -0.005144991241613212 0.0 0.0
0.0 0.021766594682261692 -0.01876431444762159 0.017926020166932774 0.0008382942806888303 -0.007363312228579727 0.0 0.0
0.0 0.03062292577386271 -0.02634924807802337 0.025420032082416135 0.0009292159956072333 -0.009631437842482904 0.0 0.0
0.0 0.04069430014415001 -0.03498735829093069 0.03397034367931939 0.0010170146116112904 -0.011820651017768209 0.0 0.0
0.0 0.05195586306479557 -0.04467592145943188 0.04357364891966468 0.0011022725397671809 -0.01397991985779096 0.0 0.0
0.0 0.0645066151247138 -0.05546356906774106 0.054277517761954074 0.0011860513057869782 -0.016152021112297164 0.0 0.0
0.0 0.07831066605090908 -0.06735532209921855 0.06608371198941058 0.0012716101098079508 -0.018324930635647267 0.0 0.0
0.0 0.09282143436745055 -0.08005133140435544 0.07867587178645143 0.0013754596179039811 -0.020623870037092422 0.0 0.0
0.0 0.10706747822105471 -0.09231568180267193 0.09079418331024405 0.00152149849242788 -0.023719085685750926 0.0 0.0
0.0 0.11764586113279411 -0.1012735872138834 0.0995681737847364 0.0017054134291469977 -0.028562818446168203 0.0 0.0
0.0 0.11942831552418237 -0.10233196236371073 0.10042951501101617 0.0019024473526945362 -0.035403551247313474 0.0 0.0
0.0 0.10612943002809852 -0.08958146970785816 0.0874955990150267 0.0020858706928313865 -0.043881142870517295 0.0 0.0
0.0 0.10612943002809563 -0.08958146970785083 0.08749559901501926 0.002085870692831595 0.04388114287055721 0.0 0.0
0.0 0.11942831552415833 -0.10233196236368583 0.10042951501099118 0.0019024473526946637 0.03540355124735964 0.0 0.0
0.0 0.11764586113275059 -0.10127358721384327 0.09956817378469611 0.0017054134291470677 0.028562818446201774 0.0 0.0
0.0 0.10706747822099716 -0.09231568180262106 0.0907941833101938 0.0015214984924272659 0.023719085685758565 0.0 0.0
0.0 0.09282143436738396 -0.08005133140429743 0.07867587178639383 0.0013754596179035412 0.020623870037090063 0.0 0.0
0.0 0.0783106660508373 -0.06735532209915636 0.06608371198934873 0.0012716101098076537 0.018324930635639277 0.0 0.0
0.0 0.0645066151246458 -0.05546356906768202 0.05427751776189603 0.0011860513057859274 0.016152021112286762 0.0 0.0
0.0 0.051955863064729865 -0.04467592145937461 0.043573648919608465 0.001102272539766144 0.013979919857780045 0.0 0.0
0.0 0.040694300144080896 -0.03498735829087067 0.03397034367925993 0.0010170146116107804 0.011820651017753155 0.0 0.0
0.0 0.030622925773800762 -0.026349248077969914 0.025420032082363216 0.0009292159956066874 0.00963143784246193 0.0 0.0
0.0 0.02176659468220997 -0.018764314447577077 0.01792602016688882 0.0008382942806882455 0.007363312228559629 0.0 0.0
0.0 0.014250035484019645 -0.012320917374076118 0.011581757308582259 0.0007391600654938549 0.005144991241600453 0.0 0.0
0.0 0.008228763292042017 -0.0071658308483253065 0.006550687103505802 0.0006151437448195024 0.0031982323722972534 0.0 0.0
0.0 0.003937499457167525 -0.0034120310255915873 0.0029825953937347065 0.00042943563185688125 0.0016777284863659417 0.0 0.0
0.0 0.0014160652577759664 -0.0011133296349543653 0.000924211178286709 0.0001891184566676558 0.0006777175051466594 0.0 0.0
0.0 0.00022489524962719882 -0.00015722945646642032 0.00012649298032830076 3.073647613811943e-05 0.0001414834434698759 0.0 0.0
0.0 6.6585364304186055e-06 -2.716863653658674e-06 2.153865953106185e-06 5.629977005525015e-07 3.665452987102982e-06 0.0 0.0
0.0 0.0 0.0 0.0 0.0 0.0 0.0 0.0
0.0 0.0 0.0 0.0 0.0 0.0 0.0 0.0
0.0 0.0 0.0 0.0 0.0 0.0 0.0 0.0
0.0 0.0 0.0 0.0 0.0 0.0 0.0 0.0
0.0 0.0 0.0 0.0 0.0 0.0 0.0 0.0
0.0 0.0 0.0 0.0 0.0 0.0 0.0 0.0
0.0 9.661938232888799e-06 -5.108949819468791e-06 4.070099365766241e-06 1.038850453702539e-06 -4.988461090005604e-06 0.0 0.0
0.0 0.0004287417672393669 -0.0003172970695564808 0.0002559004260243148 6.139664353216596e-05 -0.00018261684301576695 0.0 0.0
0.0 0.0020784166942611256 -0.0017197487627014644 0.001449371441398071 0.00027037732130339326 -0.0006873607749734434 0.0 0.0
0.0 0.005132345580655298 -0.004566882971142151 0.004061033459967183 0.0005058495111749672 -0.0015122835834993382 0.0 0.0
0.0 0.010147844453866055 -0.008922128568351992 0.008258314963568474 0.0006638136047835177 -0.002730646145138215 0.0 0.0
0.0 0.017005765759201187 -0.014834442011592125 0.01405591053794934 0.0007785314736427743 -0.004314916675779628 0.0 0.0
0.0 0.025576677692801843 -0.022220417698111377 0.021341400755535887 0.0008790169425754849 -0.006131615979968728 0.0 0.0
0.0 0.03572822332338552 -0.030948571293923925 0.0299725292380969 0.0009760420558270224 -0.007996248225001433 0.0 0.0
0.0 0.047270065969026644 -0.04093331797368165 0.039861718375547285 0.0010715995981343527 -0.009793349003227567 0.0 0.0
0.0 0.06035054821067969 -0.05215418588835547 0.05098785220312686 0.0011663336852285662 -0.011576325194920899 0.0 0.0
0.0 0.07463297737867468 -0.06461111390704079 0.06334999443979804 0.0012611194672427484 -0.013416366464652097 0.0 0.0
0.0 0.09027106520680951 -0.07820418815156235 0.07684674172354988 0.0013574464280125009 -0.015152397828351994 0.0 0.0
0.0 0.10681685011703265 -0.09256097950539702 0.09109606505506168 0.0014649144503353143 -0.016485113434815624 0.0 0.0
0.0 0.12291951579925531 -0.10653896966110182 0.10492888092508494 0.0016100887360168408 -0.017929652679878103 0.0 0.0
0.0 0.13538971199999167 -0.1172501100353723 0.1154284322816144 0.0018216777537578437 -0.02198242267141567 0.0 0.0
0.0 0.1384838202702486 -0.11942400749278259 0.11737569222765135 0.0020483152651312652 -0.031476453561832866 0.0 0.0
0.0 0.12522602927142218 -0.10618324437783581 0.10393273468303174 0.0022505096948040385 -0.04738532836056675 0.0 0.0
0.0 0.12522602927141313 -0.10618324437782477 0.10393273468302011 0.0022505096948047167 0.047385328360597195 0.0 0.0
0.0 0.13848382027021966 -0.11942400749275459 0.1173756922276239 0.0020483152651306893 0.031476453561872675 0.0 0.0
0.0 0.13538971199994176 -0.1172501100353271 0.11542843228157013 0.0018216777537569174 0.02198242267144602 0.0 0.0
0.0 0.12291951579918925 -0.10653896966104405 0.1049288809250278 0.001610088736016283 0.01792965267988409 0.0 0.0
0.0 0.1068168501169588 -0.09256097950533262 0.09109606505499819 0.0014649144503344792 0.016485113434814052 0.0 0.0
0.0 0.09027106520672913 -0.07820418815149242 0.07684674172348065 0.0013574464280118118 0.015152397828348079 0.0 0.0
0.0 0.07463297737859392 -0.06461111390697083 0.0633499944397284 0.0012611194672424095 0.013416366464644542 0.0 0.0
0.0 0.060350548210598993 -0.05215418588828557 0.0509878522030572 0.001166333685228392 0.011576325194911037 0.0 0.0
0.0 0.047270065968950004 -0.04093331797361516 0.0398617183754814 0.0010715995981337536 0.009793349003217754 0.0 0.0
0.0 0.03572822332331814 -0.03094857129386505 0.029972529238038916 0.0009760420558261401 0.007996248224985462 0.0 0.0
0.0 0.025576677692741613 -0.02222041769805913 0.02134140075548395 0.0008790169425751876 0.006131615979951375 0.0 0.0
0.0 0.017005765759154565 -0.01483444201155137 0.01405591053790903 0.0007785314736423461 0.004314916675768023 0.0 0.0
0.0 0.010147844453833101 -0.008922128568322817 0.008258314963540092 0.0006638136047827253 0.002730646145129262 0.0 0.0
0.0 0.0051323455806348015 -0.0045668829711238285 0.0040610334599499595 0.0005058495111738696 0.0015122835834931497 0.0 0.0
0.0 0.0020784166942502146 -0.001719748762692404 0.0014493714413901316 0.00027037732130227133 0.000687360774969812 0.0 0.0
0.0 0.0004287417672347664 -0.0003172970695533518 0.00025590042602175134 6.139664353160064e-05 0.00018261684301415274 0.0 0.0
0.0 9.661938232404318e-06 -5.108949819772349e-06 4.0700993659964e-06 1.0388504537759566e-06 4.98846109025689e-06 0.0 0.0
0.0 0.0 0.0 0.0 0.0 0.0 0.0 0.0
0.0 0.0 0.0 0.0 0.0 0.0 0.0 0.0
0.0 0.0 0.0 0.0 0.0 0.0 0.0 0.0
0.0 0.0 0.0 0.0 0.0 0.0 0.0 0.0
0.0 0.0 0.0 0.0 0.0 0.0 0.0 0.0
0.0 0.0 0.0 0.0 0.0 0.0 0.0 0.0
0.0 2.2962619341096693e-05 -1.2973254933624186e-05 1.0348341218041405e-05 2.624913715582815e-06 -8.001331262576435e-06 0.0 0.0
0.0 0.000765204522202408 -0.0005788674328755679 0.0004711240938223848 0.00010774333905318328 -0.00019072233370230266 0.0 0.0
0.0 0.0026965150821204116 -0.00245384084507191 0.002099942178313264 0.0003538986667586453 -0.0005595228956450285 0.0 0.0
0.0 0.00644946216436201 -0.005768026176123212 0.005205259674634412 0.0005627665014888011 -0.0011172805608703495 0.0 0.0
0.0 0.012106820300564938 -0.01069837330402363 0.009996760665173365 0.0007016126388502734 -0.0019391509104103783 0.0 0.0
0.0 0.0197820164489088 -0.017343329419611093 0.016533065637347282 0.0008102637822638099 -0.003030205022940628 0.0 0.0
0.0 0.029394640268347053 -0.025657134108888296 0.024743181859825613 0.0009139522490626777 -0.004301853531926237 0.0 0.0
0.0 0.04082030885121738 -0.035525635580786766 0.034507802070332425 0.0010178335104543686 -0.005608235384450789 0.0 0.0
0.0 0.05400081552807517 -0.04686075272082442 0.045739170379082254 0.0011215823417421475 -0.00686860162372514 0.0 0.0
0.0 0.0685980477234924 -0.05962465517558554 0.05839866296729905 0.0012259922082864714 -0.008151669554497773 0.0 0.0
0.0 0.08482139066061234 -0.07374074998695254 0.07240818286259948 0.0013325671243530294 -0.00946610851958651 0.0 0.0
0.0 0.10238901453492492 -0.08897411684419297 0.08753138398160507 0.0014427328625878685 -0.010627064722035319 0.0 0.0
0.0 0.12058843742139295 -0.10478374513455176 0.10322600875696072 0.001557736377591021 -0.011210209177129862 0.0 0.0
0.0 0.13816948499061765 -0.12008072716138579 0.1183912969179969 0.00168943024338896 -0.011029678994660437 0.0 0.0
0.0 0.1525491205606429 -0.1325410364941676 0.13066244683149214 0.001878589662675415 -0.012609974256751246 0.0 0.0
0.0 0.158122665242032 -0.13694908830797023 0.13475265100065562 0.0021964373073145582 -0.023761813613654835 0.0 0.0
0.0 0.14599031221000155 -0.12429826119737741 0.12185480671416515 0.0024434544832121897 -0.04957727801664659 0.0 0.0
0.0 0.1459903122099908 -0.12429826119736587 0.1218548067141536 0.0024434544832122517 0.0495772780166695 0.0 0.0
0.0 0.1581226652419948 -0.13694908830793662 0.13475265100062223 0.0021964373073143926 0.023761813613685158 0.0 0.0
0.0 0.15254912056058273 -0.1325410364941147 0.13066244683143993 0.0018785896626747262 0.012609974256772717 0.0 0.0
0.0 0.13816948499054144 -0.12008072716131911 0.11839129691793146 0.0016894302433876347 0.011029678994662721 0.0 0.0
0.0 0.12058843742131004 -0.10478374513447927 0.10322600875688992 0.0015577363775893698 0.0112102091771277 0.0 0.0
0.0 0.10238901453483852 -0.08897411684411763 0.08753138398153093 0.001442732862586687 0.010627064722033355 0.0 0.0
0.0 0.08482139066052348 -0.07374074998687552 0.07240818286252296 0.0013325671243525697 0.009466108519581826 0.0 0.0
0.0 0.06859804772340518 -0.059624655175509564 0.058398662967224305 0.0012259922082852822 0.008151669554490884 0.0 0.0
0.0 0.05400081552798666 -0.046860752720747224 0.045739170379005836 0.0011215823417413786 0.006868601623718872 0.0 0.0
0.0 0.040820308851136675 -0.03552563558071672 0.03450780207026297 0.0010178335104537289 0.00560823538443825 0.0 0.0
0.0 0.029394640268282216 -0.025657134108831674 0.02474318185976982 0.0009139522490618608 0.004301853531914228 0.0 0.0
0.0 0.01978201644885956 -0.017343329419567472 0.016533065637304382 0.0008102637822630859 0.003030205022933828 0.0 0.0
0.0 0.012106820300527683 -0.010698373303990585 0.00999676066514097 0.0007016126388496073 0.001939150910404325 0.0 0.0
0.0 0.006449462164337194 -0.005768026176100756 0.005205259674612975 0.0005627665014877787 0.001117280560866104 0.0 0.0
0.0 0.0026965150821066887 -0.002453840845059461 0.002099942178301966 0.0003538986667574956 0.000559522895642029 0.0 0.0
0.0 0.0007652045221977213 -0.0005788674328722958 0.00047112409381967285 0.00010774333905262254 0.00019072233370144099 0.0 0.0
0.0 2.2962619340517736e-05 -1.297325493399494e-05 1.0348341218314105e-05 2.6249137156807883e-06 8.001331262717044e-06 0.0 0.0
0.0 0.0 0.0 0.0 0.0 0.0 0.0 0.0
0.0 0.0 0.0 0.0 0.0 0.0 0.0 0.0
0.0 0.0 0.0 0.0 0.0 0.0 0.0 0.0
0.0 0.0 0.0 0.0 0.0 0.0 0.0 0.0
0.0 0.0 0.0 0.0 0.0 0.0 0.0 0.0
0.0 0.0 0.0 0.0 0.0 0.0 0.0 0.0
0.0 7.509691735883497e-05 -5.609491510533106e-05 4.4353108843633224e-05 1.1741806261697976e-05 -1.4633225411732229e-05 0.0 0.0
0.0 0.001244339527667944 -0.0009438079064776773 0.0007759024560917366 0.00016790545038594 -0.00012236825347118342 0.0 0.0
0.0 0.0035600130977460516 -0.003239552883605333 0.0028139812734293366 0.0004255716101759977 -0.0002670679864508931 0.0 0.0
0.0 0.00781423692190801 -0.006996969708931152 0.0063900326599005495 0.0006069370490305989 -0.0004937118178134269 0.0 0.0
0.0 0.014104836768130426 -0.01246987762868076 0.011738994069864178 0.0007308835588165725 -0.0008273740631530691 0.0 0.0
0.0 0.02258205147578364 -0.019821021284963367 0.018984296749619864 0.0008367245353435009 -0.001299334054822082 0.0 0.0
0.0 0.03324935928246443 -0.029045855903271543 0.02810172346973997 0.000944132433531575 -0.0018727016436780315 0.0 0.0
0.0 0.04602531319570792 -0.04005418035647347 0.03899925727294262 0.001054923083530849 -0.0024703251935990324 0.0 0.0
0.0 0.06051524765243013 -0.052751713064176114 0.051583995416445046 0.0011677176477310472 -0.0030676189668184676 0.0 0.0
0.0 0.07692170777984993 -0.0670465644098283 0.06576472463390676 0.001281839775921537 -0.0036701683940905004 0.0 0.0
0.0 0.09507736899758579 -0.08279777172102351 0.08139794742982337 0.0013998242912001081 -0.004252525137309339 0.0 0.0
0.0 0.11449768696344087 -0.09964671460754936 0.09812265920427726 0.0015240554032721282 -0.0047104255185110265 0.0 0.0
0.0 0.13431825684657395 -0.1168255158652344 0.11517217931377066 0.0016533365514637157 -0.004758425637187123 0.0 0.0
0.0 0.15304003004415623 -0.1330638588849885 0.13128116723499614 0.0017826916499923482 -0.003971486577797603 0.0 0.0
0.0 0.16849461569624552 -0.14650427457201531 0.14458405385464793 0.0019202207173673904 -0.002761048458750702 0.0 0.0
0.0 0.17711340514470758 -0.15384354999443633 0.15170252001603815 0.0021410299783981156 -0.008936993145643442 0.0 0.0
0.0 0.16992772821797106 -0.14563575181218427 0.14282301162814232 0.0028127401840418683 -0.04576859388080343 0.0 0.0
0.0 0.16992772821795898 -0.14563575181217295 0.1428230116281314 0.002812740184041469 0.045768593880812655 0.0 0.0
0.0 0.1771134051446664 -0.15384354999440014 0.15170252001600257 0.002141029978397473 0.00893699314565903 0.0 0.0
0.0 0.1684946156961772 -0.14650427457195586 0.14458405385458925 0.0019202207173665319 0.002761048458761017 0.0 0.0
0.0 0.15304003004406744 -0.13306385888491154 0.13128116723491962 0.0017826916499919417 0.003971486577796591 0.0 0.0
0.0 0.13431825684647627 -0.11682551586515004 0.11517217931368613 0.0016533365514638742 0.0047584256371856915 0.0 0.0
0.0 0.11449768696334311 -0.09964671460746449 0.09812265920419296 0.0015240554032714506 0.004710425518511265 0.0 0.0
0.0 0.09507736899748687 -0.08279777172093739 0.0813979474297385 0.0013998242911988296 0.004252525137306623 0.0 0.0
0.0 0.07692170777974977 -0.06704656440974135 0.06576472463382045 0.0012818397759208726 0.003670168394087444 0.0 0.0
0.0 0.060515247652337664 -0.052751713064095554 0.051583995416365595 0.0011677176477299447 0.0030676189668167207 0.0 0.0
0.0 0.04602531319562385 -0.04005418035640014 0.0389992572728703 0.0010549230835298386 0.0024703251935926478 0.0 0.0
0.0 0.03324935928239292 -0.02904585590320944 0.02810172346967861 0.0009441324335308453 0.0018727016436720268 0.0 0.0
0.0 0.022582051475726964 -0.019821021284913604 0.018984296749570605 0.0008367245353429988 0.001299334054819479 0.0 0.0
0.0 0.014104836768088 -0.012469877628643022 0.011738994069826963 0.0007308835588160527 0.0008273740631502839 0.0 0.0
0.0 0.007814236921880735 -0.006996969708906632 0.006390032659876749 0.0006069370490298807 0.0004937118178117272 0.0 0.0
0.0 0.0035600130977307405 -0.0032395528835910594 0.002813981273416103 0.0004255716101749554 0.00026706798644977637 0.0 0.0
0.0 0.0012443395276603077 -0.0009438079064717477 0.000775902456086686 0.0001679054503850623 0.00012236825347068629 0.0 0.0
0.0 7.509691735750275e-05 -5.6094915104806556e-05 4.435310884319947e-05 1.1741806261607081e-05 1.4633225411550704e-05 0.0 0.0
0.0 0.0 0.0 0.0 0.0 0.0 0.0 0.0
0.0 0.0 0.0 0.0 0.0 0.0 0.0 0.0
0.0 0.0 0.0 0.0 0.0 0.0 0.0 0.0